    1C
    1U disc.inp                                                         
    1UUSER                                                              
    1UDATE              26.february.2021                                
    1UTIME              09:09:09                                        
    1UHOST                                                              
    1UPGM               CalculiX                                        
    1UVERSION           Version 2.17                             
    1UCOMPILETIME       Thu Jul 23 21:29:36 CEST 2020                    
    1UDIR                                                               
    1UDBN                                                               
    1UMAT    1STEEL                                                     
    2C                         15523                                     1
 -1         1 2.50000E+01 0.00000E+00 0.00000E+00
 -1         2 1.00000E+02 0.00000E+00 0.00000E+00
 -1         3 6.12323E-15 1.00000E+02 0.00000E+00
 -1         4 1.53081E-15 2.50000E+01 0.00000E+00
 -1         5 2.50000E+01 0.00000E+00 1.00000E+01
 -1         6 1.00000E+02 0.00000E+00 1.00000E+01
 -1         7 6.12323E-15 1.00000E+02 1.00000E+01
 -1         8 1.53081E-15 2.50000E+01 1.00000E+01
 -1         9 2.75000E+01 0.00000E+00 0.00000E+00
 -1        10 3.00000E+01 0.00000E+00 0.00000E+00
 -1        11 3.25000E+01 0.00000E+00 0.00000E+00
 -1        12 3.50000E+01 0.00000E+00 0.00000E+00
 -1        13 3.75000E+01 0.00000E+00 0.00000E+00
 -1        14 4.00000E+01 0.00000E+00 0.00000E+00
 -1        15 4.25000E+01 0.00000E+00 0.00000E+00
 -1        16 4.50000E+01 0.00000E+00 0.00000E+00
 -1        17 4.75000E+01 0.00000E+00 0.00000E+00
 -1        18 5.00000E+01 0.00000E+00 0.00000E+00
 -1        19 5.25000E+01 0.00000E+00 0.00000E+00
 -1        20 5.50000E+01 0.00000E+00 0.00000E+00
 -1        21 5.75000E+01 0.00000E+00 0.00000E+00
 -1        22 6.00000E+01 0.00000E+00 0.00000E+00
 -1        23 6.25000E+01 0.00000E+00 0.00000E+00
 -1        24 6.50000E+01 0.00000E+00 0.00000E+00
 -1        25 6.75000E+01 0.00000E+00 0.00000E+00
 -1        26 7.00000E+01 0.00000E+00 0.00000E+00
 -1        27 7.25000E+01 0.00000E+00 0.00000E+00
 -1        28 7.50000E+01 0.00000E+00 0.00000E+00
 -1        29 7.75000E+01 0.00000E+00 0.00000E+00
 -1        30 8.00000E+01 0.00000E+00 0.00000E+00
 -1        31 8.25000E+01 0.00000E+00 0.00000E+00
 -1        32 8.50000E+01 0.00000E+00 0.00000E+00
 -1        33 8.75000E+01 0.00000E+00 0.00000E+00
 -1        34 9.00000E+01 0.00000E+00 0.00000E+00
 -1        35 9.25000E+01 0.00000E+00 0.00000E+00
 -1        36 9.50000E+01 0.00000E+00 0.00000E+00
 -1        37 9.75000E+01 0.00000E+00 0.00000E+00
 -1        38 2.62500E+01 0.00000E+00 0.00000E+00
 -1        39 2.87500E+01 0.00000E+00 0.00000E+00
 -1        40 3.12500E+01 0.00000E+00 0.00000E+00
 -1        41 3.37500E+01 0.00000E+00 0.00000E+00
 -1        42 3.62500E+01 0.00000E+00 0.00000E+00
 -1        43 3.87500E+01 0.00000E+00 0.00000E+00
 -1        44 4.12500E+01 0.00000E+00 0.00000E+00
 -1        45 4.37500E+01 0.00000E+00 0.00000E+00
 -1        46 4.62500E+01 0.00000E+00 0.00000E+00
 -1        47 4.87500E+01 0.00000E+00 0.00000E+00
 -1        48 5.12500E+01 0.00000E+00 0.00000E+00
 -1        49 5.37500E+01 0.00000E+00 0.00000E+00
 -1        50 5.62500E+01 0.00000E+00 0.00000E+00
 -1        51 5.87500E+01 0.00000E+00 0.00000E+00
 -1        52 6.12500E+01 0.00000E+00 0.00000E+00
 -1        53 6.37500E+01 0.00000E+00 0.00000E+00
 -1        54 6.62500E+01 0.00000E+00 0.00000E+00
 -1        55 6.87500E+01 0.00000E+00 0.00000E+00
 -1        56 7.12500E+01 0.00000E+00 0.00000E+00
 -1        57 7.37500E+01 0.00000E+00 0.00000E+00
 -1        58 7.62500E+01 0.00000E+00 0.00000E+00
 -1        59 7.87500E+01 0.00000E+00 0.00000E+00
 -1        60 8.12500E+01 0.00000E+00 0.00000E+00
 -1        61 8.37500E+01 0.00000E+00 0.00000E+00
 -1        62 8.62500E+01 0.00000E+00 0.00000E+00
 -1        63 8.87500E+01 0.00000E+00 0.00000E+00
 -1        64 9.12500E+01 0.00000E+00 0.00000E+00
 -1        65 9.37500E+01 0.00000E+00 0.00000E+00
 -1        66 9.62500E+01 0.00000E+00 0.00000E+00
 -1        67 9.87500E+01 0.00000E+00 0.00000E+00
 -1        68 9.87688E+01 1.56434E+01 0.00000E+00
 -1        69 9.51057E+01 3.09017E+01 0.00000E+00
 -1        70 8.91007E+01 4.53991E+01 0.00000E+00
 -1        71 8.09017E+01 5.87785E+01 0.00000E+00
 -1        72 7.07107E+01 7.07107E+01 0.00000E+00
 -1        73 5.87785E+01 8.09017E+01 0.00000E+00
 -1        74 4.53991E+01 8.91007E+01 0.00000E+00
 -1        75 3.09017E+01 9.51057E+01 0.00000E+00
 -1        76 1.56434E+01 9.87688E+01 0.00000E+00
 -1        77 9.96917E+01 7.84591E+00 0.00000E+00
 -1        78 9.72370E+01 2.33445E+01 0.00000E+00
 -1        79 9.23880E+01 3.82683E+01 0.00000E+00
 -1        80 8.52640E+01 5.22499E+01 0.00000E+00
 -1        81 7.60406E+01 6.49448E+01 0.00000E+00
 -1        82 6.49448E+01 7.60406E+01 0.00000E+00
 -1        83 5.22499E+01 8.52640E+01 0.00000E+00
 -1        84 3.82683E+01 9.23880E+01 0.00000E+00
 -1        85 2.33445E+01 9.72370E+01 0.00000E+00
 -1        86 7.84591E+00 9.96917E+01 0.00000E+00
 -1        87 5.97015E-15 9.75000E+01 0.00000E+00
 -1        88 5.81707E-15 9.50000E+01 0.00000E+00
 -1        89 5.66399E-15 9.25000E+01 0.00000E+00
 -1        90 5.51091E-15 9.00000E+01 0.00000E+00
 -1        91 5.35783E-15 8.75000E+01 0.00000E+00
 -1        92 5.20475E-15 8.50000E+01 0.00000E+00
 -1        93 5.05167E-15 8.25000E+01 0.00000E+00
 -1        94 4.89859E-15 8.00000E+01 0.00000E+00
 -1        95 4.74551E-15 7.75000E+01 0.00000E+00
 -1        96 4.59243E-15 7.50000E+01 0.00000E+00
 -1        97 4.43934E-15 7.25000E+01 0.00000E+00
 -1        98 4.28626E-15 7.00000E+01 0.00000E+00
 -1        99 4.13318E-15 6.75000E+01 0.00000E+00
 -1       100 3.98010E-15 6.50000E+01 0.00000E+00
 -1       101 3.82702E-15 6.25000E+01 0.00000E+00
 -1       102 3.67394E-15 6.00000E+01 0.00000E+00
 -1       103 3.52086E-15 5.75000E+01 0.00000E+00
 -1       104 3.36778E-15 5.50000E+01 0.00000E+00
 -1       105 3.21470E-15 5.25000E+01 0.00000E+00
 -1       106 3.06162E-15 5.00000E+01 0.00000E+00
 -1       107 2.90854E-15 4.75000E+01 0.00000E+00
 -1       108 2.75546E-15 4.50000E+01 0.00000E+00
 -1       109 2.60237E-15 4.25000E+01 0.00000E+00
 -1       110 2.44929E-15 4.00000E+01 0.00000E+00
 -1       111 2.29621E-15 3.75000E+01 0.00000E+00
 -1       112 2.14313E-15 3.50000E+01 0.00000E+00
 -1       113 1.99005E-15 3.25000E+01 0.00000E+00
 -1       114 1.83697E-15 3.00000E+01 0.00000E+00
 -1       115 1.68389E-15 2.75000E+01 0.00000E+00
 -1       116 6.04669E-15 9.87500E+01 0.00000E+00
 -1       117 5.89361E-15 9.62500E+01 0.00000E+00
 -1       118 5.74053E-15 9.37500E+01 0.00000E+00
 -1       119 5.58745E-15 9.12500E+01 0.00000E+00
 -1       120 5.43437E-15 8.87500E+01 0.00000E+00
 -1       121 5.28129E-15 8.62500E+01 0.00000E+00
 -1       122 5.12821E-15 8.37500E+01 0.00000E+00
 -1       123 4.97513E-15 8.12500E+01 0.00000E+00
 -1       124 4.82205E-15 7.87500E+01 0.00000E+00
 -1       125 4.66897E-15 7.62500E+01 0.00000E+00
 -1       126 4.51589E-15 7.37500E+01 0.00000E+00
 -1       127 4.36280E-15 7.12500E+01 0.00000E+00
 -1       128 4.20972E-15 6.87500E+01 0.00000E+00
 -1       129 4.05664E-15 6.62500E+01 0.00000E+00
 -1       130 3.90356E-15 6.37500E+01 0.00000E+00
 -1       131 3.75048E-15 6.12500E+01 0.00000E+00
 -1       132 3.59740E-15 5.87500E+01 0.00000E+00
 -1       133 3.44432E-15 5.62500E+01 0.00000E+00
 -1       134 3.29124E-15 5.37500E+01 0.00000E+00
 -1       135 3.13816E-15 5.12500E+01 0.00000E+00
 -1       136 2.98508E-15 4.87500E+01 0.00000E+00
 -1       137 2.83200E-15 4.62500E+01 0.00000E+00
 -1       138 2.67891E-15 4.37500E+01 0.00000E+00
 -1       139 2.52583E-15 4.12500E+01 0.00000E+00
 -1       140 2.37275E-15 3.87500E+01 0.00000E+00
 -1       141 2.21967E-15 3.62500E+01 0.00000E+00
 -1       142 2.06659E-15 3.37500E+01 0.00000E+00
 -1       143 1.91351E-15 3.12500E+01 0.00000E+00
 -1       144 1.76043E-15 2.87500E+01 0.00000E+00
 -1       145 1.60735E-15 2.62500E+01 0.00000E+00
 -1       146 3.91086E+00 2.46922E+01 0.00000E+00
 -1       147 7.72542E+00 2.37764E+01 0.00000E+00
 -1       148 1.13498E+01 2.22752E+01 0.00000E+00
 -1       149 1.46946E+01 2.02254E+01 0.00000E+00
 -1       150 1.76777E+01 1.76777E+01 0.00000E+00
 -1       151 2.02254E+01 1.46946E+01 0.00000E+00
 -1       152 2.22752E+01 1.13498E+01 0.00000E+00
 -1       153 2.37764E+01 7.72542E+00 0.00000E+00
 -1       154 2.46922E+01 3.91086E+00 0.00000E+00
 -1       155 1.96148E+00 2.49229E+01 0.00000E+00
 -1       156 5.83613E+00 2.43092E+01 0.00000E+00
 -1       157 9.56709E+00 2.30970E+01 0.00000E+00
 -1       158 1.30625E+01 2.13160E+01 0.00000E+00
 -1       159 1.62362E+01 1.90101E+01 0.00000E+00
 -1       160 1.90101E+01 1.62362E+01 0.00000E+00
 -1       161 2.13160E+01 1.30625E+01 0.00000E+00
 -1       162 2.30970E+01 9.56709E+00 0.00000E+00
 -1       163 2.43092E+01 5.83613E+00 0.00000E+00
 -1       164 2.49229E+01 1.96148E+00 0.00000E+00
 -1       165 2.75000E+01 0.00000E+00 1.00000E+01
 -1       166 3.00000E+01 0.00000E+00 1.00000E+01
 -1       167 3.25000E+01 0.00000E+00 1.00000E+01
 -1       168 3.50000E+01 0.00000E+00 1.00000E+01
 -1       169 3.75000E+01 0.00000E+00 1.00000E+01
 -1       170 4.00000E+01 0.00000E+00 1.00000E+01
 -1       171 4.25000E+01 0.00000E+00 1.00000E+01
 -1       172 4.50000E+01 0.00000E+00 1.00000E+01
 -1       173 4.75000E+01 0.00000E+00 1.00000E+01
 -1       174 5.00000E+01 0.00000E+00 1.00000E+01
 -1       175 5.25000E+01 0.00000E+00 1.00000E+01
 -1       176 5.50000E+01 0.00000E+00 1.00000E+01
 -1       177 5.75000E+01 0.00000E+00 1.00000E+01
 -1       178 6.00000E+01 0.00000E+00 1.00000E+01
 -1       179 6.25000E+01 0.00000E+00 1.00000E+01
 -1       180 6.50000E+01 0.00000E+00 1.00000E+01
 -1       181 6.75000E+01 0.00000E+00 1.00000E+01
 -1       182 7.00000E+01 0.00000E+00 1.00000E+01
 -1       183 7.25000E+01 0.00000E+00 1.00000E+01
 -1       184 7.50000E+01 0.00000E+00 1.00000E+01
 -1       185 7.75000E+01 0.00000E+00 1.00000E+01
 -1       186 8.00000E+01 0.00000E+00 1.00000E+01
 -1       187 8.25000E+01 0.00000E+00 1.00000E+01
 -1       188 8.50000E+01 0.00000E+00 1.00000E+01
 -1       189 8.75000E+01 0.00000E+00 1.00000E+01
 -1       190 9.00000E+01 0.00000E+00 1.00000E+01
 -1       191 9.25000E+01 0.00000E+00 1.00000E+01
 -1       192 9.50000E+01 0.00000E+00 1.00000E+01
 -1       193 9.75000E+01 0.00000E+00 1.00000E+01
 -1       194 2.62500E+01 0.00000E+00 1.00000E+01
 -1       195 2.87500E+01 0.00000E+00 1.00000E+01
 -1       196 3.12500E+01 0.00000E+00 1.00000E+01
 -1       197 3.37500E+01 0.00000E+00 1.00000E+01
 -1       198 3.62500E+01 0.00000E+00 1.00000E+01
 -1       199 3.87500E+01 0.00000E+00 1.00000E+01
 -1       200 4.12500E+01 0.00000E+00 1.00000E+01
 -1       201 4.37500E+01 0.00000E+00 1.00000E+01
 -1       202 4.62500E+01 0.00000E+00 1.00000E+01
 -1       203 4.87500E+01 0.00000E+00 1.00000E+01
 -1       204 5.12500E+01 0.00000E+00 1.00000E+01
 -1       205 5.37500E+01 0.00000E+00 1.00000E+01
 -1       206 5.62500E+01 0.00000E+00 1.00000E+01
 -1       207 5.87500E+01 0.00000E+00 1.00000E+01
 -1       208 6.12500E+01 0.00000E+00 1.00000E+01
 -1       209 6.37500E+01 0.00000E+00 1.00000E+01
 -1       210 6.62500E+01 0.00000E+00 1.00000E+01
 -1       211 6.87500E+01 0.00000E+00 1.00000E+01
 -1       212 7.12500E+01 0.00000E+00 1.00000E+01
 -1       213 7.37500E+01 0.00000E+00 1.00000E+01
 -1       214 7.62500E+01 0.00000E+00 1.00000E+01
 -1       215 7.87500E+01 0.00000E+00 1.00000E+01
 -1       216 8.12500E+01 0.00000E+00 1.00000E+01
 -1       217 8.37500E+01 0.00000E+00 1.00000E+01
 -1       218 8.62500E+01 0.00000E+00 1.00000E+01
 -1       219 8.87500E+01 0.00000E+00 1.00000E+01
 -1       220 9.12500E+01 0.00000E+00 1.00000E+01
 -1       221 9.37500E+01 0.00000E+00 1.00000E+01
 -1       222 9.62500E+01 0.00000E+00 1.00000E+01
 -1       223 9.87500E+01 0.00000E+00 1.00000E+01
 -1       224 9.87688E+01 1.56434E+01 1.00000E+01
 -1       225 9.51057E+01 3.09017E+01 1.00000E+01
 -1       226 8.91007E+01 4.53991E+01 1.00000E+01
 -1       227 8.09017E+01 5.87785E+01 1.00000E+01
 -1       228 7.07107E+01 7.07107E+01 1.00000E+01
 -1       229 5.87785E+01 8.09017E+01 1.00000E+01
 -1       230 4.53991E+01 8.91007E+01 1.00000E+01
 -1       231 3.09017E+01 9.51057E+01 1.00000E+01
 -1       232 1.56434E+01 9.87688E+01 1.00000E+01
 -1       233 9.96917E+01 7.84591E+00 1.00000E+01
 -1       234 9.72370E+01 2.33445E+01 1.00000E+01
 -1       235 9.23880E+01 3.82683E+01 1.00000E+01
 -1       236 8.52640E+01 5.22499E+01 1.00000E+01
 -1       237 7.60406E+01 6.49448E+01 1.00000E+01
 -1       238 6.49448E+01 7.60406E+01 1.00000E+01
 -1       239 5.22499E+01 8.52640E+01 1.00000E+01
 -1       240 3.82683E+01 9.23880E+01 1.00000E+01
 -1       241 2.33445E+01 9.72370E+01 1.00000E+01
 -1       242 7.84591E+00 9.96917E+01 1.00000E+01
 -1       243 5.97015E-15 9.75000E+01 1.00000E+01
 -1       244 5.81707E-15 9.50000E+01 1.00000E+01
 -1       245 5.66399E-15 9.25000E+01 1.00000E+01
 -1       246 5.51091E-15 9.00000E+01 1.00000E+01
 -1       247 5.35783E-15 8.75000E+01 1.00000E+01
 -1       248 5.20475E-15 8.50000E+01 1.00000E+01
 -1       249 5.05167E-15 8.25000E+01 1.00000E+01
 -1       250 4.89859E-15 8.00000E+01 1.00000E+01
 -1       251 4.74551E-15 7.75000E+01 1.00000E+01
 -1       252 4.59243E-15 7.50000E+01 1.00000E+01
 -1       253 4.43934E-15 7.25000E+01 1.00000E+01
 -1       254 4.28626E-15 7.00000E+01 1.00000E+01
 -1       255 4.13318E-15 6.75000E+01 1.00000E+01
 -1       256 3.98010E-15 6.50000E+01 1.00000E+01
 -1       257 3.82702E-15 6.25000E+01 1.00000E+01
 -1       258 3.67394E-15 6.00000E+01 1.00000E+01
 -1       259 3.52086E-15 5.75000E+01 1.00000E+01
 -1       260 3.36778E-15 5.50000E+01 1.00000E+01
 -1       261 3.21470E-15 5.25000E+01 1.00000E+01
 -1       262 3.06162E-15 5.00000E+01 1.00000E+01
 -1       263 2.90854E-15 4.75000E+01 1.00000E+01
 -1       264 2.75546E-15 4.50000E+01 1.00000E+01
 -1       265 2.60237E-15 4.25000E+01 1.00000E+01
 -1       266 2.44929E-15 4.00000E+01 1.00000E+01
 -1       267 2.29621E-15 3.75000E+01 1.00000E+01
 -1       268 2.14313E-15 3.50000E+01 1.00000E+01
 -1       269 1.99005E-15 3.25000E+01 1.00000E+01
 -1       270 1.83697E-15 3.00000E+01 1.00000E+01
 -1       271 1.68389E-15 2.75000E+01 1.00000E+01
 -1       272 6.04669E-15 9.87500E+01 1.00000E+01
 -1       273 5.89361E-15 9.62500E+01 1.00000E+01
 -1       274 5.74053E-15 9.37500E+01 1.00000E+01
 -1       275 5.58745E-15 9.12500E+01 1.00000E+01
 -1       276 5.43437E-15 8.87500E+01 1.00000E+01
 -1       277 5.28129E-15 8.62500E+01 1.00000E+01
 -1       278 5.12821E-15 8.37500E+01 1.00000E+01
 -1       279 4.97513E-15 8.12500E+01 1.00000E+01
 -1       280 4.82205E-15 7.87500E+01 1.00000E+01
 -1       281 4.66897E-15 7.62500E+01 1.00000E+01
 -1       282 4.51589E-15 7.37500E+01 1.00000E+01
 -1       283 4.36280E-15 7.12500E+01 1.00000E+01
 -1       284 4.20972E-15 6.87500E+01 1.00000E+01
 -1       285 4.05664E-15 6.62500E+01 1.00000E+01
 -1       286 3.90356E-15 6.37500E+01 1.00000E+01
 -1       287 3.75048E-15 6.12500E+01 1.00000E+01
 -1       288 3.59740E-15 5.87500E+01 1.00000E+01
 -1       289 3.44432E-15 5.62500E+01 1.00000E+01
 -1       290 3.29124E-15 5.37500E+01 1.00000E+01
 -1       291 3.13816E-15 5.12500E+01 1.00000E+01
 -1       292 2.98508E-15 4.87500E+01 1.00000E+01
 -1       293 2.83200E-15 4.62500E+01 1.00000E+01
 -1       294 2.67891E-15 4.37500E+01 1.00000E+01
 -1       295 2.52583E-15 4.12500E+01 1.00000E+01
 -1       296 2.37275E-15 3.87500E+01 1.00000E+01
 -1       297 2.21967E-15 3.62500E+01 1.00000E+01
 -1       298 2.06659E-15 3.37500E+01 1.00000E+01
 -1       299 1.91351E-15 3.12500E+01 1.00000E+01
 -1       300 1.76043E-15 2.87500E+01 1.00000E+01
 -1       301 1.60735E-15 2.62500E+01 1.00000E+01
 -1       302 3.91086E+00 2.46922E+01 1.00000E+01
 -1       303 7.72542E+00 2.37764E+01 1.00000E+01
 -1       304 1.13498E+01 2.22752E+01 1.00000E+01
 -1       305 1.46946E+01 2.02254E+01 1.00000E+01
 -1       306 1.76777E+01 1.76777E+01 1.00000E+01
 -1       307 2.02254E+01 1.46946E+01 1.00000E+01
 -1       308 2.22752E+01 1.13498E+01 1.00000E+01
 -1       309 2.37764E+01 7.72542E+00 1.00000E+01
 -1       310 2.46922E+01 3.91086E+00 1.00000E+01
 -1       311 1.96148E+00 2.49229E+01 1.00000E+01
 -1       312 5.83613E+00 2.43092E+01 1.00000E+01
 -1       313 9.56709E+00 2.30970E+01 1.00000E+01
 -1       314 1.30625E+01 2.13160E+01 1.00000E+01
 -1       315 1.62362E+01 1.90101E+01 1.00000E+01
 -1       316 1.90101E+01 1.62362E+01 1.00000E+01
 -1       317 2.13160E+01 1.30625E+01 1.00000E+01
 -1       318 2.30970E+01 9.56709E+00 1.00000E+01
 -1       319 2.43092E+01 5.83613E+00 1.00000E+01
 -1       320 2.49229E+01 1.96148E+00 1.00000E+01
 -1       321 2.50000E+01 0.00000E+00 9.09091E-01
 -1       322 2.50000E+01 0.00000E+00 1.81818E+00
 -1       323 2.50000E+01 0.00000E+00 2.72727E+00
 -1       324 2.50000E+01 0.00000E+00 3.63636E+00
 -1       325 2.50000E+01 0.00000E+00 4.54545E+00
 -1       326 2.50000E+01 0.00000E+00 5.45455E+00
 -1       327 2.50000E+01 0.00000E+00 6.36364E+00
 -1       328 2.50000E+01 0.00000E+00 7.27273E+00
 -1       329 2.50000E+01 0.00000E+00 8.18182E+00
 -1       330 2.50000E+01 0.00000E+00 9.09091E+00
 -1       331 2.50000E+01 0.00000E+00 4.54545E-01
 -1       332 2.50000E+01 0.00000E+00 1.36364E+00
 -1       333 2.50000E+01 0.00000E+00 2.27273E+00
 -1       334 2.50000E+01 0.00000E+00 3.18182E+00
 -1       335 2.50000E+01 0.00000E+00 4.09091E+00
 -1       336 2.50000E+01 0.00000E+00 5.00000E+00
 -1       337 2.50000E+01 0.00000E+00 5.90909E+00
 -1       338 2.50000E+01 0.00000E+00 6.81818E+00
 -1       339 2.50000E+01 0.00000E+00 7.72727E+00
 -1       340 2.50000E+01 0.00000E+00 8.63636E+00
 -1       341 2.50000E+01 0.00000E+00 9.54545E+00
 -1       342 1.00000E+02 0.00000E+00 9.09091E-01
 -1       343 1.00000E+02 0.00000E+00 1.81818E+00
 -1       344 1.00000E+02 0.00000E+00 2.72727E+00
 -1       345 1.00000E+02 0.00000E+00 3.63636E+00
 -1       346 1.00000E+02 0.00000E+00 4.54545E+00
 -1       347 1.00000E+02 0.00000E+00 5.45455E+00
 -1       348 1.00000E+02 0.00000E+00 6.36364E+00
 -1       349 1.00000E+02 0.00000E+00 7.27273E+00
 -1       350 1.00000E+02 0.00000E+00 8.18182E+00
 -1       351 1.00000E+02 0.00000E+00 9.09091E+00
 -1       352 1.00000E+02 0.00000E+00 4.54545E-01
 -1       353 1.00000E+02 0.00000E+00 1.36364E+00
 -1       354 1.00000E+02 0.00000E+00 2.27273E+00
 -1       355 1.00000E+02 0.00000E+00 3.18182E+00
 -1       356 1.00000E+02 0.00000E+00 4.09091E+00
 -1       357 1.00000E+02 0.00000E+00 5.00000E+00
 -1       358 1.00000E+02 0.00000E+00 5.90909E+00
 -1       359 1.00000E+02 0.00000E+00 6.81818E+00
 -1       360 1.00000E+02 0.00000E+00 7.72727E+00
 -1       361 1.00000E+02 0.00000E+00 8.63636E+00
 -1       362 1.00000E+02 0.00000E+00 9.54545E+00
 -1       363 6.12323E-15 1.00000E+02 9.09091E-01
 -1       364 6.12323E-15 1.00000E+02 1.81818E+00
 -1       365 6.12323E-15 1.00000E+02 2.72727E+00
 -1       366 6.12323E-15 1.00000E+02 3.63636E+00
 -1       367 6.12323E-15 1.00000E+02 4.54545E+00
 -1       368 6.12323E-15 1.00000E+02 5.45455E+00
 -1       369 6.12323E-15 1.00000E+02 6.36364E+00
 -1       370 6.12323E-15 1.00000E+02 7.27273E+00
 -1       371 6.12323E-15 1.00000E+02 8.18182E+00
 -1       372 6.12323E-15 1.00000E+02 9.09091E+00
 -1       373 6.12323E-15 1.00000E+02 4.54545E-01
 -1       374 6.12323E-15 1.00000E+02 1.36364E+00
 -1       375 6.12323E-15 1.00000E+02 2.27273E+00
 -1       376 6.12323E-15 1.00000E+02 3.18182E+00
 -1       377 6.12323E-15 1.00000E+02 4.09091E+00
 -1       378 6.12323E-15 1.00000E+02 5.00000E+00
 -1       379 6.12323E-15 1.00000E+02 5.90909E+00
 -1       380 6.12323E-15 1.00000E+02 6.81818E+00
 -1       381 6.12323E-15 1.00000E+02 7.72727E+00
 -1       382 6.12323E-15 1.00000E+02 8.63636E+00
 -1       383 6.12323E-15 1.00000E+02 9.54545E+00
 -1       384 1.53081E-15 2.50000E+01 9.09091E-01
 -1       385 1.53081E-15 2.50000E+01 1.81818E+00
 -1       386 1.53081E-15 2.50000E+01 2.72727E+00
 -1       387 1.53081E-15 2.50000E+01 3.63636E+00
 -1       388 1.53081E-15 2.50000E+01 4.54545E+00
 -1       389 1.53081E-15 2.50000E+01 5.45455E+00
 -1       390 1.53081E-15 2.50000E+01 6.36364E+00
 -1       391 1.53081E-15 2.50000E+01 7.27273E+00
 -1       392 1.53081E-15 2.50000E+01 8.18182E+00
 -1       393 1.53081E-15 2.50000E+01 9.09091E+00
 -1       394 1.53081E-15 2.50000E+01 4.54545E-01
 -1       395 1.53081E-15 2.50000E+01 1.36364E+00
 -1       396 1.53081E-15 2.50000E+01 2.27273E+00
 -1       397 1.53081E-15 2.50000E+01 3.18182E+00
 -1       398 1.53081E-15 2.50000E+01 4.09091E+00
 -1       399 1.53081E-15 2.50000E+01 5.00000E+00
 -1       400 1.53081E-15 2.50000E+01 5.90909E+00
 -1       401 1.53081E-15 2.50000E+01 6.81818E+00
 -1       402 1.53081E-15 2.50000E+01 7.72727E+00
 -1       403 1.53081E-15 2.50000E+01 8.63636E+00
 -1       404 1.53081E-15 2.50000E+01 9.54545E+00
 -1       405 2.71614E+01 4.30195E+00 0.00000E+00
 -1       406 2.61541E+01 8.49797E+00 0.00000E+00
 -1       407 2.45027E+01 1.24847E+01 0.00000E+00
 -1       408 2.22480E+01 1.61641E+01 0.00000E+00
 -1       409 1.94454E+01 1.94454E+01 0.00000E+00
 -1       410 1.61641E+01 2.22480E+01 0.00000E+00
 -1       411 1.24847E+01 2.45027E+01 0.00000E+00
 -1       412 8.49797E+00 2.61541E+01 0.00000E+00
 -1       413 4.30195E+00 2.71614E+01 0.00000E+00
 -1       414 2.96306E+01 4.69303E+00 0.00000E+00
 -1       415 2.85317E+01 9.27051E+00 0.00000E+00
 -1       416 2.67302E+01 1.36197E+01 0.00000E+00
 -1       417 2.42705E+01 1.76336E+01 0.00000E+00
 -1       418 2.12132E+01 2.12132E+01 0.00000E+00
 -1       419 1.76336E+01 2.42705E+01 0.00000E+00
 -1       420 1.36197E+01 2.67302E+01 0.00000E+00
 -1       421 9.27051E+00 2.85317E+01 0.00000E+00
 -1       422 4.69303E+00 2.96306E+01 0.00000E+00
 -1       423 3.20999E+01 5.08412E+00 0.00000E+00
 -1       424 3.09093E+01 1.00431E+01 0.00000E+00
 -1       425 2.89577E+01 1.47547E+01 0.00000E+00
 -1       426 2.62931E+01 1.91030E+01 0.00000E+00
 -1       427 2.29810E+01 2.29810E+01 0.00000E+00
 -1       428 1.91030E+01 2.62931E+01 0.00000E+00
 -1       429 1.47547E+01 2.89577E+01 0.00000E+00
 -1       430 1.00431E+01 3.09093E+01 0.00000E+00
 -1       431 5.08412E+00 3.20999E+01 0.00000E+00
 -1       432 3.45691E+01 5.47521E+00 0.00000E+00
 -1       433 3.32870E+01 1.08156E+01 0.00000E+00
 -1       434 3.11852E+01 1.58897E+01 0.00000E+00
 -1       435 2.83156E+01 2.05725E+01 0.00000E+00
 -1       436 2.47487E+01 2.47487E+01 0.00000E+00
 -1       437 2.05725E+01 2.83156E+01 0.00000E+00
 -1       438 1.58897E+01 3.11852E+01 0.00000E+00
 -1       439 1.08156E+01 3.32870E+01 0.00000E+00
 -1       440 5.47521E+00 3.45691E+01 0.00000E+00
 -1       441 3.70383E+01 5.86629E+00 0.00000E+00
 -1       442 3.56646E+01 1.15881E+01 0.00000E+00
 -1       443 3.34127E+01 1.70246E+01 0.00000E+00
 -1       444 3.03381E+01 2.20419E+01 0.00000E+00
 -1       445 2.65165E+01 2.65165E+01 0.00000E+00
 -1       446 2.20419E+01 3.03381E+01 0.00000E+00
 -1       447 1.70246E+01 3.34127E+01 0.00000E+00
 -1       448 1.15881E+01 3.56646E+01 0.00000E+00
 -1       449 5.86629E+00 3.70383E+01 0.00000E+00
 -1       450 3.95075E+01 6.25738E+00 0.00000E+00
 -1       451 3.80423E+01 1.23607E+01 0.00000E+00
 -1       452 3.56403E+01 1.81596E+01 0.00000E+00
 -1       453 3.23607E+01 2.35114E+01 0.00000E+00
 -1       454 2.82843E+01 2.82843E+01 0.00000E+00
 -1       455 2.35114E+01 3.23607E+01 0.00000E+00
 -1       456 1.81596E+01 3.56403E+01 0.00000E+00
 -1       457 1.23607E+01 3.80423E+01 0.00000E+00
 -1       458 6.25738E+00 3.95075E+01 0.00000E+00
 -1       459 4.19768E+01 6.64846E+00 0.00000E+00
 -1       460 4.04199E+01 1.31332E+01 0.00000E+00
 -1       461 3.78678E+01 1.92946E+01 0.00000E+00
 -1       462 3.43832E+01 2.49809E+01 0.00000E+00
 -1       463 3.00520E+01 3.00520E+01 0.00000E+00
 -1       464 2.49809E+01 3.43832E+01 0.00000E+00
 -1       465 1.92946E+01 3.78678E+01 0.00000E+00
 -1       466 1.31332E+01 4.04199E+01 0.00000E+00
 -1       467 6.64846E+00 4.19768E+01 0.00000E+00
 -1       468 4.44460E+01 7.03955E+00 0.00000E+00
 -1       469 4.27975E+01 1.39058E+01 0.00000E+00
 -1       470 4.00953E+01 2.04296E+01 0.00000E+00
 -1       471 3.64058E+01 2.64503E+01 0.00000E+00
 -1       472 3.18198E+01 3.18198E+01 0.00000E+00
 -1       473 2.64503E+01 3.64058E+01 0.00000E+00
 -1       474 2.04296E+01 4.00953E+01 0.00000E+00
 -1       475 1.39058E+01 4.27975E+01 0.00000E+00
 -1       476 7.03955E+00 4.44460E+01 0.00000E+00
 -1       477 4.69152E+01 7.43064E+00 0.00000E+00
 -1       478 4.51752E+01 1.46783E+01 0.00000E+00
 -1       479 4.23228E+01 2.15645E+01 0.00000E+00
 -1       480 3.84283E+01 2.79198E+01 0.00000E+00
 -1       481 3.35876E+01 3.35876E+01 0.00000E+00
 -1       482 2.79198E+01 3.84283E+01 0.00000E+00
 -1       483 2.15645E+01 4.23228E+01 0.00000E+00
 -1       484 1.46783E+01 4.51752E+01 0.00000E+00
 -1       485 7.43064E+00 4.69152E+01 0.00000E+00
 -1       486 4.93844E+01 7.82172E+00 0.00000E+00
 -1       487 4.75528E+01 1.54508E+01 0.00000E+00
 -1       488 4.45503E+01 2.26995E+01 0.00000E+00
 -1       489 4.04509E+01 2.93893E+01 0.00000E+00
 -1       490 3.53553E+01 3.53553E+01 0.00000E+00
 -1       491 2.93893E+01 4.04509E+01 0.00000E+00
 -1       492 2.26995E+01 4.45503E+01 0.00000E+00
 -1       493 1.54508E+01 4.75528E+01 0.00000E+00
 -1       494 7.82172E+00 4.93844E+01 0.00000E+00
 -1       495 5.18536E+01 8.21281E+00 0.00000E+00
 -1       496 4.99305E+01 1.62234E+01 0.00000E+00
 -1       497 4.67778E+01 2.38345E+01 0.00000E+00
 -1       498 4.24734E+01 3.08587E+01 0.00000E+00
 -1       499 3.71231E+01 3.71231E+01 0.00000E+00
 -1       500 3.08587E+01 4.24734E+01 0.00000E+00
 -1       501 2.38345E+01 4.67778E+01 0.00000E+00
 -1       502 1.62234E+01 4.99305E+01 0.00000E+00
 -1       503 8.21281E+00 5.18536E+01 0.00000E+00
 -1       504 5.43229E+01 8.60390E+00 0.00000E+00
 -1       505 5.23081E+01 1.69959E+01 0.00000E+00
 -1       506 4.90054E+01 2.49695E+01 0.00000E+00
 -1       507 4.44959E+01 3.23282E+01 0.00000E+00
 -1       508 3.88909E+01 3.88909E+01 0.00000E+00
 -1       509 3.23282E+01 4.44959E+01 0.00000E+00
 -1       510 2.49695E+01 4.90054E+01 0.00000E+00
 -1       511 1.69959E+01 5.23081E+01 0.00000E+00
 -1       512 8.60390E+00 5.43229E+01 0.00000E+00
 -1       513 5.67921E+01 8.99498E+00 0.00000E+00
 -1       514 5.46857E+01 1.77685E+01 0.00000E+00
 -1       515 5.12329E+01 2.61045E+01 0.00000E+00
 -1       516 4.65185E+01 3.37977E+01 0.00000E+00
 -1       517 4.06586E+01 4.06586E+01 0.00000E+00
 -1       518 3.37977E+01 4.65185E+01 0.00000E+00
 -1       519 2.61045E+01 5.12329E+01 0.00000E+00
 -1       520 1.77685E+01 5.46857E+01 0.00000E+00
 -1       521 8.99498E+00 5.67921E+01 0.00000E+00
 -1       522 5.92613E+01 9.38607E+00 0.00000E+00
 -1       523 5.70634E+01 1.85410E+01 0.00000E+00
 -1       524 5.34604E+01 2.72394E+01 0.00000E+00
 -1       525 4.85410E+01 3.52671E+01 0.00000E+00
 -1       526 4.24264E+01 4.24264E+01 0.00000E+00
 -1       527 3.52671E+01 4.85410E+01 0.00000E+00
 -1       528 2.72394E+01 5.34604E+01 0.00000E+00
 -1       529 1.85410E+01 5.70634E+01 0.00000E+00
 -1       530 9.38607E+00 5.92613E+01 0.00000E+00
 -1       531 6.17305E+01 9.77715E+00 0.00000E+00
 -1       532 5.94410E+01 1.93136E+01 0.00000E+00
 -1       533 5.56879E+01 2.83744E+01 0.00000E+00
 -1       534 5.05636E+01 3.67366E+01 0.00000E+00
 -1       535 4.41942E+01 4.41942E+01 0.00000E+00
 -1       536 3.67366E+01 5.05636E+01 0.00000E+00
 -1       537 2.83744E+01 5.56879E+01 0.00000E+00
 -1       538 1.93136E+01 5.94410E+01 0.00000E+00
 -1       539 9.77715E+00 6.17305E+01 0.00000E+00
 -1       540 6.41997E+01 1.01682E+01 0.00000E+00
 -1       541 6.18187E+01 2.00861E+01 0.00000E+00
 -1       542 5.79154E+01 2.95094E+01 0.00000E+00
 -1       543 5.25861E+01 3.82060E+01 0.00000E+00
 -1       544 4.59619E+01 4.59619E+01 0.00000E+00
 -1       545 3.82060E+01 5.25861E+01 0.00000E+00
 -1       546 2.95094E+01 5.79154E+01 0.00000E+00
 -1       547 2.00861E+01 6.18187E+01 0.00000E+00
 -1       548 1.01682E+01 6.41997E+01 0.00000E+00
 -1       549 6.66690E+01 1.05593E+01 0.00000E+00
 -1       550 6.41963E+01 2.08586E+01 0.00000E+00
 -1       551 6.01429E+01 3.06444E+01 0.00000E+00
 -1       552 5.46086E+01 3.96755E+01 0.00000E+00
 -1       553 4.77297E+01 4.77297E+01 0.00000E+00
 -1       554 3.96755E+01 5.46086E+01 0.00000E+00
 -1       555 3.06444E+01 6.01429E+01 0.00000E+00
 -1       556 2.08586E+01 6.41963E+01 0.00000E+00
 -1       557 1.05593E+01 6.66690E+01 0.00000E+00
 -1       558 6.91382E+01 1.09504E+01 0.00000E+00
 -1       559 6.65740E+01 2.16312E+01 0.00000E+00
 -1       560 6.23705E+01 3.17793E+01 0.00000E+00
 -1       561 5.66312E+01 4.11450E+01 0.00000E+00
 -1       562 4.94975E+01 4.94975E+01 0.00000E+00
 -1       563 4.11450E+01 5.66312E+01 0.00000E+00
 -1       564 3.17793E+01 6.23705E+01 0.00000E+00
 -1       565 2.16312E+01 6.65740E+01 0.00000E+00
 -1       566 1.09504E+01 6.91382E+01 0.00000E+00
 -1       567 7.16074E+01 1.13415E+01 0.00000E+00
 -1       568 6.89516E+01 2.24037E+01 0.00000E+00
 -1       569 6.45980E+01 3.29143E+01 0.00000E+00
 -1       570 5.86537E+01 4.26144E+01 0.00000E+00
 -1       571 5.12652E+01 5.12652E+01 0.00000E+00
 -1       572 4.26144E+01 5.86537E+01 0.00000E+00
 -1       573 3.29143E+01 6.45980E+01 0.00000E+00
 -1       574 2.24037E+01 6.89516E+01 0.00000E+00
 -1       575 1.13415E+01 7.16074E+01 0.00000E+00
 -1       576 7.40766E+01 1.17326E+01 0.00000E+00
 -1       577 7.13292E+01 2.31763E+01 0.00000E+00
 -1       578 6.68255E+01 3.40493E+01 0.00000E+00
 -1       579 6.06763E+01 4.40839E+01 0.00000E+00
 -1       580 5.30330E+01 5.30330E+01 0.00000E+00
 -1       581 4.40839E+01 6.06763E+01 0.00000E+00
 -1       582 3.40493E+01 6.68255E+01 0.00000E+00
 -1       583 2.31763E+01 7.13292E+01 0.00000E+00
 -1       584 1.17326E+01 7.40766E+01 0.00000E+00
 -1       585 7.65458E+01 1.21237E+01 0.00000E+00
 -1       586 7.37069E+01 2.39488E+01 0.00000E+00
 -1       587 6.90530E+01 3.51843E+01 0.00000E+00
 -1       588 6.26988E+01 4.55534E+01 0.00000E+00
 -1       589 5.48008E+01 5.48008E+01 0.00000E+00
 -1       590 4.55534E+01 6.26988E+01 0.00000E+00
 -1       591 3.51843E+01 6.90530E+01 0.00000E+00
 -1       592 2.39488E+01 7.37069E+01 0.00000E+00
 -1       593 1.21237E+01 7.65458E+01 0.00000E+00
 -1       594 7.90151E+01 1.25148E+01 0.00000E+00
 -1       595 7.60845E+01 2.47214E+01 0.00000E+00
 -1       596 7.12805E+01 3.63192E+01 0.00000E+00
 -1       597 6.47214E+01 4.70228E+01 0.00000E+00
 -1       598 5.65685E+01 5.65685E+01 0.00000E+00
 -1       599 4.70228E+01 6.47214E+01 0.00000E+00
 -1       600 3.63192E+01 7.12805E+01 0.00000E+00
 -1       601 2.47214E+01 7.60845E+01 0.00000E+00
 -1       602 1.25148E+01 7.90151E+01 0.00000E+00
 -1       603 8.14843E+01 1.29058E+01 0.00000E+00
 -1       604 7.84622E+01 2.54939E+01 0.00000E+00
 -1       605 7.35080E+01 3.74542E+01 0.00000E+00
 -1       606 6.67439E+01 4.84923E+01 0.00000E+00
 -1       607 5.83363E+01 5.83363E+01 0.00000E+00
 -1       608 4.84923E+01 6.67439E+01 0.00000E+00
 -1       609 3.74542E+01 7.35080E+01 0.00000E+00
 -1       610 2.54939E+01 7.84622E+01 0.00000E+00
 -1       611 1.29058E+01 8.14843E+01 0.00000E+00
 -1       612 8.39535E+01 1.32969E+01 0.00000E+00
 -1       613 8.08398E+01 2.62664E+01 0.00000E+00
 -1       614 7.57356E+01 3.85892E+01 0.00000E+00
 -1       615 6.87664E+01 4.99617E+01 0.00000E+00
 -1       616 6.01041E+01 6.01041E+01 0.00000E+00
 -1       617 4.99617E+01 6.87664E+01 0.00000E+00
 -1       618 3.85892E+01 7.57356E+01 0.00000E+00
 -1       619 2.62664E+01 8.08398E+01 0.00000E+00
 -1       620 1.32969E+01 8.39535E+01 0.00000E+00
 -1       621 8.64227E+01 1.36880E+01 0.00000E+00
 -1       622 8.32174E+01 2.70390E+01 0.00000E+00
 -1       623 7.79631E+01 3.97242E+01 0.00000E+00
 -1       624 7.07890E+01 5.14312E+01 0.00000E+00
 -1       625 6.18718E+01 6.18718E+01 0.00000E+00
 -1       626 5.14312E+01 7.07890E+01 0.00000E+00
 -1       627 3.97242E+01 7.79631E+01 0.00000E+00
 -1       628 2.70390E+01 8.32174E+01 0.00000E+00
 -1       629 1.36880E+01 8.64227E+01 0.00000E+00
 -1       630 8.88920E+01 1.40791E+01 0.00000E+00
 -1       631 8.55951E+01 2.78115E+01 0.00000E+00
 -1       632 8.01906E+01 4.08591E+01 0.00000E+00
 -1       633 7.28115E+01 5.29007E+01 0.00000E+00
 -1       634 6.36396E+01 6.36396E+01 0.00000E+00
 -1       635 5.29007E+01 7.28115E+01 0.00000E+00
 -1       636 4.08591E+01 8.01906E+01 0.00000E+00
 -1       637 2.78115E+01 8.55951E+01 0.00000E+00
 -1       638 1.40791E+01 8.88920E+01 0.00000E+00
 -1       639 9.13612E+01 1.44702E+01 0.00000E+00
 -1       640 8.79727E+01 2.85841E+01 0.00000E+00
 -1       641 8.24181E+01 4.19941E+01 0.00000E+00
 -1       642 7.48341E+01 5.43701E+01 0.00000E+00
 -1       643 6.54074E+01 6.54074E+01 0.00000E+00
 -1       644 5.43701E+01 7.48341E+01 0.00000E+00
 -1       645 4.19941E+01 8.24181E+01 0.00000E+00
 -1       646 2.85841E+01 8.79727E+01 0.00000E+00
 -1       647 1.44702E+01 9.13612E+01 0.00000E+00
 -1       648 9.38304E+01 1.48613E+01 0.00000E+00
 -1       649 9.03504E+01 2.93566E+01 0.00000E+00
 -1       650 8.46456E+01 4.31291E+01 0.00000E+00
 -1       651 7.68566E+01 5.58396E+01 0.00000E+00
 -1       652 6.71751E+01 6.71751E+01 0.00000E+00
 -1       653 5.58396E+01 7.68566E+01 0.00000E+00
 -1       654 4.31291E+01 8.46456E+01 0.00000E+00
 -1       655 2.93566E+01 9.03504E+01 0.00000E+00
 -1       656 1.48613E+01 9.38304E+01 0.00000E+00
 -1       657 9.62996E+01 1.52524E+01 0.00000E+00
 -1       658 9.27280E+01 3.01292E+01 0.00000E+00
 -1       659 8.68731E+01 4.42641E+01 0.00000E+00
 -1       660 7.88792E+01 5.73091E+01 0.00000E+00
 -1       661 6.89429E+01 6.89429E+01 0.00000E+00
 -1       662 5.73091E+01 7.88792E+01 0.00000E+00
 -1       663 4.42641E+01 8.68731E+01 0.00000E+00
 -1       664 3.01292E+01 9.27280E+01 0.00000E+00
 -1       665 1.52524E+01 9.62996E+01 0.00000E+00
 -1       666 2.73307E+01 2.15097E+00 0.00000E+00
 -1       667 2.59268E+01 4.10640E+00 0.00000E+00
 -1       669 2.66577E+01 6.39996E+00 0.00000E+00
 -1       670 2.49652E+01 8.11170E+00 0.00000E+00
 -1       672 2.53284E+01 1.04914E+01 0.00000E+00
 -1       673 2.33889E+01 1.19173E+01 0.00000E+00
 -1       675 2.33753E+01 1.43244E+01 0.00000E+00
 -1       676 2.12367E+01 1.54294E+01 0.00000E+00
 -1       678 2.08467E+01 1.78048E+01 0.00000E+00
 -1       679 1.85616E+01 1.85616E+01 0.00000E+00
 -1       681 1.78048E+01 2.08467E+01 0.00000E+00
 -1       682 1.54294E+01 2.12367E+01 0.00000E+00
 -1       684 1.43244E+01 2.33753E+01 0.00000E+00
 -1       685 1.19173E+01 2.33889E+01 0.00000E+00
 -1       687 1.04914E+01 2.53284E+01 0.00000E+00
 -1       688 8.11170E+00 2.49652E+01 0.00000E+00
 -1       690 6.39996E+00 2.66577E+01 0.00000E+00
 -1       691 4.10640E+00 2.59268E+01 0.00000E+00
 -1       693 2.15097E+00 2.73307E+01 0.00000E+00
 -1       695 2.98153E+01 2.34652E+00 0.00000E+00
 -1       696 2.83960E+01 4.49749E+00 0.00000E+00
 -1       698 2.90812E+01 6.98177E+00 0.00000E+00
 -1       699 2.73429E+01 8.88424E+00 0.00000E+00
 -1       701 2.76309E+01 1.14451E+01 0.00000E+00
 -1       702 2.56164E+01 1.30522E+01 0.00000E+00
 -1       704 2.55004E+01 1.56266E+01 0.00000E+00
 -1       705 2.32592E+01 1.68988E+01 0.00000E+00
 -1       707 2.27419E+01 1.94234E+01 0.00000E+00
 -1       708 2.03293E+01 2.03293E+01 0.00000E+00
 -1       710 1.94234E+01 2.27419E+01 0.00000E+00
 -1       711 1.68988E+01 2.32592E+01 0.00000E+00
 -1       713 1.56266E+01 2.55004E+01 0.00000E+00
 -1       714 1.30522E+01 2.56164E+01 0.00000E+00
 -1       716 1.14451E+01 2.76309E+01 0.00000E+00
 -1       717 8.88424E+00 2.73429E+01 0.00000E+00
 -1       719 6.98177E+00 2.90812E+01 0.00000E+00
 -1       720 4.49749E+00 2.83960E+01 0.00000E+00
 -1       722 2.34652E+00 2.98153E+01 0.00000E+00
 -1       724 3.22999E+01 2.54206E+00 0.00000E+00
 -1       725 3.08653E+01 4.88858E+00 0.00000E+00
 -1       727 3.15046E+01 7.56359E+00 0.00000E+00
 -1       728 2.97205E+01 9.65678E+00 0.00000E+00
 -1       730 2.99335E+01 1.23989E+01 0.00000E+00
 -1       731 2.78440E+01 1.41872E+01 0.00000E+00
 -1       733 2.76254E+01 1.69289E+01 0.00000E+00
 -1       734 2.52818E+01 1.83683E+01 0.00000E+00
 -1       736 2.46370E+01 2.10420E+01 0.00000E+00
 -1       737 2.20971E+01 2.20971E+01 0.00000E+00
 -1       739 2.10420E+01 2.46370E+01 0.00000E+00
 -1       740 1.83683E+01 2.52818E+01 0.00000E+00
 -1       742 1.69289E+01 2.76254E+01 0.00000E+00
 -1       743 1.41872E+01 2.78440E+01 0.00000E+00
 -1       745 1.23989E+01 2.99335E+01 0.00000E+00
 -1       746 9.65678E+00 2.97205E+01 0.00000E+00
 -1       748 7.56359E+00 3.15046E+01 0.00000E+00
 -1       749 4.88858E+00 3.08653E+01 0.00000E+00
 -1       751 2.54206E+00 3.22999E+01 0.00000E+00
 -1       753 3.47845E+01 2.73760E+00 0.00000E+00
 -1       754 3.33345E+01 5.27966E+00 0.00000E+00
 -1       756 3.39280E+01 8.14540E+00 0.00000E+00
 -1       757 3.20982E+01 1.04293E+01 0.00000E+00
 -1       759 3.22361E+01 1.33526E+01 0.00000E+00
 -1       760 3.00715E+01 1.53222E+01 0.00000E+00
 -1       762 2.97504E+01 1.82311E+01 0.00000E+00
 -1       763 2.73043E+01 1.98378E+01 0.00000E+00
 -1       765 2.65322E+01 2.26606E+01 0.00000E+00
 -1       766 2.38649E+01 2.38649E+01 0.00000E+00
 -1       768 2.26606E+01 2.65322E+01 0.00000E+00
 -1       769 1.98378E+01 2.73043E+01 0.00000E+00
 -1       771 1.82311E+01 2.97504E+01 0.00000E+00
 -1       772 1.53222E+01 3.00715E+01 0.00000E+00
 -1       774 1.33526E+01 3.22361E+01 0.00000E+00
 -1       775 1.04293E+01 3.20982E+01 0.00000E+00
 -1       777 8.14540E+00 3.39280E+01 0.00000E+00
 -1       778 5.27966E+00 3.33345E+01 0.00000E+00
 -1       780 2.73760E+00 3.47845E+01 0.00000E+00
 -1       782 3.72692E+01 2.93315E+00 0.00000E+00
 -1       783 3.58037E+01 5.67075E+00 0.00000E+00
 -1       785 3.63515E+01 8.72721E+00 0.00000E+00
 -1       786 3.44758E+01 1.12019E+01 0.00000E+00
 -1       788 3.45387E+01 1.43064E+01 0.00000E+00
 -1       789 3.22990E+01 1.64572E+01 0.00000E+00
 -1       791 3.18754E+01 1.95333E+01 0.00000E+00
 -1       792 2.93269E+01 2.13072E+01 0.00000E+00
 -1       794 2.84273E+01 2.42792E+01 0.00000E+00
 -1       795 2.56326E+01 2.56326E+01 0.00000E+00
 -1       797 2.42792E+01 2.84273E+01 0.00000E+00
 -1       798 2.13072E+01 2.93269E+01 0.00000E+00
 -1       800 1.95333E+01 3.18754E+01 0.00000E+00
 -1       801 1.64572E+01 3.22990E+01 0.00000E+00
 -1       803 1.43064E+01 3.45387E+01 0.00000E+00
 -1       804 1.12019E+01 3.44758E+01 0.00000E+00
 -1       806 8.72721E+00 3.63515E+01 0.00000E+00
 -1       807 5.67075E+00 3.58037E+01 0.00000E+00
 -1       809 2.93315E+00 3.72692E+01 0.00000E+00
 -1       811 3.97538E+01 3.12869E+00 0.00000E+00
 -1       812 3.82729E+01 6.06184E+00 0.00000E+00
 -1       814 3.87749E+01 9.30903E+00 0.00000E+00
 -1       815 3.68534E+01 1.19744E+01 0.00000E+00
 -1       817 3.68413E+01 1.52601E+01 0.00000E+00
 -1       818 3.45265E+01 1.75921E+01 0.00000E+00
 -1       820 3.40005E+01 2.08355E+01 0.00000E+00
 -1       821 3.13494E+01 2.27767E+01 0.00000E+00
 -1       823 3.03225E+01 2.58978E+01 0.00000E+00
 -1       824 2.74004E+01 2.74004E+01 0.00000E+00
 -1       826 2.58978E+01 3.03225E+01 0.00000E+00
 -1       827 2.27767E+01 3.13494E+01 0.00000E+00
 -1       829 2.08355E+01 3.40005E+01 0.00000E+00
 -1       830 1.75921E+01 3.45265E+01 0.00000E+00
 -1       832 1.52601E+01 3.68413E+01 0.00000E+00
 -1       833 1.19744E+01 3.68534E+01 0.00000E+00
 -1       835 9.30903E+00 3.87749E+01 0.00000E+00
 -1       836 6.06184E+00 3.82729E+01 0.00000E+00
 -1       838 3.12869E+00 3.97538E+01 0.00000E+00
 -1       840 4.22384E+01 3.32423E+00 0.00000E+00
 -1       841 4.07421E+01 6.45292E+00 0.00000E+00
 -1       843 4.11983E+01 9.89084E+00 0.00000E+00
 -1       844 3.92311E+01 1.27470E+01 0.00000E+00
 -1       846 3.91438E+01 1.62139E+01 0.00000E+00
 -1       847 3.67540E+01 1.87271E+01 0.00000E+00
 -1       849 3.61255E+01 2.21377E+01 0.00000E+00
 -1       850 3.33720E+01 2.42461E+01 0.00000E+00
 -1       852 3.22176E+01 2.75165E+01 0.00000E+00
 -1       853 2.91682E+01 2.91682E+01 0.00000E+00
 -1       855 2.75165E+01 3.22176E+01 0.00000E+00
 -1       856 2.42461E+01 3.33720E+01 0.00000E+00
 -1       858 2.21377E+01 3.61255E+01 0.00000E+00
 -1       859 1.87271E+01 3.67540E+01 0.00000E+00
 -1       861 1.62139E+01 3.91438E+01 0.00000E+00
 -1       862 1.27470E+01 3.92311E+01 0.00000E+00
 -1       864 9.89084E+00 4.11983E+01 0.00000E+00
 -1       865 6.45292E+00 4.07421E+01 0.00000E+00
 -1       867 3.32423E+00 4.22384E+01 0.00000E+00
 -1       869 4.47230E+01 3.51978E+00 0.00000E+00
 -1       870 4.32114E+01 6.84401E+00 0.00000E+00
 -1       872 4.36218E+01 1.04727E+01 0.00000E+00
 -1       873 4.16087E+01 1.35195E+01 0.00000E+00
 -1       875 4.14464E+01 1.71677E+01 0.00000E+00
 -1       876 3.89815E+01 1.98621E+01 0.00000E+00
 -1       878 3.82505E+01 2.34400E+01 0.00000E+00
 -1       879 3.53945E+01 2.57156E+01 0.00000E+00
 -1       881 3.41128E+01 2.91351E+01 0.00000E+00
 -1       882 3.09359E+01 3.09359E+01 0.00000E+00
 -1       884 2.91351E+01 3.41128E+01 0.00000E+00
 -1       885 2.57156E+01 3.53945E+01 0.00000E+00
 -1       887 2.34400E+01 3.82505E+01 0.00000E+00
 -1       888 1.98621E+01 3.89815E+01 0.00000E+00
 -1       890 1.71677E+01 4.14464E+01 0.00000E+00
 -1       891 1.35195E+01 4.16087E+01 0.00000E+00
 -1       893 1.04727E+01 4.36218E+01 0.00000E+00
 -1       894 6.84401E+00 4.32114E+01 0.00000E+00
 -1       896 3.51978E+00 4.47230E+01 0.00000E+00
 -1       898 4.72076E+01 3.71532E+00 0.00000E+00
 -1       899 4.56806E+01 7.23509E+00 0.00000E+00
 -1       901 4.60452E+01 1.10545E+01 0.00000E+00
 -1       902 4.39864E+01 1.42920E+01 0.00000E+00
 -1       904 4.37490E+01 1.81214E+01 0.00000E+00
 -1       905 4.12091E+01 2.09971E+01 0.00000E+00
 -1       907 4.03756E+01 2.47422E+01 0.00000E+00
 -1       908 3.74170E+01 2.71851E+01 0.00000E+00
 -1       910 3.60079E+01 3.07537E+01 0.00000E+00
 -1       911 3.27037E+01 3.27037E+01 0.00000E+00
 -1       913 3.07537E+01 3.60079E+01 0.00000E+00
 -1       914 2.71851E+01 3.74170E+01 0.00000E+00
 -1       916 2.47422E+01 4.03756E+01 0.00000E+00
 -1       917 2.09971E+01 4.12091E+01 0.00000E+00
 -1       919 1.81214E+01 4.37490E+01 0.00000E+00
 -1       920 1.42920E+01 4.39864E+01 0.00000E+00
 -1       922 1.10545E+01 4.60452E+01 0.00000E+00
 -1       923 7.23509E+00 4.56806E+01 0.00000E+00
 -1       925 3.71532E+00 4.72076E+01 0.00000E+00
 -1       927 4.96922E+01 3.91086E+00 0.00000E+00
 -1       928 4.81498E+01 7.62618E+00 0.00000E+00
 -1       930 4.84686E+01 1.16363E+01 0.00000E+00
 -1       931 4.63640E+01 1.50646E+01 0.00000E+00
 -1       933 4.60516E+01 1.90752E+01 0.00000E+00
 -1       934 4.34366E+01 2.21320E+01 0.00000E+00
 -1       936 4.25006E+01 2.60444E+01 0.00000E+00
 -1       937 3.94396E+01 2.86545E+01 0.00000E+00
 -1       939 3.79031E+01 3.23723E+01 0.00000E+00
 -1       940 3.44715E+01 3.44715E+01 0.00000E+00
 -1       942 3.23723E+01 3.79031E+01 0.00000E+00
 -1       943 2.86545E+01 3.94396E+01 0.00000E+00
 -1       945 2.60444E+01 4.25006E+01 0.00000E+00
 -1       946 2.21320E+01 4.34366E+01 0.00000E+00
 -1       948 1.90752E+01 4.60516E+01 0.00000E+00
 -1       949 1.50646E+01 4.63640E+01 0.00000E+00
 -1       951 1.16363E+01 4.84686E+01 0.00000E+00
 -1       952 7.62618E+00 4.81498E+01 0.00000E+00
 -1       954 3.91086E+00 4.96922E+01 0.00000E+00
 -1       956 5.21768E+01 4.10640E+00 0.00000E+00
 -1       957 5.06190E+01 8.01727E+00 0.00000E+00
 -1       959 5.08921E+01 1.22181E+01 0.00000E+00
 -1       960 4.87416E+01 1.58371E+01 0.00000E+00
 -1       962 4.83542E+01 2.00289E+01 0.00000E+00
 -1       963 4.56641E+01 2.32670E+01 0.00000E+00
 -1       965 4.46256E+01 2.73466E+01 0.00000E+00
 -1       966 4.14621E+01 3.01240E+01 0.00000E+00
 -1       968 3.97982E+01 3.39909E+01 0.00000E+00
 -1       969 3.62392E+01 3.62392E+01 0.00000E+00
 -1       971 3.39909E+01 3.97982E+01 0.00000E+00
 -1       972 3.01240E+01 4.14621E+01 0.00000E+00
 -1       974 2.73466E+01 4.46256E+01 0.00000E+00
 -1       975 2.32670E+01 4.56641E+01 0.00000E+00
 -1       977 2.00289E+01 4.83542E+01 0.00000E+00
 -1       978 1.58371E+01 4.87416E+01 0.00000E+00
 -1       980 1.22181E+01 5.08921E+01 0.00000E+00
 -1       981 8.01727E+00 5.06190E+01 0.00000E+00
 -1       983 4.10640E+00 5.21768E+01 0.00000E+00
 -1       985 5.46614E+01 4.30195E+00 0.00000E+00
 -1       986 5.30882E+01 8.40835E+00 0.00000E+00
 -1       988 5.33155E+01 1.27999E+01 0.00000E+00
 -1       989 5.11193E+01 1.66097E+01 0.00000E+00
 -1       991 5.06567E+01 2.09827E+01 0.00000E+00
 -1       992 4.78916E+01 2.44020E+01 0.00000E+00
 -1       994 4.67506E+01 2.86488E+01 0.00000E+00
 -1       995 4.34847E+01 3.15935E+01 0.00000E+00
 -1       997 4.16934E+01 3.56095E+01 0.00000E+00
 -1       998 3.80070E+01 3.80070E+01 0.00000E+00
 -1      1000 3.56095E+01 4.16934E+01 0.00000E+00
 -1      1001 3.15935E+01 4.34847E+01 0.00000E+00
 -1      1003 2.86488E+01 4.67506E+01 0.00000E+00
 -1      1004 2.44020E+01 4.78916E+01 0.00000E+00
 -1      1006 2.09827E+01 5.06567E+01 0.00000E+00
 -1      1007 1.66097E+01 5.11193E+01 0.00000E+00
 -1      1009 1.27999E+01 5.33155E+01 0.00000E+00
 -1      1010 8.40835E+00 5.30882E+01 0.00000E+00
 -1      1012 4.30195E+00 5.46614E+01 0.00000E+00
 -1      1014 5.71460E+01 4.49749E+00 0.00000E+00
 -1      1015 5.55575E+01 8.79944E+00 0.00000E+00
 -1      1017 5.57389E+01 1.33817E+01 0.00000E+00
 -1      1018 5.34969E+01 1.73822E+01 0.00000E+00
 -1      1020 5.29593E+01 2.19365E+01 0.00000E+00
 -1      1021 5.01191E+01 2.55370E+01 0.00000E+00
 -1      1023 4.88757E+01 2.99511E+01 0.00000E+00
 -1      1024 4.55072E+01 3.30629E+01 0.00000E+00
 -1      1026 4.35886E+01 3.72281E+01 0.00000E+00
 -1      1027 3.97748E+01 3.97748E+01 0.00000E+00
 -1      1029 3.72281E+01 4.35886E+01 0.00000E+00
 -1      1030 3.30629E+01 4.55072E+01 0.00000E+00
 -1      1032 2.99511E+01 4.88757E+01 0.00000E+00
 -1      1033 2.55370E+01 5.01191E+01 0.00000E+00
 -1      1035 2.19365E+01 5.29593E+01 0.00000E+00
 -1      1036 1.73822E+01 5.34969E+01 0.00000E+00
 -1      1038 1.33817E+01 5.57389E+01 0.00000E+00
 -1      1039 8.79944E+00 5.55575E+01 0.00000E+00
 -1      1041 4.49749E+00 5.71460E+01 0.00000E+00
 -1      1043 5.96306E+01 4.69303E+00 0.00000E+00
 -1      1044 5.80267E+01 9.19053E+00 0.00000E+00
 -1      1046 5.81623E+01 1.39635E+01 0.00000E+00
 -1      1047 5.58746E+01 1.81547E+01 0.00000E+00
 -1      1049 5.52619E+01 2.28902E+01 0.00000E+00
 -1      1050 5.23466E+01 2.66719E+01 0.00000E+00
 -1      1052 5.10007E+01 3.12533E+01 0.00000E+00
 -1      1053 4.75297E+01 3.45324E+01 0.00000E+00
 -1      1055 4.54837E+01 3.88468E+01 0.00000E+00
 -1      1056 4.15425E+01 4.15425E+01 0.00000E+00
 -1      1058 3.88468E+01 4.54837E+01 0.00000E+00
 -1      1059 3.45324E+01 4.75297E+01 0.00000E+00
 -1      1061 3.12533E+01 5.10007E+01 0.00000E+00
 -1      1062 2.66719E+01 5.23466E+01 0.00000E+00
 -1      1064 2.28902E+01 5.52619E+01 0.00000E+00
 -1      1065 1.81547E+01 5.58746E+01 0.00000E+00
 -1      1067 1.39635E+01 5.81623E+01 0.00000E+00
 -1      1068 9.19053E+00 5.80267E+01 0.00000E+00
 -1      1070 4.69303E+00 5.96306E+01 0.00000E+00
 -1      1072 6.21153E+01 4.88858E+00 0.00000E+00
 -1      1073 6.04959E+01 9.58161E+00 0.00000E+00
 -1      1075 6.05858E+01 1.45454E+01 0.00000E+00
 -1      1076 5.82522E+01 1.89273E+01 0.00000E+00
 -1      1078 5.75645E+01 2.38440E+01 0.00000E+00
 -1      1079 5.45742E+01 2.78069E+01 0.00000E+00
 -1      1081 5.31257E+01 3.25555E+01 0.00000E+00
 -1      1082 4.95523E+01 3.60018E+01 0.00000E+00
 -1      1084 4.73789E+01 4.04654E+01 0.00000E+00
 -1      1085 4.33103E+01 4.33103E+01 0.00000E+00
 -1      1087 4.04654E+01 4.73789E+01 0.00000E+00
 -1      1088 3.60018E+01 4.95523E+01 0.00000E+00
 -1      1090 3.25555E+01 5.31257E+01 0.00000E+00
 -1      1091 2.78069E+01 5.45742E+01 0.00000E+00
 -1      1093 2.38440E+01 5.75645E+01 0.00000E+00
 -1      1094 1.89273E+01 5.82522E+01 0.00000E+00
 -1      1096 1.45454E+01 6.05858E+01 0.00000E+00
 -1      1097 9.58161E+00 6.04959E+01 0.00000E+00
 -1      1099 4.88858E+00 6.21153E+01 0.00000E+00
 -1      1101 6.45999E+01 5.08412E+00 0.00000E+00
 -1      1102 6.29651E+01 9.97270E+00 0.00000E+00
 -1      1104 6.30092E+01 1.51272E+01 0.00000E+00
 -1      1105 6.06299E+01 1.96998E+01 0.00000E+00
 -1      1107 5.98671E+01 2.47977E+01 0.00000E+00
 -1      1108 5.68017E+01 2.89419E+01 0.00000E+00
 -1      1110 5.52508E+01 3.38577E+01 0.00000E+00
 -1      1111 5.15748E+01 3.74713E+01 0.00000E+00
 -1      1113 4.92740E+01 4.20840E+01 0.00000E+00
 -1      1114 4.50781E+01 4.50781E+01 0.00000E+00
 -1      1116 4.20840E+01 4.92740E+01 0.00000E+00
 -1      1117 3.74713E+01 5.15748E+01 0.00000E+00
 -1      1119 3.38577E+01 5.52508E+01 0.00000E+00
 -1      1120 2.89419E+01 5.68017E+01 0.00000E+00
 -1      1122 2.47977E+01 5.98671E+01 0.00000E+00
 -1      1123 1.96998E+01 6.06299E+01 0.00000E+00
 -1      1125 1.51272E+01 6.30092E+01 0.00000E+00
 -1      1126 9.97270E+00 6.29651E+01 0.00000E+00
 -1      1128 5.08412E+00 6.45999E+01 0.00000E+00
 -1      1130 6.70845E+01 5.27966E+00 0.00000E+00
 -1      1131 6.54343E+01 1.03638E+01 0.00000E+00
 -1      1133 6.54326E+01 1.57090E+01 0.00000E+00
 -1      1134 6.30075E+01 2.04724E+01 0.00000E+00
 -1      1136 6.21696E+01 2.57515E+01 0.00000E+00
 -1      1137 5.90292E+01 3.00769E+01 0.00000E+00
 -1      1139 5.73758E+01 3.51599E+01 0.00000E+00
 -1      1140 5.35974E+01 3.89408E+01 0.00000E+00
 -1      1142 5.11692E+01 4.37026E+01 0.00000E+00
 -1      1143 4.68458E+01 4.68458E+01 0.00000E+00
 -1      1145 4.37026E+01 5.11692E+01 0.00000E+00
 -1      1146 3.89408E+01 5.35974E+01 0.00000E+00
 -1      1148 3.51599E+01 5.73758E+01 0.00000E+00
 -1      1149 3.00769E+01 5.90292E+01 0.00000E+00
 -1      1151 2.57515E+01 6.21696E+01 0.00000E+00
 -1      1152 2.04724E+01 6.30075E+01 0.00000E+00
 -1      1154 1.57090E+01 6.54326E+01 0.00000E+00
 -1      1155 1.03638E+01 6.54343E+01 0.00000E+00
 -1      1157 5.27966E+00 6.70845E+01 0.00000E+00
 -1      1159 6.95691E+01 5.47521E+00 0.00000E+00
 -1      1160 6.79036E+01 1.07549E+01 0.00000E+00
 -1      1162 6.78561E+01 1.62908E+01 0.00000E+00
 -1      1163 6.53851E+01 2.12449E+01 0.00000E+00
 -1      1165 6.44722E+01 2.67053E+01 0.00000E+00
 -1      1166 6.12567E+01 3.12118E+01 0.00000E+00
 -1      1168 5.95008E+01 3.64622E+01 0.00000E+00
 -1      1169 5.56199E+01 4.04102E+01 0.00000E+00
 -1      1171 5.30643E+01 4.53212E+01 0.00000E+00
 -1      1172 4.86136E+01 4.86136E+01 0.00000E+00
 -1      1174 4.53212E+01 5.30643E+01 0.00000E+00
 -1      1175 4.04102E+01 5.56199E+01 0.00000E+00
 -1      1177 3.64622E+01 5.95008E+01 0.00000E+00
 -1      1178 3.12118E+01 6.12567E+01 0.00000E+00
 -1      1180 2.67053E+01 6.44722E+01 0.00000E+00
 -1      1181 2.12449E+01 6.53851E+01 0.00000E+00
 -1      1183 1.62908E+01 6.78561E+01 0.00000E+00
 -1      1184 1.07549E+01 6.79036E+01 0.00000E+00
 -1      1186 5.47521E+00 6.95691E+01 0.00000E+00
 -1      1188 7.20537E+01 5.67075E+00 0.00000E+00
 -1      1189 7.03728E+01 1.11460E+01 0.00000E+00
 -1      1191 7.02795E+01 1.68726E+01 0.00000E+00
 -1      1192 6.77628E+01 2.20175E+01 0.00000E+00
 -1      1194 6.67748E+01 2.76590E+01 0.00000E+00
 -1      1195 6.34842E+01 3.23468E+01 0.00000E+00
 -1      1197 6.16259E+01 3.77644E+01 0.00000E+00
 -1      1198 5.76425E+01 4.18797E+01 0.00000E+00
 -1      1200 5.49595E+01 4.69398E+01 0.00000E+00
 -1      1201 5.03814E+01 5.03814E+01 0.00000E+00
 -1      1203 4.69398E+01 5.49595E+01 0.00000E+00
 -1      1204 4.18797E+01 5.76425E+01 0.00000E+00
 -1      1206 3.77644E+01 6.16259E+01 0.00000E+00
 -1      1207 3.23468E+01 6.34842E+01 0.00000E+00
 -1      1209 2.76590E+01 6.67748E+01 0.00000E+00
 -1      1210 2.20175E+01 6.77628E+01 0.00000E+00
 -1      1212 1.68726E+01 7.02795E+01 0.00000E+00
 -1      1213 1.11460E+01 7.03728E+01 0.00000E+00
 -1      1215 5.67075E+00 7.20537E+01 0.00000E+00
 -1      1217 7.45383E+01 5.86629E+00 0.00000E+00
 -1      1218 7.28420E+01 1.15370E+01 0.00000E+00
 -1      1220 7.27029E+01 1.74544E+01 0.00000E+00
 -1      1221 7.01404E+01 2.27900E+01 0.00000E+00
 -1      1223 6.90774E+01 2.86128E+01 0.00000E+00
 -1      1224 6.57117E+01 3.34818E+01 0.00000E+00
 -1      1226 6.37509E+01 3.90666E+01 0.00000E+00
 -1      1227 5.96650E+01 4.33492E+01 0.00000E+00
 -1      1229 5.68546E+01 4.85585E+01 0.00000E+00
 -1      1230 5.21491E+01 5.21491E+01 0.00000E+00
 -1      1232 4.85585E+01 5.68546E+01 0.00000E+00
 -1      1233 4.33492E+01 5.96650E+01 0.00000E+00
 -1      1235 3.90666E+01 6.37509E+01 0.00000E+00
 -1      1236 3.34818E+01 6.57117E+01 0.00000E+00
 -1      1238 2.86128E+01 6.90774E+01 0.00000E+00
 -1      1239 2.27900E+01 7.01404E+01 0.00000E+00
 -1      1241 1.74544E+01 7.27029E+01 0.00000E+00
 -1      1242 1.15370E+01 7.28420E+01 0.00000E+00
 -1      1244 5.86629E+00 7.45383E+01 0.00000E+00
 -1      1246 7.70229E+01 6.06184E+00 0.00000E+00
 -1      1247 7.53112E+01 1.19281E+01 0.00000E+00
 -1      1249 7.51264E+01 1.80362E+01 0.00000E+00
 -1      1250 7.25181E+01 2.35625E+01 0.00000E+00
 -1      1252 7.13799E+01 2.95665E+01 0.00000E+00
 -1      1253 6.79392E+01 3.46168E+01 0.00000E+00
 -1      1255 6.58759E+01 4.03688E+01 0.00000E+00
 -1      1256 6.16875E+01 4.48186E+01 0.00000E+00
 -1      1258 5.87498E+01 5.01771E+01 0.00000E+00
 -1      1259 5.39169E+01 5.39169E+01 0.00000E+00
 -1      1261 5.01771E+01 5.87498E+01 0.00000E+00
 -1      1262 4.48186E+01 6.16875E+01 0.00000E+00
 -1      1264 4.03688E+01 6.58759E+01 0.00000E+00
 -1      1265 3.46168E+01 6.79392E+01 0.00000E+00
 -1      1267 2.95665E+01 7.13799E+01 0.00000E+00
 -1      1268 2.35625E+01 7.25181E+01 0.00000E+00
 -1      1270 1.80362E+01 7.51264E+01 0.00000E+00
 -1      1271 1.19281E+01 7.53112E+01 0.00000E+00
 -1      1273 6.06184E+00 7.70229E+01 0.00000E+00
 -1      1275 7.95075E+01 6.25738E+00 0.00000E+00
 -1      1276 7.77805E+01 1.23192E+01 0.00000E+00
 -1      1278 7.75498E+01 1.86181E+01 0.00000E+00
 -1      1279 7.48957E+01 2.43351E+01 0.00000E+00
 -1      1281 7.36825E+01 3.05203E+01 0.00000E+00
 -1      1282 7.01668E+01 3.57518E+01 0.00000E+00
 -1      1284 6.80009E+01 4.16710E+01 0.00000E+00
 -1      1285 6.37101E+01 4.62881E+01 0.00000E+00
 -1      1287 6.06450E+01 5.17957E+01 0.00000E+00
 -1      1288 5.56847E+01 5.56847E+01 0.00000E+00
 -1      1290 5.17957E+01 6.06450E+01 0.00000E+00
 -1      1291 4.62881E+01 6.37101E+01 0.00000E+00
 -1      1293 4.16710E+01 6.80009E+01 0.00000E+00
 -1      1294 3.57518E+01 7.01668E+01 0.00000E+00
 -1      1296 3.05203E+01 7.36825E+01 0.00000E+00
 -1      1297 2.43351E+01 7.48957E+01 0.00000E+00
 -1      1299 1.86181E+01 7.75498E+01 0.00000E+00
 -1      1300 1.23192E+01 7.77805E+01 0.00000E+00
 -1      1302 6.25738E+00 7.95075E+01 0.00000E+00
 -1      1304 8.19921E+01 6.45292E+00 0.00000E+00
 -1      1305 8.02497E+01 1.27103E+01 0.00000E+00
 -1      1307 7.99732E+01 1.91999E+01 0.00000E+00
 -1      1308 7.72733E+01 2.51076E+01 0.00000E+00
 -1      1310 7.59851E+01 3.14741E+01 0.00000E+00
 -1      1311 7.23943E+01 3.68867E+01 0.00000E+00
 -1      1313 7.01260E+01 4.29733E+01 0.00000E+00
 -1      1314 6.57326E+01 4.77576E+01 0.00000E+00
 -1      1316 6.25401E+01 5.34143E+01 0.00000E+00
 -1      1317 5.74524E+01 5.74524E+01 0.00000E+00
 -1      1319 5.34143E+01 6.25401E+01 0.00000E+00
 -1      1320 4.77576E+01 6.57326E+01 0.00000E+00
 -1      1322 4.29733E+01 7.01260E+01 0.00000E+00
 -1      1323 3.68867E+01 7.23943E+01 0.00000E+00
 -1      1325 3.14741E+01 7.59851E+01 0.00000E+00
 -1      1326 2.51076E+01 7.72733E+01 0.00000E+00
 -1      1328 1.91999E+01 7.99732E+01 0.00000E+00
 -1      1329 1.27103E+01 8.02497E+01 0.00000E+00
 -1      1331 6.45292E+00 8.19921E+01 0.00000E+00
 -1      1333 8.44768E+01 6.64846E+00 0.00000E+00
 -1      1334 8.27189E+01 1.31014E+01 0.00000E+00
 -1      1336 8.23967E+01 1.97817E+01 0.00000E+00
 -1      1337 7.96510E+01 2.58802E+01 0.00000E+00
 -1      1339 7.82877E+01 3.24278E+01 0.00000E+00
 -1      1340 7.46218E+01 3.80217E+01 0.00000E+00
 -1      1342 7.22510E+01 4.42755E+01 0.00000E+00
 -1      1343 6.77552E+01 4.92270E+01 0.00000E+00
 -1      1345 6.44353E+01 5.50329E+01 0.00000E+00
 -1      1346 5.92202E+01 5.92202E+01 0.00000E+00
 -1      1348 5.50329E+01 6.44353E+01 0.00000E+00
 -1      1349 4.92270E+01 6.77552E+01 0.00000E+00
 -1      1351 4.42755E+01 7.22510E+01 0.00000E+00
 -1      1352 3.80217E+01 7.46218E+01 0.00000E+00
 -1      1354 3.24278E+01 7.82877E+01 0.00000E+00
 -1      1355 2.58802E+01 7.96510E+01 0.00000E+00
 -1      1357 1.97817E+01 8.23967E+01 0.00000E+00
 -1      1358 1.31014E+01 8.27189E+01 0.00000E+00
 -1      1360 6.64846E+00 8.44768E+01 0.00000E+00
 -1      1362 8.69614E+01 6.84401E+00 0.00000E+00
 -1      1363 8.51881E+01 1.34925E+01 0.00000E+00
 -1      1365 8.48201E+01 2.03635E+01 0.00000E+00
 -1      1366 8.20286E+01 2.66527E+01 0.00000E+00
 -1      1368 8.05903E+01 3.33816E+01 0.00000E+00
 -1      1369 7.68493E+01 3.91567E+01 0.00000E+00
 -1      1371 7.43760E+01 4.55777E+01 0.00000E+00
 -1      1372 6.97777E+01 5.06965E+01 0.00000E+00
 -1      1374 6.63304E+01 5.66515E+01 0.00000E+00
 -1      1375 6.09880E+01 6.09880E+01 0.00000E+00
 -1      1377 5.66515E+01 6.63304E+01 0.00000E+00
 -1      1378 5.06965E+01 6.97777E+01 0.00000E+00
 -1      1380 4.55777E+01 7.43760E+01 0.00000E+00
 -1      1381 3.91567E+01 7.68493E+01 0.00000E+00
 -1      1383 3.33816E+01 8.05903E+01 0.00000E+00
 -1      1384 2.66527E+01 8.20286E+01 0.00000E+00
 -1      1386 2.03635E+01 8.48201E+01 0.00000E+00
 -1      1387 1.34925E+01 8.51881E+01 0.00000E+00
 -1      1389 6.84401E+00 8.69614E+01 0.00000E+00
 -1      1391 8.94460E+01 7.03955E+00 0.00000E+00
 -1      1392 8.76573E+01 1.38836E+01 0.00000E+00
 -1      1394 8.72435E+01 2.09453E+01 0.00000E+00
 -1      1395 8.44063E+01 2.74253E+01 0.00000E+00
 -1      1397 8.28928E+01 3.43353E+01 0.00000E+00
 -1      1398 7.90768E+01 4.02917E+01 0.00000E+00
 -1      1400 7.65011E+01 4.68799E+01 0.00000E+00
 -1      1401 7.18003E+01 5.21659E+01 0.00000E+00
 -1      1403 6.82256E+01 5.82701E+01 0.00000E+00
 -1      1404 6.27557E+01 6.27557E+01 0.00000E+00
 -1      1406 5.82701E+01 6.82256E+01 0.00000E+00
 -1      1407 5.21659E+01 7.18003E+01 0.00000E+00
 -1      1409 4.68799E+01 7.65011E+01 0.00000E+00
 -1      1410 4.02917E+01 7.90768E+01 0.00000E+00
 -1      1412 3.43353E+01 8.28928E+01 0.00000E+00
 -1      1413 2.74253E+01 8.44063E+01 0.00000E+00
 -1      1415 2.09453E+01 8.72435E+01 0.00000E+00
 -1      1416 1.38836E+01 8.76573E+01 0.00000E+00
 -1      1418 7.03955E+00 8.94460E+01 0.00000E+00
 -1      1420 9.19306E+01 7.23509E+00 0.00000E+00
 -1      1421 9.01266E+01 1.42746E+01 0.00000E+00
 -1      1423 8.96669E+01 2.15271E+01 0.00000E+00
 -1      1424 8.67839E+01 2.81978E+01 0.00000E+00
 -1      1426 8.51954E+01 3.52891E+01 0.00000E+00
 -1      1427 8.13043E+01 4.14266E+01 0.00000E+00
 -1      1429 7.86261E+01 4.81821E+01 0.00000E+00
 -1      1430 7.38228E+01 5.36354E+01 0.00000E+00
 -1      1432 7.01207E+01 5.98888E+01 0.00000E+00
 -1      1433 6.45235E+01 6.45235E+01 0.00000E+00
 -1      1435 5.98888E+01 7.01207E+01 0.00000E+00
 -1      1436 5.36354E+01 7.38228E+01 0.00000E+00
 -1      1438 4.81821E+01 7.86261E+01 0.00000E+00
 -1      1439 4.14266E+01 8.13043E+01 0.00000E+00
 -1      1441 3.52891E+01 8.51954E+01 0.00000E+00
 -1      1442 2.81978E+01 8.67839E+01 0.00000E+00
 -1      1444 2.15271E+01 8.96669E+01 0.00000E+00
 -1      1445 1.42746E+01 9.01266E+01 0.00000E+00
 -1      1447 7.23509E+00 9.19306E+01 0.00000E+00
 -1      1449 9.44152E+01 7.43064E+00 0.00000E+00
 -1      1450 9.25958E+01 1.46657E+01 0.00000E+00
 -1      1452 9.20904E+01 2.21089E+01 0.00000E+00
 -1      1453 8.91615E+01 2.89703E+01 0.00000E+00
 -1      1455 8.74980E+01 3.62429E+01 0.00000E+00
 -1      1456 8.35319E+01 4.25616E+01 0.00000E+00
 -1      1458 8.07511E+01 4.94843E+01 0.00000E+00
 -1      1459 7.58453E+01 5.51049E+01 0.00000E+00
 -1      1461 7.20159E+01 6.15074E+01 0.00000E+00
 -1      1462 6.62913E+01 6.62913E+01 0.00000E+00
 -1      1464 6.15074E+01 7.20159E+01 0.00000E+00
 -1      1465 5.51049E+01 7.58453E+01 0.00000E+00
 -1      1467 4.94843E+01 8.07511E+01 0.00000E+00
 -1      1468 4.25616E+01 8.35319E+01 0.00000E+00
 -1      1470 3.62429E+01 8.74980E+01 0.00000E+00
 -1      1471 2.89703E+01 8.91615E+01 0.00000E+00
 -1      1473 2.21089E+01 9.20904E+01 0.00000E+00
 -1      1474 1.46657E+01 9.25958E+01 0.00000E+00
 -1      1476 7.43064E+00 9.44152E+01 0.00000E+00
 -1      1478 9.68998E+01 7.62618E+00 0.00000E+00
 -1      1479 9.50650E+01 1.50568E+01 0.00000E+00
 -1      1481 9.45138E+01 2.26908E+01 0.00000E+00
 -1      1482 9.15392E+01 2.97429E+01 0.00000E+00
 -1      1484 8.98006E+01 3.71966E+01 0.00000E+00
 -1      1485 8.57594E+01 4.36966E+01 0.00000E+00
 -1      1487 8.28761E+01 5.07866E+01 0.00000E+00
 -1      1488 7.78679E+01 5.65743E+01 0.00000E+00
 -1      1490 7.39110E+01 6.31260E+01 0.00000E+00
 -1      1491 6.80590E+01 6.80590E+01 0.00000E+00
 -1      1493 6.31260E+01 7.39110E+01 0.00000E+00
 -1      1494 5.65743E+01 7.78679E+01 0.00000E+00
 -1      1496 5.07866E+01 8.28761E+01 0.00000E+00
 -1      1497 4.36966E+01 8.57594E+01 0.00000E+00
 -1      1499 3.71966E+01 8.98006E+01 0.00000E+00
 -1      1500 2.97429E+01 9.15392E+01 0.00000E+00
 -1      1502 2.26908E+01 9.45138E+01 0.00000E+00
 -1      1503 1.50568E+01 9.50650E+01 0.00000E+00
 -1      1505 7.62618E+00 9.68998E+01 0.00000E+00
 -1      1507 9.75342E+01 1.54479E+01 0.00000E+00
 -1      1509 9.39168E+01 3.05154E+01 0.00000E+00
 -1      1511 8.79869E+01 4.48316E+01 0.00000E+00
 -1      1513 7.98904E+01 5.80438E+01 0.00000E+00
 -1      1515 6.98268E+01 6.98268E+01 0.00000E+00
 -1      1517 5.80438E+01 7.98904E+01 0.00000E+00
 -1      1519 4.48316E+01 8.79869E+01 0.00000E+00
 -1      1521 3.05154E+01 9.39168E+01 0.00000E+00
 -1      1523 1.54479E+01 9.75342E+01 0.00000E+00
 -1      1526 2.75000E+01 0.00000E+00 9.09091E-01
 -1      1527 2.75000E+01 0.00000E+00 1.81818E+00
 -1      1528 2.75000E+01 0.00000E+00 2.72727E+00
 -1      1529 2.75000E+01 0.00000E+00 3.63636E+00
 -1      1530 2.75000E+01 0.00000E+00 4.54545E+00
 -1      1531 2.75000E+01 0.00000E+00 5.45455E+00
 -1      1532 2.75000E+01 0.00000E+00 6.36364E+00
 -1      1533 2.75000E+01 0.00000E+00 7.27273E+00
 -1      1534 2.75000E+01 0.00000E+00 8.18182E+00
 -1      1535 2.75000E+01 0.00000E+00 9.09091E+00
 -1      1536 3.00000E+01 0.00000E+00 9.09091E-01
 -1      1537 3.00000E+01 0.00000E+00 1.81818E+00
 -1      1538 3.00000E+01 0.00000E+00 2.72727E+00
 -1      1539 3.00000E+01 0.00000E+00 3.63636E+00
 -1      1540 3.00000E+01 0.00000E+00 4.54545E+00
 -1      1541 3.00000E+01 0.00000E+00 5.45455E+00
 -1      1542 3.00000E+01 0.00000E+00 6.36364E+00
 -1      1543 3.00000E+01 0.00000E+00 7.27273E+00
 -1      1544 3.00000E+01 0.00000E+00 8.18182E+00
 -1      1545 3.00000E+01 0.00000E+00 9.09091E+00
 -1      1546 3.25000E+01 0.00000E+00 9.09091E-01
 -1      1547 3.25000E+01 0.00000E+00 1.81818E+00
 -1      1548 3.25000E+01 0.00000E+00 2.72727E+00
 -1      1549 3.25000E+01 0.00000E+00 3.63636E+00
 -1      1550 3.25000E+01 0.00000E+00 4.54545E+00
 -1      1551 3.25000E+01 0.00000E+00 5.45455E+00
 -1      1552 3.25000E+01 0.00000E+00 6.36364E+00
 -1      1553 3.25000E+01 0.00000E+00 7.27273E+00
 -1      1554 3.25000E+01 0.00000E+00 8.18182E+00
 -1      1555 3.25000E+01 0.00000E+00 9.09091E+00
 -1      1556 3.50000E+01 0.00000E+00 9.09091E-01
 -1      1557 3.50000E+01 0.00000E+00 1.81818E+00
 -1      1558 3.50000E+01 0.00000E+00 2.72727E+00
 -1      1559 3.50000E+01 0.00000E+00 3.63636E+00
 -1      1560 3.50000E+01 0.00000E+00 4.54545E+00
 -1      1561 3.50000E+01 0.00000E+00 5.45455E+00
 -1      1562 3.50000E+01 0.00000E+00 6.36364E+00
 -1      1563 3.50000E+01 0.00000E+00 7.27273E+00
 -1      1564 3.50000E+01 0.00000E+00 8.18182E+00
 -1      1565 3.50000E+01 0.00000E+00 9.09091E+00
 -1      1566 3.75000E+01 0.00000E+00 9.09091E-01
 -1      1567 3.75000E+01 0.00000E+00 1.81818E+00
 -1      1568 3.75000E+01 0.00000E+00 2.72727E+00
 -1      1569 3.75000E+01 0.00000E+00 3.63636E+00
 -1      1570 3.75000E+01 0.00000E+00 4.54545E+00
 -1      1571 3.75000E+01 0.00000E+00 5.45455E+00
 -1      1572 3.75000E+01 0.00000E+00 6.36364E+00
 -1      1573 3.75000E+01 0.00000E+00 7.27273E+00
 -1      1574 3.75000E+01 0.00000E+00 8.18182E+00
 -1      1575 3.75000E+01 0.00000E+00 9.09091E+00
 -1      1576 4.00000E+01 0.00000E+00 9.09091E-01
 -1      1577 4.00000E+01 0.00000E+00 1.81818E+00
 -1      1578 4.00000E+01 0.00000E+00 2.72727E+00
 -1      1579 4.00000E+01 0.00000E+00 3.63636E+00
 -1      1580 4.00000E+01 0.00000E+00 4.54545E+00
 -1      1581 4.00000E+01 0.00000E+00 5.45455E+00
 -1      1582 4.00000E+01 0.00000E+00 6.36364E+00
 -1      1583 4.00000E+01 0.00000E+00 7.27273E+00
 -1      1584 4.00000E+01 0.00000E+00 8.18182E+00
 -1      1585 4.00000E+01 0.00000E+00 9.09091E+00
 -1      1586 4.25000E+01 0.00000E+00 9.09091E-01
 -1      1587 4.25000E+01 0.00000E+00 1.81818E+00
 -1      1588 4.25000E+01 0.00000E+00 2.72727E+00
 -1      1589 4.25000E+01 0.00000E+00 3.63636E+00
 -1      1590 4.25000E+01 0.00000E+00 4.54545E+00
 -1      1591 4.25000E+01 0.00000E+00 5.45455E+00
 -1      1592 4.25000E+01 0.00000E+00 6.36364E+00
 -1      1593 4.25000E+01 0.00000E+00 7.27273E+00
 -1      1594 4.25000E+01 0.00000E+00 8.18182E+00
 -1      1595 4.25000E+01 0.00000E+00 9.09091E+00
 -1      1596 4.50000E+01 0.00000E+00 9.09091E-01
 -1      1597 4.50000E+01 0.00000E+00 1.81818E+00
 -1      1598 4.50000E+01 0.00000E+00 2.72727E+00
 -1      1599 4.50000E+01 0.00000E+00 3.63636E+00
 -1      1600 4.50000E+01 0.00000E+00 4.54545E+00
 -1      1601 4.50000E+01 0.00000E+00 5.45455E+00
 -1      1602 4.50000E+01 0.00000E+00 6.36364E+00
 -1      1603 4.50000E+01 0.00000E+00 7.27273E+00
 -1      1604 4.50000E+01 0.00000E+00 8.18182E+00
 -1      1605 4.50000E+01 0.00000E+00 9.09091E+00
 -1      1606 4.75000E+01 0.00000E+00 9.09091E-01
 -1      1607 4.75000E+01 0.00000E+00 1.81818E+00
 -1      1608 4.75000E+01 0.00000E+00 2.72727E+00
 -1      1609 4.75000E+01 0.00000E+00 3.63636E+00
 -1      1610 4.75000E+01 0.00000E+00 4.54545E+00
 -1      1611 4.75000E+01 0.00000E+00 5.45455E+00
 -1      1612 4.75000E+01 0.00000E+00 6.36364E+00
 -1      1613 4.75000E+01 0.00000E+00 7.27273E+00
 -1      1614 4.75000E+01 0.00000E+00 8.18182E+00
 -1      1615 4.75000E+01 0.00000E+00 9.09091E+00
 -1      1616 5.00000E+01 0.00000E+00 9.09091E-01
 -1      1617 5.00000E+01 0.00000E+00 1.81818E+00
 -1      1618 5.00000E+01 0.00000E+00 2.72727E+00
 -1      1619 5.00000E+01 0.00000E+00 3.63636E+00
 -1      1620 5.00000E+01 0.00000E+00 4.54545E+00
 -1      1621 5.00000E+01 0.00000E+00 5.45455E+00
 -1      1622 5.00000E+01 0.00000E+00 6.36364E+00
 -1      1623 5.00000E+01 0.00000E+00 7.27273E+00
 -1      1624 5.00000E+01 0.00000E+00 8.18182E+00
 -1      1625 5.00000E+01 0.00000E+00 9.09091E+00
 -1      1626 5.25000E+01 0.00000E+00 9.09091E-01
 -1      1627 5.25000E+01 0.00000E+00 1.81818E+00
 -1      1628 5.25000E+01 0.00000E+00 2.72727E+00
 -1      1629 5.25000E+01 0.00000E+00 3.63636E+00
 -1      1630 5.25000E+01 0.00000E+00 4.54545E+00
 -1      1631 5.25000E+01 0.00000E+00 5.45455E+00
 -1      1632 5.25000E+01 0.00000E+00 6.36364E+00
 -1      1633 5.25000E+01 0.00000E+00 7.27273E+00
 -1      1634 5.25000E+01 0.00000E+00 8.18182E+00
 -1      1635 5.25000E+01 0.00000E+00 9.09091E+00
 -1      1636 5.50000E+01 0.00000E+00 9.09091E-01
 -1      1637 5.50000E+01 0.00000E+00 1.81818E+00
 -1      1638 5.50000E+01 0.00000E+00 2.72727E+00
 -1      1639 5.50000E+01 0.00000E+00 3.63636E+00
 -1      1640 5.50000E+01 0.00000E+00 4.54545E+00
 -1      1641 5.50000E+01 0.00000E+00 5.45455E+00
 -1      1642 5.50000E+01 0.00000E+00 6.36364E+00
 -1      1643 5.50000E+01 0.00000E+00 7.27273E+00
 -1      1644 5.50000E+01 0.00000E+00 8.18182E+00
 -1      1645 5.50000E+01 0.00000E+00 9.09091E+00
 -1      1646 5.75000E+01 0.00000E+00 9.09091E-01
 -1      1647 5.75000E+01 0.00000E+00 1.81818E+00
 -1      1648 5.75000E+01 0.00000E+00 2.72727E+00
 -1      1649 5.75000E+01 0.00000E+00 3.63636E+00
 -1      1650 5.75000E+01 0.00000E+00 4.54545E+00
 -1      1651 5.75000E+01 0.00000E+00 5.45455E+00
 -1      1652 5.75000E+01 0.00000E+00 6.36364E+00
 -1      1653 5.75000E+01 0.00000E+00 7.27273E+00
 -1      1654 5.75000E+01 0.00000E+00 8.18182E+00
 -1      1655 5.75000E+01 0.00000E+00 9.09091E+00
 -1      1656 6.00000E+01 0.00000E+00 9.09091E-01
 -1      1657 6.00000E+01 0.00000E+00 1.81818E+00
 -1      1658 6.00000E+01 0.00000E+00 2.72727E+00
 -1      1659 6.00000E+01 0.00000E+00 3.63636E+00
 -1      1660 6.00000E+01 0.00000E+00 4.54545E+00
 -1      1661 6.00000E+01 0.00000E+00 5.45455E+00
 -1      1662 6.00000E+01 0.00000E+00 6.36364E+00
 -1      1663 6.00000E+01 0.00000E+00 7.27273E+00
 -1      1664 6.00000E+01 0.00000E+00 8.18182E+00
 -1      1665 6.00000E+01 0.00000E+00 9.09091E+00
 -1      1666 6.25000E+01 0.00000E+00 9.09091E-01
 -1      1667 6.25000E+01 0.00000E+00 1.81818E+00
 -1      1668 6.25000E+01 0.00000E+00 2.72727E+00
 -1      1669 6.25000E+01 0.00000E+00 3.63636E+00
 -1      1670 6.25000E+01 0.00000E+00 4.54545E+00
 -1      1671 6.25000E+01 0.00000E+00 5.45455E+00
 -1      1672 6.25000E+01 0.00000E+00 6.36364E+00
 -1      1673 6.25000E+01 0.00000E+00 7.27273E+00
 -1      1674 6.25000E+01 0.00000E+00 8.18182E+00
 -1      1675 6.25000E+01 0.00000E+00 9.09091E+00
 -1      1676 6.50000E+01 0.00000E+00 9.09091E-01
 -1      1677 6.50000E+01 0.00000E+00 1.81818E+00
 -1      1678 6.50000E+01 0.00000E+00 2.72727E+00
 -1      1679 6.50000E+01 0.00000E+00 3.63636E+00
 -1      1680 6.50000E+01 0.00000E+00 4.54545E+00
 -1      1681 6.50000E+01 0.00000E+00 5.45455E+00
 -1      1682 6.50000E+01 0.00000E+00 6.36364E+00
 -1      1683 6.50000E+01 0.00000E+00 7.27273E+00
 -1      1684 6.50000E+01 0.00000E+00 8.18182E+00
 -1      1685 6.50000E+01 0.00000E+00 9.09091E+00
 -1      1686 6.75000E+01 0.00000E+00 9.09091E-01
 -1      1687 6.75000E+01 0.00000E+00 1.81818E+00
 -1      1688 6.75000E+01 0.00000E+00 2.72727E+00
 -1      1689 6.75000E+01 0.00000E+00 3.63636E+00
 -1      1690 6.75000E+01 0.00000E+00 4.54545E+00
 -1      1691 6.75000E+01 0.00000E+00 5.45455E+00
 -1      1692 6.75000E+01 0.00000E+00 6.36364E+00
 -1      1693 6.75000E+01 0.00000E+00 7.27273E+00
 -1      1694 6.75000E+01 0.00000E+00 8.18182E+00
 -1      1695 6.75000E+01 0.00000E+00 9.09091E+00
 -1      1696 7.00000E+01 0.00000E+00 9.09091E-01
 -1      1697 7.00000E+01 0.00000E+00 1.81818E+00
 -1      1698 7.00000E+01 0.00000E+00 2.72727E+00
 -1      1699 7.00000E+01 0.00000E+00 3.63636E+00
 -1      1700 7.00000E+01 0.00000E+00 4.54545E+00
 -1      1701 7.00000E+01 0.00000E+00 5.45455E+00
 -1      1702 7.00000E+01 0.00000E+00 6.36364E+00
 -1      1703 7.00000E+01 0.00000E+00 7.27273E+00
 -1      1704 7.00000E+01 0.00000E+00 8.18182E+00
 -1      1705 7.00000E+01 0.00000E+00 9.09091E+00
 -1      1706 7.25000E+01 0.00000E+00 9.09091E-01
 -1      1707 7.25000E+01 0.00000E+00 1.81818E+00
 -1      1708 7.25000E+01 0.00000E+00 2.72727E+00
 -1      1709 7.25000E+01 0.00000E+00 3.63636E+00
 -1      1710 7.25000E+01 0.00000E+00 4.54545E+00
 -1      1711 7.25000E+01 0.00000E+00 5.45455E+00
 -1      1712 7.25000E+01 0.00000E+00 6.36364E+00
 -1      1713 7.25000E+01 0.00000E+00 7.27273E+00
 -1      1714 7.25000E+01 0.00000E+00 8.18182E+00
 -1      1715 7.25000E+01 0.00000E+00 9.09091E+00
 -1      1716 7.50000E+01 0.00000E+00 9.09091E-01
 -1      1717 7.50000E+01 0.00000E+00 1.81818E+00
 -1      1718 7.50000E+01 0.00000E+00 2.72727E+00
 -1      1719 7.50000E+01 0.00000E+00 3.63636E+00
 -1      1720 7.50000E+01 0.00000E+00 4.54545E+00
 -1      1721 7.50000E+01 0.00000E+00 5.45455E+00
 -1      1722 7.50000E+01 0.00000E+00 6.36364E+00
 -1      1723 7.50000E+01 0.00000E+00 7.27273E+00
 -1      1724 7.50000E+01 0.00000E+00 8.18182E+00
 -1      1725 7.50000E+01 0.00000E+00 9.09091E+00
 -1      1726 7.75000E+01 0.00000E+00 9.09091E-01
 -1      1727 7.75000E+01 0.00000E+00 1.81818E+00
 -1      1728 7.75000E+01 0.00000E+00 2.72727E+00
 -1      1729 7.75000E+01 0.00000E+00 3.63636E+00
 -1      1730 7.75000E+01 0.00000E+00 4.54545E+00
 -1      1731 7.75000E+01 0.00000E+00 5.45455E+00
 -1      1732 7.75000E+01 0.00000E+00 6.36364E+00
 -1      1733 7.75000E+01 0.00000E+00 7.27273E+00
 -1      1734 7.75000E+01 0.00000E+00 8.18182E+00
 -1      1735 7.75000E+01 0.00000E+00 9.09091E+00
 -1      1736 8.00000E+01 0.00000E+00 9.09091E-01
 -1      1737 8.00000E+01 0.00000E+00 1.81818E+00
 -1      1738 8.00000E+01 0.00000E+00 2.72727E+00
 -1      1739 8.00000E+01 0.00000E+00 3.63636E+00
 -1      1740 8.00000E+01 0.00000E+00 4.54545E+00
 -1      1741 8.00000E+01 0.00000E+00 5.45455E+00
 -1      1742 8.00000E+01 0.00000E+00 6.36364E+00
 -1      1743 8.00000E+01 0.00000E+00 7.27273E+00
 -1      1744 8.00000E+01 0.00000E+00 8.18182E+00
 -1      1745 8.00000E+01 0.00000E+00 9.09091E+00
 -1      1746 8.25000E+01 0.00000E+00 9.09091E-01
 -1      1747 8.25000E+01 0.00000E+00 1.81818E+00
 -1      1748 8.25000E+01 0.00000E+00 2.72727E+00
 -1      1749 8.25000E+01 0.00000E+00 3.63636E+00
 -1      1750 8.25000E+01 0.00000E+00 4.54545E+00
 -1      1751 8.25000E+01 0.00000E+00 5.45455E+00
 -1      1752 8.25000E+01 0.00000E+00 6.36364E+00
 -1      1753 8.25000E+01 0.00000E+00 7.27273E+00
 -1      1754 8.25000E+01 0.00000E+00 8.18182E+00
 -1      1755 8.25000E+01 0.00000E+00 9.09091E+00
 -1      1756 8.50000E+01 0.00000E+00 9.09091E-01
 -1      1757 8.50000E+01 0.00000E+00 1.81818E+00
 -1      1758 8.50000E+01 0.00000E+00 2.72727E+00
 -1      1759 8.50000E+01 0.00000E+00 3.63636E+00
 -1      1760 8.50000E+01 0.00000E+00 4.54545E+00
 -1      1761 8.50000E+01 0.00000E+00 5.45455E+00
 -1      1762 8.50000E+01 0.00000E+00 6.36364E+00
 -1      1763 8.50000E+01 0.00000E+00 7.27273E+00
 -1      1764 8.50000E+01 0.00000E+00 8.18182E+00
 -1      1765 8.50000E+01 0.00000E+00 9.09091E+00
 -1      1766 8.75000E+01 0.00000E+00 9.09091E-01
 -1      1767 8.75000E+01 0.00000E+00 1.81818E+00
 -1      1768 8.75000E+01 0.00000E+00 2.72727E+00
 -1      1769 8.75000E+01 0.00000E+00 3.63636E+00
 -1      1770 8.75000E+01 0.00000E+00 4.54545E+00
 -1      1771 8.75000E+01 0.00000E+00 5.45455E+00
 -1      1772 8.75000E+01 0.00000E+00 6.36364E+00
 -1      1773 8.75000E+01 0.00000E+00 7.27273E+00
 -1      1774 8.75000E+01 0.00000E+00 8.18182E+00
 -1      1775 8.75000E+01 0.00000E+00 9.09091E+00
 -1      1776 9.00000E+01 0.00000E+00 9.09091E-01
 -1      1777 9.00000E+01 0.00000E+00 1.81818E+00
 -1      1778 9.00000E+01 0.00000E+00 2.72727E+00
 -1      1779 9.00000E+01 0.00000E+00 3.63636E+00
 -1      1780 9.00000E+01 0.00000E+00 4.54545E+00
 -1      1781 9.00000E+01 0.00000E+00 5.45455E+00
 -1      1782 9.00000E+01 0.00000E+00 6.36364E+00
 -1      1783 9.00000E+01 0.00000E+00 7.27273E+00
 -1      1784 9.00000E+01 0.00000E+00 8.18182E+00
 -1      1785 9.00000E+01 0.00000E+00 9.09091E+00
 -1      1786 9.25000E+01 0.00000E+00 9.09091E-01
 -1      1787 9.25000E+01 0.00000E+00 1.81818E+00
 -1      1788 9.25000E+01 0.00000E+00 2.72727E+00
 -1      1789 9.25000E+01 0.00000E+00 3.63636E+00
 -1      1790 9.25000E+01 0.00000E+00 4.54545E+00
 -1      1791 9.25000E+01 0.00000E+00 5.45455E+00
 -1      1792 9.25000E+01 0.00000E+00 6.36364E+00
 -1      1793 9.25000E+01 0.00000E+00 7.27273E+00
 -1      1794 9.25000E+01 0.00000E+00 8.18182E+00
 -1      1795 9.25000E+01 0.00000E+00 9.09091E+00
 -1      1796 9.50000E+01 0.00000E+00 9.09091E-01
 -1      1797 9.50000E+01 0.00000E+00 1.81818E+00
 -1      1798 9.50000E+01 0.00000E+00 2.72727E+00
 -1      1799 9.50000E+01 0.00000E+00 3.63636E+00
 -1      1800 9.50000E+01 0.00000E+00 4.54545E+00
 -1      1801 9.50000E+01 0.00000E+00 5.45455E+00
 -1      1802 9.50000E+01 0.00000E+00 6.36364E+00
 -1      1803 9.50000E+01 0.00000E+00 7.27273E+00
 -1      1804 9.50000E+01 0.00000E+00 8.18182E+00
 -1      1805 9.50000E+01 0.00000E+00 9.09091E+00
 -1      1806 9.75000E+01 0.00000E+00 9.09091E-01
 -1      1807 9.75000E+01 0.00000E+00 1.81818E+00
 -1      1808 9.75000E+01 0.00000E+00 2.72727E+00
 -1      1809 9.75000E+01 0.00000E+00 3.63636E+00
 -1      1810 9.75000E+01 0.00000E+00 4.54545E+00
 -1      1811 9.75000E+01 0.00000E+00 5.45455E+00
 -1      1812 9.75000E+01 0.00000E+00 6.36364E+00
 -1      1813 9.75000E+01 0.00000E+00 7.27273E+00
 -1      1814 9.75000E+01 0.00000E+00 8.18182E+00
 -1      1815 9.75000E+01 0.00000E+00 9.09091E+00
 -1      1816 2.75000E+01 0.00000E+00 4.54545E-01
 -1      1817 2.62500E+01 0.00000E+00 9.09091E-01
 -1      1819 2.75000E+01 0.00000E+00 1.36364E+00
 -1      1820 2.62500E+01 0.00000E+00 1.81818E+00
 -1      1822 2.75000E+01 0.00000E+00 2.27273E+00
 -1      1823 2.62500E+01 0.00000E+00 2.72727E+00
 -1      1825 2.75000E+01 0.00000E+00 3.18182E+00
 -1      1826 2.62500E+01 0.00000E+00 3.63636E+00
 -1      1828 2.75000E+01 0.00000E+00 4.09091E+00
 -1      1829 2.62500E+01 0.00000E+00 4.54545E+00
 -1      1831 2.75000E+01 0.00000E+00 5.00000E+00
 -1      1832 2.62500E+01 0.00000E+00 5.45455E+00
 -1      1834 2.75000E+01 0.00000E+00 5.90909E+00
 -1      1835 2.62500E+01 0.00000E+00 6.36364E+00
 -1      1837 2.75000E+01 0.00000E+00 6.81818E+00
 -1      1838 2.62500E+01 0.00000E+00 7.27273E+00
 -1      1840 2.75000E+01 0.00000E+00 7.72727E+00
 -1      1841 2.62500E+01 0.00000E+00 8.18182E+00
 -1      1843 2.75000E+01 0.00000E+00 8.63636E+00
 -1      1844 2.62500E+01 0.00000E+00 9.09091E+00
 -1      1846 2.75000E+01 0.00000E+00 9.54545E+00
 -1      1848 3.00000E+01 0.00000E+00 4.54545E-01
 -1      1849 2.87500E+01 0.00000E+00 9.09091E-01
 -1      1851 3.00000E+01 0.00000E+00 1.36364E+00
 -1      1852 2.87500E+01 0.00000E+00 1.81818E+00
 -1      1854 3.00000E+01 0.00000E+00 2.27273E+00
 -1      1855 2.87500E+01 0.00000E+00 2.72727E+00
 -1      1857 3.00000E+01 0.00000E+00 3.18182E+00
 -1      1858 2.87500E+01 0.00000E+00 3.63636E+00
 -1      1860 3.00000E+01 0.00000E+00 4.09091E+00
 -1      1861 2.87500E+01 0.00000E+00 4.54545E+00
 -1      1863 3.00000E+01 0.00000E+00 5.00000E+00
 -1      1864 2.87500E+01 0.00000E+00 5.45455E+00
 -1      1866 3.00000E+01 0.00000E+00 5.90909E+00
 -1      1867 2.87500E+01 0.00000E+00 6.36364E+00
 -1      1869 3.00000E+01 0.00000E+00 6.81818E+00
 -1      1870 2.87500E+01 0.00000E+00 7.27273E+00
 -1      1872 3.00000E+01 0.00000E+00 7.72727E+00
 -1      1873 2.87500E+01 0.00000E+00 8.18182E+00
 -1      1875 3.00000E+01 0.00000E+00 8.63636E+00
 -1      1876 2.87500E+01 0.00000E+00 9.09091E+00
 -1      1878 3.00000E+01 0.00000E+00 9.54545E+00
 -1      1880 3.25000E+01 0.00000E+00 4.54545E-01
 -1      1881 3.12500E+01 0.00000E+00 9.09091E-01
 -1      1883 3.25000E+01 0.00000E+00 1.36364E+00
 -1      1884 3.12500E+01 0.00000E+00 1.81818E+00
 -1      1886 3.25000E+01 0.00000E+00 2.27273E+00
 -1      1887 3.12500E+01 0.00000E+00 2.72727E+00
 -1      1889 3.25000E+01 0.00000E+00 3.18182E+00
 -1      1890 3.12500E+01 0.00000E+00 3.63636E+00
 -1      1892 3.25000E+01 0.00000E+00 4.09091E+00
 -1      1893 3.12500E+01 0.00000E+00 4.54545E+00
 -1      1895 3.25000E+01 0.00000E+00 5.00000E+00
 -1      1896 3.12500E+01 0.00000E+00 5.45455E+00
 -1      1898 3.25000E+01 0.00000E+00 5.90909E+00
 -1      1899 3.12500E+01 0.00000E+00 6.36364E+00
 -1      1901 3.25000E+01 0.00000E+00 6.81818E+00
 -1      1902 3.12500E+01 0.00000E+00 7.27273E+00
 -1      1904 3.25000E+01 0.00000E+00 7.72727E+00
 -1      1905 3.12500E+01 0.00000E+00 8.18182E+00
 -1      1907 3.25000E+01 0.00000E+00 8.63636E+00
 -1      1908 3.12500E+01 0.00000E+00 9.09091E+00
 -1      1910 3.25000E+01 0.00000E+00 9.54545E+00
 -1      1912 3.50000E+01 0.00000E+00 4.54545E-01
 -1      1913 3.37500E+01 0.00000E+00 9.09091E-01
 -1      1915 3.50000E+01 0.00000E+00 1.36364E+00
 -1      1916 3.37500E+01 0.00000E+00 1.81818E+00
 -1      1918 3.50000E+01 0.00000E+00 2.27273E+00
 -1      1919 3.37500E+01 0.00000E+00 2.72727E+00
 -1      1921 3.50000E+01 0.00000E+00 3.18182E+00
 -1      1922 3.37500E+01 0.00000E+00 3.63636E+00
 -1      1924 3.50000E+01 0.00000E+00 4.09091E+00
 -1      1925 3.37500E+01 0.00000E+00 4.54545E+00
 -1      1927 3.50000E+01 0.00000E+00 5.00000E+00
 -1      1928 3.37500E+01 0.00000E+00 5.45455E+00
 -1      1930 3.50000E+01 0.00000E+00 5.90909E+00
 -1      1931 3.37500E+01 0.00000E+00 6.36364E+00
 -1      1933 3.50000E+01 0.00000E+00 6.81818E+00
 -1      1934 3.37500E+01 0.00000E+00 7.27273E+00
 -1      1936 3.50000E+01 0.00000E+00 7.72727E+00
 -1      1937 3.37500E+01 0.00000E+00 8.18182E+00
 -1      1939 3.50000E+01 0.00000E+00 8.63636E+00
 -1      1940 3.37500E+01 0.00000E+00 9.09091E+00
 -1      1942 3.50000E+01 0.00000E+00 9.54545E+00
 -1      1944 3.75000E+01 0.00000E+00 4.54545E-01
 -1      1945 3.62500E+01 0.00000E+00 9.09091E-01
 -1      1947 3.75000E+01 0.00000E+00 1.36364E+00
 -1      1948 3.62500E+01 0.00000E+00 1.81818E+00
 -1      1950 3.75000E+01 0.00000E+00 2.27273E+00
 -1      1951 3.62500E+01 0.00000E+00 2.72727E+00
 -1      1953 3.75000E+01 0.00000E+00 3.18182E+00
 -1      1954 3.62500E+01 0.00000E+00 3.63636E+00
 -1      1956 3.75000E+01 0.00000E+00 4.09091E+00
 -1      1957 3.62500E+01 0.00000E+00 4.54545E+00
 -1      1959 3.75000E+01 0.00000E+00 5.00000E+00
 -1      1960 3.62500E+01 0.00000E+00 5.45455E+00
 -1      1962 3.75000E+01 0.00000E+00 5.90909E+00
 -1      1963 3.62500E+01 0.00000E+00 6.36364E+00
 -1      1965 3.75000E+01 0.00000E+00 6.81818E+00
 -1      1966 3.62500E+01 0.00000E+00 7.27273E+00
 -1      1968 3.75000E+01 0.00000E+00 7.72727E+00
 -1      1969 3.62500E+01 0.00000E+00 8.18182E+00
 -1      1971 3.75000E+01 0.00000E+00 8.63636E+00
 -1      1972 3.62500E+01 0.00000E+00 9.09091E+00
 -1      1974 3.75000E+01 0.00000E+00 9.54545E+00
 -1      1976 4.00000E+01 0.00000E+00 4.54545E-01
 -1      1977 3.87500E+01 0.00000E+00 9.09091E-01
 -1      1979 4.00000E+01 0.00000E+00 1.36364E+00
 -1      1980 3.87500E+01 0.00000E+00 1.81818E+00
 -1      1982 4.00000E+01 0.00000E+00 2.27273E+00
 -1      1983 3.87500E+01 0.00000E+00 2.72727E+00
 -1      1985 4.00000E+01 0.00000E+00 3.18182E+00
 -1      1986 3.87500E+01 0.00000E+00 3.63636E+00
 -1      1988 4.00000E+01 0.00000E+00 4.09091E+00
 -1      1989 3.87500E+01 0.00000E+00 4.54545E+00
 -1      1991 4.00000E+01 0.00000E+00 5.00000E+00
 -1      1992 3.87500E+01 0.00000E+00 5.45455E+00
 -1      1994 4.00000E+01 0.00000E+00 5.90909E+00
 -1      1995 3.87500E+01 0.00000E+00 6.36364E+00
 -1      1997 4.00000E+01 0.00000E+00 6.81818E+00
 -1      1998 3.87500E+01 0.00000E+00 7.27273E+00
 -1      2000 4.00000E+01 0.00000E+00 7.72727E+00
 -1      2001 3.87500E+01 0.00000E+00 8.18182E+00
 -1      2003 4.00000E+01 0.00000E+00 8.63636E+00
 -1      2004 3.87500E+01 0.00000E+00 9.09091E+00
 -1      2006 4.00000E+01 0.00000E+00 9.54545E+00
 -1      2008 4.25000E+01 0.00000E+00 4.54545E-01
 -1      2009 4.12500E+01 0.00000E+00 9.09091E-01
 -1      2011 4.25000E+01 0.00000E+00 1.36364E+00
 -1      2012 4.12500E+01 0.00000E+00 1.81818E+00
 -1      2014 4.25000E+01 0.00000E+00 2.27273E+00
 -1      2015 4.12500E+01 0.00000E+00 2.72727E+00
 -1      2017 4.25000E+01 0.00000E+00 3.18182E+00
 -1      2018 4.12500E+01 0.00000E+00 3.63636E+00
 -1      2020 4.25000E+01 0.00000E+00 4.09091E+00
 -1      2021 4.12500E+01 0.00000E+00 4.54545E+00
 -1      2023 4.25000E+01 0.00000E+00 5.00000E+00
 -1      2024 4.12500E+01 0.00000E+00 5.45455E+00
 -1      2026 4.25000E+01 0.00000E+00 5.90909E+00
 -1      2027 4.12500E+01 0.00000E+00 6.36364E+00
 -1      2029 4.25000E+01 0.00000E+00 6.81818E+00
 -1      2030 4.12500E+01 0.00000E+00 7.27273E+00
 -1      2032 4.25000E+01 0.00000E+00 7.72727E+00
 -1      2033 4.12500E+01 0.00000E+00 8.18182E+00
 -1      2035 4.25000E+01 0.00000E+00 8.63636E+00
 -1      2036 4.12500E+01 0.00000E+00 9.09091E+00
 -1      2038 4.25000E+01 0.00000E+00 9.54545E+00
 -1      2040 4.50000E+01 0.00000E+00 4.54545E-01
 -1      2041 4.37500E+01 0.00000E+00 9.09091E-01
 -1      2043 4.50000E+01 0.00000E+00 1.36364E+00
 -1      2044 4.37500E+01 0.00000E+00 1.81818E+00
 -1      2046 4.50000E+01 0.00000E+00 2.27273E+00
 -1      2047 4.37500E+01 0.00000E+00 2.72727E+00
 -1      2049 4.50000E+01 0.00000E+00 3.18182E+00
 -1      2050 4.37500E+01 0.00000E+00 3.63636E+00
 -1      2052 4.50000E+01 0.00000E+00 4.09091E+00
 -1      2053 4.37500E+01 0.00000E+00 4.54545E+00
 -1      2055 4.50000E+01 0.00000E+00 5.00000E+00
 -1      2056 4.37500E+01 0.00000E+00 5.45455E+00
 -1      2058 4.50000E+01 0.00000E+00 5.90909E+00
 -1      2059 4.37500E+01 0.00000E+00 6.36364E+00
 -1      2061 4.50000E+01 0.00000E+00 6.81818E+00
 -1      2062 4.37500E+01 0.00000E+00 7.27273E+00
 -1      2064 4.50000E+01 0.00000E+00 7.72727E+00
 -1      2065 4.37500E+01 0.00000E+00 8.18182E+00
 -1      2067 4.50000E+01 0.00000E+00 8.63636E+00
 -1      2068 4.37500E+01 0.00000E+00 9.09091E+00
 -1      2070 4.50000E+01 0.00000E+00 9.54545E+00
 -1      2072 4.75000E+01 0.00000E+00 4.54545E-01
 -1      2073 4.62500E+01 0.00000E+00 9.09091E-01
 -1      2075 4.75000E+01 0.00000E+00 1.36364E+00
 -1      2076 4.62500E+01 0.00000E+00 1.81818E+00
 -1      2078 4.75000E+01 0.00000E+00 2.27273E+00
 -1      2079 4.62500E+01 0.00000E+00 2.72727E+00
 -1      2081 4.75000E+01 0.00000E+00 3.18182E+00
 -1      2082 4.62500E+01 0.00000E+00 3.63636E+00
 -1      2084 4.75000E+01 0.00000E+00 4.09091E+00
 -1      2085 4.62500E+01 0.00000E+00 4.54545E+00
 -1      2087 4.75000E+01 0.00000E+00 5.00000E+00
 -1      2088 4.62500E+01 0.00000E+00 5.45455E+00
 -1      2090 4.75000E+01 0.00000E+00 5.90909E+00
 -1      2091 4.62500E+01 0.00000E+00 6.36364E+00
 -1      2093 4.75000E+01 0.00000E+00 6.81818E+00
 -1      2094 4.62500E+01 0.00000E+00 7.27273E+00
 -1      2096 4.75000E+01 0.00000E+00 7.72727E+00
 -1      2097 4.62500E+01 0.00000E+00 8.18182E+00
 -1      2099 4.75000E+01 0.00000E+00 8.63636E+00
 -1      2100 4.62500E+01 0.00000E+00 9.09091E+00
 -1      2102 4.75000E+01 0.00000E+00 9.54545E+00
 -1      2104 5.00000E+01 0.00000E+00 4.54545E-01
 -1      2105 4.87500E+01 0.00000E+00 9.09091E-01
 -1      2107 5.00000E+01 0.00000E+00 1.36364E+00
 -1      2108 4.87500E+01 0.00000E+00 1.81818E+00
 -1      2110 5.00000E+01 0.00000E+00 2.27273E+00
 -1      2111 4.87500E+01 0.00000E+00 2.72727E+00
 -1      2113 5.00000E+01 0.00000E+00 3.18182E+00
 -1      2114 4.87500E+01 0.00000E+00 3.63636E+00
 -1      2116 5.00000E+01 0.00000E+00 4.09091E+00
 -1      2117 4.87500E+01 0.00000E+00 4.54545E+00
 -1      2119 5.00000E+01 0.00000E+00 5.00000E+00
 -1      2120 4.87500E+01 0.00000E+00 5.45455E+00
 -1      2122 5.00000E+01 0.00000E+00 5.90909E+00
 -1      2123 4.87500E+01 0.00000E+00 6.36364E+00
 -1      2125 5.00000E+01 0.00000E+00 6.81818E+00
 -1      2126 4.87500E+01 0.00000E+00 7.27273E+00
 -1      2128 5.00000E+01 0.00000E+00 7.72727E+00
 -1      2129 4.87500E+01 0.00000E+00 8.18182E+00
 -1      2131 5.00000E+01 0.00000E+00 8.63636E+00
 -1      2132 4.87500E+01 0.00000E+00 9.09091E+00
 -1      2134 5.00000E+01 0.00000E+00 9.54545E+00
 -1      2136 5.25000E+01 0.00000E+00 4.54545E-01
 -1      2137 5.12500E+01 0.00000E+00 9.09091E-01
 -1      2139 5.25000E+01 0.00000E+00 1.36364E+00
 -1      2140 5.12500E+01 0.00000E+00 1.81818E+00
 -1      2142 5.25000E+01 0.00000E+00 2.27273E+00
 -1      2143 5.12500E+01 0.00000E+00 2.72727E+00
 -1      2145 5.25000E+01 0.00000E+00 3.18182E+00
 -1      2146 5.12500E+01 0.00000E+00 3.63636E+00
 -1      2148 5.25000E+01 0.00000E+00 4.09091E+00
 -1      2149 5.12500E+01 0.00000E+00 4.54545E+00
 -1      2151 5.25000E+01 0.00000E+00 5.00000E+00
 -1      2152 5.12500E+01 0.00000E+00 5.45455E+00
 -1      2154 5.25000E+01 0.00000E+00 5.90909E+00
 -1      2155 5.12500E+01 0.00000E+00 6.36364E+00
 -1      2157 5.25000E+01 0.00000E+00 6.81818E+00
 -1      2158 5.12500E+01 0.00000E+00 7.27273E+00
 -1      2160 5.25000E+01 0.00000E+00 7.72727E+00
 -1      2161 5.12500E+01 0.00000E+00 8.18182E+00
 -1      2163 5.25000E+01 0.00000E+00 8.63636E+00
 -1      2164 5.12500E+01 0.00000E+00 9.09091E+00
 -1      2166 5.25000E+01 0.00000E+00 9.54545E+00
 -1      2168 5.50000E+01 0.00000E+00 4.54545E-01
 -1      2169 5.37500E+01 0.00000E+00 9.09091E-01
 -1      2171 5.50000E+01 0.00000E+00 1.36364E+00
 -1      2172 5.37500E+01 0.00000E+00 1.81818E+00
 -1      2174 5.50000E+01 0.00000E+00 2.27273E+00
 -1      2175 5.37500E+01 0.00000E+00 2.72727E+00
 -1      2177 5.50000E+01 0.00000E+00 3.18182E+00
 -1      2178 5.37500E+01 0.00000E+00 3.63636E+00
 -1      2180 5.50000E+01 0.00000E+00 4.09091E+00
 -1      2181 5.37500E+01 0.00000E+00 4.54545E+00
 -1      2183 5.50000E+01 0.00000E+00 5.00000E+00
 -1      2184 5.37500E+01 0.00000E+00 5.45455E+00
 -1      2186 5.50000E+01 0.00000E+00 5.90909E+00
 -1      2187 5.37500E+01 0.00000E+00 6.36364E+00
 -1      2189 5.50000E+01 0.00000E+00 6.81818E+00
 -1      2190 5.37500E+01 0.00000E+00 7.27273E+00
 -1      2192 5.50000E+01 0.00000E+00 7.72727E+00
 -1      2193 5.37500E+01 0.00000E+00 8.18182E+00
 -1      2195 5.50000E+01 0.00000E+00 8.63636E+00
 -1      2196 5.37500E+01 0.00000E+00 9.09091E+00
 -1      2198 5.50000E+01 0.00000E+00 9.54545E+00
 -1      2200 5.75000E+01 0.00000E+00 4.54545E-01
 -1      2201 5.62500E+01 0.00000E+00 9.09091E-01
 -1      2203 5.75000E+01 0.00000E+00 1.36364E+00
 -1      2204 5.62500E+01 0.00000E+00 1.81818E+00
 -1      2206 5.75000E+01 0.00000E+00 2.27273E+00
 -1      2207 5.62500E+01 0.00000E+00 2.72727E+00
 -1      2209 5.75000E+01 0.00000E+00 3.18182E+00
 -1      2210 5.62500E+01 0.00000E+00 3.63636E+00
 -1      2212 5.75000E+01 0.00000E+00 4.09091E+00
 -1      2213 5.62500E+01 0.00000E+00 4.54545E+00
 -1      2215 5.75000E+01 0.00000E+00 5.00000E+00
 -1      2216 5.62500E+01 0.00000E+00 5.45455E+00
 -1      2218 5.75000E+01 0.00000E+00 5.90909E+00
 -1      2219 5.62500E+01 0.00000E+00 6.36364E+00
 -1      2221 5.75000E+01 0.00000E+00 6.81818E+00
 -1      2222 5.62500E+01 0.00000E+00 7.27273E+00
 -1      2224 5.75000E+01 0.00000E+00 7.72727E+00
 -1      2225 5.62500E+01 0.00000E+00 8.18182E+00
 -1      2227 5.75000E+01 0.00000E+00 8.63636E+00
 -1      2228 5.62500E+01 0.00000E+00 9.09091E+00
 -1      2230 5.75000E+01 0.00000E+00 9.54545E+00
 -1      2232 6.00000E+01 0.00000E+00 4.54545E-01
 -1      2233 5.87500E+01 0.00000E+00 9.09091E-01
 -1      2235 6.00000E+01 0.00000E+00 1.36364E+00
 -1      2236 5.87500E+01 0.00000E+00 1.81818E+00
 -1      2238 6.00000E+01 0.00000E+00 2.27273E+00
 -1      2239 5.87500E+01 0.00000E+00 2.72727E+00
 -1      2241 6.00000E+01 0.00000E+00 3.18182E+00
 -1      2242 5.87500E+01 0.00000E+00 3.63636E+00
 -1      2244 6.00000E+01 0.00000E+00 4.09091E+00
 -1      2245 5.87500E+01 0.00000E+00 4.54545E+00
 -1      2247 6.00000E+01 0.00000E+00 5.00000E+00
 -1      2248 5.87500E+01 0.00000E+00 5.45455E+00
 -1      2250 6.00000E+01 0.00000E+00 5.90909E+00
 -1      2251 5.87500E+01 0.00000E+00 6.36364E+00
 -1      2253 6.00000E+01 0.00000E+00 6.81818E+00
 -1      2254 5.87500E+01 0.00000E+00 7.27273E+00
 -1      2256 6.00000E+01 0.00000E+00 7.72727E+00
 -1      2257 5.87500E+01 0.00000E+00 8.18182E+00
 -1      2259 6.00000E+01 0.00000E+00 8.63636E+00
 -1      2260 5.87500E+01 0.00000E+00 9.09091E+00
 -1      2262 6.00000E+01 0.00000E+00 9.54545E+00
 -1      2264 6.25000E+01 0.00000E+00 4.54545E-01
 -1      2265 6.12500E+01 0.00000E+00 9.09091E-01
 -1      2267 6.25000E+01 0.00000E+00 1.36364E+00
 -1      2268 6.12500E+01 0.00000E+00 1.81818E+00
 -1      2270 6.25000E+01 0.00000E+00 2.27273E+00
 -1      2271 6.12500E+01 0.00000E+00 2.72727E+00
 -1      2273 6.25000E+01 0.00000E+00 3.18182E+00
 -1      2274 6.12500E+01 0.00000E+00 3.63636E+00
 -1      2276 6.25000E+01 0.00000E+00 4.09091E+00
 -1      2277 6.12500E+01 0.00000E+00 4.54545E+00
 -1      2279 6.25000E+01 0.00000E+00 5.00000E+00
 -1      2280 6.12500E+01 0.00000E+00 5.45455E+00
 -1      2282 6.25000E+01 0.00000E+00 5.90909E+00
 -1      2283 6.12500E+01 0.00000E+00 6.36364E+00
 -1      2285 6.25000E+01 0.00000E+00 6.81818E+00
 -1      2286 6.12500E+01 0.00000E+00 7.27273E+00
 -1      2288 6.25000E+01 0.00000E+00 7.72727E+00
 -1      2289 6.12500E+01 0.00000E+00 8.18182E+00
 -1      2291 6.25000E+01 0.00000E+00 8.63636E+00
 -1      2292 6.12500E+01 0.00000E+00 9.09091E+00
 -1      2294 6.25000E+01 0.00000E+00 9.54545E+00
 -1      2296 6.50000E+01 0.00000E+00 4.54545E-01
 -1      2297 6.37500E+01 0.00000E+00 9.09091E-01
 -1      2299 6.50000E+01 0.00000E+00 1.36364E+00
 -1      2300 6.37500E+01 0.00000E+00 1.81818E+00
 -1      2302 6.50000E+01 0.00000E+00 2.27273E+00
 -1      2303 6.37500E+01 0.00000E+00 2.72727E+00
 -1      2305 6.50000E+01 0.00000E+00 3.18182E+00
 -1      2306 6.37500E+01 0.00000E+00 3.63636E+00
 -1      2308 6.50000E+01 0.00000E+00 4.09091E+00
 -1      2309 6.37500E+01 0.00000E+00 4.54545E+00
 -1      2311 6.50000E+01 0.00000E+00 5.00000E+00
 -1      2312 6.37500E+01 0.00000E+00 5.45455E+00
 -1      2314 6.50000E+01 0.00000E+00 5.90909E+00
 -1      2315 6.37500E+01 0.00000E+00 6.36364E+00
 -1      2317 6.50000E+01 0.00000E+00 6.81818E+00
 -1      2318 6.37500E+01 0.00000E+00 7.27273E+00
 -1      2320 6.50000E+01 0.00000E+00 7.72727E+00
 -1      2321 6.37500E+01 0.00000E+00 8.18182E+00
 -1      2323 6.50000E+01 0.00000E+00 8.63636E+00
 -1      2324 6.37500E+01 0.00000E+00 9.09091E+00
 -1      2326 6.50000E+01 0.00000E+00 9.54545E+00
 -1      2328 6.75000E+01 0.00000E+00 4.54545E-01
 -1      2329 6.62500E+01 0.00000E+00 9.09091E-01
 -1      2331 6.75000E+01 0.00000E+00 1.36364E+00
 -1      2332 6.62500E+01 0.00000E+00 1.81818E+00
 -1      2334 6.75000E+01 0.00000E+00 2.27273E+00
 -1      2335 6.62500E+01 0.00000E+00 2.72727E+00
 -1      2337 6.75000E+01 0.00000E+00 3.18182E+00
 -1      2338 6.62500E+01 0.00000E+00 3.63636E+00
 -1      2340 6.75000E+01 0.00000E+00 4.09091E+00
 -1      2341 6.62500E+01 0.00000E+00 4.54545E+00
 -1      2343 6.75000E+01 0.00000E+00 5.00000E+00
 -1      2344 6.62500E+01 0.00000E+00 5.45455E+00
 -1      2346 6.75000E+01 0.00000E+00 5.90909E+00
 -1      2347 6.62500E+01 0.00000E+00 6.36364E+00
 -1      2349 6.75000E+01 0.00000E+00 6.81818E+00
 -1      2350 6.62500E+01 0.00000E+00 7.27273E+00
 -1      2352 6.75000E+01 0.00000E+00 7.72727E+00
 -1      2353 6.62500E+01 0.00000E+00 8.18182E+00
 -1      2355 6.75000E+01 0.00000E+00 8.63636E+00
 -1      2356 6.62500E+01 0.00000E+00 9.09091E+00
 -1      2358 6.75000E+01 0.00000E+00 9.54545E+00
 -1      2360 7.00000E+01 0.00000E+00 4.54545E-01
 -1      2361 6.87500E+01 0.00000E+00 9.09091E-01
 -1      2363 7.00000E+01 0.00000E+00 1.36364E+00
 -1      2364 6.87500E+01 0.00000E+00 1.81818E+00
 -1      2366 7.00000E+01 0.00000E+00 2.27273E+00
 -1      2367 6.87500E+01 0.00000E+00 2.72727E+00
 -1      2369 7.00000E+01 0.00000E+00 3.18182E+00
 -1      2370 6.87500E+01 0.00000E+00 3.63636E+00
 -1      2372 7.00000E+01 0.00000E+00 4.09091E+00
 -1      2373 6.87500E+01 0.00000E+00 4.54545E+00
 -1      2375 7.00000E+01 0.00000E+00 5.00000E+00
 -1      2376 6.87500E+01 0.00000E+00 5.45455E+00
 -1      2378 7.00000E+01 0.00000E+00 5.90909E+00
 -1      2379 6.87500E+01 0.00000E+00 6.36364E+00
 -1      2381 7.00000E+01 0.00000E+00 6.81818E+00
 -1      2382 6.87500E+01 0.00000E+00 7.27273E+00
 -1      2384 7.00000E+01 0.00000E+00 7.72727E+00
 -1      2385 6.87500E+01 0.00000E+00 8.18182E+00
 -1      2387 7.00000E+01 0.00000E+00 8.63636E+00
 -1      2388 6.87500E+01 0.00000E+00 9.09091E+00
 -1      2390 7.00000E+01 0.00000E+00 9.54545E+00
 -1      2392 7.25000E+01 0.00000E+00 4.54545E-01
 -1      2393 7.12500E+01 0.00000E+00 9.09091E-01
 -1      2395 7.25000E+01 0.00000E+00 1.36364E+00
 -1      2396 7.12500E+01 0.00000E+00 1.81818E+00
 -1      2398 7.25000E+01 0.00000E+00 2.27273E+00
 -1      2399 7.12500E+01 0.00000E+00 2.72727E+00
 -1      2401 7.25000E+01 0.00000E+00 3.18182E+00
 -1      2402 7.12500E+01 0.00000E+00 3.63636E+00
 -1      2404 7.25000E+01 0.00000E+00 4.09091E+00
 -1      2405 7.12500E+01 0.00000E+00 4.54545E+00
 -1      2407 7.25000E+01 0.00000E+00 5.00000E+00
 -1      2408 7.12500E+01 0.00000E+00 5.45455E+00
 -1      2410 7.25000E+01 0.00000E+00 5.90909E+00
 -1      2411 7.12500E+01 0.00000E+00 6.36364E+00
 -1      2413 7.25000E+01 0.00000E+00 6.81818E+00
 -1      2414 7.12500E+01 0.00000E+00 7.27273E+00
 -1      2416 7.25000E+01 0.00000E+00 7.72727E+00
 -1      2417 7.12500E+01 0.00000E+00 8.18182E+00
 -1      2419 7.25000E+01 0.00000E+00 8.63636E+00
 -1      2420 7.12500E+01 0.00000E+00 9.09091E+00
 -1      2422 7.25000E+01 0.00000E+00 9.54545E+00
 -1      2424 7.50000E+01 0.00000E+00 4.54545E-01
 -1      2425 7.37500E+01 0.00000E+00 9.09091E-01
 -1      2427 7.50000E+01 0.00000E+00 1.36364E+00
 -1      2428 7.37500E+01 0.00000E+00 1.81818E+00
 -1      2430 7.50000E+01 0.00000E+00 2.27273E+00
 -1      2431 7.37500E+01 0.00000E+00 2.72727E+00
 -1      2433 7.50000E+01 0.00000E+00 3.18182E+00
 -1      2434 7.37500E+01 0.00000E+00 3.63636E+00
 -1      2436 7.50000E+01 0.00000E+00 4.09091E+00
 -1      2437 7.37500E+01 0.00000E+00 4.54545E+00
 -1      2439 7.50000E+01 0.00000E+00 5.00000E+00
 -1      2440 7.37500E+01 0.00000E+00 5.45455E+00
 -1      2442 7.50000E+01 0.00000E+00 5.90909E+00
 -1      2443 7.37500E+01 0.00000E+00 6.36364E+00
 -1      2445 7.50000E+01 0.00000E+00 6.81818E+00
 -1      2446 7.37500E+01 0.00000E+00 7.27273E+00
 -1      2448 7.50000E+01 0.00000E+00 7.72727E+00
 -1      2449 7.37500E+01 0.00000E+00 8.18182E+00
 -1      2451 7.50000E+01 0.00000E+00 8.63636E+00
 -1      2452 7.37500E+01 0.00000E+00 9.09091E+00
 -1      2454 7.50000E+01 0.00000E+00 9.54545E+00
 -1      2456 7.75000E+01 0.00000E+00 4.54545E-01
 -1      2457 7.62500E+01 0.00000E+00 9.09091E-01
 -1      2459 7.75000E+01 0.00000E+00 1.36364E+00
 -1      2460 7.62500E+01 0.00000E+00 1.81818E+00
 -1      2462 7.75000E+01 0.00000E+00 2.27273E+00
 -1      2463 7.62500E+01 0.00000E+00 2.72727E+00
 -1      2465 7.75000E+01 0.00000E+00 3.18182E+00
 -1      2466 7.62500E+01 0.00000E+00 3.63636E+00
 -1      2468 7.75000E+01 0.00000E+00 4.09091E+00
 -1      2469 7.62500E+01 0.00000E+00 4.54545E+00
 -1      2471 7.75000E+01 0.00000E+00 5.00000E+00
 -1      2472 7.62500E+01 0.00000E+00 5.45455E+00
 -1      2474 7.75000E+01 0.00000E+00 5.90909E+00
 -1      2475 7.62500E+01 0.00000E+00 6.36364E+00
 -1      2477 7.75000E+01 0.00000E+00 6.81818E+00
 -1      2478 7.62500E+01 0.00000E+00 7.27273E+00
 -1      2480 7.75000E+01 0.00000E+00 7.72727E+00
 -1      2481 7.62500E+01 0.00000E+00 8.18182E+00
 -1      2483 7.75000E+01 0.00000E+00 8.63636E+00
 -1      2484 7.62500E+01 0.00000E+00 9.09091E+00
 -1      2486 7.75000E+01 0.00000E+00 9.54545E+00
 -1      2488 8.00000E+01 0.00000E+00 4.54545E-01
 -1      2489 7.87500E+01 0.00000E+00 9.09091E-01
 -1      2491 8.00000E+01 0.00000E+00 1.36364E+00
 -1      2492 7.87500E+01 0.00000E+00 1.81818E+00
 -1      2494 8.00000E+01 0.00000E+00 2.27273E+00
 -1      2495 7.87500E+01 0.00000E+00 2.72727E+00
 -1      2497 8.00000E+01 0.00000E+00 3.18182E+00
 -1      2498 7.87500E+01 0.00000E+00 3.63636E+00
 -1      2500 8.00000E+01 0.00000E+00 4.09091E+00
 -1      2501 7.87500E+01 0.00000E+00 4.54545E+00
 -1      2503 8.00000E+01 0.00000E+00 5.00000E+00
 -1      2504 7.87500E+01 0.00000E+00 5.45455E+00
 -1      2506 8.00000E+01 0.00000E+00 5.90909E+00
 -1      2507 7.87500E+01 0.00000E+00 6.36364E+00
 -1      2509 8.00000E+01 0.00000E+00 6.81818E+00
 -1      2510 7.87500E+01 0.00000E+00 7.27273E+00
 -1      2512 8.00000E+01 0.00000E+00 7.72727E+00
 -1      2513 7.87500E+01 0.00000E+00 8.18182E+00
 -1      2515 8.00000E+01 0.00000E+00 8.63636E+00
 -1      2516 7.87500E+01 0.00000E+00 9.09091E+00
 -1      2518 8.00000E+01 0.00000E+00 9.54545E+00
 -1      2520 8.25000E+01 0.00000E+00 4.54545E-01
 -1      2521 8.12500E+01 0.00000E+00 9.09091E-01
 -1      2523 8.25000E+01 0.00000E+00 1.36364E+00
 -1      2524 8.12500E+01 0.00000E+00 1.81818E+00
 -1      2526 8.25000E+01 0.00000E+00 2.27273E+00
 -1      2527 8.12500E+01 0.00000E+00 2.72727E+00
 -1      2529 8.25000E+01 0.00000E+00 3.18182E+00
 -1      2530 8.12500E+01 0.00000E+00 3.63636E+00
 -1      2532 8.25000E+01 0.00000E+00 4.09091E+00
 -1      2533 8.12500E+01 0.00000E+00 4.54545E+00
 -1      2535 8.25000E+01 0.00000E+00 5.00000E+00
 -1      2536 8.12500E+01 0.00000E+00 5.45455E+00
 -1      2538 8.25000E+01 0.00000E+00 5.90909E+00
 -1      2539 8.12500E+01 0.00000E+00 6.36364E+00
 -1      2541 8.25000E+01 0.00000E+00 6.81818E+00
 -1      2542 8.12500E+01 0.00000E+00 7.27273E+00
 -1      2544 8.25000E+01 0.00000E+00 7.72727E+00
 -1      2545 8.12500E+01 0.00000E+00 8.18182E+00
 -1      2547 8.25000E+01 0.00000E+00 8.63636E+00
 -1      2548 8.12500E+01 0.00000E+00 9.09091E+00
 -1      2550 8.25000E+01 0.00000E+00 9.54545E+00
 -1      2552 8.50000E+01 0.00000E+00 4.54545E-01
 -1      2553 8.37500E+01 0.00000E+00 9.09091E-01
 -1      2555 8.50000E+01 0.00000E+00 1.36364E+00
 -1      2556 8.37500E+01 0.00000E+00 1.81818E+00
 -1      2558 8.50000E+01 0.00000E+00 2.27273E+00
 -1      2559 8.37500E+01 0.00000E+00 2.72727E+00
 -1      2561 8.50000E+01 0.00000E+00 3.18182E+00
 -1      2562 8.37500E+01 0.00000E+00 3.63636E+00
 -1      2564 8.50000E+01 0.00000E+00 4.09091E+00
 -1      2565 8.37500E+01 0.00000E+00 4.54545E+00
 -1      2567 8.50000E+01 0.00000E+00 5.00000E+00
 -1      2568 8.37500E+01 0.00000E+00 5.45455E+00
 -1      2570 8.50000E+01 0.00000E+00 5.90909E+00
 -1      2571 8.37500E+01 0.00000E+00 6.36364E+00
 -1      2573 8.50000E+01 0.00000E+00 6.81818E+00
 -1      2574 8.37500E+01 0.00000E+00 7.27273E+00
 -1      2576 8.50000E+01 0.00000E+00 7.72727E+00
 -1      2577 8.37500E+01 0.00000E+00 8.18182E+00
 -1      2579 8.50000E+01 0.00000E+00 8.63636E+00
 -1      2580 8.37500E+01 0.00000E+00 9.09091E+00
 -1      2582 8.50000E+01 0.00000E+00 9.54545E+00
 -1      2584 8.75000E+01 0.00000E+00 4.54545E-01
 -1      2585 8.62500E+01 0.00000E+00 9.09091E-01
 -1      2587 8.75000E+01 0.00000E+00 1.36364E+00
 -1      2588 8.62500E+01 0.00000E+00 1.81818E+00
 -1      2590 8.75000E+01 0.00000E+00 2.27273E+00
 -1      2591 8.62500E+01 0.00000E+00 2.72727E+00
 -1      2593 8.75000E+01 0.00000E+00 3.18182E+00
 -1      2594 8.62500E+01 0.00000E+00 3.63636E+00
 -1      2596 8.75000E+01 0.00000E+00 4.09091E+00
 -1      2597 8.62500E+01 0.00000E+00 4.54545E+00
 -1      2599 8.75000E+01 0.00000E+00 5.00000E+00
 -1      2600 8.62500E+01 0.00000E+00 5.45455E+00
 -1      2602 8.75000E+01 0.00000E+00 5.90909E+00
 -1      2603 8.62500E+01 0.00000E+00 6.36364E+00
 -1      2605 8.75000E+01 0.00000E+00 6.81818E+00
 -1      2606 8.62500E+01 0.00000E+00 7.27273E+00
 -1      2608 8.75000E+01 0.00000E+00 7.72727E+00
 -1      2609 8.62500E+01 0.00000E+00 8.18182E+00
 -1      2611 8.75000E+01 0.00000E+00 8.63636E+00
 -1      2612 8.62500E+01 0.00000E+00 9.09091E+00
 -1      2614 8.75000E+01 0.00000E+00 9.54545E+00
 -1      2616 9.00000E+01 0.00000E+00 4.54545E-01
 -1      2617 8.87500E+01 0.00000E+00 9.09091E-01
 -1      2619 9.00000E+01 0.00000E+00 1.36364E+00
 -1      2620 8.87500E+01 0.00000E+00 1.81818E+00
 -1      2622 9.00000E+01 0.00000E+00 2.27273E+00
 -1      2623 8.87500E+01 0.00000E+00 2.72727E+00
 -1      2625 9.00000E+01 0.00000E+00 3.18182E+00
 -1      2626 8.87500E+01 0.00000E+00 3.63636E+00
 -1      2628 9.00000E+01 0.00000E+00 4.09091E+00
 -1      2629 8.87500E+01 0.00000E+00 4.54545E+00
 -1      2631 9.00000E+01 0.00000E+00 5.00000E+00
 -1      2632 8.87500E+01 0.00000E+00 5.45455E+00
 -1      2634 9.00000E+01 0.00000E+00 5.90909E+00
 -1      2635 8.87500E+01 0.00000E+00 6.36364E+00
 -1      2637 9.00000E+01 0.00000E+00 6.81818E+00
 -1      2638 8.87500E+01 0.00000E+00 7.27273E+00
 -1      2640 9.00000E+01 0.00000E+00 7.72727E+00
 -1      2641 8.87500E+01 0.00000E+00 8.18182E+00
 -1      2643 9.00000E+01 0.00000E+00 8.63636E+00
 -1      2644 8.87500E+01 0.00000E+00 9.09091E+00
 -1      2646 9.00000E+01 0.00000E+00 9.54545E+00
 -1      2648 9.25000E+01 0.00000E+00 4.54545E-01
 -1      2649 9.12500E+01 0.00000E+00 9.09091E-01
 -1      2651 9.25000E+01 0.00000E+00 1.36364E+00
 -1      2652 9.12500E+01 0.00000E+00 1.81818E+00
 -1      2654 9.25000E+01 0.00000E+00 2.27273E+00
 -1      2655 9.12500E+01 0.00000E+00 2.72727E+00
 -1      2657 9.25000E+01 0.00000E+00 3.18182E+00
 -1      2658 9.12500E+01 0.00000E+00 3.63636E+00
 -1      2660 9.25000E+01 0.00000E+00 4.09091E+00
 -1      2661 9.12500E+01 0.00000E+00 4.54545E+00
 -1      2663 9.25000E+01 0.00000E+00 5.00000E+00
 -1      2664 9.12500E+01 0.00000E+00 5.45455E+00
 -1      2666 9.25000E+01 0.00000E+00 5.90909E+00
 -1      2667 9.12500E+01 0.00000E+00 6.36364E+00
 -1      2669 9.25000E+01 0.00000E+00 6.81818E+00
 -1      2670 9.12500E+01 0.00000E+00 7.27273E+00
 -1      2672 9.25000E+01 0.00000E+00 7.72727E+00
 -1      2673 9.12500E+01 0.00000E+00 8.18182E+00
 -1      2675 9.25000E+01 0.00000E+00 8.63636E+00
 -1      2676 9.12500E+01 0.00000E+00 9.09091E+00
 -1      2678 9.25000E+01 0.00000E+00 9.54545E+00
 -1      2680 9.50000E+01 0.00000E+00 4.54545E-01
 -1      2681 9.37500E+01 0.00000E+00 9.09091E-01
 -1      2683 9.50000E+01 0.00000E+00 1.36364E+00
 -1      2684 9.37500E+01 0.00000E+00 1.81818E+00
 -1      2686 9.50000E+01 0.00000E+00 2.27273E+00
 -1      2687 9.37500E+01 0.00000E+00 2.72727E+00
 -1      2689 9.50000E+01 0.00000E+00 3.18182E+00
 -1      2690 9.37500E+01 0.00000E+00 3.63636E+00
 -1      2692 9.50000E+01 0.00000E+00 4.09091E+00
 -1      2693 9.37500E+01 0.00000E+00 4.54545E+00
 -1      2695 9.50000E+01 0.00000E+00 5.00000E+00
 -1      2696 9.37500E+01 0.00000E+00 5.45455E+00
 -1      2698 9.50000E+01 0.00000E+00 5.90909E+00
 -1      2699 9.37500E+01 0.00000E+00 6.36364E+00
 -1      2701 9.50000E+01 0.00000E+00 6.81818E+00
 -1      2702 9.37500E+01 0.00000E+00 7.27273E+00
 -1      2704 9.50000E+01 0.00000E+00 7.72727E+00
 -1      2705 9.37500E+01 0.00000E+00 8.18182E+00
 -1      2707 9.50000E+01 0.00000E+00 8.63636E+00
 -1      2708 9.37500E+01 0.00000E+00 9.09091E+00
 -1      2710 9.50000E+01 0.00000E+00 9.54545E+00
 -1      2712 9.75000E+01 0.00000E+00 4.54545E-01
 -1      2713 9.62500E+01 0.00000E+00 9.09091E-01
 -1      2715 9.75000E+01 0.00000E+00 1.36364E+00
 -1      2716 9.62500E+01 0.00000E+00 1.81818E+00
 -1      2718 9.75000E+01 0.00000E+00 2.27273E+00
 -1      2719 9.62500E+01 0.00000E+00 2.72727E+00
 -1      2721 9.75000E+01 0.00000E+00 3.18182E+00
 -1      2722 9.62500E+01 0.00000E+00 3.63636E+00
 -1      2724 9.75000E+01 0.00000E+00 4.09091E+00
 -1      2725 9.62500E+01 0.00000E+00 4.54545E+00
 -1      2727 9.75000E+01 0.00000E+00 5.00000E+00
 -1      2728 9.62500E+01 0.00000E+00 5.45455E+00
 -1      2730 9.75000E+01 0.00000E+00 5.90909E+00
 -1      2731 9.62500E+01 0.00000E+00 6.36364E+00
 -1      2733 9.75000E+01 0.00000E+00 6.81818E+00
 -1      2734 9.62500E+01 0.00000E+00 7.27273E+00
 -1      2736 9.75000E+01 0.00000E+00 7.72727E+00
 -1      2737 9.62500E+01 0.00000E+00 8.18182E+00
 -1      2739 9.75000E+01 0.00000E+00 8.63636E+00
 -1      2740 9.62500E+01 0.00000E+00 9.09091E+00
 -1      2742 9.75000E+01 0.00000E+00 9.54545E+00
 -1      2744 9.87500E+01 0.00000E+00 9.09091E-01
 -1      2746 9.87500E+01 0.00000E+00 1.81818E+00
 -1      2748 9.87500E+01 0.00000E+00 2.72727E+00
 -1      2750 9.87500E+01 0.00000E+00 3.63636E+00
 -1      2752 9.87500E+01 0.00000E+00 4.54545E+00
 -1      2754 9.87500E+01 0.00000E+00 5.45455E+00
 -1      2756 9.87500E+01 0.00000E+00 6.36364E+00
 -1      2758 9.87500E+01 0.00000E+00 7.27273E+00
 -1      2760 9.87500E+01 0.00000E+00 8.18182E+00
 -1      2762 9.87500E+01 0.00000E+00 9.09091E+00
 -1      2765 9.87688E+01 1.56434E+01 9.09091E-01
 -1      2766 9.87688E+01 1.56434E+01 1.81818E+00
 -1      2767 9.87688E+01 1.56434E+01 2.72727E+00
 -1      2768 9.87688E+01 1.56434E+01 3.63636E+00
 -1      2769 9.87688E+01 1.56434E+01 4.54545E+00
 -1      2770 9.87688E+01 1.56434E+01 5.45455E+00
 -1      2771 9.87688E+01 1.56434E+01 6.36364E+00
 -1      2772 9.87688E+01 1.56434E+01 7.27273E+00
 -1      2773 9.87688E+01 1.56434E+01 8.18182E+00
 -1      2774 9.87688E+01 1.56434E+01 9.09091E+00
 -1      2775 9.51057E+01 3.09017E+01 9.09091E-01
 -1      2776 9.51057E+01 3.09017E+01 1.81818E+00
 -1      2777 9.51057E+01 3.09017E+01 2.72727E+00
 -1      2778 9.51057E+01 3.09017E+01 3.63636E+00
 -1      2779 9.51057E+01 3.09017E+01 4.54545E+00
 -1      2780 9.51057E+01 3.09017E+01 5.45455E+00
 -1      2781 9.51057E+01 3.09017E+01 6.36364E+00
 -1      2782 9.51057E+01 3.09017E+01 7.27273E+00
 -1      2783 9.51057E+01 3.09017E+01 8.18182E+00
 -1      2784 9.51057E+01 3.09017E+01 9.09091E+00
 -1      2785 8.91007E+01 4.53991E+01 9.09091E-01
 -1      2786 8.91007E+01 4.53991E+01 1.81818E+00
 -1      2787 8.91007E+01 4.53991E+01 2.72727E+00
 -1      2788 8.91007E+01 4.53991E+01 3.63636E+00
 -1      2789 8.91007E+01 4.53991E+01 4.54545E+00
 -1      2790 8.91007E+01 4.53991E+01 5.45455E+00
 -1      2791 8.91007E+01 4.53991E+01 6.36364E+00
 -1      2792 8.91007E+01 4.53991E+01 7.27273E+00
 -1      2793 8.91007E+01 4.53991E+01 8.18182E+00
 -1      2794 8.91007E+01 4.53991E+01 9.09091E+00
 -1      2795 8.09017E+01 5.87785E+01 9.09091E-01
 -1      2796 8.09017E+01 5.87785E+01 1.81818E+00
 -1      2797 8.09017E+01 5.87785E+01 2.72727E+00
 -1      2798 8.09017E+01 5.87785E+01 3.63636E+00
 -1      2799 8.09017E+01 5.87785E+01 4.54545E+00
 -1      2800 8.09017E+01 5.87785E+01 5.45455E+00
 -1      2801 8.09017E+01 5.87785E+01 6.36364E+00
 -1      2802 8.09017E+01 5.87785E+01 7.27273E+00
 -1      2803 8.09017E+01 5.87785E+01 8.18182E+00
 -1      2804 8.09017E+01 5.87785E+01 9.09091E+00
 -1      2805 7.07107E+01 7.07107E+01 9.09091E-01
 -1      2806 7.07107E+01 7.07107E+01 1.81818E+00
 -1      2807 7.07107E+01 7.07107E+01 2.72727E+00
 -1      2808 7.07107E+01 7.07107E+01 3.63636E+00
 -1      2809 7.07107E+01 7.07107E+01 4.54545E+00
 -1      2810 7.07107E+01 7.07107E+01 5.45455E+00
 -1      2811 7.07107E+01 7.07107E+01 6.36364E+00
 -1      2812 7.07107E+01 7.07107E+01 7.27273E+00
 -1      2813 7.07107E+01 7.07107E+01 8.18182E+00
 -1      2814 7.07107E+01 7.07107E+01 9.09091E+00
 -1      2815 5.87785E+01 8.09017E+01 9.09091E-01
 -1      2816 5.87785E+01 8.09017E+01 1.81818E+00
 -1      2817 5.87785E+01 8.09017E+01 2.72727E+00
 -1      2818 5.87785E+01 8.09017E+01 3.63636E+00
 -1      2819 5.87785E+01 8.09017E+01 4.54545E+00
 -1      2820 5.87785E+01 8.09017E+01 5.45455E+00
 -1      2821 5.87785E+01 8.09017E+01 6.36364E+00
 -1      2822 5.87785E+01 8.09017E+01 7.27273E+00
 -1      2823 5.87785E+01 8.09017E+01 8.18182E+00
 -1      2824 5.87785E+01 8.09017E+01 9.09091E+00
 -1      2825 4.53991E+01 8.91007E+01 9.09091E-01
 -1      2826 4.53991E+01 8.91007E+01 1.81818E+00
 -1      2827 4.53991E+01 8.91007E+01 2.72727E+00
 -1      2828 4.53991E+01 8.91007E+01 3.63636E+00
 -1      2829 4.53991E+01 8.91007E+01 4.54545E+00
 -1      2830 4.53991E+01 8.91007E+01 5.45455E+00
 -1      2831 4.53991E+01 8.91007E+01 6.36364E+00
 -1      2832 4.53991E+01 8.91007E+01 7.27273E+00
 -1      2833 4.53991E+01 8.91007E+01 8.18182E+00
 -1      2834 4.53991E+01 8.91007E+01 9.09091E+00
 -1      2835 3.09017E+01 9.51057E+01 9.09091E-01
 -1      2836 3.09017E+01 9.51057E+01 1.81818E+00
 -1      2837 3.09017E+01 9.51057E+01 2.72727E+00
 -1      2838 3.09017E+01 9.51057E+01 3.63636E+00
 -1      2839 3.09017E+01 9.51057E+01 4.54545E+00
 -1      2840 3.09017E+01 9.51057E+01 5.45455E+00
 -1      2841 3.09017E+01 9.51057E+01 6.36364E+00
 -1      2842 3.09017E+01 9.51057E+01 7.27273E+00
 -1      2843 3.09017E+01 9.51057E+01 8.18182E+00
 -1      2844 3.09017E+01 9.51057E+01 9.09091E+00
 -1      2845 1.56434E+01 9.87688E+01 9.09091E-01
 -1      2846 1.56434E+01 9.87688E+01 1.81818E+00
 -1      2847 1.56434E+01 9.87688E+01 2.72727E+00
 -1      2848 1.56434E+01 9.87688E+01 3.63636E+00
 -1      2849 1.56434E+01 9.87688E+01 4.54545E+00
 -1      2850 1.56434E+01 9.87688E+01 5.45455E+00
 -1      2851 1.56434E+01 9.87688E+01 6.36364E+00
 -1      2852 1.56434E+01 9.87688E+01 7.27273E+00
 -1      2853 1.56434E+01 9.87688E+01 8.18182E+00
 -1      2854 1.56434E+01 9.87688E+01 9.09091E+00
 -1      2855 9.87688E+01 1.56434E+01 4.54545E-01
 -1      2856 9.96917E+01 7.84591E+00 9.09091E-01
 -1      2858 9.87688E+01 1.56434E+01 1.36364E+00
 -1      2859 9.96917E+01 7.84591E+00 1.81818E+00
 -1      2861 9.87688E+01 1.56434E+01 2.27273E+00
 -1      2862 9.96917E+01 7.84591E+00 2.72727E+00
 -1      2864 9.87688E+01 1.56434E+01 3.18182E+00
 -1      2865 9.96917E+01 7.84591E+00 3.63636E+00
 -1      2867 9.87688E+01 1.56434E+01 4.09091E+00
 -1      2868 9.96917E+01 7.84591E+00 4.54545E+00
 -1      2870 9.87688E+01 1.56434E+01 5.00000E+00
 -1      2871 9.96917E+01 7.84591E+00 5.45455E+00
 -1      2873 9.87688E+01 1.56434E+01 5.90909E+00
 -1      2874 9.96917E+01 7.84591E+00 6.36364E+00
 -1      2876 9.87688E+01 1.56434E+01 6.81818E+00
 -1      2877 9.96917E+01 7.84591E+00 7.27273E+00
 -1      2879 9.87688E+01 1.56434E+01 7.72727E+00
 -1      2880 9.96917E+01 7.84591E+00 8.18182E+00
 -1      2882 9.87688E+01 1.56434E+01 8.63636E+00
 -1      2883 9.96917E+01 7.84591E+00 9.09091E+00
 -1      2885 9.87688E+01 1.56434E+01 9.54545E+00
 -1      2887 9.51057E+01 3.09017E+01 4.54545E-01
 -1      2888 9.72370E+01 2.33445E+01 9.09091E-01
 -1      2890 9.51057E+01 3.09017E+01 1.36364E+00
 -1      2891 9.72370E+01 2.33445E+01 1.81818E+00
 -1      2893 9.51057E+01 3.09017E+01 2.27273E+00
 -1      2894 9.72370E+01 2.33445E+01 2.72727E+00
 -1      2896 9.51057E+01 3.09017E+01 3.18182E+00
 -1      2897 9.72370E+01 2.33445E+01 3.63636E+00
 -1      2899 9.51057E+01 3.09017E+01 4.09091E+00
 -1      2900 9.72370E+01 2.33445E+01 4.54545E+00
 -1      2902 9.51057E+01 3.09017E+01 5.00000E+00
 -1      2903 9.72370E+01 2.33445E+01 5.45455E+00
 -1      2905 9.51057E+01 3.09017E+01 5.90909E+00
 -1      2906 9.72370E+01 2.33445E+01 6.36364E+00
 -1      2908 9.51057E+01 3.09017E+01 6.81818E+00
 -1      2909 9.72370E+01 2.33445E+01 7.27273E+00
 -1      2911 9.51057E+01 3.09017E+01 7.72727E+00
 -1      2912 9.72370E+01 2.33445E+01 8.18182E+00
 -1      2914 9.51057E+01 3.09017E+01 8.63636E+00
 -1      2915 9.72370E+01 2.33445E+01 9.09091E+00
 -1      2917 9.51057E+01 3.09017E+01 9.54545E+00
 -1      2919 8.91007E+01 4.53991E+01 4.54545E-01
 -1      2920 9.23880E+01 3.82683E+01 9.09091E-01
 -1      2922 8.91007E+01 4.53991E+01 1.36364E+00
 -1      2923 9.23880E+01 3.82683E+01 1.81818E+00
 -1      2925 8.91007E+01 4.53991E+01 2.27273E+00
 -1      2926 9.23880E+01 3.82683E+01 2.72727E+00
 -1      2928 8.91007E+01 4.53991E+01 3.18182E+00
 -1      2929 9.23880E+01 3.82683E+01 3.63636E+00
 -1      2931 8.91007E+01 4.53991E+01 4.09091E+00
 -1      2932 9.23880E+01 3.82683E+01 4.54545E+00
 -1      2934 8.91007E+01 4.53991E+01 5.00000E+00
 -1      2935 9.23880E+01 3.82683E+01 5.45455E+00
 -1      2937 8.91007E+01 4.53991E+01 5.90909E+00
 -1      2938 9.23880E+01 3.82683E+01 6.36364E+00
 -1      2940 8.91007E+01 4.53991E+01 6.81818E+00
 -1      2941 9.23880E+01 3.82683E+01 7.27273E+00
 -1      2943 8.91007E+01 4.53991E+01 7.72727E+00
 -1      2944 9.23880E+01 3.82683E+01 8.18182E+00
 -1      2946 8.91007E+01 4.53991E+01 8.63636E+00
 -1      2947 9.23880E+01 3.82683E+01 9.09091E+00
 -1      2949 8.91007E+01 4.53991E+01 9.54545E+00
 -1      2951 8.09017E+01 5.87785E+01 4.54545E-01
 -1      2952 8.52640E+01 5.22499E+01 9.09091E-01
 -1      2954 8.09017E+01 5.87785E+01 1.36364E+00
 -1      2955 8.52640E+01 5.22499E+01 1.81818E+00
 -1      2957 8.09017E+01 5.87785E+01 2.27273E+00
 -1      2958 8.52640E+01 5.22499E+01 2.72727E+00
 -1      2960 8.09017E+01 5.87785E+01 3.18182E+00
 -1      2961 8.52640E+01 5.22499E+01 3.63636E+00
 -1      2963 8.09017E+01 5.87785E+01 4.09091E+00
 -1      2964 8.52640E+01 5.22499E+01 4.54545E+00
 -1      2966 8.09017E+01 5.87785E+01 5.00000E+00
 -1      2967 8.52640E+01 5.22499E+01 5.45455E+00
 -1      2969 8.09017E+01 5.87785E+01 5.90909E+00
 -1      2970 8.52640E+01 5.22499E+01 6.36364E+00
 -1      2972 8.09017E+01 5.87785E+01 6.81818E+00
 -1      2973 8.52640E+01 5.22499E+01 7.27273E+00
 -1      2975 8.09017E+01 5.87785E+01 7.72727E+00
 -1      2976 8.52640E+01 5.22499E+01 8.18182E+00
 -1      2978 8.09017E+01 5.87785E+01 8.63636E+00
 -1      2979 8.52640E+01 5.22499E+01 9.09091E+00
 -1      2981 8.09017E+01 5.87785E+01 9.54545E+00
 -1      2983 7.07107E+01 7.07107E+01 4.54545E-01
 -1      2984 7.60406E+01 6.49448E+01 9.09091E-01
 -1      2986 7.07107E+01 7.07107E+01 1.36364E+00
 -1      2987 7.60406E+01 6.49448E+01 1.81818E+00
 -1      2989 7.07107E+01 7.07107E+01 2.27273E+00
 -1      2990 7.60406E+01 6.49448E+01 2.72727E+00
 -1      2992 7.07107E+01 7.07107E+01 3.18182E+00
 -1      2993 7.60406E+01 6.49448E+01 3.63636E+00
 -1      2995 7.07107E+01 7.07107E+01 4.09091E+00
 -1      2996 7.60406E+01 6.49448E+01 4.54545E+00
 -1      2998 7.07107E+01 7.07107E+01 5.00000E+00
 -1      2999 7.60406E+01 6.49448E+01 5.45455E+00
 -1      3001 7.07107E+01 7.07107E+01 5.90909E+00
 -1      3002 7.60406E+01 6.49448E+01 6.36364E+00
 -1      3004 7.07107E+01 7.07107E+01 6.81818E+00
 -1      3005 7.60406E+01 6.49448E+01 7.27273E+00
 -1      3007 7.07107E+01 7.07107E+01 7.72727E+00
 -1      3008 7.60406E+01 6.49448E+01 8.18182E+00
 -1      3010 7.07107E+01 7.07107E+01 8.63636E+00
 -1      3011 7.60406E+01 6.49448E+01 9.09091E+00
 -1      3013 7.07107E+01 7.07107E+01 9.54545E+00
 -1      3015 5.87785E+01 8.09017E+01 4.54545E-01
 -1      3016 6.49449E+01 7.60405E+01 9.09091E-01
 -1      3018 5.87785E+01 8.09017E+01 1.36364E+00
 -1      3019 6.49449E+01 7.60405E+01 1.81818E+00
 -1      3021 5.87785E+01 8.09017E+01 2.27273E+00
 -1      3022 6.49449E+01 7.60405E+01 2.72727E+00
 -1      3024 5.87785E+01 8.09017E+01 3.18182E+00
 -1      3025 6.49449E+01 7.60405E+01 3.63636E+00
 -1      3027 5.87785E+01 8.09017E+01 4.09091E+00
 -1      3028 6.49449E+01 7.60405E+01 4.54545E+00
 -1      3030 5.87785E+01 8.09017E+01 5.00000E+00
 -1      3031 6.49449E+01 7.60405E+01 5.45455E+00
 -1      3033 5.87785E+01 8.09017E+01 5.90909E+00
 -1      3034 6.49449E+01 7.60405E+01 6.36364E+00
 -1      3036 5.87785E+01 8.09017E+01 6.81818E+00
 -1      3037 6.49449E+01 7.60405E+01 7.27273E+00
 -1      3039 5.87785E+01 8.09017E+01 7.72727E+00
 -1      3040 6.49449E+01 7.60405E+01 8.18182E+00
 -1      3042 5.87785E+01 8.09017E+01 8.63636E+00
 -1      3043 6.49449E+01 7.60405E+01 9.09091E+00
 -1      3045 5.87785E+01 8.09017E+01 9.54545E+00
 -1      3047 4.53991E+01 8.91007E+01 4.54545E-01
 -1      3048 5.22499E+01 8.52640E+01 9.09091E-01
 -1      3050 4.53991E+01 8.91007E+01 1.36364E+00
 -1      3051 5.22499E+01 8.52640E+01 1.81818E+00
 -1      3053 4.53991E+01 8.91007E+01 2.27273E+00
 -1      3054 5.22499E+01 8.52640E+01 2.72727E+00
 -1      3056 4.53991E+01 8.91007E+01 3.18182E+00
 -1      3057 5.22499E+01 8.52640E+01 3.63636E+00
 -1      3059 4.53991E+01 8.91007E+01 4.09091E+00
 -1      3060 5.22499E+01 8.52640E+01 4.54545E+00
 -1      3062 4.53991E+01 8.91007E+01 5.00000E+00
 -1      3063 5.22499E+01 8.52640E+01 5.45455E+00
 -1      3065 4.53991E+01 8.91007E+01 5.90909E+00
 -1      3066 5.22499E+01 8.52640E+01 6.36364E+00
 -1      3068 4.53991E+01 8.91007E+01 6.81818E+00
 -1      3069 5.22499E+01 8.52640E+01 7.27273E+00
 -1      3071 4.53991E+01 8.91007E+01 7.72727E+00
 -1      3072 5.22499E+01 8.52640E+01 8.18182E+00
 -1      3074 4.53991E+01 8.91007E+01 8.63636E+00
 -1      3075 5.22499E+01 8.52640E+01 9.09091E+00
 -1      3077 4.53991E+01 8.91007E+01 9.54545E+00
 -1      3079 3.09017E+01 9.51057E+01 4.54545E-01
 -1      3080 3.82683E+01 9.23880E+01 9.09091E-01
 -1      3082 3.09017E+01 9.51057E+01 1.36364E+00
 -1      3083 3.82683E+01 9.23880E+01 1.81818E+00
 -1      3085 3.09017E+01 9.51057E+01 2.27273E+00
 -1      3086 3.82683E+01 9.23880E+01 2.72727E+00
 -1      3088 3.09017E+01 9.51057E+01 3.18182E+00
 -1      3089 3.82683E+01 9.23880E+01 3.63636E+00
 -1      3091 3.09017E+01 9.51057E+01 4.09091E+00
 -1      3092 3.82683E+01 9.23880E+01 4.54545E+00
 -1      3094 3.09017E+01 9.51057E+01 5.00000E+00
 -1      3095 3.82683E+01 9.23880E+01 5.45455E+00
 -1      3097 3.09017E+01 9.51057E+01 5.90909E+00
 -1      3098 3.82683E+01 9.23880E+01 6.36364E+00
 -1      3100 3.09017E+01 9.51057E+01 6.81818E+00
 -1      3101 3.82683E+01 9.23880E+01 7.27273E+00
 -1      3103 3.09017E+01 9.51057E+01 7.72727E+00
 -1      3104 3.82683E+01 9.23880E+01 8.18182E+00
 -1      3106 3.09017E+01 9.51057E+01 8.63636E+00
 -1      3107 3.82683E+01 9.23880E+01 9.09091E+00
 -1      3109 3.09017E+01 9.51057E+01 9.54545E+00
 -1      3111 1.56434E+01 9.87688E+01 4.54545E-01
 -1      3112 2.33447E+01 9.72370E+01 9.09091E-01
 -1      3114 1.56434E+01 9.87688E+01 1.36364E+00
 -1      3115 2.33447E+01 9.72370E+01 1.81818E+00
 -1      3117 1.56434E+01 9.87688E+01 2.27273E+00
 -1      3118 2.33447E+01 9.72370E+01 2.72727E+00
 -1      3120 1.56434E+01 9.87688E+01 3.18182E+00
 -1      3121 2.33447E+01 9.72370E+01 3.63636E+00
 -1      3123 1.56434E+01 9.87688E+01 4.09091E+00
 -1      3124 2.33447E+01 9.72370E+01 4.54545E+00
 -1      3126 1.56434E+01 9.87688E+01 5.00000E+00
 -1      3127 2.33447E+01 9.72370E+01 5.45455E+00
 -1      3129 1.56434E+01 9.87688E+01 5.90909E+00
 -1      3130 2.33447E+01 9.72370E+01 6.36364E+00
 -1      3132 1.56434E+01 9.87688E+01 6.81818E+00
 -1      3133 2.33447E+01 9.72370E+01 7.27273E+00
 -1      3135 1.56434E+01 9.87688E+01 7.72727E+00
 -1      3136 2.33447E+01 9.72370E+01 8.18182E+00
 -1      3138 1.56434E+01 9.87688E+01 8.63636E+00
 -1      3139 2.33447E+01 9.72370E+01 9.09091E+00
 -1      3141 1.56434E+01 9.87688E+01 9.54545E+00
 -1      3143 7.84602E+00 9.96917E+01 9.09091E-01
 -1      3145 7.84602E+00 9.96917E+01 1.81818E+00
 -1      3147 7.84602E+00 9.96917E+01 2.72727E+00
 -1      3149 7.84602E+00 9.96917E+01 3.63636E+00
 -1      3151 7.84602E+00 9.96917E+01 4.54545E+00
 -1      3153 7.84602E+00 9.96917E+01 5.45455E+00
 -1      3155 7.84602E+00 9.96917E+01 6.36364E+00
 -1      3157 7.84602E+00 9.96917E+01 7.27273E+00
 -1      3159 7.84602E+00 9.96917E+01 8.18182E+00
 -1      3161 7.84602E+00 9.96917E+01 9.09091E+00
 -1      3164 5.97015E-15 9.75000E+01 9.09091E-01
 -1      3165 5.97015E-15 9.75000E+01 1.81818E+00
 -1      3166 5.97015E-15 9.75000E+01 2.72727E+00
 -1      3167 5.97015E-15 9.75000E+01 3.63636E+00
 -1      3168 5.97015E-15 9.75000E+01 4.54545E+00
 -1      3169 5.97015E-15 9.75000E+01 5.45455E+00
 -1      3170 5.97015E-15 9.75000E+01 6.36364E+00
 -1      3171 5.97015E-15 9.75000E+01 7.27273E+00
 -1      3172 5.97015E-15 9.75000E+01 8.18182E+00
 -1      3173 5.97015E-15 9.75000E+01 9.09091E+00
 -1      3174 5.81707E-15 9.50000E+01 9.09091E-01
 -1      3175 5.81707E-15 9.50000E+01 1.81818E+00
 -1      3176 5.81707E-15 9.50000E+01 2.72727E+00
 -1      3177 5.81707E-15 9.50000E+01 3.63636E+00
 -1      3178 5.81707E-15 9.50000E+01 4.54545E+00
 -1      3179 5.81707E-15 9.50000E+01 5.45455E+00
 -1      3180 5.81707E-15 9.50000E+01 6.36364E+00
 -1      3181 5.81707E-15 9.50000E+01 7.27273E+00
 -1      3182 5.81707E-15 9.50000E+01 8.18182E+00
 -1      3183 5.81707E-15 9.50000E+01 9.09091E+00
 -1      3184 5.66399E-15 9.25000E+01 9.09091E-01
 -1      3185 5.66399E-15 9.25000E+01 1.81818E+00
 -1      3186 5.66399E-15 9.25000E+01 2.72727E+00
 -1      3187 5.66399E-15 9.25000E+01 3.63636E+00
 -1      3188 5.66399E-15 9.25000E+01 4.54545E+00
 -1      3189 5.66399E-15 9.25000E+01 5.45455E+00
 -1      3190 5.66399E-15 9.25000E+01 6.36364E+00
 -1      3191 5.66399E-15 9.25000E+01 7.27273E+00
 -1      3192 5.66399E-15 9.25000E+01 8.18182E+00
 -1      3193 5.66399E-15 9.25000E+01 9.09091E+00
 -1      3194 5.51091E-15 9.00000E+01 9.09091E-01
 -1      3195 5.51091E-15 9.00000E+01 1.81818E+00
 -1      3196 5.51091E-15 9.00000E+01 2.72727E+00
 -1      3197 5.51091E-15 9.00000E+01 3.63636E+00
 -1      3198 5.51091E-15 9.00000E+01 4.54545E+00
 -1      3199 5.51091E-15 9.00000E+01 5.45455E+00
 -1      3200 5.51091E-15 9.00000E+01 6.36364E+00
 -1      3201 5.51091E-15 9.00000E+01 7.27273E+00
 -1      3202 5.51091E-15 9.00000E+01 8.18182E+00
 -1      3203 5.51091E-15 9.00000E+01 9.09091E+00
 -1      3204 5.35783E-15 8.75000E+01 9.09091E-01
 -1      3205 5.35783E-15 8.75000E+01 1.81818E+00
 -1      3206 5.35783E-15 8.75000E+01 2.72727E+00
 -1      3207 5.35783E-15 8.75000E+01 3.63636E+00
 -1      3208 5.35783E-15 8.75000E+01 4.54545E+00
 -1      3209 5.35783E-15 8.75000E+01 5.45455E+00
 -1      3210 5.35783E-15 8.75000E+01 6.36364E+00
 -1      3211 5.35783E-15 8.75000E+01 7.27273E+00
 -1      3212 5.35783E-15 8.75000E+01 8.18182E+00
 -1      3213 5.35783E-15 8.75000E+01 9.09091E+00
 -1      3214 5.20475E-15 8.50000E+01 9.09091E-01
 -1      3215 5.20475E-15 8.50000E+01 1.81818E+00
 -1      3216 5.20475E-15 8.50000E+01 2.72727E+00
 -1      3217 5.20475E-15 8.50000E+01 3.63636E+00
 -1      3218 5.20475E-15 8.50000E+01 4.54545E+00
 -1      3219 5.20475E-15 8.50000E+01 5.45455E+00
 -1      3220 5.20475E-15 8.50000E+01 6.36364E+00
 -1      3221 5.20475E-15 8.50000E+01 7.27273E+00
 -1      3222 5.20475E-15 8.50000E+01 8.18182E+00
 -1      3223 5.20475E-15 8.50000E+01 9.09091E+00
 -1      3224 5.05167E-15 8.25000E+01 9.09091E-01
 -1      3225 5.05167E-15 8.25000E+01 1.81818E+00
 -1      3226 5.05167E-15 8.25000E+01 2.72727E+00
 -1      3227 5.05167E-15 8.25000E+01 3.63636E+00
 -1      3228 5.05167E-15 8.25000E+01 4.54545E+00
 -1      3229 5.05167E-15 8.25000E+01 5.45455E+00
 -1      3230 5.05167E-15 8.25000E+01 6.36364E+00
 -1      3231 5.05167E-15 8.25000E+01 7.27273E+00
 -1      3232 5.05167E-15 8.25000E+01 8.18182E+00
 -1      3233 5.05167E-15 8.25000E+01 9.09091E+00
 -1      3234 4.89859E-15 8.00000E+01 9.09091E-01
 -1      3235 4.89859E-15 8.00000E+01 1.81818E+00
 -1      3236 4.89859E-15 8.00000E+01 2.72727E+00
 -1      3237 4.89859E-15 8.00000E+01 3.63636E+00
 -1      3238 4.89859E-15 8.00000E+01 4.54545E+00
 -1      3239 4.89859E-15 8.00000E+01 5.45455E+00
 -1      3240 4.89859E-15 8.00000E+01 6.36364E+00
 -1      3241 4.89859E-15 8.00000E+01 7.27273E+00
 -1      3242 4.89859E-15 8.00000E+01 8.18182E+00
 -1      3243 4.89859E-15 8.00000E+01 9.09091E+00
 -1      3244 4.74551E-15 7.75000E+01 9.09091E-01
 -1      3245 4.74551E-15 7.75000E+01 1.81818E+00
 -1      3246 4.74551E-15 7.75000E+01 2.72727E+00
 -1      3247 4.74551E-15 7.75000E+01 3.63636E+00
 -1      3248 4.74551E-15 7.75000E+01 4.54545E+00
 -1      3249 4.74551E-15 7.75000E+01 5.45455E+00
 -1      3250 4.74551E-15 7.75000E+01 6.36364E+00
 -1      3251 4.74551E-15 7.75000E+01 7.27273E+00
 -1      3252 4.74551E-15 7.75000E+01 8.18182E+00
 -1      3253 4.74551E-15 7.75000E+01 9.09091E+00
 -1      3254 4.59243E-15 7.50000E+01 9.09091E-01
 -1      3255 4.59243E-15 7.50000E+01 1.81818E+00
 -1      3256 4.59243E-15 7.50000E+01 2.72727E+00
 -1      3257 4.59243E-15 7.50000E+01 3.63636E+00
 -1      3258 4.59243E-15 7.50000E+01 4.54545E+00
 -1      3259 4.59243E-15 7.50000E+01 5.45455E+00
 -1      3260 4.59243E-15 7.50000E+01 6.36364E+00
 -1      3261 4.59243E-15 7.50000E+01 7.27273E+00
 -1      3262 4.59243E-15 7.50000E+01 8.18182E+00
 -1      3263 4.59243E-15 7.50000E+01 9.09091E+00
 -1      3264 4.43934E-15 7.25000E+01 9.09091E-01
 -1      3265 4.43934E-15 7.25000E+01 1.81818E+00
 -1      3266 4.43934E-15 7.25000E+01 2.72727E+00
 -1      3267 4.43934E-15 7.25000E+01 3.63636E+00
 -1      3268 4.43934E-15 7.25000E+01 4.54545E+00
 -1      3269 4.43934E-15 7.25000E+01 5.45455E+00
 -1      3270 4.43934E-15 7.25000E+01 6.36364E+00
 -1      3271 4.43934E-15 7.25000E+01 7.27273E+00
 -1      3272 4.43934E-15 7.25000E+01 8.18182E+00
 -1      3273 4.43934E-15 7.25000E+01 9.09091E+00
 -1      3274 4.28626E-15 7.00000E+01 9.09091E-01
 -1      3275 4.28626E-15 7.00000E+01 1.81818E+00
 -1      3276 4.28626E-15 7.00000E+01 2.72727E+00
 -1      3277 4.28626E-15 7.00000E+01 3.63636E+00
 -1      3278 4.28626E-15 7.00000E+01 4.54545E+00
 -1      3279 4.28626E-15 7.00000E+01 5.45455E+00
 -1      3280 4.28626E-15 7.00000E+01 6.36364E+00
 -1      3281 4.28626E-15 7.00000E+01 7.27273E+00
 -1      3282 4.28626E-15 7.00000E+01 8.18182E+00
 -1      3283 4.28626E-15 7.00000E+01 9.09091E+00
 -1      3284 4.13318E-15 6.75000E+01 9.09091E-01
 -1      3285 4.13318E-15 6.75000E+01 1.81818E+00
 -1      3286 4.13318E-15 6.75000E+01 2.72727E+00
 -1      3287 4.13318E-15 6.75000E+01 3.63636E+00
 -1      3288 4.13318E-15 6.75000E+01 4.54545E+00
 -1      3289 4.13318E-15 6.75000E+01 5.45455E+00
 -1      3290 4.13318E-15 6.75000E+01 6.36364E+00
 -1      3291 4.13318E-15 6.75000E+01 7.27273E+00
 -1      3292 4.13318E-15 6.75000E+01 8.18182E+00
 -1      3293 4.13318E-15 6.75000E+01 9.09091E+00
 -1      3294 3.98010E-15 6.50000E+01 9.09091E-01
 -1      3295 3.98010E-15 6.50000E+01 1.81818E+00
 -1      3296 3.98010E-15 6.50000E+01 2.72727E+00
 -1      3297 3.98010E-15 6.50000E+01 3.63636E+00
 -1      3298 3.98010E-15 6.50000E+01 4.54545E+00
 -1      3299 3.98010E-15 6.50000E+01 5.45455E+00
 -1      3300 3.98010E-15 6.50000E+01 6.36364E+00
 -1      3301 3.98010E-15 6.50000E+01 7.27273E+00
 -1      3302 3.98010E-15 6.50000E+01 8.18182E+00
 -1      3303 3.98010E-15 6.50000E+01 9.09091E+00
 -1      3304 3.82702E-15 6.25000E+01 9.09091E-01
 -1      3305 3.82702E-15 6.25000E+01 1.81818E+00
 -1      3306 3.82702E-15 6.25000E+01 2.72727E+00
 -1      3307 3.82702E-15 6.25000E+01 3.63636E+00
 -1      3308 3.82702E-15 6.25000E+01 4.54545E+00
 -1      3309 3.82702E-15 6.25000E+01 5.45455E+00
 -1      3310 3.82702E-15 6.25000E+01 6.36364E+00
 -1      3311 3.82702E-15 6.25000E+01 7.27273E+00
 -1      3312 3.82702E-15 6.25000E+01 8.18182E+00
 -1      3313 3.82702E-15 6.25000E+01 9.09091E+00
 -1      3314 3.67394E-15 6.00000E+01 9.09091E-01
 -1      3315 3.67394E-15 6.00000E+01 1.81818E+00
 -1      3316 3.67394E-15 6.00000E+01 2.72727E+00
 -1      3317 3.67394E-15 6.00000E+01 3.63636E+00
 -1      3318 3.67394E-15 6.00000E+01 4.54545E+00
 -1      3319 3.67394E-15 6.00000E+01 5.45455E+00
 -1      3320 3.67394E-15 6.00000E+01 6.36364E+00
 -1      3321 3.67394E-15 6.00000E+01 7.27273E+00
 -1      3322 3.67394E-15 6.00000E+01 8.18182E+00
 -1      3323 3.67394E-15 6.00000E+01 9.09091E+00
 -1      3324 3.52086E-15 5.75000E+01 9.09091E-01
 -1      3325 3.52086E-15 5.75000E+01 1.81818E+00
 -1      3326 3.52086E-15 5.75000E+01 2.72727E+00
 -1      3327 3.52086E-15 5.75000E+01 3.63636E+00
 -1      3328 3.52086E-15 5.75000E+01 4.54545E+00
 -1      3329 3.52086E-15 5.75000E+01 5.45455E+00
 -1      3330 3.52086E-15 5.75000E+01 6.36364E+00
 -1      3331 3.52086E-15 5.75000E+01 7.27273E+00
 -1      3332 3.52086E-15 5.75000E+01 8.18182E+00
 -1      3333 3.52086E-15 5.75000E+01 9.09091E+00
 -1      3334 3.36778E-15 5.50000E+01 9.09091E-01
 -1      3335 3.36778E-15 5.50000E+01 1.81818E+00
 -1      3336 3.36778E-15 5.50000E+01 2.72727E+00
 -1      3337 3.36778E-15 5.50000E+01 3.63636E+00
 -1      3338 3.36778E-15 5.50000E+01 4.54545E+00
 -1      3339 3.36778E-15 5.50000E+01 5.45455E+00
 -1      3340 3.36778E-15 5.50000E+01 6.36364E+00
 -1      3341 3.36778E-15 5.50000E+01 7.27273E+00
 -1      3342 3.36778E-15 5.50000E+01 8.18182E+00
 -1      3343 3.36778E-15 5.50000E+01 9.09091E+00
 -1      3344 3.21470E-15 5.25000E+01 9.09091E-01
 -1      3345 3.21470E-15 5.25000E+01 1.81818E+00
 -1      3346 3.21470E-15 5.25000E+01 2.72727E+00
 -1      3347 3.21470E-15 5.25000E+01 3.63636E+00
 -1      3348 3.21470E-15 5.25000E+01 4.54545E+00
 -1      3349 3.21470E-15 5.25000E+01 5.45455E+00
 -1      3350 3.21470E-15 5.25000E+01 6.36364E+00
 -1      3351 3.21470E-15 5.25000E+01 7.27273E+00
 -1      3352 3.21470E-15 5.25000E+01 8.18182E+00
 -1      3353 3.21470E-15 5.25000E+01 9.09091E+00
 -1      3354 3.06162E-15 5.00000E+01 9.09091E-01
 -1      3355 3.06162E-15 5.00000E+01 1.81818E+00
 -1      3356 3.06162E-15 5.00000E+01 2.72727E+00
 -1      3357 3.06162E-15 5.00000E+01 3.63636E+00
 -1      3358 3.06162E-15 5.00000E+01 4.54545E+00
 -1      3359 3.06162E-15 5.00000E+01 5.45455E+00
 -1      3360 3.06162E-15 5.00000E+01 6.36364E+00
 -1      3361 3.06162E-15 5.00000E+01 7.27273E+00
 -1      3362 3.06162E-15 5.00000E+01 8.18182E+00
 -1      3363 3.06162E-15 5.00000E+01 9.09091E+00
 -1      3364 2.90854E-15 4.75000E+01 9.09091E-01
 -1      3365 2.90854E-15 4.75000E+01 1.81818E+00
 -1      3366 2.90854E-15 4.75000E+01 2.72727E+00
 -1      3367 2.90854E-15 4.75000E+01 3.63636E+00
 -1      3368 2.90854E-15 4.75000E+01 4.54545E+00
 -1      3369 2.90854E-15 4.75000E+01 5.45455E+00
 -1      3370 2.90854E-15 4.75000E+01 6.36364E+00
 -1      3371 2.90854E-15 4.75000E+01 7.27273E+00
 -1      3372 2.90854E-15 4.75000E+01 8.18182E+00
 -1      3373 2.90854E-15 4.75000E+01 9.09091E+00
 -1      3374 2.75546E-15 4.50000E+01 9.09091E-01
 -1      3375 2.75546E-15 4.50000E+01 1.81818E+00
 -1      3376 2.75546E-15 4.50000E+01 2.72727E+00
 -1      3377 2.75546E-15 4.50000E+01 3.63636E+00
 -1      3378 2.75546E-15 4.50000E+01 4.54545E+00
 -1      3379 2.75546E-15 4.50000E+01 5.45455E+00
 -1      3380 2.75546E-15 4.50000E+01 6.36364E+00
 -1      3381 2.75546E-15 4.50000E+01 7.27273E+00
 -1      3382 2.75546E-15 4.50000E+01 8.18182E+00
 -1      3383 2.75546E-15 4.50000E+01 9.09091E+00
 -1      3384 2.60237E-15 4.25000E+01 9.09091E-01
 -1      3385 2.60237E-15 4.25000E+01 1.81818E+00
 -1      3386 2.60237E-15 4.25000E+01 2.72727E+00
 -1      3387 2.60237E-15 4.25000E+01 3.63636E+00
 -1      3388 2.60237E-15 4.25000E+01 4.54545E+00
 -1      3389 2.60237E-15 4.25000E+01 5.45455E+00
 -1      3390 2.60237E-15 4.25000E+01 6.36364E+00
 -1      3391 2.60237E-15 4.25000E+01 7.27273E+00
 -1      3392 2.60237E-15 4.25000E+01 8.18182E+00
 -1      3393 2.60237E-15 4.25000E+01 9.09091E+00
 -1      3394 2.44929E-15 4.00000E+01 9.09091E-01
 -1      3395 2.44929E-15 4.00000E+01 1.81818E+00
 -1      3396 2.44929E-15 4.00000E+01 2.72727E+00
 -1      3397 2.44929E-15 4.00000E+01 3.63636E+00
 -1      3398 2.44929E-15 4.00000E+01 4.54545E+00
 -1      3399 2.44929E-15 4.00000E+01 5.45455E+00
 -1      3400 2.44929E-15 4.00000E+01 6.36364E+00
 -1      3401 2.44929E-15 4.00000E+01 7.27273E+00
 -1      3402 2.44929E-15 4.00000E+01 8.18182E+00
 -1      3403 2.44929E-15 4.00000E+01 9.09091E+00
 -1      3404 2.29621E-15 3.75000E+01 9.09091E-01
 -1      3405 2.29621E-15 3.75000E+01 1.81818E+00
 -1      3406 2.29621E-15 3.75000E+01 2.72727E+00
 -1      3407 2.29621E-15 3.75000E+01 3.63636E+00
 -1      3408 2.29621E-15 3.75000E+01 4.54545E+00
 -1      3409 2.29621E-15 3.75000E+01 5.45455E+00
 -1      3410 2.29621E-15 3.75000E+01 6.36364E+00
 -1      3411 2.29621E-15 3.75000E+01 7.27273E+00
 -1      3412 2.29621E-15 3.75000E+01 8.18182E+00
 -1      3413 2.29621E-15 3.75000E+01 9.09091E+00
 -1      3414 2.14313E-15 3.50000E+01 9.09091E-01
 -1      3415 2.14313E-15 3.50000E+01 1.81818E+00
 -1      3416 2.14313E-15 3.50000E+01 2.72727E+00
 -1      3417 2.14313E-15 3.50000E+01 3.63636E+00
 -1      3418 2.14313E-15 3.50000E+01 4.54545E+00
 -1      3419 2.14313E-15 3.50000E+01 5.45455E+00
 -1      3420 2.14313E-15 3.50000E+01 6.36364E+00
 -1      3421 2.14313E-15 3.50000E+01 7.27273E+00
 -1      3422 2.14313E-15 3.50000E+01 8.18182E+00
 -1      3423 2.14313E-15 3.50000E+01 9.09091E+00
 -1      3424 1.99005E-15 3.25000E+01 9.09091E-01
 -1      3425 1.99005E-15 3.25000E+01 1.81818E+00
 -1      3426 1.99005E-15 3.25000E+01 2.72727E+00
 -1      3427 1.99005E-15 3.25000E+01 3.63636E+00
 -1      3428 1.99005E-15 3.25000E+01 4.54545E+00
 -1      3429 1.99005E-15 3.25000E+01 5.45455E+00
 -1      3430 1.99005E-15 3.25000E+01 6.36364E+00
 -1      3431 1.99005E-15 3.25000E+01 7.27273E+00
 -1      3432 1.99005E-15 3.25000E+01 8.18182E+00
 -1      3433 1.99005E-15 3.25000E+01 9.09091E+00
 -1      3434 1.83697E-15 3.00000E+01 9.09091E-01
 -1      3435 1.83697E-15 3.00000E+01 1.81818E+00
 -1      3436 1.83697E-15 3.00000E+01 2.72727E+00
 -1      3437 1.83697E-15 3.00000E+01 3.63636E+00
 -1      3438 1.83697E-15 3.00000E+01 4.54545E+00
 -1      3439 1.83697E-15 3.00000E+01 5.45455E+00
 -1      3440 1.83697E-15 3.00000E+01 6.36364E+00
 -1      3441 1.83697E-15 3.00000E+01 7.27273E+00
 -1      3442 1.83697E-15 3.00000E+01 8.18182E+00
 -1      3443 1.83697E-15 3.00000E+01 9.09091E+00
 -1      3444 1.68389E-15 2.75000E+01 9.09091E-01
 -1      3445 1.68389E-15 2.75000E+01 1.81818E+00
 -1      3446 1.68389E-15 2.75000E+01 2.72727E+00
 -1      3447 1.68389E-15 2.75000E+01 3.63636E+00
 -1      3448 1.68389E-15 2.75000E+01 4.54545E+00
 -1      3449 1.68389E-15 2.75000E+01 5.45455E+00
 -1      3450 1.68389E-15 2.75000E+01 6.36364E+00
 -1      3451 1.68389E-15 2.75000E+01 7.27273E+00
 -1      3452 1.68389E-15 2.75000E+01 8.18182E+00
 -1      3453 1.68389E-15 2.75000E+01 9.09091E+00
 -1      3454 5.97015E-15 9.75000E+01 4.54545E-01
 -1      3455 6.04669E-15 9.87500E+01 9.09091E-01
 -1      3457 5.97015E-15 9.75000E+01 1.36364E+00
 -1      3458 6.04669E-15 9.87500E+01 1.81818E+00
 -1      3460 5.97015E-15 9.75000E+01 2.27273E+00
 -1      3461 6.04669E-15 9.87500E+01 2.72727E+00
 -1      3463 5.97015E-15 9.75000E+01 3.18182E+00
 -1      3464 6.04669E-15 9.87500E+01 3.63636E+00
 -1      3466 5.97015E-15 9.75000E+01 4.09091E+00
 -1      3467 6.04669E-15 9.87500E+01 4.54545E+00
 -1      3469 5.97015E-15 9.75000E+01 5.00000E+00
 -1      3470 6.04669E-15 9.87500E+01 5.45455E+00
 -1      3472 5.97015E-15 9.75000E+01 5.90909E+00
 -1      3473 6.04669E-15 9.87500E+01 6.36364E+00
 -1      3475 5.97015E-15 9.75000E+01 6.81818E+00
 -1      3476 6.04669E-15 9.87500E+01 7.27273E+00
 -1      3478 5.97015E-15 9.75000E+01 7.72727E+00
 -1      3479 6.04669E-15 9.87500E+01 8.18182E+00
 -1      3481 5.97015E-15 9.75000E+01 8.63636E+00
 -1      3482 6.04669E-15 9.87500E+01 9.09091E+00
 -1      3484 5.97015E-15 9.75000E+01 9.54545E+00
 -1      3486 5.81707E-15 9.50000E+01 4.54545E-01
 -1      3487 5.89361E-15 9.62500E+01 9.09091E-01
 -1      3489 5.81707E-15 9.50000E+01 1.36364E+00
 -1      3490 5.89361E-15 9.62500E+01 1.81818E+00
 -1      3492 5.81707E-15 9.50000E+01 2.27273E+00
 -1      3493 5.89361E-15 9.62500E+01 2.72727E+00
 -1      3495 5.81707E-15 9.50000E+01 3.18182E+00
 -1      3496 5.89361E-15 9.62500E+01 3.63636E+00
 -1      3498 5.81707E-15 9.50000E+01 4.09091E+00
 -1      3499 5.89361E-15 9.62500E+01 4.54545E+00
 -1      3501 5.81707E-15 9.50000E+01 5.00000E+00
 -1      3502 5.89361E-15 9.62500E+01 5.45455E+00
 -1      3504 5.81707E-15 9.50000E+01 5.90909E+00
 -1      3505 5.89361E-15 9.62500E+01 6.36364E+00
 -1      3507 5.81707E-15 9.50000E+01 6.81818E+00
 -1      3508 5.89361E-15 9.62500E+01 7.27273E+00
 -1      3510 5.81707E-15 9.50000E+01 7.72727E+00
 -1      3511 5.89361E-15 9.62500E+01 8.18182E+00
 -1      3513 5.81707E-15 9.50000E+01 8.63636E+00
 -1      3514 5.89361E-15 9.62500E+01 9.09091E+00
 -1      3516 5.81707E-15 9.50000E+01 9.54545E+00
 -1      3518 5.66399E-15 9.25000E+01 4.54545E-01
 -1      3519 5.74053E-15 9.37500E+01 9.09091E-01
 -1      3521 5.66399E-15 9.25000E+01 1.36364E+00
 -1      3522 5.74053E-15 9.37500E+01 1.81818E+00
 -1      3524 5.66399E-15 9.25000E+01 2.27273E+00
 -1      3525 5.74053E-15 9.37500E+01 2.72727E+00
 -1      3527 5.66399E-15 9.25000E+01 3.18182E+00
 -1      3528 5.74053E-15 9.37500E+01 3.63636E+00
 -1      3530 5.66399E-15 9.25000E+01 4.09091E+00
 -1      3531 5.74053E-15 9.37500E+01 4.54545E+00
 -1      3533 5.66399E-15 9.25000E+01 5.00000E+00
 -1      3534 5.74053E-15 9.37500E+01 5.45455E+00
 -1      3536 5.66399E-15 9.25000E+01 5.90909E+00
 -1      3537 5.74053E-15 9.37500E+01 6.36364E+00
 -1      3539 5.66399E-15 9.25000E+01 6.81818E+00
 -1      3540 5.74053E-15 9.37500E+01 7.27273E+00
 -1      3542 5.66399E-15 9.25000E+01 7.72727E+00
 -1      3543 5.74053E-15 9.37500E+01 8.18182E+00
 -1      3545 5.66399E-15 9.25000E+01 8.63636E+00
 -1      3546 5.74053E-15 9.37500E+01 9.09091E+00
 -1      3548 5.66399E-15 9.25000E+01 9.54545E+00
 -1      3550 5.51091E-15 9.00000E+01 4.54545E-01
 -1      3551 5.58745E-15 9.12500E+01 9.09091E-01
 -1      3553 5.51091E-15 9.00000E+01 1.36364E+00
 -1      3554 5.58745E-15 9.12500E+01 1.81818E+00
 -1      3556 5.51091E-15 9.00000E+01 2.27273E+00
 -1      3557 5.58745E-15 9.12500E+01 2.72727E+00
 -1      3559 5.51091E-15 9.00000E+01 3.18182E+00
 -1      3560 5.58745E-15 9.12500E+01 3.63636E+00
 -1      3562 5.51091E-15 9.00000E+01 4.09091E+00
 -1      3563 5.58745E-15 9.12500E+01 4.54545E+00
 -1      3565 5.51091E-15 9.00000E+01 5.00000E+00
 -1      3566 5.58745E-15 9.12500E+01 5.45455E+00
 -1      3568 5.51091E-15 9.00000E+01 5.90909E+00
 -1      3569 5.58745E-15 9.12500E+01 6.36364E+00
 -1      3571 5.51091E-15 9.00000E+01 6.81818E+00
 -1      3572 5.58745E-15 9.12500E+01 7.27273E+00
 -1      3574 5.51091E-15 9.00000E+01 7.72727E+00
 -1      3575 5.58745E-15 9.12500E+01 8.18182E+00
 -1      3577 5.51091E-15 9.00000E+01 8.63636E+00
 -1      3578 5.58745E-15 9.12500E+01 9.09091E+00
 -1      3580 5.51091E-15 9.00000E+01 9.54545E+00
 -1      3582 5.35783E-15 8.75000E+01 4.54545E-01
 -1      3583 5.43437E-15 8.87500E+01 9.09091E-01
 -1      3585 5.35783E-15 8.75000E+01 1.36364E+00
 -1      3586 5.43437E-15 8.87500E+01 1.81818E+00
 -1      3588 5.35783E-15 8.75000E+01 2.27273E+00
 -1      3589 5.43437E-15 8.87500E+01 2.72727E+00
 -1      3591 5.35783E-15 8.75000E+01 3.18182E+00
 -1      3592 5.43437E-15 8.87500E+01 3.63636E+00
 -1      3594 5.35783E-15 8.75000E+01 4.09091E+00
 -1      3595 5.43437E-15 8.87500E+01 4.54545E+00
 -1      3597 5.35783E-15 8.75000E+01 5.00000E+00
 -1      3598 5.43437E-15 8.87500E+01 5.45455E+00
 -1      3600 5.35783E-15 8.75000E+01 5.90909E+00
 -1      3601 5.43437E-15 8.87500E+01 6.36364E+00
 -1      3603 5.35783E-15 8.75000E+01 6.81818E+00
 -1      3604 5.43437E-15 8.87500E+01 7.27273E+00
 -1      3606 5.35783E-15 8.75000E+01 7.72727E+00
 -1      3607 5.43437E-15 8.87500E+01 8.18182E+00
 -1      3609 5.35783E-15 8.75000E+01 8.63636E+00
 -1      3610 5.43437E-15 8.87500E+01 9.09091E+00
 -1      3612 5.35783E-15 8.75000E+01 9.54545E+00
 -1      3614 5.20475E-15 8.50000E+01 4.54545E-01
 -1      3615 5.28129E-15 8.62500E+01 9.09091E-01
 -1      3617 5.20475E-15 8.50000E+01 1.36364E+00
 -1      3618 5.28129E-15 8.62500E+01 1.81818E+00
 -1      3620 5.20475E-15 8.50000E+01 2.27273E+00
 -1      3621 5.28129E-15 8.62500E+01 2.72727E+00
 -1      3623 5.20475E-15 8.50000E+01 3.18182E+00
 -1      3624 5.28129E-15 8.62500E+01 3.63636E+00
 -1      3626 5.20475E-15 8.50000E+01 4.09091E+00
 -1      3627 5.28129E-15 8.62500E+01 4.54545E+00
 -1      3629 5.20475E-15 8.50000E+01 5.00000E+00
 -1      3630 5.28129E-15 8.62500E+01 5.45455E+00
 -1      3632 5.20475E-15 8.50000E+01 5.90909E+00
 -1      3633 5.28129E-15 8.62500E+01 6.36364E+00
 -1      3635 5.20475E-15 8.50000E+01 6.81818E+00
 -1      3636 5.28129E-15 8.62500E+01 7.27273E+00
 -1      3638 5.20475E-15 8.50000E+01 7.72727E+00
 -1      3639 5.28129E-15 8.62500E+01 8.18182E+00
 -1      3641 5.20475E-15 8.50000E+01 8.63636E+00
 -1      3642 5.28129E-15 8.62500E+01 9.09091E+00
 -1      3644 5.20475E-15 8.50000E+01 9.54545E+00
 -1      3646 5.05167E-15 8.25000E+01 4.54545E-01
 -1      3647 5.12821E-15 8.37500E+01 9.09091E-01
 -1      3649 5.05167E-15 8.25000E+01 1.36364E+00
 -1      3650 5.12821E-15 8.37500E+01 1.81818E+00
 -1      3652 5.05167E-15 8.25000E+01 2.27273E+00
 -1      3653 5.12821E-15 8.37500E+01 2.72727E+00
 -1      3655 5.05167E-15 8.25000E+01 3.18182E+00
 -1      3656 5.12821E-15 8.37500E+01 3.63636E+00
 -1      3658 5.05167E-15 8.25000E+01 4.09091E+00
 -1      3659 5.12821E-15 8.37500E+01 4.54545E+00
 -1      3661 5.05167E-15 8.25000E+01 5.00000E+00
 -1      3662 5.12821E-15 8.37500E+01 5.45455E+00
 -1      3664 5.05167E-15 8.25000E+01 5.90909E+00
 -1      3665 5.12821E-15 8.37500E+01 6.36364E+00
 -1      3667 5.05167E-15 8.25000E+01 6.81818E+00
 -1      3668 5.12821E-15 8.37500E+01 7.27273E+00
 -1      3670 5.05167E-15 8.25000E+01 7.72727E+00
 -1      3671 5.12821E-15 8.37500E+01 8.18182E+00
 -1      3673 5.05167E-15 8.25000E+01 8.63636E+00
 -1      3674 5.12821E-15 8.37500E+01 9.09091E+00
 -1      3676 5.05167E-15 8.25000E+01 9.54545E+00
 -1      3678 4.89859E-15 8.00000E+01 4.54545E-01
 -1      3679 4.97513E-15 8.12500E+01 9.09091E-01
 -1      3681 4.89859E-15 8.00000E+01 1.36364E+00
 -1      3682 4.97513E-15 8.12500E+01 1.81818E+00
 -1      3684 4.89859E-15 8.00000E+01 2.27273E+00
 -1      3685 4.97513E-15 8.12500E+01 2.72727E+00
 -1      3687 4.89859E-15 8.00000E+01 3.18182E+00
 -1      3688 4.97513E-15 8.12500E+01 3.63636E+00
 -1      3690 4.89859E-15 8.00000E+01 4.09091E+00
 -1      3691 4.97513E-15 8.12500E+01 4.54545E+00
 -1      3693 4.89859E-15 8.00000E+01 5.00000E+00
 -1      3694 4.97513E-15 8.12500E+01 5.45455E+00
 -1      3696 4.89859E-15 8.00000E+01 5.90909E+00
 -1      3697 4.97513E-15 8.12500E+01 6.36364E+00
 -1      3699 4.89859E-15 8.00000E+01 6.81818E+00
 -1      3700 4.97513E-15 8.12500E+01 7.27273E+00
 -1      3702 4.89859E-15 8.00000E+01 7.72727E+00
 -1      3703 4.97513E-15 8.12500E+01 8.18182E+00
 -1      3705 4.89859E-15 8.00000E+01 8.63636E+00
 -1      3706 4.97513E-15 8.12500E+01 9.09091E+00
 -1      3708 4.89859E-15 8.00000E+01 9.54545E+00
 -1      3710 4.74551E-15 7.75000E+01 4.54545E-01
 -1      3711 4.82205E-15 7.87500E+01 9.09091E-01
 -1      3713 4.74551E-15 7.75000E+01 1.36364E+00
 -1      3714 4.82205E-15 7.87500E+01 1.81818E+00
 -1      3716 4.74551E-15 7.75000E+01 2.27273E+00
 -1      3717 4.82205E-15 7.87500E+01 2.72727E+00
 -1      3719 4.74551E-15 7.75000E+01 3.18182E+00
 -1      3720 4.82205E-15 7.87500E+01 3.63636E+00
 -1      3722 4.74551E-15 7.75000E+01 4.09091E+00
 -1      3723 4.82205E-15 7.87500E+01 4.54545E+00
 -1      3725 4.74551E-15 7.75000E+01 5.00000E+00
 -1      3726 4.82205E-15 7.87500E+01 5.45455E+00
 -1      3728 4.74551E-15 7.75000E+01 5.90909E+00
 -1      3729 4.82205E-15 7.87500E+01 6.36364E+00
 -1      3731 4.74551E-15 7.75000E+01 6.81818E+00
 -1      3732 4.82205E-15 7.87500E+01 7.27273E+00
 -1      3734 4.74551E-15 7.75000E+01 7.72727E+00
 -1      3735 4.82205E-15 7.87500E+01 8.18182E+00
 -1      3737 4.74551E-15 7.75000E+01 8.63636E+00
 -1      3738 4.82205E-15 7.87500E+01 9.09091E+00
 -1      3740 4.74551E-15 7.75000E+01 9.54545E+00
 -1      3742 4.59243E-15 7.50000E+01 4.54545E-01
 -1      3743 4.66897E-15 7.62500E+01 9.09091E-01
 -1      3745 4.59243E-15 7.50000E+01 1.36364E+00
 -1      3746 4.66897E-15 7.62500E+01 1.81818E+00
 -1      3748 4.59243E-15 7.50000E+01 2.27273E+00
 -1      3749 4.66897E-15 7.62500E+01 2.72727E+00
 -1      3751 4.59243E-15 7.50000E+01 3.18182E+00
 -1      3752 4.66897E-15 7.62500E+01 3.63636E+00
 -1      3754 4.59243E-15 7.50000E+01 4.09091E+00
 -1      3755 4.66897E-15 7.62500E+01 4.54545E+00
 -1      3757 4.59243E-15 7.50000E+01 5.00000E+00
 -1      3758 4.66897E-15 7.62500E+01 5.45455E+00
 -1      3760 4.59243E-15 7.50000E+01 5.90909E+00
 -1      3761 4.66897E-15 7.62500E+01 6.36364E+00
 -1      3763 4.59243E-15 7.50000E+01 6.81818E+00
 -1      3764 4.66897E-15 7.62500E+01 7.27273E+00
 -1      3766 4.59243E-15 7.50000E+01 7.72727E+00
 -1      3767 4.66897E-15 7.62500E+01 8.18182E+00
 -1      3769 4.59243E-15 7.50000E+01 8.63636E+00
 -1      3770 4.66897E-15 7.62500E+01 9.09091E+00
 -1      3772 4.59243E-15 7.50000E+01 9.54545E+00
 -1      3774 4.43934E-15 7.25000E+01 4.54545E-01
 -1      3775 4.51589E-15 7.37500E+01 9.09091E-01
 -1      3777 4.43934E-15 7.25000E+01 1.36364E+00
 -1      3778 4.51589E-15 7.37500E+01 1.81818E+00
 -1      3780 4.43934E-15 7.25000E+01 2.27273E+00
 -1      3781 4.51589E-15 7.37500E+01 2.72727E+00
 -1      3783 4.43934E-15 7.25000E+01 3.18182E+00
 -1      3784 4.51589E-15 7.37500E+01 3.63636E+00
 -1      3786 4.43934E-15 7.25000E+01 4.09091E+00
 -1      3787 4.51589E-15 7.37500E+01 4.54545E+00
 -1      3789 4.43934E-15 7.25000E+01 5.00000E+00
 -1      3790 4.51589E-15 7.37500E+01 5.45455E+00
 -1      3792 4.43934E-15 7.25000E+01 5.90909E+00
 -1      3793 4.51589E-15 7.37500E+01 6.36364E+00
 -1      3795 4.43934E-15 7.25000E+01 6.81818E+00
 -1      3796 4.51589E-15 7.37500E+01 7.27273E+00
 -1      3798 4.43934E-15 7.25000E+01 7.72727E+00
 -1      3799 4.51589E-15 7.37500E+01 8.18182E+00
 -1      3801 4.43934E-15 7.25000E+01 8.63636E+00
 -1      3802 4.51589E-15 7.37500E+01 9.09091E+00
 -1      3804 4.43934E-15 7.25000E+01 9.54545E+00
 -1      3806 4.28626E-15 7.00000E+01 4.54545E-01
 -1      3807 4.36280E-15 7.12500E+01 9.09091E-01
 -1      3809 4.28626E-15 7.00000E+01 1.36364E+00
 -1      3810 4.36280E-15 7.12500E+01 1.81818E+00
 -1      3812 4.28626E-15 7.00000E+01 2.27273E+00
 -1      3813 4.36280E-15 7.12500E+01 2.72727E+00
 -1      3815 4.28626E-15 7.00000E+01 3.18182E+00
 -1      3816 4.36280E-15 7.12500E+01 3.63636E+00
 -1      3818 4.28626E-15 7.00000E+01 4.09091E+00
 -1      3819 4.36280E-15 7.12500E+01 4.54545E+00
 -1      3821 4.28626E-15 7.00000E+01 5.00000E+00
 -1      3822 4.36280E-15 7.12500E+01 5.45455E+00
 -1      3824 4.28626E-15 7.00000E+01 5.90909E+00
 -1      3825 4.36280E-15 7.12500E+01 6.36364E+00
 -1      3827 4.28626E-15 7.00000E+01 6.81818E+00
 -1      3828 4.36280E-15 7.12500E+01 7.27273E+00
 -1      3830 4.28626E-15 7.00000E+01 7.72727E+00
 -1      3831 4.36280E-15 7.12500E+01 8.18182E+00
 -1      3833 4.28626E-15 7.00000E+01 8.63636E+00
 -1      3834 4.36280E-15 7.12500E+01 9.09091E+00
 -1      3836 4.28626E-15 7.00000E+01 9.54545E+00
 -1      3838 4.13318E-15 6.75000E+01 4.54545E-01
 -1      3839 4.20972E-15 6.87500E+01 9.09091E-01
 -1      3841 4.13318E-15 6.75000E+01 1.36364E+00
 -1      3842 4.20972E-15 6.87500E+01 1.81818E+00
 -1      3844 4.13318E-15 6.75000E+01 2.27273E+00
 -1      3845 4.20972E-15 6.87500E+01 2.72727E+00
 -1      3847 4.13318E-15 6.75000E+01 3.18182E+00
 -1      3848 4.20972E-15 6.87500E+01 3.63636E+00
 -1      3850 4.13318E-15 6.75000E+01 4.09091E+00
 -1      3851 4.20972E-15 6.87500E+01 4.54545E+00
 -1      3853 4.13318E-15 6.75000E+01 5.00000E+00
 -1      3854 4.20972E-15 6.87500E+01 5.45455E+00
 -1      3856 4.13318E-15 6.75000E+01 5.90909E+00
 -1      3857 4.20972E-15 6.87500E+01 6.36364E+00
 -1      3859 4.13318E-15 6.75000E+01 6.81818E+00
 -1      3860 4.20972E-15 6.87500E+01 7.27273E+00
 -1      3862 4.13318E-15 6.75000E+01 7.72727E+00
 -1      3863 4.20972E-15 6.87500E+01 8.18182E+00
 -1      3865 4.13318E-15 6.75000E+01 8.63636E+00
 -1      3866 4.20972E-15 6.87500E+01 9.09091E+00
 -1      3868 4.13318E-15 6.75000E+01 9.54545E+00
 -1      3870 3.98010E-15 6.50000E+01 4.54545E-01
 -1      3871 4.05664E-15 6.62500E+01 9.09091E-01
 -1      3873 3.98010E-15 6.50000E+01 1.36364E+00
 -1      3874 4.05664E-15 6.62500E+01 1.81818E+00
 -1      3876 3.98010E-15 6.50000E+01 2.27273E+00
 -1      3877 4.05664E-15 6.62500E+01 2.72727E+00
 -1      3879 3.98010E-15 6.50000E+01 3.18182E+00
 -1      3880 4.05664E-15 6.62500E+01 3.63636E+00
 -1      3882 3.98010E-15 6.50000E+01 4.09091E+00
 -1      3883 4.05664E-15 6.62500E+01 4.54545E+00
 -1      3885 3.98010E-15 6.50000E+01 5.00000E+00
 -1      3886 4.05664E-15 6.62500E+01 5.45455E+00
 -1      3888 3.98010E-15 6.50000E+01 5.90909E+00
 -1      3889 4.05664E-15 6.62500E+01 6.36364E+00
 -1      3891 3.98010E-15 6.50000E+01 6.81818E+00
 -1      3892 4.05664E-15 6.62500E+01 7.27273E+00
 -1      3894 3.98010E-15 6.50000E+01 7.72727E+00
 -1      3895 4.05664E-15 6.62500E+01 8.18182E+00
 -1      3897 3.98010E-15 6.50000E+01 8.63636E+00
 -1      3898 4.05664E-15 6.62500E+01 9.09091E+00
 -1      3900 3.98010E-15 6.50000E+01 9.54545E+00
 -1      3902 3.82702E-15 6.25000E+01 4.54545E-01
 -1      3903 3.90356E-15 6.37500E+01 9.09091E-01
 -1      3905 3.82702E-15 6.25000E+01 1.36364E+00
 -1      3906 3.90356E-15 6.37500E+01 1.81818E+00
 -1      3908 3.82702E-15 6.25000E+01 2.27273E+00
 -1      3909 3.90356E-15 6.37500E+01 2.72727E+00
 -1      3911 3.82702E-15 6.25000E+01 3.18182E+00
 -1      3912 3.90356E-15 6.37500E+01 3.63636E+00
 -1      3914 3.82702E-15 6.25000E+01 4.09091E+00
 -1      3915 3.90356E-15 6.37500E+01 4.54545E+00
 -1      3917 3.82702E-15 6.25000E+01 5.00000E+00
 -1      3918 3.90356E-15 6.37500E+01 5.45455E+00
 -1      3920 3.82702E-15 6.25000E+01 5.90909E+00
 -1      3921 3.90356E-15 6.37500E+01 6.36364E+00
 -1      3923 3.82702E-15 6.25000E+01 6.81818E+00
 -1      3924 3.90356E-15 6.37500E+01 7.27273E+00
 -1      3926 3.82702E-15 6.25000E+01 7.72727E+00
 -1      3927 3.90356E-15 6.37500E+01 8.18182E+00
 -1      3929 3.82702E-15 6.25000E+01 8.63636E+00
 -1      3930 3.90356E-15 6.37500E+01 9.09091E+00
 -1      3932 3.82702E-15 6.25000E+01 9.54545E+00
 -1      3934 3.67394E-15 6.00000E+01 4.54545E-01
 -1      3935 3.75048E-15 6.12500E+01 9.09091E-01
 -1      3937 3.67394E-15 6.00000E+01 1.36364E+00
 -1      3938 3.75048E-15 6.12500E+01 1.81818E+00
 -1      3940 3.67394E-15 6.00000E+01 2.27273E+00
 -1      3941 3.75048E-15 6.12500E+01 2.72727E+00
 -1      3943 3.67394E-15 6.00000E+01 3.18182E+00
 -1      3944 3.75048E-15 6.12500E+01 3.63636E+00
 -1      3946 3.67394E-15 6.00000E+01 4.09091E+00
 -1      3947 3.75048E-15 6.12500E+01 4.54545E+00
 -1      3949 3.67394E-15 6.00000E+01 5.00000E+00
 -1      3950 3.75048E-15 6.12500E+01 5.45455E+00
 -1      3952 3.67394E-15 6.00000E+01 5.90909E+00
 -1      3953 3.75048E-15 6.12500E+01 6.36364E+00
 -1      3955 3.67394E-15 6.00000E+01 6.81818E+00
 -1      3956 3.75048E-15 6.12500E+01 7.27273E+00
 -1      3958 3.67394E-15 6.00000E+01 7.72727E+00
 -1      3959 3.75048E-15 6.12500E+01 8.18182E+00
 -1      3961 3.67394E-15 6.00000E+01 8.63636E+00
 -1      3962 3.75048E-15 6.12500E+01 9.09091E+00
 -1      3964 3.67394E-15 6.00000E+01 9.54545E+00
 -1      3966 3.52086E-15 5.75000E+01 4.54545E-01
 -1      3967 3.59740E-15 5.87500E+01 9.09091E-01
 -1      3969 3.52086E-15 5.75000E+01 1.36364E+00
 -1      3970 3.59740E-15 5.87500E+01 1.81818E+00
 -1      3972 3.52086E-15 5.75000E+01 2.27273E+00
 -1      3973 3.59740E-15 5.87500E+01 2.72727E+00
 -1      3975 3.52086E-15 5.75000E+01 3.18182E+00
 -1      3976 3.59740E-15 5.87500E+01 3.63636E+00
 -1      3978 3.52086E-15 5.75000E+01 4.09091E+00
 -1      3979 3.59740E-15 5.87500E+01 4.54545E+00
 -1      3981 3.52086E-15 5.75000E+01 5.00000E+00
 -1      3982 3.59740E-15 5.87500E+01 5.45455E+00
 -1      3984 3.52086E-15 5.75000E+01 5.90909E+00
 -1      3985 3.59740E-15 5.87500E+01 6.36364E+00
 -1      3987 3.52086E-15 5.75000E+01 6.81818E+00
 -1      3988 3.59740E-15 5.87500E+01 7.27273E+00
 -1      3990 3.52086E-15 5.75000E+01 7.72727E+00
 -1      3991 3.59740E-15 5.87500E+01 8.18182E+00
 -1      3993 3.52086E-15 5.75000E+01 8.63636E+00
 -1      3994 3.59740E-15 5.87500E+01 9.09091E+00
 -1      3996 3.52086E-15 5.75000E+01 9.54545E+00
 -1      3998 3.36778E-15 5.50000E+01 4.54545E-01
 -1      3999 3.44432E-15 5.62500E+01 9.09091E-01
 -1      4001 3.36778E-15 5.50000E+01 1.36364E+00
 -1      4002 3.44432E-15 5.62500E+01 1.81818E+00
 -1      4004 3.36778E-15 5.50000E+01 2.27273E+00
 -1      4005 3.44432E-15 5.62500E+01 2.72727E+00
 -1      4007 3.36778E-15 5.50000E+01 3.18182E+00
 -1      4008 3.44432E-15 5.62500E+01 3.63636E+00
 -1      4010 3.36778E-15 5.50000E+01 4.09091E+00
 -1      4011 3.44432E-15 5.62500E+01 4.54545E+00
 -1      4013 3.36778E-15 5.50000E+01 5.00000E+00
 -1      4014 3.44432E-15 5.62500E+01 5.45455E+00
 -1      4016 3.36778E-15 5.50000E+01 5.90909E+00
 -1      4017 3.44432E-15 5.62500E+01 6.36364E+00
 -1      4019 3.36778E-15 5.50000E+01 6.81818E+00
 -1      4020 3.44432E-15 5.62500E+01 7.27273E+00
 -1      4022 3.36778E-15 5.50000E+01 7.72727E+00
 -1      4023 3.44432E-15 5.62500E+01 8.18182E+00
 -1      4025 3.36778E-15 5.50000E+01 8.63636E+00
 -1      4026 3.44432E-15 5.62500E+01 9.09091E+00
 -1      4028 3.36778E-15 5.50000E+01 9.54545E+00
 -1      4030 3.21470E-15 5.25000E+01 4.54545E-01
 -1      4031 3.29124E-15 5.37500E+01 9.09091E-01
 -1      4033 3.21470E-15 5.25000E+01 1.36364E+00
 -1      4034 3.29124E-15 5.37500E+01 1.81818E+00
 -1      4036 3.21470E-15 5.25000E+01 2.27273E+00
 -1      4037 3.29124E-15 5.37500E+01 2.72727E+00
 -1      4039 3.21470E-15 5.25000E+01 3.18182E+00
 -1      4040 3.29124E-15 5.37500E+01 3.63636E+00
 -1      4042 3.21470E-15 5.25000E+01 4.09091E+00
 -1      4043 3.29124E-15 5.37500E+01 4.54545E+00
 -1      4045 3.21470E-15 5.25000E+01 5.00000E+00
 -1      4046 3.29124E-15 5.37500E+01 5.45455E+00
 -1      4048 3.21470E-15 5.25000E+01 5.90909E+00
 -1      4049 3.29124E-15 5.37500E+01 6.36364E+00
 -1      4051 3.21470E-15 5.25000E+01 6.81818E+00
 -1      4052 3.29124E-15 5.37500E+01 7.27273E+00
 -1      4054 3.21470E-15 5.25000E+01 7.72727E+00
 -1      4055 3.29124E-15 5.37500E+01 8.18182E+00
 -1      4057 3.21470E-15 5.25000E+01 8.63636E+00
 -1      4058 3.29124E-15 5.37500E+01 9.09091E+00
 -1      4060 3.21470E-15 5.25000E+01 9.54545E+00
 -1      4062 3.06162E-15 5.00000E+01 4.54545E-01
 -1      4063 3.13816E-15 5.12500E+01 9.09091E-01
 -1      4065 3.06162E-15 5.00000E+01 1.36364E+00
 -1      4066 3.13816E-15 5.12500E+01 1.81818E+00
 -1      4068 3.06162E-15 5.00000E+01 2.27273E+00
 -1      4069 3.13816E-15 5.12500E+01 2.72727E+00
 -1      4071 3.06162E-15 5.00000E+01 3.18182E+00
 -1      4072 3.13816E-15 5.12500E+01 3.63636E+00
 -1      4074 3.06162E-15 5.00000E+01 4.09091E+00
 -1      4075 3.13816E-15 5.12500E+01 4.54545E+00
 -1      4077 3.06162E-15 5.00000E+01 5.00000E+00
 -1      4078 3.13816E-15 5.12500E+01 5.45455E+00
 -1      4080 3.06162E-15 5.00000E+01 5.90909E+00
 -1      4081 3.13816E-15 5.12500E+01 6.36364E+00
 -1      4083 3.06162E-15 5.00000E+01 6.81818E+00
 -1      4084 3.13816E-15 5.12500E+01 7.27273E+00
 -1      4086 3.06162E-15 5.00000E+01 7.72727E+00
 -1      4087 3.13816E-15 5.12500E+01 8.18182E+00
 -1      4089 3.06162E-15 5.00000E+01 8.63636E+00
 -1      4090 3.13816E-15 5.12500E+01 9.09091E+00
 -1      4092 3.06162E-15 5.00000E+01 9.54545E+00
 -1      4094 2.90854E-15 4.75000E+01 4.54545E-01
 -1      4095 2.98508E-15 4.87500E+01 9.09091E-01
 -1      4097 2.90854E-15 4.75000E+01 1.36364E+00
 -1      4098 2.98508E-15 4.87500E+01 1.81818E+00
 -1      4100 2.90854E-15 4.75000E+01 2.27273E+00
 -1      4101 2.98508E-15 4.87500E+01 2.72727E+00
 -1      4103 2.90854E-15 4.75000E+01 3.18182E+00
 -1      4104 2.98508E-15 4.87500E+01 3.63636E+00
 -1      4106 2.90854E-15 4.75000E+01 4.09091E+00
 -1      4107 2.98508E-15 4.87500E+01 4.54545E+00
 -1      4109 2.90854E-15 4.75000E+01 5.00000E+00
 -1      4110 2.98508E-15 4.87500E+01 5.45455E+00
 -1      4112 2.90854E-15 4.75000E+01 5.90909E+00
 -1      4113 2.98508E-15 4.87500E+01 6.36364E+00
 -1      4115 2.90854E-15 4.75000E+01 6.81818E+00
 -1      4116 2.98508E-15 4.87500E+01 7.27273E+00
 -1      4118 2.90854E-15 4.75000E+01 7.72727E+00
 -1      4119 2.98508E-15 4.87500E+01 8.18182E+00
 -1      4121 2.90854E-15 4.75000E+01 8.63636E+00
 -1      4122 2.98508E-15 4.87500E+01 9.09091E+00
 -1      4124 2.90854E-15 4.75000E+01 9.54545E+00
 -1      4126 2.75546E-15 4.50000E+01 4.54545E-01
 -1      4127 2.83200E-15 4.62500E+01 9.09091E-01
 -1      4129 2.75546E-15 4.50000E+01 1.36364E+00
 -1      4130 2.83200E-15 4.62500E+01 1.81818E+00
 -1      4132 2.75546E-15 4.50000E+01 2.27273E+00
 -1      4133 2.83200E-15 4.62500E+01 2.72727E+00
 -1      4135 2.75546E-15 4.50000E+01 3.18182E+00
 -1      4136 2.83200E-15 4.62500E+01 3.63636E+00
 -1      4138 2.75546E-15 4.50000E+01 4.09091E+00
 -1      4139 2.83200E-15 4.62500E+01 4.54545E+00
 -1      4141 2.75546E-15 4.50000E+01 5.00000E+00
 -1      4142 2.83200E-15 4.62500E+01 5.45455E+00
 -1      4144 2.75546E-15 4.50000E+01 5.90909E+00
 -1      4145 2.83200E-15 4.62500E+01 6.36364E+00
 -1      4147 2.75546E-15 4.50000E+01 6.81818E+00
 -1      4148 2.83200E-15 4.62500E+01 7.27273E+00
 -1      4150 2.75546E-15 4.50000E+01 7.72727E+00
 -1      4151 2.83200E-15 4.62500E+01 8.18182E+00
 -1      4153 2.75546E-15 4.50000E+01 8.63636E+00
 -1      4154 2.83200E-15 4.62500E+01 9.09091E+00
 -1      4156 2.75546E-15 4.50000E+01 9.54545E+00
 -1      4158 2.60237E-15 4.25000E+01 4.54545E-01
 -1      4159 2.67891E-15 4.37500E+01 9.09091E-01
 -1      4161 2.60237E-15 4.25000E+01 1.36364E+00
 -1      4162 2.67891E-15 4.37500E+01 1.81818E+00
 -1      4164 2.60237E-15 4.25000E+01 2.27273E+00
 -1      4165 2.67891E-15 4.37500E+01 2.72727E+00
 -1      4167 2.60237E-15 4.25000E+01 3.18182E+00
 -1      4168 2.67891E-15 4.37500E+01 3.63636E+00
 -1      4170 2.60237E-15 4.25000E+01 4.09091E+00
 -1      4171 2.67891E-15 4.37500E+01 4.54545E+00
 -1      4173 2.60237E-15 4.25000E+01 5.00000E+00
 -1      4174 2.67891E-15 4.37500E+01 5.45455E+00
 -1      4176 2.60237E-15 4.25000E+01 5.90909E+00
 -1      4177 2.67891E-15 4.37500E+01 6.36364E+00
 -1      4179 2.60237E-15 4.25000E+01 6.81818E+00
 -1      4180 2.67891E-15 4.37500E+01 7.27273E+00
 -1      4182 2.60237E-15 4.25000E+01 7.72727E+00
 -1      4183 2.67891E-15 4.37500E+01 8.18182E+00
 -1      4185 2.60237E-15 4.25000E+01 8.63636E+00
 -1      4186 2.67891E-15 4.37500E+01 9.09091E+00
 -1      4188 2.60237E-15 4.25000E+01 9.54545E+00
 -1      4190 2.44929E-15 4.00000E+01 4.54545E-01
 -1      4191 2.52583E-15 4.12500E+01 9.09091E-01
 -1      4193 2.44929E-15 4.00000E+01 1.36364E+00
 -1      4194 2.52583E-15 4.12500E+01 1.81818E+00
 -1      4196 2.44929E-15 4.00000E+01 2.27273E+00
 -1      4197 2.52583E-15 4.12500E+01 2.72727E+00
 -1      4199 2.44929E-15 4.00000E+01 3.18182E+00
 -1      4200 2.52583E-15 4.12500E+01 3.63636E+00
 -1      4202 2.44929E-15 4.00000E+01 4.09091E+00
 -1      4203 2.52583E-15 4.12500E+01 4.54545E+00
 -1      4205 2.44929E-15 4.00000E+01 5.00000E+00
 -1      4206 2.52583E-15 4.12500E+01 5.45455E+00
 -1      4208 2.44929E-15 4.00000E+01 5.90909E+00
 -1      4209 2.52583E-15 4.12500E+01 6.36364E+00
 -1      4211 2.44929E-15 4.00000E+01 6.81818E+00
 -1      4212 2.52583E-15 4.12500E+01 7.27273E+00
 -1      4214 2.44929E-15 4.00000E+01 7.72727E+00
 -1      4215 2.52583E-15 4.12500E+01 8.18182E+00
 -1      4217 2.44929E-15 4.00000E+01 8.63636E+00
 -1      4218 2.52583E-15 4.12500E+01 9.09091E+00
 -1      4220 2.44929E-15 4.00000E+01 9.54545E+00
 -1      4222 2.29621E-15 3.75000E+01 4.54545E-01
 -1      4223 2.37275E-15 3.87500E+01 9.09091E-01
 -1      4225 2.29621E-15 3.75000E+01 1.36364E+00
 -1      4226 2.37275E-15 3.87500E+01 1.81818E+00
 -1      4228 2.29621E-15 3.75000E+01 2.27273E+00
 -1      4229 2.37275E-15 3.87500E+01 2.72727E+00
 -1      4231 2.29621E-15 3.75000E+01 3.18182E+00
 -1      4232 2.37275E-15 3.87500E+01 3.63636E+00
 -1      4234 2.29621E-15 3.75000E+01 4.09091E+00
 -1      4235 2.37275E-15 3.87500E+01 4.54545E+00
 -1      4237 2.29621E-15 3.75000E+01 5.00000E+00
 -1      4238 2.37275E-15 3.87500E+01 5.45455E+00
 -1      4240 2.29621E-15 3.75000E+01 5.90909E+00
 -1      4241 2.37275E-15 3.87500E+01 6.36364E+00
 -1      4243 2.29621E-15 3.75000E+01 6.81818E+00
 -1      4244 2.37275E-15 3.87500E+01 7.27273E+00
 -1      4246 2.29621E-15 3.75000E+01 7.72727E+00
 -1      4247 2.37275E-15 3.87500E+01 8.18182E+00
 -1      4249 2.29621E-15 3.75000E+01 8.63636E+00
 -1      4250 2.37275E-15 3.87500E+01 9.09091E+00
 -1      4252 2.29621E-15 3.75000E+01 9.54545E+00
 -1      4254 2.14313E-15 3.50000E+01 4.54545E-01
 -1      4255 2.21967E-15 3.62500E+01 9.09091E-01
 -1      4257 2.14313E-15 3.50000E+01 1.36364E+00
 -1      4258 2.21967E-15 3.62500E+01 1.81818E+00
 -1      4260 2.14313E-15 3.50000E+01 2.27273E+00
 -1      4261 2.21967E-15 3.62500E+01 2.72727E+00
 -1      4263 2.14313E-15 3.50000E+01 3.18182E+00
 -1      4264 2.21967E-15 3.62500E+01 3.63636E+00
 -1      4266 2.14313E-15 3.50000E+01 4.09091E+00
 -1      4267 2.21967E-15 3.62500E+01 4.54545E+00
 -1      4269 2.14313E-15 3.50000E+01 5.00000E+00
 -1      4270 2.21967E-15 3.62500E+01 5.45455E+00
 -1      4272 2.14313E-15 3.50000E+01 5.90909E+00
 -1      4273 2.21967E-15 3.62500E+01 6.36364E+00
 -1      4275 2.14313E-15 3.50000E+01 6.81818E+00
 -1      4276 2.21967E-15 3.62500E+01 7.27273E+00
 -1      4278 2.14313E-15 3.50000E+01 7.72727E+00
 -1      4279 2.21967E-15 3.62500E+01 8.18182E+00
 -1      4281 2.14313E-15 3.50000E+01 8.63636E+00
 -1      4282 2.21967E-15 3.62500E+01 9.09091E+00
 -1      4284 2.14313E-15 3.50000E+01 9.54545E+00
 -1      4286 1.99005E-15 3.25000E+01 4.54545E-01
 -1      4287 2.06659E-15 3.37500E+01 9.09091E-01
 -1      4289 1.99005E-15 3.25000E+01 1.36364E+00
 -1      4290 2.06659E-15 3.37500E+01 1.81818E+00
 -1      4292 1.99005E-15 3.25000E+01 2.27273E+00
 -1      4293 2.06659E-15 3.37500E+01 2.72727E+00
 -1      4295 1.99005E-15 3.25000E+01 3.18182E+00
 -1      4296 2.06659E-15 3.37500E+01 3.63636E+00
 -1      4298 1.99005E-15 3.25000E+01 4.09091E+00
 -1      4299 2.06659E-15 3.37500E+01 4.54545E+00
 -1      4301 1.99005E-15 3.25000E+01 5.00000E+00
 -1      4302 2.06659E-15 3.37500E+01 5.45455E+00
 -1      4304 1.99005E-15 3.25000E+01 5.90909E+00
 -1      4305 2.06659E-15 3.37500E+01 6.36364E+00
 -1      4307 1.99005E-15 3.25000E+01 6.81818E+00
 -1      4308 2.06659E-15 3.37500E+01 7.27273E+00
 -1      4310 1.99005E-15 3.25000E+01 7.72727E+00
 -1      4311 2.06659E-15 3.37500E+01 8.18182E+00
 -1      4313 1.99005E-15 3.25000E+01 8.63636E+00
 -1      4314 2.06659E-15 3.37500E+01 9.09091E+00
 -1      4316 1.99005E-15 3.25000E+01 9.54545E+00
 -1      4318 1.83697E-15 3.00000E+01 4.54545E-01
 -1      4319 1.91351E-15 3.12500E+01 9.09091E-01
 -1      4321 1.83697E-15 3.00000E+01 1.36364E+00
 -1      4322 1.91351E-15 3.12500E+01 1.81818E+00
 -1      4324 1.83697E-15 3.00000E+01 2.27273E+00
 -1      4325 1.91351E-15 3.12500E+01 2.72727E+00
 -1      4327 1.83697E-15 3.00000E+01 3.18182E+00
 -1      4328 1.91351E-15 3.12500E+01 3.63636E+00
 -1      4330 1.83697E-15 3.00000E+01 4.09091E+00
 -1      4331 1.91351E-15 3.12500E+01 4.54545E+00
 -1      4333 1.83697E-15 3.00000E+01 5.00000E+00
 -1      4334 1.91351E-15 3.12500E+01 5.45455E+00
 -1      4336 1.83697E-15 3.00000E+01 5.90909E+00
 -1      4337 1.91351E-15 3.12500E+01 6.36364E+00
 -1      4339 1.83697E-15 3.00000E+01 6.81818E+00
 -1      4340 1.91351E-15 3.12500E+01 7.27273E+00
 -1      4342 1.83697E-15 3.00000E+01 7.72727E+00
 -1      4343 1.91351E-15 3.12500E+01 8.18182E+00
 -1      4345 1.83697E-15 3.00000E+01 8.63636E+00
 -1      4346 1.91351E-15 3.12500E+01 9.09091E+00
 -1      4348 1.83697E-15 3.00000E+01 9.54545E+00
 -1      4350 1.68389E-15 2.75000E+01 4.54545E-01
 -1      4351 1.76043E-15 2.87500E+01 9.09091E-01
 -1      4353 1.68389E-15 2.75000E+01 1.36364E+00
 -1      4354 1.76043E-15 2.87500E+01 1.81818E+00
 -1      4356 1.68389E-15 2.75000E+01 2.27273E+00
 -1      4357 1.76043E-15 2.87500E+01 2.72727E+00
 -1      4359 1.68389E-15 2.75000E+01 3.18182E+00
 -1      4360 1.76043E-15 2.87500E+01 3.63636E+00
 -1      4362 1.68389E-15 2.75000E+01 4.09091E+00
 -1      4363 1.76043E-15 2.87500E+01 4.54545E+00
 -1      4365 1.68389E-15 2.75000E+01 5.00000E+00
 -1      4366 1.76043E-15 2.87500E+01 5.45455E+00
 -1      4368 1.68389E-15 2.75000E+01 5.90909E+00
 -1      4369 1.76043E-15 2.87500E+01 6.36364E+00
 -1      4371 1.68389E-15 2.75000E+01 6.81818E+00
 -1      4372 1.76043E-15 2.87500E+01 7.27273E+00
 -1      4374 1.68389E-15 2.75000E+01 7.72727E+00
 -1      4375 1.76043E-15 2.87500E+01 8.18182E+00
 -1      4377 1.68389E-15 2.75000E+01 8.63636E+00
 -1      4378 1.76043E-15 2.87500E+01 9.09091E+00
 -1      4380 1.68389E-15 2.75000E+01 9.54545E+00
 -1      4382 1.60735E-15 2.62500E+01 9.09091E-01
 -1      4384 1.60735E-15 2.62500E+01 1.81818E+00
 -1      4386 1.60735E-15 2.62500E+01 2.72727E+00
 -1      4388 1.60735E-15 2.62500E+01 3.63636E+00
 -1      4390 1.60735E-15 2.62500E+01 4.54545E+00
 -1      4392 1.60735E-15 2.62500E+01 5.45455E+00
 -1      4394 1.60735E-15 2.62500E+01 6.36364E+00
 -1      4396 1.60735E-15 2.62500E+01 7.27273E+00
 -1      4398 1.60735E-15 2.62500E+01 8.18182E+00
 -1      4400 1.60735E-15 2.62500E+01 9.09091E+00
 -1      4403 3.91086E+00 2.46922E+01 9.09091E-01
 -1      4404 3.91086E+00 2.46922E+01 1.81818E+00
 -1      4405 3.91086E+00 2.46922E+01 2.72727E+00
 -1      4406 3.91086E+00 2.46922E+01 3.63636E+00
 -1      4407 3.91086E+00 2.46922E+01 4.54545E+00
 -1      4408 3.91086E+00 2.46922E+01 5.45455E+00
 -1      4409 3.91086E+00 2.46922E+01 6.36364E+00
 -1      4410 3.91086E+00 2.46922E+01 7.27273E+00
 -1      4411 3.91086E+00 2.46922E+01 8.18182E+00
 -1      4412 3.91086E+00 2.46922E+01 9.09091E+00
 -1      4413 7.72542E+00 2.37764E+01 9.09091E-01
 -1      4414 7.72542E+00 2.37764E+01 1.81818E+00
 -1      4415 7.72542E+00 2.37764E+01 2.72727E+00
 -1      4416 7.72542E+00 2.37764E+01 3.63636E+00
 -1      4417 7.72542E+00 2.37764E+01 4.54545E+00
 -1      4418 7.72542E+00 2.37764E+01 5.45455E+00
 -1      4419 7.72542E+00 2.37764E+01 6.36364E+00
 -1      4420 7.72542E+00 2.37764E+01 7.27273E+00
 -1      4421 7.72542E+00 2.37764E+01 8.18182E+00
 -1      4422 7.72542E+00 2.37764E+01 9.09091E+00
 -1      4423 1.13498E+01 2.22752E+01 9.09091E-01
 -1      4424 1.13498E+01 2.22752E+01 1.81818E+00
 -1      4425 1.13498E+01 2.22752E+01 2.72727E+00
 -1      4426 1.13498E+01 2.22752E+01 3.63636E+00
 -1      4427 1.13498E+01 2.22752E+01 4.54545E+00
 -1      4428 1.13498E+01 2.22752E+01 5.45455E+00
 -1      4429 1.13498E+01 2.22752E+01 6.36364E+00
 -1      4430 1.13498E+01 2.22752E+01 7.27273E+00
 -1      4431 1.13498E+01 2.22752E+01 8.18182E+00
 -1      4432 1.13498E+01 2.22752E+01 9.09091E+00
 -1      4433 1.46946E+01 2.02254E+01 9.09091E-01
 -1      4434 1.46946E+01 2.02254E+01 1.81818E+00
 -1      4435 1.46946E+01 2.02254E+01 2.72727E+00
 -1      4436 1.46946E+01 2.02254E+01 3.63636E+00
 -1      4437 1.46946E+01 2.02254E+01 4.54545E+00
 -1      4438 1.46946E+01 2.02254E+01 5.45455E+00
 -1      4439 1.46946E+01 2.02254E+01 6.36364E+00
 -1      4440 1.46946E+01 2.02254E+01 7.27273E+00
 -1      4441 1.46946E+01 2.02254E+01 8.18182E+00
 -1      4442 1.46946E+01 2.02254E+01 9.09091E+00
 -1      4443 1.76777E+01 1.76777E+01 9.09091E-01
 -1      4444 1.76777E+01 1.76777E+01 1.81818E+00
 -1      4445 1.76777E+01 1.76777E+01 2.72727E+00
 -1      4446 1.76777E+01 1.76777E+01 3.63636E+00
 -1      4447 1.76777E+01 1.76777E+01 4.54545E+00
 -1      4448 1.76777E+01 1.76777E+01 5.45455E+00
 -1      4449 1.76777E+01 1.76777E+01 6.36364E+00
 -1      4450 1.76777E+01 1.76777E+01 7.27273E+00
 -1      4451 1.76777E+01 1.76777E+01 8.18182E+00
 -1      4452 1.76777E+01 1.76777E+01 9.09091E+00
 -1      4453 2.02254E+01 1.46946E+01 9.09091E-01
 -1      4454 2.02254E+01 1.46946E+01 1.81818E+00
 -1      4455 2.02254E+01 1.46946E+01 2.72727E+00
 -1      4456 2.02254E+01 1.46946E+01 3.63636E+00
 -1      4457 2.02254E+01 1.46946E+01 4.54545E+00
 -1      4458 2.02254E+01 1.46946E+01 5.45455E+00
 -1      4459 2.02254E+01 1.46946E+01 6.36364E+00
 -1      4460 2.02254E+01 1.46946E+01 7.27273E+00
 -1      4461 2.02254E+01 1.46946E+01 8.18182E+00
 -1      4462 2.02254E+01 1.46946E+01 9.09091E+00
 -1      4463 2.22752E+01 1.13498E+01 9.09091E-01
 -1      4464 2.22752E+01 1.13498E+01 1.81818E+00
 -1      4465 2.22752E+01 1.13498E+01 2.72727E+00
 -1      4466 2.22752E+01 1.13498E+01 3.63636E+00
 -1      4467 2.22752E+01 1.13498E+01 4.54545E+00
 -1      4468 2.22752E+01 1.13498E+01 5.45455E+00
 -1      4469 2.22752E+01 1.13498E+01 6.36364E+00
 -1      4470 2.22752E+01 1.13498E+01 7.27273E+00
 -1      4471 2.22752E+01 1.13498E+01 8.18182E+00
 -1      4472 2.22752E+01 1.13498E+01 9.09091E+00
 -1      4473 2.37764E+01 7.72542E+00 9.09091E-01
 -1      4474 2.37764E+01 7.72542E+00 1.81818E+00
 -1      4475 2.37764E+01 7.72542E+00 2.72727E+00
 -1      4476 2.37764E+01 7.72542E+00 3.63636E+00
 -1      4477 2.37764E+01 7.72542E+00 4.54545E+00
 -1      4478 2.37764E+01 7.72542E+00 5.45455E+00
 -1      4479 2.37764E+01 7.72542E+00 6.36364E+00
 -1      4480 2.37764E+01 7.72542E+00 7.27273E+00
 -1      4481 2.37764E+01 7.72542E+00 8.18182E+00
 -1      4482 2.37764E+01 7.72542E+00 9.09091E+00
 -1      4483 2.46922E+01 3.91086E+00 9.09091E-01
 -1      4484 2.46922E+01 3.91086E+00 1.81818E+00
 -1      4485 2.46922E+01 3.91086E+00 2.72727E+00
 -1      4486 2.46922E+01 3.91086E+00 3.63636E+00
 -1      4487 2.46922E+01 3.91086E+00 4.54545E+00
 -1      4488 2.46922E+01 3.91086E+00 5.45455E+00
 -1      4489 2.46922E+01 3.91086E+00 6.36364E+00
 -1      4490 2.46922E+01 3.91086E+00 7.27273E+00
 -1      4491 2.46922E+01 3.91086E+00 8.18182E+00
 -1      4492 2.46922E+01 3.91086E+00 9.09091E+00
 -1      4493 3.91086E+00 2.46922E+01 4.54545E-01
 -1      4494 1.96148E+00 2.49229E+01 9.09091E-01
 -1      4496 3.91086E+00 2.46922E+01 1.36364E+00
 -1      4497 1.96148E+00 2.49229E+01 1.81818E+00
 -1      4499 3.91086E+00 2.46922E+01 2.27273E+00
 -1      4500 1.96148E+00 2.49229E+01 2.72727E+00
 -1      4502 3.91086E+00 2.46922E+01 3.18182E+00
 -1      4503 1.96148E+00 2.49229E+01 3.63636E+00
 -1      4505 3.91086E+00 2.46922E+01 4.09091E+00
 -1      4506 1.96148E+00 2.49229E+01 4.54545E+00
 -1      4508 3.91086E+00 2.46922E+01 5.00000E+00
 -1      4509 1.96148E+00 2.49229E+01 5.45455E+00
 -1      4511 3.91086E+00 2.46922E+01 5.90909E+00
 -1      4512 1.96148E+00 2.49229E+01 6.36364E+00
 -1      4514 3.91086E+00 2.46922E+01 6.81818E+00
 -1      4515 1.96148E+00 2.49229E+01 7.27273E+00
 -1      4517 3.91086E+00 2.46922E+01 7.72727E+00
 -1      4518 1.96148E+00 2.49229E+01 8.18182E+00
 -1      4520 3.91086E+00 2.46922E+01 8.63636E+00
 -1      4521 1.96148E+00 2.49229E+01 9.09091E+00
 -1      4523 3.91086E+00 2.46922E+01 9.54545E+00
 -1      4525 7.72542E+00 2.37764E+01 4.54545E-01
 -1      4526 5.83613E+00 2.43092E+01 9.09091E-01
 -1      4528 7.72542E+00 2.37764E+01 1.36364E+00
 -1      4529 5.83613E+00 2.43092E+01 1.81818E+00
 -1      4531 7.72542E+00 2.37764E+01 2.27273E+00
 -1      4532 5.83613E+00 2.43092E+01 2.72727E+00
 -1      4534 7.72542E+00 2.37764E+01 3.18182E+00
 -1      4535 5.83613E+00 2.43092E+01 3.63636E+00
 -1      4537 7.72542E+00 2.37764E+01 4.09091E+00
 -1      4538 5.83613E+00 2.43092E+01 4.54545E+00
 -1      4540 7.72542E+00 2.37764E+01 5.00000E+00
 -1      4541 5.83613E+00 2.43092E+01 5.45455E+00
 -1      4543 7.72542E+00 2.37764E+01 5.90909E+00
 -1      4544 5.83613E+00 2.43092E+01 6.36364E+00
 -1      4546 7.72542E+00 2.37764E+01 6.81818E+00
 -1      4547 5.83613E+00 2.43092E+01 7.27273E+00
 -1      4549 7.72542E+00 2.37764E+01 7.72727E+00
 -1      4550 5.83613E+00 2.43092E+01 8.18182E+00
 -1      4552 7.72542E+00 2.37764E+01 8.63636E+00
 -1      4553 5.83613E+00 2.43092E+01 9.09091E+00
 -1      4555 7.72542E+00 2.37764E+01 9.54545E+00
 -1      4557 1.13498E+01 2.22752E+01 4.54545E-01
 -1      4558 9.56709E+00 2.30970E+01 9.09091E-01
 -1      4560 1.13498E+01 2.22752E+01 1.36364E+00
 -1      4561 9.56709E+00 2.30970E+01 1.81818E+00
 -1      4563 1.13498E+01 2.22752E+01 2.27273E+00
 -1      4564 9.56709E+00 2.30970E+01 2.72727E+00
 -1      4566 1.13498E+01 2.22752E+01 3.18182E+00
 -1      4567 9.56709E+00 2.30970E+01 3.63636E+00
 -1      4569 1.13498E+01 2.22752E+01 4.09091E+00
 -1      4570 9.56709E+00 2.30970E+01 4.54545E+00
 -1      4572 1.13498E+01 2.22752E+01 5.00000E+00
 -1      4573 9.56709E+00 2.30970E+01 5.45455E+00
 -1      4575 1.13498E+01 2.22752E+01 5.90909E+00
 -1      4576 9.56709E+00 2.30970E+01 6.36364E+00
 -1      4578 1.13498E+01 2.22752E+01 6.81818E+00
 -1      4579 9.56709E+00 2.30970E+01 7.27273E+00
 -1      4581 1.13498E+01 2.22752E+01 7.72727E+00
 -1      4582 9.56709E+00 2.30970E+01 8.18182E+00
 -1      4584 1.13498E+01 2.22752E+01 8.63636E+00
 -1      4585 9.56709E+00 2.30970E+01 9.09091E+00
 -1      4587 1.13498E+01 2.22752E+01 9.54545E+00
 -1      4589 1.46946E+01 2.02254E+01 4.54545E-01
 -1      4590 1.30625E+01 2.13160E+01 9.09091E-01
 -1      4592 1.46946E+01 2.02254E+01 1.36364E+00
 -1      4593 1.30625E+01 2.13160E+01 1.81818E+00
 -1      4595 1.46946E+01 2.02254E+01 2.27273E+00
 -1      4596 1.30625E+01 2.13160E+01 2.72727E+00
 -1      4598 1.46946E+01 2.02254E+01 3.18182E+00
 -1      4599 1.30625E+01 2.13160E+01 3.63636E+00
 -1      4601 1.46946E+01 2.02254E+01 4.09091E+00
 -1      4602 1.30625E+01 2.13160E+01 4.54545E+00
 -1      4604 1.46946E+01 2.02254E+01 5.00000E+00
 -1      4605 1.30625E+01 2.13160E+01 5.45455E+00
 -1      4607 1.46946E+01 2.02254E+01 5.90909E+00
 -1      4608 1.30625E+01 2.13160E+01 6.36364E+00
 -1      4610 1.46946E+01 2.02254E+01 6.81818E+00
 -1      4611 1.30625E+01 2.13160E+01 7.27273E+00
 -1      4613 1.46946E+01 2.02254E+01 7.72727E+00
 -1      4614 1.30625E+01 2.13160E+01 8.18182E+00
 -1      4616 1.46946E+01 2.02254E+01 8.63636E+00
 -1      4617 1.30625E+01 2.13160E+01 9.09091E+00
 -1      4619 1.46946E+01 2.02254E+01 9.54545E+00
 -1      4621 1.76777E+01 1.76777E+01 4.54545E-01
 -1      4622 1.62362E+01 1.90101E+01 9.09091E-01
 -1      4624 1.76777E+01 1.76777E+01 1.36364E+00
 -1      4625 1.62362E+01 1.90101E+01 1.81818E+00
 -1      4627 1.76777E+01 1.76777E+01 2.27273E+00
 -1      4628 1.62362E+01 1.90101E+01 2.72727E+00
 -1      4630 1.76777E+01 1.76777E+01 3.18182E+00
 -1      4631 1.62362E+01 1.90101E+01 3.63636E+00
 -1      4633 1.76777E+01 1.76777E+01 4.09091E+00
 -1      4634 1.62362E+01 1.90101E+01 4.54545E+00
 -1      4636 1.76777E+01 1.76777E+01 5.00000E+00
 -1      4637 1.62362E+01 1.90101E+01 5.45455E+00
 -1      4639 1.76777E+01 1.76777E+01 5.90909E+00
 -1      4640 1.62362E+01 1.90101E+01 6.36364E+00
 -1      4642 1.76777E+01 1.76777E+01 6.81818E+00
 -1      4643 1.62362E+01 1.90101E+01 7.27273E+00
 -1      4645 1.76777E+01 1.76777E+01 7.72727E+00
 -1      4646 1.62362E+01 1.90101E+01 8.18182E+00
 -1      4648 1.76777E+01 1.76777E+01 8.63636E+00
 -1      4649 1.62362E+01 1.90101E+01 9.09091E+00
 -1      4651 1.76777E+01 1.76777E+01 9.54545E+00
 -1      4653 2.02254E+01 1.46946E+01 4.54545E-01
 -1      4654 1.90101E+01 1.62362E+01 9.09091E-01
 -1      4656 2.02254E+01 1.46946E+01 1.36364E+00
 -1      4657 1.90101E+01 1.62362E+01 1.81818E+00
 -1      4659 2.02254E+01 1.46946E+01 2.27273E+00
 -1      4660 1.90101E+01 1.62362E+01 2.72727E+00
 -1      4662 2.02254E+01 1.46946E+01 3.18182E+00
 -1      4663 1.90101E+01 1.62362E+01 3.63636E+00
 -1      4665 2.02254E+01 1.46946E+01 4.09091E+00
 -1      4666 1.90101E+01 1.62362E+01 4.54545E+00
 -1      4668 2.02254E+01 1.46946E+01 5.00000E+00
 -1      4669 1.90101E+01 1.62362E+01 5.45455E+00
 -1      4671 2.02254E+01 1.46946E+01 5.90909E+00
 -1      4672 1.90101E+01 1.62362E+01 6.36364E+00
 -1      4674 2.02254E+01 1.46946E+01 6.81818E+00
 -1      4675 1.90101E+01 1.62362E+01 7.27273E+00
 -1      4677 2.02254E+01 1.46946E+01 7.72727E+00
 -1      4678 1.90101E+01 1.62362E+01 8.18182E+00
 -1      4680 2.02254E+01 1.46946E+01 8.63636E+00
 -1      4681 1.90101E+01 1.62362E+01 9.09091E+00
 -1      4683 2.02254E+01 1.46946E+01 9.54545E+00
 -1      4685 2.22752E+01 1.13498E+01 4.54545E-01
 -1      4686 2.13160E+01 1.30625E+01 9.09091E-01
 -1      4688 2.22752E+01 1.13498E+01 1.36364E+00
 -1      4689 2.13160E+01 1.30625E+01 1.81818E+00
 -1      4691 2.22752E+01 1.13498E+01 2.27273E+00
 -1      4692 2.13160E+01 1.30625E+01 2.72727E+00
 -1      4694 2.22752E+01 1.13498E+01 3.18182E+00
 -1      4695 2.13160E+01 1.30625E+01 3.63636E+00
 -1      4697 2.22752E+01 1.13498E+01 4.09091E+00
 -1      4698 2.13160E+01 1.30625E+01 4.54545E+00
 -1      4700 2.22752E+01 1.13498E+01 5.00000E+00
 -1      4701 2.13160E+01 1.30625E+01 5.45455E+00
 -1      4703 2.22752E+01 1.13498E+01 5.90909E+00
 -1      4704 2.13160E+01 1.30625E+01 6.36364E+00
 -1      4706 2.22752E+01 1.13498E+01 6.81818E+00
 -1      4707 2.13160E+01 1.30625E+01 7.27273E+00
 -1      4709 2.22752E+01 1.13498E+01 7.72727E+00
 -1      4710 2.13160E+01 1.30625E+01 8.18182E+00
 -1      4712 2.22752E+01 1.13498E+01 8.63636E+00
 -1      4713 2.13160E+01 1.30625E+01 9.09091E+00
 -1      4715 2.22752E+01 1.13498E+01 9.54545E+00
 -1      4717 2.37764E+01 7.72542E+00 4.54545E-01
 -1      4718 2.30970E+01 9.56709E+00 9.09091E-01
 -1      4720 2.37764E+01 7.72542E+00 1.36364E+00
 -1      4721 2.30970E+01 9.56709E+00 1.81818E+00
 -1      4723 2.37764E+01 7.72542E+00 2.27273E+00
 -1      4724 2.30970E+01 9.56709E+00 2.72727E+00
 -1      4726 2.37764E+01 7.72542E+00 3.18182E+00
 -1      4727 2.30970E+01 9.56709E+00 3.63636E+00
 -1      4729 2.37764E+01 7.72542E+00 4.09091E+00
 -1      4730 2.30970E+01 9.56709E+00 4.54545E+00
 -1      4732 2.37764E+01 7.72542E+00 5.00000E+00
 -1      4733 2.30970E+01 9.56709E+00 5.45455E+00
 -1      4735 2.37764E+01 7.72542E+00 5.90909E+00
 -1      4736 2.30970E+01 9.56709E+00 6.36364E+00
 -1      4738 2.37764E+01 7.72542E+00 6.81818E+00
 -1      4739 2.30970E+01 9.56709E+00 7.27273E+00
 -1      4741 2.37764E+01 7.72542E+00 7.72727E+00
 -1      4742 2.30970E+01 9.56709E+00 8.18182E+00
 -1      4744 2.37764E+01 7.72542E+00 8.63636E+00
 -1      4745 2.30970E+01 9.56709E+00 9.09091E+00
 -1      4747 2.37764E+01 7.72542E+00 9.54545E+00
 -1      4749 2.46922E+01 3.91086E+00 4.54545E-01
 -1      4750 2.43092E+01 5.83613E+00 9.09091E-01
 -1      4752 2.46922E+01 3.91086E+00 1.36364E+00
 -1      4753 2.43092E+01 5.83613E+00 1.81818E+00
 -1      4755 2.46922E+01 3.91086E+00 2.27273E+00
 -1      4756 2.43092E+01 5.83613E+00 2.72727E+00
 -1      4758 2.46922E+01 3.91086E+00 3.18182E+00
 -1      4759 2.43092E+01 5.83613E+00 3.63636E+00
 -1      4761 2.46922E+01 3.91086E+00 4.09091E+00
 -1      4762 2.43092E+01 5.83613E+00 4.54545E+00
 -1      4764 2.46922E+01 3.91086E+00 5.00000E+00
 -1      4765 2.43092E+01 5.83613E+00 5.45455E+00
 -1      4767 2.46922E+01 3.91086E+00 5.90909E+00
 -1      4768 2.43092E+01 5.83613E+00 6.36364E+00
 -1      4770 2.46922E+01 3.91086E+00 6.81818E+00
 -1      4771 2.43092E+01 5.83613E+00 7.27273E+00
 -1      4773 2.46922E+01 3.91086E+00 7.72727E+00
 -1      4774 2.43092E+01 5.83613E+00 8.18182E+00
 -1      4776 2.46922E+01 3.91086E+00 8.63636E+00
 -1      4777 2.43092E+01 5.83613E+00 9.09091E+00
 -1      4779 2.46922E+01 3.91086E+00 9.54545E+00
 -1      4781 2.49229E+01 1.96148E+00 9.09091E-01
 -1      4783 2.49229E+01 1.96148E+00 1.81818E+00
 -1      4785 2.49229E+01 1.96148E+00 2.72727E+00
 -1      4787 2.49229E+01 1.96148E+00 3.63636E+00
 -1      4789 2.49229E+01 1.96148E+00 4.54545E+00
 -1      4791 2.49229E+01 1.96148E+00 5.45455E+00
 -1      4793 2.49229E+01 1.96148E+00 6.36364E+00
 -1      4795 2.49229E+01 1.96148E+00 7.27273E+00
 -1      4797 2.49229E+01 1.96148E+00 8.18182E+00
 -1      4799 2.49229E+01 1.96148E+00 9.09091E+00
 -1      4802 2.71614E+01 4.30195E+00 1.00000E+01
 -1      4803 2.61541E+01 8.49797E+00 1.00000E+01
 -1      4804 2.45027E+01 1.24847E+01 1.00000E+01
 -1      4805 2.22480E+01 1.61641E+01 1.00000E+01
 -1      4806 1.94454E+01 1.94454E+01 1.00000E+01
 -1      4807 1.61641E+01 2.22480E+01 1.00000E+01
 -1      4808 1.24847E+01 2.45027E+01 1.00000E+01
 -1      4809 8.49797E+00 2.61541E+01 1.00000E+01
 -1      4810 4.30195E+00 2.71614E+01 1.00000E+01
 -1      4811 2.96306E+01 4.69303E+00 1.00000E+01
 -1      4812 2.85317E+01 9.27051E+00 1.00000E+01
 -1      4813 2.67302E+01 1.36197E+01 1.00000E+01
 -1      4814 2.42705E+01 1.76336E+01 1.00000E+01
 -1      4815 2.12132E+01 2.12132E+01 1.00000E+01
 -1      4816 1.76336E+01 2.42705E+01 1.00000E+01
 -1      4817 1.36197E+01 2.67302E+01 1.00000E+01
 -1      4818 9.27051E+00 2.85317E+01 1.00000E+01
 -1      4819 4.69303E+00 2.96306E+01 1.00000E+01
 -1      4820 3.20999E+01 5.08412E+00 1.00000E+01
 -1      4821 3.09093E+01 1.00431E+01 1.00000E+01
 -1      4822 2.89577E+01 1.47547E+01 1.00000E+01
 -1      4823 2.62931E+01 1.91030E+01 1.00000E+01
 -1      4824 2.29810E+01 2.29810E+01 1.00000E+01
 -1      4825 1.91030E+01 2.62931E+01 1.00000E+01
 -1      4826 1.47547E+01 2.89577E+01 1.00000E+01
 -1      4827 1.00431E+01 3.09093E+01 1.00000E+01
 -1      4828 5.08412E+00 3.20999E+01 1.00000E+01
 -1      4829 3.45691E+01 5.47521E+00 1.00000E+01
 -1      4830 3.32870E+01 1.08156E+01 1.00000E+01
 -1      4831 3.11852E+01 1.58897E+01 1.00000E+01
 -1      4832 2.83156E+01 2.05725E+01 1.00000E+01
 -1      4833 2.47487E+01 2.47487E+01 1.00000E+01
 -1      4834 2.05725E+01 2.83156E+01 1.00000E+01
 -1      4835 1.58897E+01 3.11852E+01 1.00000E+01
 -1      4836 1.08156E+01 3.32870E+01 1.00000E+01
 -1      4837 5.47521E+00 3.45691E+01 1.00000E+01
 -1      4838 3.70383E+01 5.86629E+00 1.00000E+01
 -1      4839 3.56646E+01 1.15881E+01 1.00000E+01
 -1      4840 3.34127E+01 1.70246E+01 1.00000E+01
 -1      4841 3.03381E+01 2.20419E+01 1.00000E+01
 -1      4842 2.65165E+01 2.65165E+01 1.00000E+01
 -1      4843 2.20419E+01 3.03381E+01 1.00000E+01
 -1      4844 1.70246E+01 3.34127E+01 1.00000E+01
 -1      4845 1.15881E+01 3.56646E+01 1.00000E+01
 -1      4846 5.86629E+00 3.70383E+01 1.00000E+01
 -1      4847 3.95075E+01 6.25738E+00 1.00000E+01
 -1      4848 3.80423E+01 1.23607E+01 1.00000E+01
 -1      4849 3.56403E+01 1.81596E+01 1.00000E+01
 -1      4850 3.23607E+01 2.35114E+01 1.00000E+01
 -1      4851 2.82843E+01 2.82843E+01 1.00000E+01
 -1      4852 2.35114E+01 3.23607E+01 1.00000E+01
 -1      4853 1.81596E+01 3.56403E+01 1.00000E+01
 -1      4854 1.23607E+01 3.80423E+01 1.00000E+01
 -1      4855 6.25738E+00 3.95075E+01 1.00000E+01
 -1      4856 4.19768E+01 6.64846E+00 1.00000E+01
 -1      4857 4.04199E+01 1.31332E+01 1.00000E+01
 -1      4858 3.78678E+01 1.92946E+01 1.00000E+01
 -1      4859 3.43832E+01 2.49809E+01 1.00000E+01
 -1      4860 3.00520E+01 3.00520E+01 1.00000E+01
 -1      4861 2.49809E+01 3.43832E+01 1.00000E+01
 -1      4862 1.92946E+01 3.78678E+01 1.00000E+01
 -1      4863 1.31332E+01 4.04199E+01 1.00000E+01
 -1      4864 6.64846E+00 4.19768E+01 1.00000E+01
 -1      4865 4.44460E+01 7.03955E+00 1.00000E+01
 -1      4866 4.27975E+01 1.39058E+01 1.00000E+01
 -1      4867 4.00953E+01 2.04296E+01 1.00000E+01
 -1      4868 3.64058E+01 2.64503E+01 1.00000E+01
 -1      4869 3.18198E+01 3.18198E+01 1.00000E+01
 -1      4870 2.64503E+01 3.64058E+01 1.00000E+01
 -1      4871 2.04296E+01 4.00953E+01 1.00000E+01
 -1      4872 1.39058E+01 4.27975E+01 1.00000E+01
 -1      4873 7.03955E+00 4.44460E+01 1.00000E+01
 -1      4874 4.69152E+01 7.43064E+00 1.00000E+01
 -1      4875 4.51752E+01 1.46783E+01 1.00000E+01
 -1      4876 4.23228E+01 2.15645E+01 1.00000E+01
 -1      4877 3.84283E+01 2.79198E+01 1.00000E+01
 -1      4878 3.35876E+01 3.35876E+01 1.00000E+01
 -1      4879 2.79198E+01 3.84283E+01 1.00000E+01
 -1      4880 2.15645E+01 4.23228E+01 1.00000E+01
 -1      4881 1.46783E+01 4.51752E+01 1.00000E+01
 -1      4882 7.43064E+00 4.69152E+01 1.00000E+01
 -1      4883 4.93844E+01 7.82172E+00 1.00000E+01
 -1      4884 4.75528E+01 1.54508E+01 1.00000E+01
 -1      4885 4.45503E+01 2.26995E+01 1.00000E+01
 -1      4886 4.04509E+01 2.93893E+01 1.00000E+01
 -1      4887 3.53553E+01 3.53553E+01 1.00000E+01
 -1      4888 2.93893E+01 4.04509E+01 1.00000E+01
 -1      4889 2.26995E+01 4.45503E+01 1.00000E+01
 -1      4890 1.54508E+01 4.75528E+01 1.00000E+01
 -1      4891 7.82172E+00 4.93844E+01 1.00000E+01
 -1      4892 5.18536E+01 8.21281E+00 1.00000E+01
 -1      4893 4.99305E+01 1.62234E+01 1.00000E+01
 -1      4894 4.67778E+01 2.38345E+01 1.00000E+01
 -1      4895 4.24734E+01 3.08587E+01 1.00000E+01
 -1      4896 3.71231E+01 3.71231E+01 1.00000E+01
 -1      4897 3.08587E+01 4.24734E+01 1.00000E+01
 -1      4898 2.38345E+01 4.67778E+01 1.00000E+01
 -1      4899 1.62234E+01 4.99305E+01 1.00000E+01
 -1      4900 8.21281E+00 5.18536E+01 1.00000E+01
 -1      4901 5.43229E+01 8.60390E+00 1.00000E+01
 -1      4902 5.23081E+01 1.69959E+01 1.00000E+01
 -1      4903 4.90054E+01 2.49695E+01 1.00000E+01
 -1      4904 4.44959E+01 3.23282E+01 1.00000E+01
 -1      4905 3.88909E+01 3.88909E+01 1.00000E+01
 -1      4906 3.23282E+01 4.44959E+01 1.00000E+01
 -1      4907 2.49695E+01 4.90054E+01 1.00000E+01
 -1      4908 1.69959E+01 5.23081E+01 1.00000E+01
 -1      4909 8.60390E+00 5.43229E+01 1.00000E+01
 -1      4910 5.67921E+01 8.99498E+00 1.00000E+01
 -1      4911 5.46857E+01 1.77685E+01 1.00000E+01
 -1      4912 5.12329E+01 2.61045E+01 1.00000E+01
 -1      4913 4.65185E+01 3.37977E+01 1.00000E+01
 -1      4914 4.06586E+01 4.06586E+01 1.00000E+01
 -1      4915 3.37977E+01 4.65185E+01 1.00000E+01
 -1      4916 2.61045E+01 5.12329E+01 1.00000E+01
 -1      4917 1.77685E+01 5.46857E+01 1.00000E+01
 -1      4918 8.99498E+00 5.67921E+01 1.00000E+01
 -1      4919 5.92613E+01 9.38607E+00 1.00000E+01
 -1      4920 5.70634E+01 1.85410E+01 1.00000E+01
 -1      4921 5.34604E+01 2.72394E+01 1.00000E+01
 -1      4922 4.85410E+01 3.52671E+01 1.00000E+01
 -1      4923 4.24264E+01 4.24264E+01 1.00000E+01
 -1      4924 3.52671E+01 4.85410E+01 1.00000E+01
 -1      4925 2.72394E+01 5.34604E+01 1.00000E+01
 -1      4926 1.85410E+01 5.70634E+01 1.00000E+01
 -1      4927 9.38607E+00 5.92613E+01 1.00000E+01
 -1      4928 6.17305E+01 9.77715E+00 1.00000E+01
 -1      4929 5.94410E+01 1.93136E+01 1.00000E+01
 -1      4930 5.56879E+01 2.83744E+01 1.00000E+01
 -1      4931 5.05636E+01 3.67366E+01 1.00000E+01
 -1      4932 4.41942E+01 4.41942E+01 1.00000E+01
 -1      4933 3.67366E+01 5.05636E+01 1.00000E+01
 -1      4934 2.83744E+01 5.56879E+01 1.00000E+01
 -1      4935 1.93136E+01 5.94410E+01 1.00000E+01
 -1      4936 9.77715E+00 6.17305E+01 1.00000E+01
 -1      4937 6.41997E+01 1.01682E+01 1.00000E+01
 -1      4938 6.18187E+01 2.00861E+01 1.00000E+01
 -1      4939 5.79154E+01 2.95094E+01 1.00000E+01
 -1      4940 5.25861E+01 3.82060E+01 1.00000E+01
 -1      4941 4.59619E+01 4.59619E+01 1.00000E+01
 -1      4942 3.82060E+01 5.25861E+01 1.00000E+01
 -1      4943 2.95094E+01 5.79154E+01 1.00000E+01
 -1      4944 2.00861E+01 6.18187E+01 1.00000E+01
 -1      4945 1.01682E+01 6.41997E+01 1.00000E+01
 -1      4946 6.66690E+01 1.05593E+01 1.00000E+01
 -1      4947 6.41963E+01 2.08586E+01 1.00000E+01
 -1      4948 6.01429E+01 3.06444E+01 1.00000E+01
 -1      4949 5.46086E+01 3.96755E+01 1.00000E+01
 -1      4950 4.77297E+01 4.77297E+01 1.00000E+01
 -1      4951 3.96755E+01 5.46086E+01 1.00000E+01
 -1      4952 3.06444E+01 6.01429E+01 1.00000E+01
 -1      4953 2.08586E+01 6.41963E+01 1.00000E+01
 -1      4954 1.05593E+01 6.66690E+01 1.00000E+01
 -1      4955 6.91382E+01 1.09504E+01 1.00000E+01
 -1      4956 6.65740E+01 2.16312E+01 1.00000E+01
 -1      4957 6.23705E+01 3.17793E+01 1.00000E+01
 -1      4958 5.66312E+01 4.11450E+01 1.00000E+01
 -1      4959 4.94975E+01 4.94975E+01 1.00000E+01
 -1      4960 4.11450E+01 5.66312E+01 1.00000E+01
 -1      4961 3.17793E+01 6.23705E+01 1.00000E+01
 -1      4962 2.16312E+01 6.65740E+01 1.00000E+01
 -1      4963 1.09504E+01 6.91382E+01 1.00000E+01
 -1      4964 7.16074E+01 1.13415E+01 1.00000E+01
 -1      4965 6.89516E+01 2.24037E+01 1.00000E+01
 -1      4966 6.45980E+01 3.29143E+01 1.00000E+01
 -1      4967 5.86537E+01 4.26144E+01 1.00000E+01
 -1      4968 5.12652E+01 5.12652E+01 1.00000E+01
 -1      4969 4.26144E+01 5.86537E+01 1.00000E+01
 -1      4970 3.29143E+01 6.45980E+01 1.00000E+01
 -1      4971 2.24037E+01 6.89516E+01 1.00000E+01
 -1      4972 1.13415E+01 7.16074E+01 1.00000E+01
 -1      4973 7.40766E+01 1.17326E+01 1.00000E+01
 -1      4974 7.13292E+01 2.31763E+01 1.00000E+01
 -1      4975 6.68255E+01 3.40493E+01 1.00000E+01
 -1      4976 6.06763E+01 4.40839E+01 1.00000E+01
 -1      4977 5.30330E+01 5.30330E+01 1.00000E+01
 -1      4978 4.40839E+01 6.06763E+01 1.00000E+01
 -1      4979 3.40493E+01 6.68255E+01 1.00000E+01
 -1      4980 2.31763E+01 7.13292E+01 1.00000E+01
 -1      4981 1.17326E+01 7.40766E+01 1.00000E+01
 -1      4982 7.65458E+01 1.21237E+01 1.00000E+01
 -1      4983 7.37069E+01 2.39488E+01 1.00000E+01
 -1      4984 6.90530E+01 3.51843E+01 1.00000E+01
 -1      4985 6.26988E+01 4.55534E+01 1.00000E+01
 -1      4986 5.48008E+01 5.48008E+01 1.00000E+01
 -1      4987 4.55534E+01 6.26988E+01 1.00000E+01
 -1      4988 3.51843E+01 6.90530E+01 1.00000E+01
 -1      4989 2.39488E+01 7.37069E+01 1.00000E+01
 -1      4990 1.21237E+01 7.65458E+01 1.00000E+01
 -1      4991 7.90151E+01 1.25148E+01 1.00000E+01
 -1      4992 7.60845E+01 2.47214E+01 1.00000E+01
 -1      4993 7.12805E+01 3.63192E+01 1.00000E+01
 -1      4994 6.47214E+01 4.70228E+01 1.00000E+01
 -1      4995 5.65685E+01 5.65685E+01 1.00000E+01
 -1      4996 4.70228E+01 6.47214E+01 1.00000E+01
 -1      4997 3.63192E+01 7.12805E+01 1.00000E+01
 -1      4998 2.47214E+01 7.60845E+01 1.00000E+01
 -1      4999 1.25148E+01 7.90151E+01 1.00000E+01
 -1      5000 8.14843E+01 1.29058E+01 1.00000E+01
 -1      5001 7.84622E+01 2.54939E+01 1.00000E+01
 -1      5002 7.35080E+01 3.74542E+01 1.00000E+01
 -1      5003 6.67439E+01 4.84923E+01 1.00000E+01
 -1      5004 5.83363E+01 5.83363E+01 1.00000E+01
 -1      5005 4.84923E+01 6.67439E+01 1.00000E+01
 -1      5006 3.74542E+01 7.35080E+01 1.00000E+01
 -1      5007 2.54939E+01 7.84622E+01 1.00000E+01
 -1      5008 1.29058E+01 8.14843E+01 1.00000E+01
 -1      5009 8.39535E+01 1.32969E+01 1.00000E+01
 -1      5010 8.08398E+01 2.62664E+01 1.00000E+01
 -1      5011 7.57356E+01 3.85892E+01 1.00000E+01
 -1      5012 6.87664E+01 4.99617E+01 1.00000E+01
 -1      5013 6.01041E+01 6.01041E+01 1.00000E+01
 -1      5014 4.99617E+01 6.87664E+01 1.00000E+01
 -1      5015 3.85892E+01 7.57356E+01 1.00000E+01
 -1      5016 2.62664E+01 8.08398E+01 1.00000E+01
 -1      5017 1.32969E+01 8.39535E+01 1.00000E+01
 -1      5018 8.64227E+01 1.36880E+01 1.00000E+01
 -1      5019 8.32174E+01 2.70390E+01 1.00000E+01
 -1      5020 7.79631E+01 3.97242E+01 1.00000E+01
 -1      5021 7.07890E+01 5.14312E+01 1.00000E+01
 -1      5022 6.18718E+01 6.18718E+01 1.00000E+01
 -1      5023 5.14312E+01 7.07890E+01 1.00000E+01
 -1      5024 3.97242E+01 7.79631E+01 1.00000E+01
 -1      5025 2.70390E+01 8.32174E+01 1.00000E+01
 -1      5026 1.36880E+01 8.64227E+01 1.00000E+01
 -1      5027 8.88920E+01 1.40791E+01 1.00000E+01
 -1      5028 8.55951E+01 2.78115E+01 1.00000E+01
 -1      5029 8.01906E+01 4.08591E+01 1.00000E+01
 -1      5030 7.28115E+01 5.29007E+01 1.00000E+01
 -1      5031 6.36396E+01 6.36396E+01 1.00000E+01
 -1      5032 5.29007E+01 7.28115E+01 1.00000E+01
 -1      5033 4.08591E+01 8.01906E+01 1.00000E+01
 -1      5034 2.78115E+01 8.55951E+01 1.00000E+01
 -1      5035 1.40791E+01 8.88920E+01 1.00000E+01
 -1      5036 9.13612E+01 1.44702E+01 1.00000E+01
 -1      5037 8.79727E+01 2.85841E+01 1.00000E+01
 -1      5038 8.24181E+01 4.19941E+01 1.00000E+01
 -1      5039 7.48341E+01 5.43701E+01 1.00000E+01
 -1      5040 6.54074E+01 6.54074E+01 1.00000E+01
 -1      5041 5.43701E+01 7.48341E+01 1.00000E+01
 -1      5042 4.19941E+01 8.24181E+01 1.00000E+01
 -1      5043 2.85841E+01 8.79727E+01 1.00000E+01
 -1      5044 1.44702E+01 9.13612E+01 1.00000E+01
 -1      5045 9.38304E+01 1.48613E+01 1.00000E+01
 -1      5046 9.03504E+01 2.93566E+01 1.00000E+01
 -1      5047 8.46456E+01 4.31291E+01 1.00000E+01
 -1      5048 7.68566E+01 5.58396E+01 1.00000E+01
 -1      5049 6.71751E+01 6.71751E+01 1.00000E+01
 -1      5050 5.58396E+01 7.68566E+01 1.00000E+01
 -1      5051 4.31291E+01 8.46456E+01 1.00000E+01
 -1      5052 2.93566E+01 9.03504E+01 1.00000E+01
 -1      5053 1.48613E+01 9.38304E+01 1.00000E+01
 -1      5054 9.62996E+01 1.52524E+01 1.00000E+01
 -1      5055 9.27280E+01 3.01292E+01 1.00000E+01
 -1      5056 8.68731E+01 4.42641E+01 1.00000E+01
 -1      5057 7.88792E+01 5.73091E+01 1.00000E+01
 -1      5058 6.89429E+01 6.89429E+01 1.00000E+01
 -1      5059 5.73091E+01 7.88792E+01 1.00000E+01
 -1      5060 4.42641E+01 8.68731E+01 1.00000E+01
 -1      5061 3.01292E+01 9.27280E+01 1.00000E+01
 -1      5062 1.52524E+01 9.62996E+01 1.00000E+01
 -1      5063 2.73307E+01 2.15097E+00 1.00000E+01
 -1      5064 2.59268E+01 4.10640E+00 1.00000E+01
 -1      5066 2.66577E+01 6.39996E+00 1.00000E+01
 -1      5067 2.49652E+01 8.11170E+00 1.00000E+01
 -1      5069 2.53284E+01 1.04914E+01 1.00000E+01
 -1      5070 2.33889E+01 1.19173E+01 1.00000E+01
 -1      5072 2.33753E+01 1.43244E+01 1.00000E+01
 -1      5073 2.12367E+01 1.54294E+01 1.00000E+01
 -1      5075 2.08467E+01 1.78048E+01 1.00000E+01
 -1      5076 1.85616E+01 1.85616E+01 1.00000E+01
 -1      5078 1.78048E+01 2.08467E+01 1.00000E+01
 -1      5079 1.54294E+01 2.12367E+01 1.00000E+01
 -1      5081 1.43244E+01 2.33753E+01 1.00000E+01
 -1      5082 1.19173E+01 2.33889E+01 1.00000E+01
 -1      5084 1.04914E+01 2.53284E+01 1.00000E+01
 -1      5085 8.11170E+00 2.49652E+01 1.00000E+01
 -1      5087 6.39996E+00 2.66577E+01 1.00000E+01
 -1      5088 4.10640E+00 2.59268E+01 1.00000E+01
 -1      5090 2.15097E+00 2.73307E+01 1.00000E+01
 -1      5092 2.98153E+01 2.34652E+00 1.00000E+01
 -1      5093 2.83960E+01 4.49749E+00 1.00000E+01
 -1      5095 2.90812E+01 6.98177E+00 1.00000E+01
 -1      5096 2.73429E+01 8.88424E+00 1.00000E+01
 -1      5098 2.76309E+01 1.14451E+01 1.00000E+01
 -1      5099 2.56164E+01 1.30522E+01 1.00000E+01
 -1      5101 2.55004E+01 1.56266E+01 1.00000E+01
 -1      5102 2.32592E+01 1.68988E+01 1.00000E+01
 -1      5104 2.27419E+01 1.94234E+01 1.00000E+01
 -1      5105 2.03293E+01 2.03293E+01 1.00000E+01
 -1      5107 1.94234E+01 2.27419E+01 1.00000E+01
 -1      5108 1.68988E+01 2.32592E+01 1.00000E+01
 -1      5110 1.56266E+01 2.55004E+01 1.00000E+01
 -1      5111 1.30522E+01 2.56164E+01 1.00000E+01
 -1      5113 1.14451E+01 2.76309E+01 1.00000E+01
 -1      5114 8.88424E+00 2.73429E+01 1.00000E+01
 -1      5116 6.98177E+00 2.90812E+01 1.00000E+01
 -1      5117 4.49749E+00 2.83960E+01 1.00000E+01
 -1      5119 2.34652E+00 2.98153E+01 1.00000E+01
 -1      5121 3.22999E+01 2.54206E+00 1.00000E+01
 -1      5122 3.08653E+01 4.88858E+00 1.00000E+01
 -1      5124 3.15046E+01 7.56359E+00 1.00000E+01
 -1      5125 2.97205E+01 9.65678E+00 1.00000E+01
 -1      5127 2.99335E+01 1.23989E+01 1.00000E+01
 -1      5128 2.78440E+01 1.41872E+01 1.00000E+01
 -1      5130 2.76254E+01 1.69289E+01 1.00000E+01
 -1      5131 2.52818E+01 1.83683E+01 1.00000E+01
 -1      5133 2.46370E+01 2.10420E+01 1.00000E+01
 -1      5134 2.20971E+01 2.20971E+01 1.00000E+01
 -1      5136 2.10420E+01 2.46370E+01 1.00000E+01
 -1      5137 1.83683E+01 2.52818E+01 1.00000E+01
 -1      5139 1.69289E+01 2.76254E+01 1.00000E+01
 -1      5140 1.41872E+01 2.78440E+01 1.00000E+01
 -1      5142 1.23989E+01 2.99335E+01 1.00000E+01
 -1      5143 9.65678E+00 2.97205E+01 1.00000E+01
 -1      5145 7.56359E+00 3.15046E+01 1.00000E+01
 -1      5146 4.88858E+00 3.08653E+01 1.00000E+01
 -1      5148 2.54206E+00 3.22999E+01 1.00000E+01
 -1      5150 3.47845E+01 2.73760E+00 1.00000E+01
 -1      5151 3.33345E+01 5.27966E+00 1.00000E+01
 -1      5153 3.39280E+01 8.14540E+00 1.00000E+01
 -1      5154 3.20982E+01 1.04293E+01 1.00000E+01
 -1      5156 3.22361E+01 1.33526E+01 1.00000E+01
 -1      5157 3.00715E+01 1.53222E+01 1.00000E+01
 -1      5159 2.97504E+01 1.82311E+01 1.00000E+01
 -1      5160 2.73043E+01 1.98378E+01 1.00000E+01
 -1      5162 2.65322E+01 2.26606E+01 1.00000E+01
 -1      5163 2.38649E+01 2.38649E+01 1.00000E+01
 -1      5165 2.26606E+01 2.65322E+01 1.00000E+01
 -1      5166 1.98378E+01 2.73043E+01 1.00000E+01
 -1      5168 1.82311E+01 2.97504E+01 1.00000E+01
 -1      5169 1.53222E+01 3.00715E+01 1.00000E+01
 -1      5171 1.33526E+01 3.22361E+01 1.00000E+01
 -1      5172 1.04293E+01 3.20982E+01 1.00000E+01
 -1      5174 8.14540E+00 3.39280E+01 1.00000E+01
 -1      5175 5.27966E+00 3.33345E+01 1.00000E+01
 -1      5177 2.73760E+00 3.47845E+01 1.00000E+01
 -1      5179 3.72692E+01 2.93315E+00 1.00000E+01
 -1      5180 3.58037E+01 5.67075E+00 1.00000E+01
 -1      5182 3.63515E+01 8.72721E+00 1.00000E+01
 -1      5183 3.44758E+01 1.12019E+01 1.00000E+01
 -1      5185 3.45387E+01 1.43064E+01 1.00000E+01
 -1      5186 3.22990E+01 1.64572E+01 1.00000E+01
 -1      5188 3.18754E+01 1.95333E+01 1.00000E+01
 -1      5189 2.93269E+01 2.13072E+01 1.00000E+01
 -1      5191 2.84273E+01 2.42792E+01 1.00000E+01
 -1      5192 2.56326E+01 2.56326E+01 1.00000E+01
 -1      5194 2.42792E+01 2.84273E+01 1.00000E+01
 -1      5195 2.13072E+01 2.93269E+01 1.00000E+01
 -1      5197 1.95333E+01 3.18754E+01 1.00000E+01
 -1      5198 1.64572E+01 3.22990E+01 1.00000E+01
 -1      5200 1.43064E+01 3.45387E+01 1.00000E+01
 -1      5201 1.12019E+01 3.44758E+01 1.00000E+01
 -1      5203 8.72721E+00 3.63515E+01 1.00000E+01
 -1      5204 5.67075E+00 3.58037E+01 1.00000E+01
 -1      5206 2.93315E+00 3.72692E+01 1.00000E+01
 -1      5208 3.97538E+01 3.12869E+00 1.00000E+01
 -1      5209 3.82729E+01 6.06184E+00 1.00000E+01
 -1      5211 3.87749E+01 9.30903E+00 1.00000E+01
 -1      5212 3.68534E+01 1.19744E+01 1.00000E+01
 -1      5214 3.68413E+01 1.52601E+01 1.00000E+01
 -1      5215 3.45265E+01 1.75921E+01 1.00000E+01
 -1      5217 3.40005E+01 2.08355E+01 1.00000E+01
 -1      5218 3.13494E+01 2.27767E+01 1.00000E+01
 -1      5220 3.03225E+01 2.58978E+01 1.00000E+01
 -1      5221 2.74004E+01 2.74004E+01 1.00000E+01
 -1      5223 2.58978E+01 3.03225E+01 1.00000E+01
 -1      5224 2.27767E+01 3.13494E+01 1.00000E+01
 -1      5226 2.08355E+01 3.40005E+01 1.00000E+01
 -1      5227 1.75921E+01 3.45265E+01 1.00000E+01
 -1      5229 1.52601E+01 3.68413E+01 1.00000E+01
 -1      5230 1.19744E+01 3.68534E+01 1.00000E+01
 -1      5232 9.30903E+00 3.87749E+01 1.00000E+01
 -1      5233 6.06184E+00 3.82729E+01 1.00000E+01
 -1      5235 3.12869E+00 3.97538E+01 1.00000E+01
 -1      5237 4.22384E+01 3.32423E+00 1.00000E+01
 -1      5238 4.07421E+01 6.45292E+00 1.00000E+01
 -1      5240 4.11983E+01 9.89084E+00 1.00000E+01
 -1      5241 3.92311E+01 1.27470E+01 1.00000E+01
 -1      5243 3.91438E+01 1.62139E+01 1.00000E+01
 -1      5244 3.67540E+01 1.87271E+01 1.00000E+01
 -1      5246 3.61255E+01 2.21377E+01 1.00000E+01
 -1      5247 3.33720E+01 2.42461E+01 1.00000E+01
 -1      5249 3.22176E+01 2.75165E+01 1.00000E+01
 -1      5250 2.91682E+01 2.91682E+01 1.00000E+01
 -1      5252 2.75165E+01 3.22176E+01 1.00000E+01
 -1      5253 2.42461E+01 3.33720E+01 1.00000E+01
 -1      5255 2.21377E+01 3.61255E+01 1.00000E+01
 -1      5256 1.87271E+01 3.67540E+01 1.00000E+01
 -1      5258 1.62139E+01 3.91438E+01 1.00000E+01
 -1      5259 1.27470E+01 3.92311E+01 1.00000E+01
 -1      5261 9.89084E+00 4.11983E+01 1.00000E+01
 -1      5262 6.45292E+00 4.07421E+01 1.00000E+01
 -1      5264 3.32423E+00 4.22384E+01 1.00000E+01
 -1      5266 4.47230E+01 3.51978E+00 1.00000E+01
 -1      5267 4.32114E+01 6.84401E+00 1.00000E+01
 -1      5269 4.36218E+01 1.04727E+01 1.00000E+01
 -1      5270 4.16087E+01 1.35195E+01 1.00000E+01
 -1      5272 4.14464E+01 1.71677E+01 1.00000E+01
 -1      5273 3.89815E+01 1.98621E+01 1.00000E+01
 -1      5275 3.82505E+01 2.34400E+01 1.00000E+01
 -1      5276 3.53945E+01 2.57156E+01 1.00000E+01
 -1      5278 3.41128E+01 2.91351E+01 1.00000E+01
 -1      5279 3.09359E+01 3.09359E+01 1.00000E+01
 -1      5281 2.91351E+01 3.41128E+01 1.00000E+01
 -1      5282 2.57156E+01 3.53945E+01 1.00000E+01
 -1      5284 2.34400E+01 3.82505E+01 1.00000E+01
 -1      5285 1.98621E+01 3.89815E+01 1.00000E+01
 -1      5287 1.71677E+01 4.14464E+01 1.00000E+01
 -1      5288 1.35195E+01 4.16087E+01 1.00000E+01
 -1      5290 1.04727E+01 4.36218E+01 1.00000E+01
 -1      5291 6.84401E+00 4.32114E+01 1.00000E+01
 -1      5293 3.51978E+00 4.47230E+01 1.00000E+01
 -1      5295 4.72076E+01 3.71532E+00 1.00000E+01
 -1      5296 4.56806E+01 7.23509E+00 1.00000E+01
 -1      5298 4.60452E+01 1.10545E+01 1.00000E+01
 -1      5299 4.39864E+01 1.42920E+01 1.00000E+01
 -1      5301 4.37490E+01 1.81214E+01 1.00000E+01
 -1      5302 4.12091E+01 2.09971E+01 1.00000E+01
 -1      5304 4.03756E+01 2.47422E+01 1.00000E+01
 -1      5305 3.74170E+01 2.71851E+01 1.00000E+01
 -1      5307 3.60079E+01 3.07537E+01 1.00000E+01
 -1      5308 3.27037E+01 3.27037E+01 1.00000E+01
 -1      5310 3.07537E+01 3.60079E+01 1.00000E+01
 -1      5311 2.71851E+01 3.74170E+01 1.00000E+01
 -1      5313 2.47422E+01 4.03756E+01 1.00000E+01
 -1      5314 2.09971E+01 4.12091E+01 1.00000E+01
 -1      5316 1.81214E+01 4.37490E+01 1.00000E+01
 -1      5317 1.42920E+01 4.39864E+01 1.00000E+01
 -1      5319 1.10545E+01 4.60452E+01 1.00000E+01
 -1      5320 7.23509E+00 4.56806E+01 1.00000E+01
 -1      5322 3.71532E+00 4.72076E+01 1.00000E+01
 -1      5324 4.96922E+01 3.91086E+00 1.00000E+01
 -1      5325 4.81498E+01 7.62618E+00 1.00000E+01
 -1      5327 4.84686E+01 1.16363E+01 1.00000E+01
 -1      5328 4.63640E+01 1.50646E+01 1.00000E+01
 -1      5330 4.60516E+01 1.90752E+01 1.00000E+01
 -1      5331 4.34366E+01 2.21320E+01 1.00000E+01
 -1      5333 4.25006E+01 2.60444E+01 1.00000E+01
 -1      5334 3.94396E+01 2.86545E+01 1.00000E+01
 -1      5336 3.79031E+01 3.23723E+01 1.00000E+01
 -1      5337 3.44715E+01 3.44715E+01 1.00000E+01
 -1      5339 3.23723E+01 3.79031E+01 1.00000E+01
 -1      5340 2.86545E+01 3.94396E+01 1.00000E+01
 -1      5342 2.60444E+01 4.25006E+01 1.00000E+01
 -1      5343 2.21320E+01 4.34366E+01 1.00000E+01
 -1      5345 1.90752E+01 4.60516E+01 1.00000E+01
 -1      5346 1.50646E+01 4.63640E+01 1.00000E+01
 -1      5348 1.16363E+01 4.84686E+01 1.00000E+01
 -1      5349 7.62618E+00 4.81498E+01 1.00000E+01
 -1      5351 3.91086E+00 4.96922E+01 1.00000E+01
 -1      5353 5.21768E+01 4.10640E+00 1.00000E+01
 -1      5354 5.06190E+01 8.01727E+00 1.00000E+01
 -1      5356 5.08921E+01 1.22181E+01 1.00000E+01
 -1      5357 4.87416E+01 1.58371E+01 1.00000E+01
 -1      5359 4.83542E+01 2.00289E+01 1.00000E+01
 -1      5360 4.56641E+01 2.32670E+01 1.00000E+01
 -1      5362 4.46256E+01 2.73466E+01 1.00000E+01
 -1      5363 4.14621E+01 3.01240E+01 1.00000E+01
 -1      5365 3.97982E+01 3.39909E+01 1.00000E+01
 -1      5366 3.62392E+01 3.62392E+01 1.00000E+01
 -1      5368 3.39909E+01 3.97982E+01 1.00000E+01
 -1      5369 3.01240E+01 4.14621E+01 1.00000E+01
 -1      5371 2.73466E+01 4.46256E+01 1.00000E+01
 -1      5372 2.32670E+01 4.56641E+01 1.00000E+01
 -1      5374 2.00289E+01 4.83542E+01 1.00000E+01
 -1      5375 1.58371E+01 4.87416E+01 1.00000E+01
 -1      5377 1.22181E+01 5.08921E+01 1.00000E+01
 -1      5378 8.01727E+00 5.06190E+01 1.00000E+01
 -1      5380 4.10640E+00 5.21768E+01 1.00000E+01
 -1      5382 5.46614E+01 4.30195E+00 1.00000E+01
 -1      5383 5.30882E+01 8.40835E+00 1.00000E+01
 -1      5385 5.33155E+01 1.27999E+01 1.00000E+01
 -1      5386 5.11193E+01 1.66097E+01 1.00000E+01
 -1      5388 5.06567E+01 2.09827E+01 1.00000E+01
 -1      5389 4.78916E+01 2.44020E+01 1.00000E+01
 -1      5391 4.67506E+01 2.86488E+01 1.00000E+01
 -1      5392 4.34847E+01 3.15935E+01 1.00000E+01
 -1      5394 4.16934E+01 3.56095E+01 1.00000E+01
 -1      5395 3.80070E+01 3.80070E+01 1.00000E+01
 -1      5397 3.56095E+01 4.16934E+01 1.00000E+01
 -1      5398 3.15935E+01 4.34847E+01 1.00000E+01
 -1      5400 2.86488E+01 4.67506E+01 1.00000E+01
 -1      5401 2.44020E+01 4.78916E+01 1.00000E+01
 -1      5403 2.09827E+01 5.06567E+01 1.00000E+01
 -1      5404 1.66097E+01 5.11193E+01 1.00000E+01
 -1      5406 1.27999E+01 5.33155E+01 1.00000E+01
 -1      5407 8.40835E+00 5.30882E+01 1.00000E+01
 -1      5409 4.30195E+00 5.46614E+01 1.00000E+01
 -1      5411 5.71460E+01 4.49749E+00 1.00000E+01
 -1      5412 5.55575E+01 8.79944E+00 1.00000E+01
 -1      5414 5.57389E+01 1.33817E+01 1.00000E+01
 -1      5415 5.34969E+01 1.73822E+01 1.00000E+01
 -1      5417 5.29593E+01 2.19365E+01 1.00000E+01
 -1      5418 5.01191E+01 2.55370E+01 1.00000E+01
 -1      5420 4.88757E+01 2.99511E+01 1.00000E+01
 -1      5421 4.55072E+01 3.30629E+01 1.00000E+01
 -1      5423 4.35886E+01 3.72281E+01 1.00000E+01
 -1      5424 3.97748E+01 3.97748E+01 1.00000E+01
 -1      5426 3.72281E+01 4.35886E+01 1.00000E+01
 -1      5427 3.30629E+01 4.55072E+01 1.00000E+01
 -1      5429 2.99511E+01 4.88757E+01 1.00000E+01
 -1      5430 2.55370E+01 5.01191E+01 1.00000E+01
 -1      5432 2.19365E+01 5.29593E+01 1.00000E+01
 -1      5433 1.73822E+01 5.34969E+01 1.00000E+01
 -1      5435 1.33817E+01 5.57389E+01 1.00000E+01
 -1      5436 8.79944E+00 5.55575E+01 1.00000E+01
 -1      5438 4.49749E+00 5.71460E+01 1.00000E+01
 -1      5440 5.96306E+01 4.69303E+00 1.00000E+01
 -1      5441 5.80267E+01 9.19053E+00 1.00000E+01
 -1      5443 5.81623E+01 1.39635E+01 1.00000E+01
 -1      5444 5.58746E+01 1.81547E+01 1.00000E+01
 -1      5446 5.52619E+01 2.28902E+01 1.00000E+01
 -1      5447 5.23466E+01 2.66719E+01 1.00000E+01
 -1      5449 5.10007E+01 3.12533E+01 1.00000E+01
 -1      5450 4.75297E+01 3.45324E+01 1.00000E+01
 -1      5452 4.54837E+01 3.88468E+01 1.00000E+01
 -1      5453 4.15425E+01 4.15425E+01 1.00000E+01
 -1      5455 3.88468E+01 4.54837E+01 1.00000E+01
 -1      5456 3.45324E+01 4.75297E+01 1.00000E+01
 -1      5458 3.12533E+01 5.10007E+01 1.00000E+01
 -1      5459 2.66719E+01 5.23466E+01 1.00000E+01
 -1      5461 2.28902E+01 5.52619E+01 1.00000E+01
 -1      5462 1.81547E+01 5.58746E+01 1.00000E+01
 -1      5464 1.39635E+01 5.81623E+01 1.00000E+01
 -1      5465 9.19053E+00 5.80267E+01 1.00000E+01
 -1      5467 4.69303E+00 5.96306E+01 1.00000E+01
 -1      5469 6.21153E+01 4.88858E+00 1.00000E+01
 -1      5470 6.04959E+01 9.58161E+00 1.00000E+01
 -1      5472 6.05858E+01 1.45454E+01 1.00000E+01
 -1      5473 5.82522E+01 1.89273E+01 1.00000E+01
 -1      5475 5.75645E+01 2.38440E+01 1.00000E+01
 -1      5476 5.45742E+01 2.78069E+01 1.00000E+01
 -1      5478 5.31257E+01 3.25555E+01 1.00000E+01
 -1      5479 4.95523E+01 3.60018E+01 1.00000E+01
 -1      5481 4.73789E+01 4.04654E+01 1.00000E+01
 -1      5482 4.33103E+01 4.33103E+01 1.00000E+01
 -1      5484 4.04654E+01 4.73789E+01 1.00000E+01
 -1      5485 3.60018E+01 4.95523E+01 1.00000E+01
 -1      5487 3.25555E+01 5.31257E+01 1.00000E+01
 -1      5488 2.78069E+01 5.45742E+01 1.00000E+01
 -1      5490 2.38440E+01 5.75645E+01 1.00000E+01
 -1      5491 1.89273E+01 5.82522E+01 1.00000E+01
 -1      5493 1.45454E+01 6.05858E+01 1.00000E+01
 -1      5494 9.58161E+00 6.04959E+01 1.00000E+01
 -1      5496 4.88858E+00 6.21153E+01 1.00000E+01
 -1      5498 6.45999E+01 5.08412E+00 1.00000E+01
 -1      5499 6.29651E+01 9.97270E+00 1.00000E+01
 -1      5501 6.30092E+01 1.51272E+01 1.00000E+01
 -1      5502 6.06299E+01 1.96998E+01 1.00000E+01
 -1      5504 5.98671E+01 2.47977E+01 1.00000E+01
 -1      5505 5.68017E+01 2.89419E+01 1.00000E+01
 -1      5507 5.52508E+01 3.38577E+01 1.00000E+01
 -1      5508 5.15748E+01 3.74713E+01 1.00000E+01
 -1      5510 4.92740E+01 4.20840E+01 1.00000E+01
 -1      5511 4.50781E+01 4.50781E+01 1.00000E+01
 -1      5513 4.20840E+01 4.92740E+01 1.00000E+01
 -1      5514 3.74713E+01 5.15748E+01 1.00000E+01
 -1      5516 3.38577E+01 5.52508E+01 1.00000E+01
 -1      5517 2.89419E+01 5.68017E+01 1.00000E+01
 -1      5519 2.47977E+01 5.98671E+01 1.00000E+01
 -1      5520 1.96998E+01 6.06299E+01 1.00000E+01
 -1      5522 1.51272E+01 6.30092E+01 1.00000E+01
 -1      5523 9.97270E+00 6.29651E+01 1.00000E+01
 -1      5525 5.08412E+00 6.45999E+01 1.00000E+01
 -1      5527 6.70845E+01 5.27966E+00 1.00000E+01
 -1      5528 6.54343E+01 1.03638E+01 1.00000E+01
 -1      5530 6.54326E+01 1.57090E+01 1.00000E+01
 -1      5531 6.30075E+01 2.04724E+01 1.00000E+01
 -1      5533 6.21696E+01 2.57515E+01 1.00000E+01
 -1      5534 5.90292E+01 3.00769E+01 1.00000E+01
 -1      5536 5.73758E+01 3.51599E+01 1.00000E+01
 -1      5537 5.35974E+01 3.89408E+01 1.00000E+01
 -1      5539 5.11692E+01 4.37026E+01 1.00000E+01
 -1      5540 4.68458E+01 4.68458E+01 1.00000E+01
 -1      5542 4.37026E+01 5.11692E+01 1.00000E+01
 -1      5543 3.89408E+01 5.35974E+01 1.00000E+01
 -1      5545 3.51599E+01 5.73758E+01 1.00000E+01
 -1      5546 3.00769E+01 5.90292E+01 1.00000E+01
 -1      5548 2.57515E+01 6.21696E+01 1.00000E+01
 -1      5549 2.04724E+01 6.30075E+01 1.00000E+01
 -1      5551 1.57090E+01 6.54326E+01 1.00000E+01
 -1      5552 1.03638E+01 6.54343E+01 1.00000E+01
 -1      5554 5.27966E+00 6.70845E+01 1.00000E+01
 -1      5556 6.95691E+01 5.47521E+00 1.00000E+01
 -1      5557 6.79036E+01 1.07549E+01 1.00000E+01
 -1      5559 6.78561E+01 1.62908E+01 1.00000E+01
 -1      5560 6.53851E+01 2.12449E+01 1.00000E+01
 -1      5562 6.44722E+01 2.67053E+01 1.00000E+01
 -1      5563 6.12567E+01 3.12118E+01 1.00000E+01
 -1      5565 5.95008E+01 3.64622E+01 1.00000E+01
 -1      5566 5.56199E+01 4.04102E+01 1.00000E+01
 -1      5568 5.30643E+01 4.53212E+01 1.00000E+01
 -1      5569 4.86136E+01 4.86136E+01 1.00000E+01
 -1      5571 4.53212E+01 5.30643E+01 1.00000E+01
 -1      5572 4.04102E+01 5.56199E+01 1.00000E+01
 -1      5574 3.64622E+01 5.95008E+01 1.00000E+01
 -1      5575 3.12118E+01 6.12567E+01 1.00000E+01
 -1      5577 2.67053E+01 6.44722E+01 1.00000E+01
 -1      5578 2.12449E+01 6.53851E+01 1.00000E+01
 -1      5580 1.62908E+01 6.78561E+01 1.00000E+01
 -1      5581 1.07549E+01 6.79036E+01 1.00000E+01
 -1      5583 5.47521E+00 6.95691E+01 1.00000E+01
 -1      5585 7.20537E+01 5.67075E+00 1.00000E+01
 -1      5586 7.03728E+01 1.11460E+01 1.00000E+01
 -1      5588 7.02795E+01 1.68726E+01 1.00000E+01
 -1      5589 6.77628E+01 2.20175E+01 1.00000E+01
 -1      5591 6.67748E+01 2.76590E+01 1.00000E+01
 -1      5592 6.34842E+01 3.23468E+01 1.00000E+01
 -1      5594 6.16259E+01 3.77644E+01 1.00000E+01
 -1      5595 5.76425E+01 4.18797E+01 1.00000E+01
 -1      5597 5.49595E+01 4.69398E+01 1.00000E+01
 -1      5598 5.03814E+01 5.03814E+01 1.00000E+01
 -1      5600 4.69398E+01 5.49595E+01 1.00000E+01
 -1      5601 4.18797E+01 5.76425E+01 1.00000E+01
 -1      5603 3.77644E+01 6.16259E+01 1.00000E+01
 -1      5604 3.23468E+01 6.34842E+01 1.00000E+01
 -1      5606 2.76590E+01 6.67748E+01 1.00000E+01
 -1      5607 2.20175E+01 6.77628E+01 1.00000E+01
 -1      5609 1.68726E+01 7.02795E+01 1.00000E+01
 -1      5610 1.11460E+01 7.03728E+01 1.00000E+01
 -1      5612 5.67075E+00 7.20537E+01 1.00000E+01
 -1      5614 7.45383E+01 5.86629E+00 1.00000E+01
 -1      5615 7.28420E+01 1.15370E+01 1.00000E+01
 -1      5617 7.27029E+01 1.74544E+01 1.00000E+01
 -1      5618 7.01404E+01 2.27900E+01 1.00000E+01
 -1      5620 6.90774E+01 2.86128E+01 1.00000E+01
 -1      5621 6.57117E+01 3.34818E+01 1.00000E+01
 -1      5623 6.37509E+01 3.90666E+01 1.00000E+01
 -1      5624 5.96650E+01 4.33492E+01 1.00000E+01
 -1      5626 5.68546E+01 4.85585E+01 1.00000E+01
 -1      5627 5.21491E+01 5.21491E+01 1.00000E+01
 -1      5629 4.85585E+01 5.68546E+01 1.00000E+01
 -1      5630 4.33492E+01 5.96650E+01 1.00000E+01
 -1      5632 3.90666E+01 6.37509E+01 1.00000E+01
 -1      5633 3.34818E+01 6.57117E+01 1.00000E+01
 -1      5635 2.86128E+01 6.90774E+01 1.00000E+01
 -1      5636 2.27900E+01 7.01404E+01 1.00000E+01
 -1      5638 1.74544E+01 7.27029E+01 1.00000E+01
 -1      5639 1.15370E+01 7.28420E+01 1.00000E+01
 -1      5641 5.86629E+00 7.45383E+01 1.00000E+01
 -1      5643 7.70229E+01 6.06184E+00 1.00000E+01
 -1      5644 7.53112E+01 1.19281E+01 1.00000E+01
 -1      5646 7.51264E+01 1.80362E+01 1.00000E+01
 -1      5647 7.25181E+01 2.35625E+01 1.00000E+01
 -1      5649 7.13799E+01 2.95665E+01 1.00000E+01
 -1      5650 6.79392E+01 3.46168E+01 1.00000E+01
 -1      5652 6.58759E+01 4.03688E+01 1.00000E+01
 -1      5653 6.16875E+01 4.48186E+01 1.00000E+01
 -1      5655 5.87498E+01 5.01771E+01 1.00000E+01
 -1      5656 5.39169E+01 5.39169E+01 1.00000E+01
 -1      5658 5.01771E+01 5.87498E+01 1.00000E+01
 -1      5659 4.48186E+01 6.16875E+01 1.00000E+01
 -1      5661 4.03688E+01 6.58759E+01 1.00000E+01
 -1      5662 3.46168E+01 6.79392E+01 1.00000E+01
 -1      5664 2.95665E+01 7.13799E+01 1.00000E+01
 -1      5665 2.35625E+01 7.25181E+01 1.00000E+01
 -1      5667 1.80362E+01 7.51264E+01 1.00000E+01
 -1      5668 1.19281E+01 7.53112E+01 1.00000E+01
 -1      5670 6.06184E+00 7.70229E+01 1.00000E+01
 -1      5672 7.95075E+01 6.25738E+00 1.00000E+01
 -1      5673 7.77805E+01 1.23192E+01 1.00000E+01
 -1      5675 7.75498E+01 1.86181E+01 1.00000E+01
 -1      5676 7.48957E+01 2.43351E+01 1.00000E+01
 -1      5678 7.36825E+01 3.05203E+01 1.00000E+01
 -1      5679 7.01668E+01 3.57518E+01 1.00000E+01
 -1      5681 6.80009E+01 4.16710E+01 1.00000E+01
 -1      5682 6.37101E+01 4.62881E+01 1.00000E+01
 -1      5684 6.06450E+01 5.17957E+01 1.00000E+01
 -1      5685 5.56847E+01 5.56847E+01 1.00000E+01
 -1      5687 5.17957E+01 6.06450E+01 1.00000E+01
 -1      5688 4.62881E+01 6.37101E+01 1.00000E+01
 -1      5690 4.16710E+01 6.80009E+01 1.00000E+01
 -1      5691 3.57518E+01 7.01668E+01 1.00000E+01
 -1      5693 3.05203E+01 7.36825E+01 1.00000E+01
 -1      5694 2.43351E+01 7.48957E+01 1.00000E+01
 -1      5696 1.86181E+01 7.75498E+01 1.00000E+01
 -1      5697 1.23192E+01 7.77805E+01 1.00000E+01
 -1      5699 6.25738E+00 7.95075E+01 1.00000E+01
 -1      5701 8.19921E+01 6.45292E+00 1.00000E+01
 -1      5702 8.02497E+01 1.27103E+01 1.00000E+01
 -1      5704 7.99732E+01 1.91999E+01 1.00000E+01
 -1      5705 7.72733E+01 2.51076E+01 1.00000E+01
 -1      5707 7.59851E+01 3.14741E+01 1.00000E+01
 -1      5708 7.23943E+01 3.68867E+01 1.00000E+01
 -1      5710 7.01260E+01 4.29733E+01 1.00000E+01
 -1      5711 6.57326E+01 4.77576E+01 1.00000E+01
 -1      5713 6.25401E+01 5.34143E+01 1.00000E+01
 -1      5714 5.74524E+01 5.74524E+01 1.00000E+01
 -1      5716 5.34143E+01 6.25401E+01 1.00000E+01
 -1      5717 4.77576E+01 6.57326E+01 1.00000E+01
 -1      5719 4.29733E+01 7.01260E+01 1.00000E+01
 -1      5720 3.68867E+01 7.23943E+01 1.00000E+01
 -1      5722 3.14741E+01 7.59851E+01 1.00000E+01
 -1      5723 2.51076E+01 7.72733E+01 1.00000E+01
 -1      5725 1.91999E+01 7.99732E+01 1.00000E+01
 -1      5726 1.27103E+01 8.02497E+01 1.00000E+01
 -1      5728 6.45292E+00 8.19921E+01 1.00000E+01
 -1      5730 8.44768E+01 6.64846E+00 1.00000E+01
 -1      5731 8.27189E+01 1.31014E+01 1.00000E+01
 -1      5733 8.23967E+01 1.97817E+01 1.00000E+01
 -1      5734 7.96510E+01 2.58802E+01 1.00000E+01
 -1      5736 7.82877E+01 3.24278E+01 1.00000E+01
 -1      5737 7.46218E+01 3.80217E+01 1.00000E+01
 -1      5739 7.22510E+01 4.42755E+01 1.00000E+01
 -1      5740 6.77552E+01 4.92270E+01 1.00000E+01
 -1      5742 6.44353E+01 5.50329E+01 1.00000E+01
 -1      5743 5.92202E+01 5.92202E+01 1.00000E+01
 -1      5745 5.50329E+01 6.44353E+01 1.00000E+01
 -1      5746 4.92270E+01 6.77552E+01 1.00000E+01
 -1      5748 4.42755E+01 7.22510E+01 1.00000E+01
 -1      5749 3.80217E+01 7.46218E+01 1.00000E+01
 -1      5751 3.24278E+01 7.82877E+01 1.00000E+01
 -1      5752 2.58802E+01 7.96510E+01 1.00000E+01
 -1      5754 1.97817E+01 8.23967E+01 1.00000E+01
 -1      5755 1.31014E+01 8.27189E+01 1.00000E+01
 -1      5757 6.64846E+00 8.44768E+01 1.00000E+01
 -1      5759 8.69614E+01 6.84401E+00 1.00000E+01
 -1      5760 8.51881E+01 1.34925E+01 1.00000E+01
 -1      5762 8.48201E+01 2.03635E+01 1.00000E+01
 -1      5763 8.20286E+01 2.66527E+01 1.00000E+01
 -1      5765 8.05903E+01 3.33816E+01 1.00000E+01
 -1      5766 7.68493E+01 3.91567E+01 1.00000E+01
 -1      5768 7.43760E+01 4.55777E+01 1.00000E+01
 -1      5769 6.97777E+01 5.06965E+01 1.00000E+01
 -1      5771 6.63304E+01 5.66515E+01 1.00000E+01
 -1      5772 6.09880E+01 6.09880E+01 1.00000E+01
 -1      5774 5.66515E+01 6.63304E+01 1.00000E+01
 -1      5775 5.06965E+01 6.97777E+01 1.00000E+01
 -1      5777 4.55777E+01 7.43760E+01 1.00000E+01
 -1      5778 3.91567E+01 7.68493E+01 1.00000E+01
 -1      5780 3.33816E+01 8.05903E+01 1.00000E+01
 -1      5781 2.66527E+01 8.20286E+01 1.00000E+01
 -1      5783 2.03635E+01 8.48201E+01 1.00000E+01
 -1      5784 1.34925E+01 8.51881E+01 1.00000E+01
 -1      5786 6.84401E+00 8.69614E+01 1.00000E+01
 -1      5788 8.94460E+01 7.03955E+00 1.00000E+01
 -1      5789 8.76573E+01 1.38836E+01 1.00000E+01
 -1      5791 8.72435E+01 2.09453E+01 1.00000E+01
 -1      5792 8.44063E+01 2.74253E+01 1.00000E+01
 -1      5794 8.28928E+01 3.43353E+01 1.00000E+01
 -1      5795 7.90768E+01 4.02917E+01 1.00000E+01
 -1      5797 7.65011E+01 4.68799E+01 1.00000E+01
 -1      5798 7.18003E+01 5.21659E+01 1.00000E+01
 -1      5800 6.82256E+01 5.82701E+01 1.00000E+01
 -1      5801 6.27557E+01 6.27557E+01 1.00000E+01
 -1      5803 5.82701E+01 6.82256E+01 1.00000E+01
 -1      5804 5.21659E+01 7.18003E+01 1.00000E+01
 -1      5806 4.68799E+01 7.65011E+01 1.00000E+01
 -1      5807 4.02917E+01 7.90768E+01 1.00000E+01
 -1      5809 3.43353E+01 8.28928E+01 1.00000E+01
 -1      5810 2.74253E+01 8.44063E+01 1.00000E+01
 -1      5812 2.09453E+01 8.72435E+01 1.00000E+01
 -1      5813 1.38836E+01 8.76573E+01 1.00000E+01
 -1      5815 7.03955E+00 8.94460E+01 1.00000E+01
 -1      5817 9.19306E+01 7.23509E+00 1.00000E+01
 -1      5818 9.01266E+01 1.42746E+01 1.00000E+01
 -1      5820 8.96669E+01 2.15271E+01 1.00000E+01
 -1      5821 8.67839E+01 2.81978E+01 1.00000E+01
 -1      5823 8.51954E+01 3.52891E+01 1.00000E+01
 -1      5824 8.13043E+01 4.14266E+01 1.00000E+01
 -1      5826 7.86261E+01 4.81821E+01 1.00000E+01
 -1      5827 7.38228E+01 5.36354E+01 1.00000E+01
 -1      5829 7.01207E+01 5.98888E+01 1.00000E+01
 -1      5830 6.45235E+01 6.45235E+01 1.00000E+01
 -1      5832 5.98888E+01 7.01207E+01 1.00000E+01
 -1      5833 5.36354E+01 7.38228E+01 1.00000E+01
 -1      5835 4.81821E+01 7.86261E+01 1.00000E+01
 -1      5836 4.14266E+01 8.13043E+01 1.00000E+01
 -1      5838 3.52891E+01 8.51954E+01 1.00000E+01
 -1      5839 2.81978E+01 8.67839E+01 1.00000E+01
 -1      5841 2.15271E+01 8.96669E+01 1.00000E+01
 -1      5842 1.42746E+01 9.01266E+01 1.00000E+01
 -1      5844 7.23509E+00 9.19306E+01 1.00000E+01
 -1      5846 9.44152E+01 7.43064E+00 1.00000E+01
 -1      5847 9.25958E+01 1.46657E+01 1.00000E+01
 -1      5849 9.20904E+01 2.21089E+01 1.00000E+01
 -1      5850 8.91615E+01 2.89703E+01 1.00000E+01
 -1      5852 8.74980E+01 3.62429E+01 1.00000E+01
 -1      5853 8.35319E+01 4.25616E+01 1.00000E+01
 -1      5855 8.07511E+01 4.94843E+01 1.00000E+01
 -1      5856 7.58453E+01 5.51049E+01 1.00000E+01
 -1      5858 7.20159E+01 6.15074E+01 1.00000E+01
 -1      5859 6.62913E+01 6.62913E+01 1.00000E+01
 -1      5861 6.15074E+01 7.20159E+01 1.00000E+01
 -1      5862 5.51049E+01 7.58453E+01 1.00000E+01
 -1      5864 4.94843E+01 8.07511E+01 1.00000E+01
 -1      5865 4.25616E+01 8.35319E+01 1.00000E+01
 -1      5867 3.62429E+01 8.74980E+01 1.00000E+01
 -1      5868 2.89703E+01 8.91615E+01 1.00000E+01
 -1      5870 2.21089E+01 9.20904E+01 1.00000E+01
 -1      5871 1.46657E+01 9.25958E+01 1.00000E+01
 -1      5873 7.43064E+00 9.44152E+01 1.00000E+01
 -1      5875 9.68998E+01 7.62618E+00 1.00000E+01
 -1      5876 9.50650E+01 1.50568E+01 1.00000E+01
 -1      5878 9.45138E+01 2.26908E+01 1.00000E+01
 -1      5879 9.15392E+01 2.97429E+01 1.00000E+01
 -1      5881 8.98006E+01 3.71966E+01 1.00000E+01
 -1      5882 8.57594E+01 4.36966E+01 1.00000E+01
 -1      5884 8.28761E+01 5.07866E+01 1.00000E+01
 -1      5885 7.78679E+01 5.65743E+01 1.00000E+01
 -1      5887 7.39110E+01 6.31260E+01 1.00000E+01
 -1      5888 6.80590E+01 6.80590E+01 1.00000E+01
 -1      5890 6.31260E+01 7.39110E+01 1.00000E+01
 -1      5891 5.65743E+01 7.78679E+01 1.00000E+01
 -1      5893 5.07866E+01 8.28761E+01 1.00000E+01
 -1      5894 4.36966E+01 8.57594E+01 1.00000E+01
 -1      5896 3.71966E+01 8.98006E+01 1.00000E+01
 -1      5897 2.97429E+01 9.15392E+01 1.00000E+01
 -1      5899 2.26908E+01 9.45138E+01 1.00000E+01
 -1      5900 1.50568E+01 9.50650E+01 1.00000E+01
 -1      5902 7.62618E+00 9.68998E+01 1.00000E+01
 -1      5904 9.75342E+01 1.54479E+01 1.00000E+01
 -1      5906 9.39168E+01 3.05154E+01 1.00000E+01
 -1      5908 8.79869E+01 4.48316E+01 1.00000E+01
 -1      5910 7.98904E+01 5.80438E+01 1.00000E+01
 -1      5912 6.98268E+01 6.98268E+01 1.00000E+01
 -1      5914 5.80438E+01 7.98904E+01 1.00000E+01
 -1      5916 4.48316E+01 8.79869E+01 1.00000E+01
 -1      5918 3.05154E+01 9.39168E+01 1.00000E+01
 -1      5920 1.54479E+01 9.75342E+01 1.00000E+01
 -1      5923 2.71614E+01 4.30195E+00 9.09091E-01
 -1      5924 2.71614E+01 4.30195E+00 1.81818E+00
 -1      5925 2.71614E+01 4.30195E+00 2.72727E+00
 -1      5926 2.71614E+01 4.30195E+00 3.63636E+00
 -1      5927 2.71614E+01 4.30195E+00 4.54545E+00
 -1      5928 2.71614E+01 4.30195E+00 5.45455E+00
 -1      5929 2.71614E+01 4.30195E+00 6.36364E+00
 -1      5930 2.71614E+01 4.30195E+00 7.27273E+00
 -1      5931 2.71614E+01 4.30195E+00 8.18182E+00
 -1      5932 2.71614E+01 4.30195E+00 9.09091E+00
 -1      5933 2.61541E+01 8.49797E+00 9.09091E-01
 -1      5934 2.61541E+01 8.49797E+00 1.81818E+00
 -1      5935 2.61541E+01 8.49797E+00 2.72727E+00
 -1      5936 2.61541E+01 8.49797E+00 3.63636E+00
 -1      5937 2.61541E+01 8.49797E+00 4.54545E+00
 -1      5938 2.61541E+01 8.49797E+00 5.45455E+00
 -1      5939 2.61541E+01 8.49797E+00 6.36364E+00
 -1      5940 2.61541E+01 8.49797E+00 7.27273E+00
 -1      5941 2.61541E+01 8.49797E+00 8.18182E+00
 -1      5942 2.61541E+01 8.49797E+00 9.09091E+00
 -1      5943 2.45027E+01 1.24847E+01 9.09091E-01
 -1      5944 2.45027E+01 1.24847E+01 1.81818E+00
 -1      5945 2.45027E+01 1.24847E+01 2.72727E+00
 -1      5946 2.45027E+01 1.24847E+01 3.63636E+00
 -1      5947 2.45027E+01 1.24847E+01 4.54545E+00
 -1      5948 2.45027E+01 1.24847E+01 5.45455E+00
 -1      5949 2.45027E+01 1.24847E+01 6.36364E+00
 -1      5950 2.45027E+01 1.24847E+01 7.27273E+00
 -1      5951 2.45027E+01 1.24847E+01 8.18182E+00
 -1      5952 2.45027E+01 1.24847E+01 9.09091E+00
 -1      5953 2.22480E+01 1.61641E+01 9.09091E-01
 -1      5954 2.22480E+01 1.61641E+01 1.81818E+00
 -1      5955 2.22480E+01 1.61641E+01 2.72727E+00
 -1      5956 2.22480E+01 1.61641E+01 3.63636E+00
 -1      5957 2.22480E+01 1.61641E+01 4.54545E+00
 -1      5958 2.22480E+01 1.61641E+01 5.45455E+00
 -1      5959 2.22480E+01 1.61641E+01 6.36364E+00
 -1      5960 2.22480E+01 1.61641E+01 7.27273E+00
 -1      5961 2.22480E+01 1.61641E+01 8.18182E+00
 -1      5962 2.22480E+01 1.61641E+01 9.09091E+00
 -1      5963 1.94454E+01 1.94454E+01 9.09091E-01
 -1      5964 1.94454E+01 1.94454E+01 1.81818E+00
 -1      5965 1.94454E+01 1.94454E+01 2.72727E+00
 -1      5966 1.94454E+01 1.94454E+01 3.63636E+00
 -1      5967 1.94454E+01 1.94454E+01 4.54545E+00
 -1      5968 1.94454E+01 1.94454E+01 5.45455E+00
 -1      5969 1.94454E+01 1.94454E+01 6.36364E+00
 -1      5970 1.94454E+01 1.94454E+01 7.27273E+00
 -1      5971 1.94454E+01 1.94454E+01 8.18182E+00
 -1      5972 1.94454E+01 1.94454E+01 9.09091E+00
 -1      5973 1.61641E+01 2.22480E+01 9.09091E-01
 -1      5974 1.61641E+01 2.22480E+01 1.81818E+00
 -1      5975 1.61641E+01 2.22480E+01 2.72727E+00
 -1      5976 1.61641E+01 2.22480E+01 3.63636E+00
 -1      5977 1.61641E+01 2.22480E+01 4.54545E+00
 -1      5978 1.61641E+01 2.22480E+01 5.45455E+00
 -1      5979 1.61641E+01 2.22480E+01 6.36364E+00
 -1      5980 1.61641E+01 2.22480E+01 7.27273E+00
 -1      5981 1.61641E+01 2.22480E+01 8.18182E+00
 -1      5982 1.61641E+01 2.22480E+01 9.09091E+00
 -1      5983 1.24847E+01 2.45027E+01 9.09091E-01
 -1      5984 1.24847E+01 2.45027E+01 1.81818E+00
 -1      5985 1.24847E+01 2.45027E+01 2.72727E+00
 -1      5986 1.24847E+01 2.45027E+01 3.63636E+00
 -1      5987 1.24847E+01 2.45027E+01 4.54545E+00
 -1      5988 1.24847E+01 2.45027E+01 5.45455E+00
 -1      5989 1.24847E+01 2.45027E+01 6.36364E+00
 -1      5990 1.24847E+01 2.45027E+01 7.27273E+00
 -1      5991 1.24847E+01 2.45027E+01 8.18182E+00
 -1      5992 1.24847E+01 2.45027E+01 9.09091E+00
 -1      5993 8.49797E+00 2.61541E+01 9.09091E-01
 -1      5994 8.49797E+00 2.61541E+01 1.81818E+00
 -1      5995 8.49797E+00 2.61541E+01 2.72727E+00
 -1      5996 8.49797E+00 2.61541E+01 3.63636E+00
 -1      5997 8.49797E+00 2.61541E+01 4.54545E+00
 -1      5998 8.49797E+00 2.61541E+01 5.45455E+00
 -1      5999 8.49797E+00 2.61541E+01 6.36364E+00
 -1      6000 8.49797E+00 2.61541E+01 7.27273E+00
 -1      6001 8.49797E+00 2.61541E+01 8.18182E+00
 -1      6002 8.49797E+00 2.61541E+01 9.09091E+00
 -1      6003 4.30195E+00 2.71614E+01 9.09091E-01
 -1      6004 4.30195E+00 2.71614E+01 1.81818E+00
 -1      6005 4.30195E+00 2.71614E+01 2.72727E+00
 -1      6006 4.30195E+00 2.71614E+01 3.63636E+00
 -1      6007 4.30195E+00 2.71614E+01 4.54545E+00
 -1      6008 4.30195E+00 2.71614E+01 5.45455E+00
 -1      6009 4.30195E+00 2.71614E+01 6.36364E+00
 -1      6010 4.30195E+00 2.71614E+01 7.27273E+00
 -1      6011 4.30195E+00 2.71614E+01 8.18182E+00
 -1      6012 4.30195E+00 2.71614E+01 9.09091E+00
 -1      6013 2.96306E+01 4.69303E+00 9.09091E-01
 -1      6014 2.96306E+01 4.69303E+00 1.81818E+00
 -1      6015 2.96306E+01 4.69303E+00 2.72727E+00
 -1      6016 2.96306E+01 4.69303E+00 3.63636E+00
 -1      6017 2.96306E+01 4.69303E+00 4.54545E+00
 -1      6018 2.96306E+01 4.69303E+00 5.45455E+00
 -1      6019 2.96306E+01 4.69303E+00 6.36364E+00
 -1      6020 2.96306E+01 4.69303E+00 7.27273E+00
 -1      6021 2.96306E+01 4.69303E+00 8.18182E+00
 -1      6022 2.96306E+01 4.69303E+00 9.09091E+00
 -1      6023 2.85317E+01 9.27051E+00 9.09091E-01
 -1      6024 2.85317E+01 9.27051E+00 1.81818E+00
 -1      6025 2.85317E+01 9.27051E+00 2.72727E+00
 -1      6026 2.85317E+01 9.27051E+00 3.63636E+00
 -1      6027 2.85317E+01 9.27051E+00 4.54545E+00
 -1      6028 2.85317E+01 9.27051E+00 5.45455E+00
 -1      6029 2.85317E+01 9.27051E+00 6.36364E+00
 -1      6030 2.85317E+01 9.27051E+00 7.27273E+00
 -1      6031 2.85317E+01 9.27051E+00 8.18182E+00
 -1      6032 2.85317E+01 9.27051E+00 9.09091E+00
 -1      6033 2.67302E+01 1.36197E+01 9.09091E-01
 -1      6034 2.67302E+01 1.36197E+01 1.81818E+00
 -1      6035 2.67302E+01 1.36197E+01 2.72727E+00
 -1      6036 2.67302E+01 1.36197E+01 3.63636E+00
 -1      6037 2.67302E+01 1.36197E+01 4.54545E+00
 -1      6038 2.67302E+01 1.36197E+01 5.45455E+00
 -1      6039 2.67302E+01 1.36197E+01 6.36364E+00
 -1      6040 2.67302E+01 1.36197E+01 7.27273E+00
 -1      6041 2.67302E+01 1.36197E+01 8.18182E+00
 -1      6042 2.67302E+01 1.36197E+01 9.09091E+00
 -1      6043 2.42705E+01 1.76336E+01 9.09091E-01
 -1      6044 2.42705E+01 1.76336E+01 1.81818E+00
 -1      6045 2.42705E+01 1.76336E+01 2.72727E+00
 -1      6046 2.42705E+01 1.76336E+01 3.63636E+00
 -1      6047 2.42705E+01 1.76336E+01 4.54545E+00
 -1      6048 2.42705E+01 1.76336E+01 5.45455E+00
 -1      6049 2.42705E+01 1.76336E+01 6.36364E+00
 -1      6050 2.42705E+01 1.76336E+01 7.27273E+00
 -1      6051 2.42705E+01 1.76336E+01 8.18182E+00
 -1      6052 2.42705E+01 1.76336E+01 9.09091E+00
 -1      6053 2.12132E+01 2.12132E+01 9.09091E-01
 -1      6054 2.12132E+01 2.12132E+01 1.81818E+00
 -1      6055 2.12132E+01 2.12132E+01 2.72727E+00
 -1      6056 2.12132E+01 2.12132E+01 3.63636E+00
 -1      6057 2.12132E+01 2.12132E+01 4.54545E+00
 -1      6058 2.12132E+01 2.12132E+01 5.45455E+00
 -1      6059 2.12132E+01 2.12132E+01 6.36364E+00
 -1      6060 2.12132E+01 2.12132E+01 7.27273E+00
 -1      6061 2.12132E+01 2.12132E+01 8.18182E+00
 -1      6062 2.12132E+01 2.12132E+01 9.09091E+00
 -1      6063 1.76336E+01 2.42705E+01 9.09091E-01
 -1      6064 1.76336E+01 2.42705E+01 1.81818E+00
 -1      6065 1.76336E+01 2.42705E+01 2.72727E+00
 -1      6066 1.76336E+01 2.42705E+01 3.63636E+00
 -1      6067 1.76336E+01 2.42705E+01 4.54545E+00
 -1      6068 1.76336E+01 2.42705E+01 5.45455E+00
 -1      6069 1.76336E+01 2.42705E+01 6.36364E+00
 -1      6070 1.76336E+01 2.42705E+01 7.27273E+00
 -1      6071 1.76336E+01 2.42705E+01 8.18182E+00
 -1      6072 1.76336E+01 2.42705E+01 9.09091E+00
 -1      6073 1.36197E+01 2.67302E+01 9.09091E-01
 -1      6074 1.36197E+01 2.67302E+01 1.81818E+00
 -1      6075 1.36197E+01 2.67302E+01 2.72727E+00
 -1      6076 1.36197E+01 2.67302E+01 3.63636E+00
 -1      6077 1.36197E+01 2.67302E+01 4.54545E+00
 -1      6078 1.36197E+01 2.67302E+01 5.45455E+00
 -1      6079 1.36197E+01 2.67302E+01 6.36364E+00
 -1      6080 1.36197E+01 2.67302E+01 7.27273E+00
 -1      6081 1.36197E+01 2.67302E+01 8.18182E+00
 -1      6082 1.36197E+01 2.67302E+01 9.09091E+00
 -1      6083 9.27051E+00 2.85317E+01 9.09091E-01
 -1      6084 9.27051E+00 2.85317E+01 1.81818E+00
 -1      6085 9.27051E+00 2.85317E+01 2.72727E+00
 -1      6086 9.27051E+00 2.85317E+01 3.63636E+00
 -1      6087 9.27051E+00 2.85317E+01 4.54545E+00
 -1      6088 9.27051E+00 2.85317E+01 5.45455E+00
 -1      6089 9.27051E+00 2.85317E+01 6.36364E+00
 -1      6090 9.27051E+00 2.85317E+01 7.27273E+00
 -1      6091 9.27051E+00 2.85317E+01 8.18182E+00
 -1      6092 9.27051E+00 2.85317E+01 9.09091E+00
 -1      6093 4.69303E+00 2.96306E+01 9.09091E-01
 -1      6094 4.69303E+00 2.96306E+01 1.81818E+00
 -1      6095 4.69303E+00 2.96306E+01 2.72727E+00
 -1      6096 4.69303E+00 2.96306E+01 3.63636E+00
 -1      6097 4.69303E+00 2.96306E+01 4.54545E+00
 -1      6098 4.69303E+00 2.96306E+01 5.45455E+00
 -1      6099 4.69303E+00 2.96306E+01 6.36364E+00
 -1      6100 4.69303E+00 2.96306E+01 7.27273E+00
 -1      6101 4.69303E+00 2.96306E+01 8.18182E+00
 -1      6102 4.69303E+00 2.96306E+01 9.09091E+00
 -1      6103 3.20999E+01 5.08412E+00 9.09091E-01
 -1      6104 3.20999E+01 5.08412E+00 1.81818E+00
 -1      6105 3.20999E+01 5.08412E+00 2.72727E+00
 -1      6106 3.20999E+01 5.08412E+00 3.63636E+00
 -1      6107 3.20999E+01 5.08412E+00 4.54545E+00
 -1      6108 3.20999E+01 5.08412E+00 5.45455E+00
 -1      6109 3.20999E+01 5.08412E+00 6.36364E+00
 -1      6110 3.20999E+01 5.08412E+00 7.27273E+00
 -1      6111 3.20999E+01 5.08412E+00 8.18182E+00
 -1      6112 3.20999E+01 5.08412E+00 9.09091E+00
 -1      6113 3.09093E+01 1.00431E+01 9.09091E-01
 -1      6114 3.09093E+01 1.00431E+01 1.81818E+00
 -1      6115 3.09093E+01 1.00431E+01 2.72727E+00
 -1      6116 3.09093E+01 1.00431E+01 3.63636E+00
 -1      6117 3.09093E+01 1.00431E+01 4.54545E+00
 -1      6118 3.09093E+01 1.00431E+01 5.45455E+00
 -1      6119 3.09093E+01 1.00431E+01 6.36364E+00
 -1      6120 3.09093E+01 1.00431E+01 7.27273E+00
 -1      6121 3.09093E+01 1.00431E+01 8.18182E+00
 -1      6122 3.09093E+01 1.00431E+01 9.09091E+00
 -1      6123 2.89577E+01 1.47547E+01 9.09091E-01
 -1      6124 2.89577E+01 1.47547E+01 1.81818E+00
 -1      6125 2.89577E+01 1.47547E+01 2.72727E+00
 -1      6126 2.89577E+01 1.47547E+01 3.63636E+00
 -1      6127 2.89577E+01 1.47547E+01 4.54545E+00
 -1      6128 2.89577E+01 1.47547E+01 5.45455E+00
 -1      6129 2.89577E+01 1.47547E+01 6.36364E+00
 -1      6130 2.89577E+01 1.47547E+01 7.27273E+00
 -1      6131 2.89577E+01 1.47547E+01 8.18182E+00
 -1      6132 2.89577E+01 1.47547E+01 9.09091E+00
 -1      6133 2.62931E+01 1.91030E+01 9.09091E-01
 -1      6134 2.62931E+01 1.91030E+01 1.81818E+00
 -1      6135 2.62931E+01 1.91030E+01 2.72727E+00
 -1      6136 2.62931E+01 1.91030E+01 3.63636E+00
 -1      6137 2.62931E+01 1.91030E+01 4.54545E+00
 -1      6138 2.62931E+01 1.91030E+01 5.45455E+00
 -1      6139 2.62931E+01 1.91030E+01 6.36364E+00
 -1      6140 2.62931E+01 1.91030E+01 7.27273E+00
 -1      6141 2.62931E+01 1.91030E+01 8.18182E+00
 -1      6142 2.62931E+01 1.91030E+01 9.09091E+00
 -1      6143 2.29810E+01 2.29810E+01 9.09091E-01
 -1      6144 2.29810E+01 2.29810E+01 1.81818E+00
 -1      6145 2.29810E+01 2.29810E+01 2.72727E+00
 -1      6146 2.29810E+01 2.29810E+01 3.63636E+00
 -1      6147 2.29810E+01 2.29810E+01 4.54545E+00
 -1      6148 2.29810E+01 2.29810E+01 5.45455E+00
 -1      6149 2.29810E+01 2.29810E+01 6.36364E+00
 -1      6150 2.29810E+01 2.29810E+01 7.27273E+00
 -1      6151 2.29810E+01 2.29810E+01 8.18182E+00
 -1      6152 2.29810E+01 2.29810E+01 9.09091E+00
 -1      6153 1.91030E+01 2.62931E+01 9.09091E-01
 -1      6154 1.91030E+01 2.62931E+01 1.81818E+00
 -1      6155 1.91030E+01 2.62931E+01 2.72727E+00
 -1      6156 1.91030E+01 2.62931E+01 3.63636E+00
 -1      6157 1.91030E+01 2.62931E+01 4.54545E+00
 -1      6158 1.91030E+01 2.62931E+01 5.45455E+00
 -1      6159 1.91030E+01 2.62931E+01 6.36364E+00
 -1      6160 1.91030E+01 2.62931E+01 7.27273E+00
 -1      6161 1.91030E+01 2.62931E+01 8.18182E+00
 -1      6162 1.91030E+01 2.62931E+01 9.09091E+00
 -1      6163 1.47547E+01 2.89577E+01 9.09091E-01
 -1      6164 1.47547E+01 2.89577E+01 1.81818E+00
 -1      6165 1.47547E+01 2.89577E+01 2.72727E+00
 -1      6166 1.47547E+01 2.89577E+01 3.63636E+00
 -1      6167 1.47547E+01 2.89577E+01 4.54545E+00
 -1      6168 1.47547E+01 2.89577E+01 5.45455E+00
 -1      6169 1.47547E+01 2.89577E+01 6.36364E+00
 -1      6170 1.47547E+01 2.89577E+01 7.27273E+00
 -1      6171 1.47547E+01 2.89577E+01 8.18182E+00
 -1      6172 1.47547E+01 2.89577E+01 9.09091E+00
 -1      6173 1.00431E+01 3.09093E+01 9.09091E-01
 -1      6174 1.00431E+01 3.09093E+01 1.81818E+00
 -1      6175 1.00431E+01 3.09093E+01 2.72727E+00
 -1      6176 1.00431E+01 3.09093E+01 3.63636E+00
 -1      6177 1.00431E+01 3.09093E+01 4.54545E+00
 -1      6178 1.00431E+01 3.09093E+01 5.45455E+00
 -1      6179 1.00431E+01 3.09093E+01 6.36364E+00
 -1      6180 1.00431E+01 3.09093E+01 7.27273E+00
 -1      6181 1.00431E+01 3.09093E+01 8.18182E+00
 -1      6182 1.00431E+01 3.09093E+01 9.09091E+00
 -1      6183 5.08412E+00 3.20999E+01 9.09091E-01
 -1      6184 5.08412E+00 3.20999E+01 1.81818E+00
 -1      6185 5.08412E+00 3.20999E+01 2.72727E+00
 -1      6186 5.08412E+00 3.20999E+01 3.63636E+00
 -1      6187 5.08412E+00 3.20999E+01 4.54545E+00
 -1      6188 5.08412E+00 3.20999E+01 5.45455E+00
 -1      6189 5.08412E+00 3.20999E+01 6.36364E+00
 -1      6190 5.08412E+00 3.20999E+01 7.27273E+00
 -1      6191 5.08412E+00 3.20999E+01 8.18182E+00
 -1      6192 5.08412E+00 3.20999E+01 9.09091E+00
 -1      6193 3.45691E+01 5.47521E+00 9.09091E-01
 -1      6194 3.45691E+01 5.47521E+00 1.81818E+00
 -1      6195 3.45691E+01 5.47521E+00 2.72727E+00
 -1      6196 3.45691E+01 5.47521E+00 3.63636E+00
 -1      6197 3.45691E+01 5.47521E+00 4.54545E+00
 -1      6198 3.45691E+01 5.47521E+00 5.45455E+00
 -1      6199 3.45691E+01 5.47521E+00 6.36364E+00
 -1      6200 3.45691E+01 5.47521E+00 7.27273E+00
 -1      6201 3.45691E+01 5.47521E+00 8.18182E+00
 -1      6202 3.45691E+01 5.47521E+00 9.09091E+00
 -1      6203 3.32870E+01 1.08156E+01 9.09091E-01
 -1      6204 3.32870E+01 1.08156E+01 1.81818E+00
 -1      6205 3.32870E+01 1.08156E+01 2.72727E+00
 -1      6206 3.32870E+01 1.08156E+01 3.63636E+00
 -1      6207 3.32870E+01 1.08156E+01 4.54545E+00
 -1      6208 3.32870E+01 1.08156E+01 5.45455E+00
 -1      6209 3.32870E+01 1.08156E+01 6.36364E+00
 -1      6210 3.32870E+01 1.08156E+01 7.27273E+00
 -1      6211 3.32870E+01 1.08156E+01 8.18182E+00
 -1      6212 3.32870E+01 1.08156E+01 9.09091E+00
 -1      6213 3.11852E+01 1.58897E+01 9.09091E-01
 -1      6214 3.11852E+01 1.58897E+01 1.81818E+00
 -1      6215 3.11852E+01 1.58897E+01 2.72727E+00
 -1      6216 3.11852E+01 1.58897E+01 3.63636E+00
 -1      6217 3.11852E+01 1.58897E+01 4.54545E+00
 -1      6218 3.11852E+01 1.58897E+01 5.45455E+00
 -1      6219 3.11852E+01 1.58897E+01 6.36364E+00
 -1      6220 3.11852E+01 1.58897E+01 7.27273E+00
 -1      6221 3.11852E+01 1.58897E+01 8.18182E+00
 -1      6222 3.11852E+01 1.58897E+01 9.09091E+00
 -1      6223 2.83156E+01 2.05725E+01 9.09091E-01
 -1      6224 2.83156E+01 2.05725E+01 1.81818E+00
 -1      6225 2.83156E+01 2.05725E+01 2.72727E+00
 -1      6226 2.83156E+01 2.05725E+01 3.63636E+00
 -1      6227 2.83156E+01 2.05725E+01 4.54545E+00
 -1      6228 2.83156E+01 2.05725E+01 5.45455E+00
 -1      6229 2.83156E+01 2.05725E+01 6.36364E+00
 -1      6230 2.83156E+01 2.05725E+01 7.27273E+00
 -1      6231 2.83156E+01 2.05725E+01 8.18182E+00
 -1      6232 2.83156E+01 2.05725E+01 9.09091E+00
 -1      6233 2.47487E+01 2.47487E+01 9.09091E-01
 -1      6234 2.47487E+01 2.47487E+01 1.81818E+00
 -1      6235 2.47487E+01 2.47487E+01 2.72727E+00
 -1      6236 2.47487E+01 2.47487E+01 3.63636E+00
 -1      6237 2.47487E+01 2.47487E+01 4.54545E+00
 -1      6238 2.47487E+01 2.47487E+01 5.45455E+00
 -1      6239 2.47487E+01 2.47487E+01 6.36364E+00
 -1      6240 2.47487E+01 2.47487E+01 7.27273E+00
 -1      6241 2.47487E+01 2.47487E+01 8.18182E+00
 -1      6242 2.47487E+01 2.47487E+01 9.09091E+00
 -1      6243 2.05725E+01 2.83156E+01 9.09091E-01
 -1      6244 2.05725E+01 2.83156E+01 1.81818E+00
 -1      6245 2.05725E+01 2.83156E+01 2.72727E+00
 -1      6246 2.05725E+01 2.83156E+01 3.63636E+00
 -1      6247 2.05725E+01 2.83156E+01 4.54545E+00
 -1      6248 2.05725E+01 2.83156E+01 5.45455E+00
 -1      6249 2.05725E+01 2.83156E+01 6.36364E+00
 -1      6250 2.05725E+01 2.83156E+01 7.27273E+00
 -1      6251 2.05725E+01 2.83156E+01 8.18182E+00
 -1      6252 2.05725E+01 2.83156E+01 9.09091E+00
 -1      6253 1.58897E+01 3.11852E+01 9.09091E-01
 -1      6254 1.58897E+01 3.11852E+01 1.81818E+00
 -1      6255 1.58897E+01 3.11852E+01 2.72727E+00
 -1      6256 1.58897E+01 3.11852E+01 3.63636E+00
 -1      6257 1.58897E+01 3.11852E+01 4.54545E+00
 -1      6258 1.58897E+01 3.11852E+01 5.45455E+00
 -1      6259 1.58897E+01 3.11852E+01 6.36364E+00
 -1      6260 1.58897E+01 3.11852E+01 7.27273E+00
 -1      6261 1.58897E+01 3.11852E+01 8.18182E+00
 -1      6262 1.58897E+01 3.11852E+01 9.09091E+00
 -1      6263 1.08156E+01 3.32870E+01 9.09091E-01
 -1      6264 1.08156E+01 3.32870E+01 1.81818E+00
 -1      6265 1.08156E+01 3.32870E+01 2.72727E+00
 -1      6266 1.08156E+01 3.32870E+01 3.63636E+00
 -1      6267 1.08156E+01 3.32870E+01 4.54545E+00
 -1      6268 1.08156E+01 3.32870E+01 5.45455E+00
 -1      6269 1.08156E+01 3.32870E+01 6.36364E+00
 -1      6270 1.08156E+01 3.32870E+01 7.27273E+00
 -1      6271 1.08156E+01 3.32870E+01 8.18182E+00
 -1      6272 1.08156E+01 3.32870E+01 9.09091E+00
 -1      6273 5.47521E+00 3.45691E+01 9.09091E-01
 -1      6274 5.47521E+00 3.45691E+01 1.81818E+00
 -1      6275 5.47521E+00 3.45691E+01 2.72727E+00
 -1      6276 5.47521E+00 3.45691E+01 3.63636E+00
 -1      6277 5.47521E+00 3.45691E+01 4.54545E+00
 -1      6278 5.47521E+00 3.45691E+01 5.45455E+00
 -1      6279 5.47521E+00 3.45691E+01 6.36364E+00
 -1      6280 5.47521E+00 3.45691E+01 7.27273E+00
 -1      6281 5.47521E+00 3.45691E+01 8.18182E+00
 -1      6282 5.47521E+00 3.45691E+01 9.09091E+00
 -1      6283 3.70383E+01 5.86629E+00 9.09091E-01
 -1      6284 3.70383E+01 5.86629E+00 1.81818E+00
 -1      6285 3.70383E+01 5.86629E+00 2.72727E+00
 -1      6286 3.70383E+01 5.86629E+00 3.63636E+00
 -1      6287 3.70383E+01 5.86629E+00 4.54545E+00
 -1      6288 3.70383E+01 5.86629E+00 5.45455E+00
 -1      6289 3.70383E+01 5.86629E+00 6.36364E+00
 -1      6290 3.70383E+01 5.86629E+00 7.27273E+00
 -1      6291 3.70383E+01 5.86629E+00 8.18182E+00
 -1      6292 3.70383E+01 5.86629E+00 9.09091E+00
 -1      6293 3.56646E+01 1.15881E+01 9.09091E-01
 -1      6294 3.56646E+01 1.15881E+01 1.81818E+00
 -1      6295 3.56646E+01 1.15881E+01 2.72727E+00
 -1      6296 3.56646E+01 1.15881E+01 3.63636E+00
 -1      6297 3.56646E+01 1.15881E+01 4.54545E+00
 -1      6298 3.56646E+01 1.15881E+01 5.45455E+00
 -1      6299 3.56646E+01 1.15881E+01 6.36364E+00
 -1      6300 3.56646E+01 1.15881E+01 7.27273E+00
 -1      6301 3.56646E+01 1.15881E+01 8.18182E+00
 -1      6302 3.56646E+01 1.15881E+01 9.09091E+00
 -1      6303 3.34127E+01 1.70246E+01 9.09091E-01
 -1      6304 3.34127E+01 1.70246E+01 1.81818E+00
 -1      6305 3.34127E+01 1.70246E+01 2.72727E+00
 -1      6306 3.34127E+01 1.70246E+01 3.63636E+00
 -1      6307 3.34127E+01 1.70246E+01 4.54545E+00
 -1      6308 3.34127E+01 1.70246E+01 5.45455E+00
 -1      6309 3.34127E+01 1.70246E+01 6.36364E+00
 -1      6310 3.34127E+01 1.70246E+01 7.27273E+00
 -1      6311 3.34127E+01 1.70246E+01 8.18182E+00
 -1      6312 3.34127E+01 1.70246E+01 9.09091E+00
 -1      6313 3.03381E+01 2.20419E+01 9.09091E-01
 -1      6314 3.03381E+01 2.20419E+01 1.81818E+00
 -1      6315 3.03381E+01 2.20419E+01 2.72727E+00
 -1      6316 3.03381E+01 2.20419E+01 3.63636E+00
 -1      6317 3.03381E+01 2.20419E+01 4.54545E+00
 -1      6318 3.03381E+01 2.20419E+01 5.45455E+00
 -1      6319 3.03381E+01 2.20419E+01 6.36364E+00
 -1      6320 3.03381E+01 2.20419E+01 7.27273E+00
 -1      6321 3.03381E+01 2.20419E+01 8.18182E+00
 -1      6322 3.03381E+01 2.20419E+01 9.09091E+00
 -1      6323 2.65165E+01 2.65165E+01 9.09091E-01
 -1      6324 2.65165E+01 2.65165E+01 1.81818E+00
 -1      6325 2.65165E+01 2.65165E+01 2.72727E+00
 -1      6326 2.65165E+01 2.65165E+01 3.63636E+00
 -1      6327 2.65165E+01 2.65165E+01 4.54545E+00
 -1      6328 2.65165E+01 2.65165E+01 5.45455E+00
 -1      6329 2.65165E+01 2.65165E+01 6.36364E+00
 -1      6330 2.65165E+01 2.65165E+01 7.27273E+00
 -1      6331 2.65165E+01 2.65165E+01 8.18182E+00
 -1      6332 2.65165E+01 2.65165E+01 9.09091E+00
 -1      6333 2.20419E+01 3.03381E+01 9.09091E-01
 -1      6334 2.20419E+01 3.03381E+01 1.81818E+00
 -1      6335 2.20419E+01 3.03381E+01 2.72727E+00
 -1      6336 2.20419E+01 3.03381E+01 3.63636E+00
 -1      6337 2.20419E+01 3.03381E+01 4.54545E+00
 -1      6338 2.20419E+01 3.03381E+01 5.45455E+00
 -1      6339 2.20419E+01 3.03381E+01 6.36364E+00
 -1      6340 2.20419E+01 3.03381E+01 7.27273E+00
 -1      6341 2.20419E+01 3.03381E+01 8.18182E+00
 -1      6342 2.20419E+01 3.03381E+01 9.09091E+00
 -1      6343 1.70246E+01 3.34127E+01 9.09091E-01
 -1      6344 1.70246E+01 3.34127E+01 1.81818E+00
 -1      6345 1.70246E+01 3.34127E+01 2.72727E+00
 -1      6346 1.70246E+01 3.34127E+01 3.63636E+00
 -1      6347 1.70246E+01 3.34127E+01 4.54545E+00
 -1      6348 1.70246E+01 3.34127E+01 5.45455E+00
 -1      6349 1.70246E+01 3.34127E+01 6.36364E+00
 -1      6350 1.70246E+01 3.34127E+01 7.27273E+00
 -1      6351 1.70246E+01 3.34127E+01 8.18182E+00
 -1      6352 1.70246E+01 3.34127E+01 9.09091E+00
 -1      6353 1.15881E+01 3.56646E+01 9.09091E-01
 -1      6354 1.15881E+01 3.56646E+01 1.81818E+00
 -1      6355 1.15881E+01 3.56646E+01 2.72727E+00
 -1      6356 1.15881E+01 3.56646E+01 3.63636E+00
 -1      6357 1.15881E+01 3.56646E+01 4.54545E+00
 -1      6358 1.15881E+01 3.56646E+01 5.45455E+00
 -1      6359 1.15881E+01 3.56646E+01 6.36364E+00
 -1      6360 1.15881E+01 3.56646E+01 7.27273E+00
 -1      6361 1.15881E+01 3.56646E+01 8.18182E+00
 -1      6362 1.15881E+01 3.56646E+01 9.09091E+00
 -1      6363 5.86629E+00 3.70383E+01 9.09091E-01
 -1      6364 5.86629E+00 3.70383E+01 1.81818E+00
 -1      6365 5.86629E+00 3.70383E+01 2.72727E+00
 -1      6366 5.86629E+00 3.70383E+01 3.63636E+00
 -1      6367 5.86629E+00 3.70383E+01 4.54545E+00
 -1      6368 5.86629E+00 3.70383E+01 5.45455E+00
 -1      6369 5.86629E+00 3.70383E+01 6.36364E+00
 -1      6370 5.86629E+00 3.70383E+01 7.27273E+00
 -1      6371 5.86629E+00 3.70383E+01 8.18182E+00
 -1      6372 5.86629E+00 3.70383E+01 9.09091E+00
 -1      6373 3.95075E+01 6.25738E+00 9.09091E-01
 -1      6374 3.95075E+01 6.25738E+00 1.81818E+00
 -1      6375 3.95075E+01 6.25738E+00 2.72727E+00
 -1      6376 3.95075E+01 6.25738E+00 3.63636E+00
 -1      6377 3.95075E+01 6.25738E+00 4.54545E+00
 -1      6378 3.95075E+01 6.25738E+00 5.45455E+00
 -1      6379 3.95075E+01 6.25738E+00 6.36364E+00
 -1      6380 3.95075E+01 6.25738E+00 7.27273E+00
 -1      6381 3.95075E+01 6.25738E+00 8.18182E+00
 -1      6382 3.95075E+01 6.25738E+00 9.09091E+00
 -1      6383 3.80423E+01 1.23607E+01 9.09091E-01
 -1      6384 3.80423E+01 1.23607E+01 1.81818E+00
 -1      6385 3.80423E+01 1.23607E+01 2.72727E+00
 -1      6386 3.80423E+01 1.23607E+01 3.63636E+00
 -1      6387 3.80423E+01 1.23607E+01 4.54545E+00
 -1      6388 3.80423E+01 1.23607E+01 5.45455E+00
 -1      6389 3.80423E+01 1.23607E+01 6.36364E+00
 -1      6390 3.80423E+01 1.23607E+01 7.27273E+00
 -1      6391 3.80423E+01 1.23607E+01 8.18182E+00
 -1      6392 3.80423E+01 1.23607E+01 9.09091E+00
 -1      6393 3.56403E+01 1.81596E+01 9.09091E-01
 -1      6394 3.56403E+01 1.81596E+01 1.81818E+00
 -1      6395 3.56403E+01 1.81596E+01 2.72727E+00
 -1      6396 3.56403E+01 1.81596E+01 3.63636E+00
 -1      6397 3.56403E+01 1.81596E+01 4.54545E+00
 -1      6398 3.56403E+01 1.81596E+01 5.45455E+00
 -1      6399 3.56403E+01 1.81596E+01 6.36364E+00
 -1      6400 3.56403E+01 1.81596E+01 7.27273E+00
 -1      6401 3.56403E+01 1.81596E+01 8.18182E+00
 -1      6402 3.56403E+01 1.81596E+01 9.09091E+00
 -1      6403 3.23607E+01 2.35114E+01 9.09091E-01
 -1      6404 3.23607E+01 2.35114E+01 1.81818E+00
 -1      6405 3.23607E+01 2.35114E+01 2.72727E+00
 -1      6406 3.23607E+01 2.35114E+01 3.63636E+00
 -1      6407 3.23607E+01 2.35114E+01 4.54545E+00
 -1      6408 3.23607E+01 2.35114E+01 5.45455E+00
 -1      6409 3.23607E+01 2.35114E+01 6.36364E+00
 -1      6410 3.23607E+01 2.35114E+01 7.27273E+00
 -1      6411 3.23607E+01 2.35114E+01 8.18182E+00
 -1      6412 3.23607E+01 2.35114E+01 9.09091E+00
 -1      6413 2.82843E+01 2.82843E+01 9.09091E-01
 -1      6414 2.82843E+01 2.82843E+01 1.81818E+00
 -1      6415 2.82843E+01 2.82843E+01 2.72727E+00
 -1      6416 2.82843E+01 2.82843E+01 3.63636E+00
 -1      6417 2.82843E+01 2.82843E+01 4.54545E+00
 -1      6418 2.82843E+01 2.82843E+01 5.45455E+00
 -1      6419 2.82843E+01 2.82843E+01 6.36364E+00
 -1      6420 2.82843E+01 2.82843E+01 7.27273E+00
 -1      6421 2.82843E+01 2.82843E+01 8.18182E+00
 -1      6422 2.82843E+01 2.82843E+01 9.09091E+00
 -1      6423 2.35114E+01 3.23607E+01 9.09091E-01
 -1      6424 2.35114E+01 3.23607E+01 1.81818E+00
 -1      6425 2.35114E+01 3.23607E+01 2.72727E+00
 -1      6426 2.35114E+01 3.23607E+01 3.63636E+00
 -1      6427 2.35114E+01 3.23607E+01 4.54545E+00
 -1      6428 2.35114E+01 3.23607E+01 5.45455E+00
 -1      6429 2.35114E+01 3.23607E+01 6.36364E+00
 -1      6430 2.35114E+01 3.23607E+01 7.27273E+00
 -1      6431 2.35114E+01 3.23607E+01 8.18182E+00
 -1      6432 2.35114E+01 3.23607E+01 9.09091E+00
 -1      6433 1.81596E+01 3.56403E+01 9.09091E-01
 -1      6434 1.81596E+01 3.56403E+01 1.81818E+00
 -1      6435 1.81596E+01 3.56403E+01 2.72727E+00
 -1      6436 1.81596E+01 3.56403E+01 3.63636E+00
 -1      6437 1.81596E+01 3.56403E+01 4.54545E+00
 -1      6438 1.81596E+01 3.56403E+01 5.45455E+00
 -1      6439 1.81596E+01 3.56403E+01 6.36364E+00
 -1      6440 1.81596E+01 3.56403E+01 7.27273E+00
 -1      6441 1.81596E+01 3.56403E+01 8.18182E+00
 -1      6442 1.81596E+01 3.56403E+01 9.09091E+00
 -1      6443 1.23607E+01 3.80423E+01 9.09091E-01
 -1      6444 1.23607E+01 3.80423E+01 1.81818E+00
 -1      6445 1.23607E+01 3.80423E+01 2.72727E+00
 -1      6446 1.23607E+01 3.80423E+01 3.63636E+00
 -1      6447 1.23607E+01 3.80423E+01 4.54545E+00
 -1      6448 1.23607E+01 3.80423E+01 5.45455E+00
 -1      6449 1.23607E+01 3.80423E+01 6.36364E+00
 -1      6450 1.23607E+01 3.80423E+01 7.27273E+00
 -1      6451 1.23607E+01 3.80423E+01 8.18182E+00
 -1      6452 1.23607E+01 3.80423E+01 9.09091E+00
 -1      6453 6.25738E+00 3.95075E+01 9.09091E-01
 -1      6454 6.25738E+00 3.95075E+01 1.81818E+00
 -1      6455 6.25738E+00 3.95075E+01 2.72727E+00
 -1      6456 6.25738E+00 3.95075E+01 3.63636E+00
 -1      6457 6.25738E+00 3.95075E+01 4.54545E+00
 -1      6458 6.25738E+00 3.95075E+01 5.45455E+00
 -1      6459 6.25738E+00 3.95075E+01 6.36364E+00
 -1      6460 6.25738E+00 3.95075E+01 7.27273E+00
 -1      6461 6.25738E+00 3.95075E+01 8.18182E+00
 -1      6462 6.25738E+00 3.95075E+01 9.09091E+00
 -1      6463 4.19768E+01 6.64846E+00 9.09091E-01
 -1      6464 4.19768E+01 6.64846E+00 1.81818E+00
 -1      6465 4.19768E+01 6.64846E+00 2.72727E+00
 -1      6466 4.19768E+01 6.64846E+00 3.63636E+00
 -1      6467 4.19768E+01 6.64846E+00 4.54545E+00
 -1      6468 4.19768E+01 6.64846E+00 5.45455E+00
 -1      6469 4.19768E+01 6.64846E+00 6.36364E+00
 -1      6470 4.19768E+01 6.64846E+00 7.27273E+00
 -1      6471 4.19768E+01 6.64846E+00 8.18182E+00
 -1      6472 4.19768E+01 6.64846E+00 9.09091E+00
 -1      6473 4.04199E+01 1.31332E+01 9.09091E-01
 -1      6474 4.04199E+01 1.31332E+01 1.81818E+00
 -1      6475 4.04199E+01 1.31332E+01 2.72727E+00
 -1      6476 4.04199E+01 1.31332E+01 3.63636E+00
 -1      6477 4.04199E+01 1.31332E+01 4.54545E+00
 -1      6478 4.04199E+01 1.31332E+01 5.45455E+00
 -1      6479 4.04199E+01 1.31332E+01 6.36364E+00
 -1      6480 4.04199E+01 1.31332E+01 7.27273E+00
 -1      6481 4.04199E+01 1.31332E+01 8.18182E+00
 -1      6482 4.04199E+01 1.31332E+01 9.09091E+00
 -1      6483 3.78678E+01 1.92946E+01 9.09091E-01
 -1      6484 3.78678E+01 1.92946E+01 1.81818E+00
 -1      6485 3.78678E+01 1.92946E+01 2.72727E+00
 -1      6486 3.78678E+01 1.92946E+01 3.63636E+00
 -1      6487 3.78678E+01 1.92946E+01 4.54545E+00
 -1      6488 3.78678E+01 1.92946E+01 5.45455E+00
 -1      6489 3.78678E+01 1.92946E+01 6.36364E+00
 -1      6490 3.78678E+01 1.92946E+01 7.27273E+00
 -1      6491 3.78678E+01 1.92946E+01 8.18182E+00
 -1      6492 3.78678E+01 1.92946E+01 9.09091E+00
 -1      6493 3.43832E+01 2.49809E+01 9.09091E-01
 -1      6494 3.43832E+01 2.49809E+01 1.81818E+00
 -1      6495 3.43832E+01 2.49809E+01 2.72727E+00
 -1      6496 3.43832E+01 2.49809E+01 3.63636E+00
 -1      6497 3.43832E+01 2.49809E+01 4.54545E+00
 -1      6498 3.43832E+01 2.49809E+01 5.45455E+00
 -1      6499 3.43832E+01 2.49809E+01 6.36364E+00
 -1      6500 3.43832E+01 2.49809E+01 7.27273E+00
 -1      6501 3.43832E+01 2.49809E+01 8.18182E+00
 -1      6502 3.43832E+01 2.49809E+01 9.09091E+00
 -1      6503 3.00520E+01 3.00520E+01 9.09091E-01
 -1      6504 3.00520E+01 3.00520E+01 1.81818E+00
 -1      6505 3.00520E+01 3.00520E+01 2.72727E+00
 -1      6506 3.00520E+01 3.00520E+01 3.63636E+00
 -1      6507 3.00520E+01 3.00520E+01 4.54545E+00
 -1      6508 3.00520E+01 3.00520E+01 5.45455E+00
 -1      6509 3.00520E+01 3.00520E+01 6.36364E+00
 -1      6510 3.00520E+01 3.00520E+01 7.27273E+00
 -1      6511 3.00520E+01 3.00520E+01 8.18182E+00
 -1      6512 3.00520E+01 3.00520E+01 9.09091E+00
 -1      6513 2.49809E+01 3.43832E+01 9.09091E-01
 -1      6514 2.49809E+01 3.43832E+01 1.81818E+00
 -1      6515 2.49809E+01 3.43832E+01 2.72727E+00
 -1      6516 2.49809E+01 3.43832E+01 3.63636E+00
 -1      6517 2.49809E+01 3.43832E+01 4.54545E+00
 -1      6518 2.49809E+01 3.43832E+01 5.45455E+00
 -1      6519 2.49809E+01 3.43832E+01 6.36364E+00
 -1      6520 2.49809E+01 3.43832E+01 7.27273E+00
 -1      6521 2.49809E+01 3.43832E+01 8.18182E+00
 -1      6522 2.49809E+01 3.43832E+01 9.09091E+00
 -1      6523 1.92946E+01 3.78678E+01 9.09091E-01
 -1      6524 1.92946E+01 3.78678E+01 1.81818E+00
 -1      6525 1.92946E+01 3.78678E+01 2.72727E+00
 -1      6526 1.92946E+01 3.78678E+01 3.63636E+00
 -1      6527 1.92946E+01 3.78678E+01 4.54545E+00
 -1      6528 1.92946E+01 3.78678E+01 5.45455E+00
 -1      6529 1.92946E+01 3.78678E+01 6.36364E+00
 -1      6530 1.92946E+01 3.78678E+01 7.27273E+00
 -1      6531 1.92946E+01 3.78678E+01 8.18182E+00
 -1      6532 1.92946E+01 3.78678E+01 9.09091E+00
 -1      6533 1.31332E+01 4.04199E+01 9.09091E-01
 -1      6534 1.31332E+01 4.04199E+01 1.81818E+00
 -1      6535 1.31332E+01 4.04199E+01 2.72727E+00
 -1      6536 1.31332E+01 4.04199E+01 3.63636E+00
 -1      6537 1.31332E+01 4.04199E+01 4.54545E+00
 -1      6538 1.31332E+01 4.04199E+01 5.45455E+00
 -1      6539 1.31332E+01 4.04199E+01 6.36364E+00
 -1      6540 1.31332E+01 4.04199E+01 7.27273E+00
 -1      6541 1.31332E+01 4.04199E+01 8.18182E+00
 -1      6542 1.31332E+01 4.04199E+01 9.09091E+00
 -1      6543 6.64846E+00 4.19768E+01 9.09091E-01
 -1      6544 6.64846E+00 4.19768E+01 1.81818E+00
 -1      6545 6.64846E+00 4.19768E+01 2.72727E+00
 -1      6546 6.64846E+00 4.19768E+01 3.63636E+00
 -1      6547 6.64846E+00 4.19768E+01 4.54545E+00
 -1      6548 6.64846E+00 4.19768E+01 5.45455E+00
 -1      6549 6.64846E+00 4.19768E+01 6.36364E+00
 -1      6550 6.64846E+00 4.19768E+01 7.27273E+00
 -1      6551 6.64846E+00 4.19768E+01 8.18182E+00
 -1      6552 6.64846E+00 4.19768E+01 9.09091E+00
 -1      6553 4.44460E+01 7.03955E+00 9.09091E-01
 -1      6554 4.44460E+01 7.03955E+00 1.81818E+00
 -1      6555 4.44460E+01 7.03955E+00 2.72727E+00
 -1      6556 4.44460E+01 7.03955E+00 3.63636E+00
 -1      6557 4.44460E+01 7.03955E+00 4.54545E+00
 -1      6558 4.44460E+01 7.03955E+00 5.45455E+00
 -1      6559 4.44460E+01 7.03955E+00 6.36364E+00
 -1      6560 4.44460E+01 7.03955E+00 7.27273E+00
 -1      6561 4.44460E+01 7.03955E+00 8.18182E+00
 -1      6562 4.44460E+01 7.03955E+00 9.09091E+00
 -1      6563 4.27975E+01 1.39058E+01 9.09091E-01
 -1      6564 4.27975E+01 1.39058E+01 1.81818E+00
 -1      6565 4.27975E+01 1.39058E+01 2.72727E+00
 -1      6566 4.27975E+01 1.39058E+01 3.63636E+00
 -1      6567 4.27975E+01 1.39058E+01 4.54545E+00
 -1      6568 4.27975E+01 1.39058E+01 5.45455E+00
 -1      6569 4.27975E+01 1.39058E+01 6.36364E+00
 -1      6570 4.27975E+01 1.39058E+01 7.27273E+00
 -1      6571 4.27975E+01 1.39058E+01 8.18182E+00
 -1      6572 4.27975E+01 1.39058E+01 9.09091E+00
 -1      6573 4.00953E+01 2.04296E+01 9.09091E-01
 -1      6574 4.00953E+01 2.04296E+01 1.81818E+00
 -1      6575 4.00953E+01 2.04296E+01 2.72727E+00
 -1      6576 4.00953E+01 2.04296E+01 3.63636E+00
 -1      6577 4.00953E+01 2.04296E+01 4.54545E+00
 -1      6578 4.00953E+01 2.04296E+01 5.45455E+00
 -1      6579 4.00953E+01 2.04296E+01 6.36364E+00
 -1      6580 4.00953E+01 2.04296E+01 7.27273E+00
 -1      6581 4.00953E+01 2.04296E+01 8.18182E+00
 -1      6582 4.00953E+01 2.04296E+01 9.09091E+00
 -1      6583 3.64058E+01 2.64503E+01 9.09091E-01
 -1      6584 3.64058E+01 2.64503E+01 1.81818E+00
 -1      6585 3.64058E+01 2.64503E+01 2.72727E+00
 -1      6586 3.64058E+01 2.64503E+01 3.63636E+00
 -1      6587 3.64058E+01 2.64503E+01 4.54545E+00
 -1      6588 3.64058E+01 2.64503E+01 5.45455E+00
 -1      6589 3.64058E+01 2.64503E+01 6.36364E+00
 -1      6590 3.64058E+01 2.64503E+01 7.27273E+00
 -1      6591 3.64058E+01 2.64503E+01 8.18182E+00
 -1      6592 3.64058E+01 2.64503E+01 9.09091E+00
 -1      6593 3.18198E+01 3.18198E+01 9.09091E-01
 -1      6594 3.18198E+01 3.18198E+01 1.81818E+00
 -1      6595 3.18198E+01 3.18198E+01 2.72727E+00
 -1      6596 3.18198E+01 3.18198E+01 3.63636E+00
 -1      6597 3.18198E+01 3.18198E+01 4.54545E+00
 -1      6598 3.18198E+01 3.18198E+01 5.45455E+00
 -1      6599 3.18198E+01 3.18198E+01 6.36364E+00
 -1      6600 3.18198E+01 3.18198E+01 7.27273E+00
 -1      6601 3.18198E+01 3.18198E+01 8.18182E+00
 -1      6602 3.18198E+01 3.18198E+01 9.09091E+00
 -1      6603 2.64503E+01 3.64058E+01 9.09091E-01
 -1      6604 2.64503E+01 3.64058E+01 1.81818E+00
 -1      6605 2.64503E+01 3.64058E+01 2.72727E+00
 -1      6606 2.64503E+01 3.64058E+01 3.63636E+00
 -1      6607 2.64503E+01 3.64058E+01 4.54545E+00
 -1      6608 2.64503E+01 3.64058E+01 5.45455E+00
 -1      6609 2.64503E+01 3.64058E+01 6.36364E+00
 -1      6610 2.64503E+01 3.64058E+01 7.27273E+00
 -1      6611 2.64503E+01 3.64058E+01 8.18182E+00
 -1      6612 2.64503E+01 3.64058E+01 9.09091E+00
 -1      6613 2.04296E+01 4.00953E+01 9.09091E-01
 -1      6614 2.04296E+01 4.00953E+01 1.81818E+00
 -1      6615 2.04296E+01 4.00953E+01 2.72727E+00
 -1      6616 2.04296E+01 4.00953E+01 3.63636E+00
 -1      6617 2.04296E+01 4.00953E+01 4.54545E+00
 -1      6618 2.04296E+01 4.00953E+01 5.45455E+00
 -1      6619 2.04296E+01 4.00953E+01 6.36364E+00
 -1      6620 2.04296E+01 4.00953E+01 7.27273E+00
 -1      6621 2.04296E+01 4.00953E+01 8.18182E+00
 -1      6622 2.04296E+01 4.00953E+01 9.09091E+00
 -1      6623 1.39058E+01 4.27975E+01 9.09091E-01
 -1      6624 1.39058E+01 4.27975E+01 1.81818E+00
 -1      6625 1.39058E+01 4.27975E+01 2.72727E+00
 -1      6626 1.39058E+01 4.27975E+01 3.63636E+00
 -1      6627 1.39058E+01 4.27975E+01 4.54545E+00
 -1      6628 1.39058E+01 4.27975E+01 5.45455E+00
 -1      6629 1.39058E+01 4.27975E+01 6.36364E+00
 -1      6630 1.39058E+01 4.27975E+01 7.27273E+00
 -1      6631 1.39058E+01 4.27975E+01 8.18182E+00
 -1      6632 1.39058E+01 4.27975E+01 9.09091E+00
 -1      6633 7.03955E+00 4.44460E+01 9.09091E-01
 -1      6634 7.03955E+00 4.44460E+01 1.81818E+00
 -1      6635 7.03955E+00 4.44460E+01 2.72727E+00
 -1      6636 7.03955E+00 4.44460E+01 3.63636E+00
 -1      6637 7.03955E+00 4.44460E+01 4.54545E+00
 -1      6638 7.03955E+00 4.44460E+01 5.45455E+00
 -1      6639 7.03955E+00 4.44460E+01 6.36364E+00
 -1      6640 7.03955E+00 4.44460E+01 7.27273E+00
 -1      6641 7.03955E+00 4.44460E+01 8.18182E+00
 -1      6642 7.03955E+00 4.44460E+01 9.09091E+00
 -1      6643 4.69152E+01 7.43064E+00 9.09091E-01
 -1      6644 4.69152E+01 7.43064E+00 1.81818E+00
 -1      6645 4.69152E+01 7.43064E+00 2.72727E+00
 -1      6646 4.69152E+01 7.43064E+00 3.63636E+00
 -1      6647 4.69152E+01 7.43064E+00 4.54545E+00
 -1      6648 4.69152E+01 7.43064E+00 5.45455E+00
 -1      6649 4.69152E+01 7.43064E+00 6.36364E+00
 -1      6650 4.69152E+01 7.43064E+00 7.27273E+00
 -1      6651 4.69152E+01 7.43064E+00 8.18182E+00
 -1      6652 4.69152E+01 7.43064E+00 9.09091E+00
 -1      6653 4.51752E+01 1.46783E+01 9.09091E-01
 -1      6654 4.51752E+01 1.46783E+01 1.81818E+00
 -1      6655 4.51752E+01 1.46783E+01 2.72727E+00
 -1      6656 4.51752E+01 1.46783E+01 3.63636E+00
 -1      6657 4.51752E+01 1.46783E+01 4.54545E+00
 -1      6658 4.51752E+01 1.46783E+01 5.45455E+00
 -1      6659 4.51752E+01 1.46783E+01 6.36364E+00
 -1      6660 4.51752E+01 1.46783E+01 7.27273E+00
 -1      6661 4.51752E+01 1.46783E+01 8.18182E+00
 -1      6662 4.51752E+01 1.46783E+01 9.09091E+00
 -1      6663 4.23228E+01 2.15645E+01 9.09091E-01
 -1      6664 4.23228E+01 2.15645E+01 1.81818E+00
 -1      6665 4.23228E+01 2.15645E+01 2.72727E+00
 -1      6666 4.23228E+01 2.15645E+01 3.63636E+00
 -1      6667 4.23228E+01 2.15645E+01 4.54545E+00
 -1      6668 4.23228E+01 2.15645E+01 5.45455E+00
 -1      6669 4.23228E+01 2.15645E+01 6.36364E+00
 -1      6670 4.23228E+01 2.15645E+01 7.27273E+00
 -1      6671 4.23228E+01 2.15645E+01 8.18182E+00
 -1      6672 4.23228E+01 2.15645E+01 9.09091E+00
 -1      6673 3.84283E+01 2.79198E+01 9.09091E-01
 -1      6674 3.84283E+01 2.79198E+01 1.81818E+00
 -1      6675 3.84283E+01 2.79198E+01 2.72727E+00
 -1      6676 3.84283E+01 2.79198E+01 3.63636E+00
 -1      6677 3.84283E+01 2.79198E+01 4.54545E+00
 -1      6678 3.84283E+01 2.79198E+01 5.45455E+00
 -1      6679 3.84283E+01 2.79198E+01 6.36364E+00
 -1      6680 3.84283E+01 2.79198E+01 7.27273E+00
 -1      6681 3.84283E+01 2.79198E+01 8.18182E+00
 -1      6682 3.84283E+01 2.79198E+01 9.09091E+00
 -1      6683 3.35876E+01 3.35876E+01 9.09091E-01
 -1      6684 3.35876E+01 3.35876E+01 1.81818E+00
 -1      6685 3.35876E+01 3.35876E+01 2.72727E+00
 -1      6686 3.35876E+01 3.35876E+01 3.63636E+00
 -1      6687 3.35876E+01 3.35876E+01 4.54545E+00
 -1      6688 3.35876E+01 3.35876E+01 5.45455E+00
 -1      6689 3.35876E+01 3.35876E+01 6.36364E+00
 -1      6690 3.35876E+01 3.35876E+01 7.27273E+00
 -1      6691 3.35876E+01 3.35876E+01 8.18182E+00
 -1      6692 3.35876E+01 3.35876E+01 9.09091E+00
 -1      6693 2.79198E+01 3.84283E+01 9.09091E-01
 -1      6694 2.79198E+01 3.84283E+01 1.81818E+00
 -1      6695 2.79198E+01 3.84283E+01 2.72727E+00
 -1      6696 2.79198E+01 3.84283E+01 3.63636E+00
 -1      6697 2.79198E+01 3.84283E+01 4.54545E+00
 -1      6698 2.79198E+01 3.84283E+01 5.45455E+00
 -1      6699 2.79198E+01 3.84283E+01 6.36364E+00
 -1      6700 2.79198E+01 3.84283E+01 7.27273E+00
 -1      6701 2.79198E+01 3.84283E+01 8.18182E+00
 -1      6702 2.79198E+01 3.84283E+01 9.09091E+00
 -1      6703 2.15645E+01 4.23228E+01 9.09091E-01
 -1      6704 2.15645E+01 4.23228E+01 1.81818E+00
 -1      6705 2.15645E+01 4.23228E+01 2.72727E+00
 -1      6706 2.15645E+01 4.23228E+01 3.63636E+00
 -1      6707 2.15645E+01 4.23228E+01 4.54545E+00
 -1      6708 2.15645E+01 4.23228E+01 5.45455E+00
 -1      6709 2.15645E+01 4.23228E+01 6.36364E+00
 -1      6710 2.15645E+01 4.23228E+01 7.27273E+00
 -1      6711 2.15645E+01 4.23228E+01 8.18182E+00
 -1      6712 2.15645E+01 4.23228E+01 9.09091E+00
 -1      6713 1.46783E+01 4.51752E+01 9.09091E-01
 -1      6714 1.46783E+01 4.51752E+01 1.81818E+00
 -1      6715 1.46783E+01 4.51752E+01 2.72727E+00
 -1      6716 1.46783E+01 4.51752E+01 3.63636E+00
 -1      6717 1.46783E+01 4.51752E+01 4.54545E+00
 -1      6718 1.46783E+01 4.51752E+01 5.45455E+00
 -1      6719 1.46783E+01 4.51752E+01 6.36364E+00
 -1      6720 1.46783E+01 4.51752E+01 7.27273E+00
 -1      6721 1.46783E+01 4.51752E+01 8.18182E+00
 -1      6722 1.46783E+01 4.51752E+01 9.09091E+00
 -1      6723 7.43064E+00 4.69152E+01 9.09091E-01
 -1      6724 7.43064E+00 4.69152E+01 1.81818E+00
 -1      6725 7.43064E+00 4.69152E+01 2.72727E+00
 -1      6726 7.43064E+00 4.69152E+01 3.63636E+00
 -1      6727 7.43064E+00 4.69152E+01 4.54545E+00
 -1      6728 7.43064E+00 4.69152E+01 5.45455E+00
 -1      6729 7.43064E+00 4.69152E+01 6.36364E+00
 -1      6730 7.43064E+00 4.69152E+01 7.27273E+00
 -1      6731 7.43064E+00 4.69152E+01 8.18182E+00
 -1      6732 7.43064E+00 4.69152E+01 9.09091E+00
 -1      6733 4.93844E+01 7.82172E+00 9.09091E-01
 -1      6734 4.93844E+01 7.82172E+00 1.81818E+00
 -1      6735 4.93844E+01 7.82172E+00 2.72727E+00
 -1      6736 4.93844E+01 7.82172E+00 3.63636E+00
 -1      6737 4.93844E+01 7.82172E+00 4.54545E+00
 -1      6738 4.93844E+01 7.82172E+00 5.45455E+00
 -1      6739 4.93844E+01 7.82172E+00 6.36364E+00
 -1      6740 4.93844E+01 7.82172E+00 7.27273E+00
 -1      6741 4.93844E+01 7.82172E+00 8.18182E+00
 -1      6742 4.93844E+01 7.82172E+00 9.09091E+00
 -1      6743 4.75528E+01 1.54508E+01 9.09091E-01
 -1      6744 4.75528E+01 1.54508E+01 1.81818E+00
 -1      6745 4.75528E+01 1.54508E+01 2.72727E+00
 -1      6746 4.75528E+01 1.54508E+01 3.63636E+00
 -1      6747 4.75528E+01 1.54508E+01 4.54545E+00
 -1      6748 4.75528E+01 1.54508E+01 5.45455E+00
 -1      6749 4.75528E+01 1.54508E+01 6.36364E+00
 -1      6750 4.75528E+01 1.54508E+01 7.27273E+00
 -1      6751 4.75528E+01 1.54508E+01 8.18182E+00
 -1      6752 4.75528E+01 1.54508E+01 9.09091E+00
 -1      6753 4.45503E+01 2.26995E+01 9.09091E-01
 -1      6754 4.45503E+01 2.26995E+01 1.81818E+00
 -1      6755 4.45503E+01 2.26995E+01 2.72727E+00
 -1      6756 4.45503E+01 2.26995E+01 3.63636E+00
 -1      6757 4.45503E+01 2.26995E+01 4.54545E+00
 -1      6758 4.45503E+01 2.26995E+01 5.45455E+00
 -1      6759 4.45503E+01 2.26995E+01 6.36364E+00
 -1      6760 4.45503E+01 2.26995E+01 7.27273E+00
 -1      6761 4.45503E+01 2.26995E+01 8.18182E+00
 -1      6762 4.45503E+01 2.26995E+01 9.09091E+00
 -1      6763 4.04509E+01 2.93893E+01 9.09091E-01
 -1      6764 4.04509E+01 2.93893E+01 1.81818E+00
 -1      6765 4.04509E+01 2.93893E+01 2.72727E+00
 -1      6766 4.04509E+01 2.93893E+01 3.63636E+00
 -1      6767 4.04509E+01 2.93893E+01 4.54545E+00
 -1      6768 4.04509E+01 2.93893E+01 5.45455E+00
 -1      6769 4.04509E+01 2.93893E+01 6.36364E+00
 -1      6770 4.04509E+01 2.93893E+01 7.27273E+00
 -1      6771 4.04509E+01 2.93893E+01 8.18182E+00
 -1      6772 4.04509E+01 2.93893E+01 9.09091E+00
 -1      6773 3.53553E+01 3.53553E+01 9.09091E-01
 -1      6774 3.53553E+01 3.53553E+01 1.81818E+00
 -1      6775 3.53553E+01 3.53553E+01 2.72727E+00
 -1      6776 3.53553E+01 3.53553E+01 3.63636E+00
 -1      6777 3.53553E+01 3.53553E+01 4.54545E+00
 -1      6778 3.53553E+01 3.53553E+01 5.45455E+00
 -1      6779 3.53553E+01 3.53553E+01 6.36364E+00
 -1      6780 3.53553E+01 3.53553E+01 7.27273E+00
 -1      6781 3.53553E+01 3.53553E+01 8.18182E+00
 -1      6782 3.53553E+01 3.53553E+01 9.09091E+00
 -1      6783 2.93893E+01 4.04509E+01 9.09091E-01
 -1      6784 2.93893E+01 4.04509E+01 1.81818E+00
 -1      6785 2.93893E+01 4.04509E+01 2.72727E+00
 -1      6786 2.93893E+01 4.04509E+01 3.63636E+00
 -1      6787 2.93893E+01 4.04509E+01 4.54545E+00
 -1      6788 2.93893E+01 4.04509E+01 5.45455E+00
 -1      6789 2.93893E+01 4.04509E+01 6.36364E+00
 -1      6790 2.93893E+01 4.04509E+01 7.27273E+00
 -1      6791 2.93893E+01 4.04509E+01 8.18182E+00
 -1      6792 2.93893E+01 4.04509E+01 9.09091E+00
 -1      6793 2.26995E+01 4.45503E+01 9.09091E-01
 -1      6794 2.26995E+01 4.45503E+01 1.81818E+00
 -1      6795 2.26995E+01 4.45503E+01 2.72727E+00
 -1      6796 2.26995E+01 4.45503E+01 3.63636E+00
 -1      6797 2.26995E+01 4.45503E+01 4.54545E+00
 -1      6798 2.26995E+01 4.45503E+01 5.45455E+00
 -1      6799 2.26995E+01 4.45503E+01 6.36364E+00
 -1      6800 2.26995E+01 4.45503E+01 7.27273E+00
 -1      6801 2.26995E+01 4.45503E+01 8.18182E+00
 -1      6802 2.26995E+01 4.45503E+01 9.09091E+00
 -1      6803 1.54508E+01 4.75528E+01 9.09091E-01
 -1      6804 1.54508E+01 4.75528E+01 1.81818E+00
 -1      6805 1.54508E+01 4.75528E+01 2.72727E+00
 -1      6806 1.54508E+01 4.75528E+01 3.63636E+00
 -1      6807 1.54508E+01 4.75528E+01 4.54545E+00
 -1      6808 1.54508E+01 4.75528E+01 5.45455E+00
 -1      6809 1.54508E+01 4.75528E+01 6.36364E+00
 -1      6810 1.54508E+01 4.75528E+01 7.27273E+00
 -1      6811 1.54508E+01 4.75528E+01 8.18182E+00
 -1      6812 1.54508E+01 4.75528E+01 9.09091E+00
 -1      6813 7.82172E+00 4.93844E+01 9.09091E-01
 -1      6814 7.82172E+00 4.93844E+01 1.81818E+00
 -1      6815 7.82172E+00 4.93844E+01 2.72727E+00
 -1      6816 7.82172E+00 4.93844E+01 3.63636E+00
 -1      6817 7.82172E+00 4.93844E+01 4.54545E+00
 -1      6818 7.82172E+00 4.93844E+01 5.45455E+00
 -1      6819 7.82172E+00 4.93844E+01 6.36364E+00
 -1      6820 7.82172E+00 4.93844E+01 7.27273E+00
 -1      6821 7.82172E+00 4.93844E+01 8.18182E+00
 -1      6822 7.82172E+00 4.93844E+01 9.09091E+00
 -1      6823 5.18536E+01 8.21281E+00 9.09091E-01
 -1      6824 5.18536E+01 8.21281E+00 1.81818E+00
 -1      6825 5.18536E+01 8.21281E+00 2.72727E+00
 -1      6826 5.18536E+01 8.21281E+00 3.63636E+00
 -1      6827 5.18536E+01 8.21281E+00 4.54545E+00
 -1      6828 5.18536E+01 8.21281E+00 5.45455E+00
 -1      6829 5.18536E+01 8.21281E+00 6.36364E+00
 -1      6830 5.18536E+01 8.21281E+00 7.27273E+00
 -1      6831 5.18536E+01 8.21281E+00 8.18182E+00
 -1      6832 5.18536E+01 8.21281E+00 9.09091E+00
 -1      6833 4.99305E+01 1.62234E+01 9.09091E-01
 -1      6834 4.99305E+01 1.62234E+01 1.81818E+00
 -1      6835 4.99305E+01 1.62234E+01 2.72727E+00
 -1      6836 4.99305E+01 1.62234E+01 3.63636E+00
 -1      6837 4.99305E+01 1.62234E+01 4.54545E+00
 -1      6838 4.99305E+01 1.62234E+01 5.45455E+00
 -1      6839 4.99305E+01 1.62234E+01 6.36364E+00
 -1      6840 4.99305E+01 1.62234E+01 7.27273E+00
 -1      6841 4.99305E+01 1.62234E+01 8.18182E+00
 -1      6842 4.99305E+01 1.62234E+01 9.09091E+00
 -1      6843 4.67778E+01 2.38345E+01 9.09091E-01
 -1      6844 4.67778E+01 2.38345E+01 1.81818E+00
 -1      6845 4.67778E+01 2.38345E+01 2.72727E+00
 -1      6846 4.67778E+01 2.38345E+01 3.63636E+00
 -1      6847 4.67778E+01 2.38345E+01 4.54545E+00
 -1      6848 4.67778E+01 2.38345E+01 5.45455E+00
 -1      6849 4.67778E+01 2.38345E+01 6.36364E+00
 -1      6850 4.67778E+01 2.38345E+01 7.27273E+00
 -1      6851 4.67778E+01 2.38345E+01 8.18182E+00
 -1      6852 4.67778E+01 2.38345E+01 9.09091E+00
 -1      6853 4.24734E+01 3.08587E+01 9.09091E-01
 -1      6854 4.24734E+01 3.08587E+01 1.81818E+00
 -1      6855 4.24734E+01 3.08587E+01 2.72727E+00
 -1      6856 4.24734E+01 3.08587E+01 3.63636E+00
 -1      6857 4.24734E+01 3.08587E+01 4.54545E+00
 -1      6858 4.24734E+01 3.08587E+01 5.45455E+00
 -1      6859 4.24734E+01 3.08587E+01 6.36364E+00
 -1      6860 4.24734E+01 3.08587E+01 7.27273E+00
 -1      6861 4.24734E+01 3.08587E+01 8.18182E+00
 -1      6862 4.24734E+01 3.08587E+01 9.09091E+00
 -1      6863 3.71231E+01 3.71231E+01 9.09091E-01
 -1      6864 3.71231E+01 3.71231E+01 1.81818E+00
 -1      6865 3.71231E+01 3.71231E+01 2.72727E+00
 -1      6866 3.71231E+01 3.71231E+01 3.63636E+00
 -1      6867 3.71231E+01 3.71231E+01 4.54545E+00
 -1      6868 3.71231E+01 3.71231E+01 5.45455E+00
 -1      6869 3.71231E+01 3.71231E+01 6.36364E+00
 -1      6870 3.71231E+01 3.71231E+01 7.27273E+00
 -1      6871 3.71231E+01 3.71231E+01 8.18182E+00
 -1      6872 3.71231E+01 3.71231E+01 9.09091E+00
 -1      6873 3.08587E+01 4.24734E+01 9.09091E-01
 -1      6874 3.08587E+01 4.24734E+01 1.81818E+00
 -1      6875 3.08587E+01 4.24734E+01 2.72727E+00
 -1      6876 3.08587E+01 4.24734E+01 3.63636E+00
 -1      6877 3.08587E+01 4.24734E+01 4.54545E+00
 -1      6878 3.08587E+01 4.24734E+01 5.45455E+00
 -1      6879 3.08587E+01 4.24734E+01 6.36364E+00
 -1      6880 3.08587E+01 4.24734E+01 7.27273E+00
 -1      6881 3.08587E+01 4.24734E+01 8.18182E+00
 -1      6882 3.08587E+01 4.24734E+01 9.09091E+00
 -1      6883 2.38345E+01 4.67778E+01 9.09091E-01
 -1      6884 2.38345E+01 4.67778E+01 1.81818E+00
 -1      6885 2.38345E+01 4.67778E+01 2.72727E+00
 -1      6886 2.38345E+01 4.67778E+01 3.63636E+00
 -1      6887 2.38345E+01 4.67778E+01 4.54545E+00
 -1      6888 2.38345E+01 4.67778E+01 5.45455E+00
 -1      6889 2.38345E+01 4.67778E+01 6.36364E+00
 -1      6890 2.38345E+01 4.67778E+01 7.27273E+00
 -1      6891 2.38345E+01 4.67778E+01 8.18182E+00
 -1      6892 2.38345E+01 4.67778E+01 9.09091E+00
 -1      6893 1.62234E+01 4.99305E+01 9.09091E-01
 -1      6894 1.62234E+01 4.99305E+01 1.81818E+00
 -1      6895 1.62234E+01 4.99305E+01 2.72727E+00
 -1      6896 1.62234E+01 4.99305E+01 3.63636E+00
 -1      6897 1.62234E+01 4.99305E+01 4.54545E+00
 -1      6898 1.62234E+01 4.99305E+01 5.45455E+00
 -1      6899 1.62234E+01 4.99305E+01 6.36364E+00
 -1      6900 1.62234E+01 4.99305E+01 7.27273E+00
 -1      6901 1.62234E+01 4.99305E+01 8.18182E+00
 -1      6902 1.62234E+01 4.99305E+01 9.09091E+00
 -1      6903 8.21281E+00 5.18536E+01 9.09091E-01
 -1      6904 8.21281E+00 5.18536E+01 1.81818E+00
 -1      6905 8.21281E+00 5.18536E+01 2.72727E+00
 -1      6906 8.21281E+00 5.18536E+01 3.63636E+00
 -1      6907 8.21281E+00 5.18536E+01 4.54545E+00
 -1      6908 8.21281E+00 5.18536E+01 5.45455E+00
 -1      6909 8.21281E+00 5.18536E+01 6.36364E+00
 -1      6910 8.21281E+00 5.18536E+01 7.27273E+00
 -1      6911 8.21281E+00 5.18536E+01 8.18182E+00
 -1      6912 8.21281E+00 5.18536E+01 9.09091E+00
 -1      6913 5.43229E+01 8.60390E+00 9.09091E-01
 -1      6914 5.43229E+01 8.60390E+00 1.81818E+00
 -1      6915 5.43229E+01 8.60390E+00 2.72727E+00
 -1      6916 5.43229E+01 8.60390E+00 3.63636E+00
 -1      6917 5.43229E+01 8.60390E+00 4.54545E+00
 -1      6918 5.43229E+01 8.60390E+00 5.45455E+00
 -1      6919 5.43229E+01 8.60390E+00 6.36364E+00
 -1      6920 5.43229E+01 8.60390E+00 7.27273E+00
 -1      6921 5.43229E+01 8.60390E+00 8.18182E+00
 -1      6922 5.43229E+01 8.60390E+00 9.09091E+00
 -1      6923 5.23081E+01 1.69959E+01 9.09091E-01
 -1      6924 5.23081E+01 1.69959E+01 1.81818E+00
 -1      6925 5.23081E+01 1.69959E+01 2.72727E+00
 -1      6926 5.23081E+01 1.69959E+01 3.63636E+00
 -1      6927 5.23081E+01 1.69959E+01 4.54545E+00
 -1      6928 5.23081E+01 1.69959E+01 5.45455E+00
 -1      6929 5.23081E+01 1.69959E+01 6.36364E+00
 -1      6930 5.23081E+01 1.69959E+01 7.27273E+00
 -1      6931 5.23081E+01 1.69959E+01 8.18182E+00
 -1      6932 5.23081E+01 1.69959E+01 9.09091E+00
 -1      6933 4.90054E+01 2.49695E+01 9.09091E-01
 -1      6934 4.90054E+01 2.49695E+01 1.81818E+00
 -1      6935 4.90054E+01 2.49695E+01 2.72727E+00
 -1      6936 4.90054E+01 2.49695E+01 3.63636E+00
 -1      6937 4.90054E+01 2.49695E+01 4.54545E+00
 -1      6938 4.90054E+01 2.49695E+01 5.45455E+00
 -1      6939 4.90054E+01 2.49695E+01 6.36364E+00
 -1      6940 4.90054E+01 2.49695E+01 7.27273E+00
 -1      6941 4.90054E+01 2.49695E+01 8.18182E+00
 -1      6942 4.90054E+01 2.49695E+01 9.09091E+00
 -1      6943 4.44959E+01 3.23282E+01 9.09091E-01
 -1      6944 4.44959E+01 3.23282E+01 1.81818E+00
 -1      6945 4.44959E+01 3.23282E+01 2.72727E+00
 -1      6946 4.44959E+01 3.23282E+01 3.63636E+00
 -1      6947 4.44959E+01 3.23282E+01 4.54545E+00
 -1      6948 4.44959E+01 3.23282E+01 5.45455E+00
 -1      6949 4.44959E+01 3.23282E+01 6.36364E+00
 -1      6950 4.44959E+01 3.23282E+01 7.27273E+00
 -1      6951 4.44959E+01 3.23282E+01 8.18182E+00
 -1      6952 4.44959E+01 3.23282E+01 9.09091E+00
 -1      6953 3.88909E+01 3.88909E+01 9.09091E-01
 -1      6954 3.88909E+01 3.88909E+01 1.81818E+00
 -1      6955 3.88909E+01 3.88909E+01 2.72727E+00
 -1      6956 3.88909E+01 3.88909E+01 3.63636E+00
 -1      6957 3.88909E+01 3.88909E+01 4.54545E+00
 -1      6958 3.88909E+01 3.88909E+01 5.45455E+00
 -1      6959 3.88909E+01 3.88909E+01 6.36364E+00
 -1      6960 3.88909E+01 3.88909E+01 7.27273E+00
 -1      6961 3.88909E+01 3.88909E+01 8.18182E+00
 -1      6962 3.88909E+01 3.88909E+01 9.09091E+00
 -1      6963 3.23282E+01 4.44959E+01 9.09091E-01
 -1      6964 3.23282E+01 4.44959E+01 1.81818E+00
 -1      6965 3.23282E+01 4.44959E+01 2.72727E+00
 -1      6966 3.23282E+01 4.44959E+01 3.63636E+00
 -1      6967 3.23282E+01 4.44959E+01 4.54545E+00
 -1      6968 3.23282E+01 4.44959E+01 5.45455E+00
 -1      6969 3.23282E+01 4.44959E+01 6.36364E+00
 -1      6970 3.23282E+01 4.44959E+01 7.27273E+00
 -1      6971 3.23282E+01 4.44959E+01 8.18182E+00
 -1      6972 3.23282E+01 4.44959E+01 9.09091E+00
 -1      6973 2.49695E+01 4.90054E+01 9.09091E-01
 -1      6974 2.49695E+01 4.90054E+01 1.81818E+00
 -1      6975 2.49695E+01 4.90054E+01 2.72727E+00
 -1      6976 2.49695E+01 4.90054E+01 3.63636E+00
 -1      6977 2.49695E+01 4.90054E+01 4.54545E+00
 -1      6978 2.49695E+01 4.90054E+01 5.45455E+00
 -1      6979 2.49695E+01 4.90054E+01 6.36364E+00
 -1      6980 2.49695E+01 4.90054E+01 7.27273E+00
 -1      6981 2.49695E+01 4.90054E+01 8.18182E+00
 -1      6982 2.49695E+01 4.90054E+01 9.09091E+00
 -1      6983 1.69959E+01 5.23081E+01 9.09091E-01
 -1      6984 1.69959E+01 5.23081E+01 1.81818E+00
 -1      6985 1.69959E+01 5.23081E+01 2.72727E+00
 -1      6986 1.69959E+01 5.23081E+01 3.63636E+00
 -1      6987 1.69959E+01 5.23081E+01 4.54545E+00
 -1      6988 1.69959E+01 5.23081E+01 5.45455E+00
 -1      6989 1.69959E+01 5.23081E+01 6.36364E+00
 -1      6990 1.69959E+01 5.23081E+01 7.27273E+00
 -1      6991 1.69959E+01 5.23081E+01 8.18182E+00
 -1      6992 1.69959E+01 5.23081E+01 9.09091E+00
 -1      6993 8.60390E+00 5.43229E+01 9.09091E-01
 -1      6994 8.60390E+00 5.43229E+01 1.81818E+00
 -1      6995 8.60390E+00 5.43229E+01 2.72727E+00
 -1      6996 8.60390E+00 5.43229E+01 3.63636E+00
 -1      6997 8.60390E+00 5.43229E+01 4.54545E+00
 -1      6998 8.60390E+00 5.43229E+01 5.45455E+00
 -1      6999 8.60390E+00 5.43229E+01 6.36364E+00
 -1      7000 8.60390E+00 5.43229E+01 7.27273E+00
 -1      7001 8.60390E+00 5.43229E+01 8.18182E+00
 -1      7002 8.60390E+00 5.43229E+01 9.09091E+00
 -1      7003 5.67921E+01 8.99498E+00 9.09091E-01
 -1      7004 5.67921E+01 8.99498E+00 1.81818E+00
 -1      7005 5.67921E+01 8.99498E+00 2.72727E+00
 -1      7006 5.67921E+01 8.99498E+00 3.63636E+00
 -1      7007 5.67921E+01 8.99498E+00 4.54545E+00
 -1      7008 5.67921E+01 8.99498E+00 5.45455E+00
 -1      7009 5.67921E+01 8.99498E+00 6.36364E+00
 -1      7010 5.67921E+01 8.99498E+00 7.27273E+00
 -1      7011 5.67921E+01 8.99498E+00 8.18182E+00
 -1      7012 5.67921E+01 8.99498E+00 9.09091E+00
 -1      7013 5.46857E+01 1.77685E+01 9.09091E-01
 -1      7014 5.46857E+01 1.77685E+01 1.81818E+00
 -1      7015 5.46857E+01 1.77685E+01 2.72727E+00
 -1      7016 5.46857E+01 1.77685E+01 3.63636E+00
 -1      7017 5.46857E+01 1.77685E+01 4.54545E+00
 -1      7018 5.46857E+01 1.77685E+01 5.45455E+00
 -1      7019 5.46857E+01 1.77685E+01 6.36364E+00
 -1      7020 5.46857E+01 1.77685E+01 7.27273E+00
 -1      7021 5.46857E+01 1.77685E+01 8.18182E+00
 -1      7022 5.46857E+01 1.77685E+01 9.09091E+00
 -1      7023 5.12329E+01 2.61045E+01 9.09091E-01
 -1      7024 5.12329E+01 2.61045E+01 1.81818E+00
 -1      7025 5.12329E+01 2.61045E+01 2.72727E+00
 -1      7026 5.12329E+01 2.61045E+01 3.63636E+00
 -1      7027 5.12329E+01 2.61045E+01 4.54545E+00
 -1      7028 5.12329E+01 2.61045E+01 5.45455E+00
 -1      7029 5.12329E+01 2.61045E+01 6.36364E+00
 -1      7030 5.12329E+01 2.61045E+01 7.27273E+00
 -1      7031 5.12329E+01 2.61045E+01 8.18182E+00
 -1      7032 5.12329E+01 2.61045E+01 9.09091E+00
 -1      7033 4.65185E+01 3.37977E+01 9.09091E-01
 -1      7034 4.65185E+01 3.37977E+01 1.81818E+00
 -1      7035 4.65185E+01 3.37977E+01 2.72727E+00
 -1      7036 4.65185E+01 3.37977E+01 3.63636E+00
 -1      7037 4.65185E+01 3.37977E+01 4.54545E+00
 -1      7038 4.65185E+01 3.37977E+01 5.45455E+00
 -1      7039 4.65185E+01 3.37977E+01 6.36364E+00
 -1      7040 4.65185E+01 3.37977E+01 7.27273E+00
 -1      7041 4.65185E+01 3.37977E+01 8.18182E+00
 -1      7042 4.65185E+01 3.37977E+01 9.09091E+00
 -1      7043 4.06586E+01 4.06586E+01 9.09091E-01
 -1      7044 4.06586E+01 4.06586E+01 1.81818E+00
 -1      7045 4.06586E+01 4.06586E+01 2.72727E+00
 -1      7046 4.06586E+01 4.06586E+01 3.63636E+00
 -1      7047 4.06586E+01 4.06586E+01 4.54545E+00
 -1      7048 4.06586E+01 4.06586E+01 5.45455E+00
 -1      7049 4.06586E+01 4.06586E+01 6.36364E+00
 -1      7050 4.06586E+01 4.06586E+01 7.27273E+00
 -1      7051 4.06586E+01 4.06586E+01 8.18182E+00
 -1      7052 4.06586E+01 4.06586E+01 9.09091E+00
 -1      7053 3.37977E+01 4.65185E+01 9.09091E-01
 -1      7054 3.37977E+01 4.65185E+01 1.81818E+00
 -1      7055 3.37977E+01 4.65185E+01 2.72727E+00
 -1      7056 3.37977E+01 4.65185E+01 3.63636E+00
 -1      7057 3.37977E+01 4.65185E+01 4.54545E+00
 -1      7058 3.37977E+01 4.65185E+01 5.45455E+00
 -1      7059 3.37977E+01 4.65185E+01 6.36364E+00
 -1      7060 3.37977E+01 4.65185E+01 7.27273E+00
 -1      7061 3.37977E+01 4.65185E+01 8.18182E+00
 -1      7062 3.37977E+01 4.65185E+01 9.09091E+00
 -1      7063 2.61045E+01 5.12329E+01 9.09091E-01
 -1      7064 2.61045E+01 5.12329E+01 1.81818E+00
 -1      7065 2.61045E+01 5.12329E+01 2.72727E+00
 -1      7066 2.61045E+01 5.12329E+01 3.63636E+00
 -1      7067 2.61045E+01 5.12329E+01 4.54545E+00
 -1      7068 2.61045E+01 5.12329E+01 5.45455E+00
 -1      7069 2.61045E+01 5.12329E+01 6.36364E+00
 -1      7070 2.61045E+01 5.12329E+01 7.27273E+00
 -1      7071 2.61045E+01 5.12329E+01 8.18182E+00
 -1      7072 2.61045E+01 5.12329E+01 9.09091E+00
 -1      7073 1.77685E+01 5.46857E+01 9.09091E-01
 -1      7074 1.77685E+01 5.46857E+01 1.81818E+00
 -1      7075 1.77685E+01 5.46857E+01 2.72727E+00
 -1      7076 1.77685E+01 5.46857E+01 3.63636E+00
 -1      7077 1.77685E+01 5.46857E+01 4.54545E+00
 -1      7078 1.77685E+01 5.46857E+01 5.45455E+00
 -1      7079 1.77685E+01 5.46857E+01 6.36364E+00
 -1      7080 1.77685E+01 5.46857E+01 7.27273E+00
 -1      7081 1.77685E+01 5.46857E+01 8.18182E+00
 -1      7082 1.77685E+01 5.46857E+01 9.09091E+00
 -1      7083 8.99498E+00 5.67921E+01 9.09091E-01
 -1      7084 8.99498E+00 5.67921E+01 1.81818E+00
 -1      7085 8.99498E+00 5.67921E+01 2.72727E+00
 -1      7086 8.99498E+00 5.67921E+01 3.63636E+00
 -1      7087 8.99498E+00 5.67921E+01 4.54545E+00
 -1      7088 8.99498E+00 5.67921E+01 5.45455E+00
 -1      7089 8.99498E+00 5.67921E+01 6.36364E+00
 -1      7090 8.99498E+00 5.67921E+01 7.27273E+00
 -1      7091 8.99498E+00 5.67921E+01 8.18182E+00
 -1      7092 8.99498E+00 5.67921E+01 9.09091E+00
 -1      7093 5.92613E+01 9.38607E+00 9.09091E-01
 -1      7094 5.92613E+01 9.38607E+00 1.81818E+00
 -1      7095 5.92613E+01 9.38607E+00 2.72727E+00
 -1      7096 5.92613E+01 9.38607E+00 3.63636E+00
 -1      7097 5.92613E+01 9.38607E+00 4.54545E+00
 -1      7098 5.92613E+01 9.38607E+00 5.45455E+00
 -1      7099 5.92613E+01 9.38607E+00 6.36364E+00
 -1      7100 5.92613E+01 9.38607E+00 7.27273E+00
 -1      7101 5.92613E+01 9.38607E+00 8.18182E+00
 -1      7102 5.92613E+01 9.38607E+00 9.09091E+00
 -1      7103 5.70634E+01 1.85410E+01 9.09091E-01
 -1      7104 5.70634E+01 1.85410E+01 1.81818E+00
 -1      7105 5.70634E+01 1.85410E+01 2.72727E+00
 -1      7106 5.70634E+01 1.85410E+01 3.63636E+00
 -1      7107 5.70634E+01 1.85410E+01 4.54545E+00
 -1      7108 5.70634E+01 1.85410E+01 5.45455E+00
 -1      7109 5.70634E+01 1.85410E+01 6.36364E+00
 -1      7110 5.70634E+01 1.85410E+01 7.27273E+00
 -1      7111 5.70634E+01 1.85410E+01 8.18182E+00
 -1      7112 5.70634E+01 1.85410E+01 9.09091E+00
 -1      7113 5.34604E+01 2.72394E+01 9.09091E-01
 -1      7114 5.34604E+01 2.72394E+01 1.81818E+00
 -1      7115 5.34604E+01 2.72394E+01 2.72727E+00
 -1      7116 5.34604E+01 2.72394E+01 3.63636E+00
 -1      7117 5.34604E+01 2.72394E+01 4.54545E+00
 -1      7118 5.34604E+01 2.72394E+01 5.45455E+00
 -1      7119 5.34604E+01 2.72394E+01 6.36364E+00
 -1      7120 5.34604E+01 2.72394E+01 7.27273E+00
 -1      7121 5.34604E+01 2.72394E+01 8.18182E+00
 -1      7122 5.34604E+01 2.72394E+01 9.09091E+00
 -1      7123 4.85410E+01 3.52671E+01 9.09091E-01
 -1      7124 4.85410E+01 3.52671E+01 1.81818E+00
 -1      7125 4.85410E+01 3.52671E+01 2.72727E+00
 -1      7126 4.85410E+01 3.52671E+01 3.63636E+00
 -1      7127 4.85410E+01 3.52671E+01 4.54545E+00
 -1      7128 4.85410E+01 3.52671E+01 5.45455E+00
 -1      7129 4.85410E+01 3.52671E+01 6.36364E+00
 -1      7130 4.85410E+01 3.52671E+01 7.27273E+00
 -1      7131 4.85410E+01 3.52671E+01 8.18182E+00
 -1      7132 4.85410E+01 3.52671E+01 9.09091E+00
 -1      7133 4.24264E+01 4.24264E+01 9.09091E-01
 -1      7134 4.24264E+01 4.24264E+01 1.81818E+00
 -1      7135 4.24264E+01 4.24264E+01 2.72727E+00
 -1      7136 4.24264E+01 4.24264E+01 3.63636E+00
 -1      7137 4.24264E+01 4.24264E+01 4.54545E+00
 -1      7138 4.24264E+01 4.24264E+01 5.45455E+00
 -1      7139 4.24264E+01 4.24264E+01 6.36364E+00
 -1      7140 4.24264E+01 4.24264E+01 7.27273E+00
 -1      7141 4.24264E+01 4.24264E+01 8.18182E+00
 -1      7142 4.24264E+01 4.24264E+01 9.09091E+00
 -1      7143 3.52671E+01 4.85410E+01 9.09091E-01
 -1      7144 3.52671E+01 4.85410E+01 1.81818E+00
 -1      7145 3.52671E+01 4.85410E+01 2.72727E+00
 -1      7146 3.52671E+01 4.85410E+01 3.63636E+00
 -1      7147 3.52671E+01 4.85410E+01 4.54545E+00
 -1      7148 3.52671E+01 4.85410E+01 5.45455E+00
 -1      7149 3.52671E+01 4.85410E+01 6.36364E+00
 -1      7150 3.52671E+01 4.85410E+01 7.27273E+00
 -1      7151 3.52671E+01 4.85410E+01 8.18182E+00
 -1      7152 3.52671E+01 4.85410E+01 9.09091E+00
 -1      7153 2.72394E+01 5.34604E+01 9.09091E-01
 -1      7154 2.72394E+01 5.34604E+01 1.81818E+00
 -1      7155 2.72394E+01 5.34604E+01 2.72727E+00
 -1      7156 2.72394E+01 5.34604E+01 3.63636E+00
 -1      7157 2.72394E+01 5.34604E+01 4.54545E+00
 -1      7158 2.72394E+01 5.34604E+01 5.45455E+00
 -1      7159 2.72394E+01 5.34604E+01 6.36364E+00
 -1      7160 2.72394E+01 5.34604E+01 7.27273E+00
 -1      7161 2.72394E+01 5.34604E+01 8.18182E+00
 -1      7162 2.72394E+01 5.34604E+01 9.09091E+00
 -1      7163 1.85410E+01 5.70634E+01 9.09091E-01
 -1      7164 1.85410E+01 5.70634E+01 1.81818E+00
 -1      7165 1.85410E+01 5.70634E+01 2.72727E+00
 -1      7166 1.85410E+01 5.70634E+01 3.63636E+00
 -1      7167 1.85410E+01 5.70634E+01 4.54545E+00
 -1      7168 1.85410E+01 5.70634E+01 5.45455E+00
 -1      7169 1.85410E+01 5.70634E+01 6.36364E+00
 -1      7170 1.85410E+01 5.70634E+01 7.27273E+00
 -1      7171 1.85410E+01 5.70634E+01 8.18182E+00
 -1      7172 1.85410E+01 5.70634E+01 9.09091E+00
 -1      7173 9.38607E+00 5.92613E+01 9.09091E-01
 -1      7174 9.38607E+00 5.92613E+01 1.81818E+00
 -1      7175 9.38607E+00 5.92613E+01 2.72727E+00
 -1      7176 9.38607E+00 5.92613E+01 3.63636E+00
 -1      7177 9.38607E+00 5.92613E+01 4.54545E+00
 -1      7178 9.38607E+00 5.92613E+01 5.45455E+00
 -1      7179 9.38607E+00 5.92613E+01 6.36364E+00
 -1      7180 9.38607E+00 5.92613E+01 7.27273E+00
 -1      7181 9.38607E+00 5.92613E+01 8.18182E+00
 -1      7182 9.38607E+00 5.92613E+01 9.09091E+00
 -1      7183 6.17305E+01 9.77715E+00 9.09091E-01
 -1      7184 6.17305E+01 9.77715E+00 1.81818E+00
 -1      7185 6.17305E+01 9.77715E+00 2.72727E+00
 -1      7186 6.17305E+01 9.77715E+00 3.63636E+00
 -1      7187 6.17305E+01 9.77715E+00 4.54545E+00
 -1      7188 6.17305E+01 9.77715E+00 5.45455E+00
 -1      7189 6.17305E+01 9.77715E+00 6.36364E+00
 -1      7190 6.17305E+01 9.77715E+00 7.27273E+00
 -1      7191 6.17305E+01 9.77715E+00 8.18182E+00
 -1      7192 6.17305E+01 9.77715E+00 9.09091E+00
 -1      7193 5.94410E+01 1.93136E+01 9.09091E-01
 -1      7194 5.94410E+01 1.93136E+01 1.81818E+00
 -1      7195 5.94410E+01 1.93136E+01 2.72727E+00
 -1      7196 5.94410E+01 1.93136E+01 3.63636E+00
 -1      7197 5.94410E+01 1.93136E+01 4.54545E+00
 -1      7198 5.94410E+01 1.93136E+01 5.45455E+00
 -1      7199 5.94410E+01 1.93136E+01 6.36364E+00
 -1      7200 5.94410E+01 1.93136E+01 7.27273E+00
 -1      7201 5.94410E+01 1.93136E+01 8.18182E+00
 -1      7202 5.94410E+01 1.93136E+01 9.09091E+00
 -1      7203 5.56879E+01 2.83744E+01 9.09091E-01
 -1      7204 5.56879E+01 2.83744E+01 1.81818E+00
 -1      7205 5.56879E+01 2.83744E+01 2.72727E+00
 -1      7206 5.56879E+01 2.83744E+01 3.63636E+00
 -1      7207 5.56879E+01 2.83744E+01 4.54545E+00
 -1      7208 5.56879E+01 2.83744E+01 5.45455E+00
 -1      7209 5.56879E+01 2.83744E+01 6.36364E+00
 -1      7210 5.56879E+01 2.83744E+01 7.27273E+00
 -1      7211 5.56879E+01 2.83744E+01 8.18182E+00
 -1      7212 5.56879E+01 2.83744E+01 9.09091E+00
 -1      7213 5.05636E+01 3.67366E+01 9.09091E-01
 -1      7214 5.05636E+01 3.67366E+01 1.81818E+00
 -1      7215 5.05636E+01 3.67366E+01 2.72727E+00
 -1      7216 5.05636E+01 3.67366E+01 3.63636E+00
 -1      7217 5.05636E+01 3.67366E+01 4.54545E+00
 -1      7218 5.05636E+01 3.67366E+01 5.45455E+00
 -1      7219 5.05636E+01 3.67366E+01 6.36364E+00
 -1      7220 5.05636E+01 3.67366E+01 7.27273E+00
 -1      7221 5.05636E+01 3.67366E+01 8.18182E+00
 -1      7222 5.05636E+01 3.67366E+01 9.09091E+00
 -1      7223 4.41942E+01 4.41942E+01 9.09091E-01
 -1      7224 4.41942E+01 4.41942E+01 1.81818E+00
 -1      7225 4.41942E+01 4.41942E+01 2.72727E+00
 -1      7226 4.41942E+01 4.41942E+01 3.63636E+00
 -1      7227 4.41942E+01 4.41942E+01 4.54545E+00
 -1      7228 4.41942E+01 4.41942E+01 5.45455E+00
 -1      7229 4.41942E+01 4.41942E+01 6.36364E+00
 -1      7230 4.41942E+01 4.41942E+01 7.27273E+00
 -1      7231 4.41942E+01 4.41942E+01 8.18182E+00
 -1      7232 4.41942E+01 4.41942E+01 9.09091E+00
 -1      7233 3.67366E+01 5.05636E+01 9.09091E-01
 -1      7234 3.67366E+01 5.05636E+01 1.81818E+00
 -1      7235 3.67366E+01 5.05636E+01 2.72727E+00
 -1      7236 3.67366E+01 5.05636E+01 3.63636E+00
 -1      7237 3.67366E+01 5.05636E+01 4.54545E+00
 -1      7238 3.67366E+01 5.05636E+01 5.45455E+00
 -1      7239 3.67366E+01 5.05636E+01 6.36364E+00
 -1      7240 3.67366E+01 5.05636E+01 7.27273E+00
 -1      7241 3.67366E+01 5.05636E+01 8.18182E+00
 -1      7242 3.67366E+01 5.05636E+01 9.09091E+00
 -1      7243 2.83744E+01 5.56879E+01 9.09091E-01
 -1      7244 2.83744E+01 5.56879E+01 1.81818E+00
 -1      7245 2.83744E+01 5.56879E+01 2.72727E+00
 -1      7246 2.83744E+01 5.56879E+01 3.63636E+00
 -1      7247 2.83744E+01 5.56879E+01 4.54545E+00
 -1      7248 2.83744E+01 5.56879E+01 5.45455E+00
 -1      7249 2.83744E+01 5.56879E+01 6.36364E+00
 -1      7250 2.83744E+01 5.56879E+01 7.27273E+00
 -1      7251 2.83744E+01 5.56879E+01 8.18182E+00
 -1      7252 2.83744E+01 5.56879E+01 9.09091E+00
 -1      7253 1.93136E+01 5.94410E+01 9.09091E-01
 -1      7254 1.93136E+01 5.94410E+01 1.81818E+00
 -1      7255 1.93136E+01 5.94410E+01 2.72727E+00
 -1      7256 1.93136E+01 5.94410E+01 3.63636E+00
 -1      7257 1.93136E+01 5.94410E+01 4.54545E+00
 -1      7258 1.93136E+01 5.94410E+01 5.45455E+00
 -1      7259 1.93136E+01 5.94410E+01 6.36364E+00
 -1      7260 1.93136E+01 5.94410E+01 7.27273E+00
 -1      7261 1.93136E+01 5.94410E+01 8.18182E+00
 -1      7262 1.93136E+01 5.94410E+01 9.09091E+00
 -1      7263 9.77715E+00 6.17305E+01 9.09091E-01
 -1      7264 9.77715E+00 6.17305E+01 1.81818E+00
 -1      7265 9.77715E+00 6.17305E+01 2.72727E+00
 -1      7266 9.77715E+00 6.17305E+01 3.63636E+00
 -1      7267 9.77715E+00 6.17305E+01 4.54545E+00
 -1      7268 9.77715E+00 6.17305E+01 5.45455E+00
 -1      7269 9.77715E+00 6.17305E+01 6.36364E+00
 -1      7270 9.77715E+00 6.17305E+01 7.27273E+00
 -1      7271 9.77715E+00 6.17305E+01 8.18182E+00
 -1      7272 9.77715E+00 6.17305E+01 9.09091E+00
 -1      7273 6.41997E+01 1.01682E+01 9.09091E-01
 -1      7274 6.41997E+01 1.01682E+01 1.81818E+00
 -1      7275 6.41997E+01 1.01682E+01 2.72727E+00
 -1      7276 6.41997E+01 1.01682E+01 3.63636E+00
 -1      7277 6.41997E+01 1.01682E+01 4.54545E+00
 -1      7278 6.41997E+01 1.01682E+01 5.45455E+00
 -1      7279 6.41997E+01 1.01682E+01 6.36364E+00
 -1      7280 6.41997E+01 1.01682E+01 7.27273E+00
 -1      7281 6.41997E+01 1.01682E+01 8.18182E+00
 -1      7282 6.41997E+01 1.01682E+01 9.09091E+00
 -1      7283 6.18187E+01 2.00861E+01 9.09091E-01
 -1      7284 6.18187E+01 2.00861E+01 1.81818E+00
 -1      7285 6.18187E+01 2.00861E+01 2.72727E+00
 -1      7286 6.18187E+01 2.00861E+01 3.63636E+00
 -1      7287 6.18187E+01 2.00861E+01 4.54545E+00
 -1      7288 6.18187E+01 2.00861E+01 5.45455E+00
 -1      7289 6.18187E+01 2.00861E+01 6.36364E+00
 -1      7290 6.18187E+01 2.00861E+01 7.27273E+00
 -1      7291 6.18187E+01 2.00861E+01 8.18182E+00
 -1      7292 6.18187E+01 2.00861E+01 9.09091E+00
 -1      7293 5.79154E+01 2.95094E+01 9.09091E-01
 -1      7294 5.79154E+01 2.95094E+01 1.81818E+00
 -1      7295 5.79154E+01 2.95094E+01 2.72727E+00
 -1      7296 5.79154E+01 2.95094E+01 3.63636E+00
 -1      7297 5.79154E+01 2.95094E+01 4.54545E+00
 -1      7298 5.79154E+01 2.95094E+01 5.45455E+00
 -1      7299 5.79154E+01 2.95094E+01 6.36364E+00
 -1      7300 5.79154E+01 2.95094E+01 7.27273E+00
 -1      7301 5.79154E+01 2.95094E+01 8.18182E+00
 -1      7302 5.79154E+01 2.95094E+01 9.09091E+00
 -1      7303 5.25861E+01 3.82060E+01 9.09091E-01
 -1      7304 5.25861E+01 3.82060E+01 1.81818E+00
 -1      7305 5.25861E+01 3.82060E+01 2.72727E+00
 -1      7306 5.25861E+01 3.82060E+01 3.63636E+00
 -1      7307 5.25861E+01 3.82060E+01 4.54545E+00
 -1      7308 5.25861E+01 3.82060E+01 5.45455E+00
 -1      7309 5.25861E+01 3.82060E+01 6.36364E+00
 -1      7310 5.25861E+01 3.82060E+01 7.27273E+00
 -1      7311 5.25861E+01 3.82060E+01 8.18182E+00
 -1      7312 5.25861E+01 3.82060E+01 9.09091E+00
 -1      7313 4.59619E+01 4.59619E+01 9.09091E-01
 -1      7314 4.59619E+01 4.59619E+01 1.81818E+00
 -1      7315 4.59619E+01 4.59619E+01 2.72727E+00
 -1      7316 4.59619E+01 4.59619E+01 3.63636E+00
 -1      7317 4.59619E+01 4.59619E+01 4.54545E+00
 -1      7318 4.59619E+01 4.59619E+01 5.45455E+00
 -1      7319 4.59619E+01 4.59619E+01 6.36364E+00
 -1      7320 4.59619E+01 4.59619E+01 7.27273E+00
 -1      7321 4.59619E+01 4.59619E+01 8.18182E+00
 -1      7322 4.59619E+01 4.59619E+01 9.09091E+00
 -1      7323 3.82060E+01 5.25861E+01 9.09091E-01
 -1      7324 3.82060E+01 5.25861E+01 1.81818E+00
 -1      7325 3.82060E+01 5.25861E+01 2.72727E+00
 -1      7326 3.82060E+01 5.25861E+01 3.63636E+00
 -1      7327 3.82060E+01 5.25861E+01 4.54545E+00
 -1      7328 3.82060E+01 5.25861E+01 5.45455E+00
 -1      7329 3.82060E+01 5.25861E+01 6.36364E+00
 -1      7330 3.82060E+01 5.25861E+01 7.27273E+00
 -1      7331 3.82060E+01 5.25861E+01 8.18182E+00
 -1      7332 3.82060E+01 5.25861E+01 9.09091E+00
 -1      7333 2.95094E+01 5.79154E+01 9.09091E-01
 -1      7334 2.95094E+01 5.79154E+01 1.81818E+00
 -1      7335 2.95094E+01 5.79154E+01 2.72727E+00
 -1      7336 2.95094E+01 5.79154E+01 3.63636E+00
 -1      7337 2.95094E+01 5.79154E+01 4.54545E+00
 -1      7338 2.95094E+01 5.79154E+01 5.45455E+00
 -1      7339 2.95094E+01 5.79154E+01 6.36364E+00
 -1      7340 2.95094E+01 5.79154E+01 7.27273E+00
 -1      7341 2.95094E+01 5.79154E+01 8.18182E+00
 -1      7342 2.95094E+01 5.79154E+01 9.09091E+00
 -1      7343 2.00861E+01 6.18187E+01 9.09091E-01
 -1      7344 2.00861E+01 6.18187E+01 1.81818E+00
 -1      7345 2.00861E+01 6.18187E+01 2.72727E+00
 -1      7346 2.00861E+01 6.18187E+01 3.63636E+00
 -1      7347 2.00861E+01 6.18187E+01 4.54545E+00
 -1      7348 2.00861E+01 6.18187E+01 5.45455E+00
 -1      7349 2.00861E+01 6.18187E+01 6.36364E+00
 -1      7350 2.00861E+01 6.18187E+01 7.27273E+00
 -1      7351 2.00861E+01 6.18187E+01 8.18182E+00
 -1      7352 2.00861E+01 6.18187E+01 9.09091E+00
 -1      7353 1.01682E+01 6.41997E+01 9.09091E-01
 -1      7354 1.01682E+01 6.41997E+01 1.81818E+00
 -1      7355 1.01682E+01 6.41997E+01 2.72727E+00
 -1      7356 1.01682E+01 6.41997E+01 3.63636E+00
 -1      7357 1.01682E+01 6.41997E+01 4.54545E+00
 -1      7358 1.01682E+01 6.41997E+01 5.45455E+00
 -1      7359 1.01682E+01 6.41997E+01 6.36364E+00
 -1      7360 1.01682E+01 6.41997E+01 7.27273E+00
 -1      7361 1.01682E+01 6.41997E+01 8.18182E+00
 -1      7362 1.01682E+01 6.41997E+01 9.09091E+00
 -1      7363 6.66690E+01 1.05593E+01 9.09091E-01
 -1      7364 6.66690E+01 1.05593E+01 1.81818E+00
 -1      7365 6.66690E+01 1.05593E+01 2.72727E+00
 -1      7366 6.66690E+01 1.05593E+01 3.63636E+00
 -1      7367 6.66690E+01 1.05593E+01 4.54545E+00
 -1      7368 6.66690E+01 1.05593E+01 5.45455E+00
 -1      7369 6.66690E+01 1.05593E+01 6.36364E+00
 -1      7370 6.66690E+01 1.05593E+01 7.27273E+00
 -1      7371 6.66690E+01 1.05593E+01 8.18182E+00
 -1      7372 6.66690E+01 1.05593E+01 9.09091E+00
 -1      7373 6.41963E+01 2.08586E+01 9.09091E-01
 -1      7374 6.41963E+01 2.08586E+01 1.81818E+00
 -1      7375 6.41963E+01 2.08586E+01 2.72727E+00
 -1      7376 6.41963E+01 2.08586E+01 3.63636E+00
 -1      7377 6.41963E+01 2.08586E+01 4.54545E+00
 -1      7378 6.41963E+01 2.08586E+01 5.45455E+00
 -1      7379 6.41963E+01 2.08586E+01 6.36364E+00
 -1      7380 6.41963E+01 2.08586E+01 7.27273E+00
 -1      7381 6.41963E+01 2.08586E+01 8.18182E+00
 -1      7382 6.41963E+01 2.08586E+01 9.09091E+00
 -1      7383 6.01429E+01 3.06444E+01 9.09091E-01
 -1      7384 6.01429E+01 3.06444E+01 1.81818E+00
 -1      7385 6.01429E+01 3.06444E+01 2.72727E+00
 -1      7386 6.01429E+01 3.06444E+01 3.63636E+00
 -1      7387 6.01429E+01 3.06444E+01 4.54545E+00
 -1      7388 6.01429E+01 3.06444E+01 5.45455E+00
 -1      7389 6.01429E+01 3.06444E+01 6.36364E+00
 -1      7390 6.01429E+01 3.06444E+01 7.27273E+00
 -1      7391 6.01429E+01 3.06444E+01 8.18182E+00
 -1      7392 6.01429E+01 3.06444E+01 9.09091E+00
 -1      7393 5.46086E+01 3.96755E+01 9.09091E-01
 -1      7394 5.46086E+01 3.96755E+01 1.81818E+00
 -1      7395 5.46086E+01 3.96755E+01 2.72727E+00
 -1      7396 5.46086E+01 3.96755E+01 3.63636E+00
 -1      7397 5.46086E+01 3.96755E+01 4.54545E+00
 -1      7398 5.46086E+01 3.96755E+01 5.45455E+00
 -1      7399 5.46086E+01 3.96755E+01 6.36364E+00
 -1      7400 5.46086E+01 3.96755E+01 7.27273E+00
 -1      7401 5.46086E+01 3.96755E+01 8.18182E+00
 -1      7402 5.46086E+01 3.96755E+01 9.09091E+00
 -1      7403 4.77297E+01 4.77297E+01 9.09091E-01
 -1      7404 4.77297E+01 4.77297E+01 1.81818E+00
 -1      7405 4.77297E+01 4.77297E+01 2.72727E+00
 -1      7406 4.77297E+01 4.77297E+01 3.63636E+00
 -1      7407 4.77297E+01 4.77297E+01 4.54545E+00
 -1      7408 4.77297E+01 4.77297E+01 5.45455E+00
 -1      7409 4.77297E+01 4.77297E+01 6.36364E+00
 -1      7410 4.77297E+01 4.77297E+01 7.27273E+00
 -1      7411 4.77297E+01 4.77297E+01 8.18182E+00
 -1      7412 4.77297E+01 4.77297E+01 9.09091E+00
 -1      7413 3.96755E+01 5.46086E+01 9.09091E-01
 -1      7414 3.96755E+01 5.46086E+01 1.81818E+00
 -1      7415 3.96755E+01 5.46086E+01 2.72727E+00
 -1      7416 3.96755E+01 5.46086E+01 3.63636E+00
 -1      7417 3.96755E+01 5.46086E+01 4.54545E+00
 -1      7418 3.96755E+01 5.46086E+01 5.45455E+00
 -1      7419 3.96755E+01 5.46086E+01 6.36364E+00
 -1      7420 3.96755E+01 5.46086E+01 7.27273E+00
 -1      7421 3.96755E+01 5.46086E+01 8.18182E+00
 -1      7422 3.96755E+01 5.46086E+01 9.09091E+00
 -1      7423 3.06444E+01 6.01429E+01 9.09091E-01
 -1      7424 3.06444E+01 6.01429E+01 1.81818E+00
 -1      7425 3.06444E+01 6.01429E+01 2.72727E+00
 -1      7426 3.06444E+01 6.01429E+01 3.63636E+00
 -1      7427 3.06444E+01 6.01429E+01 4.54545E+00
 -1      7428 3.06444E+01 6.01429E+01 5.45455E+00
 -1      7429 3.06444E+01 6.01429E+01 6.36364E+00
 -1      7430 3.06444E+01 6.01429E+01 7.27273E+00
 -1      7431 3.06444E+01 6.01429E+01 8.18182E+00
 -1      7432 3.06444E+01 6.01429E+01 9.09091E+00
 -1      7433 2.08586E+01 6.41963E+01 9.09091E-01
 -1      7434 2.08586E+01 6.41963E+01 1.81818E+00
 -1      7435 2.08586E+01 6.41963E+01 2.72727E+00
 -1      7436 2.08586E+01 6.41963E+01 3.63636E+00
 -1      7437 2.08586E+01 6.41963E+01 4.54545E+00
 -1      7438 2.08586E+01 6.41963E+01 5.45455E+00
 -1      7439 2.08586E+01 6.41963E+01 6.36364E+00
 -1      7440 2.08586E+01 6.41963E+01 7.27273E+00
 -1      7441 2.08586E+01 6.41963E+01 8.18182E+00
 -1      7442 2.08586E+01 6.41963E+01 9.09091E+00
 -1      7443 1.05593E+01 6.66690E+01 9.09091E-01
 -1      7444 1.05593E+01 6.66690E+01 1.81818E+00
 -1      7445 1.05593E+01 6.66690E+01 2.72727E+00
 -1      7446 1.05593E+01 6.66690E+01 3.63636E+00
 -1      7447 1.05593E+01 6.66690E+01 4.54545E+00
 -1      7448 1.05593E+01 6.66690E+01 5.45455E+00
 -1      7449 1.05593E+01 6.66690E+01 6.36364E+00
 -1      7450 1.05593E+01 6.66690E+01 7.27273E+00
 -1      7451 1.05593E+01 6.66690E+01 8.18182E+00
 -1      7452 1.05593E+01 6.66690E+01 9.09091E+00
 -1      7453 6.91382E+01 1.09504E+01 9.09091E-01
 -1      7454 6.91382E+01 1.09504E+01 1.81818E+00
 -1      7455 6.91382E+01 1.09504E+01 2.72727E+00
 -1      7456 6.91382E+01 1.09504E+01 3.63636E+00
 -1      7457 6.91382E+01 1.09504E+01 4.54545E+00
 -1      7458 6.91382E+01 1.09504E+01 5.45455E+00
 -1      7459 6.91382E+01 1.09504E+01 6.36364E+00
 -1      7460 6.91382E+01 1.09504E+01 7.27273E+00
 -1      7461 6.91382E+01 1.09504E+01 8.18182E+00
 -1      7462 6.91382E+01 1.09504E+01 9.09091E+00
 -1      7463 6.65740E+01 2.16312E+01 9.09091E-01
 -1      7464 6.65740E+01 2.16312E+01 1.81818E+00
 -1      7465 6.65740E+01 2.16312E+01 2.72727E+00
 -1      7466 6.65740E+01 2.16312E+01 3.63636E+00
 -1      7467 6.65740E+01 2.16312E+01 4.54545E+00
 -1      7468 6.65740E+01 2.16312E+01 5.45455E+00
 -1      7469 6.65740E+01 2.16312E+01 6.36364E+00
 -1      7470 6.65740E+01 2.16312E+01 7.27273E+00
 -1      7471 6.65740E+01 2.16312E+01 8.18182E+00
 -1      7472 6.65740E+01 2.16312E+01 9.09091E+00
 -1      7473 6.23705E+01 3.17793E+01 9.09091E-01
 -1      7474 6.23705E+01 3.17793E+01 1.81818E+00
 -1      7475 6.23705E+01 3.17793E+01 2.72727E+00
 -1      7476 6.23705E+01 3.17793E+01 3.63636E+00
 -1      7477 6.23705E+01 3.17793E+01 4.54545E+00
 -1      7478 6.23705E+01 3.17793E+01 5.45455E+00
 -1      7479 6.23705E+01 3.17793E+01 6.36364E+00
 -1      7480 6.23705E+01 3.17793E+01 7.27273E+00
 -1      7481 6.23705E+01 3.17793E+01 8.18182E+00
 -1      7482 6.23705E+01 3.17793E+01 9.09091E+00
 -1      7483 5.66312E+01 4.11450E+01 9.09091E-01
 -1      7484 5.66312E+01 4.11450E+01 1.81818E+00
 -1      7485 5.66312E+01 4.11450E+01 2.72727E+00
 -1      7486 5.66312E+01 4.11450E+01 3.63636E+00
 -1      7487 5.66312E+01 4.11450E+01 4.54545E+00
 -1      7488 5.66312E+01 4.11450E+01 5.45455E+00
 -1      7489 5.66312E+01 4.11450E+01 6.36364E+00
 -1      7490 5.66312E+01 4.11450E+01 7.27273E+00
 -1      7491 5.66312E+01 4.11450E+01 8.18182E+00
 -1      7492 5.66312E+01 4.11450E+01 9.09091E+00
 -1      7493 4.94975E+01 4.94975E+01 9.09091E-01
 -1      7494 4.94975E+01 4.94975E+01 1.81818E+00
 -1      7495 4.94975E+01 4.94975E+01 2.72727E+00
 -1      7496 4.94975E+01 4.94975E+01 3.63636E+00
 -1      7497 4.94975E+01 4.94975E+01 4.54545E+00
 -1      7498 4.94975E+01 4.94975E+01 5.45455E+00
 -1      7499 4.94975E+01 4.94975E+01 6.36364E+00
 -1      7500 4.94975E+01 4.94975E+01 7.27273E+00
 -1      7501 4.94975E+01 4.94975E+01 8.18182E+00
 -1      7502 4.94975E+01 4.94975E+01 9.09091E+00
 -1      7503 4.11450E+01 5.66312E+01 9.09091E-01
 -1      7504 4.11450E+01 5.66312E+01 1.81818E+00
 -1      7505 4.11450E+01 5.66312E+01 2.72727E+00
 -1      7506 4.11450E+01 5.66312E+01 3.63636E+00
 -1      7507 4.11450E+01 5.66312E+01 4.54545E+00
 -1      7508 4.11450E+01 5.66312E+01 5.45455E+00
 -1      7509 4.11450E+01 5.66312E+01 6.36364E+00
 -1      7510 4.11450E+01 5.66312E+01 7.27273E+00
 -1      7511 4.11450E+01 5.66312E+01 8.18182E+00
 -1      7512 4.11450E+01 5.66312E+01 9.09091E+00
 -1      7513 3.17793E+01 6.23705E+01 9.09091E-01
 -1      7514 3.17793E+01 6.23705E+01 1.81818E+00
 -1      7515 3.17793E+01 6.23705E+01 2.72727E+00
 -1      7516 3.17793E+01 6.23705E+01 3.63636E+00
 -1      7517 3.17793E+01 6.23705E+01 4.54545E+00
 -1      7518 3.17793E+01 6.23705E+01 5.45455E+00
 -1      7519 3.17793E+01 6.23705E+01 6.36364E+00
 -1      7520 3.17793E+01 6.23705E+01 7.27273E+00
 -1      7521 3.17793E+01 6.23705E+01 8.18182E+00
 -1      7522 3.17793E+01 6.23705E+01 9.09091E+00
 -1      7523 2.16312E+01 6.65740E+01 9.09091E-01
 -1      7524 2.16312E+01 6.65740E+01 1.81818E+00
 -1      7525 2.16312E+01 6.65740E+01 2.72727E+00
 -1      7526 2.16312E+01 6.65740E+01 3.63636E+00
 -1      7527 2.16312E+01 6.65740E+01 4.54545E+00
 -1      7528 2.16312E+01 6.65740E+01 5.45455E+00
 -1      7529 2.16312E+01 6.65740E+01 6.36364E+00
 -1      7530 2.16312E+01 6.65740E+01 7.27273E+00
 -1      7531 2.16312E+01 6.65740E+01 8.18182E+00
 -1      7532 2.16312E+01 6.65740E+01 9.09091E+00
 -1      7533 1.09504E+01 6.91382E+01 9.09091E-01
 -1      7534 1.09504E+01 6.91382E+01 1.81818E+00
 -1      7535 1.09504E+01 6.91382E+01 2.72727E+00
 -1      7536 1.09504E+01 6.91382E+01 3.63636E+00
 -1      7537 1.09504E+01 6.91382E+01 4.54545E+00
 -1      7538 1.09504E+01 6.91382E+01 5.45455E+00
 -1      7539 1.09504E+01 6.91382E+01 6.36364E+00
 -1      7540 1.09504E+01 6.91382E+01 7.27273E+00
 -1      7541 1.09504E+01 6.91382E+01 8.18182E+00
 -1      7542 1.09504E+01 6.91382E+01 9.09091E+00
 -1      7543 7.16074E+01 1.13415E+01 9.09091E-01
 -1      7544 7.16074E+01 1.13415E+01 1.81818E+00
 -1      7545 7.16074E+01 1.13415E+01 2.72727E+00
 -1      7546 7.16074E+01 1.13415E+01 3.63636E+00
 -1      7547 7.16074E+01 1.13415E+01 4.54545E+00
 -1      7548 7.16074E+01 1.13415E+01 5.45455E+00
 -1      7549 7.16074E+01 1.13415E+01 6.36364E+00
 -1      7550 7.16074E+01 1.13415E+01 7.27273E+00
 -1      7551 7.16074E+01 1.13415E+01 8.18182E+00
 -1      7552 7.16074E+01 1.13415E+01 9.09091E+00
 -1      7553 6.89516E+01 2.24037E+01 9.09091E-01
 -1      7554 6.89516E+01 2.24037E+01 1.81818E+00
 -1      7555 6.89516E+01 2.24037E+01 2.72727E+00
 -1      7556 6.89516E+01 2.24037E+01 3.63636E+00
 -1      7557 6.89516E+01 2.24037E+01 4.54545E+00
 -1      7558 6.89516E+01 2.24037E+01 5.45455E+00
 -1      7559 6.89516E+01 2.24037E+01 6.36364E+00
 -1      7560 6.89516E+01 2.24037E+01 7.27273E+00
 -1      7561 6.89516E+01 2.24037E+01 8.18182E+00
 -1      7562 6.89516E+01 2.24037E+01 9.09091E+00
 -1      7563 6.45980E+01 3.29143E+01 9.09091E-01
 -1      7564 6.45980E+01 3.29143E+01 1.81818E+00
 -1      7565 6.45980E+01 3.29143E+01 2.72727E+00
 -1      7566 6.45980E+01 3.29143E+01 3.63636E+00
 -1      7567 6.45980E+01 3.29143E+01 4.54545E+00
 -1      7568 6.45980E+01 3.29143E+01 5.45455E+00
 -1      7569 6.45980E+01 3.29143E+01 6.36364E+00
 -1      7570 6.45980E+01 3.29143E+01 7.27273E+00
 -1      7571 6.45980E+01 3.29143E+01 8.18182E+00
 -1      7572 6.45980E+01 3.29143E+01 9.09091E+00
 -1      7573 5.86537E+01 4.26144E+01 9.09091E-01
 -1      7574 5.86537E+01 4.26144E+01 1.81818E+00
 -1      7575 5.86537E+01 4.26144E+01 2.72727E+00
 -1      7576 5.86537E+01 4.26144E+01 3.63636E+00
 -1      7577 5.86537E+01 4.26144E+01 4.54545E+00
 -1      7578 5.86537E+01 4.26144E+01 5.45455E+00
 -1      7579 5.86537E+01 4.26144E+01 6.36364E+00
 -1      7580 5.86537E+01 4.26144E+01 7.27273E+00
 -1      7581 5.86537E+01 4.26144E+01 8.18182E+00
 -1      7582 5.86537E+01 4.26144E+01 9.09091E+00
 -1      7583 5.12652E+01 5.12652E+01 9.09091E-01
 -1      7584 5.12652E+01 5.12652E+01 1.81818E+00
 -1      7585 5.12652E+01 5.12652E+01 2.72727E+00
 -1      7586 5.12652E+01 5.12652E+01 3.63636E+00
 -1      7587 5.12652E+01 5.12652E+01 4.54545E+00
 -1      7588 5.12652E+01 5.12652E+01 5.45455E+00
 -1      7589 5.12652E+01 5.12652E+01 6.36364E+00
 -1      7590 5.12652E+01 5.12652E+01 7.27273E+00
 -1      7591 5.12652E+01 5.12652E+01 8.18182E+00
 -1      7592 5.12652E+01 5.12652E+01 9.09091E+00
 -1      7593 4.26144E+01 5.86537E+01 9.09091E-01
 -1      7594 4.26144E+01 5.86537E+01 1.81818E+00
 -1      7595 4.26144E+01 5.86537E+01 2.72727E+00
 -1      7596 4.26144E+01 5.86537E+01 3.63636E+00
 -1      7597 4.26144E+01 5.86537E+01 4.54545E+00
 -1      7598 4.26144E+01 5.86537E+01 5.45455E+00
 -1      7599 4.26144E+01 5.86537E+01 6.36364E+00
 -1      7600 4.26144E+01 5.86537E+01 7.27273E+00
 -1      7601 4.26144E+01 5.86537E+01 8.18182E+00
 -1      7602 4.26144E+01 5.86537E+01 9.09091E+00
 -1      7603 3.29143E+01 6.45980E+01 9.09091E-01
 -1      7604 3.29143E+01 6.45980E+01 1.81818E+00
 -1      7605 3.29143E+01 6.45980E+01 2.72727E+00
 -1      7606 3.29143E+01 6.45980E+01 3.63636E+00
 -1      7607 3.29143E+01 6.45980E+01 4.54545E+00
 -1      7608 3.29143E+01 6.45980E+01 5.45455E+00
 -1      7609 3.29143E+01 6.45980E+01 6.36364E+00
 -1      7610 3.29143E+01 6.45980E+01 7.27273E+00
 -1      7611 3.29143E+01 6.45980E+01 8.18182E+00
 -1      7612 3.29143E+01 6.45980E+01 9.09091E+00
 -1      7613 2.24037E+01 6.89516E+01 9.09091E-01
 -1      7614 2.24037E+01 6.89516E+01 1.81818E+00
 -1      7615 2.24037E+01 6.89516E+01 2.72727E+00
 -1      7616 2.24037E+01 6.89516E+01 3.63636E+00
 -1      7617 2.24037E+01 6.89516E+01 4.54545E+00
 -1      7618 2.24037E+01 6.89516E+01 5.45455E+00
 -1      7619 2.24037E+01 6.89516E+01 6.36364E+00
 -1      7620 2.24037E+01 6.89516E+01 7.27273E+00
 -1      7621 2.24037E+01 6.89516E+01 8.18182E+00
 -1      7622 2.24037E+01 6.89516E+01 9.09091E+00
 -1      7623 1.13415E+01 7.16074E+01 9.09091E-01
 -1      7624 1.13415E+01 7.16074E+01 1.81818E+00
 -1      7625 1.13415E+01 7.16074E+01 2.72727E+00
 -1      7626 1.13415E+01 7.16074E+01 3.63636E+00
 -1      7627 1.13415E+01 7.16074E+01 4.54545E+00
 -1      7628 1.13415E+01 7.16074E+01 5.45455E+00
 -1      7629 1.13415E+01 7.16074E+01 6.36364E+00
 -1      7630 1.13415E+01 7.16074E+01 7.27273E+00
 -1      7631 1.13415E+01 7.16074E+01 8.18182E+00
 -1      7632 1.13415E+01 7.16074E+01 9.09091E+00
 -1      7633 7.40766E+01 1.17326E+01 9.09091E-01
 -1      7634 7.40766E+01 1.17326E+01 1.81818E+00
 -1      7635 7.40766E+01 1.17326E+01 2.72727E+00
 -1      7636 7.40766E+01 1.17326E+01 3.63636E+00
 -1      7637 7.40766E+01 1.17326E+01 4.54545E+00
 -1      7638 7.40766E+01 1.17326E+01 5.45455E+00
 -1      7639 7.40766E+01 1.17326E+01 6.36364E+00
 -1      7640 7.40766E+01 1.17326E+01 7.27273E+00
 -1      7641 7.40766E+01 1.17326E+01 8.18182E+00
 -1      7642 7.40766E+01 1.17326E+01 9.09091E+00
 -1      7643 7.13292E+01 2.31763E+01 9.09091E-01
 -1      7644 7.13292E+01 2.31763E+01 1.81818E+00
 -1      7645 7.13292E+01 2.31763E+01 2.72727E+00
 -1      7646 7.13292E+01 2.31763E+01 3.63636E+00
 -1      7647 7.13292E+01 2.31763E+01 4.54545E+00
 -1      7648 7.13292E+01 2.31763E+01 5.45455E+00
 -1      7649 7.13292E+01 2.31763E+01 6.36364E+00
 -1      7650 7.13292E+01 2.31763E+01 7.27273E+00
 -1      7651 7.13292E+01 2.31763E+01 8.18182E+00
 -1      7652 7.13292E+01 2.31763E+01 9.09091E+00
 -1      7653 6.68255E+01 3.40493E+01 9.09091E-01
 -1      7654 6.68255E+01 3.40493E+01 1.81818E+00
 -1      7655 6.68255E+01 3.40493E+01 2.72727E+00
 -1      7656 6.68255E+01 3.40493E+01 3.63636E+00
 -1      7657 6.68255E+01 3.40493E+01 4.54545E+00
 -1      7658 6.68255E+01 3.40493E+01 5.45455E+00
 -1      7659 6.68255E+01 3.40493E+01 6.36364E+00
 -1      7660 6.68255E+01 3.40493E+01 7.27273E+00
 -1      7661 6.68255E+01 3.40493E+01 8.18182E+00
 -1      7662 6.68255E+01 3.40493E+01 9.09091E+00
 -1      7663 6.06763E+01 4.40839E+01 9.09091E-01
 -1      7664 6.06763E+01 4.40839E+01 1.81818E+00
 -1      7665 6.06763E+01 4.40839E+01 2.72727E+00
 -1      7666 6.06763E+01 4.40839E+01 3.63636E+00
 -1      7667 6.06763E+01 4.40839E+01 4.54545E+00
 -1      7668 6.06763E+01 4.40839E+01 5.45455E+00
 -1      7669 6.06763E+01 4.40839E+01 6.36364E+00
 -1      7670 6.06763E+01 4.40839E+01 7.27273E+00
 -1      7671 6.06763E+01 4.40839E+01 8.18182E+00
 -1      7672 6.06763E+01 4.40839E+01 9.09091E+00
 -1      7673 5.30330E+01 5.30330E+01 9.09091E-01
 -1      7674 5.30330E+01 5.30330E+01 1.81818E+00
 -1      7675 5.30330E+01 5.30330E+01 2.72727E+00
 -1      7676 5.30330E+01 5.30330E+01 3.63636E+00
 -1      7677 5.30330E+01 5.30330E+01 4.54545E+00
 -1      7678 5.30330E+01 5.30330E+01 5.45455E+00
 -1      7679 5.30330E+01 5.30330E+01 6.36364E+00
 -1      7680 5.30330E+01 5.30330E+01 7.27273E+00
 -1      7681 5.30330E+01 5.30330E+01 8.18182E+00
 -1      7682 5.30330E+01 5.30330E+01 9.09091E+00
 -1      7683 4.40839E+01 6.06763E+01 9.09091E-01
 -1      7684 4.40839E+01 6.06763E+01 1.81818E+00
 -1      7685 4.40839E+01 6.06763E+01 2.72727E+00
 -1      7686 4.40839E+01 6.06763E+01 3.63636E+00
 -1      7687 4.40839E+01 6.06763E+01 4.54545E+00
 -1      7688 4.40839E+01 6.06763E+01 5.45455E+00
 -1      7689 4.40839E+01 6.06763E+01 6.36364E+00
 -1      7690 4.40839E+01 6.06763E+01 7.27273E+00
 -1      7691 4.40839E+01 6.06763E+01 8.18182E+00
 -1      7692 4.40839E+01 6.06763E+01 9.09091E+00
 -1      7693 3.40493E+01 6.68255E+01 9.09091E-01
 -1      7694 3.40493E+01 6.68255E+01 1.81818E+00
 -1      7695 3.40493E+01 6.68255E+01 2.72727E+00
 -1      7696 3.40493E+01 6.68255E+01 3.63636E+00
 -1      7697 3.40493E+01 6.68255E+01 4.54545E+00
 -1      7698 3.40493E+01 6.68255E+01 5.45455E+00
 -1      7699 3.40493E+01 6.68255E+01 6.36364E+00
 -1      7700 3.40493E+01 6.68255E+01 7.27273E+00
 -1      7701 3.40493E+01 6.68255E+01 8.18182E+00
 -1      7702 3.40493E+01 6.68255E+01 9.09091E+00
 -1      7703 2.31763E+01 7.13292E+01 9.09091E-01
 -1      7704 2.31763E+01 7.13292E+01 1.81818E+00
 -1      7705 2.31763E+01 7.13292E+01 2.72727E+00
 -1      7706 2.31763E+01 7.13292E+01 3.63636E+00
 -1      7707 2.31763E+01 7.13292E+01 4.54545E+00
 -1      7708 2.31763E+01 7.13292E+01 5.45455E+00
 -1      7709 2.31763E+01 7.13292E+01 6.36364E+00
 -1      7710 2.31763E+01 7.13292E+01 7.27273E+00
 -1      7711 2.31763E+01 7.13292E+01 8.18182E+00
 -1      7712 2.31763E+01 7.13292E+01 9.09091E+00
 -1      7713 1.17326E+01 7.40766E+01 9.09091E-01
 -1      7714 1.17326E+01 7.40766E+01 1.81818E+00
 -1      7715 1.17326E+01 7.40766E+01 2.72727E+00
 -1      7716 1.17326E+01 7.40766E+01 3.63636E+00
 -1      7717 1.17326E+01 7.40766E+01 4.54545E+00
 -1      7718 1.17326E+01 7.40766E+01 5.45455E+00
 -1      7719 1.17326E+01 7.40766E+01 6.36364E+00
 -1      7720 1.17326E+01 7.40766E+01 7.27273E+00
 -1      7721 1.17326E+01 7.40766E+01 8.18182E+00
 -1      7722 1.17326E+01 7.40766E+01 9.09091E+00
 -1      7723 7.65458E+01 1.21237E+01 9.09091E-01
 -1      7724 7.65458E+01 1.21237E+01 1.81818E+00
 -1      7725 7.65458E+01 1.21237E+01 2.72727E+00
 -1      7726 7.65458E+01 1.21237E+01 3.63636E+00
 -1      7727 7.65458E+01 1.21237E+01 4.54545E+00
 -1      7728 7.65458E+01 1.21237E+01 5.45455E+00
 -1      7729 7.65458E+01 1.21237E+01 6.36364E+00
 -1      7730 7.65458E+01 1.21237E+01 7.27273E+00
 -1      7731 7.65458E+01 1.21237E+01 8.18182E+00
 -1      7732 7.65458E+01 1.21237E+01 9.09091E+00
 -1      7733 7.37069E+01 2.39488E+01 9.09091E-01
 -1      7734 7.37069E+01 2.39488E+01 1.81818E+00
 -1      7735 7.37069E+01 2.39488E+01 2.72727E+00
 -1      7736 7.37069E+01 2.39488E+01 3.63636E+00
 -1      7737 7.37069E+01 2.39488E+01 4.54545E+00
 -1      7738 7.37069E+01 2.39488E+01 5.45455E+00
 -1      7739 7.37069E+01 2.39488E+01 6.36364E+00
 -1      7740 7.37069E+01 2.39488E+01 7.27273E+00
 -1      7741 7.37069E+01 2.39488E+01 8.18182E+00
 -1      7742 7.37069E+01 2.39488E+01 9.09091E+00
 -1      7743 6.90530E+01 3.51843E+01 9.09091E-01
 -1      7744 6.90530E+01 3.51843E+01 1.81818E+00
 -1      7745 6.90530E+01 3.51843E+01 2.72727E+00
 -1      7746 6.90530E+01 3.51843E+01 3.63636E+00
 -1      7747 6.90530E+01 3.51843E+01 4.54545E+00
 -1      7748 6.90530E+01 3.51843E+01 5.45455E+00
 -1      7749 6.90530E+01 3.51843E+01 6.36364E+00
 -1      7750 6.90530E+01 3.51843E+01 7.27273E+00
 -1      7751 6.90530E+01 3.51843E+01 8.18182E+00
 -1      7752 6.90530E+01 3.51843E+01 9.09091E+00
 -1      7753 6.26988E+01 4.55534E+01 9.09091E-01
 -1      7754 6.26988E+01 4.55534E+01 1.81818E+00
 -1      7755 6.26988E+01 4.55534E+01 2.72727E+00
 -1      7756 6.26988E+01 4.55534E+01 3.63636E+00
 -1      7757 6.26988E+01 4.55534E+01 4.54545E+00
 -1      7758 6.26988E+01 4.55534E+01 5.45455E+00
 -1      7759 6.26988E+01 4.55534E+01 6.36364E+00
 -1      7760 6.26988E+01 4.55534E+01 7.27273E+00
 -1      7761 6.26988E+01 4.55534E+01 8.18182E+00
 -1      7762 6.26988E+01 4.55534E+01 9.09091E+00
 -1      7763 5.48008E+01 5.48008E+01 9.09091E-01
 -1      7764 5.48008E+01 5.48008E+01 1.81818E+00
 -1      7765 5.48008E+01 5.48008E+01 2.72727E+00
 -1      7766 5.48008E+01 5.48008E+01 3.63636E+00
 -1      7767 5.48008E+01 5.48008E+01 4.54545E+00
 -1      7768 5.48008E+01 5.48008E+01 5.45455E+00
 -1      7769 5.48008E+01 5.48008E+01 6.36364E+00
 -1      7770 5.48008E+01 5.48008E+01 7.27273E+00
 -1      7771 5.48008E+01 5.48008E+01 8.18182E+00
 -1      7772 5.48008E+01 5.48008E+01 9.09091E+00
 -1      7773 4.55534E+01 6.26988E+01 9.09091E-01
 -1      7774 4.55534E+01 6.26988E+01 1.81818E+00
 -1      7775 4.55534E+01 6.26988E+01 2.72727E+00
 -1      7776 4.55534E+01 6.26988E+01 3.63636E+00
 -1      7777 4.55534E+01 6.26988E+01 4.54545E+00
 -1      7778 4.55534E+01 6.26988E+01 5.45455E+00
 -1      7779 4.55534E+01 6.26988E+01 6.36364E+00
 -1      7780 4.55534E+01 6.26988E+01 7.27273E+00
 -1      7781 4.55534E+01 6.26988E+01 8.18182E+00
 -1      7782 4.55534E+01 6.26988E+01 9.09091E+00
 -1      7783 3.51843E+01 6.90530E+01 9.09091E-01
 -1      7784 3.51843E+01 6.90530E+01 1.81818E+00
 -1      7785 3.51843E+01 6.90530E+01 2.72727E+00
 -1      7786 3.51843E+01 6.90530E+01 3.63636E+00
 -1      7787 3.51843E+01 6.90530E+01 4.54545E+00
 -1      7788 3.51843E+01 6.90530E+01 5.45455E+00
 -1      7789 3.51843E+01 6.90530E+01 6.36364E+00
 -1      7790 3.51843E+01 6.90530E+01 7.27273E+00
 -1      7791 3.51843E+01 6.90530E+01 8.18182E+00
 -1      7792 3.51843E+01 6.90530E+01 9.09091E+00
 -1      7793 2.39488E+01 7.37069E+01 9.09091E-01
 -1      7794 2.39488E+01 7.37069E+01 1.81818E+00
 -1      7795 2.39488E+01 7.37069E+01 2.72727E+00
 -1      7796 2.39488E+01 7.37069E+01 3.63636E+00
 -1      7797 2.39488E+01 7.37069E+01 4.54545E+00
 -1      7798 2.39488E+01 7.37069E+01 5.45455E+00
 -1      7799 2.39488E+01 7.37069E+01 6.36364E+00
 -1      7800 2.39488E+01 7.37069E+01 7.27273E+00
 -1      7801 2.39488E+01 7.37069E+01 8.18182E+00
 -1      7802 2.39488E+01 7.37069E+01 9.09091E+00
 -1      7803 1.21237E+01 7.65458E+01 9.09091E-01
 -1      7804 1.21237E+01 7.65458E+01 1.81818E+00
 -1      7805 1.21237E+01 7.65458E+01 2.72727E+00
 -1      7806 1.21237E+01 7.65458E+01 3.63636E+00
 -1      7807 1.21237E+01 7.65458E+01 4.54545E+00
 -1      7808 1.21237E+01 7.65458E+01 5.45455E+00
 -1      7809 1.21237E+01 7.65458E+01 6.36364E+00
 -1      7810 1.21237E+01 7.65458E+01 7.27273E+00
 -1      7811 1.21237E+01 7.65458E+01 8.18182E+00
 -1      7812 1.21237E+01 7.65458E+01 9.09091E+00
 -1      7813 7.90151E+01 1.25148E+01 9.09091E-01
 -1      7814 7.90151E+01 1.25148E+01 1.81818E+00
 -1      7815 7.90151E+01 1.25148E+01 2.72727E+00
 -1      7816 7.90151E+01 1.25148E+01 3.63636E+00
 -1      7817 7.90151E+01 1.25148E+01 4.54545E+00
 -1      7818 7.90151E+01 1.25148E+01 5.45455E+00
 -1      7819 7.90151E+01 1.25148E+01 6.36364E+00
 -1      7820 7.90151E+01 1.25148E+01 7.27273E+00
 -1      7821 7.90151E+01 1.25148E+01 8.18182E+00
 -1      7822 7.90151E+01 1.25148E+01 9.09091E+00
 -1      7823 7.60845E+01 2.47214E+01 9.09091E-01
 -1      7824 7.60845E+01 2.47214E+01 1.81818E+00
 -1      7825 7.60845E+01 2.47214E+01 2.72727E+00
 -1      7826 7.60845E+01 2.47214E+01 3.63636E+00
 -1      7827 7.60845E+01 2.47214E+01 4.54545E+00
 -1      7828 7.60845E+01 2.47214E+01 5.45455E+00
 -1      7829 7.60845E+01 2.47214E+01 6.36364E+00
 -1      7830 7.60845E+01 2.47214E+01 7.27273E+00
 -1      7831 7.60845E+01 2.47214E+01 8.18182E+00
 -1      7832 7.60845E+01 2.47214E+01 9.09091E+00
 -1      7833 7.12805E+01 3.63192E+01 9.09091E-01
 -1      7834 7.12805E+01 3.63192E+01 1.81818E+00
 -1      7835 7.12805E+01 3.63192E+01 2.72727E+00
 -1      7836 7.12805E+01 3.63192E+01 3.63636E+00
 -1      7837 7.12805E+01 3.63192E+01 4.54545E+00
 -1      7838 7.12805E+01 3.63192E+01 5.45455E+00
 -1      7839 7.12805E+01 3.63192E+01 6.36364E+00
 -1      7840 7.12805E+01 3.63192E+01 7.27273E+00
 -1      7841 7.12805E+01 3.63192E+01 8.18182E+00
 -1      7842 7.12805E+01 3.63192E+01 9.09091E+00
 -1      7843 6.47214E+01 4.70228E+01 9.09091E-01
 -1      7844 6.47214E+01 4.70228E+01 1.81818E+00
 -1      7845 6.47214E+01 4.70228E+01 2.72727E+00
 -1      7846 6.47214E+01 4.70228E+01 3.63636E+00
 -1      7847 6.47214E+01 4.70228E+01 4.54545E+00
 -1      7848 6.47214E+01 4.70228E+01 5.45455E+00
 -1      7849 6.47214E+01 4.70228E+01 6.36364E+00
 -1      7850 6.47214E+01 4.70228E+01 7.27273E+00
 -1      7851 6.47214E+01 4.70228E+01 8.18182E+00
 -1      7852 6.47214E+01 4.70228E+01 9.09091E+00
 -1      7853 5.65685E+01 5.65685E+01 9.09091E-01
 -1      7854 5.65685E+01 5.65685E+01 1.81818E+00
 -1      7855 5.65685E+01 5.65685E+01 2.72727E+00
 -1      7856 5.65685E+01 5.65685E+01 3.63636E+00
 -1      7857 5.65685E+01 5.65685E+01 4.54545E+00
 -1      7858 5.65685E+01 5.65685E+01 5.45455E+00
 -1      7859 5.65685E+01 5.65685E+01 6.36364E+00
 -1      7860 5.65685E+01 5.65685E+01 7.27273E+00
 -1      7861 5.65685E+01 5.65685E+01 8.18182E+00
 -1      7862 5.65685E+01 5.65685E+01 9.09091E+00
 -1      7863 4.70228E+01 6.47214E+01 9.09091E-01
 -1      7864 4.70228E+01 6.47214E+01 1.81818E+00
 -1      7865 4.70228E+01 6.47214E+01 2.72727E+00
 -1      7866 4.70228E+01 6.47214E+01 3.63636E+00
 -1      7867 4.70228E+01 6.47214E+01 4.54545E+00
 -1      7868 4.70228E+01 6.47214E+01 5.45455E+00
 -1      7869 4.70228E+01 6.47214E+01 6.36364E+00
 -1      7870 4.70228E+01 6.47214E+01 7.27273E+00
 -1      7871 4.70228E+01 6.47214E+01 8.18182E+00
 -1      7872 4.70228E+01 6.47214E+01 9.09091E+00
 -1      7873 3.63192E+01 7.12805E+01 9.09091E-01
 -1      7874 3.63192E+01 7.12805E+01 1.81818E+00
 -1      7875 3.63192E+01 7.12805E+01 2.72727E+00
 -1      7876 3.63192E+01 7.12805E+01 3.63636E+00
 -1      7877 3.63192E+01 7.12805E+01 4.54545E+00
 -1      7878 3.63192E+01 7.12805E+01 5.45455E+00
 -1      7879 3.63192E+01 7.12805E+01 6.36364E+00
 -1      7880 3.63192E+01 7.12805E+01 7.27273E+00
 -1      7881 3.63192E+01 7.12805E+01 8.18182E+00
 -1      7882 3.63192E+01 7.12805E+01 9.09091E+00
 -1      7883 2.47214E+01 7.60845E+01 9.09091E-01
 -1      7884 2.47214E+01 7.60845E+01 1.81818E+00
 -1      7885 2.47214E+01 7.60845E+01 2.72727E+00
 -1      7886 2.47214E+01 7.60845E+01 3.63636E+00
 -1      7887 2.47214E+01 7.60845E+01 4.54545E+00
 -1      7888 2.47214E+01 7.60845E+01 5.45455E+00
 -1      7889 2.47214E+01 7.60845E+01 6.36364E+00
 -1      7890 2.47214E+01 7.60845E+01 7.27273E+00
 -1      7891 2.47214E+01 7.60845E+01 8.18182E+00
 -1      7892 2.47214E+01 7.60845E+01 9.09091E+00
 -1      7893 1.25148E+01 7.90151E+01 9.09091E-01
 -1      7894 1.25148E+01 7.90151E+01 1.81818E+00
 -1      7895 1.25148E+01 7.90151E+01 2.72727E+00
 -1      7896 1.25148E+01 7.90151E+01 3.63636E+00
 -1      7897 1.25148E+01 7.90151E+01 4.54545E+00
 -1      7898 1.25148E+01 7.90151E+01 5.45455E+00
 -1      7899 1.25148E+01 7.90151E+01 6.36364E+00
 -1      7900 1.25148E+01 7.90151E+01 7.27273E+00
 -1      7901 1.25148E+01 7.90151E+01 8.18182E+00
 -1      7902 1.25148E+01 7.90151E+01 9.09091E+00
 -1      7903 8.14843E+01 1.29058E+01 9.09091E-01
 -1      7904 8.14843E+01 1.29058E+01 1.81818E+00
 -1      7905 8.14843E+01 1.29058E+01 2.72727E+00
 -1      7906 8.14843E+01 1.29058E+01 3.63636E+00
 -1      7907 8.14843E+01 1.29058E+01 4.54545E+00
 -1      7908 8.14843E+01 1.29058E+01 5.45455E+00
 -1      7909 8.14843E+01 1.29058E+01 6.36364E+00
 -1      7910 8.14843E+01 1.29058E+01 7.27273E+00
 -1      7911 8.14843E+01 1.29058E+01 8.18182E+00
 -1      7912 8.14843E+01 1.29058E+01 9.09091E+00
 -1      7913 7.84622E+01 2.54939E+01 9.09091E-01
 -1      7914 7.84622E+01 2.54939E+01 1.81818E+00
 -1      7915 7.84622E+01 2.54939E+01 2.72727E+00
 -1      7916 7.84622E+01 2.54939E+01 3.63636E+00
 -1      7917 7.84622E+01 2.54939E+01 4.54545E+00
 -1      7918 7.84622E+01 2.54939E+01 5.45455E+00
 -1      7919 7.84622E+01 2.54939E+01 6.36364E+00
 -1      7920 7.84622E+01 2.54939E+01 7.27273E+00
 -1      7921 7.84622E+01 2.54939E+01 8.18182E+00
 -1      7922 7.84622E+01 2.54939E+01 9.09091E+00
 -1      7923 7.35080E+01 3.74542E+01 9.09091E-01
 -1      7924 7.35080E+01 3.74542E+01 1.81818E+00
 -1      7925 7.35080E+01 3.74542E+01 2.72727E+00
 -1      7926 7.35080E+01 3.74542E+01 3.63636E+00
 -1      7927 7.35080E+01 3.74542E+01 4.54545E+00
 -1      7928 7.35080E+01 3.74542E+01 5.45455E+00
 -1      7929 7.35080E+01 3.74542E+01 6.36364E+00
 -1      7930 7.35080E+01 3.74542E+01 7.27273E+00
 -1      7931 7.35080E+01 3.74542E+01 8.18182E+00
 -1      7932 7.35080E+01 3.74542E+01 9.09091E+00
 -1      7933 6.67439E+01 4.84923E+01 9.09091E-01
 -1      7934 6.67439E+01 4.84923E+01 1.81818E+00
 -1      7935 6.67439E+01 4.84923E+01 2.72727E+00
 -1      7936 6.67439E+01 4.84923E+01 3.63636E+00
 -1      7937 6.67439E+01 4.84923E+01 4.54545E+00
 -1      7938 6.67439E+01 4.84923E+01 5.45455E+00
 -1      7939 6.67439E+01 4.84923E+01 6.36364E+00
 -1      7940 6.67439E+01 4.84923E+01 7.27273E+00
 -1      7941 6.67439E+01 4.84923E+01 8.18182E+00
 -1      7942 6.67439E+01 4.84923E+01 9.09091E+00
 -1      7943 5.83363E+01 5.83363E+01 9.09091E-01
 -1      7944 5.83363E+01 5.83363E+01 1.81818E+00
 -1      7945 5.83363E+01 5.83363E+01 2.72727E+00
 -1      7946 5.83363E+01 5.83363E+01 3.63636E+00
 -1      7947 5.83363E+01 5.83363E+01 4.54545E+00
 -1      7948 5.83363E+01 5.83363E+01 5.45455E+00
 -1      7949 5.83363E+01 5.83363E+01 6.36364E+00
 -1      7950 5.83363E+01 5.83363E+01 7.27273E+00
 -1      7951 5.83363E+01 5.83363E+01 8.18182E+00
 -1      7952 5.83363E+01 5.83363E+01 9.09091E+00
 -1      7953 4.84923E+01 6.67439E+01 9.09091E-01
 -1      7954 4.84923E+01 6.67439E+01 1.81818E+00
 -1      7955 4.84923E+01 6.67439E+01 2.72727E+00
 -1      7956 4.84923E+01 6.67439E+01 3.63636E+00
 -1      7957 4.84923E+01 6.67439E+01 4.54545E+00
 -1      7958 4.84923E+01 6.67439E+01 5.45455E+00
 -1      7959 4.84923E+01 6.67439E+01 6.36364E+00
 -1      7960 4.84923E+01 6.67439E+01 7.27273E+00
 -1      7961 4.84923E+01 6.67439E+01 8.18182E+00
 -1      7962 4.84923E+01 6.67439E+01 9.09091E+00
 -1      7963 3.74542E+01 7.35080E+01 9.09091E-01
 -1      7964 3.74542E+01 7.35080E+01 1.81818E+00
 -1      7965 3.74542E+01 7.35080E+01 2.72727E+00
 -1      7966 3.74542E+01 7.35080E+01 3.63636E+00
 -1      7967 3.74542E+01 7.35080E+01 4.54545E+00
 -1      7968 3.74542E+01 7.35080E+01 5.45455E+00
 -1      7969 3.74542E+01 7.35080E+01 6.36364E+00
 -1      7970 3.74542E+01 7.35080E+01 7.27273E+00
 -1      7971 3.74542E+01 7.35080E+01 8.18182E+00
 -1      7972 3.74542E+01 7.35080E+01 9.09091E+00
 -1      7973 2.54939E+01 7.84622E+01 9.09091E-01
 -1      7974 2.54939E+01 7.84622E+01 1.81818E+00
 -1      7975 2.54939E+01 7.84622E+01 2.72727E+00
 -1      7976 2.54939E+01 7.84622E+01 3.63636E+00
 -1      7977 2.54939E+01 7.84622E+01 4.54545E+00
 -1      7978 2.54939E+01 7.84622E+01 5.45455E+00
 -1      7979 2.54939E+01 7.84622E+01 6.36364E+00
 -1      7980 2.54939E+01 7.84622E+01 7.27273E+00
 -1      7981 2.54939E+01 7.84622E+01 8.18182E+00
 -1      7982 2.54939E+01 7.84622E+01 9.09091E+00
 -1      7983 1.29058E+01 8.14843E+01 9.09091E-01
 -1      7984 1.29058E+01 8.14843E+01 1.81818E+00
 -1      7985 1.29058E+01 8.14843E+01 2.72727E+00
 -1      7986 1.29058E+01 8.14843E+01 3.63636E+00
 -1      7987 1.29058E+01 8.14843E+01 4.54545E+00
 -1      7988 1.29058E+01 8.14843E+01 5.45455E+00
 -1      7989 1.29058E+01 8.14843E+01 6.36364E+00
 -1      7990 1.29058E+01 8.14843E+01 7.27273E+00
 -1      7991 1.29058E+01 8.14843E+01 8.18182E+00
 -1      7992 1.29058E+01 8.14843E+01 9.09091E+00
 -1      7993 8.39535E+01 1.32969E+01 9.09091E-01
 -1      7994 8.39535E+01 1.32969E+01 1.81818E+00
 -1      7995 8.39535E+01 1.32969E+01 2.72727E+00
 -1      7996 8.39535E+01 1.32969E+01 3.63636E+00
 -1      7997 8.39535E+01 1.32969E+01 4.54545E+00
 -1      7998 8.39535E+01 1.32969E+01 5.45455E+00
 -1      7999 8.39535E+01 1.32969E+01 6.36364E+00
 -1      8000 8.39535E+01 1.32969E+01 7.27273E+00
 -1      8001 8.39535E+01 1.32969E+01 8.18182E+00
 -1      8002 8.39535E+01 1.32969E+01 9.09091E+00
 -1      8003 8.08398E+01 2.62664E+01 9.09091E-01
 -1      8004 8.08398E+01 2.62664E+01 1.81818E+00
 -1      8005 8.08398E+01 2.62664E+01 2.72727E+00
 -1      8006 8.08398E+01 2.62664E+01 3.63636E+00
 -1      8007 8.08398E+01 2.62664E+01 4.54545E+00
 -1      8008 8.08398E+01 2.62664E+01 5.45455E+00
 -1      8009 8.08398E+01 2.62664E+01 6.36364E+00
 -1      8010 8.08398E+01 2.62664E+01 7.27273E+00
 -1      8011 8.08398E+01 2.62664E+01 8.18182E+00
 -1      8012 8.08398E+01 2.62664E+01 9.09091E+00
 -1      8013 7.57356E+01 3.85892E+01 9.09091E-01
 -1      8014 7.57356E+01 3.85892E+01 1.81818E+00
 -1      8015 7.57356E+01 3.85892E+01 2.72727E+00
 -1      8016 7.57356E+01 3.85892E+01 3.63636E+00
 -1      8017 7.57356E+01 3.85892E+01 4.54545E+00
 -1      8018 7.57356E+01 3.85892E+01 5.45455E+00
 -1      8019 7.57356E+01 3.85892E+01 6.36364E+00
 -1      8020 7.57356E+01 3.85892E+01 7.27273E+00
 -1      8021 7.57356E+01 3.85892E+01 8.18182E+00
 -1      8022 7.57356E+01 3.85892E+01 9.09091E+00
 -1      8023 6.87664E+01 4.99617E+01 9.09091E-01
 -1      8024 6.87664E+01 4.99617E+01 1.81818E+00
 -1      8025 6.87664E+01 4.99617E+01 2.72727E+00
 -1      8026 6.87664E+01 4.99617E+01 3.63636E+00
 -1      8027 6.87664E+01 4.99617E+01 4.54545E+00
 -1      8028 6.87664E+01 4.99617E+01 5.45455E+00
 -1      8029 6.87664E+01 4.99617E+01 6.36364E+00
 -1      8030 6.87664E+01 4.99617E+01 7.27273E+00
 -1      8031 6.87664E+01 4.99617E+01 8.18182E+00
 -1      8032 6.87664E+01 4.99617E+01 9.09091E+00
 -1      8033 6.01041E+01 6.01041E+01 9.09091E-01
 -1      8034 6.01041E+01 6.01041E+01 1.81818E+00
 -1      8035 6.01041E+01 6.01041E+01 2.72727E+00
 -1      8036 6.01041E+01 6.01041E+01 3.63636E+00
 -1      8037 6.01041E+01 6.01041E+01 4.54545E+00
 -1      8038 6.01041E+01 6.01041E+01 5.45455E+00
 -1      8039 6.01041E+01 6.01041E+01 6.36364E+00
 -1      8040 6.01041E+01 6.01041E+01 7.27273E+00
 -1      8041 6.01041E+01 6.01041E+01 8.18182E+00
 -1      8042 6.01041E+01 6.01041E+01 9.09091E+00
 -1      8043 4.99617E+01 6.87664E+01 9.09091E-01
 -1      8044 4.99617E+01 6.87664E+01 1.81818E+00
 -1      8045 4.99617E+01 6.87664E+01 2.72727E+00
 -1      8046 4.99617E+01 6.87664E+01 3.63636E+00
 -1      8047 4.99617E+01 6.87664E+01 4.54545E+00
 -1      8048 4.99617E+01 6.87664E+01 5.45455E+00
 -1      8049 4.99617E+01 6.87664E+01 6.36364E+00
 -1      8050 4.99617E+01 6.87664E+01 7.27273E+00
 -1      8051 4.99617E+01 6.87664E+01 8.18182E+00
 -1      8052 4.99617E+01 6.87664E+01 9.09091E+00
 -1      8053 3.85892E+01 7.57356E+01 9.09091E-01
 -1      8054 3.85892E+01 7.57356E+01 1.81818E+00
 -1      8055 3.85892E+01 7.57356E+01 2.72727E+00
 -1      8056 3.85892E+01 7.57356E+01 3.63636E+00
 -1      8057 3.85892E+01 7.57356E+01 4.54545E+00
 -1      8058 3.85892E+01 7.57356E+01 5.45455E+00
 -1      8059 3.85892E+01 7.57356E+01 6.36364E+00
 -1      8060 3.85892E+01 7.57356E+01 7.27273E+00
 -1      8061 3.85892E+01 7.57356E+01 8.18182E+00
 -1      8062 3.85892E+01 7.57356E+01 9.09091E+00
 -1      8063 2.62664E+01 8.08398E+01 9.09091E-01
 -1      8064 2.62664E+01 8.08398E+01 1.81818E+00
 -1      8065 2.62664E+01 8.08398E+01 2.72727E+00
 -1      8066 2.62664E+01 8.08398E+01 3.63636E+00
 -1      8067 2.62664E+01 8.08398E+01 4.54545E+00
 -1      8068 2.62664E+01 8.08398E+01 5.45455E+00
 -1      8069 2.62664E+01 8.08398E+01 6.36364E+00
 -1      8070 2.62664E+01 8.08398E+01 7.27273E+00
 -1      8071 2.62664E+01 8.08398E+01 8.18182E+00
 -1      8072 2.62664E+01 8.08398E+01 9.09091E+00
 -1      8073 1.32969E+01 8.39535E+01 9.09091E-01
 -1      8074 1.32969E+01 8.39535E+01 1.81818E+00
 -1      8075 1.32969E+01 8.39535E+01 2.72727E+00
 -1      8076 1.32969E+01 8.39535E+01 3.63636E+00
 -1      8077 1.32969E+01 8.39535E+01 4.54545E+00
 -1      8078 1.32969E+01 8.39535E+01 5.45455E+00
 -1      8079 1.32969E+01 8.39535E+01 6.36364E+00
 -1      8080 1.32969E+01 8.39535E+01 7.27273E+00
 -1      8081 1.32969E+01 8.39535E+01 8.18182E+00
 -1      8082 1.32969E+01 8.39535E+01 9.09091E+00
 -1      8083 8.64227E+01 1.36880E+01 9.09091E-01
 -1      8084 8.64227E+01 1.36880E+01 1.81818E+00
 -1      8085 8.64227E+01 1.36880E+01 2.72727E+00
 -1      8086 8.64227E+01 1.36880E+01 3.63636E+00
 -1      8087 8.64227E+01 1.36880E+01 4.54545E+00
 -1      8088 8.64227E+01 1.36880E+01 5.45455E+00
 -1      8089 8.64227E+01 1.36880E+01 6.36364E+00
 -1      8090 8.64227E+01 1.36880E+01 7.27273E+00
 -1      8091 8.64227E+01 1.36880E+01 8.18182E+00
 -1      8092 8.64227E+01 1.36880E+01 9.09091E+00
 -1      8093 8.32174E+01 2.70390E+01 9.09091E-01
 -1      8094 8.32174E+01 2.70390E+01 1.81818E+00
 -1      8095 8.32174E+01 2.70390E+01 2.72727E+00
 -1      8096 8.32174E+01 2.70390E+01 3.63636E+00
 -1      8097 8.32174E+01 2.70390E+01 4.54545E+00
 -1      8098 8.32174E+01 2.70390E+01 5.45455E+00
 -1      8099 8.32174E+01 2.70390E+01 6.36364E+00
 -1      8100 8.32174E+01 2.70390E+01 7.27273E+00
 -1      8101 8.32174E+01 2.70390E+01 8.18182E+00
 -1      8102 8.32174E+01 2.70390E+01 9.09091E+00
 -1      8103 7.79631E+01 3.97242E+01 9.09091E-01
 -1      8104 7.79631E+01 3.97242E+01 1.81818E+00
 -1      8105 7.79631E+01 3.97242E+01 2.72727E+00
 -1      8106 7.79631E+01 3.97242E+01 3.63636E+00
 -1      8107 7.79631E+01 3.97242E+01 4.54545E+00
 -1      8108 7.79631E+01 3.97242E+01 5.45455E+00
 -1      8109 7.79631E+01 3.97242E+01 6.36364E+00
 -1      8110 7.79631E+01 3.97242E+01 7.27273E+00
 -1      8111 7.79631E+01 3.97242E+01 8.18182E+00
 -1      8112 7.79631E+01 3.97242E+01 9.09091E+00
 -1      8113 7.07890E+01 5.14312E+01 9.09091E-01
 -1      8114 7.07890E+01 5.14312E+01 1.81818E+00
 -1      8115 7.07890E+01 5.14312E+01 2.72727E+00
 -1      8116 7.07890E+01 5.14312E+01 3.63636E+00
 -1      8117 7.07890E+01 5.14312E+01 4.54545E+00
 -1      8118 7.07890E+01 5.14312E+01 5.45455E+00
 -1      8119 7.07890E+01 5.14312E+01 6.36364E+00
 -1      8120 7.07890E+01 5.14312E+01 7.27273E+00
 -1      8121 7.07890E+01 5.14312E+01 8.18182E+00
 -1      8122 7.07890E+01 5.14312E+01 9.09091E+00
 -1      8123 6.18718E+01 6.18718E+01 9.09091E-01
 -1      8124 6.18718E+01 6.18718E+01 1.81818E+00
 -1      8125 6.18718E+01 6.18718E+01 2.72727E+00
 -1      8126 6.18718E+01 6.18718E+01 3.63636E+00
 -1      8127 6.18718E+01 6.18718E+01 4.54545E+00
 -1      8128 6.18718E+01 6.18718E+01 5.45455E+00
 -1      8129 6.18718E+01 6.18718E+01 6.36364E+00
 -1      8130 6.18718E+01 6.18718E+01 7.27273E+00
 -1      8131 6.18718E+01 6.18718E+01 8.18182E+00
 -1      8132 6.18718E+01 6.18718E+01 9.09091E+00
 -1      8133 5.14312E+01 7.07890E+01 9.09091E-01
 -1      8134 5.14312E+01 7.07890E+01 1.81818E+00
 -1      8135 5.14312E+01 7.07890E+01 2.72727E+00
 -1      8136 5.14312E+01 7.07890E+01 3.63636E+00
 -1      8137 5.14312E+01 7.07890E+01 4.54545E+00
 -1      8138 5.14312E+01 7.07890E+01 5.45455E+00
 -1      8139 5.14312E+01 7.07890E+01 6.36364E+00
 -1      8140 5.14312E+01 7.07890E+01 7.27273E+00
 -1      8141 5.14312E+01 7.07890E+01 8.18182E+00
 -1      8142 5.14312E+01 7.07890E+01 9.09091E+00
 -1      8143 3.97242E+01 7.79631E+01 9.09091E-01
 -1      8144 3.97242E+01 7.79631E+01 1.81818E+00
 -1      8145 3.97242E+01 7.79631E+01 2.72727E+00
 -1      8146 3.97242E+01 7.79631E+01 3.63636E+00
 -1      8147 3.97242E+01 7.79631E+01 4.54545E+00
 -1      8148 3.97242E+01 7.79631E+01 5.45455E+00
 -1      8149 3.97242E+01 7.79631E+01 6.36364E+00
 -1      8150 3.97242E+01 7.79631E+01 7.27273E+00
 -1      8151 3.97242E+01 7.79631E+01 8.18182E+00
 -1      8152 3.97242E+01 7.79631E+01 9.09091E+00
 -1      8153 2.70390E+01 8.32174E+01 9.09091E-01
 -1      8154 2.70390E+01 8.32174E+01 1.81818E+00
 -1      8155 2.70390E+01 8.32174E+01 2.72727E+00
 -1      8156 2.70390E+01 8.32174E+01 3.63636E+00
 -1      8157 2.70390E+01 8.32174E+01 4.54545E+00
 -1      8158 2.70390E+01 8.32174E+01 5.45455E+00
 -1      8159 2.70390E+01 8.32174E+01 6.36364E+00
 -1      8160 2.70390E+01 8.32174E+01 7.27273E+00
 -1      8161 2.70390E+01 8.32174E+01 8.18182E+00
 -1      8162 2.70390E+01 8.32174E+01 9.09091E+00
 -1      8163 1.36880E+01 8.64227E+01 9.09091E-01
 -1      8164 1.36880E+01 8.64227E+01 1.81818E+00
 -1      8165 1.36880E+01 8.64227E+01 2.72727E+00
 -1      8166 1.36880E+01 8.64227E+01 3.63636E+00
 -1      8167 1.36880E+01 8.64227E+01 4.54545E+00
 -1      8168 1.36880E+01 8.64227E+01 5.45455E+00
 -1      8169 1.36880E+01 8.64227E+01 6.36364E+00
 -1      8170 1.36880E+01 8.64227E+01 7.27273E+00
 -1      8171 1.36880E+01 8.64227E+01 8.18182E+00
 -1      8172 1.36880E+01 8.64227E+01 9.09091E+00
 -1      8173 8.88920E+01 1.40791E+01 9.09091E-01
 -1      8174 8.88920E+01 1.40791E+01 1.81818E+00
 -1      8175 8.88920E+01 1.40791E+01 2.72727E+00
 -1      8176 8.88920E+01 1.40791E+01 3.63636E+00
 -1      8177 8.88920E+01 1.40791E+01 4.54545E+00
 -1      8178 8.88920E+01 1.40791E+01 5.45455E+00
 -1      8179 8.88920E+01 1.40791E+01 6.36364E+00
 -1      8180 8.88920E+01 1.40791E+01 7.27273E+00
 -1      8181 8.88920E+01 1.40791E+01 8.18182E+00
 -1      8182 8.88920E+01 1.40791E+01 9.09091E+00
 -1      8183 8.55951E+01 2.78115E+01 9.09091E-01
 -1      8184 8.55951E+01 2.78115E+01 1.81818E+00
 -1      8185 8.55951E+01 2.78115E+01 2.72727E+00
 -1      8186 8.55951E+01 2.78115E+01 3.63636E+00
 -1      8187 8.55951E+01 2.78115E+01 4.54545E+00
 -1      8188 8.55951E+01 2.78115E+01 5.45455E+00
 -1      8189 8.55951E+01 2.78115E+01 6.36364E+00
 -1      8190 8.55951E+01 2.78115E+01 7.27273E+00
 -1      8191 8.55951E+01 2.78115E+01 8.18182E+00
 -1      8192 8.55951E+01 2.78115E+01 9.09091E+00
 -1      8193 8.01906E+01 4.08591E+01 9.09091E-01
 -1      8194 8.01906E+01 4.08591E+01 1.81818E+00
 -1      8195 8.01906E+01 4.08591E+01 2.72727E+00
 -1      8196 8.01906E+01 4.08591E+01 3.63636E+00
 -1      8197 8.01906E+01 4.08591E+01 4.54545E+00
 -1      8198 8.01906E+01 4.08591E+01 5.45455E+00
 -1      8199 8.01906E+01 4.08591E+01 6.36364E+00
 -1      8200 8.01906E+01 4.08591E+01 7.27273E+00
 -1      8201 8.01906E+01 4.08591E+01 8.18182E+00
 -1      8202 8.01906E+01 4.08591E+01 9.09091E+00
 -1      8203 7.28115E+01 5.29007E+01 9.09091E-01
 -1      8204 7.28115E+01 5.29007E+01 1.81818E+00
 -1      8205 7.28115E+01 5.29007E+01 2.72727E+00
 -1      8206 7.28115E+01 5.29007E+01 3.63636E+00
 -1      8207 7.28115E+01 5.29007E+01 4.54545E+00
 -1      8208 7.28115E+01 5.29007E+01 5.45455E+00
 -1      8209 7.28115E+01 5.29007E+01 6.36364E+00
 -1      8210 7.28115E+01 5.29007E+01 7.27273E+00
 -1      8211 7.28115E+01 5.29007E+01 8.18182E+00
 -1      8212 7.28115E+01 5.29007E+01 9.09091E+00
 -1      8213 6.36396E+01 6.36396E+01 9.09091E-01
 -1      8214 6.36396E+01 6.36396E+01 1.81818E+00
 -1      8215 6.36396E+01 6.36396E+01 2.72727E+00
 -1      8216 6.36396E+01 6.36396E+01 3.63636E+00
 -1      8217 6.36396E+01 6.36396E+01 4.54545E+00
 -1      8218 6.36396E+01 6.36396E+01 5.45455E+00
 -1      8219 6.36396E+01 6.36396E+01 6.36364E+00
 -1      8220 6.36396E+01 6.36396E+01 7.27273E+00
 -1      8221 6.36396E+01 6.36396E+01 8.18182E+00
 -1      8222 6.36396E+01 6.36396E+01 9.09091E+00
 -1      8223 5.29007E+01 7.28115E+01 9.09091E-01
 -1      8224 5.29007E+01 7.28115E+01 1.81818E+00
 -1      8225 5.29007E+01 7.28115E+01 2.72727E+00
 -1      8226 5.29007E+01 7.28115E+01 3.63636E+00
 -1      8227 5.29007E+01 7.28115E+01 4.54545E+00
 -1      8228 5.29007E+01 7.28115E+01 5.45455E+00
 -1      8229 5.29007E+01 7.28115E+01 6.36364E+00
 -1      8230 5.29007E+01 7.28115E+01 7.27273E+00
 -1      8231 5.29007E+01 7.28115E+01 8.18182E+00
 -1      8232 5.29007E+01 7.28115E+01 9.09091E+00
 -1      8233 4.08591E+01 8.01906E+01 9.09091E-01
 -1      8234 4.08591E+01 8.01906E+01 1.81818E+00
 -1      8235 4.08591E+01 8.01906E+01 2.72727E+00
 -1      8236 4.08591E+01 8.01906E+01 3.63636E+00
 -1      8237 4.08591E+01 8.01906E+01 4.54545E+00
 -1      8238 4.08591E+01 8.01906E+01 5.45455E+00
 -1      8239 4.08591E+01 8.01906E+01 6.36364E+00
 -1      8240 4.08591E+01 8.01906E+01 7.27273E+00
 -1      8241 4.08591E+01 8.01906E+01 8.18182E+00
 -1      8242 4.08591E+01 8.01906E+01 9.09091E+00
 -1      8243 2.78115E+01 8.55951E+01 9.09091E-01
 -1      8244 2.78115E+01 8.55951E+01 1.81818E+00
 -1      8245 2.78115E+01 8.55951E+01 2.72727E+00
 -1      8246 2.78115E+01 8.55951E+01 3.63636E+00
 -1      8247 2.78115E+01 8.55951E+01 4.54545E+00
 -1      8248 2.78115E+01 8.55951E+01 5.45455E+00
 -1      8249 2.78115E+01 8.55951E+01 6.36364E+00
 -1      8250 2.78115E+01 8.55951E+01 7.27273E+00
 -1      8251 2.78115E+01 8.55951E+01 8.18182E+00
 -1      8252 2.78115E+01 8.55951E+01 9.09091E+00
 -1      8253 1.40791E+01 8.88920E+01 9.09091E-01
 -1      8254 1.40791E+01 8.88920E+01 1.81818E+00
 -1      8255 1.40791E+01 8.88920E+01 2.72727E+00
 -1      8256 1.40791E+01 8.88920E+01 3.63636E+00
 -1      8257 1.40791E+01 8.88920E+01 4.54545E+00
 -1      8258 1.40791E+01 8.88920E+01 5.45455E+00
 -1      8259 1.40791E+01 8.88920E+01 6.36364E+00
 -1      8260 1.40791E+01 8.88920E+01 7.27273E+00
 -1      8261 1.40791E+01 8.88920E+01 8.18182E+00
 -1      8262 1.40791E+01 8.88920E+01 9.09091E+00
 -1      8263 9.13612E+01 1.44702E+01 9.09091E-01
 -1      8264 9.13612E+01 1.44702E+01 1.81818E+00
 -1      8265 9.13612E+01 1.44702E+01 2.72727E+00
 -1      8266 9.13612E+01 1.44702E+01 3.63636E+00
 -1      8267 9.13612E+01 1.44702E+01 4.54545E+00
 -1      8268 9.13612E+01 1.44702E+01 5.45455E+00
 -1      8269 9.13612E+01 1.44702E+01 6.36364E+00
 -1      8270 9.13612E+01 1.44702E+01 7.27273E+00
 -1      8271 9.13612E+01 1.44702E+01 8.18182E+00
 -1      8272 9.13612E+01 1.44702E+01 9.09091E+00
 -1      8273 8.79727E+01 2.85841E+01 9.09091E-01
 -1      8274 8.79727E+01 2.85841E+01 1.81818E+00
 -1      8275 8.79727E+01 2.85841E+01 2.72727E+00
 -1      8276 8.79727E+01 2.85841E+01 3.63636E+00
 -1      8277 8.79727E+01 2.85841E+01 4.54545E+00
 -1      8278 8.79727E+01 2.85841E+01 5.45455E+00
 -1      8279 8.79727E+01 2.85841E+01 6.36364E+00
 -1      8280 8.79727E+01 2.85841E+01 7.27273E+00
 -1      8281 8.79727E+01 2.85841E+01 8.18182E+00
 -1      8282 8.79727E+01 2.85841E+01 9.09091E+00
 -1      8283 8.24181E+01 4.19941E+01 9.09091E-01
 -1      8284 8.24181E+01 4.19941E+01 1.81818E+00
 -1      8285 8.24181E+01 4.19941E+01 2.72727E+00
 -1      8286 8.24181E+01 4.19941E+01 3.63636E+00
 -1      8287 8.24181E+01 4.19941E+01 4.54545E+00
 -1      8288 8.24181E+01 4.19941E+01 5.45455E+00
 -1      8289 8.24181E+01 4.19941E+01 6.36364E+00
 -1      8290 8.24181E+01 4.19941E+01 7.27273E+00
 -1      8291 8.24181E+01 4.19941E+01 8.18182E+00
 -1      8292 8.24181E+01 4.19941E+01 9.09091E+00
 -1      8293 7.48341E+01 5.43701E+01 9.09091E-01
 -1      8294 7.48341E+01 5.43701E+01 1.81818E+00
 -1      8295 7.48341E+01 5.43701E+01 2.72727E+00
 -1      8296 7.48341E+01 5.43701E+01 3.63636E+00
 -1      8297 7.48341E+01 5.43701E+01 4.54545E+00
 -1      8298 7.48341E+01 5.43701E+01 5.45455E+00
 -1      8299 7.48341E+01 5.43701E+01 6.36364E+00
 -1      8300 7.48341E+01 5.43701E+01 7.27273E+00
 -1      8301 7.48341E+01 5.43701E+01 8.18182E+00
 -1      8302 7.48341E+01 5.43701E+01 9.09091E+00
 -1      8303 6.54074E+01 6.54074E+01 9.09091E-01
 -1      8304 6.54074E+01 6.54074E+01 1.81818E+00
 -1      8305 6.54074E+01 6.54074E+01 2.72727E+00
 -1      8306 6.54074E+01 6.54074E+01 3.63636E+00
 -1      8307 6.54074E+01 6.54074E+01 4.54545E+00
 -1      8308 6.54074E+01 6.54074E+01 5.45455E+00
 -1      8309 6.54074E+01 6.54074E+01 6.36364E+00
 -1      8310 6.54074E+01 6.54074E+01 7.27273E+00
 -1      8311 6.54074E+01 6.54074E+01 8.18182E+00
 -1      8312 6.54074E+01 6.54074E+01 9.09091E+00
 -1      8313 5.43701E+01 7.48341E+01 9.09091E-01
 -1      8314 5.43701E+01 7.48341E+01 1.81818E+00
 -1      8315 5.43701E+01 7.48341E+01 2.72727E+00
 -1      8316 5.43701E+01 7.48341E+01 3.63636E+00
 -1      8317 5.43701E+01 7.48341E+01 4.54545E+00
 -1      8318 5.43701E+01 7.48341E+01 5.45455E+00
 -1      8319 5.43701E+01 7.48341E+01 6.36364E+00
 -1      8320 5.43701E+01 7.48341E+01 7.27273E+00
 -1      8321 5.43701E+01 7.48341E+01 8.18182E+00
 -1      8322 5.43701E+01 7.48341E+01 9.09091E+00
 -1      8323 4.19941E+01 8.24181E+01 9.09091E-01
 -1      8324 4.19941E+01 8.24181E+01 1.81818E+00
 -1      8325 4.19941E+01 8.24181E+01 2.72727E+00
 -1      8326 4.19941E+01 8.24181E+01 3.63636E+00
 -1      8327 4.19941E+01 8.24181E+01 4.54545E+00
 -1      8328 4.19941E+01 8.24181E+01 5.45455E+00
 -1      8329 4.19941E+01 8.24181E+01 6.36364E+00
 -1      8330 4.19941E+01 8.24181E+01 7.27273E+00
 -1      8331 4.19941E+01 8.24181E+01 8.18182E+00
 -1      8332 4.19941E+01 8.24181E+01 9.09091E+00
 -1      8333 2.85841E+01 8.79727E+01 9.09091E-01
 -1      8334 2.85841E+01 8.79727E+01 1.81818E+00
 -1      8335 2.85841E+01 8.79727E+01 2.72727E+00
 -1      8336 2.85841E+01 8.79727E+01 3.63636E+00
 -1      8337 2.85841E+01 8.79727E+01 4.54545E+00
 -1      8338 2.85841E+01 8.79727E+01 5.45455E+00
 -1      8339 2.85841E+01 8.79727E+01 6.36364E+00
 -1      8340 2.85841E+01 8.79727E+01 7.27273E+00
 -1      8341 2.85841E+01 8.79727E+01 8.18182E+00
 -1      8342 2.85841E+01 8.79727E+01 9.09091E+00
 -1      8343 1.44702E+01 9.13612E+01 9.09091E-01
 -1      8344 1.44702E+01 9.13612E+01 1.81818E+00
 -1      8345 1.44702E+01 9.13612E+01 2.72727E+00
 -1      8346 1.44702E+01 9.13612E+01 3.63636E+00
 -1      8347 1.44702E+01 9.13612E+01 4.54545E+00
 -1      8348 1.44702E+01 9.13612E+01 5.45455E+00
 -1      8349 1.44702E+01 9.13612E+01 6.36364E+00
 -1      8350 1.44702E+01 9.13612E+01 7.27273E+00
 -1      8351 1.44702E+01 9.13612E+01 8.18182E+00
 -1      8352 1.44702E+01 9.13612E+01 9.09091E+00
 -1      8353 9.38304E+01 1.48613E+01 9.09091E-01
 -1      8354 9.38304E+01 1.48613E+01 1.81818E+00
 -1      8355 9.38304E+01 1.48613E+01 2.72727E+00
 -1      8356 9.38304E+01 1.48613E+01 3.63636E+00
 -1      8357 9.38304E+01 1.48613E+01 4.54545E+00
 -1      8358 9.38304E+01 1.48613E+01 5.45455E+00
 -1      8359 9.38304E+01 1.48613E+01 6.36364E+00
 -1      8360 9.38304E+01 1.48613E+01 7.27273E+00
 -1      8361 9.38304E+01 1.48613E+01 8.18182E+00
 -1      8362 9.38304E+01 1.48613E+01 9.09091E+00
 -1      8363 9.03504E+01 2.93566E+01 9.09091E-01
 -1      8364 9.03504E+01 2.93566E+01 1.81818E+00
 -1      8365 9.03504E+01 2.93566E+01 2.72727E+00
 -1      8366 9.03504E+01 2.93566E+01 3.63636E+00
 -1      8367 9.03504E+01 2.93566E+01 4.54545E+00
 -1      8368 9.03504E+01 2.93566E+01 5.45455E+00
 -1      8369 9.03504E+01 2.93566E+01 6.36364E+00
 -1      8370 9.03504E+01 2.93566E+01 7.27273E+00
 -1      8371 9.03504E+01 2.93566E+01 8.18182E+00
 -1      8372 9.03504E+01 2.93566E+01 9.09091E+00
 -1      8373 8.46456E+01 4.31291E+01 9.09091E-01
 -1      8374 8.46456E+01 4.31291E+01 1.81818E+00
 -1      8375 8.46456E+01 4.31291E+01 2.72727E+00
 -1      8376 8.46456E+01 4.31291E+01 3.63636E+00
 -1      8377 8.46456E+01 4.31291E+01 4.54545E+00
 -1      8378 8.46456E+01 4.31291E+01 5.45455E+00
 -1      8379 8.46456E+01 4.31291E+01 6.36364E+00
 -1      8380 8.46456E+01 4.31291E+01 7.27273E+00
 -1      8381 8.46456E+01 4.31291E+01 8.18182E+00
 -1      8382 8.46456E+01 4.31291E+01 9.09091E+00
 -1      8383 7.68566E+01 5.58396E+01 9.09091E-01
 -1      8384 7.68566E+01 5.58396E+01 1.81818E+00
 -1      8385 7.68566E+01 5.58396E+01 2.72727E+00
 -1      8386 7.68566E+01 5.58396E+01 3.63636E+00
 -1      8387 7.68566E+01 5.58396E+01 4.54545E+00
 -1      8388 7.68566E+01 5.58396E+01 5.45455E+00
 -1      8389 7.68566E+01 5.58396E+01 6.36364E+00
 -1      8390 7.68566E+01 5.58396E+01 7.27273E+00
 -1      8391 7.68566E+01 5.58396E+01 8.18182E+00
 -1      8392 7.68566E+01 5.58396E+01 9.09091E+00
 -1      8393 6.71751E+01 6.71751E+01 9.09091E-01
 -1      8394 6.71751E+01 6.71751E+01 1.81818E+00
 -1      8395 6.71751E+01 6.71751E+01 2.72727E+00
 -1      8396 6.71751E+01 6.71751E+01 3.63636E+00
 -1      8397 6.71751E+01 6.71751E+01 4.54545E+00
 -1      8398 6.71751E+01 6.71751E+01 5.45455E+00
 -1      8399 6.71751E+01 6.71751E+01 6.36364E+00
 -1      8400 6.71751E+01 6.71751E+01 7.27273E+00
 -1      8401 6.71751E+01 6.71751E+01 8.18182E+00
 -1      8402 6.71751E+01 6.71751E+01 9.09091E+00
 -1      8403 5.58396E+01 7.68566E+01 9.09091E-01
 -1      8404 5.58396E+01 7.68566E+01 1.81818E+00
 -1      8405 5.58396E+01 7.68566E+01 2.72727E+00
 -1      8406 5.58396E+01 7.68566E+01 3.63636E+00
 -1      8407 5.58396E+01 7.68566E+01 4.54545E+00
 -1      8408 5.58396E+01 7.68566E+01 5.45455E+00
 -1      8409 5.58396E+01 7.68566E+01 6.36364E+00
 -1      8410 5.58396E+01 7.68566E+01 7.27273E+00
 -1      8411 5.58396E+01 7.68566E+01 8.18182E+00
 -1      8412 5.58396E+01 7.68566E+01 9.09091E+00
 -1      8413 4.31291E+01 8.46456E+01 9.09091E-01
 -1      8414 4.31291E+01 8.46456E+01 1.81818E+00
 -1      8415 4.31291E+01 8.46456E+01 2.72727E+00
 -1      8416 4.31291E+01 8.46456E+01 3.63636E+00
 -1      8417 4.31291E+01 8.46456E+01 4.54545E+00
 -1      8418 4.31291E+01 8.46456E+01 5.45455E+00
 -1      8419 4.31291E+01 8.46456E+01 6.36364E+00
 -1      8420 4.31291E+01 8.46456E+01 7.27273E+00
 -1      8421 4.31291E+01 8.46456E+01 8.18182E+00
 -1      8422 4.31291E+01 8.46456E+01 9.09091E+00
 -1      8423 2.93566E+01 9.03504E+01 9.09091E-01
 -1      8424 2.93566E+01 9.03504E+01 1.81818E+00
 -1      8425 2.93566E+01 9.03504E+01 2.72727E+00
 -1      8426 2.93566E+01 9.03504E+01 3.63636E+00
 -1      8427 2.93566E+01 9.03504E+01 4.54545E+00
 -1      8428 2.93566E+01 9.03504E+01 5.45455E+00
 -1      8429 2.93566E+01 9.03504E+01 6.36364E+00
 -1      8430 2.93566E+01 9.03504E+01 7.27273E+00
 -1      8431 2.93566E+01 9.03504E+01 8.18182E+00
 -1      8432 2.93566E+01 9.03504E+01 9.09091E+00
 -1      8433 1.48613E+01 9.38304E+01 9.09091E-01
 -1      8434 1.48613E+01 9.38304E+01 1.81818E+00
 -1      8435 1.48613E+01 9.38304E+01 2.72727E+00
 -1      8436 1.48613E+01 9.38304E+01 3.63636E+00
 -1      8437 1.48613E+01 9.38304E+01 4.54545E+00
 -1      8438 1.48613E+01 9.38304E+01 5.45455E+00
 -1      8439 1.48613E+01 9.38304E+01 6.36364E+00
 -1      8440 1.48613E+01 9.38304E+01 7.27273E+00
 -1      8441 1.48613E+01 9.38304E+01 8.18182E+00
 -1      8442 1.48613E+01 9.38304E+01 9.09091E+00
 -1      8443 9.62996E+01 1.52524E+01 9.09091E-01
 -1      8444 9.62996E+01 1.52524E+01 1.81818E+00
 -1      8445 9.62996E+01 1.52524E+01 2.72727E+00
 -1      8446 9.62996E+01 1.52524E+01 3.63636E+00
 -1      8447 9.62996E+01 1.52524E+01 4.54545E+00
 -1      8448 9.62996E+01 1.52524E+01 5.45455E+00
 -1      8449 9.62996E+01 1.52524E+01 6.36364E+00
 -1      8450 9.62996E+01 1.52524E+01 7.27273E+00
 -1      8451 9.62996E+01 1.52524E+01 8.18182E+00
 -1      8452 9.62996E+01 1.52524E+01 9.09091E+00
 -1      8453 9.27280E+01 3.01292E+01 9.09091E-01
 -1      8454 9.27280E+01 3.01292E+01 1.81818E+00
 -1      8455 9.27280E+01 3.01292E+01 2.72727E+00
 -1      8456 9.27280E+01 3.01292E+01 3.63636E+00
 -1      8457 9.27280E+01 3.01292E+01 4.54545E+00
 -1      8458 9.27280E+01 3.01292E+01 5.45455E+00
 -1      8459 9.27280E+01 3.01292E+01 6.36364E+00
 -1      8460 9.27280E+01 3.01292E+01 7.27273E+00
 -1      8461 9.27280E+01 3.01292E+01 8.18182E+00
 -1      8462 9.27280E+01 3.01292E+01 9.09091E+00
 -1      8463 8.68731E+01 4.42641E+01 9.09091E-01
 -1      8464 8.68731E+01 4.42641E+01 1.81818E+00
 -1      8465 8.68731E+01 4.42641E+01 2.72727E+00
 -1      8466 8.68731E+01 4.42641E+01 3.63636E+00
 -1      8467 8.68731E+01 4.42641E+01 4.54545E+00
 -1      8468 8.68731E+01 4.42641E+01 5.45455E+00
 -1      8469 8.68731E+01 4.42641E+01 6.36364E+00
 -1      8470 8.68731E+01 4.42641E+01 7.27273E+00
 -1      8471 8.68731E+01 4.42641E+01 8.18182E+00
 -1      8472 8.68731E+01 4.42641E+01 9.09091E+00
 -1      8473 7.88792E+01 5.73091E+01 9.09091E-01
 -1      8474 7.88792E+01 5.73091E+01 1.81818E+00
 -1      8475 7.88792E+01 5.73091E+01 2.72727E+00
 -1      8476 7.88792E+01 5.73091E+01 3.63636E+00
 -1      8477 7.88792E+01 5.73091E+01 4.54545E+00
 -1      8478 7.88792E+01 5.73091E+01 5.45455E+00
 -1      8479 7.88792E+01 5.73091E+01 6.36364E+00
 -1      8480 7.88792E+01 5.73091E+01 7.27273E+00
 -1      8481 7.88792E+01 5.73091E+01 8.18182E+00
 -1      8482 7.88792E+01 5.73091E+01 9.09091E+00
 -1      8483 6.89429E+01 6.89429E+01 9.09091E-01
 -1      8484 6.89429E+01 6.89429E+01 1.81818E+00
 -1      8485 6.89429E+01 6.89429E+01 2.72727E+00
 -1      8486 6.89429E+01 6.89429E+01 3.63636E+00
 -1      8487 6.89429E+01 6.89429E+01 4.54545E+00
 -1      8488 6.89429E+01 6.89429E+01 5.45455E+00
 -1      8489 6.89429E+01 6.89429E+01 6.36364E+00
 -1      8490 6.89429E+01 6.89429E+01 7.27273E+00
 -1      8491 6.89429E+01 6.89429E+01 8.18182E+00
 -1      8492 6.89429E+01 6.89429E+01 9.09091E+00
 -1      8493 5.73091E+01 7.88792E+01 9.09091E-01
 -1      8494 5.73091E+01 7.88792E+01 1.81818E+00
 -1      8495 5.73091E+01 7.88792E+01 2.72727E+00
 -1      8496 5.73091E+01 7.88792E+01 3.63636E+00
 -1      8497 5.73091E+01 7.88792E+01 4.54545E+00
 -1      8498 5.73091E+01 7.88792E+01 5.45455E+00
 -1      8499 5.73091E+01 7.88792E+01 6.36364E+00
 -1      8500 5.73091E+01 7.88792E+01 7.27273E+00
 -1      8501 5.73091E+01 7.88792E+01 8.18182E+00
 -1      8502 5.73091E+01 7.88792E+01 9.09091E+00
 -1      8503 4.42641E+01 8.68731E+01 9.09091E-01
 -1      8504 4.42641E+01 8.68731E+01 1.81818E+00
 -1      8505 4.42641E+01 8.68731E+01 2.72727E+00
 -1      8506 4.42641E+01 8.68731E+01 3.63636E+00
 -1      8507 4.42641E+01 8.68731E+01 4.54545E+00
 -1      8508 4.42641E+01 8.68731E+01 5.45455E+00
 -1      8509 4.42641E+01 8.68731E+01 6.36364E+00
 -1      8510 4.42641E+01 8.68731E+01 7.27273E+00
 -1      8511 4.42641E+01 8.68731E+01 8.18182E+00
 -1      8512 4.42641E+01 8.68731E+01 9.09091E+00
 -1      8513 3.01292E+01 9.27280E+01 9.09091E-01
 -1      8514 3.01292E+01 9.27280E+01 1.81818E+00
 -1      8515 3.01292E+01 9.27280E+01 2.72727E+00
 -1      8516 3.01292E+01 9.27280E+01 3.63636E+00
 -1      8517 3.01292E+01 9.27280E+01 4.54545E+00
 -1      8518 3.01292E+01 9.27280E+01 5.45455E+00
 -1      8519 3.01292E+01 9.27280E+01 6.36364E+00
 -1      8520 3.01292E+01 9.27280E+01 7.27273E+00
 -1      8521 3.01292E+01 9.27280E+01 8.18182E+00
 -1      8522 3.01292E+01 9.27280E+01 9.09091E+00
 -1      8523 1.52524E+01 9.62996E+01 9.09091E-01
 -1      8524 1.52524E+01 9.62996E+01 1.81818E+00
 -1      8525 1.52524E+01 9.62996E+01 2.72727E+00
 -1      8526 1.52524E+01 9.62996E+01 3.63636E+00
 -1      8527 1.52524E+01 9.62996E+01 4.54545E+00
 -1      8528 1.52524E+01 9.62996E+01 5.45455E+00
 -1      8529 1.52524E+01 9.62996E+01 6.36364E+00
 -1      8530 1.52524E+01 9.62996E+01 7.27273E+00
 -1      8531 1.52524E+01 9.62996E+01 8.18182E+00
 -1      8532 1.52524E+01 9.62996E+01 9.09091E+00
 -1      8533 2.71614E+01 4.30195E+00 4.54545E-01
 -1      8534 2.73307E+01 2.15097E+00 9.09091E-01
 -1      8535 2.59268E+01 4.10640E+00 9.09091E-01
 -1      8540 2.71614E+01 4.30195E+00 1.36364E+00
 -1      8541 2.73307E+01 2.15097E+00 1.81818E+00
 -1      8542 2.59268E+01 4.10640E+00 1.81818E+00
 -1      8547 2.71614E+01 4.30195E+00 2.27273E+00
 -1      8548 2.73307E+01 2.15097E+00 2.72727E+00
 -1      8549 2.59268E+01 4.10640E+00 2.72727E+00
 -1      8554 2.71614E+01 4.30195E+00 3.18182E+00
 -1      8555 2.73307E+01 2.15097E+00 3.63636E+00
 -1      8556 2.59268E+01 4.10640E+00 3.63636E+00
 -1      8561 2.71614E+01 4.30195E+00 4.09091E+00
 -1      8562 2.73307E+01 2.15097E+00 4.54545E+00
 -1      8563 2.59268E+01 4.10640E+00 4.54545E+00
 -1      8568 2.71614E+01 4.30195E+00 5.00000E+00
 -1      8569 2.73307E+01 2.15097E+00 5.45455E+00
 -1      8570 2.59268E+01 4.10640E+00 5.45455E+00
 -1      8575 2.71614E+01 4.30195E+00 5.90909E+00
 -1      8576 2.73307E+01 2.15097E+00 6.36364E+00
 -1      8577 2.59268E+01 4.10640E+00 6.36364E+00
 -1      8582 2.71614E+01 4.30195E+00 6.81818E+00
 -1      8583 2.73307E+01 2.15097E+00 7.27273E+00
 -1      8584 2.59268E+01 4.10640E+00 7.27273E+00
 -1      8589 2.71614E+01 4.30195E+00 7.72727E+00
 -1      8590 2.73307E+01 2.15097E+00 8.18182E+00
 -1      8591 2.59268E+01 4.10640E+00 8.18182E+00
 -1      8596 2.71614E+01 4.30195E+00 8.63636E+00
 -1      8597 2.73307E+01 2.15097E+00 9.09091E+00
 -1      8598 2.59268E+01 4.10640E+00 9.09091E+00
 -1      8603 2.71614E+01 4.30195E+00 9.54545E+00
 -1      8607 2.61541E+01 8.49797E+00 4.54545E-01
 -1      8608 2.66577E+01 6.39996E+00 9.09091E-01
 -1      8609 2.49652E+01 8.11170E+00 9.09091E-01
 -1      8614 2.61541E+01 8.49797E+00 1.36364E+00
 -1      8615 2.66577E+01 6.39996E+00 1.81818E+00
 -1      8616 2.49652E+01 8.11170E+00 1.81818E+00
 -1      8621 2.61541E+01 8.49797E+00 2.27273E+00
 -1      8622 2.66577E+01 6.39996E+00 2.72727E+00
 -1      8623 2.49652E+01 8.11170E+00 2.72727E+00
 -1      8628 2.61541E+01 8.49797E+00 3.18182E+00
 -1      8629 2.66577E+01 6.39996E+00 3.63636E+00
 -1      8630 2.49652E+01 8.11170E+00 3.63636E+00
 -1      8635 2.61541E+01 8.49797E+00 4.09091E+00
 -1      8636 2.66577E+01 6.39996E+00 4.54545E+00
 -1      8637 2.49652E+01 8.11170E+00 4.54545E+00
 -1      8642 2.61541E+01 8.49797E+00 5.00000E+00
 -1      8643 2.66577E+01 6.39996E+00 5.45455E+00
 -1      8644 2.49652E+01 8.11170E+00 5.45455E+00
 -1      8649 2.61541E+01 8.49797E+00 5.90909E+00
 -1      8650 2.66577E+01 6.39996E+00 6.36364E+00
 -1      8651 2.49652E+01 8.11170E+00 6.36364E+00
 -1      8656 2.61541E+01 8.49797E+00 6.81818E+00
 -1      8657 2.66577E+01 6.39996E+00 7.27273E+00
 -1      8658 2.49652E+01 8.11170E+00 7.27273E+00
 -1      8663 2.61541E+01 8.49797E+00 7.72727E+00
 -1      8664 2.66577E+01 6.39996E+00 8.18182E+00
 -1      8665 2.49652E+01 8.11170E+00 8.18182E+00
 -1      8670 2.61541E+01 8.49797E+00 8.63636E+00
 -1      8671 2.66577E+01 6.39996E+00 9.09091E+00
 -1      8672 2.49652E+01 8.11170E+00 9.09091E+00
 -1      8677 2.61541E+01 8.49797E+00 9.54545E+00
 -1      8681 2.45027E+01 1.24847E+01 4.54545E-01
 -1      8682 2.53284E+01 1.04914E+01 9.09091E-01
 -1      8683 2.33889E+01 1.19173E+01 9.09091E-01
 -1      8688 2.45027E+01 1.24847E+01 1.36364E+00
 -1      8689 2.53284E+01 1.04914E+01 1.81818E+00
 -1      8690 2.33889E+01 1.19173E+01 1.81818E+00
 -1      8695 2.45027E+01 1.24847E+01 2.27273E+00
 -1      8696 2.53284E+01 1.04914E+01 2.72727E+00
 -1      8697 2.33889E+01 1.19173E+01 2.72727E+00
 -1      8702 2.45027E+01 1.24847E+01 3.18182E+00
 -1      8703 2.53284E+01 1.04914E+01 3.63636E+00
 -1      8704 2.33889E+01 1.19173E+01 3.63636E+00
 -1      8709 2.45027E+01 1.24847E+01 4.09091E+00
 -1      8710 2.53284E+01 1.04914E+01 4.54545E+00
 -1      8711 2.33889E+01 1.19173E+01 4.54545E+00
 -1      8716 2.45027E+01 1.24847E+01 5.00000E+00
 -1      8717 2.53284E+01 1.04914E+01 5.45455E+00
 -1      8718 2.33889E+01 1.19173E+01 5.45455E+00
 -1      8723 2.45027E+01 1.24847E+01 5.90909E+00
 -1      8724 2.53284E+01 1.04914E+01 6.36364E+00
 -1      8725 2.33889E+01 1.19173E+01 6.36364E+00
 -1      8730 2.45027E+01 1.24847E+01 6.81818E+00
 -1      8731 2.53284E+01 1.04914E+01 7.27273E+00
 -1      8732 2.33889E+01 1.19173E+01 7.27273E+00
 -1      8737 2.45027E+01 1.24847E+01 7.72727E+00
 -1      8738 2.53284E+01 1.04914E+01 8.18182E+00
 -1      8739 2.33889E+01 1.19173E+01 8.18182E+00
 -1      8744 2.45027E+01 1.24847E+01 8.63636E+00
 -1      8745 2.53284E+01 1.04914E+01 9.09091E+00
 -1      8746 2.33889E+01 1.19173E+01 9.09091E+00
 -1      8751 2.45027E+01 1.24847E+01 9.54545E+00
 -1      8755 2.22480E+01 1.61641E+01 4.54545E-01
 -1      8756 2.33753E+01 1.43244E+01 9.09091E-01
 -1      8757 2.12367E+01 1.54294E+01 9.09091E-01
 -1      8762 2.22480E+01 1.61641E+01 1.36364E+00
 -1      8763 2.33753E+01 1.43244E+01 1.81818E+00
 -1      8764 2.12367E+01 1.54294E+01 1.81818E+00
 -1      8769 2.22480E+01 1.61641E+01 2.27273E+00
 -1      8770 2.33753E+01 1.43244E+01 2.72727E+00
 -1      8771 2.12367E+01 1.54294E+01 2.72727E+00
 -1      8776 2.22480E+01 1.61641E+01 3.18182E+00
 -1      8777 2.33753E+01 1.43244E+01 3.63636E+00
 -1      8778 2.12367E+01 1.54294E+01 3.63636E+00
 -1      8783 2.22480E+01 1.61641E+01 4.09091E+00
 -1      8784 2.33753E+01 1.43244E+01 4.54545E+00
 -1      8785 2.12367E+01 1.54294E+01 4.54545E+00
 -1      8790 2.22480E+01 1.61641E+01 5.00000E+00
 -1      8791 2.33753E+01 1.43244E+01 5.45455E+00
 -1      8792 2.12367E+01 1.54294E+01 5.45455E+00
 -1      8797 2.22480E+01 1.61641E+01 5.90909E+00
 -1      8798 2.33753E+01 1.43244E+01 6.36364E+00
 -1      8799 2.12367E+01 1.54294E+01 6.36364E+00
 -1      8804 2.22480E+01 1.61641E+01 6.81818E+00
 -1      8805 2.33753E+01 1.43244E+01 7.27273E+00
 -1      8806 2.12367E+01 1.54294E+01 7.27273E+00
 -1      8811 2.22480E+01 1.61641E+01 7.72727E+00
 -1      8812 2.33753E+01 1.43244E+01 8.18182E+00
 -1      8813 2.12367E+01 1.54294E+01 8.18182E+00
 -1      8818 2.22480E+01 1.61641E+01 8.63636E+00
 -1      8819 2.33753E+01 1.43244E+01 9.09091E+00
 -1      8820 2.12367E+01 1.54294E+01 9.09091E+00
 -1      8825 2.22480E+01 1.61641E+01 9.54545E+00
 -1      8829 1.94454E+01 1.94454E+01 4.54545E-01
 -1      8830 2.08467E+01 1.78048E+01 9.09091E-01
 -1      8831 1.85616E+01 1.85616E+01 9.09091E-01
 -1      8836 1.94454E+01 1.94454E+01 1.36364E+00
 -1      8837 2.08467E+01 1.78048E+01 1.81818E+00
 -1      8838 1.85616E+01 1.85616E+01 1.81818E+00
 -1      8843 1.94454E+01 1.94454E+01 2.27273E+00
 -1      8844 2.08467E+01 1.78048E+01 2.72727E+00
 -1      8845 1.85616E+01 1.85616E+01 2.72727E+00
 -1      8850 1.94454E+01 1.94454E+01 3.18182E+00
 -1      8851 2.08467E+01 1.78048E+01 3.63636E+00
 -1      8852 1.85616E+01 1.85616E+01 3.63636E+00
 -1      8857 1.94454E+01 1.94454E+01 4.09091E+00
 -1      8858 2.08467E+01 1.78048E+01 4.54545E+00
 -1      8859 1.85616E+01 1.85616E+01 4.54545E+00
 -1      8864 1.94454E+01 1.94454E+01 5.00000E+00
 -1      8865 2.08467E+01 1.78048E+01 5.45455E+00
 -1      8866 1.85616E+01 1.85616E+01 5.45455E+00
 -1      8871 1.94454E+01 1.94454E+01 5.90909E+00
 -1      8872 2.08467E+01 1.78048E+01 6.36364E+00
 -1      8873 1.85616E+01 1.85616E+01 6.36364E+00
 -1      8878 1.94454E+01 1.94454E+01 6.81818E+00
 -1      8879 2.08467E+01 1.78048E+01 7.27273E+00
 -1      8880 1.85616E+01 1.85616E+01 7.27273E+00
 -1      8885 1.94454E+01 1.94454E+01 7.72727E+00
 -1      8886 2.08467E+01 1.78048E+01 8.18182E+00
 -1      8887 1.85616E+01 1.85616E+01 8.18182E+00
 -1      8892 1.94454E+01 1.94454E+01 8.63636E+00
 -1      8893 2.08467E+01 1.78048E+01 9.09091E+00
 -1      8894 1.85616E+01 1.85616E+01 9.09091E+00
 -1      8899 1.94454E+01 1.94454E+01 9.54545E+00
 -1      8903 1.61641E+01 2.22480E+01 4.54545E-01
 -1      8904 1.78048E+01 2.08467E+01 9.09091E-01
 -1      8905 1.54294E+01 2.12367E+01 9.09091E-01
 -1      8910 1.61641E+01 2.22480E+01 1.36364E+00
 -1      8911 1.78048E+01 2.08467E+01 1.81818E+00
 -1      8912 1.54294E+01 2.12367E+01 1.81818E+00
 -1      8917 1.61641E+01 2.22480E+01 2.27273E+00
 -1      8918 1.78048E+01 2.08467E+01 2.72727E+00
 -1      8919 1.54294E+01 2.12367E+01 2.72727E+00
 -1      8924 1.61641E+01 2.22480E+01 3.18182E+00
 -1      8925 1.78048E+01 2.08467E+01 3.63636E+00
 -1      8926 1.54294E+01 2.12367E+01 3.63636E+00
 -1      8931 1.61641E+01 2.22480E+01 4.09091E+00
 -1      8932 1.78048E+01 2.08467E+01 4.54545E+00
 -1      8933 1.54294E+01 2.12367E+01 4.54545E+00
 -1      8938 1.61641E+01 2.22480E+01 5.00000E+00
 -1      8939 1.78048E+01 2.08467E+01 5.45455E+00
 -1      8940 1.54294E+01 2.12367E+01 5.45455E+00
 -1      8945 1.61641E+01 2.22480E+01 5.90909E+00
 -1      8946 1.78048E+01 2.08467E+01 6.36364E+00
 -1      8947 1.54294E+01 2.12367E+01 6.36364E+00
 -1      8952 1.61641E+01 2.22480E+01 6.81818E+00
 -1      8953 1.78048E+01 2.08467E+01 7.27273E+00
 -1      8954 1.54294E+01 2.12367E+01 7.27273E+00
 -1      8959 1.61641E+01 2.22480E+01 7.72727E+00
 -1      8960 1.78048E+01 2.08467E+01 8.18182E+00
 -1      8961 1.54294E+01 2.12367E+01 8.18182E+00
 -1      8966 1.61641E+01 2.22480E+01 8.63636E+00
 -1      8967 1.78048E+01 2.08467E+01 9.09091E+00
 -1      8968 1.54294E+01 2.12367E+01 9.09091E+00
 -1      8973 1.61641E+01 2.22480E+01 9.54545E+00
 -1      8977 1.24847E+01 2.45027E+01 4.54545E-01
 -1      8978 1.43244E+01 2.33753E+01 9.09091E-01
 -1      8979 1.19173E+01 2.33889E+01 9.09091E-01
 -1      8984 1.24847E+01 2.45027E+01 1.36364E+00
 -1      8985 1.43244E+01 2.33753E+01 1.81818E+00
 -1      8986 1.19173E+01 2.33889E+01 1.81818E+00
 -1      8991 1.24847E+01 2.45027E+01 2.27273E+00
 -1      8992 1.43244E+01 2.33753E+01 2.72727E+00
 -1      8993 1.19173E+01 2.33889E+01 2.72727E+00
 -1      8998 1.24847E+01 2.45027E+01 3.18182E+00
 -1      8999 1.43244E+01 2.33753E+01 3.63636E+00
 -1      9000 1.19173E+01 2.33889E+01 3.63636E+00
 -1      9005 1.24847E+01 2.45027E+01 4.09091E+00
 -1      9006 1.43244E+01 2.33753E+01 4.54545E+00
 -1      9007 1.19173E+01 2.33889E+01 4.54545E+00
 -1      9012 1.24847E+01 2.45027E+01 5.00000E+00
 -1      9013 1.43244E+01 2.33753E+01 5.45455E+00
 -1      9014 1.19173E+01 2.33889E+01 5.45455E+00
 -1      9019 1.24847E+01 2.45027E+01 5.90909E+00
 -1      9020 1.43244E+01 2.33753E+01 6.36364E+00
 -1      9021 1.19173E+01 2.33889E+01 6.36364E+00
 -1      9026 1.24847E+01 2.45027E+01 6.81818E+00
 -1      9027 1.43244E+01 2.33753E+01 7.27273E+00
 -1      9028 1.19173E+01 2.33889E+01 7.27273E+00
 -1      9033 1.24847E+01 2.45027E+01 7.72727E+00
 -1      9034 1.43244E+01 2.33753E+01 8.18182E+00
 -1      9035 1.19173E+01 2.33889E+01 8.18182E+00
 -1      9040 1.24847E+01 2.45027E+01 8.63636E+00
 -1      9041 1.43244E+01 2.33753E+01 9.09091E+00
 -1      9042 1.19173E+01 2.33889E+01 9.09091E+00
 -1      9047 1.24847E+01 2.45027E+01 9.54545E+00
 -1      9051 8.49797E+00 2.61541E+01 4.54545E-01
 -1      9052 1.04914E+01 2.53284E+01 9.09091E-01
 -1      9053 8.11170E+00 2.49652E+01 9.09091E-01
 -1      9058 8.49797E+00 2.61541E+01 1.36364E+00
 -1      9059 1.04914E+01 2.53284E+01 1.81818E+00
 -1      9060 8.11170E+00 2.49652E+01 1.81818E+00
 -1      9065 8.49797E+00 2.61541E+01 2.27273E+00
 -1      9066 1.04914E+01 2.53284E+01 2.72727E+00
 -1      9067 8.11170E+00 2.49652E+01 2.72727E+00
 -1      9072 8.49797E+00 2.61541E+01 3.18182E+00
 -1      9073 1.04914E+01 2.53284E+01 3.63636E+00
 -1      9074 8.11170E+00 2.49652E+01 3.63636E+00
 -1      9079 8.49797E+00 2.61541E+01 4.09091E+00
 -1      9080 1.04914E+01 2.53284E+01 4.54545E+00
 -1      9081 8.11170E+00 2.49652E+01 4.54545E+00
 -1      9086 8.49797E+00 2.61541E+01 5.00000E+00
 -1      9087 1.04914E+01 2.53284E+01 5.45455E+00
 -1      9088 8.11170E+00 2.49652E+01 5.45455E+00
 -1      9093 8.49797E+00 2.61541E+01 5.90909E+00
 -1      9094 1.04914E+01 2.53284E+01 6.36364E+00
 -1      9095 8.11170E+00 2.49652E+01 6.36364E+00
 -1      9100 8.49797E+00 2.61541E+01 6.81818E+00
 -1      9101 1.04914E+01 2.53284E+01 7.27273E+00
 -1      9102 8.11170E+00 2.49652E+01 7.27273E+00
 -1      9107 8.49797E+00 2.61541E+01 7.72727E+00
 -1      9108 1.04914E+01 2.53284E+01 8.18182E+00
 -1      9109 8.11170E+00 2.49652E+01 8.18182E+00
 -1      9114 8.49797E+00 2.61541E+01 8.63636E+00
 -1      9115 1.04914E+01 2.53284E+01 9.09091E+00
 -1      9116 8.11170E+00 2.49652E+01 9.09091E+00
 -1      9121 8.49797E+00 2.61541E+01 9.54545E+00
 -1      9125 4.30195E+00 2.71614E+01 4.54545E-01
 -1      9126 6.39996E+00 2.66577E+01 9.09091E-01
 -1      9127 4.10640E+00 2.59268E+01 9.09091E-01
 -1      9132 4.30195E+00 2.71614E+01 1.36364E+00
 -1      9133 6.39996E+00 2.66577E+01 1.81818E+00
 -1      9134 4.10640E+00 2.59268E+01 1.81818E+00
 -1      9139 4.30195E+00 2.71614E+01 2.27273E+00
 -1      9140 6.39996E+00 2.66577E+01 2.72727E+00
 -1      9141 4.10640E+00 2.59268E+01 2.72727E+00
 -1      9146 4.30195E+00 2.71614E+01 3.18182E+00
 -1      9147 6.39996E+00 2.66577E+01 3.63636E+00
 -1      9148 4.10640E+00 2.59268E+01 3.63636E+00
 -1      9153 4.30195E+00 2.71614E+01 4.09091E+00
 -1      9154 6.39996E+00 2.66577E+01 4.54545E+00
 -1      9155 4.10640E+00 2.59268E+01 4.54545E+00
 -1      9160 4.30195E+00 2.71614E+01 5.00000E+00
 -1      9161 6.39996E+00 2.66577E+01 5.45455E+00
 -1      9162 4.10640E+00 2.59268E+01 5.45455E+00
 -1      9167 4.30195E+00 2.71614E+01 5.90909E+00
 -1      9168 6.39996E+00 2.66577E+01 6.36364E+00
 -1      9169 4.10640E+00 2.59268E+01 6.36364E+00
 -1      9174 4.30195E+00 2.71614E+01 6.81818E+00
 -1      9175 6.39996E+00 2.66577E+01 7.27273E+00
 -1      9176 4.10640E+00 2.59268E+01 7.27273E+00
 -1      9181 4.30195E+00 2.71614E+01 7.72727E+00
 -1      9182 6.39996E+00 2.66577E+01 8.18182E+00
 -1      9183 4.10640E+00 2.59268E+01 8.18182E+00
 -1      9188 4.30195E+00 2.71614E+01 8.63636E+00
 -1      9189 6.39996E+00 2.66577E+01 9.09091E+00
 -1      9190 4.10640E+00 2.59268E+01 9.09091E+00
 -1      9195 4.30195E+00 2.71614E+01 9.54545E+00
 -1      9199 2.15097E+00 2.73307E+01 9.09091E-01
 -1      9203 2.15097E+00 2.73307E+01 1.81818E+00
 -1      9207 2.15097E+00 2.73307E+01 2.72727E+00
 -1      9211 2.15097E+00 2.73307E+01 3.63636E+00
 -1      9215 2.15097E+00 2.73307E+01 4.54545E+00
 -1      9219 2.15097E+00 2.73307E+01 5.45455E+00
 -1      9223 2.15097E+00 2.73307E+01 6.36364E+00
 -1      9227 2.15097E+00 2.73307E+01 7.27273E+00
 -1      9231 2.15097E+00 2.73307E+01 8.18182E+00
 -1      9235 2.15097E+00 2.73307E+01 9.09091E+00
 -1      9241 2.96306E+01 4.69303E+00 4.54545E-01
 -1      9242 2.98153E+01 2.34652E+00 9.09091E-01
 -1      9243 2.83960E+01 4.49749E+00 9.09091E-01
 -1      9248 2.96306E+01 4.69303E+00 1.36364E+00
 -1      9249 2.98153E+01 2.34652E+00 1.81818E+00
 -1      9250 2.83960E+01 4.49749E+00 1.81818E+00
 -1      9255 2.96306E+01 4.69303E+00 2.27273E+00
 -1      9256 2.98153E+01 2.34652E+00 2.72727E+00
 -1      9257 2.83960E+01 4.49749E+00 2.72727E+00
 -1      9262 2.96306E+01 4.69303E+00 3.18182E+00
 -1      9263 2.98153E+01 2.34652E+00 3.63636E+00
 -1      9264 2.83960E+01 4.49749E+00 3.63636E+00
 -1      9269 2.96306E+01 4.69303E+00 4.09091E+00
 -1      9270 2.98153E+01 2.34652E+00 4.54545E+00
 -1      9271 2.83960E+01 4.49749E+00 4.54545E+00
 -1      9276 2.96306E+01 4.69303E+00 5.00000E+00
 -1      9277 2.98153E+01 2.34652E+00 5.45455E+00
 -1      9278 2.83960E+01 4.49749E+00 5.45455E+00
 -1      9283 2.96306E+01 4.69303E+00 5.90909E+00
 -1      9284 2.98153E+01 2.34652E+00 6.36364E+00
 -1      9285 2.83960E+01 4.49749E+00 6.36364E+00
 -1      9290 2.96306E+01 4.69303E+00 6.81818E+00
 -1      9291 2.98153E+01 2.34652E+00 7.27273E+00
 -1      9292 2.83960E+01 4.49749E+00 7.27273E+00
 -1      9297 2.96306E+01 4.69303E+00 7.72727E+00
 -1      9298 2.98153E+01 2.34652E+00 8.18182E+00
 -1      9299 2.83960E+01 4.49749E+00 8.18182E+00
 -1      9304 2.96306E+01 4.69303E+00 8.63636E+00
 -1      9305 2.98153E+01 2.34652E+00 9.09091E+00
 -1      9306 2.83960E+01 4.49749E+00 9.09091E+00
 -1      9311 2.96306E+01 4.69303E+00 9.54545E+00
 -1      9315 2.85317E+01 9.27051E+00 4.54545E-01
 -1      9316 2.90812E+01 6.98177E+00 9.09091E-01
 -1      9317 2.73429E+01 8.88424E+00 9.09091E-01
 -1      9322 2.85317E+01 9.27051E+00 1.36364E+00
 -1      9323 2.90812E+01 6.98177E+00 1.81818E+00
 -1      9324 2.73429E+01 8.88424E+00 1.81818E+00
 -1      9329 2.85317E+01 9.27051E+00 2.27273E+00
 -1      9330 2.90812E+01 6.98177E+00 2.72727E+00
 -1      9331 2.73429E+01 8.88424E+00 2.72727E+00
 -1      9336 2.85317E+01 9.27051E+00 3.18182E+00
 -1      9337 2.90812E+01 6.98177E+00 3.63636E+00
 -1      9338 2.73429E+01 8.88424E+00 3.63636E+00
 -1      9343 2.85317E+01 9.27051E+00 4.09091E+00
 -1      9344 2.90812E+01 6.98177E+00 4.54545E+00
 -1      9345 2.73429E+01 8.88424E+00 4.54545E+00
 -1      9350 2.85317E+01 9.27051E+00 5.00000E+00
 -1      9351 2.90812E+01 6.98177E+00 5.45455E+00
 -1      9352 2.73429E+01 8.88424E+00 5.45455E+00
 -1      9357 2.85317E+01 9.27051E+00 5.90909E+00
 -1      9358 2.90812E+01 6.98177E+00 6.36364E+00
 -1      9359 2.73429E+01 8.88424E+00 6.36364E+00
 -1      9364 2.85317E+01 9.27051E+00 6.81818E+00
 -1      9365 2.90812E+01 6.98177E+00 7.27273E+00
 -1      9366 2.73429E+01 8.88424E+00 7.27273E+00
 -1      9371 2.85317E+01 9.27051E+00 7.72727E+00
 -1      9372 2.90812E+01 6.98177E+00 8.18182E+00
 -1      9373 2.73429E+01 8.88424E+00 8.18182E+00
 -1      9378 2.85317E+01 9.27051E+00 8.63636E+00
 -1      9379 2.90812E+01 6.98177E+00 9.09091E+00
 -1      9380 2.73429E+01 8.88424E+00 9.09091E+00
 -1      9385 2.85317E+01 9.27051E+00 9.54545E+00
 -1      9389 2.67302E+01 1.36197E+01 4.54545E-01
 -1      9390 2.76309E+01 1.14451E+01 9.09091E-01
 -1      9391 2.56164E+01 1.30522E+01 9.09091E-01
 -1      9396 2.67302E+01 1.36197E+01 1.36364E+00
 -1      9397 2.76309E+01 1.14451E+01 1.81818E+00
 -1      9398 2.56164E+01 1.30522E+01 1.81818E+00
 -1      9403 2.67302E+01 1.36197E+01 2.27273E+00
 -1      9404 2.76309E+01 1.14451E+01 2.72727E+00
 -1      9405 2.56164E+01 1.30522E+01 2.72727E+00
 -1      9410 2.67302E+01 1.36197E+01 3.18182E+00
 -1      9411 2.76309E+01 1.14451E+01 3.63636E+00
 -1      9412 2.56164E+01 1.30522E+01 3.63636E+00
 -1      9417 2.67302E+01 1.36197E+01 4.09091E+00
 -1      9418 2.76309E+01 1.14451E+01 4.54545E+00
 -1      9419 2.56164E+01 1.30522E+01 4.54545E+00
 -1      9424 2.67302E+01 1.36197E+01 5.00000E+00
 -1      9425 2.76309E+01 1.14451E+01 5.45455E+00
 -1      9426 2.56164E+01 1.30522E+01 5.45455E+00
 -1      9431 2.67302E+01 1.36197E+01 5.90909E+00
 -1      9432 2.76309E+01 1.14451E+01 6.36364E+00
 -1      9433 2.56164E+01 1.30522E+01 6.36364E+00
 -1      9438 2.67302E+01 1.36197E+01 6.81818E+00
 -1      9439 2.76309E+01 1.14451E+01 7.27273E+00
 -1      9440 2.56164E+01 1.30522E+01 7.27273E+00
 -1      9445 2.67302E+01 1.36197E+01 7.72727E+00
 -1      9446 2.76309E+01 1.14451E+01 8.18182E+00
 -1      9447 2.56164E+01 1.30522E+01 8.18182E+00
 -1      9452 2.67302E+01 1.36197E+01 8.63636E+00
 -1      9453 2.76309E+01 1.14451E+01 9.09091E+00
 -1      9454 2.56164E+01 1.30522E+01 9.09091E+00
 -1      9459 2.67302E+01 1.36197E+01 9.54545E+00
 -1      9463 2.42705E+01 1.76336E+01 4.54545E-01
 -1      9464 2.55004E+01 1.56266E+01 9.09091E-01
 -1      9465 2.32592E+01 1.68988E+01 9.09091E-01
 -1      9470 2.42705E+01 1.76336E+01 1.36364E+00
 -1      9471 2.55004E+01 1.56266E+01 1.81818E+00
 -1      9472 2.32592E+01 1.68988E+01 1.81818E+00
 -1      9477 2.42705E+01 1.76336E+01 2.27273E+00
 -1      9478 2.55004E+01 1.56266E+01 2.72727E+00
 -1      9479 2.32592E+01 1.68988E+01 2.72727E+00
 -1      9484 2.42705E+01 1.76336E+01 3.18182E+00
 -1      9485 2.55004E+01 1.56266E+01 3.63636E+00
 -1      9486 2.32592E+01 1.68988E+01 3.63636E+00
 -1      9491 2.42705E+01 1.76336E+01 4.09091E+00
 -1      9492 2.55004E+01 1.56266E+01 4.54545E+00
 -1      9493 2.32592E+01 1.68988E+01 4.54545E+00
 -1      9498 2.42705E+01 1.76336E+01 5.00000E+00
 -1      9499 2.55004E+01 1.56266E+01 5.45455E+00
 -1      9500 2.32592E+01 1.68988E+01 5.45455E+00
 -1      9505 2.42705E+01 1.76336E+01 5.90909E+00
 -1      9506 2.55004E+01 1.56266E+01 6.36364E+00
 -1      9507 2.32592E+01 1.68988E+01 6.36364E+00
 -1      9512 2.42705E+01 1.76336E+01 6.81818E+00
 -1      9513 2.55004E+01 1.56266E+01 7.27273E+00
 -1      9514 2.32592E+01 1.68988E+01 7.27273E+00
 -1      9519 2.42705E+01 1.76336E+01 7.72727E+00
 -1      9520 2.55004E+01 1.56266E+01 8.18182E+00
 -1      9521 2.32592E+01 1.68988E+01 8.18182E+00
 -1      9526 2.42705E+01 1.76336E+01 8.63636E+00
 -1      9527 2.55004E+01 1.56266E+01 9.09091E+00
 -1      9528 2.32592E+01 1.68988E+01 9.09091E+00
 -1      9533 2.42705E+01 1.76336E+01 9.54545E+00
 -1      9537 2.12132E+01 2.12132E+01 4.54545E-01
 -1      9538 2.27419E+01 1.94234E+01 9.09091E-01
 -1      9539 2.03293E+01 2.03293E+01 9.09091E-01
 -1      9544 2.12132E+01 2.12132E+01 1.36364E+00
 -1      9545 2.27419E+01 1.94234E+01 1.81818E+00
 -1      9546 2.03293E+01 2.03293E+01 1.81818E+00
 -1      9551 2.12132E+01 2.12132E+01 2.27273E+00
 -1      9552 2.27419E+01 1.94234E+01 2.72727E+00
 -1      9553 2.03293E+01 2.03293E+01 2.72727E+00
 -1      9558 2.12132E+01 2.12132E+01 3.18182E+00
 -1      9559 2.27419E+01 1.94234E+01 3.63636E+00
 -1      9560 2.03293E+01 2.03293E+01 3.63636E+00
 -1      9565 2.12132E+01 2.12132E+01 4.09091E+00
 -1      9566 2.27419E+01 1.94234E+01 4.54545E+00
 -1      9567 2.03293E+01 2.03293E+01 4.54545E+00
 -1      9572 2.12132E+01 2.12132E+01 5.00000E+00
 -1      9573 2.27419E+01 1.94234E+01 5.45455E+00
 -1      9574 2.03293E+01 2.03293E+01 5.45455E+00
 -1      9579 2.12132E+01 2.12132E+01 5.90909E+00
 -1      9580 2.27419E+01 1.94234E+01 6.36364E+00
 -1      9581 2.03293E+01 2.03293E+01 6.36364E+00
 -1      9586 2.12132E+01 2.12132E+01 6.81818E+00
 -1      9587 2.27419E+01 1.94234E+01 7.27273E+00
 -1      9588 2.03293E+01 2.03293E+01 7.27273E+00
 -1      9593 2.12132E+01 2.12132E+01 7.72727E+00
 -1      9594 2.27419E+01 1.94234E+01 8.18182E+00
 -1      9595 2.03293E+01 2.03293E+01 8.18182E+00
 -1      9600 2.12132E+01 2.12132E+01 8.63636E+00
 -1      9601 2.27419E+01 1.94234E+01 9.09091E+00
 -1      9602 2.03293E+01 2.03293E+01 9.09091E+00
 -1      9607 2.12132E+01 2.12132E+01 9.54545E+00
 -1      9611 1.76336E+01 2.42705E+01 4.54545E-01
 -1      9612 1.94234E+01 2.27419E+01 9.09091E-01
 -1      9613 1.68988E+01 2.32592E+01 9.09091E-01
 -1      9618 1.76336E+01 2.42705E+01 1.36364E+00
 -1      9619 1.94234E+01 2.27419E+01 1.81818E+00
 -1      9620 1.68988E+01 2.32592E+01 1.81818E+00
 -1      9625 1.76336E+01 2.42705E+01 2.27273E+00
 -1      9626 1.94234E+01 2.27419E+01 2.72727E+00
 -1      9627 1.68988E+01 2.32592E+01 2.72727E+00
 -1      9632 1.76336E+01 2.42705E+01 3.18182E+00
 -1      9633 1.94234E+01 2.27419E+01 3.63636E+00
 -1      9634 1.68988E+01 2.32592E+01 3.63636E+00
 -1      9639 1.76336E+01 2.42705E+01 4.09091E+00
 -1      9640 1.94234E+01 2.27419E+01 4.54545E+00
 -1      9641 1.68988E+01 2.32592E+01 4.54545E+00
 -1      9646 1.76336E+01 2.42705E+01 5.00000E+00
 -1      9647 1.94234E+01 2.27419E+01 5.45455E+00
 -1      9648 1.68988E+01 2.32592E+01 5.45455E+00
 -1      9653 1.76336E+01 2.42705E+01 5.90909E+00
 -1      9654 1.94234E+01 2.27419E+01 6.36364E+00
 -1      9655 1.68988E+01 2.32592E+01 6.36364E+00
 -1      9660 1.76336E+01 2.42705E+01 6.81818E+00
 -1      9661 1.94234E+01 2.27419E+01 7.27273E+00
 -1      9662 1.68988E+01 2.32592E+01 7.27273E+00
 -1      9667 1.76336E+01 2.42705E+01 7.72727E+00
 -1      9668 1.94234E+01 2.27419E+01 8.18182E+00
 -1      9669 1.68988E+01 2.32592E+01 8.18182E+00
 -1      9674 1.76336E+01 2.42705E+01 8.63636E+00
 -1      9675 1.94234E+01 2.27419E+01 9.09091E+00
 -1      9676 1.68988E+01 2.32592E+01 9.09091E+00
 -1      9681 1.76336E+01 2.42705E+01 9.54545E+00
 -1      9685 1.36197E+01 2.67302E+01 4.54545E-01
 -1      9686 1.56266E+01 2.55004E+01 9.09091E-01
 -1      9687 1.30522E+01 2.56164E+01 9.09091E-01
 -1      9692 1.36197E+01 2.67302E+01 1.36364E+00
 -1      9693 1.56266E+01 2.55004E+01 1.81818E+00
 -1      9694 1.30522E+01 2.56164E+01 1.81818E+00
 -1      9699 1.36197E+01 2.67302E+01 2.27273E+00
 -1      9700 1.56266E+01 2.55004E+01 2.72727E+00
 -1      9701 1.30522E+01 2.56164E+01 2.72727E+00
 -1      9706 1.36197E+01 2.67302E+01 3.18182E+00
 -1      9707 1.56266E+01 2.55004E+01 3.63636E+00
 -1      9708 1.30522E+01 2.56164E+01 3.63636E+00
 -1      9713 1.36197E+01 2.67302E+01 4.09091E+00
 -1      9714 1.56266E+01 2.55004E+01 4.54545E+00
 -1      9715 1.30522E+01 2.56164E+01 4.54545E+00
 -1      9720 1.36197E+01 2.67302E+01 5.00000E+00
 -1      9721 1.56266E+01 2.55004E+01 5.45455E+00
 -1      9722 1.30522E+01 2.56164E+01 5.45455E+00
 -1      9727 1.36197E+01 2.67302E+01 5.90909E+00
 -1      9728 1.56266E+01 2.55004E+01 6.36364E+00
 -1      9729 1.30522E+01 2.56164E+01 6.36364E+00
 -1      9734 1.36197E+01 2.67302E+01 6.81818E+00
 -1      9735 1.56266E+01 2.55004E+01 7.27273E+00
 -1      9736 1.30522E+01 2.56164E+01 7.27273E+00
 -1      9741 1.36197E+01 2.67302E+01 7.72727E+00
 -1      9742 1.56266E+01 2.55004E+01 8.18182E+00
 -1      9743 1.30522E+01 2.56164E+01 8.18182E+00
 -1      9748 1.36197E+01 2.67302E+01 8.63636E+00
 -1      9749 1.56266E+01 2.55004E+01 9.09091E+00
 -1      9750 1.30522E+01 2.56164E+01 9.09091E+00
 -1      9755 1.36197E+01 2.67302E+01 9.54545E+00
 -1      9759 9.27051E+00 2.85317E+01 4.54545E-01
 -1      9760 1.14451E+01 2.76309E+01 9.09091E-01
 -1      9761 8.88424E+00 2.73429E+01 9.09091E-01
 -1      9766 9.27051E+00 2.85317E+01 1.36364E+00
 -1      9767 1.14451E+01 2.76309E+01 1.81818E+00
 -1      9768 8.88424E+00 2.73429E+01 1.81818E+00
 -1      9773 9.27051E+00 2.85317E+01 2.27273E+00
 -1      9774 1.14451E+01 2.76309E+01 2.72727E+00
 -1      9775 8.88424E+00 2.73429E+01 2.72727E+00
 -1      9780 9.27051E+00 2.85317E+01 3.18182E+00
 -1      9781 1.14451E+01 2.76309E+01 3.63636E+00
 -1      9782 8.88424E+00 2.73429E+01 3.63636E+00
 -1      9787 9.27051E+00 2.85317E+01 4.09091E+00
 -1      9788 1.14451E+01 2.76309E+01 4.54545E+00
 -1      9789 8.88424E+00 2.73429E+01 4.54545E+00
 -1      9794 9.27051E+00 2.85317E+01 5.00000E+00
 -1      9795 1.14451E+01 2.76309E+01 5.45455E+00
 -1      9796 8.88424E+00 2.73429E+01 5.45455E+00
 -1      9801 9.27051E+00 2.85317E+01 5.90909E+00
 -1      9802 1.14451E+01 2.76309E+01 6.36364E+00
 -1      9803 8.88424E+00 2.73429E+01 6.36364E+00
 -1      9808 9.27051E+00 2.85317E+01 6.81818E+00
 -1      9809 1.14451E+01 2.76309E+01 7.27273E+00
 -1      9810 8.88424E+00 2.73429E+01 7.27273E+00
 -1      9815 9.27051E+00 2.85317E+01 7.72727E+00
 -1      9816 1.14451E+01 2.76309E+01 8.18182E+00
 -1      9817 8.88424E+00 2.73429E+01 8.18182E+00
 -1      9822 9.27051E+00 2.85317E+01 8.63636E+00
 -1      9823 1.14451E+01 2.76309E+01 9.09091E+00
 -1      9824 8.88424E+00 2.73429E+01 9.09091E+00
 -1      9829 9.27051E+00 2.85317E+01 9.54545E+00
 -1      9833 4.69303E+00 2.96306E+01 4.54545E-01
 -1      9834 6.98177E+00 2.90812E+01 9.09091E-01
 -1      9835 4.49749E+00 2.83960E+01 9.09091E-01
 -1      9840 4.69303E+00 2.96306E+01 1.36364E+00
 -1      9841 6.98177E+00 2.90812E+01 1.81818E+00
 -1      9842 4.49749E+00 2.83960E+01 1.81818E+00
 -1      9847 4.69303E+00 2.96306E+01 2.27273E+00
 -1      9848 6.98177E+00 2.90812E+01 2.72727E+00
 -1      9849 4.49749E+00 2.83960E+01 2.72727E+00
 -1      9854 4.69303E+00 2.96306E+01 3.18182E+00
 -1      9855 6.98177E+00 2.90812E+01 3.63636E+00
 -1      9856 4.49749E+00 2.83960E+01 3.63636E+00
 -1      9861 4.69303E+00 2.96306E+01 4.09091E+00
 -1      9862 6.98177E+00 2.90812E+01 4.54545E+00
 -1      9863 4.49749E+00 2.83960E+01 4.54545E+00
 -1      9868 4.69303E+00 2.96306E+01 5.00000E+00
 -1      9869 6.98177E+00 2.90812E+01 5.45455E+00
 -1      9870 4.49749E+00 2.83960E+01 5.45455E+00
 -1      9875 4.69303E+00 2.96306E+01 5.90909E+00
 -1      9876 6.98177E+00 2.90812E+01 6.36364E+00
 -1      9877 4.49749E+00 2.83960E+01 6.36364E+00
 -1      9882 4.69303E+00 2.96306E+01 6.81818E+00
 -1      9883 6.98177E+00 2.90812E+01 7.27273E+00
 -1      9884 4.49749E+00 2.83960E+01 7.27273E+00
 -1      9889 4.69303E+00 2.96306E+01 7.72727E+00
 -1      9890 6.98177E+00 2.90812E+01 8.18182E+00
 -1      9891 4.49749E+00 2.83960E+01 8.18182E+00
 -1      9896 4.69303E+00 2.96306E+01 8.63636E+00
 -1      9897 6.98177E+00 2.90812E+01 9.09091E+00
 -1      9898 4.49749E+00 2.83960E+01 9.09091E+00
 -1      9903 4.69303E+00 2.96306E+01 9.54545E+00
 -1      9907 2.34652E+00 2.98153E+01 9.09091E-01
 -1      9911 2.34652E+00 2.98153E+01 1.81818E+00
 -1      9915 2.34652E+00 2.98153E+01 2.72727E+00
 -1      9919 2.34652E+00 2.98153E+01 3.63636E+00
 -1      9923 2.34652E+00 2.98153E+01 4.54545E+00
 -1      9927 2.34652E+00 2.98153E+01 5.45455E+00
 -1      9931 2.34652E+00 2.98153E+01 6.36364E+00
 -1      9935 2.34652E+00 2.98153E+01 7.27273E+00
 -1      9939 2.34652E+00 2.98153E+01 8.18182E+00
 -1      9943 2.34652E+00 2.98153E+01 9.09091E+00
 -1      9949 3.20999E+01 5.08412E+00 4.54545E-01
 -1      9950 3.22999E+01 2.54206E+00 9.09091E-01
 -1      9951 3.08653E+01 4.88858E+00 9.09091E-01
 -1      9956 3.20999E+01 5.08412E+00 1.36364E+00
 -1      9957 3.22999E+01 2.54206E+00 1.81818E+00
 -1      9958 3.08653E+01 4.88858E+00 1.81818E+00
 -1      9963 3.20999E+01 5.08412E+00 2.27273E+00
 -1      9964 3.22999E+01 2.54206E+00 2.72727E+00
 -1      9965 3.08653E+01 4.88858E+00 2.72727E+00
 -1      9970 3.20999E+01 5.08412E+00 3.18182E+00
 -1      9971 3.22999E+01 2.54206E+00 3.63636E+00
 -1      9972 3.08653E+01 4.88858E+00 3.63636E+00
 -1      9977 3.20999E+01 5.08412E+00 4.09091E+00
 -1      9978 3.22999E+01 2.54206E+00 4.54545E+00
 -1      9979 3.08653E+01 4.88858E+00 4.54545E+00
 -1      9984 3.20999E+01 5.08412E+00 5.00000E+00
 -1      9985 3.22999E+01 2.54206E+00 5.45455E+00
 -1      9986 3.08653E+01 4.88858E+00 5.45455E+00
 -1      9991 3.20999E+01 5.08412E+00 5.90909E+00
 -1      9992 3.22999E+01 2.54206E+00 6.36364E+00
 -1      9993 3.08653E+01 4.88858E+00 6.36364E+00
 -1      9998 3.20999E+01 5.08412E+00 6.81818E+00
 -1      9999 3.22999E+01 2.54206E+00 7.27273E+00
 -1     10000 3.08653E+01 4.88858E+00 7.27273E+00
 -1     10005 3.20999E+01 5.08412E+00 7.72727E+00
 -1     10006 3.22999E+01 2.54206E+00 8.18182E+00
 -1     10007 3.08653E+01 4.88858E+00 8.18182E+00
 -1     10012 3.20999E+01 5.08412E+00 8.63636E+00
 -1     10013 3.22999E+01 2.54206E+00 9.09091E+00
 -1     10014 3.08653E+01 4.88858E+00 9.09091E+00
 -1     10019 3.20999E+01 5.08412E+00 9.54545E+00
 -1     10023 3.09093E+01 1.00431E+01 4.54545E-01
 -1     10024 3.15046E+01 7.56359E+00 9.09091E-01
 -1     10025 2.97205E+01 9.65678E+00 9.09091E-01
 -1     10030 3.09093E+01 1.00431E+01 1.36364E+00
 -1     10031 3.15046E+01 7.56359E+00 1.81818E+00
 -1     10032 2.97205E+01 9.65678E+00 1.81818E+00
 -1     10037 3.09093E+01 1.00431E+01 2.27273E+00
 -1     10038 3.15046E+01 7.56359E+00 2.72727E+00
 -1     10039 2.97205E+01 9.65678E+00 2.72727E+00
 -1     10044 3.09093E+01 1.00431E+01 3.18182E+00
 -1     10045 3.15046E+01 7.56359E+00 3.63636E+00
 -1     10046 2.97205E+01 9.65678E+00 3.63636E+00
 -1     10051 3.09093E+01 1.00431E+01 4.09091E+00
 -1     10052 3.15046E+01 7.56359E+00 4.54545E+00
 -1     10053 2.97205E+01 9.65678E+00 4.54545E+00
 -1     10058 3.09093E+01 1.00431E+01 5.00000E+00
 -1     10059 3.15046E+01 7.56359E+00 5.45455E+00
 -1     10060 2.97205E+01 9.65678E+00 5.45455E+00
 -1     10065 3.09093E+01 1.00431E+01 5.90909E+00
 -1     10066 3.15046E+01 7.56359E+00 6.36364E+00
 -1     10067 2.97205E+01 9.65678E+00 6.36364E+00
 -1     10072 3.09093E+01 1.00431E+01 6.81818E+00
 -1     10073 3.15046E+01 7.56359E+00 7.27273E+00
 -1     10074 2.97205E+01 9.65678E+00 7.27273E+00
 -1     10079 3.09093E+01 1.00431E+01 7.72727E+00
 -1     10080 3.15046E+01 7.56359E+00 8.18182E+00
 -1     10081 2.97205E+01 9.65678E+00 8.18182E+00
 -1     10086 3.09093E+01 1.00431E+01 8.63636E+00
 -1     10087 3.15046E+01 7.56359E+00 9.09091E+00
 -1     10088 2.97205E+01 9.65678E+00 9.09091E+00
 -1     10093 3.09093E+01 1.00431E+01 9.54545E+00
 -1     10097 2.89577E+01 1.47547E+01 4.54545E-01
 -1     10098 2.99335E+01 1.23989E+01 9.09091E-01
 -1     10099 2.78440E+01 1.41872E+01 9.09091E-01
 -1     10104 2.89577E+01 1.47547E+01 1.36364E+00
 -1     10105 2.99335E+01 1.23989E+01 1.81818E+00
 -1     10106 2.78440E+01 1.41872E+01 1.81818E+00
 -1     10111 2.89577E+01 1.47547E+01 2.27273E+00
 -1     10112 2.99335E+01 1.23989E+01 2.72727E+00
 -1     10113 2.78440E+01 1.41872E+01 2.72727E+00
 -1     10118 2.89577E+01 1.47547E+01 3.18182E+00
 -1     10119 2.99335E+01 1.23989E+01 3.63636E+00
 -1     10120 2.78440E+01 1.41872E+01 3.63636E+00
 -1     10125 2.89577E+01 1.47547E+01 4.09091E+00
 -1     10126 2.99335E+01 1.23989E+01 4.54545E+00
 -1     10127 2.78440E+01 1.41872E+01 4.54545E+00
 -1     10132 2.89577E+01 1.47547E+01 5.00000E+00
 -1     10133 2.99335E+01 1.23989E+01 5.45455E+00
 -1     10134 2.78440E+01 1.41872E+01 5.45455E+00
 -1     10139 2.89577E+01 1.47547E+01 5.90909E+00
 -1     10140 2.99335E+01 1.23989E+01 6.36364E+00
 -1     10141 2.78440E+01 1.41872E+01 6.36364E+00
 -1     10146 2.89577E+01 1.47547E+01 6.81818E+00
 -1     10147 2.99335E+01 1.23989E+01 7.27273E+00
 -1     10148 2.78440E+01 1.41872E+01 7.27273E+00
 -1     10153 2.89577E+01 1.47547E+01 7.72727E+00
 -1     10154 2.99335E+01 1.23989E+01 8.18182E+00
 -1     10155 2.78440E+01 1.41872E+01 8.18182E+00
 -1     10160 2.89577E+01 1.47547E+01 8.63636E+00
 -1     10161 2.99335E+01 1.23989E+01 9.09091E+00
 -1     10162 2.78440E+01 1.41872E+01 9.09091E+00
 -1     10167 2.89577E+01 1.47547E+01 9.54545E+00
 -1     10171 2.62931E+01 1.91030E+01 4.54545E-01
 -1     10172 2.76254E+01 1.69289E+01 9.09091E-01
 -1     10173 2.52818E+01 1.83683E+01 9.09091E-01
 -1     10178 2.62931E+01 1.91030E+01 1.36364E+00
 -1     10179 2.76254E+01 1.69289E+01 1.81818E+00
 -1     10180 2.52818E+01 1.83683E+01 1.81818E+00
 -1     10185 2.62931E+01 1.91030E+01 2.27273E+00
 -1     10186 2.76254E+01 1.69289E+01 2.72727E+00
 -1     10187 2.52818E+01 1.83683E+01 2.72727E+00
 -1     10192 2.62931E+01 1.91030E+01 3.18182E+00
 -1     10193 2.76254E+01 1.69289E+01 3.63636E+00
 -1     10194 2.52818E+01 1.83683E+01 3.63636E+00
 -1     10199 2.62931E+01 1.91030E+01 4.09091E+00
 -1     10200 2.76254E+01 1.69289E+01 4.54545E+00
 -1     10201 2.52818E+01 1.83683E+01 4.54545E+00
 -1     10206 2.62931E+01 1.91030E+01 5.00000E+00
 -1     10207 2.76254E+01 1.69289E+01 5.45455E+00
 -1     10208 2.52818E+01 1.83683E+01 5.45455E+00
 -1     10213 2.62931E+01 1.91030E+01 5.90909E+00
 -1     10214 2.76254E+01 1.69289E+01 6.36364E+00
 -1     10215 2.52818E+01 1.83683E+01 6.36364E+00
 -1     10220 2.62931E+01 1.91030E+01 6.81818E+00
 -1     10221 2.76254E+01 1.69289E+01 7.27273E+00
 -1     10222 2.52818E+01 1.83683E+01 7.27273E+00
 -1     10227 2.62931E+01 1.91030E+01 7.72727E+00
 -1     10228 2.76254E+01 1.69289E+01 8.18182E+00
 -1     10229 2.52818E+01 1.83683E+01 8.18182E+00
 -1     10234 2.62931E+01 1.91030E+01 8.63636E+00
 -1     10235 2.76254E+01 1.69289E+01 9.09091E+00
 -1     10236 2.52818E+01 1.83683E+01 9.09091E+00
 -1     10241 2.62931E+01 1.91030E+01 9.54545E+00
 -1     10245 2.29810E+01 2.29810E+01 4.54545E-01
 -1     10246 2.46370E+01 2.10420E+01 9.09091E-01
 -1     10247 2.20971E+01 2.20971E+01 9.09091E-01
 -1     10252 2.29810E+01 2.29810E+01 1.36364E+00
 -1     10253 2.46370E+01 2.10420E+01 1.81818E+00
 -1     10254 2.20971E+01 2.20971E+01 1.81818E+00
 -1     10259 2.29810E+01 2.29810E+01 2.27273E+00
 -1     10260 2.46370E+01 2.10420E+01 2.72727E+00
 -1     10261 2.20971E+01 2.20971E+01 2.72727E+00
 -1     10266 2.29810E+01 2.29810E+01 3.18182E+00
 -1     10267 2.46370E+01 2.10420E+01 3.63636E+00
 -1     10268 2.20971E+01 2.20971E+01 3.63636E+00
 -1     10273 2.29810E+01 2.29810E+01 4.09091E+00
 -1     10274 2.46370E+01 2.10420E+01 4.54545E+00
 -1     10275 2.20971E+01 2.20971E+01 4.54545E+00
 -1     10280 2.29810E+01 2.29810E+01 5.00000E+00
 -1     10281 2.46370E+01 2.10420E+01 5.45455E+00
 -1     10282 2.20971E+01 2.20971E+01 5.45455E+00
 -1     10287 2.29810E+01 2.29810E+01 5.90909E+00
 -1     10288 2.46370E+01 2.10420E+01 6.36364E+00
 -1     10289 2.20971E+01 2.20971E+01 6.36364E+00
 -1     10294 2.29810E+01 2.29810E+01 6.81818E+00
 -1     10295 2.46370E+01 2.10420E+01 7.27273E+00
 -1     10296 2.20971E+01 2.20971E+01 7.27273E+00
 -1     10301 2.29810E+01 2.29810E+01 7.72727E+00
 -1     10302 2.46370E+01 2.10420E+01 8.18182E+00
 -1     10303 2.20971E+01 2.20971E+01 8.18182E+00
 -1     10308 2.29810E+01 2.29810E+01 8.63636E+00
 -1     10309 2.46370E+01 2.10420E+01 9.09091E+00
 -1     10310 2.20971E+01 2.20971E+01 9.09091E+00
 -1     10315 2.29810E+01 2.29810E+01 9.54545E+00
 -1     10319 1.91030E+01 2.62931E+01 4.54545E-01
 -1     10320 2.10420E+01 2.46370E+01 9.09091E-01
 -1     10321 1.83683E+01 2.52818E+01 9.09091E-01
 -1     10326 1.91030E+01 2.62931E+01 1.36364E+00
 -1     10327 2.10420E+01 2.46370E+01 1.81818E+00
 -1     10328 1.83683E+01 2.52818E+01 1.81818E+00
 -1     10333 1.91030E+01 2.62931E+01 2.27273E+00
 -1     10334 2.10420E+01 2.46370E+01 2.72727E+00
 -1     10335 1.83683E+01 2.52818E+01 2.72727E+00
 -1     10340 1.91030E+01 2.62931E+01 3.18182E+00
 -1     10341 2.10420E+01 2.46370E+01 3.63636E+00
 -1     10342 1.83683E+01 2.52818E+01 3.63636E+00
 -1     10347 1.91030E+01 2.62931E+01 4.09091E+00
 -1     10348 2.10420E+01 2.46370E+01 4.54545E+00
 -1     10349 1.83683E+01 2.52818E+01 4.54545E+00
 -1     10354 1.91030E+01 2.62931E+01 5.00000E+00
 -1     10355 2.10420E+01 2.46370E+01 5.45455E+00
 -1     10356 1.83683E+01 2.52818E+01 5.45455E+00
 -1     10361 1.91030E+01 2.62931E+01 5.90909E+00
 -1     10362 2.10420E+01 2.46370E+01 6.36364E+00
 -1     10363 1.83683E+01 2.52818E+01 6.36364E+00
 -1     10368 1.91030E+01 2.62931E+01 6.81818E+00
 -1     10369 2.10420E+01 2.46370E+01 7.27273E+00
 -1     10370 1.83683E+01 2.52818E+01 7.27273E+00
 -1     10375 1.91030E+01 2.62931E+01 7.72727E+00
 -1     10376 2.10420E+01 2.46370E+01 8.18182E+00
 -1     10377 1.83683E+01 2.52818E+01 8.18182E+00
 -1     10382 1.91030E+01 2.62931E+01 8.63636E+00
 -1     10383 2.10420E+01 2.46370E+01 9.09091E+00
 -1     10384 1.83683E+01 2.52818E+01 9.09091E+00
 -1     10389 1.91030E+01 2.62931E+01 9.54545E+00
 -1     10393 1.47547E+01 2.89577E+01 4.54545E-01
 -1     10394 1.69289E+01 2.76254E+01 9.09091E-01
 -1     10395 1.41872E+01 2.78440E+01 9.09091E-01
 -1     10400 1.47547E+01 2.89577E+01 1.36364E+00
 -1     10401 1.69289E+01 2.76254E+01 1.81818E+00
 -1     10402 1.41872E+01 2.78440E+01 1.81818E+00
 -1     10407 1.47547E+01 2.89577E+01 2.27273E+00
 -1     10408 1.69289E+01 2.76254E+01 2.72727E+00
 -1     10409 1.41872E+01 2.78440E+01 2.72727E+00
 -1     10414 1.47547E+01 2.89577E+01 3.18182E+00
 -1     10415 1.69289E+01 2.76254E+01 3.63636E+00
 -1     10416 1.41872E+01 2.78440E+01 3.63636E+00
 -1     10421 1.47547E+01 2.89577E+01 4.09091E+00
 -1     10422 1.69289E+01 2.76254E+01 4.54545E+00
 -1     10423 1.41872E+01 2.78440E+01 4.54545E+00
 -1     10428 1.47547E+01 2.89577E+01 5.00000E+00
 -1     10429 1.69289E+01 2.76254E+01 5.45455E+00
 -1     10430 1.41872E+01 2.78440E+01 5.45455E+00
 -1     10435 1.47547E+01 2.89577E+01 5.90909E+00
 -1     10436 1.69289E+01 2.76254E+01 6.36364E+00
 -1     10437 1.41872E+01 2.78440E+01 6.36364E+00
 -1     10442 1.47547E+01 2.89577E+01 6.81818E+00
 -1     10443 1.69289E+01 2.76254E+01 7.27273E+00
 -1     10444 1.41872E+01 2.78440E+01 7.27273E+00
 -1     10449 1.47547E+01 2.89577E+01 7.72727E+00
 -1     10450 1.69289E+01 2.76254E+01 8.18182E+00
 -1     10451 1.41872E+01 2.78440E+01 8.18182E+00
 -1     10456 1.47547E+01 2.89577E+01 8.63636E+00
 -1     10457 1.69289E+01 2.76254E+01 9.09091E+00
 -1     10458 1.41872E+01 2.78440E+01 9.09091E+00
 -1     10463 1.47547E+01 2.89577E+01 9.54545E+00
 -1     10467 1.00431E+01 3.09093E+01 4.54545E-01
 -1     10468 1.23989E+01 2.99335E+01 9.09091E-01
 -1     10469 9.65678E+00 2.97205E+01 9.09091E-01
 -1     10474 1.00431E+01 3.09093E+01 1.36364E+00
 -1     10475 1.23989E+01 2.99335E+01 1.81818E+00
 -1     10476 9.65678E+00 2.97205E+01 1.81818E+00
 -1     10481 1.00431E+01 3.09093E+01 2.27273E+00
 -1     10482 1.23989E+01 2.99335E+01 2.72727E+00
 -1     10483 9.65678E+00 2.97205E+01 2.72727E+00
 -1     10488 1.00431E+01 3.09093E+01 3.18182E+00
 -1     10489 1.23989E+01 2.99335E+01 3.63636E+00
 -1     10490 9.65678E+00 2.97205E+01 3.63636E+00
 -1     10495 1.00431E+01 3.09093E+01 4.09091E+00
 -1     10496 1.23989E+01 2.99335E+01 4.54545E+00
 -1     10497 9.65678E+00 2.97205E+01 4.54545E+00
 -1     10502 1.00431E+01 3.09093E+01 5.00000E+00
 -1     10503 1.23989E+01 2.99335E+01 5.45455E+00
 -1     10504 9.65678E+00 2.97205E+01 5.45455E+00
 -1     10509 1.00431E+01 3.09093E+01 5.90909E+00
 -1     10510 1.23989E+01 2.99335E+01 6.36364E+00
 -1     10511 9.65678E+00 2.97205E+01 6.36364E+00
 -1     10516 1.00431E+01 3.09093E+01 6.81818E+00
 -1     10517 1.23989E+01 2.99335E+01 7.27273E+00
 -1     10518 9.65678E+00 2.97205E+01 7.27273E+00
 -1     10523 1.00431E+01 3.09093E+01 7.72727E+00
 -1     10524 1.23989E+01 2.99335E+01 8.18182E+00
 -1     10525 9.65678E+00 2.97205E+01 8.18182E+00
 -1     10530 1.00431E+01 3.09093E+01 8.63636E+00
 -1     10531 1.23989E+01 2.99335E+01 9.09091E+00
 -1     10532 9.65678E+00 2.97205E+01 9.09091E+00
 -1     10537 1.00431E+01 3.09093E+01 9.54545E+00
 -1     10541 5.08412E+00 3.20999E+01 4.54545E-01
 -1     10542 7.56359E+00 3.15046E+01 9.09091E-01
 -1     10543 4.88858E+00 3.08653E+01 9.09091E-01
 -1     10548 5.08412E+00 3.20999E+01 1.36364E+00
 -1     10549 7.56359E+00 3.15046E+01 1.81818E+00
 -1     10550 4.88858E+00 3.08653E+01 1.81818E+00
 -1     10555 5.08412E+00 3.20999E+01 2.27273E+00
 -1     10556 7.56359E+00 3.15046E+01 2.72727E+00
 -1     10557 4.88858E+00 3.08653E+01 2.72727E+00
 -1     10562 5.08412E+00 3.20999E+01 3.18182E+00
 -1     10563 7.56359E+00 3.15046E+01 3.63636E+00
 -1     10564 4.88858E+00 3.08653E+01 3.63636E+00
 -1     10569 5.08412E+00 3.20999E+01 4.09091E+00
 -1     10570 7.56359E+00 3.15046E+01 4.54545E+00
 -1     10571 4.88858E+00 3.08653E+01 4.54545E+00
 -1     10576 5.08412E+00 3.20999E+01 5.00000E+00
 -1     10577 7.56359E+00 3.15046E+01 5.45455E+00
 -1     10578 4.88858E+00 3.08653E+01 5.45455E+00
 -1     10583 5.08412E+00 3.20999E+01 5.90909E+00
 -1     10584 7.56359E+00 3.15046E+01 6.36364E+00
 -1     10585 4.88858E+00 3.08653E+01 6.36364E+00
 -1     10590 5.08412E+00 3.20999E+01 6.81818E+00
 -1     10591 7.56359E+00 3.15046E+01 7.27273E+00
 -1     10592 4.88858E+00 3.08653E+01 7.27273E+00
 -1     10597 5.08412E+00 3.20999E+01 7.72727E+00
 -1     10598 7.56359E+00 3.15046E+01 8.18182E+00
 -1     10599 4.88858E+00 3.08653E+01 8.18182E+00
 -1     10604 5.08412E+00 3.20999E+01 8.63636E+00
 -1     10605 7.56359E+00 3.15046E+01 9.09091E+00
 -1     10606 4.88858E+00 3.08653E+01 9.09091E+00
 -1     10611 5.08412E+00 3.20999E+01 9.54545E+00
 -1     10615 2.54206E+00 3.22999E+01 9.09091E-01
 -1     10619 2.54206E+00 3.22999E+01 1.81818E+00
 -1     10623 2.54206E+00 3.22999E+01 2.72727E+00
 -1     10627 2.54206E+00 3.22999E+01 3.63636E+00
 -1     10631 2.54206E+00 3.22999E+01 4.54545E+00
 -1     10635 2.54206E+00 3.22999E+01 5.45455E+00
 -1     10639 2.54206E+00 3.22999E+01 6.36364E+00
 -1     10643 2.54206E+00 3.22999E+01 7.27273E+00
 -1     10647 2.54206E+00 3.22999E+01 8.18182E+00
 -1     10651 2.54206E+00 3.22999E+01 9.09091E+00
 -1     10657 3.45691E+01 5.47521E+00 4.54545E-01
 -1     10658 3.47845E+01 2.73760E+00 9.09091E-01
 -1     10659 3.33345E+01 5.27966E+00 9.09091E-01
 -1     10664 3.45691E+01 5.47521E+00 1.36364E+00
 -1     10665 3.47845E+01 2.73760E+00 1.81818E+00
 -1     10666 3.33345E+01 5.27966E+00 1.81818E+00
 -1     10671 3.45691E+01 5.47521E+00 2.27273E+00
 -1     10672 3.47845E+01 2.73760E+00 2.72727E+00
 -1     10673 3.33345E+01 5.27966E+00 2.72727E+00
 -1     10678 3.45691E+01 5.47521E+00 3.18182E+00
 -1     10679 3.47845E+01 2.73760E+00 3.63636E+00
 -1     10680 3.33345E+01 5.27966E+00 3.63636E+00
 -1     10685 3.45691E+01 5.47521E+00 4.09091E+00
 -1     10686 3.47845E+01 2.73760E+00 4.54545E+00
 -1     10687 3.33345E+01 5.27966E+00 4.54545E+00
 -1     10692 3.45691E+01 5.47521E+00 5.00000E+00
 -1     10693 3.47845E+01 2.73760E+00 5.45455E+00
 -1     10694 3.33345E+01 5.27966E+00 5.45455E+00
 -1     10699 3.45691E+01 5.47521E+00 5.90909E+00
 -1     10700 3.47845E+01 2.73760E+00 6.36364E+00
 -1     10701 3.33345E+01 5.27966E+00 6.36364E+00
 -1     10706 3.45691E+01 5.47521E+00 6.81818E+00
 -1     10707 3.47845E+01 2.73760E+00 7.27273E+00
 -1     10708 3.33345E+01 5.27966E+00 7.27273E+00
 -1     10713 3.45691E+01 5.47521E+00 7.72727E+00
 -1     10714 3.47845E+01 2.73760E+00 8.18182E+00
 -1     10715 3.33345E+01 5.27966E+00 8.18182E+00
 -1     10720 3.45691E+01 5.47521E+00 8.63636E+00
 -1     10721 3.47845E+01 2.73760E+00 9.09091E+00
 -1     10722 3.33345E+01 5.27966E+00 9.09091E+00
 -1     10727 3.45691E+01 5.47521E+00 9.54545E+00
 -1     10731 3.32870E+01 1.08156E+01 4.54545E-01
 -1     10732 3.39280E+01 8.14540E+00 9.09091E-01
 -1     10733 3.20982E+01 1.04293E+01 9.09091E-01
 -1     10738 3.32870E+01 1.08156E+01 1.36364E+00
 -1     10739 3.39280E+01 8.14540E+00 1.81818E+00
 -1     10740 3.20982E+01 1.04293E+01 1.81818E+00
 -1     10745 3.32870E+01 1.08156E+01 2.27273E+00
 -1     10746 3.39280E+01 8.14540E+00 2.72727E+00
 -1     10747 3.20982E+01 1.04293E+01 2.72727E+00
 -1     10752 3.32870E+01 1.08156E+01 3.18182E+00
 -1     10753 3.39280E+01 8.14540E+00 3.63636E+00
 -1     10754 3.20982E+01 1.04293E+01 3.63636E+00
 -1     10759 3.32870E+01 1.08156E+01 4.09091E+00
 -1     10760 3.39280E+01 8.14540E+00 4.54545E+00
 -1     10761 3.20982E+01 1.04293E+01 4.54545E+00
 -1     10766 3.32870E+01 1.08156E+01 5.00000E+00
 -1     10767 3.39280E+01 8.14540E+00 5.45455E+00
 -1     10768 3.20982E+01 1.04293E+01 5.45455E+00
 -1     10773 3.32870E+01 1.08156E+01 5.90909E+00
 -1     10774 3.39280E+01 8.14540E+00 6.36364E+00
 -1     10775 3.20982E+01 1.04293E+01 6.36364E+00
 -1     10780 3.32870E+01 1.08156E+01 6.81818E+00
 -1     10781 3.39280E+01 8.14540E+00 7.27273E+00
 -1     10782 3.20982E+01 1.04293E+01 7.27273E+00
 -1     10787 3.32870E+01 1.08156E+01 7.72727E+00
 -1     10788 3.39280E+01 8.14540E+00 8.18182E+00
 -1     10789 3.20982E+01 1.04293E+01 8.18182E+00
 -1     10794 3.32870E+01 1.08156E+01 8.63636E+00
 -1     10795 3.39280E+01 8.14540E+00 9.09091E+00
 -1     10796 3.20982E+01 1.04293E+01 9.09091E+00
 -1     10801 3.32870E+01 1.08156E+01 9.54545E+00
 -1     10805 3.11852E+01 1.58897E+01 4.54545E-01
 -1     10806 3.22361E+01 1.33526E+01 9.09091E-01
 -1     10807 3.00715E+01 1.53222E+01 9.09091E-01
 -1     10812 3.11852E+01 1.58897E+01 1.36364E+00
 -1     10813 3.22361E+01 1.33526E+01 1.81818E+00
 -1     10814 3.00715E+01 1.53222E+01 1.81818E+00
 -1     10819 3.11852E+01 1.58897E+01 2.27273E+00
 -1     10820 3.22361E+01 1.33526E+01 2.72727E+00
 -1     10821 3.00715E+01 1.53222E+01 2.72727E+00
 -1     10826 3.11852E+01 1.58897E+01 3.18182E+00
 -1     10827 3.22361E+01 1.33526E+01 3.63636E+00
 -1     10828 3.00715E+01 1.53222E+01 3.63636E+00
 -1     10833 3.11852E+01 1.58897E+01 4.09091E+00
 -1     10834 3.22361E+01 1.33526E+01 4.54545E+00
 -1     10835 3.00715E+01 1.53222E+01 4.54545E+00
 -1     10840 3.11852E+01 1.58897E+01 5.00000E+00
 -1     10841 3.22361E+01 1.33526E+01 5.45455E+00
 -1     10842 3.00715E+01 1.53222E+01 5.45455E+00
 -1     10847 3.11852E+01 1.58897E+01 5.90909E+00
 -1     10848 3.22361E+01 1.33526E+01 6.36364E+00
 -1     10849 3.00715E+01 1.53222E+01 6.36364E+00
 -1     10854 3.11852E+01 1.58897E+01 6.81818E+00
 -1     10855 3.22361E+01 1.33526E+01 7.27273E+00
 -1     10856 3.00715E+01 1.53222E+01 7.27273E+00
 -1     10861 3.11852E+01 1.58897E+01 7.72727E+00
 -1     10862 3.22361E+01 1.33526E+01 8.18182E+00
 -1     10863 3.00715E+01 1.53222E+01 8.18182E+00
 -1     10868 3.11852E+01 1.58897E+01 8.63636E+00
 -1     10869 3.22361E+01 1.33526E+01 9.09091E+00
 -1     10870 3.00715E+01 1.53222E+01 9.09091E+00
 -1     10875 3.11852E+01 1.58897E+01 9.54545E+00
 -1     10879 2.83156E+01 2.05725E+01 4.54545E-01
 -1     10880 2.97504E+01 1.82311E+01 9.09091E-01
 -1     10881 2.73043E+01 1.98378E+01 9.09091E-01
 -1     10886 2.83156E+01 2.05725E+01 1.36364E+00
 -1     10887 2.97504E+01 1.82311E+01 1.81818E+00
 -1     10888 2.73043E+01 1.98378E+01 1.81818E+00
 -1     10893 2.83156E+01 2.05725E+01 2.27273E+00
 -1     10894 2.97504E+01 1.82311E+01 2.72727E+00
 -1     10895 2.73043E+01 1.98378E+01 2.72727E+00
 -1     10900 2.83156E+01 2.05725E+01 3.18182E+00
 -1     10901 2.97504E+01 1.82311E+01 3.63636E+00
 -1     10902 2.73043E+01 1.98378E+01 3.63636E+00
 -1     10907 2.83156E+01 2.05725E+01 4.09091E+00
 -1     10908 2.97504E+01 1.82311E+01 4.54545E+00
 -1     10909 2.73043E+01 1.98378E+01 4.54545E+00
 -1     10914 2.83156E+01 2.05725E+01 5.00000E+00
 -1     10915 2.97504E+01 1.82311E+01 5.45455E+00
 -1     10916 2.73043E+01 1.98378E+01 5.45455E+00
 -1     10921 2.83156E+01 2.05725E+01 5.90909E+00
 -1     10922 2.97504E+01 1.82311E+01 6.36364E+00
 -1     10923 2.73043E+01 1.98378E+01 6.36364E+00
 -1     10928 2.83156E+01 2.05725E+01 6.81818E+00
 -1     10929 2.97504E+01 1.82311E+01 7.27273E+00
 -1     10930 2.73043E+01 1.98378E+01 7.27273E+00
 -1     10935 2.83156E+01 2.05725E+01 7.72727E+00
 -1     10936 2.97504E+01 1.82311E+01 8.18182E+00
 -1     10937 2.73043E+01 1.98378E+01 8.18182E+00
 -1     10942 2.83156E+01 2.05725E+01 8.63636E+00
 -1     10943 2.97504E+01 1.82311E+01 9.09091E+00
 -1     10944 2.73043E+01 1.98378E+01 9.09091E+00
 -1     10949 2.83156E+01 2.05725E+01 9.54545E+00
 -1     10953 2.47487E+01 2.47487E+01 4.54545E-01
 -1     10954 2.65322E+01 2.26606E+01 9.09091E-01
 -1     10955 2.38649E+01 2.38649E+01 9.09091E-01
 -1     10960 2.47487E+01 2.47487E+01 1.36364E+00
 -1     10961 2.65322E+01 2.26606E+01 1.81818E+00
 -1     10962 2.38649E+01 2.38649E+01 1.81818E+00
 -1     10967 2.47487E+01 2.47487E+01 2.27273E+00
 -1     10968 2.65322E+01 2.26606E+01 2.72727E+00
 -1     10969 2.38649E+01 2.38649E+01 2.72727E+00
 -1     10974 2.47487E+01 2.47487E+01 3.18182E+00
 -1     10975 2.65322E+01 2.26606E+01 3.63636E+00
 -1     10976 2.38649E+01 2.38649E+01 3.63636E+00
 -1     10981 2.47487E+01 2.47487E+01 4.09091E+00
 -1     10982 2.65322E+01 2.26606E+01 4.54545E+00
 -1     10983 2.38649E+01 2.38649E+01 4.54545E+00
 -1     10988 2.47487E+01 2.47487E+01 5.00000E+00
 -1     10989 2.65322E+01 2.26606E+01 5.45455E+00
 -1     10990 2.38649E+01 2.38649E+01 5.45455E+00
 -1     10995 2.47487E+01 2.47487E+01 5.90909E+00
 -1     10996 2.65322E+01 2.26606E+01 6.36364E+00
 -1     10997 2.38649E+01 2.38649E+01 6.36364E+00
 -1     11002 2.47487E+01 2.47487E+01 6.81818E+00
 -1     11003 2.65322E+01 2.26606E+01 7.27273E+00
 -1     11004 2.38649E+01 2.38649E+01 7.27273E+00
 -1     11009 2.47487E+01 2.47487E+01 7.72727E+00
 -1     11010 2.65322E+01 2.26606E+01 8.18182E+00
 -1     11011 2.38649E+01 2.38649E+01 8.18182E+00
 -1     11016 2.47487E+01 2.47487E+01 8.63636E+00
 -1     11017 2.65322E+01 2.26606E+01 9.09091E+00
 -1     11018 2.38649E+01 2.38649E+01 9.09091E+00
 -1     11023 2.47487E+01 2.47487E+01 9.54545E+00
 -1     11027 2.05725E+01 2.83156E+01 4.54545E-01
 -1     11028 2.26606E+01 2.65322E+01 9.09091E-01
 -1     11029 1.98378E+01 2.73043E+01 9.09091E-01
 -1     11034 2.05725E+01 2.83156E+01 1.36364E+00
 -1     11035 2.26606E+01 2.65322E+01 1.81818E+00
 -1     11036 1.98378E+01 2.73043E+01 1.81818E+00
 -1     11041 2.05725E+01 2.83156E+01 2.27273E+00
 -1     11042 2.26606E+01 2.65322E+01 2.72727E+00
 -1     11043 1.98378E+01 2.73043E+01 2.72727E+00
 -1     11048 2.05725E+01 2.83156E+01 3.18182E+00
 -1     11049 2.26606E+01 2.65322E+01 3.63636E+00
 -1     11050 1.98378E+01 2.73043E+01 3.63636E+00
 -1     11055 2.05725E+01 2.83156E+01 4.09091E+00
 -1     11056 2.26606E+01 2.65322E+01 4.54545E+00
 -1     11057 1.98378E+01 2.73043E+01 4.54545E+00
 -1     11062 2.05725E+01 2.83156E+01 5.00000E+00
 -1     11063 2.26606E+01 2.65322E+01 5.45455E+00
 -1     11064 1.98378E+01 2.73043E+01 5.45455E+00
 -1     11069 2.05725E+01 2.83156E+01 5.90909E+00
 -1     11070 2.26606E+01 2.65322E+01 6.36364E+00
 -1     11071 1.98378E+01 2.73043E+01 6.36364E+00
 -1     11076 2.05725E+01 2.83156E+01 6.81818E+00
 -1     11077 2.26606E+01 2.65322E+01 7.27273E+00
 -1     11078 1.98378E+01 2.73043E+01 7.27273E+00
 -1     11083 2.05725E+01 2.83156E+01 7.72727E+00
 -1     11084 2.26606E+01 2.65322E+01 8.18182E+00
 -1     11085 1.98378E+01 2.73043E+01 8.18182E+00
 -1     11090 2.05725E+01 2.83156E+01 8.63636E+00
 -1     11091 2.26606E+01 2.65322E+01 9.09091E+00
 -1     11092 1.98378E+01 2.73043E+01 9.09091E+00
 -1     11097 2.05725E+01 2.83156E+01 9.54545E+00
 -1     11101 1.58897E+01 3.11852E+01 4.54545E-01
 -1     11102 1.82311E+01 2.97504E+01 9.09091E-01
 -1     11103 1.53222E+01 3.00715E+01 9.09091E-01
 -1     11108 1.58897E+01 3.11852E+01 1.36364E+00
 -1     11109 1.82311E+01 2.97504E+01 1.81818E+00
 -1     11110 1.53222E+01 3.00715E+01 1.81818E+00
 -1     11115 1.58897E+01 3.11852E+01 2.27273E+00
 -1     11116 1.82311E+01 2.97504E+01 2.72727E+00
 -1     11117 1.53222E+01 3.00715E+01 2.72727E+00
 -1     11122 1.58897E+01 3.11852E+01 3.18182E+00
 -1     11123 1.82311E+01 2.97504E+01 3.63636E+00
 -1     11124 1.53222E+01 3.00715E+01 3.63636E+00
 -1     11129 1.58897E+01 3.11852E+01 4.09091E+00
 -1     11130 1.82311E+01 2.97504E+01 4.54545E+00
 -1     11131 1.53222E+01 3.00715E+01 4.54545E+00
 -1     11136 1.58897E+01 3.11852E+01 5.00000E+00
 -1     11137 1.82311E+01 2.97504E+01 5.45455E+00
 -1     11138 1.53222E+01 3.00715E+01 5.45455E+00
 -1     11143 1.58897E+01 3.11852E+01 5.90909E+00
 -1     11144 1.82311E+01 2.97504E+01 6.36364E+00
 -1     11145 1.53222E+01 3.00715E+01 6.36364E+00
 -1     11150 1.58897E+01 3.11852E+01 6.81818E+00
 -1     11151 1.82311E+01 2.97504E+01 7.27273E+00
 -1     11152 1.53222E+01 3.00715E+01 7.27273E+00
 -1     11157 1.58897E+01 3.11852E+01 7.72727E+00
 -1     11158 1.82311E+01 2.97504E+01 8.18182E+00
 -1     11159 1.53222E+01 3.00715E+01 8.18182E+00
 -1     11164 1.58897E+01 3.11852E+01 8.63636E+00
 -1     11165 1.82311E+01 2.97504E+01 9.09091E+00
 -1     11166 1.53222E+01 3.00715E+01 9.09091E+00
 -1     11171 1.58897E+01 3.11852E+01 9.54545E+00
 -1     11175 1.08156E+01 3.32870E+01 4.54545E-01
 -1     11176 1.33526E+01 3.22361E+01 9.09091E-01
 -1     11177 1.04293E+01 3.20982E+01 9.09091E-01
 -1     11182 1.08156E+01 3.32870E+01 1.36364E+00
 -1     11183 1.33526E+01 3.22361E+01 1.81818E+00
 -1     11184 1.04293E+01 3.20982E+01 1.81818E+00
 -1     11189 1.08156E+01 3.32870E+01 2.27273E+00
 -1     11190 1.33526E+01 3.22361E+01 2.72727E+00
 -1     11191 1.04293E+01 3.20982E+01 2.72727E+00
 -1     11196 1.08156E+01 3.32870E+01 3.18182E+00
 -1     11197 1.33526E+01 3.22361E+01 3.63636E+00
 -1     11198 1.04293E+01 3.20982E+01 3.63636E+00
 -1     11203 1.08156E+01 3.32870E+01 4.09091E+00
 -1     11204 1.33526E+01 3.22361E+01 4.54545E+00
 -1     11205 1.04293E+01 3.20982E+01 4.54545E+00
 -1     11210 1.08156E+01 3.32870E+01 5.00000E+00
 -1     11211 1.33526E+01 3.22361E+01 5.45455E+00
 -1     11212 1.04293E+01 3.20982E+01 5.45455E+00
 -1     11217 1.08156E+01 3.32870E+01 5.90909E+00
 -1     11218 1.33526E+01 3.22361E+01 6.36364E+00
 -1     11219 1.04293E+01 3.20982E+01 6.36364E+00
 -1     11224 1.08156E+01 3.32870E+01 6.81818E+00
 -1     11225 1.33526E+01 3.22361E+01 7.27273E+00
 -1     11226 1.04293E+01 3.20982E+01 7.27273E+00
 -1     11231 1.08156E+01 3.32870E+01 7.72727E+00
 -1     11232 1.33526E+01 3.22361E+01 8.18182E+00
 -1     11233 1.04293E+01 3.20982E+01 8.18182E+00
 -1     11238 1.08156E+01 3.32870E+01 8.63636E+00
 -1     11239 1.33526E+01 3.22361E+01 9.09091E+00
 -1     11240 1.04293E+01 3.20982E+01 9.09091E+00
 -1     11245 1.08156E+01 3.32870E+01 9.54545E+00
 -1     11249 5.47521E+00 3.45691E+01 4.54545E-01
 -1     11250 8.14540E+00 3.39280E+01 9.09091E-01
 -1     11251 5.27966E+00 3.33345E+01 9.09091E-01
 -1     11256 5.47521E+00 3.45691E+01 1.36364E+00
 -1     11257 8.14540E+00 3.39280E+01 1.81818E+00
 -1     11258 5.27966E+00 3.33345E+01 1.81818E+00
 -1     11263 5.47521E+00 3.45691E+01 2.27273E+00
 -1     11264 8.14540E+00 3.39280E+01 2.72727E+00
 -1     11265 5.27966E+00 3.33345E+01 2.72727E+00
 -1     11270 5.47521E+00 3.45691E+01 3.18182E+00
 -1     11271 8.14540E+00 3.39280E+01 3.63636E+00
 -1     11272 5.27966E+00 3.33345E+01 3.63636E+00
 -1     11277 5.47521E+00 3.45691E+01 4.09091E+00
 -1     11278 8.14540E+00 3.39280E+01 4.54545E+00
 -1     11279 5.27966E+00 3.33345E+01 4.54545E+00
 -1     11284 5.47521E+00 3.45691E+01 5.00000E+00
 -1     11285 8.14540E+00 3.39280E+01 5.45455E+00
 -1     11286 5.27966E+00 3.33345E+01 5.45455E+00
 -1     11291 5.47521E+00 3.45691E+01 5.90909E+00
 -1     11292 8.14540E+00 3.39280E+01 6.36364E+00
 -1     11293 5.27966E+00 3.33345E+01 6.36364E+00
 -1     11298 5.47521E+00 3.45691E+01 6.81818E+00
 -1     11299 8.14540E+00 3.39280E+01 7.27273E+00
 -1     11300 5.27966E+00 3.33345E+01 7.27273E+00
 -1     11305 5.47521E+00 3.45691E+01 7.72727E+00
 -1     11306 8.14540E+00 3.39280E+01 8.18182E+00
 -1     11307 5.27966E+00 3.33345E+01 8.18182E+00
 -1     11312 5.47521E+00 3.45691E+01 8.63636E+00
 -1     11313 8.14540E+00 3.39280E+01 9.09091E+00
 -1     11314 5.27966E+00 3.33345E+01 9.09091E+00
 -1     11319 5.47521E+00 3.45691E+01 9.54545E+00
 -1     11323 2.73760E+00 3.47845E+01 9.09091E-01
 -1     11327 2.73760E+00 3.47845E+01 1.81818E+00
 -1     11331 2.73760E+00 3.47845E+01 2.72727E+00
 -1     11335 2.73760E+00 3.47845E+01 3.63636E+00
 -1     11339 2.73760E+00 3.47845E+01 4.54545E+00
 -1     11343 2.73760E+00 3.47845E+01 5.45455E+00
 -1     11347 2.73760E+00 3.47845E+01 6.36364E+00
 -1     11351 2.73760E+00 3.47845E+01 7.27273E+00
 -1     11355 2.73760E+00 3.47845E+01 8.18182E+00
 -1     11359 2.73760E+00 3.47845E+01 9.09091E+00
 -1     11365 3.70383E+01 5.86629E+00 4.54545E-01
 -1     11366 3.72692E+01 2.93315E+00 9.09091E-01
 -1     11367 3.58037E+01 5.67075E+00 9.09091E-01
 -1     11372 3.70383E+01 5.86629E+00 1.36364E+00
 -1     11373 3.72692E+01 2.93315E+00 1.81818E+00
 -1     11374 3.58037E+01 5.67075E+00 1.81818E+00
 -1     11379 3.70383E+01 5.86629E+00 2.27273E+00
 -1     11380 3.72692E+01 2.93315E+00 2.72727E+00
 -1     11381 3.58037E+01 5.67075E+00 2.72727E+00
 -1     11386 3.70383E+01 5.86629E+00 3.18182E+00
 -1     11387 3.72692E+01 2.93315E+00 3.63636E+00
 -1     11388 3.58037E+01 5.67075E+00 3.63636E+00
 -1     11393 3.70383E+01 5.86629E+00 4.09091E+00
 -1     11394 3.72692E+01 2.93315E+00 4.54545E+00
 -1     11395 3.58037E+01 5.67075E+00 4.54545E+00
 -1     11400 3.70383E+01 5.86629E+00 5.00000E+00
 -1     11401 3.72692E+01 2.93315E+00 5.45455E+00
 -1     11402 3.58037E+01 5.67075E+00 5.45455E+00
 -1     11407 3.70383E+01 5.86629E+00 5.90909E+00
 -1     11408 3.72692E+01 2.93315E+00 6.36364E+00
 -1     11409 3.58037E+01 5.67075E+00 6.36364E+00
 -1     11414 3.70383E+01 5.86629E+00 6.81818E+00
 -1     11415 3.72692E+01 2.93315E+00 7.27273E+00
 -1     11416 3.58037E+01 5.67075E+00 7.27273E+00
 -1     11421 3.70383E+01 5.86629E+00 7.72727E+00
 -1     11422 3.72692E+01 2.93315E+00 8.18182E+00
 -1     11423 3.58037E+01 5.67075E+00 8.18182E+00
 -1     11428 3.70383E+01 5.86629E+00 8.63636E+00
 -1     11429 3.72692E+01 2.93315E+00 9.09091E+00
 -1     11430 3.58037E+01 5.67075E+00 9.09091E+00
 -1     11435 3.70383E+01 5.86629E+00 9.54545E+00
 -1     11439 3.56646E+01 1.15881E+01 4.54545E-01
 -1     11440 3.63515E+01 8.72721E+00 9.09091E-01
 -1     11441 3.44758E+01 1.12019E+01 9.09091E-01
 -1     11446 3.56646E+01 1.15881E+01 1.36364E+00
 -1     11447 3.63515E+01 8.72721E+00 1.81818E+00
 -1     11448 3.44758E+01 1.12019E+01 1.81818E+00
 -1     11453 3.56646E+01 1.15881E+01 2.27273E+00
 -1     11454 3.63515E+01 8.72721E+00 2.72727E+00
 -1     11455 3.44758E+01 1.12019E+01 2.72727E+00
 -1     11460 3.56646E+01 1.15881E+01 3.18182E+00
 -1     11461 3.63515E+01 8.72721E+00 3.63636E+00
 -1     11462 3.44758E+01 1.12019E+01 3.63636E+00
 -1     11467 3.56646E+01 1.15881E+01 4.09091E+00
 -1     11468 3.63515E+01 8.72721E+00 4.54545E+00
 -1     11469 3.44758E+01 1.12019E+01 4.54545E+00
 -1     11474 3.56646E+01 1.15881E+01 5.00000E+00
 -1     11475 3.63515E+01 8.72721E+00 5.45455E+00
 -1     11476 3.44758E+01 1.12019E+01 5.45455E+00
 -1     11481 3.56646E+01 1.15881E+01 5.90909E+00
 -1     11482 3.63515E+01 8.72721E+00 6.36364E+00
 -1     11483 3.44758E+01 1.12019E+01 6.36364E+00
 -1     11488 3.56646E+01 1.15881E+01 6.81818E+00
 -1     11489 3.63515E+01 8.72721E+00 7.27273E+00
 -1     11490 3.44758E+01 1.12019E+01 7.27273E+00
 -1     11495 3.56646E+01 1.15881E+01 7.72727E+00
 -1     11496 3.63515E+01 8.72721E+00 8.18182E+00
 -1     11497 3.44758E+01 1.12019E+01 8.18182E+00
 -1     11502 3.56646E+01 1.15881E+01 8.63636E+00
 -1     11503 3.63515E+01 8.72721E+00 9.09091E+00
 -1     11504 3.44758E+01 1.12019E+01 9.09091E+00
 -1     11509 3.56646E+01 1.15881E+01 9.54545E+00
 -1     11513 3.34127E+01 1.70246E+01 4.54545E-01
 -1     11514 3.45387E+01 1.43064E+01 9.09091E-01
 -1     11515 3.22990E+01 1.64572E+01 9.09091E-01
 -1     11520 3.34127E+01 1.70246E+01 1.36364E+00
 -1     11521 3.45387E+01 1.43064E+01 1.81818E+00
 -1     11522 3.22990E+01 1.64572E+01 1.81818E+00
 -1     11527 3.34127E+01 1.70246E+01 2.27273E+00
 -1     11528 3.45387E+01 1.43064E+01 2.72727E+00
 -1     11529 3.22990E+01 1.64572E+01 2.72727E+00
 -1     11534 3.34127E+01 1.70246E+01 3.18182E+00
 -1     11535 3.45387E+01 1.43064E+01 3.63636E+00
 -1     11536 3.22990E+01 1.64572E+01 3.63636E+00
 -1     11541 3.34127E+01 1.70246E+01 4.09091E+00
 -1     11542 3.45387E+01 1.43064E+01 4.54545E+00
 -1     11543 3.22990E+01 1.64572E+01 4.54545E+00
 -1     11548 3.34127E+01 1.70246E+01 5.00000E+00
 -1     11549 3.45387E+01 1.43064E+01 5.45455E+00
 -1     11550 3.22990E+01 1.64572E+01 5.45455E+00
 -1     11555 3.34127E+01 1.70246E+01 5.90909E+00
 -1     11556 3.45387E+01 1.43064E+01 6.36364E+00
 -1     11557 3.22990E+01 1.64572E+01 6.36364E+00
 -1     11562 3.34127E+01 1.70246E+01 6.81818E+00
 -1     11563 3.45387E+01 1.43064E+01 7.27273E+00
 -1     11564 3.22990E+01 1.64572E+01 7.27273E+00
 -1     11569 3.34127E+01 1.70246E+01 7.72727E+00
 -1     11570 3.45387E+01 1.43064E+01 8.18182E+00
 -1     11571 3.22990E+01 1.64572E+01 8.18182E+00
 -1     11576 3.34127E+01 1.70246E+01 8.63636E+00
 -1     11577 3.45387E+01 1.43064E+01 9.09091E+00
 -1     11578 3.22990E+01 1.64572E+01 9.09091E+00
 -1     11583 3.34127E+01 1.70246E+01 9.54545E+00
 -1     11587 3.03381E+01 2.20419E+01 4.54545E-01
 -1     11588 3.18754E+01 1.95333E+01 9.09091E-01
 -1     11589 2.93269E+01 2.13072E+01 9.09091E-01
 -1     11594 3.03381E+01 2.20419E+01 1.36364E+00
 -1     11595 3.18754E+01 1.95333E+01 1.81818E+00
 -1     11596 2.93269E+01 2.13072E+01 1.81818E+00
 -1     11601 3.03381E+01 2.20419E+01 2.27273E+00
 -1     11602 3.18754E+01 1.95333E+01 2.72727E+00
 -1     11603 2.93269E+01 2.13072E+01 2.72727E+00
 -1     11608 3.03381E+01 2.20419E+01 3.18182E+00
 -1     11609 3.18754E+01 1.95333E+01 3.63636E+00
 -1     11610 2.93269E+01 2.13072E+01 3.63636E+00
 -1     11615 3.03381E+01 2.20419E+01 4.09091E+00
 -1     11616 3.18754E+01 1.95333E+01 4.54545E+00
 -1     11617 2.93269E+01 2.13072E+01 4.54545E+00
 -1     11622 3.03381E+01 2.20419E+01 5.00000E+00
 -1     11623 3.18754E+01 1.95333E+01 5.45455E+00
 -1     11624 2.93269E+01 2.13072E+01 5.45455E+00
 -1     11629 3.03381E+01 2.20419E+01 5.90909E+00
 -1     11630 3.18754E+01 1.95333E+01 6.36364E+00
 -1     11631 2.93269E+01 2.13072E+01 6.36364E+00
 -1     11636 3.03381E+01 2.20419E+01 6.81818E+00
 -1     11637 3.18754E+01 1.95333E+01 7.27273E+00
 -1     11638 2.93269E+01 2.13072E+01 7.27273E+00
 -1     11643 3.03381E+01 2.20419E+01 7.72727E+00
 -1     11644 3.18754E+01 1.95333E+01 8.18182E+00
 -1     11645 2.93269E+01 2.13072E+01 8.18182E+00
 -1     11650 3.03381E+01 2.20419E+01 8.63636E+00
 -1     11651 3.18754E+01 1.95333E+01 9.09091E+00
 -1     11652 2.93269E+01 2.13072E+01 9.09091E+00
 -1     11657 3.03381E+01 2.20419E+01 9.54545E+00
 -1     11661 2.65165E+01 2.65165E+01 4.54545E-01
 -1     11662 2.84273E+01 2.42792E+01 9.09091E-01
 -1     11663 2.56326E+01 2.56326E+01 9.09091E-01
 -1     11668 2.65165E+01 2.65165E+01 1.36364E+00
 -1     11669 2.84273E+01 2.42792E+01 1.81818E+00
 -1     11670 2.56326E+01 2.56326E+01 1.81818E+00
 -1     11675 2.65165E+01 2.65165E+01 2.27273E+00
 -1     11676 2.84273E+01 2.42792E+01 2.72727E+00
 -1     11677 2.56326E+01 2.56326E+01 2.72727E+00
 -1     11682 2.65165E+01 2.65165E+01 3.18182E+00
 -1     11683 2.84273E+01 2.42792E+01 3.63636E+00
 -1     11684 2.56326E+01 2.56326E+01 3.63636E+00
 -1     11689 2.65165E+01 2.65165E+01 4.09091E+00
 -1     11690 2.84273E+01 2.42792E+01 4.54545E+00
 -1     11691 2.56326E+01 2.56326E+01 4.54545E+00
 -1     11696 2.65165E+01 2.65165E+01 5.00000E+00
 -1     11697 2.84273E+01 2.42792E+01 5.45455E+00
 -1     11698 2.56326E+01 2.56326E+01 5.45455E+00
 -1     11703 2.65165E+01 2.65165E+01 5.90909E+00
 -1     11704 2.84273E+01 2.42792E+01 6.36364E+00
 -1     11705 2.56326E+01 2.56326E+01 6.36364E+00
 -1     11710 2.65165E+01 2.65165E+01 6.81818E+00
 -1     11711 2.84273E+01 2.42792E+01 7.27273E+00
 -1     11712 2.56326E+01 2.56326E+01 7.27273E+00
 -1     11717 2.65165E+01 2.65165E+01 7.72727E+00
 -1     11718 2.84273E+01 2.42792E+01 8.18182E+00
 -1     11719 2.56326E+01 2.56326E+01 8.18182E+00
 -1     11724 2.65165E+01 2.65165E+01 8.63636E+00
 -1     11725 2.84273E+01 2.42792E+01 9.09091E+00
 -1     11726 2.56326E+01 2.56326E+01 9.09091E+00
 -1     11731 2.65165E+01 2.65165E+01 9.54545E+00
 -1     11735 2.20419E+01 3.03381E+01 4.54545E-01
 -1     11736 2.42792E+01 2.84273E+01 9.09091E-01
 -1     11737 2.13072E+01 2.93269E+01 9.09091E-01
 -1     11742 2.20419E+01 3.03381E+01 1.36364E+00
 -1     11743 2.42792E+01 2.84273E+01 1.81818E+00
 -1     11744 2.13072E+01 2.93269E+01 1.81818E+00
 -1     11749 2.20419E+01 3.03381E+01 2.27273E+00
 -1     11750 2.42792E+01 2.84273E+01 2.72727E+00
 -1     11751 2.13072E+01 2.93269E+01 2.72727E+00
 -1     11756 2.20419E+01 3.03381E+01 3.18182E+00
 -1     11757 2.42792E+01 2.84273E+01 3.63636E+00
 -1     11758 2.13072E+01 2.93269E+01 3.63636E+00
 -1     11763 2.20419E+01 3.03381E+01 4.09091E+00
 -1     11764 2.42792E+01 2.84273E+01 4.54545E+00
 -1     11765 2.13072E+01 2.93269E+01 4.54545E+00
 -1     11770 2.20419E+01 3.03381E+01 5.00000E+00
 -1     11771 2.42792E+01 2.84273E+01 5.45455E+00
 -1     11772 2.13072E+01 2.93269E+01 5.45455E+00
 -1     11777 2.20419E+01 3.03381E+01 5.90909E+00
 -1     11778 2.42792E+01 2.84273E+01 6.36364E+00
 -1     11779 2.13072E+01 2.93269E+01 6.36364E+00
 -1     11784 2.20419E+01 3.03381E+01 6.81818E+00
 -1     11785 2.42792E+01 2.84273E+01 7.27273E+00
 -1     11786 2.13072E+01 2.93269E+01 7.27273E+00
 -1     11791 2.20419E+01 3.03381E+01 7.72727E+00
 -1     11792 2.42792E+01 2.84273E+01 8.18182E+00
 -1     11793 2.13072E+01 2.93269E+01 8.18182E+00
 -1     11798 2.20419E+01 3.03381E+01 8.63636E+00
 -1     11799 2.42792E+01 2.84273E+01 9.09091E+00
 -1     11800 2.13072E+01 2.93269E+01 9.09091E+00
 -1     11805 2.20419E+01 3.03381E+01 9.54545E+00
 -1     11809 1.70246E+01 3.34127E+01 4.54545E-01
 -1     11810 1.95333E+01 3.18754E+01 9.09091E-01
 -1     11811 1.64572E+01 3.22990E+01 9.09091E-01
 -1     11816 1.70246E+01 3.34127E+01 1.36364E+00
 -1     11817 1.95333E+01 3.18754E+01 1.81818E+00
 -1     11818 1.64572E+01 3.22990E+01 1.81818E+00
 -1     11823 1.70246E+01 3.34127E+01 2.27273E+00
 -1     11824 1.95333E+01 3.18754E+01 2.72727E+00
 -1     11825 1.64572E+01 3.22990E+01 2.72727E+00
 -1     11830 1.70246E+01 3.34127E+01 3.18182E+00
 -1     11831 1.95333E+01 3.18754E+01 3.63636E+00
 -1     11832 1.64572E+01 3.22990E+01 3.63636E+00
 -1     11837 1.70246E+01 3.34127E+01 4.09091E+00
 -1     11838 1.95333E+01 3.18754E+01 4.54545E+00
 -1     11839 1.64572E+01 3.22990E+01 4.54545E+00
 -1     11844 1.70246E+01 3.34127E+01 5.00000E+00
 -1     11845 1.95333E+01 3.18754E+01 5.45455E+00
 -1     11846 1.64572E+01 3.22990E+01 5.45455E+00
 -1     11851 1.70246E+01 3.34127E+01 5.90909E+00
 -1     11852 1.95333E+01 3.18754E+01 6.36364E+00
 -1     11853 1.64572E+01 3.22990E+01 6.36364E+00
 -1     11858 1.70246E+01 3.34127E+01 6.81818E+00
 -1     11859 1.95333E+01 3.18754E+01 7.27273E+00
 -1     11860 1.64572E+01 3.22990E+01 7.27273E+00
 -1     11865 1.70246E+01 3.34127E+01 7.72727E+00
 -1     11866 1.95333E+01 3.18754E+01 8.18182E+00
 -1     11867 1.64572E+01 3.22990E+01 8.18182E+00
 -1     11872 1.70246E+01 3.34127E+01 8.63636E+00
 -1     11873 1.95333E+01 3.18754E+01 9.09091E+00
 -1     11874 1.64572E+01 3.22990E+01 9.09091E+00
 -1     11879 1.70246E+01 3.34127E+01 9.54545E+00
 -1     11883 1.15881E+01 3.56646E+01 4.54545E-01
 -1     11884 1.43064E+01 3.45387E+01 9.09091E-01
 -1     11885 1.12019E+01 3.44758E+01 9.09091E-01
 -1     11890 1.15881E+01 3.56646E+01 1.36364E+00
 -1     11891 1.43064E+01 3.45387E+01 1.81818E+00
 -1     11892 1.12019E+01 3.44758E+01 1.81818E+00
 -1     11897 1.15881E+01 3.56646E+01 2.27273E+00
 -1     11898 1.43064E+01 3.45387E+01 2.72727E+00
 -1     11899 1.12019E+01 3.44758E+01 2.72727E+00
 -1     11904 1.15881E+01 3.56646E+01 3.18182E+00
 -1     11905 1.43064E+01 3.45387E+01 3.63636E+00
 -1     11906 1.12019E+01 3.44758E+01 3.63636E+00
 -1     11911 1.15881E+01 3.56646E+01 4.09091E+00
 -1     11912 1.43064E+01 3.45387E+01 4.54545E+00
 -1     11913 1.12019E+01 3.44758E+01 4.54545E+00
 -1     11918 1.15881E+01 3.56646E+01 5.00000E+00
 -1     11919 1.43064E+01 3.45387E+01 5.45455E+00
 -1     11920 1.12019E+01 3.44758E+01 5.45455E+00
 -1     11925 1.15881E+01 3.56646E+01 5.90909E+00
 -1     11926 1.43064E+01 3.45387E+01 6.36364E+00
 -1     11927 1.12019E+01 3.44758E+01 6.36364E+00
 -1     11932 1.15881E+01 3.56646E+01 6.81818E+00
 -1     11933 1.43064E+01 3.45387E+01 7.27273E+00
 -1     11934 1.12019E+01 3.44758E+01 7.27273E+00
 -1     11939 1.15881E+01 3.56646E+01 7.72727E+00
 -1     11940 1.43064E+01 3.45387E+01 8.18182E+00
 -1     11941 1.12019E+01 3.44758E+01 8.18182E+00
 -1     11946 1.15881E+01 3.56646E+01 8.63636E+00
 -1     11947 1.43064E+01 3.45387E+01 9.09091E+00
 -1     11948 1.12019E+01 3.44758E+01 9.09091E+00
 -1     11953 1.15881E+01 3.56646E+01 9.54545E+00
 -1     11957 5.86629E+00 3.70383E+01 4.54545E-01
 -1     11958 8.72721E+00 3.63515E+01 9.09091E-01
 -1     11959 5.67075E+00 3.58037E+01 9.09091E-01
 -1     11964 5.86629E+00 3.70383E+01 1.36364E+00
 -1     11965 8.72721E+00 3.63515E+01 1.81818E+00
 -1     11966 5.67075E+00 3.58037E+01 1.81818E+00
 -1     11971 5.86629E+00 3.70383E+01 2.27273E+00
 -1     11972 8.72721E+00 3.63515E+01 2.72727E+00
 -1     11973 5.67075E+00 3.58037E+01 2.72727E+00
 -1     11978 5.86629E+00 3.70383E+01 3.18182E+00
 -1     11979 8.72721E+00 3.63515E+01 3.63636E+00
 -1     11980 5.67075E+00 3.58037E+01 3.63636E+00
 -1     11985 5.86629E+00 3.70383E+01 4.09091E+00
 -1     11986 8.72721E+00 3.63515E+01 4.54545E+00
 -1     11987 5.67075E+00 3.58037E+01 4.54545E+00
 -1     11992 5.86629E+00 3.70383E+01 5.00000E+00
 -1     11993 8.72721E+00 3.63515E+01 5.45455E+00
 -1     11994 5.67075E+00 3.58037E+01 5.45455E+00
 -1     11999 5.86629E+00 3.70383E+01 5.90909E+00
 -1     12000 8.72721E+00 3.63515E+01 6.36364E+00
 -1     12001 5.67075E+00 3.58037E+01 6.36364E+00
 -1     12006 5.86629E+00 3.70383E+01 6.81818E+00
 -1     12007 8.72721E+00 3.63515E+01 7.27273E+00
 -1     12008 5.67075E+00 3.58037E+01 7.27273E+00
 -1     12013 5.86629E+00 3.70383E+01 7.72727E+00
 -1     12014 8.72721E+00 3.63515E+01 8.18182E+00
 -1     12015 5.67075E+00 3.58037E+01 8.18182E+00
 -1     12020 5.86629E+00 3.70383E+01 8.63636E+00
 -1     12021 8.72721E+00 3.63515E+01 9.09091E+00
 -1     12022 5.67075E+00 3.58037E+01 9.09091E+00
 -1     12027 5.86629E+00 3.70383E+01 9.54545E+00
 -1     12031 2.93315E+00 3.72692E+01 9.09091E-01
 -1     12035 2.93315E+00 3.72692E+01 1.81818E+00
 -1     12039 2.93315E+00 3.72692E+01 2.72727E+00
 -1     12043 2.93315E+00 3.72692E+01 3.63636E+00
 -1     12047 2.93315E+00 3.72692E+01 4.54545E+00
 -1     12051 2.93315E+00 3.72692E+01 5.45455E+00
 -1     12055 2.93315E+00 3.72692E+01 6.36364E+00
 -1     12059 2.93315E+00 3.72692E+01 7.27273E+00
 -1     12063 2.93315E+00 3.72692E+01 8.18182E+00
 -1     12067 2.93315E+00 3.72692E+01 9.09091E+00
 -1     12073 3.95075E+01 6.25738E+00 4.54545E-01
 -1     12074 3.97538E+01 3.12869E+00 9.09091E-01
 -1     12075 3.82729E+01 6.06184E+00 9.09091E-01
 -1     12080 3.95075E+01 6.25738E+00 1.36364E+00
 -1     12081 3.97538E+01 3.12869E+00 1.81818E+00
 -1     12082 3.82729E+01 6.06184E+00 1.81818E+00
 -1     12087 3.95075E+01 6.25738E+00 2.27273E+00
 -1     12088 3.97538E+01 3.12869E+00 2.72727E+00
 -1     12089 3.82729E+01 6.06184E+00 2.72727E+00
 -1     12094 3.95075E+01 6.25738E+00 3.18182E+00
 -1     12095 3.97538E+01 3.12869E+00 3.63636E+00
 -1     12096 3.82729E+01 6.06184E+00 3.63636E+00
 -1     12101 3.95075E+01 6.25738E+00 4.09091E+00
 -1     12102 3.97538E+01 3.12869E+00 4.54545E+00
 -1     12103 3.82729E+01 6.06184E+00 4.54545E+00
 -1     12108 3.95075E+01 6.25738E+00 5.00000E+00
 -1     12109 3.97538E+01 3.12869E+00 5.45455E+00
 -1     12110 3.82729E+01 6.06184E+00 5.45455E+00
 -1     12115 3.95075E+01 6.25738E+00 5.90909E+00
 -1     12116 3.97538E+01 3.12869E+00 6.36364E+00
 -1     12117 3.82729E+01 6.06184E+00 6.36364E+00
 -1     12122 3.95075E+01 6.25738E+00 6.81818E+00
 -1     12123 3.97538E+01 3.12869E+00 7.27273E+00
 -1     12124 3.82729E+01 6.06184E+00 7.27273E+00
 -1     12129 3.95075E+01 6.25738E+00 7.72727E+00
 -1     12130 3.97538E+01 3.12869E+00 8.18182E+00
 -1     12131 3.82729E+01 6.06184E+00 8.18182E+00
 -1     12136 3.95075E+01 6.25738E+00 8.63636E+00
 -1     12137 3.97538E+01 3.12869E+00 9.09091E+00
 -1     12138 3.82729E+01 6.06184E+00 9.09091E+00
 -1     12143 3.95075E+01 6.25738E+00 9.54545E+00
 -1     12147 3.80423E+01 1.23607E+01 4.54545E-01
 -1     12148 3.87749E+01 9.30903E+00 9.09091E-01
 -1     12149 3.68534E+01 1.19744E+01 9.09091E-01
 -1     12154 3.80423E+01 1.23607E+01 1.36364E+00
 -1     12155 3.87749E+01 9.30903E+00 1.81818E+00
 -1     12156 3.68534E+01 1.19744E+01 1.81818E+00
 -1     12161 3.80423E+01 1.23607E+01 2.27273E+00
 -1     12162 3.87749E+01 9.30903E+00 2.72727E+00
 -1     12163 3.68534E+01 1.19744E+01 2.72727E+00
 -1     12168 3.80423E+01 1.23607E+01 3.18182E+00
 -1     12169 3.87749E+01 9.30903E+00 3.63636E+00
 -1     12170 3.68534E+01 1.19744E+01 3.63636E+00
 -1     12175 3.80423E+01 1.23607E+01 4.09091E+00
 -1     12176 3.87749E+01 9.30903E+00 4.54545E+00
 -1     12177 3.68534E+01 1.19744E+01 4.54545E+00
 -1     12182 3.80423E+01 1.23607E+01 5.00000E+00
 -1     12183 3.87749E+01 9.30903E+00 5.45455E+00
 -1     12184 3.68534E+01 1.19744E+01 5.45455E+00
 -1     12189 3.80423E+01 1.23607E+01 5.90909E+00
 -1     12190 3.87749E+01 9.30903E+00 6.36364E+00
 -1     12191 3.68534E+01 1.19744E+01 6.36364E+00
 -1     12196 3.80423E+01 1.23607E+01 6.81818E+00
 -1     12197 3.87749E+01 9.30903E+00 7.27273E+00
 -1     12198 3.68534E+01 1.19744E+01 7.27273E+00
 -1     12203 3.80423E+01 1.23607E+01 7.72727E+00
 -1     12204 3.87749E+01 9.30903E+00 8.18182E+00
 -1     12205 3.68534E+01 1.19744E+01 8.18182E+00
 -1     12210 3.80423E+01 1.23607E+01 8.63636E+00
 -1     12211 3.87749E+01 9.30903E+00 9.09091E+00
 -1     12212 3.68534E+01 1.19744E+01 9.09091E+00
 -1     12217 3.80423E+01 1.23607E+01 9.54545E+00
 -1     12221 3.56403E+01 1.81596E+01 4.54545E-01
 -1     12222 3.68413E+01 1.52601E+01 9.09091E-01
 -1     12223 3.45265E+01 1.75921E+01 9.09091E-01
 -1     12228 3.56403E+01 1.81596E+01 1.36364E+00
 -1     12229 3.68413E+01 1.52601E+01 1.81818E+00
 -1     12230 3.45265E+01 1.75921E+01 1.81818E+00
 -1     12235 3.56403E+01 1.81596E+01 2.27273E+00
 -1     12236 3.68413E+01 1.52601E+01 2.72727E+00
 -1     12237 3.45265E+01 1.75921E+01 2.72727E+00
 -1     12242 3.56403E+01 1.81596E+01 3.18182E+00
 -1     12243 3.68413E+01 1.52601E+01 3.63636E+00
 -1     12244 3.45265E+01 1.75921E+01 3.63636E+00
 -1     12249 3.56403E+01 1.81596E+01 4.09091E+00
 -1     12250 3.68413E+01 1.52601E+01 4.54545E+00
 -1     12251 3.45265E+01 1.75921E+01 4.54545E+00
 -1     12256 3.56403E+01 1.81596E+01 5.00000E+00
 -1     12257 3.68413E+01 1.52601E+01 5.45455E+00
 -1     12258 3.45265E+01 1.75921E+01 5.45455E+00
 -1     12263 3.56403E+01 1.81596E+01 5.90909E+00
 -1     12264 3.68413E+01 1.52601E+01 6.36364E+00
 -1     12265 3.45265E+01 1.75921E+01 6.36364E+00
 -1     12270 3.56403E+01 1.81596E+01 6.81818E+00
 -1     12271 3.68413E+01 1.52601E+01 7.27273E+00
 -1     12272 3.45265E+01 1.75921E+01 7.27273E+00
 -1     12277 3.56403E+01 1.81596E+01 7.72727E+00
 -1     12278 3.68413E+01 1.52601E+01 8.18182E+00
 -1     12279 3.45265E+01 1.75921E+01 8.18182E+00
 -1     12284 3.56403E+01 1.81596E+01 8.63636E+00
 -1     12285 3.68413E+01 1.52601E+01 9.09091E+00
 -1     12286 3.45265E+01 1.75921E+01 9.09091E+00
 -1     12291 3.56403E+01 1.81596E+01 9.54545E+00
 -1     12295 3.23607E+01 2.35114E+01 4.54545E-01
 -1     12296 3.40005E+01 2.08355E+01 9.09091E-01
 -1     12297 3.13494E+01 2.27767E+01 9.09091E-01
 -1     12302 3.23607E+01 2.35114E+01 1.36364E+00
 -1     12303 3.40005E+01 2.08355E+01 1.81818E+00
 -1     12304 3.13494E+01 2.27767E+01 1.81818E+00
 -1     12309 3.23607E+01 2.35114E+01 2.27273E+00
 -1     12310 3.40005E+01 2.08355E+01 2.72727E+00
 -1     12311 3.13494E+01 2.27767E+01 2.72727E+00
 -1     12316 3.23607E+01 2.35114E+01 3.18182E+00
 -1     12317 3.40005E+01 2.08355E+01 3.63636E+00
 -1     12318 3.13494E+01 2.27767E+01 3.63636E+00
 -1     12323 3.23607E+01 2.35114E+01 4.09091E+00
 -1     12324 3.40005E+01 2.08355E+01 4.54545E+00
 -1     12325 3.13494E+01 2.27767E+01 4.54545E+00
 -1     12330 3.23607E+01 2.35114E+01 5.00000E+00
 -1     12331 3.40005E+01 2.08355E+01 5.45455E+00
 -1     12332 3.13494E+01 2.27767E+01 5.45455E+00
 -1     12337 3.23607E+01 2.35114E+01 5.90909E+00
 -1     12338 3.40005E+01 2.08355E+01 6.36364E+00
 -1     12339 3.13494E+01 2.27767E+01 6.36364E+00
 -1     12344 3.23607E+01 2.35114E+01 6.81818E+00
 -1     12345 3.40005E+01 2.08355E+01 7.27273E+00
 -1     12346 3.13494E+01 2.27767E+01 7.27273E+00
 -1     12351 3.23607E+01 2.35114E+01 7.72727E+00
 -1     12352 3.40005E+01 2.08355E+01 8.18182E+00
 -1     12353 3.13494E+01 2.27767E+01 8.18182E+00
 -1     12358 3.23607E+01 2.35114E+01 8.63636E+00
 -1     12359 3.40005E+01 2.08355E+01 9.09091E+00
 -1     12360 3.13494E+01 2.27767E+01 9.09091E+00
 -1     12365 3.23607E+01 2.35114E+01 9.54545E+00
 -1     12369 2.82843E+01 2.82843E+01 4.54545E-01
 -1     12370 3.03225E+01 2.58978E+01 9.09091E-01
 -1     12371 2.74004E+01 2.74004E+01 9.09091E-01
 -1     12376 2.82843E+01 2.82843E+01 1.36364E+00
 -1     12377 3.03225E+01 2.58978E+01 1.81818E+00
 -1     12378 2.74004E+01 2.74004E+01 1.81818E+00
 -1     12383 2.82843E+01 2.82843E+01 2.27273E+00
 -1     12384 3.03225E+01 2.58978E+01 2.72727E+00
 -1     12385 2.74004E+01 2.74004E+01 2.72727E+00
 -1     12390 2.82843E+01 2.82843E+01 3.18182E+00
 -1     12391 3.03225E+01 2.58978E+01 3.63636E+00
 -1     12392 2.74004E+01 2.74004E+01 3.63636E+00
 -1     12397 2.82843E+01 2.82843E+01 4.09091E+00
 -1     12398 3.03225E+01 2.58978E+01 4.54545E+00
 -1     12399 2.74004E+01 2.74004E+01 4.54545E+00
 -1     12404 2.82843E+01 2.82843E+01 5.00000E+00
 -1     12405 3.03225E+01 2.58978E+01 5.45455E+00
 -1     12406 2.74004E+01 2.74004E+01 5.45455E+00
 -1     12411 2.82843E+01 2.82843E+01 5.90909E+00
 -1     12412 3.03225E+01 2.58978E+01 6.36364E+00
 -1     12413 2.74004E+01 2.74004E+01 6.36364E+00
 -1     12418 2.82843E+01 2.82843E+01 6.81818E+00
 -1     12419 3.03225E+01 2.58978E+01 7.27273E+00
 -1     12420 2.74004E+01 2.74004E+01 7.27273E+00
 -1     12425 2.82843E+01 2.82843E+01 7.72727E+00
 -1     12426 3.03225E+01 2.58978E+01 8.18182E+00
 -1     12427 2.74004E+01 2.74004E+01 8.18182E+00
 -1     12432 2.82843E+01 2.82843E+01 8.63636E+00
 -1     12433 3.03225E+01 2.58978E+01 9.09091E+00
 -1     12434 2.74004E+01 2.74004E+01 9.09091E+00
 -1     12439 2.82843E+01 2.82843E+01 9.54545E+00
 -1     12443 2.35114E+01 3.23607E+01 4.54545E-01
 -1     12444 2.58978E+01 3.03225E+01 9.09091E-01
 -1     12445 2.27767E+01 3.13494E+01 9.09091E-01
 -1     12450 2.35114E+01 3.23607E+01 1.36364E+00
 -1     12451 2.58978E+01 3.03225E+01 1.81818E+00
 -1     12452 2.27767E+01 3.13494E+01 1.81818E+00
 -1     12457 2.35114E+01 3.23607E+01 2.27273E+00
 -1     12458 2.58978E+01 3.03225E+01 2.72727E+00
 -1     12459 2.27767E+01 3.13494E+01 2.72727E+00
 -1     12464 2.35114E+01 3.23607E+01 3.18182E+00
 -1     12465 2.58978E+01 3.03225E+01 3.63636E+00
 -1     12466 2.27767E+01 3.13494E+01 3.63636E+00
 -1     12471 2.35114E+01 3.23607E+01 4.09091E+00
 -1     12472 2.58978E+01 3.03225E+01 4.54545E+00
 -1     12473 2.27767E+01 3.13494E+01 4.54545E+00
 -1     12478 2.35114E+01 3.23607E+01 5.00000E+00
 -1     12479 2.58978E+01 3.03225E+01 5.45455E+00
 -1     12480 2.27767E+01 3.13494E+01 5.45455E+00
 -1     12485 2.35114E+01 3.23607E+01 5.90909E+00
 -1     12486 2.58978E+01 3.03225E+01 6.36364E+00
 -1     12487 2.27767E+01 3.13494E+01 6.36364E+00
 -1     12492 2.35114E+01 3.23607E+01 6.81818E+00
 -1     12493 2.58978E+01 3.03225E+01 7.27273E+00
 -1     12494 2.27767E+01 3.13494E+01 7.27273E+00
 -1     12499 2.35114E+01 3.23607E+01 7.72727E+00
 -1     12500 2.58978E+01 3.03225E+01 8.18182E+00
 -1     12501 2.27767E+01 3.13494E+01 8.18182E+00
 -1     12506 2.35114E+01 3.23607E+01 8.63636E+00
 -1     12507 2.58978E+01 3.03225E+01 9.09091E+00
 -1     12508 2.27767E+01 3.13494E+01 9.09091E+00
 -1     12513 2.35114E+01 3.23607E+01 9.54545E+00
 -1     12517 1.81596E+01 3.56403E+01 4.54545E-01
 -1     12518 2.08355E+01 3.40005E+01 9.09091E-01
 -1     12519 1.75921E+01 3.45265E+01 9.09091E-01
 -1     12524 1.81596E+01 3.56403E+01 1.36364E+00
 -1     12525 2.08355E+01 3.40005E+01 1.81818E+00
 -1     12526 1.75921E+01 3.45265E+01 1.81818E+00
 -1     12531 1.81596E+01 3.56403E+01 2.27273E+00
 -1     12532 2.08355E+01 3.40005E+01 2.72727E+00
 -1     12533 1.75921E+01 3.45265E+01 2.72727E+00
 -1     12538 1.81596E+01 3.56403E+01 3.18182E+00
 -1     12539 2.08355E+01 3.40005E+01 3.63636E+00
 -1     12540 1.75921E+01 3.45265E+01 3.63636E+00
 -1     12545 1.81596E+01 3.56403E+01 4.09091E+00
 -1     12546 2.08355E+01 3.40005E+01 4.54545E+00
 -1     12547 1.75921E+01 3.45265E+01 4.54545E+00
 -1     12552 1.81596E+01 3.56403E+01 5.00000E+00
 -1     12553 2.08355E+01 3.40005E+01 5.45455E+00
 -1     12554 1.75921E+01 3.45265E+01 5.45455E+00
 -1     12559 1.81596E+01 3.56403E+01 5.90909E+00
 -1     12560 2.08355E+01 3.40005E+01 6.36364E+00
 -1     12561 1.75921E+01 3.45265E+01 6.36364E+00
 -1     12566 1.81596E+01 3.56403E+01 6.81818E+00
 -1     12567 2.08355E+01 3.40005E+01 7.27273E+00
 -1     12568 1.75921E+01 3.45265E+01 7.27273E+00
 -1     12573 1.81596E+01 3.56403E+01 7.72727E+00
 -1     12574 2.08355E+01 3.40005E+01 8.18182E+00
 -1     12575 1.75921E+01 3.45265E+01 8.18182E+00
 -1     12580 1.81596E+01 3.56403E+01 8.63636E+00
 -1     12581 2.08355E+01 3.40005E+01 9.09091E+00
 -1     12582 1.75921E+01 3.45265E+01 9.09091E+00
 -1     12587 1.81596E+01 3.56403E+01 9.54545E+00
 -1     12591 1.23607E+01 3.80423E+01 4.54545E-01
 -1     12592 1.52601E+01 3.68413E+01 9.09091E-01
 -1     12593 1.19744E+01 3.68534E+01 9.09091E-01
 -1     12598 1.23607E+01 3.80423E+01 1.36364E+00
 -1     12599 1.52601E+01 3.68413E+01 1.81818E+00
 -1     12600 1.19744E+01 3.68534E+01 1.81818E+00
 -1     12605 1.23607E+01 3.80423E+01 2.27273E+00
 -1     12606 1.52601E+01 3.68413E+01 2.72727E+00
 -1     12607 1.19744E+01 3.68534E+01 2.72727E+00
 -1     12612 1.23607E+01 3.80423E+01 3.18182E+00
 -1     12613 1.52601E+01 3.68413E+01 3.63636E+00
 -1     12614 1.19744E+01 3.68534E+01 3.63636E+00
 -1     12619 1.23607E+01 3.80423E+01 4.09091E+00
 -1     12620 1.52601E+01 3.68413E+01 4.54545E+00
 -1     12621 1.19744E+01 3.68534E+01 4.54545E+00
 -1     12626 1.23607E+01 3.80423E+01 5.00000E+00
 -1     12627 1.52601E+01 3.68413E+01 5.45455E+00
 -1     12628 1.19744E+01 3.68534E+01 5.45455E+00
 -1     12633 1.23607E+01 3.80423E+01 5.90909E+00
 -1     12634 1.52601E+01 3.68413E+01 6.36364E+00
 -1     12635 1.19744E+01 3.68534E+01 6.36364E+00
 -1     12640 1.23607E+01 3.80423E+01 6.81818E+00
 -1     12641 1.52601E+01 3.68413E+01 7.27273E+00
 -1     12642 1.19744E+01 3.68534E+01 7.27273E+00
 -1     12647 1.23607E+01 3.80423E+01 7.72727E+00
 -1     12648 1.52601E+01 3.68413E+01 8.18182E+00
 -1     12649 1.19744E+01 3.68534E+01 8.18182E+00
 -1     12654 1.23607E+01 3.80423E+01 8.63636E+00
 -1     12655 1.52601E+01 3.68413E+01 9.09091E+00
 -1     12656 1.19744E+01 3.68534E+01 9.09091E+00
 -1     12661 1.23607E+01 3.80423E+01 9.54545E+00
 -1     12665 6.25738E+00 3.95075E+01 4.54545E-01
 -1     12666 9.30903E+00 3.87749E+01 9.09091E-01
 -1     12667 6.06184E+00 3.82729E+01 9.09091E-01
 -1     12672 6.25738E+00 3.95075E+01 1.36364E+00
 -1     12673 9.30903E+00 3.87749E+01 1.81818E+00
 -1     12674 6.06184E+00 3.82729E+01 1.81818E+00
 -1     12679 6.25738E+00 3.95075E+01 2.27273E+00
 -1     12680 9.30903E+00 3.87749E+01 2.72727E+00
 -1     12681 6.06184E+00 3.82729E+01 2.72727E+00
 -1     12686 6.25738E+00 3.95075E+01 3.18182E+00
 -1     12687 9.30903E+00 3.87749E+01 3.63636E+00
 -1     12688 6.06184E+00 3.82729E+01 3.63636E+00
 -1     12693 6.25738E+00 3.95075E+01 4.09091E+00
 -1     12694 9.30903E+00 3.87749E+01 4.54545E+00
 -1     12695 6.06184E+00 3.82729E+01 4.54545E+00
 -1     12700 6.25738E+00 3.95075E+01 5.00000E+00
 -1     12701 9.30903E+00 3.87749E+01 5.45455E+00
 -1     12702 6.06184E+00 3.82729E+01 5.45455E+00
 -1     12707 6.25738E+00 3.95075E+01 5.90909E+00
 -1     12708 9.30903E+00 3.87749E+01 6.36364E+00
 -1     12709 6.06184E+00 3.82729E+01 6.36364E+00
 -1     12714 6.25738E+00 3.95075E+01 6.81818E+00
 -1     12715 9.30903E+00 3.87749E+01 7.27273E+00
 -1     12716 6.06184E+00 3.82729E+01 7.27273E+00
 -1     12721 6.25738E+00 3.95075E+01 7.72727E+00
 -1     12722 9.30903E+00 3.87749E+01 8.18182E+00
 -1     12723 6.06184E+00 3.82729E+01 8.18182E+00
 -1     12728 6.25738E+00 3.95075E+01 8.63636E+00
 -1     12729 9.30903E+00 3.87749E+01 9.09091E+00
 -1     12730 6.06184E+00 3.82729E+01 9.09091E+00
 -1     12735 6.25738E+00 3.95075E+01 9.54545E+00
 -1     12739 3.12869E+00 3.97538E+01 9.09091E-01
 -1     12743 3.12869E+00 3.97538E+01 1.81818E+00
 -1     12747 3.12869E+00 3.97538E+01 2.72727E+00
 -1     12751 3.12869E+00 3.97538E+01 3.63636E+00
 -1     12755 3.12869E+00 3.97538E+01 4.54545E+00
 -1     12759 3.12869E+00 3.97538E+01 5.45455E+00
 -1     12763 3.12869E+00 3.97538E+01 6.36364E+00
 -1     12767 3.12869E+00 3.97538E+01 7.27273E+00
 -1     12771 3.12869E+00 3.97538E+01 8.18182E+00
 -1     12775 3.12869E+00 3.97538E+01 9.09091E+00
 -1     12781 4.19768E+01 6.64846E+00 4.54545E-01
 -1     12782 4.22384E+01 3.32423E+00 9.09091E-01
 -1     12783 4.07421E+01 6.45292E+00 9.09091E-01
 -1     12788 4.19768E+01 6.64846E+00 1.36364E+00
 -1     12789 4.22384E+01 3.32423E+00 1.81818E+00
 -1     12790 4.07421E+01 6.45292E+00 1.81818E+00
 -1     12795 4.19768E+01 6.64846E+00 2.27273E+00
 -1     12796 4.22384E+01 3.32423E+00 2.72727E+00
 -1     12797 4.07421E+01 6.45292E+00 2.72727E+00
 -1     12802 4.19768E+01 6.64846E+00 3.18182E+00
 -1     12803 4.22384E+01 3.32423E+00 3.63636E+00
 -1     12804 4.07421E+01 6.45292E+00 3.63636E+00
 -1     12809 4.19768E+01 6.64846E+00 4.09091E+00
 -1     12810 4.22384E+01 3.32423E+00 4.54545E+00
 -1     12811 4.07421E+01 6.45292E+00 4.54545E+00
 -1     12816 4.19768E+01 6.64846E+00 5.00000E+00
 -1     12817 4.22384E+01 3.32423E+00 5.45455E+00
 -1     12818 4.07421E+01 6.45292E+00 5.45455E+00
 -1     12823 4.19768E+01 6.64846E+00 5.90909E+00
 -1     12824 4.22384E+01 3.32423E+00 6.36364E+00
 -1     12825 4.07421E+01 6.45292E+00 6.36364E+00
 -1     12830 4.19768E+01 6.64846E+00 6.81818E+00
 -1     12831 4.22384E+01 3.32423E+00 7.27273E+00
 -1     12832 4.07421E+01 6.45292E+00 7.27273E+00
 -1     12837 4.19768E+01 6.64846E+00 7.72727E+00
 -1     12838 4.22384E+01 3.32423E+00 8.18182E+00
 -1     12839 4.07421E+01 6.45292E+00 8.18182E+00
 -1     12844 4.19768E+01 6.64846E+00 8.63636E+00
 -1     12845 4.22384E+01 3.32423E+00 9.09091E+00
 -1     12846 4.07421E+01 6.45292E+00 9.09091E+00
 -1     12851 4.19768E+01 6.64846E+00 9.54545E+00
 -1     12855 4.04199E+01 1.31332E+01 4.54545E-01
 -1     12856 4.11983E+01 9.89084E+00 9.09091E-01
 -1     12857 3.92311E+01 1.27470E+01 9.09091E-01
 -1     12862 4.04199E+01 1.31332E+01 1.36364E+00
 -1     12863 4.11983E+01 9.89084E+00 1.81818E+00
 -1     12864 3.92311E+01 1.27470E+01 1.81818E+00
 -1     12869 4.04199E+01 1.31332E+01 2.27273E+00
 -1     12870 4.11983E+01 9.89084E+00 2.72727E+00
 -1     12871 3.92311E+01 1.27470E+01 2.72727E+00
 -1     12876 4.04199E+01 1.31332E+01 3.18182E+00
 -1     12877 4.11983E+01 9.89084E+00 3.63636E+00
 -1     12878 3.92311E+01 1.27470E+01 3.63636E+00
 -1     12883 4.04199E+01 1.31332E+01 4.09091E+00
 -1     12884 4.11983E+01 9.89084E+00 4.54545E+00
 -1     12885 3.92311E+01 1.27470E+01 4.54545E+00
 -1     12890 4.04199E+01 1.31332E+01 5.00000E+00
 -1     12891 4.11983E+01 9.89084E+00 5.45455E+00
 -1     12892 3.92311E+01 1.27470E+01 5.45455E+00
 -1     12897 4.04199E+01 1.31332E+01 5.90909E+00
 -1     12898 4.11983E+01 9.89084E+00 6.36364E+00
 -1     12899 3.92311E+01 1.27470E+01 6.36364E+00
 -1     12904 4.04199E+01 1.31332E+01 6.81818E+00
 -1     12905 4.11983E+01 9.89084E+00 7.27273E+00
 -1     12906 3.92311E+01 1.27470E+01 7.27273E+00
 -1     12911 4.04199E+01 1.31332E+01 7.72727E+00
 -1     12912 4.11983E+01 9.89084E+00 8.18182E+00
 -1     12913 3.92311E+01 1.27470E+01 8.18182E+00
 -1     12918 4.04199E+01 1.31332E+01 8.63636E+00
 -1     12919 4.11983E+01 9.89084E+00 9.09091E+00
 -1     12920 3.92311E+01 1.27470E+01 9.09091E+00
 -1     12925 4.04199E+01 1.31332E+01 9.54545E+00
 -1     12929 3.78678E+01 1.92946E+01 4.54545E-01
 -1     12930 3.91438E+01 1.62139E+01 9.09091E-01
 -1     12931 3.67540E+01 1.87271E+01 9.09091E-01
 -1     12936 3.78678E+01 1.92946E+01 1.36364E+00
 -1     12937 3.91438E+01 1.62139E+01 1.81818E+00
 -1     12938 3.67540E+01 1.87271E+01 1.81818E+00
 -1     12943 3.78678E+01 1.92946E+01 2.27273E+00
 -1     12944 3.91438E+01 1.62139E+01 2.72727E+00
 -1     12945 3.67540E+01 1.87271E+01 2.72727E+00
 -1     12950 3.78678E+01 1.92946E+01 3.18182E+00
 -1     12951 3.91438E+01 1.62139E+01 3.63636E+00
 -1     12952 3.67540E+01 1.87271E+01 3.63636E+00
 -1     12957 3.78678E+01 1.92946E+01 4.09091E+00
 -1     12958 3.91438E+01 1.62139E+01 4.54545E+00
 -1     12959 3.67540E+01 1.87271E+01 4.54545E+00
 -1     12964 3.78678E+01 1.92946E+01 5.00000E+00
 -1     12965 3.91438E+01 1.62139E+01 5.45455E+00
 -1     12966 3.67540E+01 1.87271E+01 5.45455E+00
 -1     12971 3.78678E+01 1.92946E+01 5.90909E+00
 -1     12972 3.91438E+01 1.62139E+01 6.36364E+00
 -1     12973 3.67540E+01 1.87271E+01 6.36364E+00
 -1     12978 3.78678E+01 1.92946E+01 6.81818E+00
 -1     12979 3.91438E+01 1.62139E+01 7.27273E+00
 -1     12980 3.67540E+01 1.87271E+01 7.27273E+00
 -1     12985 3.78678E+01 1.92946E+01 7.72727E+00
 -1     12986 3.91438E+01 1.62139E+01 8.18182E+00
 -1     12987 3.67540E+01 1.87271E+01 8.18182E+00
 -1     12992 3.78678E+01 1.92946E+01 8.63636E+00
 -1     12993 3.91438E+01 1.62139E+01 9.09091E+00
 -1     12994 3.67540E+01 1.87271E+01 9.09091E+00
 -1     12999 3.78678E+01 1.92946E+01 9.54545E+00
 -1     13003 3.43832E+01 2.49809E+01 4.54545E-01
 -1     13004 3.61255E+01 2.21377E+01 9.09091E-01
 -1     13005 3.33720E+01 2.42461E+01 9.09091E-01
 -1     13010 3.43832E+01 2.49809E+01 1.36364E+00
 -1     13011 3.61255E+01 2.21377E+01 1.81818E+00
 -1     13012 3.33720E+01 2.42461E+01 1.81818E+00
 -1     13017 3.43832E+01 2.49809E+01 2.27273E+00
 -1     13018 3.61255E+01 2.21377E+01 2.72727E+00
 -1     13019 3.33720E+01 2.42461E+01 2.72727E+00
 -1     13024 3.43832E+01 2.49809E+01 3.18182E+00
 -1     13025 3.61255E+01 2.21377E+01 3.63636E+00
 -1     13026 3.33720E+01 2.42461E+01 3.63636E+00
 -1     13031 3.43832E+01 2.49809E+01 4.09091E+00
 -1     13032 3.61255E+01 2.21377E+01 4.54545E+00
 -1     13033 3.33720E+01 2.42461E+01 4.54545E+00
 -1     13038 3.43832E+01 2.49809E+01 5.00000E+00
 -1     13039 3.61255E+01 2.21377E+01 5.45455E+00
 -1     13040 3.33720E+01 2.42461E+01 5.45455E+00
 -1     13045 3.43832E+01 2.49809E+01 5.90909E+00
 -1     13046 3.61255E+01 2.21377E+01 6.36364E+00
 -1     13047 3.33720E+01 2.42461E+01 6.36364E+00
 -1     13052 3.43832E+01 2.49809E+01 6.81818E+00
 -1     13053 3.61255E+01 2.21377E+01 7.27273E+00
 -1     13054 3.33720E+01 2.42461E+01 7.27273E+00
 -1     13059 3.43832E+01 2.49809E+01 7.72727E+00
 -1     13060 3.61255E+01 2.21377E+01 8.18182E+00
 -1     13061 3.33720E+01 2.42461E+01 8.18182E+00
 -1     13066 3.43832E+01 2.49809E+01 8.63636E+00
 -1     13067 3.61255E+01 2.21377E+01 9.09091E+00
 -1     13068 3.33720E+01 2.42461E+01 9.09091E+00
 -1     13073 3.43832E+01 2.49809E+01 9.54545E+00
 -1     13077 3.00520E+01 3.00520E+01 4.54545E-01
 -1     13078 3.22176E+01 2.75165E+01 9.09091E-01
 -1     13079 2.91682E+01 2.91682E+01 9.09091E-01
 -1     13084 3.00520E+01 3.00520E+01 1.36364E+00
 -1     13085 3.22176E+01 2.75165E+01 1.81818E+00
 -1     13086 2.91682E+01 2.91682E+01 1.81818E+00
 -1     13091 3.00520E+01 3.00520E+01 2.27273E+00
 -1     13092 3.22176E+01 2.75165E+01 2.72727E+00
 -1     13093 2.91682E+01 2.91682E+01 2.72727E+00
 -1     13098 3.00520E+01 3.00520E+01 3.18182E+00
 -1     13099 3.22176E+01 2.75165E+01 3.63636E+00
 -1     13100 2.91682E+01 2.91682E+01 3.63636E+00
 -1     13105 3.00520E+01 3.00520E+01 4.09091E+00
 -1     13106 3.22176E+01 2.75165E+01 4.54545E+00
 -1     13107 2.91682E+01 2.91682E+01 4.54545E+00
 -1     13112 3.00520E+01 3.00520E+01 5.00000E+00
 -1     13113 3.22176E+01 2.75165E+01 5.45455E+00
 -1     13114 2.91682E+01 2.91682E+01 5.45455E+00
 -1     13119 3.00520E+01 3.00520E+01 5.90909E+00
 -1     13120 3.22176E+01 2.75165E+01 6.36364E+00
 -1     13121 2.91682E+01 2.91682E+01 6.36364E+00
 -1     13126 3.00520E+01 3.00520E+01 6.81818E+00
 -1     13127 3.22176E+01 2.75165E+01 7.27273E+00
 -1     13128 2.91682E+01 2.91682E+01 7.27273E+00
 -1     13133 3.00520E+01 3.00520E+01 7.72727E+00
 -1     13134 3.22176E+01 2.75165E+01 8.18182E+00
 -1     13135 2.91682E+01 2.91682E+01 8.18182E+00
 -1     13140 3.00520E+01 3.00520E+01 8.63636E+00
 -1     13141 3.22176E+01 2.75165E+01 9.09091E+00
 -1     13142 2.91682E+01 2.91682E+01 9.09091E+00
 -1     13147 3.00520E+01 3.00520E+01 9.54545E+00
 -1     13151 2.49809E+01 3.43832E+01 4.54545E-01
 -1     13152 2.75165E+01 3.22176E+01 9.09091E-01
 -1     13153 2.42461E+01 3.33720E+01 9.09091E-01
 -1     13158 2.49809E+01 3.43832E+01 1.36364E+00
 -1     13159 2.75165E+01 3.22176E+01 1.81818E+00
 -1     13160 2.42461E+01 3.33720E+01 1.81818E+00
 -1     13165 2.49809E+01 3.43832E+01 2.27273E+00
 -1     13166 2.75165E+01 3.22176E+01 2.72727E+00
 -1     13167 2.42461E+01 3.33720E+01 2.72727E+00
 -1     13172 2.49809E+01 3.43832E+01 3.18182E+00
 -1     13173 2.75165E+01 3.22176E+01 3.63636E+00
 -1     13174 2.42461E+01 3.33720E+01 3.63636E+00
 -1     13179 2.49809E+01 3.43832E+01 4.09091E+00
 -1     13180 2.75165E+01 3.22176E+01 4.54545E+00
 -1     13181 2.42461E+01 3.33720E+01 4.54545E+00
 -1     13186 2.49809E+01 3.43832E+01 5.00000E+00
 -1     13187 2.75165E+01 3.22176E+01 5.45455E+00
 -1     13188 2.42461E+01 3.33720E+01 5.45455E+00
 -1     13193 2.49809E+01 3.43832E+01 5.90909E+00
 -1     13194 2.75165E+01 3.22176E+01 6.36364E+00
 -1     13195 2.42461E+01 3.33720E+01 6.36364E+00
 -1     13200 2.49809E+01 3.43832E+01 6.81818E+00
 -1     13201 2.75165E+01 3.22176E+01 7.27273E+00
 -1     13202 2.42461E+01 3.33720E+01 7.27273E+00
 -1     13207 2.49809E+01 3.43832E+01 7.72727E+00
 -1     13208 2.75165E+01 3.22176E+01 8.18182E+00
 -1     13209 2.42461E+01 3.33720E+01 8.18182E+00
 -1     13214 2.49809E+01 3.43832E+01 8.63636E+00
 -1     13215 2.75165E+01 3.22176E+01 9.09091E+00
 -1     13216 2.42461E+01 3.33720E+01 9.09091E+00
 -1     13221 2.49809E+01 3.43832E+01 9.54545E+00
 -1     13225 1.92946E+01 3.78678E+01 4.54545E-01
 -1     13226 2.21377E+01 3.61255E+01 9.09091E-01
 -1     13227 1.87271E+01 3.67540E+01 9.09091E-01
 -1     13232 1.92946E+01 3.78678E+01 1.36364E+00
 -1     13233 2.21377E+01 3.61255E+01 1.81818E+00
 -1     13234 1.87271E+01 3.67540E+01 1.81818E+00
 -1     13239 1.92946E+01 3.78678E+01 2.27273E+00
 -1     13240 2.21377E+01 3.61255E+01 2.72727E+00
 -1     13241 1.87271E+01 3.67540E+01 2.72727E+00
 -1     13246 1.92946E+01 3.78678E+01 3.18182E+00
 -1     13247 2.21377E+01 3.61255E+01 3.63636E+00
 -1     13248 1.87271E+01 3.67540E+01 3.63636E+00
 -1     13253 1.92946E+01 3.78678E+01 4.09091E+00
 -1     13254 2.21377E+01 3.61255E+01 4.54545E+00
 -1     13255 1.87271E+01 3.67540E+01 4.54545E+00
 -1     13260 1.92946E+01 3.78678E+01 5.00000E+00
 -1     13261 2.21377E+01 3.61255E+01 5.45455E+00
 -1     13262 1.87271E+01 3.67540E+01 5.45455E+00
 -1     13267 1.92946E+01 3.78678E+01 5.90909E+00
 -1     13268 2.21377E+01 3.61255E+01 6.36364E+00
 -1     13269 1.87271E+01 3.67540E+01 6.36364E+00
 -1     13274 1.92946E+01 3.78678E+01 6.81818E+00
 -1     13275 2.21377E+01 3.61255E+01 7.27273E+00
 -1     13276 1.87271E+01 3.67540E+01 7.27273E+00
 -1     13281 1.92946E+01 3.78678E+01 7.72727E+00
 -1     13282 2.21377E+01 3.61255E+01 8.18182E+00
 -1     13283 1.87271E+01 3.67540E+01 8.18182E+00
 -1     13288 1.92946E+01 3.78678E+01 8.63636E+00
 -1     13289 2.21377E+01 3.61255E+01 9.09091E+00
 -1     13290 1.87271E+01 3.67540E+01 9.09091E+00
 -1     13295 1.92946E+01 3.78678E+01 9.54545E+00
 -1     13299 1.31332E+01 4.04199E+01 4.54545E-01
 -1     13300 1.62139E+01 3.91438E+01 9.09091E-01
 -1     13301 1.27470E+01 3.92311E+01 9.09091E-01
 -1     13306 1.31332E+01 4.04199E+01 1.36364E+00
 -1     13307 1.62139E+01 3.91438E+01 1.81818E+00
 -1     13308 1.27470E+01 3.92311E+01 1.81818E+00
 -1     13313 1.31332E+01 4.04199E+01 2.27273E+00
 -1     13314 1.62139E+01 3.91438E+01 2.72727E+00
 -1     13315 1.27470E+01 3.92311E+01 2.72727E+00
 -1     13320 1.31332E+01 4.04199E+01 3.18182E+00
 -1     13321 1.62139E+01 3.91438E+01 3.63636E+00
 -1     13322 1.27470E+01 3.92311E+01 3.63636E+00
 -1     13327 1.31332E+01 4.04199E+01 4.09091E+00
 -1     13328 1.62139E+01 3.91438E+01 4.54545E+00
 -1     13329 1.27470E+01 3.92311E+01 4.54545E+00
 -1     13334 1.31332E+01 4.04199E+01 5.00000E+00
 -1     13335 1.62139E+01 3.91438E+01 5.45455E+00
 -1     13336 1.27470E+01 3.92311E+01 5.45455E+00
 -1     13341 1.31332E+01 4.04199E+01 5.90909E+00
 -1     13342 1.62139E+01 3.91438E+01 6.36364E+00
 -1     13343 1.27470E+01 3.92311E+01 6.36364E+00
 -1     13348 1.31332E+01 4.04199E+01 6.81818E+00
 -1     13349 1.62139E+01 3.91438E+01 7.27273E+00
 -1     13350 1.27470E+01 3.92311E+01 7.27273E+00
 -1     13355 1.31332E+01 4.04199E+01 7.72727E+00
 -1     13356 1.62139E+01 3.91438E+01 8.18182E+00
 -1     13357 1.27470E+01 3.92311E+01 8.18182E+00
 -1     13362 1.31332E+01 4.04199E+01 8.63636E+00
 -1     13363 1.62139E+01 3.91438E+01 9.09091E+00
 -1     13364 1.27470E+01 3.92311E+01 9.09091E+00
 -1     13369 1.31332E+01 4.04199E+01 9.54545E+00
 -1     13373 6.64846E+00 4.19768E+01 4.54545E-01
 -1     13374 9.89084E+00 4.11983E+01 9.09091E-01
 -1     13375 6.45292E+00 4.07421E+01 9.09091E-01
 -1     13380 6.64846E+00 4.19768E+01 1.36364E+00
 -1     13381 9.89084E+00 4.11983E+01 1.81818E+00
 -1     13382 6.45292E+00 4.07421E+01 1.81818E+00
 -1     13387 6.64846E+00 4.19768E+01 2.27273E+00
 -1     13388 9.89084E+00 4.11983E+01 2.72727E+00
 -1     13389 6.45292E+00 4.07421E+01 2.72727E+00
 -1     13394 6.64846E+00 4.19768E+01 3.18182E+00
 -1     13395 9.89084E+00 4.11983E+01 3.63636E+00
 -1     13396 6.45292E+00 4.07421E+01 3.63636E+00
 -1     13401 6.64846E+00 4.19768E+01 4.09091E+00
 -1     13402 9.89084E+00 4.11983E+01 4.54545E+00
 -1     13403 6.45292E+00 4.07421E+01 4.54545E+00
 -1     13408 6.64846E+00 4.19768E+01 5.00000E+00
 -1     13409 9.89084E+00 4.11983E+01 5.45455E+00
 -1     13410 6.45292E+00 4.07421E+01 5.45455E+00
 -1     13415 6.64846E+00 4.19768E+01 5.90909E+00
 -1     13416 9.89084E+00 4.11983E+01 6.36364E+00
 -1     13417 6.45292E+00 4.07421E+01 6.36364E+00
 -1     13422 6.64846E+00 4.19768E+01 6.81818E+00
 -1     13423 9.89084E+00 4.11983E+01 7.27273E+00
 -1     13424 6.45292E+00 4.07421E+01 7.27273E+00
 -1     13429 6.64846E+00 4.19768E+01 7.72727E+00
 -1     13430 9.89084E+00 4.11983E+01 8.18182E+00
 -1     13431 6.45292E+00 4.07421E+01 8.18182E+00
 -1     13436 6.64846E+00 4.19768E+01 8.63636E+00
 -1     13437 9.89084E+00 4.11983E+01 9.09091E+00
 -1     13438 6.45292E+00 4.07421E+01 9.09091E+00
 -1     13443 6.64846E+00 4.19768E+01 9.54545E+00
 -1     13447 3.32423E+00 4.22384E+01 9.09091E-01
 -1     13451 3.32423E+00 4.22384E+01 1.81818E+00
 -1     13455 3.32423E+00 4.22384E+01 2.72727E+00
 -1     13459 3.32423E+00 4.22384E+01 3.63636E+00
 -1     13463 3.32423E+00 4.22384E+01 4.54545E+00
 -1     13467 3.32423E+00 4.22384E+01 5.45455E+00
 -1     13471 3.32423E+00 4.22384E+01 6.36364E+00
 -1     13475 3.32423E+00 4.22384E+01 7.27273E+00
 -1     13479 3.32423E+00 4.22384E+01 8.18182E+00
 -1     13483 3.32423E+00 4.22384E+01 9.09091E+00
 -1     13489 4.44460E+01 7.03955E+00 4.54545E-01
 -1     13490 4.47230E+01 3.51978E+00 9.09091E-01
 -1     13491 4.32114E+01 6.84401E+00 9.09091E-01
 -1     13496 4.44460E+01 7.03955E+00 1.36364E+00
 -1     13497 4.47230E+01 3.51978E+00 1.81818E+00
 -1     13498 4.32114E+01 6.84401E+00 1.81818E+00
 -1     13503 4.44460E+01 7.03955E+00 2.27273E+00
 -1     13504 4.47230E+01 3.51978E+00 2.72727E+00
 -1     13505 4.32114E+01 6.84401E+00 2.72727E+00
 -1     13510 4.44460E+01 7.03955E+00 3.18182E+00
 -1     13511 4.47230E+01 3.51978E+00 3.63636E+00
 -1     13512 4.32114E+01 6.84401E+00 3.63636E+00
 -1     13517 4.44460E+01 7.03955E+00 4.09091E+00
 -1     13518 4.47230E+01 3.51978E+00 4.54545E+00
 -1     13519 4.32114E+01 6.84401E+00 4.54545E+00
 -1     13524 4.44460E+01 7.03955E+00 5.00000E+00
 -1     13525 4.47230E+01 3.51978E+00 5.45455E+00
 -1     13526 4.32114E+01 6.84401E+00 5.45455E+00
 -1     13531 4.44460E+01 7.03955E+00 5.90909E+00
 -1     13532 4.47230E+01 3.51978E+00 6.36364E+00
 -1     13533 4.32114E+01 6.84401E+00 6.36364E+00
 -1     13538 4.44460E+01 7.03955E+00 6.81818E+00
 -1     13539 4.47230E+01 3.51978E+00 7.27273E+00
 -1     13540 4.32114E+01 6.84401E+00 7.27273E+00
 -1     13545 4.44460E+01 7.03955E+00 7.72727E+00
 -1     13546 4.47230E+01 3.51978E+00 8.18182E+00
 -1     13547 4.32114E+01 6.84401E+00 8.18182E+00
 -1     13552 4.44460E+01 7.03955E+00 8.63636E+00
 -1     13553 4.47230E+01 3.51978E+00 9.09091E+00
 -1     13554 4.32114E+01 6.84401E+00 9.09091E+00
 -1     13559 4.44460E+01 7.03955E+00 9.54545E+00
 -1     13563 4.27975E+01 1.39058E+01 4.54545E-01
 -1     13564 4.36218E+01 1.04727E+01 9.09091E-01
 -1     13565 4.16087E+01 1.35195E+01 9.09091E-01
 -1     13570 4.27975E+01 1.39058E+01 1.36364E+00
 -1     13571 4.36218E+01 1.04727E+01 1.81818E+00
 -1     13572 4.16087E+01 1.35195E+01 1.81818E+00
 -1     13577 4.27975E+01 1.39058E+01 2.27273E+00
 -1     13578 4.36218E+01 1.04727E+01 2.72727E+00
 -1     13579 4.16087E+01 1.35195E+01 2.72727E+00
 -1     13584 4.27975E+01 1.39058E+01 3.18182E+00
 -1     13585 4.36218E+01 1.04727E+01 3.63636E+00
 -1     13586 4.16087E+01 1.35195E+01 3.63636E+00
 -1     13591 4.27975E+01 1.39058E+01 4.09091E+00
 -1     13592 4.36218E+01 1.04727E+01 4.54545E+00
 -1     13593 4.16087E+01 1.35195E+01 4.54545E+00
 -1     13598 4.27975E+01 1.39058E+01 5.00000E+00
 -1     13599 4.36218E+01 1.04727E+01 5.45455E+00
 -1     13600 4.16087E+01 1.35195E+01 5.45455E+00
 -1     13605 4.27975E+01 1.39058E+01 5.90909E+00
 -1     13606 4.36218E+01 1.04727E+01 6.36364E+00
 -1     13607 4.16087E+01 1.35195E+01 6.36364E+00
 -1     13612 4.27975E+01 1.39058E+01 6.81818E+00
 -1     13613 4.36218E+01 1.04727E+01 7.27273E+00
 -1     13614 4.16087E+01 1.35195E+01 7.27273E+00
 -1     13619 4.27975E+01 1.39058E+01 7.72727E+00
 -1     13620 4.36218E+01 1.04727E+01 8.18182E+00
 -1     13621 4.16087E+01 1.35195E+01 8.18182E+00
 -1     13626 4.27975E+01 1.39058E+01 8.63636E+00
 -1     13627 4.36218E+01 1.04727E+01 9.09091E+00
 -1     13628 4.16087E+01 1.35195E+01 9.09091E+00
 -1     13633 4.27975E+01 1.39058E+01 9.54545E+00
 -1     13637 4.00953E+01 2.04296E+01 4.54545E-01
 -1     13638 4.14464E+01 1.71677E+01 9.09091E-01
 -1     13639 3.89815E+01 1.98621E+01 9.09091E-01
 -1     13644 4.00953E+01 2.04296E+01 1.36364E+00
 -1     13645 4.14464E+01 1.71677E+01 1.81818E+00
 -1     13646 3.89815E+01 1.98621E+01 1.81818E+00
 -1     13651 4.00953E+01 2.04296E+01 2.27273E+00
 -1     13652 4.14464E+01 1.71677E+01 2.72727E+00
 -1     13653 3.89815E+01 1.98621E+01 2.72727E+00
 -1     13658 4.00953E+01 2.04296E+01 3.18182E+00
 -1     13659 4.14464E+01 1.71677E+01 3.63636E+00
 -1     13660 3.89815E+01 1.98621E+01 3.63636E+00
 -1     13665 4.00953E+01 2.04296E+01 4.09091E+00
 -1     13666 4.14464E+01 1.71677E+01 4.54545E+00
 -1     13667 3.89815E+01 1.98621E+01 4.54545E+00
 -1     13672 4.00953E+01 2.04296E+01 5.00000E+00
 -1     13673 4.14464E+01 1.71677E+01 5.45455E+00
 -1     13674 3.89815E+01 1.98621E+01 5.45455E+00
 -1     13679 4.00953E+01 2.04296E+01 5.90909E+00
 -1     13680 4.14464E+01 1.71677E+01 6.36364E+00
 -1     13681 3.89815E+01 1.98621E+01 6.36364E+00
 -1     13686 4.00953E+01 2.04296E+01 6.81818E+00
 -1     13687 4.14464E+01 1.71677E+01 7.27273E+00
 -1     13688 3.89815E+01 1.98621E+01 7.27273E+00
 -1     13693 4.00953E+01 2.04296E+01 7.72727E+00
 -1     13694 4.14464E+01 1.71677E+01 8.18182E+00
 -1     13695 3.89815E+01 1.98621E+01 8.18182E+00
 -1     13700 4.00953E+01 2.04296E+01 8.63636E+00
 -1     13701 4.14464E+01 1.71677E+01 9.09091E+00
 -1     13702 3.89815E+01 1.98621E+01 9.09091E+00
 -1     13707 4.00953E+01 2.04296E+01 9.54545E+00
 -1     13711 3.64058E+01 2.64503E+01 4.54545E-01
 -1     13712 3.82505E+01 2.34400E+01 9.09091E-01
 -1     13713 3.53945E+01 2.57156E+01 9.09091E-01
 -1     13718 3.64058E+01 2.64503E+01 1.36364E+00
 -1     13719 3.82505E+01 2.34400E+01 1.81818E+00
 -1     13720 3.53945E+01 2.57156E+01 1.81818E+00
 -1     13725 3.64058E+01 2.64503E+01 2.27273E+00
 -1     13726 3.82505E+01 2.34400E+01 2.72727E+00
 -1     13727 3.53945E+01 2.57156E+01 2.72727E+00
 -1     13732 3.64058E+01 2.64503E+01 3.18182E+00
 -1     13733 3.82505E+01 2.34400E+01 3.63636E+00
 -1     13734 3.53945E+01 2.57156E+01 3.63636E+00
 -1     13739 3.64058E+01 2.64503E+01 4.09091E+00
 -1     13740 3.82505E+01 2.34400E+01 4.54545E+00
 -1     13741 3.53945E+01 2.57156E+01 4.54545E+00
 -1     13746 3.64058E+01 2.64503E+01 5.00000E+00
 -1     13747 3.82505E+01 2.34400E+01 5.45455E+00
 -1     13748 3.53945E+01 2.57156E+01 5.45455E+00
 -1     13753 3.64058E+01 2.64503E+01 5.90909E+00
 -1     13754 3.82505E+01 2.34400E+01 6.36364E+00
 -1     13755 3.53945E+01 2.57156E+01 6.36364E+00
 -1     13760 3.64058E+01 2.64503E+01 6.81818E+00
 -1     13761 3.82505E+01 2.34400E+01 7.27273E+00
 -1     13762 3.53945E+01 2.57156E+01 7.27273E+00
 -1     13767 3.64058E+01 2.64503E+01 7.72727E+00
 -1     13768 3.82505E+01 2.34400E+01 8.18182E+00
 -1     13769 3.53945E+01 2.57156E+01 8.18182E+00
 -1     13774 3.64058E+01 2.64503E+01 8.63636E+00
 -1     13775 3.82505E+01 2.34400E+01 9.09091E+00
 -1     13776 3.53945E+01 2.57156E+01 9.09091E+00
 -1     13781 3.64058E+01 2.64503E+01 9.54545E+00
 -1     13785 3.18198E+01 3.18198E+01 4.54545E-01
 -1     13786 3.41128E+01 2.91351E+01 9.09091E-01
 -1     13787 3.09359E+01 3.09359E+01 9.09091E-01
 -1     13792 3.18198E+01 3.18198E+01 1.36364E+00
 -1     13793 3.41128E+01 2.91351E+01 1.81818E+00
 -1     13794 3.09359E+01 3.09359E+01 1.81818E+00
 -1     13799 3.18198E+01 3.18198E+01 2.27273E+00
 -1     13800 3.41128E+01 2.91351E+01 2.72727E+00
 -1     13801 3.09359E+01 3.09359E+01 2.72727E+00
 -1     13806 3.18198E+01 3.18198E+01 3.18182E+00
 -1     13807 3.41128E+01 2.91351E+01 3.63636E+00
 -1     13808 3.09359E+01 3.09359E+01 3.63636E+00
 -1     13813 3.18198E+01 3.18198E+01 4.09091E+00
 -1     13814 3.41128E+01 2.91351E+01 4.54545E+00
 -1     13815 3.09359E+01 3.09359E+01 4.54545E+00
 -1     13820 3.18198E+01 3.18198E+01 5.00000E+00
 -1     13821 3.41128E+01 2.91351E+01 5.45455E+00
 -1     13822 3.09359E+01 3.09359E+01 5.45455E+00
 -1     13827 3.18198E+01 3.18198E+01 5.90909E+00
 -1     13828 3.41128E+01 2.91351E+01 6.36364E+00
 -1     13829 3.09359E+01 3.09359E+01 6.36364E+00
 -1     13834 3.18198E+01 3.18198E+01 6.81818E+00
 -1     13835 3.41128E+01 2.91351E+01 7.27273E+00
 -1     13836 3.09359E+01 3.09359E+01 7.27273E+00
 -1     13841 3.18198E+01 3.18198E+01 7.72727E+00
 -1     13842 3.41128E+01 2.91351E+01 8.18182E+00
 -1     13843 3.09359E+01 3.09359E+01 8.18182E+00
 -1     13848 3.18198E+01 3.18198E+01 8.63636E+00
 -1     13849 3.41128E+01 2.91351E+01 9.09091E+00
 -1     13850 3.09359E+01 3.09359E+01 9.09091E+00
 -1     13855 3.18198E+01 3.18198E+01 9.54545E+00
 -1     13859 2.64503E+01 3.64058E+01 4.54545E-01
 -1     13860 2.91351E+01 3.41128E+01 9.09091E-01
 -1     13861 2.57156E+01 3.53945E+01 9.09091E-01
 -1     13866 2.64503E+01 3.64058E+01 1.36364E+00
 -1     13867 2.91351E+01 3.41128E+01 1.81818E+00
 -1     13868 2.57156E+01 3.53945E+01 1.81818E+00
 -1     13873 2.64503E+01 3.64058E+01 2.27273E+00
 -1     13874 2.91351E+01 3.41128E+01 2.72727E+00
 -1     13875 2.57156E+01 3.53945E+01 2.72727E+00
 -1     13880 2.64503E+01 3.64058E+01 3.18182E+00
 -1     13881 2.91351E+01 3.41128E+01 3.63636E+00
 -1     13882 2.57156E+01 3.53945E+01 3.63636E+00
 -1     13887 2.64503E+01 3.64058E+01 4.09091E+00
 -1     13888 2.91351E+01 3.41128E+01 4.54545E+00
 -1     13889 2.57156E+01 3.53945E+01 4.54545E+00
 -1     13894 2.64503E+01 3.64058E+01 5.00000E+00
 -1     13895 2.91351E+01 3.41128E+01 5.45455E+00
 -1     13896 2.57156E+01 3.53945E+01 5.45455E+00
 -1     13901 2.64503E+01 3.64058E+01 5.90909E+00
 -1     13902 2.91351E+01 3.41128E+01 6.36364E+00
 -1     13903 2.57156E+01 3.53945E+01 6.36364E+00
 -1     13908 2.64503E+01 3.64058E+01 6.81818E+00
 -1     13909 2.91351E+01 3.41128E+01 7.27273E+00
 -1     13910 2.57156E+01 3.53945E+01 7.27273E+00
 -1     13915 2.64503E+01 3.64058E+01 7.72727E+00
 -1     13916 2.91351E+01 3.41128E+01 8.18182E+00
 -1     13917 2.57156E+01 3.53945E+01 8.18182E+00
 -1     13922 2.64503E+01 3.64058E+01 8.63636E+00
 -1     13923 2.91351E+01 3.41128E+01 9.09091E+00
 -1     13924 2.57156E+01 3.53945E+01 9.09091E+00
 -1     13929 2.64503E+01 3.64058E+01 9.54545E+00
 -1     13933 2.04296E+01 4.00953E+01 4.54545E-01
 -1     13934 2.34400E+01 3.82505E+01 9.09091E-01
 -1     13935 1.98621E+01 3.89815E+01 9.09091E-01
 -1     13940 2.04296E+01 4.00953E+01 1.36364E+00
 -1     13941 2.34400E+01 3.82505E+01 1.81818E+00
 -1     13942 1.98621E+01 3.89815E+01 1.81818E+00
 -1     13947 2.04296E+01 4.00953E+01 2.27273E+00
 -1     13948 2.34400E+01 3.82505E+01 2.72727E+00
 -1     13949 1.98621E+01 3.89815E+01 2.72727E+00
 -1     13954 2.04296E+01 4.00953E+01 3.18182E+00
 -1     13955 2.34400E+01 3.82505E+01 3.63636E+00
 -1     13956 1.98621E+01 3.89815E+01 3.63636E+00
 -1     13961 2.04296E+01 4.00953E+01 4.09091E+00
 -1     13962 2.34400E+01 3.82505E+01 4.54545E+00
 -1     13963 1.98621E+01 3.89815E+01 4.54545E+00
 -1     13968 2.04296E+01 4.00953E+01 5.00000E+00
 -1     13969 2.34400E+01 3.82505E+01 5.45455E+00
 -1     13970 1.98621E+01 3.89815E+01 5.45455E+00
 -1     13975 2.04296E+01 4.00953E+01 5.90909E+00
 -1     13976 2.34400E+01 3.82505E+01 6.36364E+00
 -1     13977 1.98621E+01 3.89815E+01 6.36364E+00
 -1     13982 2.04296E+01 4.00953E+01 6.81818E+00
 -1     13983 2.34400E+01 3.82505E+01 7.27273E+00
 -1     13984 1.98621E+01 3.89815E+01 7.27273E+00
 -1     13989 2.04296E+01 4.00953E+01 7.72727E+00
 -1     13990 2.34400E+01 3.82505E+01 8.18182E+00
 -1     13991 1.98621E+01 3.89815E+01 8.18182E+00
 -1     13996 2.04296E+01 4.00953E+01 8.63636E+00
 -1     13997 2.34400E+01 3.82505E+01 9.09091E+00
 -1     13998 1.98621E+01 3.89815E+01 9.09091E+00
 -1     14003 2.04296E+01 4.00953E+01 9.54545E+00
 -1     14007 1.39058E+01 4.27975E+01 4.54545E-01
 -1     14008 1.71677E+01 4.14464E+01 9.09091E-01
 -1     14009 1.35195E+01 4.16087E+01 9.09091E-01
 -1     14014 1.39058E+01 4.27975E+01 1.36364E+00
 -1     14015 1.71677E+01 4.14464E+01 1.81818E+00
 -1     14016 1.35195E+01 4.16087E+01 1.81818E+00
 -1     14021 1.39058E+01 4.27975E+01 2.27273E+00
 -1     14022 1.71677E+01 4.14464E+01 2.72727E+00
 -1     14023 1.35195E+01 4.16087E+01 2.72727E+00
 -1     14028 1.39058E+01 4.27975E+01 3.18182E+00
 -1     14029 1.71677E+01 4.14464E+01 3.63636E+00
 -1     14030 1.35195E+01 4.16087E+01 3.63636E+00
 -1     14035 1.39058E+01 4.27975E+01 4.09091E+00
 -1     14036 1.71677E+01 4.14464E+01 4.54545E+00
 -1     14037 1.35195E+01 4.16087E+01 4.54545E+00
 -1     14042 1.39058E+01 4.27975E+01 5.00000E+00
 -1     14043 1.71677E+01 4.14464E+01 5.45455E+00
 -1     14044 1.35195E+01 4.16087E+01 5.45455E+00
 -1     14049 1.39058E+01 4.27975E+01 5.90909E+00
 -1     14050 1.71677E+01 4.14464E+01 6.36364E+00
 -1     14051 1.35195E+01 4.16087E+01 6.36364E+00
 -1     14056 1.39058E+01 4.27975E+01 6.81818E+00
 -1     14057 1.71677E+01 4.14464E+01 7.27273E+00
 -1     14058 1.35195E+01 4.16087E+01 7.27273E+00
 -1     14063 1.39058E+01 4.27975E+01 7.72727E+00
 -1     14064 1.71677E+01 4.14464E+01 8.18182E+00
 -1     14065 1.35195E+01 4.16087E+01 8.18182E+00
 -1     14070 1.39058E+01 4.27975E+01 8.63636E+00
 -1     14071 1.71677E+01 4.14464E+01 9.09091E+00
 -1     14072 1.35195E+01 4.16087E+01 9.09091E+00
 -1     14077 1.39058E+01 4.27975E+01 9.54545E+00
 -1     14081 7.03955E+00 4.44460E+01 4.54545E-01
 -1     14082 1.04727E+01 4.36218E+01 9.09091E-01
 -1     14083 6.84401E+00 4.32114E+01 9.09091E-01
 -1     14088 7.03955E+00 4.44460E+01 1.36364E+00
 -1     14089 1.04727E+01 4.36218E+01 1.81818E+00
 -1     14090 6.84401E+00 4.32114E+01 1.81818E+00
 -1     14095 7.03955E+00 4.44460E+01 2.27273E+00
 -1     14096 1.04727E+01 4.36218E+01 2.72727E+00
 -1     14097 6.84401E+00 4.32114E+01 2.72727E+00
 -1     14102 7.03955E+00 4.44460E+01 3.18182E+00
 -1     14103 1.04727E+01 4.36218E+01 3.63636E+00
 -1     14104 6.84401E+00 4.32114E+01 3.63636E+00
 -1     14109 7.03955E+00 4.44460E+01 4.09091E+00
 -1     14110 1.04727E+01 4.36218E+01 4.54545E+00
 -1     14111 6.84401E+00 4.32114E+01 4.54545E+00
 -1     14116 7.03955E+00 4.44460E+01 5.00000E+00
 -1     14117 1.04727E+01 4.36218E+01 5.45455E+00
 -1     14118 6.84401E+00 4.32114E+01 5.45455E+00
 -1     14123 7.03955E+00 4.44460E+01 5.90909E+00
 -1     14124 1.04727E+01 4.36218E+01 6.36364E+00
 -1     14125 6.84401E+00 4.32114E+01 6.36364E+00
 -1     14130 7.03955E+00 4.44460E+01 6.81818E+00
 -1     14131 1.04727E+01 4.36218E+01 7.27273E+00
 -1     14132 6.84401E+00 4.32114E+01 7.27273E+00
 -1     14137 7.03955E+00 4.44460E+01 7.72727E+00
 -1     14138 1.04727E+01 4.36218E+01 8.18182E+00
 -1     14139 6.84401E+00 4.32114E+01 8.18182E+00
 -1     14144 7.03955E+00 4.44460E+01 8.63636E+00
 -1     14145 1.04727E+01 4.36218E+01 9.09091E+00
 -1     14146 6.84401E+00 4.32114E+01 9.09091E+00
 -1     14151 7.03955E+00 4.44460E+01 9.54545E+00
 -1     14155 3.51978E+00 4.47230E+01 9.09091E-01
 -1     14159 3.51978E+00 4.47230E+01 1.81818E+00
 -1     14163 3.51978E+00 4.47230E+01 2.72727E+00
 -1     14167 3.51978E+00 4.47230E+01 3.63636E+00
 -1     14171 3.51978E+00 4.47230E+01 4.54545E+00
 -1     14175 3.51978E+00 4.47230E+01 5.45455E+00
 -1     14179 3.51978E+00 4.47230E+01 6.36364E+00
 -1     14183 3.51978E+00 4.47230E+01 7.27273E+00
 -1     14187 3.51978E+00 4.47230E+01 8.18182E+00
 -1     14191 3.51978E+00 4.47230E+01 9.09091E+00
 -1     14197 4.69152E+01 7.43064E+00 4.54545E-01
 -1     14198 4.72076E+01 3.71532E+00 9.09091E-01
 -1     14199 4.56806E+01 7.23509E+00 9.09091E-01
 -1     14204 4.69152E+01 7.43064E+00 1.36364E+00
 -1     14205 4.72076E+01 3.71532E+00 1.81818E+00
 -1     14206 4.56806E+01 7.23509E+00 1.81818E+00
 -1     14211 4.69152E+01 7.43064E+00 2.27273E+00
 -1     14212 4.72076E+01 3.71532E+00 2.72727E+00
 -1     14213 4.56806E+01 7.23509E+00 2.72727E+00
 -1     14218 4.69152E+01 7.43064E+00 3.18182E+00
 -1     14219 4.72076E+01 3.71532E+00 3.63636E+00
 -1     14220 4.56806E+01 7.23509E+00 3.63636E+00
 -1     14225 4.69152E+01 7.43064E+00 4.09091E+00
 -1     14226 4.72076E+01 3.71532E+00 4.54545E+00
 -1     14227 4.56806E+01 7.23509E+00 4.54545E+00
 -1     14232 4.69152E+01 7.43064E+00 5.00000E+00
 -1     14233 4.72076E+01 3.71532E+00 5.45455E+00
 -1     14234 4.56806E+01 7.23509E+00 5.45455E+00
 -1     14239 4.69152E+01 7.43064E+00 5.90909E+00
 -1     14240 4.72076E+01 3.71532E+00 6.36364E+00
 -1     14241 4.56806E+01 7.23509E+00 6.36364E+00
 -1     14246 4.69152E+01 7.43064E+00 6.81818E+00
 -1     14247 4.72076E+01 3.71532E+00 7.27273E+00
 -1     14248 4.56806E+01 7.23509E+00 7.27273E+00
 -1     14253 4.69152E+01 7.43064E+00 7.72727E+00
 -1     14254 4.72076E+01 3.71532E+00 8.18182E+00
 -1     14255 4.56806E+01 7.23509E+00 8.18182E+00
 -1     14260 4.69152E+01 7.43064E+00 8.63636E+00
 -1     14261 4.72076E+01 3.71532E+00 9.09091E+00
 -1     14262 4.56806E+01 7.23509E+00 9.09091E+00
 -1     14267 4.69152E+01 7.43064E+00 9.54545E+00
 -1     14271 4.51752E+01 1.46783E+01 4.54545E-01
 -1     14272 4.60452E+01 1.10545E+01 9.09091E-01
 -1     14273 4.39864E+01 1.42920E+01 9.09091E-01
 -1     14278 4.51752E+01 1.46783E+01 1.36364E+00
 -1     14279 4.60452E+01 1.10545E+01 1.81818E+00
 -1     14280 4.39864E+01 1.42920E+01 1.81818E+00
 -1     14285 4.51752E+01 1.46783E+01 2.27273E+00
 -1     14286 4.60452E+01 1.10545E+01 2.72727E+00
 -1     14287 4.39864E+01 1.42920E+01 2.72727E+00
 -1     14292 4.51752E+01 1.46783E+01 3.18182E+00
 -1     14293 4.60452E+01 1.10545E+01 3.63636E+00
 -1     14294 4.39864E+01 1.42920E+01 3.63636E+00
 -1     14299 4.51752E+01 1.46783E+01 4.09091E+00
 -1     14300 4.60452E+01 1.10545E+01 4.54545E+00
 -1     14301 4.39864E+01 1.42920E+01 4.54545E+00
 -1     14306 4.51752E+01 1.46783E+01 5.00000E+00
 -1     14307 4.60452E+01 1.10545E+01 5.45455E+00
 -1     14308 4.39864E+01 1.42920E+01 5.45455E+00
 -1     14313 4.51752E+01 1.46783E+01 5.90909E+00
 -1     14314 4.60452E+01 1.10545E+01 6.36364E+00
 -1     14315 4.39864E+01 1.42920E+01 6.36364E+00
 -1     14320 4.51752E+01 1.46783E+01 6.81818E+00
 -1     14321 4.60452E+01 1.10545E+01 7.27273E+00
 -1     14322 4.39864E+01 1.42920E+01 7.27273E+00
 -1     14327 4.51752E+01 1.46783E+01 7.72727E+00
 -1     14328 4.60452E+01 1.10545E+01 8.18182E+00
 -1     14329 4.39864E+01 1.42920E+01 8.18182E+00
 -1     14334 4.51752E+01 1.46783E+01 8.63636E+00
 -1     14335 4.60452E+01 1.10545E+01 9.09091E+00
 -1     14336 4.39864E+01 1.42920E+01 9.09091E+00
 -1     14341 4.51752E+01 1.46783E+01 9.54545E+00
 -1     14345 4.23228E+01 2.15645E+01 4.54545E-01
 -1     14346 4.37490E+01 1.81214E+01 9.09091E-01
 -1     14347 4.12091E+01 2.09971E+01 9.09091E-01
 -1     14352 4.23228E+01 2.15645E+01 1.36364E+00
 -1     14353 4.37490E+01 1.81214E+01 1.81818E+00
 -1     14354 4.12091E+01 2.09971E+01 1.81818E+00
 -1     14359 4.23228E+01 2.15645E+01 2.27273E+00
 -1     14360 4.37490E+01 1.81214E+01 2.72727E+00
 -1     14361 4.12091E+01 2.09971E+01 2.72727E+00
 -1     14366 4.23228E+01 2.15645E+01 3.18182E+00
 -1     14367 4.37490E+01 1.81214E+01 3.63636E+00
 -1     14368 4.12091E+01 2.09971E+01 3.63636E+00
 -1     14373 4.23228E+01 2.15645E+01 4.09091E+00
 -1     14374 4.37490E+01 1.81214E+01 4.54545E+00
 -1     14375 4.12091E+01 2.09971E+01 4.54545E+00
 -1     14380 4.23228E+01 2.15645E+01 5.00000E+00
 -1     14381 4.37490E+01 1.81214E+01 5.45455E+00
 -1     14382 4.12091E+01 2.09971E+01 5.45455E+00
 -1     14387 4.23228E+01 2.15645E+01 5.90909E+00
 -1     14388 4.37490E+01 1.81214E+01 6.36364E+00
 -1     14389 4.12091E+01 2.09971E+01 6.36364E+00
 -1     14394 4.23228E+01 2.15645E+01 6.81818E+00
 -1     14395 4.37490E+01 1.81214E+01 7.27273E+00
 -1     14396 4.12091E+01 2.09971E+01 7.27273E+00
 -1     14401 4.23228E+01 2.15645E+01 7.72727E+00
 -1     14402 4.37490E+01 1.81214E+01 8.18182E+00
 -1     14403 4.12091E+01 2.09971E+01 8.18182E+00
 -1     14408 4.23228E+01 2.15645E+01 8.63636E+00
 -1     14409 4.37490E+01 1.81214E+01 9.09091E+00
 -1     14410 4.12091E+01 2.09971E+01 9.09091E+00
 -1     14415 4.23228E+01 2.15645E+01 9.54545E+00
 -1     14419 3.84283E+01 2.79198E+01 4.54545E-01
 -1     14420 4.03756E+01 2.47422E+01 9.09091E-01
 -1     14421 3.74170E+01 2.71851E+01 9.09091E-01
 -1     14426 3.84283E+01 2.79198E+01 1.36364E+00
 -1     14427 4.03756E+01 2.47422E+01 1.81818E+00
 -1     14428 3.74170E+01 2.71851E+01 1.81818E+00
 -1     14433 3.84283E+01 2.79198E+01 2.27273E+00
 -1     14434 4.03756E+01 2.47422E+01 2.72727E+00
 -1     14435 3.74170E+01 2.71851E+01 2.72727E+00
 -1     14440 3.84283E+01 2.79198E+01 3.18182E+00
 -1     14441 4.03756E+01 2.47422E+01 3.63636E+00
 -1     14442 3.74170E+01 2.71851E+01 3.63636E+00
 -1     14447 3.84283E+01 2.79198E+01 4.09091E+00
 -1     14448 4.03756E+01 2.47422E+01 4.54545E+00
 -1     14449 3.74170E+01 2.71851E+01 4.54545E+00
 -1     14454 3.84283E+01 2.79198E+01 5.00000E+00
 -1     14455 4.03756E+01 2.47422E+01 5.45455E+00
 -1     14456 3.74170E+01 2.71851E+01 5.45455E+00
 -1     14461 3.84283E+01 2.79198E+01 5.90909E+00
 -1     14462 4.03756E+01 2.47422E+01 6.36364E+00
 -1     14463 3.74170E+01 2.71851E+01 6.36364E+00
 -1     14468 3.84283E+01 2.79198E+01 6.81818E+00
 -1     14469 4.03756E+01 2.47422E+01 7.27273E+00
 -1     14470 3.74170E+01 2.71851E+01 7.27273E+00
 -1     14475 3.84283E+01 2.79198E+01 7.72727E+00
 -1     14476 4.03756E+01 2.47422E+01 8.18182E+00
 -1     14477 3.74170E+01 2.71851E+01 8.18182E+00
 -1     14482 3.84283E+01 2.79198E+01 8.63636E+00
 -1     14483 4.03756E+01 2.47422E+01 9.09091E+00
 -1     14484 3.74170E+01 2.71851E+01 9.09091E+00
 -1     14489 3.84283E+01 2.79198E+01 9.54545E+00
 -1     14493 3.35876E+01 3.35876E+01 4.54545E-01
 -1     14494 3.60079E+01 3.07537E+01 9.09091E-01
 -1     14495 3.27037E+01 3.27037E+01 9.09091E-01
 -1     14500 3.35876E+01 3.35876E+01 1.36364E+00
 -1     14501 3.60079E+01 3.07537E+01 1.81818E+00
 -1     14502 3.27037E+01 3.27037E+01 1.81818E+00
 -1     14507 3.35876E+01 3.35876E+01 2.27273E+00
 -1     14508 3.60079E+01 3.07537E+01 2.72727E+00
 -1     14509 3.27037E+01 3.27037E+01 2.72727E+00
 -1     14514 3.35876E+01 3.35876E+01 3.18182E+00
 -1     14515 3.60079E+01 3.07537E+01 3.63636E+00
 -1     14516 3.27037E+01 3.27037E+01 3.63636E+00
 -1     14521 3.35876E+01 3.35876E+01 4.09091E+00
 -1     14522 3.60079E+01 3.07537E+01 4.54545E+00
 -1     14523 3.27037E+01 3.27037E+01 4.54545E+00
 -1     14528 3.35876E+01 3.35876E+01 5.00000E+00
 -1     14529 3.60079E+01 3.07537E+01 5.45455E+00
 -1     14530 3.27037E+01 3.27037E+01 5.45455E+00
 -1     14535 3.35876E+01 3.35876E+01 5.90909E+00
 -1     14536 3.60079E+01 3.07537E+01 6.36364E+00
 -1     14537 3.27037E+01 3.27037E+01 6.36364E+00
 -1     14542 3.35876E+01 3.35876E+01 6.81818E+00
 -1     14543 3.60079E+01 3.07537E+01 7.27273E+00
 -1     14544 3.27037E+01 3.27037E+01 7.27273E+00
 -1     14549 3.35876E+01 3.35876E+01 7.72727E+00
 -1     14550 3.60079E+01 3.07537E+01 8.18182E+00
 -1     14551 3.27037E+01 3.27037E+01 8.18182E+00
 -1     14556 3.35876E+01 3.35876E+01 8.63636E+00
 -1     14557 3.60079E+01 3.07537E+01 9.09091E+00
 -1     14558 3.27037E+01 3.27037E+01 9.09091E+00
 -1     14563 3.35876E+01 3.35876E+01 9.54545E+00
 -1     14567 2.79198E+01 3.84283E+01 4.54545E-01
 -1     14568 3.07537E+01 3.60079E+01 9.09091E-01
 -1     14569 2.71851E+01 3.74170E+01 9.09091E-01
 -1     14574 2.79198E+01 3.84283E+01 1.36364E+00
 -1     14575 3.07537E+01 3.60079E+01 1.81818E+00
 -1     14576 2.71851E+01 3.74170E+01 1.81818E+00
 -1     14581 2.79198E+01 3.84283E+01 2.27273E+00
 -1     14582 3.07537E+01 3.60079E+01 2.72727E+00
 -1     14583 2.71851E+01 3.74170E+01 2.72727E+00
 -1     14588 2.79198E+01 3.84283E+01 3.18182E+00
 -1     14589 3.07537E+01 3.60079E+01 3.63636E+00
 -1     14590 2.71851E+01 3.74170E+01 3.63636E+00
 -1     14595 2.79198E+01 3.84283E+01 4.09091E+00
 -1     14596 3.07537E+01 3.60079E+01 4.54545E+00
 -1     14597 2.71851E+01 3.74170E+01 4.54545E+00
 -1     14602 2.79198E+01 3.84283E+01 5.00000E+00
 -1     14603 3.07537E+01 3.60079E+01 5.45455E+00
 -1     14604 2.71851E+01 3.74170E+01 5.45455E+00
 -1     14609 2.79198E+01 3.84283E+01 5.90909E+00
 -1     14610 3.07537E+01 3.60079E+01 6.36364E+00
 -1     14611 2.71851E+01 3.74170E+01 6.36364E+00
 -1     14616 2.79198E+01 3.84283E+01 6.81818E+00
 -1     14617 3.07537E+01 3.60079E+01 7.27273E+00
 -1     14618 2.71851E+01 3.74170E+01 7.27273E+00
 -1     14623 2.79198E+01 3.84283E+01 7.72727E+00
 -1     14624 3.07537E+01 3.60079E+01 8.18182E+00
 -1     14625 2.71851E+01 3.74170E+01 8.18182E+00
 -1     14630 2.79198E+01 3.84283E+01 8.63636E+00
 -1     14631 3.07537E+01 3.60079E+01 9.09091E+00
 -1     14632 2.71851E+01 3.74170E+01 9.09091E+00
 -1     14637 2.79198E+01 3.84283E+01 9.54545E+00
 -1     14641 2.15645E+01 4.23228E+01 4.54545E-01
 -1     14642 2.47422E+01 4.03756E+01 9.09091E-01
 -1     14643 2.09971E+01 4.12091E+01 9.09091E-01
 -1     14648 2.15645E+01 4.23228E+01 1.36364E+00
 -1     14649 2.47422E+01 4.03756E+01 1.81818E+00
 -1     14650 2.09971E+01 4.12091E+01 1.81818E+00
 -1     14655 2.15645E+01 4.23228E+01 2.27273E+00
 -1     14656 2.47422E+01 4.03756E+01 2.72727E+00
 -1     14657 2.09971E+01 4.12091E+01 2.72727E+00
 -1     14662 2.15645E+01 4.23228E+01 3.18182E+00
 -1     14663 2.47422E+01 4.03756E+01 3.63636E+00
 -1     14664 2.09971E+01 4.12091E+01 3.63636E+00
 -1     14669 2.15645E+01 4.23228E+01 4.09091E+00
 -1     14670 2.47422E+01 4.03756E+01 4.54545E+00
 -1     14671 2.09971E+01 4.12091E+01 4.54545E+00
 -1     14676 2.15645E+01 4.23228E+01 5.00000E+00
 -1     14677 2.47422E+01 4.03756E+01 5.45455E+00
 -1     14678 2.09971E+01 4.12091E+01 5.45455E+00
 -1     14683 2.15645E+01 4.23228E+01 5.90909E+00
 -1     14684 2.47422E+01 4.03756E+01 6.36364E+00
 -1     14685 2.09971E+01 4.12091E+01 6.36364E+00
 -1     14690 2.15645E+01 4.23228E+01 6.81818E+00
 -1     14691 2.47422E+01 4.03756E+01 7.27273E+00
 -1     14692 2.09971E+01 4.12091E+01 7.27273E+00
 -1     14697 2.15645E+01 4.23228E+01 7.72727E+00
 -1     14698 2.47422E+01 4.03756E+01 8.18182E+00
 -1     14699 2.09971E+01 4.12091E+01 8.18182E+00
 -1     14704 2.15645E+01 4.23228E+01 8.63636E+00
 -1     14705 2.47422E+01 4.03756E+01 9.09091E+00
 -1     14706 2.09971E+01 4.12091E+01 9.09091E+00
 -1     14711 2.15645E+01 4.23228E+01 9.54545E+00
 -1     14715 1.46783E+01 4.51752E+01 4.54545E-01
 -1     14716 1.81214E+01 4.37490E+01 9.09091E-01
 -1     14717 1.42920E+01 4.39864E+01 9.09091E-01
 -1     14722 1.46783E+01 4.51752E+01 1.36364E+00
 -1     14723 1.81214E+01 4.37490E+01 1.81818E+00
 -1     14724 1.42920E+01 4.39864E+01 1.81818E+00
 -1     14729 1.46783E+01 4.51752E+01 2.27273E+00
 -1     14730 1.81214E+01 4.37490E+01 2.72727E+00
 -1     14731 1.42920E+01 4.39864E+01 2.72727E+00
 -1     14736 1.46783E+01 4.51752E+01 3.18182E+00
 -1     14737 1.81214E+01 4.37490E+01 3.63636E+00
 -1     14738 1.42920E+01 4.39864E+01 3.63636E+00
 -1     14743 1.46783E+01 4.51752E+01 4.09091E+00
 -1     14744 1.81214E+01 4.37490E+01 4.54545E+00
 -1     14745 1.42920E+01 4.39864E+01 4.54545E+00
 -1     14750 1.46783E+01 4.51752E+01 5.00000E+00
 -1     14751 1.81214E+01 4.37490E+01 5.45455E+00
 -1     14752 1.42920E+01 4.39864E+01 5.45455E+00
 -1     14757 1.46783E+01 4.51752E+01 5.90909E+00
 -1     14758 1.81214E+01 4.37490E+01 6.36364E+00
 -1     14759 1.42920E+01 4.39864E+01 6.36364E+00
 -1     14764 1.46783E+01 4.51752E+01 6.81818E+00
 -1     14765 1.81214E+01 4.37490E+01 7.27273E+00
 -1     14766 1.42920E+01 4.39864E+01 7.27273E+00
 -1     14771 1.46783E+01 4.51752E+01 7.72727E+00
 -1     14772 1.81214E+01 4.37490E+01 8.18182E+00
 -1     14773 1.42920E+01 4.39864E+01 8.18182E+00
 -1     14778 1.46783E+01 4.51752E+01 8.63636E+00
 -1     14779 1.81214E+01 4.37490E+01 9.09091E+00
 -1     14780 1.42920E+01 4.39864E+01 9.09091E+00
 -1     14785 1.46783E+01 4.51752E+01 9.54545E+00
 -1     14789 7.43064E+00 4.69152E+01 4.54545E-01
 -1     14790 1.10545E+01 4.60452E+01 9.09091E-01
 -1     14791 7.23509E+00 4.56806E+01 9.09091E-01
 -1     14796 7.43064E+00 4.69152E+01 1.36364E+00
 -1     14797 1.10545E+01 4.60452E+01 1.81818E+00
 -1     14798 7.23509E+00 4.56806E+01 1.81818E+00
 -1     14803 7.43064E+00 4.69152E+01 2.27273E+00
 -1     14804 1.10545E+01 4.60452E+01 2.72727E+00
 -1     14805 7.23509E+00 4.56806E+01 2.72727E+00
 -1     14810 7.43064E+00 4.69152E+01 3.18182E+00
 -1     14811 1.10545E+01 4.60452E+01 3.63636E+00
 -1     14812 7.23509E+00 4.56806E+01 3.63636E+00
 -1     14817 7.43064E+00 4.69152E+01 4.09091E+00
 -1     14818 1.10545E+01 4.60452E+01 4.54545E+00
 -1     14819 7.23509E+00 4.56806E+01 4.54545E+00
 -1     14824 7.43064E+00 4.69152E+01 5.00000E+00
 -1     14825 1.10545E+01 4.60452E+01 5.45455E+00
 -1     14826 7.23509E+00 4.56806E+01 5.45455E+00
 -1     14831 7.43064E+00 4.69152E+01 5.90909E+00
 -1     14832 1.10545E+01 4.60452E+01 6.36364E+00
 -1     14833 7.23509E+00 4.56806E+01 6.36364E+00
 -1     14838 7.43064E+00 4.69152E+01 6.81818E+00
 -1     14839 1.10545E+01 4.60452E+01 7.27273E+00
 -1     14840 7.23509E+00 4.56806E+01 7.27273E+00
 -1     14845 7.43064E+00 4.69152E+01 7.72727E+00
 -1     14846 1.10545E+01 4.60452E+01 8.18182E+00
 -1     14847 7.23509E+00 4.56806E+01 8.18182E+00
 -1     14852 7.43064E+00 4.69152E+01 8.63636E+00
 -1     14853 1.10545E+01 4.60452E+01 9.09091E+00
 -1     14854 7.23509E+00 4.56806E+01 9.09091E+00
 -1     14859 7.43064E+00 4.69152E+01 9.54545E+00
 -1     14863 3.71532E+00 4.72076E+01 9.09091E-01
 -1     14867 3.71532E+00 4.72076E+01 1.81818E+00
 -1     14871 3.71532E+00 4.72076E+01 2.72727E+00
 -1     14875 3.71532E+00 4.72076E+01 3.63636E+00
 -1     14879 3.71532E+00 4.72076E+01 4.54545E+00
 -1     14883 3.71532E+00 4.72076E+01 5.45455E+00
 -1     14887 3.71532E+00 4.72076E+01 6.36364E+00
 -1     14891 3.71532E+00 4.72076E+01 7.27273E+00
 -1     14895 3.71532E+00 4.72076E+01 8.18182E+00
 -1     14899 3.71532E+00 4.72076E+01 9.09091E+00
 -1     14905 4.93844E+01 7.82172E+00 4.54545E-01
 -1     14906 4.96922E+01 3.91086E+00 9.09091E-01
 -1     14907 4.81498E+01 7.62618E+00 9.09091E-01
 -1     14912 4.93844E+01 7.82172E+00 1.36364E+00
 -1     14913 4.96922E+01 3.91086E+00 1.81818E+00
 -1     14914 4.81498E+01 7.62618E+00 1.81818E+00
 -1     14919 4.93844E+01 7.82172E+00 2.27273E+00
 -1     14920 4.96922E+01 3.91086E+00 2.72727E+00
 -1     14921 4.81498E+01 7.62618E+00 2.72727E+00
 -1     14926 4.93844E+01 7.82172E+00 3.18182E+00
 -1     14927 4.96922E+01 3.91086E+00 3.63636E+00
 -1     14928 4.81498E+01 7.62618E+00 3.63636E+00
 -1     14933 4.93844E+01 7.82172E+00 4.09091E+00
 -1     14934 4.96922E+01 3.91086E+00 4.54545E+00
 -1     14935 4.81498E+01 7.62618E+00 4.54545E+00
 -1     14940 4.93844E+01 7.82172E+00 5.00000E+00
 -1     14941 4.96922E+01 3.91086E+00 5.45455E+00
 -1     14942 4.81498E+01 7.62618E+00 5.45455E+00
 -1     14947 4.93844E+01 7.82172E+00 5.90909E+00
 -1     14948 4.96922E+01 3.91086E+00 6.36364E+00
 -1     14949 4.81498E+01 7.62618E+00 6.36364E+00
 -1     14954 4.93844E+01 7.82172E+00 6.81818E+00
 -1     14955 4.96922E+01 3.91086E+00 7.27273E+00
 -1     14956 4.81498E+01 7.62618E+00 7.27273E+00
 -1     14961 4.93844E+01 7.82172E+00 7.72727E+00
 -1     14962 4.96922E+01 3.91086E+00 8.18182E+00
 -1     14963 4.81498E+01 7.62618E+00 8.18182E+00
 -1     14968 4.93844E+01 7.82172E+00 8.63636E+00
 -1     14969 4.96922E+01 3.91086E+00 9.09091E+00
 -1     14970 4.81498E+01 7.62618E+00 9.09091E+00
 -1     14975 4.93844E+01 7.82172E+00 9.54545E+00
 -1     14979 4.75528E+01 1.54508E+01 4.54545E-01
 -1     14980 4.84686E+01 1.16363E+01 9.09091E-01
 -1     14981 4.63640E+01 1.50646E+01 9.09091E-01
 -1     14986 4.75528E+01 1.54508E+01 1.36364E+00
 -1     14987 4.84686E+01 1.16363E+01 1.81818E+00
 -1     14988 4.63640E+01 1.50646E+01 1.81818E+00
 -1     14993 4.75528E+01 1.54508E+01 2.27273E+00
 -1     14994 4.84686E+01 1.16363E+01 2.72727E+00
 -1     14995 4.63640E+01 1.50646E+01 2.72727E+00
 -1     15000 4.75528E+01 1.54508E+01 3.18182E+00
 -1     15001 4.84686E+01 1.16363E+01 3.63636E+00
 -1     15002 4.63640E+01 1.50646E+01 3.63636E+00
 -1     15007 4.75528E+01 1.54508E+01 4.09091E+00
 -1     15008 4.84686E+01 1.16363E+01 4.54545E+00
 -1     15009 4.63640E+01 1.50646E+01 4.54545E+00
 -1     15014 4.75528E+01 1.54508E+01 5.00000E+00
 -1     15015 4.84686E+01 1.16363E+01 5.45455E+00
 -1     15016 4.63640E+01 1.50646E+01 5.45455E+00
 -1     15021 4.75528E+01 1.54508E+01 5.90909E+00
 -1     15022 4.84686E+01 1.16363E+01 6.36364E+00
 -1     15023 4.63640E+01 1.50646E+01 6.36364E+00
 -1     15028 4.75528E+01 1.54508E+01 6.81818E+00
 -1     15029 4.84686E+01 1.16363E+01 7.27273E+00
 -1     15030 4.63640E+01 1.50646E+01 7.27273E+00
 -1     15035 4.75528E+01 1.54508E+01 7.72727E+00
 -1     15036 4.84686E+01 1.16363E+01 8.18182E+00
 -1     15037 4.63640E+01 1.50646E+01 8.18182E+00
 -1     15042 4.75528E+01 1.54508E+01 8.63636E+00
 -1     15043 4.84686E+01 1.16363E+01 9.09091E+00
 -1     15044 4.63640E+01 1.50646E+01 9.09091E+00
 -1     15049 4.75528E+01 1.54508E+01 9.54545E+00
 -1     15053 4.45503E+01 2.26995E+01 4.54545E-01
 -1     15054 4.60516E+01 1.90752E+01 9.09091E-01
 -1     15055 4.34366E+01 2.21320E+01 9.09091E-01
 -1     15060 4.45503E+01 2.26995E+01 1.36364E+00
 -1     15061 4.60516E+01 1.90752E+01 1.81818E+00
 -1     15062 4.34366E+01 2.21320E+01 1.81818E+00
 -1     15067 4.45503E+01 2.26995E+01 2.27273E+00
 -1     15068 4.60516E+01 1.90752E+01 2.72727E+00
 -1     15069 4.34366E+01 2.21320E+01 2.72727E+00
 -1     15074 4.45503E+01 2.26995E+01 3.18182E+00
 -1     15075 4.60516E+01 1.90752E+01 3.63636E+00
 -1     15076 4.34366E+01 2.21320E+01 3.63636E+00
 -1     15081 4.45503E+01 2.26995E+01 4.09091E+00
 -1     15082 4.60516E+01 1.90752E+01 4.54545E+00
 -1     15083 4.34366E+01 2.21320E+01 4.54545E+00
 -1     15088 4.45503E+01 2.26995E+01 5.00000E+00
 -1     15089 4.60516E+01 1.90752E+01 5.45455E+00
 -1     15090 4.34366E+01 2.21320E+01 5.45455E+00
 -1     15095 4.45503E+01 2.26995E+01 5.90909E+00
 -1     15096 4.60516E+01 1.90752E+01 6.36364E+00
 -1     15097 4.34366E+01 2.21320E+01 6.36364E+00
 -1     15102 4.45503E+01 2.26995E+01 6.81818E+00
 -1     15103 4.60516E+01 1.90752E+01 7.27273E+00
 -1     15104 4.34366E+01 2.21320E+01 7.27273E+00
 -1     15109 4.45503E+01 2.26995E+01 7.72727E+00
 -1     15110 4.60516E+01 1.90752E+01 8.18182E+00
 -1     15111 4.34366E+01 2.21320E+01 8.18182E+00
 -1     15116 4.45503E+01 2.26995E+01 8.63636E+00
 -1     15117 4.60516E+01 1.90752E+01 9.09091E+00
 -1     15118 4.34366E+01 2.21320E+01 9.09091E+00
 -1     15123 4.45503E+01 2.26995E+01 9.54545E+00
 -1     15127 4.04509E+01 2.93893E+01 4.54545E-01
 -1     15128 4.25006E+01 2.60444E+01 9.09091E-01
 -1     15129 3.94396E+01 2.86545E+01 9.09091E-01
 -1     15134 4.04509E+01 2.93893E+01 1.36364E+00
 -1     15135 4.25006E+01 2.60444E+01 1.81818E+00
 -1     15136 3.94396E+01 2.86545E+01 1.81818E+00
 -1     15141 4.04509E+01 2.93893E+01 2.27273E+00
 -1     15142 4.25006E+01 2.60444E+01 2.72727E+00
 -1     15143 3.94396E+01 2.86545E+01 2.72727E+00
 -1     15148 4.04509E+01 2.93893E+01 3.18182E+00
 -1     15149 4.25006E+01 2.60444E+01 3.63636E+00
 -1     15150 3.94396E+01 2.86545E+01 3.63636E+00
 -1     15155 4.04509E+01 2.93893E+01 4.09091E+00
 -1     15156 4.25006E+01 2.60444E+01 4.54545E+00
 -1     15157 3.94396E+01 2.86545E+01 4.54545E+00
 -1     15162 4.04509E+01 2.93893E+01 5.00000E+00
 -1     15163 4.25006E+01 2.60444E+01 5.45455E+00
 -1     15164 3.94396E+01 2.86545E+01 5.45455E+00
 -1     15169 4.04509E+01 2.93893E+01 5.90909E+00
 -1     15170 4.25006E+01 2.60444E+01 6.36364E+00
 -1     15171 3.94396E+01 2.86545E+01 6.36364E+00
 -1     15176 4.04509E+01 2.93893E+01 6.81818E+00
 -1     15177 4.25006E+01 2.60444E+01 7.27273E+00
 -1     15178 3.94396E+01 2.86545E+01 7.27273E+00
 -1     15183 4.04509E+01 2.93893E+01 7.72727E+00
 -1     15184 4.25006E+01 2.60444E+01 8.18182E+00
 -1     15185 3.94396E+01 2.86545E+01 8.18182E+00
 -1     15190 4.04509E+01 2.93893E+01 8.63636E+00
 -1     15191 4.25006E+01 2.60444E+01 9.09091E+00
 -1     15192 3.94396E+01 2.86545E+01 9.09091E+00
 -1     15197 4.04509E+01 2.93893E+01 9.54545E+00
 -1     15201 3.53553E+01 3.53553E+01 4.54545E-01
 -1     15202 3.79031E+01 3.23723E+01 9.09091E-01
 -1     15203 3.44715E+01 3.44715E+01 9.09091E-01
 -1     15208 3.53553E+01 3.53553E+01 1.36364E+00
 -1     15209 3.79031E+01 3.23723E+01 1.81818E+00
 -1     15210 3.44715E+01 3.44715E+01 1.81818E+00
 -1     15215 3.53553E+01 3.53553E+01 2.27273E+00
 -1     15216 3.79031E+01 3.23723E+01 2.72727E+00
 -1     15217 3.44715E+01 3.44715E+01 2.72727E+00
 -1     15222 3.53553E+01 3.53553E+01 3.18182E+00
 -1     15223 3.79031E+01 3.23723E+01 3.63636E+00
 -1     15224 3.44715E+01 3.44715E+01 3.63636E+00
 -1     15229 3.53553E+01 3.53553E+01 4.09091E+00
 -1     15230 3.79031E+01 3.23723E+01 4.54545E+00
 -1     15231 3.44715E+01 3.44715E+01 4.54545E+00
 -1     15236 3.53553E+01 3.53553E+01 5.00000E+00
 -1     15237 3.79031E+01 3.23723E+01 5.45455E+00
 -1     15238 3.44715E+01 3.44715E+01 5.45455E+00
 -1     15243 3.53553E+01 3.53553E+01 5.90909E+00
 -1     15244 3.79031E+01 3.23723E+01 6.36364E+00
 -1     15245 3.44715E+01 3.44715E+01 6.36364E+00
 -1     15250 3.53553E+01 3.53553E+01 6.81818E+00
 -1     15251 3.79031E+01 3.23723E+01 7.27273E+00
 -1     15252 3.44715E+01 3.44715E+01 7.27273E+00
 -1     15257 3.53553E+01 3.53553E+01 7.72727E+00
 -1     15258 3.79031E+01 3.23723E+01 8.18182E+00
 -1     15259 3.44715E+01 3.44715E+01 8.18182E+00
 -1     15264 3.53553E+01 3.53553E+01 8.63636E+00
 -1     15265 3.79031E+01 3.23723E+01 9.09091E+00
 -1     15266 3.44715E+01 3.44715E+01 9.09091E+00
 -1     15271 3.53553E+01 3.53553E+01 9.54545E+00
 -1     15275 2.93893E+01 4.04509E+01 4.54545E-01
 -1     15276 3.23723E+01 3.79031E+01 9.09091E-01
 -1     15277 2.86545E+01 3.94396E+01 9.09091E-01
 -1     15282 2.93893E+01 4.04509E+01 1.36364E+00
 -1     15283 3.23723E+01 3.79031E+01 1.81818E+00
 -1     15284 2.86545E+01 3.94396E+01 1.81818E+00
 -1     15289 2.93893E+01 4.04509E+01 2.27273E+00
 -1     15290 3.23723E+01 3.79031E+01 2.72727E+00
 -1     15291 2.86545E+01 3.94396E+01 2.72727E+00
 -1     15296 2.93893E+01 4.04509E+01 3.18182E+00
 -1     15297 3.23723E+01 3.79031E+01 3.63636E+00
 -1     15298 2.86545E+01 3.94396E+01 3.63636E+00
 -1     15303 2.93893E+01 4.04509E+01 4.09091E+00
 -1     15304 3.23723E+01 3.79031E+01 4.54545E+00
 -1     15305 2.86545E+01 3.94396E+01 4.54545E+00
 -1     15310 2.93893E+01 4.04509E+01 5.00000E+00
 -1     15311 3.23723E+01 3.79031E+01 5.45455E+00
 -1     15312 2.86545E+01 3.94396E+01 5.45455E+00
 -1     15317 2.93893E+01 4.04509E+01 5.90909E+00
 -1     15318 3.23723E+01 3.79031E+01 6.36364E+00
 -1     15319 2.86545E+01 3.94396E+01 6.36364E+00
 -1     15324 2.93893E+01 4.04509E+01 6.81818E+00
 -1     15325 3.23723E+01 3.79031E+01 7.27273E+00
 -1     15326 2.86545E+01 3.94396E+01 7.27273E+00
 -1     15331 2.93893E+01 4.04509E+01 7.72727E+00
 -1     15332 3.23723E+01 3.79031E+01 8.18182E+00
 -1     15333 2.86545E+01 3.94396E+01 8.18182E+00
 -1     15338 2.93893E+01 4.04509E+01 8.63636E+00
 -1     15339 3.23723E+01 3.79031E+01 9.09091E+00
 -1     15340 2.86545E+01 3.94396E+01 9.09091E+00
 -1     15345 2.93893E+01 4.04509E+01 9.54545E+00
 -1     15349 2.26995E+01 4.45503E+01 4.54545E-01
 -1     15350 2.60444E+01 4.25006E+01 9.09091E-01
 -1     15351 2.21320E+01 4.34366E+01 9.09091E-01
 -1     15356 2.26995E+01 4.45503E+01 1.36364E+00
 -1     15357 2.60444E+01 4.25006E+01 1.81818E+00
 -1     15358 2.21320E+01 4.34366E+01 1.81818E+00
 -1     15363 2.26995E+01 4.45503E+01 2.27273E+00
 -1     15364 2.60444E+01 4.25006E+01 2.72727E+00
 -1     15365 2.21320E+01 4.34366E+01 2.72727E+00
 -1     15370 2.26995E+01 4.45503E+01 3.18182E+00
 -1     15371 2.60444E+01 4.25006E+01 3.63636E+00
 -1     15372 2.21320E+01 4.34366E+01 3.63636E+00
 -1     15377 2.26995E+01 4.45503E+01 4.09091E+00
 -1     15378 2.60444E+01 4.25006E+01 4.54545E+00
 -1     15379 2.21320E+01 4.34366E+01 4.54545E+00
 -1     15384 2.26995E+01 4.45503E+01 5.00000E+00
 -1     15385 2.60444E+01 4.25006E+01 5.45455E+00
 -1     15386 2.21320E+01 4.34366E+01 5.45455E+00
 -1     15391 2.26995E+01 4.45503E+01 5.90909E+00
 -1     15392 2.60444E+01 4.25006E+01 6.36364E+00
 -1     15393 2.21320E+01 4.34366E+01 6.36364E+00
 -1     15398 2.26995E+01 4.45503E+01 6.81818E+00
 -1     15399 2.60444E+01 4.25006E+01 7.27273E+00
 -1     15400 2.21320E+01 4.34366E+01 7.27273E+00
 -1     15405 2.26995E+01 4.45503E+01 7.72727E+00
 -1     15406 2.60444E+01 4.25006E+01 8.18182E+00
 -1     15407 2.21320E+01 4.34366E+01 8.18182E+00
 -1     15412 2.26995E+01 4.45503E+01 8.63636E+00
 -1     15413 2.60444E+01 4.25006E+01 9.09091E+00
 -1     15414 2.21320E+01 4.34366E+01 9.09091E+00
 -1     15419 2.26995E+01 4.45503E+01 9.54545E+00
 -1     15423 1.54508E+01 4.75528E+01 4.54545E-01
 -1     15424 1.90752E+01 4.60516E+01 9.09091E-01
 -1     15425 1.50646E+01 4.63640E+01 9.09091E-01
 -1     15430 1.54508E+01 4.75528E+01 1.36364E+00
 -1     15431 1.90752E+01 4.60516E+01 1.81818E+00
 -1     15432 1.50646E+01 4.63640E+01 1.81818E+00
 -1     15437 1.54508E+01 4.75528E+01 2.27273E+00
 -1     15438 1.90752E+01 4.60516E+01 2.72727E+00
 -1     15439 1.50646E+01 4.63640E+01 2.72727E+00
 -1     15444 1.54508E+01 4.75528E+01 3.18182E+00
 -1     15445 1.90752E+01 4.60516E+01 3.63636E+00
 -1     15446 1.50646E+01 4.63640E+01 3.63636E+00
 -1     15451 1.54508E+01 4.75528E+01 4.09091E+00
 -1     15452 1.90752E+01 4.60516E+01 4.54545E+00
 -1     15453 1.50646E+01 4.63640E+01 4.54545E+00
 -1     15458 1.54508E+01 4.75528E+01 5.00000E+00
 -1     15459 1.90752E+01 4.60516E+01 5.45455E+00
 -1     15460 1.50646E+01 4.63640E+01 5.45455E+00
 -1     15465 1.54508E+01 4.75528E+01 5.90909E+00
 -1     15466 1.90752E+01 4.60516E+01 6.36364E+00
 -1     15467 1.50646E+01 4.63640E+01 6.36364E+00
 -1     15472 1.54508E+01 4.75528E+01 6.81818E+00
 -1     15473 1.90752E+01 4.60516E+01 7.27273E+00
 -1     15474 1.50646E+01 4.63640E+01 7.27273E+00
 -1     15479 1.54508E+01 4.75528E+01 7.72727E+00
 -1     15480 1.90752E+01 4.60516E+01 8.18182E+00
 -1     15481 1.50646E+01 4.63640E+01 8.18182E+00
 -1     15486 1.54508E+01 4.75528E+01 8.63636E+00
 -1     15487 1.90752E+01 4.60516E+01 9.09091E+00
 -1     15488 1.50646E+01 4.63640E+01 9.09091E+00
 -1     15493 1.54508E+01 4.75528E+01 9.54545E+00
 -1     15497 7.82172E+00 4.93844E+01 4.54545E-01
 -1     15498 1.16363E+01 4.84686E+01 9.09091E-01
 -1     15499 7.62618E+00 4.81498E+01 9.09091E-01
 -1     15504 7.82172E+00 4.93844E+01 1.36364E+00
 -1     15505 1.16363E+01 4.84686E+01 1.81818E+00
 -1     15506 7.62618E+00 4.81498E+01 1.81818E+00
 -1     15511 7.82172E+00 4.93844E+01 2.27273E+00
 -1     15512 1.16363E+01 4.84686E+01 2.72727E+00
 -1     15513 7.62618E+00 4.81498E+01 2.72727E+00
 -1     15518 7.82172E+00 4.93844E+01 3.18182E+00
 -1     15519 1.16363E+01 4.84686E+01 3.63636E+00
 -1     15520 7.62618E+00 4.81498E+01 3.63636E+00
 -1     15525 7.82172E+00 4.93844E+01 4.09091E+00
 -1     15526 1.16363E+01 4.84686E+01 4.54545E+00
 -1     15527 7.62618E+00 4.81498E+01 4.54545E+00
 -1     15532 7.82172E+00 4.93844E+01 5.00000E+00
 -1     15533 1.16363E+01 4.84686E+01 5.45455E+00
 -1     15534 7.62618E+00 4.81498E+01 5.45455E+00
 -1     15539 7.82172E+00 4.93844E+01 5.90909E+00
 -1     15540 1.16363E+01 4.84686E+01 6.36364E+00
 -1     15541 7.62618E+00 4.81498E+01 6.36364E+00
 -1     15546 7.82172E+00 4.93844E+01 6.81818E+00
 -1     15547 1.16363E+01 4.84686E+01 7.27273E+00
 -1     15548 7.62618E+00 4.81498E+01 7.27273E+00
 -1     15553 7.82172E+00 4.93844E+01 7.72727E+00
 -1     15554 1.16363E+01 4.84686E+01 8.18182E+00
 -1     15555 7.62618E+00 4.81498E+01 8.18182E+00
 -1     15560 7.82172E+00 4.93844E+01 8.63636E+00
 -1     15561 1.16363E+01 4.84686E+01 9.09091E+00
 -1     15562 7.62618E+00 4.81498E+01 9.09091E+00
 -1     15567 7.82172E+00 4.93844E+01 9.54545E+00
 -1     15571 3.91086E+00 4.96922E+01 9.09091E-01
 -1     15575 3.91086E+00 4.96922E+01 1.81818E+00
 -1     15579 3.91086E+00 4.96922E+01 2.72727E+00
 -1     15583 3.91086E+00 4.96922E+01 3.63636E+00
 -1     15587 3.91086E+00 4.96922E+01 4.54545E+00
 -1     15591 3.91086E+00 4.96922E+01 5.45455E+00
 -1     15595 3.91086E+00 4.96922E+01 6.36364E+00
 -1     15599 3.91086E+00 4.96922E+01 7.27273E+00
 -1     15603 3.91086E+00 4.96922E+01 8.18182E+00
 -1     15607 3.91086E+00 4.96922E+01 9.09091E+00
 -1     15613 5.18536E+01 8.21281E+00 4.54545E-01
 -1     15614 5.21768E+01 4.10640E+00 9.09091E-01
 -1     15615 5.06190E+01 8.01727E+00 9.09091E-01
 -1     15620 5.18536E+01 8.21281E+00 1.36364E+00
 -1     15621 5.21768E+01 4.10640E+00 1.81818E+00
 -1     15622 5.06190E+01 8.01727E+00 1.81818E+00
 -1     15627 5.18536E+01 8.21281E+00 2.27273E+00
 -1     15628 5.21768E+01 4.10640E+00 2.72727E+00
 -1     15629 5.06190E+01 8.01727E+00 2.72727E+00
 -1     15634 5.18536E+01 8.21281E+00 3.18182E+00
 -1     15635 5.21768E+01 4.10640E+00 3.63636E+00
 -1     15636 5.06190E+01 8.01727E+00 3.63636E+00
 -1     15641 5.18536E+01 8.21281E+00 4.09091E+00
 -1     15642 5.21768E+01 4.10640E+00 4.54545E+00
 -1     15643 5.06190E+01 8.01727E+00 4.54545E+00
 -1     15648 5.18536E+01 8.21281E+00 5.00000E+00
 -1     15649 5.21768E+01 4.10640E+00 5.45455E+00
 -1     15650 5.06190E+01 8.01727E+00 5.45455E+00
 -1     15655 5.18536E+01 8.21281E+00 5.90909E+00
 -1     15656 5.21768E+01 4.10640E+00 6.36364E+00
 -1     15657 5.06190E+01 8.01727E+00 6.36364E+00
 -1     15662 5.18536E+01 8.21281E+00 6.81818E+00
 -1     15663 5.21768E+01 4.10640E+00 7.27273E+00
 -1     15664 5.06190E+01 8.01727E+00 7.27273E+00
 -1     15669 5.18536E+01 8.21281E+00 7.72727E+00
 -1     15670 5.21768E+01 4.10640E+00 8.18182E+00
 -1     15671 5.06190E+01 8.01727E+00 8.18182E+00
 -1     15676 5.18536E+01 8.21281E+00 8.63636E+00
 -1     15677 5.21768E+01 4.10640E+00 9.09091E+00
 -1     15678 5.06190E+01 8.01727E+00 9.09091E+00
 -1     15683 5.18536E+01 8.21281E+00 9.54545E+00
 -1     15687 4.99305E+01 1.62234E+01 4.54545E-01
 -1     15688 5.08921E+01 1.22181E+01 9.09091E-01
 -1     15689 4.87416E+01 1.58371E+01 9.09091E-01
 -1     15694 4.99305E+01 1.62234E+01 1.36364E+00
 -1     15695 5.08921E+01 1.22181E+01 1.81818E+00
 -1     15696 4.87416E+01 1.58371E+01 1.81818E+00
 -1     15701 4.99305E+01 1.62234E+01 2.27273E+00
 -1     15702 5.08921E+01 1.22181E+01 2.72727E+00
 -1     15703 4.87416E+01 1.58371E+01 2.72727E+00
 -1     15708 4.99305E+01 1.62234E+01 3.18182E+00
 -1     15709 5.08921E+01 1.22181E+01 3.63636E+00
 -1     15710 4.87416E+01 1.58371E+01 3.63636E+00
 -1     15715 4.99305E+01 1.62234E+01 4.09091E+00
 -1     15716 5.08921E+01 1.22181E+01 4.54545E+00
 -1     15717 4.87416E+01 1.58371E+01 4.54545E+00
 -1     15722 4.99305E+01 1.62234E+01 5.00000E+00
 -1     15723 5.08921E+01 1.22181E+01 5.45455E+00
 -1     15724 4.87416E+01 1.58371E+01 5.45455E+00
 -1     15729 4.99305E+01 1.62234E+01 5.90909E+00
 -1     15730 5.08921E+01 1.22181E+01 6.36364E+00
 -1     15731 4.87416E+01 1.58371E+01 6.36364E+00
 -1     15736 4.99305E+01 1.62234E+01 6.81818E+00
 -1     15737 5.08921E+01 1.22181E+01 7.27273E+00
 -1     15738 4.87416E+01 1.58371E+01 7.27273E+00
 -1     15743 4.99305E+01 1.62234E+01 7.72727E+00
 -1     15744 5.08921E+01 1.22181E+01 8.18182E+00
 -1     15745 4.87416E+01 1.58371E+01 8.18182E+00
 -1     15750 4.99305E+01 1.62234E+01 8.63636E+00
 -1     15751 5.08921E+01 1.22181E+01 9.09091E+00
 -1     15752 4.87416E+01 1.58371E+01 9.09091E+00
 -1     15757 4.99305E+01 1.62234E+01 9.54545E+00
 -1     15761 4.67778E+01 2.38345E+01 4.54545E-01
 -1     15762 4.83542E+01 2.00289E+01 9.09091E-01
 -1     15763 4.56641E+01 2.32670E+01 9.09091E-01
 -1     15768 4.67778E+01 2.38345E+01 1.36364E+00
 -1     15769 4.83542E+01 2.00289E+01 1.81818E+00
 -1     15770 4.56641E+01 2.32670E+01 1.81818E+00
 -1     15775 4.67778E+01 2.38345E+01 2.27273E+00
 -1     15776 4.83542E+01 2.00289E+01 2.72727E+00
 -1     15777 4.56641E+01 2.32670E+01 2.72727E+00
 -1     15782 4.67778E+01 2.38345E+01 3.18182E+00
 -1     15783 4.83542E+01 2.00289E+01 3.63636E+00
 -1     15784 4.56641E+01 2.32670E+01 3.63636E+00
 -1     15789 4.67778E+01 2.38345E+01 4.09091E+00
 -1     15790 4.83542E+01 2.00289E+01 4.54545E+00
 -1     15791 4.56641E+01 2.32670E+01 4.54545E+00
 -1     15796 4.67778E+01 2.38345E+01 5.00000E+00
 -1     15797 4.83542E+01 2.00289E+01 5.45455E+00
 -1     15798 4.56641E+01 2.32670E+01 5.45455E+00
 -1     15803 4.67778E+01 2.38345E+01 5.90909E+00
 -1     15804 4.83542E+01 2.00289E+01 6.36364E+00
 -1     15805 4.56641E+01 2.32670E+01 6.36364E+00
 -1     15810 4.67778E+01 2.38345E+01 6.81818E+00
 -1     15811 4.83542E+01 2.00289E+01 7.27273E+00
 -1     15812 4.56641E+01 2.32670E+01 7.27273E+00
 -1     15817 4.67778E+01 2.38345E+01 7.72727E+00
 -1     15818 4.83542E+01 2.00289E+01 8.18182E+00
 -1     15819 4.56641E+01 2.32670E+01 8.18182E+00
 -1     15824 4.67778E+01 2.38345E+01 8.63636E+00
 -1     15825 4.83542E+01 2.00289E+01 9.09091E+00
 -1     15826 4.56641E+01 2.32670E+01 9.09091E+00
 -1     15831 4.67778E+01 2.38345E+01 9.54545E+00
 -1     15835 4.24734E+01 3.08587E+01 4.54545E-01
 -1     15836 4.46256E+01 2.73466E+01 9.09091E-01
 -1     15837 4.14621E+01 3.01240E+01 9.09091E-01
 -1     15842 4.24734E+01 3.08587E+01 1.36364E+00
 -1     15843 4.46256E+01 2.73466E+01 1.81818E+00
 -1     15844 4.14621E+01 3.01240E+01 1.81818E+00
 -1     15849 4.24734E+01 3.08587E+01 2.27273E+00
 -1     15850 4.46256E+01 2.73466E+01 2.72727E+00
 -1     15851 4.14621E+01 3.01240E+01 2.72727E+00
 -1     15856 4.24734E+01 3.08587E+01 3.18182E+00
 -1     15857 4.46256E+01 2.73466E+01 3.63636E+00
 -1     15858 4.14621E+01 3.01240E+01 3.63636E+00
 -1     15863 4.24734E+01 3.08587E+01 4.09091E+00
 -1     15864 4.46256E+01 2.73466E+01 4.54545E+00
 -1     15865 4.14621E+01 3.01240E+01 4.54545E+00
 -1     15870 4.24734E+01 3.08587E+01 5.00000E+00
 -1     15871 4.46256E+01 2.73466E+01 5.45455E+00
 -1     15872 4.14621E+01 3.01240E+01 5.45455E+00
 -1     15877 4.24734E+01 3.08587E+01 5.90909E+00
 -1     15878 4.46256E+01 2.73466E+01 6.36364E+00
 -1     15879 4.14621E+01 3.01240E+01 6.36364E+00
 -1     15884 4.24734E+01 3.08587E+01 6.81818E+00
 -1     15885 4.46256E+01 2.73466E+01 7.27273E+00
 -1     15886 4.14621E+01 3.01240E+01 7.27273E+00
 -1     15891 4.24734E+01 3.08587E+01 7.72727E+00
 -1     15892 4.46256E+01 2.73466E+01 8.18182E+00
 -1     15893 4.14621E+01 3.01240E+01 8.18182E+00
 -1     15898 4.24734E+01 3.08587E+01 8.63636E+00
 -1     15899 4.46256E+01 2.73466E+01 9.09091E+00
 -1     15900 4.14621E+01 3.01240E+01 9.09091E+00
 -1     15905 4.24734E+01 3.08587E+01 9.54545E+00
 -1     15909 3.71231E+01 3.71231E+01 4.54545E-01
 -1     15910 3.97982E+01 3.39909E+01 9.09091E-01
 -1     15911 3.62392E+01 3.62392E+01 9.09091E-01
 -1     15916 3.71231E+01 3.71231E+01 1.36364E+00
 -1     15917 3.97982E+01 3.39909E+01 1.81818E+00
 -1     15918 3.62392E+01 3.62392E+01 1.81818E+00
 -1     15923 3.71231E+01 3.71231E+01 2.27273E+00
 -1     15924 3.97982E+01 3.39909E+01 2.72727E+00
 -1     15925 3.62392E+01 3.62392E+01 2.72727E+00
 -1     15930 3.71231E+01 3.71231E+01 3.18182E+00
 -1     15931 3.97982E+01 3.39909E+01 3.63636E+00
 -1     15932 3.62392E+01 3.62392E+01 3.63636E+00
 -1     15937 3.71231E+01 3.71231E+01 4.09091E+00
 -1     15938 3.97982E+01 3.39909E+01 4.54545E+00
 -1     15939 3.62392E+01 3.62392E+01 4.54545E+00
 -1     15944 3.71231E+01 3.71231E+01 5.00000E+00
 -1     15945 3.97982E+01 3.39909E+01 5.45455E+00
 -1     15946 3.62392E+01 3.62392E+01 5.45455E+00
 -1     15951 3.71231E+01 3.71231E+01 5.90909E+00
 -1     15952 3.97982E+01 3.39909E+01 6.36364E+00
 -1     15953 3.62392E+01 3.62392E+01 6.36364E+00
 -1     15958 3.71231E+01 3.71231E+01 6.81818E+00
 -1     15959 3.97982E+01 3.39909E+01 7.27273E+00
 -1     15960 3.62392E+01 3.62392E+01 7.27273E+00
 -1     15965 3.71231E+01 3.71231E+01 7.72727E+00
 -1     15966 3.97982E+01 3.39909E+01 8.18182E+00
 -1     15967 3.62392E+01 3.62392E+01 8.18182E+00
 -1     15972 3.71231E+01 3.71231E+01 8.63636E+00
 -1     15973 3.97982E+01 3.39909E+01 9.09091E+00
 -1     15974 3.62392E+01 3.62392E+01 9.09091E+00
 -1     15979 3.71231E+01 3.71231E+01 9.54545E+00
 -1     15983 3.08587E+01 4.24734E+01 4.54545E-01
 -1     15984 3.39909E+01 3.97982E+01 9.09091E-01
 -1     15985 3.01240E+01 4.14621E+01 9.09091E-01
 -1     15990 3.08587E+01 4.24734E+01 1.36364E+00
 -1     15991 3.39909E+01 3.97982E+01 1.81818E+00
 -1     15992 3.01240E+01 4.14621E+01 1.81818E+00
 -1     15997 3.08587E+01 4.24734E+01 2.27273E+00
 -1     15998 3.39909E+01 3.97982E+01 2.72727E+00
 -1     15999 3.01240E+01 4.14621E+01 2.72727E+00
 -1     16004 3.08587E+01 4.24734E+01 3.18182E+00
 -1     16005 3.39909E+01 3.97982E+01 3.63636E+00
 -1     16006 3.01240E+01 4.14621E+01 3.63636E+00
 -1     16011 3.08587E+01 4.24734E+01 4.09091E+00
 -1     16012 3.39909E+01 3.97982E+01 4.54545E+00
 -1     16013 3.01240E+01 4.14621E+01 4.54545E+00
 -1     16018 3.08587E+01 4.24734E+01 5.00000E+00
 -1     16019 3.39909E+01 3.97982E+01 5.45455E+00
 -1     16020 3.01240E+01 4.14621E+01 5.45455E+00
 -1     16025 3.08587E+01 4.24734E+01 5.90909E+00
 -1     16026 3.39909E+01 3.97982E+01 6.36364E+00
 -1     16027 3.01240E+01 4.14621E+01 6.36364E+00
 -1     16032 3.08587E+01 4.24734E+01 6.81818E+00
 -1     16033 3.39909E+01 3.97982E+01 7.27273E+00
 -1     16034 3.01240E+01 4.14621E+01 7.27273E+00
 -1     16039 3.08587E+01 4.24734E+01 7.72727E+00
 -1     16040 3.39909E+01 3.97982E+01 8.18182E+00
 -1     16041 3.01240E+01 4.14621E+01 8.18182E+00
 -1     16046 3.08587E+01 4.24734E+01 8.63636E+00
 -1     16047 3.39909E+01 3.97982E+01 9.09091E+00
 -1     16048 3.01240E+01 4.14621E+01 9.09091E+00
 -1     16053 3.08587E+01 4.24734E+01 9.54545E+00
 -1     16057 2.38345E+01 4.67778E+01 4.54545E-01
 -1     16058 2.73466E+01 4.46256E+01 9.09091E-01
 -1     16059 2.32670E+01 4.56641E+01 9.09091E-01
 -1     16064 2.38345E+01 4.67778E+01 1.36364E+00
 -1     16065 2.73466E+01 4.46256E+01 1.81818E+00
 -1     16066 2.32670E+01 4.56641E+01 1.81818E+00
 -1     16071 2.38345E+01 4.67778E+01 2.27273E+00
 -1     16072 2.73466E+01 4.46256E+01 2.72727E+00
 -1     16073 2.32670E+01 4.56641E+01 2.72727E+00
 -1     16078 2.38345E+01 4.67778E+01 3.18182E+00
 -1     16079 2.73466E+01 4.46256E+01 3.63636E+00
 -1     16080 2.32670E+01 4.56641E+01 3.63636E+00
 -1     16085 2.38345E+01 4.67778E+01 4.09091E+00
 -1     16086 2.73466E+01 4.46256E+01 4.54545E+00
 -1     16087 2.32670E+01 4.56641E+01 4.54545E+00
 -1     16092 2.38345E+01 4.67778E+01 5.00000E+00
 -1     16093 2.73466E+01 4.46256E+01 5.45455E+00
 -1     16094 2.32670E+01 4.56641E+01 5.45455E+00
 -1     16099 2.38345E+01 4.67778E+01 5.90909E+00
 -1     16100 2.73466E+01 4.46256E+01 6.36364E+00
 -1     16101 2.32670E+01 4.56641E+01 6.36364E+00
 -1     16106 2.38345E+01 4.67778E+01 6.81818E+00
 -1     16107 2.73466E+01 4.46256E+01 7.27273E+00
 -1     16108 2.32670E+01 4.56641E+01 7.27273E+00
 -1     16113 2.38345E+01 4.67778E+01 7.72727E+00
 -1     16114 2.73466E+01 4.46256E+01 8.18182E+00
 -1     16115 2.32670E+01 4.56641E+01 8.18182E+00
 -1     16120 2.38345E+01 4.67778E+01 8.63636E+00
 -1     16121 2.73466E+01 4.46256E+01 9.09091E+00
 -1     16122 2.32670E+01 4.56641E+01 9.09091E+00
 -1     16127 2.38345E+01 4.67778E+01 9.54545E+00
 -1     16131 1.62234E+01 4.99305E+01 4.54545E-01
 -1     16132 2.00289E+01 4.83542E+01 9.09091E-01
 -1     16133 1.58371E+01 4.87416E+01 9.09091E-01
 -1     16138 1.62234E+01 4.99305E+01 1.36364E+00
 -1     16139 2.00289E+01 4.83542E+01 1.81818E+00
 -1     16140 1.58371E+01 4.87416E+01 1.81818E+00
 -1     16145 1.62234E+01 4.99305E+01 2.27273E+00
 -1     16146 2.00289E+01 4.83542E+01 2.72727E+00
 -1     16147 1.58371E+01 4.87416E+01 2.72727E+00
 -1     16152 1.62234E+01 4.99305E+01 3.18182E+00
 -1     16153 2.00289E+01 4.83542E+01 3.63636E+00
 -1     16154 1.58371E+01 4.87416E+01 3.63636E+00
 -1     16159 1.62234E+01 4.99305E+01 4.09091E+00
 -1     16160 2.00289E+01 4.83542E+01 4.54545E+00
 -1     16161 1.58371E+01 4.87416E+01 4.54545E+00
 -1     16166 1.62234E+01 4.99305E+01 5.00000E+00
 -1     16167 2.00289E+01 4.83542E+01 5.45455E+00
 -1     16168 1.58371E+01 4.87416E+01 5.45455E+00
 -1     16173 1.62234E+01 4.99305E+01 5.90909E+00
 -1     16174 2.00289E+01 4.83542E+01 6.36364E+00
 -1     16175 1.58371E+01 4.87416E+01 6.36364E+00
 -1     16180 1.62234E+01 4.99305E+01 6.81818E+00
 -1     16181 2.00289E+01 4.83542E+01 7.27273E+00
 -1     16182 1.58371E+01 4.87416E+01 7.27273E+00
 -1     16187 1.62234E+01 4.99305E+01 7.72727E+00
 -1     16188 2.00289E+01 4.83542E+01 8.18182E+00
 -1     16189 1.58371E+01 4.87416E+01 8.18182E+00
 -1     16194 1.62234E+01 4.99305E+01 8.63636E+00
 -1     16195 2.00289E+01 4.83542E+01 9.09091E+00
 -1     16196 1.58371E+01 4.87416E+01 9.09091E+00
 -1     16201 1.62234E+01 4.99305E+01 9.54545E+00
 -1     16205 8.21281E+00 5.18536E+01 4.54545E-01
 -1     16206 1.22181E+01 5.08921E+01 9.09091E-01
 -1     16207 8.01727E+00 5.06190E+01 9.09091E-01
 -1     16212 8.21281E+00 5.18536E+01 1.36364E+00
 -1     16213 1.22181E+01 5.08921E+01 1.81818E+00
 -1     16214 8.01727E+00 5.06190E+01 1.81818E+00
 -1     16219 8.21281E+00 5.18536E+01 2.27273E+00
 -1     16220 1.22181E+01 5.08921E+01 2.72727E+00
 -1     16221 8.01727E+00 5.06190E+01 2.72727E+00
 -1     16226 8.21281E+00 5.18536E+01 3.18182E+00
 -1     16227 1.22181E+01 5.08921E+01 3.63636E+00
 -1     16228 8.01727E+00 5.06190E+01 3.63636E+00
 -1     16233 8.21281E+00 5.18536E+01 4.09091E+00
 -1     16234 1.22181E+01 5.08921E+01 4.54545E+00
 -1     16235 8.01727E+00 5.06190E+01 4.54545E+00
 -1     16240 8.21281E+00 5.18536E+01 5.00000E+00
 -1     16241 1.22181E+01 5.08921E+01 5.45455E+00
 -1     16242 8.01727E+00 5.06190E+01 5.45455E+00
 -1     16247 8.21281E+00 5.18536E+01 5.90909E+00
 -1     16248 1.22181E+01 5.08921E+01 6.36364E+00
 -1     16249 8.01727E+00 5.06190E+01 6.36364E+00
 -1     16254 8.21281E+00 5.18536E+01 6.81818E+00
 -1     16255 1.22181E+01 5.08921E+01 7.27273E+00
 -1     16256 8.01727E+00 5.06190E+01 7.27273E+00
 -1     16261 8.21281E+00 5.18536E+01 7.72727E+00
 -1     16262 1.22181E+01 5.08921E+01 8.18182E+00
 -1     16263 8.01727E+00 5.06190E+01 8.18182E+00
 -1     16268 8.21281E+00 5.18536E+01 8.63636E+00
 -1     16269 1.22181E+01 5.08921E+01 9.09091E+00
 -1     16270 8.01727E+00 5.06190E+01 9.09091E+00
 -1     16275 8.21281E+00 5.18536E+01 9.54545E+00
 -1     16279 4.10640E+00 5.21768E+01 9.09091E-01
 -1     16283 4.10640E+00 5.21768E+01 1.81818E+00
 -1     16287 4.10640E+00 5.21768E+01 2.72727E+00
 -1     16291 4.10640E+00 5.21768E+01 3.63636E+00
 -1     16295 4.10640E+00 5.21768E+01 4.54545E+00
 -1     16299 4.10640E+00 5.21768E+01 5.45455E+00
 -1     16303 4.10640E+00 5.21768E+01 6.36364E+00
 -1     16307 4.10640E+00 5.21768E+01 7.27273E+00
 -1     16311 4.10640E+00 5.21768E+01 8.18182E+00
 -1     16315 4.10640E+00 5.21768E+01 9.09091E+00
 -1     16321 5.43229E+01 8.60390E+00 4.54545E-01
 -1     16322 5.46614E+01 4.30195E+00 9.09091E-01
 -1     16323 5.30882E+01 8.40835E+00 9.09091E-01
 -1     16328 5.43229E+01 8.60390E+00 1.36364E+00
 -1     16329 5.46614E+01 4.30195E+00 1.81818E+00
 -1     16330 5.30882E+01 8.40835E+00 1.81818E+00
 -1     16335 5.43229E+01 8.60390E+00 2.27273E+00
 -1     16336 5.46614E+01 4.30195E+00 2.72727E+00
 -1     16337 5.30882E+01 8.40835E+00 2.72727E+00
 -1     16342 5.43229E+01 8.60390E+00 3.18182E+00
 -1     16343 5.46614E+01 4.30195E+00 3.63636E+00
 -1     16344 5.30882E+01 8.40835E+00 3.63636E+00
 -1     16349 5.43229E+01 8.60390E+00 4.09091E+00
 -1     16350 5.46614E+01 4.30195E+00 4.54545E+00
 -1     16351 5.30882E+01 8.40835E+00 4.54545E+00
 -1     16356 5.43229E+01 8.60390E+00 5.00000E+00
 -1     16357 5.46614E+01 4.30195E+00 5.45455E+00
 -1     16358 5.30882E+01 8.40835E+00 5.45455E+00
 -1     16363 5.43229E+01 8.60390E+00 5.90909E+00
 -1     16364 5.46614E+01 4.30195E+00 6.36364E+00
 -1     16365 5.30882E+01 8.40835E+00 6.36364E+00
 -1     16370 5.43229E+01 8.60390E+00 6.81818E+00
 -1     16371 5.46614E+01 4.30195E+00 7.27273E+00
 -1     16372 5.30882E+01 8.40835E+00 7.27273E+00
 -1     16377 5.43229E+01 8.60390E+00 7.72727E+00
 -1     16378 5.46614E+01 4.30195E+00 8.18182E+00
 -1     16379 5.30882E+01 8.40835E+00 8.18182E+00
 -1     16384 5.43229E+01 8.60390E+00 8.63636E+00
 -1     16385 5.46614E+01 4.30195E+00 9.09091E+00
 -1     16386 5.30882E+01 8.40835E+00 9.09091E+00
 -1     16391 5.43229E+01 8.60390E+00 9.54545E+00
 -1     16395 5.23081E+01 1.69959E+01 4.54545E-01
 -1     16396 5.33155E+01 1.27999E+01 9.09091E-01
 -1     16397 5.11193E+01 1.66097E+01 9.09091E-01
 -1     16402 5.23081E+01 1.69959E+01 1.36364E+00
 -1     16403 5.33155E+01 1.27999E+01 1.81818E+00
 -1     16404 5.11193E+01 1.66097E+01 1.81818E+00
 -1     16409 5.23081E+01 1.69959E+01 2.27273E+00
 -1     16410 5.33155E+01 1.27999E+01 2.72727E+00
 -1     16411 5.11193E+01 1.66097E+01 2.72727E+00
 -1     16416 5.23081E+01 1.69959E+01 3.18182E+00
 -1     16417 5.33155E+01 1.27999E+01 3.63636E+00
 -1     16418 5.11193E+01 1.66097E+01 3.63636E+00
 -1     16423 5.23081E+01 1.69959E+01 4.09091E+00
 -1     16424 5.33155E+01 1.27999E+01 4.54545E+00
 -1     16425 5.11193E+01 1.66097E+01 4.54545E+00
 -1     16430 5.23081E+01 1.69959E+01 5.00000E+00
 -1     16431 5.33155E+01 1.27999E+01 5.45455E+00
 -1     16432 5.11193E+01 1.66097E+01 5.45455E+00
 -1     16437 5.23081E+01 1.69959E+01 5.90909E+00
 -1     16438 5.33155E+01 1.27999E+01 6.36364E+00
 -1     16439 5.11193E+01 1.66097E+01 6.36364E+00
 -1     16444 5.23081E+01 1.69959E+01 6.81818E+00
 -1     16445 5.33155E+01 1.27999E+01 7.27273E+00
 -1     16446 5.11193E+01 1.66097E+01 7.27273E+00
 -1     16451 5.23081E+01 1.69959E+01 7.72727E+00
 -1     16452 5.33155E+01 1.27999E+01 8.18182E+00
 -1     16453 5.11193E+01 1.66097E+01 8.18182E+00
 -1     16458 5.23081E+01 1.69959E+01 8.63636E+00
 -1     16459 5.33155E+01 1.27999E+01 9.09091E+00
 -1     16460 5.11193E+01 1.66097E+01 9.09091E+00
 -1     16465 5.23081E+01 1.69959E+01 9.54545E+00
 -1     16469 4.90054E+01 2.49695E+01 4.54545E-01
 -1     16470 5.06567E+01 2.09827E+01 9.09091E-01
 -1     16471 4.78916E+01 2.44020E+01 9.09091E-01
 -1     16476 4.90054E+01 2.49695E+01 1.36364E+00
 -1     16477 5.06567E+01 2.09827E+01 1.81818E+00
 -1     16478 4.78916E+01 2.44020E+01 1.81818E+00
 -1     16483 4.90054E+01 2.49695E+01 2.27273E+00
 -1     16484 5.06567E+01 2.09827E+01 2.72727E+00
 -1     16485 4.78916E+01 2.44020E+01 2.72727E+00
 -1     16490 4.90054E+01 2.49695E+01 3.18182E+00
 -1     16491 5.06567E+01 2.09827E+01 3.63636E+00
 -1     16492 4.78916E+01 2.44020E+01 3.63636E+00
 -1     16497 4.90054E+01 2.49695E+01 4.09091E+00
 -1     16498 5.06567E+01 2.09827E+01 4.54545E+00
 -1     16499 4.78916E+01 2.44020E+01 4.54545E+00
 -1     16504 4.90054E+01 2.49695E+01 5.00000E+00
 -1     16505 5.06567E+01 2.09827E+01 5.45455E+00
 -1     16506 4.78916E+01 2.44020E+01 5.45455E+00
 -1     16511 4.90054E+01 2.49695E+01 5.90909E+00
 -1     16512 5.06567E+01 2.09827E+01 6.36364E+00
 -1     16513 4.78916E+01 2.44020E+01 6.36364E+00
 -1     16518 4.90054E+01 2.49695E+01 6.81818E+00
 -1     16519 5.06567E+01 2.09827E+01 7.27273E+00
 -1     16520 4.78916E+01 2.44020E+01 7.27273E+00
 -1     16525 4.90054E+01 2.49695E+01 7.72727E+00
 -1     16526 5.06567E+01 2.09827E+01 8.18182E+00
 -1     16527 4.78916E+01 2.44020E+01 8.18182E+00
 -1     16532 4.90054E+01 2.49695E+01 8.63636E+00
 -1     16533 5.06567E+01 2.09827E+01 9.09091E+00
 -1     16534 4.78916E+01 2.44020E+01 9.09091E+00
 -1     16539 4.90054E+01 2.49695E+01 9.54545E+00
 -1     16543 4.44959E+01 3.23282E+01 4.54545E-01
 -1     16544 4.67506E+01 2.86488E+01 9.09091E-01
 -1     16545 4.34847E+01 3.15935E+01 9.09091E-01
 -1     16550 4.44959E+01 3.23282E+01 1.36364E+00
 -1     16551 4.67506E+01 2.86488E+01 1.81818E+00
 -1     16552 4.34847E+01 3.15935E+01 1.81818E+00
 -1     16557 4.44959E+01 3.23282E+01 2.27273E+00
 -1     16558 4.67506E+01 2.86488E+01 2.72727E+00
 -1     16559 4.34847E+01 3.15935E+01 2.72727E+00
 -1     16564 4.44959E+01 3.23282E+01 3.18182E+00
 -1     16565 4.67506E+01 2.86488E+01 3.63636E+00
 -1     16566 4.34847E+01 3.15935E+01 3.63636E+00
 -1     16571 4.44959E+01 3.23282E+01 4.09091E+00
 -1     16572 4.67506E+01 2.86488E+01 4.54545E+00
 -1     16573 4.34847E+01 3.15935E+01 4.54545E+00
 -1     16578 4.44959E+01 3.23282E+01 5.00000E+00
 -1     16579 4.67506E+01 2.86488E+01 5.45455E+00
 -1     16580 4.34847E+01 3.15935E+01 5.45455E+00
 -1     16585 4.44959E+01 3.23282E+01 5.90909E+00
 -1     16586 4.67506E+01 2.86488E+01 6.36364E+00
 -1     16587 4.34847E+01 3.15935E+01 6.36364E+00
 -1     16592 4.44959E+01 3.23282E+01 6.81818E+00
 -1     16593 4.67506E+01 2.86488E+01 7.27273E+00
 -1     16594 4.34847E+01 3.15935E+01 7.27273E+00
 -1     16599 4.44959E+01 3.23282E+01 7.72727E+00
 -1     16600 4.67506E+01 2.86488E+01 8.18182E+00
 -1     16601 4.34847E+01 3.15935E+01 8.18182E+00
 -1     16606 4.44959E+01 3.23282E+01 8.63636E+00
 -1     16607 4.67506E+01 2.86488E+01 9.09091E+00
 -1     16608 4.34847E+01 3.15935E+01 9.09091E+00
 -1     16613 4.44959E+01 3.23282E+01 9.54545E+00
 -1     16617 3.88909E+01 3.88909E+01 4.54545E-01
 -1     16618 4.16934E+01 3.56095E+01 9.09091E-01
 -1     16619 3.80070E+01 3.80070E+01 9.09091E-01
 -1     16624 3.88909E+01 3.88909E+01 1.36364E+00
 -1     16625 4.16934E+01 3.56095E+01 1.81818E+00
 -1     16626 3.80070E+01 3.80070E+01 1.81818E+00
 -1     16631 3.88909E+01 3.88909E+01 2.27273E+00
 -1     16632 4.16934E+01 3.56095E+01 2.72727E+00
 -1     16633 3.80070E+01 3.80070E+01 2.72727E+00
 -1     16638 3.88909E+01 3.88909E+01 3.18182E+00
 -1     16639 4.16934E+01 3.56095E+01 3.63636E+00
 -1     16640 3.80070E+01 3.80070E+01 3.63636E+00
 -1     16645 3.88909E+01 3.88909E+01 4.09091E+00
 -1     16646 4.16934E+01 3.56095E+01 4.54545E+00
 -1     16647 3.80070E+01 3.80070E+01 4.54545E+00
 -1     16652 3.88909E+01 3.88909E+01 5.00000E+00
 -1     16653 4.16934E+01 3.56095E+01 5.45455E+00
 -1     16654 3.80070E+01 3.80070E+01 5.45455E+00
 -1     16659 3.88909E+01 3.88909E+01 5.90909E+00
 -1     16660 4.16934E+01 3.56095E+01 6.36364E+00
 -1     16661 3.80070E+01 3.80070E+01 6.36364E+00
 -1     16666 3.88909E+01 3.88909E+01 6.81818E+00
 -1     16667 4.16934E+01 3.56095E+01 7.27273E+00
 -1     16668 3.80070E+01 3.80070E+01 7.27273E+00
 -1     16673 3.88909E+01 3.88909E+01 7.72727E+00
 -1     16674 4.16934E+01 3.56095E+01 8.18182E+00
 -1     16675 3.80070E+01 3.80070E+01 8.18182E+00
 -1     16680 3.88909E+01 3.88909E+01 8.63636E+00
 -1     16681 4.16934E+01 3.56095E+01 9.09091E+00
 -1     16682 3.80070E+01 3.80070E+01 9.09091E+00
 -1     16687 3.88909E+01 3.88909E+01 9.54545E+00
 -1     16691 3.23282E+01 4.44959E+01 4.54545E-01
 -1     16692 3.56095E+01 4.16934E+01 9.09091E-01
 -1     16693 3.15935E+01 4.34847E+01 9.09091E-01
 -1     16698 3.23282E+01 4.44959E+01 1.36364E+00
 -1     16699 3.56095E+01 4.16934E+01 1.81818E+00
 -1     16700 3.15935E+01 4.34847E+01 1.81818E+00
 -1     16705 3.23282E+01 4.44959E+01 2.27273E+00
 -1     16706 3.56095E+01 4.16934E+01 2.72727E+00
 -1     16707 3.15935E+01 4.34847E+01 2.72727E+00
 -1     16712 3.23282E+01 4.44959E+01 3.18182E+00
 -1     16713 3.56095E+01 4.16934E+01 3.63636E+00
 -1     16714 3.15935E+01 4.34847E+01 3.63636E+00
 -1     16719 3.23282E+01 4.44959E+01 4.09091E+00
 -1     16720 3.56095E+01 4.16934E+01 4.54545E+00
 -1     16721 3.15935E+01 4.34847E+01 4.54545E+00
 -1     16726 3.23282E+01 4.44959E+01 5.00000E+00
 -1     16727 3.56095E+01 4.16934E+01 5.45455E+00
 -1     16728 3.15935E+01 4.34847E+01 5.45455E+00
 -1     16733 3.23282E+01 4.44959E+01 5.90909E+00
 -1     16734 3.56095E+01 4.16934E+01 6.36364E+00
 -1     16735 3.15935E+01 4.34847E+01 6.36364E+00
 -1     16740 3.23282E+01 4.44959E+01 6.81818E+00
 -1     16741 3.56095E+01 4.16934E+01 7.27273E+00
 -1     16742 3.15935E+01 4.34847E+01 7.27273E+00
 -1     16747 3.23282E+01 4.44959E+01 7.72727E+00
 -1     16748 3.56095E+01 4.16934E+01 8.18182E+00
 -1     16749 3.15935E+01 4.34847E+01 8.18182E+00
 -1     16754 3.23282E+01 4.44959E+01 8.63636E+00
 -1     16755 3.56095E+01 4.16934E+01 9.09091E+00
 -1     16756 3.15935E+01 4.34847E+01 9.09091E+00
 -1     16761 3.23282E+01 4.44959E+01 9.54545E+00
 -1     16765 2.49695E+01 4.90054E+01 4.54545E-01
 -1     16766 2.86488E+01 4.67506E+01 9.09091E-01
 -1     16767 2.44020E+01 4.78916E+01 9.09091E-01
 -1     16772 2.49695E+01 4.90054E+01 1.36364E+00
 -1     16773 2.86488E+01 4.67506E+01 1.81818E+00
 -1     16774 2.44020E+01 4.78916E+01 1.81818E+00
 -1     16779 2.49695E+01 4.90054E+01 2.27273E+00
 -1     16780 2.86488E+01 4.67506E+01 2.72727E+00
 -1     16781 2.44020E+01 4.78916E+01 2.72727E+00
 -1     16786 2.49695E+01 4.90054E+01 3.18182E+00
 -1     16787 2.86488E+01 4.67506E+01 3.63636E+00
 -1     16788 2.44020E+01 4.78916E+01 3.63636E+00
 -1     16793 2.49695E+01 4.90054E+01 4.09091E+00
 -1     16794 2.86488E+01 4.67506E+01 4.54545E+00
 -1     16795 2.44020E+01 4.78916E+01 4.54545E+00
 -1     16800 2.49695E+01 4.90054E+01 5.00000E+00
 -1     16801 2.86488E+01 4.67506E+01 5.45455E+00
 -1     16802 2.44020E+01 4.78916E+01 5.45455E+00
 -1     16807 2.49695E+01 4.90054E+01 5.90909E+00
 -1     16808 2.86488E+01 4.67506E+01 6.36364E+00
 -1     16809 2.44020E+01 4.78916E+01 6.36364E+00
 -1     16814 2.49695E+01 4.90054E+01 6.81818E+00
 -1     16815 2.86488E+01 4.67506E+01 7.27273E+00
 -1     16816 2.44020E+01 4.78916E+01 7.27273E+00
 -1     16821 2.49695E+01 4.90054E+01 7.72727E+00
 -1     16822 2.86488E+01 4.67506E+01 8.18182E+00
 -1     16823 2.44020E+01 4.78916E+01 8.18182E+00
 -1     16828 2.49695E+01 4.90054E+01 8.63636E+00
 -1     16829 2.86488E+01 4.67506E+01 9.09091E+00
 -1     16830 2.44020E+01 4.78916E+01 9.09091E+00
 -1     16835 2.49695E+01 4.90054E+01 9.54545E+00
 -1     16839 1.69959E+01 5.23081E+01 4.54545E-01
 -1     16840 2.09827E+01 5.06567E+01 9.09091E-01
 -1     16841 1.66097E+01 5.11193E+01 9.09091E-01
 -1     16846 1.69959E+01 5.23081E+01 1.36364E+00
 -1     16847 2.09827E+01 5.06567E+01 1.81818E+00
 -1     16848 1.66097E+01 5.11193E+01 1.81818E+00
 -1     16853 1.69959E+01 5.23081E+01 2.27273E+00
 -1     16854 2.09827E+01 5.06567E+01 2.72727E+00
 -1     16855 1.66097E+01 5.11193E+01 2.72727E+00
 -1     16860 1.69959E+01 5.23081E+01 3.18182E+00
 -1     16861 2.09827E+01 5.06567E+01 3.63636E+00
 -1     16862 1.66097E+01 5.11193E+01 3.63636E+00
 -1     16867 1.69959E+01 5.23081E+01 4.09091E+00
 -1     16868 2.09827E+01 5.06567E+01 4.54545E+00
 -1     16869 1.66097E+01 5.11193E+01 4.54545E+00
 -1     16874 1.69959E+01 5.23081E+01 5.00000E+00
 -1     16875 2.09827E+01 5.06567E+01 5.45455E+00
 -1     16876 1.66097E+01 5.11193E+01 5.45455E+00
 -1     16881 1.69959E+01 5.23081E+01 5.90909E+00
 -1     16882 2.09827E+01 5.06567E+01 6.36364E+00
 -1     16883 1.66097E+01 5.11193E+01 6.36364E+00
 -1     16888 1.69959E+01 5.23081E+01 6.81818E+00
 -1     16889 2.09827E+01 5.06567E+01 7.27273E+00
 -1     16890 1.66097E+01 5.11193E+01 7.27273E+00
 -1     16895 1.69959E+01 5.23081E+01 7.72727E+00
 -1     16896 2.09827E+01 5.06567E+01 8.18182E+00
 -1     16897 1.66097E+01 5.11193E+01 8.18182E+00
 -1     16902 1.69959E+01 5.23081E+01 8.63636E+00
 -1     16903 2.09827E+01 5.06567E+01 9.09091E+00
 -1     16904 1.66097E+01 5.11193E+01 9.09091E+00
 -1     16909 1.69959E+01 5.23081E+01 9.54545E+00
 -1     16913 8.60390E+00 5.43229E+01 4.54545E-01
 -1     16914 1.27999E+01 5.33155E+01 9.09091E-01
 -1     16915 8.40835E+00 5.30882E+01 9.09091E-01
 -1     16920 8.60390E+00 5.43229E+01 1.36364E+00
 -1     16921 1.27999E+01 5.33155E+01 1.81818E+00
 -1     16922 8.40835E+00 5.30882E+01 1.81818E+00
 -1     16927 8.60390E+00 5.43229E+01 2.27273E+00
 -1     16928 1.27999E+01 5.33155E+01 2.72727E+00
 -1     16929 8.40835E+00 5.30882E+01 2.72727E+00
 -1     16934 8.60390E+00 5.43229E+01 3.18182E+00
 -1     16935 1.27999E+01 5.33155E+01 3.63636E+00
 -1     16936 8.40835E+00 5.30882E+01 3.63636E+00
 -1     16941 8.60390E+00 5.43229E+01 4.09091E+00
 -1     16942 1.27999E+01 5.33155E+01 4.54545E+00
 -1     16943 8.40835E+00 5.30882E+01 4.54545E+00
 -1     16948 8.60390E+00 5.43229E+01 5.00000E+00
 -1     16949 1.27999E+01 5.33155E+01 5.45455E+00
 -1     16950 8.40835E+00 5.30882E+01 5.45455E+00
 -1     16955 8.60390E+00 5.43229E+01 5.90909E+00
 -1     16956 1.27999E+01 5.33155E+01 6.36364E+00
 -1     16957 8.40835E+00 5.30882E+01 6.36364E+00
 -1     16962 8.60390E+00 5.43229E+01 6.81818E+00
 -1     16963 1.27999E+01 5.33155E+01 7.27273E+00
 -1     16964 8.40835E+00 5.30882E+01 7.27273E+00
 -1     16969 8.60390E+00 5.43229E+01 7.72727E+00
 -1     16970 1.27999E+01 5.33155E+01 8.18182E+00
 -1     16971 8.40835E+00 5.30882E+01 8.18182E+00
 -1     16976 8.60390E+00 5.43229E+01 8.63636E+00
 -1     16977 1.27999E+01 5.33155E+01 9.09091E+00
 -1     16978 8.40835E+00 5.30882E+01 9.09091E+00
 -1     16983 8.60390E+00 5.43229E+01 9.54545E+00
 -1     16987 4.30195E+00 5.46614E+01 9.09091E-01
 -1     16991 4.30195E+00 5.46614E+01 1.81818E+00
 -1     16995 4.30195E+00 5.46614E+01 2.72727E+00
 -1     16999 4.30195E+00 5.46614E+01 3.63636E+00
 -1     17003 4.30195E+00 5.46614E+01 4.54545E+00
 -1     17007 4.30195E+00 5.46614E+01 5.45455E+00
 -1     17011 4.30195E+00 5.46614E+01 6.36364E+00
 -1     17015 4.30195E+00 5.46614E+01 7.27273E+00
 -1     17019 4.30195E+00 5.46614E+01 8.18182E+00
 -1     17023 4.30195E+00 5.46614E+01 9.09091E+00
 -1     17029 5.67921E+01 8.99498E+00 4.54545E-01
 -1     17030 5.71460E+01 4.49749E+00 9.09091E-01
 -1     17031 5.55575E+01 8.79944E+00 9.09091E-01
 -1     17036 5.67921E+01 8.99498E+00 1.36364E+00
 -1     17037 5.71460E+01 4.49749E+00 1.81818E+00
 -1     17038 5.55575E+01 8.79944E+00 1.81818E+00
 -1     17043 5.67921E+01 8.99498E+00 2.27273E+00
 -1     17044 5.71460E+01 4.49749E+00 2.72727E+00
 -1     17045 5.55575E+01 8.79944E+00 2.72727E+00
 -1     17050 5.67921E+01 8.99498E+00 3.18182E+00
 -1     17051 5.71460E+01 4.49749E+00 3.63636E+00
 -1     17052 5.55575E+01 8.79944E+00 3.63636E+00
 -1     17057 5.67921E+01 8.99498E+00 4.09091E+00
 -1     17058 5.71460E+01 4.49749E+00 4.54545E+00
 -1     17059 5.55575E+01 8.79944E+00 4.54545E+00
 -1     17064 5.67921E+01 8.99498E+00 5.00000E+00
 -1     17065 5.71460E+01 4.49749E+00 5.45455E+00
 -1     17066 5.55575E+01 8.79944E+00 5.45455E+00
 -1     17071 5.67921E+01 8.99498E+00 5.90909E+00
 -1     17072 5.71460E+01 4.49749E+00 6.36364E+00
 -1     17073 5.55575E+01 8.79944E+00 6.36364E+00
 -1     17078 5.67921E+01 8.99498E+00 6.81818E+00
 -1     17079 5.71460E+01 4.49749E+00 7.27273E+00
 -1     17080 5.55575E+01 8.79944E+00 7.27273E+00
 -1     17085 5.67921E+01 8.99498E+00 7.72727E+00
 -1     17086 5.71460E+01 4.49749E+00 8.18182E+00
 -1     17087 5.55575E+01 8.79944E+00 8.18182E+00
 -1     17092 5.67921E+01 8.99498E+00 8.63636E+00
 -1     17093 5.71460E+01 4.49749E+00 9.09091E+00
 -1     17094 5.55575E+01 8.79944E+00 9.09091E+00
 -1     17099 5.67921E+01 8.99498E+00 9.54545E+00
 -1     17103 5.46857E+01 1.77685E+01 4.54545E-01
 -1     17104 5.57389E+01 1.33817E+01 9.09091E-01
 -1     17105 5.34969E+01 1.73822E+01 9.09091E-01
 -1     17110 5.46857E+01 1.77685E+01 1.36364E+00
 -1     17111 5.57389E+01 1.33817E+01 1.81818E+00
 -1     17112 5.34969E+01 1.73822E+01 1.81818E+00
 -1     17117 5.46857E+01 1.77685E+01 2.27273E+00
 -1     17118 5.57389E+01 1.33817E+01 2.72727E+00
 -1     17119 5.34969E+01 1.73822E+01 2.72727E+00
 -1     17124 5.46857E+01 1.77685E+01 3.18182E+00
 -1     17125 5.57389E+01 1.33817E+01 3.63636E+00
 -1     17126 5.34969E+01 1.73822E+01 3.63636E+00
 -1     17131 5.46857E+01 1.77685E+01 4.09091E+00
 -1     17132 5.57389E+01 1.33817E+01 4.54545E+00
 -1     17133 5.34969E+01 1.73822E+01 4.54545E+00
 -1     17138 5.46857E+01 1.77685E+01 5.00000E+00
 -1     17139 5.57389E+01 1.33817E+01 5.45455E+00
 -1     17140 5.34969E+01 1.73822E+01 5.45455E+00
 -1     17145 5.46857E+01 1.77685E+01 5.90909E+00
 -1     17146 5.57389E+01 1.33817E+01 6.36364E+00
 -1     17147 5.34969E+01 1.73822E+01 6.36364E+00
 -1     17152 5.46857E+01 1.77685E+01 6.81818E+00
 -1     17153 5.57389E+01 1.33817E+01 7.27273E+00
 -1     17154 5.34969E+01 1.73822E+01 7.27273E+00
 -1     17159 5.46857E+01 1.77685E+01 7.72727E+00
 -1     17160 5.57389E+01 1.33817E+01 8.18182E+00
 -1     17161 5.34969E+01 1.73822E+01 8.18182E+00
 -1     17166 5.46857E+01 1.77685E+01 8.63636E+00
 -1     17167 5.57389E+01 1.33817E+01 9.09091E+00
 -1     17168 5.34969E+01 1.73822E+01 9.09091E+00
 -1     17173 5.46857E+01 1.77685E+01 9.54545E+00
 -1     17177 5.12329E+01 2.61045E+01 4.54545E-01
 -1     17178 5.29593E+01 2.19365E+01 9.09091E-01
 -1     17179 5.01191E+01 2.55370E+01 9.09091E-01
 -1     17184 5.12329E+01 2.61045E+01 1.36364E+00
 -1     17185 5.29593E+01 2.19365E+01 1.81818E+00
 -1     17186 5.01191E+01 2.55370E+01 1.81818E+00
 -1     17191 5.12329E+01 2.61045E+01 2.27273E+00
 -1     17192 5.29593E+01 2.19365E+01 2.72727E+00
 -1     17193 5.01191E+01 2.55370E+01 2.72727E+00
 -1     17198 5.12329E+01 2.61045E+01 3.18182E+00
 -1     17199 5.29593E+01 2.19365E+01 3.63636E+00
 -1     17200 5.01191E+01 2.55370E+01 3.63636E+00
 -1     17205 5.12329E+01 2.61045E+01 4.09091E+00
 -1     17206 5.29593E+01 2.19365E+01 4.54545E+00
 -1     17207 5.01191E+01 2.55370E+01 4.54545E+00
 -1     17212 5.12329E+01 2.61045E+01 5.00000E+00
 -1     17213 5.29593E+01 2.19365E+01 5.45455E+00
 -1     17214 5.01191E+01 2.55370E+01 5.45455E+00
 -1     17219 5.12329E+01 2.61045E+01 5.90909E+00
 -1     17220 5.29593E+01 2.19365E+01 6.36364E+00
 -1     17221 5.01191E+01 2.55370E+01 6.36364E+00
 -1     17226 5.12329E+01 2.61045E+01 6.81818E+00
 -1     17227 5.29593E+01 2.19365E+01 7.27273E+00
 -1     17228 5.01191E+01 2.55370E+01 7.27273E+00
 -1     17233 5.12329E+01 2.61045E+01 7.72727E+00
 -1     17234 5.29593E+01 2.19365E+01 8.18182E+00
 -1     17235 5.01191E+01 2.55370E+01 8.18182E+00
 -1     17240 5.12329E+01 2.61045E+01 8.63636E+00
 -1     17241 5.29593E+01 2.19365E+01 9.09091E+00
 -1     17242 5.01191E+01 2.55370E+01 9.09091E+00
 -1     17247 5.12329E+01 2.61045E+01 9.54545E+00
 -1     17251 4.65185E+01 3.37977E+01 4.54545E-01
 -1     17252 4.88757E+01 2.99511E+01 9.09091E-01
 -1     17253 4.55072E+01 3.30629E+01 9.09091E-01
 -1     17258 4.65185E+01 3.37977E+01 1.36364E+00
 -1     17259 4.88757E+01 2.99511E+01 1.81818E+00
 -1     17260 4.55072E+01 3.30629E+01 1.81818E+00
 -1     17265 4.65185E+01 3.37977E+01 2.27273E+00
 -1     17266 4.88757E+01 2.99511E+01 2.72727E+00
 -1     17267 4.55072E+01 3.30629E+01 2.72727E+00
 -1     17272 4.65185E+01 3.37977E+01 3.18182E+00
 -1     17273 4.88757E+01 2.99511E+01 3.63636E+00
 -1     17274 4.55072E+01 3.30629E+01 3.63636E+00
 -1     17279 4.65185E+01 3.37977E+01 4.09091E+00
 -1     17280 4.88757E+01 2.99511E+01 4.54545E+00
 -1     17281 4.55072E+01 3.30629E+01 4.54545E+00
 -1     17286 4.65185E+01 3.37977E+01 5.00000E+00
 -1     17287 4.88757E+01 2.99511E+01 5.45455E+00
 -1     17288 4.55072E+01 3.30629E+01 5.45455E+00
 -1     17293 4.65185E+01 3.37977E+01 5.90909E+00
 -1     17294 4.88757E+01 2.99511E+01 6.36364E+00
 -1     17295 4.55072E+01 3.30629E+01 6.36364E+00
 -1     17300 4.65185E+01 3.37977E+01 6.81818E+00
 -1     17301 4.88757E+01 2.99511E+01 7.27273E+00
 -1     17302 4.55072E+01 3.30629E+01 7.27273E+00
 -1     17307 4.65185E+01 3.37977E+01 7.72727E+00
 -1     17308 4.88757E+01 2.99511E+01 8.18182E+00
 -1     17309 4.55072E+01 3.30629E+01 8.18182E+00
 -1     17314 4.65185E+01 3.37977E+01 8.63636E+00
 -1     17315 4.88757E+01 2.99511E+01 9.09091E+00
 -1     17316 4.55072E+01 3.30629E+01 9.09091E+00
 -1     17321 4.65185E+01 3.37977E+01 9.54545E+00
 -1     17325 4.06586E+01 4.06586E+01 4.54545E-01
 -1     17326 4.35886E+01 3.72281E+01 9.09091E-01
 -1     17327 3.97748E+01 3.97748E+01 9.09091E-01
 -1     17332 4.06586E+01 4.06586E+01 1.36364E+00
 -1     17333 4.35886E+01 3.72281E+01 1.81818E+00
 -1     17334 3.97748E+01 3.97748E+01 1.81818E+00
 -1     17339 4.06586E+01 4.06586E+01 2.27273E+00
 -1     17340 4.35886E+01 3.72281E+01 2.72727E+00
 -1     17341 3.97748E+01 3.97748E+01 2.72727E+00
 -1     17346 4.06586E+01 4.06586E+01 3.18182E+00
 -1     17347 4.35886E+01 3.72281E+01 3.63636E+00
 -1     17348 3.97748E+01 3.97748E+01 3.63636E+00
 -1     17353 4.06586E+01 4.06586E+01 4.09091E+00
 -1     17354 4.35886E+01 3.72281E+01 4.54545E+00
 -1     17355 3.97748E+01 3.97748E+01 4.54545E+00
 -1     17360 4.06586E+01 4.06586E+01 5.00000E+00
 -1     17361 4.35886E+01 3.72281E+01 5.45455E+00
 -1     17362 3.97748E+01 3.97748E+01 5.45455E+00
 -1     17367 4.06586E+01 4.06586E+01 5.90909E+00
 -1     17368 4.35886E+01 3.72281E+01 6.36364E+00
 -1     17369 3.97748E+01 3.97748E+01 6.36364E+00
 -1     17374 4.06586E+01 4.06586E+01 6.81818E+00
 -1     17375 4.35886E+01 3.72281E+01 7.27273E+00
 -1     17376 3.97748E+01 3.97748E+01 7.27273E+00
 -1     17381 4.06586E+01 4.06586E+01 7.72727E+00
 -1     17382 4.35886E+01 3.72281E+01 8.18182E+00
 -1     17383 3.97748E+01 3.97748E+01 8.18182E+00
 -1     17388 4.06586E+01 4.06586E+01 8.63636E+00
 -1     17389 4.35886E+01 3.72281E+01 9.09091E+00
 -1     17390 3.97748E+01 3.97748E+01 9.09091E+00
 -1     17395 4.06586E+01 4.06586E+01 9.54545E+00
 -1     17399 3.37977E+01 4.65185E+01 4.54545E-01
 -1     17400 3.72281E+01 4.35886E+01 9.09091E-01
 -1     17401 3.30629E+01 4.55072E+01 9.09091E-01
 -1     17406 3.37977E+01 4.65185E+01 1.36364E+00
 -1     17407 3.72281E+01 4.35886E+01 1.81818E+00
 -1     17408 3.30629E+01 4.55072E+01 1.81818E+00
 -1     17413 3.37977E+01 4.65185E+01 2.27273E+00
 -1     17414 3.72281E+01 4.35886E+01 2.72727E+00
 -1     17415 3.30629E+01 4.55072E+01 2.72727E+00
 -1     17420 3.37977E+01 4.65185E+01 3.18182E+00
 -1     17421 3.72281E+01 4.35886E+01 3.63636E+00
 -1     17422 3.30629E+01 4.55072E+01 3.63636E+00
 -1     17427 3.37977E+01 4.65185E+01 4.09091E+00
 -1     17428 3.72281E+01 4.35886E+01 4.54545E+00
 -1     17429 3.30629E+01 4.55072E+01 4.54545E+00
 -1     17434 3.37977E+01 4.65185E+01 5.00000E+00
 -1     17435 3.72281E+01 4.35886E+01 5.45455E+00
 -1     17436 3.30629E+01 4.55072E+01 5.45455E+00
 -1     17441 3.37977E+01 4.65185E+01 5.90909E+00
 -1     17442 3.72281E+01 4.35886E+01 6.36364E+00
 -1     17443 3.30629E+01 4.55072E+01 6.36364E+00
 -1     17448 3.37977E+01 4.65185E+01 6.81818E+00
 -1     17449 3.72281E+01 4.35886E+01 7.27273E+00
 -1     17450 3.30629E+01 4.55072E+01 7.27273E+00
 -1     17455 3.37977E+01 4.65185E+01 7.72727E+00
 -1     17456 3.72281E+01 4.35886E+01 8.18182E+00
 -1     17457 3.30629E+01 4.55072E+01 8.18182E+00
 -1     17462 3.37977E+01 4.65185E+01 8.63636E+00
 -1     17463 3.72281E+01 4.35886E+01 9.09091E+00
 -1     17464 3.30629E+01 4.55072E+01 9.09091E+00
 -1     17469 3.37977E+01 4.65185E+01 9.54545E+00
 -1     17473 2.61045E+01 5.12329E+01 4.54545E-01
 -1     17474 2.99511E+01 4.88757E+01 9.09091E-01
 -1     17475 2.55370E+01 5.01191E+01 9.09091E-01
 -1     17480 2.61045E+01 5.12329E+01 1.36364E+00
 -1     17481 2.99511E+01 4.88757E+01 1.81818E+00
 -1     17482 2.55370E+01 5.01191E+01 1.81818E+00
 -1     17487 2.61045E+01 5.12329E+01 2.27273E+00
 -1     17488 2.99511E+01 4.88757E+01 2.72727E+00
 -1     17489 2.55370E+01 5.01191E+01 2.72727E+00
 -1     17494 2.61045E+01 5.12329E+01 3.18182E+00
 -1     17495 2.99511E+01 4.88757E+01 3.63636E+00
 -1     17496 2.55370E+01 5.01191E+01 3.63636E+00
 -1     17501 2.61045E+01 5.12329E+01 4.09091E+00
 -1     17502 2.99511E+01 4.88757E+01 4.54545E+00
 -1     17503 2.55370E+01 5.01191E+01 4.54545E+00
 -1     17508 2.61045E+01 5.12329E+01 5.00000E+00
 -1     17509 2.99511E+01 4.88757E+01 5.45455E+00
 -1     17510 2.55370E+01 5.01191E+01 5.45455E+00
 -1     17515 2.61045E+01 5.12329E+01 5.90909E+00
 -1     17516 2.99511E+01 4.88757E+01 6.36364E+00
 -1     17517 2.55370E+01 5.01191E+01 6.36364E+00
 -1     17522 2.61045E+01 5.12329E+01 6.81818E+00
 -1     17523 2.99511E+01 4.88757E+01 7.27273E+00
 -1     17524 2.55370E+01 5.01191E+01 7.27273E+00
 -1     17529 2.61045E+01 5.12329E+01 7.72727E+00
 -1     17530 2.99511E+01 4.88757E+01 8.18182E+00
 -1     17531 2.55370E+01 5.01191E+01 8.18182E+00
 -1     17536 2.61045E+01 5.12329E+01 8.63636E+00
 -1     17537 2.99511E+01 4.88757E+01 9.09091E+00
 -1     17538 2.55370E+01 5.01191E+01 9.09091E+00
 -1     17543 2.61045E+01 5.12329E+01 9.54545E+00
 -1     17547 1.77685E+01 5.46857E+01 4.54545E-01
 -1     17548 2.19365E+01 5.29593E+01 9.09091E-01
 -1     17549 1.73822E+01 5.34969E+01 9.09091E-01
 -1     17554 1.77685E+01 5.46857E+01 1.36364E+00
 -1     17555 2.19365E+01 5.29593E+01 1.81818E+00
 -1     17556 1.73822E+01 5.34969E+01 1.81818E+00
 -1     17561 1.77685E+01 5.46857E+01 2.27273E+00
 -1     17562 2.19365E+01 5.29593E+01 2.72727E+00
 -1     17563 1.73822E+01 5.34969E+01 2.72727E+00
 -1     17568 1.77685E+01 5.46857E+01 3.18182E+00
 -1     17569 2.19365E+01 5.29593E+01 3.63636E+00
 -1     17570 1.73822E+01 5.34969E+01 3.63636E+00
 -1     17575 1.77685E+01 5.46857E+01 4.09091E+00
 -1     17576 2.19365E+01 5.29593E+01 4.54545E+00
 -1     17577 1.73822E+01 5.34969E+01 4.54545E+00
 -1     17582 1.77685E+01 5.46857E+01 5.00000E+00
 -1     17583 2.19365E+01 5.29593E+01 5.45455E+00
 -1     17584 1.73822E+01 5.34969E+01 5.45455E+00
 -1     17589 1.77685E+01 5.46857E+01 5.90909E+00
 -1     17590 2.19365E+01 5.29593E+01 6.36364E+00
 -1     17591 1.73822E+01 5.34969E+01 6.36364E+00
 -1     17596 1.77685E+01 5.46857E+01 6.81818E+00
 -1     17597 2.19365E+01 5.29593E+01 7.27273E+00
 -1     17598 1.73822E+01 5.34969E+01 7.27273E+00
 -1     17603 1.77685E+01 5.46857E+01 7.72727E+00
 -1     17604 2.19365E+01 5.29593E+01 8.18182E+00
 -1     17605 1.73822E+01 5.34969E+01 8.18182E+00
 -1     17610 1.77685E+01 5.46857E+01 8.63636E+00
 -1     17611 2.19365E+01 5.29593E+01 9.09091E+00
 -1     17612 1.73822E+01 5.34969E+01 9.09091E+00
 -1     17617 1.77685E+01 5.46857E+01 9.54545E+00
 -1     17621 8.99498E+00 5.67921E+01 4.54545E-01
 -1     17622 1.33817E+01 5.57389E+01 9.09091E-01
 -1     17623 8.79944E+00 5.55575E+01 9.09091E-01
 -1     17628 8.99498E+00 5.67921E+01 1.36364E+00
 -1     17629 1.33817E+01 5.57389E+01 1.81818E+00
 -1     17630 8.79944E+00 5.55575E+01 1.81818E+00
 -1     17635 8.99498E+00 5.67921E+01 2.27273E+00
 -1     17636 1.33817E+01 5.57389E+01 2.72727E+00
 -1     17637 8.79944E+00 5.55575E+01 2.72727E+00
 -1     17642 8.99498E+00 5.67921E+01 3.18182E+00
 -1     17643 1.33817E+01 5.57389E+01 3.63636E+00
 -1     17644 8.79944E+00 5.55575E+01 3.63636E+00
 -1     17649 8.99498E+00 5.67921E+01 4.09091E+00
 -1     17650 1.33817E+01 5.57389E+01 4.54545E+00
 -1     17651 8.79944E+00 5.55575E+01 4.54545E+00
 -1     17656 8.99498E+00 5.67921E+01 5.00000E+00
 -1     17657 1.33817E+01 5.57389E+01 5.45455E+00
 -1     17658 8.79944E+00 5.55575E+01 5.45455E+00
 -1     17663 8.99498E+00 5.67921E+01 5.90909E+00
 -1     17664 1.33817E+01 5.57389E+01 6.36364E+00
 -1     17665 8.79944E+00 5.55575E+01 6.36364E+00
 -1     17670 8.99498E+00 5.67921E+01 6.81818E+00
 -1     17671 1.33817E+01 5.57389E+01 7.27273E+00
 -1     17672 8.79944E+00 5.55575E+01 7.27273E+00
 -1     17677 8.99498E+00 5.67921E+01 7.72727E+00
 -1     17678 1.33817E+01 5.57389E+01 8.18182E+00
 -1     17679 8.79944E+00 5.55575E+01 8.18182E+00
 -1     17684 8.99498E+00 5.67921E+01 8.63636E+00
 -1     17685 1.33817E+01 5.57389E+01 9.09091E+00
 -1     17686 8.79944E+00 5.55575E+01 9.09091E+00
 -1     17691 8.99498E+00 5.67921E+01 9.54545E+00
 -1     17695 4.49749E+00 5.71460E+01 9.09091E-01
 -1     17699 4.49749E+00 5.71460E+01 1.81818E+00
 -1     17703 4.49749E+00 5.71460E+01 2.72727E+00
 -1     17707 4.49749E+00 5.71460E+01 3.63636E+00
 -1     17711 4.49749E+00 5.71460E+01 4.54545E+00
 -1     17715 4.49749E+00 5.71460E+01 5.45455E+00
 -1     17719 4.49749E+00 5.71460E+01 6.36364E+00
 -1     17723 4.49749E+00 5.71460E+01 7.27273E+00
 -1     17727 4.49749E+00 5.71460E+01 8.18182E+00
 -1     17731 4.49749E+00 5.71460E+01 9.09091E+00
 -1     17737 5.92613E+01 9.38607E+00 4.54545E-01
 -1     17738 5.96306E+01 4.69303E+00 9.09091E-01
 -1     17739 5.80267E+01 9.19053E+00 9.09091E-01
 -1     17744 5.92613E+01 9.38607E+00 1.36364E+00
 -1     17745 5.96306E+01 4.69303E+00 1.81818E+00
 -1     17746 5.80267E+01 9.19053E+00 1.81818E+00
 -1     17751 5.92613E+01 9.38607E+00 2.27273E+00
 -1     17752 5.96306E+01 4.69303E+00 2.72727E+00
 -1     17753 5.80267E+01 9.19053E+00 2.72727E+00
 -1     17758 5.92613E+01 9.38607E+00 3.18182E+00
 -1     17759 5.96306E+01 4.69303E+00 3.63636E+00
 -1     17760 5.80267E+01 9.19053E+00 3.63636E+00
 -1     17765 5.92613E+01 9.38607E+00 4.09091E+00
 -1     17766 5.96306E+01 4.69303E+00 4.54545E+00
 -1     17767 5.80267E+01 9.19053E+00 4.54545E+00
 -1     17772 5.92613E+01 9.38607E+00 5.00000E+00
 -1     17773 5.96306E+01 4.69303E+00 5.45455E+00
 -1     17774 5.80267E+01 9.19053E+00 5.45455E+00
 -1     17779 5.92613E+01 9.38607E+00 5.90909E+00
 -1     17780 5.96306E+01 4.69303E+00 6.36364E+00
 -1     17781 5.80267E+01 9.19053E+00 6.36364E+00
 -1     17786 5.92613E+01 9.38607E+00 6.81818E+00
 -1     17787 5.96306E+01 4.69303E+00 7.27273E+00
 -1     17788 5.80267E+01 9.19053E+00 7.27273E+00
 -1     17793 5.92613E+01 9.38607E+00 7.72727E+00
 -1     17794 5.96306E+01 4.69303E+00 8.18182E+00
 -1     17795 5.80267E+01 9.19053E+00 8.18182E+00
 -1     17800 5.92613E+01 9.38607E+00 8.63636E+00
 -1     17801 5.96306E+01 4.69303E+00 9.09091E+00
 -1     17802 5.80267E+01 9.19053E+00 9.09091E+00
 -1     17807 5.92613E+01 9.38607E+00 9.54545E+00
 -1     17811 5.70634E+01 1.85410E+01 4.54545E-01
 -1     17812 5.81623E+01 1.39635E+01 9.09091E-01
 -1     17813 5.58746E+01 1.81547E+01 9.09091E-01
 -1     17818 5.70634E+01 1.85410E+01 1.36364E+00
 -1     17819 5.81623E+01 1.39635E+01 1.81818E+00
 -1     17820 5.58746E+01 1.81547E+01 1.81818E+00
 -1     17825 5.70634E+01 1.85410E+01 2.27273E+00
 -1     17826 5.81623E+01 1.39635E+01 2.72727E+00
 -1     17827 5.58746E+01 1.81547E+01 2.72727E+00
 -1     17832 5.70634E+01 1.85410E+01 3.18182E+00
 -1     17833 5.81623E+01 1.39635E+01 3.63636E+00
 -1     17834 5.58746E+01 1.81547E+01 3.63636E+00
 -1     17839 5.70634E+01 1.85410E+01 4.09091E+00
 -1     17840 5.81623E+01 1.39635E+01 4.54545E+00
 -1     17841 5.58746E+01 1.81547E+01 4.54545E+00
 -1     17846 5.70634E+01 1.85410E+01 5.00000E+00
 -1     17847 5.81623E+01 1.39635E+01 5.45455E+00
 -1     17848 5.58746E+01 1.81547E+01 5.45455E+00
 -1     17853 5.70634E+01 1.85410E+01 5.90909E+00
 -1     17854 5.81623E+01 1.39635E+01 6.36364E+00
 -1     17855 5.58746E+01 1.81547E+01 6.36364E+00
 -1     17860 5.70634E+01 1.85410E+01 6.81818E+00
 -1     17861 5.81623E+01 1.39635E+01 7.27273E+00
 -1     17862 5.58746E+01 1.81547E+01 7.27273E+00
 -1     17867 5.70634E+01 1.85410E+01 7.72727E+00
 -1     17868 5.81623E+01 1.39635E+01 8.18182E+00
 -1     17869 5.58746E+01 1.81547E+01 8.18182E+00
 -1     17874 5.70634E+01 1.85410E+01 8.63636E+00
 -1     17875 5.81623E+01 1.39635E+01 9.09091E+00
 -1     17876 5.58746E+01 1.81547E+01 9.09091E+00
 -1     17881 5.70634E+01 1.85410E+01 9.54545E+00
 -1     17885 5.34604E+01 2.72394E+01 4.54545E-01
 -1     17886 5.52619E+01 2.28902E+01 9.09091E-01
 -1     17887 5.23466E+01 2.66719E+01 9.09091E-01
 -1     17892 5.34604E+01 2.72394E+01 1.36364E+00
 -1     17893 5.52619E+01 2.28902E+01 1.81818E+00
 -1     17894 5.23466E+01 2.66719E+01 1.81818E+00
 -1     17899 5.34604E+01 2.72394E+01 2.27273E+00
 -1     17900 5.52619E+01 2.28902E+01 2.72727E+00
 -1     17901 5.23466E+01 2.66719E+01 2.72727E+00
 -1     17906 5.34604E+01 2.72394E+01 3.18182E+00
 -1     17907 5.52619E+01 2.28902E+01 3.63636E+00
 -1     17908 5.23466E+01 2.66719E+01 3.63636E+00
 -1     17913 5.34604E+01 2.72394E+01 4.09091E+00
 -1     17914 5.52619E+01 2.28902E+01 4.54545E+00
 -1     17915 5.23466E+01 2.66719E+01 4.54545E+00
 -1     17920 5.34604E+01 2.72394E+01 5.00000E+00
 -1     17921 5.52619E+01 2.28902E+01 5.45455E+00
 -1     17922 5.23466E+01 2.66719E+01 5.45455E+00
 -1     17927 5.34604E+01 2.72394E+01 5.90909E+00
 -1     17928 5.52619E+01 2.28902E+01 6.36364E+00
 -1     17929 5.23466E+01 2.66719E+01 6.36364E+00
 -1     17934 5.34604E+01 2.72394E+01 6.81818E+00
 -1     17935 5.52619E+01 2.28902E+01 7.27273E+00
 -1     17936 5.23466E+01 2.66719E+01 7.27273E+00
 -1     17941 5.34604E+01 2.72394E+01 7.72727E+00
 -1     17942 5.52619E+01 2.28902E+01 8.18182E+00
 -1     17943 5.23466E+01 2.66719E+01 8.18182E+00
 -1     17948 5.34604E+01 2.72394E+01 8.63636E+00
 -1     17949 5.52619E+01 2.28902E+01 9.09091E+00
 -1     17950 5.23466E+01 2.66719E+01 9.09091E+00
 -1     17955 5.34604E+01 2.72394E+01 9.54545E+00
 -1     17959 4.85410E+01 3.52671E+01 4.54545E-01
 -1     17960 5.10007E+01 3.12533E+01 9.09091E-01
 -1     17961 4.75297E+01 3.45324E+01 9.09091E-01
 -1     17966 4.85410E+01 3.52671E+01 1.36364E+00
 -1     17967 5.10007E+01 3.12533E+01 1.81818E+00
 -1     17968 4.75297E+01 3.45324E+01 1.81818E+00
 -1     17973 4.85410E+01 3.52671E+01 2.27273E+00
 -1     17974 5.10007E+01 3.12533E+01 2.72727E+00
 -1     17975 4.75297E+01 3.45324E+01 2.72727E+00
 -1     17980 4.85410E+01 3.52671E+01 3.18182E+00
 -1     17981 5.10007E+01 3.12533E+01 3.63636E+00
 -1     17982 4.75297E+01 3.45324E+01 3.63636E+00
 -1     17987 4.85410E+01 3.52671E+01 4.09091E+00
 -1     17988 5.10007E+01 3.12533E+01 4.54545E+00
 -1     17989 4.75297E+01 3.45324E+01 4.54545E+00
 -1     17994 4.85410E+01 3.52671E+01 5.00000E+00
 -1     17995 5.10007E+01 3.12533E+01 5.45455E+00
 -1     17996 4.75297E+01 3.45324E+01 5.45455E+00
 -1     18001 4.85410E+01 3.52671E+01 5.90909E+00
 -1     18002 5.10007E+01 3.12533E+01 6.36364E+00
 -1     18003 4.75297E+01 3.45324E+01 6.36364E+00
 -1     18008 4.85410E+01 3.52671E+01 6.81818E+00
 -1     18009 5.10007E+01 3.12533E+01 7.27273E+00
 -1     18010 4.75297E+01 3.45324E+01 7.27273E+00
 -1     18015 4.85410E+01 3.52671E+01 7.72727E+00
 -1     18016 5.10007E+01 3.12533E+01 8.18182E+00
 -1     18017 4.75297E+01 3.45324E+01 8.18182E+00
 -1     18022 4.85410E+01 3.52671E+01 8.63636E+00
 -1     18023 5.10007E+01 3.12533E+01 9.09091E+00
 -1     18024 4.75297E+01 3.45324E+01 9.09091E+00
 -1     18029 4.85410E+01 3.52671E+01 9.54545E+00
 -1     18033 4.24264E+01 4.24264E+01 4.54545E-01
 -1     18034 4.54837E+01 3.88468E+01 9.09091E-01
 -1     18035 4.15425E+01 4.15425E+01 9.09091E-01
 -1     18040 4.24264E+01 4.24264E+01 1.36364E+00
 -1     18041 4.54837E+01 3.88468E+01 1.81818E+00
 -1     18042 4.15425E+01 4.15425E+01 1.81818E+00
 -1     18047 4.24264E+01 4.24264E+01 2.27273E+00
 -1     18048 4.54837E+01 3.88468E+01 2.72727E+00
 -1     18049 4.15425E+01 4.15425E+01 2.72727E+00
 -1     18054 4.24264E+01 4.24264E+01 3.18182E+00
 -1     18055 4.54837E+01 3.88468E+01 3.63636E+00
 -1     18056 4.15425E+01 4.15425E+01 3.63636E+00
 -1     18061 4.24264E+01 4.24264E+01 4.09091E+00
 -1     18062 4.54837E+01 3.88468E+01 4.54545E+00
 -1     18063 4.15425E+01 4.15425E+01 4.54545E+00
 -1     18068 4.24264E+01 4.24264E+01 5.00000E+00
 -1     18069 4.54837E+01 3.88468E+01 5.45455E+00
 -1     18070 4.15425E+01 4.15425E+01 5.45455E+00
 -1     18075 4.24264E+01 4.24264E+01 5.90909E+00
 -1     18076 4.54837E+01 3.88468E+01 6.36364E+00
 -1     18077 4.15425E+01 4.15425E+01 6.36364E+00
 -1     18082 4.24264E+01 4.24264E+01 6.81818E+00
 -1     18083 4.54837E+01 3.88468E+01 7.27273E+00
 -1     18084 4.15425E+01 4.15425E+01 7.27273E+00
 -1     18089 4.24264E+01 4.24264E+01 7.72727E+00
 -1     18090 4.54837E+01 3.88468E+01 8.18182E+00
 -1     18091 4.15425E+01 4.15425E+01 8.18182E+00
 -1     18096 4.24264E+01 4.24264E+01 8.63636E+00
 -1     18097 4.54837E+01 3.88468E+01 9.09091E+00
 -1     18098 4.15425E+01 4.15425E+01 9.09091E+00
 -1     18103 4.24264E+01 4.24264E+01 9.54545E+00
 -1     18107 3.52671E+01 4.85410E+01 4.54545E-01
 -1     18108 3.88468E+01 4.54837E+01 9.09091E-01
 -1     18109 3.45324E+01 4.75297E+01 9.09091E-01
 -1     18114 3.52671E+01 4.85410E+01 1.36364E+00
 -1     18115 3.88468E+01 4.54837E+01 1.81818E+00
 -1     18116 3.45324E+01 4.75297E+01 1.81818E+00
 -1     18121 3.52671E+01 4.85410E+01 2.27273E+00
 -1     18122 3.88468E+01 4.54837E+01 2.72727E+00
 -1     18123 3.45324E+01 4.75297E+01 2.72727E+00
 -1     18128 3.52671E+01 4.85410E+01 3.18182E+00
 -1     18129 3.88468E+01 4.54837E+01 3.63636E+00
 -1     18130 3.45324E+01 4.75297E+01 3.63636E+00
 -1     18135 3.52671E+01 4.85410E+01 4.09091E+00
 -1     18136 3.88468E+01 4.54837E+01 4.54545E+00
 -1     18137 3.45324E+01 4.75297E+01 4.54545E+00
 -1     18142 3.52671E+01 4.85410E+01 5.00000E+00
 -1     18143 3.88468E+01 4.54837E+01 5.45455E+00
 -1     18144 3.45324E+01 4.75297E+01 5.45455E+00
 -1     18149 3.52671E+01 4.85410E+01 5.90909E+00
 -1     18150 3.88468E+01 4.54837E+01 6.36364E+00
 -1     18151 3.45324E+01 4.75297E+01 6.36364E+00
 -1     18156 3.52671E+01 4.85410E+01 6.81818E+00
 -1     18157 3.88468E+01 4.54837E+01 7.27273E+00
 -1     18158 3.45324E+01 4.75297E+01 7.27273E+00
 -1     18163 3.52671E+01 4.85410E+01 7.72727E+00
 -1     18164 3.88468E+01 4.54837E+01 8.18182E+00
 -1     18165 3.45324E+01 4.75297E+01 8.18182E+00
 -1     18170 3.52671E+01 4.85410E+01 8.63636E+00
 -1     18171 3.88468E+01 4.54837E+01 9.09091E+00
 -1     18172 3.45324E+01 4.75297E+01 9.09091E+00
 -1     18177 3.52671E+01 4.85410E+01 9.54545E+00
 -1     18181 2.72394E+01 5.34604E+01 4.54545E-01
 -1     18182 3.12533E+01 5.10007E+01 9.09091E-01
 -1     18183 2.66719E+01 5.23466E+01 9.09091E-01
 -1     18188 2.72394E+01 5.34604E+01 1.36364E+00
 -1     18189 3.12533E+01 5.10007E+01 1.81818E+00
 -1     18190 2.66719E+01 5.23466E+01 1.81818E+00
 -1     18195 2.72394E+01 5.34604E+01 2.27273E+00
 -1     18196 3.12533E+01 5.10007E+01 2.72727E+00
 -1     18197 2.66719E+01 5.23466E+01 2.72727E+00
 -1     18202 2.72394E+01 5.34604E+01 3.18182E+00
 -1     18203 3.12533E+01 5.10007E+01 3.63636E+00
 -1     18204 2.66719E+01 5.23466E+01 3.63636E+00
 -1     18209 2.72394E+01 5.34604E+01 4.09091E+00
 -1     18210 3.12533E+01 5.10007E+01 4.54545E+00
 -1     18211 2.66719E+01 5.23466E+01 4.54545E+00
 -1     18216 2.72394E+01 5.34604E+01 5.00000E+00
 -1     18217 3.12533E+01 5.10007E+01 5.45455E+00
 -1     18218 2.66719E+01 5.23466E+01 5.45455E+00
 -1     18223 2.72394E+01 5.34604E+01 5.90909E+00
 -1     18224 3.12533E+01 5.10007E+01 6.36364E+00
 -1     18225 2.66719E+01 5.23466E+01 6.36364E+00
 -1     18230 2.72394E+01 5.34604E+01 6.81818E+00
 -1     18231 3.12533E+01 5.10007E+01 7.27273E+00
 -1     18232 2.66719E+01 5.23466E+01 7.27273E+00
 -1     18237 2.72394E+01 5.34604E+01 7.72727E+00
 -1     18238 3.12533E+01 5.10007E+01 8.18182E+00
 -1     18239 2.66719E+01 5.23466E+01 8.18182E+00
 -1     18244 2.72394E+01 5.34604E+01 8.63636E+00
 -1     18245 3.12533E+01 5.10007E+01 9.09091E+00
 -1     18246 2.66719E+01 5.23466E+01 9.09091E+00
 -1     18251 2.72394E+01 5.34604E+01 9.54545E+00
 -1     18255 1.85410E+01 5.70634E+01 4.54545E-01
 -1     18256 2.28902E+01 5.52619E+01 9.09091E-01
 -1     18257 1.81547E+01 5.58746E+01 9.09091E-01
 -1     18262 1.85410E+01 5.70634E+01 1.36364E+00
 -1     18263 2.28902E+01 5.52619E+01 1.81818E+00
 -1     18264 1.81547E+01 5.58746E+01 1.81818E+00
 -1     18269 1.85410E+01 5.70634E+01 2.27273E+00
 -1     18270 2.28902E+01 5.52619E+01 2.72727E+00
 -1     18271 1.81547E+01 5.58746E+01 2.72727E+00
 -1     18276 1.85410E+01 5.70634E+01 3.18182E+00
 -1     18277 2.28902E+01 5.52619E+01 3.63636E+00
 -1     18278 1.81547E+01 5.58746E+01 3.63636E+00
 -1     18283 1.85410E+01 5.70634E+01 4.09091E+00
 -1     18284 2.28902E+01 5.52619E+01 4.54545E+00
 -1     18285 1.81547E+01 5.58746E+01 4.54545E+00
 -1     18290 1.85410E+01 5.70634E+01 5.00000E+00
 -1     18291 2.28902E+01 5.52619E+01 5.45455E+00
 -1     18292 1.81547E+01 5.58746E+01 5.45455E+00
 -1     18297 1.85410E+01 5.70634E+01 5.90909E+00
 -1     18298 2.28902E+01 5.52619E+01 6.36364E+00
 -1     18299 1.81547E+01 5.58746E+01 6.36364E+00
 -1     18304 1.85410E+01 5.70634E+01 6.81818E+00
 -1     18305 2.28902E+01 5.52619E+01 7.27273E+00
 -1     18306 1.81547E+01 5.58746E+01 7.27273E+00
 -1     18311 1.85410E+01 5.70634E+01 7.72727E+00
 -1     18312 2.28902E+01 5.52619E+01 8.18182E+00
 -1     18313 1.81547E+01 5.58746E+01 8.18182E+00
 -1     18318 1.85410E+01 5.70634E+01 8.63636E+00
 -1     18319 2.28902E+01 5.52619E+01 9.09091E+00
 -1     18320 1.81547E+01 5.58746E+01 9.09091E+00
 -1     18325 1.85410E+01 5.70634E+01 9.54545E+00
 -1     18329 9.38607E+00 5.92613E+01 4.54545E-01
 -1     18330 1.39635E+01 5.81623E+01 9.09091E-01
 -1     18331 9.19053E+00 5.80267E+01 9.09091E-01
 -1     18336 9.38607E+00 5.92613E+01 1.36364E+00
 -1     18337 1.39635E+01 5.81623E+01 1.81818E+00
 -1     18338 9.19053E+00 5.80267E+01 1.81818E+00
 -1     18343 9.38607E+00 5.92613E+01 2.27273E+00
 -1     18344 1.39635E+01 5.81623E+01 2.72727E+00
 -1     18345 9.19053E+00 5.80267E+01 2.72727E+00
 -1     18350 9.38607E+00 5.92613E+01 3.18182E+00
 -1     18351 1.39635E+01 5.81623E+01 3.63636E+00
 -1     18352 9.19053E+00 5.80267E+01 3.63636E+00
 -1     18357 9.38607E+00 5.92613E+01 4.09091E+00
 -1     18358 1.39635E+01 5.81623E+01 4.54545E+00
 -1     18359 9.19053E+00 5.80267E+01 4.54545E+00
 -1     18364 9.38607E+00 5.92613E+01 5.00000E+00
 -1     18365 1.39635E+01 5.81623E+01 5.45455E+00
 -1     18366 9.19053E+00 5.80267E+01 5.45455E+00
 -1     18371 9.38607E+00 5.92613E+01 5.90909E+00
 -1     18372 1.39635E+01 5.81623E+01 6.36364E+00
 -1     18373 9.19053E+00 5.80267E+01 6.36364E+00
 -1     18378 9.38607E+00 5.92613E+01 6.81818E+00
 -1     18379 1.39635E+01 5.81623E+01 7.27273E+00
 -1     18380 9.19053E+00 5.80267E+01 7.27273E+00
 -1     18385 9.38607E+00 5.92613E+01 7.72727E+00
 -1     18386 1.39635E+01 5.81623E+01 8.18182E+00
 -1     18387 9.19053E+00 5.80267E+01 8.18182E+00
 -1     18392 9.38607E+00 5.92613E+01 8.63636E+00
 -1     18393 1.39635E+01 5.81623E+01 9.09091E+00
 -1     18394 9.19053E+00 5.80267E+01 9.09091E+00
 -1     18399 9.38607E+00 5.92613E+01 9.54545E+00
 -1     18403 4.69303E+00 5.96306E+01 9.09091E-01
 -1     18407 4.69303E+00 5.96306E+01 1.81818E+00
 -1     18411 4.69303E+00 5.96306E+01 2.72727E+00
 -1     18415 4.69303E+00 5.96306E+01 3.63636E+00
 -1     18419 4.69303E+00 5.96306E+01 4.54545E+00
 -1     18423 4.69303E+00 5.96306E+01 5.45455E+00
 -1     18427 4.69303E+00 5.96306E+01 6.36364E+00
 -1     18431 4.69303E+00 5.96306E+01 7.27273E+00
 -1     18435 4.69303E+00 5.96306E+01 8.18182E+00
 -1     18439 4.69303E+00 5.96306E+01 9.09091E+00
 -1     18445 6.17305E+01 9.77715E+00 4.54545E-01
 -1     18446 6.21153E+01 4.88858E+00 9.09091E-01
 -1     18447 6.04959E+01 9.58161E+00 9.09091E-01
 -1     18452 6.17305E+01 9.77715E+00 1.36364E+00
 -1     18453 6.21153E+01 4.88858E+00 1.81818E+00
 -1     18454 6.04959E+01 9.58161E+00 1.81818E+00
 -1     18459 6.17305E+01 9.77715E+00 2.27273E+00
 -1     18460 6.21153E+01 4.88858E+00 2.72727E+00
 -1     18461 6.04959E+01 9.58161E+00 2.72727E+00
 -1     18466 6.17305E+01 9.77715E+00 3.18182E+00
 -1     18467 6.21153E+01 4.88858E+00 3.63636E+00
 -1     18468 6.04959E+01 9.58161E+00 3.63636E+00
 -1     18473 6.17305E+01 9.77715E+00 4.09091E+00
 -1     18474 6.21153E+01 4.88858E+00 4.54545E+00
 -1     18475 6.04959E+01 9.58161E+00 4.54545E+00
 -1     18480 6.17305E+01 9.77715E+00 5.00000E+00
 -1     18481 6.21153E+01 4.88858E+00 5.45455E+00
 -1     18482 6.04959E+01 9.58161E+00 5.45455E+00
 -1     18487 6.17305E+01 9.77715E+00 5.90909E+00
 -1     18488 6.21153E+01 4.88858E+00 6.36364E+00
 -1     18489 6.04959E+01 9.58161E+00 6.36364E+00
 -1     18494 6.17305E+01 9.77715E+00 6.81818E+00
 -1     18495 6.21153E+01 4.88858E+00 7.27273E+00
 -1     18496 6.04959E+01 9.58161E+00 7.27273E+00
 -1     18501 6.17305E+01 9.77715E+00 7.72727E+00
 -1     18502 6.21153E+01 4.88858E+00 8.18182E+00
 -1     18503 6.04959E+01 9.58161E+00 8.18182E+00
 -1     18508 6.17305E+01 9.77715E+00 8.63636E+00
 -1     18509 6.21153E+01 4.88858E+00 9.09091E+00
 -1     18510 6.04959E+01 9.58161E+00 9.09091E+00
 -1     18515 6.17305E+01 9.77715E+00 9.54545E+00
 -1     18519 5.94410E+01 1.93136E+01 4.54545E-01
 -1     18520 6.05858E+01 1.45454E+01 9.09091E-01
 -1     18521 5.82522E+01 1.89273E+01 9.09091E-01
 -1     18526 5.94410E+01 1.93136E+01 1.36364E+00
 -1     18527 6.05858E+01 1.45454E+01 1.81818E+00
 -1     18528 5.82522E+01 1.89273E+01 1.81818E+00
 -1     18533 5.94410E+01 1.93136E+01 2.27273E+00
 -1     18534 6.05858E+01 1.45454E+01 2.72727E+00
 -1     18535 5.82522E+01 1.89273E+01 2.72727E+00
 -1     18540 5.94410E+01 1.93136E+01 3.18182E+00
 -1     18541 6.05858E+01 1.45454E+01 3.63636E+00
 -1     18542 5.82522E+01 1.89273E+01 3.63636E+00
 -1     18547 5.94410E+01 1.93136E+01 4.09091E+00
 -1     18548 6.05858E+01 1.45454E+01 4.54545E+00
 -1     18549 5.82522E+01 1.89273E+01 4.54545E+00
 -1     18554 5.94410E+01 1.93136E+01 5.00000E+00
 -1     18555 6.05858E+01 1.45454E+01 5.45455E+00
 -1     18556 5.82522E+01 1.89273E+01 5.45455E+00
 -1     18561 5.94410E+01 1.93136E+01 5.90909E+00
 -1     18562 6.05858E+01 1.45454E+01 6.36364E+00
 -1     18563 5.82522E+01 1.89273E+01 6.36364E+00
 -1     18568 5.94410E+01 1.93136E+01 6.81818E+00
 -1     18569 6.05858E+01 1.45454E+01 7.27273E+00
 -1     18570 5.82522E+01 1.89273E+01 7.27273E+00
 -1     18575 5.94410E+01 1.93136E+01 7.72727E+00
 -1     18576 6.05858E+01 1.45454E+01 8.18182E+00
 -1     18577 5.82522E+01 1.89273E+01 8.18182E+00
 -1     18582 5.94410E+01 1.93136E+01 8.63636E+00
 -1     18583 6.05858E+01 1.45454E+01 9.09091E+00
 -1     18584 5.82522E+01 1.89273E+01 9.09091E+00
 -1     18589 5.94410E+01 1.93136E+01 9.54545E+00
 -1     18593 5.56879E+01 2.83744E+01 4.54545E-01
 -1     18594 5.75645E+01 2.38440E+01 9.09091E-01
 -1     18595 5.45742E+01 2.78069E+01 9.09091E-01
 -1     18600 5.56879E+01 2.83744E+01 1.36364E+00
 -1     18601 5.75645E+01 2.38440E+01 1.81818E+00
 -1     18602 5.45742E+01 2.78069E+01 1.81818E+00
 -1     18607 5.56879E+01 2.83744E+01 2.27273E+00
 -1     18608 5.75645E+01 2.38440E+01 2.72727E+00
 -1     18609 5.45742E+01 2.78069E+01 2.72727E+00
 -1     18614 5.56879E+01 2.83744E+01 3.18182E+00
 -1     18615 5.75645E+01 2.38440E+01 3.63636E+00
 -1     18616 5.45742E+01 2.78069E+01 3.63636E+00
 -1     18621 5.56879E+01 2.83744E+01 4.09091E+00
 -1     18622 5.75645E+01 2.38440E+01 4.54545E+00
 -1     18623 5.45742E+01 2.78069E+01 4.54545E+00
 -1     18628 5.56879E+01 2.83744E+01 5.00000E+00
 -1     18629 5.75645E+01 2.38440E+01 5.45455E+00
 -1     18630 5.45742E+01 2.78069E+01 5.45455E+00
 -1     18635 5.56879E+01 2.83744E+01 5.90909E+00
 -1     18636 5.75645E+01 2.38440E+01 6.36364E+00
 -1     18637 5.45742E+01 2.78069E+01 6.36364E+00
 -1     18642 5.56879E+01 2.83744E+01 6.81818E+00
 -1     18643 5.75645E+01 2.38440E+01 7.27273E+00
 -1     18644 5.45742E+01 2.78069E+01 7.27273E+00
 -1     18649 5.56879E+01 2.83744E+01 7.72727E+00
 -1     18650 5.75645E+01 2.38440E+01 8.18182E+00
 -1     18651 5.45742E+01 2.78069E+01 8.18182E+00
 -1     18656 5.56879E+01 2.83744E+01 8.63636E+00
 -1     18657 5.75645E+01 2.38440E+01 9.09091E+00
 -1     18658 5.45742E+01 2.78069E+01 9.09091E+00
 -1     18663 5.56879E+01 2.83744E+01 9.54545E+00
 -1     18667 5.05636E+01 3.67366E+01 4.54545E-01
 -1     18668 5.31257E+01 3.25555E+01 9.09091E-01
 -1     18669 4.95523E+01 3.60018E+01 9.09091E-01
 -1     18674 5.05636E+01 3.67366E+01 1.36364E+00
 -1     18675 5.31257E+01 3.25555E+01 1.81818E+00
 -1     18676 4.95523E+01 3.60018E+01 1.81818E+00
 -1     18681 5.05636E+01 3.67366E+01 2.27273E+00
 -1     18682 5.31257E+01 3.25555E+01 2.72727E+00
 -1     18683 4.95523E+01 3.60018E+01 2.72727E+00
 -1     18688 5.05636E+01 3.67366E+01 3.18182E+00
 -1     18689 5.31257E+01 3.25555E+01 3.63636E+00
 -1     18690 4.95523E+01 3.60018E+01 3.63636E+00
 -1     18695 5.05636E+01 3.67366E+01 4.09091E+00
 -1     18696 5.31257E+01 3.25555E+01 4.54545E+00
 -1     18697 4.95523E+01 3.60018E+01 4.54545E+00
 -1     18702 5.05636E+01 3.67366E+01 5.00000E+00
 -1     18703 5.31257E+01 3.25555E+01 5.45455E+00
 -1     18704 4.95523E+01 3.60018E+01 5.45455E+00
 -1     18709 5.05636E+01 3.67366E+01 5.90909E+00
 -1     18710 5.31257E+01 3.25555E+01 6.36364E+00
 -1     18711 4.95523E+01 3.60018E+01 6.36364E+00
 -1     18716 5.05636E+01 3.67366E+01 6.81818E+00
 -1     18717 5.31257E+01 3.25555E+01 7.27273E+00
 -1     18718 4.95523E+01 3.60018E+01 7.27273E+00
 -1     18723 5.05636E+01 3.67366E+01 7.72727E+00
 -1     18724 5.31257E+01 3.25555E+01 8.18182E+00
 -1     18725 4.95523E+01 3.60018E+01 8.18182E+00
 -1     18730 5.05636E+01 3.67366E+01 8.63636E+00
 -1     18731 5.31257E+01 3.25555E+01 9.09091E+00
 -1     18732 4.95523E+01 3.60018E+01 9.09091E+00
 -1     18737 5.05636E+01 3.67366E+01 9.54545E+00
 -1     18741 4.41942E+01 4.41942E+01 4.54545E-01
 -1     18742 4.73789E+01 4.04654E+01 9.09091E-01
 -1     18743 4.33103E+01 4.33103E+01 9.09091E-01
 -1     18748 4.41942E+01 4.41942E+01 1.36364E+00
 -1     18749 4.73789E+01 4.04654E+01 1.81818E+00
 -1     18750 4.33103E+01 4.33103E+01 1.81818E+00
 -1     18755 4.41942E+01 4.41942E+01 2.27273E+00
 -1     18756 4.73789E+01 4.04654E+01 2.72727E+00
 -1     18757 4.33103E+01 4.33103E+01 2.72727E+00
 -1     18762 4.41942E+01 4.41942E+01 3.18182E+00
 -1     18763 4.73789E+01 4.04654E+01 3.63636E+00
 -1     18764 4.33103E+01 4.33103E+01 3.63636E+00
 -1     18769 4.41942E+01 4.41942E+01 4.09091E+00
 -1     18770 4.73789E+01 4.04654E+01 4.54545E+00
 -1     18771 4.33103E+01 4.33103E+01 4.54545E+00
 -1     18776 4.41942E+01 4.41942E+01 5.00000E+00
 -1     18777 4.73789E+01 4.04654E+01 5.45455E+00
 -1     18778 4.33103E+01 4.33103E+01 5.45455E+00
 -1     18783 4.41942E+01 4.41942E+01 5.90909E+00
 -1     18784 4.73789E+01 4.04654E+01 6.36364E+00
 -1     18785 4.33103E+01 4.33103E+01 6.36364E+00
 -1     18790 4.41942E+01 4.41942E+01 6.81818E+00
 -1     18791 4.73789E+01 4.04654E+01 7.27273E+00
 -1     18792 4.33103E+01 4.33103E+01 7.27273E+00
 -1     18797 4.41942E+01 4.41942E+01 7.72727E+00
 -1     18798 4.73789E+01 4.04654E+01 8.18182E+00
 -1     18799 4.33103E+01 4.33103E+01 8.18182E+00
 -1     18804 4.41942E+01 4.41942E+01 8.63636E+00
 -1     18805 4.73789E+01 4.04654E+01 9.09091E+00
 -1     18806 4.33103E+01 4.33103E+01 9.09091E+00
 -1     18811 4.41942E+01 4.41942E+01 9.54545E+00
 -1     18815 3.67366E+01 5.05636E+01 4.54545E-01
 -1     18816 4.04654E+01 4.73789E+01 9.09091E-01
 -1     18817 3.60018E+01 4.95523E+01 9.09091E-01
 -1     18822 3.67366E+01 5.05636E+01 1.36364E+00
 -1     18823 4.04654E+01 4.73789E+01 1.81818E+00
 -1     18824 3.60018E+01 4.95523E+01 1.81818E+00
 -1     18829 3.67366E+01 5.05636E+01 2.27273E+00
 -1     18830 4.04654E+01 4.73789E+01 2.72727E+00
 -1     18831 3.60018E+01 4.95523E+01 2.72727E+00
 -1     18836 3.67366E+01 5.05636E+01 3.18182E+00
 -1     18837 4.04654E+01 4.73789E+01 3.63636E+00
 -1     18838 3.60018E+01 4.95523E+01 3.63636E+00
 -1     18843 3.67366E+01 5.05636E+01 4.09091E+00
 -1     18844 4.04654E+01 4.73789E+01 4.54545E+00
 -1     18845 3.60018E+01 4.95523E+01 4.54545E+00
 -1     18850 3.67366E+01 5.05636E+01 5.00000E+00
 -1     18851 4.04654E+01 4.73789E+01 5.45455E+00
 -1     18852 3.60018E+01 4.95523E+01 5.45455E+00
 -1     18857 3.67366E+01 5.05636E+01 5.90909E+00
 -1     18858 4.04654E+01 4.73789E+01 6.36364E+00
 -1     18859 3.60018E+01 4.95523E+01 6.36364E+00
 -1     18864 3.67366E+01 5.05636E+01 6.81818E+00
 -1     18865 4.04654E+01 4.73789E+01 7.27273E+00
 -1     18866 3.60018E+01 4.95523E+01 7.27273E+00
 -1     18871 3.67366E+01 5.05636E+01 7.72727E+00
 -1     18872 4.04654E+01 4.73789E+01 8.18182E+00
 -1     18873 3.60018E+01 4.95523E+01 8.18182E+00
 -1     18878 3.67366E+01 5.05636E+01 8.63636E+00
 -1     18879 4.04654E+01 4.73789E+01 9.09091E+00
 -1     18880 3.60018E+01 4.95523E+01 9.09091E+00
 -1     18885 3.67366E+01 5.05636E+01 9.54545E+00
 -1     18889 2.83744E+01 5.56879E+01 4.54545E-01
 -1     18890 3.25555E+01 5.31257E+01 9.09091E-01
 -1     18891 2.78069E+01 5.45742E+01 9.09091E-01
 -1     18896 2.83744E+01 5.56879E+01 1.36364E+00
 -1     18897 3.25555E+01 5.31257E+01 1.81818E+00
 -1     18898 2.78069E+01 5.45742E+01 1.81818E+00
 -1     18903 2.83744E+01 5.56879E+01 2.27273E+00
 -1     18904 3.25555E+01 5.31257E+01 2.72727E+00
 -1     18905 2.78069E+01 5.45742E+01 2.72727E+00
 -1     18910 2.83744E+01 5.56879E+01 3.18182E+00
 -1     18911 3.25555E+01 5.31257E+01 3.63636E+00
 -1     18912 2.78069E+01 5.45742E+01 3.63636E+00
 -1     18917 2.83744E+01 5.56879E+01 4.09091E+00
 -1     18918 3.25555E+01 5.31257E+01 4.54545E+00
 -1     18919 2.78069E+01 5.45742E+01 4.54545E+00
 -1     18924 2.83744E+01 5.56879E+01 5.00000E+00
 -1     18925 3.25555E+01 5.31257E+01 5.45455E+00
 -1     18926 2.78069E+01 5.45742E+01 5.45455E+00
 -1     18931 2.83744E+01 5.56879E+01 5.90909E+00
 -1     18932 3.25555E+01 5.31257E+01 6.36364E+00
 -1     18933 2.78069E+01 5.45742E+01 6.36364E+00
 -1     18938 2.83744E+01 5.56879E+01 6.81818E+00
 -1     18939 3.25555E+01 5.31257E+01 7.27273E+00
 -1     18940 2.78069E+01 5.45742E+01 7.27273E+00
 -1     18945 2.83744E+01 5.56879E+01 7.72727E+00
 -1     18946 3.25555E+01 5.31257E+01 8.18182E+00
 -1     18947 2.78069E+01 5.45742E+01 8.18182E+00
 -1     18952 2.83744E+01 5.56879E+01 8.63636E+00
 -1     18953 3.25555E+01 5.31257E+01 9.09091E+00
 -1     18954 2.78069E+01 5.45742E+01 9.09091E+00
 -1     18959 2.83744E+01 5.56879E+01 9.54545E+00
 -1     18963 1.93136E+01 5.94410E+01 4.54545E-01
 -1     18964 2.38440E+01 5.75645E+01 9.09091E-01
 -1     18965 1.89273E+01 5.82522E+01 9.09091E-01
 -1     18970 1.93136E+01 5.94410E+01 1.36364E+00
 -1     18971 2.38440E+01 5.75645E+01 1.81818E+00
 -1     18972 1.89273E+01 5.82522E+01 1.81818E+00
 -1     18977 1.93136E+01 5.94410E+01 2.27273E+00
 -1     18978 2.38440E+01 5.75645E+01 2.72727E+00
 -1     18979 1.89273E+01 5.82522E+01 2.72727E+00
 -1     18984 1.93136E+01 5.94410E+01 3.18182E+00
 -1     18985 2.38440E+01 5.75645E+01 3.63636E+00
 -1     18986 1.89273E+01 5.82522E+01 3.63636E+00
 -1     18991 1.93136E+01 5.94410E+01 4.09091E+00
 -1     18992 2.38440E+01 5.75645E+01 4.54545E+00
 -1     18993 1.89273E+01 5.82522E+01 4.54545E+00
 -1     18998 1.93136E+01 5.94410E+01 5.00000E+00
 -1     18999 2.38440E+01 5.75645E+01 5.45455E+00
 -1     19000 1.89273E+01 5.82522E+01 5.45455E+00
 -1     19005 1.93136E+01 5.94410E+01 5.90909E+00
 -1     19006 2.38440E+01 5.75645E+01 6.36364E+00
 -1     19007 1.89273E+01 5.82522E+01 6.36364E+00
 -1     19012 1.93136E+01 5.94410E+01 6.81818E+00
 -1     19013 2.38440E+01 5.75645E+01 7.27273E+00
 -1     19014 1.89273E+01 5.82522E+01 7.27273E+00
 -1     19019 1.93136E+01 5.94410E+01 7.72727E+00
 -1     19020 2.38440E+01 5.75645E+01 8.18182E+00
 -1     19021 1.89273E+01 5.82522E+01 8.18182E+00
 -1     19026 1.93136E+01 5.94410E+01 8.63636E+00
 -1     19027 2.38440E+01 5.75645E+01 9.09091E+00
 -1     19028 1.89273E+01 5.82522E+01 9.09091E+00
 -1     19033 1.93136E+01 5.94410E+01 9.54545E+00
 -1     19037 9.77715E+00 6.17305E+01 4.54545E-01
 -1     19038 1.45454E+01 6.05858E+01 9.09091E-01
 -1     19039 9.58161E+00 6.04959E+01 9.09091E-01
 -1     19044 9.77715E+00 6.17305E+01 1.36364E+00
 -1     19045 1.45454E+01 6.05858E+01 1.81818E+00
 -1     19046 9.58161E+00 6.04959E+01 1.81818E+00
 -1     19051 9.77715E+00 6.17305E+01 2.27273E+00
 -1     19052 1.45454E+01 6.05858E+01 2.72727E+00
 -1     19053 9.58161E+00 6.04959E+01 2.72727E+00
 -1     19058 9.77715E+00 6.17305E+01 3.18182E+00
 -1     19059 1.45454E+01 6.05858E+01 3.63636E+00
 -1     19060 9.58161E+00 6.04959E+01 3.63636E+00
 -1     19065 9.77715E+00 6.17305E+01 4.09091E+00
 -1     19066 1.45454E+01 6.05858E+01 4.54545E+00
 -1     19067 9.58161E+00 6.04959E+01 4.54545E+00
 -1     19072 9.77715E+00 6.17305E+01 5.00000E+00
 -1     19073 1.45454E+01 6.05858E+01 5.45455E+00
 -1     19074 9.58161E+00 6.04959E+01 5.45455E+00
 -1     19079 9.77715E+00 6.17305E+01 5.90909E+00
 -1     19080 1.45454E+01 6.05858E+01 6.36364E+00
 -1     19081 9.58161E+00 6.04959E+01 6.36364E+00
 -1     19086 9.77715E+00 6.17305E+01 6.81818E+00
 -1     19087 1.45454E+01 6.05858E+01 7.27273E+00
 -1     19088 9.58161E+00 6.04959E+01 7.27273E+00
 -1     19093 9.77715E+00 6.17305E+01 7.72727E+00
 -1     19094 1.45454E+01 6.05858E+01 8.18182E+00
 -1     19095 9.58161E+00 6.04959E+01 8.18182E+00
 -1     19100 9.77715E+00 6.17305E+01 8.63636E+00
 -1     19101 1.45454E+01 6.05858E+01 9.09091E+00
 -1     19102 9.58161E+00 6.04959E+01 9.09091E+00
 -1     19107 9.77715E+00 6.17305E+01 9.54545E+00
 -1     19111 4.88858E+00 6.21153E+01 9.09091E-01
 -1     19115 4.88858E+00 6.21153E+01 1.81818E+00
 -1     19119 4.88858E+00 6.21153E+01 2.72727E+00
 -1     19123 4.88858E+00 6.21153E+01 3.63636E+00
 -1     19127 4.88858E+00 6.21153E+01 4.54545E+00
 -1     19131 4.88858E+00 6.21153E+01 5.45455E+00
 -1     19135 4.88858E+00 6.21153E+01 6.36364E+00
 -1     19139 4.88858E+00 6.21153E+01 7.27273E+00
 -1     19143 4.88858E+00 6.21153E+01 8.18182E+00
 -1     19147 4.88858E+00 6.21153E+01 9.09091E+00
 -1     19153 6.41997E+01 1.01682E+01 4.54545E-01
 -1     19154 6.45999E+01 5.08412E+00 9.09091E-01
 -1     19155 6.29651E+01 9.97270E+00 9.09091E-01
 -1     19160 6.41997E+01 1.01682E+01 1.36364E+00
 -1     19161 6.45999E+01 5.08412E+00 1.81818E+00
 -1     19162 6.29651E+01 9.97270E+00 1.81818E+00
 -1     19167 6.41997E+01 1.01682E+01 2.27273E+00
 -1     19168 6.45999E+01 5.08412E+00 2.72727E+00
 -1     19169 6.29651E+01 9.97270E+00 2.72727E+00
 -1     19174 6.41997E+01 1.01682E+01 3.18182E+00
 -1     19175 6.45999E+01 5.08412E+00 3.63636E+00
 -1     19176 6.29651E+01 9.97270E+00 3.63636E+00
 -1     19181 6.41997E+01 1.01682E+01 4.09091E+00
 -1     19182 6.45999E+01 5.08412E+00 4.54545E+00
 -1     19183 6.29651E+01 9.97270E+00 4.54545E+00
 -1     19188 6.41997E+01 1.01682E+01 5.00000E+00
 -1     19189 6.45999E+01 5.08412E+00 5.45455E+00
 -1     19190 6.29651E+01 9.97270E+00 5.45455E+00
 -1     19195 6.41997E+01 1.01682E+01 5.90909E+00
 -1     19196 6.45999E+01 5.08412E+00 6.36364E+00
 -1     19197 6.29651E+01 9.97270E+00 6.36364E+00
 -1     19202 6.41997E+01 1.01682E+01 6.81818E+00
 -1     19203 6.45999E+01 5.08412E+00 7.27273E+00
 -1     19204 6.29651E+01 9.97270E+00 7.27273E+00
 -1     19209 6.41997E+01 1.01682E+01 7.72727E+00
 -1     19210 6.45999E+01 5.08412E+00 8.18182E+00
 -1     19211 6.29651E+01 9.97270E+00 8.18182E+00
 -1     19216 6.41997E+01 1.01682E+01 8.63636E+00
 -1     19217 6.45999E+01 5.08412E+00 9.09091E+00
 -1     19218 6.29651E+01 9.97270E+00 9.09091E+00
 -1     19223 6.41997E+01 1.01682E+01 9.54545E+00
 -1     19227 6.18187E+01 2.00861E+01 4.54545E-01
 -1     19228 6.30092E+01 1.51272E+01 9.09091E-01
 -1     19229 6.06299E+01 1.96998E+01 9.09091E-01
 -1     19234 6.18187E+01 2.00861E+01 1.36364E+00
 -1     19235 6.30092E+01 1.51272E+01 1.81818E+00
 -1     19236 6.06299E+01 1.96998E+01 1.81818E+00
 -1     19241 6.18187E+01 2.00861E+01 2.27273E+00
 -1     19242 6.30092E+01 1.51272E+01 2.72727E+00
 -1     19243 6.06299E+01 1.96998E+01 2.72727E+00
 -1     19248 6.18187E+01 2.00861E+01 3.18182E+00
 -1     19249 6.30092E+01 1.51272E+01 3.63636E+00
 -1     19250 6.06299E+01 1.96998E+01 3.63636E+00
 -1     19255 6.18187E+01 2.00861E+01 4.09091E+00
 -1     19256 6.30092E+01 1.51272E+01 4.54545E+00
 -1     19257 6.06299E+01 1.96998E+01 4.54545E+00
 -1     19262 6.18187E+01 2.00861E+01 5.00000E+00
 -1     19263 6.30092E+01 1.51272E+01 5.45455E+00
 -1     19264 6.06299E+01 1.96998E+01 5.45455E+00
 -1     19269 6.18187E+01 2.00861E+01 5.90909E+00
 -1     19270 6.30092E+01 1.51272E+01 6.36364E+00
 -1     19271 6.06299E+01 1.96998E+01 6.36364E+00
 -1     19276 6.18187E+01 2.00861E+01 6.81818E+00
 -1     19277 6.30092E+01 1.51272E+01 7.27273E+00
 -1     19278 6.06299E+01 1.96998E+01 7.27273E+00
 -1     19283 6.18187E+01 2.00861E+01 7.72727E+00
 -1     19284 6.30092E+01 1.51272E+01 8.18182E+00
 -1     19285 6.06299E+01 1.96998E+01 8.18182E+00
 -1     19290 6.18187E+01 2.00861E+01 8.63636E+00
 -1     19291 6.30092E+01 1.51272E+01 9.09091E+00
 -1     19292 6.06299E+01 1.96998E+01 9.09091E+00
 -1     19297 6.18187E+01 2.00861E+01 9.54545E+00
 -1     19301 5.79154E+01 2.95094E+01 4.54545E-01
 -1     19302 5.98671E+01 2.47977E+01 9.09091E-01
 -1     19303 5.68017E+01 2.89419E+01 9.09091E-01
 -1     19308 5.79154E+01 2.95094E+01 1.36364E+00
 -1     19309 5.98671E+01 2.47977E+01 1.81818E+00
 -1     19310 5.68017E+01 2.89419E+01 1.81818E+00
 -1     19315 5.79154E+01 2.95094E+01 2.27273E+00
 -1     19316 5.98671E+01 2.47977E+01 2.72727E+00
 -1     19317 5.68017E+01 2.89419E+01 2.72727E+00
 -1     19322 5.79154E+01 2.95094E+01 3.18182E+00
 -1     19323 5.98671E+01 2.47977E+01 3.63636E+00
 -1     19324 5.68017E+01 2.89419E+01 3.63636E+00
 -1     19329 5.79154E+01 2.95094E+01 4.09091E+00
 -1     19330 5.98671E+01 2.47977E+01 4.54545E+00
 -1     19331 5.68017E+01 2.89419E+01 4.54545E+00
 -1     19336 5.79154E+01 2.95094E+01 5.00000E+00
 -1     19337 5.98671E+01 2.47977E+01 5.45455E+00
 -1     19338 5.68017E+01 2.89419E+01 5.45455E+00
 -1     19343 5.79154E+01 2.95094E+01 5.90909E+00
 -1     19344 5.98671E+01 2.47977E+01 6.36364E+00
 -1     19345 5.68017E+01 2.89419E+01 6.36364E+00
 -1     19350 5.79154E+01 2.95094E+01 6.81818E+00
 -1     19351 5.98671E+01 2.47977E+01 7.27273E+00
 -1     19352 5.68017E+01 2.89419E+01 7.27273E+00
 -1     19357 5.79154E+01 2.95094E+01 7.72727E+00
 -1     19358 5.98671E+01 2.47977E+01 8.18182E+00
 -1     19359 5.68017E+01 2.89419E+01 8.18182E+00
 -1     19364 5.79154E+01 2.95094E+01 8.63636E+00
 -1     19365 5.98671E+01 2.47977E+01 9.09091E+00
 -1     19366 5.68017E+01 2.89419E+01 9.09091E+00
 -1     19371 5.79154E+01 2.95094E+01 9.54545E+00
 -1     19375 5.25861E+01 3.82060E+01 4.54545E-01
 -1     19376 5.52508E+01 3.38577E+01 9.09091E-01
 -1     19377 5.15748E+01 3.74713E+01 9.09091E-01
 -1     19382 5.25861E+01 3.82060E+01 1.36364E+00
 -1     19383 5.52508E+01 3.38577E+01 1.81818E+00
 -1     19384 5.15748E+01 3.74713E+01 1.81818E+00
 -1     19389 5.25861E+01 3.82060E+01 2.27273E+00
 -1     19390 5.52508E+01 3.38577E+01 2.72727E+00
 -1     19391 5.15748E+01 3.74713E+01 2.72727E+00
 -1     19396 5.25861E+01 3.82060E+01 3.18182E+00
 -1     19397 5.52508E+01 3.38577E+01 3.63636E+00
 -1     19398 5.15748E+01 3.74713E+01 3.63636E+00
 -1     19403 5.25861E+01 3.82060E+01 4.09091E+00
 -1     19404 5.52508E+01 3.38577E+01 4.54545E+00
 -1     19405 5.15748E+01 3.74713E+01 4.54545E+00
 -1     19410 5.25861E+01 3.82060E+01 5.00000E+00
 -1     19411 5.52508E+01 3.38577E+01 5.45455E+00
 -1     19412 5.15748E+01 3.74713E+01 5.45455E+00
 -1     19417 5.25861E+01 3.82060E+01 5.90909E+00
 -1     19418 5.52508E+01 3.38577E+01 6.36364E+00
 -1     19419 5.15748E+01 3.74713E+01 6.36364E+00
 -1     19424 5.25861E+01 3.82060E+01 6.81818E+00
 -1     19425 5.52508E+01 3.38577E+01 7.27273E+00
 -1     19426 5.15748E+01 3.74713E+01 7.27273E+00
 -1     19431 5.25861E+01 3.82060E+01 7.72727E+00
 -1     19432 5.52508E+01 3.38577E+01 8.18182E+00
 -1     19433 5.15748E+01 3.74713E+01 8.18182E+00
 -1     19438 5.25861E+01 3.82060E+01 8.63636E+00
 -1     19439 5.52508E+01 3.38577E+01 9.09091E+00
 -1     19440 5.15748E+01 3.74713E+01 9.09091E+00
 -1     19445 5.25861E+01 3.82060E+01 9.54545E+00
 -1     19449 4.59619E+01 4.59619E+01 4.54545E-01
 -1     19450 4.92740E+01 4.20840E+01 9.09091E-01
 -1     19451 4.50781E+01 4.50781E+01 9.09091E-01
 -1     19456 4.59619E+01 4.59619E+01 1.36364E+00
 -1     19457 4.92740E+01 4.20840E+01 1.81818E+00
 -1     19458 4.50781E+01 4.50781E+01 1.81818E+00
 -1     19463 4.59619E+01 4.59619E+01 2.27273E+00
 -1     19464 4.92740E+01 4.20840E+01 2.72727E+00
 -1     19465 4.50781E+01 4.50781E+01 2.72727E+00
 -1     19470 4.59619E+01 4.59619E+01 3.18182E+00
 -1     19471 4.92740E+01 4.20840E+01 3.63636E+00
 -1     19472 4.50781E+01 4.50781E+01 3.63636E+00
 -1     19477 4.59619E+01 4.59619E+01 4.09091E+00
 -1     19478 4.92740E+01 4.20840E+01 4.54545E+00
 -1     19479 4.50781E+01 4.50781E+01 4.54545E+00
 -1     19484 4.59619E+01 4.59619E+01 5.00000E+00
 -1     19485 4.92740E+01 4.20840E+01 5.45455E+00
 -1     19486 4.50781E+01 4.50781E+01 5.45455E+00
 -1     19491 4.59619E+01 4.59619E+01 5.90909E+00
 -1     19492 4.92740E+01 4.20840E+01 6.36364E+00
 -1     19493 4.50781E+01 4.50781E+01 6.36364E+00
 -1     19498 4.59619E+01 4.59619E+01 6.81818E+00
 -1     19499 4.92740E+01 4.20840E+01 7.27273E+00
 -1     19500 4.50781E+01 4.50781E+01 7.27273E+00
 -1     19505 4.59619E+01 4.59619E+01 7.72727E+00
 -1     19506 4.92740E+01 4.20840E+01 8.18182E+00
 -1     19507 4.50781E+01 4.50781E+01 8.18182E+00
 -1     19512 4.59619E+01 4.59619E+01 8.63636E+00
 -1     19513 4.92740E+01 4.20840E+01 9.09091E+00
 -1     19514 4.50781E+01 4.50781E+01 9.09091E+00
 -1     19519 4.59619E+01 4.59619E+01 9.54545E+00
 -1     19523 3.82060E+01 5.25861E+01 4.54545E-01
 -1     19524 4.20840E+01 4.92740E+01 9.09091E-01
 -1     19525 3.74713E+01 5.15748E+01 9.09091E-01
 -1     19530 3.82060E+01 5.25861E+01 1.36364E+00
 -1     19531 4.20840E+01 4.92740E+01 1.81818E+00
 -1     19532 3.74713E+01 5.15748E+01 1.81818E+00
 -1     19537 3.82060E+01 5.25861E+01 2.27273E+00
 -1     19538 4.20840E+01 4.92740E+01 2.72727E+00
 -1     19539 3.74713E+01 5.15748E+01 2.72727E+00
 -1     19544 3.82060E+01 5.25861E+01 3.18182E+00
 -1     19545 4.20840E+01 4.92740E+01 3.63636E+00
 -1     19546 3.74713E+01 5.15748E+01 3.63636E+00
 -1     19551 3.82060E+01 5.25861E+01 4.09091E+00
 -1     19552 4.20840E+01 4.92740E+01 4.54545E+00
 -1     19553 3.74713E+01 5.15748E+01 4.54545E+00
 -1     19558 3.82060E+01 5.25861E+01 5.00000E+00
 -1     19559 4.20840E+01 4.92740E+01 5.45455E+00
 -1     19560 3.74713E+01 5.15748E+01 5.45455E+00
 -1     19565 3.82060E+01 5.25861E+01 5.90909E+00
 -1     19566 4.20840E+01 4.92740E+01 6.36364E+00
 -1     19567 3.74713E+01 5.15748E+01 6.36364E+00
 -1     19572 3.82060E+01 5.25861E+01 6.81818E+00
 -1     19573 4.20840E+01 4.92740E+01 7.27273E+00
 -1     19574 3.74713E+01 5.15748E+01 7.27273E+00
 -1     19579 3.82060E+01 5.25861E+01 7.72727E+00
 -1     19580 4.20840E+01 4.92740E+01 8.18182E+00
 -1     19581 3.74713E+01 5.15748E+01 8.18182E+00
 -1     19586 3.82060E+01 5.25861E+01 8.63636E+00
 -1     19587 4.20840E+01 4.92740E+01 9.09091E+00
 -1     19588 3.74713E+01 5.15748E+01 9.09091E+00
 -1     19593 3.82060E+01 5.25861E+01 9.54545E+00
 -1     19597 2.95094E+01 5.79154E+01 4.54545E-01
 -1     19598 3.38577E+01 5.52508E+01 9.09091E-01
 -1     19599 2.89419E+01 5.68017E+01 9.09091E-01
 -1     19604 2.95094E+01 5.79154E+01 1.36364E+00
 -1     19605 3.38577E+01 5.52508E+01 1.81818E+00
 -1     19606 2.89419E+01 5.68017E+01 1.81818E+00
 -1     19611 2.95094E+01 5.79154E+01 2.27273E+00
 -1     19612 3.38577E+01 5.52508E+01 2.72727E+00
 -1     19613 2.89419E+01 5.68017E+01 2.72727E+00
 -1     19618 2.95094E+01 5.79154E+01 3.18182E+00
 -1     19619 3.38577E+01 5.52508E+01 3.63636E+00
 -1     19620 2.89419E+01 5.68017E+01 3.63636E+00
 -1     19625 2.95094E+01 5.79154E+01 4.09091E+00
 -1     19626 3.38577E+01 5.52508E+01 4.54545E+00
 -1     19627 2.89419E+01 5.68017E+01 4.54545E+00
 -1     19632 2.95094E+01 5.79154E+01 5.00000E+00
 -1     19633 3.38577E+01 5.52508E+01 5.45455E+00
 -1     19634 2.89419E+01 5.68017E+01 5.45455E+00
 -1     19639 2.95094E+01 5.79154E+01 5.90909E+00
 -1     19640 3.38577E+01 5.52508E+01 6.36364E+00
 -1     19641 2.89419E+01 5.68017E+01 6.36364E+00
 -1     19646 2.95094E+01 5.79154E+01 6.81818E+00
 -1     19647 3.38577E+01 5.52508E+01 7.27273E+00
 -1     19648 2.89419E+01 5.68017E+01 7.27273E+00
 -1     19653 2.95094E+01 5.79154E+01 7.72727E+00
 -1     19654 3.38577E+01 5.52508E+01 8.18182E+00
 -1     19655 2.89419E+01 5.68017E+01 8.18182E+00
 -1     19660 2.95094E+01 5.79154E+01 8.63636E+00
 -1     19661 3.38577E+01 5.52508E+01 9.09091E+00
 -1     19662 2.89419E+01 5.68017E+01 9.09091E+00
 -1     19667 2.95094E+01 5.79154E+01 9.54545E+00
 -1     19671 2.00861E+01 6.18187E+01 4.54545E-01
 -1     19672 2.47977E+01 5.98671E+01 9.09091E-01
 -1     19673 1.96998E+01 6.06299E+01 9.09091E-01
 -1     19678 2.00861E+01 6.18187E+01 1.36364E+00
 -1     19679 2.47977E+01 5.98671E+01 1.81818E+00
 -1     19680 1.96998E+01 6.06299E+01 1.81818E+00
 -1     19685 2.00861E+01 6.18187E+01 2.27273E+00
 -1     19686 2.47977E+01 5.98671E+01 2.72727E+00
 -1     19687 1.96998E+01 6.06299E+01 2.72727E+00
 -1     19692 2.00861E+01 6.18187E+01 3.18182E+00
 -1     19693 2.47977E+01 5.98671E+01 3.63636E+00
 -1     19694 1.96998E+01 6.06299E+01 3.63636E+00
 -1     19699 2.00861E+01 6.18187E+01 4.09091E+00
 -1     19700 2.47977E+01 5.98671E+01 4.54545E+00
 -1     19701 1.96998E+01 6.06299E+01 4.54545E+00
 -1     19706 2.00861E+01 6.18187E+01 5.00000E+00
 -1     19707 2.47977E+01 5.98671E+01 5.45455E+00
 -1     19708 1.96998E+01 6.06299E+01 5.45455E+00
 -1     19713 2.00861E+01 6.18187E+01 5.90909E+00
 -1     19714 2.47977E+01 5.98671E+01 6.36364E+00
 -1     19715 1.96998E+01 6.06299E+01 6.36364E+00
 -1     19720 2.00861E+01 6.18187E+01 6.81818E+00
 -1     19721 2.47977E+01 5.98671E+01 7.27273E+00
 -1     19722 1.96998E+01 6.06299E+01 7.27273E+00
 -1     19727 2.00861E+01 6.18187E+01 7.72727E+00
 -1     19728 2.47977E+01 5.98671E+01 8.18182E+00
 -1     19729 1.96998E+01 6.06299E+01 8.18182E+00
 -1     19734 2.00861E+01 6.18187E+01 8.63636E+00
 -1     19735 2.47977E+01 5.98671E+01 9.09091E+00
 -1     19736 1.96998E+01 6.06299E+01 9.09091E+00
 -1     19741 2.00861E+01 6.18187E+01 9.54545E+00
 -1     19745 1.01682E+01 6.41997E+01 4.54545E-01
 -1     19746 1.51272E+01 6.30092E+01 9.09091E-01
 -1     19747 9.97270E+00 6.29651E+01 9.09091E-01
 -1     19752 1.01682E+01 6.41997E+01 1.36364E+00
 -1     19753 1.51272E+01 6.30092E+01 1.81818E+00
 -1     19754 9.97270E+00 6.29651E+01 1.81818E+00
 -1     19759 1.01682E+01 6.41997E+01 2.27273E+00
 -1     19760 1.51272E+01 6.30092E+01 2.72727E+00
 -1     19761 9.97270E+00 6.29651E+01 2.72727E+00
 -1     19766 1.01682E+01 6.41997E+01 3.18182E+00
 -1     19767 1.51272E+01 6.30092E+01 3.63636E+00
 -1     19768 9.97270E+00 6.29651E+01 3.63636E+00
 -1     19773 1.01682E+01 6.41997E+01 4.09091E+00
 -1     19774 1.51272E+01 6.30092E+01 4.54545E+00
 -1     19775 9.97270E+00 6.29651E+01 4.54545E+00
 -1     19780 1.01682E+01 6.41997E+01 5.00000E+00
 -1     19781 1.51272E+01 6.30092E+01 5.45455E+00
 -1     19782 9.97270E+00 6.29651E+01 5.45455E+00
 -1     19787 1.01682E+01 6.41997E+01 5.90909E+00
 -1     19788 1.51272E+01 6.30092E+01 6.36364E+00
 -1     19789 9.97270E+00 6.29651E+01 6.36364E+00
 -1     19794 1.01682E+01 6.41997E+01 6.81818E+00
 -1     19795 1.51272E+01 6.30092E+01 7.27273E+00
 -1     19796 9.97270E+00 6.29651E+01 7.27273E+00
 -1     19801 1.01682E+01 6.41997E+01 7.72727E+00
 -1     19802 1.51272E+01 6.30092E+01 8.18182E+00
 -1     19803 9.97270E+00 6.29651E+01 8.18182E+00
 -1     19808 1.01682E+01 6.41997E+01 8.63636E+00
 -1     19809 1.51272E+01 6.30092E+01 9.09091E+00
 -1     19810 9.97270E+00 6.29651E+01 9.09091E+00
 -1     19815 1.01682E+01 6.41997E+01 9.54545E+00
 -1     19819 5.08412E+00 6.45999E+01 9.09091E-01
 -1     19823 5.08412E+00 6.45999E+01 1.81818E+00
 -1     19827 5.08412E+00 6.45999E+01 2.72727E+00
 -1     19831 5.08412E+00 6.45999E+01 3.63636E+00
 -1     19835 5.08412E+00 6.45999E+01 4.54545E+00
 -1     19839 5.08412E+00 6.45999E+01 5.45455E+00
 -1     19843 5.08412E+00 6.45999E+01 6.36364E+00
 -1     19847 5.08412E+00 6.45999E+01 7.27273E+00
 -1     19851 5.08412E+00 6.45999E+01 8.18182E+00
 -1     19855 5.08412E+00 6.45999E+01 9.09091E+00
 -1     19861 6.66690E+01 1.05593E+01 4.54545E-01
 -1     19862 6.70845E+01 5.27966E+00 9.09091E-01
 -1     19863 6.54343E+01 1.03638E+01 9.09091E-01
 -1     19868 6.66690E+01 1.05593E+01 1.36364E+00
 -1     19869 6.70845E+01 5.27966E+00 1.81818E+00
 -1     19870 6.54343E+01 1.03638E+01 1.81818E+00
 -1     19875 6.66690E+01 1.05593E+01 2.27273E+00
 -1     19876 6.70845E+01 5.27966E+00 2.72727E+00
 -1     19877 6.54343E+01 1.03638E+01 2.72727E+00
 -1     19882 6.66690E+01 1.05593E+01 3.18182E+00
 -1     19883 6.70845E+01 5.27966E+00 3.63636E+00
 -1     19884 6.54343E+01 1.03638E+01 3.63636E+00
 -1     19889 6.66690E+01 1.05593E+01 4.09091E+00
 -1     19890 6.70845E+01 5.27966E+00 4.54545E+00
 -1     19891 6.54343E+01 1.03638E+01 4.54545E+00
 -1     19896 6.66690E+01 1.05593E+01 5.00000E+00
 -1     19897 6.70845E+01 5.27966E+00 5.45455E+00
 -1     19898 6.54343E+01 1.03638E+01 5.45455E+00
 -1     19903 6.66690E+01 1.05593E+01 5.90909E+00
 -1     19904 6.70845E+01 5.27966E+00 6.36364E+00
 -1     19905 6.54343E+01 1.03638E+01 6.36364E+00
 -1     19910 6.66690E+01 1.05593E+01 6.81818E+00
 -1     19911 6.70845E+01 5.27966E+00 7.27273E+00
 -1     19912 6.54343E+01 1.03638E+01 7.27273E+00
 -1     19917 6.66690E+01 1.05593E+01 7.72727E+00
 -1     19918 6.70845E+01 5.27966E+00 8.18182E+00
 -1     19919 6.54343E+01 1.03638E+01 8.18182E+00
 -1     19924 6.66690E+01 1.05593E+01 8.63636E+00
 -1     19925 6.70845E+01 5.27966E+00 9.09091E+00
 -1     19926 6.54343E+01 1.03638E+01 9.09091E+00
 -1     19931 6.66690E+01 1.05593E+01 9.54545E+00
 -1     19935 6.41963E+01 2.08586E+01 4.54545E-01
 -1     19936 6.54326E+01 1.57090E+01 9.09091E-01
 -1     19937 6.30075E+01 2.04724E+01 9.09091E-01
 -1     19942 6.41963E+01 2.08586E+01 1.36364E+00
 -1     19943 6.54326E+01 1.57090E+01 1.81818E+00
 -1     19944 6.30075E+01 2.04724E+01 1.81818E+00
 -1     19949 6.41963E+01 2.08586E+01 2.27273E+00
 -1     19950 6.54326E+01 1.57090E+01 2.72727E+00
 -1     19951 6.30075E+01 2.04724E+01 2.72727E+00
 -1     19956 6.41963E+01 2.08586E+01 3.18182E+00
 -1     19957 6.54326E+01 1.57090E+01 3.63636E+00
 -1     19958 6.30075E+01 2.04724E+01 3.63636E+00
 -1     19963 6.41963E+01 2.08586E+01 4.09091E+00
 -1     19964 6.54326E+01 1.57090E+01 4.54545E+00
 -1     19965 6.30075E+01 2.04724E+01 4.54545E+00
 -1     19970 6.41963E+01 2.08586E+01 5.00000E+00
 -1     19971 6.54326E+01 1.57090E+01 5.45455E+00
 -1     19972 6.30075E+01 2.04724E+01 5.45455E+00
 -1     19977 6.41963E+01 2.08586E+01 5.90909E+00
 -1     19978 6.54326E+01 1.57090E+01 6.36364E+00
 -1     19979 6.30075E+01 2.04724E+01 6.36364E+00
 -1     19984 6.41963E+01 2.08586E+01 6.81818E+00
 -1     19985 6.54326E+01 1.57090E+01 7.27273E+00
 -1     19986 6.30075E+01 2.04724E+01 7.27273E+00
 -1     19991 6.41963E+01 2.08586E+01 7.72727E+00
 -1     19992 6.54326E+01 1.57090E+01 8.18182E+00
 -1     19993 6.30075E+01 2.04724E+01 8.18182E+00
 -1     19998 6.41963E+01 2.08586E+01 8.63636E+00
 -1     19999 6.54326E+01 1.57090E+01 9.09091E+00
 -1     20000 6.30075E+01 2.04724E+01 9.09091E+00
 -1     20005 6.41963E+01 2.08586E+01 9.54545E+00
 -1     20009 6.01429E+01 3.06444E+01 4.54545E-01
 -1     20010 6.21696E+01 2.57515E+01 9.09091E-01
 -1     20011 5.90292E+01 3.00769E+01 9.09091E-01
 -1     20016 6.01429E+01 3.06444E+01 1.36364E+00
 -1     20017 6.21696E+01 2.57515E+01 1.81818E+00
 -1     20018 5.90292E+01 3.00769E+01 1.81818E+00
 -1     20023 6.01429E+01 3.06444E+01 2.27273E+00
 -1     20024 6.21696E+01 2.57515E+01 2.72727E+00
 -1     20025 5.90292E+01 3.00769E+01 2.72727E+00
 -1     20030 6.01429E+01 3.06444E+01 3.18182E+00
 -1     20031 6.21696E+01 2.57515E+01 3.63636E+00
 -1     20032 5.90292E+01 3.00769E+01 3.63636E+00
 -1     20037 6.01429E+01 3.06444E+01 4.09091E+00
 -1     20038 6.21696E+01 2.57515E+01 4.54545E+00
 -1     20039 5.90292E+01 3.00769E+01 4.54545E+00
 -1     20044 6.01429E+01 3.06444E+01 5.00000E+00
 -1     20045 6.21696E+01 2.57515E+01 5.45455E+00
 -1     20046 5.90292E+01 3.00769E+01 5.45455E+00
 -1     20051 6.01429E+01 3.06444E+01 5.90909E+00
 -1     20052 6.21696E+01 2.57515E+01 6.36364E+00
 -1     20053 5.90292E+01 3.00769E+01 6.36364E+00
 -1     20058 6.01429E+01 3.06444E+01 6.81818E+00
 -1     20059 6.21696E+01 2.57515E+01 7.27273E+00
 -1     20060 5.90292E+01 3.00769E+01 7.27273E+00
 -1     20065 6.01429E+01 3.06444E+01 7.72727E+00
 -1     20066 6.21696E+01 2.57515E+01 8.18182E+00
 -1     20067 5.90292E+01 3.00769E+01 8.18182E+00
 -1     20072 6.01429E+01 3.06444E+01 8.63636E+00
 -1     20073 6.21696E+01 2.57515E+01 9.09091E+00
 -1     20074 5.90292E+01 3.00769E+01 9.09091E+00
 -1     20079 6.01429E+01 3.06444E+01 9.54545E+00
 -1     20083 5.46086E+01 3.96755E+01 4.54545E-01
 -1     20084 5.73758E+01 3.51599E+01 9.09091E-01
 -1     20085 5.35974E+01 3.89408E+01 9.09091E-01
 -1     20090 5.46086E+01 3.96755E+01 1.36364E+00
 -1     20091 5.73758E+01 3.51599E+01 1.81818E+00
 -1     20092 5.35974E+01 3.89408E+01 1.81818E+00
 -1     20097 5.46086E+01 3.96755E+01 2.27273E+00
 -1     20098 5.73758E+01 3.51599E+01 2.72727E+00
 -1     20099 5.35974E+01 3.89408E+01 2.72727E+00
 -1     20104 5.46086E+01 3.96755E+01 3.18182E+00
 -1     20105 5.73758E+01 3.51599E+01 3.63636E+00
 -1     20106 5.35974E+01 3.89408E+01 3.63636E+00
 -1     20111 5.46086E+01 3.96755E+01 4.09091E+00
 -1     20112 5.73758E+01 3.51599E+01 4.54545E+00
 -1     20113 5.35974E+01 3.89408E+01 4.54545E+00
 -1     20118 5.46086E+01 3.96755E+01 5.00000E+00
 -1     20119 5.73758E+01 3.51599E+01 5.45455E+00
 -1     20120 5.35974E+01 3.89408E+01 5.45455E+00
 -1     20125 5.46086E+01 3.96755E+01 5.90909E+00
 -1     20126 5.73758E+01 3.51599E+01 6.36364E+00
 -1     20127 5.35974E+01 3.89408E+01 6.36364E+00
 -1     20132 5.46086E+01 3.96755E+01 6.81818E+00
 -1     20133 5.73758E+01 3.51599E+01 7.27273E+00
 -1     20134 5.35974E+01 3.89408E+01 7.27273E+00
 -1     20139 5.46086E+01 3.96755E+01 7.72727E+00
 -1     20140 5.73758E+01 3.51599E+01 8.18182E+00
 -1     20141 5.35974E+01 3.89408E+01 8.18182E+00
 -1     20146 5.46086E+01 3.96755E+01 8.63636E+00
 -1     20147 5.73758E+01 3.51599E+01 9.09091E+00
 -1     20148 5.35974E+01 3.89408E+01 9.09091E+00
 -1     20153 5.46086E+01 3.96755E+01 9.54545E+00
 -1     20157 4.77297E+01 4.77297E+01 4.54545E-01
 -1     20158 5.11692E+01 4.37026E+01 9.09091E-01
 -1     20159 4.68458E+01 4.68458E+01 9.09091E-01
 -1     20164 4.77297E+01 4.77297E+01 1.36364E+00
 -1     20165 5.11692E+01 4.37026E+01 1.81818E+00
 -1     20166 4.68458E+01 4.68458E+01 1.81818E+00
 -1     20171 4.77297E+01 4.77297E+01 2.27273E+00
 -1     20172 5.11692E+01 4.37026E+01 2.72727E+00
 -1     20173 4.68458E+01 4.68458E+01 2.72727E+00
 -1     20178 4.77297E+01 4.77297E+01 3.18182E+00
 -1     20179 5.11692E+01 4.37026E+01 3.63636E+00
 -1     20180 4.68458E+01 4.68458E+01 3.63636E+00
 -1     20185 4.77297E+01 4.77297E+01 4.09091E+00
 -1     20186 5.11692E+01 4.37026E+01 4.54545E+00
 -1     20187 4.68458E+01 4.68458E+01 4.54545E+00
 -1     20192 4.77297E+01 4.77297E+01 5.00000E+00
 -1     20193 5.11692E+01 4.37026E+01 5.45455E+00
 -1     20194 4.68458E+01 4.68458E+01 5.45455E+00
 -1     20199 4.77297E+01 4.77297E+01 5.90909E+00
 -1     20200 5.11692E+01 4.37026E+01 6.36364E+00
 -1     20201 4.68458E+01 4.68458E+01 6.36364E+00
 -1     20206 4.77297E+01 4.77297E+01 6.81818E+00
 -1     20207 5.11692E+01 4.37026E+01 7.27273E+00
 -1     20208 4.68458E+01 4.68458E+01 7.27273E+00
 -1     20213 4.77297E+01 4.77297E+01 7.72727E+00
 -1     20214 5.11692E+01 4.37026E+01 8.18182E+00
 -1     20215 4.68458E+01 4.68458E+01 8.18182E+00
 -1     20220 4.77297E+01 4.77297E+01 8.63636E+00
 -1     20221 5.11692E+01 4.37026E+01 9.09091E+00
 -1     20222 4.68458E+01 4.68458E+01 9.09091E+00
 -1     20227 4.77297E+01 4.77297E+01 9.54545E+00
 -1     20231 3.96755E+01 5.46086E+01 4.54545E-01
 -1     20232 4.37026E+01 5.11692E+01 9.09091E-01
 -1     20233 3.89408E+01 5.35974E+01 9.09091E-01
 -1     20238 3.96755E+01 5.46086E+01 1.36364E+00
 -1     20239 4.37026E+01 5.11692E+01 1.81818E+00
 -1     20240 3.89408E+01 5.35974E+01 1.81818E+00
 -1     20245 3.96755E+01 5.46086E+01 2.27273E+00
 -1     20246 4.37026E+01 5.11692E+01 2.72727E+00
 -1     20247 3.89408E+01 5.35974E+01 2.72727E+00
 -1     20252 3.96755E+01 5.46086E+01 3.18182E+00
 -1     20253 4.37026E+01 5.11692E+01 3.63636E+00
 -1     20254 3.89408E+01 5.35974E+01 3.63636E+00
 -1     20259 3.96755E+01 5.46086E+01 4.09091E+00
 -1     20260 4.37026E+01 5.11692E+01 4.54545E+00
 -1     20261 3.89408E+01 5.35974E+01 4.54545E+00
 -1     20266 3.96755E+01 5.46086E+01 5.00000E+00
 -1     20267 4.37026E+01 5.11692E+01 5.45455E+00
 -1     20268 3.89408E+01 5.35974E+01 5.45455E+00
 -1     20273 3.96755E+01 5.46086E+01 5.90909E+00
 -1     20274 4.37026E+01 5.11692E+01 6.36364E+00
 -1     20275 3.89408E+01 5.35974E+01 6.36364E+00
 -1     20280 3.96755E+01 5.46086E+01 6.81818E+00
 -1     20281 4.37026E+01 5.11692E+01 7.27273E+00
 -1     20282 3.89408E+01 5.35974E+01 7.27273E+00
 -1     20287 3.96755E+01 5.46086E+01 7.72727E+00
 -1     20288 4.37026E+01 5.11692E+01 8.18182E+00
 -1     20289 3.89408E+01 5.35974E+01 8.18182E+00
 -1     20294 3.96755E+01 5.46086E+01 8.63636E+00
 -1     20295 4.37026E+01 5.11692E+01 9.09091E+00
 -1     20296 3.89408E+01 5.35974E+01 9.09091E+00
 -1     20301 3.96755E+01 5.46086E+01 9.54545E+00
 -1     20305 3.06444E+01 6.01429E+01 4.54545E-01
 -1     20306 3.51599E+01 5.73758E+01 9.09091E-01
 -1     20307 3.00769E+01 5.90292E+01 9.09091E-01
 -1     20312 3.06444E+01 6.01429E+01 1.36364E+00
 -1     20313 3.51599E+01 5.73758E+01 1.81818E+00
 -1     20314 3.00769E+01 5.90292E+01 1.81818E+00
 -1     20319 3.06444E+01 6.01429E+01 2.27273E+00
 -1     20320 3.51599E+01 5.73758E+01 2.72727E+00
 -1     20321 3.00769E+01 5.90292E+01 2.72727E+00
 -1     20326 3.06444E+01 6.01429E+01 3.18182E+00
 -1     20327 3.51599E+01 5.73758E+01 3.63636E+00
 -1     20328 3.00769E+01 5.90292E+01 3.63636E+00
 -1     20333 3.06444E+01 6.01429E+01 4.09091E+00
 -1     20334 3.51599E+01 5.73758E+01 4.54545E+00
 -1     20335 3.00769E+01 5.90292E+01 4.54545E+00
 -1     20340 3.06444E+01 6.01429E+01 5.00000E+00
 -1     20341 3.51599E+01 5.73758E+01 5.45455E+00
 -1     20342 3.00769E+01 5.90292E+01 5.45455E+00
 -1     20347 3.06444E+01 6.01429E+01 5.90909E+00
 -1     20348 3.51599E+01 5.73758E+01 6.36364E+00
 -1     20349 3.00769E+01 5.90292E+01 6.36364E+00
 -1     20354 3.06444E+01 6.01429E+01 6.81818E+00
 -1     20355 3.51599E+01 5.73758E+01 7.27273E+00
 -1     20356 3.00769E+01 5.90292E+01 7.27273E+00
 -1     20361 3.06444E+01 6.01429E+01 7.72727E+00
 -1     20362 3.51599E+01 5.73758E+01 8.18182E+00
 -1     20363 3.00769E+01 5.90292E+01 8.18182E+00
 -1     20368 3.06444E+01 6.01429E+01 8.63636E+00
 -1     20369 3.51599E+01 5.73758E+01 9.09091E+00
 -1     20370 3.00769E+01 5.90292E+01 9.09091E+00
 -1     20375 3.06444E+01 6.01429E+01 9.54545E+00
 -1     20379 2.08586E+01 6.41963E+01 4.54545E-01
 -1     20380 2.57515E+01 6.21696E+01 9.09091E-01
 -1     20381 2.04724E+01 6.30075E+01 9.09091E-01
 -1     20386 2.08586E+01 6.41963E+01 1.36364E+00
 -1     20387 2.57515E+01 6.21696E+01 1.81818E+00
 -1     20388 2.04724E+01 6.30075E+01 1.81818E+00
 -1     20393 2.08586E+01 6.41963E+01 2.27273E+00
 -1     20394 2.57515E+01 6.21696E+01 2.72727E+00
 -1     20395 2.04724E+01 6.30075E+01 2.72727E+00
 -1     20400 2.08586E+01 6.41963E+01 3.18182E+00
 -1     20401 2.57515E+01 6.21696E+01 3.63636E+00
 -1     20402 2.04724E+01 6.30075E+01 3.63636E+00
 -1     20407 2.08586E+01 6.41963E+01 4.09091E+00
 -1     20408 2.57515E+01 6.21696E+01 4.54545E+00
 -1     20409 2.04724E+01 6.30075E+01 4.54545E+00
 -1     20414 2.08586E+01 6.41963E+01 5.00000E+00
 -1     20415 2.57515E+01 6.21696E+01 5.45455E+00
 -1     20416 2.04724E+01 6.30075E+01 5.45455E+00
 -1     20421 2.08586E+01 6.41963E+01 5.90909E+00
 -1     20422 2.57515E+01 6.21696E+01 6.36364E+00
 -1     20423 2.04724E+01 6.30075E+01 6.36364E+00
 -1     20428 2.08586E+01 6.41963E+01 6.81818E+00
 -1     20429 2.57515E+01 6.21696E+01 7.27273E+00
 -1     20430 2.04724E+01 6.30075E+01 7.27273E+00
 -1     20435 2.08586E+01 6.41963E+01 7.72727E+00
 -1     20436 2.57515E+01 6.21696E+01 8.18182E+00
 -1     20437 2.04724E+01 6.30075E+01 8.18182E+00
 -1     20442 2.08586E+01 6.41963E+01 8.63636E+00
 -1     20443 2.57515E+01 6.21696E+01 9.09091E+00
 -1     20444 2.04724E+01 6.30075E+01 9.09091E+00
 -1     20449 2.08586E+01 6.41963E+01 9.54545E+00
 -1     20453 1.05593E+01 6.66690E+01 4.54545E-01
 -1     20454 1.57090E+01 6.54326E+01 9.09091E-01
 -1     20455 1.03638E+01 6.54343E+01 9.09091E-01
 -1     20460 1.05593E+01 6.66690E+01 1.36364E+00
 -1     20461 1.57090E+01 6.54326E+01 1.81818E+00
 -1     20462 1.03638E+01 6.54343E+01 1.81818E+00
 -1     20467 1.05593E+01 6.66690E+01 2.27273E+00
 -1     20468 1.57090E+01 6.54326E+01 2.72727E+00
 -1     20469 1.03638E+01 6.54343E+01 2.72727E+00
 -1     20474 1.05593E+01 6.66690E+01 3.18182E+00
 -1     20475 1.57090E+01 6.54326E+01 3.63636E+00
 -1     20476 1.03638E+01 6.54343E+01 3.63636E+00
 -1     20481 1.05593E+01 6.66690E+01 4.09091E+00
 -1     20482 1.57090E+01 6.54326E+01 4.54545E+00
 -1     20483 1.03638E+01 6.54343E+01 4.54545E+00
 -1     20488 1.05593E+01 6.66690E+01 5.00000E+00
 -1     20489 1.57090E+01 6.54326E+01 5.45455E+00
 -1     20490 1.03638E+01 6.54343E+01 5.45455E+00
 -1     20495 1.05593E+01 6.66690E+01 5.90909E+00
 -1     20496 1.57090E+01 6.54326E+01 6.36364E+00
 -1     20497 1.03638E+01 6.54343E+01 6.36364E+00
 -1     20502 1.05593E+01 6.66690E+01 6.81818E+00
 -1     20503 1.57090E+01 6.54326E+01 7.27273E+00
 -1     20504 1.03638E+01 6.54343E+01 7.27273E+00
 -1     20509 1.05593E+01 6.66690E+01 7.72727E+00
 -1     20510 1.57090E+01 6.54326E+01 8.18182E+00
 -1     20511 1.03638E+01 6.54343E+01 8.18182E+00
 -1     20516 1.05593E+01 6.66690E+01 8.63636E+00
 -1     20517 1.57090E+01 6.54326E+01 9.09091E+00
 -1     20518 1.03638E+01 6.54343E+01 9.09091E+00
 -1     20523 1.05593E+01 6.66690E+01 9.54545E+00
 -1     20527 5.27966E+00 6.70845E+01 9.09091E-01
 -1     20531 5.27966E+00 6.70845E+01 1.81818E+00
 -1     20535 5.27966E+00 6.70845E+01 2.72727E+00
 -1     20539 5.27966E+00 6.70845E+01 3.63636E+00
 -1     20543 5.27966E+00 6.70845E+01 4.54545E+00
 -1     20547 5.27966E+00 6.70845E+01 5.45455E+00
 -1     20551 5.27966E+00 6.70845E+01 6.36364E+00
 -1     20555 5.27966E+00 6.70845E+01 7.27273E+00
 -1     20559 5.27966E+00 6.70845E+01 8.18182E+00
 -1     20563 5.27966E+00 6.70845E+01 9.09091E+00
 -1     20569 6.91382E+01 1.09504E+01 4.54545E-01
 -1     20570 6.95691E+01 5.47521E+00 9.09091E-01
 -1     20571 6.79036E+01 1.07549E+01 9.09091E-01
 -1     20576 6.91382E+01 1.09504E+01 1.36364E+00
 -1     20577 6.95691E+01 5.47521E+00 1.81818E+00
 -1     20578 6.79036E+01 1.07549E+01 1.81818E+00
 -1     20583 6.91382E+01 1.09504E+01 2.27273E+00
 -1     20584 6.95691E+01 5.47521E+00 2.72727E+00
 -1     20585 6.79036E+01 1.07549E+01 2.72727E+00
 -1     20590 6.91382E+01 1.09504E+01 3.18182E+00
 -1     20591 6.95691E+01 5.47521E+00 3.63636E+00
 -1     20592 6.79036E+01 1.07549E+01 3.63636E+00
 -1     20597 6.91382E+01 1.09504E+01 4.09091E+00
 -1     20598 6.95691E+01 5.47521E+00 4.54545E+00
 -1     20599 6.79036E+01 1.07549E+01 4.54545E+00
 -1     20604 6.91382E+01 1.09504E+01 5.00000E+00
 -1     20605 6.95691E+01 5.47521E+00 5.45455E+00
 -1     20606 6.79036E+01 1.07549E+01 5.45455E+00
 -1     20611 6.91382E+01 1.09504E+01 5.90909E+00
 -1     20612 6.95691E+01 5.47521E+00 6.36364E+00
 -1     20613 6.79036E+01 1.07549E+01 6.36364E+00
 -1     20618 6.91382E+01 1.09504E+01 6.81818E+00
 -1     20619 6.95691E+01 5.47521E+00 7.27273E+00
 -1     20620 6.79036E+01 1.07549E+01 7.27273E+00
 -1     20625 6.91382E+01 1.09504E+01 7.72727E+00
 -1     20626 6.95691E+01 5.47521E+00 8.18182E+00
 -1     20627 6.79036E+01 1.07549E+01 8.18182E+00
 -1     20632 6.91382E+01 1.09504E+01 8.63636E+00
 -1     20633 6.95691E+01 5.47521E+00 9.09091E+00
 -1     20634 6.79036E+01 1.07549E+01 9.09091E+00
 -1     20639 6.91382E+01 1.09504E+01 9.54545E+00
 -1     20643 6.65740E+01 2.16312E+01 4.54545E-01
 -1     20644 6.78561E+01 1.62908E+01 9.09091E-01
 -1     20645 6.53851E+01 2.12449E+01 9.09091E-01
 -1     20650 6.65740E+01 2.16312E+01 1.36364E+00
 -1     20651 6.78561E+01 1.62908E+01 1.81818E+00
 -1     20652 6.53851E+01 2.12449E+01 1.81818E+00
 -1     20657 6.65740E+01 2.16312E+01 2.27273E+00
 -1     20658 6.78561E+01 1.62908E+01 2.72727E+00
 -1     20659 6.53851E+01 2.12449E+01 2.72727E+00
 -1     20664 6.65740E+01 2.16312E+01 3.18182E+00
 -1     20665 6.78561E+01 1.62908E+01 3.63636E+00
 -1     20666 6.53851E+01 2.12449E+01 3.63636E+00
 -1     20671 6.65740E+01 2.16312E+01 4.09091E+00
 -1     20672 6.78561E+01 1.62908E+01 4.54545E+00
 -1     20673 6.53851E+01 2.12449E+01 4.54545E+00
 -1     20678 6.65740E+01 2.16312E+01 5.00000E+00
 -1     20679 6.78561E+01 1.62908E+01 5.45455E+00
 -1     20680 6.53851E+01 2.12449E+01 5.45455E+00
 -1     20685 6.65740E+01 2.16312E+01 5.90909E+00
 -1     20686 6.78561E+01 1.62908E+01 6.36364E+00
 -1     20687 6.53851E+01 2.12449E+01 6.36364E+00
 -1     20692 6.65740E+01 2.16312E+01 6.81818E+00
 -1     20693 6.78561E+01 1.62908E+01 7.27273E+00
 -1     20694 6.53851E+01 2.12449E+01 7.27273E+00
 -1     20699 6.65740E+01 2.16312E+01 7.72727E+00
 -1     20700 6.78561E+01 1.62908E+01 8.18182E+00
 -1     20701 6.53851E+01 2.12449E+01 8.18182E+00
 -1     20706 6.65740E+01 2.16312E+01 8.63636E+00
 -1     20707 6.78561E+01 1.62908E+01 9.09091E+00
 -1     20708 6.53851E+01 2.12449E+01 9.09091E+00
 -1     20713 6.65740E+01 2.16312E+01 9.54545E+00
 -1     20717 6.23705E+01 3.17793E+01 4.54545E-01
 -1     20718 6.44722E+01 2.67053E+01 9.09091E-01
 -1     20719 6.12567E+01 3.12118E+01 9.09091E-01
 -1     20724 6.23705E+01 3.17793E+01 1.36364E+00
 -1     20725 6.44722E+01 2.67053E+01 1.81818E+00
 -1     20726 6.12567E+01 3.12118E+01 1.81818E+00
 -1     20731 6.23705E+01 3.17793E+01 2.27273E+00
 -1     20732 6.44722E+01 2.67053E+01 2.72727E+00
 -1     20733 6.12567E+01 3.12118E+01 2.72727E+00
 -1     20738 6.23705E+01 3.17793E+01 3.18182E+00
 -1     20739 6.44722E+01 2.67053E+01 3.63636E+00
 -1     20740 6.12567E+01 3.12118E+01 3.63636E+00
 -1     20745 6.23705E+01 3.17793E+01 4.09091E+00
 -1     20746 6.44722E+01 2.67053E+01 4.54545E+00
 -1     20747 6.12567E+01 3.12118E+01 4.54545E+00
 -1     20752 6.23705E+01 3.17793E+01 5.00000E+00
 -1     20753 6.44722E+01 2.67053E+01 5.45455E+00
 -1     20754 6.12567E+01 3.12118E+01 5.45455E+00
 -1     20759 6.23705E+01 3.17793E+01 5.90909E+00
 -1     20760 6.44722E+01 2.67053E+01 6.36364E+00
 -1     20761 6.12567E+01 3.12118E+01 6.36364E+00
 -1     20766 6.23705E+01 3.17793E+01 6.81818E+00
 -1     20767 6.44722E+01 2.67053E+01 7.27273E+00
 -1     20768 6.12567E+01 3.12118E+01 7.27273E+00
 -1     20773 6.23705E+01 3.17793E+01 7.72727E+00
 -1     20774 6.44722E+01 2.67053E+01 8.18182E+00
 -1     20775 6.12567E+01 3.12118E+01 8.18182E+00
 -1     20780 6.23705E+01 3.17793E+01 8.63636E+00
 -1     20781 6.44722E+01 2.67053E+01 9.09091E+00
 -1     20782 6.12567E+01 3.12118E+01 9.09091E+00
 -1     20787 6.23705E+01 3.17793E+01 9.54545E+00
 -1     20791 5.66312E+01 4.11450E+01 4.54545E-01
 -1     20792 5.95008E+01 3.64622E+01 9.09091E-01
 -1     20793 5.56199E+01 4.04102E+01 9.09091E-01
 -1     20798 5.66312E+01 4.11450E+01 1.36364E+00
 -1     20799 5.95008E+01 3.64622E+01 1.81818E+00
 -1     20800 5.56199E+01 4.04102E+01 1.81818E+00
 -1     20805 5.66312E+01 4.11450E+01 2.27273E+00
 -1     20806 5.95008E+01 3.64622E+01 2.72727E+00
 -1     20807 5.56199E+01 4.04102E+01 2.72727E+00
 -1     20812 5.66312E+01 4.11450E+01 3.18182E+00
 -1     20813 5.95008E+01 3.64622E+01 3.63636E+00
 -1     20814 5.56199E+01 4.04102E+01 3.63636E+00
 -1     20819 5.66312E+01 4.11450E+01 4.09091E+00
 -1     20820 5.95008E+01 3.64622E+01 4.54545E+00
 -1     20821 5.56199E+01 4.04102E+01 4.54545E+00
 -1     20826 5.66312E+01 4.11450E+01 5.00000E+00
 -1     20827 5.95008E+01 3.64622E+01 5.45455E+00
 -1     20828 5.56199E+01 4.04102E+01 5.45455E+00
 -1     20833 5.66312E+01 4.11450E+01 5.90909E+00
 -1     20834 5.95008E+01 3.64622E+01 6.36364E+00
 -1     20835 5.56199E+01 4.04102E+01 6.36364E+00
 -1     20840 5.66312E+01 4.11450E+01 6.81818E+00
 -1     20841 5.95008E+01 3.64622E+01 7.27273E+00
 -1     20842 5.56199E+01 4.04102E+01 7.27273E+00
 -1     20847 5.66312E+01 4.11450E+01 7.72727E+00
 -1     20848 5.95008E+01 3.64622E+01 8.18182E+00
 -1     20849 5.56199E+01 4.04102E+01 8.18182E+00
 -1     20854 5.66312E+01 4.11450E+01 8.63636E+00
 -1     20855 5.95008E+01 3.64622E+01 9.09091E+00
 -1     20856 5.56199E+01 4.04102E+01 9.09091E+00
 -1     20861 5.66312E+01 4.11450E+01 9.54545E+00
 -1     20865 4.94975E+01 4.94975E+01 4.54545E-01
 -1     20866 5.30643E+01 4.53212E+01 9.09091E-01
 -1     20867 4.86136E+01 4.86136E+01 9.09091E-01
 -1     20872 4.94975E+01 4.94975E+01 1.36364E+00
 -1     20873 5.30643E+01 4.53212E+01 1.81818E+00
 -1     20874 4.86136E+01 4.86136E+01 1.81818E+00
 -1     20879 4.94975E+01 4.94975E+01 2.27273E+00
 -1     20880 5.30643E+01 4.53212E+01 2.72727E+00
 -1     20881 4.86136E+01 4.86136E+01 2.72727E+00
 -1     20886 4.94975E+01 4.94975E+01 3.18182E+00
 -1     20887 5.30643E+01 4.53212E+01 3.63636E+00
 -1     20888 4.86136E+01 4.86136E+01 3.63636E+00
 -1     20893 4.94975E+01 4.94975E+01 4.09091E+00
 -1     20894 5.30643E+01 4.53212E+01 4.54545E+00
 -1     20895 4.86136E+01 4.86136E+01 4.54545E+00
 -1     20900 4.94975E+01 4.94975E+01 5.00000E+00
 -1     20901 5.30643E+01 4.53212E+01 5.45455E+00
 -1     20902 4.86136E+01 4.86136E+01 5.45455E+00
 -1     20907 4.94975E+01 4.94975E+01 5.90909E+00
 -1     20908 5.30643E+01 4.53212E+01 6.36364E+00
 -1     20909 4.86136E+01 4.86136E+01 6.36364E+00
 -1     20914 4.94975E+01 4.94975E+01 6.81818E+00
 -1     20915 5.30643E+01 4.53212E+01 7.27273E+00
 -1     20916 4.86136E+01 4.86136E+01 7.27273E+00
 -1     20921 4.94975E+01 4.94975E+01 7.72727E+00
 -1     20922 5.30643E+01 4.53212E+01 8.18182E+00
 -1     20923 4.86136E+01 4.86136E+01 8.18182E+00
 -1     20928 4.94975E+01 4.94975E+01 8.63636E+00
 -1     20929 5.30643E+01 4.53212E+01 9.09091E+00
 -1     20930 4.86136E+01 4.86136E+01 9.09091E+00
 -1     20935 4.94975E+01 4.94975E+01 9.54545E+00
 -1     20939 4.11450E+01 5.66312E+01 4.54545E-01
 -1     20940 4.53212E+01 5.30643E+01 9.09091E-01
 -1     20941 4.04102E+01 5.56199E+01 9.09091E-01
 -1     20946 4.11450E+01 5.66312E+01 1.36364E+00
 -1     20947 4.53212E+01 5.30643E+01 1.81818E+00
 -1     20948 4.04102E+01 5.56199E+01 1.81818E+00
 -1     20953 4.11450E+01 5.66312E+01 2.27273E+00
 -1     20954 4.53212E+01 5.30643E+01 2.72727E+00
 -1     20955 4.04102E+01 5.56199E+01 2.72727E+00
 -1     20960 4.11450E+01 5.66312E+01 3.18182E+00
 -1     20961 4.53212E+01 5.30643E+01 3.63636E+00
 -1     20962 4.04102E+01 5.56199E+01 3.63636E+00
 -1     20967 4.11450E+01 5.66312E+01 4.09091E+00
 -1     20968 4.53212E+01 5.30643E+01 4.54545E+00
 -1     20969 4.04102E+01 5.56199E+01 4.54545E+00
 -1     20974 4.11450E+01 5.66312E+01 5.00000E+00
 -1     20975 4.53212E+01 5.30643E+01 5.45455E+00
 -1     20976 4.04102E+01 5.56199E+01 5.45455E+00
 -1     20981 4.11450E+01 5.66312E+01 5.90909E+00
 -1     20982 4.53212E+01 5.30643E+01 6.36364E+00
 -1     20983 4.04102E+01 5.56199E+01 6.36364E+00
 -1     20988 4.11450E+01 5.66312E+01 6.81818E+00
 -1     20989 4.53212E+01 5.30643E+01 7.27273E+00
 -1     20990 4.04102E+01 5.56199E+01 7.27273E+00
 -1     20995 4.11450E+01 5.66312E+01 7.72727E+00
 -1     20996 4.53212E+01 5.30643E+01 8.18182E+00
 -1     20997 4.04102E+01 5.56199E+01 8.18182E+00
 -1     21002 4.11450E+01 5.66312E+01 8.63636E+00
 -1     21003 4.53212E+01 5.30643E+01 9.09091E+00
 -1     21004 4.04102E+01 5.56199E+01 9.09091E+00
 -1     21009 4.11450E+01 5.66312E+01 9.54545E+00
 -1     21013 3.17793E+01 6.23705E+01 4.54545E-01
 -1     21014 3.64622E+01 5.95008E+01 9.09091E-01
 -1     21015 3.12118E+01 6.12567E+01 9.09091E-01
 -1     21020 3.17793E+01 6.23705E+01 1.36364E+00
 -1     21021 3.64622E+01 5.95008E+01 1.81818E+00
 -1     21022 3.12118E+01 6.12567E+01 1.81818E+00
 -1     21027 3.17793E+01 6.23705E+01 2.27273E+00
 -1     21028 3.64622E+01 5.95008E+01 2.72727E+00
 -1     21029 3.12118E+01 6.12567E+01 2.72727E+00
 -1     21034 3.17793E+01 6.23705E+01 3.18182E+00
 -1     21035 3.64622E+01 5.95008E+01 3.63636E+00
 -1     21036 3.12118E+01 6.12567E+01 3.63636E+00
 -1     21041 3.17793E+01 6.23705E+01 4.09091E+00
 -1     21042 3.64622E+01 5.95008E+01 4.54545E+00
 -1     21043 3.12118E+01 6.12567E+01 4.54545E+00
 -1     21048 3.17793E+01 6.23705E+01 5.00000E+00
 -1     21049 3.64622E+01 5.95008E+01 5.45455E+00
 -1     21050 3.12118E+01 6.12567E+01 5.45455E+00
 -1     21055 3.17793E+01 6.23705E+01 5.90909E+00
 -1     21056 3.64622E+01 5.95008E+01 6.36364E+00
 -1     21057 3.12118E+01 6.12567E+01 6.36364E+00
 -1     21062 3.17793E+01 6.23705E+01 6.81818E+00
 -1     21063 3.64622E+01 5.95008E+01 7.27273E+00
 -1     21064 3.12118E+01 6.12567E+01 7.27273E+00
 -1     21069 3.17793E+01 6.23705E+01 7.72727E+00
 -1     21070 3.64622E+01 5.95008E+01 8.18182E+00
 -1     21071 3.12118E+01 6.12567E+01 8.18182E+00
 -1     21076 3.17793E+01 6.23705E+01 8.63636E+00
 -1     21077 3.64622E+01 5.95008E+01 9.09091E+00
 -1     21078 3.12118E+01 6.12567E+01 9.09091E+00
 -1     21083 3.17793E+01 6.23705E+01 9.54545E+00
 -1     21087 2.16312E+01 6.65740E+01 4.54545E-01
 -1     21088 2.67053E+01 6.44722E+01 9.09091E-01
 -1     21089 2.12449E+01 6.53851E+01 9.09091E-01
 -1     21094 2.16312E+01 6.65740E+01 1.36364E+00
 -1     21095 2.67053E+01 6.44722E+01 1.81818E+00
 -1     21096 2.12449E+01 6.53851E+01 1.81818E+00
 -1     21101 2.16312E+01 6.65740E+01 2.27273E+00
 -1     21102 2.67053E+01 6.44722E+01 2.72727E+00
 -1     21103 2.12449E+01 6.53851E+01 2.72727E+00
 -1     21108 2.16312E+01 6.65740E+01 3.18182E+00
 -1     21109 2.67053E+01 6.44722E+01 3.63636E+00
 -1     21110 2.12449E+01 6.53851E+01 3.63636E+00
 -1     21115 2.16312E+01 6.65740E+01 4.09091E+00
 -1     21116 2.67053E+01 6.44722E+01 4.54545E+00
 -1     21117 2.12449E+01 6.53851E+01 4.54545E+00
 -1     21122 2.16312E+01 6.65740E+01 5.00000E+00
 -1     21123 2.67053E+01 6.44722E+01 5.45455E+00
 -1     21124 2.12449E+01 6.53851E+01 5.45455E+00
 -1     21129 2.16312E+01 6.65740E+01 5.90909E+00
 -1     21130 2.67053E+01 6.44722E+01 6.36364E+00
 -1     21131 2.12449E+01 6.53851E+01 6.36364E+00
 -1     21136 2.16312E+01 6.65740E+01 6.81818E+00
 -1     21137 2.67053E+01 6.44722E+01 7.27273E+00
 -1     21138 2.12449E+01 6.53851E+01 7.27273E+00
 -1     21143 2.16312E+01 6.65740E+01 7.72727E+00
 -1     21144 2.67053E+01 6.44722E+01 8.18182E+00
 -1     21145 2.12449E+01 6.53851E+01 8.18182E+00
 -1     21150 2.16312E+01 6.65740E+01 8.63636E+00
 -1     21151 2.67053E+01 6.44722E+01 9.09091E+00
 -1     21152 2.12449E+01 6.53851E+01 9.09091E+00
 -1     21157 2.16312E+01 6.65740E+01 9.54545E+00
 -1     21161 1.09504E+01 6.91382E+01 4.54545E-01
 -1     21162 1.62908E+01 6.78561E+01 9.09091E-01
 -1     21163 1.07549E+01 6.79036E+01 9.09091E-01
 -1     21168 1.09504E+01 6.91382E+01 1.36364E+00
 -1     21169 1.62908E+01 6.78561E+01 1.81818E+00
 -1     21170 1.07549E+01 6.79036E+01 1.81818E+00
 -1     21175 1.09504E+01 6.91382E+01 2.27273E+00
 -1     21176 1.62908E+01 6.78561E+01 2.72727E+00
 -1     21177 1.07549E+01 6.79036E+01 2.72727E+00
 -1     21182 1.09504E+01 6.91382E+01 3.18182E+00
 -1     21183 1.62908E+01 6.78561E+01 3.63636E+00
 -1     21184 1.07549E+01 6.79036E+01 3.63636E+00
 -1     21189 1.09504E+01 6.91382E+01 4.09091E+00
 -1     21190 1.62908E+01 6.78561E+01 4.54545E+00
 -1     21191 1.07549E+01 6.79036E+01 4.54545E+00
 -1     21196 1.09504E+01 6.91382E+01 5.00000E+00
 -1     21197 1.62908E+01 6.78561E+01 5.45455E+00
 -1     21198 1.07549E+01 6.79036E+01 5.45455E+00
 -1     21203 1.09504E+01 6.91382E+01 5.90909E+00
 -1     21204 1.62908E+01 6.78561E+01 6.36364E+00
 -1     21205 1.07549E+01 6.79036E+01 6.36364E+00
 -1     21210 1.09504E+01 6.91382E+01 6.81818E+00
 -1     21211 1.62908E+01 6.78561E+01 7.27273E+00
 -1     21212 1.07549E+01 6.79036E+01 7.27273E+00
 -1     21217 1.09504E+01 6.91382E+01 7.72727E+00
 -1     21218 1.62908E+01 6.78561E+01 8.18182E+00
 -1     21219 1.07549E+01 6.79036E+01 8.18182E+00
 -1     21224 1.09504E+01 6.91382E+01 8.63636E+00
 -1     21225 1.62908E+01 6.78561E+01 9.09091E+00
 -1     21226 1.07549E+01 6.79036E+01 9.09091E+00
 -1     21231 1.09504E+01 6.91382E+01 9.54545E+00
 -1     21235 5.47521E+00 6.95691E+01 9.09091E-01
 -1     21239 5.47521E+00 6.95691E+01 1.81818E+00
 -1     21243 5.47521E+00 6.95691E+01 2.72727E+00
 -1     21247 5.47521E+00 6.95691E+01 3.63636E+00
 -1     21251 5.47521E+00 6.95691E+01 4.54545E+00
 -1     21255 5.47521E+00 6.95691E+01 5.45455E+00
 -1     21259 5.47521E+00 6.95691E+01 6.36364E+00
 -1     21263 5.47521E+00 6.95691E+01 7.27273E+00
 -1     21267 5.47521E+00 6.95691E+01 8.18182E+00
 -1     21271 5.47521E+00 6.95691E+01 9.09091E+00
 -1     21277 7.16074E+01 1.13415E+01 4.54545E-01
 -1     21278 7.20537E+01 5.67075E+00 9.09091E-01
 -1     21279 7.03728E+01 1.11460E+01 9.09091E-01
 -1     21284 7.16074E+01 1.13415E+01 1.36364E+00
 -1     21285 7.20537E+01 5.67075E+00 1.81818E+00
 -1     21286 7.03728E+01 1.11460E+01 1.81818E+00
 -1     21291 7.16074E+01 1.13415E+01 2.27273E+00
 -1     21292 7.20537E+01 5.67075E+00 2.72727E+00
 -1     21293 7.03728E+01 1.11460E+01 2.72727E+00
 -1     21298 7.16074E+01 1.13415E+01 3.18182E+00
 -1     21299 7.20537E+01 5.67075E+00 3.63636E+00
 -1     21300 7.03728E+01 1.11460E+01 3.63636E+00
 -1     21305 7.16074E+01 1.13415E+01 4.09091E+00
 -1     21306 7.20537E+01 5.67075E+00 4.54545E+00
 -1     21307 7.03728E+01 1.11460E+01 4.54545E+00
 -1     21312 7.16074E+01 1.13415E+01 5.00000E+00
 -1     21313 7.20537E+01 5.67075E+00 5.45455E+00
 -1     21314 7.03728E+01 1.11460E+01 5.45455E+00
 -1     21319 7.16074E+01 1.13415E+01 5.90909E+00
 -1     21320 7.20537E+01 5.67075E+00 6.36364E+00
 -1     21321 7.03728E+01 1.11460E+01 6.36364E+00
 -1     21326 7.16074E+01 1.13415E+01 6.81818E+00
 -1     21327 7.20537E+01 5.67075E+00 7.27273E+00
 -1     21328 7.03728E+01 1.11460E+01 7.27273E+00
 -1     21333 7.16074E+01 1.13415E+01 7.72727E+00
 -1     21334 7.20537E+01 5.67075E+00 8.18182E+00
 -1     21335 7.03728E+01 1.11460E+01 8.18182E+00
 -1     21340 7.16074E+01 1.13415E+01 8.63636E+00
 -1     21341 7.20537E+01 5.67075E+00 9.09091E+00
 -1     21342 7.03728E+01 1.11460E+01 9.09091E+00
 -1     21347 7.16074E+01 1.13415E+01 9.54545E+00
 -1     21351 6.89516E+01 2.24037E+01 4.54545E-01
 -1     21352 7.02795E+01 1.68726E+01 9.09091E-01
 -1     21353 6.77628E+01 2.20175E+01 9.09091E-01
 -1     21358 6.89516E+01 2.24037E+01 1.36364E+00
 -1     21359 7.02795E+01 1.68726E+01 1.81818E+00
 -1     21360 6.77628E+01 2.20175E+01 1.81818E+00
 -1     21365 6.89516E+01 2.24037E+01 2.27273E+00
 -1     21366 7.02795E+01 1.68726E+01 2.72727E+00
 -1     21367 6.77628E+01 2.20175E+01 2.72727E+00
 -1     21372 6.89516E+01 2.24037E+01 3.18182E+00
 -1     21373 7.02795E+01 1.68726E+01 3.63636E+00
 -1     21374 6.77628E+01 2.20175E+01 3.63636E+00
 -1     21379 6.89516E+01 2.24037E+01 4.09091E+00
 -1     21380 7.02795E+01 1.68726E+01 4.54545E+00
 -1     21381 6.77628E+01 2.20175E+01 4.54545E+00
 -1     21386 6.89516E+01 2.24037E+01 5.00000E+00
 -1     21387 7.02795E+01 1.68726E+01 5.45455E+00
 -1     21388 6.77628E+01 2.20175E+01 5.45455E+00
 -1     21393 6.89516E+01 2.24037E+01 5.90909E+00
 -1     21394 7.02795E+01 1.68726E+01 6.36364E+00
 -1     21395 6.77628E+01 2.20175E+01 6.36364E+00
 -1     21400 6.89516E+01 2.24037E+01 6.81818E+00
 -1     21401 7.02795E+01 1.68726E+01 7.27273E+00
 -1     21402 6.77628E+01 2.20175E+01 7.27273E+00
 -1     21407 6.89516E+01 2.24037E+01 7.72727E+00
 -1     21408 7.02795E+01 1.68726E+01 8.18182E+00
 -1     21409 6.77628E+01 2.20175E+01 8.18182E+00
 -1     21414 6.89516E+01 2.24037E+01 8.63636E+00
 -1     21415 7.02795E+01 1.68726E+01 9.09091E+00
 -1     21416 6.77628E+01 2.20175E+01 9.09091E+00
 -1     21421 6.89516E+01 2.24037E+01 9.54545E+00
 -1     21425 6.45980E+01 3.29143E+01 4.54545E-01
 -1     21426 6.67748E+01 2.76590E+01 9.09091E-01
 -1     21427 6.34842E+01 3.23468E+01 9.09091E-01
 -1     21432 6.45980E+01 3.29143E+01 1.36364E+00
 -1     21433 6.67748E+01 2.76590E+01 1.81818E+00
 -1     21434 6.34842E+01 3.23468E+01 1.81818E+00
 -1     21439 6.45980E+01 3.29143E+01 2.27273E+00
 -1     21440 6.67748E+01 2.76590E+01 2.72727E+00
 -1     21441 6.34842E+01 3.23468E+01 2.72727E+00
 -1     21446 6.45980E+01 3.29143E+01 3.18182E+00
 -1     21447 6.67748E+01 2.76590E+01 3.63636E+00
 -1     21448 6.34842E+01 3.23468E+01 3.63636E+00
 -1     21453 6.45980E+01 3.29143E+01 4.09091E+00
 -1     21454 6.67748E+01 2.76590E+01 4.54545E+00
 -1     21455 6.34842E+01 3.23468E+01 4.54545E+00
 -1     21460 6.45980E+01 3.29143E+01 5.00000E+00
 -1     21461 6.67748E+01 2.76590E+01 5.45455E+00
 -1     21462 6.34842E+01 3.23468E+01 5.45455E+00
 -1     21467 6.45980E+01 3.29143E+01 5.90909E+00
 -1     21468 6.67748E+01 2.76590E+01 6.36364E+00
 -1     21469 6.34842E+01 3.23468E+01 6.36364E+00
 -1     21474 6.45980E+01 3.29143E+01 6.81818E+00
 -1     21475 6.67748E+01 2.76590E+01 7.27273E+00
 -1     21476 6.34842E+01 3.23468E+01 7.27273E+00
 -1     21481 6.45980E+01 3.29143E+01 7.72727E+00
 -1     21482 6.67748E+01 2.76590E+01 8.18182E+00
 -1     21483 6.34842E+01 3.23468E+01 8.18182E+00
 -1     21488 6.45980E+01 3.29143E+01 8.63636E+00
 -1     21489 6.67748E+01 2.76590E+01 9.09091E+00
 -1     21490 6.34842E+01 3.23468E+01 9.09091E+00
 -1     21495 6.45980E+01 3.29143E+01 9.54545E+00
 -1     21499 5.86537E+01 4.26144E+01 4.54545E-01
 -1     21500 6.16259E+01 3.77644E+01 9.09091E-01
 -1     21501 5.76425E+01 4.18797E+01 9.09091E-01
 -1     21506 5.86537E+01 4.26144E+01 1.36364E+00
 -1     21507 6.16259E+01 3.77644E+01 1.81818E+00
 -1     21508 5.76425E+01 4.18797E+01 1.81818E+00
 -1     21513 5.86537E+01 4.26144E+01 2.27273E+00
 -1     21514 6.16259E+01 3.77644E+01 2.72727E+00
 -1     21515 5.76425E+01 4.18797E+01 2.72727E+00
 -1     21520 5.86537E+01 4.26144E+01 3.18182E+00
 -1     21521 6.16259E+01 3.77644E+01 3.63636E+00
 -1     21522 5.76425E+01 4.18797E+01 3.63636E+00
 -1     21527 5.86537E+01 4.26144E+01 4.09091E+00
 -1     21528 6.16259E+01 3.77644E+01 4.54545E+00
 -1     21529 5.76425E+01 4.18797E+01 4.54545E+00
 -1     21534 5.86537E+01 4.26144E+01 5.00000E+00
 -1     21535 6.16259E+01 3.77644E+01 5.45455E+00
 -1     21536 5.76425E+01 4.18797E+01 5.45455E+00
 -1     21541 5.86537E+01 4.26144E+01 5.90909E+00
 -1     21542 6.16259E+01 3.77644E+01 6.36364E+00
 -1     21543 5.76425E+01 4.18797E+01 6.36364E+00
 -1     21548 5.86537E+01 4.26144E+01 6.81818E+00
 -1     21549 6.16259E+01 3.77644E+01 7.27273E+00
 -1     21550 5.76425E+01 4.18797E+01 7.27273E+00
 -1     21555 5.86537E+01 4.26144E+01 7.72727E+00
 -1     21556 6.16259E+01 3.77644E+01 8.18182E+00
 -1     21557 5.76425E+01 4.18797E+01 8.18182E+00
 -1     21562 5.86537E+01 4.26144E+01 8.63636E+00
 -1     21563 6.16259E+01 3.77644E+01 9.09091E+00
 -1     21564 5.76425E+01 4.18797E+01 9.09091E+00
 -1     21569 5.86537E+01 4.26144E+01 9.54545E+00
 -1     21573 5.12652E+01 5.12652E+01 4.54545E-01
 -1     21574 5.49595E+01 4.69398E+01 9.09091E-01
 -1     21575 5.03814E+01 5.03814E+01 9.09091E-01
 -1     21580 5.12652E+01 5.12652E+01 1.36364E+00
 -1     21581 5.49595E+01 4.69398E+01 1.81818E+00
 -1     21582 5.03814E+01 5.03814E+01 1.81818E+00
 -1     21587 5.12652E+01 5.12652E+01 2.27273E+00
 -1     21588 5.49595E+01 4.69398E+01 2.72727E+00
 -1     21589 5.03814E+01 5.03814E+01 2.72727E+00
 -1     21594 5.12652E+01 5.12652E+01 3.18182E+00
 -1     21595 5.49595E+01 4.69398E+01 3.63636E+00
 -1     21596 5.03814E+01 5.03814E+01 3.63636E+00
 -1     21601 5.12652E+01 5.12652E+01 4.09091E+00
 -1     21602 5.49595E+01 4.69398E+01 4.54545E+00
 -1     21603 5.03814E+01 5.03814E+01 4.54545E+00
 -1     21608 5.12652E+01 5.12652E+01 5.00000E+00
 -1     21609 5.49595E+01 4.69398E+01 5.45455E+00
 -1     21610 5.03814E+01 5.03814E+01 5.45455E+00
 -1     21615 5.12652E+01 5.12652E+01 5.90909E+00
 -1     21616 5.49595E+01 4.69398E+01 6.36364E+00
 -1     21617 5.03814E+01 5.03814E+01 6.36364E+00
 -1     21622 5.12652E+01 5.12652E+01 6.81818E+00
 -1     21623 5.49595E+01 4.69398E+01 7.27273E+00
 -1     21624 5.03814E+01 5.03814E+01 7.27273E+00
 -1     21629 5.12652E+01 5.12652E+01 7.72727E+00
 -1     21630 5.49595E+01 4.69398E+01 8.18182E+00
 -1     21631 5.03814E+01 5.03814E+01 8.18182E+00
 -1     21636 5.12652E+01 5.12652E+01 8.63636E+00
 -1     21637 5.49595E+01 4.69398E+01 9.09091E+00
 -1     21638 5.03814E+01 5.03814E+01 9.09091E+00
 -1     21643 5.12652E+01 5.12652E+01 9.54545E+00
 -1     21647 4.26144E+01 5.86537E+01 4.54545E-01
 -1     21648 4.69398E+01 5.49595E+01 9.09091E-01
 -1     21649 4.18797E+01 5.76425E+01 9.09091E-01
 -1     21654 4.26144E+01 5.86537E+01 1.36364E+00
 -1     21655 4.69398E+01 5.49595E+01 1.81818E+00
 -1     21656 4.18797E+01 5.76425E+01 1.81818E+00
 -1     21661 4.26144E+01 5.86537E+01 2.27273E+00
 -1     21662 4.69398E+01 5.49595E+01 2.72727E+00
 -1     21663 4.18797E+01 5.76425E+01 2.72727E+00
 -1     21668 4.26144E+01 5.86537E+01 3.18182E+00
 -1     21669 4.69398E+01 5.49595E+01 3.63636E+00
 -1     21670 4.18797E+01 5.76425E+01 3.63636E+00
 -1     21675 4.26144E+01 5.86537E+01 4.09091E+00
 -1     21676 4.69398E+01 5.49595E+01 4.54545E+00
 -1     21677 4.18797E+01 5.76425E+01 4.54545E+00
 -1     21682 4.26144E+01 5.86537E+01 5.00000E+00
 -1     21683 4.69398E+01 5.49595E+01 5.45455E+00
 -1     21684 4.18797E+01 5.76425E+01 5.45455E+00
 -1     21689 4.26144E+01 5.86537E+01 5.90909E+00
 -1     21690 4.69398E+01 5.49595E+01 6.36364E+00
 -1     21691 4.18797E+01 5.76425E+01 6.36364E+00
 -1     21696 4.26144E+01 5.86537E+01 6.81818E+00
 -1     21697 4.69398E+01 5.49595E+01 7.27273E+00
 -1     21698 4.18797E+01 5.76425E+01 7.27273E+00
 -1     21703 4.26144E+01 5.86537E+01 7.72727E+00
 -1     21704 4.69398E+01 5.49595E+01 8.18182E+00
 -1     21705 4.18797E+01 5.76425E+01 8.18182E+00
 -1     21710 4.26144E+01 5.86537E+01 8.63636E+00
 -1     21711 4.69398E+01 5.49595E+01 9.09091E+00
 -1     21712 4.18797E+01 5.76425E+01 9.09091E+00
 -1     21717 4.26144E+01 5.86537E+01 9.54545E+00
 -1     21721 3.29143E+01 6.45980E+01 4.54545E-01
 -1     21722 3.77644E+01 6.16259E+01 9.09091E-01
 -1     21723 3.23468E+01 6.34842E+01 9.09091E-01
 -1     21728 3.29143E+01 6.45980E+01 1.36364E+00
 -1     21729 3.77644E+01 6.16259E+01 1.81818E+00
 -1     21730 3.23468E+01 6.34842E+01 1.81818E+00
 -1     21735 3.29143E+01 6.45980E+01 2.27273E+00
 -1     21736 3.77644E+01 6.16259E+01 2.72727E+00
 -1     21737 3.23468E+01 6.34842E+01 2.72727E+00
 -1     21742 3.29143E+01 6.45980E+01 3.18182E+00
 -1     21743 3.77644E+01 6.16259E+01 3.63636E+00
 -1     21744 3.23468E+01 6.34842E+01 3.63636E+00
 -1     21749 3.29143E+01 6.45980E+01 4.09091E+00
 -1     21750 3.77644E+01 6.16259E+01 4.54545E+00
 -1     21751 3.23468E+01 6.34842E+01 4.54545E+00
 -1     21756 3.29143E+01 6.45980E+01 5.00000E+00
 -1     21757 3.77644E+01 6.16259E+01 5.45455E+00
 -1     21758 3.23468E+01 6.34842E+01 5.45455E+00
 -1     21763 3.29143E+01 6.45980E+01 5.90909E+00
 -1     21764 3.77644E+01 6.16259E+01 6.36364E+00
 -1     21765 3.23468E+01 6.34842E+01 6.36364E+00
 -1     21770 3.29143E+01 6.45980E+01 6.81818E+00
 -1     21771 3.77644E+01 6.16259E+01 7.27273E+00
 -1     21772 3.23468E+01 6.34842E+01 7.27273E+00
 -1     21777 3.29143E+01 6.45980E+01 7.72727E+00
 -1     21778 3.77644E+01 6.16259E+01 8.18182E+00
 -1     21779 3.23468E+01 6.34842E+01 8.18182E+00
 -1     21784 3.29143E+01 6.45980E+01 8.63636E+00
 -1     21785 3.77644E+01 6.16259E+01 9.09091E+00
 -1     21786 3.23468E+01 6.34842E+01 9.09091E+00
 -1     21791 3.29143E+01 6.45980E+01 9.54545E+00
 -1     21795 2.24037E+01 6.89516E+01 4.54545E-01
 -1     21796 2.76590E+01 6.67748E+01 9.09091E-01
 -1     21797 2.20175E+01 6.77628E+01 9.09091E-01
 -1     21802 2.24037E+01 6.89516E+01 1.36364E+00
 -1     21803 2.76590E+01 6.67748E+01 1.81818E+00
 -1     21804 2.20175E+01 6.77628E+01 1.81818E+00
 -1     21809 2.24037E+01 6.89516E+01 2.27273E+00
 -1     21810 2.76590E+01 6.67748E+01 2.72727E+00
 -1     21811 2.20175E+01 6.77628E+01 2.72727E+00
 -1     21816 2.24037E+01 6.89516E+01 3.18182E+00
 -1     21817 2.76590E+01 6.67748E+01 3.63636E+00
 -1     21818 2.20175E+01 6.77628E+01 3.63636E+00
 -1     21823 2.24037E+01 6.89516E+01 4.09091E+00
 -1     21824 2.76590E+01 6.67748E+01 4.54545E+00
 -1     21825 2.20175E+01 6.77628E+01 4.54545E+00
 -1     21830 2.24037E+01 6.89516E+01 5.00000E+00
 -1     21831 2.76590E+01 6.67748E+01 5.45455E+00
 -1     21832 2.20175E+01 6.77628E+01 5.45455E+00
 -1     21837 2.24037E+01 6.89516E+01 5.90909E+00
 -1     21838 2.76590E+01 6.67748E+01 6.36364E+00
 -1     21839 2.20175E+01 6.77628E+01 6.36364E+00
 -1     21844 2.24037E+01 6.89516E+01 6.81818E+00
 -1     21845 2.76590E+01 6.67748E+01 7.27273E+00
 -1     21846 2.20175E+01 6.77628E+01 7.27273E+00
 -1     21851 2.24037E+01 6.89516E+01 7.72727E+00
 -1     21852 2.76590E+01 6.67748E+01 8.18182E+00
 -1     21853 2.20175E+01 6.77628E+01 8.18182E+00
 -1     21858 2.24037E+01 6.89516E+01 8.63636E+00
 -1     21859 2.76590E+01 6.67748E+01 9.09091E+00
 -1     21860 2.20175E+01 6.77628E+01 9.09091E+00
 -1     21865 2.24037E+01 6.89516E+01 9.54545E+00
 -1     21869 1.13415E+01 7.16074E+01 4.54545E-01
 -1     21870 1.68726E+01 7.02795E+01 9.09091E-01
 -1     21871 1.11460E+01 7.03728E+01 9.09091E-01
 -1     21876 1.13415E+01 7.16074E+01 1.36364E+00
 -1     21877 1.68726E+01 7.02795E+01 1.81818E+00
 -1     21878 1.11460E+01 7.03728E+01 1.81818E+00
 -1     21883 1.13415E+01 7.16074E+01 2.27273E+00
 -1     21884 1.68726E+01 7.02795E+01 2.72727E+00
 -1     21885 1.11460E+01 7.03728E+01 2.72727E+00
 -1     21890 1.13415E+01 7.16074E+01 3.18182E+00
 -1     21891 1.68726E+01 7.02795E+01 3.63636E+00
 -1     21892 1.11460E+01 7.03728E+01 3.63636E+00
 -1     21897 1.13415E+01 7.16074E+01 4.09091E+00
 -1     21898 1.68726E+01 7.02795E+01 4.54545E+00
 -1     21899 1.11460E+01 7.03728E+01 4.54545E+00
 -1     21904 1.13415E+01 7.16074E+01 5.00000E+00
 -1     21905 1.68726E+01 7.02795E+01 5.45455E+00
 -1     21906 1.11460E+01 7.03728E+01 5.45455E+00
 -1     21911 1.13415E+01 7.16074E+01 5.90909E+00
 -1     21912 1.68726E+01 7.02795E+01 6.36364E+00
 -1     21913 1.11460E+01 7.03728E+01 6.36364E+00
 -1     21918 1.13415E+01 7.16074E+01 6.81818E+00
 -1     21919 1.68726E+01 7.02795E+01 7.27273E+00
 -1     21920 1.11460E+01 7.03728E+01 7.27273E+00
 -1     21925 1.13415E+01 7.16074E+01 7.72727E+00
 -1     21926 1.68726E+01 7.02795E+01 8.18182E+00
 -1     21927 1.11460E+01 7.03728E+01 8.18182E+00
 -1     21932 1.13415E+01 7.16074E+01 8.63636E+00
 -1     21933 1.68726E+01 7.02795E+01 9.09091E+00
 -1     21934 1.11460E+01 7.03728E+01 9.09091E+00
 -1     21939 1.13415E+01 7.16074E+01 9.54545E+00
 -1     21943 5.67075E+00 7.20537E+01 9.09091E-01
 -1     21947 5.67075E+00 7.20537E+01 1.81818E+00
 -1     21951 5.67075E+00 7.20537E+01 2.72727E+00
 -1     21955 5.67075E+00 7.20537E+01 3.63636E+00
 -1     21959 5.67075E+00 7.20537E+01 4.54545E+00
 -1     21963 5.67075E+00 7.20537E+01 5.45455E+00
 -1     21967 5.67075E+00 7.20537E+01 6.36364E+00
 -1     21971 5.67075E+00 7.20537E+01 7.27273E+00
 -1     21975 5.67075E+00 7.20537E+01 8.18182E+00
 -1     21979 5.67075E+00 7.20537E+01 9.09091E+00
 -1     21985 7.40766E+01 1.17326E+01 4.54545E-01
 -1     21986 7.45383E+01 5.86629E+00 9.09091E-01
 -1     21987 7.28420E+01 1.15370E+01 9.09091E-01
 -1     21992 7.40766E+01 1.17326E+01 1.36364E+00
 -1     21993 7.45383E+01 5.86629E+00 1.81818E+00
 -1     21994 7.28420E+01 1.15370E+01 1.81818E+00
 -1     21999 7.40766E+01 1.17326E+01 2.27273E+00
 -1     22000 7.45383E+01 5.86629E+00 2.72727E+00
 -1     22001 7.28420E+01 1.15370E+01 2.72727E+00
 -1     22006 7.40766E+01 1.17326E+01 3.18182E+00
 -1     22007 7.45383E+01 5.86629E+00 3.63636E+00
 -1     22008 7.28420E+01 1.15370E+01 3.63636E+00
 -1     22013 7.40766E+01 1.17326E+01 4.09091E+00
 -1     22014 7.45383E+01 5.86629E+00 4.54545E+00
 -1     22015 7.28420E+01 1.15370E+01 4.54545E+00
 -1     22020 7.40766E+01 1.17326E+01 5.00000E+00
 -1     22021 7.45383E+01 5.86629E+00 5.45455E+00
 -1     22022 7.28420E+01 1.15370E+01 5.45455E+00
 -1     22027 7.40766E+01 1.17326E+01 5.90909E+00
 -1     22028 7.45383E+01 5.86629E+00 6.36364E+00
 -1     22029 7.28420E+01 1.15370E+01 6.36364E+00
 -1     22034 7.40766E+01 1.17326E+01 6.81818E+00
 -1     22035 7.45383E+01 5.86629E+00 7.27273E+00
 -1     22036 7.28420E+01 1.15370E+01 7.27273E+00
 -1     22041 7.40766E+01 1.17326E+01 7.72727E+00
 -1     22042 7.45383E+01 5.86629E+00 8.18182E+00
 -1     22043 7.28420E+01 1.15370E+01 8.18182E+00
 -1     22048 7.40766E+01 1.17326E+01 8.63636E+00
 -1     22049 7.45383E+01 5.86629E+00 9.09091E+00
 -1     22050 7.28420E+01 1.15370E+01 9.09091E+00
 -1     22055 7.40766E+01 1.17326E+01 9.54545E+00
 -1     22059 7.13292E+01 2.31763E+01 4.54545E-01
 -1     22060 7.27029E+01 1.74544E+01 9.09091E-01
 -1     22061 7.01404E+01 2.27900E+01 9.09091E-01
 -1     22066 7.13292E+01 2.31763E+01 1.36364E+00
 -1     22067 7.27029E+01 1.74544E+01 1.81818E+00
 -1     22068 7.01404E+01 2.27900E+01 1.81818E+00
 -1     22073 7.13292E+01 2.31763E+01 2.27273E+00
 -1     22074 7.27029E+01 1.74544E+01 2.72727E+00
 -1     22075 7.01404E+01 2.27900E+01 2.72727E+00
 -1     22080 7.13292E+01 2.31763E+01 3.18182E+00
 -1     22081 7.27029E+01 1.74544E+01 3.63636E+00
 -1     22082 7.01404E+01 2.27900E+01 3.63636E+00
 -1     22087 7.13292E+01 2.31763E+01 4.09091E+00
 -1     22088 7.27029E+01 1.74544E+01 4.54545E+00
 -1     22089 7.01404E+01 2.27900E+01 4.54545E+00
 -1     22094 7.13292E+01 2.31763E+01 5.00000E+00
 -1     22095 7.27029E+01 1.74544E+01 5.45455E+00
 -1     22096 7.01404E+01 2.27900E+01 5.45455E+00
 -1     22101 7.13292E+01 2.31763E+01 5.90909E+00
 -1     22102 7.27029E+01 1.74544E+01 6.36364E+00
 -1     22103 7.01404E+01 2.27900E+01 6.36364E+00
 -1     22108 7.13292E+01 2.31763E+01 6.81818E+00
 -1     22109 7.27029E+01 1.74544E+01 7.27273E+00
 -1     22110 7.01404E+01 2.27900E+01 7.27273E+00
 -1     22115 7.13292E+01 2.31763E+01 7.72727E+00
 -1     22116 7.27029E+01 1.74544E+01 8.18182E+00
 -1     22117 7.01404E+01 2.27900E+01 8.18182E+00
 -1     22122 7.13292E+01 2.31763E+01 8.63636E+00
 -1     22123 7.27029E+01 1.74544E+01 9.09091E+00
 -1     22124 7.01404E+01 2.27900E+01 9.09091E+00
 -1     22129 7.13292E+01 2.31763E+01 9.54545E+00
 -1     22133 6.68255E+01 3.40493E+01 4.54545E-01
 -1     22134 6.90774E+01 2.86128E+01 9.09091E-01
 -1     22135 6.57117E+01 3.34818E+01 9.09091E-01
 -1     22140 6.68255E+01 3.40493E+01 1.36364E+00
 -1     22141 6.90774E+01 2.86128E+01 1.81818E+00
 -1     22142 6.57117E+01 3.34818E+01 1.81818E+00
 -1     22147 6.68255E+01 3.40493E+01 2.27273E+00
 -1     22148 6.90774E+01 2.86128E+01 2.72727E+00
 -1     22149 6.57117E+01 3.34818E+01 2.72727E+00
 -1     22154 6.68255E+01 3.40493E+01 3.18182E+00
 -1     22155 6.90774E+01 2.86128E+01 3.63636E+00
 -1     22156 6.57117E+01 3.34818E+01 3.63636E+00
 -1     22161 6.68255E+01 3.40493E+01 4.09091E+00
 -1     22162 6.90774E+01 2.86128E+01 4.54545E+00
 -1     22163 6.57117E+01 3.34818E+01 4.54545E+00
 -1     22168 6.68255E+01 3.40493E+01 5.00000E+00
 -1     22169 6.90774E+01 2.86128E+01 5.45455E+00
 -1     22170 6.57117E+01 3.34818E+01 5.45455E+00
 -1     22175 6.68255E+01 3.40493E+01 5.90909E+00
 -1     22176 6.90774E+01 2.86128E+01 6.36364E+00
 -1     22177 6.57117E+01 3.34818E+01 6.36364E+00
 -1     22182 6.68255E+01 3.40493E+01 6.81818E+00
 -1     22183 6.90774E+01 2.86128E+01 7.27273E+00
 -1     22184 6.57117E+01 3.34818E+01 7.27273E+00
 -1     22189 6.68255E+01 3.40493E+01 7.72727E+00
 -1     22190 6.90774E+01 2.86128E+01 8.18182E+00
 -1     22191 6.57117E+01 3.34818E+01 8.18182E+00
 -1     22196 6.68255E+01 3.40493E+01 8.63636E+00
 -1     22197 6.90774E+01 2.86128E+01 9.09091E+00
 -1     22198 6.57117E+01 3.34818E+01 9.09091E+00
 -1     22203 6.68255E+01 3.40493E+01 9.54545E+00
 -1     22207 6.06763E+01 4.40839E+01 4.54545E-01
 -1     22208 6.37509E+01 3.90666E+01 9.09091E-01
 -1     22209 5.96650E+01 4.33492E+01 9.09091E-01
 -1     22214 6.06763E+01 4.40839E+01 1.36364E+00
 -1     22215 6.37509E+01 3.90666E+01 1.81818E+00
 -1     22216 5.96650E+01 4.33492E+01 1.81818E+00
 -1     22221 6.06763E+01 4.40839E+01 2.27273E+00
 -1     22222 6.37509E+01 3.90666E+01 2.72727E+00
 -1     22223 5.96650E+01 4.33492E+01 2.72727E+00
 -1     22228 6.06763E+01 4.40839E+01 3.18182E+00
 -1     22229 6.37509E+01 3.90666E+01 3.63636E+00
 -1     22230 5.96650E+01 4.33492E+01 3.63636E+00
 -1     22235 6.06763E+01 4.40839E+01 4.09091E+00
 -1     22236 6.37509E+01 3.90666E+01 4.54545E+00
 -1     22237 5.96650E+01 4.33492E+01 4.54545E+00
 -1     22242 6.06763E+01 4.40839E+01 5.00000E+00
 -1     22243 6.37509E+01 3.90666E+01 5.45455E+00
 -1     22244 5.96650E+01 4.33492E+01 5.45455E+00
 -1     22249 6.06763E+01 4.40839E+01 5.90909E+00
 -1     22250 6.37509E+01 3.90666E+01 6.36364E+00
 -1     22251 5.96650E+01 4.33492E+01 6.36364E+00
 -1     22256 6.06763E+01 4.40839E+01 6.81818E+00
 -1     22257 6.37509E+01 3.90666E+01 7.27273E+00
 -1     22258 5.96650E+01 4.33492E+01 7.27273E+00
 -1     22263 6.06763E+01 4.40839E+01 7.72727E+00
 -1     22264 6.37509E+01 3.90666E+01 8.18182E+00
 -1     22265 5.96650E+01 4.33492E+01 8.18182E+00
 -1     22270 6.06763E+01 4.40839E+01 8.63636E+00
 -1     22271 6.37509E+01 3.90666E+01 9.09091E+00
 -1     22272 5.96650E+01 4.33492E+01 9.09091E+00
 -1     22277 6.06763E+01 4.40839E+01 9.54545E+00
 -1     22281 5.30330E+01 5.30330E+01 4.54545E-01
 -1     22282 5.68546E+01 4.85585E+01 9.09091E-01
 -1     22283 5.21491E+01 5.21491E+01 9.09091E-01
 -1     22288 5.30330E+01 5.30330E+01 1.36364E+00
 -1     22289 5.68546E+01 4.85585E+01 1.81818E+00
 -1     22290 5.21491E+01 5.21491E+01 1.81818E+00
 -1     22295 5.30330E+01 5.30330E+01 2.27273E+00
 -1     22296 5.68546E+01 4.85585E+01 2.72727E+00
 -1     22297 5.21491E+01 5.21491E+01 2.72727E+00
 -1     22302 5.30330E+01 5.30330E+01 3.18182E+00
 -1     22303 5.68546E+01 4.85585E+01 3.63636E+00
 -1     22304 5.21491E+01 5.21491E+01 3.63636E+00
 -1     22309 5.30330E+01 5.30330E+01 4.09091E+00
 -1     22310 5.68546E+01 4.85585E+01 4.54545E+00
 -1     22311 5.21491E+01 5.21491E+01 4.54545E+00
 -1     22316 5.30330E+01 5.30330E+01 5.00000E+00
 -1     22317 5.68546E+01 4.85585E+01 5.45455E+00
 -1     22318 5.21491E+01 5.21491E+01 5.45455E+00
 -1     22323 5.30330E+01 5.30330E+01 5.90909E+00
 -1     22324 5.68546E+01 4.85585E+01 6.36364E+00
 -1     22325 5.21491E+01 5.21491E+01 6.36364E+00
 -1     22330 5.30330E+01 5.30330E+01 6.81818E+00
 -1     22331 5.68546E+01 4.85585E+01 7.27273E+00
 -1     22332 5.21491E+01 5.21491E+01 7.27273E+00
 -1     22337 5.30330E+01 5.30330E+01 7.72727E+00
 -1     22338 5.68546E+01 4.85585E+01 8.18182E+00
 -1     22339 5.21491E+01 5.21491E+01 8.18182E+00
 -1     22344 5.30330E+01 5.30330E+01 8.63636E+00
 -1     22345 5.68546E+01 4.85585E+01 9.09091E+00
 -1     22346 5.21491E+01 5.21491E+01 9.09091E+00
 -1     22351 5.30330E+01 5.30330E+01 9.54545E+00
 -1     22355 4.40839E+01 6.06763E+01 4.54545E-01
 -1     22356 4.85585E+01 5.68546E+01 9.09091E-01
 -1     22357 4.33492E+01 5.96650E+01 9.09091E-01
 -1     22362 4.40839E+01 6.06763E+01 1.36364E+00
 -1     22363 4.85585E+01 5.68546E+01 1.81818E+00
 -1     22364 4.33492E+01 5.96650E+01 1.81818E+00
 -1     22369 4.40839E+01 6.06763E+01 2.27273E+00
 -1     22370 4.85585E+01 5.68546E+01 2.72727E+00
 -1     22371 4.33492E+01 5.96650E+01 2.72727E+00
 -1     22376 4.40839E+01 6.06763E+01 3.18182E+00
 -1     22377 4.85585E+01 5.68546E+01 3.63636E+00
 -1     22378 4.33492E+01 5.96650E+01 3.63636E+00
 -1     22383 4.40839E+01 6.06763E+01 4.09091E+00
 -1     22384 4.85585E+01 5.68546E+01 4.54545E+00
 -1     22385 4.33492E+01 5.96650E+01 4.54545E+00
 -1     22390 4.40839E+01 6.06763E+01 5.00000E+00
 -1     22391 4.85585E+01 5.68546E+01 5.45455E+00
 -1     22392 4.33492E+01 5.96650E+01 5.45455E+00
 -1     22397 4.40839E+01 6.06763E+01 5.90909E+00
 -1     22398 4.85585E+01 5.68546E+01 6.36364E+00
 -1     22399 4.33492E+01 5.96650E+01 6.36364E+00
 -1     22404 4.40839E+01 6.06763E+01 6.81818E+00
 -1     22405 4.85585E+01 5.68546E+01 7.27273E+00
 -1     22406 4.33492E+01 5.96650E+01 7.27273E+00
 -1     22411 4.40839E+01 6.06763E+01 7.72727E+00
 -1     22412 4.85585E+01 5.68546E+01 8.18182E+00
 -1     22413 4.33492E+01 5.96650E+01 8.18182E+00
 -1     22418 4.40839E+01 6.06763E+01 8.63636E+00
 -1     22419 4.85585E+01 5.68546E+01 9.09091E+00
 -1     22420 4.33492E+01 5.96650E+01 9.09091E+00
 -1     22425 4.40839E+01 6.06763E+01 9.54545E+00
 -1     22429 3.40493E+01 6.68255E+01 4.54545E-01
 -1     22430 3.90666E+01 6.37509E+01 9.09091E-01
 -1     22431 3.34818E+01 6.57117E+01 9.09091E-01
 -1     22436 3.40493E+01 6.68255E+01 1.36364E+00
 -1     22437 3.90666E+01 6.37509E+01 1.81818E+00
 -1     22438 3.34818E+01 6.57117E+01 1.81818E+00
 -1     22443 3.40493E+01 6.68255E+01 2.27273E+00
 -1     22444 3.90666E+01 6.37509E+01 2.72727E+00
 -1     22445 3.34818E+01 6.57117E+01 2.72727E+00
 -1     22450 3.40493E+01 6.68255E+01 3.18182E+00
 -1     22451 3.90666E+01 6.37509E+01 3.63636E+00
 -1     22452 3.34818E+01 6.57117E+01 3.63636E+00
 -1     22457 3.40493E+01 6.68255E+01 4.09091E+00
 -1     22458 3.90666E+01 6.37509E+01 4.54545E+00
 -1     22459 3.34818E+01 6.57117E+01 4.54545E+00
 -1     22464 3.40493E+01 6.68255E+01 5.00000E+00
 -1     22465 3.90666E+01 6.37509E+01 5.45455E+00
 -1     22466 3.34818E+01 6.57117E+01 5.45455E+00
 -1     22471 3.40493E+01 6.68255E+01 5.90909E+00
 -1     22472 3.90666E+01 6.37509E+01 6.36364E+00
 -1     22473 3.34818E+01 6.57117E+01 6.36364E+00
 -1     22478 3.40493E+01 6.68255E+01 6.81818E+00
 -1     22479 3.90666E+01 6.37509E+01 7.27273E+00
 -1     22480 3.34818E+01 6.57117E+01 7.27273E+00
 -1     22485 3.40493E+01 6.68255E+01 7.72727E+00
 -1     22486 3.90666E+01 6.37509E+01 8.18182E+00
 -1     22487 3.34818E+01 6.57117E+01 8.18182E+00
 -1     22492 3.40493E+01 6.68255E+01 8.63636E+00
 -1     22493 3.90666E+01 6.37509E+01 9.09091E+00
 -1     22494 3.34818E+01 6.57117E+01 9.09091E+00
 -1     22499 3.40493E+01 6.68255E+01 9.54545E+00
 -1     22503 2.31763E+01 7.13292E+01 4.54545E-01
 -1     22504 2.86128E+01 6.90774E+01 9.09091E-01
 -1     22505 2.27900E+01 7.01404E+01 9.09091E-01
 -1     22510 2.31763E+01 7.13292E+01 1.36364E+00
 -1     22511 2.86128E+01 6.90774E+01 1.81818E+00
 -1     22512 2.27900E+01 7.01404E+01 1.81818E+00
 -1     22517 2.31763E+01 7.13292E+01 2.27273E+00
 -1     22518 2.86128E+01 6.90774E+01 2.72727E+00
 -1     22519 2.27900E+01 7.01404E+01 2.72727E+00
 -1     22524 2.31763E+01 7.13292E+01 3.18182E+00
 -1     22525 2.86128E+01 6.90774E+01 3.63636E+00
 -1     22526 2.27900E+01 7.01404E+01 3.63636E+00
 -1     22531 2.31763E+01 7.13292E+01 4.09091E+00
 -1     22532 2.86128E+01 6.90774E+01 4.54545E+00
 -1     22533 2.27900E+01 7.01404E+01 4.54545E+00
 -1     22538 2.31763E+01 7.13292E+01 5.00000E+00
 -1     22539 2.86128E+01 6.90774E+01 5.45455E+00
 -1     22540 2.27900E+01 7.01404E+01 5.45455E+00
 -1     22545 2.31763E+01 7.13292E+01 5.90909E+00
 -1     22546 2.86128E+01 6.90774E+01 6.36364E+00
 -1     22547 2.27900E+01 7.01404E+01 6.36364E+00
 -1     22552 2.31763E+01 7.13292E+01 6.81818E+00
 -1     22553 2.86128E+01 6.90774E+01 7.27273E+00
 -1     22554 2.27900E+01 7.01404E+01 7.27273E+00
 -1     22559 2.31763E+01 7.13292E+01 7.72727E+00
 -1     22560 2.86128E+01 6.90774E+01 8.18182E+00
 -1     22561 2.27900E+01 7.01404E+01 8.18182E+00
 -1     22566 2.31763E+01 7.13292E+01 8.63636E+00
 -1     22567 2.86128E+01 6.90774E+01 9.09091E+00
 -1     22568 2.27900E+01 7.01404E+01 9.09091E+00
 -1     22573 2.31763E+01 7.13292E+01 9.54545E+00
 -1     22577 1.17326E+01 7.40766E+01 4.54545E-01
 -1     22578 1.74544E+01 7.27029E+01 9.09091E-01
 -1     22579 1.15370E+01 7.28420E+01 9.09091E-01
 -1     22584 1.17326E+01 7.40766E+01 1.36364E+00
 -1     22585 1.74544E+01 7.27029E+01 1.81818E+00
 -1     22586 1.15370E+01 7.28420E+01 1.81818E+00
 -1     22591 1.17326E+01 7.40766E+01 2.27273E+00
 -1     22592 1.74544E+01 7.27029E+01 2.72727E+00
 -1     22593 1.15370E+01 7.28420E+01 2.72727E+00
 -1     22598 1.17326E+01 7.40766E+01 3.18182E+00
 -1     22599 1.74544E+01 7.27029E+01 3.63636E+00
 -1     22600 1.15370E+01 7.28420E+01 3.63636E+00
 -1     22605 1.17326E+01 7.40766E+01 4.09091E+00
 -1     22606 1.74544E+01 7.27029E+01 4.54545E+00
 -1     22607 1.15370E+01 7.28420E+01 4.54545E+00
 -1     22612 1.17326E+01 7.40766E+01 5.00000E+00
 -1     22613 1.74544E+01 7.27029E+01 5.45455E+00
 -1     22614 1.15370E+01 7.28420E+01 5.45455E+00
 -1     22619 1.17326E+01 7.40766E+01 5.90909E+00
 -1     22620 1.74544E+01 7.27029E+01 6.36364E+00
 -1     22621 1.15370E+01 7.28420E+01 6.36364E+00
 -1     22626 1.17326E+01 7.40766E+01 6.81818E+00
 -1     22627 1.74544E+01 7.27029E+01 7.27273E+00
 -1     22628 1.15370E+01 7.28420E+01 7.27273E+00
 -1     22633 1.17326E+01 7.40766E+01 7.72727E+00
 -1     22634 1.74544E+01 7.27029E+01 8.18182E+00
 -1     22635 1.15370E+01 7.28420E+01 8.18182E+00
 -1     22640 1.17326E+01 7.40766E+01 8.63636E+00
 -1     22641 1.74544E+01 7.27029E+01 9.09091E+00
 -1     22642 1.15370E+01 7.28420E+01 9.09091E+00
 -1     22647 1.17326E+01 7.40766E+01 9.54545E+00
 -1     22651 5.86629E+00 7.45383E+01 9.09091E-01
 -1     22655 5.86629E+00 7.45383E+01 1.81818E+00
 -1     22659 5.86629E+00 7.45383E+01 2.72727E+00
 -1     22663 5.86629E+00 7.45383E+01 3.63636E+00
 -1     22667 5.86629E+00 7.45383E+01 4.54545E+00
 -1     22671 5.86629E+00 7.45383E+01 5.45455E+00
 -1     22675 5.86629E+00 7.45383E+01 6.36364E+00
 -1     22679 5.86629E+00 7.45383E+01 7.27273E+00
 -1     22683 5.86629E+00 7.45383E+01 8.18182E+00
 -1     22687 5.86629E+00 7.45383E+01 9.09091E+00
 -1     22693 7.65458E+01 1.21237E+01 4.54545E-01
 -1     22694 7.70229E+01 6.06184E+00 9.09091E-01
 -1     22695 7.53112E+01 1.19281E+01 9.09091E-01
 -1     22700 7.65458E+01 1.21237E+01 1.36364E+00
 -1     22701 7.70229E+01 6.06184E+00 1.81818E+00
 -1     22702 7.53112E+01 1.19281E+01 1.81818E+00
 -1     22707 7.65458E+01 1.21237E+01 2.27273E+00
 -1     22708 7.70229E+01 6.06184E+00 2.72727E+00
 -1     22709 7.53112E+01 1.19281E+01 2.72727E+00
 -1     22714 7.65458E+01 1.21237E+01 3.18182E+00
 -1     22715 7.70229E+01 6.06184E+00 3.63636E+00
 -1     22716 7.53112E+01 1.19281E+01 3.63636E+00
 -1     22721 7.65458E+01 1.21237E+01 4.09091E+00
 -1     22722 7.70229E+01 6.06184E+00 4.54545E+00
 -1     22723 7.53112E+01 1.19281E+01 4.54545E+00
 -1     22728 7.65458E+01 1.21237E+01 5.00000E+00
 -1     22729 7.70229E+01 6.06184E+00 5.45455E+00
 -1     22730 7.53112E+01 1.19281E+01 5.45455E+00
 -1     22735 7.65458E+01 1.21237E+01 5.90909E+00
 -1     22736 7.70229E+01 6.06184E+00 6.36364E+00
 -1     22737 7.53112E+01 1.19281E+01 6.36364E+00
 -1     22742 7.65458E+01 1.21237E+01 6.81818E+00
 -1     22743 7.70229E+01 6.06184E+00 7.27273E+00
 -1     22744 7.53112E+01 1.19281E+01 7.27273E+00
 -1     22749 7.65458E+01 1.21237E+01 7.72727E+00
 -1     22750 7.70229E+01 6.06184E+00 8.18182E+00
 -1     22751 7.53112E+01 1.19281E+01 8.18182E+00
 -1     22756 7.65458E+01 1.21237E+01 8.63636E+00
 -1     22757 7.70229E+01 6.06184E+00 9.09091E+00
 -1     22758 7.53112E+01 1.19281E+01 9.09091E+00
 -1     22763 7.65458E+01 1.21237E+01 9.54545E+00
 -1     22767 7.37069E+01 2.39488E+01 4.54545E-01
 -1     22768 7.51264E+01 1.80362E+01 9.09091E-01
 -1     22769 7.25181E+01 2.35625E+01 9.09091E-01
 -1     22774 7.37069E+01 2.39488E+01 1.36364E+00
 -1     22775 7.51264E+01 1.80362E+01 1.81818E+00
 -1     22776 7.25181E+01 2.35625E+01 1.81818E+00
 -1     22781 7.37069E+01 2.39488E+01 2.27273E+00
 -1     22782 7.51264E+01 1.80362E+01 2.72727E+00
 -1     22783 7.25181E+01 2.35625E+01 2.72727E+00
 -1     22788 7.37069E+01 2.39488E+01 3.18182E+00
 -1     22789 7.51264E+01 1.80362E+01 3.63636E+00
 -1     22790 7.25181E+01 2.35625E+01 3.63636E+00
 -1     22795 7.37069E+01 2.39488E+01 4.09091E+00
 -1     22796 7.51264E+01 1.80362E+01 4.54545E+00
 -1     22797 7.25181E+01 2.35625E+01 4.54545E+00
 -1     22802 7.37069E+01 2.39488E+01 5.00000E+00
 -1     22803 7.51264E+01 1.80362E+01 5.45455E+00
 -1     22804 7.25181E+01 2.35625E+01 5.45455E+00
 -1     22809 7.37069E+01 2.39488E+01 5.90909E+00
 -1     22810 7.51264E+01 1.80362E+01 6.36364E+00
 -1     22811 7.25181E+01 2.35625E+01 6.36364E+00
 -1     22816 7.37069E+01 2.39488E+01 6.81818E+00
 -1     22817 7.51264E+01 1.80362E+01 7.27273E+00
 -1     22818 7.25181E+01 2.35625E+01 7.27273E+00
 -1     22823 7.37069E+01 2.39488E+01 7.72727E+00
 -1     22824 7.51264E+01 1.80362E+01 8.18182E+00
 -1     22825 7.25181E+01 2.35625E+01 8.18182E+00
 -1     22830 7.37069E+01 2.39488E+01 8.63636E+00
 -1     22831 7.51264E+01 1.80362E+01 9.09091E+00
 -1     22832 7.25181E+01 2.35625E+01 9.09091E+00
 -1     22837 7.37069E+01 2.39488E+01 9.54545E+00
 -1     22841 6.90530E+01 3.51843E+01 4.54545E-01
 -1     22842 7.13799E+01 2.95665E+01 9.09091E-01
 -1     22843 6.79392E+01 3.46168E+01 9.09091E-01
 -1     22848 6.90530E+01 3.51843E+01 1.36364E+00
 -1     22849 7.13799E+01 2.95665E+01 1.81818E+00
 -1     22850 6.79392E+01 3.46168E+01 1.81818E+00
 -1     22855 6.90530E+01 3.51843E+01 2.27273E+00
 -1     22856 7.13799E+01 2.95665E+01 2.72727E+00
 -1     22857 6.79392E+01 3.46168E+01 2.72727E+00
 -1     22862 6.90530E+01 3.51843E+01 3.18182E+00
 -1     22863 7.13799E+01 2.95665E+01 3.63636E+00
 -1     22864 6.79392E+01 3.46168E+01 3.63636E+00
 -1     22869 6.90530E+01 3.51843E+01 4.09091E+00
 -1     22870 7.13799E+01 2.95665E+01 4.54545E+00
 -1     22871 6.79392E+01 3.46168E+01 4.54545E+00
 -1     22876 6.90530E+01 3.51843E+01 5.00000E+00
 -1     22877 7.13799E+01 2.95665E+01 5.45455E+00
 -1     22878 6.79392E+01 3.46168E+01 5.45455E+00
 -1     22883 6.90530E+01 3.51843E+01 5.90909E+00
 -1     22884 7.13799E+01 2.95665E+01 6.36364E+00
 -1     22885 6.79392E+01 3.46168E+01 6.36364E+00
 -1     22890 6.90530E+01 3.51843E+01 6.81818E+00
 -1     22891 7.13799E+01 2.95665E+01 7.27273E+00
 -1     22892 6.79392E+01 3.46168E+01 7.27273E+00
 -1     22897 6.90530E+01 3.51843E+01 7.72727E+00
 -1     22898 7.13799E+01 2.95665E+01 8.18182E+00
 -1     22899 6.79392E+01 3.46168E+01 8.18182E+00
 -1     22904 6.90530E+01 3.51843E+01 8.63636E+00
 -1     22905 7.13799E+01 2.95665E+01 9.09091E+00
 -1     22906 6.79392E+01 3.46168E+01 9.09091E+00
 -1     22911 6.90530E+01 3.51843E+01 9.54545E+00
 -1     22915 6.26988E+01 4.55534E+01 4.54545E-01
 -1     22916 6.58759E+01 4.03688E+01 9.09091E-01
 -1     22917 6.16875E+01 4.48186E+01 9.09091E-01
 -1     22922 6.26988E+01 4.55534E+01 1.36364E+00
 -1     22923 6.58759E+01 4.03688E+01 1.81818E+00
 -1     22924 6.16875E+01 4.48186E+01 1.81818E+00
 -1     22929 6.26988E+01 4.55534E+01 2.27273E+00
 -1     22930 6.58759E+01 4.03688E+01 2.72727E+00
 -1     22931 6.16875E+01 4.48186E+01 2.72727E+00
 -1     22936 6.26988E+01 4.55534E+01 3.18182E+00
 -1     22937 6.58759E+01 4.03688E+01 3.63636E+00
 -1     22938 6.16875E+01 4.48186E+01 3.63636E+00
 -1     22943 6.26988E+01 4.55534E+01 4.09091E+00
 -1     22944 6.58759E+01 4.03688E+01 4.54545E+00
 -1     22945 6.16875E+01 4.48186E+01 4.54545E+00
 -1     22950 6.26988E+01 4.55534E+01 5.00000E+00
 -1     22951 6.58759E+01 4.03688E+01 5.45455E+00
 -1     22952 6.16875E+01 4.48186E+01 5.45455E+00
 -1     22957 6.26988E+01 4.55534E+01 5.90909E+00
 -1     22958 6.58759E+01 4.03688E+01 6.36364E+00
 -1     22959 6.16875E+01 4.48186E+01 6.36364E+00
 -1     22964 6.26988E+01 4.55534E+01 6.81818E+00
 -1     22965 6.58759E+01 4.03688E+01 7.27273E+00
 -1     22966 6.16875E+01 4.48186E+01 7.27273E+00
 -1     22971 6.26988E+01 4.55534E+01 7.72727E+00
 -1     22972 6.58759E+01 4.03688E+01 8.18182E+00
 -1     22973 6.16875E+01 4.48186E+01 8.18182E+00
 -1     22978 6.26988E+01 4.55534E+01 8.63636E+00
 -1     22979 6.58759E+01 4.03688E+01 9.09091E+00
 -1     22980 6.16875E+01 4.48186E+01 9.09091E+00
 -1     22985 6.26988E+01 4.55534E+01 9.54545E+00
 -1     22989 5.48008E+01 5.48008E+01 4.54545E-01
 -1     22990 5.87498E+01 5.01771E+01 9.09091E-01
 -1     22991 5.39169E+01 5.39169E+01 9.09091E-01
 -1     22996 5.48008E+01 5.48008E+01 1.36364E+00
 -1     22997 5.87498E+01 5.01771E+01 1.81818E+00
 -1     22998 5.39169E+01 5.39169E+01 1.81818E+00
 -1     23003 5.48008E+01 5.48008E+01 2.27273E+00
 -1     23004 5.87498E+01 5.01771E+01 2.72727E+00
 -1     23005 5.39169E+01 5.39169E+01 2.72727E+00
 -1     23010 5.48008E+01 5.48008E+01 3.18182E+00
 -1     23011 5.87498E+01 5.01771E+01 3.63636E+00
 -1     23012 5.39169E+01 5.39169E+01 3.63636E+00
 -1     23017 5.48008E+01 5.48008E+01 4.09091E+00
 -1     23018 5.87498E+01 5.01771E+01 4.54545E+00
 -1     23019 5.39169E+01 5.39169E+01 4.54545E+00
 -1     23024 5.48008E+01 5.48008E+01 5.00000E+00
 -1     23025 5.87498E+01 5.01771E+01 5.45455E+00
 -1     23026 5.39169E+01 5.39169E+01 5.45455E+00
 -1     23031 5.48008E+01 5.48008E+01 5.90909E+00
 -1     23032 5.87498E+01 5.01771E+01 6.36364E+00
 -1     23033 5.39169E+01 5.39169E+01 6.36364E+00
 -1     23038 5.48008E+01 5.48008E+01 6.81818E+00
 -1     23039 5.87498E+01 5.01771E+01 7.27273E+00
 -1     23040 5.39169E+01 5.39169E+01 7.27273E+00
 -1     23045 5.48008E+01 5.48008E+01 7.72727E+00
 -1     23046 5.87498E+01 5.01771E+01 8.18182E+00
 -1     23047 5.39169E+01 5.39169E+01 8.18182E+00
 -1     23052 5.48008E+01 5.48008E+01 8.63636E+00
 -1     23053 5.87498E+01 5.01771E+01 9.09091E+00
 -1     23054 5.39169E+01 5.39169E+01 9.09091E+00
 -1     23059 5.48008E+01 5.48008E+01 9.54545E+00
 -1     23063 4.55534E+01 6.26988E+01 4.54545E-01
 -1     23064 5.01771E+01 5.87498E+01 9.09091E-01
 -1     23065 4.48186E+01 6.16875E+01 9.09091E-01
 -1     23070 4.55534E+01 6.26988E+01 1.36364E+00
 -1     23071 5.01771E+01 5.87498E+01 1.81818E+00
 -1     23072 4.48186E+01 6.16875E+01 1.81818E+00
 -1     23077 4.55534E+01 6.26988E+01 2.27273E+00
 -1     23078 5.01771E+01 5.87498E+01 2.72727E+00
 -1     23079 4.48186E+01 6.16875E+01 2.72727E+00
 -1     23084 4.55534E+01 6.26988E+01 3.18182E+00
 -1     23085 5.01771E+01 5.87498E+01 3.63636E+00
 -1     23086 4.48186E+01 6.16875E+01 3.63636E+00
 -1     23091 4.55534E+01 6.26988E+01 4.09091E+00
 -1     23092 5.01771E+01 5.87498E+01 4.54545E+00
 -1     23093 4.48186E+01 6.16875E+01 4.54545E+00
 -1     23098 4.55534E+01 6.26988E+01 5.00000E+00
 -1     23099 5.01771E+01 5.87498E+01 5.45455E+00
 -1     23100 4.48186E+01 6.16875E+01 5.45455E+00
 -1     23105 4.55534E+01 6.26988E+01 5.90909E+00
 -1     23106 5.01771E+01 5.87498E+01 6.36364E+00
 -1     23107 4.48186E+01 6.16875E+01 6.36364E+00
 -1     23112 4.55534E+01 6.26988E+01 6.81818E+00
 -1     23113 5.01771E+01 5.87498E+01 7.27273E+00
 -1     23114 4.48186E+01 6.16875E+01 7.27273E+00
 -1     23119 4.55534E+01 6.26988E+01 7.72727E+00
 -1     23120 5.01771E+01 5.87498E+01 8.18182E+00
 -1     23121 4.48186E+01 6.16875E+01 8.18182E+00
 -1     23126 4.55534E+01 6.26988E+01 8.63636E+00
 -1     23127 5.01771E+01 5.87498E+01 9.09091E+00
 -1     23128 4.48186E+01 6.16875E+01 9.09091E+00
 -1     23133 4.55534E+01 6.26988E+01 9.54545E+00
 -1     23137 3.51843E+01 6.90530E+01 4.54545E-01
 -1     23138 4.03688E+01 6.58759E+01 9.09091E-01
 -1     23139 3.46168E+01 6.79392E+01 9.09091E-01
 -1     23144 3.51843E+01 6.90530E+01 1.36364E+00
 -1     23145 4.03688E+01 6.58759E+01 1.81818E+00
 -1     23146 3.46168E+01 6.79392E+01 1.81818E+00
 -1     23151 3.51843E+01 6.90530E+01 2.27273E+00
 -1     23152 4.03688E+01 6.58759E+01 2.72727E+00
 -1     23153 3.46168E+01 6.79392E+01 2.72727E+00
 -1     23158 3.51843E+01 6.90530E+01 3.18182E+00
 -1     23159 4.03688E+01 6.58759E+01 3.63636E+00
 -1     23160 3.46168E+01 6.79392E+01 3.63636E+00
 -1     23165 3.51843E+01 6.90530E+01 4.09091E+00
 -1     23166 4.03688E+01 6.58759E+01 4.54545E+00
 -1     23167 3.46168E+01 6.79392E+01 4.54545E+00
 -1     23172 3.51843E+01 6.90530E+01 5.00000E+00
 -1     23173 4.03688E+01 6.58759E+01 5.45455E+00
 -1     23174 3.46168E+01 6.79392E+01 5.45455E+00
 -1     23179 3.51843E+01 6.90530E+01 5.90909E+00
 -1     23180 4.03688E+01 6.58759E+01 6.36364E+00
 -1     23181 3.46168E+01 6.79392E+01 6.36364E+00
 -1     23186 3.51843E+01 6.90530E+01 6.81818E+00
 -1     23187 4.03688E+01 6.58759E+01 7.27273E+00
 -1     23188 3.46168E+01 6.79392E+01 7.27273E+00
 -1     23193 3.51843E+01 6.90530E+01 7.72727E+00
 -1     23194 4.03688E+01 6.58759E+01 8.18182E+00
 -1     23195 3.46168E+01 6.79392E+01 8.18182E+00
 -1     23200 3.51843E+01 6.90530E+01 8.63636E+00
 -1     23201 4.03688E+01 6.58759E+01 9.09091E+00
 -1     23202 3.46168E+01 6.79392E+01 9.09091E+00
 -1     23207 3.51843E+01 6.90530E+01 9.54545E+00
 -1     23211 2.39488E+01 7.37069E+01 4.54545E-01
 -1     23212 2.95665E+01 7.13799E+01 9.09091E-01
 -1     23213 2.35625E+01 7.25181E+01 9.09091E-01
 -1     23218 2.39488E+01 7.37069E+01 1.36364E+00
 -1     23219 2.95665E+01 7.13799E+01 1.81818E+00
 -1     23220 2.35625E+01 7.25181E+01 1.81818E+00
 -1     23225 2.39488E+01 7.37069E+01 2.27273E+00
 -1     23226 2.95665E+01 7.13799E+01 2.72727E+00
 -1     23227 2.35625E+01 7.25181E+01 2.72727E+00
 -1     23232 2.39488E+01 7.37069E+01 3.18182E+00
 -1     23233 2.95665E+01 7.13799E+01 3.63636E+00
 -1     23234 2.35625E+01 7.25181E+01 3.63636E+00
 -1     23239 2.39488E+01 7.37069E+01 4.09091E+00
 -1     23240 2.95665E+01 7.13799E+01 4.54545E+00
 -1     23241 2.35625E+01 7.25181E+01 4.54545E+00
 -1     23246 2.39488E+01 7.37069E+01 5.00000E+00
 -1     23247 2.95665E+01 7.13799E+01 5.45455E+00
 -1     23248 2.35625E+01 7.25181E+01 5.45455E+00
 -1     23253 2.39488E+01 7.37069E+01 5.90909E+00
 -1     23254 2.95665E+01 7.13799E+01 6.36364E+00
 -1     23255 2.35625E+01 7.25181E+01 6.36364E+00
 -1     23260 2.39488E+01 7.37069E+01 6.81818E+00
 -1     23261 2.95665E+01 7.13799E+01 7.27273E+00
 -1     23262 2.35625E+01 7.25181E+01 7.27273E+00
 -1     23267 2.39488E+01 7.37069E+01 7.72727E+00
 -1     23268 2.95665E+01 7.13799E+01 8.18182E+00
 -1     23269 2.35625E+01 7.25181E+01 8.18182E+00
 -1     23274 2.39488E+01 7.37069E+01 8.63636E+00
 -1     23275 2.95665E+01 7.13799E+01 9.09091E+00
 -1     23276 2.35625E+01 7.25181E+01 9.09091E+00
 -1     23281 2.39488E+01 7.37069E+01 9.54545E+00
 -1     23285 1.21237E+01 7.65458E+01 4.54545E-01
 -1     23286 1.80362E+01 7.51264E+01 9.09091E-01
 -1     23287 1.19281E+01 7.53112E+01 9.09091E-01
 -1     23292 1.21237E+01 7.65458E+01 1.36364E+00
 -1     23293 1.80362E+01 7.51264E+01 1.81818E+00
 -1     23294 1.19281E+01 7.53112E+01 1.81818E+00
 -1     23299 1.21237E+01 7.65458E+01 2.27273E+00
 -1     23300 1.80362E+01 7.51264E+01 2.72727E+00
 -1     23301 1.19281E+01 7.53112E+01 2.72727E+00
 -1     23306 1.21237E+01 7.65458E+01 3.18182E+00
 -1     23307 1.80362E+01 7.51264E+01 3.63636E+00
 -1     23308 1.19281E+01 7.53112E+01 3.63636E+00
 -1     23313 1.21237E+01 7.65458E+01 4.09091E+00
 -1     23314 1.80362E+01 7.51264E+01 4.54545E+00
 -1     23315 1.19281E+01 7.53112E+01 4.54545E+00
 -1     23320 1.21237E+01 7.65458E+01 5.00000E+00
 -1     23321 1.80362E+01 7.51264E+01 5.45455E+00
 -1     23322 1.19281E+01 7.53112E+01 5.45455E+00
 -1     23327 1.21237E+01 7.65458E+01 5.90909E+00
 -1     23328 1.80362E+01 7.51264E+01 6.36364E+00
 -1     23329 1.19281E+01 7.53112E+01 6.36364E+00
 -1     23334 1.21237E+01 7.65458E+01 6.81818E+00
 -1     23335 1.80362E+01 7.51264E+01 7.27273E+00
 -1     23336 1.19281E+01 7.53112E+01 7.27273E+00
 -1     23341 1.21237E+01 7.65458E+01 7.72727E+00
 -1     23342 1.80362E+01 7.51264E+01 8.18182E+00
 -1     23343 1.19281E+01 7.53112E+01 8.18182E+00
 -1     23348 1.21237E+01 7.65458E+01 8.63636E+00
 -1     23349 1.80362E+01 7.51264E+01 9.09091E+00
 -1     23350 1.19281E+01 7.53112E+01 9.09091E+00
 -1     23355 1.21237E+01 7.65458E+01 9.54545E+00
 -1     23359 6.06184E+00 7.70229E+01 9.09091E-01
 -1     23363 6.06184E+00 7.70229E+01 1.81818E+00
 -1     23367 6.06184E+00 7.70229E+01 2.72727E+00
 -1     23371 6.06184E+00 7.70229E+01 3.63636E+00
 -1     23375 6.06184E+00 7.70229E+01 4.54545E+00
 -1     23379 6.06184E+00 7.70229E+01 5.45455E+00
 -1     23383 6.06184E+00 7.70229E+01 6.36364E+00
 -1     23387 6.06184E+00 7.70229E+01 7.27273E+00
 -1     23391 6.06184E+00 7.70229E+01 8.18182E+00
 -1     23395 6.06184E+00 7.70229E+01 9.09091E+00
 -1     23401 7.90151E+01 1.25148E+01 4.54545E-01
 -1     23402 7.95075E+01 6.25738E+00 9.09091E-01
 -1     23403 7.77805E+01 1.23192E+01 9.09091E-01
 -1     23408 7.90151E+01 1.25148E+01 1.36364E+00
 -1     23409 7.95075E+01 6.25738E+00 1.81818E+00
 -1     23410 7.77805E+01 1.23192E+01 1.81818E+00
 -1     23415 7.90151E+01 1.25148E+01 2.27273E+00
 -1     23416 7.95075E+01 6.25738E+00 2.72727E+00
 -1     23417 7.77805E+01 1.23192E+01 2.72727E+00
 -1     23422 7.90151E+01 1.25148E+01 3.18182E+00
 -1     23423 7.95075E+01 6.25738E+00 3.63636E+00
 -1     23424 7.77805E+01 1.23192E+01 3.63636E+00
 -1     23429 7.90151E+01 1.25148E+01 4.09091E+00
 -1     23430 7.95075E+01 6.25738E+00 4.54545E+00
 -1     23431 7.77805E+01 1.23192E+01 4.54545E+00
 -1     23436 7.90151E+01 1.25148E+01 5.00000E+00
 -1     23437 7.95075E+01 6.25738E+00 5.45455E+00
 -1     23438 7.77805E+01 1.23192E+01 5.45455E+00
 -1     23443 7.90151E+01 1.25148E+01 5.90909E+00
 -1     23444 7.95075E+01 6.25738E+00 6.36364E+00
 -1     23445 7.77805E+01 1.23192E+01 6.36364E+00
 -1     23450 7.90151E+01 1.25148E+01 6.81818E+00
 -1     23451 7.95075E+01 6.25738E+00 7.27273E+00
 -1     23452 7.77805E+01 1.23192E+01 7.27273E+00
 -1     23457 7.90151E+01 1.25148E+01 7.72727E+00
 -1     23458 7.95075E+01 6.25738E+00 8.18182E+00
 -1     23459 7.77805E+01 1.23192E+01 8.18182E+00
 -1     23464 7.90151E+01 1.25148E+01 8.63636E+00
 -1     23465 7.95075E+01 6.25738E+00 9.09091E+00
 -1     23466 7.77805E+01 1.23192E+01 9.09091E+00
 -1     23471 7.90151E+01 1.25148E+01 9.54545E+00
 -1     23475 7.60845E+01 2.47214E+01 4.54545E-01
 -1     23476 7.75498E+01 1.86181E+01 9.09091E-01
 -1     23477 7.48957E+01 2.43351E+01 9.09091E-01
 -1     23482 7.60845E+01 2.47214E+01 1.36364E+00
 -1     23483 7.75498E+01 1.86181E+01 1.81818E+00
 -1     23484 7.48957E+01 2.43351E+01 1.81818E+00
 -1     23489 7.60845E+01 2.47214E+01 2.27273E+00
 -1     23490 7.75498E+01 1.86181E+01 2.72727E+00
 -1     23491 7.48957E+01 2.43351E+01 2.72727E+00
 -1     23496 7.60845E+01 2.47214E+01 3.18182E+00
 -1     23497 7.75498E+01 1.86181E+01 3.63636E+00
 -1     23498 7.48957E+01 2.43351E+01 3.63636E+00
 -1     23503 7.60845E+01 2.47214E+01 4.09091E+00
 -1     23504 7.75498E+01 1.86181E+01 4.54545E+00
 -1     23505 7.48957E+01 2.43351E+01 4.54545E+00
 -1     23510 7.60845E+01 2.47214E+01 5.00000E+00
 -1     23511 7.75498E+01 1.86181E+01 5.45455E+00
 -1     23512 7.48957E+01 2.43351E+01 5.45455E+00
 -1     23517 7.60845E+01 2.47214E+01 5.90909E+00
 -1     23518 7.75498E+01 1.86181E+01 6.36364E+00
 -1     23519 7.48957E+01 2.43351E+01 6.36364E+00
 -1     23524 7.60845E+01 2.47214E+01 6.81818E+00
 -1     23525 7.75498E+01 1.86181E+01 7.27273E+00
 -1     23526 7.48957E+01 2.43351E+01 7.27273E+00
 -1     23531 7.60845E+01 2.47214E+01 7.72727E+00
 -1     23532 7.75498E+01 1.86181E+01 8.18182E+00
 -1     23533 7.48957E+01 2.43351E+01 8.18182E+00
 -1     23538 7.60845E+01 2.47214E+01 8.63636E+00
 -1     23539 7.75498E+01 1.86181E+01 9.09091E+00
 -1     23540 7.48957E+01 2.43351E+01 9.09091E+00
 -1     23545 7.60845E+01 2.47214E+01 9.54545E+00
 -1     23549 7.12805E+01 3.63192E+01 4.54545E-01
 -1     23550 7.36825E+01 3.05203E+01 9.09091E-01
 -1     23551 7.01668E+01 3.57518E+01 9.09091E-01
 -1     23556 7.12805E+01 3.63192E+01 1.36364E+00
 -1     23557 7.36825E+01 3.05203E+01 1.81818E+00
 -1     23558 7.01668E+01 3.57518E+01 1.81818E+00
 -1     23563 7.12805E+01 3.63192E+01 2.27273E+00
 -1     23564 7.36825E+01 3.05203E+01 2.72727E+00
 -1     23565 7.01668E+01 3.57518E+01 2.72727E+00
 -1     23570 7.12805E+01 3.63192E+01 3.18182E+00
 -1     23571 7.36825E+01 3.05203E+01 3.63636E+00
 -1     23572 7.01668E+01 3.57518E+01 3.63636E+00
 -1     23577 7.12805E+01 3.63192E+01 4.09091E+00
 -1     23578 7.36825E+01 3.05203E+01 4.54545E+00
 -1     23579 7.01668E+01 3.57518E+01 4.54545E+00
 -1     23584 7.12805E+01 3.63192E+01 5.00000E+00
 -1     23585 7.36825E+01 3.05203E+01 5.45455E+00
 -1     23586 7.01668E+01 3.57518E+01 5.45455E+00
 -1     23591 7.12805E+01 3.63192E+01 5.90909E+00
 -1     23592 7.36825E+01 3.05203E+01 6.36364E+00
 -1     23593 7.01668E+01 3.57518E+01 6.36364E+00
 -1     23598 7.12805E+01 3.63192E+01 6.81818E+00
 -1     23599 7.36825E+01 3.05203E+01 7.27273E+00
 -1     23600 7.01668E+01 3.57518E+01 7.27273E+00
 -1     23605 7.12805E+01 3.63192E+01 7.72727E+00
 -1     23606 7.36825E+01 3.05203E+01 8.18182E+00
 -1     23607 7.01668E+01 3.57518E+01 8.18182E+00
 -1     23612 7.12805E+01 3.63192E+01 8.63636E+00
 -1     23613 7.36825E+01 3.05203E+01 9.09091E+00
 -1     23614 7.01668E+01 3.57518E+01 9.09091E+00
 -1     23619 7.12805E+01 3.63192E+01 9.54545E+00
 -1     23623 6.47214E+01 4.70228E+01 4.54545E-01
 -1     23624 6.80009E+01 4.16710E+01 9.09091E-01
 -1     23625 6.37101E+01 4.62881E+01 9.09091E-01
 -1     23630 6.47214E+01 4.70228E+01 1.36364E+00
 -1     23631 6.80009E+01 4.16710E+01 1.81818E+00
 -1     23632 6.37101E+01 4.62881E+01 1.81818E+00
 -1     23637 6.47214E+01 4.70228E+01 2.27273E+00
 -1     23638 6.80009E+01 4.16710E+01 2.72727E+00
 -1     23639 6.37101E+01 4.62881E+01 2.72727E+00
 -1     23644 6.47214E+01 4.70228E+01 3.18182E+00
 -1     23645 6.80009E+01 4.16710E+01 3.63636E+00
 -1     23646 6.37101E+01 4.62881E+01 3.63636E+00
 -1     23651 6.47214E+01 4.70228E+01 4.09091E+00
 -1     23652 6.80009E+01 4.16710E+01 4.54545E+00
 -1     23653 6.37101E+01 4.62881E+01 4.54545E+00
 -1     23658 6.47214E+01 4.70228E+01 5.00000E+00
 -1     23659 6.80009E+01 4.16710E+01 5.45455E+00
 -1     23660 6.37101E+01 4.62881E+01 5.45455E+00
 -1     23665 6.47214E+01 4.70228E+01 5.90909E+00
 -1     23666 6.80009E+01 4.16710E+01 6.36364E+00
 -1     23667 6.37101E+01 4.62881E+01 6.36364E+00
 -1     23672 6.47214E+01 4.70228E+01 6.81818E+00
 -1     23673 6.80009E+01 4.16710E+01 7.27273E+00
 -1     23674 6.37101E+01 4.62881E+01 7.27273E+00
 -1     23679 6.47214E+01 4.70228E+01 7.72727E+00
 -1     23680 6.80009E+01 4.16710E+01 8.18182E+00
 -1     23681 6.37101E+01 4.62881E+01 8.18182E+00
 -1     23686 6.47214E+01 4.70228E+01 8.63636E+00
 -1     23687 6.80009E+01 4.16710E+01 9.09091E+00
 -1     23688 6.37101E+01 4.62881E+01 9.09091E+00
 -1     23693 6.47214E+01 4.70228E+01 9.54545E+00
 -1     23697 5.65685E+01 5.65685E+01 4.54545E-01
 -1     23698 6.06450E+01 5.17957E+01 9.09091E-01
 -1     23699 5.56847E+01 5.56847E+01 9.09091E-01
 -1     23704 5.65685E+01 5.65685E+01 1.36364E+00
 -1     23705 6.06450E+01 5.17957E+01 1.81818E+00
 -1     23706 5.56847E+01 5.56847E+01 1.81818E+00
 -1     23711 5.65685E+01 5.65685E+01 2.27273E+00
 -1     23712 6.06450E+01 5.17957E+01 2.72727E+00
 -1     23713 5.56847E+01 5.56847E+01 2.72727E+00
 -1     23718 5.65685E+01 5.65685E+01 3.18182E+00
 -1     23719 6.06450E+01 5.17957E+01 3.63636E+00
 -1     23720 5.56847E+01 5.56847E+01 3.63636E+00
 -1     23725 5.65685E+01 5.65685E+01 4.09091E+00
 -1     23726 6.06450E+01 5.17957E+01 4.54545E+00
 -1     23727 5.56847E+01 5.56847E+01 4.54545E+00
 -1     23732 5.65685E+01 5.65685E+01 5.00000E+00
 -1     23733 6.06450E+01 5.17957E+01 5.45455E+00
 -1     23734 5.56847E+01 5.56847E+01 5.45455E+00
 -1     23739 5.65685E+01 5.65685E+01 5.90909E+00
 -1     23740 6.06450E+01 5.17957E+01 6.36364E+00
 -1     23741 5.56847E+01 5.56847E+01 6.36364E+00
 -1     23746 5.65685E+01 5.65685E+01 6.81818E+00
 -1     23747 6.06450E+01 5.17957E+01 7.27273E+00
 -1     23748 5.56847E+01 5.56847E+01 7.27273E+00
 -1     23753 5.65685E+01 5.65685E+01 7.72727E+00
 -1     23754 6.06450E+01 5.17957E+01 8.18182E+00
 -1     23755 5.56847E+01 5.56847E+01 8.18182E+00
 -1     23760 5.65685E+01 5.65685E+01 8.63636E+00
 -1     23761 6.06450E+01 5.17957E+01 9.09091E+00
 -1     23762 5.56847E+01 5.56847E+01 9.09091E+00
 -1     23767 5.65685E+01 5.65685E+01 9.54545E+00
 -1     23771 4.70228E+01 6.47214E+01 4.54545E-01
 -1     23772 5.17957E+01 6.06450E+01 9.09091E-01
 -1     23773 4.62881E+01 6.37101E+01 9.09091E-01
 -1     23778 4.70228E+01 6.47214E+01 1.36364E+00
 -1     23779 5.17957E+01 6.06450E+01 1.81818E+00
 -1     23780 4.62881E+01 6.37101E+01 1.81818E+00
 -1     23785 4.70228E+01 6.47214E+01 2.27273E+00
 -1     23786 5.17957E+01 6.06450E+01 2.72727E+00
 -1     23787 4.62881E+01 6.37101E+01 2.72727E+00
 -1     23792 4.70228E+01 6.47214E+01 3.18182E+00
 -1     23793 5.17957E+01 6.06450E+01 3.63636E+00
 -1     23794 4.62881E+01 6.37101E+01 3.63636E+00
 -1     23799 4.70228E+01 6.47214E+01 4.09091E+00
 -1     23800 5.17957E+01 6.06450E+01 4.54545E+00
 -1     23801 4.62881E+01 6.37101E+01 4.54545E+00
 -1     23806 4.70228E+01 6.47214E+01 5.00000E+00
 -1     23807 5.17957E+01 6.06450E+01 5.45455E+00
 -1     23808 4.62881E+01 6.37101E+01 5.45455E+00
 -1     23813 4.70228E+01 6.47214E+01 5.90909E+00
 -1     23814 5.17957E+01 6.06450E+01 6.36364E+00
 -1     23815 4.62881E+01 6.37101E+01 6.36364E+00
 -1     23820 4.70228E+01 6.47214E+01 6.81818E+00
 -1     23821 5.17957E+01 6.06450E+01 7.27273E+00
 -1     23822 4.62881E+01 6.37101E+01 7.27273E+00
 -1     23827 4.70228E+01 6.47214E+01 7.72727E+00
 -1     23828 5.17957E+01 6.06450E+01 8.18182E+00
 -1     23829 4.62881E+01 6.37101E+01 8.18182E+00
 -1     23834 4.70228E+01 6.47214E+01 8.63636E+00
 -1     23835 5.17957E+01 6.06450E+01 9.09091E+00
 -1     23836 4.62881E+01 6.37101E+01 9.09091E+00
 -1     23841 4.70228E+01 6.47214E+01 9.54545E+00
 -1     23845 3.63192E+01 7.12805E+01 4.54545E-01
 -1     23846 4.16710E+01 6.80009E+01 9.09091E-01
 -1     23847 3.57518E+01 7.01668E+01 9.09091E-01
 -1     23852 3.63192E+01 7.12805E+01 1.36364E+00
 -1     23853 4.16710E+01 6.80009E+01 1.81818E+00
 -1     23854 3.57518E+01 7.01668E+01 1.81818E+00
 -1     23859 3.63192E+01 7.12805E+01 2.27273E+00
 -1     23860 4.16710E+01 6.80009E+01 2.72727E+00
 -1     23861 3.57518E+01 7.01668E+01 2.72727E+00
 -1     23866 3.63192E+01 7.12805E+01 3.18182E+00
 -1     23867 4.16710E+01 6.80009E+01 3.63636E+00
 -1     23868 3.57518E+01 7.01668E+01 3.63636E+00
 -1     23873 3.63192E+01 7.12805E+01 4.09091E+00
 -1     23874 4.16710E+01 6.80009E+01 4.54545E+00
 -1     23875 3.57518E+01 7.01668E+01 4.54545E+00
 -1     23880 3.63192E+01 7.12805E+01 5.00000E+00
 -1     23881 4.16710E+01 6.80009E+01 5.45455E+00
 -1     23882 3.57518E+01 7.01668E+01 5.45455E+00
 -1     23887 3.63192E+01 7.12805E+01 5.90909E+00
 -1     23888 4.16710E+01 6.80009E+01 6.36364E+00
 -1     23889 3.57518E+01 7.01668E+01 6.36364E+00
 -1     23894 3.63192E+01 7.12805E+01 6.81818E+00
 -1     23895 4.16710E+01 6.80009E+01 7.27273E+00
 -1     23896 3.57518E+01 7.01668E+01 7.27273E+00
 -1     23901 3.63192E+01 7.12805E+01 7.72727E+00
 -1     23902 4.16710E+01 6.80009E+01 8.18182E+00
 -1     23903 3.57518E+01 7.01668E+01 8.18182E+00
 -1     23908 3.63192E+01 7.12805E+01 8.63636E+00
 -1     23909 4.16710E+01 6.80009E+01 9.09091E+00
 -1     23910 3.57518E+01 7.01668E+01 9.09091E+00
 -1     23915 3.63192E+01 7.12805E+01 9.54545E+00
 -1     23919 2.47214E+01 7.60845E+01 4.54545E-01
 -1     23920 3.05203E+01 7.36825E+01 9.09091E-01
 -1     23921 2.43351E+01 7.48957E+01 9.09091E-01
 -1     23926 2.47214E+01 7.60845E+01 1.36364E+00
 -1     23927 3.05203E+01 7.36825E+01 1.81818E+00
 -1     23928 2.43351E+01 7.48957E+01 1.81818E+00
 -1     23933 2.47214E+01 7.60845E+01 2.27273E+00
 -1     23934 3.05203E+01 7.36825E+01 2.72727E+00
 -1     23935 2.43351E+01 7.48957E+01 2.72727E+00
 -1     23940 2.47214E+01 7.60845E+01 3.18182E+00
 -1     23941 3.05203E+01 7.36825E+01 3.63636E+00
 -1     23942 2.43351E+01 7.48957E+01 3.63636E+00
 -1     23947 2.47214E+01 7.60845E+01 4.09091E+00
 -1     23948 3.05203E+01 7.36825E+01 4.54545E+00
 -1     23949 2.43351E+01 7.48957E+01 4.54545E+00
 -1     23954 2.47214E+01 7.60845E+01 5.00000E+00
 -1     23955 3.05203E+01 7.36825E+01 5.45455E+00
 -1     23956 2.43351E+01 7.48957E+01 5.45455E+00
 -1     23961 2.47214E+01 7.60845E+01 5.90909E+00
 -1     23962 3.05203E+01 7.36825E+01 6.36364E+00
 -1     23963 2.43351E+01 7.48957E+01 6.36364E+00
 -1     23968 2.47214E+01 7.60845E+01 6.81818E+00
 -1     23969 3.05203E+01 7.36825E+01 7.27273E+00
 -1     23970 2.43351E+01 7.48957E+01 7.27273E+00
 -1     23975 2.47214E+01 7.60845E+01 7.72727E+00
 -1     23976 3.05203E+01 7.36825E+01 8.18182E+00
 -1     23977 2.43351E+01 7.48957E+01 8.18182E+00
 -1     23982 2.47214E+01 7.60845E+01 8.63636E+00
 -1     23983 3.05203E+01 7.36825E+01 9.09091E+00
 -1     23984 2.43351E+01 7.48957E+01 9.09091E+00
 -1     23989 2.47214E+01 7.60845E+01 9.54545E+00
 -1     23993 1.25148E+01 7.90151E+01 4.54545E-01
 -1     23994 1.86181E+01 7.75498E+01 9.09091E-01
 -1     23995 1.23192E+01 7.77805E+01 9.09091E-01
 -1     24000 1.25148E+01 7.90151E+01 1.36364E+00
 -1     24001 1.86181E+01 7.75498E+01 1.81818E+00
 -1     24002 1.23192E+01 7.77805E+01 1.81818E+00
 -1     24007 1.25148E+01 7.90151E+01 2.27273E+00
 -1     24008 1.86181E+01 7.75498E+01 2.72727E+00
 -1     24009 1.23192E+01 7.77805E+01 2.72727E+00
 -1     24014 1.25148E+01 7.90151E+01 3.18182E+00
 -1     24015 1.86181E+01 7.75498E+01 3.63636E+00
 -1     24016 1.23192E+01 7.77805E+01 3.63636E+00
 -1     24021 1.25148E+01 7.90151E+01 4.09091E+00
 -1     24022 1.86181E+01 7.75498E+01 4.54545E+00
 -1     24023 1.23192E+01 7.77805E+01 4.54545E+00
 -1     24028 1.25148E+01 7.90151E+01 5.00000E+00
 -1     24029 1.86181E+01 7.75498E+01 5.45455E+00
 -1     24030 1.23192E+01 7.77805E+01 5.45455E+00
 -1     24035 1.25148E+01 7.90151E+01 5.90909E+00
 -1     24036 1.86181E+01 7.75498E+01 6.36364E+00
 -1     24037 1.23192E+01 7.77805E+01 6.36364E+00
 -1     24042 1.25148E+01 7.90151E+01 6.81818E+00
 -1     24043 1.86181E+01 7.75498E+01 7.27273E+00
 -1     24044 1.23192E+01 7.77805E+01 7.27273E+00
 -1     24049 1.25148E+01 7.90151E+01 7.72727E+00
 -1     24050 1.86181E+01 7.75498E+01 8.18182E+00
 -1     24051 1.23192E+01 7.77805E+01 8.18182E+00
 -1     24056 1.25148E+01 7.90151E+01 8.63636E+00
 -1     24057 1.86181E+01 7.75498E+01 9.09091E+00
 -1     24058 1.23192E+01 7.77805E+01 9.09091E+00
 -1     24063 1.25148E+01 7.90151E+01 9.54545E+00
 -1     24067 6.25738E+00 7.95075E+01 9.09091E-01
 -1     24071 6.25738E+00 7.95075E+01 1.81818E+00
 -1     24075 6.25738E+00 7.95075E+01 2.72727E+00
 -1     24079 6.25738E+00 7.95075E+01 3.63636E+00
 -1     24083 6.25738E+00 7.95075E+01 4.54545E+00
 -1     24087 6.25738E+00 7.95075E+01 5.45455E+00
 -1     24091 6.25738E+00 7.95075E+01 6.36364E+00
 -1     24095 6.25738E+00 7.95075E+01 7.27273E+00
 -1     24099 6.25738E+00 7.95075E+01 8.18182E+00
 -1     24103 6.25738E+00 7.95075E+01 9.09091E+00
 -1     24109 8.14843E+01 1.29058E+01 4.54545E-01
 -1     24110 8.19921E+01 6.45292E+00 9.09091E-01
 -1     24111 8.02497E+01 1.27103E+01 9.09091E-01
 -1     24116 8.14843E+01 1.29058E+01 1.36364E+00
 -1     24117 8.19921E+01 6.45292E+00 1.81818E+00
 -1     24118 8.02497E+01 1.27103E+01 1.81818E+00
 -1     24123 8.14843E+01 1.29058E+01 2.27273E+00
 -1     24124 8.19921E+01 6.45292E+00 2.72727E+00
 -1     24125 8.02497E+01 1.27103E+01 2.72727E+00
 -1     24130 8.14843E+01 1.29058E+01 3.18182E+00
 -1     24131 8.19921E+01 6.45292E+00 3.63636E+00
 -1     24132 8.02497E+01 1.27103E+01 3.63636E+00
 -1     24137 8.14843E+01 1.29058E+01 4.09091E+00
 -1     24138 8.19921E+01 6.45292E+00 4.54545E+00
 -1     24139 8.02497E+01 1.27103E+01 4.54545E+00
 -1     24144 8.14843E+01 1.29058E+01 5.00000E+00
 -1     24145 8.19921E+01 6.45292E+00 5.45455E+00
 -1     24146 8.02497E+01 1.27103E+01 5.45455E+00
 -1     24151 8.14843E+01 1.29058E+01 5.90909E+00
 -1     24152 8.19921E+01 6.45292E+00 6.36364E+00
 -1     24153 8.02497E+01 1.27103E+01 6.36364E+00
 -1     24158 8.14843E+01 1.29058E+01 6.81818E+00
 -1     24159 8.19921E+01 6.45292E+00 7.27273E+00
 -1     24160 8.02497E+01 1.27103E+01 7.27273E+00
 -1     24165 8.14843E+01 1.29058E+01 7.72727E+00
 -1     24166 8.19921E+01 6.45292E+00 8.18182E+00
 -1     24167 8.02497E+01 1.27103E+01 8.18182E+00
 -1     24172 8.14843E+01 1.29058E+01 8.63636E+00
 -1     24173 8.19921E+01 6.45292E+00 9.09091E+00
 -1     24174 8.02497E+01 1.27103E+01 9.09091E+00
 -1     24179 8.14843E+01 1.29058E+01 9.54545E+00
 -1     24183 7.84622E+01 2.54939E+01 4.54545E-01
 -1     24184 7.99732E+01 1.91999E+01 9.09091E-01
 -1     24185 7.72733E+01 2.51076E+01 9.09091E-01
 -1     24190 7.84622E+01 2.54939E+01 1.36364E+00
 -1     24191 7.99732E+01 1.91999E+01 1.81818E+00
 -1     24192 7.72733E+01 2.51076E+01 1.81818E+00
 -1     24197 7.84622E+01 2.54939E+01 2.27273E+00
 -1     24198 7.99732E+01 1.91999E+01 2.72727E+00
 -1     24199 7.72733E+01 2.51076E+01 2.72727E+00
 -1     24204 7.84622E+01 2.54939E+01 3.18182E+00
 -1     24205 7.99732E+01 1.91999E+01 3.63636E+00
 -1     24206 7.72733E+01 2.51076E+01 3.63636E+00
 -1     24211 7.84622E+01 2.54939E+01 4.09091E+00
 -1     24212 7.99732E+01 1.91999E+01 4.54545E+00
 -1     24213 7.72733E+01 2.51076E+01 4.54545E+00
 -1     24218 7.84622E+01 2.54939E+01 5.00000E+00
 -1     24219 7.99732E+01 1.91999E+01 5.45455E+00
 -1     24220 7.72733E+01 2.51076E+01 5.45455E+00
 -1     24225 7.84622E+01 2.54939E+01 5.90909E+00
 -1     24226 7.99732E+01 1.91999E+01 6.36364E+00
 -1     24227 7.72733E+01 2.51076E+01 6.36364E+00
 -1     24232 7.84622E+01 2.54939E+01 6.81818E+00
 -1     24233 7.99732E+01 1.91999E+01 7.27273E+00
 -1     24234 7.72733E+01 2.51076E+01 7.27273E+00
 -1     24239 7.84622E+01 2.54939E+01 7.72727E+00
 -1     24240 7.99732E+01 1.91999E+01 8.18182E+00
 -1     24241 7.72733E+01 2.51076E+01 8.18182E+00
 -1     24246 7.84622E+01 2.54939E+01 8.63636E+00
 -1     24247 7.99732E+01 1.91999E+01 9.09091E+00
 -1     24248 7.72733E+01 2.51076E+01 9.09091E+00
 -1     24253 7.84622E+01 2.54939E+01 9.54545E+00
 -1     24257 7.35080E+01 3.74542E+01 4.54545E-01
 -1     24258 7.59851E+01 3.14741E+01 9.09091E-01
 -1     24259 7.23943E+01 3.68867E+01 9.09091E-01
 -1     24264 7.35080E+01 3.74542E+01 1.36364E+00
 -1     24265 7.59851E+01 3.14741E+01 1.81818E+00
 -1     24266 7.23943E+01 3.68867E+01 1.81818E+00
 -1     24271 7.35080E+01 3.74542E+01 2.27273E+00
 -1     24272 7.59851E+01 3.14741E+01 2.72727E+00
 -1     24273 7.23943E+01 3.68867E+01 2.72727E+00
 -1     24278 7.35080E+01 3.74542E+01 3.18182E+00
 -1     24279 7.59851E+01 3.14741E+01 3.63636E+00
 -1     24280 7.23943E+01 3.68867E+01 3.63636E+00
 -1     24285 7.35080E+01 3.74542E+01 4.09091E+00
 -1     24286 7.59851E+01 3.14741E+01 4.54545E+00
 -1     24287 7.23943E+01 3.68867E+01 4.54545E+00
 -1     24292 7.35080E+01 3.74542E+01 5.00000E+00
 -1     24293 7.59851E+01 3.14741E+01 5.45455E+00
 -1     24294 7.23943E+01 3.68867E+01 5.45455E+00
 -1     24299 7.35080E+01 3.74542E+01 5.90909E+00
 -1     24300 7.59851E+01 3.14741E+01 6.36364E+00
 -1     24301 7.23943E+01 3.68867E+01 6.36364E+00
 -1     24306 7.35080E+01 3.74542E+01 6.81818E+00
 -1     24307 7.59851E+01 3.14741E+01 7.27273E+00
 -1     24308 7.23943E+01 3.68867E+01 7.27273E+00
 -1     24313 7.35080E+01 3.74542E+01 7.72727E+00
 -1     24314 7.59851E+01 3.14741E+01 8.18182E+00
 -1     24315 7.23943E+01 3.68867E+01 8.18182E+00
 -1     24320 7.35080E+01 3.74542E+01 8.63636E+00
 -1     24321 7.59851E+01 3.14741E+01 9.09091E+00
 -1     24322 7.23943E+01 3.68867E+01 9.09091E+00
 -1     24327 7.35080E+01 3.74542E+01 9.54545E+00
 -1     24331 6.67439E+01 4.84923E+01 4.54545E-01
 -1     24332 7.01260E+01 4.29733E+01 9.09091E-01
 -1     24333 6.57326E+01 4.77576E+01 9.09091E-01
 -1     24338 6.67439E+01 4.84923E+01 1.36364E+00
 -1     24339 7.01260E+01 4.29733E+01 1.81818E+00
 -1     24340 6.57326E+01 4.77576E+01 1.81818E+00
 -1     24345 6.67439E+01 4.84923E+01 2.27273E+00
 -1     24346 7.01260E+01 4.29733E+01 2.72727E+00
 -1     24347 6.57326E+01 4.77576E+01 2.72727E+00
 -1     24352 6.67439E+01 4.84923E+01 3.18182E+00
 -1     24353 7.01260E+01 4.29733E+01 3.63636E+00
 -1     24354 6.57326E+01 4.77576E+01 3.63636E+00
 -1     24359 6.67439E+01 4.84923E+01 4.09091E+00
 -1     24360 7.01260E+01 4.29733E+01 4.54545E+00
 -1     24361 6.57326E+01 4.77576E+01 4.54545E+00
 -1     24366 6.67439E+01 4.84923E+01 5.00000E+00
 -1     24367 7.01260E+01 4.29733E+01 5.45455E+00
 -1     24368 6.57326E+01 4.77576E+01 5.45455E+00
 -1     24373 6.67439E+01 4.84923E+01 5.90909E+00
 -1     24374 7.01260E+01 4.29733E+01 6.36364E+00
 -1     24375 6.57326E+01 4.77576E+01 6.36364E+00
 -1     24380 6.67439E+01 4.84923E+01 6.81818E+00
 -1     24381 7.01260E+01 4.29733E+01 7.27273E+00
 -1     24382 6.57326E+01 4.77576E+01 7.27273E+00
 -1     24387 6.67439E+01 4.84923E+01 7.72727E+00
 -1     24388 7.01260E+01 4.29733E+01 8.18182E+00
 -1     24389 6.57326E+01 4.77576E+01 8.18182E+00
 -1     24394 6.67439E+01 4.84923E+01 8.63636E+00
 -1     24395 7.01260E+01 4.29733E+01 9.09091E+00
 -1     24396 6.57326E+01 4.77576E+01 9.09091E+00
 -1     24401 6.67439E+01 4.84923E+01 9.54545E+00
 -1     24405 5.83363E+01 5.83363E+01 4.54545E-01
 -1     24406 6.25401E+01 5.34143E+01 9.09091E-01
 -1     24407 5.74524E+01 5.74524E+01 9.09091E-01
 -1     24412 5.83363E+01 5.83363E+01 1.36364E+00
 -1     24413 6.25401E+01 5.34143E+01 1.81818E+00
 -1     24414 5.74524E+01 5.74524E+01 1.81818E+00
 -1     24419 5.83363E+01 5.83363E+01 2.27273E+00
 -1     24420 6.25401E+01 5.34143E+01 2.72727E+00
 -1     24421 5.74524E+01 5.74524E+01 2.72727E+00
 -1     24426 5.83363E+01 5.83363E+01 3.18182E+00
 -1     24427 6.25401E+01 5.34143E+01 3.63636E+00
 -1     24428 5.74524E+01 5.74524E+01 3.63636E+00
 -1     24433 5.83363E+01 5.83363E+01 4.09091E+00
 -1     24434 6.25401E+01 5.34143E+01 4.54545E+00
 -1     24435 5.74524E+01 5.74524E+01 4.54545E+00
 -1     24440 5.83363E+01 5.83363E+01 5.00000E+00
 -1     24441 6.25401E+01 5.34143E+01 5.45455E+00
 -1     24442 5.74524E+01 5.74524E+01 5.45455E+00
 -1     24447 5.83363E+01 5.83363E+01 5.90909E+00
 -1     24448 6.25401E+01 5.34143E+01 6.36364E+00
 -1     24449 5.74524E+01 5.74524E+01 6.36364E+00
 -1     24454 5.83363E+01 5.83363E+01 6.81818E+00
 -1     24455 6.25401E+01 5.34143E+01 7.27273E+00
 -1     24456 5.74524E+01 5.74524E+01 7.27273E+00
 -1     24461 5.83363E+01 5.83363E+01 7.72727E+00
 -1     24462 6.25401E+01 5.34143E+01 8.18182E+00
 -1     24463 5.74524E+01 5.74524E+01 8.18182E+00
 -1     24468 5.83363E+01 5.83363E+01 8.63636E+00
 -1     24469 6.25401E+01 5.34143E+01 9.09091E+00
 -1     24470 5.74524E+01 5.74524E+01 9.09091E+00
 -1     24475 5.83363E+01 5.83363E+01 9.54545E+00
 -1     24479 4.84923E+01 6.67439E+01 4.54545E-01
 -1     24480 5.34143E+01 6.25401E+01 9.09091E-01
 -1     24481 4.77576E+01 6.57326E+01 9.09091E-01
 -1     24486 4.84923E+01 6.67439E+01 1.36364E+00
 -1     24487 5.34143E+01 6.25401E+01 1.81818E+00
 -1     24488 4.77576E+01 6.57326E+01 1.81818E+00
 -1     24493 4.84923E+01 6.67439E+01 2.27273E+00
 -1     24494 5.34143E+01 6.25401E+01 2.72727E+00
 -1     24495 4.77576E+01 6.57326E+01 2.72727E+00
 -1     24500 4.84923E+01 6.67439E+01 3.18182E+00
 -1     24501 5.34143E+01 6.25401E+01 3.63636E+00
 -1     24502 4.77576E+01 6.57326E+01 3.63636E+00
 -1     24507 4.84923E+01 6.67439E+01 4.09091E+00
 -1     24508 5.34143E+01 6.25401E+01 4.54545E+00
 -1     24509 4.77576E+01 6.57326E+01 4.54545E+00
 -1     24514 4.84923E+01 6.67439E+01 5.00000E+00
 -1     24515 5.34143E+01 6.25401E+01 5.45455E+00
 -1     24516 4.77576E+01 6.57326E+01 5.45455E+00
 -1     24521 4.84923E+01 6.67439E+01 5.90909E+00
 -1     24522 5.34143E+01 6.25401E+01 6.36364E+00
 -1     24523 4.77576E+01 6.57326E+01 6.36364E+00
 -1     24528 4.84923E+01 6.67439E+01 6.81818E+00
 -1     24529 5.34143E+01 6.25401E+01 7.27273E+00
 -1     24530 4.77576E+01 6.57326E+01 7.27273E+00
 -1     24535 4.84923E+01 6.67439E+01 7.72727E+00
 -1     24536 5.34143E+01 6.25401E+01 8.18182E+00
 -1     24537 4.77576E+01 6.57326E+01 8.18182E+00
 -1     24542 4.84923E+01 6.67439E+01 8.63636E+00
 -1     24543 5.34143E+01 6.25401E+01 9.09091E+00
 -1     24544 4.77576E+01 6.57326E+01 9.09091E+00
 -1     24549 4.84923E+01 6.67439E+01 9.54545E+00
 -1     24553 3.74542E+01 7.35080E+01 4.54545E-01
 -1     24554 4.29733E+01 7.01260E+01 9.09091E-01
 -1     24555 3.68867E+01 7.23943E+01 9.09091E-01
 -1     24560 3.74542E+01 7.35080E+01 1.36364E+00
 -1     24561 4.29733E+01 7.01260E+01 1.81818E+00
 -1     24562 3.68867E+01 7.23943E+01 1.81818E+00
 -1     24567 3.74542E+01 7.35080E+01 2.27273E+00
 -1     24568 4.29733E+01 7.01260E+01 2.72727E+00
 -1     24569 3.68867E+01 7.23943E+01 2.72727E+00
 -1     24574 3.74542E+01 7.35080E+01 3.18182E+00
 -1     24575 4.29733E+01 7.01260E+01 3.63636E+00
 -1     24576 3.68867E+01 7.23943E+01 3.63636E+00
 -1     24581 3.74542E+01 7.35080E+01 4.09091E+00
 -1     24582 4.29733E+01 7.01260E+01 4.54545E+00
 -1     24583 3.68867E+01 7.23943E+01 4.54545E+00
 -1     24588 3.74542E+01 7.35080E+01 5.00000E+00
 -1     24589 4.29733E+01 7.01260E+01 5.45455E+00
 -1     24590 3.68867E+01 7.23943E+01 5.45455E+00
 -1     24595 3.74542E+01 7.35080E+01 5.90909E+00
 -1     24596 4.29733E+01 7.01260E+01 6.36364E+00
 -1     24597 3.68867E+01 7.23943E+01 6.36364E+00
 -1     24602 3.74542E+01 7.35080E+01 6.81818E+00
 -1     24603 4.29733E+01 7.01260E+01 7.27273E+00
 -1     24604 3.68867E+01 7.23943E+01 7.27273E+00
 -1     24609 3.74542E+01 7.35080E+01 7.72727E+00
 -1     24610 4.29733E+01 7.01260E+01 8.18182E+00
 -1     24611 3.68867E+01 7.23943E+01 8.18182E+00
 -1     24616 3.74542E+01 7.35080E+01 8.63636E+00
 -1     24617 4.29733E+01 7.01260E+01 9.09091E+00
 -1     24618 3.68867E+01 7.23943E+01 9.09091E+00
 -1     24623 3.74542E+01 7.35080E+01 9.54545E+00
 -1     24627 2.54939E+01 7.84622E+01 4.54545E-01
 -1     24628 3.14741E+01 7.59851E+01 9.09091E-01
 -1     24629 2.51076E+01 7.72733E+01 9.09091E-01
 -1     24634 2.54939E+01 7.84622E+01 1.36364E+00
 -1     24635 3.14741E+01 7.59851E+01 1.81818E+00
 -1     24636 2.51076E+01 7.72733E+01 1.81818E+00
 -1     24641 2.54939E+01 7.84622E+01 2.27273E+00
 -1     24642 3.14741E+01 7.59851E+01 2.72727E+00
 -1     24643 2.51076E+01 7.72733E+01 2.72727E+00
 -1     24648 2.54939E+01 7.84622E+01 3.18182E+00
 -1     24649 3.14741E+01 7.59851E+01 3.63636E+00
 -1     24650 2.51076E+01 7.72733E+01 3.63636E+00
 -1     24655 2.54939E+01 7.84622E+01 4.09091E+00
 -1     24656 3.14741E+01 7.59851E+01 4.54545E+00
 -1     24657 2.51076E+01 7.72733E+01 4.54545E+00
 -1     24662 2.54939E+01 7.84622E+01 5.00000E+00
 -1     24663 3.14741E+01 7.59851E+01 5.45455E+00
 -1     24664 2.51076E+01 7.72733E+01 5.45455E+00
 -1     24669 2.54939E+01 7.84622E+01 5.90909E+00
 -1     24670 3.14741E+01 7.59851E+01 6.36364E+00
 -1     24671 2.51076E+01 7.72733E+01 6.36364E+00
 -1     24676 2.54939E+01 7.84622E+01 6.81818E+00
 -1     24677 3.14741E+01 7.59851E+01 7.27273E+00
 -1     24678 2.51076E+01 7.72733E+01 7.27273E+00
 -1     24683 2.54939E+01 7.84622E+01 7.72727E+00
 -1     24684 3.14741E+01 7.59851E+01 8.18182E+00
 -1     24685 2.51076E+01 7.72733E+01 8.18182E+00
 -1     24690 2.54939E+01 7.84622E+01 8.63636E+00
 -1     24691 3.14741E+01 7.59851E+01 9.09091E+00
 -1     24692 2.51076E+01 7.72733E+01 9.09091E+00
 -1     24697 2.54939E+01 7.84622E+01 9.54545E+00
 -1     24701 1.29058E+01 8.14843E+01 4.54545E-01
 -1     24702 1.91999E+01 7.99732E+01 9.09091E-01
 -1     24703 1.27103E+01 8.02497E+01 9.09091E-01
 -1     24708 1.29058E+01 8.14843E+01 1.36364E+00
 -1     24709 1.91999E+01 7.99732E+01 1.81818E+00
 -1     24710 1.27103E+01 8.02497E+01 1.81818E+00
 -1     24715 1.29058E+01 8.14843E+01 2.27273E+00
 -1     24716 1.91999E+01 7.99732E+01 2.72727E+00
 -1     24717 1.27103E+01 8.02497E+01 2.72727E+00
 -1     24722 1.29058E+01 8.14843E+01 3.18182E+00
 -1     24723 1.91999E+01 7.99732E+01 3.63636E+00
 -1     24724 1.27103E+01 8.02497E+01 3.63636E+00
 -1     24729 1.29058E+01 8.14843E+01 4.09091E+00
 -1     24730 1.91999E+01 7.99732E+01 4.54545E+00
 -1     24731 1.27103E+01 8.02497E+01 4.54545E+00
 -1     24736 1.29058E+01 8.14843E+01 5.00000E+00
 -1     24737 1.91999E+01 7.99732E+01 5.45455E+00
 -1     24738 1.27103E+01 8.02497E+01 5.45455E+00
 -1     24743 1.29058E+01 8.14843E+01 5.90909E+00
 -1     24744 1.91999E+01 7.99732E+01 6.36364E+00
 -1     24745 1.27103E+01 8.02497E+01 6.36364E+00
 -1     24750 1.29058E+01 8.14843E+01 6.81818E+00
 -1     24751 1.91999E+01 7.99732E+01 7.27273E+00
 -1     24752 1.27103E+01 8.02497E+01 7.27273E+00
 -1     24757 1.29058E+01 8.14843E+01 7.72727E+00
 -1     24758 1.91999E+01 7.99732E+01 8.18182E+00
 -1     24759 1.27103E+01 8.02497E+01 8.18182E+00
 -1     24764 1.29058E+01 8.14843E+01 8.63636E+00
 -1     24765 1.91999E+01 7.99732E+01 9.09091E+00
 -1     24766 1.27103E+01 8.02497E+01 9.09091E+00
 -1     24771 1.29058E+01 8.14843E+01 9.54545E+00
 -1     24775 6.45292E+00 8.19921E+01 9.09091E-01
 -1     24779 6.45292E+00 8.19921E+01 1.81818E+00
 -1     24783 6.45292E+00 8.19921E+01 2.72727E+00
 -1     24787 6.45292E+00 8.19921E+01 3.63636E+00
 -1     24791 6.45292E+00 8.19921E+01 4.54545E+00
 -1     24795 6.45292E+00 8.19921E+01 5.45455E+00
 -1     24799 6.45292E+00 8.19921E+01 6.36364E+00
 -1     24803 6.45292E+00 8.19921E+01 7.27273E+00
 -1     24807 6.45292E+00 8.19921E+01 8.18182E+00
 -1     24811 6.45292E+00 8.19921E+01 9.09091E+00
 -1     24817 8.39535E+01 1.32969E+01 4.54545E-01
 -1     24818 8.44768E+01 6.64846E+00 9.09091E-01
 -1     24819 8.27189E+01 1.31014E+01 9.09091E-01
 -1     24824 8.39535E+01 1.32969E+01 1.36364E+00
 -1     24825 8.44768E+01 6.64846E+00 1.81818E+00
 -1     24826 8.27189E+01 1.31014E+01 1.81818E+00
 -1     24831 8.39535E+01 1.32969E+01 2.27273E+00
 -1     24832 8.44768E+01 6.64846E+00 2.72727E+00
 -1     24833 8.27189E+01 1.31014E+01 2.72727E+00
 -1     24838 8.39535E+01 1.32969E+01 3.18182E+00
 -1     24839 8.44768E+01 6.64846E+00 3.63636E+00
 -1     24840 8.27189E+01 1.31014E+01 3.63636E+00
 -1     24845 8.39535E+01 1.32969E+01 4.09091E+00
 -1     24846 8.44768E+01 6.64846E+00 4.54545E+00
 -1     24847 8.27189E+01 1.31014E+01 4.54545E+00
 -1     24852 8.39535E+01 1.32969E+01 5.00000E+00
 -1     24853 8.44768E+01 6.64846E+00 5.45455E+00
 -1     24854 8.27189E+01 1.31014E+01 5.45455E+00
 -1     24859 8.39535E+01 1.32969E+01 5.90909E+00
 -1     24860 8.44768E+01 6.64846E+00 6.36364E+00
 -1     24861 8.27189E+01 1.31014E+01 6.36364E+00
 -1     24866 8.39535E+01 1.32969E+01 6.81818E+00
 -1     24867 8.44768E+01 6.64846E+00 7.27273E+00
 -1     24868 8.27189E+01 1.31014E+01 7.27273E+00
 -1     24873 8.39535E+01 1.32969E+01 7.72727E+00
 -1     24874 8.44768E+01 6.64846E+00 8.18182E+00
 -1     24875 8.27189E+01 1.31014E+01 8.18182E+00
 -1     24880 8.39535E+01 1.32969E+01 8.63636E+00
 -1     24881 8.44768E+01 6.64846E+00 9.09091E+00
 -1     24882 8.27189E+01 1.31014E+01 9.09091E+00
 -1     24887 8.39535E+01 1.32969E+01 9.54545E+00
 -1     24891 8.08398E+01 2.62664E+01 4.54545E-01
 -1     24892 8.23967E+01 1.97817E+01 9.09091E-01
 -1     24893 7.96510E+01 2.58802E+01 9.09091E-01
 -1     24898 8.08398E+01 2.62664E+01 1.36364E+00
 -1     24899 8.23967E+01 1.97817E+01 1.81818E+00
 -1     24900 7.96510E+01 2.58802E+01 1.81818E+00
 -1     24905 8.08398E+01 2.62664E+01 2.27273E+00
 -1     24906 8.23967E+01 1.97817E+01 2.72727E+00
 -1     24907 7.96510E+01 2.58802E+01 2.72727E+00
 -1     24912 8.08398E+01 2.62664E+01 3.18182E+00
 -1     24913 8.23967E+01 1.97817E+01 3.63636E+00
 -1     24914 7.96510E+01 2.58802E+01 3.63636E+00
 -1     24919 8.08398E+01 2.62664E+01 4.09091E+00
 -1     24920 8.23967E+01 1.97817E+01 4.54545E+00
 -1     24921 7.96510E+01 2.58802E+01 4.54545E+00
 -1     24926 8.08398E+01 2.62664E+01 5.00000E+00
 -1     24927 8.23967E+01 1.97817E+01 5.45455E+00
 -1     24928 7.96510E+01 2.58802E+01 5.45455E+00
 -1     24933 8.08398E+01 2.62664E+01 5.90909E+00
 -1     24934 8.23967E+01 1.97817E+01 6.36364E+00
 -1     24935 7.96510E+01 2.58802E+01 6.36364E+00
 -1     24940 8.08398E+01 2.62664E+01 6.81818E+00
 -1     24941 8.23967E+01 1.97817E+01 7.27273E+00
 -1     24942 7.96510E+01 2.58802E+01 7.27273E+00
 -1     24947 8.08398E+01 2.62664E+01 7.72727E+00
 -1     24948 8.23967E+01 1.97817E+01 8.18182E+00
 -1     24949 7.96510E+01 2.58802E+01 8.18182E+00
 -1     24954 8.08398E+01 2.62664E+01 8.63636E+00
 -1     24955 8.23967E+01 1.97817E+01 9.09091E+00
 -1     24956 7.96510E+01 2.58802E+01 9.09091E+00
 -1     24961 8.08398E+01 2.62664E+01 9.54545E+00
 -1     24965 7.57356E+01 3.85892E+01 4.54545E-01
 -1     24966 7.82877E+01 3.24278E+01 9.09091E-01
 -1     24967 7.46218E+01 3.80217E+01 9.09091E-01
 -1     24972 7.57356E+01 3.85892E+01 1.36364E+00
 -1     24973 7.82877E+01 3.24278E+01 1.81818E+00
 -1     24974 7.46218E+01 3.80217E+01 1.81818E+00
 -1     24979 7.57356E+01 3.85892E+01 2.27273E+00
 -1     24980 7.82877E+01 3.24278E+01 2.72727E+00
 -1     24981 7.46218E+01 3.80217E+01 2.72727E+00
 -1     24986 7.57356E+01 3.85892E+01 3.18182E+00
 -1     24987 7.82877E+01 3.24278E+01 3.63636E+00
 -1     24988 7.46218E+01 3.80217E+01 3.63636E+00
 -1     24993 7.57356E+01 3.85892E+01 4.09091E+00
 -1     24994 7.82877E+01 3.24278E+01 4.54545E+00
 -1     24995 7.46218E+01 3.80217E+01 4.54545E+00
 -1     25000 7.57356E+01 3.85892E+01 5.00000E+00
 -1     25001 7.82877E+01 3.24278E+01 5.45455E+00
 -1     25002 7.46218E+01 3.80217E+01 5.45455E+00
 -1     25007 7.57356E+01 3.85892E+01 5.90909E+00
 -1     25008 7.82877E+01 3.24278E+01 6.36364E+00
 -1     25009 7.46218E+01 3.80217E+01 6.36364E+00
 -1     25014 7.57356E+01 3.85892E+01 6.81818E+00
 -1     25015 7.82877E+01 3.24278E+01 7.27273E+00
 -1     25016 7.46218E+01 3.80217E+01 7.27273E+00
 -1     25021 7.57356E+01 3.85892E+01 7.72727E+00
 -1     25022 7.82877E+01 3.24278E+01 8.18182E+00
 -1     25023 7.46218E+01 3.80217E+01 8.18182E+00
 -1     25028 7.57356E+01 3.85892E+01 8.63636E+00
 -1     25029 7.82877E+01 3.24278E+01 9.09091E+00
 -1     25030 7.46218E+01 3.80217E+01 9.09091E+00
 -1     25035 7.57356E+01 3.85892E+01 9.54545E+00
 -1     25039 6.87664E+01 4.99617E+01 4.54545E-01
 -1     25040 7.22510E+01 4.42755E+01 9.09091E-01
 -1     25041 6.77552E+01 4.92270E+01 9.09091E-01
 -1     25046 6.87664E+01 4.99617E+01 1.36364E+00
 -1     25047 7.22510E+01 4.42755E+01 1.81818E+00
 -1     25048 6.77552E+01 4.92270E+01 1.81818E+00
 -1     25053 6.87664E+01 4.99617E+01 2.27273E+00
 -1     25054 7.22510E+01 4.42755E+01 2.72727E+00
 -1     25055 6.77552E+01 4.92270E+01 2.72727E+00
 -1     25060 6.87664E+01 4.99617E+01 3.18182E+00
 -1     25061 7.22510E+01 4.42755E+01 3.63636E+00
 -1     25062 6.77552E+01 4.92270E+01 3.63636E+00
 -1     25067 6.87664E+01 4.99617E+01 4.09091E+00
 -1     25068 7.22510E+01 4.42755E+01 4.54545E+00
 -1     25069 6.77552E+01 4.92270E+01 4.54545E+00
 -1     25074 6.87664E+01 4.99617E+01 5.00000E+00
 -1     25075 7.22510E+01 4.42755E+01 5.45455E+00
 -1     25076 6.77552E+01 4.92270E+01 5.45455E+00
 -1     25081 6.87664E+01 4.99617E+01 5.90909E+00
 -1     25082 7.22510E+01 4.42755E+01 6.36364E+00
 -1     25083 6.77552E+01 4.92270E+01 6.36364E+00
 -1     25088 6.87664E+01 4.99617E+01 6.81818E+00
 -1     25089 7.22510E+01 4.42755E+01 7.27273E+00
 -1     25090 6.77552E+01 4.92270E+01 7.27273E+00
 -1     25095 6.87664E+01 4.99617E+01 7.72727E+00
 -1     25096 7.22510E+01 4.42755E+01 8.18182E+00
 -1     25097 6.77552E+01 4.92270E+01 8.18182E+00
 -1     25102 6.87664E+01 4.99617E+01 8.63636E+00
 -1     25103 7.22510E+01 4.42755E+01 9.09091E+00
 -1     25104 6.77552E+01 4.92270E+01 9.09091E+00
 -1     25109 6.87664E+01 4.99617E+01 9.54545E+00
 -1     25113 6.01041E+01 6.01041E+01 4.54545E-01
 -1     25114 6.44353E+01 5.50329E+01 9.09091E-01
 -1     25115 5.92202E+01 5.92202E+01 9.09091E-01
 -1     25120 6.01041E+01 6.01041E+01 1.36364E+00
 -1     25121 6.44353E+01 5.50329E+01 1.81818E+00
 -1     25122 5.92202E+01 5.92202E+01 1.81818E+00
 -1     25127 6.01041E+01 6.01041E+01 2.27273E+00
 -1     25128 6.44353E+01 5.50329E+01 2.72727E+00
 -1     25129 5.92202E+01 5.92202E+01 2.72727E+00
 -1     25134 6.01041E+01 6.01041E+01 3.18182E+00
 -1     25135 6.44353E+01 5.50329E+01 3.63636E+00
 -1     25136 5.92202E+01 5.92202E+01 3.63636E+00
 -1     25141 6.01041E+01 6.01041E+01 4.09091E+00
 -1     25142 6.44353E+01 5.50329E+01 4.54545E+00
 -1     25143 5.92202E+01 5.92202E+01 4.54545E+00
 -1     25148 6.01041E+01 6.01041E+01 5.00000E+00
 -1     25149 6.44353E+01 5.50329E+01 5.45455E+00
 -1     25150 5.92202E+01 5.92202E+01 5.45455E+00
 -1     25155 6.01041E+01 6.01041E+01 5.90909E+00
 -1     25156 6.44353E+01 5.50329E+01 6.36364E+00
 -1     25157 5.92202E+01 5.92202E+01 6.36364E+00
 -1     25162 6.01041E+01 6.01041E+01 6.81818E+00
 -1     25163 6.44353E+01 5.50329E+01 7.27273E+00
 -1     25164 5.92202E+01 5.92202E+01 7.27273E+00
 -1     25169 6.01041E+01 6.01041E+01 7.72727E+00
 -1     25170 6.44353E+01 5.50329E+01 8.18182E+00
 -1     25171 5.92202E+01 5.92202E+01 8.18182E+00
 -1     25176 6.01041E+01 6.01041E+01 8.63636E+00
 -1     25177 6.44353E+01 5.50329E+01 9.09091E+00
 -1     25178 5.92202E+01 5.92202E+01 9.09091E+00
 -1     25183 6.01041E+01 6.01041E+01 9.54545E+00
 -1     25187 4.99617E+01 6.87664E+01 4.54545E-01
 -1     25188 5.50329E+01 6.44353E+01 9.09091E-01
 -1     25189 4.92270E+01 6.77552E+01 9.09091E-01
 -1     25194 4.99617E+01 6.87664E+01 1.36364E+00
 -1     25195 5.50329E+01 6.44353E+01 1.81818E+00
 -1     25196 4.92270E+01 6.77552E+01 1.81818E+00
 -1     25201 4.99617E+01 6.87664E+01 2.27273E+00
 -1     25202 5.50329E+01 6.44353E+01 2.72727E+00
 -1     25203 4.92270E+01 6.77552E+01 2.72727E+00
 -1     25208 4.99617E+01 6.87664E+01 3.18182E+00
 -1     25209 5.50329E+01 6.44353E+01 3.63636E+00
 -1     25210 4.92270E+01 6.77552E+01 3.63636E+00
 -1     25215 4.99617E+01 6.87664E+01 4.09091E+00
 -1     25216 5.50329E+01 6.44353E+01 4.54545E+00
 -1     25217 4.92270E+01 6.77552E+01 4.54545E+00
 -1     25222 4.99617E+01 6.87664E+01 5.00000E+00
 -1     25223 5.50329E+01 6.44353E+01 5.45455E+00
 -1     25224 4.92270E+01 6.77552E+01 5.45455E+00
 -1     25229 4.99617E+01 6.87664E+01 5.90909E+00
 -1     25230 5.50329E+01 6.44353E+01 6.36364E+00
 -1     25231 4.92270E+01 6.77552E+01 6.36364E+00
 -1     25236 4.99617E+01 6.87664E+01 6.81818E+00
 -1     25237 5.50329E+01 6.44353E+01 7.27273E+00
 -1     25238 4.92270E+01 6.77552E+01 7.27273E+00
 -1     25243 4.99617E+01 6.87664E+01 7.72727E+00
 -1     25244 5.50329E+01 6.44353E+01 8.18182E+00
 -1     25245 4.92270E+01 6.77552E+01 8.18182E+00
 -1     25250 4.99617E+01 6.87664E+01 8.63636E+00
 -1     25251 5.50329E+01 6.44353E+01 9.09091E+00
 -1     25252 4.92270E+01 6.77552E+01 9.09091E+00
 -1     25257 4.99617E+01 6.87664E+01 9.54545E+00
 -1     25261 3.85892E+01 7.57356E+01 4.54545E-01
 -1     25262 4.42755E+01 7.22510E+01 9.09091E-01
 -1     25263 3.80217E+01 7.46218E+01 9.09091E-01
 -1     25268 3.85892E+01 7.57356E+01 1.36364E+00
 -1     25269 4.42755E+01 7.22510E+01 1.81818E+00
 -1     25270 3.80217E+01 7.46218E+01 1.81818E+00
 -1     25275 3.85892E+01 7.57356E+01 2.27273E+00
 -1     25276 4.42755E+01 7.22510E+01 2.72727E+00
 -1     25277 3.80217E+01 7.46218E+01 2.72727E+00
 -1     25282 3.85892E+01 7.57356E+01 3.18182E+00
 -1     25283 4.42755E+01 7.22510E+01 3.63636E+00
 -1     25284 3.80217E+01 7.46218E+01 3.63636E+00
 -1     25289 3.85892E+01 7.57356E+01 4.09091E+00
 -1     25290 4.42755E+01 7.22510E+01 4.54545E+00
 -1     25291 3.80217E+01 7.46218E+01 4.54545E+00
 -1     25296 3.85892E+01 7.57356E+01 5.00000E+00
 -1     25297 4.42755E+01 7.22510E+01 5.45455E+00
 -1     25298 3.80217E+01 7.46218E+01 5.45455E+00
 -1     25303 3.85892E+01 7.57356E+01 5.90909E+00
 -1     25304 4.42755E+01 7.22510E+01 6.36364E+00
 -1     25305 3.80217E+01 7.46218E+01 6.36364E+00
 -1     25310 3.85892E+01 7.57356E+01 6.81818E+00
 -1     25311 4.42755E+01 7.22510E+01 7.27273E+00
 -1     25312 3.80217E+01 7.46218E+01 7.27273E+00
 -1     25317 3.85892E+01 7.57356E+01 7.72727E+00
 -1     25318 4.42755E+01 7.22510E+01 8.18182E+00
 -1     25319 3.80217E+01 7.46218E+01 8.18182E+00
 -1     25324 3.85892E+01 7.57356E+01 8.63636E+00
 -1     25325 4.42755E+01 7.22510E+01 9.09091E+00
 -1     25326 3.80217E+01 7.46218E+01 9.09091E+00
 -1     25331 3.85892E+01 7.57356E+01 9.54545E+00
 -1     25335 2.62664E+01 8.08398E+01 4.54545E-01
 -1     25336 3.24278E+01 7.82877E+01 9.09091E-01
 -1     25337 2.58802E+01 7.96510E+01 9.09091E-01
 -1     25342 2.62664E+01 8.08398E+01 1.36364E+00
 -1     25343 3.24278E+01 7.82877E+01 1.81818E+00
 -1     25344 2.58802E+01 7.96510E+01 1.81818E+00
 -1     25349 2.62664E+01 8.08398E+01 2.27273E+00
 -1     25350 3.24278E+01 7.82877E+01 2.72727E+00
 -1     25351 2.58802E+01 7.96510E+01 2.72727E+00
 -1     25356 2.62664E+01 8.08398E+01 3.18182E+00
 -1     25357 3.24278E+01 7.82877E+01 3.63636E+00
 -1     25358 2.58802E+01 7.96510E+01 3.63636E+00
 -1     25363 2.62664E+01 8.08398E+01 4.09091E+00
 -1     25364 3.24278E+01 7.82877E+01 4.54545E+00
 -1     25365 2.58802E+01 7.96510E+01 4.54545E+00
 -1     25370 2.62664E+01 8.08398E+01 5.00000E+00
 -1     25371 3.24278E+01 7.82877E+01 5.45455E+00
 -1     25372 2.58802E+01 7.96510E+01 5.45455E+00
 -1     25377 2.62664E+01 8.08398E+01 5.90909E+00
 -1     25378 3.24278E+01 7.82877E+01 6.36364E+00
 -1     25379 2.58802E+01 7.96510E+01 6.36364E+00
 -1     25384 2.62664E+01 8.08398E+01 6.81818E+00
 -1     25385 3.24278E+01 7.82877E+01 7.27273E+00
 -1     25386 2.58802E+01 7.96510E+01 7.27273E+00
 -1     25391 2.62664E+01 8.08398E+01 7.72727E+00
 -1     25392 3.24278E+01 7.82877E+01 8.18182E+00
 -1     25393 2.58802E+01 7.96510E+01 8.18182E+00
 -1     25398 2.62664E+01 8.08398E+01 8.63636E+00
 -1     25399 3.24278E+01 7.82877E+01 9.09091E+00
 -1     25400 2.58802E+01 7.96510E+01 9.09091E+00
 -1     25405 2.62664E+01 8.08398E+01 9.54545E+00
 -1     25409 1.32969E+01 8.39535E+01 4.54545E-01
 -1     25410 1.97817E+01 8.23967E+01 9.09091E-01
 -1     25411 1.31014E+01 8.27189E+01 9.09091E-01
 -1     25416 1.32969E+01 8.39535E+01 1.36364E+00
 -1     25417 1.97817E+01 8.23967E+01 1.81818E+00
 -1     25418 1.31014E+01 8.27189E+01 1.81818E+00
 -1     25423 1.32969E+01 8.39535E+01 2.27273E+00
 -1     25424 1.97817E+01 8.23967E+01 2.72727E+00
 -1     25425 1.31014E+01 8.27189E+01 2.72727E+00
 -1     25430 1.32969E+01 8.39535E+01 3.18182E+00
 -1     25431 1.97817E+01 8.23967E+01 3.63636E+00
 -1     25432 1.31014E+01 8.27189E+01 3.63636E+00
 -1     25437 1.32969E+01 8.39535E+01 4.09091E+00
 -1     25438 1.97817E+01 8.23967E+01 4.54545E+00
 -1     25439 1.31014E+01 8.27189E+01 4.54545E+00
 -1     25444 1.32969E+01 8.39535E+01 5.00000E+00
 -1     25445 1.97817E+01 8.23967E+01 5.45455E+00
 -1     25446 1.31014E+01 8.27189E+01 5.45455E+00
 -1     25451 1.32969E+01 8.39535E+01 5.90909E+00
 -1     25452 1.97817E+01 8.23967E+01 6.36364E+00
 -1     25453 1.31014E+01 8.27189E+01 6.36364E+00
 -1     25458 1.32969E+01 8.39535E+01 6.81818E+00
 -1     25459 1.97817E+01 8.23967E+01 7.27273E+00
 -1     25460 1.31014E+01 8.27189E+01 7.27273E+00
 -1     25465 1.32969E+01 8.39535E+01 7.72727E+00
 -1     25466 1.97817E+01 8.23967E+01 8.18182E+00
 -1     25467 1.31014E+01 8.27189E+01 8.18182E+00
 -1     25472 1.32969E+01 8.39535E+01 8.63636E+00
 -1     25473 1.97817E+01 8.23967E+01 9.09091E+00
 -1     25474 1.31014E+01 8.27189E+01 9.09091E+00
 -1     25479 1.32969E+01 8.39535E+01 9.54545E+00
 -1     25483 6.64846E+00 8.44768E+01 9.09091E-01
 -1     25487 6.64846E+00 8.44768E+01 1.81818E+00
 -1     25491 6.64846E+00 8.44768E+01 2.72727E+00
 -1     25495 6.64846E+00 8.44768E+01 3.63636E+00
 -1     25499 6.64846E+00 8.44768E+01 4.54545E+00
 -1     25503 6.64846E+00 8.44768E+01 5.45455E+00
 -1     25507 6.64846E+00 8.44768E+01 6.36364E+00
 -1     25511 6.64846E+00 8.44768E+01 7.27273E+00
 -1     25515 6.64846E+00 8.44768E+01 8.18182E+00
 -1     25519 6.64846E+00 8.44768E+01 9.09091E+00
 -1     25525 8.64227E+01 1.36880E+01 4.54545E-01
 -1     25526 8.69614E+01 6.84401E+00 9.09091E-01
 -1     25527 8.51881E+01 1.34925E+01 9.09091E-01
 -1     25532 8.64227E+01 1.36880E+01 1.36364E+00
 -1     25533 8.69614E+01 6.84401E+00 1.81818E+00
 -1     25534 8.51881E+01 1.34925E+01 1.81818E+00
 -1     25539 8.64227E+01 1.36880E+01 2.27273E+00
 -1     25540 8.69614E+01 6.84401E+00 2.72727E+00
 -1     25541 8.51881E+01 1.34925E+01 2.72727E+00
 -1     25546 8.64227E+01 1.36880E+01 3.18182E+00
 -1     25547 8.69614E+01 6.84401E+00 3.63636E+00
 -1     25548 8.51881E+01 1.34925E+01 3.63636E+00
 -1     25553 8.64227E+01 1.36880E+01 4.09091E+00
 -1     25554 8.69614E+01 6.84401E+00 4.54545E+00
 -1     25555 8.51881E+01 1.34925E+01 4.54545E+00
 -1     25560 8.64227E+01 1.36880E+01 5.00000E+00
 -1     25561 8.69614E+01 6.84401E+00 5.45455E+00
 -1     25562 8.51881E+01 1.34925E+01 5.45455E+00
 -1     25567 8.64227E+01 1.36880E+01 5.90909E+00
 -1     25568 8.69614E+01 6.84401E+00 6.36364E+00
 -1     25569 8.51881E+01 1.34925E+01 6.36364E+00
 -1     25574 8.64227E+01 1.36880E+01 6.81818E+00
 -1     25575 8.69614E+01 6.84401E+00 7.27273E+00
 -1     25576 8.51881E+01 1.34925E+01 7.27273E+00
 -1     25581 8.64227E+01 1.36880E+01 7.72727E+00
 -1     25582 8.69614E+01 6.84401E+00 8.18182E+00
 -1     25583 8.51881E+01 1.34925E+01 8.18182E+00
 -1     25588 8.64227E+01 1.36880E+01 8.63636E+00
 -1     25589 8.69614E+01 6.84401E+00 9.09091E+00
 -1     25590 8.51881E+01 1.34925E+01 9.09091E+00
 -1     25595 8.64227E+01 1.36880E+01 9.54545E+00
 -1     25599 8.32174E+01 2.70390E+01 4.54545E-01
 -1     25600 8.48201E+01 2.03635E+01 9.09091E-01
 -1     25601 8.20286E+01 2.66527E+01 9.09091E-01
 -1     25606 8.32174E+01 2.70390E+01 1.36364E+00
 -1     25607 8.48201E+01 2.03635E+01 1.81818E+00
 -1     25608 8.20286E+01 2.66527E+01 1.81818E+00
 -1     25613 8.32174E+01 2.70390E+01 2.27273E+00
 -1     25614 8.48201E+01 2.03635E+01 2.72727E+00
 -1     25615 8.20286E+01 2.66527E+01 2.72727E+00
 -1     25620 8.32174E+01 2.70390E+01 3.18182E+00
 -1     25621 8.48201E+01 2.03635E+01 3.63636E+00
 -1     25622 8.20286E+01 2.66527E+01 3.63636E+00
 -1     25627 8.32174E+01 2.70390E+01 4.09091E+00
 -1     25628 8.48201E+01 2.03635E+01 4.54545E+00
 -1     25629 8.20286E+01 2.66527E+01 4.54545E+00
 -1     25634 8.32174E+01 2.70390E+01 5.00000E+00
 -1     25635 8.48201E+01 2.03635E+01 5.45455E+00
 -1     25636 8.20286E+01 2.66527E+01 5.45455E+00
 -1     25641 8.32174E+01 2.70390E+01 5.90909E+00
 -1     25642 8.48201E+01 2.03635E+01 6.36364E+00
 -1     25643 8.20286E+01 2.66527E+01 6.36364E+00
 -1     25648 8.32174E+01 2.70390E+01 6.81818E+00
 -1     25649 8.48201E+01 2.03635E+01 7.27273E+00
 -1     25650 8.20286E+01 2.66527E+01 7.27273E+00
 -1     25655 8.32174E+01 2.70390E+01 7.72727E+00
 -1     25656 8.48201E+01 2.03635E+01 8.18182E+00
 -1     25657 8.20286E+01 2.66527E+01 8.18182E+00
 -1     25662 8.32174E+01 2.70390E+01 8.63636E+00
 -1     25663 8.48201E+01 2.03635E+01 9.09091E+00
 -1     25664 8.20286E+01 2.66527E+01 9.09091E+00
 -1     25669 8.32174E+01 2.70390E+01 9.54545E+00
 -1     25673 7.79631E+01 3.97242E+01 4.54545E-01
 -1     25674 8.05903E+01 3.33816E+01 9.09091E-01
 -1     25675 7.68493E+01 3.91567E+01 9.09091E-01
 -1     25680 7.79631E+01 3.97242E+01 1.36364E+00
 -1     25681 8.05903E+01 3.33816E+01 1.81818E+00
 -1     25682 7.68493E+01 3.91567E+01 1.81818E+00
 -1     25687 7.79631E+01 3.97242E+01 2.27273E+00
 -1     25688 8.05903E+01 3.33816E+01 2.72727E+00
 -1     25689 7.68493E+01 3.91567E+01 2.72727E+00
 -1     25694 7.79631E+01 3.97242E+01 3.18182E+00
 -1     25695 8.05903E+01 3.33816E+01 3.63636E+00
 -1     25696 7.68493E+01 3.91567E+01 3.63636E+00
 -1     25701 7.79631E+01 3.97242E+01 4.09091E+00
 -1     25702 8.05903E+01 3.33816E+01 4.54545E+00
 -1     25703 7.68493E+01 3.91567E+01 4.54545E+00
 -1     25708 7.79631E+01 3.97242E+01 5.00000E+00
 -1     25709 8.05903E+01 3.33816E+01 5.45455E+00
 -1     25710 7.68493E+01 3.91567E+01 5.45455E+00
 -1     25715 7.79631E+01 3.97242E+01 5.90909E+00
 -1     25716 8.05903E+01 3.33816E+01 6.36364E+00
 -1     25717 7.68493E+01 3.91567E+01 6.36364E+00
 -1     25722 7.79631E+01 3.97242E+01 6.81818E+00
 -1     25723 8.05903E+01 3.33816E+01 7.27273E+00
 -1     25724 7.68493E+01 3.91567E+01 7.27273E+00
 -1     25729 7.79631E+01 3.97242E+01 7.72727E+00
 -1     25730 8.05903E+01 3.33816E+01 8.18182E+00
 -1     25731 7.68493E+01 3.91567E+01 8.18182E+00
 -1     25736 7.79631E+01 3.97242E+01 8.63636E+00
 -1     25737 8.05903E+01 3.33816E+01 9.09091E+00
 -1     25738 7.68493E+01 3.91567E+01 9.09091E+00
 -1     25743 7.79631E+01 3.97242E+01 9.54545E+00
 -1     25747 7.07890E+01 5.14312E+01 4.54545E-01
 -1     25748 7.43760E+01 4.55777E+01 9.09091E-01
 -1     25749 6.97777E+01 5.06965E+01 9.09091E-01
 -1     25754 7.07890E+01 5.14312E+01 1.36364E+00
 -1     25755 7.43760E+01 4.55777E+01 1.81818E+00
 -1     25756 6.97777E+01 5.06965E+01 1.81818E+00
 -1     25761 7.07890E+01 5.14312E+01 2.27273E+00
 -1     25762 7.43760E+01 4.55777E+01 2.72727E+00
 -1     25763 6.97777E+01 5.06965E+01 2.72727E+00
 -1     25768 7.07890E+01 5.14312E+01 3.18182E+00
 -1     25769 7.43760E+01 4.55777E+01 3.63636E+00
 -1     25770 6.97777E+01 5.06965E+01 3.63636E+00
 -1     25775 7.07890E+01 5.14312E+01 4.09091E+00
 -1     25776 7.43760E+01 4.55777E+01 4.54545E+00
 -1     25777 6.97777E+01 5.06965E+01 4.54545E+00
 -1     25782 7.07890E+01 5.14312E+01 5.00000E+00
 -1     25783 7.43760E+01 4.55777E+01 5.45455E+00
 -1     25784 6.97777E+01 5.06965E+01 5.45455E+00
 -1     25789 7.07890E+01 5.14312E+01 5.90909E+00
 -1     25790 7.43760E+01 4.55777E+01 6.36364E+00
 -1     25791 6.97777E+01 5.06965E+01 6.36364E+00
 -1     25796 7.07890E+01 5.14312E+01 6.81818E+00
 -1     25797 7.43760E+01 4.55777E+01 7.27273E+00
 -1     25798 6.97777E+01 5.06965E+01 7.27273E+00
 -1     25803 7.07890E+01 5.14312E+01 7.72727E+00
 -1     25804 7.43760E+01 4.55777E+01 8.18182E+00
 -1     25805 6.97777E+01 5.06965E+01 8.18182E+00
 -1     25810 7.07890E+01 5.14312E+01 8.63636E+00
 -1     25811 7.43760E+01 4.55777E+01 9.09091E+00
 -1     25812 6.97777E+01 5.06965E+01 9.09091E+00
 -1     25817 7.07890E+01 5.14312E+01 9.54545E+00
 -1     25821 6.18718E+01 6.18718E+01 4.54545E-01
 -1     25822 6.63304E+01 5.66515E+01 9.09091E-01
 -1     25823 6.09880E+01 6.09880E+01 9.09091E-01
 -1     25828 6.18718E+01 6.18718E+01 1.36364E+00
 -1     25829 6.63304E+01 5.66515E+01 1.81818E+00
 -1     25830 6.09880E+01 6.09880E+01 1.81818E+00
 -1     25835 6.18718E+01 6.18718E+01 2.27273E+00
 -1     25836 6.63304E+01 5.66515E+01 2.72727E+00
 -1     25837 6.09880E+01 6.09880E+01 2.72727E+00
 -1     25842 6.18718E+01 6.18718E+01 3.18182E+00
 -1     25843 6.63304E+01 5.66515E+01 3.63636E+00
 -1     25844 6.09880E+01 6.09880E+01 3.63636E+00
 -1     25849 6.18718E+01 6.18718E+01 4.09091E+00
 -1     25850 6.63304E+01 5.66515E+01 4.54545E+00
 -1     25851 6.09880E+01 6.09880E+01 4.54545E+00
 -1     25856 6.18718E+01 6.18718E+01 5.00000E+00
 -1     25857 6.63304E+01 5.66515E+01 5.45455E+00
 -1     25858 6.09880E+01 6.09880E+01 5.45455E+00
 -1     25863 6.18718E+01 6.18718E+01 5.90909E+00
 -1     25864 6.63304E+01 5.66515E+01 6.36364E+00
 -1     25865 6.09880E+01 6.09880E+01 6.36364E+00
 -1     25870 6.18718E+01 6.18718E+01 6.81818E+00
 -1     25871 6.63304E+01 5.66515E+01 7.27273E+00
 -1     25872 6.09880E+01 6.09880E+01 7.27273E+00
 -1     25877 6.18718E+01 6.18718E+01 7.72727E+00
 -1     25878 6.63304E+01 5.66515E+01 8.18182E+00
 -1     25879 6.09880E+01 6.09880E+01 8.18182E+00
 -1     25884 6.18718E+01 6.18718E+01 8.63636E+00
 -1     25885 6.63304E+01 5.66515E+01 9.09091E+00
 -1     25886 6.09880E+01 6.09880E+01 9.09091E+00
 -1     25891 6.18718E+01 6.18718E+01 9.54545E+00
 -1     25895 5.14312E+01 7.07890E+01 4.54545E-01
 -1     25896 5.66515E+01 6.63304E+01 9.09091E-01
 -1     25897 5.06965E+01 6.97777E+01 9.09091E-01
 -1     25902 5.14312E+01 7.07890E+01 1.36364E+00
 -1     25903 5.66515E+01 6.63304E+01 1.81818E+00
 -1     25904 5.06965E+01 6.97777E+01 1.81818E+00
 -1     25909 5.14312E+01 7.07890E+01 2.27273E+00
 -1     25910 5.66515E+01 6.63304E+01 2.72727E+00
 -1     25911 5.06965E+01 6.97777E+01 2.72727E+00
 -1     25916 5.14312E+01 7.07890E+01 3.18182E+00
 -1     25917 5.66515E+01 6.63304E+01 3.63636E+00
 -1     25918 5.06965E+01 6.97777E+01 3.63636E+00
 -1     25923 5.14312E+01 7.07890E+01 4.09091E+00
 -1     25924 5.66515E+01 6.63304E+01 4.54545E+00
 -1     25925 5.06965E+01 6.97777E+01 4.54545E+00
 -1     25930 5.14312E+01 7.07890E+01 5.00000E+00
 -1     25931 5.66515E+01 6.63304E+01 5.45455E+00
 -1     25932 5.06965E+01 6.97777E+01 5.45455E+00
 -1     25937 5.14312E+01 7.07890E+01 5.90909E+00
 -1     25938 5.66515E+01 6.63304E+01 6.36364E+00
 -1     25939 5.06965E+01 6.97777E+01 6.36364E+00
 -1     25944 5.14312E+01 7.07890E+01 6.81818E+00
 -1     25945 5.66515E+01 6.63304E+01 7.27273E+00
 -1     25946 5.06965E+01 6.97777E+01 7.27273E+00
 -1     25951 5.14312E+01 7.07890E+01 7.72727E+00
 -1     25952 5.66515E+01 6.63304E+01 8.18182E+00
 -1     25953 5.06965E+01 6.97777E+01 8.18182E+00
 -1     25958 5.14312E+01 7.07890E+01 8.63636E+00
 -1     25959 5.66515E+01 6.63304E+01 9.09091E+00
 -1     25960 5.06965E+01 6.97777E+01 9.09091E+00
 -1     25965 5.14312E+01 7.07890E+01 9.54545E+00
 -1     25969 3.97242E+01 7.79631E+01 4.54545E-01
 -1     25970 4.55777E+01 7.43760E+01 9.09091E-01
 -1     25971 3.91567E+01 7.68493E+01 9.09091E-01
 -1     25976 3.97242E+01 7.79631E+01 1.36364E+00
 -1     25977 4.55777E+01 7.43760E+01 1.81818E+00
 -1     25978 3.91567E+01 7.68493E+01 1.81818E+00
 -1     25983 3.97242E+01 7.79631E+01 2.27273E+00
 -1     25984 4.55777E+01 7.43760E+01 2.72727E+00
 -1     25985 3.91567E+01 7.68493E+01 2.72727E+00
 -1     25990 3.97242E+01 7.79631E+01 3.18182E+00
 -1     25991 4.55777E+01 7.43760E+01 3.63636E+00
 -1     25992 3.91567E+01 7.68493E+01 3.63636E+00
 -1     25997 3.97242E+01 7.79631E+01 4.09091E+00
 -1     25998 4.55777E+01 7.43760E+01 4.54545E+00
 -1     25999 3.91567E+01 7.68493E+01 4.54545E+00
 -1     26004 3.97242E+01 7.79631E+01 5.00000E+00
 -1     26005 4.55777E+01 7.43760E+01 5.45455E+00
 -1     26006 3.91567E+01 7.68493E+01 5.45455E+00
 -1     26011 3.97242E+01 7.79631E+01 5.90909E+00
 -1     26012 4.55777E+01 7.43760E+01 6.36364E+00
 -1     26013 3.91567E+01 7.68493E+01 6.36364E+00
 -1     26018 3.97242E+01 7.79631E+01 6.81818E+00
 -1     26019 4.55777E+01 7.43760E+01 7.27273E+00
 -1     26020 3.91567E+01 7.68493E+01 7.27273E+00
 -1     26025 3.97242E+01 7.79631E+01 7.72727E+00
 -1     26026 4.55777E+01 7.43760E+01 8.18182E+00
 -1     26027 3.91567E+01 7.68493E+01 8.18182E+00
 -1     26032 3.97242E+01 7.79631E+01 8.63636E+00
 -1     26033 4.55777E+01 7.43760E+01 9.09091E+00
 -1     26034 3.91567E+01 7.68493E+01 9.09091E+00
 -1     26039 3.97242E+01 7.79631E+01 9.54545E+00
 -1     26043 2.70390E+01 8.32174E+01 4.54545E-01
 -1     26044 3.33816E+01 8.05903E+01 9.09091E-01
 -1     26045 2.66527E+01 8.20286E+01 9.09091E-01
 -1     26050 2.70390E+01 8.32174E+01 1.36364E+00
 -1     26051 3.33816E+01 8.05903E+01 1.81818E+00
 -1     26052 2.66527E+01 8.20286E+01 1.81818E+00
 -1     26057 2.70390E+01 8.32174E+01 2.27273E+00
 -1     26058 3.33816E+01 8.05903E+01 2.72727E+00
 -1     26059 2.66527E+01 8.20286E+01 2.72727E+00
 -1     26064 2.70390E+01 8.32174E+01 3.18182E+00
 -1     26065 3.33816E+01 8.05903E+01 3.63636E+00
 -1     26066 2.66527E+01 8.20286E+01 3.63636E+00
 -1     26071 2.70390E+01 8.32174E+01 4.09091E+00
 -1     26072 3.33816E+01 8.05903E+01 4.54545E+00
 -1     26073 2.66527E+01 8.20286E+01 4.54545E+00
 -1     26078 2.70390E+01 8.32174E+01 5.00000E+00
 -1     26079 3.33816E+01 8.05903E+01 5.45455E+00
 -1     26080 2.66527E+01 8.20286E+01 5.45455E+00
 -1     26085 2.70390E+01 8.32174E+01 5.90909E+00
 -1     26086 3.33816E+01 8.05903E+01 6.36364E+00
 -1     26087 2.66527E+01 8.20286E+01 6.36364E+00
 -1     26092 2.70390E+01 8.32174E+01 6.81818E+00
 -1     26093 3.33816E+01 8.05903E+01 7.27273E+00
 -1     26094 2.66527E+01 8.20286E+01 7.27273E+00
 -1     26099 2.70390E+01 8.32174E+01 7.72727E+00
 -1     26100 3.33816E+01 8.05903E+01 8.18182E+00
 -1     26101 2.66527E+01 8.20286E+01 8.18182E+00
 -1     26106 2.70390E+01 8.32174E+01 8.63636E+00
 -1     26107 3.33816E+01 8.05903E+01 9.09091E+00
 -1     26108 2.66527E+01 8.20286E+01 9.09091E+00
 -1     26113 2.70390E+01 8.32174E+01 9.54545E+00
 -1     26117 1.36880E+01 8.64227E+01 4.54545E-01
 -1     26118 2.03635E+01 8.48201E+01 9.09091E-01
 -1     26119 1.34925E+01 8.51881E+01 9.09091E-01
 -1     26124 1.36880E+01 8.64227E+01 1.36364E+00
 -1     26125 2.03635E+01 8.48201E+01 1.81818E+00
 -1     26126 1.34925E+01 8.51881E+01 1.81818E+00
 -1     26131 1.36880E+01 8.64227E+01 2.27273E+00
 -1     26132 2.03635E+01 8.48201E+01 2.72727E+00
 -1     26133 1.34925E+01 8.51881E+01 2.72727E+00
 -1     26138 1.36880E+01 8.64227E+01 3.18182E+00
 -1     26139 2.03635E+01 8.48201E+01 3.63636E+00
 -1     26140 1.34925E+01 8.51881E+01 3.63636E+00
 -1     26145 1.36880E+01 8.64227E+01 4.09091E+00
 -1     26146 2.03635E+01 8.48201E+01 4.54545E+00
 -1     26147 1.34925E+01 8.51881E+01 4.54545E+00
 -1     26152 1.36880E+01 8.64227E+01 5.00000E+00
 -1     26153 2.03635E+01 8.48201E+01 5.45455E+00
 -1     26154 1.34925E+01 8.51881E+01 5.45455E+00
 -1     26159 1.36880E+01 8.64227E+01 5.90909E+00
 -1     26160 2.03635E+01 8.48201E+01 6.36364E+00
 -1     26161 1.34925E+01 8.51881E+01 6.36364E+00
 -1     26166 1.36880E+01 8.64227E+01 6.81818E+00
 -1     26167 2.03635E+01 8.48201E+01 7.27273E+00
 -1     26168 1.34925E+01 8.51881E+01 7.27273E+00
 -1     26173 1.36880E+01 8.64227E+01 7.72727E+00
 -1     26174 2.03635E+01 8.48201E+01 8.18182E+00
 -1     26175 1.34925E+01 8.51881E+01 8.18182E+00
 -1     26180 1.36880E+01 8.64227E+01 8.63636E+00
 -1     26181 2.03635E+01 8.48201E+01 9.09091E+00
 -1     26182 1.34925E+01 8.51881E+01 9.09091E+00
 -1     26187 1.36880E+01 8.64227E+01 9.54545E+00
 -1     26191 6.84401E+00 8.69614E+01 9.09091E-01
 -1     26195 6.84401E+00 8.69614E+01 1.81818E+00
 -1     26199 6.84401E+00 8.69614E+01 2.72727E+00
 -1     26203 6.84401E+00 8.69614E+01 3.63636E+00
 -1     26207 6.84401E+00 8.69614E+01 4.54545E+00
 -1     26211 6.84401E+00 8.69614E+01 5.45455E+00
 -1     26215 6.84401E+00 8.69614E+01 6.36364E+00
 -1     26219 6.84401E+00 8.69614E+01 7.27273E+00
 -1     26223 6.84401E+00 8.69614E+01 8.18182E+00
 -1     26227 6.84401E+00 8.69614E+01 9.09091E+00
 -1     26233 8.88920E+01 1.40791E+01 4.54545E-01
 -1     26234 8.94460E+01 7.03955E+00 9.09091E-01
 -1     26235 8.76573E+01 1.38836E+01 9.09091E-01
 -1     26240 8.88920E+01 1.40791E+01 1.36364E+00
 -1     26241 8.94460E+01 7.03955E+00 1.81818E+00
 -1     26242 8.76573E+01 1.38836E+01 1.81818E+00
 -1     26247 8.88920E+01 1.40791E+01 2.27273E+00
 -1     26248 8.94460E+01 7.03955E+00 2.72727E+00
 -1     26249 8.76573E+01 1.38836E+01 2.72727E+00
 -1     26254 8.88920E+01 1.40791E+01 3.18182E+00
 -1     26255 8.94460E+01 7.03955E+00 3.63636E+00
 -1     26256 8.76573E+01 1.38836E+01 3.63636E+00
 -1     26261 8.88920E+01 1.40791E+01 4.09091E+00
 -1     26262 8.94460E+01 7.03955E+00 4.54545E+00
 -1     26263 8.76573E+01 1.38836E+01 4.54545E+00
 -1     26268 8.88920E+01 1.40791E+01 5.00000E+00
 -1     26269 8.94460E+01 7.03955E+00 5.45455E+00
 -1     26270 8.76573E+01 1.38836E+01 5.45455E+00
 -1     26275 8.88920E+01 1.40791E+01 5.90909E+00
 -1     26276 8.94460E+01 7.03955E+00 6.36364E+00
 -1     26277 8.76573E+01 1.38836E+01 6.36364E+00
 -1     26282 8.88920E+01 1.40791E+01 6.81818E+00
 -1     26283 8.94460E+01 7.03955E+00 7.27273E+00
 -1     26284 8.76573E+01 1.38836E+01 7.27273E+00
 -1     26289 8.88920E+01 1.40791E+01 7.72727E+00
 -1     26290 8.94460E+01 7.03955E+00 8.18182E+00
 -1     26291 8.76573E+01 1.38836E+01 8.18182E+00
 -1     26296 8.88920E+01 1.40791E+01 8.63636E+00
 -1     26297 8.94460E+01 7.03955E+00 9.09091E+00
 -1     26298 8.76573E+01 1.38836E+01 9.09091E+00
 -1     26303 8.88920E+01 1.40791E+01 9.54545E+00
 -1     26307 8.55951E+01 2.78115E+01 4.54545E-01
 -1     26308 8.72435E+01 2.09453E+01 9.09091E-01
 -1     26309 8.44063E+01 2.74253E+01 9.09091E-01
 -1     26314 8.55951E+01 2.78115E+01 1.36364E+00
 -1     26315 8.72435E+01 2.09453E+01 1.81818E+00
 -1     26316 8.44063E+01 2.74253E+01 1.81818E+00
 -1     26321 8.55951E+01 2.78115E+01 2.27273E+00
 -1     26322 8.72435E+01 2.09453E+01 2.72727E+00
 -1     26323 8.44063E+01 2.74253E+01 2.72727E+00
 -1     26328 8.55951E+01 2.78115E+01 3.18182E+00
 -1     26329 8.72435E+01 2.09453E+01 3.63636E+00
 -1     26330 8.44063E+01 2.74253E+01 3.63636E+00
 -1     26335 8.55951E+01 2.78115E+01 4.09091E+00
 -1     26336 8.72435E+01 2.09453E+01 4.54545E+00
 -1     26337 8.44063E+01 2.74253E+01 4.54545E+00
 -1     26342 8.55951E+01 2.78115E+01 5.00000E+00
 -1     26343 8.72435E+01 2.09453E+01 5.45455E+00
 -1     26344 8.44063E+01 2.74253E+01 5.45455E+00
 -1     26349 8.55951E+01 2.78115E+01 5.90909E+00
 -1     26350 8.72435E+01 2.09453E+01 6.36364E+00
 -1     26351 8.44063E+01 2.74253E+01 6.36364E+00
 -1     26356 8.55951E+01 2.78115E+01 6.81818E+00
 -1     26357 8.72435E+01 2.09453E+01 7.27273E+00
 -1     26358 8.44063E+01 2.74253E+01 7.27273E+00
 -1     26363 8.55951E+01 2.78115E+01 7.72727E+00
 -1     26364 8.72435E+01 2.09453E+01 8.18182E+00
 -1     26365 8.44063E+01 2.74253E+01 8.18182E+00
 -1     26370 8.55951E+01 2.78115E+01 8.63636E+00
 -1     26371 8.72435E+01 2.09453E+01 9.09091E+00
 -1     26372 8.44063E+01 2.74253E+01 9.09091E+00
 -1     26377 8.55951E+01 2.78115E+01 9.54545E+00
 -1     26381 8.01906E+01 4.08591E+01 4.54545E-01
 -1     26382 8.28928E+01 3.43353E+01 9.09091E-01
 -1     26383 7.90768E+01 4.02917E+01 9.09091E-01
 -1     26388 8.01906E+01 4.08591E+01 1.36364E+00
 -1     26389 8.28928E+01 3.43353E+01 1.81818E+00
 -1     26390 7.90768E+01 4.02917E+01 1.81818E+00
 -1     26395 8.01906E+01 4.08591E+01 2.27273E+00
 -1     26396 8.28928E+01 3.43353E+01 2.72727E+00
 -1     26397 7.90768E+01 4.02917E+01 2.72727E+00
 -1     26402 8.01906E+01 4.08591E+01 3.18182E+00
 -1     26403 8.28928E+01 3.43353E+01 3.63636E+00
 -1     26404 7.90768E+01 4.02917E+01 3.63636E+00
 -1     26409 8.01906E+01 4.08591E+01 4.09091E+00
 -1     26410 8.28928E+01 3.43353E+01 4.54545E+00
 -1     26411 7.90768E+01 4.02917E+01 4.54545E+00
 -1     26416 8.01906E+01 4.08591E+01 5.00000E+00
 -1     26417 8.28928E+01 3.43353E+01 5.45455E+00
 -1     26418 7.90768E+01 4.02917E+01 5.45455E+00
 -1     26423 8.01906E+01 4.08591E+01 5.90909E+00
 -1     26424 8.28928E+01 3.43353E+01 6.36364E+00
 -1     26425 7.90768E+01 4.02917E+01 6.36364E+00
 -1     26430 8.01906E+01 4.08591E+01 6.81818E+00
 -1     26431 8.28928E+01 3.43353E+01 7.27273E+00
 -1     26432 7.90768E+01 4.02917E+01 7.27273E+00
 -1     26437 8.01906E+01 4.08591E+01 7.72727E+00
 -1     26438 8.28928E+01 3.43353E+01 8.18182E+00
 -1     26439 7.90768E+01 4.02917E+01 8.18182E+00
 -1     26444 8.01906E+01 4.08591E+01 8.63636E+00
 -1     26445 8.28928E+01 3.43353E+01 9.09091E+00
 -1     26446 7.90768E+01 4.02917E+01 9.09091E+00
 -1     26451 8.01906E+01 4.08591E+01 9.54545E+00
 -1     26455 7.28115E+01 5.29007E+01 4.54545E-01
 -1     26456 7.65011E+01 4.68799E+01 9.09091E-01
 -1     26457 7.18003E+01 5.21659E+01 9.09091E-01
 -1     26462 7.28115E+01 5.29007E+01 1.36364E+00
 -1     26463 7.65011E+01 4.68799E+01 1.81818E+00
 -1     26464 7.18003E+01 5.21659E+01 1.81818E+00
 -1     26469 7.28115E+01 5.29007E+01 2.27273E+00
 -1     26470 7.65011E+01 4.68799E+01 2.72727E+00
 -1     26471 7.18003E+01 5.21659E+01 2.72727E+00
 -1     26476 7.28115E+01 5.29007E+01 3.18182E+00
 -1     26477 7.65011E+01 4.68799E+01 3.63636E+00
 -1     26478 7.18003E+01 5.21659E+01 3.63636E+00
 -1     26483 7.28115E+01 5.29007E+01 4.09091E+00
 -1     26484 7.65011E+01 4.68799E+01 4.54545E+00
 -1     26485 7.18003E+01 5.21659E+01 4.54545E+00
 -1     26490 7.28115E+01 5.29007E+01 5.00000E+00
 -1     26491 7.65011E+01 4.68799E+01 5.45455E+00
 -1     26492 7.18003E+01 5.21659E+01 5.45455E+00
 -1     26497 7.28115E+01 5.29007E+01 5.90909E+00
 -1     26498 7.65011E+01 4.68799E+01 6.36364E+00
 -1     26499 7.18003E+01 5.21659E+01 6.36364E+00
 -1     26504 7.28115E+01 5.29007E+01 6.81818E+00
 -1     26505 7.65011E+01 4.68799E+01 7.27273E+00
 -1     26506 7.18003E+01 5.21659E+01 7.27273E+00
 -1     26511 7.28115E+01 5.29007E+01 7.72727E+00
 -1     26512 7.65011E+01 4.68799E+01 8.18182E+00
 -1     26513 7.18003E+01 5.21659E+01 8.18182E+00
 -1     26518 7.28115E+01 5.29007E+01 8.63636E+00
 -1     26519 7.65011E+01 4.68799E+01 9.09091E+00
 -1     26520 7.18003E+01 5.21659E+01 9.09091E+00
 -1     26525 7.28115E+01 5.29007E+01 9.54545E+00
 -1     26529 6.36396E+01 6.36396E+01 4.54545E-01
 -1     26530 6.82256E+01 5.82701E+01 9.09091E-01
 -1     26531 6.27557E+01 6.27557E+01 9.09091E-01
 -1     26536 6.36396E+01 6.36396E+01 1.36364E+00
 -1     26537 6.82256E+01 5.82701E+01 1.81818E+00
 -1     26538 6.27557E+01 6.27557E+01 1.81818E+00
 -1     26543 6.36396E+01 6.36396E+01 2.27273E+00
 -1     26544 6.82256E+01 5.82701E+01 2.72727E+00
 -1     26545 6.27557E+01 6.27557E+01 2.72727E+00
 -1     26550 6.36396E+01 6.36396E+01 3.18182E+00
 -1     26551 6.82256E+01 5.82701E+01 3.63636E+00
 -1     26552 6.27557E+01 6.27557E+01 3.63636E+00
 -1     26557 6.36396E+01 6.36396E+01 4.09091E+00
 -1     26558 6.82256E+01 5.82701E+01 4.54545E+00
 -1     26559 6.27557E+01 6.27557E+01 4.54545E+00
 -1     26564 6.36396E+01 6.36396E+01 5.00000E+00
 -1     26565 6.82256E+01 5.82701E+01 5.45455E+00
 -1     26566 6.27557E+01 6.27557E+01 5.45455E+00
 -1     26571 6.36396E+01 6.36396E+01 5.90909E+00
 -1     26572 6.82256E+01 5.82701E+01 6.36364E+00
 -1     26573 6.27557E+01 6.27557E+01 6.36364E+00
 -1     26578 6.36396E+01 6.36396E+01 6.81818E+00
 -1     26579 6.82256E+01 5.82701E+01 7.27273E+00
 -1     26580 6.27557E+01 6.27557E+01 7.27273E+00
 -1     26585 6.36396E+01 6.36396E+01 7.72727E+00
 -1     26586 6.82256E+01 5.82701E+01 8.18182E+00
 -1     26587 6.27557E+01 6.27557E+01 8.18182E+00
 -1     26592 6.36396E+01 6.36396E+01 8.63636E+00
 -1     26593 6.82256E+01 5.82701E+01 9.09091E+00
 -1     26594 6.27557E+01 6.27557E+01 9.09091E+00
 -1     26599 6.36396E+01 6.36396E+01 9.54545E+00
 -1     26603 5.29007E+01 7.28115E+01 4.54545E-01
 -1     26604 5.82701E+01 6.82256E+01 9.09091E-01
 -1     26605 5.21659E+01 7.18003E+01 9.09091E-01
 -1     26610 5.29007E+01 7.28115E+01 1.36364E+00
 -1     26611 5.82701E+01 6.82256E+01 1.81818E+00
 -1     26612 5.21659E+01 7.18003E+01 1.81818E+00
 -1     26617 5.29007E+01 7.28115E+01 2.27273E+00
 -1     26618 5.82701E+01 6.82256E+01 2.72727E+00
 -1     26619 5.21659E+01 7.18003E+01 2.72727E+00
 -1     26624 5.29007E+01 7.28115E+01 3.18182E+00
 -1     26625 5.82701E+01 6.82256E+01 3.63636E+00
 -1     26626 5.21659E+01 7.18003E+01 3.63636E+00
 -1     26631 5.29007E+01 7.28115E+01 4.09091E+00
 -1     26632 5.82701E+01 6.82256E+01 4.54545E+00
 -1     26633 5.21659E+01 7.18003E+01 4.54545E+00
 -1     26638 5.29007E+01 7.28115E+01 5.00000E+00
 -1     26639 5.82701E+01 6.82256E+01 5.45455E+00
 -1     26640 5.21659E+01 7.18003E+01 5.45455E+00
 -1     26645 5.29007E+01 7.28115E+01 5.90909E+00
 -1     26646 5.82701E+01 6.82256E+01 6.36364E+00
 -1     26647 5.21659E+01 7.18003E+01 6.36364E+00
 -1     26652 5.29007E+01 7.28115E+01 6.81818E+00
 -1     26653 5.82701E+01 6.82256E+01 7.27273E+00
 -1     26654 5.21659E+01 7.18003E+01 7.27273E+00
 -1     26659 5.29007E+01 7.28115E+01 7.72727E+00
 -1     26660 5.82701E+01 6.82256E+01 8.18182E+00
 -1     26661 5.21659E+01 7.18003E+01 8.18182E+00
 -1     26666 5.29007E+01 7.28115E+01 8.63636E+00
 -1     26667 5.82701E+01 6.82256E+01 9.09091E+00
 -1     26668 5.21659E+01 7.18003E+01 9.09091E+00
 -1     26673 5.29007E+01 7.28115E+01 9.54545E+00
 -1     26677 4.08591E+01 8.01906E+01 4.54545E-01
 -1     26678 4.68799E+01 7.65011E+01 9.09091E-01
 -1     26679 4.02917E+01 7.90768E+01 9.09091E-01
 -1     26684 4.08591E+01 8.01906E+01 1.36364E+00
 -1     26685 4.68799E+01 7.65011E+01 1.81818E+00
 -1     26686 4.02917E+01 7.90768E+01 1.81818E+00
 -1     26691 4.08591E+01 8.01906E+01 2.27273E+00
 -1     26692 4.68799E+01 7.65011E+01 2.72727E+00
 -1     26693 4.02917E+01 7.90768E+01 2.72727E+00
 -1     26698 4.08591E+01 8.01906E+01 3.18182E+00
 -1     26699 4.68799E+01 7.65011E+01 3.63636E+00
 -1     26700 4.02917E+01 7.90768E+01 3.63636E+00
 -1     26705 4.08591E+01 8.01906E+01 4.09091E+00
 -1     26706 4.68799E+01 7.65011E+01 4.54545E+00
 -1     26707 4.02917E+01 7.90768E+01 4.54545E+00
 -1     26712 4.08591E+01 8.01906E+01 5.00000E+00
 -1     26713 4.68799E+01 7.65011E+01 5.45455E+00
 -1     26714 4.02917E+01 7.90768E+01 5.45455E+00
 -1     26719 4.08591E+01 8.01906E+01 5.90909E+00
 -1     26720 4.68799E+01 7.65011E+01 6.36364E+00
 -1     26721 4.02917E+01 7.90768E+01 6.36364E+00
 -1     26726 4.08591E+01 8.01906E+01 6.81818E+00
 -1     26727 4.68799E+01 7.65011E+01 7.27273E+00
 -1     26728 4.02917E+01 7.90768E+01 7.27273E+00
 -1     26733 4.08591E+01 8.01906E+01 7.72727E+00
 -1     26734 4.68799E+01 7.65011E+01 8.18182E+00
 -1     26735 4.02917E+01 7.90768E+01 8.18182E+00
 -1     26740 4.08591E+01 8.01906E+01 8.63636E+00
 -1     26741 4.68799E+01 7.65011E+01 9.09091E+00
 -1     26742 4.02917E+01 7.90768E+01 9.09091E+00
 -1     26747 4.08591E+01 8.01906E+01 9.54545E+00
 -1     26751 2.78115E+01 8.55951E+01 4.54545E-01
 -1     26752 3.43353E+01 8.28928E+01 9.09091E-01
 -1     26753 2.74253E+01 8.44063E+01 9.09091E-01
 -1     26758 2.78115E+01 8.55951E+01 1.36364E+00
 -1     26759 3.43353E+01 8.28928E+01 1.81818E+00
 -1     26760 2.74253E+01 8.44063E+01 1.81818E+00
 -1     26765 2.78115E+01 8.55951E+01 2.27273E+00
 -1     26766 3.43353E+01 8.28928E+01 2.72727E+00
 -1     26767 2.74253E+01 8.44063E+01 2.72727E+00
 -1     26772 2.78115E+01 8.55951E+01 3.18182E+00
 -1     26773 3.43353E+01 8.28928E+01 3.63636E+00
 -1     26774 2.74253E+01 8.44063E+01 3.63636E+00
 -1     26779 2.78115E+01 8.55951E+01 4.09091E+00
 -1     26780 3.43353E+01 8.28928E+01 4.54545E+00
 -1     26781 2.74253E+01 8.44063E+01 4.54545E+00
 -1     26786 2.78115E+01 8.55951E+01 5.00000E+00
 -1     26787 3.43353E+01 8.28928E+01 5.45455E+00
 -1     26788 2.74253E+01 8.44063E+01 5.45455E+00
 -1     26793 2.78115E+01 8.55951E+01 5.90909E+00
 -1     26794 3.43353E+01 8.28928E+01 6.36364E+00
 -1     26795 2.74253E+01 8.44063E+01 6.36364E+00
 -1     26800 2.78115E+01 8.55951E+01 6.81818E+00
 -1     26801 3.43353E+01 8.28928E+01 7.27273E+00
 -1     26802 2.74253E+01 8.44063E+01 7.27273E+00
 -1     26807 2.78115E+01 8.55951E+01 7.72727E+00
 -1     26808 3.43353E+01 8.28928E+01 8.18182E+00
 -1     26809 2.74253E+01 8.44063E+01 8.18182E+00
 -1     26814 2.78115E+01 8.55951E+01 8.63636E+00
 -1     26815 3.43353E+01 8.28928E+01 9.09091E+00
 -1     26816 2.74253E+01 8.44063E+01 9.09091E+00
 -1     26821 2.78115E+01 8.55951E+01 9.54545E+00
 -1     26825 1.40791E+01 8.88920E+01 4.54545E-01
 -1     26826 2.09453E+01 8.72435E+01 9.09091E-01
 -1     26827 1.38836E+01 8.76573E+01 9.09091E-01
 -1     26832 1.40791E+01 8.88920E+01 1.36364E+00
 -1     26833 2.09453E+01 8.72435E+01 1.81818E+00
 -1     26834 1.38836E+01 8.76573E+01 1.81818E+00
 -1     26839 1.40791E+01 8.88920E+01 2.27273E+00
 -1     26840 2.09453E+01 8.72435E+01 2.72727E+00
 -1     26841 1.38836E+01 8.76573E+01 2.72727E+00
 -1     26846 1.40791E+01 8.88920E+01 3.18182E+00
 -1     26847 2.09453E+01 8.72435E+01 3.63636E+00
 -1     26848 1.38836E+01 8.76573E+01 3.63636E+00
 -1     26853 1.40791E+01 8.88920E+01 4.09091E+00
 -1     26854 2.09453E+01 8.72435E+01 4.54545E+00
 -1     26855 1.38836E+01 8.76573E+01 4.54545E+00
 -1     26860 1.40791E+01 8.88920E+01 5.00000E+00
 -1     26861 2.09453E+01 8.72435E+01 5.45455E+00
 -1     26862 1.38836E+01 8.76573E+01 5.45455E+00
 -1     26867 1.40791E+01 8.88920E+01 5.90909E+00
 -1     26868 2.09453E+01 8.72435E+01 6.36364E+00
 -1     26869 1.38836E+01 8.76573E+01 6.36364E+00
 -1     26874 1.40791E+01 8.88920E+01 6.81818E+00
 -1     26875 2.09453E+01 8.72435E+01 7.27273E+00
 -1     26876 1.38836E+01 8.76573E+01 7.27273E+00
 -1     26881 1.40791E+01 8.88920E+01 7.72727E+00
 -1     26882 2.09453E+01 8.72435E+01 8.18182E+00
 -1     26883 1.38836E+01 8.76573E+01 8.18182E+00
 -1     26888 1.40791E+01 8.88920E+01 8.63636E+00
 -1     26889 2.09453E+01 8.72435E+01 9.09091E+00
 -1     26890 1.38836E+01 8.76573E+01 9.09091E+00
 -1     26895 1.40791E+01 8.88920E+01 9.54545E+00
 -1     26899 7.03955E+00 8.94460E+01 9.09091E-01
 -1     26903 7.03955E+00 8.94460E+01 1.81818E+00
 -1     26907 7.03955E+00 8.94460E+01 2.72727E+00
 -1     26911 7.03955E+00 8.94460E+01 3.63636E+00
 -1     26915 7.03955E+00 8.94460E+01 4.54545E+00
 -1     26919 7.03955E+00 8.94460E+01 5.45455E+00
 -1     26923 7.03955E+00 8.94460E+01 6.36364E+00
 -1     26927 7.03955E+00 8.94460E+01 7.27273E+00
 -1     26931 7.03955E+00 8.94460E+01 8.18182E+00
 -1     26935 7.03955E+00 8.94460E+01 9.09091E+00
 -1     26941 9.13612E+01 1.44702E+01 4.54545E-01
 -1     26942 9.19306E+01 7.23509E+00 9.09091E-01
 -1     26943 9.01266E+01 1.42746E+01 9.09091E-01
 -1     26948 9.13612E+01 1.44702E+01 1.36364E+00
 -1     26949 9.19306E+01 7.23509E+00 1.81818E+00
 -1     26950 9.01266E+01 1.42746E+01 1.81818E+00
 -1     26955 9.13612E+01 1.44702E+01 2.27273E+00
 -1     26956 9.19306E+01 7.23509E+00 2.72727E+00
 -1     26957 9.01266E+01 1.42746E+01 2.72727E+00
 -1     26962 9.13612E+01 1.44702E+01 3.18182E+00
 -1     26963 9.19306E+01 7.23509E+00 3.63636E+00
 -1     26964 9.01266E+01 1.42746E+01 3.63636E+00
 -1     26969 9.13612E+01 1.44702E+01 4.09091E+00
 -1     26970 9.19306E+01 7.23509E+00 4.54545E+00
 -1     26971 9.01266E+01 1.42746E+01 4.54545E+00
 -1     26976 9.13612E+01 1.44702E+01 5.00000E+00
 -1     26977 9.19306E+01 7.23509E+00 5.45455E+00
 -1     26978 9.01266E+01 1.42746E+01 5.45455E+00
 -1     26983 9.13612E+01 1.44702E+01 5.90909E+00
 -1     26984 9.19306E+01 7.23509E+00 6.36364E+00
 -1     26985 9.01266E+01 1.42746E+01 6.36364E+00
 -1     26990 9.13612E+01 1.44702E+01 6.81818E+00
 -1     26991 9.19306E+01 7.23509E+00 7.27273E+00
 -1     26992 9.01266E+01 1.42746E+01 7.27273E+00
 -1     26997 9.13612E+01 1.44702E+01 7.72727E+00
 -1     26998 9.19306E+01 7.23509E+00 8.18182E+00
 -1     26999 9.01266E+01 1.42746E+01 8.18182E+00
 -1     27004 9.13612E+01 1.44702E+01 8.63636E+00
 -1     27005 9.19306E+01 7.23509E+00 9.09091E+00
 -1     27006 9.01266E+01 1.42746E+01 9.09091E+00
 -1     27011 9.13612E+01 1.44702E+01 9.54545E+00
 -1     27015 8.79727E+01 2.85841E+01 4.54545E-01
 -1     27016 8.96669E+01 2.15271E+01 9.09091E-01
 -1     27017 8.67839E+01 2.81978E+01 9.09091E-01
 -1     27022 8.79727E+01 2.85841E+01 1.36364E+00
 -1     27023 8.96669E+01 2.15271E+01 1.81818E+00
 -1     27024 8.67839E+01 2.81978E+01 1.81818E+00
 -1     27029 8.79727E+01 2.85841E+01 2.27273E+00
 -1     27030 8.96669E+01 2.15271E+01 2.72727E+00
 -1     27031 8.67839E+01 2.81978E+01 2.72727E+00
 -1     27036 8.79727E+01 2.85841E+01 3.18182E+00
 -1     27037 8.96669E+01 2.15271E+01 3.63636E+00
 -1     27038 8.67839E+01 2.81978E+01 3.63636E+00
 -1     27043 8.79727E+01 2.85841E+01 4.09091E+00
 -1     27044 8.96669E+01 2.15271E+01 4.54545E+00
 -1     27045 8.67839E+01 2.81978E+01 4.54545E+00
 -1     27050 8.79727E+01 2.85841E+01 5.00000E+00
 -1     27051 8.96669E+01 2.15271E+01 5.45455E+00
 -1     27052 8.67839E+01 2.81978E+01 5.45455E+00
 -1     27057 8.79727E+01 2.85841E+01 5.90909E+00
 -1     27058 8.96669E+01 2.15271E+01 6.36364E+00
 -1     27059 8.67839E+01 2.81978E+01 6.36364E+00
 -1     27064 8.79727E+01 2.85841E+01 6.81818E+00
 -1     27065 8.96669E+01 2.15271E+01 7.27273E+00
 -1     27066 8.67839E+01 2.81978E+01 7.27273E+00
 -1     27071 8.79727E+01 2.85841E+01 7.72727E+00
 -1     27072 8.96669E+01 2.15271E+01 8.18182E+00
 -1     27073 8.67839E+01 2.81978E+01 8.18182E+00
 -1     27078 8.79727E+01 2.85841E+01 8.63636E+00
 -1     27079 8.96669E+01 2.15271E+01 9.09091E+00
 -1     27080 8.67839E+01 2.81978E+01 9.09091E+00
 -1     27085 8.79727E+01 2.85841E+01 9.54545E+00
 -1     27089 8.24181E+01 4.19941E+01 4.54545E-01
 -1     27090 8.51954E+01 3.52891E+01 9.09091E-01
 -1     27091 8.13043E+01 4.14266E+01 9.09091E-01
 -1     27096 8.24181E+01 4.19941E+01 1.36364E+00
 -1     27097 8.51954E+01 3.52891E+01 1.81818E+00
 -1     27098 8.13043E+01 4.14266E+01 1.81818E+00
 -1     27103 8.24181E+01 4.19941E+01 2.27273E+00
 -1     27104 8.51954E+01 3.52891E+01 2.72727E+00
 -1     27105 8.13043E+01 4.14266E+01 2.72727E+00
 -1     27110 8.24181E+01 4.19941E+01 3.18182E+00
 -1     27111 8.51954E+01 3.52891E+01 3.63636E+00
 -1     27112 8.13043E+01 4.14266E+01 3.63636E+00
 -1     27117 8.24181E+01 4.19941E+01 4.09091E+00
 -1     27118 8.51954E+01 3.52891E+01 4.54545E+00
 -1     27119 8.13043E+01 4.14266E+01 4.54545E+00
 -1     27124 8.24181E+01 4.19941E+01 5.00000E+00
 -1     27125 8.51954E+01 3.52891E+01 5.45455E+00
 -1     27126 8.13043E+01 4.14266E+01 5.45455E+00
 -1     27131 8.24181E+01 4.19941E+01 5.90909E+00
 -1     27132 8.51954E+01 3.52891E+01 6.36364E+00
 -1     27133 8.13043E+01 4.14266E+01 6.36364E+00
 -1     27138 8.24181E+01 4.19941E+01 6.81818E+00
 -1     27139 8.51954E+01 3.52891E+01 7.27273E+00
 -1     27140 8.13043E+01 4.14266E+01 7.27273E+00
 -1     27145 8.24181E+01 4.19941E+01 7.72727E+00
 -1     27146 8.51954E+01 3.52891E+01 8.18182E+00
 -1     27147 8.13043E+01 4.14266E+01 8.18182E+00
 -1     27152 8.24181E+01 4.19941E+01 8.63636E+00
 -1     27153 8.51954E+01 3.52891E+01 9.09091E+00
 -1     27154 8.13043E+01 4.14266E+01 9.09091E+00
 -1     27159 8.24181E+01 4.19941E+01 9.54545E+00
 -1     27163 7.48341E+01 5.43701E+01 4.54545E-01
 -1     27164 7.86261E+01 4.81821E+01 9.09091E-01
 -1     27165 7.38228E+01 5.36354E+01 9.09091E-01
 -1     27170 7.48341E+01 5.43701E+01 1.36364E+00
 -1     27171 7.86261E+01 4.81821E+01 1.81818E+00
 -1     27172 7.38228E+01 5.36354E+01 1.81818E+00
 -1     27177 7.48341E+01 5.43701E+01 2.27273E+00
 -1     27178 7.86261E+01 4.81821E+01 2.72727E+00
 -1     27179 7.38228E+01 5.36354E+01 2.72727E+00
 -1     27184 7.48341E+01 5.43701E+01 3.18182E+00
 -1     27185 7.86261E+01 4.81821E+01 3.63636E+00
 -1     27186 7.38228E+01 5.36354E+01 3.63636E+00
 -1     27191 7.48341E+01 5.43701E+01 4.09091E+00
 -1     27192 7.86261E+01 4.81821E+01 4.54545E+00
 -1     27193 7.38228E+01 5.36354E+01 4.54545E+00
 -1     27198 7.48341E+01 5.43701E+01 5.00000E+00
 -1     27199 7.86261E+01 4.81821E+01 5.45455E+00
 -1     27200 7.38228E+01 5.36354E+01 5.45455E+00
 -1     27205 7.48341E+01 5.43701E+01 5.90909E+00
 -1     27206 7.86261E+01 4.81821E+01 6.36364E+00
 -1     27207 7.38228E+01 5.36354E+01 6.36364E+00
 -1     27212 7.48341E+01 5.43701E+01 6.81818E+00
 -1     27213 7.86261E+01 4.81821E+01 7.27273E+00
 -1     27214 7.38228E+01 5.36354E+01 7.27273E+00
 -1     27219 7.48341E+01 5.43701E+01 7.72727E+00
 -1     27220 7.86261E+01 4.81821E+01 8.18182E+00
 -1     27221 7.38228E+01 5.36354E+01 8.18182E+00
 -1     27226 7.48341E+01 5.43701E+01 8.63636E+00
 -1     27227 7.86261E+01 4.81821E+01 9.09091E+00
 -1     27228 7.38228E+01 5.36354E+01 9.09091E+00
 -1     27233 7.48341E+01 5.43701E+01 9.54545E+00
 -1     27237 6.54074E+01 6.54074E+01 4.54545E-01
 -1     27238 7.01207E+01 5.98888E+01 9.09091E-01
 -1     27239 6.45235E+01 6.45235E+01 9.09091E-01
 -1     27244 6.54074E+01 6.54074E+01 1.36364E+00
 -1     27245 7.01207E+01 5.98888E+01 1.81818E+00
 -1     27246 6.45235E+01 6.45235E+01 1.81818E+00
 -1     27251 6.54074E+01 6.54074E+01 2.27273E+00
 -1     27252 7.01207E+01 5.98888E+01 2.72727E+00
 -1     27253 6.45235E+01 6.45235E+01 2.72727E+00
 -1     27258 6.54074E+01 6.54074E+01 3.18182E+00
 -1     27259 7.01207E+01 5.98888E+01 3.63636E+00
 -1     27260 6.45235E+01 6.45235E+01 3.63636E+00
 -1     27265 6.54074E+01 6.54074E+01 4.09091E+00
 -1     27266 7.01207E+01 5.98888E+01 4.54545E+00
 -1     27267 6.45235E+01 6.45235E+01 4.54545E+00
 -1     27272 6.54074E+01 6.54074E+01 5.00000E+00
 -1     27273 7.01207E+01 5.98888E+01 5.45455E+00
 -1     27274 6.45235E+01 6.45235E+01 5.45455E+00
 -1     27279 6.54074E+01 6.54074E+01 5.90909E+00
 -1     27280 7.01207E+01 5.98888E+01 6.36364E+00
 -1     27281 6.45235E+01 6.45235E+01 6.36364E+00
 -1     27286 6.54074E+01 6.54074E+01 6.81818E+00
 -1     27287 7.01207E+01 5.98888E+01 7.27273E+00
 -1     27288 6.45235E+01 6.45235E+01 7.27273E+00
 -1     27293 6.54074E+01 6.54074E+01 7.72727E+00
 -1     27294 7.01207E+01 5.98888E+01 8.18182E+00
 -1     27295 6.45235E+01 6.45235E+01 8.18182E+00
 -1     27300 6.54074E+01 6.54074E+01 8.63636E+00
 -1     27301 7.01207E+01 5.98888E+01 9.09091E+00
 -1     27302 6.45235E+01 6.45235E+01 9.09091E+00
 -1     27307 6.54074E+01 6.54074E+01 9.54545E+00
 -1     27311 5.43701E+01 7.48341E+01 4.54545E-01
 -1     27312 5.98888E+01 7.01207E+01 9.09091E-01
 -1     27313 5.36354E+01 7.38228E+01 9.09091E-01
 -1     27318 5.43701E+01 7.48341E+01 1.36364E+00
 -1     27319 5.98888E+01 7.01207E+01 1.81818E+00
 -1     27320 5.36354E+01 7.38228E+01 1.81818E+00
 -1     27325 5.43701E+01 7.48341E+01 2.27273E+00
 -1     27326 5.98888E+01 7.01207E+01 2.72727E+00
 -1     27327 5.36354E+01 7.38228E+01 2.72727E+00
 -1     27332 5.43701E+01 7.48341E+01 3.18182E+00
 -1     27333 5.98888E+01 7.01207E+01 3.63636E+00
 -1     27334 5.36354E+01 7.38228E+01 3.63636E+00
 -1     27339 5.43701E+01 7.48341E+01 4.09091E+00
 -1     27340 5.98888E+01 7.01207E+01 4.54545E+00
 -1     27341 5.36354E+01 7.38228E+01 4.54545E+00
 -1     27346 5.43701E+01 7.48341E+01 5.00000E+00
 -1     27347 5.98888E+01 7.01207E+01 5.45455E+00
 -1     27348 5.36354E+01 7.38228E+01 5.45455E+00
 -1     27353 5.43701E+01 7.48341E+01 5.90909E+00
 -1     27354 5.98888E+01 7.01207E+01 6.36364E+00
 -1     27355 5.36354E+01 7.38228E+01 6.36364E+00
 -1     27360 5.43701E+01 7.48341E+01 6.81818E+00
 -1     27361 5.98888E+01 7.01207E+01 7.27273E+00
 -1     27362 5.36354E+01 7.38228E+01 7.27273E+00
 -1     27367 5.43701E+01 7.48341E+01 7.72727E+00
 -1     27368 5.98888E+01 7.01207E+01 8.18182E+00
 -1     27369 5.36354E+01 7.38228E+01 8.18182E+00
 -1     27374 5.43701E+01 7.48341E+01 8.63636E+00
 -1     27375 5.98888E+01 7.01207E+01 9.09091E+00
 -1     27376 5.36354E+01 7.38228E+01 9.09091E+00
 -1     27381 5.43701E+01 7.48341E+01 9.54545E+00
 -1     27385 4.19941E+01 8.24181E+01 4.54545E-01
 -1     27386 4.81821E+01 7.86261E+01 9.09091E-01
 -1     27387 4.14266E+01 8.13043E+01 9.09091E-01
 -1     27392 4.19941E+01 8.24181E+01 1.36364E+00
 -1     27393 4.81821E+01 7.86261E+01 1.81818E+00
 -1     27394 4.14266E+01 8.13043E+01 1.81818E+00
 -1     27399 4.19941E+01 8.24181E+01 2.27273E+00
 -1     27400 4.81821E+01 7.86261E+01 2.72727E+00
 -1     27401 4.14266E+01 8.13043E+01 2.72727E+00
 -1     27406 4.19941E+01 8.24181E+01 3.18182E+00
 -1     27407 4.81821E+01 7.86261E+01 3.63636E+00
 -1     27408 4.14266E+01 8.13043E+01 3.63636E+00
 -1     27413 4.19941E+01 8.24181E+01 4.09091E+00
 -1     27414 4.81821E+01 7.86261E+01 4.54545E+00
 -1     27415 4.14266E+01 8.13043E+01 4.54545E+00
 -1     27420 4.19941E+01 8.24181E+01 5.00000E+00
 -1     27421 4.81821E+01 7.86261E+01 5.45455E+00
 -1     27422 4.14266E+01 8.13043E+01 5.45455E+00
 -1     27427 4.19941E+01 8.24181E+01 5.90909E+00
 -1     27428 4.81821E+01 7.86261E+01 6.36364E+00
 -1     27429 4.14266E+01 8.13043E+01 6.36364E+00
 -1     27434 4.19941E+01 8.24181E+01 6.81818E+00
 -1     27435 4.81821E+01 7.86261E+01 7.27273E+00
 -1     27436 4.14266E+01 8.13043E+01 7.27273E+00
 -1     27441 4.19941E+01 8.24181E+01 7.72727E+00
 -1     27442 4.81821E+01 7.86261E+01 8.18182E+00
 -1     27443 4.14266E+01 8.13043E+01 8.18182E+00
 -1     27448 4.19941E+01 8.24181E+01 8.63636E+00
 -1     27449 4.81821E+01 7.86261E+01 9.09091E+00
 -1     27450 4.14266E+01 8.13043E+01 9.09091E+00
 -1     27455 4.19941E+01 8.24181E+01 9.54545E+00
 -1     27459 2.85841E+01 8.79727E+01 4.54545E-01
 -1     27460 3.52891E+01 8.51954E+01 9.09091E-01
 -1     27461 2.81978E+01 8.67839E+01 9.09091E-01
 -1     27466 2.85841E+01 8.79727E+01 1.36364E+00
 -1     27467 3.52891E+01 8.51954E+01 1.81818E+00
 -1     27468 2.81978E+01 8.67839E+01 1.81818E+00
 -1     27473 2.85841E+01 8.79727E+01 2.27273E+00
 -1     27474 3.52891E+01 8.51954E+01 2.72727E+00
 -1     27475 2.81978E+01 8.67839E+01 2.72727E+00
 -1     27480 2.85841E+01 8.79727E+01 3.18182E+00
 -1     27481 3.52891E+01 8.51954E+01 3.63636E+00
 -1     27482 2.81978E+01 8.67839E+01 3.63636E+00
 -1     27487 2.85841E+01 8.79727E+01 4.09091E+00
 -1     27488 3.52891E+01 8.51954E+01 4.54545E+00
 -1     27489 2.81978E+01 8.67839E+01 4.54545E+00
 -1     27494 2.85841E+01 8.79727E+01 5.00000E+00
 -1     27495 3.52891E+01 8.51954E+01 5.45455E+00
 -1     27496 2.81978E+01 8.67839E+01 5.45455E+00
 -1     27501 2.85841E+01 8.79727E+01 5.90909E+00
 -1     27502 3.52891E+01 8.51954E+01 6.36364E+00
 -1     27503 2.81978E+01 8.67839E+01 6.36364E+00
 -1     27508 2.85841E+01 8.79727E+01 6.81818E+00
 -1     27509 3.52891E+01 8.51954E+01 7.27273E+00
 -1     27510 2.81978E+01 8.67839E+01 7.27273E+00
 -1     27515 2.85841E+01 8.79727E+01 7.72727E+00
 -1     27516 3.52891E+01 8.51954E+01 8.18182E+00
 -1     27517 2.81978E+01 8.67839E+01 8.18182E+00
 -1     27522 2.85841E+01 8.79727E+01 8.63636E+00
 -1     27523 3.52891E+01 8.51954E+01 9.09091E+00
 -1     27524 2.81978E+01 8.67839E+01 9.09091E+00
 -1     27529 2.85841E+01 8.79727E+01 9.54545E+00
 -1     27533 1.44702E+01 9.13612E+01 4.54545E-01
 -1     27534 2.15271E+01 8.96669E+01 9.09091E-01
 -1     27535 1.42746E+01 9.01266E+01 9.09091E-01
 -1     27540 1.44702E+01 9.13612E+01 1.36364E+00
 -1     27541 2.15271E+01 8.96669E+01 1.81818E+00
 -1     27542 1.42746E+01 9.01266E+01 1.81818E+00
 -1     27547 1.44702E+01 9.13612E+01 2.27273E+00
 -1     27548 2.15271E+01 8.96669E+01 2.72727E+00
 -1     27549 1.42746E+01 9.01266E+01 2.72727E+00
 -1     27554 1.44702E+01 9.13612E+01 3.18182E+00
 -1     27555 2.15271E+01 8.96669E+01 3.63636E+00
 -1     27556 1.42746E+01 9.01266E+01 3.63636E+00
 -1     27561 1.44702E+01 9.13612E+01 4.09091E+00
 -1     27562 2.15271E+01 8.96669E+01 4.54545E+00
 -1     27563 1.42746E+01 9.01266E+01 4.54545E+00
 -1     27568 1.44702E+01 9.13612E+01 5.00000E+00
 -1     27569 2.15271E+01 8.96669E+01 5.45455E+00
 -1     27570 1.42746E+01 9.01266E+01 5.45455E+00
 -1     27575 1.44702E+01 9.13612E+01 5.90909E+00
 -1     27576 2.15271E+01 8.96669E+01 6.36364E+00
 -1     27577 1.42746E+01 9.01266E+01 6.36364E+00
 -1     27582 1.44702E+01 9.13612E+01 6.81818E+00
 -1     27583 2.15271E+01 8.96669E+01 7.27273E+00
 -1     27584 1.42746E+01 9.01266E+01 7.27273E+00
 -1     27589 1.44702E+01 9.13612E+01 7.72727E+00
 -1     27590 2.15271E+01 8.96669E+01 8.18182E+00
 -1     27591 1.42746E+01 9.01266E+01 8.18182E+00
 -1     27596 1.44702E+01 9.13612E+01 8.63636E+00
 -1     27597 2.15271E+01 8.96669E+01 9.09091E+00
 -1     27598 1.42746E+01 9.01266E+01 9.09091E+00
 -1     27603 1.44702E+01 9.13612E+01 9.54545E+00
 -1     27607 7.23509E+00 9.19306E+01 9.09091E-01
 -1     27611 7.23509E+00 9.19306E+01 1.81818E+00
 -1     27615 7.23509E+00 9.19306E+01 2.72727E+00
 -1     27619 7.23509E+00 9.19306E+01 3.63636E+00
 -1     27623 7.23509E+00 9.19306E+01 4.54545E+00
 -1     27627 7.23509E+00 9.19306E+01 5.45455E+00
 -1     27631 7.23509E+00 9.19306E+01 6.36364E+00
 -1     27635 7.23509E+00 9.19306E+01 7.27273E+00
 -1     27639 7.23509E+00 9.19306E+01 8.18182E+00
 -1     27643 7.23509E+00 9.19306E+01 9.09091E+00
 -1     27649 9.38304E+01 1.48613E+01 4.54545E-01
 -1     27650 9.44152E+01 7.43064E+00 9.09091E-01
 -1     27651 9.25958E+01 1.46657E+01 9.09091E-01
 -1     27656 9.38304E+01 1.48613E+01 1.36364E+00
 -1     27657 9.44152E+01 7.43064E+00 1.81818E+00
 -1     27658 9.25958E+01 1.46657E+01 1.81818E+00
 -1     27663 9.38304E+01 1.48613E+01 2.27273E+00
 -1     27664 9.44152E+01 7.43064E+00 2.72727E+00
 -1     27665 9.25958E+01 1.46657E+01 2.72727E+00
 -1     27670 9.38304E+01 1.48613E+01 3.18182E+00
 -1     27671 9.44152E+01 7.43064E+00 3.63636E+00
 -1     27672 9.25958E+01 1.46657E+01 3.63636E+00
 -1     27677 9.38304E+01 1.48613E+01 4.09091E+00
 -1     27678 9.44152E+01 7.43064E+00 4.54545E+00
 -1     27679 9.25958E+01 1.46657E+01 4.54545E+00
 -1     27684 9.38304E+01 1.48613E+01 5.00000E+00
 -1     27685 9.44152E+01 7.43064E+00 5.45455E+00
 -1     27686 9.25958E+01 1.46657E+01 5.45455E+00
 -1     27691 9.38304E+01 1.48613E+01 5.90909E+00
 -1     27692 9.44152E+01 7.43064E+00 6.36364E+00
 -1     27693 9.25958E+01 1.46657E+01 6.36364E+00
 -1     27698 9.38304E+01 1.48613E+01 6.81818E+00
 -1     27699 9.44152E+01 7.43064E+00 7.27273E+00
 -1     27700 9.25958E+01 1.46657E+01 7.27273E+00
 -1     27705 9.38304E+01 1.48613E+01 7.72727E+00
 -1     27706 9.44152E+01 7.43064E+00 8.18182E+00
 -1     27707 9.25958E+01 1.46657E+01 8.18182E+00
 -1     27712 9.38304E+01 1.48613E+01 8.63636E+00
 -1     27713 9.44152E+01 7.43064E+00 9.09091E+00
 -1     27714 9.25958E+01 1.46657E+01 9.09091E+00
 -1     27719 9.38304E+01 1.48613E+01 9.54545E+00
 -1     27723 9.03504E+01 2.93566E+01 4.54545E-01
 -1     27724 9.20904E+01 2.21089E+01 9.09091E-01
 -1     27725 8.91615E+01 2.89703E+01 9.09091E-01
 -1     27730 9.03504E+01 2.93566E+01 1.36364E+00
 -1     27731 9.20904E+01 2.21089E+01 1.81818E+00
 -1     27732 8.91615E+01 2.89703E+01 1.81818E+00
 -1     27737 9.03504E+01 2.93566E+01 2.27273E+00
 -1     27738 9.20904E+01 2.21089E+01 2.72727E+00
 -1     27739 8.91615E+01 2.89703E+01 2.72727E+00
 -1     27744 9.03504E+01 2.93566E+01 3.18182E+00
 -1     27745 9.20904E+01 2.21089E+01 3.63636E+00
 -1     27746 8.91615E+01 2.89703E+01 3.63636E+00
 -1     27751 9.03504E+01 2.93566E+01 4.09091E+00
 -1     27752 9.20904E+01 2.21089E+01 4.54545E+00
 -1     27753 8.91615E+01 2.89703E+01 4.54545E+00
 -1     27758 9.03504E+01 2.93566E+01 5.00000E+00
 -1     27759 9.20904E+01 2.21089E+01 5.45455E+00
 -1     27760 8.91615E+01 2.89703E+01 5.45455E+00
 -1     27765 9.03504E+01 2.93566E+01 5.90909E+00
 -1     27766 9.20904E+01 2.21089E+01 6.36364E+00
 -1     27767 8.91615E+01 2.89703E+01 6.36364E+00
 -1     27772 9.03504E+01 2.93566E+01 6.81818E+00
 -1     27773 9.20904E+01 2.21089E+01 7.27273E+00
 -1     27774 8.91615E+01 2.89703E+01 7.27273E+00
 -1     27779 9.03504E+01 2.93566E+01 7.72727E+00
 -1     27780 9.20904E+01 2.21089E+01 8.18182E+00
 -1     27781 8.91615E+01 2.89703E+01 8.18182E+00
 -1     27786 9.03504E+01 2.93566E+01 8.63636E+00
 -1     27787 9.20904E+01 2.21089E+01 9.09091E+00
 -1     27788 8.91615E+01 2.89703E+01 9.09091E+00
 -1     27793 9.03504E+01 2.93566E+01 9.54545E+00
 -1     27797 8.46456E+01 4.31291E+01 4.54545E-01
 -1     27798 8.74980E+01 3.62429E+01 9.09091E-01
 -1     27799 8.35319E+01 4.25616E+01 9.09091E-01
 -1     27804 8.46456E+01 4.31291E+01 1.36364E+00
 -1     27805 8.74980E+01 3.62429E+01 1.81818E+00
 -1     27806 8.35319E+01 4.25616E+01 1.81818E+00
 -1     27811 8.46456E+01 4.31291E+01 2.27273E+00
 -1     27812 8.74980E+01 3.62429E+01 2.72727E+00
 -1     27813 8.35319E+01 4.25616E+01 2.72727E+00
 -1     27818 8.46456E+01 4.31291E+01 3.18182E+00
 -1     27819 8.74980E+01 3.62429E+01 3.63636E+00
 -1     27820 8.35319E+01 4.25616E+01 3.63636E+00
 -1     27825 8.46456E+01 4.31291E+01 4.09091E+00
 -1     27826 8.74980E+01 3.62429E+01 4.54545E+00
 -1     27827 8.35319E+01 4.25616E+01 4.54545E+00
 -1     27832 8.46456E+01 4.31291E+01 5.00000E+00
 -1     27833 8.74980E+01 3.62429E+01 5.45455E+00
 -1     27834 8.35319E+01 4.25616E+01 5.45455E+00
 -1     27839 8.46456E+01 4.31291E+01 5.90909E+00
 -1     27840 8.74980E+01 3.62429E+01 6.36364E+00
 -1     27841 8.35319E+01 4.25616E+01 6.36364E+00
 -1     27846 8.46456E+01 4.31291E+01 6.81818E+00
 -1     27847 8.74980E+01 3.62429E+01 7.27273E+00
 -1     27848 8.35319E+01 4.25616E+01 7.27273E+00
 -1     27853 8.46456E+01 4.31291E+01 7.72727E+00
 -1     27854 8.74980E+01 3.62429E+01 8.18182E+00
 -1     27855 8.35319E+01 4.25616E+01 8.18182E+00
 -1     27860 8.46456E+01 4.31291E+01 8.63636E+00
 -1     27861 8.74980E+01 3.62429E+01 9.09091E+00
 -1     27862 8.35319E+01 4.25616E+01 9.09091E+00
 -1     27867 8.46456E+01 4.31291E+01 9.54545E+00
 -1     27871 7.68566E+01 5.58396E+01 4.54545E-01
 -1     27872 8.07511E+01 4.94843E+01 9.09091E-01
 -1     27873 7.58453E+01 5.51049E+01 9.09091E-01
 -1     27878 7.68566E+01 5.58396E+01 1.36364E+00
 -1     27879 8.07511E+01 4.94843E+01 1.81818E+00
 -1     27880 7.58453E+01 5.51049E+01 1.81818E+00
 -1     27885 7.68566E+01 5.58396E+01 2.27273E+00
 -1     27886 8.07511E+01 4.94843E+01 2.72727E+00
 -1     27887 7.58453E+01 5.51049E+01 2.72727E+00
 -1     27892 7.68566E+01 5.58396E+01 3.18182E+00
 -1     27893 8.07511E+01 4.94843E+01 3.63636E+00
 -1     27894 7.58453E+01 5.51049E+01 3.63636E+00
 -1     27899 7.68566E+01 5.58396E+01 4.09091E+00
 -1     27900 8.07511E+01 4.94843E+01 4.54545E+00
 -1     27901 7.58453E+01 5.51049E+01 4.54545E+00
 -1     27906 7.68566E+01 5.58396E+01 5.00000E+00
 -1     27907 8.07511E+01 4.94843E+01 5.45455E+00
 -1     27908 7.58453E+01 5.51049E+01 5.45455E+00
 -1     27913 7.68566E+01 5.58396E+01 5.90909E+00
 -1     27914 8.07511E+01 4.94843E+01 6.36364E+00
 -1     27915 7.58453E+01 5.51049E+01 6.36364E+00
 -1     27920 7.68566E+01 5.58396E+01 6.81818E+00
 -1     27921 8.07511E+01 4.94843E+01 7.27273E+00
 -1     27922 7.58453E+01 5.51049E+01 7.27273E+00
 -1     27927 7.68566E+01 5.58396E+01 7.72727E+00
 -1     27928 8.07511E+01 4.94843E+01 8.18182E+00
 -1     27929 7.58453E+01 5.51049E+01 8.18182E+00
 -1     27934 7.68566E+01 5.58396E+01 8.63636E+00
 -1     27935 8.07511E+01 4.94843E+01 9.09091E+00
 -1     27936 7.58453E+01 5.51049E+01 9.09091E+00
 -1     27941 7.68566E+01 5.58396E+01 9.54545E+00
 -1     27945 6.71751E+01 6.71751E+01 4.54545E-01
 -1     27946 7.20159E+01 6.15074E+01 9.09091E-01
 -1     27947 6.62913E+01 6.62913E+01 9.09091E-01
 -1     27952 6.71751E+01 6.71751E+01 1.36364E+00
 -1     27953 7.20159E+01 6.15074E+01 1.81818E+00
 -1     27954 6.62913E+01 6.62913E+01 1.81818E+00
 -1     27959 6.71751E+01 6.71751E+01 2.27273E+00
 -1     27960 7.20159E+01 6.15074E+01 2.72727E+00
 -1     27961 6.62913E+01 6.62913E+01 2.72727E+00
 -1     27966 6.71751E+01 6.71751E+01 3.18182E+00
 -1     27967 7.20159E+01 6.15074E+01 3.63636E+00
 -1     27968 6.62913E+01 6.62913E+01 3.63636E+00
 -1     27973 6.71751E+01 6.71751E+01 4.09091E+00
 -1     27974 7.20159E+01 6.15074E+01 4.54545E+00
 -1     27975 6.62913E+01 6.62913E+01 4.54545E+00
 -1     27980 6.71751E+01 6.71751E+01 5.00000E+00
 -1     27981 7.20159E+01 6.15074E+01 5.45455E+00
 -1     27982 6.62913E+01 6.62913E+01 5.45455E+00
 -1     27987 6.71751E+01 6.71751E+01 5.90909E+00
 -1     27988 7.20159E+01 6.15074E+01 6.36364E+00
 -1     27989 6.62913E+01 6.62913E+01 6.36364E+00
 -1     27994 6.71751E+01 6.71751E+01 6.81818E+00
 -1     27995 7.20159E+01 6.15074E+01 7.27273E+00
 -1     27996 6.62913E+01 6.62913E+01 7.27273E+00
 -1     28001 6.71751E+01 6.71751E+01 7.72727E+00
 -1     28002 7.20159E+01 6.15074E+01 8.18182E+00
 -1     28003 6.62913E+01 6.62913E+01 8.18182E+00
 -1     28008 6.71751E+01 6.71751E+01 8.63636E+00
 -1     28009 7.20159E+01 6.15074E+01 9.09091E+00
 -1     28010 6.62913E+01 6.62913E+01 9.09091E+00
 -1     28015 6.71751E+01 6.71751E+01 9.54545E+00
 -1     28019 5.58396E+01 7.68566E+01 4.54545E-01
 -1     28020 6.15074E+01 7.20159E+01 9.09091E-01
 -1     28021 5.51049E+01 7.58453E+01 9.09091E-01
 -1     28026 5.58396E+01 7.68566E+01 1.36364E+00
 -1     28027 6.15074E+01 7.20159E+01 1.81818E+00
 -1     28028 5.51049E+01 7.58453E+01 1.81818E+00
 -1     28033 5.58396E+01 7.68566E+01 2.27273E+00
 -1     28034 6.15074E+01 7.20159E+01 2.72727E+00
 -1     28035 5.51049E+01 7.58453E+01 2.72727E+00
 -1     28040 5.58396E+01 7.68566E+01 3.18182E+00
 -1     28041 6.15074E+01 7.20159E+01 3.63636E+00
 -1     28042 5.51049E+01 7.58453E+01 3.63636E+00
 -1     28047 5.58396E+01 7.68566E+01 4.09091E+00
 -1     28048 6.15074E+01 7.20159E+01 4.54545E+00
 -1     28049 5.51049E+01 7.58453E+01 4.54545E+00
 -1     28054 5.58396E+01 7.68566E+01 5.00000E+00
 -1     28055 6.15074E+01 7.20159E+01 5.45455E+00
 -1     28056 5.51049E+01 7.58453E+01 5.45455E+00
 -1     28061 5.58396E+01 7.68566E+01 5.90909E+00
 -1     28062 6.15074E+01 7.20159E+01 6.36364E+00
 -1     28063 5.51049E+01 7.58453E+01 6.36364E+00
 -1     28068 5.58396E+01 7.68566E+01 6.81818E+00
 -1     28069 6.15074E+01 7.20159E+01 7.27273E+00
 -1     28070 5.51049E+01 7.58453E+01 7.27273E+00
 -1     28075 5.58396E+01 7.68566E+01 7.72727E+00
 -1     28076 6.15074E+01 7.20159E+01 8.18182E+00
 -1     28077 5.51049E+01 7.58453E+01 8.18182E+00
 -1     28082 5.58396E+01 7.68566E+01 8.63636E+00
 -1     28083 6.15074E+01 7.20159E+01 9.09091E+00
 -1     28084 5.51049E+01 7.58453E+01 9.09091E+00
 -1     28089 5.58396E+01 7.68566E+01 9.54545E+00
 -1     28093 4.31291E+01 8.46456E+01 4.54545E-01
 -1     28094 4.94843E+01 8.07511E+01 9.09091E-01
 -1     28095 4.25616E+01 8.35319E+01 9.09091E-01
 -1     28100 4.31291E+01 8.46456E+01 1.36364E+00
 -1     28101 4.94843E+01 8.07511E+01 1.81818E+00
 -1     28102 4.25616E+01 8.35319E+01 1.81818E+00
 -1     28107 4.31291E+01 8.46456E+01 2.27273E+00
 -1     28108 4.94843E+01 8.07511E+01 2.72727E+00
 -1     28109 4.25616E+01 8.35319E+01 2.72727E+00
 -1     28114 4.31291E+01 8.46456E+01 3.18182E+00
 -1     28115 4.94843E+01 8.07511E+01 3.63636E+00
 -1     28116 4.25616E+01 8.35319E+01 3.63636E+00
 -1     28121 4.31291E+01 8.46456E+01 4.09091E+00
 -1     28122 4.94843E+01 8.07511E+01 4.54545E+00
 -1     28123 4.25616E+01 8.35319E+01 4.54545E+00
 -1     28128 4.31291E+01 8.46456E+01 5.00000E+00
 -1     28129 4.94843E+01 8.07511E+01 5.45455E+00
 -1     28130 4.25616E+01 8.35319E+01 5.45455E+00
 -1     28135 4.31291E+01 8.46456E+01 5.90909E+00
 -1     28136 4.94843E+01 8.07511E+01 6.36364E+00
 -1     28137 4.25616E+01 8.35319E+01 6.36364E+00
 -1     28142 4.31291E+01 8.46456E+01 6.81818E+00
 -1     28143 4.94843E+01 8.07511E+01 7.27273E+00
 -1     28144 4.25616E+01 8.35319E+01 7.27273E+00
 -1     28149 4.31291E+01 8.46456E+01 7.72727E+00
 -1     28150 4.94843E+01 8.07511E+01 8.18182E+00
 -1     28151 4.25616E+01 8.35319E+01 8.18182E+00
 -1     28156 4.31291E+01 8.46456E+01 8.63636E+00
 -1     28157 4.94843E+01 8.07511E+01 9.09091E+00
 -1     28158 4.25616E+01 8.35319E+01 9.09091E+00
 -1     28163 4.31291E+01 8.46456E+01 9.54545E+00
 -1     28167 2.93566E+01 9.03504E+01 4.54545E-01
 -1     28168 3.62429E+01 8.74980E+01 9.09091E-01
 -1     28169 2.89703E+01 8.91615E+01 9.09091E-01
 -1     28174 2.93566E+01 9.03504E+01 1.36364E+00
 -1     28175 3.62429E+01 8.74980E+01 1.81818E+00
 -1     28176 2.89703E+01 8.91615E+01 1.81818E+00
 -1     28181 2.93566E+01 9.03504E+01 2.27273E+00
 -1     28182 3.62429E+01 8.74980E+01 2.72727E+00
 -1     28183 2.89703E+01 8.91615E+01 2.72727E+00
 -1     28188 2.93566E+01 9.03504E+01 3.18182E+00
 -1     28189 3.62429E+01 8.74980E+01 3.63636E+00
 -1     28190 2.89703E+01 8.91615E+01 3.63636E+00
 -1     28195 2.93566E+01 9.03504E+01 4.09091E+00
 -1     28196 3.62429E+01 8.74980E+01 4.54545E+00
 -1     28197 2.89703E+01 8.91615E+01 4.54545E+00
 -1     28202 2.93566E+01 9.03504E+01 5.00000E+00
 -1     28203 3.62429E+01 8.74980E+01 5.45455E+00
 -1     28204 2.89703E+01 8.91615E+01 5.45455E+00
 -1     28209 2.93566E+01 9.03504E+01 5.90909E+00
 -1     28210 3.62429E+01 8.74980E+01 6.36364E+00
 -1     28211 2.89703E+01 8.91615E+01 6.36364E+00
 -1     28216 2.93566E+01 9.03504E+01 6.81818E+00
 -1     28217 3.62429E+01 8.74980E+01 7.27273E+00
 -1     28218 2.89703E+01 8.91615E+01 7.27273E+00
 -1     28223 2.93566E+01 9.03504E+01 7.72727E+00
 -1     28224 3.62429E+01 8.74980E+01 8.18182E+00
 -1     28225 2.89703E+01 8.91615E+01 8.18182E+00
 -1     28230 2.93566E+01 9.03504E+01 8.63636E+00
 -1     28231 3.62429E+01 8.74980E+01 9.09091E+00
 -1     28232 2.89703E+01 8.91615E+01 9.09091E+00
 -1     28237 2.93566E+01 9.03504E+01 9.54545E+00
 -1     28241 1.48613E+01 9.38304E+01 4.54545E-01
 -1     28242 2.21089E+01 9.20904E+01 9.09091E-01
 -1     28243 1.46657E+01 9.25958E+01 9.09091E-01
 -1     28248 1.48613E+01 9.38304E+01 1.36364E+00
 -1     28249 2.21089E+01 9.20904E+01 1.81818E+00
 -1     28250 1.46657E+01 9.25958E+01 1.81818E+00
 -1     28255 1.48613E+01 9.38304E+01 2.27273E+00
 -1     28256 2.21089E+01 9.20904E+01 2.72727E+00
 -1     28257 1.46657E+01 9.25958E+01 2.72727E+00
 -1     28262 1.48613E+01 9.38304E+01 3.18182E+00
 -1     28263 2.21089E+01 9.20904E+01 3.63636E+00
 -1     28264 1.46657E+01 9.25958E+01 3.63636E+00
 -1     28269 1.48613E+01 9.38304E+01 4.09091E+00
 -1     28270 2.21089E+01 9.20904E+01 4.54545E+00
 -1     28271 1.46657E+01 9.25958E+01 4.54545E+00
 -1     28276 1.48613E+01 9.38304E+01 5.00000E+00
 -1     28277 2.21089E+01 9.20904E+01 5.45455E+00
 -1     28278 1.46657E+01 9.25958E+01 5.45455E+00
 -1     28283 1.48613E+01 9.38304E+01 5.90909E+00
 -1     28284 2.21089E+01 9.20904E+01 6.36364E+00
 -1     28285 1.46657E+01 9.25958E+01 6.36364E+00
 -1     28290 1.48613E+01 9.38304E+01 6.81818E+00
 -1     28291 2.21089E+01 9.20904E+01 7.27273E+00
 -1     28292 1.46657E+01 9.25958E+01 7.27273E+00
 -1     28297 1.48613E+01 9.38304E+01 7.72727E+00
 -1     28298 2.21089E+01 9.20904E+01 8.18182E+00
 -1     28299 1.46657E+01 9.25958E+01 8.18182E+00
 -1     28304 1.48613E+01 9.38304E+01 8.63636E+00
 -1     28305 2.21089E+01 9.20904E+01 9.09091E+00
 -1     28306 1.46657E+01 9.25958E+01 9.09091E+00
 -1     28311 1.48613E+01 9.38304E+01 9.54545E+00
 -1     28315 7.43064E+00 9.44152E+01 9.09091E-01
 -1     28319 7.43064E+00 9.44152E+01 1.81818E+00
 -1     28323 7.43064E+00 9.44152E+01 2.72727E+00
 -1     28327 7.43064E+00 9.44152E+01 3.63636E+00
 -1     28331 7.43064E+00 9.44152E+01 4.54545E+00
 -1     28335 7.43064E+00 9.44152E+01 5.45455E+00
 -1     28339 7.43064E+00 9.44152E+01 6.36364E+00
 -1     28343 7.43064E+00 9.44152E+01 7.27273E+00
 -1     28347 7.43064E+00 9.44152E+01 8.18182E+00
 -1     28351 7.43064E+00 9.44152E+01 9.09091E+00
 -1     28357 9.62996E+01 1.52524E+01 4.54545E-01
 -1     28358 9.68998E+01 7.62618E+00 9.09091E-01
 -1     28359 9.50650E+01 1.50568E+01 9.09091E-01
 -1     28364 9.62996E+01 1.52524E+01 1.36364E+00
 -1     28365 9.68998E+01 7.62618E+00 1.81818E+00
 -1     28366 9.50650E+01 1.50568E+01 1.81818E+00
 -1     28371 9.62996E+01 1.52524E+01 2.27273E+00
 -1     28372 9.68998E+01 7.62618E+00 2.72727E+00
 -1     28373 9.50650E+01 1.50568E+01 2.72727E+00
 -1     28378 9.62996E+01 1.52524E+01 3.18182E+00
 -1     28379 9.68998E+01 7.62618E+00 3.63636E+00
 -1     28380 9.50650E+01 1.50568E+01 3.63636E+00
 -1     28385 9.62996E+01 1.52524E+01 4.09091E+00
 -1     28386 9.68998E+01 7.62618E+00 4.54545E+00
 -1     28387 9.50650E+01 1.50568E+01 4.54545E+00
 -1     28392 9.62996E+01 1.52524E+01 5.00000E+00
 -1     28393 9.68998E+01 7.62618E+00 5.45455E+00
 -1     28394 9.50650E+01 1.50568E+01 5.45455E+00
 -1     28399 9.62996E+01 1.52524E+01 5.90909E+00
 -1     28400 9.68998E+01 7.62618E+00 6.36364E+00
 -1     28401 9.50650E+01 1.50568E+01 6.36364E+00
 -1     28406 9.62996E+01 1.52524E+01 6.81818E+00
 -1     28407 9.68998E+01 7.62618E+00 7.27273E+00
 -1     28408 9.50650E+01 1.50568E+01 7.27273E+00
 -1     28413 9.62996E+01 1.52524E+01 7.72727E+00
 -1     28414 9.68998E+01 7.62618E+00 8.18182E+00
 -1     28415 9.50650E+01 1.50568E+01 8.18182E+00
 -1     28420 9.62996E+01 1.52524E+01 8.63636E+00
 -1     28421 9.68998E+01 7.62618E+00 9.09091E+00
 -1     28422 9.50650E+01 1.50568E+01 9.09091E+00
 -1     28427 9.62996E+01 1.52524E+01 9.54545E+00
 -1     28431 9.27280E+01 3.01292E+01 4.54545E-01
 -1     28432 9.45138E+01 2.26908E+01 9.09091E-01
 -1     28433 9.15392E+01 2.97429E+01 9.09091E-01
 -1     28438 9.27280E+01 3.01292E+01 1.36364E+00
 -1     28439 9.45138E+01 2.26908E+01 1.81818E+00
 -1     28440 9.15392E+01 2.97429E+01 1.81818E+00
 -1     28445 9.27280E+01 3.01292E+01 2.27273E+00
 -1     28446 9.45138E+01 2.26908E+01 2.72727E+00
 -1     28447 9.15392E+01 2.97429E+01 2.72727E+00
 -1     28452 9.27280E+01 3.01292E+01 3.18182E+00
 -1     28453 9.45138E+01 2.26908E+01 3.63636E+00
 -1     28454 9.15392E+01 2.97429E+01 3.63636E+00
 -1     28459 9.27280E+01 3.01292E+01 4.09091E+00
 -1     28460 9.45138E+01 2.26908E+01 4.54545E+00
 -1     28461 9.15392E+01 2.97429E+01 4.54545E+00
 -1     28466 9.27280E+01 3.01292E+01 5.00000E+00
 -1     28467 9.45138E+01 2.26908E+01 5.45455E+00
 -1     28468 9.15392E+01 2.97429E+01 5.45455E+00
 -1     28473 9.27280E+01 3.01292E+01 5.90909E+00
 -1     28474 9.45138E+01 2.26908E+01 6.36364E+00
 -1     28475 9.15392E+01 2.97429E+01 6.36364E+00
 -1     28480 9.27280E+01 3.01292E+01 6.81818E+00
 -1     28481 9.45138E+01 2.26908E+01 7.27273E+00
 -1     28482 9.15392E+01 2.97429E+01 7.27273E+00
 -1     28487 9.27280E+01 3.01292E+01 7.72727E+00
 -1     28488 9.45138E+01 2.26908E+01 8.18182E+00
 -1     28489 9.15392E+01 2.97429E+01 8.18182E+00
 -1     28494 9.27280E+01 3.01292E+01 8.63636E+00
 -1     28495 9.45138E+01 2.26908E+01 9.09091E+00
 -1     28496 9.15392E+01 2.97429E+01 9.09091E+00
 -1     28501 9.27280E+01 3.01292E+01 9.54545E+00
 -1     28505 8.68731E+01 4.42641E+01 4.54545E-01
 -1     28506 8.98006E+01 3.71966E+01 9.09091E-01
 -1     28507 8.57594E+01 4.36966E+01 9.09091E-01
 -1     28512 8.68731E+01 4.42641E+01 1.36364E+00
 -1     28513 8.98006E+01 3.71966E+01 1.81818E+00
 -1     28514 8.57594E+01 4.36966E+01 1.81818E+00
 -1     28519 8.68731E+01 4.42641E+01 2.27273E+00
 -1     28520 8.98006E+01 3.71966E+01 2.72727E+00
 -1     28521 8.57594E+01 4.36966E+01 2.72727E+00
 -1     28526 8.68731E+01 4.42641E+01 3.18182E+00
 -1     28527 8.98006E+01 3.71966E+01 3.63636E+00
 -1     28528 8.57594E+01 4.36966E+01 3.63636E+00
 -1     28533 8.68731E+01 4.42641E+01 4.09091E+00
 -1     28534 8.98006E+01 3.71966E+01 4.54545E+00
 -1     28535 8.57594E+01 4.36966E+01 4.54545E+00
 -1     28540 8.68731E+01 4.42641E+01 5.00000E+00
 -1     28541 8.98006E+01 3.71966E+01 5.45455E+00
 -1     28542 8.57594E+01 4.36966E+01 5.45455E+00
 -1     28547 8.68731E+01 4.42641E+01 5.90909E+00
 -1     28548 8.98006E+01 3.71966E+01 6.36364E+00
 -1     28549 8.57594E+01 4.36966E+01 6.36364E+00
 -1     28554 8.68731E+01 4.42641E+01 6.81818E+00
 -1     28555 8.98006E+01 3.71966E+01 7.27273E+00
 -1     28556 8.57594E+01 4.36966E+01 7.27273E+00
 -1     28561 8.68731E+01 4.42641E+01 7.72727E+00
 -1     28562 8.98006E+01 3.71966E+01 8.18182E+00
 -1     28563 8.57594E+01 4.36966E+01 8.18182E+00
 -1     28568 8.68731E+01 4.42641E+01 8.63636E+00
 -1     28569 8.98006E+01 3.71966E+01 9.09091E+00
 -1     28570 8.57594E+01 4.36966E+01 9.09091E+00
 -1     28575 8.68731E+01 4.42641E+01 9.54545E+00
 -1     28579 7.88792E+01 5.73091E+01 4.54545E-01
 -1     28580 8.28761E+01 5.07866E+01 9.09091E-01
 -1     28581 7.78679E+01 5.65743E+01 9.09091E-01
 -1     28586 7.88792E+01 5.73091E+01 1.36364E+00
 -1     28587 8.28761E+01 5.07866E+01 1.81818E+00
 -1     28588 7.78679E+01 5.65743E+01 1.81818E+00
 -1     28593 7.88792E+01 5.73091E+01 2.27273E+00
 -1     28594 8.28761E+01 5.07866E+01 2.72727E+00
 -1     28595 7.78679E+01 5.65743E+01 2.72727E+00
 -1     28600 7.88792E+01 5.73091E+01 3.18182E+00
 -1     28601 8.28761E+01 5.07866E+01 3.63636E+00
 -1     28602 7.78679E+01 5.65743E+01 3.63636E+00
 -1     28607 7.88792E+01 5.73091E+01 4.09091E+00
 -1     28608 8.28761E+01 5.07866E+01 4.54545E+00
 -1     28609 7.78679E+01 5.65743E+01 4.54545E+00
 -1     28614 7.88792E+01 5.73091E+01 5.00000E+00
 -1     28615 8.28761E+01 5.07866E+01 5.45455E+00
 -1     28616 7.78679E+01 5.65743E+01 5.45455E+00
 -1     28621 7.88792E+01 5.73091E+01 5.90909E+00
 -1     28622 8.28761E+01 5.07866E+01 6.36364E+00
 -1     28623 7.78679E+01 5.65743E+01 6.36364E+00
 -1     28628 7.88792E+01 5.73091E+01 6.81818E+00
 -1     28629 8.28761E+01 5.07866E+01 7.27273E+00
 -1     28630 7.78679E+01 5.65743E+01 7.27273E+00
 -1     28635 7.88792E+01 5.73091E+01 7.72727E+00
 -1     28636 8.28761E+01 5.07866E+01 8.18182E+00
 -1     28637 7.78679E+01 5.65743E+01 8.18182E+00
 -1     28642 7.88792E+01 5.73091E+01 8.63636E+00
 -1     28643 8.28761E+01 5.07866E+01 9.09091E+00
 -1     28644 7.78679E+01 5.65743E+01 9.09091E+00
 -1     28649 7.88792E+01 5.73091E+01 9.54545E+00
 -1     28653 6.89429E+01 6.89429E+01 4.54545E-01
 -1     28654 7.39110E+01 6.31260E+01 9.09091E-01
 -1     28655 6.80590E+01 6.80590E+01 9.09091E-01
 -1     28660 6.89429E+01 6.89429E+01 1.36364E+00
 -1     28661 7.39110E+01 6.31260E+01 1.81818E+00
 -1     28662 6.80590E+01 6.80590E+01 1.81818E+00
 -1     28667 6.89429E+01 6.89429E+01 2.27273E+00
 -1     28668 7.39110E+01 6.31260E+01 2.72727E+00
 -1     28669 6.80590E+01 6.80590E+01 2.72727E+00
 -1     28674 6.89429E+01 6.89429E+01 3.18182E+00
 -1     28675 7.39110E+01 6.31260E+01 3.63636E+00
 -1     28676 6.80590E+01 6.80590E+01 3.63636E+00
 -1     28681 6.89429E+01 6.89429E+01 4.09091E+00
 -1     28682 7.39110E+01 6.31260E+01 4.54545E+00
 -1     28683 6.80590E+01 6.80590E+01 4.54545E+00
 -1     28688 6.89429E+01 6.89429E+01 5.00000E+00
 -1     28689 7.39110E+01 6.31260E+01 5.45455E+00
 -1     28690 6.80590E+01 6.80590E+01 5.45455E+00
 -1     28695 6.89429E+01 6.89429E+01 5.90909E+00
 -1     28696 7.39110E+01 6.31260E+01 6.36364E+00
 -1     28697 6.80590E+01 6.80590E+01 6.36364E+00
 -1     28702 6.89429E+01 6.89429E+01 6.81818E+00
 -1     28703 7.39110E+01 6.31260E+01 7.27273E+00
 -1     28704 6.80590E+01 6.80590E+01 7.27273E+00
 -1     28709 6.89429E+01 6.89429E+01 7.72727E+00
 -1     28710 7.39110E+01 6.31260E+01 8.18182E+00
 -1     28711 6.80590E+01 6.80590E+01 8.18182E+00
 -1     28716 6.89429E+01 6.89429E+01 8.63636E+00
 -1     28717 7.39110E+01 6.31260E+01 9.09091E+00
 -1     28718 6.80590E+01 6.80590E+01 9.09091E+00
 -1     28723 6.89429E+01 6.89429E+01 9.54545E+00
 -1     28727 5.73091E+01 7.88792E+01 4.54545E-01
 -1     28728 6.31260E+01 7.39110E+01 9.09091E-01
 -1     28729 5.65743E+01 7.78679E+01 9.09091E-01
 -1     28734 5.73091E+01 7.88792E+01 1.36364E+00
 -1     28735 6.31260E+01 7.39110E+01 1.81818E+00
 -1     28736 5.65743E+01 7.78679E+01 1.81818E+00
 -1     28741 5.73091E+01 7.88792E+01 2.27273E+00
 -1     28742 6.31260E+01 7.39110E+01 2.72727E+00
 -1     28743 5.65743E+01 7.78679E+01 2.72727E+00
 -1     28748 5.73091E+01 7.88792E+01 3.18182E+00
 -1     28749 6.31260E+01 7.39110E+01 3.63636E+00
 -1     28750 5.65743E+01 7.78679E+01 3.63636E+00
 -1     28755 5.73091E+01 7.88792E+01 4.09091E+00
 -1     28756 6.31260E+01 7.39110E+01 4.54545E+00
 -1     28757 5.65743E+01 7.78679E+01 4.54545E+00
 -1     28762 5.73091E+01 7.88792E+01 5.00000E+00
 -1     28763 6.31260E+01 7.39110E+01 5.45455E+00
 -1     28764 5.65743E+01 7.78679E+01 5.45455E+00
 -1     28769 5.73091E+01 7.88792E+01 5.90909E+00
 -1     28770 6.31260E+01 7.39110E+01 6.36364E+00
 -1     28771 5.65743E+01 7.78679E+01 6.36364E+00
 -1     28776 5.73091E+01 7.88792E+01 6.81818E+00
 -1     28777 6.31260E+01 7.39110E+01 7.27273E+00
 -1     28778 5.65743E+01 7.78679E+01 7.27273E+00
 -1     28783 5.73091E+01 7.88792E+01 7.72727E+00
 -1     28784 6.31260E+01 7.39110E+01 8.18182E+00
 -1     28785 5.65743E+01 7.78679E+01 8.18182E+00
 -1     28790 5.73091E+01 7.88792E+01 8.63636E+00
 -1     28791 6.31260E+01 7.39110E+01 9.09091E+00
 -1     28792 5.65743E+01 7.78679E+01 9.09091E+00
 -1     28797 5.73091E+01 7.88792E+01 9.54545E+00
 -1     28801 4.42641E+01 8.68731E+01 4.54545E-01
 -1     28802 5.07866E+01 8.28761E+01 9.09091E-01
 -1     28803 4.36966E+01 8.57594E+01 9.09091E-01
 -1     28808 4.42641E+01 8.68731E+01 1.36364E+00
 -1     28809 5.07866E+01 8.28761E+01 1.81818E+00
 -1     28810 4.36966E+01 8.57594E+01 1.81818E+00
 -1     28815 4.42641E+01 8.68731E+01 2.27273E+00
 -1     28816 5.07866E+01 8.28761E+01 2.72727E+00
 -1     28817 4.36966E+01 8.57594E+01 2.72727E+00
 -1     28822 4.42641E+01 8.68731E+01 3.18182E+00
 -1     28823 5.07866E+01 8.28761E+01 3.63636E+00
 -1     28824 4.36966E+01 8.57594E+01 3.63636E+00
 -1     28829 4.42641E+01 8.68731E+01 4.09091E+00
 -1     28830 5.07866E+01 8.28761E+01 4.54545E+00
 -1     28831 4.36966E+01 8.57594E+01 4.54545E+00
 -1     28836 4.42641E+01 8.68731E+01 5.00000E+00
 -1     28837 5.07866E+01 8.28761E+01 5.45455E+00
 -1     28838 4.36966E+01 8.57594E+01 5.45455E+00
 -1     28843 4.42641E+01 8.68731E+01 5.90909E+00
 -1     28844 5.07866E+01 8.28761E+01 6.36364E+00
 -1     28845 4.36966E+01 8.57594E+01 6.36364E+00
 -1     28850 4.42641E+01 8.68731E+01 6.81818E+00
 -1     28851 5.07866E+01 8.28761E+01 7.27273E+00
 -1     28852 4.36966E+01 8.57594E+01 7.27273E+00
 -1     28857 4.42641E+01 8.68731E+01 7.72727E+00
 -1     28858 5.07866E+01 8.28761E+01 8.18182E+00
 -1     28859 4.36966E+01 8.57594E+01 8.18182E+00
 -1     28864 4.42641E+01 8.68731E+01 8.63636E+00
 -1     28865 5.07866E+01 8.28761E+01 9.09091E+00
 -1     28866 4.36966E+01 8.57594E+01 9.09091E+00
 -1     28871 4.42641E+01 8.68731E+01 9.54545E+00
 -1     28875 3.01292E+01 9.27280E+01 4.54545E-01
 -1     28876 3.71966E+01 8.98006E+01 9.09091E-01
 -1     28877 2.97429E+01 9.15392E+01 9.09091E-01
 -1     28882 3.01292E+01 9.27280E+01 1.36364E+00
 -1     28883 3.71966E+01 8.98006E+01 1.81818E+00
 -1     28884 2.97429E+01 9.15392E+01 1.81818E+00
 -1     28889 3.01292E+01 9.27280E+01 2.27273E+00
 -1     28890 3.71966E+01 8.98006E+01 2.72727E+00
 -1     28891 2.97429E+01 9.15392E+01 2.72727E+00
 -1     28896 3.01292E+01 9.27280E+01 3.18182E+00
 -1     28897 3.71966E+01 8.98006E+01 3.63636E+00
 -1     28898 2.97429E+01 9.15392E+01 3.63636E+00
 -1     28903 3.01292E+01 9.27280E+01 4.09091E+00
 -1     28904 3.71966E+01 8.98006E+01 4.54545E+00
 -1     28905 2.97429E+01 9.15392E+01 4.54545E+00
 -1     28910 3.01292E+01 9.27280E+01 5.00000E+00
 -1     28911 3.71966E+01 8.98006E+01 5.45455E+00
 -1     28912 2.97429E+01 9.15392E+01 5.45455E+00
 -1     28917 3.01292E+01 9.27280E+01 5.90909E+00
 -1     28918 3.71966E+01 8.98006E+01 6.36364E+00
 -1     28919 2.97429E+01 9.15392E+01 6.36364E+00
 -1     28924 3.01292E+01 9.27280E+01 6.81818E+00
 -1     28925 3.71966E+01 8.98006E+01 7.27273E+00
 -1     28926 2.97429E+01 9.15392E+01 7.27273E+00
 -1     28931 3.01292E+01 9.27280E+01 7.72727E+00
 -1     28932 3.71966E+01 8.98006E+01 8.18182E+00
 -1     28933 2.97429E+01 9.15392E+01 8.18182E+00
 -1     28938 3.01292E+01 9.27280E+01 8.63636E+00
 -1     28939 3.71966E+01 8.98006E+01 9.09091E+00
 -1     28940 2.97429E+01 9.15392E+01 9.09091E+00
 -1     28945 3.01292E+01 9.27280E+01 9.54545E+00
 -1     28949 1.52524E+01 9.62996E+01 4.54545E-01
 -1     28950 2.26908E+01 9.45138E+01 9.09091E-01
 -1     28951 1.50568E+01 9.50650E+01 9.09091E-01
 -1     28956 1.52524E+01 9.62996E+01 1.36364E+00
 -1     28957 2.26908E+01 9.45138E+01 1.81818E+00
 -1     28958 1.50568E+01 9.50650E+01 1.81818E+00
 -1     28963 1.52524E+01 9.62996E+01 2.27273E+00
 -1     28964 2.26908E+01 9.45138E+01 2.72727E+00
 -1     28965 1.50568E+01 9.50650E+01 2.72727E+00
 -1     28970 1.52524E+01 9.62996E+01 3.18182E+00
 -1     28971 2.26908E+01 9.45138E+01 3.63636E+00
 -1     28972 1.50568E+01 9.50650E+01 3.63636E+00
 -1     28977 1.52524E+01 9.62996E+01 4.09091E+00
 -1     28978 2.26908E+01 9.45138E+01 4.54545E+00
 -1     28979 1.50568E+01 9.50650E+01 4.54545E+00
 -1     28984 1.52524E+01 9.62996E+01 5.00000E+00
 -1     28985 2.26908E+01 9.45138E+01 5.45455E+00
 -1     28986 1.50568E+01 9.50650E+01 5.45455E+00
 -1     28991 1.52524E+01 9.62996E+01 5.90909E+00
 -1     28992 2.26908E+01 9.45138E+01 6.36364E+00
 -1     28993 1.50568E+01 9.50650E+01 6.36364E+00
 -1     28998 1.52524E+01 9.62996E+01 6.81818E+00
 -1     28999 2.26908E+01 9.45138E+01 7.27273E+00
 -1     29000 1.50568E+01 9.50650E+01 7.27273E+00
 -1     29005 1.52524E+01 9.62996E+01 7.72727E+00
 -1     29006 2.26908E+01 9.45138E+01 8.18182E+00
 -1     29007 1.50568E+01 9.50650E+01 8.18182E+00
 -1     29012 1.52524E+01 9.62996E+01 8.63636E+00
 -1     29013 2.26908E+01 9.45138E+01 9.09091E+00
 -1     29014 1.50568E+01 9.50650E+01 9.09091E+00
 -1     29019 1.52524E+01 9.62996E+01 9.54545E+00
 -1     29023 7.62618E+00 9.68998E+01 9.09091E-01
 -1     29027 7.62618E+00 9.68998E+01 1.81818E+00
 -1     29031 7.62618E+00 9.68998E+01 2.72727E+00
 -1     29035 7.62618E+00 9.68998E+01 3.63636E+00
 -1     29039 7.62618E+00 9.68998E+01 4.54545E+00
 -1     29043 7.62618E+00 9.68998E+01 5.45455E+00
 -1     29047 7.62618E+00 9.68998E+01 6.36364E+00
 -1     29051 7.62618E+00 9.68998E+01 7.27273E+00
 -1     29055 7.62618E+00 9.68998E+01 8.18182E+00
 -1     29059 7.62618E+00 9.68998E+01 9.09091E+00
 -1     29065 9.75342E+01 1.54479E+01 9.09091E-01
 -1     29069 9.75342E+01 1.54479E+01 1.81818E+00
 -1     29073 9.75342E+01 1.54479E+01 2.72727E+00
 -1     29077 9.75342E+01 1.54479E+01 3.63636E+00
 -1     29081 9.75342E+01 1.54479E+01 4.54545E+00
 -1     29085 9.75342E+01 1.54479E+01 5.45455E+00
 -1     29089 9.75342E+01 1.54479E+01 6.36364E+00
 -1     29093 9.75342E+01 1.54479E+01 7.27273E+00
 -1     29097 9.75342E+01 1.54479E+01 8.18182E+00
 -1     29101 9.75342E+01 1.54479E+01 9.09091E+00
 -1     29107 9.39168E+01 3.05154E+01 9.09091E-01
 -1     29111 9.39168E+01 3.05154E+01 1.81818E+00
 -1     29115 9.39168E+01 3.05154E+01 2.72727E+00
 -1     29119 9.39168E+01 3.05154E+01 3.63636E+00
 -1     29123 9.39168E+01 3.05154E+01 4.54545E+00
 -1     29127 9.39168E+01 3.05154E+01 5.45455E+00
 -1     29131 9.39168E+01 3.05154E+01 6.36364E+00
 -1     29135 9.39168E+01 3.05154E+01 7.27273E+00
 -1     29139 9.39168E+01 3.05154E+01 8.18182E+00
 -1     29143 9.39168E+01 3.05154E+01 9.09091E+00
 -1     29149 8.79869E+01 4.48316E+01 9.09091E-01
 -1     29153 8.79869E+01 4.48316E+01 1.81818E+00
 -1     29157 8.79869E+01 4.48316E+01 2.72727E+00
 -1     29161 8.79869E+01 4.48316E+01 3.63636E+00
 -1     29165 8.79869E+01 4.48316E+01 4.54545E+00
 -1     29169 8.79869E+01 4.48316E+01 5.45455E+00
 -1     29173 8.79869E+01 4.48316E+01 6.36364E+00
 -1     29177 8.79869E+01 4.48316E+01 7.27273E+00
 -1     29181 8.79869E+01 4.48316E+01 8.18182E+00
 -1     29185 8.79869E+01 4.48316E+01 9.09091E+00
 -1     29191 7.98904E+01 5.80438E+01 9.09091E-01
 -1     29195 7.98904E+01 5.80438E+01 1.81818E+00
 -1     29199 7.98904E+01 5.80438E+01 2.72727E+00
 -1     29203 7.98904E+01 5.80438E+01 3.63636E+00
 -1     29207 7.98904E+01 5.80438E+01 4.54545E+00
 -1     29211 7.98904E+01 5.80438E+01 5.45455E+00
 -1     29215 7.98904E+01 5.80438E+01 6.36364E+00
 -1     29219 7.98904E+01 5.80438E+01 7.27273E+00
 -1     29223 7.98904E+01 5.80438E+01 8.18182E+00
 -1     29227 7.98904E+01 5.80438E+01 9.09091E+00
 -1     29233 6.98268E+01 6.98268E+01 9.09091E-01
 -1     29237 6.98268E+01 6.98268E+01 1.81818E+00
 -1     29241 6.98268E+01 6.98268E+01 2.72727E+00
 -1     29245 6.98268E+01 6.98268E+01 3.63636E+00
 -1     29249 6.98268E+01 6.98268E+01 4.54545E+00
 -1     29253 6.98268E+01 6.98268E+01 5.45455E+00
 -1     29257 6.98268E+01 6.98268E+01 6.36364E+00
 -1     29261 6.98268E+01 6.98268E+01 7.27273E+00
 -1     29265 6.98268E+01 6.98268E+01 8.18182E+00
 -1     29269 6.98268E+01 6.98268E+01 9.09091E+00
 -1     29275 5.80438E+01 7.98904E+01 9.09091E-01
 -1     29279 5.80438E+01 7.98904E+01 1.81818E+00
 -1     29283 5.80438E+01 7.98904E+01 2.72727E+00
 -1     29287 5.80438E+01 7.98904E+01 3.63636E+00
 -1     29291 5.80438E+01 7.98904E+01 4.54545E+00
 -1     29295 5.80438E+01 7.98904E+01 5.45455E+00
 -1     29299 5.80438E+01 7.98904E+01 6.36364E+00
 -1     29303 5.80438E+01 7.98904E+01 7.27273E+00
 -1     29307 5.80438E+01 7.98904E+01 8.18182E+00
 -1     29311 5.80438E+01 7.98904E+01 9.09091E+00
 -1     29317 4.48316E+01 8.79869E+01 9.09091E-01
 -1     29321 4.48316E+01 8.79869E+01 1.81818E+00
 -1     29325 4.48316E+01 8.79869E+01 2.72727E+00
 -1     29329 4.48316E+01 8.79869E+01 3.63636E+00
 -1     29333 4.48316E+01 8.79869E+01 4.54545E+00
 -1     29337 4.48316E+01 8.79869E+01 5.45455E+00
 -1     29341 4.48316E+01 8.79869E+01 6.36364E+00
 -1     29345 4.48316E+01 8.79869E+01 7.27273E+00
 -1     29349 4.48316E+01 8.79869E+01 8.18182E+00
 -1     29353 4.48316E+01 8.79869E+01 9.09091E+00
 -1     29359 3.05154E+01 9.39168E+01 9.09091E-01
 -1     29363 3.05154E+01 9.39168E+01 1.81818E+00
 -1     29367 3.05154E+01 9.39168E+01 2.72727E+00
 -1     29371 3.05154E+01 9.39168E+01 3.63636E+00
 -1     29375 3.05154E+01 9.39168E+01 4.54545E+00
 -1     29379 3.05154E+01 9.39168E+01 5.45455E+00
 -1     29383 3.05154E+01 9.39168E+01 6.36364E+00
 -1     29387 3.05154E+01 9.39168E+01 7.27273E+00
 -1     29391 3.05154E+01 9.39168E+01 8.18182E+00
 -1     29395 3.05154E+01 9.39168E+01 9.09091E+00
 -1     29401 1.54479E+01 9.75342E+01 9.09091E-01
 -1     29405 1.54479E+01 9.75342E+01 1.81818E+00
 -1     29409 1.54479E+01 9.75342E+01 2.72727E+00
 -1     29413 1.54479E+01 9.75342E+01 3.63636E+00
 -1     29417 1.54479E+01 9.75342E+01 4.54545E+00
 -1     29421 1.54479E+01 9.75342E+01 5.45455E+00
 -1     29425 1.54479E+01 9.75342E+01 6.36364E+00
 -1     29429 1.54479E+01 9.75342E+01 7.27273E+00
 -1     29433 1.54479E+01 9.75342E+01 8.18182E+00
 -1     29437 1.54479E+01 9.75342E+01 9.09091E+00
 -3
    3C                          3300                                     1
 -1       881    4    0    1
 -2         1         9       405       154       321      1526      5923      4483        38       666
 -2       667       164       331      1816      8533      4749      1817      8534      8535      4781
 -1       882    4    0    1
 -2       321      1526      5923      4483       322      1527      5924      4484      1817      8534
 -2      8535      4781       332      1819      8540      4752      1820      8541      8542      4783
 -1       883    4    0    1
 -2       322      1527      5924      4484       323      1528      5925      4485      1820      8541
 -2      8542      4783       333      1822      8547      4755      1823      8548      8549      4785
 -1       884    4    0    1
 -2       323      1528      5925      4485       324      1529      5926      4486      1823      8548
 -2      8549      4785       334      1825      8554      4758      1826      8555      8556      4787
 -1       885    4    0    1
 -2       324      1529      5926      4486       325      1530      5927      4487      1826      8555
 -2      8556      4787       335      1828      8561      4761      1829      8562      8563      4789
 -1       886    4    0    1
 -2       325      1530      5927      4487       326      1531      5928      4488      1829      8562
 -2      8563      4789       336      1831      8568      4764      1832      8569      8570      4791
 -1       887    4    0    1
 -2       326      1531      5928      4488       327      1532      5929      4489      1832      8569
 -2      8570      4791       337      1834      8575      4767      1835      8576      8577      4793
 -1       888    4    0    1
 -2       327      1532      5929      4489       328      1533      5930      4490      1835      8576
 -2      8577      4793       338      1837      8582      4770      1838      8583      8584      4795
 -1       889    4    0    1
 -2       328      1533      5930      4490       329      1534      5931      4491      1838      8583
 -2      8584      4795       339      1840      8589      4773      1841      8590      8591      4797
 -1       890    4    0    1
 -2       329      1534      5931      4491       330      1535      5932      4492      1841      8590
 -2      8591      4797       340      1843      8596      4776      1844      8597      8598      4799
 -1       891    4    0    1
 -2       330      1535      5932      4492         5       165      4802       310      1844      8597
 -2      8598      4799       341      1846      8603      4779       194      5063      5064       320
 -1       892    4    0    1
 -2       154       405       406       153      4483      5923      5933      4473       667       669
 -2       670       163      4749      8533      8607      4717      8535      8608      8609      4750
 -1       893    4    0    1
 -2      4483      5923      5933      4473      4484      5924      5934      4474      8535      8608
 -2      8609      4750      4752      8540      8614      4720      8542      8615      8616      4753
 -1       894    4    0    1
 -2      4484      5924      5934      4474      4485      5925      5935      4475      8542      8615
 -2      8616      4753      4755      8547      8621      4723      8549      8622      8623      4756
 -1       895    4    0    1
 -2      4485      5925      5935      4475      4486      5926      5936      4476      8549      8622
 -2      8623      4756      4758      8554      8628      4726      8556      8629      8630      4759
 -1       896    4    0    1
 -2      4486      5926      5936      4476      4487      5927      5937      4477      8556      8629
 -2      8630      4759      4761      8561      8635      4729      8563      8636      8637      4762
 -1       897    4    0    1
 -2      4487      5927      5937      4477      4488      5928      5938      4478      8563      8636
 -2      8637      4762      4764      8568      8642      4732      8570      8643      8644      4765
 -1       898    4    0    1
 -2      4488      5928      5938      4478      4489      5929      5939      4479      8570      8643
 -2      8644      4765      4767      8575      8649      4735      8577      8650      8651      4768
 -1       899    4    0    1
 -2      4489      5929      5939      4479      4490      5930      5940      4480      8577      8650
 -2      8651      4768      4770      8582      8656      4738      8584      8657      8658      4771
 -1       900    4    0    1
 -2      4490      5930      5940      4480      4491      5931      5941      4481      8584      8657
 -2      8658      4771      4773      8589      8663      4741      8591      8664      8665      4774
 -1       901    4    0    1
 -2      4491      5931      5941      4481      4492      5932      5942      4482      8591      8664
 -2      8665      4774      4776      8596      8670      4744      8598      8671      8672      4777
 -1       902    4    0    1
 -2      4492      5932      5942      4482       310      4802      4803       309      8598      8671
 -2      8672      4777      4779      8603      8677      4747      5064      5066      5067       319
 -1       903    4    0    1
 -2       153       406       407       152      4473      5933      5943      4463       670       672
 -2       673       162      4717      8607      8681      4685      8609      8682      8683      4718
 -1       904    4    0    1
 -2      4473      5933      5943      4463      4474      5934      5944      4464      8609      8682
 -2      8683      4718      4720      8614      8688      4688      8616      8689      8690      4721
 -1       905    4    0    1
 -2      4474      5934      5944      4464      4475      5935      5945      4465      8616      8689
 -2      8690      4721      4723      8621      8695      4691      8623      8696      8697      4724
 -1       906    4    0    1
 -2      4475      5935      5945      4465      4476      5936      5946      4466      8623      8696
 -2      8697      4724      4726      8628      8702      4694      8630      8703      8704      4727
 -1       907    4    0    1
 -2      4476      5936      5946      4466      4477      5937      5947      4467      8630      8703
 -2      8704      4727      4729      8635      8709      4697      8637      8710      8711      4730
 -1       908    4    0    1
 -2      4477      5937      5947      4467      4478      5938      5948      4468      8637      8710
 -2      8711      4730      4732      8642      8716      4700      8644      8717      8718      4733
 -1       909    4    0    1
 -2      4478      5938      5948      4468      4479      5939      5949      4469      8644      8717
 -2      8718      4733      4735      8649      8723      4703      8651      8724      8725      4736
 -1       910    4    0    1
 -2      4479      5939      5949      4469      4480      5940      5950      4470      8651      8724
 -2      8725      4736      4738      8656      8730      4706      8658      8731      8732      4739
 -1       911    4    0    1
 -2      4480      5940      5950      4470      4481      5941      5951      4471      8658      8731
 -2      8732      4739      4741      8663      8737      4709      8665      8738      8739      4742
 -1       912    4    0    1
 -2      4481      5941      5951      4471      4482      5942      5952      4472      8665      8738
 -2      8739      4742      4744      8670      8744      4712      8672      8745      8746      4745
 -1       913    4    0    1
 -2      4482      5942      5952      4472       309      4803      4804       308      8672      8745
 -2      8746      4745      4747      8677      8751      4715      5067      5069      5070       318
 -1       914    4    0    1
 -2       152       407       408       151      4463      5943      5953      4453       673       675
 -2       676       161      4685      8681      8755      4653      8683      8756      8757      4686
 -1       915    4    0    1
 -2      4463      5943      5953      4453      4464      5944      5954      4454      8683      8756
 -2      8757      4686      4688      8688      8762      4656      8690      8763      8764      4689
 -1       916    4    0    1
 -2      4464      5944      5954      4454      4465      5945      5955      4455      8690      8763
 -2      8764      4689      4691      8695      8769      4659      8697      8770      8771      4692
 -1       917    4    0    1
 -2      4465      5945      5955      4455      4466      5946      5956      4456      8697      8770
 -2      8771      4692      4694      8702      8776      4662      8704      8777      8778      4695
 -1       918    4    0    1
 -2      4466      5946      5956      4456      4467      5947      5957      4457      8704      8777
 -2      8778      4695      4697      8709      8783      4665      8711      8784      8785      4698
 -1       919    4    0    1
 -2      4467      5947      5957      4457      4468      5948      5958      4458      8711      8784
 -2      8785      4698      4700      8716      8790      4668      8718      8791      8792      4701
 -1       920    4    0    1
 -2      4468      5948      5958      4458      4469      5949      5959      4459      8718      8791
 -2      8792      4701      4703      8723      8797      4671      8725      8798      8799      4704
 -1       921    4    0    1
 -2      4469      5949      5959      4459      4470      5950      5960      4460      8725      8798
 -2      8799      4704      4706      8730      8804      4674      8732      8805      8806      4707
 -1       922    4    0    1
 -2      4470      5950      5960      4460      4471      5951      5961      4461      8732      8805
 -2      8806      4707      4709      8737      8811      4677      8739      8812      8813      4710
 -1       923    4    0    1
 -2      4471      5951      5961      4461      4472      5952      5962      4462      8739      8812
 -2      8813      4710      4712      8744      8818      4680      8746      8819      8820      4713
 -1       924    4    0    1
 -2      4472      5952      5962      4462       308      4804      4805       307      8746      8819
 -2      8820      4713      4715      8751      8825      4683      5070      5072      5073       317
 -1       925    4    0    1
 -2       151       408       409       150      4453      5953      5963      4443       676       678
 -2       679       160      4653      8755      8829      4621      8757      8830      8831      4654
 -1       926    4    0    1
 -2      4453      5953      5963      4443      4454      5954      5964      4444      8757      8830
 -2      8831      4654      4656      8762      8836      4624      8764      8837      8838      4657
 -1       927    4    0    1
 -2      4454      5954      5964      4444      4455      5955      5965      4445      8764      8837
 -2      8838      4657      4659      8769      8843      4627      8771      8844      8845      4660
 -1       928    4    0    1
 -2      4455      5955      5965      4445      4456      5956      5966      4446      8771      8844
 -2      8845      4660      4662      8776      8850      4630      8778      8851      8852      4663
 -1       929    4    0    1
 -2      4456      5956      5966      4446      4457      5957      5967      4447      8778      8851
 -2      8852      4663      4665      8783      8857      4633      8785      8858      8859      4666
 -1       930    4    0    1
 -2      4457      5957      5967      4447      4458      5958      5968      4448      8785      8858
 -2      8859      4666      4668      8790      8864      4636      8792      8865      8866      4669
 -1       931    4    0    1
 -2      4458      5958      5968      4448      4459      5959      5969      4449      8792      8865
 -2      8866      4669      4671      8797      8871      4639      8799      8872      8873      4672
 -1       932    4    0    1
 -2      4459      5959      5969      4449      4460      5960      5970      4450      8799      8872
 -2      8873      4672      4674      8804      8878      4642      8806      8879      8880      4675
 -1       933    4    0    1
 -2      4460      5960      5970      4450      4461      5961      5971      4451      8806      8879
 -2      8880      4675      4677      8811      8885      4645      8813      8886      8887      4678
 -1       934    4    0    1
 -2      4461      5961      5971      4451      4462      5962      5972      4452      8813      8886
 -2      8887      4678      4680      8818      8892      4648      8820      8893      8894      4681
 -1       935    4    0    1
 -2      4462      5962      5972      4452       307      4805      4806       306      8820      8893
 -2      8894      4681      4683      8825      8899      4651      5073      5075      5076       316
 -1       936    4    0    1
 -2       150       409       410       149      4443      5963      5973      4433       679       681
 -2       682       159      4621      8829      8903      4589      8831      8904      8905      4622
 -1       937    4    0    1
 -2      4443      5963      5973      4433      4444      5964      5974      4434      8831      8904
 -2      8905      4622      4624      8836      8910      4592      8838      8911      8912      4625
 -1       938    4    0    1
 -2      4444      5964      5974      4434      4445      5965      5975      4435      8838      8911
 -2      8912      4625      4627      8843      8917      4595      8845      8918      8919      4628
 -1       939    4    0    1
 -2      4445      5965      5975      4435      4446      5966      5976      4436      8845      8918
 -2      8919      4628      4630      8850      8924      4598      8852      8925      8926      4631
 -1       940    4    0    1
 -2      4446      5966      5976      4436      4447      5967      5977      4437      8852      8925
 -2      8926      4631      4633      8857      8931      4601      8859      8932      8933      4634
 -1       941    4    0    1
 -2      4447      5967      5977      4437      4448      5968      5978      4438      8859      8932
 -2      8933      4634      4636      8864      8938      4604      8866      8939      8940      4637
 -1       942    4    0    1
 -2      4448      5968      5978      4438      4449      5969      5979      4439      8866      8939
 -2      8940      4637      4639      8871      8945      4607      8873      8946      8947      4640
 -1       943    4    0    1
 -2      4449      5969      5979      4439      4450      5970      5980      4440      8873      8946
 -2      8947      4640      4642      8878      8952      4610      8880      8953      8954      4643
 -1       944    4    0    1
 -2      4450      5970      5980      4440      4451      5971      5981      4441      8880      8953
 -2      8954      4643      4645      8885      8959      4613      8887      8960      8961      4646
 -1       945    4    0    1
 -2      4451      5971      5981      4441      4452      5972      5982      4442      8887      8960
 -2      8961      4646      4648      8892      8966      4616      8894      8967      8968      4649
 -1       946    4    0    1
 -2      4452      5972      5982      4442       306      4806      4807       305      8894      8967
 -2      8968      4649      4651      8899      8973      4619      5076      5078      5079       315
 -1       947    4    0    1
 -2       149       410       411       148      4433      5973      5983      4423       682       684
 -2       685       158      4589      8903      8977      4557      8905      8978      8979      4590
 -1       948    4    0    1
 -2      4433      5973      5983      4423      4434      5974      5984      4424      8905      8978
 -2      8979      4590      4592      8910      8984      4560      8912      8985      8986      4593
 -1       949    4    0    1
 -2      4434      5974      5984      4424      4435      5975      5985      4425      8912      8985
 -2      8986      4593      4595      8917      8991      4563      8919      8992      8993      4596
 -1       950    4    0    1
 -2      4435      5975      5985      4425      4436      5976      5986      4426      8919      8992
 -2      8993      4596      4598      8924      8998      4566      8926      8999      9000      4599
 -1       951    4    0    1
 -2      4436      5976      5986      4426      4437      5977      5987      4427      8926      8999
 -2      9000      4599      4601      8931      9005      4569      8933      9006      9007      4602
 -1       952    4    0    1
 -2      4437      5977      5987      4427      4438      5978      5988      4428      8933      9006
 -2      9007      4602      4604      8938      9012      4572      8940      9013      9014      4605
 -1       953    4    0    1
 -2      4438      5978      5988      4428      4439      5979      5989      4429      8940      9013
 -2      9014      4605      4607      8945      9019      4575      8947      9020      9021      4608
 -1       954    4    0    1
 -2      4439      5979      5989      4429      4440      5980      5990      4430      8947      9020
 -2      9021      4608      4610      8952      9026      4578      8954      9027      9028      4611
 -1       955    4    0    1
 -2      4440      5980      5990      4430      4441      5981      5991      4431      8954      9027
 -2      9028      4611      4613      8959      9033      4581      8961      9034      9035      4614
 -1       956    4    0    1
 -2      4441      5981      5991      4431      4442      5982      5992      4432      8961      9034
 -2      9035      4614      4616      8966      9040      4584      8968      9041      9042      4617
 -1       957    4    0    1
 -2      4442      5982      5992      4432       305      4807      4808       304      8968      9041
 -2      9042      4617      4619      8973      9047      4587      5079      5081      5082       314
 -1       958    4    0    1
 -2       148       411       412       147      4423      5983      5993      4413       685       687
 -2       688       157      4557      8977      9051      4525      8979      9052      9053      4558
 -1       959    4    0    1
 -2      4423      5983      5993      4413      4424      5984      5994      4414      8979      9052
 -2      9053      4558      4560      8984      9058      4528      8986      9059      9060      4561
 -1       960    4    0    1
 -2      4424      5984      5994      4414      4425      5985      5995      4415      8986      9059
 -2      9060      4561      4563      8991      9065      4531      8993      9066      9067      4564
 -1       961    4    0    1
 -2      4425      5985      5995      4415      4426      5986      5996      4416      8993      9066
 -2      9067      4564      4566      8998      9072      4534      9000      9073      9074      4567
 -1       962    4    0    1
 -2      4426      5986      5996      4416      4427      5987      5997      4417      9000      9073
 -2      9074      4567      4569      9005      9079      4537      9007      9080      9081      4570
 -1       963    4    0    1
 -2      4427      5987      5997      4417      4428      5988      5998      4418      9007      9080
 -2      9081      4570      4572      9012      9086      4540      9014      9087      9088      4573
 -1       964    4    0    1
 -2      4428      5988      5998      4418      4429      5989      5999      4419      9014      9087
 -2      9088      4573      4575      9019      9093      4543      9021      9094      9095      4576
 -1       965    4    0    1
 -2      4429      5989      5999      4419      4430      5990      6000      4420      9021      9094
 -2      9095      4576      4578      9026      9100      4546      9028      9101      9102      4579
 -1       966    4    0    1
 -2      4430      5990      6000      4420      4431      5991      6001      4421      9028      9101
 -2      9102      4579      4581      9033      9107      4549      9035      9108      9109      4582
 -1       967    4    0    1
 -2      4431      5991      6001      4421      4432      5992      6002      4422      9035      9108
 -2      9109      4582      4584      9040      9114      4552      9042      9115      9116      4585
 -1       968    4    0    1
 -2      4432      5992      6002      4422       304      4808      4809       303      9042      9115
 -2      9116      4585      4587      9047      9121      4555      5082      5084      5085       313
 -1       969    4    0    1
 -2       147       412       413       146      4413      5993      6003      4403       688       690
 -2       691       156      4525      9051      9125      4493      9053      9126      9127      4526
 -1       970    4    0    1
 -2      4413      5993      6003      4403      4414      5994      6004      4404      9053      9126
 -2      9127      4526      4528      9058      9132      4496      9060      9133      9134      4529
 -1       971    4    0    1
 -2      4414      5994      6004      4404      4415      5995      6005      4405      9060      9133
 -2      9134      4529      4531      9065      9139      4499      9067      9140      9141      4532
 -1       972    4    0    1
 -2      4415      5995      6005      4405      4416      5996      6006      4406      9067      9140
 -2      9141      4532      4534      9072      9146      4502      9074      9147      9148      4535
 -1       973    4    0    1
 -2      4416      5996      6006      4406      4417      5997      6007      4407      9074      9147
 -2      9148      4535      4537      9079      9153      4505      9081      9154      9155      4538
 -1       974    4    0    1
 -2      4417      5997      6007      4407      4418      5998      6008      4408      9081      9154
 -2      9155      4538      4540      9086      9160      4508      9088      9161      9162      4541
 -1       975    4    0    1
 -2      4418      5998      6008      4408      4419      5999      6009      4409      9088      9161
 -2      9162      4541      4543      9093      9167      4511      9095      9168      9169      4544
 -1       976    4    0    1
 -2      4419      5999      6009      4409      4420      6000      6010      4410      9095      9168
 -2      9169      4544      4546      9100      9174      4514      9102      9175      9176      4547
 -1       977    4    0    1
 -2      4420      6000      6010      4410      4421      6001      6011      4411      9102      9175
 -2      9176      4547      4549      9107      9181      4517      9109      9182      9183      4550
 -1       978    4    0    1
 -2      4421      6001      6011      4411      4422      6002      6012      4412      9109      9182
 -2      9183      4550      4552      9114      9188      4520      9116      9189      9190      4553
 -1       979    4    0    1
 -2      4422      6002      6012      4412       303      4809      4810       302      9116      9189
 -2      9190      4553      4555      9121      9195      4523      5085      5087      5088       312
 -1       980    4    0    1
 -2       146       413       115         4      4403      6003      3444       384       691       693
 -2       145       155      4493      9125      4350       394      9127      9199      4382      4494
 -1       981    4    0    1
 -2      4403      6003      3444       384      4404      6004      3445       385      9127      9199
 -2      4382      4494      4496      9132      4353       395      9134      9203      4384      4497
 -1       982    4    0    1
 -2      4404      6004      3445       385      4405      6005      3446       386      9134      9203
 -2      4384      4497      4499      9139      4356       396      9141      9207      4386      4500
 -1       983    4    0    1
 -2      4405      6005      3446       386      4406      6006      3447       387      9141      9207
 -2      4386      4500      4502      9146      4359       397      9148      9211      4388      4503
 -1       984    4    0    1
 -2      4406      6006      3447       387      4407      6007      3448       388      9148      9211
 -2      4388      4503      4505      9153      4362       398      9155      9215      4390      4506
 -1       985    4    0    1
 -2      4407      6007      3448       388      4408      6008      3449       389      9155      9215
 -2      4390      4506      4508      9160      4365       399      9162      9219      4392      4509
 -1       986    4    0    1
 -2      4408      6008      3449       389      4409      6009      3450       390      9162      9219
 -2      4392      4509      4511      9167      4368       400      9169      9223      4394      4512
 -1       987    4    0    1
 -2      4409      6009      3450       390      4410      6010      3451       391      9169      9223
 -2      4394      4512      4514      9174      4371       401      9176      9227      4396      4515
 -1       988    4    0    1
 -2      4410      6010      3451       391      4411      6011      3452       392      9176      9227
 -2      4396      4515      4517      9181      4374       402      9183      9231      4398      4518
 -1       989    4    0    1
 -2      4411      6011      3452       392      4412      6012      3453       393      9183      9231
 -2      4398      4518      4520      9188      4377       403      9190      9235      4400      4521
 -1       990    4    0    1
 -2      4412      6012      3453       393       302      4810       271         8      9190      9235
 -2      4400      4521      4523      9195      4380       404      5088      5090       301       311
 -1       991    4    0    1
 -2         9        10       414       405      1526      1536      6013      5923        39       695
 -2       696       666      1816      1848      9241      8533      1849      9242      9243      8534
 -1       992    4    0    1
 -2      1526      1536      6013      5923      1527      1537      6014      5924      1849      9242
 -2      9243      8534      1819      1851      9248      8540      1852      9249      9250      8541
 -1       993    4    0    1
 -2      1527      1537      6014      5924      1528      1538      6015      5925      1852      9249
 -2      9250      8541      1822      1854      9255      8547      1855      9256      9257      8548
 -1       994    4    0    1
 -2      1528      1538      6015      5925      1529      1539      6016      5926      1855      9256
 -2      9257      8548      1825      1857      9262      8554      1858      9263      9264      8555
 -1       995    4    0    1
 -2      1529      1539      6016      5926      1530      1540      6017      5927      1858      9263
 -2      9264      8555      1828      1860      9269      8561      1861      9270      9271      8562
 -1       996    4    0    1
 -2      1530      1540      6017      5927      1531      1541      6018      5928      1861      9270
 -2      9271      8562      1831      1863      9276      8568      1864      9277      9278      8569
 -1       997    4    0    1
 -2      1531      1541      6018      5928      1532      1542      6019      5929      1864      9277
 -2      9278      8569      1834      1866      9283      8575      1867      9284      9285      8576
 -1       998    4    0    1
 -2      1532      1542      6019      5929      1533      1543      6020      5930      1867      9284
 -2      9285      8576      1837      1869      9290      8582      1870      9291      9292      8583
 -1       999    4    0    1
 -2      1533      1543      6020      5930      1534      1544      6021      5931      1870      9291
 -2      9292      8583      1840      1872      9297      8589      1873      9298      9299      8590
 -1      1000    4    0    1
 -2      1534      1544      6021      5931      1535      1545      6022      5932      1873      9298
 -2      9299      8590      1843      1875      9304      8596      1876      9305      9306      8597
 -1      1001    4    0    1
 -2      1535      1545      6022      5932       165       166      4811      4802      1876      9305
 -2      9306      8597      1846      1878      9311      8603       195      5092      5093      5063
 -1      1002    4    0    1
 -2       405       414       415       406      5923      6013      6023      5933       696       698
 -2       699       669      8533      9241      9315      8607      9243      9316      9317      8608
 -1      1003    4    0    1
 -2      5923      6013      6023      5933      5924      6014      6024      5934      9243      9316
 -2      9317      8608      8540      9248      9322      8614      9250      9323      9324      8615
 -1      1004    4    0    1
 -2      5924      6014      6024      5934      5925      6015      6025      5935      9250      9323
 -2      9324      8615      8547      9255      9329      8621      9257      9330      9331      8622
 -1      1005    4    0    1
 -2      5925      6015      6025      5935      5926      6016      6026      5936      9257      9330
 -2      9331      8622      8554      9262      9336      8628      9264      9337      9338      8629
 -1      1006    4    0    1
 -2      5926      6016      6026      5936      5927      6017      6027      5937      9264      9337
 -2      9338      8629      8561      9269      9343      8635      9271      9344      9345      8636
 -1      1007    4    0    1
 -2      5927      6017      6027      5937      5928      6018      6028      5938      9271      9344
 -2      9345      8636      8568      9276      9350      8642      9278      9351      9352      8643
 -1      1008    4    0    1
 -2      5928      6018      6028      5938      5929      6019      6029      5939      9278      9351
 -2      9352      8643      8575      9283      9357      8649      9285      9358      9359      8650
 -1      1009    4    0    1
 -2      5929      6019      6029      5939      5930      6020      6030      5940      9285      9358
 -2      9359      8650      8582      9290      9364      8656      9292      9365      9366      8657
 -1      1010    4    0    1
 -2      5930      6020      6030      5940      5931      6021      6031      5941      9292      9365
 -2      9366      8657      8589      9297      9371      8663      9299      9372      9373      8664
 -1      1011    4    0    1
 -2      5931      6021      6031      5941      5932      6022      6032      5942      9299      9372
 -2      9373      8664      8596      9304      9378      8670      9306      9379      9380      8671
 -1      1012    4    0    1
 -2      5932      6022      6032      5942      4802      4811      4812      4803      9306      9379
 -2      9380      8671      8603      9311      9385      8677      5093      5095      5096      5066
 -1      1013    4    0    1
 -2       406       415       416       407      5933      6023      6033      5943       699       701
 -2       702       672      8607      9315      9389      8681      9317      9390      9391      8682
 -1      1014    4    0    1
 -2      5933      6023      6033      5943      5934      6024      6034      5944      9317      9390
 -2      9391      8682      8614      9322      9396      8688      9324      9397      9398      8689
 -1      1015    4    0    1
 -2      5934      6024      6034      5944      5935      6025      6035      5945      9324      9397
 -2      9398      8689      8621      9329      9403      8695      9331      9404      9405      8696
 -1      1016    4    0    1
 -2      5935      6025      6035      5945      5936      6026      6036      5946      9331      9404
 -2      9405      8696      8628      9336      9410      8702      9338      9411      9412      8703
 -1      1017    4    0    1
 -2      5936      6026      6036      5946      5937      6027      6037      5947      9338      9411
 -2      9412      8703      8635      9343      9417      8709      9345      9418      9419      8710
 -1      1018    4    0    1
 -2      5937      6027      6037      5947      5938      6028      6038      5948      9345      9418
 -2      9419      8710      8642      9350      9424      8716      9352      9425      9426      8717
 -1      1019    4    0    1
 -2      5938      6028      6038      5948      5939      6029      6039      5949      9352      9425
 -2      9426      8717      8649      9357      9431      8723      9359      9432      9433      8724
 -1      1020    4    0    1
 -2      5939      6029      6039      5949      5940      6030      6040      5950      9359      9432
 -2      9433      8724      8656      9364      9438      8730      9366      9439      9440      8731
 -1      1021    4    0    1
 -2      5940      6030      6040      5950      5941      6031      6041      5951      9366      9439
 -2      9440      8731      8663      9371      9445      8737      9373      9446      9447      8738
 -1      1022    4    0    1
 -2      5941      6031      6041      5951      5942      6032      6042      5952      9373      9446
 -2      9447      8738      8670      9378      9452      8744      9380      9453      9454      8745
 -1      1023    4    0    1
 -2      5942      6032      6042      5952      4803      4812      4813      4804      9380      9453
 -2      9454      8745      8677      9385      9459      8751      5096      5098      5099      5069
 -1      1024    4    0    1
 -2       407       416       417       408      5943      6033      6043      5953       702       704
 -2       705       675      8681      9389      9463      8755      9391      9464      9465      8756
 -1      1025    4    0    1
 -2      5943      6033      6043      5953      5944      6034      6044      5954      9391      9464
 -2      9465      8756      8688      9396      9470      8762      9398      9471      9472      8763
 -1      1026    4    0    1
 -2      5944      6034      6044      5954      5945      6035      6045      5955      9398      9471
 -2      9472      8763      8695      9403      9477      8769      9405      9478      9479      8770
 -1      1027    4    0    1
 -2      5945      6035      6045      5955      5946      6036      6046      5956      9405      9478
 -2      9479      8770      8702      9410      9484      8776      9412      9485      9486      8777
 -1      1028    4    0    1
 -2      5946      6036      6046      5956      5947      6037      6047      5957      9412      9485
 -2      9486      8777      8709      9417      9491      8783      9419      9492      9493      8784
 -1      1029    4    0    1
 -2      5947      6037      6047      5957      5948      6038      6048      5958      9419      9492
 -2      9493      8784      8716      9424      9498      8790      9426      9499      9500      8791
 -1      1030    4    0    1
 -2      5948      6038      6048      5958      5949      6039      6049      5959      9426      9499
 -2      9500      8791      8723      9431      9505      8797      9433      9506      9507      8798
 -1      1031    4    0    1
 -2      5949      6039      6049      5959      5950      6040      6050      5960      9433      9506
 -2      9507      8798      8730      9438      9512      8804      9440      9513      9514      8805
 -1      1032    4    0    1
 -2      5950      6040      6050      5960      5951      6041      6051      5961      9440      9513
 -2      9514      8805      8737      9445      9519      8811      9447      9520      9521      8812
 -1      1033    4    0    1
 -2      5951      6041      6051      5961      5952      6042      6052      5962      9447      9520
 -2      9521      8812      8744      9452      9526      8818      9454      9527      9528      8819
 -1      1034    4    0    1
 -2      5952      6042      6052      5962      4804      4813      4814      4805      9454      9527
 -2      9528      8819      8751      9459      9533      8825      5099      5101      5102      5072
 -1      1035    4    0    1
 -2       408       417       418       409      5953      6043      6053      5963       705       707
 -2       708       678      8755      9463      9537      8829      9465      9538      9539      8830
 -1      1036    4    0    1
 -2      5953      6043      6053      5963      5954      6044      6054      5964      9465      9538
 -2      9539      8830      8762      9470      9544      8836      9472      9545      9546      8837
 -1      1037    4    0    1
 -2      5954      6044      6054      5964      5955      6045      6055      5965      9472      9545
 -2      9546      8837      8769      9477      9551      8843      9479      9552      9553      8844
 -1      1038    4    0    1
 -2      5955      6045      6055      5965      5956      6046      6056      5966      9479      9552
 -2      9553      8844      8776      9484      9558      8850      9486      9559      9560      8851
 -1      1039    4    0    1
 -2      5956      6046      6056      5966      5957      6047      6057      5967      9486      9559
 -2      9560      8851      8783      9491      9565      8857      9493      9566      9567      8858
 -1      1040    4    0    1
 -2      5957      6047      6057      5967      5958      6048      6058      5968      9493      9566
 -2      9567      8858      8790      9498      9572      8864      9500      9573      9574      8865
 -1      1041    4    0    1
 -2      5958      6048      6058      5968      5959      6049      6059      5969      9500      9573
 -2      9574      8865      8797      9505      9579      8871      9507      9580      9581      8872
 -1      1042    4    0    1
 -2      5959      6049      6059      5969      5960      6050      6060      5970      9507      9580
 -2      9581      8872      8804      9512      9586      8878      9514      9587      9588      8879
 -1      1043    4    0    1
 -2      5960      6050      6060      5970      5961      6051      6061      5971      9514      9587
 -2      9588      8879      8811      9519      9593      8885      9521      9594      9595      8886
 -1      1044    4    0    1
 -2      5961      6051      6061      5971      5962      6052      6062      5972      9521      9594
 -2      9595      8886      8818      9526      9600      8892      9528      9601      9602      8893
 -1      1045    4    0    1
 -2      5962      6052      6062      5972      4805      4814      4815      4806      9528      9601
 -2      9602      8893      8825      9533      9607      8899      5102      5104      5105      5075
 -1      1046    4    0    1
 -2       409       418       419       410      5963      6053      6063      5973       708       710
 -2       711       681      8829      9537      9611      8903      9539      9612      9613      8904
 -1      1047    4    0    1
 -2      5963      6053      6063      5973      5964      6054      6064      5974      9539      9612
 -2      9613      8904      8836      9544      9618      8910      9546      9619      9620      8911
 -1      1048    4    0    1
 -2      5964      6054      6064      5974      5965      6055      6065      5975      9546      9619
 -2      9620      8911      8843      9551      9625      8917      9553      9626      9627      8918
 -1      1049    4    0    1
 -2      5965      6055      6065      5975      5966      6056      6066      5976      9553      9626
 -2      9627      8918      8850      9558      9632      8924      9560      9633      9634      8925
 -1      1050    4    0    1
 -2      5966      6056      6066      5976      5967      6057      6067      5977      9560      9633
 -2      9634      8925      8857      9565      9639      8931      9567      9640      9641      8932
 -1      1051    4    0    1
 -2      5967      6057      6067      5977      5968      6058      6068      5978      9567      9640
 -2      9641      8932      8864      9572      9646      8938      9574      9647      9648      8939
 -1      1052    4    0    1
 -2      5968      6058      6068      5978      5969      6059      6069      5979      9574      9647
 -2      9648      8939      8871      9579      9653      8945      9581      9654      9655      8946
 -1      1053    4    0    1
 -2      5969      6059      6069      5979      5970      6060      6070      5980      9581      9654
 -2      9655      8946      8878      9586      9660      8952      9588      9661      9662      8953
 -1      1054    4    0    1
 -2      5970      6060      6070      5980      5971      6061      6071      5981      9588      9661
 -2      9662      8953      8885      9593      9667      8959      9595      9668      9669      8960
 -1      1055    4    0    1
 -2      5971      6061      6071      5981      5972      6062      6072      5982      9595      9668
 -2      9669      8960      8892      9600      9674      8966      9602      9675      9676      8967
 -1      1056    4    0    1
 -2      5972      6062      6072      5982      4806      4815      4816      4807      9602      9675
 -2      9676      8967      8899      9607      9681      8973      5105      5107      5108      5078
 -1      1057    4    0    1
 -2       410       419       420       411      5973      6063      6073      5983       711       713
 -2       714       684      8903      9611      9685      8977      9613      9686      9687      8978
 -1      1058    4    0    1
 -2      5973      6063      6073      5983      5974      6064      6074      5984      9613      9686
 -2      9687      8978      8910      9618      9692      8984      9620      9693      9694      8985
 -1      1059    4    0    1
 -2      5974      6064      6074      5984      5975      6065      6075      5985      9620      9693
 -2      9694      8985      8917      9625      9699      8991      9627      9700      9701      8992
 -1      1060    4    0    1
 -2      5975      6065      6075      5985      5976      6066      6076      5986      9627      9700
 -2      9701      8992      8924      9632      9706      8998      9634      9707      9708      8999
 -1      1061    4    0    1
 -2      5976      6066      6076      5986      5977      6067      6077      5987      9634      9707
 -2      9708      8999      8931      9639      9713      9005      9641      9714      9715      9006
 -1      1062    4    0    1
 -2      5977      6067      6077      5987      5978      6068      6078      5988      9641      9714
 -2      9715      9006      8938      9646      9720      9012      9648      9721      9722      9013
 -1      1063    4    0    1
 -2      5978      6068      6078      5988      5979      6069      6079      5989      9648      9721
 -2      9722      9013      8945      9653      9727      9019      9655      9728      9729      9020
 -1      1064    4    0    1
 -2      5979      6069      6079      5989      5980      6070      6080      5990      9655      9728
 -2      9729      9020      8952      9660      9734      9026      9662      9735      9736      9027
 -1      1065    4    0    1
 -2      5980      6070      6080      5990      5981      6071      6081      5991      9662      9735
 -2      9736      9027      8959      9667      9741      9033      9669      9742      9743      9034
 -1      1066    4    0    1
 -2      5981      6071      6081      5991      5982      6072      6082      5992      9669      9742
 -2      9743      9034      8966      9674      9748      9040      9676      9749      9750      9041
 -1      1067    4    0    1
 -2      5982      6072      6082      5992      4807      4816      4817      4808      9676      9749
 -2      9750      9041      8973      9681      9755      9047      5108      5110      5111      5081
 -1      1068    4    0    1
 -2       411       420       421       412      5983      6073      6083      5993       714       716
 -2       717       687      8977      9685      9759      9051      9687      9760      9761      9052
 -1      1069    4    0    1
 -2      5983      6073      6083      5993      5984      6074      6084      5994      9687      9760
 -2      9761      9052      8984      9692      9766      9058      9694      9767      9768      9059
 -1      1070    4    0    1
 -2      5984      6074      6084      5994      5985      6075      6085      5995      9694      9767
 -2      9768      9059      8991      9699      9773      9065      9701      9774      9775      9066
 -1      1071    4    0    1
 -2      5985      6075      6085      5995      5986      6076      6086      5996      9701      9774
 -2      9775      9066      8998      9706      9780      9072      9708      9781      9782      9073
 -1      1072    4    0    1
 -2      5986      6076      6086      5996      5987      6077      6087      5997      9708      9781
 -2      9782      9073      9005      9713      9787      9079      9715      9788      9789      9080
 -1      1073    4    0    1
 -2      5987      6077      6087      5997      5988      6078      6088      5998      9715      9788
 -2      9789      9080      9012      9720      9794      9086      9722      9795      9796      9087
 -1      1074    4    0    1
 -2      5988      6078      6088      5998      5989      6079      6089      5999      9722      9795
 -2      9796      9087      9019      9727      9801      9093      9729      9802      9803      9094
 -1      1075    4    0    1
 -2      5989      6079      6089      5999      5990      6080      6090      6000      9729      9802
 -2      9803      9094      9026      9734      9808      9100      9736      9809      9810      9101
 -1      1076    4    0    1
 -2      5990      6080      6090      6000      5991      6081      6091      6001      9736      9809
 -2      9810      9101      9033      9741      9815      9107      9743      9816      9817      9108
 -1      1077    4    0    1
 -2      5991      6081      6091      6001      5992      6082      6092      6002      9743      9816
 -2      9817      9108      9040      9748      9822      9114      9750      9823      9824      9115
 -1      1078    4    0    1
 -2      5992      6082      6092      6002      4808      4817      4818      4809      9750      9823
 -2      9824      9115      9047      9755      9829      9121      5111      5113      5114      5084
 -1      1079    4    0    1
 -2       412       421       422       413      5993      6083      6093      6003       717       719
 -2       720       690      9051      9759      9833      9125      9761      9834      9835      9126
 -1      1080    4    0    1
 -2      5993      6083      6093      6003      5994      6084      6094      6004      9761      9834
 -2      9835      9126      9058      9766      9840      9132      9768      9841      9842      9133
 -1      1081    4    0    1
 -2      5994      6084      6094      6004      5995      6085      6095      6005      9768      9841
 -2      9842      9133      9065      9773      9847      9139      9775      9848      9849      9140
 -1      1082    4    0    1
 -2      5995      6085      6095      6005      5996      6086      6096      6006      9775      9848
 -2      9849      9140      9072      9780      9854      9146      9782      9855      9856      9147
 -1      1083    4    0    1
 -2      5996      6086      6096      6006      5997      6087      6097      6007      9782      9855
 -2      9856      9147      9079      9787      9861      9153      9789      9862      9863      9154
 -1      1084    4    0    1
 -2      5997      6087      6097      6007      5998      6088      6098      6008      9789      9862
 -2      9863      9154      9086      9794      9868      9160      9796      9869      9870      9161
 -1      1085    4    0    1
 -2      5998      6088      6098      6008      5999      6089      6099      6009      9796      9869
 -2      9870      9161      9093      9801      9875      9167      9803      9876      9877      9168
 -1      1086    4    0    1
 -2      5999      6089      6099      6009      6000      6090      6100      6010      9803      9876
 -2      9877      9168      9100      9808      9882      9174      9810      9883      9884      9175
 -1      1087    4    0    1
 -2      6000      6090      6100      6010      6001      6091      6101      6011      9810      9883
 -2      9884      9175      9107      9815      9889      9181      9817      9890      9891      9182
 -1      1088    4    0    1
 -2      6001      6091      6101      6011      6002      6092      6102      6012      9817      9890
 -2      9891      9182      9114      9822      9896      9188      9824      9897      9898      9189
 -1      1089    4    0    1
 -2      6002      6092      6102      6012      4809      4818      4819      4810      9824      9897
 -2      9898      9189      9121      9829      9903      9195      5114      5116      5117      5087
 -1      1090    4    0    1
 -2       413       422       114       115      6003      6093      3434      3444       720       722
 -2       144       693      9125      9833      4318      4350      9835      9907      4351      9199
 -1      1091    4    0    1
 -2      6003      6093      3434      3444      6004      6094      3435      3445      9835      9907
 -2      4351      9199      9132      9840      4321      4353      9842      9911      4354      9203
 -1      1092    4    0    1
 -2      6004      6094      3435      3445      6005      6095      3436      3446      9842      9911
 -2      4354      9203      9139      9847      4324      4356      9849      9915      4357      9207
 -1      1093    4    0    1
 -2      6005      6095      3436      3446      6006      6096      3437      3447      9849      9915
 -2      4357      9207      9146      9854      4327      4359      9856      9919      4360      9211
 -1      1094    4    0    1
 -2      6006      6096      3437      3447      6007      6097      3438      3448      9856      9919
 -2      4360      9211      9153      9861      4330      4362      9863      9923      4363      9215
 -1      1095    4    0    1
 -2      6007      6097      3438      3448      6008      6098      3439      3449      9863      9923
 -2      4363      9215      9160      9868      4333      4365      9870      9927      4366      9219
 -1      1096    4    0    1
 -2      6008      6098      3439      3449      6009      6099      3440      3450      9870      9927
 -2      4366      9219      9167      9875      4336      4368      9877      9931      4369      9223
 -1      1097    4    0    1
 -2      6009      6099      3440      3450      6010      6100      3441      3451      9877      9931
 -2      4369      9223      9174      9882      4339      4371      9884      9935      4372      9227
 -1      1098    4    0    1
 -2      6010      6100      3441      3451      6011      6101      3442      3452      9884      9935
 -2      4372      9227      9181      9889      4342      4374      9891      9939      4375      9231
 -1      1099    4    0    1
 -2      6011      6101      3442      3452      6012      6102      3443      3453      9891      9939
 -2      4375      9231      9188      9896      4345      4377      9898      9943      4378      9235
 -1      1100    4    0    1
 -2      6012      6102      3443      3453      4810      4819       270       271      9898      9943
 -2      4378      9235      9195      9903      4348      4380      5117      5119       300      5090
 -1      1101    4    0    1
 -2        10        11       423       414      1536      1546      6103      6013        40       724
 -2       725       695      1848      1880      9949      9241      1881      9950      9951      9242
 -1      1102    4    0    1
 -2      1536      1546      6103      6013      1537      1547      6104      6014      1881      9950
 -2      9951      9242      1851      1883      9956      9248      1884      9957      9958      9249
 -1      1103    4    0    1
 -2      1537      1547      6104      6014      1538      1548      6105      6015      1884      9957
 -2      9958      9249      1854      1886      9963      9255      1887      9964      9965      9256
 -1      1104    4    0    1
 -2      1538      1548      6105      6015      1539      1549      6106      6016      1887      9964
 -2      9965      9256      1857      1889      9970      9262      1890      9971      9972      9263
 -1      1105    4    0    1
 -2      1539      1549      6106      6016      1540      1550      6107      6017      1890      9971
 -2      9972      9263      1860      1892      9977      9269      1893      9978      9979      9270
 -1      1106    4    0    1
 -2      1540      1550      6107      6017      1541      1551      6108      6018      1893      9978
 -2      9979      9270      1863      1895      9984      9276      1896      9985      9986      9277
 -1      1107    4    0    1
 -2      1541      1551      6108      6018      1542      1552      6109      6019      1896      9985
 -2      9986      9277      1866      1898      9991      9283      1899      9992      9993      9284
 -1      1108    4    0    1
 -2      1542      1552      6109      6019      1543      1553      6110      6020      1899      9992
 -2      9993      9284      1869      1901      9998      9290      1902      9999     10000      9291
 -1      1109    4    0    1
 -2      1543      1553      6110      6020      1544      1554      6111      6021      1902      9999
 -2     10000      9291      1872      1904     10005      9297      1905     10006     10007      9298
 -1      1110    4    0    1
 -2      1544      1554      6111      6021      1545      1555      6112      6022      1905     10006
 -2     10007      9298      1875      1907     10012      9304      1908     10013     10014      9305
 -1      1111    4    0    1
 -2      1545      1555      6112      6022       166       167      4820      4811      1908     10013
 -2     10014      9305      1878      1910     10019      9311       196      5121      5122      5092
 -1      1112    4    0    1
 -2       414       423       424       415      6013      6103      6113      6023       725       727
 -2       728       698      9241      9949     10023      9315      9951     10024     10025      9316
 -1      1113    4    0    1
 -2      6013      6103      6113      6023      6014      6104      6114      6024      9951     10024
 -2     10025      9316      9248      9956     10030      9322      9958     10031     10032      9323
 -1      1114    4    0    1
 -2      6014      6104      6114      6024      6015      6105      6115      6025      9958     10031
 -2     10032      9323      9255      9963     10037      9329      9965     10038     10039      9330
 -1      1115    4    0    1
 -2      6015      6105      6115      6025      6016      6106      6116      6026      9965     10038
 -2     10039      9330      9262      9970     10044      9336      9972     10045     10046      9337
 -1      1116    4    0    1
 -2      6016      6106      6116      6026      6017      6107      6117      6027      9972     10045
 -2     10046      9337      9269      9977     10051      9343      9979     10052     10053      9344
 -1      1117    4    0    1
 -2      6017      6107      6117      6027      6018      6108      6118      6028      9979     10052
 -2     10053      9344      9276      9984     10058      9350      9986     10059     10060      9351
 -1      1118    4    0    1
 -2      6018      6108      6118      6028      6019      6109      6119      6029      9986     10059
 -2     10060      9351      9283      9991     10065      9357      9993     10066     10067      9358
 -1      1119    4    0    1
 -2      6019      6109      6119      6029      6020      6110      6120      6030      9993     10066
 -2     10067      9358      9290      9998     10072      9364     10000     10073     10074      9365
 -1      1120    4    0    1
 -2      6020      6110      6120      6030      6021      6111      6121      6031     10000     10073
 -2     10074      9365      9297     10005     10079      9371     10007     10080     10081      9372
 -1      1121    4    0    1
 -2      6021      6111      6121      6031      6022      6112      6122      6032     10007     10080
 -2     10081      9372      9304     10012     10086      9378     10014     10087     10088      9379
 -1      1122    4    0    1
 -2      6022      6112      6122      6032      4811      4820      4821      4812     10014     10087
 -2     10088      9379      9311     10019     10093      9385      5122      5124      5125      5095
 -1      1123    4    0    1
 -2       415       424       425       416      6023      6113      6123      6033       728       730
 -2       731       701      9315     10023     10097      9389     10025     10098     10099      9390
 -1      1124    4    0    1
 -2      6023      6113      6123      6033      6024      6114      6124      6034     10025     10098
 -2     10099      9390      9322     10030     10104      9396     10032     10105     10106      9397
 -1      1125    4    0    1
 -2      6024      6114      6124      6034      6025      6115      6125      6035     10032     10105
 -2     10106      9397      9329     10037     10111      9403     10039     10112     10113      9404
 -1      1126    4    0    1
 -2      6025      6115      6125      6035      6026      6116      6126      6036     10039     10112
 -2     10113      9404      9336     10044     10118      9410     10046     10119     10120      9411
 -1      1127    4    0    1
 -2      6026      6116      6126      6036      6027      6117      6127      6037     10046     10119
 -2     10120      9411      9343     10051     10125      9417     10053     10126     10127      9418
 -1      1128    4    0    1
 -2      6027      6117      6127      6037      6028      6118      6128      6038     10053     10126
 -2     10127      9418      9350     10058     10132      9424     10060     10133     10134      9425
 -1      1129    4    0    1
 -2      6028      6118      6128      6038      6029      6119      6129      6039     10060     10133
 -2     10134      9425      9357     10065     10139      9431     10067     10140     10141      9432
 -1      1130    4    0    1
 -2      6029      6119      6129      6039      6030      6120      6130      6040     10067     10140
 -2     10141      9432      9364     10072     10146      9438     10074     10147     10148      9439
 -1      1131    4    0    1
 -2      6030      6120      6130      6040      6031      6121      6131      6041     10074     10147
 -2     10148      9439      9371     10079     10153      9445     10081     10154     10155      9446
 -1      1132    4    0    1
 -2      6031      6121      6131      6041      6032      6122      6132      6042     10081     10154
 -2     10155      9446      9378     10086     10160      9452     10088     10161     10162      9453
 -1      1133    4    0    1
 -2      6032      6122      6132      6042      4812      4821      4822      4813     10088     10161
 -2     10162      9453      9385     10093     10167      9459      5125      5127      5128      5098
 -1      1134    4    0    1
 -2       416       425       426       417      6033      6123      6133      6043       731       733
 -2       734       704      9389     10097     10171      9463     10099     10172     10173      9464
 -1      1135    4    0    1
 -2      6033      6123      6133      6043      6034      6124      6134      6044     10099     10172
 -2     10173      9464      9396     10104     10178      9470     10106     10179     10180      9471
 -1      1136    4    0    1
 -2      6034      6124      6134      6044      6035      6125      6135      6045     10106     10179
 -2     10180      9471      9403     10111     10185      9477     10113     10186     10187      9478
 -1      1137    4    0    1
 -2      6035      6125      6135      6045      6036      6126      6136      6046     10113     10186
 -2     10187      9478      9410     10118     10192      9484     10120     10193     10194      9485
 -1      1138    4    0    1
 -2      6036      6126      6136      6046      6037      6127      6137      6047     10120     10193
 -2     10194      9485      9417     10125     10199      9491     10127     10200     10201      9492
 -1      1139    4    0    1
 -2      6037      6127      6137      6047      6038      6128      6138      6048     10127     10200
 -2     10201      9492      9424     10132     10206      9498     10134     10207     10208      9499
 -1      1140    4    0    1
 -2      6038      6128      6138      6048      6039      6129      6139      6049     10134     10207
 -2     10208      9499      9431     10139     10213      9505     10141     10214     10215      9506
 -1      1141    4    0    1
 -2      6039      6129      6139      6049      6040      6130      6140      6050     10141     10214
 -2     10215      9506      9438     10146     10220      9512     10148     10221     10222      9513
 -1      1142    4    0    1
 -2      6040      6130      6140      6050      6041      6131      6141      6051     10148     10221
 -2     10222      9513      9445     10153     10227      9519     10155     10228     10229      9520
 -1      1143    4    0    1
 -2      6041      6131      6141      6051      6042      6132      6142      6052     10155     10228
 -2     10229      9520      9452     10160     10234      9526     10162     10235     10236      9527
 -1      1144    4    0    1
 -2      6042      6132      6142      6052      4813      4822      4823      4814     10162     10235
 -2     10236      9527      9459     10167     10241      9533      5128      5130      5131      5101
 -1      1145    4    0    1
 -2       417       426       427       418      6043      6133      6143      6053       734       736
 -2       737       707      9463     10171     10245      9537     10173     10246     10247      9538
 -1      1146    4    0    1
 -2      6043      6133      6143      6053      6044      6134      6144      6054     10173     10246
 -2     10247      9538      9470     10178     10252      9544     10180     10253     10254      9545
 -1      1147    4    0    1
 -2      6044      6134      6144      6054      6045      6135      6145      6055     10180     10253
 -2     10254      9545      9477     10185     10259      9551     10187     10260     10261      9552
 -1      1148    4    0    1
 -2      6045      6135      6145      6055      6046      6136      6146      6056     10187     10260
 -2     10261      9552      9484     10192     10266      9558     10194     10267     10268      9559
 -1      1149    4    0    1
 -2      6046      6136      6146      6056      6047      6137      6147      6057     10194     10267
 -2     10268      9559      9491     10199     10273      9565     10201     10274     10275      9566
 -1      1150    4    0    1
 -2      6047      6137      6147      6057      6048      6138      6148      6058     10201     10274
 -2     10275      9566      9498     10206     10280      9572     10208     10281     10282      9573
 -1      1151    4    0    1
 -2      6048      6138      6148      6058      6049      6139      6149      6059     10208     10281
 -2     10282      9573      9505     10213     10287      9579     10215     10288     10289      9580
 -1      1152    4    0    1
 -2      6049      6139      6149      6059      6050      6140      6150      6060     10215     10288
 -2     10289      9580      9512     10220     10294      9586     10222     10295     10296      9587
 -1      1153    4    0    1
 -2      6050      6140      6150      6060      6051      6141      6151      6061     10222     10295
 -2     10296      9587      9519     10227     10301      9593     10229     10302     10303      9594
 -1      1154    4    0    1
 -2      6051      6141      6151      6061      6052      6142      6152      6062     10229     10302
 -2     10303      9594      9526     10234     10308      9600     10236     10309     10310      9601
 -1      1155    4    0    1
 -2      6052      6142      6152      6062      4814      4823      4824      4815     10236     10309
 -2     10310      9601      9533     10241     10315      9607      5131      5133      5134      5104
 -1      1156    4    0    1
 -2       418       427       428       419      6053      6143      6153      6063       737       739
 -2       740       710      9537     10245     10319      9611     10247     10320     10321      9612
 -1      1157    4    0    1
 -2      6053      6143      6153      6063      6054      6144      6154      6064     10247     10320
 -2     10321      9612      9544     10252     10326      9618     10254     10327     10328      9619
 -1      1158    4    0    1
 -2      6054      6144      6154      6064      6055      6145      6155      6065     10254     10327
 -2     10328      9619      9551     10259     10333      9625     10261     10334     10335      9626
 -1      1159    4    0    1
 -2      6055      6145      6155      6065      6056      6146      6156      6066     10261     10334
 -2     10335      9626      9558     10266     10340      9632     10268     10341     10342      9633
 -1      1160    4    0    1
 -2      6056      6146      6156      6066      6057      6147      6157      6067     10268     10341
 -2     10342      9633      9565     10273     10347      9639     10275     10348     10349      9640
 -1      1161    4    0    1
 -2      6057      6147      6157      6067      6058      6148      6158      6068     10275     10348
 -2     10349      9640      9572     10280     10354      9646     10282     10355     10356      9647
 -1      1162    4    0    1
 -2      6058      6148      6158      6068      6059      6149      6159      6069     10282     10355
 -2     10356      9647      9579     10287     10361      9653     10289     10362     10363      9654
 -1      1163    4    0    1
 -2      6059      6149      6159      6069      6060      6150      6160      6070     10289     10362
 -2     10363      9654      9586     10294     10368      9660     10296     10369     10370      9661
 -1      1164    4    0    1
 -2      6060      6150      6160      6070      6061      6151      6161      6071     10296     10369
 -2     10370      9661      9593     10301     10375      9667     10303     10376     10377      9668
 -1      1165    4    0    1
 -2      6061      6151      6161      6071      6062      6152      6162      6072     10303     10376
 -2     10377      9668      9600     10308     10382      9674     10310     10383     10384      9675
 -1      1166    4    0    1
 -2      6062      6152      6162      6072      4815      4824      4825      4816     10310     10383
 -2     10384      9675      9607     10315     10389      9681      5134      5136      5137      5107
 -1      1167    4    0    1
 -2       419       428       429       420      6063      6153      6163      6073       740       742
 -2       743       713      9611     10319     10393      9685     10321     10394     10395      9686
 -1      1168    4    0    1
 -2      6063      6153      6163      6073      6064      6154      6164      6074     10321     10394
 -2     10395      9686      9618     10326     10400      9692     10328     10401     10402      9693
 -1      1169    4    0    1
 -2      6064      6154      6164      6074      6065      6155      6165      6075     10328     10401
 -2     10402      9693      9625     10333     10407      9699     10335     10408     10409      9700
 -1      1170    4    0    1
 -2      6065      6155      6165      6075      6066      6156      6166      6076     10335     10408
 -2     10409      9700      9632     10340     10414      9706     10342     10415     10416      9707
 -1      1171    4    0    1
 -2      6066      6156      6166      6076      6067      6157      6167      6077     10342     10415
 -2     10416      9707      9639     10347     10421      9713     10349     10422     10423      9714
 -1      1172    4    0    1
 -2      6067      6157      6167      6077      6068      6158      6168      6078     10349     10422
 -2     10423      9714      9646     10354     10428      9720     10356     10429     10430      9721
 -1      1173    4    0    1
 -2      6068      6158      6168      6078      6069      6159      6169      6079     10356     10429
 -2     10430      9721      9653     10361     10435      9727     10363     10436     10437      9728
 -1      1174    4    0    1
 -2      6069      6159      6169      6079      6070      6160      6170      6080     10363     10436
 -2     10437      9728      9660     10368     10442      9734     10370     10443     10444      9735
 -1      1175    4    0    1
 -2      6070      6160      6170      6080      6071      6161      6171      6081     10370     10443
 -2     10444      9735      9667     10375     10449      9741     10377     10450     10451      9742
 -1      1176    4    0    1
 -2      6071      6161      6171      6081      6072      6162      6172      6082     10377     10450
 -2     10451      9742      9674     10382     10456      9748     10384     10457     10458      9749
 -1      1177    4    0    1
 -2      6072      6162      6172      6082      4816      4825      4826      4817     10384     10457
 -2     10458      9749      9681     10389     10463      9755      5137      5139      5140      5110
 -1      1178    4    0    1
 -2       420       429       430       421      6073      6163      6173      6083       743       745
 -2       746       716      9685     10393     10467      9759     10395     10468     10469      9760
 -1      1179    4    0    1
 -2      6073      6163      6173      6083      6074      6164      6174      6084     10395     10468
 -2     10469      9760      9692     10400     10474      9766     10402     10475     10476      9767
 -1      1180    4    0    1
 -2      6074      6164      6174      6084      6075      6165      6175      6085     10402     10475
 -2     10476      9767      9699     10407     10481      9773     10409     10482     10483      9774
 -1      1181    4    0    1
 -2      6075      6165      6175      6085      6076      6166      6176      6086     10409     10482
 -2     10483      9774      9706     10414     10488      9780     10416     10489     10490      9781
 -1      1182    4    0    1
 -2      6076      6166      6176      6086      6077      6167      6177      6087     10416     10489
 -2     10490      9781      9713     10421     10495      9787     10423     10496     10497      9788
 -1      1183    4    0    1
 -2      6077      6167      6177      6087      6078      6168      6178      6088     10423     10496
 -2     10497      9788      9720     10428     10502      9794     10430     10503     10504      9795
 -1      1184    4    0    1
 -2      6078      6168      6178      6088      6079      6169      6179      6089     10430     10503
 -2     10504      9795      9727     10435     10509      9801     10437     10510     10511      9802
 -1      1185    4    0    1
 -2      6079      6169      6179      6089      6080      6170      6180      6090     10437     10510
 -2     10511      9802      9734     10442     10516      9808     10444     10517     10518      9809
 -1      1186    4    0    1
 -2      6080      6170      6180      6090      6081      6171      6181      6091     10444     10517
 -2     10518      9809      9741     10449     10523      9815     10451     10524     10525      9816
 -1      1187    4    0    1
 -2      6081      6171      6181      6091      6082      6172      6182      6092     10451     10524
 -2     10525      9816      9748     10456     10530      9822     10458     10531     10532      9823
 -1      1188    4    0    1
 -2      6082      6172      6182      6092      4817      4826      4827      4818     10458     10531
 -2     10532      9823      9755     10463     10537      9829      5140      5142      5143      5113
 -1      1189    4    0    1
 -2       421       430       431       422      6083      6173      6183      6093       746       748
 -2       749       719      9759     10467     10541      9833     10469     10542     10543      9834
 -1      1190    4    0    1
 -2      6083      6173      6183      6093      6084      6174      6184      6094     10469     10542
 -2     10543      9834      9766     10474     10548      9840     10476     10549     10550      9841
 -1      1191    4    0    1
 -2      6084      6174      6184      6094      6085      6175      6185      6095     10476     10549
 -2     10550      9841      9773     10481     10555      9847     10483     10556     10557      9848
 -1      1192    4    0    1
 -2      6085      6175      6185      6095      6086      6176      6186      6096     10483     10556
 -2     10557      9848      9780     10488     10562      9854     10490     10563     10564      9855
 -1      1193    4    0    1
 -2      6086      6176      6186      6096      6087      6177      6187      6097     10490     10563
 -2     10564      9855      9787     10495     10569      9861     10497     10570     10571      9862
 -1      1194    4    0    1
 -2      6087      6177      6187      6097      6088      6178      6188      6098     10497     10570
 -2     10571      9862      9794     10502     10576      9868     10504     10577     10578      9869
 -1      1195    4    0    1
 -2      6088      6178      6188      6098      6089      6179      6189      6099     10504     10577
 -2     10578      9869      9801     10509     10583      9875     10511     10584     10585      9876
 -1      1196    4    0    1
 -2      6089      6179      6189      6099      6090      6180      6190      6100     10511     10584
 -2     10585      9876      9808     10516     10590      9882     10518     10591     10592      9883
 -1      1197    4    0    1
 -2      6090      6180      6190      6100      6091      6181      6191      6101     10518     10591
 -2     10592      9883      9815     10523     10597      9889     10525     10598     10599      9890
 -1      1198    4    0    1
 -2      6091      6181      6191      6101      6092      6182      6192      6102     10525     10598
 -2     10599      9890      9822     10530     10604      9896     10532     10605     10606      9897
 -1      1199    4    0    1
 -2      6092      6182      6192      6102      4818      4827      4828      4819     10532     10605
 -2     10606      9897      9829     10537     10611      9903      5143      5145      5146      5116
 -1      1200    4    0    1
 -2       422       431       113       114      6093      6183      3424      3434       749       751
 -2       143       722      9833     10541      4286      4318     10543     10615      4319      9907
 -1      1201    4    0    1
 -2      6093      6183      3424      3434      6094      6184      3425      3435     10543     10615
 -2      4319      9907      9840     10548      4289      4321     10550     10619      4322      9911
 -1      1202    4    0    1
 -2      6094      6184      3425      3435      6095      6185      3426      3436     10550     10619
 -2      4322      9911      9847     10555      4292      4324     10557     10623      4325      9915
 -1      1203    4    0    1
 -2      6095      6185      3426      3436      6096      6186      3427      3437     10557     10623
 -2      4325      9915      9854     10562      4295      4327     10564     10627      4328      9919
 -1      1204    4    0    1
 -2      6096      6186      3427      3437      6097      6187      3428      3438     10564     10627
 -2      4328      9919      9861     10569      4298      4330     10571     10631      4331      9923
 -1      1205    4    0    1
 -2      6097      6187      3428      3438      6098      6188      3429      3439     10571     10631
 -2      4331      9923      9868     10576      4301      4333     10578     10635      4334      9927
 -1      1206    4    0    1
 -2      6098      6188      3429      3439      6099      6189      3430      3440     10578     10635
 -2      4334      9927      9875     10583      4304      4336     10585     10639      4337      9931
 -1      1207    4    0    1
 -2      6099      6189      3430      3440      6100      6190      3431      3441     10585     10639
 -2      4337      9931      9882     10590      4307      4339     10592     10643      4340      9935
 -1      1208    4    0    1
 -2      6100      6190      3431      3441      6101      6191      3432      3442     10592     10643
 -2      4340      9935      9889     10597      4310      4342     10599     10647      4343      9939
 -1      1209    4    0    1
 -2      6101      6191      3432      3442      6102      6192      3433      3443     10599     10647
 -2      4343      9939      9896     10604      4313      4345     10606     10651      4346      9943
 -1      1210    4    0    1
 -2      6102      6192      3433      3443      4819      4828       269       270     10606     10651
 -2      4346      9943      9903     10611      4316      4348      5146      5148       299      5119
 -1      1211    4    0    1
 -2        11        12       432       423      1546      1556      6193      6103        41       753
 -2       754       724      1880      1912     10657      9949      1913     10658     10659      9950
 -1      1212    4    0    1
 -2      1546      1556      6193      6103      1547      1557      6194      6104      1913     10658
 -2     10659      9950      1883      1915     10664      9956      1916     10665     10666      9957
 -1      1213    4    0    1
 -2      1547      1557      6194      6104      1548      1558      6195      6105      1916     10665
 -2     10666      9957      1886      1918     10671      9963      1919     10672     10673      9964
 -1      1214    4    0    1
 -2      1548      1558      6195      6105      1549      1559      6196      6106      1919     10672
 -2     10673      9964      1889      1921     10678      9970      1922     10679     10680      9971
 -1      1215    4    0    1
 -2      1549      1559      6196      6106      1550      1560      6197      6107      1922     10679
 -2     10680      9971      1892      1924     10685      9977      1925     10686     10687      9978
 -1      1216    4    0    1
 -2      1550      1560      6197      6107      1551      1561      6198      6108      1925     10686
 -2     10687      9978      1895      1927     10692      9984      1928     10693     10694      9985
 -1      1217    4    0    1
 -2      1551      1561      6198      6108      1552      1562      6199      6109      1928     10693
 -2     10694      9985      1898      1930     10699      9991      1931     10700     10701      9992
 -1      1218    4    0    1
 -2      1552      1562      6199      6109      1553      1563      6200      6110      1931     10700
 -2     10701      9992      1901      1933     10706      9998      1934     10707     10708      9999
 -1      1219    4    0    1
 -2      1553      1563      6200      6110      1554      1564      6201      6111      1934     10707
 -2     10708      9999      1904      1936     10713     10005      1937     10714     10715     10006
 -1      1220    4    0    1
 -2      1554      1564      6201      6111      1555      1565      6202      6112      1937     10714
 -2     10715     10006      1907      1939     10720     10012      1940     10721     10722     10013
 -1      1221    4    0    1
 -2      1555      1565      6202      6112       167       168      4829      4820      1940     10721
 -2     10722     10013      1910      1942     10727     10019       197      5150      5151      5121
 -1      1222    4    0    1
 -2       423       432       433       424      6103      6193      6203      6113       754       756
 -2       757       727      9949     10657     10731     10023     10659     10732     10733     10024
 -1      1223    4    0    1
 -2      6103      6193      6203      6113      6104      6194      6204      6114     10659     10732
 -2     10733     10024      9956     10664     10738     10030     10666     10739     10740     10031
 -1      1224    4    0    1
 -2      6104      6194      6204      6114      6105      6195      6205      6115     10666     10739
 -2     10740     10031      9963     10671     10745     10037     10673     10746     10747     10038
 -1      1225    4    0    1
 -2      6105      6195      6205      6115      6106      6196      6206      6116     10673     10746
 -2     10747     10038      9970     10678     10752     10044     10680     10753     10754     10045
 -1      1226    4    0    1
 -2      6106      6196      6206      6116      6107      6197      6207      6117     10680     10753
 -2     10754     10045      9977     10685     10759     10051     10687     10760     10761     10052
 -1      1227    4    0    1
 -2      6107      6197      6207      6117      6108      6198      6208      6118     10687     10760
 -2     10761     10052      9984     10692     10766     10058     10694     10767     10768     10059
 -1      1228    4    0    1
 -2      6108      6198      6208      6118      6109      6199      6209      6119     10694     10767
 -2     10768     10059      9991     10699     10773     10065     10701     10774     10775     10066
 -1      1229    4    0    1
 -2      6109      6199      6209      6119      6110      6200      6210      6120     10701     10774
 -2     10775     10066      9998     10706     10780     10072     10708     10781     10782     10073
 -1      1230    4    0    1
 -2      6110      6200      6210      6120      6111      6201      6211      6121     10708     10781
 -2     10782     10073     10005     10713     10787     10079     10715     10788     10789     10080
 -1      1231    4    0    1
 -2      6111      6201      6211      6121      6112      6202      6212      6122     10715     10788
 -2     10789     10080     10012     10720     10794     10086     10722     10795     10796     10087
 -1      1232    4    0    1
 -2      6112      6202      6212      6122      4820      4829      4830      4821     10722     10795
 -2     10796     10087     10019     10727     10801     10093      5151      5153      5154      5124
 -1      1233    4    0    1
 -2       424       433       434       425      6113      6203      6213      6123       757       759
 -2       760       730     10023     10731     10805     10097     10733     10806     10807     10098
 -1      1234    4    0    1
 -2      6113      6203      6213      6123      6114      6204      6214      6124     10733     10806
 -2     10807     10098     10030     10738     10812     10104     10740     10813     10814     10105
 -1      1235    4    0    1
 -2      6114      6204      6214      6124      6115      6205      6215      6125     10740     10813
 -2     10814     10105     10037     10745     10819     10111     10747     10820     10821     10112
 -1      1236    4    0    1
 -2      6115      6205      6215      6125      6116      6206      6216      6126     10747     10820
 -2     10821     10112     10044     10752     10826     10118     10754     10827     10828     10119
 -1      1237    4    0    1
 -2      6116      6206      6216      6126      6117      6207      6217      6127     10754     10827
 -2     10828     10119     10051     10759     10833     10125     10761     10834     10835     10126
 -1      1238    4    0    1
 -2      6117      6207      6217      6127      6118      6208      6218      6128     10761     10834
 -2     10835     10126     10058     10766     10840     10132     10768     10841     10842     10133
 -1      1239    4    0    1
 -2      6118      6208      6218      6128      6119      6209      6219      6129     10768     10841
 -2     10842     10133     10065     10773     10847     10139     10775     10848     10849     10140
 -1      1240    4    0    1
 -2      6119      6209      6219      6129      6120      6210      6220      6130     10775     10848
 -2     10849     10140     10072     10780     10854     10146     10782     10855     10856     10147
 -1      1241    4    0    1
 -2      6120      6210      6220      6130      6121      6211      6221      6131     10782     10855
 -2     10856     10147     10079     10787     10861     10153     10789     10862     10863     10154
 -1      1242    4    0    1
 -2      6121      6211      6221      6131      6122      6212      6222      6132     10789     10862
 -2     10863     10154     10086     10794     10868     10160     10796     10869     10870     10161
 -1      1243    4    0    1
 -2      6122      6212      6222      6132      4821      4830      4831      4822     10796     10869
 -2     10870     10161     10093     10801     10875     10167      5154      5156      5157      5127
 -1      1244    4    0    1
 -2       425       434       435       426      6123      6213      6223      6133       760       762
 -2       763       733     10097     10805     10879     10171     10807     10880     10881     10172
 -1      1245    4    0    1
 -2      6123      6213      6223      6133      6124      6214      6224      6134     10807     10880
 -2     10881     10172     10104     10812     10886     10178     10814     10887     10888     10179
 -1      1246    4    0    1
 -2      6124      6214      6224      6134      6125      6215      6225      6135     10814     10887
 -2     10888     10179     10111     10819     10893     10185     10821     10894     10895     10186
 -1      1247    4    0    1
 -2      6125      6215      6225      6135      6126      6216      6226      6136     10821     10894
 -2     10895     10186     10118     10826     10900     10192     10828     10901     10902     10193
 -1      1248    4    0    1
 -2      6126      6216      6226      6136      6127      6217      6227      6137     10828     10901
 -2     10902     10193     10125     10833     10907     10199     10835     10908     10909     10200
 -1      1249    4    0    1
 -2      6127      6217      6227      6137      6128      6218      6228      6138     10835     10908
 -2     10909     10200     10132     10840     10914     10206     10842     10915     10916     10207
 -1      1250    4    0    1
 -2      6128      6218      6228      6138      6129      6219      6229      6139     10842     10915
 -2     10916     10207     10139     10847     10921     10213     10849     10922     10923     10214
 -1      1251    4    0    1
 -2      6129      6219      6229      6139      6130      6220      6230      6140     10849     10922
 -2     10923     10214     10146     10854     10928     10220     10856     10929     10930     10221
 -1      1252    4    0    1
 -2      6130      6220      6230      6140      6131      6221      6231      6141     10856     10929
 -2     10930     10221     10153     10861     10935     10227     10863     10936     10937     10228
 -1      1253    4    0    1
 -2      6131      6221      6231      6141      6132      6222      6232      6142     10863     10936
 -2     10937     10228     10160     10868     10942     10234     10870     10943     10944     10235
 -1      1254    4    0    1
 -2      6132      6222      6232      6142      4822      4831      4832      4823     10870     10943
 -2     10944     10235     10167     10875     10949     10241      5157      5159      5160      5130
 -1      1255    4    0    1
 -2       426       435       436       427      6133      6223      6233      6143       763       765
 -2       766       736     10171     10879     10953     10245     10881     10954     10955     10246
 -1      1256    4    0    1
 -2      6133      6223      6233      6143      6134      6224      6234      6144     10881     10954
 -2     10955     10246     10178     10886     10960     10252     10888     10961     10962     10253
 -1      1257    4    0    1
 -2      6134      6224      6234      6144      6135      6225      6235      6145     10888     10961
 -2     10962     10253     10185     10893     10967     10259     10895     10968     10969     10260
 -1      1258    4    0    1
 -2      6135      6225      6235      6145      6136      6226      6236      6146     10895     10968
 -2     10969     10260     10192     10900     10974     10266     10902     10975     10976     10267
 -1      1259    4    0    1
 -2      6136      6226      6236      6146      6137      6227      6237      6147     10902     10975
 -2     10976     10267     10199     10907     10981     10273     10909     10982     10983     10274
 -1      1260    4    0    1
 -2      6137      6227      6237      6147      6138      6228      6238      6148     10909     10982
 -2     10983     10274     10206     10914     10988     10280     10916     10989     10990     10281
 -1      1261    4    0    1
 -2      6138      6228      6238      6148      6139      6229      6239      6149     10916     10989
 -2     10990     10281     10213     10921     10995     10287     10923     10996     10997     10288
 -1      1262    4    0    1
 -2      6139      6229      6239      6149      6140      6230      6240      6150     10923     10996
 -2     10997     10288     10220     10928     11002     10294     10930     11003     11004     10295
 -1      1263    4    0    1
 -2      6140      6230      6240      6150      6141      6231      6241      6151     10930     11003
 -2     11004     10295     10227     10935     11009     10301     10937     11010     11011     10302
 -1      1264    4    0    1
 -2      6141      6231      6241      6151      6142      6232      6242      6152     10937     11010
 -2     11011     10302     10234     10942     11016     10308     10944     11017     11018     10309
 -1      1265    4    0    1
 -2      6142      6232      6242      6152      4823      4832      4833      4824     10944     11017
 -2     11018     10309     10241     10949     11023     10315      5160      5162      5163      5133
 -1      1266    4    0    1
 -2       427       436       437       428      6143      6233      6243      6153       766       768
 -2       769       739     10245     10953     11027     10319     10955     11028     11029     10320
 -1      1267    4    0    1
 -2      6143      6233      6243      6153      6144      6234      6244      6154     10955     11028
 -2     11029     10320     10252     10960     11034     10326     10962     11035     11036     10327
 -1      1268    4    0    1
 -2      6144      6234      6244      6154      6145      6235      6245      6155     10962     11035
 -2     11036     10327     10259     10967     11041     10333     10969     11042     11043     10334
 -1      1269    4    0    1
 -2      6145      6235      6245      6155      6146      6236      6246      6156     10969     11042
 -2     11043     10334     10266     10974     11048     10340     10976     11049     11050     10341
 -1      1270    4    0    1
 -2      6146      6236      6246      6156      6147      6237      6247      6157     10976     11049
 -2     11050     10341     10273     10981     11055     10347     10983     11056     11057     10348
 -1      1271    4    0    1
 -2      6147      6237      6247      6157      6148      6238      6248      6158     10983     11056
 -2     11057     10348     10280     10988     11062     10354     10990     11063     11064     10355
 -1      1272    4    0    1
 -2      6148      6238      6248      6158      6149      6239      6249      6159     10990     11063
 -2     11064     10355     10287     10995     11069     10361     10997     11070     11071     10362
 -1      1273    4    0    1
 -2      6149      6239      6249      6159      6150      6240      6250      6160     10997     11070
 -2     11071     10362     10294     11002     11076     10368     11004     11077     11078     10369
 -1      1274    4    0    1
 -2      6150      6240      6250      6160      6151      6241      6251      6161     11004     11077
 -2     11078     10369     10301     11009     11083     10375     11011     11084     11085     10376
 -1      1275    4    0    1
 -2      6151      6241      6251      6161      6152      6242      6252      6162     11011     11084
 -2     11085     10376     10308     11016     11090     10382     11018     11091     11092     10383
 -1      1276    4    0    1
 -2      6152      6242      6252      6162      4824      4833      4834      4825     11018     11091
 -2     11092     10383     10315     11023     11097     10389      5163      5165      5166      5136
 -1      1277    4    0    1
 -2       428       437       438       429      6153      6243      6253      6163       769       771
 -2       772       742     10319     11027     11101     10393     11029     11102     11103     10394
 -1      1278    4    0    1
 -2      6153      6243      6253      6163      6154      6244      6254      6164     11029     11102
 -2     11103     10394     10326     11034     11108     10400     11036     11109     11110     10401
 -1      1279    4    0    1
 -2      6154      6244      6254      6164      6155      6245      6255      6165     11036     11109
 -2     11110     10401     10333     11041     11115     10407     11043     11116     11117     10408
 -1      1280    4    0    1
 -2      6155      6245      6255      6165      6156      6246      6256      6166     11043     11116
 -2     11117     10408     10340     11048     11122     10414     11050     11123     11124     10415
 -1      1281    4    0    1
 -2      6156      6246      6256      6166      6157      6247      6257      6167     11050     11123
 -2     11124     10415     10347     11055     11129     10421     11057     11130     11131     10422
 -1      1282    4    0    1
 -2      6157      6247      6257      6167      6158      6248      6258      6168     11057     11130
 -2     11131     10422     10354     11062     11136     10428     11064     11137     11138     10429
 -1      1283    4    0    1
 -2      6158      6248      6258      6168      6159      6249      6259      6169     11064     11137
 -2     11138     10429     10361     11069     11143     10435     11071     11144     11145     10436
 -1      1284    4    0    1
 -2      6159      6249      6259      6169      6160      6250      6260      6170     11071     11144
 -2     11145     10436     10368     11076     11150     10442     11078     11151     11152     10443
 -1      1285    4    0    1
 -2      6160      6250      6260      6170      6161      6251      6261      6171     11078     11151
 -2     11152     10443     10375     11083     11157     10449     11085     11158     11159     10450
 -1      1286    4    0    1
 -2      6161      6251      6261      6171      6162      6252      6262      6172     11085     11158
 -2     11159     10450     10382     11090     11164     10456     11092     11165     11166     10457
 -1      1287    4    0    1
 -2      6162      6252      6262      6172      4825      4834      4835      4826     11092     11165
 -2     11166     10457     10389     11097     11171     10463      5166      5168      5169      5139
 -1      1288    4    0    1
 -2       429       438       439       430      6163      6253      6263      6173       772       774
 -2       775       745     10393     11101     11175     10467     11103     11176     11177     10468
 -1      1289    4    0    1
 -2      6163      6253      6263      6173      6164      6254      6264      6174     11103     11176
 -2     11177     10468     10400     11108     11182     10474     11110     11183     11184     10475
 -1      1290    4    0    1
 -2      6164      6254      6264      6174      6165      6255      6265      6175     11110     11183
 -2     11184     10475     10407     11115     11189     10481     11117     11190     11191     10482
 -1      1291    4    0    1
 -2      6165      6255      6265      6175      6166      6256      6266      6176     11117     11190
 -2     11191     10482     10414     11122     11196     10488     11124     11197     11198     10489
 -1      1292    4    0    1
 -2      6166      6256      6266      6176      6167      6257      6267      6177     11124     11197
 -2     11198     10489     10421     11129     11203     10495     11131     11204     11205     10496
 -1      1293    4    0    1
 -2      6167      6257      6267      6177      6168      6258      6268      6178     11131     11204
 -2     11205     10496     10428     11136     11210     10502     11138     11211     11212     10503
 -1      1294    4    0    1
 -2      6168      6258      6268      6178      6169      6259      6269      6179     11138     11211
 -2     11212     10503     10435     11143     11217     10509     11145     11218     11219     10510
 -1      1295    4    0    1
 -2      6169      6259      6269      6179      6170      6260      6270      6180     11145     11218
 -2     11219     10510     10442     11150     11224     10516     11152     11225     11226     10517
 -1      1296    4    0    1
 -2      6170      6260      6270      6180      6171      6261      6271      6181     11152     11225
 -2     11226     10517     10449     11157     11231     10523     11159     11232     11233     10524
 -1      1297    4    0    1
 -2      6171      6261      6271      6181      6172      6262      6272      6182     11159     11232
 -2     11233     10524     10456     11164     11238     10530     11166     11239     11240     10531
 -1      1298    4    0    1
 -2      6172      6262      6272      6182      4826      4835      4836      4827     11166     11239
 -2     11240     10531     10463     11171     11245     10537      5169      5171      5172      5142
 -1      1299    4    0    1
 -2       430       439       440       431      6173      6263      6273      6183       775       777
 -2       778       748     10467     11175     11249     10541     11177     11250     11251     10542
 -1      1300    4    0    1
 -2      6173      6263      6273      6183      6174      6264      6274      6184     11177     11250
 -2     11251     10542     10474     11182     11256     10548     11184     11257     11258     10549
 -1      1301    4    0    1
 -2      6174      6264      6274      6184      6175      6265      6275      6185     11184     11257
 -2     11258     10549     10481     11189     11263     10555     11191     11264     11265     10556
 -1      1302    4    0    1
 -2      6175      6265      6275      6185      6176      6266      6276      6186     11191     11264
 -2     11265     10556     10488     11196     11270     10562     11198     11271     11272     10563
 -1      1303    4    0    1
 -2      6176      6266      6276      6186      6177      6267      6277      6187     11198     11271
 -2     11272     10563     10495     11203     11277     10569     11205     11278     11279     10570
 -1      1304    4    0    1
 -2      6177      6267      6277      6187      6178      6268      6278      6188     11205     11278
 -2     11279     10570     10502     11210     11284     10576     11212     11285     11286     10577
 -1      1305    4    0    1
 -2      6178      6268      6278      6188      6179      6269      6279      6189     11212     11285
 -2     11286     10577     10509     11217     11291     10583     11219     11292     11293     10584
 -1      1306    4    0    1
 -2      6179      6269      6279      6189      6180      6270      6280      6190     11219     11292
 -2     11293     10584     10516     11224     11298     10590     11226     11299     11300     10591
 -1      1307    4    0    1
 -2      6180      6270      6280      6190      6181      6271      6281      6191     11226     11299
 -2     11300     10591     10523     11231     11305     10597     11233     11306     11307     10598
 -1      1308    4    0    1
 -2      6181      6271      6281      6191      6182      6272      6282      6192     11233     11306
 -2     11307     10598     10530     11238     11312     10604     11240     11313     11314     10605
 -1      1309    4    0    1
 -2      6182      6272      6282      6192      4827      4836      4837      4828     11240     11313
 -2     11314     10605     10537     11245     11319     10611      5172      5174      5175      5145
 -1      1310    4    0    1
 -2       431       440       112       113      6183      6273      3414      3424       778       780
 -2       142       751     10541     11249      4254      4286     11251     11323      4287     10615
 -1      1311    4    0    1
 -2      6183      6273      3414      3424      6184      6274      3415      3425     11251     11323
 -2      4287     10615     10548     11256      4257      4289     11258     11327      4290     10619
 -1      1312    4    0    1
 -2      6184      6274      3415      3425      6185      6275      3416      3426     11258     11327
 -2      4290     10619     10555     11263      4260      4292     11265     11331      4293     10623
 -1      1313    4    0    1
 -2      6185      6275      3416      3426      6186      6276      3417      3427     11265     11331
 -2      4293     10623     10562     11270      4263      4295     11272     11335      4296     10627
 -1      1314    4    0    1
 -2      6186      6276      3417      3427      6187      6277      3418      3428     11272     11335
 -2      4296     10627     10569     11277      4266      4298     11279     11339      4299     10631
 -1      1315    4    0    1
 -2      6187      6277      3418      3428      6188      6278      3419      3429     11279     11339
 -2      4299     10631     10576     11284      4269      4301     11286     11343      4302     10635
 -1      1316    4    0    1
 -2      6188      6278      3419      3429      6189      6279      3420      3430     11286     11343
 -2      4302     10635     10583     11291      4272      4304     11293     11347      4305     10639
 -1      1317    4    0    1
 -2      6189      6279      3420      3430      6190      6280      3421      3431     11293     11347
 -2      4305     10639     10590     11298      4275      4307     11300     11351      4308     10643
 -1      1318    4    0    1
 -2      6190      6280      3421      3431      6191      6281      3422      3432     11300     11351
 -2      4308     10643     10597     11305      4278      4310     11307     11355      4311     10647
 -1      1319    4    0    1
 -2      6191      6281      3422      3432      6192      6282      3423      3433     11307     11355
 -2      4311     10647     10604     11312      4281      4313     11314     11359      4314     10651
 -1      1320    4    0    1
 -2      6192      6282      3423      3433      4828      4837       268       269     11314     11359
 -2      4314     10651     10611     11319      4284      4316      5175      5177       298      5148
 -1      1321    4    0    1
 -2        12        13       441       432      1556      1566      6283      6193        42       782
 -2       783       753      1912      1944     11365     10657      1945     11366     11367     10658
 -1      1322    4    0    1
 -2      1556      1566      6283      6193      1557      1567      6284      6194      1945     11366
 -2     11367     10658      1915      1947     11372     10664      1948     11373     11374     10665
 -1      1323    4    0    1
 -2      1557      1567      6284      6194      1558      1568      6285      6195      1948     11373
 -2     11374     10665      1918      1950     11379     10671      1951     11380     11381     10672
 -1      1324    4    0    1
 -2      1558      1568      6285      6195      1559      1569      6286      6196      1951     11380
 -2     11381     10672      1921      1953     11386     10678      1954     11387     11388     10679
 -1      1325    4    0    1
 -2      1559      1569      6286      6196      1560      1570      6287      6197      1954     11387
 -2     11388     10679      1924      1956     11393     10685      1957     11394     11395     10686
 -1      1326    4    0    1
 -2      1560      1570      6287      6197      1561      1571      6288      6198      1957     11394
 -2     11395     10686      1927      1959     11400     10692      1960     11401     11402     10693
 -1      1327    4    0    1
 -2      1561      1571      6288      6198      1562      1572      6289      6199      1960     11401
 -2     11402     10693      1930      1962     11407     10699      1963     11408     11409     10700
 -1      1328    4    0    1
 -2      1562      1572      6289      6199      1563      1573      6290      6200      1963     11408
 -2     11409     10700      1933      1965     11414     10706      1966     11415     11416     10707
 -1      1329    4    0    1
 -2      1563      1573      6290      6200      1564      1574      6291      6201      1966     11415
 -2     11416     10707      1936      1968     11421     10713      1969     11422     11423     10714
 -1      1330    4    0    1
 -2      1564      1574      6291      6201      1565      1575      6292      6202      1969     11422
 -2     11423     10714      1939      1971     11428     10720      1972     11429     11430     10721
 -1      1331    4    0    1
 -2      1565      1575      6292      6202       168       169      4838      4829      1972     11429
 -2     11430     10721      1942      1974     11435     10727       198      5179      5180      5150
 -1      1332    4    0    1
 -2       432       441       442       433      6193      6283      6293      6203       783       785
 -2       786       756     10657     11365     11439     10731     11367     11440     11441     10732
 -1      1333    4    0    1
 -2      6193      6283      6293      6203      6194      6284      6294      6204     11367     11440
 -2     11441     10732     10664     11372     11446     10738     11374     11447     11448     10739
 -1      1334    4    0    1
 -2      6194      6284      6294      6204      6195      6285      6295      6205     11374     11447
 -2     11448     10739     10671     11379     11453     10745     11381     11454     11455     10746
 -1      1335    4    0    1
 -2      6195      6285      6295      6205      6196      6286      6296      6206     11381     11454
 -2     11455     10746     10678     11386     11460     10752     11388     11461     11462     10753
 -1      1336    4    0    1
 -2      6196      6286      6296      6206      6197      6287      6297      6207     11388     11461
 -2     11462     10753     10685     11393     11467     10759     11395     11468     11469     10760
 -1      1337    4    0    1
 -2      6197      6287      6297      6207      6198      6288      6298      6208     11395     11468
 -2     11469     10760     10692     11400     11474     10766     11402     11475     11476     10767
 -1      1338    4    0    1
 -2      6198      6288      6298      6208      6199      6289      6299      6209     11402     11475
 -2     11476     10767     10699     11407     11481     10773     11409     11482     11483     10774
 -1      1339    4    0    1
 -2      6199      6289      6299      6209      6200      6290      6300      6210     11409     11482
 -2     11483     10774     10706     11414     11488     10780     11416     11489     11490     10781
 -1      1340    4    0    1
 -2      6200      6290      6300      6210      6201      6291      6301      6211     11416     11489
 -2     11490     10781     10713     11421     11495     10787     11423     11496     11497     10788
 -1      1341    4    0    1
 -2      6201      6291      6301      6211      6202      6292      6302      6212     11423     11496
 -2     11497     10788     10720     11428     11502     10794     11430     11503     11504     10795
 -1      1342    4    0    1
 -2      6202      6292      6302      6212      4829      4838      4839      4830     11430     11503
 -2     11504     10795     10727     11435     11509     10801      5180      5182      5183      5153
 -1      1343    4    0    1
 -2       433       442       443       434      6203      6293      6303      6213       786       788
 -2       789       759     10731     11439     11513     10805     11441     11514     11515     10806
 -1      1344    4    0    1
 -2      6203      6293      6303      6213      6204      6294      6304      6214     11441     11514
 -2     11515     10806     10738     11446     11520     10812     11448     11521     11522     10813
 -1      1345    4    0    1
 -2      6204      6294      6304      6214      6205      6295      6305      6215     11448     11521
 -2     11522     10813     10745     11453     11527     10819     11455     11528     11529     10820
 -1      1346    4    0    1
 -2      6205      6295      6305      6215      6206      6296      6306      6216     11455     11528
 -2     11529     10820     10752     11460     11534     10826     11462     11535     11536     10827
 -1      1347    4    0    1
 -2      6206      6296      6306      6216      6207      6297      6307      6217     11462     11535
 -2     11536     10827     10759     11467     11541     10833     11469     11542     11543     10834
 -1      1348    4    0    1
 -2      6207      6297      6307      6217      6208      6298      6308      6218     11469     11542
 -2     11543     10834     10766     11474     11548     10840     11476     11549     11550     10841
 -1      1349    4    0    1
 -2      6208      6298      6308      6218      6209      6299      6309      6219     11476     11549
 -2     11550     10841     10773     11481     11555     10847     11483     11556     11557     10848
 -1      1350    4    0    1
 -2      6209      6299      6309      6219      6210      6300      6310      6220     11483     11556
 -2     11557     10848     10780     11488     11562     10854     11490     11563     11564     10855
 -1      1351    4    0    1
 -2      6210      6300      6310      6220      6211      6301      6311      6221     11490     11563
 -2     11564     10855     10787     11495     11569     10861     11497     11570     11571     10862
 -1      1352    4    0    1
 -2      6211      6301      6311      6221      6212      6302      6312      6222     11497     11570
 -2     11571     10862     10794     11502     11576     10868     11504     11577     11578     10869
 -1      1353    4    0    1
 -2      6212      6302      6312      6222      4830      4839      4840      4831     11504     11577
 -2     11578     10869     10801     11509     11583     10875      5183      5185      5186      5156
 -1      1354    4    0    1
 -2       434       443       444       435      6213      6303      6313      6223       789       791
 -2       792       762     10805     11513     11587     10879     11515     11588     11589     10880
 -1      1355    4    0    1
 -2      6213      6303      6313      6223      6214      6304      6314      6224     11515     11588
 -2     11589     10880     10812     11520     11594     10886     11522     11595     11596     10887
 -1      1356    4    0    1
 -2      6214      6304      6314      6224      6215      6305      6315      6225     11522     11595
 -2     11596     10887     10819     11527     11601     10893     11529     11602     11603     10894
 -1      1357    4    0    1
 -2      6215      6305      6315      6225      6216      6306      6316      6226     11529     11602
 -2     11603     10894     10826     11534     11608     10900     11536     11609     11610     10901
 -1      1358    4    0    1
 -2      6216      6306      6316      6226      6217      6307      6317      6227     11536     11609
 -2     11610     10901     10833     11541     11615     10907     11543     11616     11617     10908
 -1      1359    4    0    1
 -2      6217      6307      6317      6227      6218      6308      6318      6228     11543     11616
 -2     11617     10908     10840     11548     11622     10914     11550     11623     11624     10915
 -1      1360    4    0    1
 -2      6218      6308      6318      6228      6219      6309      6319      6229     11550     11623
 -2     11624     10915     10847     11555     11629     10921     11557     11630     11631     10922
 -1      1361    4    0    1
 -2      6219      6309      6319      6229      6220      6310      6320      6230     11557     11630
 -2     11631     10922     10854     11562     11636     10928     11564     11637     11638     10929
 -1      1362    4    0    1
 -2      6220      6310      6320      6230      6221      6311      6321      6231     11564     11637
 -2     11638     10929     10861     11569     11643     10935     11571     11644     11645     10936
 -1      1363    4    0    1
 -2      6221      6311      6321      6231      6222      6312      6322      6232     11571     11644
 -2     11645     10936     10868     11576     11650     10942     11578     11651     11652     10943
 -1      1364    4    0    1
 -2      6222      6312      6322      6232      4831      4840      4841      4832     11578     11651
 -2     11652     10943     10875     11583     11657     10949      5186      5188      5189      5159
 -1      1365    4    0    1
 -2       435       444       445       436      6223      6313      6323      6233       792       794
 -2       795       765     10879     11587     11661     10953     11589     11662     11663     10954
 -1      1366    4    0    1
 -2      6223      6313      6323      6233      6224      6314      6324      6234     11589     11662
 -2     11663     10954     10886     11594     11668     10960     11596     11669     11670     10961
 -1      1367    4    0    1
 -2      6224      6314      6324      6234      6225      6315      6325      6235     11596     11669
 -2     11670     10961     10893     11601     11675     10967     11603     11676     11677     10968
 -1      1368    4    0    1
 -2      6225      6315      6325      6235      6226      6316      6326      6236     11603     11676
 -2     11677     10968     10900     11608     11682     10974     11610     11683     11684     10975
 -1      1369    4    0    1
 -2      6226      6316      6326      6236      6227      6317      6327      6237     11610     11683
 -2     11684     10975     10907     11615     11689     10981     11617     11690     11691     10982
 -1      1370    4    0    1
 -2      6227      6317      6327      6237      6228      6318      6328      6238     11617     11690
 -2     11691     10982     10914     11622     11696     10988     11624     11697     11698     10989
 -1      1371    4    0    1
 -2      6228      6318      6328      6238      6229      6319      6329      6239     11624     11697
 -2     11698     10989     10921     11629     11703     10995     11631     11704     11705     10996
 -1      1372    4    0    1
 -2      6229      6319      6329      6239      6230      6320      6330      6240     11631     11704
 -2     11705     10996     10928     11636     11710     11002     11638     11711     11712     11003
 -1      1373    4    0    1
 -2      6230      6320      6330      6240      6231      6321      6331      6241     11638     11711
 -2     11712     11003     10935     11643     11717     11009     11645     11718     11719     11010
 -1      1374    4    0    1
 -2      6231      6321      6331      6241      6232      6322      6332      6242     11645     11718
 -2     11719     11010     10942     11650     11724     11016     11652     11725     11726     11017
 -1      1375    4    0    1
 -2      6232      6322      6332      6242      4832      4841      4842      4833     11652     11725
 -2     11726     11017     10949     11657     11731     11023      5189      5191      5192      5162
 -1      1376    4    0    1
 -2       436       445       446       437      6233      6323      6333      6243       795       797
 -2       798       768     10953     11661     11735     11027     11663     11736     11737     11028
 -1      1377    4    0    1
 -2      6233      6323      6333      6243      6234      6324      6334      6244     11663     11736
 -2     11737     11028     10960     11668     11742     11034     11670     11743     11744     11035
 -1      1378    4    0    1
 -2      6234      6324      6334      6244      6235      6325      6335      6245     11670     11743
 -2     11744     11035     10967     11675     11749     11041     11677     11750     11751     11042
 -1      1379    4    0    1
 -2      6235      6325      6335      6245      6236      6326      6336      6246     11677     11750
 -2     11751     11042     10974     11682     11756     11048     11684     11757     11758     11049
 -1      1380    4    0    1
 -2      6236      6326      6336      6246      6237      6327      6337      6247     11684     11757
 -2     11758     11049     10981     11689     11763     11055     11691     11764     11765     11056
 -1      1381    4    0    1
 -2      6237      6327      6337      6247      6238      6328      6338      6248     11691     11764
 -2     11765     11056     10988     11696     11770     11062     11698     11771     11772     11063
 -1      1382    4    0    1
 -2      6238      6328      6338      6248      6239      6329      6339      6249     11698     11771
 -2     11772     11063     10995     11703     11777     11069     11705     11778     11779     11070
 -1      1383    4    0    1
 -2      6239      6329      6339      6249      6240      6330      6340      6250     11705     11778
 -2     11779     11070     11002     11710     11784     11076     11712     11785     11786     11077
 -1      1384    4    0    1
 -2      6240      6330      6340      6250      6241      6331      6341      6251     11712     11785
 -2     11786     11077     11009     11717     11791     11083     11719     11792     11793     11084
 -1      1385    4    0    1
 -2      6241      6331      6341      6251      6242      6332      6342      6252     11719     11792
 -2     11793     11084     11016     11724     11798     11090     11726     11799     11800     11091
 -1      1386    4    0    1
 -2      6242      6332      6342      6252      4833      4842      4843      4834     11726     11799
 -2     11800     11091     11023     11731     11805     11097      5192      5194      5195      5165
 -1      1387    4    0    1
 -2       437       446       447       438      6243      6333      6343      6253       798       800
 -2       801       771     11027     11735     11809     11101     11737     11810     11811     11102
 -1      1388    4    0    1
 -2      6243      6333      6343      6253      6244      6334      6344      6254     11737     11810
 -2     11811     11102     11034     11742     11816     11108     11744     11817     11818     11109
 -1      1389    4    0    1
 -2      6244      6334      6344      6254      6245      6335      6345      6255     11744     11817
 -2     11818     11109     11041     11749     11823     11115     11751     11824     11825     11116
 -1      1390    4    0    1
 -2      6245      6335      6345      6255      6246      6336      6346      6256     11751     11824
 -2     11825     11116     11048     11756     11830     11122     11758     11831     11832     11123
 -1      1391    4    0    1
 -2      6246      6336      6346      6256      6247      6337      6347      6257     11758     11831
 -2     11832     11123     11055     11763     11837     11129     11765     11838     11839     11130
 -1      1392    4    0    1
 -2      6247      6337      6347      6257      6248      6338      6348      6258     11765     11838
 -2     11839     11130     11062     11770     11844     11136     11772     11845     11846     11137
 -1      1393    4    0    1
 -2      6248      6338      6348      6258      6249      6339      6349      6259     11772     11845
 -2     11846     11137     11069     11777     11851     11143     11779     11852     11853     11144
 -1      1394    4    0    1
 -2      6249      6339      6349      6259      6250      6340      6350      6260     11779     11852
 -2     11853     11144     11076     11784     11858     11150     11786     11859     11860     11151
 -1      1395    4    0    1
 -2      6250      6340      6350      6260      6251      6341      6351      6261     11786     11859
 -2     11860     11151     11083     11791     11865     11157     11793     11866     11867     11158
 -1      1396    4    0    1
 -2      6251      6341      6351      6261      6252      6342      6352      6262     11793     11866
 -2     11867     11158     11090     11798     11872     11164     11800     11873     11874     11165
 -1      1397    4    0    1
 -2      6252      6342      6352      6262      4834      4843      4844      4835     11800     11873
 -2     11874     11165     11097     11805     11879     11171      5195      5197      5198      5168
 -1      1398    4    0    1
 -2       438       447       448       439      6253      6343      6353      6263       801       803
 -2       804       774     11101     11809     11883     11175     11811     11884     11885     11176
 -1      1399    4    0    1
 -2      6253      6343      6353      6263      6254      6344      6354      6264     11811     11884
 -2     11885     11176     11108     11816     11890     11182     11818     11891     11892     11183
 -1      1400    4    0    1
 -2      6254      6344      6354      6264      6255      6345      6355      6265     11818     11891
 -2     11892     11183     11115     11823     11897     11189     11825     11898     11899     11190
 -1      1401    4    0    1
 -2      6255      6345      6355      6265      6256      6346      6356      6266     11825     11898
 -2     11899     11190     11122     11830     11904     11196     11832     11905     11906     11197
 -1      1402    4    0    1
 -2      6256      6346      6356      6266      6257      6347      6357      6267     11832     11905
 -2     11906     11197     11129     11837     11911     11203     11839     11912     11913     11204
 -1      1403    4    0    1
 -2      6257      6347      6357      6267      6258      6348      6358      6268     11839     11912
 -2     11913     11204     11136     11844     11918     11210     11846     11919     11920     11211
 -1      1404    4    0    1
 -2      6258      6348      6358      6268      6259      6349      6359      6269     11846     11919
 -2     11920     11211     11143     11851     11925     11217     11853     11926     11927     11218
 -1      1405    4    0    1
 -2      6259      6349      6359      6269      6260      6350      6360      6270     11853     11926
 -2     11927     11218     11150     11858     11932     11224     11860     11933     11934     11225
 -1      1406    4    0    1
 -2      6260      6350      6360      6270      6261      6351      6361      6271     11860     11933
 -2     11934     11225     11157     11865     11939     11231     11867     11940     11941     11232
 -1      1407    4    0    1
 -2      6261      6351      6361      6271      6262      6352      6362      6272     11867     11940
 -2     11941     11232     11164     11872     11946     11238     11874     11947     11948     11239
 -1      1408    4    0    1
 -2      6262      6352      6362      6272      4835      4844      4845      4836     11874     11947
 -2     11948     11239     11171     11879     11953     11245      5198      5200      5201      5171
 -1      1409    4    0    1
 -2       439       448       449       440      6263      6353      6363      6273       804       806
 -2       807       777     11175     11883     11957     11249     11885     11958     11959     11250
 -1      1410    4    0    1
 -2      6263      6353      6363      6273      6264      6354      6364      6274     11885     11958
 -2     11959     11250     11182     11890     11964     11256     11892     11965     11966     11257
 -1      1411    4    0    1
 -2      6264      6354      6364      6274      6265      6355      6365      6275     11892     11965
 -2     11966     11257     11189     11897     11971     11263     11899     11972     11973     11264
 -1      1412    4    0    1
 -2      6265      6355      6365      6275      6266      6356      6366      6276     11899     11972
 -2     11973     11264     11196     11904     11978     11270     11906     11979     11980     11271
 -1      1413    4    0    1
 -2      6266      6356      6366      6276      6267      6357      6367      6277     11906     11979
 -2     11980     11271     11203     11911     11985     11277     11913     11986     11987     11278
 -1      1414    4    0    1
 -2      6267      6357      6367      6277      6268      6358      6368      6278     11913     11986
 -2     11987     11278     11210     11918     11992     11284     11920     11993     11994     11285
 -1      1415    4    0    1
 -2      6268      6358      6368      6278      6269      6359      6369      6279     11920     11993
 -2     11994     11285     11217     11925     11999     11291     11927     12000     12001     11292
 -1      1416    4    0    1
 -2      6269      6359      6369      6279      6270      6360      6370      6280     11927     12000
 -2     12001     11292     11224     11932     12006     11298     11934     12007     12008     11299
 -1      1417    4    0    1
 -2      6270      6360      6370      6280      6271      6361      6371      6281     11934     12007
 -2     12008     11299     11231     11939     12013     11305     11941     12014     12015     11306
 -1      1418    4    0    1
 -2      6271      6361      6371      6281      6272      6362      6372      6282     11941     12014
 -2     12015     11306     11238     11946     12020     11312     11948     12021     12022     11313
 -1      1419    4    0    1
 -2      6272      6362      6372      6282      4836      4845      4846      4837     11948     12021
 -2     12022     11313     11245     11953     12027     11319      5201      5203      5204      5174
 -1      1420    4    0    1
 -2       440       449       111       112      6273      6363      3404      3414       807       809
 -2       141       780     11249     11957      4222      4254     11959     12031      4255     11323
 -1      1421    4    0    1
 -2      6273      6363      3404      3414      6274      6364      3405      3415     11959     12031
 -2      4255     11323     11256     11964      4225      4257     11966     12035      4258     11327
 -1      1422    4    0    1
 -2      6274      6364      3405      3415      6275      6365      3406      3416     11966     12035
 -2      4258     11327     11263     11971      4228      4260     11973     12039      4261     11331
 -1      1423    4    0    1
 -2      6275      6365      3406      3416      6276      6366      3407      3417     11973     12039
 -2      4261     11331     11270     11978      4231      4263     11980     12043      4264     11335
 -1      1424    4    0    1
 -2      6276      6366      3407      3417      6277      6367      3408      3418     11980     12043
 -2      4264     11335     11277     11985      4234      4266     11987     12047      4267     11339
 -1      1425    4    0    1
 -2      6277      6367      3408      3418      6278      6368      3409      3419     11987     12047
 -2      4267     11339     11284     11992      4237      4269     11994     12051      4270     11343
 -1      1426    4    0    1
 -2      6278      6368      3409      3419      6279      6369      3410      3420     11994     12051
 -2      4270     11343     11291     11999      4240      4272     12001     12055      4273     11347
 -1      1427    4    0    1
 -2      6279      6369      3410      3420      6280      6370      3411      3421     12001     12055
 -2      4273     11347     11298     12006      4243      4275     12008     12059      4276     11351
 -1      1428    4    0    1
 -2      6280      6370      3411      3421      6281      6371      3412      3422     12008     12059
 -2      4276     11351     11305     12013      4246      4278     12015     12063      4279     11355
 -1      1429    4    0    1
 -2      6281      6371      3412      3422      6282      6372      3413      3423     12015     12063
 -2      4279     11355     11312     12020      4249      4281     12022     12067      4282     11359
 -1      1430    4    0    1
 -2      6282      6372      3413      3423      4837      4846       267       268     12022     12067
 -2      4282     11359     11319     12027      4252      4284      5204      5206       297      5177
 -1      1431    4    0    1
 -2        13        14       450       441      1566      1576      6373      6283        43       811
 -2       812       782      1944      1976     12073     11365      1977     12074     12075     11366
 -1      1432    4    0    1
 -2      1566      1576      6373      6283      1567      1577      6374      6284      1977     12074
 -2     12075     11366      1947      1979     12080     11372      1980     12081     12082     11373
 -1      1433    4    0    1
 -2      1567      1577      6374      6284      1568      1578      6375      6285      1980     12081
 -2     12082     11373      1950      1982     12087     11379      1983     12088     12089     11380
 -1      1434    4    0    1
 -2      1568      1578      6375      6285      1569      1579      6376      6286      1983     12088
 -2     12089     11380      1953      1985     12094     11386      1986     12095     12096     11387
 -1      1435    4    0    1
 -2      1569      1579      6376      6286      1570      1580      6377      6287      1986     12095
 -2     12096     11387      1956      1988     12101     11393      1989     12102     12103     11394
 -1      1436    4    0    1
 -2      1570      1580      6377      6287      1571      1581      6378      6288      1989     12102
 -2     12103     11394      1959      1991     12108     11400      1992     12109     12110     11401
 -1      1437    4    0    1
 -2      1571      1581      6378      6288      1572      1582      6379      6289      1992     12109
 -2     12110     11401      1962      1994     12115     11407      1995     12116     12117     11408
 -1      1438    4    0    1
 -2      1572      1582      6379      6289      1573      1583      6380      6290      1995     12116
 -2     12117     11408      1965      1997     12122     11414      1998     12123     12124     11415
 -1      1439    4    0    1
 -2      1573      1583      6380      6290      1574      1584      6381      6291      1998     12123
 -2     12124     11415      1968      2000     12129     11421      2001     12130     12131     11422
 -1      1440    4    0    1
 -2      1574      1584      6381      6291      1575      1585      6382      6292      2001     12130
 -2     12131     11422      1971      2003     12136     11428      2004     12137     12138     11429
 -1      1441    4    0    1
 -2      1575      1585      6382      6292       169       170      4847      4838      2004     12137
 -2     12138     11429      1974      2006     12143     11435       199      5208      5209      5179
 -1      1442    4    0    1
 -2       441       450       451       442      6283      6373      6383      6293       812       814
 -2       815       785     11365     12073     12147     11439     12075     12148     12149     11440
 -1      1443    4    0    1
 -2      6283      6373      6383      6293      6284      6374      6384      6294     12075     12148
 -2     12149     11440     11372     12080     12154     11446     12082     12155     12156     11447
 -1      1444    4    0    1
 -2      6284      6374      6384      6294      6285      6375      6385      6295     12082     12155
 -2     12156     11447     11379     12087     12161     11453     12089     12162     12163     11454
 -1      1445    4    0    1
 -2      6285      6375      6385      6295      6286      6376      6386      6296     12089     12162
 -2     12163     11454     11386     12094     12168     11460     12096     12169     12170     11461
 -1      1446    4    0    1
 -2      6286      6376      6386      6296      6287      6377      6387      6297     12096     12169
 -2     12170     11461     11393     12101     12175     11467     12103     12176     12177     11468
 -1      1447    4    0    1
 -2      6287      6377      6387      6297      6288      6378      6388      6298     12103     12176
 -2     12177     11468     11400     12108     12182     11474     12110     12183     12184     11475
 -1      1448    4    0    1
 -2      6288      6378      6388      6298      6289      6379      6389      6299     12110     12183
 -2     12184     11475     11407     12115     12189     11481     12117     12190     12191     11482
 -1      1449    4    0    1
 -2      6289      6379      6389      6299      6290      6380      6390      6300     12117     12190
 -2     12191     11482     11414     12122     12196     11488     12124     12197     12198     11489
 -1      1450    4    0    1
 -2      6290      6380      6390      6300      6291      6381      6391      6301     12124     12197
 -2     12198     11489     11421     12129     12203     11495     12131     12204     12205     11496
 -1      1451    4    0    1
 -2      6291      6381      6391      6301      6292      6382      6392      6302     12131     12204
 -2     12205     11496     11428     12136     12210     11502     12138     12211     12212     11503
 -1      1452    4    0    1
 -2      6292      6382      6392      6302      4838      4847      4848      4839     12138     12211
 -2     12212     11503     11435     12143     12217     11509      5209      5211      5212      5182
 -1      1453    4    0    1
 -2       442       451       452       443      6293      6383      6393      6303       815       817
 -2       818       788     11439     12147     12221     11513     12149     12222     12223     11514
 -1      1454    4    0    1
 -2      6293      6383      6393      6303      6294      6384      6394      6304     12149     12222
 -2     12223     11514     11446     12154     12228     11520     12156     12229     12230     11521
 -1      1455    4    0    1
 -2      6294      6384      6394      6304      6295      6385      6395      6305     12156     12229
 -2     12230     11521     11453     12161     12235     11527     12163     12236     12237     11528
 -1      1456    4    0    1
 -2      6295      6385      6395      6305      6296      6386      6396      6306     12163     12236
 -2     12237     11528     11460     12168     12242     11534     12170     12243     12244     11535
 -1      1457    4    0    1
 -2      6296      6386      6396      6306      6297      6387      6397      6307     12170     12243
 -2     12244     11535     11467     12175     12249     11541     12177     12250     12251     11542
 -1      1458    4    0    1
 -2      6297      6387      6397      6307      6298      6388      6398      6308     12177     12250
 -2     12251     11542     11474     12182     12256     11548     12184     12257     12258     11549
 -1      1459    4    0    1
 -2      6298      6388      6398      6308      6299      6389      6399      6309     12184     12257
 -2     12258     11549     11481     12189     12263     11555     12191     12264     12265     11556
 -1      1460    4    0    1
 -2      6299      6389      6399      6309      6300      6390      6400      6310     12191     12264
 -2     12265     11556     11488     12196     12270     11562     12198     12271     12272     11563
 -1      1461    4    0    1
 -2      6300      6390      6400      6310      6301      6391      6401      6311     12198     12271
 -2     12272     11563     11495     12203     12277     11569     12205     12278     12279     11570
 -1      1462    4    0    1
 -2      6301      6391      6401      6311      6302      6392      6402      6312     12205     12278
 -2     12279     11570     11502     12210     12284     11576     12212     12285     12286     11577
 -1      1463    4    0    1
 -2      6302      6392      6402      6312      4839      4848      4849      4840     12212     12285
 -2     12286     11577     11509     12217     12291     11583      5212      5214      5215      5185
 -1      1464    4    0    1
 -2       443       452       453       444      6303      6393      6403      6313       818       820
 -2       821       791     11513     12221     12295     11587     12223     12296     12297     11588
 -1      1465    4    0    1
 -2      6303      6393      6403      6313      6304      6394      6404      6314     12223     12296
 -2     12297     11588     11520     12228     12302     11594     12230     12303     12304     11595
 -1      1466    4    0    1
 -2      6304      6394      6404      6314      6305      6395      6405      6315     12230     12303
 -2     12304     11595     11527     12235     12309     11601     12237     12310     12311     11602
 -1      1467    4    0    1
 -2      6305      6395      6405      6315      6306      6396      6406      6316     12237     12310
 -2     12311     11602     11534     12242     12316     11608     12244     12317     12318     11609
 -1      1468    4    0    1
 -2      6306      6396      6406      6316      6307      6397      6407      6317     12244     12317
 -2     12318     11609     11541     12249     12323     11615     12251     12324     12325     11616
 -1      1469    4    0    1
 -2      6307      6397      6407      6317      6308      6398      6408      6318     12251     12324
 -2     12325     11616     11548     12256     12330     11622     12258     12331     12332     11623
 -1      1470    4    0    1
 -2      6308      6398      6408      6318      6309      6399      6409      6319     12258     12331
 -2     12332     11623     11555     12263     12337     11629     12265     12338     12339     11630
 -1      1471    4    0    1
 -2      6309      6399      6409      6319      6310      6400      6410      6320     12265     12338
 -2     12339     11630     11562     12270     12344     11636     12272     12345     12346     11637
 -1      1472    4    0    1
 -2      6310      6400      6410      6320      6311      6401      6411      6321     12272     12345
 -2     12346     11637     11569     12277     12351     11643     12279     12352     12353     11644
 -1      1473    4    0    1
 -2      6311      6401      6411      6321      6312      6402      6412      6322     12279     12352
 -2     12353     11644     11576     12284     12358     11650     12286     12359     12360     11651
 -1      1474    4    0    1
 -2      6312      6402      6412      6322      4840      4849      4850      4841     12286     12359
 -2     12360     11651     11583     12291     12365     11657      5215      5217      5218      5188
 -1      1475    4    0    1
 -2       444       453       454       445      6313      6403      6413      6323       821       823
 -2       824       794     11587     12295     12369     11661     12297     12370     12371     11662
 -1      1476    4    0    1
 -2      6313      6403      6413      6323      6314      6404      6414      6324     12297     12370
 -2     12371     11662     11594     12302     12376     11668     12304     12377     12378     11669
 -1      1477    4    0    1
 -2      6314      6404      6414      6324      6315      6405      6415      6325     12304     12377
 -2     12378     11669     11601     12309     12383     11675     12311     12384     12385     11676
 -1      1478    4    0    1
 -2      6315      6405      6415      6325      6316      6406      6416      6326     12311     12384
 -2     12385     11676     11608     12316     12390     11682     12318     12391     12392     11683
 -1      1479    4    0    1
 -2      6316      6406      6416      6326      6317      6407      6417      6327     12318     12391
 -2     12392     11683     11615     12323     12397     11689     12325     12398     12399     11690
 -1      1480    4    0    1
 -2      6317      6407      6417      6327      6318      6408      6418      6328     12325     12398
 -2     12399     11690     11622     12330     12404     11696     12332     12405     12406     11697
 -1      1481    4    0    1
 -2      6318      6408      6418      6328      6319      6409      6419      6329     12332     12405
 -2     12406     11697     11629     12337     12411     11703     12339     12412     12413     11704
 -1      1482    4    0    1
 -2      6319      6409      6419      6329      6320      6410      6420      6330     12339     12412
 -2     12413     11704     11636     12344     12418     11710     12346     12419     12420     11711
 -1      1483    4    0    1
 -2      6320      6410      6420      6330      6321      6411      6421      6331     12346     12419
 -2     12420     11711     11643     12351     12425     11717     12353     12426     12427     11718
 -1      1484    4    0    1
 -2      6321      6411      6421      6331      6322      6412      6422      6332     12353     12426
 -2     12427     11718     11650     12358     12432     11724     12360     12433     12434     11725
 -1      1485    4    0    1
 -2      6322      6412      6422      6332      4841      4850      4851      4842     12360     12433
 -2     12434     11725     11657     12365     12439     11731      5218      5220      5221      5191
 -1      1486    4    0    1
 -2       445       454       455       446      6323      6413      6423      6333       824       826
 -2       827       797     11661     12369     12443     11735     12371     12444     12445     11736
 -1      1487    4    0    1
 -2      6323      6413      6423      6333      6324      6414      6424      6334     12371     12444
 -2     12445     11736     11668     12376     12450     11742     12378     12451     12452     11743
 -1      1488    4    0    1
 -2      6324      6414      6424      6334      6325      6415      6425      6335     12378     12451
 -2     12452     11743     11675     12383     12457     11749     12385     12458     12459     11750
 -1      1489    4    0    1
 -2      6325      6415      6425      6335      6326      6416      6426      6336     12385     12458
 -2     12459     11750     11682     12390     12464     11756     12392     12465     12466     11757
 -1      1490    4    0    1
 -2      6326      6416      6426      6336      6327      6417      6427      6337     12392     12465
 -2     12466     11757     11689     12397     12471     11763     12399     12472     12473     11764
 -1      1491    4    0    1
 -2      6327      6417      6427      6337      6328      6418      6428      6338     12399     12472
 -2     12473     11764     11696     12404     12478     11770     12406     12479     12480     11771
 -1      1492    4    0    1
 -2      6328      6418      6428      6338      6329      6419      6429      6339     12406     12479
 -2     12480     11771     11703     12411     12485     11777     12413     12486     12487     11778
 -1      1493    4    0    1
 -2      6329      6419      6429      6339      6330      6420      6430      6340     12413     12486
 -2     12487     11778     11710     12418     12492     11784     12420     12493     12494     11785
 -1      1494    4    0    1
 -2      6330      6420      6430      6340      6331      6421      6431      6341     12420     12493
 -2     12494     11785     11717     12425     12499     11791     12427     12500     12501     11792
 -1      1495    4    0    1
 -2      6331      6421      6431      6341      6332      6422      6432      6342     12427     12500
 -2     12501     11792     11724     12432     12506     11798     12434     12507     12508     11799
 -1      1496    4    0    1
 -2      6332      6422      6432      6342      4842      4851      4852      4843     12434     12507
 -2     12508     11799     11731     12439     12513     11805      5221      5223      5224      5194
 -1      1497    4    0    1
 -2       446       455       456       447      6333      6423      6433      6343       827       829
 -2       830       800     11735     12443     12517     11809     12445     12518     12519     11810
 -1      1498    4    0    1
 -2      6333      6423      6433      6343      6334      6424      6434      6344     12445     12518
 -2     12519     11810     11742     12450     12524     11816     12452     12525     12526     11817
 -1      1499    4    0    1
 -2      6334      6424      6434      6344      6335      6425      6435      6345     12452     12525
 -2     12526     11817     11749     12457     12531     11823     12459     12532     12533     11824
 -1      1500    4    0    1
 -2      6335      6425      6435      6345      6336      6426      6436      6346     12459     12532
 -2     12533     11824     11756     12464     12538     11830     12466     12539     12540     11831
 -1      1501    4    0    1
 -2      6336      6426      6436      6346      6337      6427      6437      6347     12466     12539
 -2     12540     11831     11763     12471     12545     11837     12473     12546     12547     11838
 -1      1502    4    0    1
 -2      6337      6427      6437      6347      6338      6428      6438      6348     12473     12546
 -2     12547     11838     11770     12478     12552     11844     12480     12553     12554     11845
 -1      1503    4    0    1
 -2      6338      6428      6438      6348      6339      6429      6439      6349     12480     12553
 -2     12554     11845     11777     12485     12559     11851     12487     12560     12561     11852
 -1      1504    4    0    1
 -2      6339      6429      6439      6349      6340      6430      6440      6350     12487     12560
 -2     12561     11852     11784     12492     12566     11858     12494     12567     12568     11859
 -1      1505    4    0    1
 -2      6340      6430      6440      6350      6341      6431      6441      6351     12494     12567
 -2     12568     11859     11791     12499     12573     11865     12501     12574     12575     11866
 -1      1506    4    0    1
 -2      6341      6431      6441      6351      6342      6432      6442      6352     12501     12574
 -2     12575     11866     11798     12506     12580     11872     12508     12581     12582     11873
 -1      1507    4    0    1
 -2      6342      6432      6442      6352      4843      4852      4853      4844     12508     12581
 -2     12582     11873     11805     12513     12587     11879      5224      5226      5227      5197
 -1      1508    4    0    1
 -2       447       456       457       448      6343      6433      6443      6353       830       832
 -2       833       803     11809     12517     12591     11883     12519     12592     12593     11884
 -1      1509    4    0    1
 -2      6343      6433      6443      6353      6344      6434      6444      6354     12519     12592
 -2     12593     11884     11816     12524     12598     11890     12526     12599     12600     11891
 -1      1510    4    0    1
 -2      6344      6434      6444      6354      6345      6435      6445      6355     12526     12599
 -2     12600     11891     11823     12531     12605     11897     12533     12606     12607     11898
 -1      1511    4    0    1
 -2      6345      6435      6445      6355      6346      6436      6446      6356     12533     12606
 -2     12607     11898     11830     12538     12612     11904     12540     12613     12614     11905
 -1      1512    4    0    1
 -2      6346      6436      6446      6356      6347      6437      6447      6357     12540     12613
 -2     12614     11905     11837     12545     12619     11911     12547     12620     12621     11912
 -1      1513    4    0    1
 -2      6347      6437      6447      6357      6348      6438      6448      6358     12547     12620
 -2     12621     11912     11844     12552     12626     11918     12554     12627     12628     11919
 -1      1514    4    0    1
 -2      6348      6438      6448      6358      6349      6439      6449      6359     12554     12627
 -2     12628     11919     11851     12559     12633     11925     12561     12634     12635     11926
 -1      1515    4    0    1
 -2      6349      6439      6449      6359      6350      6440      6450      6360     12561     12634
 -2     12635     11926     11858     12566     12640     11932     12568     12641     12642     11933
 -1      1516    4    0    1
 -2      6350      6440      6450      6360      6351      6441      6451      6361     12568     12641
 -2     12642     11933     11865     12573     12647     11939     12575     12648     12649     11940
 -1      1517    4    0    1
 -2      6351      6441      6451      6361      6352      6442      6452      6362     12575     12648
 -2     12649     11940     11872     12580     12654     11946     12582     12655     12656     11947
 -1      1518    4    0    1
 -2      6352      6442      6452      6362      4844      4853      4854      4845     12582     12655
 -2     12656     11947     11879     12587     12661     11953      5227      5229      5230      5200
 -1      1519    4    0    1
 -2       448       457       458       449      6353      6443      6453      6363       833       835
 -2       836       806     11883     12591     12665     11957     12593     12666     12667     11958
 -1      1520    4    0    1
 -2      6353      6443      6453      6363      6354      6444      6454      6364     12593     12666
 -2     12667     11958     11890     12598     12672     11964     12600     12673     12674     11965
 -1      1521    4    0    1
 -2      6354      6444      6454      6364      6355      6445      6455      6365     12600     12673
 -2     12674     11965     11897     12605     12679     11971     12607     12680     12681     11972
 -1      1522    4    0    1
 -2      6355      6445      6455      6365      6356      6446      6456      6366     12607     12680
 -2     12681     11972     11904     12612     12686     11978     12614     12687     12688     11979
 -1      1523    4    0    1
 -2      6356      6446      6456      6366      6357      6447      6457      6367     12614     12687
 -2     12688     11979     11911     12619     12693     11985     12621     12694     12695     11986
 -1      1524    4    0    1
 -2      6357      6447      6457      6367      6358      6448      6458      6368     12621     12694
 -2     12695     11986     11918     12626     12700     11992     12628     12701     12702     11993
 -1      1525    4    0    1
 -2      6358      6448      6458      6368      6359      6449      6459      6369     12628     12701
 -2     12702     11993     11925     12633     12707     11999     12635     12708     12709     12000
 -1      1526    4    0    1
 -2      6359      6449      6459      6369      6360      6450      6460      6370     12635     12708
 -2     12709     12000     11932     12640     12714     12006     12642     12715     12716     12007
 -1      1527    4    0    1
 -2      6360      6450      6460      6370      6361      6451      6461      6371     12642     12715
 -2     12716     12007     11939     12647     12721     12013     12649     12722     12723     12014
 -1      1528    4    0    1
 -2      6361      6451      6461      6371      6362      6452      6462      6372     12649     12722
 -2     12723     12014     11946     12654     12728     12020     12656     12729     12730     12021
 -1      1529    4    0    1
 -2      6362      6452      6462      6372      4845      4854      4855      4846     12656     12729
 -2     12730     12021     11953     12661     12735     12027      5230      5232      5233      5203
 -1      1530    4    0    1
 -2       449       458       110       111      6363      6453      3394      3404       836       838
 -2       140       809     11957     12665      4190      4222     12667     12739      4223     12031
 -1      1531    4    0    1
 -2      6363      6453      3394      3404      6364      6454      3395      3405     12667     12739
 -2      4223     12031     11964     12672      4193      4225     12674     12743      4226     12035
 -1      1532    4    0    1
 -2      6364      6454      3395      3405      6365      6455      3396      3406     12674     12743
 -2      4226     12035     11971     12679      4196      4228     12681     12747      4229     12039
 -1      1533    4    0    1
 -2      6365      6455      3396      3406      6366      6456      3397      3407     12681     12747
 -2      4229     12039     11978     12686      4199      4231     12688     12751      4232     12043
 -1      1534    4    0    1
 -2      6366      6456      3397      3407      6367      6457      3398      3408     12688     12751
 -2      4232     12043     11985     12693      4202      4234     12695     12755      4235     12047
 -1      1535    4    0    1
 -2      6367      6457      3398      3408      6368      6458      3399      3409     12695     12755
 -2      4235     12047     11992     12700      4205      4237     12702     12759      4238     12051
 -1      1536    4    0    1
 -2      6368      6458      3399      3409      6369      6459      3400      3410     12702     12759
 -2      4238     12051     11999     12707      4208      4240     12709     12763      4241     12055
 -1      1537    4    0    1
 -2      6369      6459      3400      3410      6370      6460      3401      3411     12709     12763
 -2      4241     12055     12006     12714      4211      4243     12716     12767      4244     12059
 -1      1538    4    0    1
 -2      6370      6460      3401      3411      6371      6461      3402      3412     12716     12767
 -2      4244     12059     12013     12721      4214      4246     12723     12771      4247     12063
 -1      1539    4    0    1
 -2      6371      6461      3402      3412      6372      6462      3403      3413     12723     12771
 -2      4247     12063     12020     12728      4217      4249     12730     12775      4250     12067
 -1      1540    4    0    1
 -2      6372      6462      3403      3413      4846      4855       266       267     12730     12775
 -2      4250     12067     12027     12735      4220      4252      5233      5235       296      5206
 -1      1541    4    0    1
 -2        14        15       459       450      1576      1586      6463      6373        44       840
 -2       841       811      1976      2008     12781     12073      2009     12782     12783     12074
 -1      1542    4    0    1
 -2      1576      1586      6463      6373      1577      1587      6464      6374      2009     12782
 -2     12783     12074      1979      2011     12788     12080      2012     12789     12790     12081
 -1      1543    4    0    1
 -2      1577      1587      6464      6374      1578      1588      6465      6375      2012     12789
 -2     12790     12081      1982      2014     12795     12087      2015     12796     12797     12088
 -1      1544    4    0    1
 -2      1578      1588      6465      6375      1579      1589      6466      6376      2015     12796
 -2     12797     12088      1985      2017     12802     12094      2018     12803     12804     12095
 -1      1545    4    0    1
 -2      1579      1589      6466      6376      1580      1590      6467      6377      2018     12803
 -2     12804     12095      1988      2020     12809     12101      2021     12810     12811     12102
 -1      1546    4    0    1
 -2      1580      1590      6467      6377      1581      1591      6468      6378      2021     12810
 -2     12811     12102      1991      2023     12816     12108      2024     12817     12818     12109
 -1      1547    4    0    1
 -2      1581      1591      6468      6378      1582      1592      6469      6379      2024     12817
 -2     12818     12109      1994      2026     12823     12115      2027     12824     12825     12116
 -1      1548    4    0    1
 -2      1582      1592      6469      6379      1583      1593      6470      6380      2027     12824
 -2     12825     12116      1997      2029     12830     12122      2030     12831     12832     12123
 -1      1549    4    0    1
 -2      1583      1593      6470      6380      1584      1594      6471      6381      2030     12831
 -2     12832     12123      2000      2032     12837     12129      2033     12838     12839     12130
 -1      1550    4    0    1
 -2      1584      1594      6471      6381      1585      1595      6472      6382      2033     12838
 -2     12839     12130      2003      2035     12844     12136      2036     12845     12846     12137
 -1      1551    4    0    1
 -2      1585      1595      6472      6382       170       171      4856      4847      2036     12845
 -2     12846     12137      2006      2038     12851     12143       200      5237      5238      5208
 -1      1552    4    0    1
 -2       450       459       460       451      6373      6463      6473      6383       841       843
 -2       844       814     12073     12781     12855     12147     12783     12856     12857     12148
 -1      1553    4    0    1
 -2      6373      6463      6473      6383      6374      6464      6474      6384     12783     12856
 -2     12857     12148     12080     12788     12862     12154     12790     12863     12864     12155
 -1      1554    4    0    1
 -2      6374      6464      6474      6384      6375      6465      6475      6385     12790     12863
 -2     12864     12155     12087     12795     12869     12161     12797     12870     12871     12162
 -1      1555    4    0    1
 -2      6375      6465      6475      6385      6376      6466      6476      6386     12797     12870
 -2     12871     12162     12094     12802     12876     12168     12804     12877     12878     12169
 -1      1556    4    0    1
 -2      6376      6466      6476      6386      6377      6467      6477      6387     12804     12877
 -2     12878     12169     12101     12809     12883     12175     12811     12884     12885     12176
 -1      1557    4    0    1
 -2      6377      6467      6477      6387      6378      6468      6478      6388     12811     12884
 -2     12885     12176     12108     12816     12890     12182     12818     12891     12892     12183
 -1      1558    4    0    1
 -2      6378      6468      6478      6388      6379      6469      6479      6389     12818     12891
 -2     12892     12183     12115     12823     12897     12189     12825     12898     12899     12190
 -1      1559    4    0    1
 -2      6379      6469      6479      6389      6380      6470      6480      6390     12825     12898
 -2     12899     12190     12122     12830     12904     12196     12832     12905     12906     12197
 -1      1560    4    0    1
 -2      6380      6470      6480      6390      6381      6471      6481      6391     12832     12905
 -2     12906     12197     12129     12837     12911     12203     12839     12912     12913     12204
 -1      1561    4    0    1
 -2      6381      6471      6481      6391      6382      6472      6482      6392     12839     12912
 -2     12913     12204     12136     12844     12918     12210     12846     12919     12920     12211
 -1      1562    4    0    1
 -2      6382      6472      6482      6392      4847      4856      4857      4848     12846     12919
 -2     12920     12211     12143     12851     12925     12217      5238      5240      5241      5211
 -1      1563    4    0    1
 -2       451       460       461       452      6383      6473      6483      6393       844       846
 -2       847       817     12147     12855     12929     12221     12857     12930     12931     12222
 -1      1564    4    0    1
 -2      6383      6473      6483      6393      6384      6474      6484      6394     12857     12930
 -2     12931     12222     12154     12862     12936     12228     12864     12937     12938     12229
 -1      1565    4    0    1
 -2      6384      6474      6484      6394      6385      6475      6485      6395     12864     12937
 -2     12938     12229     12161     12869     12943     12235     12871     12944     12945     12236
 -1      1566    4    0    1
 -2      6385      6475      6485      6395      6386      6476      6486      6396     12871     12944
 -2     12945     12236     12168     12876     12950     12242     12878     12951     12952     12243
 -1      1567    4    0    1
 -2      6386      6476      6486      6396      6387      6477      6487      6397     12878     12951
 -2     12952     12243     12175     12883     12957     12249     12885     12958     12959     12250
 -1      1568    4    0    1
 -2      6387      6477      6487      6397      6388      6478      6488      6398     12885     12958
 -2     12959     12250     12182     12890     12964     12256     12892     12965     12966     12257
 -1      1569    4    0    1
 -2      6388      6478      6488      6398      6389      6479      6489      6399     12892     12965
 -2     12966     12257     12189     12897     12971     12263     12899     12972     12973     12264
 -1      1570    4    0    1
 -2      6389      6479      6489      6399      6390      6480      6490      6400     12899     12972
 -2     12973     12264     12196     12904     12978     12270     12906     12979     12980     12271
 -1      1571    4    0    1
 -2      6390      6480      6490      6400      6391      6481      6491      6401     12906     12979
 -2     12980     12271     12203     12911     12985     12277     12913     12986     12987     12278
 -1      1572    4    0    1
 -2      6391      6481      6491      6401      6392      6482      6492      6402     12913     12986
 -2     12987     12278     12210     12918     12992     12284     12920     12993     12994     12285
 -1      1573    4    0    1
 -2      6392      6482      6492      6402      4848      4857      4858      4849     12920     12993
 -2     12994     12285     12217     12925     12999     12291      5241      5243      5244      5214
 -1      1574    4    0    1
 -2       452       461       462       453      6393      6483      6493      6403       847       849
 -2       850       820     12221     12929     13003     12295     12931     13004     13005     12296
 -1      1575    4    0    1
 -2      6393      6483      6493      6403      6394      6484      6494      6404     12931     13004
 -2     13005     12296     12228     12936     13010     12302     12938     13011     13012     12303
 -1      1576    4    0    1
 -2      6394      6484      6494      6404      6395      6485      6495      6405     12938     13011
 -2     13012     12303     12235     12943     13017     12309     12945     13018     13019     12310
 -1      1577    4    0    1
 -2      6395      6485      6495      6405      6396      6486      6496      6406     12945     13018
 -2     13019     12310     12242     12950     13024     12316     12952     13025     13026     12317
 -1      1578    4    0    1
 -2      6396      6486      6496      6406      6397      6487      6497      6407     12952     13025
 -2     13026     12317     12249     12957     13031     12323     12959     13032     13033     12324
 -1      1579    4    0    1
 -2      6397      6487      6497      6407      6398      6488      6498      6408     12959     13032
 -2     13033     12324     12256     12964     13038     12330     12966     13039     13040     12331
 -1      1580    4    0    1
 -2      6398      6488      6498      6408      6399      6489      6499      6409     12966     13039
 -2     13040     12331     12263     12971     13045     12337     12973     13046     13047     12338
 -1      1581    4    0    1
 -2      6399      6489      6499      6409      6400      6490      6500      6410     12973     13046
 -2     13047     12338     12270     12978     13052     12344     12980     13053     13054     12345
 -1      1582    4    0    1
 -2      6400      6490      6500      6410      6401      6491      6501      6411     12980     13053
 -2     13054     12345     12277     12985     13059     12351     12987     13060     13061     12352
 -1      1583    4    0    1
 -2      6401      6491      6501      6411      6402      6492      6502      6412     12987     13060
 -2     13061     12352     12284     12992     13066     12358     12994     13067     13068     12359
 -1      1584    4    0    1
 -2      6402      6492      6502      6412      4849      4858      4859      4850     12994     13067
 -2     13068     12359     12291     12999     13073     12365      5244      5246      5247      5217
 -1      1585    4    0    1
 -2       453       462       463       454      6403      6493      6503      6413       850       852
 -2       853       823     12295     13003     13077     12369     13005     13078     13079     12370
 -1      1586    4    0    1
 -2      6403      6493      6503      6413      6404      6494      6504      6414     13005     13078
 -2     13079     12370     12302     13010     13084     12376     13012     13085     13086     12377
 -1      1587    4    0    1
 -2      6404      6494      6504      6414      6405      6495      6505      6415     13012     13085
 -2     13086     12377     12309     13017     13091     12383     13019     13092     13093     12384
 -1      1588    4    0    1
 -2      6405      6495      6505      6415      6406      6496      6506      6416     13019     13092
 -2     13093     12384     12316     13024     13098     12390     13026     13099     13100     12391
 -1      1589    4    0    1
 -2      6406      6496      6506      6416      6407      6497      6507      6417     13026     13099
 -2     13100     12391     12323     13031     13105     12397     13033     13106     13107     12398
 -1      1590    4    0    1
 -2      6407      6497      6507      6417      6408      6498      6508      6418     13033     13106
 -2     13107     12398     12330     13038     13112     12404     13040     13113     13114     12405
 -1      1591    4    0    1
 -2      6408      6498      6508      6418      6409      6499      6509      6419     13040     13113
 -2     13114     12405     12337     13045     13119     12411     13047     13120     13121     12412
 -1      1592    4    0    1
 -2      6409      6499      6509      6419      6410      6500      6510      6420     13047     13120
 -2     13121     12412     12344     13052     13126     12418     13054     13127     13128     12419
 -1      1593    4    0    1
 -2      6410      6500      6510      6420      6411      6501      6511      6421     13054     13127
 -2     13128     12419     12351     13059     13133     12425     13061     13134     13135     12426
 -1      1594    4    0    1
 -2      6411      6501      6511      6421      6412      6502      6512      6422     13061     13134
 -2     13135     12426     12358     13066     13140     12432     13068     13141     13142     12433
 -1      1595    4    0    1
 -2      6412      6502      6512      6422      4850      4859      4860      4851     13068     13141
 -2     13142     12433     12365     13073     13147     12439      5247      5249      5250      5220
 -1      1596    4    0    1
 -2       454       463       464       455      6413      6503      6513      6423       853       855
 -2       856       826     12369     13077     13151     12443     13079     13152     13153     12444
 -1      1597    4    0    1
 -2      6413      6503      6513      6423      6414      6504      6514      6424     13079     13152
 -2     13153     12444     12376     13084     13158     12450     13086     13159     13160     12451
 -1      1598    4    0    1
 -2      6414      6504      6514      6424      6415      6505      6515      6425     13086     13159
 -2     13160     12451     12383     13091     13165     12457     13093     13166     13167     12458
 -1      1599    4    0    1
 -2      6415      6505      6515      6425      6416      6506      6516      6426     13093     13166
 -2     13167     12458     12390     13098     13172     12464     13100     13173     13174     12465
 -1      1600    4    0    1
 -2      6416      6506      6516      6426      6417      6507      6517      6427     13100     13173
 -2     13174     12465     12397     13105     13179     12471     13107     13180     13181     12472
 -1      1601    4    0    1
 -2      6417      6507      6517      6427      6418      6508      6518      6428     13107     13180
 -2     13181     12472     12404     13112     13186     12478     13114     13187     13188     12479
 -1      1602    4    0    1
 -2      6418      6508      6518      6428      6419      6509      6519      6429     13114     13187
 -2     13188     12479     12411     13119     13193     12485     13121     13194     13195     12486
 -1      1603    4    0    1
 -2      6419      6509      6519      6429      6420      6510      6520      6430     13121     13194
 -2     13195     12486     12418     13126     13200     12492     13128     13201     13202     12493
 -1      1604    4    0    1
 -2      6420      6510      6520      6430      6421      6511      6521      6431     13128     13201
 -2     13202     12493     12425     13133     13207     12499     13135     13208     13209     12500
 -1      1605    4    0    1
 -2      6421      6511      6521      6431      6422      6512      6522      6432     13135     13208
 -2     13209     12500     12432     13140     13214     12506     13142     13215     13216     12507
 -1      1606    4    0    1
 -2      6422      6512      6522      6432      4851      4860      4861      4852     13142     13215
 -2     13216     12507     12439     13147     13221     12513      5250      5252      5253      5223
 -1      1607    4    0    1
 -2       455       464       465       456      6423      6513      6523      6433       856       858
 -2       859       829     12443     13151     13225     12517     13153     13226     13227     12518
 -1      1608    4    0    1
 -2      6423      6513      6523      6433      6424      6514      6524      6434     13153     13226
 -2     13227     12518     12450     13158     13232     12524     13160     13233     13234     12525
 -1      1609    4    0    1
 -2      6424      6514      6524      6434      6425      6515      6525      6435     13160     13233
 -2     13234     12525     12457     13165     13239     12531     13167     13240     13241     12532
 -1      1610    4    0    1
 -2      6425      6515      6525      6435      6426      6516      6526      6436     13167     13240
 -2     13241     12532     12464     13172     13246     12538     13174     13247     13248     12539
 -1      1611    4    0    1
 -2      6426      6516      6526      6436      6427      6517      6527      6437     13174     13247
 -2     13248     12539     12471     13179     13253     12545     13181     13254     13255     12546
 -1      1612    4    0    1
 -2      6427      6517      6527      6437      6428      6518      6528      6438     13181     13254
 -2     13255     12546     12478     13186     13260     12552     13188     13261     13262     12553
 -1      1613    4    0    1
 -2      6428      6518      6528      6438      6429      6519      6529      6439     13188     13261
 -2     13262     12553     12485     13193     13267     12559     13195     13268     13269     12560
 -1      1614    4    0    1
 -2      6429      6519      6529      6439      6430      6520      6530      6440     13195     13268
 -2     13269     12560     12492     13200     13274     12566     13202     13275     13276     12567
 -1      1615    4    0    1
 -2      6430      6520      6530      6440      6431      6521      6531      6441     13202     13275
 -2     13276     12567     12499     13207     13281     12573     13209     13282     13283     12574
 -1      1616    4    0    1
 -2      6431      6521      6531      6441      6432      6522      6532      6442     13209     13282
 -2     13283     12574     12506     13214     13288     12580     13216     13289     13290     12581
 -1      1617    4    0    1
 -2      6432      6522      6532      6442      4852      4861      4862      4853     13216     13289
 -2     13290     12581     12513     13221     13295     12587      5253      5255      5256      5226
 -1      1618    4    0    1
 -2       456       465       466       457      6433      6523      6533      6443       859       861
 -2       862       832     12517     13225     13299     12591     13227     13300     13301     12592
 -1      1619    4    0    1
 -2      6433      6523      6533      6443      6434      6524      6534      6444     13227     13300
 -2     13301     12592     12524     13232     13306     12598     13234     13307     13308     12599
 -1      1620    4    0    1
 -2      6434      6524      6534      6444      6435      6525      6535      6445     13234     13307
 -2     13308     12599     12531     13239     13313     12605     13241     13314     13315     12606
 -1      1621    4    0    1
 -2      6435      6525      6535      6445      6436      6526      6536      6446     13241     13314
 -2     13315     12606     12538     13246     13320     12612     13248     13321     13322     12613
 -1      1622    4    0    1
 -2      6436      6526      6536      6446      6437      6527      6537      6447     13248     13321
 -2     13322     12613     12545     13253     13327     12619     13255     13328     13329     12620
 -1      1623    4    0    1
 -2      6437      6527      6537      6447      6438      6528      6538      6448     13255     13328
 -2     13329     12620     12552     13260     13334     12626     13262     13335     13336     12627
 -1      1624    4    0    1
 -2      6438      6528      6538      6448      6439      6529      6539      6449     13262     13335
 -2     13336     12627     12559     13267     13341     12633     13269     13342     13343     12634
 -1      1625    4    0    1
 -2      6439      6529      6539      6449      6440      6530      6540      6450     13269     13342
 -2     13343     12634     12566     13274     13348     12640     13276     13349     13350     12641
 -1      1626    4    0    1
 -2      6440      6530      6540      6450      6441      6531      6541      6451     13276     13349
 -2     13350     12641     12573     13281     13355     12647     13283     13356     13357     12648
 -1      1627    4    0    1
 -2      6441      6531      6541      6451      6442      6532      6542      6452     13283     13356
 -2     13357     12648     12580     13288     13362     12654     13290     13363     13364     12655
 -1      1628    4    0    1
 -2      6442      6532      6542      6452      4853      4862      4863      4854     13290     13363
 -2     13364     12655     12587     13295     13369     12661      5256      5258      5259      5229
 -1      1629    4    0    1
 -2       457       466       467       458      6443      6533      6543      6453       862       864
 -2       865       835     12591     13299     13373     12665     13301     13374     13375     12666
 -1      1630    4    0    1
 -2      6443      6533      6543      6453      6444      6534      6544      6454     13301     13374
 -2     13375     12666     12598     13306     13380     12672     13308     13381     13382     12673
 -1      1631    4    0    1
 -2      6444      6534      6544      6454      6445      6535      6545      6455     13308     13381
 -2     13382     12673     12605     13313     13387     12679     13315     13388     13389     12680
 -1      1632    4    0    1
 -2      6445      6535      6545      6455      6446      6536      6546      6456     13315     13388
 -2     13389     12680     12612     13320     13394     12686     13322     13395     13396     12687
 -1      1633    4    0    1
 -2      6446      6536      6546      6456      6447      6537      6547      6457     13322     13395
 -2     13396     12687     12619     13327     13401     12693     13329     13402     13403     12694
 -1      1634    4    0    1
 -2      6447      6537      6547      6457      6448      6538      6548      6458     13329     13402
 -2     13403     12694     12626     13334     13408     12700     13336     13409     13410     12701
 -1      1635    4    0    1
 -2      6448      6538      6548      6458      6449      6539      6549      6459     13336     13409
 -2     13410     12701     12633     13341     13415     12707     13343     13416     13417     12708
 -1      1636    4    0    1
 -2      6449      6539      6549      6459      6450      6540      6550      6460     13343     13416
 -2     13417     12708     12640     13348     13422     12714     13350     13423     13424     12715
 -1      1637    4    0    1
 -2      6450      6540      6550      6460      6451      6541      6551      6461     13350     13423
 -2     13424     12715     12647     13355     13429     12721     13357     13430     13431     12722
 -1      1638    4    0    1
 -2      6451      6541      6551      6461      6452      6542      6552      6462     13357     13430
 -2     13431     12722     12654     13362     13436     12728     13364     13437     13438     12729
 -1      1639    4    0    1
 -2      6452      6542      6552      6462      4854      4863      4864      4855     13364     13437
 -2     13438     12729     12661     13369     13443     12735      5259      5261      5262      5232
 -1      1640    4    0    1
 -2       458       467       109       110      6453      6543      3384      3394       865       867
 -2       139       838     12665     13373      4158      4190     13375     13447      4191     12739
 -1      1641    4    0    1
 -2      6453      6543      3384      3394      6454      6544      3385      3395     13375     13447
 -2      4191     12739     12672     13380      4161      4193     13382     13451      4194     12743
 -1      1642    4    0    1
 -2      6454      6544      3385      3395      6455      6545      3386      3396     13382     13451
 -2      4194     12743     12679     13387      4164      4196     13389     13455      4197     12747
 -1      1643    4    0    1
 -2      6455      6545      3386      3396      6456      6546      3387      3397     13389     13455
 -2      4197     12747     12686     13394      4167      4199     13396     13459      4200     12751
 -1      1644    4    0    1
 -2      6456      6546      3387      3397      6457      6547      3388      3398     13396     13459
 -2      4200     12751     12693     13401      4170      4202     13403     13463      4203     12755
 -1      1645    4    0    1
 -2      6457      6547      3388      3398      6458      6548      3389      3399     13403     13463
 -2      4203     12755     12700     13408      4173      4205     13410     13467      4206     12759
 -1      1646    4    0    1
 -2      6458      6548      3389      3399      6459      6549      3390      3400     13410     13467
 -2      4206     12759     12707     13415      4176      4208     13417     13471      4209     12763
 -1      1647    4    0    1
 -2      6459      6549      3390      3400      6460      6550      3391      3401     13417     13471
 -2      4209     12763     12714     13422      4179      4211     13424     13475      4212     12767
 -1      1648    4    0    1
 -2      6460      6550      3391      3401      6461      6551      3392      3402     13424     13475
 -2      4212     12767     12721     13429      4182      4214     13431     13479      4215     12771
 -1      1649    4    0    1
 -2      6461      6551      3392      3402      6462      6552      3393      3403     13431     13479
 -2      4215     12771     12728     13436      4185      4217     13438     13483      4218     12775
 -1      1650    4    0    1
 -2      6462      6552      3393      3403      4855      4864       265       266     13438     13483
 -2      4218     12775     12735     13443      4188      4220      5262      5264       295      5235
 -1      1651    4    0    1
 -2        15        16       468       459      1586      1596      6553      6463        45       869
 -2       870       840      2008      2040     13489     12781      2041     13490     13491     12782
 -1      1652    4    0    1
 -2      1586      1596      6553      6463      1587      1597      6554      6464      2041     13490
 -2     13491     12782      2011      2043     13496     12788      2044     13497     13498     12789
 -1      1653    4    0    1
 -2      1587      1597      6554      6464      1588      1598      6555      6465      2044     13497
 -2     13498     12789      2014      2046     13503     12795      2047     13504     13505     12796
 -1      1654    4    0    1
 -2      1588      1598      6555      6465      1589      1599      6556      6466      2047     13504
 -2     13505     12796      2017      2049     13510     12802      2050     13511     13512     12803
 -1      1655    4    0    1
 -2      1589      1599      6556      6466      1590      1600      6557      6467      2050     13511
 -2     13512     12803      2020      2052     13517     12809      2053     13518     13519     12810
 -1      1656    4    0    1
 -2      1590      1600      6557      6467      1591      1601      6558      6468      2053     13518
 -2     13519     12810      2023      2055     13524     12816      2056     13525     13526     12817
 -1      1657    4    0    1
 -2      1591      1601      6558      6468      1592      1602      6559      6469      2056     13525
 -2     13526     12817      2026      2058     13531     12823      2059     13532     13533     12824
 -1      1658    4    0    1
 -2      1592      1602      6559      6469      1593      1603      6560      6470      2059     13532
 -2     13533     12824      2029      2061     13538     12830      2062     13539     13540     12831
 -1      1659    4    0    1
 -2      1593      1603      6560      6470      1594      1604      6561      6471      2062     13539
 -2     13540     12831      2032      2064     13545     12837      2065     13546     13547     12838
 -1      1660    4    0    1
 -2      1594      1604      6561      6471      1595      1605      6562      6472      2065     13546
 -2     13547     12838      2035      2067     13552     12844      2068     13553     13554     12845
 -1      1661    4    0    1
 -2      1595      1605      6562      6472       171       172      4865      4856      2068     13553
 -2     13554     12845      2038      2070     13559     12851       201      5266      5267      5237
 -1      1662    4    0    1
 -2       459       468       469       460      6463      6553      6563      6473       870       872
 -2       873       843     12781     13489     13563     12855     13491     13564     13565     12856
 -1      1663    4    0    1
 -2      6463      6553      6563      6473      6464      6554      6564      6474     13491     13564
 -2     13565     12856     12788     13496     13570     12862     13498     13571     13572     12863
 -1      1664    4    0    1
 -2      6464      6554      6564      6474      6465      6555      6565      6475     13498     13571
 -2     13572     12863     12795     13503     13577     12869     13505     13578     13579     12870
 -1      1665    4    0    1
 -2      6465      6555      6565      6475      6466      6556      6566      6476     13505     13578
 -2     13579     12870     12802     13510     13584     12876     13512     13585     13586     12877
 -1      1666    4    0    1
 -2      6466      6556      6566      6476      6467      6557      6567      6477     13512     13585
 -2     13586     12877     12809     13517     13591     12883     13519     13592     13593     12884
 -1      1667    4    0    1
 -2      6467      6557      6567      6477      6468      6558      6568      6478     13519     13592
 -2     13593     12884     12816     13524     13598     12890     13526     13599     13600     12891
 -1      1668    4    0    1
 -2      6468      6558      6568      6478      6469      6559      6569      6479     13526     13599
 -2     13600     12891     12823     13531     13605     12897     13533     13606     13607     12898
 -1      1669    4    0    1
 -2      6469      6559      6569      6479      6470      6560      6570      6480     13533     13606
 -2     13607     12898     12830     13538     13612     12904     13540     13613     13614     12905
 -1      1670    4    0    1
 -2      6470      6560      6570      6480      6471      6561      6571      6481     13540     13613
 -2     13614     12905     12837     13545     13619     12911     13547     13620     13621     12912
 -1      1671    4    0    1
 -2      6471      6561      6571      6481      6472      6562      6572      6482     13547     13620
 -2     13621     12912     12844     13552     13626     12918     13554     13627     13628     12919
 -1      1672    4    0    1
 -2      6472      6562      6572      6482      4856      4865      4866      4857     13554     13627
 -2     13628     12919     12851     13559     13633     12925      5267      5269      5270      5240
 -1      1673    4    0    1
 -2       460       469       470       461      6473      6563      6573      6483       873       875
 -2       876       846     12855     13563     13637     12929     13565     13638     13639     12930
 -1      1674    4    0    1
 -2      6473      6563      6573      6483      6474      6564      6574      6484     13565     13638
 -2     13639     12930     12862     13570     13644     12936     13572     13645     13646     12937
 -1      1675    4    0    1
 -2      6474      6564      6574      6484      6475      6565      6575      6485     13572     13645
 -2     13646     12937     12869     13577     13651     12943     13579     13652     13653     12944
 -1      1676    4    0    1
 -2      6475      6565      6575      6485      6476      6566      6576      6486     13579     13652
 -2     13653     12944     12876     13584     13658     12950     13586     13659     13660     12951
 -1      1677    4    0    1
 -2      6476      6566      6576      6486      6477      6567      6577      6487     13586     13659
 -2     13660     12951     12883     13591     13665     12957     13593     13666     13667     12958
 -1      1678    4    0    1
 -2      6477      6567      6577      6487      6478      6568      6578      6488     13593     13666
 -2     13667     12958     12890     13598     13672     12964     13600     13673     13674     12965
 -1      1679    4    0    1
 -2      6478      6568      6578      6488      6479      6569      6579      6489     13600     13673
 -2     13674     12965     12897     13605     13679     12971     13607     13680     13681     12972
 -1      1680    4    0    1
 -2      6479      6569      6579      6489      6480      6570      6580      6490     13607     13680
 -2     13681     12972     12904     13612     13686     12978     13614     13687     13688     12979
 -1      1681    4    0    1
 -2      6480      6570      6580      6490      6481      6571      6581      6491     13614     13687
 -2     13688     12979     12911     13619     13693     12985     13621     13694     13695     12986
 -1      1682    4    0    1
 -2      6481      6571      6581      6491      6482      6572      6582      6492     13621     13694
 -2     13695     12986     12918     13626     13700     12992     13628     13701     13702     12993
 -1      1683    4    0    1
 -2      6482      6572      6582      6492      4857      4866      4867      4858     13628     13701
 -2     13702     12993     12925     13633     13707     12999      5270      5272      5273      5243
 -1      1684    4    0    1
 -2       461       470       471       462      6483      6573      6583      6493       876       878
 -2       879       849     12929     13637     13711     13003     13639     13712     13713     13004
 -1      1685    4    0    1
 -2      6483      6573      6583      6493      6484      6574      6584      6494     13639     13712
 -2     13713     13004     12936     13644     13718     13010     13646     13719     13720     13011
 -1      1686    4    0    1
 -2      6484      6574      6584      6494      6485      6575      6585      6495     13646     13719
 -2     13720     13011     12943     13651     13725     13017     13653     13726     13727     13018
 -1      1687    4    0    1
 -2      6485      6575      6585      6495      6486      6576      6586      6496     13653     13726
 -2     13727     13018     12950     13658     13732     13024     13660     13733     13734     13025
 -1      1688    4    0    1
 -2      6486      6576      6586      6496      6487      6577      6587      6497     13660     13733
 -2     13734     13025     12957     13665     13739     13031     13667     13740     13741     13032
 -1      1689    4    0    1
 -2      6487      6577      6587      6497      6488      6578      6588      6498     13667     13740
 -2     13741     13032     12964     13672     13746     13038     13674     13747     13748     13039
 -1      1690    4    0    1
 -2      6488      6578      6588      6498      6489      6579      6589      6499     13674     13747
 -2     13748     13039     12971     13679     13753     13045     13681     13754     13755     13046
 -1      1691    4    0    1
 -2      6489      6579      6589      6499      6490      6580      6590      6500     13681     13754
 -2     13755     13046     12978     13686     13760     13052     13688     13761     13762     13053
 -1      1692    4    0    1
 -2      6490      6580      6590      6500      6491      6581      6591      6501     13688     13761
 -2     13762     13053     12985     13693     13767     13059     13695     13768     13769     13060
 -1      1693    4    0    1
 -2      6491      6581      6591      6501      6492      6582      6592      6502     13695     13768
 -2     13769     13060     12992     13700     13774     13066     13702     13775     13776     13067
 -1      1694    4    0    1
 -2      6492      6582      6592      6502      4858      4867      4868      4859     13702     13775
 -2     13776     13067     12999     13707     13781     13073      5273      5275      5276      5246
 -1      1695    4    0    1
 -2       462       471       472       463      6493      6583      6593      6503       879       881
 -2       882       852     13003     13711     13785     13077     13713     13786     13787     13078
 -1      1696    4    0    1
 -2      6493      6583      6593      6503      6494      6584      6594      6504     13713     13786
 -2     13787     13078     13010     13718     13792     13084     13720     13793     13794     13085
 -1      1697    4    0    1
 -2      6494      6584      6594      6504      6495      6585      6595      6505     13720     13793
 -2     13794     13085     13017     13725     13799     13091     13727     13800     13801     13092
 -1      1698    4    0    1
 -2      6495      6585      6595      6505      6496      6586      6596      6506     13727     13800
 -2     13801     13092     13024     13732     13806     13098     13734     13807     13808     13099
 -1      1699    4    0    1
 -2      6496      6586      6596      6506      6497      6587      6597      6507     13734     13807
 -2     13808     13099     13031     13739     13813     13105     13741     13814     13815     13106
 -1      1700    4    0    1
 -2      6497      6587      6597      6507      6498      6588      6598      6508     13741     13814
 -2     13815     13106     13038     13746     13820     13112     13748     13821     13822     13113
 -1      1701    4    0    1
 -2      6498      6588      6598      6508      6499      6589      6599      6509     13748     13821
 -2     13822     13113     13045     13753     13827     13119     13755     13828     13829     13120
 -1      1702    4    0    1
 -2      6499      6589      6599      6509      6500      6590      6600      6510     13755     13828
 -2     13829     13120     13052     13760     13834     13126     13762     13835     13836     13127
 -1      1703    4    0    1
 -2      6500      6590      6600      6510      6501      6591      6601      6511     13762     13835
 -2     13836     13127     13059     13767     13841     13133     13769     13842     13843     13134
 -1      1704    4    0    1
 -2      6501      6591      6601      6511      6502      6592      6602      6512     13769     13842
 -2     13843     13134     13066     13774     13848     13140     13776     13849     13850     13141
 -1      1705    4    0    1
 -2      6502      6592      6602      6512      4859      4868      4869      4860     13776     13849
 -2     13850     13141     13073     13781     13855     13147      5276      5278      5279      5249
 -1      1706    4    0    1
 -2       463       472       473       464      6503      6593      6603      6513       882       884
 -2       885       855     13077     13785     13859     13151     13787     13860     13861     13152
 -1      1707    4    0    1
 -2      6503      6593      6603      6513      6504      6594      6604      6514     13787     13860
 -2     13861     13152     13084     13792     13866     13158     13794     13867     13868     13159
 -1      1708    4    0    1
 -2      6504      6594      6604      6514      6505      6595      6605      6515     13794     13867
 -2     13868     13159     13091     13799     13873     13165     13801     13874     13875     13166
 -1      1709    4    0    1
 -2      6505      6595      6605      6515      6506      6596      6606      6516     13801     13874
 -2     13875     13166     13098     13806     13880     13172     13808     13881     13882     13173
 -1      1710    4    0    1
 -2      6506      6596      6606      6516      6507      6597      6607      6517     13808     13881
 -2     13882     13173     13105     13813     13887     13179     13815     13888     13889     13180
 -1      1711    4    0    1
 -2      6507      6597      6607      6517      6508      6598      6608      6518     13815     13888
 -2     13889     13180     13112     13820     13894     13186     13822     13895     13896     13187
 -1      1712    4    0    1
 -2      6508      6598      6608      6518      6509      6599      6609      6519     13822     13895
 -2     13896     13187     13119     13827     13901     13193     13829     13902     13903     13194
 -1      1713    4    0    1
 -2      6509      6599      6609      6519      6510      6600      6610      6520     13829     13902
 -2     13903     13194     13126     13834     13908     13200     13836     13909     13910     13201
 -1      1714    4    0    1
 -2      6510      6600      6610      6520      6511      6601      6611      6521     13836     13909
 -2     13910     13201     13133     13841     13915     13207     13843     13916     13917     13208
 -1      1715    4    0    1
 -2      6511      6601      6611      6521      6512      6602      6612      6522     13843     13916
 -2     13917     13208     13140     13848     13922     13214     13850     13923     13924     13215
 -1      1716    4    0    1
 -2      6512      6602      6612      6522      4860      4869      4870      4861     13850     13923
 -2     13924     13215     13147     13855     13929     13221      5279      5281      5282      5252
 -1      1717    4    0    1
 -2       464       473       474       465      6513      6603      6613      6523       885       887
 -2       888       858     13151     13859     13933     13225     13861     13934     13935     13226
 -1      1718    4    0    1
 -2      6513      6603      6613      6523      6514      6604      6614      6524     13861     13934
 -2     13935     13226     13158     13866     13940     13232     13868     13941     13942     13233
 -1      1719    4    0    1
 -2      6514      6604      6614      6524      6515      6605      6615      6525     13868     13941
 -2     13942     13233     13165     13873     13947     13239     13875     13948     13949     13240
 -1      1720    4    0    1
 -2      6515      6605      6615      6525      6516      6606      6616      6526     13875     13948
 -2     13949     13240     13172     13880     13954     13246     13882     13955     13956     13247
 -1      1721    4    0    1
 -2      6516      6606      6616      6526      6517      6607      6617      6527     13882     13955
 -2     13956     13247     13179     13887     13961     13253     13889     13962     13963     13254
 -1      1722    4    0    1
 -2      6517      6607      6617      6527      6518      6608      6618      6528     13889     13962
 -2     13963     13254     13186     13894     13968     13260     13896     13969     13970     13261
 -1      1723    4    0    1
 -2      6518      6608      6618      6528      6519      6609      6619      6529     13896     13969
 -2     13970     13261     13193     13901     13975     13267     13903     13976     13977     13268
 -1      1724    4    0    1
 -2      6519      6609      6619      6529      6520      6610      6620      6530     13903     13976
 -2     13977     13268     13200     13908     13982     13274     13910     13983     13984     13275
 -1      1725    4    0    1
 -2      6520      6610      6620      6530      6521      6611      6621      6531     13910     13983
 -2     13984     13275     13207     13915     13989     13281     13917     13990     13991     13282
 -1      1726    4    0    1
 -2      6521      6611      6621      6531      6522      6612      6622      6532     13917     13990
 -2     13991     13282     13214     13922     13996     13288     13924     13997     13998     13289
 -1      1727    4    0    1
 -2      6522      6612      6622      6532      4861      4870      4871      4862     13924     13997
 -2     13998     13289     13221     13929     14003     13295      5282      5284      5285      5255
 -1      1728    4    0    1
 -2       465       474       475       466      6523      6613      6623      6533       888       890
 -2       891       861     13225     13933     14007     13299     13935     14008     14009     13300
 -1      1729    4    0    1
 -2      6523      6613      6623      6533      6524      6614      6624      6534     13935     14008
 -2     14009     13300     13232     13940     14014     13306     13942     14015     14016     13307
 -1      1730    4    0    1
 -2      6524      6614      6624      6534      6525      6615      6625      6535     13942     14015
 -2     14016     13307     13239     13947     14021     13313     13949     14022     14023     13314
 -1      1731    4    0    1
 -2      6525      6615      6625      6535      6526      6616      6626      6536     13949     14022
 -2     14023     13314     13246     13954     14028     13320     13956     14029     14030     13321
 -1      1732    4    0    1
 -2      6526      6616      6626      6536      6527      6617      6627      6537     13956     14029
 -2     14030     13321     13253     13961     14035     13327     13963     14036     14037     13328
 -1      1733    4    0    1
 -2      6527      6617      6627      6537      6528      6618      6628      6538     13963     14036
 -2     14037     13328     13260     13968     14042     13334     13970     14043     14044     13335
 -1      1734    4    0    1
 -2      6528      6618      6628      6538      6529      6619      6629      6539     13970     14043
 -2     14044     13335     13267     13975     14049     13341     13977     14050     14051     13342
 -1      1735    4    0    1
 -2      6529      6619      6629      6539      6530      6620      6630      6540     13977     14050
 -2     14051     13342     13274     13982     14056     13348     13984     14057     14058     13349
 -1      1736    4    0    1
 -2      6530      6620      6630      6540      6531      6621      6631      6541     13984     14057
 -2     14058     13349     13281     13989     14063     13355     13991     14064     14065     13356
 -1      1737    4    0    1
 -2      6531      6621      6631      6541      6532      6622      6632      6542     13991     14064
 -2     14065     13356     13288     13996     14070     13362     13998     14071     14072     13363
 -1      1738    4    0    1
 -2      6532      6622      6632      6542      4862      4871      4872      4863     13998     14071
 -2     14072     13363     13295     14003     14077     13369      5285      5287      5288      5258
 -1      1739    4    0    1
 -2       466       475       476       467      6533      6623      6633      6543       891       893
 -2       894       864     13299     14007     14081     13373     14009     14082     14083     13374
 -1      1740    4    0    1
 -2      6533      6623      6633      6543      6534      6624      6634      6544     14009     14082
 -2     14083     13374     13306     14014     14088     13380     14016     14089     14090     13381
 -1      1741    4    0    1
 -2      6534      6624      6634      6544      6535      6625      6635      6545     14016     14089
 -2     14090     13381     13313     14021     14095     13387     14023     14096     14097     13388
 -1      1742    4    0    1
 -2      6535      6625      6635      6545      6536      6626      6636      6546     14023     14096
 -2     14097     13388     13320     14028     14102     13394     14030     14103     14104     13395
 -1      1743    4    0    1
 -2      6536      6626      6636      6546      6537      6627      6637      6547     14030     14103
 -2     14104     13395     13327     14035     14109     13401     14037     14110     14111     13402
 -1      1744    4    0    1
 -2      6537      6627      6637      6547      6538      6628      6638      6548     14037     14110
 -2     14111     13402     13334     14042     14116     13408     14044     14117     14118     13409
 -1      1745    4    0    1
 -2      6538      6628      6638      6548      6539      6629      6639      6549     14044     14117
 -2     14118     13409     13341     14049     14123     13415     14051     14124     14125     13416
 -1      1746    4    0    1
 -2      6539      6629      6639      6549      6540      6630      6640      6550     14051     14124
 -2     14125     13416     13348     14056     14130     13422     14058     14131     14132     13423
 -1      1747    4    0    1
 -2      6540      6630      6640      6550      6541      6631      6641      6551     14058     14131
 -2     14132     13423     13355     14063     14137     13429     14065     14138     14139     13430
 -1      1748    4    0    1
 -2      6541      6631      6641      6551      6542      6632      6642      6552     14065     14138
 -2     14139     13430     13362     14070     14144     13436     14072     14145     14146     13437
 -1      1749    4    0    1
 -2      6542      6632      6642      6552      4863      4872      4873      4864     14072     14145
 -2     14146     13437     13369     14077     14151     13443      5288      5290      5291      5261
 -1      1750    4    0    1
 -2       467       476       108       109      6543      6633      3374      3384       894       896
 -2       138       867     13373     14081      4126      4158     14083     14155      4159     13447
 -1      1751    4    0    1
 -2      6543      6633      3374      3384      6544      6634      3375      3385     14083     14155
 -2      4159     13447     13380     14088      4129      4161     14090     14159      4162     13451
 -1      1752    4    0    1
 -2      6544      6634      3375      3385      6545      6635      3376      3386     14090     14159
 -2      4162     13451     13387     14095      4132      4164     14097     14163      4165     13455
 -1      1753    4    0    1
 -2      6545      6635      3376      3386      6546      6636      3377      3387     14097     14163
 -2      4165     13455     13394     14102      4135      4167     14104     14167      4168     13459
 -1      1754    4    0    1
 -2      6546      6636      3377      3387      6547      6637      3378      3388     14104     14167
 -2      4168     13459     13401     14109      4138      4170     14111     14171      4171     13463
 -1      1755    4    0    1
 -2      6547      6637      3378      3388      6548      6638      3379      3389     14111     14171
 -2      4171     13463     13408     14116      4141      4173     14118     14175      4174     13467
 -1      1756    4    0    1
 -2      6548      6638      3379      3389      6549      6639      3380      3390     14118     14175
 -2      4174     13467     13415     14123      4144      4176     14125     14179      4177     13471
 -1      1757    4    0    1
 -2      6549      6639      3380      3390      6550      6640      3381      3391     14125     14179
 -2      4177     13471     13422     14130      4147      4179     14132     14183      4180     13475
 -1      1758    4    0    1
 -2      6550      6640      3381      3391      6551      6641      3382      3392     14132     14183
 -2      4180     13475     13429     14137      4150      4182     14139     14187      4183     13479
 -1      1759    4    0    1
 -2      6551      6641      3382      3392      6552      6642      3383      3393     14139     14187
 -2      4183     13479     13436     14144      4153      4185     14146     14191      4186     13483
 -1      1760    4    0    1
 -2      6552      6642      3383      3393      4864      4873       264       265     14146     14191
 -2      4186     13483     13443     14151      4156      4188      5291      5293       294      5264
 -1      1761    4    0    1
 -2        16        17       477       468      1596      1606      6643      6553        46       898
 -2       899       869      2040      2072     14197     13489      2073     14198     14199     13490
 -1      1762    4    0    1
 -2      1596      1606      6643      6553      1597      1607      6644      6554      2073     14198
 -2     14199     13490      2043      2075     14204     13496      2076     14205     14206     13497
 -1      1763    4    0    1
 -2      1597      1607      6644      6554      1598      1608      6645      6555      2076     14205
 -2     14206     13497      2046      2078     14211     13503      2079     14212     14213     13504
 -1      1764    4    0    1
 -2      1598      1608      6645      6555      1599      1609      6646      6556      2079     14212
 -2     14213     13504      2049      2081     14218     13510      2082     14219     14220     13511
 -1      1765    4    0    1
 -2      1599      1609      6646      6556      1600      1610      6647      6557      2082     14219
 -2     14220     13511      2052      2084     14225     13517      2085     14226     14227     13518
 -1      1766    4    0    1
 -2      1600      1610      6647      6557      1601      1611      6648      6558      2085     14226
 -2     14227     13518      2055      2087     14232     13524      2088     14233     14234     13525
 -1      1767    4    0    1
 -2      1601      1611      6648      6558      1602      1612      6649      6559      2088     14233
 -2     14234     13525      2058      2090     14239     13531      2091     14240     14241     13532
 -1      1768    4    0    1
 -2      1602      1612      6649      6559      1603      1613      6650      6560      2091     14240
 -2     14241     13532      2061      2093     14246     13538      2094     14247     14248     13539
 -1      1769    4    0    1
 -2      1603      1613      6650      6560      1604      1614      6651      6561      2094     14247
 -2     14248     13539      2064      2096     14253     13545      2097     14254     14255     13546
 -1      1770    4    0    1
 -2      1604      1614      6651      6561      1605      1615      6652      6562      2097     14254
 -2     14255     13546      2067      2099     14260     13552      2100     14261     14262     13553
 -1      1771    4    0    1
 -2      1605      1615      6652      6562       172       173      4874      4865      2100     14261
 -2     14262     13553      2070      2102     14267     13559       202      5295      5296      5266
 -1      1772    4    0    1
 -2       468       477       478       469      6553      6643      6653      6563       899       901
 -2       902       872     13489     14197     14271     13563     14199     14272     14273     13564
 -1      1773    4    0    1
 -2      6553      6643      6653      6563      6554      6644      6654      6564     14199     14272
 -2     14273     13564     13496     14204     14278     13570     14206     14279     14280     13571
 -1      1774    4    0    1
 -2      6554      6644      6654      6564      6555      6645      6655      6565     14206     14279
 -2     14280     13571     13503     14211     14285     13577     14213     14286     14287     13578
 -1      1775    4    0    1
 -2      6555      6645      6655      6565      6556      6646      6656      6566     14213     14286
 -2     14287     13578     13510     14218     14292     13584     14220     14293     14294     13585
 -1      1776    4    0    1
 -2      6556      6646      6656      6566      6557      6647      6657      6567     14220     14293
 -2     14294     13585     13517     14225     14299     13591     14227     14300     14301     13592
 -1      1777    4    0    1
 -2      6557      6647      6657      6567      6558      6648      6658      6568     14227     14300
 -2     14301     13592     13524     14232     14306     13598     14234     14307     14308     13599
 -1      1778    4    0    1
 -2      6558      6648      6658      6568      6559      6649      6659      6569     14234     14307
 -2     14308     13599     13531     14239     14313     13605     14241     14314     14315     13606
 -1      1779    4    0    1
 -2      6559      6649      6659      6569      6560      6650      6660      6570     14241     14314
 -2     14315     13606     13538     14246     14320     13612     14248     14321     14322     13613
 -1      1780    4    0    1
 -2      6560      6650      6660      6570      6561      6651      6661      6571     14248     14321
 -2     14322     13613     13545     14253     14327     13619     14255     14328     14329     13620
 -1      1781    4    0    1
 -2      6561      6651      6661      6571      6562      6652      6662      6572     14255     14328
 -2     14329     13620     13552     14260     14334     13626     14262     14335     14336     13627
 -1      1782    4    0    1
 -2      6562      6652      6662      6572      4865      4874      4875      4866     14262     14335
 -2     14336     13627     13559     14267     14341     13633      5296      5298      5299      5269
 -1      1783    4    0    1
 -2       469       478       479       470      6563      6653      6663      6573       902       904
 -2       905       875     13563     14271     14345     13637     14273     14346     14347     13638
 -1      1784    4    0    1
 -2      6563      6653      6663      6573      6564      6654      6664      6574     14273     14346
 -2     14347     13638     13570     14278     14352     13644     14280     14353     14354     13645
 -1      1785    4    0    1
 -2      6564      6654      6664      6574      6565      6655      6665      6575     14280     14353
 -2     14354     13645     13577     14285     14359     13651     14287     14360     14361     13652
 -1      1786    4    0    1
 -2      6565      6655      6665      6575      6566      6656      6666      6576     14287     14360
 -2     14361     13652     13584     14292     14366     13658     14294     14367     14368     13659
 -1      1787    4    0    1
 -2      6566      6656      6666      6576      6567      6657      6667      6577     14294     14367
 -2     14368     13659     13591     14299     14373     13665     14301     14374     14375     13666
 -1      1788    4    0    1
 -2      6567      6657      6667      6577      6568      6658      6668      6578     14301     14374
 -2     14375     13666     13598     14306     14380     13672     14308     14381     14382     13673
 -1      1789    4    0    1
 -2      6568      6658      6668      6578      6569      6659      6669      6579     14308     14381
 -2     14382     13673     13605     14313     14387     13679     14315     14388     14389     13680
 -1      1790    4    0    1
 -2      6569      6659      6669      6579      6570      6660      6670      6580     14315     14388
 -2     14389     13680     13612     14320     14394     13686     14322     14395     14396     13687
 -1      1791    4    0    1
 -2      6570      6660      6670      6580      6571      6661      6671      6581     14322     14395
 -2     14396     13687     13619     14327     14401     13693     14329     14402     14403     13694
 -1      1792    4    0    1
 -2      6571      6661      6671      6581      6572      6662      6672      6582     14329     14402
 -2     14403     13694     13626     14334     14408     13700     14336     14409     14410     13701
 -1      1793    4    0    1
 -2      6572      6662      6672      6582      4866      4875      4876      4867     14336     14409
 -2     14410     13701     13633     14341     14415     13707      5299      5301      5302      5272
 -1      1794    4    0    1
 -2       470       479       480       471      6573      6663      6673      6583       905       907
 -2       908       878     13637     14345     14419     13711     14347     14420     14421     13712
 -1      1795    4    0    1
 -2      6573      6663      6673      6583      6574      6664      6674      6584     14347     14420
 -2     14421     13712     13644     14352     14426     13718     14354     14427     14428     13719
 -1      1796    4    0    1
 -2      6574      6664      6674      6584      6575      6665      6675      6585     14354     14427
 -2     14428     13719     13651     14359     14433     13725     14361     14434     14435     13726
 -1      1797    4    0    1
 -2      6575      6665      6675      6585      6576      6666      6676      6586     14361     14434
 -2     14435     13726     13658     14366     14440     13732     14368     14441     14442     13733
 -1      1798    4    0    1
 -2      6576      6666      6676      6586      6577      6667      6677      6587     14368     14441
 -2     14442     13733     13665     14373     14447     13739     14375     14448     14449     13740
 -1      1799    4    0    1
 -2      6577      6667      6677      6587      6578      6668      6678      6588     14375     14448
 -2     14449     13740     13672     14380     14454     13746     14382     14455     14456     13747
 -1      1800    4    0    1
 -2      6578      6668      6678      6588      6579      6669      6679      6589     14382     14455
 -2     14456     13747     13679     14387     14461     13753     14389     14462     14463     13754
 -1      1801    4    0    1
 -2      6579      6669      6679      6589      6580      6670      6680      6590     14389     14462
 -2     14463     13754     13686     14394     14468     13760     14396     14469     14470     13761
 -1      1802    4    0    1
 -2      6580      6670      6680      6590      6581      6671      6681      6591     14396     14469
 -2     14470     13761     13693     14401     14475     13767     14403     14476     14477     13768
 -1      1803    4    0    1
 -2      6581      6671      6681      6591      6582      6672      6682      6592     14403     14476
 -2     14477     13768     13700     14408     14482     13774     14410     14483     14484     13775
 -1      1804    4    0    1
 -2      6582      6672      6682      6592      4867      4876      4877      4868     14410     14483
 -2     14484     13775     13707     14415     14489     13781      5302      5304      5305      5275
 -1      1805    4    0    1
 -2       471       480       481       472      6583      6673      6683      6593       908       910
 -2       911       881     13711     14419     14493     13785     14421     14494     14495     13786
 -1      1806    4    0    1
 -2      6583      6673      6683      6593      6584      6674      6684      6594     14421     14494
 -2     14495     13786     13718     14426     14500     13792     14428     14501     14502     13793
 -1      1807    4    0    1
 -2      6584      6674      6684      6594      6585      6675      6685      6595     14428     14501
 -2     14502     13793     13725     14433     14507     13799     14435     14508     14509     13800
 -1      1808    4    0    1
 -2      6585      6675      6685      6595      6586      6676      6686      6596     14435     14508
 -2     14509     13800     13732     14440     14514     13806     14442     14515     14516     13807
 -1      1809    4    0    1
 -2      6586      6676      6686      6596      6587      6677      6687      6597     14442     14515
 -2     14516     13807     13739     14447     14521     13813     14449     14522     14523     13814
 -1      1810    4    0    1
 -2      6587      6677      6687      6597      6588      6678      6688      6598     14449     14522
 -2     14523     13814     13746     14454     14528     13820     14456     14529     14530     13821
 -1      1811    4    0    1
 -2      6588      6678      6688      6598      6589      6679      6689      6599     14456     14529
 -2     14530     13821     13753     14461     14535     13827     14463     14536     14537     13828
 -1      1812    4    0    1
 -2      6589      6679      6689      6599      6590      6680      6690      6600     14463     14536
 -2     14537     13828     13760     14468     14542     13834     14470     14543     14544     13835
 -1      1813    4    0    1
 -2      6590      6680      6690      6600      6591      6681      6691      6601     14470     14543
 -2     14544     13835     13767     14475     14549     13841     14477     14550     14551     13842
 -1      1814    4    0    1
 -2      6591      6681      6691      6601      6592      6682      6692      6602     14477     14550
 -2     14551     13842     13774     14482     14556     13848     14484     14557     14558     13849
 -1      1815    4    0    1
 -2      6592      6682      6692      6602      4868      4877      4878      4869     14484     14557
 -2     14558     13849     13781     14489     14563     13855      5305      5307      5308      5278
 -1      1816    4    0    1
 -2       472       481       482       473      6593      6683      6693      6603       911       913
 -2       914       884     13785     14493     14567     13859     14495     14568     14569     13860
 -1      1817    4    0    1
 -2      6593      6683      6693      6603      6594      6684      6694      6604     14495     14568
 -2     14569     13860     13792     14500     14574     13866     14502     14575     14576     13867
 -1      1818    4    0    1
 -2      6594      6684      6694      6604      6595      6685      6695      6605     14502     14575
 -2     14576     13867     13799     14507     14581     13873     14509     14582     14583     13874
 -1      1819    4    0    1
 -2      6595      6685      6695      6605      6596      6686      6696      6606     14509     14582
 -2     14583     13874     13806     14514     14588     13880     14516     14589     14590     13881
 -1      1820    4    0    1
 -2      6596      6686      6696      6606      6597      6687      6697      6607     14516     14589
 -2     14590     13881     13813     14521     14595     13887     14523     14596     14597     13888
 -1      1821    4    0    1
 -2      6597      6687      6697      6607      6598      6688      6698      6608     14523     14596
 -2     14597     13888     13820     14528     14602     13894     14530     14603     14604     13895
 -1      1822    4    0    1
 -2      6598      6688      6698      6608      6599      6689      6699      6609     14530     14603
 -2     14604     13895     13827     14535     14609     13901     14537     14610     14611     13902
 -1      1823    4    0    1
 -2      6599      6689      6699      6609      6600      6690      6700      6610     14537     14610
 -2     14611     13902     13834     14542     14616     13908     14544     14617     14618     13909
 -1      1824    4    0    1
 -2      6600      6690      6700      6610      6601      6691      6701      6611     14544     14617
 -2     14618     13909     13841     14549     14623     13915     14551     14624     14625     13916
 -1      1825    4    0    1
 -2      6601      6691      6701      6611      6602      6692      6702      6612     14551     14624
 -2     14625     13916     13848     14556     14630     13922     14558     14631     14632     13923
 -1      1826    4    0    1
 -2      6602      6692      6702      6612      4869      4878      4879      4870     14558     14631
 -2     14632     13923     13855     14563     14637     13929      5308      5310      5311      5281
 -1      1827    4    0    1
 -2       473       482       483       474      6603      6693      6703      6613       914       916
 -2       917       887     13859     14567     14641     13933     14569     14642     14643     13934
 -1      1828    4    0    1
 -2      6603      6693      6703      6613      6604      6694      6704      6614     14569     14642
 -2     14643     13934     13866     14574     14648     13940     14576     14649     14650     13941
 -1      1829    4    0    1
 -2      6604      6694      6704      6614      6605      6695      6705      6615     14576     14649
 -2     14650     13941     13873     14581     14655     13947     14583     14656     14657     13948
 -1      1830    4    0    1
 -2      6605      6695      6705      6615      6606      6696      6706      6616     14583     14656
 -2     14657     13948     13880     14588     14662     13954     14590     14663     14664     13955
 -1      1831    4    0    1
 -2      6606      6696      6706      6616      6607      6697      6707      6617     14590     14663
 -2     14664     13955     13887     14595     14669     13961     14597     14670     14671     13962
 -1      1832    4    0    1
 -2      6607      6697      6707      6617      6608      6698      6708      6618     14597     14670
 -2     14671     13962     13894     14602     14676     13968     14604     14677     14678     13969
 -1      1833    4    0    1
 -2      6608      6698      6708      6618      6609      6699      6709      6619     14604     14677
 -2     14678     13969     13901     14609     14683     13975     14611     14684     14685     13976
 -1      1834    4    0    1
 -2      6609      6699      6709      6619      6610      6700      6710      6620     14611     14684
 -2     14685     13976     13908     14616     14690     13982     14618     14691     14692     13983
 -1      1835    4    0    1
 -2      6610      6700      6710      6620      6611      6701      6711      6621     14618     14691
 -2     14692     13983     13915     14623     14697     13989     14625     14698     14699     13990
 -1      1836    4    0    1
 -2      6611      6701      6711      6621      6612      6702      6712      6622     14625     14698
 -2     14699     13990     13922     14630     14704     13996     14632     14705     14706     13997
 -1      1837    4    0    1
 -2      6612      6702      6712      6622      4870      4879      4880      4871     14632     14705
 -2     14706     13997     13929     14637     14711     14003      5311      5313      5314      5284
 -1      1838    4    0    1
 -2       474       483       484       475      6613      6703      6713      6623       917       919
 -2       920       890     13933     14641     14715     14007     14643     14716     14717     14008
 -1      1839    4    0    1
 -2      6613      6703      6713      6623      6614      6704      6714      6624     14643     14716
 -2     14717     14008     13940     14648     14722     14014     14650     14723     14724     14015
 -1      1840    4    0    1
 -2      6614      6704      6714      6624      6615      6705      6715      6625     14650     14723
 -2     14724     14015     13947     14655     14729     14021     14657     14730     14731     14022
 -1      1841    4    0    1
 -2      6615      6705      6715      6625      6616      6706      6716      6626     14657     14730
 -2     14731     14022     13954     14662     14736     14028     14664     14737     14738     14029
 -1      1842    4    0    1
 -2      6616      6706      6716      6626      6617      6707      6717      6627     14664     14737
 -2     14738     14029     13961     14669     14743     14035     14671     14744     14745     14036
 -1      1843    4    0    1
 -2      6617      6707      6717      6627      6618      6708      6718      6628     14671     14744
 -2     14745     14036     13968     14676     14750     14042     14678     14751     14752     14043
 -1      1844    4    0    1
 -2      6618      6708      6718      6628      6619      6709      6719      6629     14678     14751
 -2     14752     14043     13975     14683     14757     14049     14685     14758     14759     14050
 -1      1845    4    0    1
 -2      6619      6709      6719      6629      6620      6710      6720      6630     14685     14758
 -2     14759     14050     13982     14690     14764     14056     14692     14765     14766     14057
 -1      1846    4    0    1
 -2      6620      6710      6720      6630      6621      6711      6721      6631     14692     14765
 -2     14766     14057     13989     14697     14771     14063     14699     14772     14773     14064
 -1      1847    4    0    1
 -2      6621      6711      6721      6631      6622      6712      6722      6632     14699     14772
 -2     14773     14064     13996     14704     14778     14070     14706     14779     14780     14071
 -1      1848    4    0    1
 -2      6622      6712      6722      6632      4871      4880      4881      4872     14706     14779
 -2     14780     14071     14003     14711     14785     14077      5314      5316      5317      5287
 -1      1849    4    0    1
 -2       475       484       485       476      6623      6713      6723      6633       920       922
 -2       923       893     14007     14715     14789     14081     14717     14790     14791     14082
 -1      1850    4    0    1
 -2      6623      6713      6723      6633      6624      6714      6724      6634     14717     14790
 -2     14791     14082     14014     14722     14796     14088     14724     14797     14798     14089
 -1      1851    4    0    1
 -2      6624      6714      6724      6634      6625      6715      6725      6635     14724     14797
 -2     14798     14089     14021     14729     14803     14095     14731     14804     14805     14096
 -1      1852    4    0    1
 -2      6625      6715      6725      6635      6626      6716      6726      6636     14731     14804
 -2     14805     14096     14028     14736     14810     14102     14738     14811     14812     14103
 -1      1853    4    0    1
 -2      6626      6716      6726      6636      6627      6717      6727      6637     14738     14811
 -2     14812     14103     14035     14743     14817     14109     14745     14818     14819     14110
 -1      1854    4    0    1
 -2      6627      6717      6727      6637      6628      6718      6728      6638     14745     14818
 -2     14819     14110     14042     14750     14824     14116     14752     14825     14826     14117
 -1      1855    4    0    1
 -2      6628      6718      6728      6638      6629      6719      6729      6639     14752     14825
 -2     14826     14117     14049     14757     14831     14123     14759     14832     14833     14124
 -1      1856    4    0    1
 -2      6629      6719      6729      6639      6630      6720      6730      6640     14759     14832
 -2     14833     14124     14056     14764     14838     14130     14766     14839     14840     14131
 -1      1857    4    0    1
 -2      6630      6720      6730      6640      6631      6721      6731      6641     14766     14839
 -2     14840     14131     14063     14771     14845     14137     14773     14846     14847     14138
 -1      1858    4    0    1
 -2      6631      6721      6731      6641      6632      6722      6732      6642     14773     14846
 -2     14847     14138     14070     14778     14852     14144     14780     14853     14854     14145
 -1      1859    4    0    1
 -2      6632      6722      6732      6642      4872      4881      4882      4873     14780     14853
 -2     14854     14145     14077     14785     14859     14151      5317      5319      5320      5290
 -1      1860    4    0    1
 -2       476       485       107       108      6633      6723      3364      3374       923       925
 -2       137       896     14081     14789      4094      4126     14791     14863      4127     14155
 -1      1861    4    0    1
 -2      6633      6723      3364      3374      6634      6724      3365      3375     14791     14863
 -2      4127     14155     14088     14796      4097      4129     14798     14867      4130     14159
 -1      1862    4    0    1
 -2      6634      6724      3365      3375      6635      6725      3366      3376     14798     14867
 -2      4130     14159     14095     14803      4100      4132     14805     14871      4133     14163
 -1      1863    4    0    1
 -2      6635      6725      3366      3376      6636      6726      3367      3377     14805     14871
 -2      4133     14163     14102     14810      4103      4135     14812     14875      4136     14167
 -1      1864    4    0    1
 -2      6636      6726      3367      3377      6637      6727      3368      3378     14812     14875
 -2      4136     14167     14109     14817      4106      4138     14819     14879      4139     14171
 -1      1865    4    0    1
 -2      6637      6727      3368      3378      6638      6728      3369      3379     14819     14879
 -2      4139     14171     14116     14824      4109      4141     14826     14883      4142     14175
 -1      1866    4    0    1
 -2      6638      6728      3369      3379      6639      6729      3370      3380     14826     14883
 -2      4142     14175     14123     14831      4112      4144     14833     14887      4145     14179
 -1      1867    4    0    1
 -2      6639      6729      3370      3380      6640      6730      3371      3381     14833     14887
 -2      4145     14179     14130     14838      4115      4147     14840     14891      4148     14183
 -1      1868    4    0    1
 -2      6640      6730      3371      3381      6641      6731      3372      3382     14840     14891
 -2      4148     14183     14137     14845      4118      4150     14847     14895      4151     14187
 -1      1869    4    0    1
 -2      6641      6731      3372      3382      6642      6732      3373      3383     14847     14895
 -2      4151     14187     14144     14852      4121      4153     14854     14899      4154     14191
 -1      1870    4    0    1
 -2      6642      6732      3373      3383      4873      4882       263       264     14854     14899
 -2      4154     14191     14151     14859      4124      4156      5320      5322       293      5293
 -1      1871    4    0    1
 -2        17        18       486       477      1606      1616      6733      6643        47       927
 -2       928       898      2072      2104     14905     14197      2105     14906     14907     14198
 -1      1872    4    0    1
 -2      1606      1616      6733      6643      1607      1617      6734      6644      2105     14906
 -2     14907     14198      2075      2107     14912     14204      2108     14913     14914     14205
 -1      1873    4    0    1
 -2      1607      1617      6734      6644      1608      1618      6735      6645      2108     14913
 -2     14914     14205      2078      2110     14919     14211      2111     14920     14921     14212
 -1      1874    4    0    1
 -2      1608      1618      6735      6645      1609      1619      6736      6646      2111     14920
 -2     14921     14212      2081      2113     14926     14218      2114     14927     14928     14219
 -1      1875    4    0    1
 -2      1609      1619      6736      6646      1610      1620      6737      6647      2114     14927
 -2     14928     14219      2084      2116     14933     14225      2117     14934     14935     14226
 -1      1876    4    0    1
 -2      1610      1620      6737      6647      1611      1621      6738      6648      2117     14934
 -2     14935     14226      2087      2119     14940     14232      2120     14941     14942     14233
 -1      1877    4    0    1
 -2      1611      1621      6738      6648      1612      1622      6739      6649      2120     14941
 -2     14942     14233      2090      2122     14947     14239      2123     14948     14949     14240
 -1      1878    4    0    1
 -2      1612      1622      6739      6649      1613      1623      6740      6650      2123     14948
 -2     14949     14240      2093      2125     14954     14246      2126     14955     14956     14247
 -1      1879    4    0    1
 -2      1613      1623      6740      6650      1614      1624      6741      6651      2126     14955
 -2     14956     14247      2096      2128     14961     14253      2129     14962     14963     14254
 -1      1880    4    0    1
 -2      1614      1624      6741      6651      1615      1625      6742      6652      2129     14962
 -2     14963     14254      2099      2131     14968     14260      2132     14969     14970     14261
 -1      1881    4    0    1
 -2      1615      1625      6742      6652       173       174      4883      4874      2132     14969
 -2     14970     14261      2102      2134     14975     14267       203      5324      5325      5295
 -1      1882    4    0    1
 -2       477       486       487       478      6643      6733      6743      6653       928       930
 -2       931       901     14197     14905     14979     14271     14907     14980     14981     14272
 -1      1883    4    0    1
 -2      6643      6733      6743      6653      6644      6734      6744      6654     14907     14980
 -2     14981     14272     14204     14912     14986     14278     14914     14987     14988     14279
 -1      1884    4    0    1
 -2      6644      6734      6744      6654      6645      6735      6745      6655     14914     14987
 -2     14988     14279     14211     14919     14993     14285     14921     14994     14995     14286
 -1      1885    4    0    1
 -2      6645      6735      6745      6655      6646      6736      6746      6656     14921     14994
 -2     14995     14286     14218     14926     15000     14292     14928     15001     15002     14293
 -1      1886    4    0    1
 -2      6646      6736      6746      6656      6647      6737      6747      6657     14928     15001
 -2     15002     14293     14225     14933     15007     14299     14935     15008     15009     14300
 -1      1887    4    0    1
 -2      6647      6737      6747      6657      6648      6738      6748      6658     14935     15008
 -2     15009     14300     14232     14940     15014     14306     14942     15015     15016     14307
 -1      1888    4    0    1
 -2      6648      6738      6748      6658      6649      6739      6749      6659     14942     15015
 -2     15016     14307     14239     14947     15021     14313     14949     15022     15023     14314
 -1      1889    4    0    1
 -2      6649      6739      6749      6659      6650      6740      6750      6660     14949     15022
 -2     15023     14314     14246     14954     15028     14320     14956     15029     15030     14321
 -1      1890    4    0    1
 -2      6650      6740      6750      6660      6651      6741      6751      6661     14956     15029
 -2     15030     14321     14253     14961     15035     14327     14963     15036     15037     14328
 -1      1891    4    0    1
 -2      6651      6741      6751      6661      6652      6742      6752      6662     14963     15036
 -2     15037     14328     14260     14968     15042     14334     14970     15043     15044     14335
 -1      1892    4    0    1
 -2      6652      6742      6752      6662      4874      4883      4884      4875     14970     15043
 -2     15044     14335     14267     14975     15049     14341      5325      5327      5328      5298
 -1      1893    4    0    1
 -2       478       487       488       479      6653      6743      6753      6663       931       933
 -2       934       904     14271     14979     15053     14345     14981     15054     15055     14346
 -1      1894    4    0    1
 -2      6653      6743      6753      6663      6654      6744      6754      6664     14981     15054
 -2     15055     14346     14278     14986     15060     14352     14988     15061     15062     14353
 -1      1895    4    0    1
 -2      6654      6744      6754      6664      6655      6745      6755      6665     14988     15061
 -2     15062     14353     14285     14993     15067     14359     14995     15068     15069     14360
 -1      1896    4    0    1
 -2      6655      6745      6755      6665      6656      6746      6756      6666     14995     15068
 -2     15069     14360     14292     15000     15074     14366     15002     15075     15076     14367
 -1      1897    4    0    1
 -2      6656      6746      6756      6666      6657      6747      6757      6667     15002     15075
 -2     15076     14367     14299     15007     15081     14373     15009     15082     15083     14374
 -1      1898    4    0    1
 -2      6657      6747      6757      6667      6658      6748      6758      6668     15009     15082
 -2     15083     14374     14306     15014     15088     14380     15016     15089     15090     14381
 -1      1899    4    0    1
 -2      6658      6748      6758      6668      6659      6749      6759      6669     15016     15089
 -2     15090     14381     14313     15021     15095     14387     15023     15096     15097     14388
 -1      1900    4    0    1
 -2      6659      6749      6759      6669      6660      6750      6760      6670     15023     15096
 -2     15097     14388     14320     15028     15102     14394     15030     15103     15104     14395
 -1      1901    4    0    1
 -2      6660      6750      6760      6670      6661      6751      6761      6671     15030     15103
 -2     15104     14395     14327     15035     15109     14401     15037     15110     15111     14402
 -1      1902    4    0    1
 -2      6661      6751      6761      6671      6662      6752      6762      6672     15037     15110
 -2     15111     14402     14334     15042     15116     14408     15044     15117     15118     14409
 -1      1903    4    0    1
 -2      6662      6752      6762      6672      4875      4884      4885      4876     15044     15117
 -2     15118     14409     14341     15049     15123     14415      5328      5330      5331      5301
 -1      1904    4    0    1
 -2       479       488       489       480      6663      6753      6763      6673       934       936
 -2       937       907     14345     15053     15127     14419     15055     15128     15129     14420
 -1      1905    4    0    1
 -2      6663      6753      6763      6673      6664      6754      6764      6674     15055     15128
 -2     15129     14420     14352     15060     15134     14426     15062     15135     15136     14427
 -1      1906    4    0    1
 -2      6664      6754      6764      6674      6665      6755      6765      6675     15062     15135
 -2     15136     14427     14359     15067     15141     14433     15069     15142     15143     14434
 -1      1907    4    0    1
 -2      6665      6755      6765      6675      6666      6756      6766      6676     15069     15142
 -2     15143     14434     14366     15074     15148     14440     15076     15149     15150     14441
 -1      1908    4    0    1
 -2      6666      6756      6766      6676      6667      6757      6767      6677     15076     15149
 -2     15150     14441     14373     15081     15155     14447     15083     15156     15157     14448
 -1      1909    4    0    1
 -2      6667      6757      6767      6677      6668      6758      6768      6678     15083     15156
 -2     15157     14448     14380     15088     15162     14454     15090     15163     15164     14455
 -1      1910    4    0    1
 -2      6668      6758      6768      6678      6669      6759      6769      6679     15090     15163
 -2     15164     14455     14387     15095     15169     14461     15097     15170     15171     14462
 -1      1911    4    0    1
 -2      6669      6759      6769      6679      6670      6760      6770      6680     15097     15170
 -2     15171     14462     14394     15102     15176     14468     15104     15177     15178     14469
 -1      1912    4    0    1
 -2      6670      6760      6770      6680      6671      6761      6771      6681     15104     15177
 -2     15178     14469     14401     15109     15183     14475     15111     15184     15185     14476
 -1      1913    4    0    1
 -2      6671      6761      6771      6681      6672      6762      6772      6682     15111     15184
 -2     15185     14476     14408     15116     15190     14482     15118     15191     15192     14483
 -1      1914    4    0    1
 -2      6672      6762      6772      6682      4876      4885      4886      4877     15118     15191
 -2     15192     14483     14415     15123     15197     14489      5331      5333      5334      5304
 -1      1915    4    0    1
 -2       480       489       490       481      6673      6763      6773      6683       937       939
 -2       940       910     14419     15127     15201     14493     15129     15202     15203     14494
 -1      1916    4    0    1
 -2      6673      6763      6773      6683      6674      6764      6774      6684     15129     15202
 -2     15203     14494     14426     15134     15208     14500     15136     15209     15210     14501
 -1      1917    4    0    1
 -2      6674      6764      6774      6684      6675      6765      6775      6685     15136     15209
 -2     15210     14501     14433     15141     15215     14507     15143     15216     15217     14508
 -1      1918    4    0    1
 -2      6675      6765      6775      6685      6676      6766      6776      6686     15143     15216
 -2     15217     14508     14440     15148     15222     14514     15150     15223     15224     14515
 -1      1919    4    0    1
 -2      6676      6766      6776      6686      6677      6767      6777      6687     15150     15223
 -2     15224     14515     14447     15155     15229     14521     15157     15230     15231     14522
 -1      1920    4    0    1
 -2      6677      6767      6777      6687      6678      6768      6778      6688     15157     15230
 -2     15231     14522     14454     15162     15236     14528     15164     15237     15238     14529
 -1      1921    4    0    1
 -2      6678      6768      6778      6688      6679      6769      6779      6689     15164     15237
 -2     15238     14529     14461     15169     15243     14535     15171     15244     15245     14536
 -1      1922    4    0    1
 -2      6679      6769      6779      6689      6680      6770      6780      6690     15171     15244
 -2     15245     14536     14468     15176     15250     14542     15178     15251     15252     14543
 -1      1923    4    0    1
 -2      6680      6770      6780      6690      6681      6771      6781      6691     15178     15251
 -2     15252     14543     14475     15183     15257     14549     15185     15258     15259     14550
 -1      1924    4    0    1
 -2      6681      6771      6781      6691      6682      6772      6782      6692     15185     15258
 -2     15259     14550     14482     15190     15264     14556     15192     15265     15266     14557
 -1      1925    4    0    1
 -2      6682      6772      6782      6692      4877      4886      4887      4878     15192     15265
 -2     15266     14557     14489     15197     15271     14563      5334      5336      5337      5307
 -1      1926    4    0    1
 -2       481       490       491       482      6683      6773      6783      6693       940       942
 -2       943       913     14493     15201     15275     14567     15203     15276     15277     14568
 -1      1927    4    0    1
 -2      6683      6773      6783      6693      6684      6774      6784      6694     15203     15276
 -2     15277     14568     14500     15208     15282     14574     15210     15283     15284     14575
 -1      1928    4    0    1
 -2      6684      6774      6784      6694      6685      6775      6785      6695     15210     15283
 -2     15284     14575     14507     15215     15289     14581     15217     15290     15291     14582
 -1      1929    4    0    1
 -2      6685      6775      6785      6695      6686      6776      6786      6696     15217     15290
 -2     15291     14582     14514     15222     15296     14588     15224     15297     15298     14589
 -1      1930    4    0    1
 -2      6686      6776      6786      6696      6687      6777      6787      6697     15224     15297
 -2     15298     14589     14521     15229     15303     14595     15231     15304     15305     14596
 -1      1931    4    0    1
 -2      6687      6777      6787      6697      6688      6778      6788      6698     15231     15304
 -2     15305     14596     14528     15236     15310     14602     15238     15311     15312     14603
 -1      1932    4    0    1
 -2      6688      6778      6788      6698      6689      6779      6789      6699     15238     15311
 -2     15312     14603     14535     15243     15317     14609     15245     15318     15319     14610
 -1      1933    4    0    1
 -2      6689      6779      6789      6699      6690      6780      6790      6700     15245     15318
 -2     15319     14610     14542     15250     15324     14616     15252     15325     15326     14617
 -1      1934    4    0    1
 -2      6690      6780      6790      6700      6691      6781      6791      6701     15252     15325
 -2     15326     14617     14549     15257     15331     14623     15259     15332     15333     14624
 -1      1935    4    0    1
 -2      6691      6781      6791      6701      6692      6782      6792      6702     15259     15332
 -2     15333     14624     14556     15264     15338     14630     15266     15339     15340     14631
 -1      1936    4    0    1
 -2      6692      6782      6792      6702      4878      4887      4888      4879     15266     15339
 -2     15340     14631     14563     15271     15345     14637      5337      5339      5340      5310
 -1      1937    4    0    1
 -2       482       491       492       483      6693      6783      6793      6703       943       945
 -2       946       916     14567     15275     15349     14641     15277     15350     15351     14642
 -1      1938    4    0    1
 -2      6693      6783      6793      6703      6694      6784      6794      6704     15277     15350
 -2     15351     14642     14574     15282     15356     14648     15284     15357     15358     14649
 -1      1939    4    0    1
 -2      6694      6784      6794      6704      6695      6785      6795      6705     15284     15357
 -2     15358     14649     14581     15289     15363     14655     15291     15364     15365     14656
 -1      1940    4    0    1
 -2      6695      6785      6795      6705      6696      6786      6796      6706     15291     15364
 -2     15365     14656     14588     15296     15370     14662     15298     15371     15372     14663
 -1      1941    4    0    1
 -2      6696      6786      6796      6706      6697      6787      6797      6707     15298     15371
 -2     15372     14663     14595     15303     15377     14669     15305     15378     15379     14670
 -1      1942    4    0    1
 -2      6697      6787      6797      6707      6698      6788      6798      6708     15305     15378
 -2     15379     14670     14602     15310     15384     14676     15312     15385     15386     14677
 -1      1943    4    0    1
 -2      6698      6788      6798      6708      6699      6789      6799      6709     15312     15385
 -2     15386     14677     14609     15317     15391     14683     15319     15392     15393     14684
 -1      1944    4    0    1
 -2      6699      6789      6799      6709      6700      6790      6800      6710     15319     15392
 -2     15393     14684     14616     15324     15398     14690     15326     15399     15400     14691
 -1      1945    4    0    1
 -2      6700      6790      6800      6710      6701      6791      6801      6711     15326     15399
 -2     15400     14691     14623     15331     15405     14697     15333     15406     15407     14698
 -1      1946    4    0    1
 -2      6701      6791      6801      6711      6702      6792      6802      6712     15333     15406
 -2     15407     14698     14630     15338     15412     14704     15340     15413     15414     14705
 -1      1947    4    0    1
 -2      6702      6792      6802      6712      4879      4888      4889      4880     15340     15413
 -2     15414     14705     14637     15345     15419     14711      5340      5342      5343      5313
 -1      1948    4    0    1
 -2       483       492       493       484      6703      6793      6803      6713       946       948
 -2       949       919     14641     15349     15423     14715     15351     15424     15425     14716
 -1      1949    4    0    1
 -2      6703      6793      6803      6713      6704      6794      6804      6714     15351     15424
 -2     15425     14716     14648     15356     15430     14722     15358     15431     15432     14723
 -1      1950    4    0    1
 -2      6704      6794      6804      6714      6705      6795      6805      6715     15358     15431
 -2     15432     14723     14655     15363     15437     14729     15365     15438     15439     14730
 -1      1951    4    0    1
 -2      6705      6795      6805      6715      6706      6796      6806      6716     15365     15438
 -2     15439     14730     14662     15370     15444     14736     15372     15445     15446     14737
 -1      1952    4    0    1
 -2      6706      6796      6806      6716      6707      6797      6807      6717     15372     15445
 -2     15446     14737     14669     15377     15451     14743     15379     15452     15453     14744
 -1      1953    4    0    1
 -2      6707      6797      6807      6717      6708      6798      6808      6718     15379     15452
 -2     15453     14744     14676     15384     15458     14750     15386     15459     15460     14751
 -1      1954    4    0    1
 -2      6708      6798      6808      6718      6709      6799      6809      6719     15386     15459
 -2     15460     14751     14683     15391     15465     14757     15393     15466     15467     14758
 -1      1955    4    0    1
 -2      6709      6799      6809      6719      6710      6800      6810      6720     15393     15466
 -2     15467     14758     14690     15398     15472     14764     15400     15473     15474     14765
 -1      1956    4    0    1
 -2      6710      6800      6810      6720      6711      6801      6811      6721     15400     15473
 -2     15474     14765     14697     15405     15479     14771     15407     15480     15481     14772
 -1      1957    4    0    1
 -2      6711      6801      6811      6721      6712      6802      6812      6722     15407     15480
 -2     15481     14772     14704     15412     15486     14778     15414     15487     15488     14779
 -1      1958    4    0    1
 -2      6712      6802      6812      6722      4880      4889      4890      4881     15414     15487
 -2     15488     14779     14711     15419     15493     14785      5343      5345      5346      5316
 -1      1959    4    0    1
 -2       484       493       494       485      6713      6803      6813      6723       949       951
 -2       952       922     14715     15423     15497     14789     15425     15498     15499     14790
 -1      1960    4    0    1
 -2      6713      6803      6813      6723      6714      6804      6814      6724     15425     15498
 -2     15499     14790     14722     15430     15504     14796     15432     15505     15506     14797
 -1      1961    4    0    1
 -2      6714      6804      6814      6724      6715      6805      6815      6725     15432     15505
 -2     15506     14797     14729     15437     15511     14803     15439     15512     15513     14804
 -1      1962    4    0    1
 -2      6715      6805      6815      6725      6716      6806      6816      6726     15439     15512
 -2     15513     14804     14736     15444     15518     14810     15446     15519     15520     14811
 -1      1963    4    0    1
 -2      6716      6806      6816      6726      6717      6807      6817      6727     15446     15519
 -2     15520     14811     14743     15451     15525     14817     15453     15526     15527     14818
 -1      1964    4    0    1
 -2      6717      6807      6817      6727      6718      6808      6818      6728     15453     15526
 -2     15527     14818     14750     15458     15532     14824     15460     15533     15534     14825
 -1      1965    4    0    1
 -2      6718      6808      6818      6728      6719      6809      6819      6729     15460     15533
 -2     15534     14825     14757     15465     15539     14831     15467     15540     15541     14832
 -1      1966    4    0    1
 -2      6719      6809      6819      6729      6720      6810      6820      6730     15467     15540
 -2     15541     14832     14764     15472     15546     14838     15474     15547     15548     14839
 -1      1967    4    0    1
 -2      6720      6810      6820      6730      6721      6811      6821      6731     15474     15547
 -2     15548     14839     14771     15479     15553     14845     15481     15554     15555     14846
 -1      1968    4    0    1
 -2      6721      6811      6821      6731      6722      6812      6822      6732     15481     15554
 -2     15555     14846     14778     15486     15560     14852     15488     15561     15562     14853
 -1      1969    4    0    1
 -2      6722      6812      6822      6732      4881      4890      4891      4882     15488     15561
 -2     15562     14853     14785     15493     15567     14859      5346      5348      5349      5319
 -1      1970    4    0    1
 -2       485       494       106       107      6723      6813      3354      3364       952       954
 -2       136       925     14789     15497      4062      4094     15499     15571      4095     14863
 -1      1971    4    0    1
 -2      6723      6813      3354      3364      6724      6814      3355      3365     15499     15571
 -2      4095     14863     14796     15504      4065      4097     15506     15575      4098     14867
 -1      1972    4    0    1
 -2      6724      6814      3355      3365      6725      6815      3356      3366     15506     15575
 -2      4098     14867     14803     15511      4068      4100     15513     15579      4101     14871
 -1      1973    4    0    1
 -2      6725      6815      3356      3366      6726      6816      3357      3367     15513     15579
 -2      4101     14871     14810     15518      4071      4103     15520     15583      4104     14875
 -1      1974    4    0    1
 -2      6726      6816      3357      3367      6727      6817      3358      3368     15520     15583
 -2      4104     14875     14817     15525      4074      4106     15527     15587      4107     14879
 -1      1975    4    0    1
 -2      6727      6817      3358      3368      6728      6818      3359      3369     15527     15587
 -2      4107     14879     14824     15532      4077      4109     15534     15591      4110     14883
 -1      1976    4    0    1
 -2      6728      6818      3359      3369      6729      6819      3360      3370     15534     15591
 -2      4110     14883     14831     15539      4080      4112     15541     15595      4113     14887
 -1      1977    4    0    1
 -2      6729      6819      3360      3370      6730      6820      3361      3371     15541     15595
 -2      4113     14887     14838     15546      4083      4115     15548     15599      4116     14891
 -1      1978    4    0    1
 -2      6730      6820      3361      3371      6731      6821      3362      3372     15548     15599
 -2      4116     14891     14845     15553      4086      4118     15555     15603      4119     14895
 -1      1979    4    0    1
 -2      6731      6821      3362      3372      6732      6822      3363      3373     15555     15603
 -2      4119     14895     14852     15560      4089      4121     15562     15607      4122     14899
 -1      1980    4    0    1
 -2      6732      6822      3363      3373      4882      4891       262       263     15562     15607
 -2      4122     14899     14859     15567      4092      4124      5349      5351       292      5322
 -1      1981    4    0    1
 -2        18        19       495       486      1616      1626      6823      6733        48       956
 -2       957       927      2104      2136     15613     14905      2137     15614     15615     14906
 -1      1982    4    0    1
 -2      1616      1626      6823      6733      1617      1627      6824      6734      2137     15614
 -2     15615     14906      2107      2139     15620     14912      2140     15621     15622     14913
 -1      1983    4    0    1
 -2      1617      1627      6824      6734      1618      1628      6825      6735      2140     15621
 -2     15622     14913      2110      2142     15627     14919      2143     15628     15629     14920
 -1      1984    4    0    1
 -2      1618      1628      6825      6735      1619      1629      6826      6736      2143     15628
 -2     15629     14920      2113      2145     15634     14926      2146     15635     15636     14927
 -1      1985    4    0    1
 -2      1619      1629      6826      6736      1620      1630      6827      6737      2146     15635
 -2     15636     14927      2116      2148     15641     14933      2149     15642     15643     14934
 -1      1986    4    0    1
 -2      1620      1630      6827      6737      1621      1631      6828      6738      2149     15642
 -2     15643     14934      2119      2151     15648     14940      2152     15649     15650     14941
 -1      1987    4    0    1
 -2      1621      1631      6828      6738      1622      1632      6829      6739      2152     15649
 -2     15650     14941      2122      2154     15655     14947      2155     15656     15657     14948
 -1      1988    4    0    1
 -2      1622      1632      6829      6739      1623      1633      6830      6740      2155     15656
 -2     15657     14948      2125      2157     15662     14954      2158     15663     15664     14955
 -1      1989    4    0    1
 -2      1623      1633      6830      6740      1624      1634      6831      6741      2158     15663
 -2     15664     14955      2128      2160     15669     14961      2161     15670     15671     14962
 -1      1990    4    0    1
 -2      1624      1634      6831      6741      1625      1635      6832      6742      2161     15670
 -2     15671     14962      2131      2163     15676     14968      2164     15677     15678     14969
 -1      1991    4    0    1
 -2      1625      1635      6832      6742       174       175      4892      4883      2164     15677
 -2     15678     14969      2134      2166     15683     14975       204      5353      5354      5324
 -1      1992    4    0    1
 -2       486       495       496       487      6733      6823      6833      6743       957       959
 -2       960       930     14905     15613     15687     14979     15615     15688     15689     14980
 -1      1993    4    0    1
 -2      6733      6823      6833      6743      6734      6824      6834      6744     15615     15688
 -2     15689     14980     14912     15620     15694     14986     15622     15695     15696     14987
 -1      1994    4    0    1
 -2      6734      6824      6834      6744      6735      6825      6835      6745     15622     15695
 -2     15696     14987     14919     15627     15701     14993     15629     15702     15703     14994
 -1      1995    4    0    1
 -2      6735      6825      6835      6745      6736      6826      6836      6746     15629     15702
 -2     15703     14994     14926     15634     15708     15000     15636     15709     15710     15001
 -1      1996    4    0    1
 -2      6736      6826      6836      6746      6737      6827      6837      6747     15636     15709
 -2     15710     15001     14933     15641     15715     15007     15643     15716     15717     15008
 -1      1997    4    0    1
 -2      6737      6827      6837      6747      6738      6828      6838      6748     15643     15716
 -2     15717     15008     14940     15648     15722     15014     15650     15723     15724     15015
 -1      1998    4    0    1
 -2      6738      6828      6838      6748      6739      6829      6839      6749     15650     15723
 -2     15724     15015     14947     15655     15729     15021     15657     15730     15731     15022
 -1      1999    4    0    1
 -2      6739      6829      6839      6749      6740      6830      6840      6750     15657     15730
 -2     15731     15022     14954     15662     15736     15028     15664     15737     15738     15029
 -1      2000    4    0    1
 -2      6740      6830      6840      6750      6741      6831      6841      6751     15664     15737
 -2     15738     15029     14961     15669     15743     15035     15671     15744     15745     15036
 -1      2001    4    0    1
 -2      6741      6831      6841      6751      6742      6832      6842      6752     15671     15744
 -2     15745     15036     14968     15676     15750     15042     15678     15751     15752     15043
 -1      2002    4    0    1
 -2      6742      6832      6842      6752      4883      4892      4893      4884     15678     15751
 -2     15752     15043     14975     15683     15757     15049      5354      5356      5357      5327
 -1      2003    4    0    1
 -2       487       496       497       488      6743      6833      6843      6753       960       962
 -2       963       933     14979     15687     15761     15053     15689     15762     15763     15054
 -1      2004    4    0    1
 -2      6743      6833      6843      6753      6744      6834      6844      6754     15689     15762
 -2     15763     15054     14986     15694     15768     15060     15696     15769     15770     15061
 -1      2005    4    0    1
 -2      6744      6834      6844      6754      6745      6835      6845      6755     15696     15769
 -2     15770     15061     14993     15701     15775     15067     15703     15776     15777     15068
 -1      2006    4    0    1
 -2      6745      6835      6845      6755      6746      6836      6846      6756     15703     15776
 -2     15777     15068     15000     15708     15782     15074     15710     15783     15784     15075
 -1      2007    4    0    1
 -2      6746      6836      6846      6756      6747      6837      6847      6757     15710     15783
 -2     15784     15075     15007     15715     15789     15081     15717     15790     15791     15082
 -1      2008    4    0    1
 -2      6747      6837      6847      6757      6748      6838      6848      6758     15717     15790
 -2     15791     15082     15014     15722     15796     15088     15724     15797     15798     15089
 -1      2009    4    0    1
 -2      6748      6838      6848      6758      6749      6839      6849      6759     15724     15797
 -2     15798     15089     15021     15729     15803     15095     15731     15804     15805     15096
 -1      2010    4    0    1
 -2      6749      6839      6849      6759      6750      6840      6850      6760     15731     15804
 -2     15805     15096     15028     15736     15810     15102     15738     15811     15812     15103
 -1      2011    4    0    1
 -2      6750      6840      6850      6760      6751      6841      6851      6761     15738     15811
 -2     15812     15103     15035     15743     15817     15109     15745     15818     15819     15110
 -1      2012    4    0    1
 -2      6751      6841      6851      6761      6752      6842      6852      6762     15745     15818
 -2     15819     15110     15042     15750     15824     15116     15752     15825     15826     15117
 -1      2013    4    0    1
 -2      6752      6842      6852      6762      4884      4893      4894      4885     15752     15825
 -2     15826     15117     15049     15757     15831     15123      5357      5359      5360      5330
 -1      2014    4    0    1
 -2       488       497       498       489      6753      6843      6853      6763       963       965
 -2       966       936     15053     15761     15835     15127     15763     15836     15837     15128
 -1      2015    4    0    1
 -2      6753      6843      6853      6763      6754      6844      6854      6764     15763     15836
 -2     15837     15128     15060     15768     15842     15134     15770     15843     15844     15135
 -1      2016    4    0    1
 -2      6754      6844      6854      6764      6755      6845      6855      6765     15770     15843
 -2     15844     15135     15067     15775     15849     15141     15777     15850     15851     15142
 -1      2017    4    0    1
 -2      6755      6845      6855      6765      6756      6846      6856      6766     15777     15850
 -2     15851     15142     15074     15782     15856     15148     15784     15857     15858     15149
 -1      2018    4    0    1
 -2      6756      6846      6856      6766      6757      6847      6857      6767     15784     15857
 -2     15858     15149     15081     15789     15863     15155     15791     15864     15865     15156
 -1      2019    4    0    1
 -2      6757      6847      6857      6767      6758      6848      6858      6768     15791     15864
 -2     15865     15156     15088     15796     15870     15162     15798     15871     15872     15163
 -1      2020    4    0    1
 -2      6758      6848      6858      6768      6759      6849      6859      6769     15798     15871
 -2     15872     15163     15095     15803     15877     15169     15805     15878     15879     15170
 -1      2021    4    0    1
 -2      6759      6849      6859      6769      6760      6850      6860      6770     15805     15878
 -2     15879     15170     15102     15810     15884     15176     15812     15885     15886     15177
 -1      2022    4    0    1
 -2      6760      6850      6860      6770      6761      6851      6861      6771     15812     15885
 -2     15886     15177     15109     15817     15891     15183     15819     15892     15893     15184
 -1      2023    4    0    1
 -2      6761      6851      6861      6771      6762      6852      6862      6772     15819     15892
 -2     15893     15184     15116     15824     15898     15190     15826     15899     15900     15191
 -1      2024    4    0    1
 -2      6762      6852      6862      6772      4885      4894      4895      4886     15826     15899
 -2     15900     15191     15123     15831     15905     15197      5360      5362      5363      5333
 -1      2025    4    0    1
 -2       489       498       499       490      6763      6853      6863      6773       966       968
 -2       969       939     15127     15835     15909     15201     15837     15910     15911     15202
 -1      2026    4    0    1
 -2      6763      6853      6863      6773      6764      6854      6864      6774     15837     15910
 -2     15911     15202     15134     15842     15916     15208     15844     15917     15918     15209
 -1      2027    4    0    1
 -2      6764      6854      6864      6774      6765      6855      6865      6775     15844     15917
 -2     15918     15209     15141     15849     15923     15215     15851     15924     15925     15216
 -1      2028    4    0    1
 -2      6765      6855      6865      6775      6766      6856      6866      6776     15851     15924
 -2     15925     15216     15148     15856     15930     15222     15858     15931     15932     15223
 -1      2029    4    0    1
 -2      6766      6856      6866      6776      6767      6857      6867      6777     15858     15931
 -2     15932     15223     15155     15863     15937     15229     15865     15938     15939     15230
 -1      2030    4    0    1
 -2      6767      6857      6867      6777      6768      6858      6868      6778     15865     15938
 -2     15939     15230     15162     15870     15944     15236     15872     15945     15946     15237
 -1      2031    4    0    1
 -2      6768      6858      6868      6778      6769      6859      6869      6779     15872     15945
 -2     15946     15237     15169     15877     15951     15243     15879     15952     15953     15244
 -1      2032    4    0    1
 -2      6769      6859      6869      6779      6770      6860      6870      6780     15879     15952
 -2     15953     15244     15176     15884     15958     15250     15886     15959     15960     15251
 -1      2033    4    0    1
 -2      6770      6860      6870      6780      6771      6861      6871      6781     15886     15959
 -2     15960     15251     15183     15891     15965     15257     15893     15966     15967     15258
 -1      2034    4    0    1
 -2      6771      6861      6871      6781      6772      6862      6872      6782     15893     15966
 -2     15967     15258     15190     15898     15972     15264     15900     15973     15974     15265
 -1      2035    4    0    1
 -2      6772      6862      6872      6782      4886      4895      4896      4887     15900     15973
 -2     15974     15265     15197     15905     15979     15271      5363      5365      5366      5336
 -1      2036    4    0    1
 -2       490       499       500       491      6773      6863      6873      6783       969       971
 -2       972       942     15201     15909     15983     15275     15911     15984     15985     15276
 -1      2037    4    0    1
 -2      6773      6863      6873      6783      6774      6864      6874      6784     15911     15984
 -2     15985     15276     15208     15916     15990     15282     15918     15991     15992     15283
 -1      2038    4    0    1
 -2      6774      6864      6874      6784      6775      6865      6875      6785     15918     15991
 -2     15992     15283     15215     15923     15997     15289     15925     15998     15999     15290
 -1      2039    4    0    1
 -2      6775      6865      6875      6785      6776      6866      6876      6786     15925     15998
 -2     15999     15290     15222     15930     16004     15296     15932     16005     16006     15297
 -1      2040    4    0    1
 -2      6776      6866      6876      6786      6777      6867      6877      6787     15932     16005
 -2     16006     15297     15229     15937     16011     15303     15939     16012     16013     15304
 -1      2041    4    0    1
 -2      6777      6867      6877      6787      6778      6868      6878      6788     15939     16012
 -2     16013     15304     15236     15944     16018     15310     15946     16019     16020     15311
 -1      2042    4    0    1
 -2      6778      6868      6878      6788      6779      6869      6879      6789     15946     16019
 -2     16020     15311     15243     15951     16025     15317     15953     16026     16027     15318
 -1      2043    4    0    1
 -2      6779      6869      6879      6789      6780      6870      6880      6790     15953     16026
 -2     16027     15318     15250     15958     16032     15324     15960     16033     16034     15325
 -1      2044    4    0    1
 -2      6780      6870      6880      6790      6781      6871      6881      6791     15960     16033
 -2     16034     15325     15257     15965     16039     15331     15967     16040     16041     15332
 -1      2045    4    0    1
 -2      6781      6871      6881      6791      6782      6872      6882      6792     15967     16040
 -2     16041     15332     15264     15972     16046     15338     15974     16047     16048     15339
 -1      2046    4    0    1
 -2      6782      6872      6882      6792      4887      4896      4897      4888     15974     16047
 -2     16048     15339     15271     15979     16053     15345      5366      5368      5369      5339
 -1      2047    4    0    1
 -2       491       500       501       492      6783      6873      6883      6793       972       974
 -2       975       945     15275     15983     16057     15349     15985     16058     16059     15350
 -1      2048    4    0    1
 -2      6783      6873      6883      6793      6784      6874      6884      6794     15985     16058
 -2     16059     15350     15282     15990     16064     15356     15992     16065     16066     15357
 -1      2049    4    0    1
 -2      6784      6874      6884      6794      6785      6875      6885      6795     15992     16065
 -2     16066     15357     15289     15997     16071     15363     15999     16072     16073     15364
 -1      2050    4    0    1
 -2      6785      6875      6885      6795      6786      6876      6886      6796     15999     16072
 -2     16073     15364     15296     16004     16078     15370     16006     16079     16080     15371
 -1      2051    4    0    1
 -2      6786      6876      6886      6796      6787      6877      6887      6797     16006     16079
 -2     16080     15371     15303     16011     16085     15377     16013     16086     16087     15378
 -1      2052    4    0    1
 -2      6787      6877      6887      6797      6788      6878      6888      6798     16013     16086
 -2     16087     15378     15310     16018     16092     15384     16020     16093     16094     15385
 -1      2053    4    0    1
 -2      6788      6878      6888      6798      6789      6879      6889      6799     16020     16093
 -2     16094     15385     15317     16025     16099     15391     16027     16100     16101     15392
 -1      2054    4    0    1
 -2      6789      6879      6889      6799      6790      6880      6890      6800     16027     16100
 -2     16101     15392     15324     16032     16106     15398     16034     16107     16108     15399
 -1      2055    4    0    1
 -2      6790      6880      6890      6800      6791      6881      6891      6801     16034     16107
 -2     16108     15399     15331     16039     16113     15405     16041     16114     16115     15406
 -1      2056    4    0    1
 -2      6791      6881      6891      6801      6792      6882      6892      6802     16041     16114
 -2     16115     15406     15338     16046     16120     15412     16048     16121     16122     15413
 -1      2057    4    0    1
 -2      6792      6882      6892      6802      4888      4897      4898      4889     16048     16121
 -2     16122     15413     15345     16053     16127     15419      5369      5371      5372      5342
 -1      2058    4    0    1
 -2       492       501       502       493      6793      6883      6893      6803       975       977
 -2       978       948     15349     16057     16131     15423     16059     16132     16133     15424
 -1      2059    4    0    1
 -2      6793      6883      6893      6803      6794      6884      6894      6804     16059     16132
 -2     16133     15424     15356     16064     16138     15430     16066     16139     16140     15431
 -1      2060    4    0    1
 -2      6794      6884      6894      6804      6795      6885      6895      6805     16066     16139
 -2     16140     15431     15363     16071     16145     15437     16073     16146     16147     15438
 -1      2061    4    0    1
 -2      6795      6885      6895      6805      6796      6886      6896      6806     16073     16146
 -2     16147     15438     15370     16078     16152     15444     16080     16153     16154     15445
 -1      2062    4    0    1
 -2      6796      6886      6896      6806      6797      6887      6897      6807     16080     16153
 -2     16154     15445     15377     16085     16159     15451     16087     16160     16161     15452
 -1      2063    4    0    1
 -2      6797      6887      6897      6807      6798      6888      6898      6808     16087     16160
 -2     16161     15452     15384     16092     16166     15458     16094     16167     16168     15459
 -1      2064    4    0    1
 -2      6798      6888      6898      6808      6799      6889      6899      6809     16094     16167
 -2     16168     15459     15391     16099     16173     15465     16101     16174     16175     15466
 -1      2065    4    0    1
 -2      6799      6889      6899      6809      6800      6890      6900      6810     16101     16174
 -2     16175     15466     15398     16106     16180     15472     16108     16181     16182     15473
 -1      2066    4    0    1
 -2      6800      6890      6900      6810      6801      6891      6901      6811     16108     16181
 -2     16182     15473     15405     16113     16187     15479     16115     16188     16189     15480
 -1      2067    4    0    1
 -2      6801      6891      6901      6811      6802      6892      6902      6812     16115     16188
 -2     16189     15480     15412     16120     16194     15486     16122     16195     16196     15487
 -1      2068    4    0    1
 -2      6802      6892      6902      6812      4889      4898      4899      4890     16122     16195
 -2     16196     15487     15419     16127     16201     15493      5372      5374      5375      5345
 -1      2069    4    0    1
 -2       493       502       503       494      6803      6893      6903      6813       978       980
 -2       981       951     15423     16131     16205     15497     16133     16206     16207     15498
 -1      2070    4    0    1
 -2      6803      6893      6903      6813      6804      6894      6904      6814     16133     16206
 -2     16207     15498     15430     16138     16212     15504     16140     16213     16214     15505
 -1      2071    4    0    1
 -2      6804      6894      6904      6814      6805      6895      6905      6815     16140     16213
 -2     16214     15505     15437     16145     16219     15511     16147     16220     16221     15512
 -1      2072    4    0    1
 -2      6805      6895      6905      6815      6806      6896      6906      6816     16147     16220
 -2     16221     15512     15444     16152     16226     15518     16154     16227     16228     15519
 -1      2073    4    0    1
 -2      6806      6896      6906      6816      6807      6897      6907      6817     16154     16227
 -2     16228     15519     15451     16159     16233     15525     16161     16234     16235     15526
 -1      2074    4    0    1
 -2      6807      6897      6907      6817      6808      6898      6908      6818     16161     16234
 -2     16235     15526     15458     16166     16240     15532     16168     16241     16242     15533
 -1      2075    4    0    1
 -2      6808      6898      6908      6818      6809      6899      6909      6819     16168     16241
 -2     16242     15533     15465     16173     16247     15539     16175     16248     16249     15540
 -1      2076    4    0    1
 -2      6809      6899      6909      6819      6810      6900      6910      6820     16175     16248
 -2     16249     15540     15472     16180     16254     15546     16182     16255     16256     15547
 -1      2077    4    0    1
 -2      6810      6900      6910      6820      6811      6901      6911      6821     16182     16255
 -2     16256     15547     15479     16187     16261     15553     16189     16262     16263     15554
 -1      2078    4    0    1
 -2      6811      6901      6911      6821      6812      6902      6912      6822     16189     16262
 -2     16263     15554     15486     16194     16268     15560     16196     16269     16270     15561
 -1      2079    4    0    1
 -2      6812      6902      6912      6822      4890      4899      4900      4891     16196     16269
 -2     16270     15561     15493     16201     16275     15567      5375      5377      5378      5348
 -1      2080    4    0    1
 -2       494       503       105       106      6813      6903      3344      3354       981       983
 -2       135       954     15497     16205      4030      4062     16207     16279      4063     15571
 -1      2081    4    0    1
 -2      6813      6903      3344      3354      6814      6904      3345      3355     16207     16279
 -2      4063     15571     15504     16212      4033      4065     16214     16283      4066     15575
 -1      2082    4    0    1
 -2      6814      6904      3345      3355      6815      6905      3346      3356     16214     16283
 -2      4066     15575     15511     16219      4036      4068     16221     16287      4069     15579
 -1      2083    4    0    1
 -2      6815      6905      3346      3356      6816      6906      3347      3357     16221     16287
 -2      4069     15579     15518     16226      4039      4071     16228     16291      4072     15583
 -1      2084    4    0    1
 -2      6816      6906      3347      3357      6817      6907      3348      3358     16228     16291
 -2      4072     15583     15525     16233      4042      4074     16235     16295      4075     15587
 -1      2085    4    0    1
 -2      6817      6907      3348      3358      6818      6908      3349      3359     16235     16295
 -2      4075     15587     15532     16240      4045      4077     16242     16299      4078     15591
 -1      2086    4    0    1
 -2      6818      6908      3349      3359      6819      6909      3350      3360     16242     16299
 -2      4078     15591     15539     16247      4048      4080     16249     16303      4081     15595
 -1      2087    4    0    1
 -2      6819      6909      3350      3360      6820      6910      3351      3361     16249     16303
 -2      4081     15595     15546     16254      4051      4083     16256     16307      4084     15599
 -1      2088    4    0    1
 -2      6820      6910      3351      3361      6821      6911      3352      3362     16256     16307
 -2      4084     15599     15553     16261      4054      4086     16263     16311      4087     15603
 -1      2089    4    0    1
 -2      6821      6911      3352      3362      6822      6912      3353      3363     16263     16311
 -2      4087     15603     15560     16268      4057      4089     16270     16315      4090     15607
 -1      2090    4    0    1
 -2      6822      6912      3353      3363      4891      4900       261       262     16270     16315
 -2      4090     15607     15567     16275      4060      4092      5378      5380       291      5351
 -1      2091    4    0    1
 -2        19        20       504       495      1626      1636      6913      6823        49       985
 -2       986       956      2136      2168     16321     15613      2169     16322     16323     15614
 -1      2092    4    0    1
 -2      1626      1636      6913      6823      1627      1637      6914      6824      2169     16322
 -2     16323     15614      2139      2171     16328     15620      2172     16329     16330     15621
 -1      2093    4    0    1
 -2      1627      1637      6914      6824      1628      1638      6915      6825      2172     16329
 -2     16330     15621      2142      2174     16335     15627      2175     16336     16337     15628
 -1      2094    4    0    1
 -2      1628      1638      6915      6825      1629      1639      6916      6826      2175     16336
 -2     16337     15628      2145      2177     16342     15634      2178     16343     16344     15635
 -1      2095    4    0    1
 -2      1629      1639      6916      6826      1630      1640      6917      6827      2178     16343
 -2     16344     15635      2148      2180     16349     15641      2181     16350     16351     15642
 -1      2096    4    0    1
 -2      1630      1640      6917      6827      1631      1641      6918      6828      2181     16350
 -2     16351     15642      2151      2183     16356     15648      2184     16357     16358     15649
 -1      2097    4    0    1
 -2      1631      1641      6918      6828      1632      1642      6919      6829      2184     16357
 -2     16358     15649      2154      2186     16363     15655      2187     16364     16365     15656
 -1      2098    4    0    1
 -2      1632      1642      6919      6829      1633      1643      6920      6830      2187     16364
 -2     16365     15656      2157      2189     16370     15662      2190     16371     16372     15663
 -1      2099    4    0    1
 -2      1633      1643      6920      6830      1634      1644      6921      6831      2190     16371
 -2     16372     15663      2160      2192     16377     15669      2193     16378     16379     15670
 -1      2100    4    0    1
 -2      1634      1644      6921      6831      1635      1645      6922      6832      2193     16378
 -2     16379     15670      2163      2195     16384     15676      2196     16385     16386     15677
 -1      2101    4    0    1
 -2      1635      1645      6922      6832       175       176      4901      4892      2196     16385
 -2     16386     15677      2166      2198     16391     15683       205      5382      5383      5353
 -1      2102    4    0    1
 -2       495       504       505       496      6823      6913      6923      6833       986       988
 -2       989       959     15613     16321     16395     15687     16323     16396     16397     15688
 -1      2103    4    0    1
 -2      6823      6913      6923      6833      6824      6914      6924      6834     16323     16396
 -2     16397     15688     15620     16328     16402     15694     16330     16403     16404     15695
 -1      2104    4    0    1
 -2      6824      6914      6924      6834      6825      6915      6925      6835     16330     16403
 -2     16404     15695     15627     16335     16409     15701     16337     16410     16411     15702
 -1      2105    4    0    1
 -2      6825      6915      6925      6835      6826      6916      6926      6836     16337     16410
 -2     16411     15702     15634     16342     16416     15708     16344     16417     16418     15709
 -1      2106    4    0    1
 -2      6826      6916      6926      6836      6827      6917      6927      6837     16344     16417
 -2     16418     15709     15641     16349     16423     15715     16351     16424     16425     15716
 -1      2107    4    0    1
 -2      6827      6917      6927      6837      6828      6918      6928      6838     16351     16424
 -2     16425     15716     15648     16356     16430     15722     16358     16431     16432     15723
 -1      2108    4    0    1
 -2      6828      6918      6928      6838      6829      6919      6929      6839     16358     16431
 -2     16432     15723     15655     16363     16437     15729     16365     16438     16439     15730
 -1      2109    4    0    1
 -2      6829      6919      6929      6839      6830      6920      6930      6840     16365     16438
 -2     16439     15730     15662     16370     16444     15736     16372     16445     16446     15737
 -1      2110    4    0    1
 -2      6830      6920      6930      6840      6831      6921      6931      6841     16372     16445
 -2     16446     15737     15669     16377     16451     15743     16379     16452     16453     15744
 -1      2111    4    0    1
 -2      6831      6921      6931      6841      6832      6922      6932      6842     16379     16452
 -2     16453     15744     15676     16384     16458     15750     16386     16459     16460     15751
 -1      2112    4    0    1
 -2      6832      6922      6932      6842      4892      4901      4902      4893     16386     16459
 -2     16460     15751     15683     16391     16465     15757      5383      5385      5386      5356
 -1      2113    4    0    1
 -2       496       505       506       497      6833      6923      6933      6843       989       991
 -2       992       962     15687     16395     16469     15761     16397     16470     16471     15762
 -1      2114    4    0    1
 -2      6833      6923      6933      6843      6834      6924      6934      6844     16397     16470
 -2     16471     15762     15694     16402     16476     15768     16404     16477     16478     15769
 -1      2115    4    0    1
 -2      6834      6924      6934      6844      6835      6925      6935      6845     16404     16477
 -2     16478     15769     15701     16409     16483     15775     16411     16484     16485     15776
 -1      2116    4    0    1
 -2      6835      6925      6935      6845      6836      6926      6936      6846     16411     16484
 -2     16485     15776     15708     16416     16490     15782     16418     16491     16492     15783
 -1      2117    4    0    1
 -2      6836      6926      6936      6846      6837      6927      6937      6847     16418     16491
 -2     16492     15783     15715     16423     16497     15789     16425     16498     16499     15790
 -1      2118    4    0    1
 -2      6837      6927      6937      6847      6838      6928      6938      6848     16425     16498
 -2     16499     15790     15722     16430     16504     15796     16432     16505     16506     15797
 -1      2119    4    0    1
 -2      6838      6928      6938      6848      6839      6929      6939      6849     16432     16505
 -2     16506     15797     15729     16437     16511     15803     16439     16512     16513     15804
 -1      2120    4    0    1
 -2      6839      6929      6939      6849      6840      6930      6940      6850     16439     16512
 -2     16513     15804     15736     16444     16518     15810     16446     16519     16520     15811
 -1      2121    4    0    1
 -2      6840      6930      6940      6850      6841      6931      6941      6851     16446     16519
 -2     16520     15811     15743     16451     16525     15817     16453     16526     16527     15818
 -1      2122    4    0    1
 -2      6841      6931      6941      6851      6842      6932      6942      6852     16453     16526
 -2     16527     15818     15750     16458     16532     15824     16460     16533     16534     15825
 -1      2123    4    0    1
 -2      6842      6932      6942      6852      4893      4902      4903      4894     16460     16533
 -2     16534     15825     15757     16465     16539     15831      5386      5388      5389      5359
 -1      2124    4    0    1
 -2       497       506       507       498      6843      6933      6943      6853       992       994
 -2       995       965     15761     16469     16543     15835     16471     16544     16545     15836
 -1      2125    4    0    1
 -2      6843      6933      6943      6853      6844      6934      6944      6854     16471     16544
 -2     16545     15836     15768     16476     16550     15842     16478     16551     16552     15843
 -1      2126    4    0    1
 -2      6844      6934      6944      6854      6845      6935      6945      6855     16478     16551
 -2     16552     15843     15775     16483     16557     15849     16485     16558     16559     15850
 -1      2127    4    0    1
 -2      6845      6935      6945      6855      6846      6936      6946      6856     16485     16558
 -2     16559     15850     15782     16490     16564     15856     16492     16565     16566     15857
 -1      2128    4    0    1
 -2      6846      6936      6946      6856      6847      6937      6947      6857     16492     16565
 -2     16566     15857     15789     16497     16571     15863     16499     16572     16573     15864
 -1      2129    4    0    1
 -2      6847      6937      6947      6857      6848      6938      6948      6858     16499     16572
 -2     16573     15864     15796     16504     16578     15870     16506     16579     16580     15871
 -1      2130    4    0    1
 -2      6848      6938      6948      6858      6849      6939      6949      6859     16506     16579
 -2     16580     15871     15803     16511     16585     15877     16513     16586     16587     15878
 -1      2131    4    0    1
 -2      6849      6939      6949      6859      6850      6940      6950      6860     16513     16586
 -2     16587     15878     15810     16518     16592     15884     16520     16593     16594     15885
 -1      2132    4    0    1
 -2      6850      6940      6950      6860      6851      6941      6951      6861     16520     16593
 -2     16594     15885     15817     16525     16599     15891     16527     16600     16601     15892
 -1      2133    4    0    1
 -2      6851      6941      6951      6861      6852      6942      6952      6862     16527     16600
 -2     16601     15892     15824     16532     16606     15898     16534     16607     16608     15899
 -1      2134    4    0    1
 -2      6852      6942      6952      6862      4894      4903      4904      4895     16534     16607
 -2     16608     15899     15831     16539     16613     15905      5389      5391      5392      5362
 -1      2135    4    0    1
 -2       498       507       508       499      6853      6943      6953      6863       995       997
 -2       998       968     15835     16543     16617     15909     16545     16618     16619     15910
 -1      2136    4    0    1
 -2      6853      6943      6953      6863      6854      6944      6954      6864     16545     16618
 -2     16619     15910     15842     16550     16624     15916     16552     16625     16626     15917
 -1      2137    4    0    1
 -2      6854      6944      6954      6864      6855      6945      6955      6865     16552     16625
 -2     16626     15917     15849     16557     16631     15923     16559     16632     16633     15924
 -1      2138    4    0    1
 -2      6855      6945      6955      6865      6856      6946      6956      6866     16559     16632
 -2     16633     15924     15856     16564     16638     15930     16566     16639     16640     15931
 -1      2139    4    0    1
 -2      6856      6946      6956      6866      6857      6947      6957      6867     16566     16639
 -2     16640     15931     15863     16571     16645     15937     16573     16646     16647     15938
 -1      2140    4    0    1
 -2      6857      6947      6957      6867      6858      6948      6958      6868     16573     16646
 -2     16647     15938     15870     16578     16652     15944     16580     16653     16654     15945
 -1      2141    4    0    1
 -2      6858      6948      6958      6868      6859      6949      6959      6869     16580     16653
 -2     16654     15945     15877     16585     16659     15951     16587     16660     16661     15952
 -1      2142    4    0    1
 -2      6859      6949      6959      6869      6860      6950      6960      6870     16587     16660
 -2     16661     15952     15884     16592     16666     15958     16594     16667     16668     15959
 -1      2143    4    0    1
 -2      6860      6950      6960      6870      6861      6951      6961      6871     16594     16667
 -2     16668     15959     15891     16599     16673     15965     16601     16674     16675     15966
 -1      2144    4    0    1
 -2      6861      6951      6961      6871      6862      6952      6962      6872     16601     16674
 -2     16675     15966     15898     16606     16680     15972     16608     16681     16682     15973
 -1      2145    4    0    1
 -2      6862      6952      6962      6872      4895      4904      4905      4896     16608     16681
 -2     16682     15973     15905     16613     16687     15979      5392      5394      5395      5365
 -1      2146    4    0    1
 -2       499       508       509       500      6863      6953      6963      6873       998      1000
 -2      1001       971     15909     16617     16691     15983     16619     16692     16693     15984
 -1      2147    4    0    1
 -2      6863      6953      6963      6873      6864      6954      6964      6874     16619     16692
 -2     16693     15984     15916     16624     16698     15990     16626     16699     16700     15991
 -1      2148    4    0    1
 -2      6864      6954      6964      6874      6865      6955      6965      6875     16626     16699
 -2     16700     15991     15923     16631     16705     15997     16633     16706     16707     15998
 -1      2149    4    0    1
 -2      6865      6955      6965      6875      6866      6956      6966      6876     16633     16706
 -2     16707     15998     15930     16638     16712     16004     16640     16713     16714     16005
 -1      2150    4    0    1
 -2      6866      6956      6966      6876      6867      6957      6967      6877     16640     16713
 -2     16714     16005     15937     16645     16719     16011     16647     16720     16721     16012
 -1      2151    4    0    1
 -2      6867      6957      6967      6877      6868      6958      6968      6878     16647     16720
 -2     16721     16012     15944     16652     16726     16018     16654     16727     16728     16019
 -1      2152    4    0    1
 -2      6868      6958      6968      6878      6869      6959      6969      6879     16654     16727
 -2     16728     16019     15951     16659     16733     16025     16661     16734     16735     16026
 -1      2153    4    0    1
 -2      6869      6959      6969      6879      6870      6960      6970      6880     16661     16734
 -2     16735     16026     15958     16666     16740     16032     16668     16741     16742     16033
 -1      2154    4    0    1
 -2      6870      6960      6970      6880      6871      6961      6971      6881     16668     16741
 -2     16742     16033     15965     16673     16747     16039     16675     16748     16749     16040
 -1      2155    4    0    1
 -2      6871      6961      6971      6881      6872      6962      6972      6882     16675     16748
 -2     16749     16040     15972     16680     16754     16046     16682     16755     16756     16047
 -1      2156    4    0    1
 -2      6872      6962      6972      6882      4896      4905      4906      4897     16682     16755
 -2     16756     16047     15979     16687     16761     16053      5395      5397      5398      5368
 -1      2157    4    0    1
 -2       500       509       510       501      6873      6963      6973      6883      1001      1003
 -2      1004       974     15983     16691     16765     16057     16693     16766     16767     16058
 -1      2158    4    0    1
 -2      6873      6963      6973      6883      6874      6964      6974      6884     16693     16766
 -2     16767     16058     15990     16698     16772     16064     16700     16773     16774     16065
 -1      2159    4    0    1
 -2      6874      6964      6974      6884      6875      6965      6975      6885     16700     16773
 -2     16774     16065     15997     16705     16779     16071     16707     16780     16781     16072
 -1      2160    4    0    1
 -2      6875      6965      6975      6885      6876      6966      6976      6886     16707     16780
 -2     16781     16072     16004     16712     16786     16078     16714     16787     16788     16079
 -1      2161    4    0    1
 -2      6876      6966      6976      6886      6877      6967      6977      6887     16714     16787
 -2     16788     16079     16011     16719     16793     16085     16721     16794     16795     16086
 -1      2162    4    0    1
 -2      6877      6967      6977      6887      6878      6968      6978      6888     16721     16794
 -2     16795     16086     16018     16726     16800     16092     16728     16801     16802     16093
 -1      2163    4    0    1
 -2      6878      6968      6978      6888      6879      6969      6979      6889     16728     16801
 -2     16802     16093     16025     16733     16807     16099     16735     16808     16809     16100
 -1      2164    4    0    1
 -2      6879      6969      6979      6889      6880      6970      6980      6890     16735     16808
 -2     16809     16100     16032     16740     16814     16106     16742     16815     16816     16107
 -1      2165    4    0    1
 -2      6880      6970      6980      6890      6881      6971      6981      6891     16742     16815
 -2     16816     16107     16039     16747     16821     16113     16749     16822     16823     16114
 -1      2166    4    0    1
 -2      6881      6971      6981      6891      6882      6972      6982      6892     16749     16822
 -2     16823     16114     16046     16754     16828     16120     16756     16829     16830     16121
 -1      2167    4    0    1
 -2      6882      6972      6982      6892      4897      4906      4907      4898     16756     16829
 -2     16830     16121     16053     16761     16835     16127      5398      5400      5401      5371
 -1      2168    4    0    1
 -2       501       510       511       502      6883      6973      6983      6893      1004      1006
 -2      1007       977     16057     16765     16839     16131     16767     16840     16841     16132
 -1      2169    4    0    1
 -2      6883      6973      6983      6893      6884      6974      6984      6894     16767     16840
 -2     16841     16132     16064     16772     16846     16138     16774     16847     16848     16139
 -1      2170    4    0    1
 -2      6884      6974      6984      6894      6885      6975      6985      6895     16774     16847
 -2     16848     16139     16071     16779     16853     16145     16781     16854     16855     16146
 -1      2171    4    0    1
 -2      6885      6975      6985      6895      6886      6976      6986      6896     16781     16854
 -2     16855     16146     16078     16786     16860     16152     16788     16861     16862     16153
 -1      2172    4    0    1
 -2      6886      6976      6986      6896      6887      6977      6987      6897     16788     16861
 -2     16862     16153     16085     16793     16867     16159     16795     16868     16869     16160
 -1      2173    4    0    1
 -2      6887      6977      6987      6897      6888      6978      6988      6898     16795     16868
 -2     16869     16160     16092     16800     16874     16166     16802     16875     16876     16167
 -1      2174    4    0    1
 -2      6888      6978      6988      6898      6889      6979      6989      6899     16802     16875
 -2     16876     16167     16099     16807     16881     16173     16809     16882     16883     16174
 -1      2175    4    0    1
 -2      6889      6979      6989      6899      6890      6980      6990      6900     16809     16882
 -2     16883     16174     16106     16814     16888     16180     16816     16889     16890     16181
 -1      2176    4    0    1
 -2      6890      6980      6990      6900      6891      6981      6991      6901     16816     16889
 -2     16890     16181     16113     16821     16895     16187     16823     16896     16897     16188
 -1      2177    4    0    1
 -2      6891      6981      6991      6901      6892      6982      6992      6902     16823     16896
 -2     16897     16188     16120     16828     16902     16194     16830     16903     16904     16195
 -1      2178    4    0    1
 -2      6892      6982      6992      6902      4898      4907      4908      4899     16830     16903
 -2     16904     16195     16127     16835     16909     16201      5401      5403      5404      5374
 -1      2179    4    0    1
 -2       502       511       512       503      6893      6983      6993      6903      1007      1009
 -2      1010       980     16131     16839     16913     16205     16841     16914     16915     16206
 -1      2180    4    0    1
 -2      6893      6983      6993      6903      6894      6984      6994      6904     16841     16914
 -2     16915     16206     16138     16846     16920     16212     16848     16921     16922     16213
 -1      2181    4    0    1
 -2      6894      6984      6994      6904      6895      6985      6995      6905     16848     16921
 -2     16922     16213     16145     16853     16927     16219     16855     16928     16929     16220
 -1      2182    4    0    1
 -2      6895      6985      6995      6905      6896      6986      6996      6906     16855     16928
 -2     16929     16220     16152     16860     16934     16226     16862     16935     16936     16227
 -1      2183    4    0    1
 -2      6896      6986      6996      6906      6897      6987      6997      6907     16862     16935
 -2     16936     16227     16159     16867     16941     16233     16869     16942     16943     16234
 -1      2184    4    0    1
 -2      6897      6987      6997      6907      6898      6988      6998      6908     16869     16942
 -2     16943     16234     16166     16874     16948     16240     16876     16949     16950     16241
 -1      2185    4    0    1
 -2      6898      6988      6998      6908      6899      6989      6999      6909     16876     16949
 -2     16950     16241     16173     16881     16955     16247     16883     16956     16957     16248
 -1      2186    4    0    1
 -2      6899      6989      6999      6909      6900      6990      7000      6910     16883     16956
 -2     16957     16248     16180     16888     16962     16254     16890     16963     16964     16255
 -1      2187    4    0    1
 -2      6900      6990      7000      6910      6901      6991      7001      6911     16890     16963
 -2     16964     16255     16187     16895     16969     16261     16897     16970     16971     16262
 -1      2188    4    0    1
 -2      6901      6991      7001      6911      6902      6992      7002      6912     16897     16970
 -2     16971     16262     16194     16902     16976     16268     16904     16977     16978     16269
 -1      2189    4    0    1
 -2      6902      6992      7002      6912      4899      4908      4909      4900     16904     16977
 -2     16978     16269     16201     16909     16983     16275      5404      5406      5407      5377
 -1      2190    4    0    1
 -2       503       512       104       105      6903      6993      3334      3344      1010      1012
 -2       134       983     16205     16913      3998      4030     16915     16987      4031     16279
 -1      2191    4    0    1
 -2      6903      6993      3334      3344      6904      6994      3335      3345     16915     16987
 -2      4031     16279     16212     16920      4001      4033     16922     16991      4034     16283
 -1      2192    4    0    1
 -2      6904      6994      3335      3345      6905      6995      3336      3346     16922     16991
 -2      4034     16283     16219     16927      4004      4036     16929     16995      4037     16287
 -1      2193    4    0    1
 -2      6905      6995      3336      3346      6906      6996      3337      3347     16929     16995
 -2      4037     16287     16226     16934      4007      4039     16936     16999      4040     16291
 -1      2194    4    0    1
 -2      6906      6996      3337      3347      6907      6997      3338      3348     16936     16999
 -2      4040     16291     16233     16941      4010      4042     16943     17003      4043     16295
 -1      2195    4    0    1
 -2      6907      6997      3338      3348      6908      6998      3339      3349     16943     17003
 -2      4043     16295     16240     16948      4013      4045     16950     17007      4046     16299
 -1      2196    4    0    1
 -2      6908      6998      3339      3349      6909      6999      3340      3350     16950     17007
 -2      4046     16299     16247     16955      4016      4048     16957     17011      4049     16303
 -1      2197    4    0    1
 -2      6909      6999      3340      3350      6910      7000      3341      3351     16957     17011
 -2      4049     16303     16254     16962      4019      4051     16964     17015      4052     16307
 -1      2198    4    0    1
 -2      6910      7000      3341      3351      6911      7001      3342      3352     16964     17015
 -2      4052     16307     16261     16969      4022      4054     16971     17019      4055     16311
 -1      2199    4    0    1
 -2      6911      7001      3342      3352      6912      7002      3343      3353     16971     17019
 -2      4055     16311     16268     16976      4025      4057     16978     17023      4058     16315
 -1      2200    4    0    1
 -2      6912      7002      3343      3353      4900      4909       260       261     16978     17023
 -2      4058     16315     16275     16983      4028      4060      5407      5409       290      5380
 -1      2201    4    0    1
 -2        20        21       513       504      1636      1646      7003      6913        50      1014
 -2      1015       985      2168      2200     17029     16321      2201     17030     17031     16322
 -1      2202    4    0    1
 -2      1636      1646      7003      6913      1637      1647      7004      6914      2201     17030
 -2     17031     16322      2171      2203     17036     16328      2204     17037     17038     16329
 -1      2203    4    0    1
 -2      1637      1647      7004      6914      1638      1648      7005      6915      2204     17037
 -2     17038     16329      2174      2206     17043     16335      2207     17044     17045     16336
 -1      2204    4    0    1
 -2      1638      1648      7005      6915      1639      1649      7006      6916      2207     17044
 -2     17045     16336      2177      2209     17050     16342      2210     17051     17052     16343
 -1      2205    4    0    1
 -2      1639      1649      7006      6916      1640      1650      7007      6917      2210     17051
 -2     17052     16343      2180      2212     17057     16349      2213     17058     17059     16350
 -1      2206    4    0    1
 -2      1640      1650      7007      6917      1641      1651      7008      6918      2213     17058
 -2     17059     16350      2183      2215     17064     16356      2216     17065     17066     16357
 -1      2207    4    0    1
 -2      1641      1651      7008      6918      1642      1652      7009      6919      2216     17065
 -2     17066     16357      2186      2218     17071     16363      2219     17072     17073     16364
 -1      2208    4    0    1
 -2      1642      1652      7009      6919      1643      1653      7010      6920      2219     17072
 -2     17073     16364      2189      2221     17078     16370      2222     17079     17080     16371
 -1      2209    4    0    1
 -2      1643      1653      7010      6920      1644      1654      7011      6921      2222     17079
 -2     17080     16371      2192      2224     17085     16377      2225     17086     17087     16378
 -1      2210    4    0    1
 -2      1644      1654      7011      6921      1645      1655      7012      6922      2225     17086
 -2     17087     16378      2195      2227     17092     16384      2228     17093     17094     16385
 -1      2211    4    0    1
 -2      1645      1655      7012      6922       176       177      4910      4901      2228     17093
 -2     17094     16385      2198      2230     17099     16391       206      5411      5412      5382
 -1      2212    4    0    1
 -2       504       513       514       505      6913      7003      7013      6923      1015      1017
 -2      1018       988     16321     17029     17103     16395     17031     17104     17105     16396
 -1      2213    4    0    1
 -2      6913      7003      7013      6923      6914      7004      7014      6924     17031     17104
 -2     17105     16396     16328     17036     17110     16402     17038     17111     17112     16403
 -1      2214    4    0    1
 -2      6914      7004      7014      6924      6915      7005      7015      6925     17038     17111
 -2     17112     16403     16335     17043     17117     16409     17045     17118     17119     16410
 -1      2215    4    0    1
 -2      6915      7005      7015      6925      6916      7006      7016      6926     17045     17118
 -2     17119     16410     16342     17050     17124     16416     17052     17125     17126     16417
 -1      2216    4    0    1
 -2      6916      7006      7016      6926      6917      7007      7017      6927     17052     17125
 -2     17126     16417     16349     17057     17131     16423     17059     17132     17133     16424
 -1      2217    4    0    1
 -2      6917      7007      7017      6927      6918      7008      7018      6928     17059     17132
 -2     17133     16424     16356     17064     17138     16430     17066     17139     17140     16431
 -1      2218    4    0    1
 -2      6918      7008      7018      6928      6919      7009      7019      6929     17066     17139
 -2     17140     16431     16363     17071     17145     16437     17073     17146     17147     16438
 -1      2219    4    0    1
 -2      6919      7009      7019      6929      6920      7010      7020      6930     17073     17146
 -2     17147     16438     16370     17078     17152     16444     17080     17153     17154     16445
 -1      2220    4    0    1
 -2      6920      7010      7020      6930      6921      7011      7021      6931     17080     17153
 -2     17154     16445     16377     17085     17159     16451     17087     17160     17161     16452
 -1      2221    4    0    1
 -2      6921      7011      7021      6931      6922      7012      7022      6932     17087     17160
 -2     17161     16452     16384     17092     17166     16458     17094     17167     17168     16459
 -1      2222    4    0    1
 -2      6922      7012      7022      6932      4901      4910      4911      4902     17094     17167
 -2     17168     16459     16391     17099     17173     16465      5412      5414      5415      5385
 -1      2223    4    0    1
 -2       505       514       515       506      6923      7013      7023      6933      1018      1020
 -2      1021       991     16395     17103     17177     16469     17105     17178     17179     16470
 -1      2224    4    0    1
 -2      6923      7013      7023      6933      6924      7014      7024      6934     17105     17178
 -2     17179     16470     16402     17110     17184     16476     17112     17185     17186     16477
 -1      2225    4    0    1
 -2      6924      7014      7024      6934      6925      7015      7025      6935     17112     17185
 -2     17186     16477     16409     17117     17191     16483     17119     17192     17193     16484
 -1      2226    4    0    1
 -2      6925      7015      7025      6935      6926      7016      7026      6936     17119     17192
 -2     17193     16484     16416     17124     17198     16490     17126     17199     17200     16491
 -1      2227    4    0    1
 -2      6926      7016      7026      6936      6927      7017      7027      6937     17126     17199
 -2     17200     16491     16423     17131     17205     16497     17133     17206     17207     16498
 -1      2228    4    0    1
 -2      6927      7017      7027      6937      6928      7018      7028      6938     17133     17206
 -2     17207     16498     16430     17138     17212     16504     17140     17213     17214     16505
 -1      2229    4    0    1
 -2      6928      7018      7028      6938      6929      7019      7029      6939     17140     17213
 -2     17214     16505     16437     17145     17219     16511     17147     17220     17221     16512
 -1      2230    4    0    1
 -2      6929      7019      7029      6939      6930      7020      7030      6940     17147     17220
 -2     17221     16512     16444     17152     17226     16518     17154     17227     17228     16519
 -1      2231    4    0    1
 -2      6930      7020      7030      6940      6931      7021      7031      6941     17154     17227
 -2     17228     16519     16451     17159     17233     16525     17161     17234     17235     16526
 -1      2232    4    0    1
 -2      6931      7021      7031      6941      6932      7022      7032      6942     17161     17234
 -2     17235     16526     16458     17166     17240     16532     17168     17241     17242     16533
 -1      2233    4    0    1
 -2      6932      7022      7032      6942      4902      4911      4912      4903     17168     17241
 -2     17242     16533     16465     17173     17247     16539      5415      5417      5418      5388
 -1      2234    4    0    1
 -2       506       515       516       507      6933      7023      7033      6943      1021      1023
 -2      1024       994     16469     17177     17251     16543     17179     17252     17253     16544
 -1      2235    4    0    1
 -2      6933      7023      7033      6943      6934      7024      7034      6944     17179     17252
 -2     17253     16544     16476     17184     17258     16550     17186     17259     17260     16551
 -1      2236    4    0    1
 -2      6934      7024      7034      6944      6935      7025      7035      6945     17186     17259
 -2     17260     16551     16483     17191     17265     16557     17193     17266     17267     16558
 -1      2237    4    0    1
 -2      6935      7025      7035      6945      6936      7026      7036      6946     17193     17266
 -2     17267     16558     16490     17198     17272     16564     17200     17273     17274     16565
 -1      2238    4    0    1
 -2      6936      7026      7036      6946      6937      7027      7037      6947     17200     17273
 -2     17274     16565     16497     17205     17279     16571     17207     17280     17281     16572
 -1      2239    4    0    1
 -2      6937      7027      7037      6947      6938      7028      7038      6948     17207     17280
 -2     17281     16572     16504     17212     17286     16578     17214     17287     17288     16579
 -1      2240    4    0    1
 -2      6938      7028      7038      6948      6939      7029      7039      6949     17214     17287
 -2     17288     16579     16511     17219     17293     16585     17221     17294     17295     16586
 -1      2241    4    0    1
 -2      6939      7029      7039      6949      6940      7030      7040      6950     17221     17294
 -2     17295     16586     16518     17226     17300     16592     17228     17301     17302     16593
 -1      2242    4    0    1
 -2      6940      7030      7040      6950      6941      7031      7041      6951     17228     17301
 -2     17302     16593     16525     17233     17307     16599     17235     17308     17309     16600
 -1      2243    4    0    1
 -2      6941      7031      7041      6951      6942      7032      7042      6952     17235     17308
 -2     17309     16600     16532     17240     17314     16606     17242     17315     17316     16607
 -1      2244    4    0    1
 -2      6942      7032      7042      6952      4903      4912      4913      4904     17242     17315
 -2     17316     16607     16539     17247     17321     16613      5418      5420      5421      5391
 -1      2245    4    0    1
 -2       507       516       517       508      6943      7033      7043      6953      1024      1026
 -2      1027       997     16543     17251     17325     16617     17253     17326     17327     16618
 -1      2246    4    0    1
 -2      6943      7033      7043      6953      6944      7034      7044      6954     17253     17326
 -2     17327     16618     16550     17258     17332     16624     17260     17333     17334     16625
 -1      2247    4    0    1
 -2      6944      7034      7044      6954      6945      7035      7045      6955     17260     17333
 -2     17334     16625     16557     17265     17339     16631     17267     17340     17341     16632
 -1      2248    4    0    1
 -2      6945      7035      7045      6955      6946      7036      7046      6956     17267     17340
 -2     17341     16632     16564     17272     17346     16638     17274     17347     17348     16639
 -1      2249    4    0    1
 -2      6946      7036      7046      6956      6947      7037      7047      6957     17274     17347
 -2     17348     16639     16571     17279     17353     16645     17281     17354     17355     16646
 -1      2250    4    0    1
 -2      6947      7037      7047      6957      6948      7038      7048      6958     17281     17354
 -2     17355     16646     16578     17286     17360     16652     17288     17361     17362     16653
 -1      2251    4    0    1
 -2      6948      7038      7048      6958      6949      7039      7049      6959     17288     17361
 -2     17362     16653     16585     17293     17367     16659     17295     17368     17369     16660
 -1      2252    4    0    1
 -2      6949      7039      7049      6959      6950      7040      7050      6960     17295     17368
 -2     17369     16660     16592     17300     17374     16666     17302     17375     17376     16667
 -1      2253    4    0    1
 -2      6950      7040      7050      6960      6951      7041      7051      6961     17302     17375
 -2     17376     16667     16599     17307     17381     16673     17309     17382     17383     16674
 -1      2254    4    0    1
 -2      6951      7041      7051      6961      6952      7042      7052      6962     17309     17382
 -2     17383     16674     16606     17314     17388     16680     17316     17389     17390     16681
 -1      2255    4    0    1
 -2      6952      7042      7052      6962      4904      4913      4914      4905     17316     17389
 -2     17390     16681     16613     17321     17395     16687      5421      5423      5424      5394
 -1      2256    4    0    1
 -2       508       517       518       509      6953      7043      7053      6963      1027      1029
 -2      1030      1000     16617     17325     17399     16691     17327     17400     17401     16692
 -1      2257    4    0    1
 -2      6953      7043      7053      6963      6954      7044      7054      6964     17327     17400
 -2     17401     16692     16624     17332     17406     16698     17334     17407     17408     16699
 -1      2258    4    0    1
 -2      6954      7044      7054      6964      6955      7045      7055      6965     17334     17407
 -2     17408     16699     16631     17339     17413     16705     17341     17414     17415     16706
 -1      2259    4    0    1
 -2      6955      7045      7055      6965      6956      7046      7056      6966     17341     17414
 -2     17415     16706     16638     17346     17420     16712     17348     17421     17422     16713
 -1      2260    4    0    1
 -2      6956      7046      7056      6966      6957      7047      7057      6967     17348     17421
 -2     17422     16713     16645     17353     17427     16719     17355     17428     17429     16720
 -1      2261    4    0    1
 -2      6957      7047      7057      6967      6958      7048      7058      6968     17355     17428
 -2     17429     16720     16652     17360     17434     16726     17362     17435     17436     16727
 -1      2262    4    0    1
 -2      6958      7048      7058      6968      6959      7049      7059      6969     17362     17435
 -2     17436     16727     16659     17367     17441     16733     17369     17442     17443     16734
 -1      2263    4    0    1
 -2      6959      7049      7059      6969      6960      7050      7060      6970     17369     17442
 -2     17443     16734     16666     17374     17448     16740     17376     17449     17450     16741
 -1      2264    4    0    1
 -2      6960      7050      7060      6970      6961      7051      7061      6971     17376     17449
 -2     17450     16741     16673     17381     17455     16747     17383     17456     17457     16748
 -1      2265    4    0    1
 -2      6961      7051      7061      6971      6962      7052      7062      6972     17383     17456
 -2     17457     16748     16680     17388     17462     16754     17390     17463     17464     16755
 -1      2266    4    0    1
 -2      6962      7052      7062      6972      4905      4914      4915      4906     17390     17463
 -2     17464     16755     16687     17395     17469     16761      5424      5426      5427      5397
 -1      2267    4    0    1
 -2       509       518       519       510      6963      7053      7063      6973      1030      1032
 -2      1033      1003     16691     17399     17473     16765     17401     17474     17475     16766
 -1      2268    4    0    1
 -2      6963      7053      7063      6973      6964      7054      7064      6974     17401     17474
 -2     17475     16766     16698     17406     17480     16772     17408     17481     17482     16773
 -1      2269    4    0    1
 -2      6964      7054      7064      6974      6965      7055      7065      6975     17408     17481
 -2     17482     16773     16705     17413     17487     16779     17415     17488     17489     16780
 -1      2270    4    0    1
 -2      6965      7055      7065      6975      6966      7056      7066      6976     17415     17488
 -2     17489     16780     16712     17420     17494     16786     17422     17495     17496     16787
 -1      2271    4    0    1
 -2      6966      7056      7066      6976      6967      7057      7067      6977     17422     17495
 -2     17496     16787     16719     17427     17501     16793     17429     17502     17503     16794
 -1      2272    4    0    1
 -2      6967      7057      7067      6977      6968      7058      7068      6978     17429     17502
 -2     17503     16794     16726     17434     17508     16800     17436     17509     17510     16801
 -1      2273    4    0    1
 -2      6968      7058      7068      6978      6969      7059      7069      6979     17436     17509
 -2     17510     16801     16733     17441     17515     16807     17443     17516     17517     16808
 -1      2274    4    0    1
 -2      6969      7059      7069      6979      6970      7060      7070      6980     17443     17516
 -2     17517     16808     16740     17448     17522     16814     17450     17523     17524     16815
 -1      2275    4    0    1
 -2      6970      7060      7070      6980      6971      7061      7071      6981     17450     17523
 -2     17524     16815     16747     17455     17529     16821     17457     17530     17531     16822
 -1      2276    4    0    1
 -2      6971      7061      7071      6981      6972      7062      7072      6982     17457     17530
 -2     17531     16822     16754     17462     17536     16828     17464     17537     17538     16829
 -1      2277    4    0    1
 -2      6972      7062      7072      6982      4906      4915      4916      4907     17464     17537
 -2     17538     16829     16761     17469     17543     16835      5427      5429      5430      5400
 -1      2278    4    0    1
 -2       510       519       520       511      6973      7063      7073      6983      1033      1035
 -2      1036      1006     16765     17473     17547     16839     17475     17548     17549     16840
 -1      2279    4    0    1
 -2      6973      7063      7073      6983      6974      7064      7074      6984     17475     17548
 -2     17549     16840     16772     17480     17554     16846     17482     17555     17556     16847
 -1      2280    4    0    1
 -2      6974      7064      7074      6984      6975      7065      7075      6985     17482     17555
 -2     17556     16847     16779     17487     17561     16853     17489     17562     17563     16854
 -1      2281    4    0    1
 -2      6975      7065      7075      6985      6976      7066      7076      6986     17489     17562
 -2     17563     16854     16786     17494     17568     16860     17496     17569     17570     16861
 -1      2282    4    0    1
 -2      6976      7066      7076      6986      6977      7067      7077      6987     17496     17569
 -2     17570     16861     16793     17501     17575     16867     17503     17576     17577     16868
 -1      2283    4    0    1
 -2      6977      7067      7077      6987      6978      7068      7078      6988     17503     17576
 -2     17577     16868     16800     17508     17582     16874     17510     17583     17584     16875
 -1      2284    4    0    1
 -2      6978      7068      7078      6988      6979      7069      7079      6989     17510     17583
 -2     17584     16875     16807     17515     17589     16881     17517     17590     17591     16882
 -1      2285    4    0    1
 -2      6979      7069      7079      6989      6980      7070      7080      6990     17517     17590
 -2     17591     16882     16814     17522     17596     16888     17524     17597     17598     16889
 -1      2286    4    0    1
 -2      6980      7070      7080      6990      6981      7071      7081      6991     17524     17597
 -2     17598     16889     16821     17529     17603     16895     17531     17604     17605     16896
 -1      2287    4    0    1
 -2      6981      7071      7081      6991      6982      7072      7082      6992     17531     17604
 -2     17605     16896     16828     17536     17610     16902     17538     17611     17612     16903
 -1      2288    4    0    1
 -2      6982      7072      7082      6992      4907      4916      4917      4908     17538     17611
 -2     17612     16903     16835     17543     17617     16909      5430      5432      5433      5403
 -1      2289    4    0    1
 -2       511       520       521       512      6983      7073      7083      6993      1036      1038
 -2      1039      1009     16839     17547     17621     16913     17549     17622     17623     16914
 -1      2290    4    0    1
 -2      6983      7073      7083      6993      6984      7074      7084      6994     17549     17622
 -2     17623     16914     16846     17554     17628     16920     17556     17629     17630     16921
 -1      2291    4    0    1
 -2      6984      7074      7084      6994      6985      7075      7085      6995     17556     17629
 -2     17630     16921     16853     17561     17635     16927     17563     17636     17637     16928
 -1      2292    4    0    1
 -2      6985      7075      7085      6995      6986      7076      7086      6996     17563     17636
 -2     17637     16928     16860     17568     17642     16934     17570     17643     17644     16935
 -1      2293    4    0    1
 -2      6986      7076      7086      6996      6987      7077      7087      6997     17570     17643
 -2     17644     16935     16867     17575     17649     16941     17577     17650     17651     16942
 -1      2294    4    0    1
 -2      6987      7077      7087      6997      6988      7078      7088      6998     17577     17650
 -2     17651     16942     16874     17582     17656     16948     17584     17657     17658     16949
 -1      2295    4    0    1
 -2      6988      7078      7088      6998      6989      7079      7089      6999     17584     17657
 -2     17658     16949     16881     17589     17663     16955     17591     17664     17665     16956
 -1      2296    4    0    1
 -2      6989      7079      7089      6999      6990      7080      7090      7000     17591     17664
 -2     17665     16956     16888     17596     17670     16962     17598     17671     17672     16963
 -1      2297    4    0    1
 -2      6990      7080      7090      7000      6991      7081      7091      7001     17598     17671
 -2     17672     16963     16895     17603     17677     16969     17605     17678     17679     16970
 -1      2298    4    0    1
 -2      6991      7081      7091      7001      6992      7082      7092      7002     17605     17678
 -2     17679     16970     16902     17610     17684     16976     17612     17685     17686     16977
 -1      2299    4    0    1
 -2      6992      7082      7092      7002      4908      4917      4918      4909     17612     17685
 -2     17686     16977     16909     17617     17691     16983      5433      5435      5436      5406
 -1      2300    4    0    1
 -2       512       521       103       104      6993      7083      3324      3334      1039      1041
 -2       133      1012     16913     17621      3966      3998     17623     17695      3999     16987
 -1      2301    4    0    1
 -2      6993      7083      3324      3334      6994      7084      3325      3335     17623     17695
 -2      3999     16987     16920     17628      3969      4001     17630     17699      4002     16991
 -1      2302    4    0    1
 -2      6994      7084      3325      3335      6995      7085      3326      3336     17630     17699
 -2      4002     16991     16927     17635      3972      4004     17637     17703      4005     16995
 -1      2303    4    0    1
 -2      6995      7085      3326      3336      6996      7086      3327      3337     17637     17703
 -2      4005     16995     16934     17642      3975      4007     17644     17707      4008     16999
 -1      2304    4    0    1
 -2      6996      7086      3327      3337      6997      7087      3328      3338     17644     17707
 -2      4008     16999     16941     17649      3978      4010     17651     17711      4011     17003
 -1      2305    4    0    1
 -2      6997      7087      3328      3338      6998      7088      3329      3339     17651     17711
 -2      4011     17003     16948     17656      3981      4013     17658     17715      4014     17007
 -1      2306    4    0    1
 -2      6998      7088      3329      3339      6999      7089      3330      3340     17658     17715
 -2      4014     17007     16955     17663      3984      4016     17665     17719      4017     17011
 -1      2307    4    0    1
 -2      6999      7089      3330      3340      7000      7090      3331      3341     17665     17719
 -2      4017     17011     16962     17670      3987      4019     17672     17723      4020     17015
 -1      2308    4    0    1
 -2      7000      7090      3331      3341      7001      7091      3332      3342     17672     17723
 -2      4020     17015     16969     17677      3990      4022     17679     17727      4023     17019
 -1      2309    4    0    1
 -2      7001      7091      3332      3342      7002      7092      3333      3343     17679     17727
 -2      4023     17019     16976     17684      3993      4025     17686     17731      4026     17023
 -1      2310    4    0    1
 -2      7002      7092      3333      3343      4909      4918       259       260     17686     17731
 -2      4026     17023     16983     17691      3996      4028      5436      5438       289      5409
 -1      2311    4    0    1
 -2        21        22       522       513      1646      1656      7093      7003        51      1043
 -2      1044      1014      2200      2232     17737     17029      2233     17738     17739     17030
 -1      2312    4    0    1
 -2      1646      1656      7093      7003      1647      1657      7094      7004      2233     17738
 -2     17739     17030      2203      2235     17744     17036      2236     17745     17746     17037
 -1      2313    4    0    1
 -2      1647      1657      7094      7004      1648      1658      7095      7005      2236     17745
 -2     17746     17037      2206      2238     17751     17043      2239     17752     17753     17044
 -1      2314    4    0    1
 -2      1648      1658      7095      7005      1649      1659      7096      7006      2239     17752
 -2     17753     17044      2209      2241     17758     17050      2242     17759     17760     17051
 -1      2315    4    0    1
 -2      1649      1659      7096      7006      1650      1660      7097      7007      2242     17759
 -2     17760     17051      2212      2244     17765     17057      2245     17766     17767     17058
 -1      2316    4    0    1
 -2      1650      1660      7097      7007      1651      1661      7098      7008      2245     17766
 -2     17767     17058      2215      2247     17772     17064      2248     17773     17774     17065
 -1      2317    4    0    1
 -2      1651      1661      7098      7008      1652      1662      7099      7009      2248     17773
 -2     17774     17065      2218      2250     17779     17071      2251     17780     17781     17072
 -1      2318    4    0    1
 -2      1652      1662      7099      7009      1653      1663      7100      7010      2251     17780
 -2     17781     17072      2221      2253     17786     17078      2254     17787     17788     17079
 -1      2319    4    0    1
 -2      1653      1663      7100      7010      1654      1664      7101      7011      2254     17787
 -2     17788     17079      2224      2256     17793     17085      2257     17794     17795     17086
 -1      2320    4    0    1
 -2      1654      1664      7101      7011      1655      1665      7102      7012      2257     17794
 -2     17795     17086      2227      2259     17800     17092      2260     17801     17802     17093
 -1      2321    4    0    1
 -2      1655      1665      7102      7012       177       178      4919      4910      2260     17801
 -2     17802     17093      2230      2262     17807     17099       207      5440      5441      5411
 -1      2322    4    0    1
 -2       513       522       523       514      7003      7093      7103      7013      1044      1046
 -2      1047      1017     17029     17737     17811     17103     17739     17812     17813     17104
 -1      2323    4    0    1
 -2      7003      7093      7103      7013      7004      7094      7104      7014     17739     17812
 -2     17813     17104     17036     17744     17818     17110     17746     17819     17820     17111
 -1      2324    4    0    1
 -2      7004      7094      7104      7014      7005      7095      7105      7015     17746     17819
 -2     17820     17111     17043     17751     17825     17117     17753     17826     17827     17118
 -1      2325    4    0    1
 -2      7005      7095      7105      7015      7006      7096      7106      7016     17753     17826
 -2     17827     17118     17050     17758     17832     17124     17760     17833     17834     17125
 -1      2326    4    0    1
 -2      7006      7096      7106      7016      7007      7097      7107      7017     17760     17833
 -2     17834     17125     17057     17765     17839     17131     17767     17840     17841     17132
 -1      2327    4    0    1
 -2      7007      7097      7107      7017      7008      7098      7108      7018     17767     17840
 -2     17841     17132     17064     17772     17846     17138     17774     17847     17848     17139
 -1      2328    4    0    1
 -2      7008      7098      7108      7018      7009      7099      7109      7019     17774     17847
 -2     17848     17139     17071     17779     17853     17145     17781     17854     17855     17146
 -1      2329    4    0    1
 -2      7009      7099      7109      7019      7010      7100      7110      7020     17781     17854
 -2     17855     17146     17078     17786     17860     17152     17788     17861     17862     17153
 -1      2330    4    0    1
 -2      7010      7100      7110      7020      7011      7101      7111      7021     17788     17861
 -2     17862     17153     17085     17793     17867     17159     17795     17868     17869     17160
 -1      2331    4    0    1
 -2      7011      7101      7111      7021      7012      7102      7112      7022     17795     17868
 -2     17869     17160     17092     17800     17874     17166     17802     17875     17876     17167
 -1      2332    4    0    1
 -2      7012      7102      7112      7022      4910      4919      4920      4911     17802     17875
 -2     17876     17167     17099     17807     17881     17173      5441      5443      5444      5414
 -1      2333    4    0    1
 -2       514       523       524       515      7013      7103      7113      7023      1047      1049
 -2      1050      1020     17103     17811     17885     17177     17813     17886     17887     17178
 -1      2334    4    0    1
 -2      7013      7103      7113      7023      7014      7104      7114      7024     17813     17886
 -2     17887     17178     17110     17818     17892     17184     17820     17893     17894     17185
 -1      2335    4    0    1
 -2      7014      7104      7114      7024      7015      7105      7115      7025     17820     17893
 -2     17894     17185     17117     17825     17899     17191     17827     17900     17901     17192
 -1      2336    4    0    1
 -2      7015      7105      7115      7025      7016      7106      7116      7026     17827     17900
 -2     17901     17192     17124     17832     17906     17198     17834     17907     17908     17199
 -1      2337    4    0    1
 -2      7016      7106      7116      7026      7017      7107      7117      7027     17834     17907
 -2     17908     17199     17131     17839     17913     17205     17841     17914     17915     17206
 -1      2338    4    0    1
 -2      7017      7107      7117      7027      7018      7108      7118      7028     17841     17914
 -2     17915     17206     17138     17846     17920     17212     17848     17921     17922     17213
 -1      2339    4    0    1
 -2      7018      7108      7118      7028      7019      7109      7119      7029     17848     17921
 -2     17922     17213     17145     17853     17927     17219     17855     17928     17929     17220
 -1      2340    4    0    1
 -2      7019      7109      7119      7029      7020      7110      7120      7030     17855     17928
 -2     17929     17220     17152     17860     17934     17226     17862     17935     17936     17227
 -1      2341    4    0    1
 -2      7020      7110      7120      7030      7021      7111      7121      7031     17862     17935
 -2     17936     17227     17159     17867     17941     17233     17869     17942     17943     17234
 -1      2342    4    0    1
 -2      7021      7111      7121      7031      7022      7112      7122      7032     17869     17942
 -2     17943     17234     17166     17874     17948     17240     17876     17949     17950     17241
 -1      2343    4    0    1
 -2      7022      7112      7122      7032      4911      4920      4921      4912     17876     17949
 -2     17950     17241     17173     17881     17955     17247      5444      5446      5447      5417
 -1      2344    4    0    1
 -2       515       524       525       516      7023      7113      7123      7033      1050      1052
 -2      1053      1023     17177     17885     17959     17251     17887     17960     17961     17252
 -1      2345    4    0    1
 -2      7023      7113      7123      7033      7024      7114      7124      7034     17887     17960
 -2     17961     17252     17184     17892     17966     17258     17894     17967     17968     17259
 -1      2346    4    0    1
 -2      7024      7114      7124      7034      7025      7115      7125      7035     17894     17967
 -2     17968     17259     17191     17899     17973     17265     17901     17974     17975     17266
 -1      2347    4    0    1
 -2      7025      7115      7125      7035      7026      7116      7126      7036     17901     17974
 -2     17975     17266     17198     17906     17980     17272     17908     17981     17982     17273
 -1      2348    4    0    1
 -2      7026      7116      7126      7036      7027      7117      7127      7037     17908     17981
 -2     17982     17273     17205     17913     17987     17279     17915     17988     17989     17280
 -1      2349    4    0    1
 -2      7027      7117      7127      7037      7028      7118      7128      7038     17915     17988
 -2     17989     17280     17212     17920     17994     17286     17922     17995     17996     17287
 -1      2350    4    0    1
 -2      7028      7118      7128      7038      7029      7119      7129      7039     17922     17995
 -2     17996     17287     17219     17927     18001     17293     17929     18002     18003     17294
 -1      2351    4    0    1
 -2      7029      7119      7129      7039      7030      7120      7130      7040     17929     18002
 -2     18003     17294     17226     17934     18008     17300     17936     18009     18010     17301
 -1      2352    4    0    1
 -2      7030      7120      7130      7040      7031      7121      7131      7041     17936     18009
 -2     18010     17301     17233     17941     18015     17307     17943     18016     18017     17308
 -1      2353    4    0    1
 -2      7031      7121      7131      7041      7032      7122      7132      7042     17943     18016
 -2     18017     17308     17240     17948     18022     17314     17950     18023     18024     17315
 -1      2354    4    0    1
 -2      7032      7122      7132      7042      4912      4921      4922      4913     17950     18023
 -2     18024     17315     17247     17955     18029     17321      5447      5449      5450      5420
 -1      2355    4    0    1
 -2       516       525       526       517      7033      7123      7133      7043      1053      1055
 -2      1056      1026     17251     17959     18033     17325     17961     18034     18035     17326
 -1      2356    4    0    1
 -2      7033      7123      7133      7043      7034      7124      7134      7044     17961     18034
 -2     18035     17326     17258     17966     18040     17332     17968     18041     18042     17333
 -1      2357    4    0    1
 -2      7034      7124      7134      7044      7035      7125      7135      7045     17968     18041
 -2     18042     17333     17265     17973     18047     17339     17975     18048     18049     17340
 -1      2358    4    0    1
 -2      7035      7125      7135      7045      7036      7126      7136      7046     17975     18048
 -2     18049     17340     17272     17980     18054     17346     17982     18055     18056     17347
 -1      2359    4    0    1
 -2      7036      7126      7136      7046      7037      7127      7137      7047     17982     18055
 -2     18056     17347     17279     17987     18061     17353     17989     18062     18063     17354
 -1      2360    4    0    1
 -2      7037      7127      7137      7047      7038      7128      7138      7048     17989     18062
 -2     18063     17354     17286     17994     18068     17360     17996     18069     18070     17361
 -1      2361    4    0    1
 -2      7038      7128      7138      7048      7039      7129      7139      7049     17996     18069
 -2     18070     17361     17293     18001     18075     17367     18003     18076     18077     17368
 -1      2362    4    0    1
 -2      7039      7129      7139      7049      7040      7130      7140      7050     18003     18076
 -2     18077     17368     17300     18008     18082     17374     18010     18083     18084     17375
 -1      2363    4    0    1
 -2      7040      7130      7140      7050      7041      7131      7141      7051     18010     18083
 -2     18084     17375     17307     18015     18089     17381     18017     18090     18091     17382
 -1      2364    4    0    1
 -2      7041      7131      7141      7051      7042      7132      7142      7052     18017     18090
 -2     18091     17382     17314     18022     18096     17388     18024     18097     18098     17389
 -1      2365    4    0    1
 -2      7042      7132      7142      7052      4913      4922      4923      4914     18024     18097
 -2     18098     17389     17321     18029     18103     17395      5450      5452      5453      5423
 -1      2366    4    0    1
 -2       517       526       527       518      7043      7133      7143      7053      1056      1058
 -2      1059      1029     17325     18033     18107     17399     18035     18108     18109     17400
 -1      2367    4    0    1
 -2      7043      7133      7143      7053      7044      7134      7144      7054     18035     18108
 -2     18109     17400     17332     18040     18114     17406     18042     18115     18116     17407
 -1      2368    4    0    1
 -2      7044      7134      7144      7054      7045      7135      7145      7055     18042     18115
 -2     18116     17407     17339     18047     18121     17413     18049     18122     18123     17414
 -1      2369    4    0    1
 -2      7045      7135      7145      7055      7046      7136      7146      7056     18049     18122
 -2     18123     17414     17346     18054     18128     17420     18056     18129     18130     17421
 -1      2370    4    0    1
 -2      7046      7136      7146      7056      7047      7137      7147      7057     18056     18129
 -2     18130     17421     17353     18061     18135     17427     18063     18136     18137     17428
 -1      2371    4    0    1
 -2      7047      7137      7147      7057      7048      7138      7148      7058     18063     18136
 -2     18137     17428     17360     18068     18142     17434     18070     18143     18144     17435
 -1      2372    4    0    1
 -2      7048      7138      7148      7058      7049      7139      7149      7059     18070     18143
 -2     18144     17435     17367     18075     18149     17441     18077     18150     18151     17442
 -1      2373    4    0    1
 -2      7049      7139      7149      7059      7050      7140      7150      7060     18077     18150
 -2     18151     17442     17374     18082     18156     17448     18084     18157     18158     17449
 -1      2374    4    0    1
 -2      7050      7140      7150      7060      7051      7141      7151      7061     18084     18157
 -2     18158     17449     17381     18089     18163     17455     18091     18164     18165     17456
 -1      2375    4    0    1
 -2      7051      7141      7151      7061      7052      7142      7152      7062     18091     18164
 -2     18165     17456     17388     18096     18170     17462     18098     18171     18172     17463
 -1      2376    4    0    1
 -2      7052      7142      7152      7062      4914      4923      4924      4915     18098     18171
 -2     18172     17463     17395     18103     18177     17469      5453      5455      5456      5426
 -1      2377    4    0    1
 -2       518       527       528       519      7053      7143      7153      7063      1059      1061
 -2      1062      1032     17399     18107     18181     17473     18109     18182     18183     17474
 -1      2378    4    0    1
 -2      7053      7143      7153      7063      7054      7144      7154      7064     18109     18182
 -2     18183     17474     17406     18114     18188     17480     18116     18189     18190     17481
 -1      2379    4    0    1
 -2      7054      7144      7154      7064      7055      7145      7155      7065     18116     18189
 -2     18190     17481     17413     18121     18195     17487     18123     18196     18197     17488
 -1      2380    4    0    1
 -2      7055      7145      7155      7065      7056      7146      7156      7066     18123     18196
 -2     18197     17488     17420     18128     18202     17494     18130     18203     18204     17495
 -1      2381    4    0    1
 -2      7056      7146      7156      7066      7057      7147      7157      7067     18130     18203
 -2     18204     17495     17427     18135     18209     17501     18137     18210     18211     17502
 -1      2382    4    0    1
 -2      7057      7147      7157      7067      7058      7148      7158      7068     18137     18210
 -2     18211     17502     17434     18142     18216     17508     18144     18217     18218     17509
 -1      2383    4    0    1
 -2      7058      7148      7158      7068      7059      7149      7159      7069     18144     18217
 -2     18218     17509     17441     18149     18223     17515     18151     18224     18225     17516
 -1      2384    4    0    1
 -2      7059      7149      7159      7069      7060      7150      7160      7070     18151     18224
 -2     18225     17516     17448     18156     18230     17522     18158     18231     18232     17523
 -1      2385    4    0    1
 -2      7060      7150      7160      7070      7061      7151      7161      7071     18158     18231
 -2     18232     17523     17455     18163     18237     17529     18165     18238     18239     17530
 -1      2386    4    0    1
 -2      7061      7151      7161      7071      7062      7152      7162      7072     18165     18238
 -2     18239     17530     17462     18170     18244     17536     18172     18245     18246     17537
 -1      2387    4    0    1
 -2      7062      7152      7162      7072      4915      4924      4925      4916     18172     18245
 -2     18246     17537     17469     18177     18251     17543      5456      5458      5459      5429
 -1      2388    4    0    1
 -2       519       528       529       520      7063      7153      7163      7073      1062      1064
 -2      1065      1035     17473     18181     18255     17547     18183     18256     18257     17548
 -1      2389    4    0    1
 -2      7063      7153      7163      7073      7064      7154      7164      7074     18183     18256
 -2     18257     17548     17480     18188     18262     17554     18190     18263     18264     17555
 -1      2390    4    0    1
 -2      7064      7154      7164      7074      7065      7155      7165      7075     18190     18263
 -2     18264     17555     17487     18195     18269     17561     18197     18270     18271     17562
 -1      2391    4    0    1
 -2      7065      7155      7165      7075      7066      7156      7166      7076     18197     18270
 -2     18271     17562     17494     18202     18276     17568     18204     18277     18278     17569
 -1      2392    4    0    1
 -2      7066      7156      7166      7076      7067      7157      7167      7077     18204     18277
 -2     18278     17569     17501     18209     18283     17575     18211     18284     18285     17576
 -1      2393    4    0    1
 -2      7067      7157      7167      7077      7068      7158      7168      7078     18211     18284
 -2     18285     17576     17508     18216     18290     17582     18218     18291     18292     17583
 -1      2394    4    0    1
 -2      7068      7158      7168      7078      7069      7159      7169      7079     18218     18291
 -2     18292     17583     17515     18223     18297     17589     18225     18298     18299     17590
 -1      2395    4    0    1
 -2      7069      7159      7169      7079      7070      7160      7170      7080     18225     18298
 -2     18299     17590     17522     18230     18304     17596     18232     18305     18306     17597
 -1      2396    4    0    1
 -2      7070      7160      7170      7080      7071      7161      7171      7081     18232     18305
 -2     18306     17597     17529     18237     18311     17603     18239     18312     18313     17604
 -1      2397    4    0    1
 -2      7071      7161      7171      7081      7072      7162      7172      7082     18239     18312
 -2     18313     17604     17536     18244     18318     17610     18246     18319     18320     17611
 -1      2398    4    0    1
 -2      7072      7162      7172      7082      4916      4925      4926      4917     18246     18319
 -2     18320     17611     17543     18251     18325     17617      5459      5461      5462      5432
 -1      2399    4    0    1
 -2       520       529       530       521      7073      7163      7173      7083      1065      1067
 -2      1068      1038     17547     18255     18329     17621     18257     18330     18331     17622
 -1      2400    4    0    1
 -2      7073      7163      7173      7083      7074      7164      7174      7084     18257     18330
 -2     18331     17622     17554     18262     18336     17628     18264     18337     18338     17629
 -1      2401    4    0    1
 -2      7074      7164      7174      7084      7075      7165      7175      7085     18264     18337
 -2     18338     17629     17561     18269     18343     17635     18271     18344     18345     17636
 -1      2402    4    0    1
 -2      7075      7165      7175      7085      7076      7166      7176      7086     18271     18344
 -2     18345     17636     17568     18276     18350     17642     18278     18351     18352     17643
 -1      2403    4    0    1
 -2      7076      7166      7176      7086      7077      7167      7177      7087     18278     18351
 -2     18352     17643     17575     18283     18357     17649     18285     18358     18359     17650
 -1      2404    4    0    1
 -2      7077      7167      7177      7087      7078      7168      7178      7088     18285     18358
 -2     18359     17650     17582     18290     18364     17656     18292     18365     18366     17657
 -1      2405    4    0    1
 -2      7078      7168      7178      7088      7079      7169      7179      7089     18292     18365
 -2     18366     17657     17589     18297     18371     17663     18299     18372     18373     17664
 -1      2406    4    0    1
 -2      7079      7169      7179      7089      7080      7170      7180      7090     18299     18372
 -2     18373     17664     17596     18304     18378     17670     18306     18379     18380     17671
 -1      2407    4    0    1
 -2      7080      7170      7180      7090      7081      7171      7181      7091     18306     18379
 -2     18380     17671     17603     18311     18385     17677     18313     18386     18387     17678
 -1      2408    4    0    1
 -2      7081      7171      7181      7091      7082      7172      7182      7092     18313     18386
 -2     18387     17678     17610     18318     18392     17684     18320     18393     18394     17685
 -1      2409    4    0    1
 -2      7082      7172      7182      7092      4917      4926      4927      4918     18320     18393
 -2     18394     17685     17617     18325     18399     17691      5462      5464      5465      5435
 -1      2410    4    0    1
 -2       521       530       102       103      7083      7173      3314      3324      1068      1070
 -2       132      1041     17621     18329      3934      3966     18331     18403      3967     17695
 -1      2411    4    0    1
 -2      7083      7173      3314      3324      7084      7174      3315      3325     18331     18403
 -2      3967     17695     17628     18336      3937      3969     18338     18407      3970     17699
 -1      2412    4    0    1
 -2      7084      7174      3315      3325      7085      7175      3316      3326     18338     18407
 -2      3970     17699     17635     18343      3940      3972     18345     18411      3973     17703
 -1      2413    4    0    1
 -2      7085      7175      3316      3326      7086      7176      3317      3327     18345     18411
 -2      3973     17703     17642     18350      3943      3975     18352     18415      3976     17707
 -1      2414    4    0    1
 -2      7086      7176      3317      3327      7087      7177      3318      3328     18352     18415
 -2      3976     17707     17649     18357      3946      3978     18359     18419      3979     17711
 -1      2415    4    0    1
 -2      7087      7177      3318      3328      7088      7178      3319      3329     18359     18419
 -2      3979     17711     17656     18364      3949      3981     18366     18423      3982     17715
 -1      2416    4    0    1
 -2      7088      7178      3319      3329      7089      7179      3320      3330     18366     18423
 -2      3982     17715     17663     18371      3952      3984     18373     18427      3985     17719
 -1      2417    4    0    1
 -2      7089      7179      3320      3330      7090      7180      3321      3331     18373     18427
 -2      3985     17719     17670     18378      3955      3987     18380     18431      3988     17723
 -1      2418    4    0    1
 -2      7090      7180      3321      3331      7091      7181      3322      3332     18380     18431
 -2      3988     17723     17677     18385      3958      3990     18387     18435      3991     17727
 -1      2419    4    0    1
 -2      7091      7181      3322      3332      7092      7182      3323      3333     18387     18435
 -2      3991     17727     17684     18392      3961      3993     18394     18439      3994     17731
 -1      2420    4    0    1
 -2      7092      7182      3323      3333      4918      4927       258       259     18394     18439
 -2      3994     17731     17691     18399      3964      3996      5465      5467       288      5438
 -1      2421    4    0    1
 -2        22        23       531       522      1656      1666      7183      7093        52      1072
 -2      1073      1043      2232      2264     18445     17737      2265     18446     18447     17738
 -1      2422    4    0    1
 -2      1656      1666      7183      7093      1657      1667      7184      7094      2265     18446
 -2     18447     17738      2235      2267     18452     17744      2268     18453     18454     17745
 -1      2423    4    0    1
 -2      1657      1667      7184      7094      1658      1668      7185      7095      2268     18453
 -2     18454     17745      2238      2270     18459     17751      2271     18460     18461     17752
 -1      2424    4    0    1
 -2      1658      1668      7185      7095      1659      1669      7186      7096      2271     18460
 -2     18461     17752      2241      2273     18466     17758      2274     18467     18468     17759
 -1      2425    4    0    1
 -2      1659      1669      7186      7096      1660      1670      7187      7097      2274     18467
 -2     18468     17759      2244      2276     18473     17765      2277     18474     18475     17766
 -1      2426    4    0    1
 -2      1660      1670      7187      7097      1661      1671      7188      7098      2277     18474
 -2     18475     17766      2247      2279     18480     17772      2280     18481     18482     17773
 -1      2427    4    0    1
 -2      1661      1671      7188      7098      1662      1672      7189      7099      2280     18481
 -2     18482     17773      2250      2282     18487     17779      2283     18488     18489     17780
 -1      2428    4    0    1
 -2      1662      1672      7189      7099      1663      1673      7190      7100      2283     18488
 -2     18489     17780      2253      2285     18494     17786      2286     18495     18496     17787
 -1      2429    4    0    1
 -2      1663      1673      7190      7100      1664      1674      7191      7101      2286     18495
 -2     18496     17787      2256      2288     18501     17793      2289     18502     18503     17794
 -1      2430    4    0    1
 -2      1664      1674      7191      7101      1665      1675      7192      7102      2289     18502
 -2     18503     17794      2259      2291     18508     17800      2292     18509     18510     17801
 -1      2431    4    0    1
 -2      1665      1675      7192      7102       178       179      4928      4919      2292     18509
 -2     18510     17801      2262      2294     18515     17807       208      5469      5470      5440
 -1      2432    4    0    1
 -2       522       531       532       523      7093      7183      7193      7103      1073      1075
 -2      1076      1046     17737     18445     18519     17811     18447     18520     18521     17812
 -1      2433    4    0    1
 -2      7093      7183      7193      7103      7094      7184      7194      7104     18447     18520
 -2     18521     17812     17744     18452     18526     17818     18454     18527     18528     17819
 -1      2434    4    0    1
 -2      7094      7184      7194      7104      7095      7185      7195      7105     18454     18527
 -2     18528     17819     17751     18459     18533     17825     18461     18534     18535     17826
 -1      2435    4    0    1
 -2      7095      7185      7195      7105      7096      7186      7196      7106     18461     18534
 -2     18535     17826     17758     18466     18540     17832     18468     18541     18542     17833
 -1      2436    4    0    1
 -2      7096      7186      7196      7106      7097      7187      7197      7107     18468     18541
 -2     18542     17833     17765     18473     18547     17839     18475     18548     18549     17840
 -1      2437    4    0    1
 -2      7097      7187      7197      7107      7098      7188      7198      7108     18475     18548
 -2     18549     17840     17772     18480     18554     17846     18482     18555     18556     17847
 -1      2438    4    0    1
 -2      7098      7188      7198      7108      7099      7189      7199      7109     18482     18555
 -2     18556     17847     17779     18487     18561     17853     18489     18562     18563     17854
 -1      2439    4    0    1
 -2      7099      7189      7199      7109      7100      7190      7200      7110     18489     18562
 -2     18563     17854     17786     18494     18568     17860     18496     18569     18570     17861
 -1      2440    4    0    1
 -2      7100      7190      7200      7110      7101      7191      7201      7111     18496     18569
 -2     18570     17861     17793     18501     18575     17867     18503     18576     18577     17868
 -1      2441    4    0    1
 -2      7101      7191      7201      7111      7102      7192      7202      7112     18503     18576
 -2     18577     17868     17800     18508     18582     17874     18510     18583     18584     17875
 -1      2442    4    0    1
 -2      7102      7192      7202      7112      4919      4928      4929      4920     18510     18583
 -2     18584     17875     17807     18515     18589     17881      5470      5472      5473      5443
 -1      2443    4    0    1
 -2       523       532       533       524      7103      7193      7203      7113      1076      1078
 -2      1079      1049     17811     18519     18593     17885     18521     18594     18595     17886
 -1      2444    4    0    1
 -2      7103      7193      7203      7113      7104      7194      7204      7114     18521     18594
 -2     18595     17886     17818     18526     18600     17892     18528     18601     18602     17893
 -1      2445    4    0    1
 -2      7104      7194      7204      7114      7105      7195      7205      7115     18528     18601
 -2     18602     17893     17825     18533     18607     17899     18535     18608     18609     17900
 -1      2446    4    0    1
 -2      7105      7195      7205      7115      7106      7196      7206      7116     18535     18608
 -2     18609     17900     17832     18540     18614     17906     18542     18615     18616     17907
 -1      2447    4    0    1
 -2      7106      7196      7206      7116      7107      7197      7207      7117     18542     18615
 -2     18616     17907     17839     18547     18621     17913     18549     18622     18623     17914
 -1      2448    4    0    1
 -2      7107      7197      7207      7117      7108      7198      7208      7118     18549     18622
 -2     18623     17914     17846     18554     18628     17920     18556     18629     18630     17921
 -1      2449    4    0    1
 -2      7108      7198      7208      7118      7109      7199      7209      7119     18556     18629
 -2     18630     17921     17853     18561     18635     17927     18563     18636     18637     17928
 -1      2450    4    0    1
 -2      7109      7199      7209      7119      7110      7200      7210      7120     18563     18636
 -2     18637     17928     17860     18568     18642     17934     18570     18643     18644     17935
 -1      2451    4    0    1
 -2      7110      7200      7210      7120      7111      7201      7211      7121     18570     18643
 -2     18644     17935     17867     18575     18649     17941     18577     18650     18651     17942
 -1      2452    4    0    1
 -2      7111      7201      7211      7121      7112      7202      7212      7122     18577     18650
 -2     18651     17942     17874     18582     18656     17948     18584     18657     18658     17949
 -1      2453    4    0    1
 -2      7112      7202      7212      7122      4920      4929      4930      4921     18584     18657
 -2     18658     17949     17881     18589     18663     17955      5473      5475      5476      5446
 -1      2454    4    0    1
 -2       524       533       534       525      7113      7203      7213      7123      1079      1081
 -2      1082      1052     17885     18593     18667     17959     18595     18668     18669     17960
 -1      2455    4    0    1
 -2      7113      7203      7213      7123      7114      7204      7214      7124     18595     18668
 -2     18669     17960     17892     18600     18674     17966     18602     18675     18676     17967
 -1      2456    4    0    1
 -2      7114      7204      7214      7124      7115      7205      7215      7125     18602     18675
 -2     18676     17967     17899     18607     18681     17973     18609     18682     18683     17974
 -1      2457    4    0    1
 -2      7115      7205      7215      7125      7116      7206      7216      7126     18609     18682
 -2     18683     17974     17906     18614     18688     17980     18616     18689     18690     17981
 -1      2458    4    0    1
 -2      7116      7206      7216      7126      7117      7207      7217      7127     18616     18689
 -2     18690     17981     17913     18621     18695     17987     18623     18696     18697     17988
 -1      2459    4    0    1
 -2      7117      7207      7217      7127      7118      7208      7218      7128     18623     18696
 -2     18697     17988     17920     18628     18702     17994     18630     18703     18704     17995
 -1      2460    4    0    1
 -2      7118      7208      7218      7128      7119      7209      7219      7129     18630     18703
 -2     18704     17995     17927     18635     18709     18001     18637     18710     18711     18002
 -1      2461    4    0    1
 -2      7119      7209      7219      7129      7120      7210      7220      7130     18637     18710
 -2     18711     18002     17934     18642     18716     18008     18644     18717     18718     18009
 -1      2462    4    0    1
 -2      7120      7210      7220      7130      7121      7211      7221      7131     18644     18717
 -2     18718     18009     17941     18649     18723     18015     18651     18724     18725     18016
 -1      2463    4    0    1
 -2      7121      7211      7221      7131      7122      7212      7222      7132     18651     18724
 -2     18725     18016     17948     18656     18730     18022     18658     18731     18732     18023
 -1      2464    4    0    1
 -2      7122      7212      7222      7132      4921      4930      4931      4922     18658     18731
 -2     18732     18023     17955     18663     18737     18029      5476      5478      5479      5449
 -1      2465    4    0    1
 -2       525       534       535       526      7123      7213      7223      7133      1082      1084
 -2      1085      1055     17959     18667     18741     18033     18669     18742     18743     18034
 -1      2466    4    0    1
 -2      7123      7213      7223      7133      7124      7214      7224      7134     18669     18742
 -2     18743     18034     17966     18674     18748     18040     18676     18749     18750     18041
 -1      2467    4    0    1
 -2      7124      7214      7224      7134      7125      7215      7225      7135     18676     18749
 -2     18750     18041     17973     18681     18755     18047     18683     18756     18757     18048
 -1      2468    4    0    1
 -2      7125      7215      7225      7135      7126      7216      7226      7136     18683     18756
 -2     18757     18048     17980     18688     18762     18054     18690     18763     18764     18055
 -1      2469    4    0    1
 -2      7126      7216      7226      7136      7127      7217      7227      7137     18690     18763
 -2     18764     18055     17987     18695     18769     18061     18697     18770     18771     18062
 -1      2470    4    0    1
 -2      7127      7217      7227      7137      7128      7218      7228      7138     18697     18770
 -2     18771     18062     17994     18702     18776     18068     18704     18777     18778     18069
 -1      2471    4    0    1
 -2      7128      7218      7228      7138      7129      7219      7229      7139     18704     18777
 -2     18778     18069     18001     18709     18783     18075     18711     18784     18785     18076
 -1      2472    4    0    1
 -2      7129      7219      7229      7139      7130      7220      7230      7140     18711     18784
 -2     18785     18076     18008     18716     18790     18082     18718     18791     18792     18083
 -1      2473    4    0    1
 -2      7130      7220      7230      7140      7131      7221      7231      7141     18718     18791
 -2     18792     18083     18015     18723     18797     18089     18725     18798     18799     18090
 -1      2474    4    0    1
 -2      7131      7221      7231      7141      7132      7222      7232      7142     18725     18798
 -2     18799     18090     18022     18730     18804     18096     18732     18805     18806     18097
 -1      2475    4    0    1
 -2      7132      7222      7232      7142      4922      4931      4932      4923     18732     18805
 -2     18806     18097     18029     18737     18811     18103      5479      5481      5482      5452
 -1      2476    4    0    1
 -2       526       535       536       527      7133      7223      7233      7143      1085      1087
 -2      1088      1058     18033     18741     18815     18107     18743     18816     18817     18108
 -1      2477    4    0    1
 -2      7133      7223      7233      7143      7134      7224      7234      7144     18743     18816
 -2     18817     18108     18040     18748     18822     18114     18750     18823     18824     18115
 -1      2478    4    0    1
 -2      7134      7224      7234      7144      7135      7225      7235      7145     18750     18823
 -2     18824     18115     18047     18755     18829     18121     18757     18830     18831     18122
 -1      2479    4    0    1
 -2      7135      7225      7235      7145      7136      7226      7236      7146     18757     18830
 -2     18831     18122     18054     18762     18836     18128     18764     18837     18838     18129
 -1      2480    4    0    1
 -2      7136      7226      7236      7146      7137      7227      7237      7147     18764     18837
 -2     18838     18129     18061     18769     18843     18135     18771     18844     18845     18136
 -1      2481    4    0    1
 -2      7137      7227      7237      7147      7138      7228      7238      7148     18771     18844
 -2     18845     18136     18068     18776     18850     18142     18778     18851     18852     18143
 -1      2482    4    0    1
 -2      7138      7228      7238      7148      7139      7229      7239      7149     18778     18851
 -2     18852     18143     18075     18783     18857     18149     18785     18858     18859     18150
 -1      2483    4    0    1
 -2      7139      7229      7239      7149      7140      7230      7240      7150     18785     18858
 -2     18859     18150     18082     18790     18864     18156     18792     18865     18866     18157
 -1      2484    4    0    1
 -2      7140      7230      7240      7150      7141      7231      7241      7151     18792     18865
 -2     18866     18157     18089     18797     18871     18163     18799     18872     18873     18164
 -1      2485    4    0    1
 -2      7141      7231      7241      7151      7142      7232      7242      7152     18799     18872
 -2     18873     18164     18096     18804     18878     18170     18806     18879     18880     18171
 -1      2486    4    0    1
 -2      7142      7232      7242      7152      4923      4932      4933      4924     18806     18879
 -2     18880     18171     18103     18811     18885     18177      5482      5484      5485      5455
 -1      2487    4    0    1
 -2       527       536       537       528      7143      7233      7243      7153      1088      1090
 -2      1091      1061     18107     18815     18889     18181     18817     18890     18891     18182
 -1      2488    4    0    1
 -2      7143      7233      7243      7153      7144      7234      7244      7154     18817     18890
 -2     18891     18182     18114     18822     18896     18188     18824     18897     18898     18189
 -1      2489    4    0    1
 -2      7144      7234      7244      7154      7145      7235      7245      7155     18824     18897
 -2     18898     18189     18121     18829     18903     18195     18831     18904     18905     18196
 -1      2490    4    0    1
 -2      7145      7235      7245      7155      7146      7236      7246      7156     18831     18904
 -2     18905     18196     18128     18836     18910     18202     18838     18911     18912     18203
 -1      2491    4    0    1
 -2      7146      7236      7246      7156      7147      7237      7247      7157     18838     18911
 -2     18912     18203     18135     18843     18917     18209     18845     18918     18919     18210
 -1      2492    4    0    1
 -2      7147      7237      7247      7157      7148      7238      7248      7158     18845     18918
 -2     18919     18210     18142     18850     18924     18216     18852     18925     18926     18217
 -1      2493    4    0    1
 -2      7148      7238      7248      7158      7149      7239      7249      7159     18852     18925
 -2     18926     18217     18149     18857     18931     18223     18859     18932     18933     18224
 -1      2494    4    0    1
 -2      7149      7239      7249      7159      7150      7240      7250      7160     18859     18932
 -2     18933     18224     18156     18864     18938     18230     18866     18939     18940     18231
 -1      2495    4    0    1
 -2      7150      7240      7250      7160      7151      7241      7251      7161     18866     18939
 -2     18940     18231     18163     18871     18945     18237     18873     18946     18947     18238
 -1      2496    4    0    1
 -2      7151      7241      7251      7161      7152      7242      7252      7162     18873     18946
 -2     18947     18238     18170     18878     18952     18244     18880     18953     18954     18245
 -1      2497    4    0    1
 -2      7152      7242      7252      7162      4924      4933      4934      4925     18880     18953
 -2     18954     18245     18177     18885     18959     18251      5485      5487      5488      5458
 -1      2498    4    0    1
 -2       528       537       538       529      7153      7243      7253      7163      1091      1093
 -2      1094      1064     18181     18889     18963     18255     18891     18964     18965     18256
 -1      2499    4    0    1
 -2      7153      7243      7253      7163      7154      7244      7254      7164     18891     18964
 -2     18965     18256     18188     18896     18970     18262     18898     18971     18972     18263
 -1      2500    4    0    1
 -2      7154      7244      7254      7164      7155      7245      7255      7165     18898     18971
 -2     18972     18263     18195     18903     18977     18269     18905     18978     18979     18270
 -1      2501    4    0    1
 -2      7155      7245      7255      7165      7156      7246      7256      7166     18905     18978
 -2     18979     18270     18202     18910     18984     18276     18912     18985     18986     18277
 -1      2502    4    0    1
 -2      7156      7246      7256      7166      7157      7247      7257      7167     18912     18985
 -2     18986     18277     18209     18917     18991     18283     18919     18992     18993     18284
 -1      2503    4    0    1
 -2      7157      7247      7257      7167      7158      7248      7258      7168     18919     18992
 -2     18993     18284     18216     18924     18998     18290     18926     18999     19000     18291
 -1      2504    4    0    1
 -2      7158      7248      7258      7168      7159      7249      7259      7169     18926     18999
 -2     19000     18291     18223     18931     19005     18297     18933     19006     19007     18298
 -1      2505    4    0    1
 -2      7159      7249      7259      7169      7160      7250      7260      7170     18933     19006
 -2     19007     18298     18230     18938     19012     18304     18940     19013     19014     18305
 -1      2506    4    0    1
 -2      7160      7250      7260      7170      7161      7251      7261      7171     18940     19013
 -2     19014     18305     18237     18945     19019     18311     18947     19020     19021     18312
 -1      2507    4    0    1
 -2      7161      7251      7261      7171      7162      7252      7262      7172     18947     19020
 -2     19021     18312     18244     18952     19026     18318     18954     19027     19028     18319
 -1      2508    4    0    1
 -2      7162      7252      7262      7172      4925      4934      4935      4926     18954     19027
 -2     19028     18319     18251     18959     19033     18325      5488      5490      5491      5461
 -1      2509    4    0    1
 -2       529       538       539       530      7163      7253      7263      7173      1094      1096
 -2      1097      1067     18255     18963     19037     18329     18965     19038     19039     18330
 -1      2510    4    0    1
 -2      7163      7253      7263      7173      7164      7254      7264      7174     18965     19038
 -2     19039     18330     18262     18970     19044     18336     18972     19045     19046     18337
 -1      2511    4    0    1
 -2      7164      7254      7264      7174      7165      7255      7265      7175     18972     19045
 -2     19046     18337     18269     18977     19051     18343     18979     19052     19053     18344
 -1      2512    4    0    1
 -2      7165      7255      7265      7175      7166      7256      7266      7176     18979     19052
 -2     19053     18344     18276     18984     19058     18350     18986     19059     19060     18351
 -1      2513    4    0    1
 -2      7166      7256      7266      7176      7167      7257      7267      7177     18986     19059
 -2     19060     18351     18283     18991     19065     18357     18993     19066     19067     18358
 -1      2514    4    0    1
 -2      7167      7257      7267      7177      7168      7258      7268      7178     18993     19066
 -2     19067     18358     18290     18998     19072     18364     19000     19073     19074     18365
 -1      2515    4    0    1
 -2      7168      7258      7268      7178      7169      7259      7269      7179     19000     19073
 -2     19074     18365     18297     19005     19079     18371     19007     19080     19081     18372
 -1      2516    4    0    1
 -2      7169      7259      7269      7179      7170      7260      7270      7180     19007     19080
 -2     19081     18372     18304     19012     19086     18378     19014     19087     19088     18379
 -1      2517    4    0    1
 -2      7170      7260      7270      7180      7171      7261      7271      7181     19014     19087
 -2     19088     18379     18311     19019     19093     18385     19021     19094     19095     18386
 -1      2518    4    0    1
 -2      7171      7261      7271      7181      7172      7262      7272      7182     19021     19094
 -2     19095     18386     18318     19026     19100     18392     19028     19101     19102     18393
 -1      2519    4    0    1
 -2      7172      7262      7272      7182      4926      4935      4936      4927     19028     19101
 -2     19102     18393     18325     19033     19107     18399      5491      5493      5494      5464
 -1      2520    4    0    1
 -2       530       539       101       102      7173      7263      3304      3314      1097      1099
 -2       131      1070     18329     19037      3902      3934     19039     19111      3935     18403
 -1      2521    4    0    1
 -2      7173      7263      3304      3314      7174      7264      3305      3315     19039     19111
 -2      3935     18403     18336     19044      3905      3937     19046     19115      3938     18407
 -1      2522    4    0    1
 -2      7174      7264      3305      3315      7175      7265      3306      3316     19046     19115
 -2      3938     18407     18343     19051      3908      3940     19053     19119      3941     18411
 -1      2523    4    0    1
 -2      7175      7265      3306      3316      7176      7266      3307      3317     19053     19119
 -2      3941     18411     18350     19058      3911      3943     19060     19123      3944     18415
 -1      2524    4    0    1
 -2      7176      7266      3307      3317      7177      7267      3308      3318     19060     19123
 -2      3944     18415     18357     19065      3914      3946     19067     19127      3947     18419
 -1      2525    4    0    1
 -2      7177      7267      3308      3318      7178      7268      3309      3319     19067     19127
 -2      3947     18419     18364     19072      3917      3949     19074     19131      3950     18423
 -1      2526    4    0    1
 -2      7178      7268      3309      3319      7179      7269      3310      3320     19074     19131
 -2      3950     18423     18371     19079      3920      3952     19081     19135      3953     18427
 -1      2527    4    0    1
 -2      7179      7269      3310      3320      7180      7270      3311      3321     19081     19135
 -2      3953     18427     18378     19086      3923      3955     19088     19139      3956     18431
 -1      2528    4    0    1
 -2      7180      7270      3311      3321      7181      7271      3312      3322     19088     19139
 -2      3956     18431     18385     19093      3926      3958     19095     19143      3959     18435
 -1      2529    4    0    1
 -2      7181      7271      3312      3322      7182      7272      3313      3323     19095     19143
 -2      3959     18435     18392     19100      3929      3961     19102     19147      3962     18439
 -1      2530    4    0    1
 -2      7182      7272      3313      3323      4927      4936       257       258     19102     19147
 -2      3962     18439     18399     19107      3932      3964      5494      5496       287      5467
 -1      2531    4    0    1
 -2        23        24       540       531      1666      1676      7273      7183        53      1101
 -2      1102      1072      2264      2296     19153     18445      2297     19154     19155     18446
 -1      2532    4    0    1
 -2      1666      1676      7273      7183      1667      1677      7274      7184      2297     19154
 -2     19155     18446      2267      2299     19160     18452      2300     19161     19162     18453
 -1      2533    4    0    1
 -2      1667      1677      7274      7184      1668      1678      7275      7185      2300     19161
 -2     19162     18453      2270      2302     19167     18459      2303     19168     19169     18460
 -1      2534    4    0    1
 -2      1668      1678      7275      7185      1669      1679      7276      7186      2303     19168
 -2     19169     18460      2273      2305     19174     18466      2306     19175     19176     18467
 -1      2535    4    0    1
 -2      1669      1679      7276      7186      1670      1680      7277      7187      2306     19175
 -2     19176     18467      2276      2308     19181     18473      2309     19182     19183     18474
 -1      2536    4    0    1
 -2      1670      1680      7277      7187      1671      1681      7278      7188      2309     19182
 -2     19183     18474      2279      2311     19188     18480      2312     19189     19190     18481
 -1      2537    4    0    1
 -2      1671      1681      7278      7188      1672      1682      7279      7189      2312     19189
 -2     19190     18481      2282      2314     19195     18487      2315     19196     19197     18488
 -1      2538    4    0    1
 -2      1672      1682      7279      7189      1673      1683      7280      7190      2315     19196
 -2     19197     18488      2285      2317     19202     18494      2318     19203     19204     18495
 -1      2539    4    0    1
 -2      1673      1683      7280      7190      1674      1684      7281      7191      2318     19203
 -2     19204     18495      2288      2320     19209     18501      2321     19210     19211     18502
 -1      2540    4    0    1
 -2      1674      1684      7281      7191      1675      1685      7282      7192      2321     19210
 -2     19211     18502      2291      2323     19216     18508      2324     19217     19218     18509
 -1      2541    4    0    1
 -2      1675      1685      7282      7192       179       180      4937      4928      2324     19217
 -2     19218     18509      2294      2326     19223     18515       209      5498      5499      5469
 -1      2542    4    0    1
 -2       531       540       541       532      7183      7273      7283      7193      1102      1104
 -2      1105      1075     18445     19153     19227     18519     19155     19228     19229     18520
 -1      2543    4    0    1
 -2      7183      7273      7283      7193      7184      7274      7284      7194     19155     19228
 -2     19229     18520     18452     19160     19234     18526     19162     19235     19236     18527
 -1      2544    4    0    1
 -2      7184      7274      7284      7194      7185      7275      7285      7195     19162     19235
 -2     19236     18527     18459     19167     19241     18533     19169     19242     19243     18534
 -1      2545    4    0    1
 -2      7185      7275      7285      7195      7186      7276      7286      7196     19169     19242
 -2     19243     18534     18466     19174     19248     18540     19176     19249     19250     18541
 -1      2546    4    0    1
 -2      7186      7276      7286      7196      7187      7277      7287      7197     19176     19249
 -2     19250     18541     18473     19181     19255     18547     19183     19256     19257     18548
 -1      2547    4    0    1
 -2      7187      7277      7287      7197      7188      7278      7288      7198     19183     19256
 -2     19257     18548     18480     19188     19262     18554     19190     19263     19264     18555
 -1      2548    4    0    1
 -2      7188      7278      7288      7198      7189      7279      7289      7199     19190     19263
 -2     19264     18555     18487     19195     19269     18561     19197     19270     19271     18562
 -1      2549    4    0    1
 -2      7189      7279      7289      7199      7190      7280      7290      7200     19197     19270
 -2     19271     18562     18494     19202     19276     18568     19204     19277     19278     18569
 -1      2550    4    0    1
 -2      7190      7280      7290      7200      7191      7281      7291      7201     19204     19277
 -2     19278     18569     18501     19209     19283     18575     19211     19284     19285     18576
 -1      2551    4    0    1
 -2      7191      7281      7291      7201      7192      7282      7292      7202     19211     19284
 -2     19285     18576     18508     19216     19290     18582     19218     19291     19292     18583
 -1      2552    4    0    1
 -2      7192      7282      7292      7202      4928      4937      4938      4929     19218     19291
 -2     19292     18583     18515     19223     19297     18589      5499      5501      5502      5472
 -1      2553    4    0    1
 -2       532       541       542       533      7193      7283      7293      7203      1105      1107
 -2      1108      1078     18519     19227     19301     18593     19229     19302     19303     18594
 -1      2554    4    0    1
 -2      7193      7283      7293      7203      7194      7284      7294      7204     19229     19302
 -2     19303     18594     18526     19234     19308     18600     19236     19309     19310     18601
 -1      2555    4    0    1
 -2      7194      7284      7294      7204      7195      7285      7295      7205     19236     19309
 -2     19310     18601     18533     19241     19315     18607     19243     19316     19317     18608
 -1      2556    4    0    1
 -2      7195      7285      7295      7205      7196      7286      7296      7206     19243     19316
 -2     19317     18608     18540     19248     19322     18614     19250     19323     19324     18615
 -1      2557    4    0    1
 -2      7196      7286      7296      7206      7197      7287      7297      7207     19250     19323
 -2     19324     18615     18547     19255     19329     18621     19257     19330     19331     18622
 -1      2558    4    0    1
 -2      7197      7287      7297      7207      7198      7288      7298      7208     19257     19330
 -2     19331     18622     18554     19262     19336     18628     19264     19337     19338     18629
 -1      2559    4    0    1
 -2      7198      7288      7298      7208      7199      7289      7299      7209     19264     19337
 -2     19338     18629     18561     19269     19343     18635     19271     19344     19345     18636
 -1      2560    4    0    1
 -2      7199      7289      7299      7209      7200      7290      7300      7210     19271     19344
 -2     19345     18636     18568     19276     19350     18642     19278     19351     19352     18643
 -1      2561    4    0    1
 -2      7200      7290      7300      7210      7201      7291      7301      7211     19278     19351
 -2     19352     18643     18575     19283     19357     18649     19285     19358     19359     18650
 -1      2562    4    0    1
 -2      7201      7291      7301      7211      7202      7292      7302      7212     19285     19358
 -2     19359     18650     18582     19290     19364     18656     19292     19365     19366     18657
 -1      2563    4    0    1
 -2      7202      7292      7302      7212      4929      4938      4939      4930     19292     19365
 -2     19366     18657     18589     19297     19371     18663      5502      5504      5505      5475
 -1      2564    4    0    1
 -2       533       542       543       534      7203      7293      7303      7213      1108      1110
 -2      1111      1081     18593     19301     19375     18667     19303     19376     19377     18668
 -1      2565    4    0    1
 -2      7203      7293      7303      7213      7204      7294      7304      7214     19303     19376
 -2     19377     18668     18600     19308     19382     18674     19310     19383     19384     18675
 -1      2566    4    0    1
 -2      7204      7294      7304      7214      7205      7295      7305      7215     19310     19383
 -2     19384     18675     18607     19315     19389     18681     19317     19390     19391     18682
 -1      2567    4    0    1
 -2      7205      7295      7305      7215      7206      7296      7306      7216     19317     19390
 -2     19391     18682     18614     19322     19396     18688     19324     19397     19398     18689
 -1      2568    4    0    1
 -2      7206      7296      7306      7216      7207      7297      7307      7217     19324     19397
 -2     19398     18689     18621     19329     19403     18695     19331     19404     19405     18696
 -1      2569    4    0    1
 -2      7207      7297      7307      7217      7208      7298      7308      7218     19331     19404
 -2     19405     18696     18628     19336     19410     18702     19338     19411     19412     18703
 -1      2570    4    0    1
 -2      7208      7298      7308      7218      7209      7299      7309      7219     19338     19411
 -2     19412     18703     18635     19343     19417     18709     19345     19418     19419     18710
 -1      2571    4    0    1
 -2      7209      7299      7309      7219      7210      7300      7310      7220     19345     19418
 -2     19419     18710     18642     19350     19424     18716     19352     19425     19426     18717
 -1      2572    4    0    1
 -2      7210      7300      7310      7220      7211      7301      7311      7221     19352     19425
 -2     19426     18717     18649     19357     19431     18723     19359     19432     19433     18724
 -1      2573    4    0    1
 -2      7211      7301      7311      7221      7212      7302      7312      7222     19359     19432
 -2     19433     18724     18656     19364     19438     18730     19366     19439     19440     18731
 -1      2574    4    0    1
 -2      7212      7302      7312      7222      4930      4939      4940      4931     19366     19439
 -2     19440     18731     18663     19371     19445     18737      5505      5507      5508      5478
 -1      2575    4    0    1
 -2       534       543       544       535      7213      7303      7313      7223      1111      1113
 -2      1114      1084     18667     19375     19449     18741     19377     19450     19451     18742
 -1      2576    4    0    1
 -2      7213      7303      7313      7223      7214      7304      7314      7224     19377     19450
 -2     19451     18742     18674     19382     19456     18748     19384     19457     19458     18749
 -1      2577    4    0    1
 -2      7214      7304      7314      7224      7215      7305      7315      7225     19384     19457
 -2     19458     18749     18681     19389     19463     18755     19391     19464     19465     18756
 -1      2578    4    0    1
 -2      7215      7305      7315      7225      7216      7306      7316      7226     19391     19464
 -2     19465     18756     18688     19396     19470     18762     19398     19471     19472     18763
 -1      2579    4    0    1
 -2      7216      7306      7316      7226      7217      7307      7317      7227     19398     19471
 -2     19472     18763     18695     19403     19477     18769     19405     19478     19479     18770
 -1      2580    4    0    1
 -2      7217      7307      7317      7227      7218      7308      7318      7228     19405     19478
 -2     19479     18770     18702     19410     19484     18776     19412     19485     19486     18777
 -1      2581    4    0    1
 -2      7218      7308      7318      7228      7219      7309      7319      7229     19412     19485
 -2     19486     18777     18709     19417     19491     18783     19419     19492     19493     18784
 -1      2582    4    0    1
 -2      7219      7309      7319      7229      7220      7310      7320      7230     19419     19492
 -2     19493     18784     18716     19424     19498     18790     19426     19499     19500     18791
 -1      2583    4    0    1
 -2      7220      7310      7320      7230      7221      7311      7321      7231     19426     19499
 -2     19500     18791     18723     19431     19505     18797     19433     19506     19507     18798
 -1      2584    4    0    1
 -2      7221      7311      7321      7231      7222      7312      7322      7232     19433     19506
 -2     19507     18798     18730     19438     19512     18804     19440     19513     19514     18805
 -1      2585    4    0    1
 -2      7222      7312      7322      7232      4931      4940      4941      4932     19440     19513
 -2     19514     18805     18737     19445     19519     18811      5508      5510      5511      5481
 -1      2586    4    0    1
 -2       535       544       545       536      7223      7313      7323      7233      1114      1116
 -2      1117      1087     18741     19449     19523     18815     19451     19524     19525     18816
 -1      2587    4    0    1
 -2      7223      7313      7323      7233      7224      7314      7324      7234     19451     19524
 -2     19525     18816     18748     19456     19530     18822     19458     19531     19532     18823
 -1      2588    4    0    1
 -2      7224      7314      7324      7234      7225      7315      7325      7235     19458     19531
 -2     19532     18823     18755     19463     19537     18829     19465     19538     19539     18830
 -1      2589    4    0    1
 -2      7225      7315      7325      7235      7226      7316      7326      7236     19465     19538
 -2     19539     18830     18762     19470     19544     18836     19472     19545     19546     18837
 -1      2590    4    0    1
 -2      7226      7316      7326      7236      7227      7317      7327      7237     19472     19545
 -2     19546     18837     18769     19477     19551     18843     19479     19552     19553     18844
 -1      2591    4    0    1
 -2      7227      7317      7327      7237      7228      7318      7328      7238     19479     19552
 -2     19553     18844     18776     19484     19558     18850     19486     19559     19560     18851
 -1      2592    4    0    1
 -2      7228      7318      7328      7238      7229      7319      7329      7239     19486     19559
 -2     19560     18851     18783     19491     19565     18857     19493     19566     19567     18858
 -1      2593    4    0    1
 -2      7229      7319      7329      7239      7230      7320      7330      7240     19493     19566
 -2     19567     18858     18790     19498     19572     18864     19500     19573     19574     18865
 -1      2594    4    0    1
 -2      7230      7320      7330      7240      7231      7321      7331      7241     19500     19573
 -2     19574     18865     18797     19505     19579     18871     19507     19580     19581     18872
 -1      2595    4    0    1
 -2      7231      7321      7331      7241      7232      7322      7332      7242     19507     19580
 -2     19581     18872     18804     19512     19586     18878     19514     19587     19588     18879
 -1      2596    4    0    1
 -2      7232      7322      7332      7242      4932      4941      4942      4933     19514     19587
 -2     19588     18879     18811     19519     19593     18885      5511      5513      5514      5484
 -1      2597    4    0    1
 -2       536       545       546       537      7233      7323      7333      7243      1117      1119
 -2      1120      1090     18815     19523     19597     18889     19525     19598     19599     18890
 -1      2598    4    0    1
 -2      7233      7323      7333      7243      7234      7324      7334      7244     19525     19598
 -2     19599     18890     18822     19530     19604     18896     19532     19605     19606     18897
 -1      2599    4    0    1
 -2      7234      7324      7334      7244      7235      7325      7335      7245     19532     19605
 -2     19606     18897     18829     19537     19611     18903     19539     19612     19613     18904
 -1      2600    4    0    1
 -2      7235      7325      7335      7245      7236      7326      7336      7246     19539     19612
 -2     19613     18904     18836     19544     19618     18910     19546     19619     19620     18911
 -1      2601    4    0    1
 -2      7236      7326      7336      7246      7237      7327      7337      7247     19546     19619
 -2     19620     18911     18843     19551     19625     18917     19553     19626     19627     18918
 -1      2602    4    0    1
 -2      7237      7327      7337      7247      7238      7328      7338      7248     19553     19626
 -2     19627     18918     18850     19558     19632     18924     19560     19633     19634     18925
 -1      2603    4    0    1
 -2      7238      7328      7338      7248      7239      7329      7339      7249     19560     19633
 -2     19634     18925     18857     19565     19639     18931     19567     19640     19641     18932
 -1      2604    4    0    1
 -2      7239      7329      7339      7249      7240      7330      7340      7250     19567     19640
 -2     19641     18932     18864     19572     19646     18938     19574     19647     19648     18939
 -1      2605    4    0    1
 -2      7240      7330      7340      7250      7241      7331      7341      7251     19574     19647
 -2     19648     18939     18871     19579     19653     18945     19581     19654     19655     18946
 -1      2606    4    0    1
 -2      7241      7331      7341      7251      7242      7332      7342      7252     19581     19654
 -2     19655     18946     18878     19586     19660     18952     19588     19661     19662     18953
 -1      2607    4    0    1
 -2      7242      7332      7342      7252      4933      4942      4943      4934     19588     19661
 -2     19662     18953     18885     19593     19667     18959      5514      5516      5517      5487
 -1      2608    4    0    1
 -2       537       546       547       538      7243      7333      7343      7253      1120      1122
 -2      1123      1093     18889     19597     19671     18963     19599     19672     19673     18964
 -1      2609    4    0    1
 -2      7243      7333      7343      7253      7244      7334      7344      7254     19599     19672
 -2     19673     18964     18896     19604     19678     18970     19606     19679     19680     18971
 -1      2610    4    0    1
 -2      7244      7334      7344      7254      7245      7335      7345      7255     19606     19679
 -2     19680     18971     18903     19611     19685     18977     19613     19686     19687     18978
 -1      2611    4    0    1
 -2      7245      7335      7345      7255      7246      7336      7346      7256     19613     19686
 -2     19687     18978     18910     19618     19692     18984     19620     19693     19694     18985
 -1      2612    4    0    1
 -2      7246      7336      7346      7256      7247      7337      7347      7257     19620     19693
 -2     19694     18985     18917     19625     19699     18991     19627     19700     19701     18992
 -1      2613    4    0    1
 -2      7247      7337      7347      7257      7248      7338      7348      7258     19627     19700
 -2     19701     18992     18924     19632     19706     18998     19634     19707     19708     18999
 -1      2614    4    0    1
 -2      7248      7338      7348      7258      7249      7339      7349      7259     19634     19707
 -2     19708     18999     18931     19639     19713     19005     19641     19714     19715     19006
 -1      2615    4    0    1
 -2      7249      7339      7349      7259      7250      7340      7350      7260     19641     19714
 -2     19715     19006     18938     19646     19720     19012     19648     19721     19722     19013
 -1      2616    4    0    1
 -2      7250      7340      7350      7260      7251      7341      7351      7261     19648     19721
 -2     19722     19013     18945     19653     19727     19019     19655     19728     19729     19020
 -1      2617    4    0    1
 -2      7251      7341      7351      7261      7252      7342      7352      7262     19655     19728
 -2     19729     19020     18952     19660     19734     19026     19662     19735     19736     19027
 -1      2618    4    0    1
 -2      7252      7342      7352      7262      4934      4943      4944      4935     19662     19735
 -2     19736     19027     18959     19667     19741     19033      5517      5519      5520      5490
 -1      2619    4    0    1
 -2       538       547       548       539      7253      7343      7353      7263      1123      1125
 -2      1126      1096     18963     19671     19745     19037     19673     19746     19747     19038
 -1      2620    4    0    1
 -2      7253      7343      7353      7263      7254      7344      7354      7264     19673     19746
 -2     19747     19038     18970     19678     19752     19044     19680     19753     19754     19045
 -1      2621    4    0    1
 -2      7254      7344      7354      7264      7255      7345      7355      7265     19680     19753
 -2     19754     19045     18977     19685     19759     19051     19687     19760     19761     19052
 -1      2622    4    0    1
 -2      7255      7345      7355      7265      7256      7346      7356      7266     19687     19760
 -2     19761     19052     18984     19692     19766     19058     19694     19767     19768     19059
 -1      2623    4    0    1
 -2      7256      7346      7356      7266      7257      7347      7357      7267     19694     19767
 -2     19768     19059     18991     19699     19773     19065     19701     19774     19775     19066
 -1      2624    4    0    1
 -2      7257      7347      7357      7267      7258      7348      7358      7268     19701     19774
 -2     19775     19066     18998     19706     19780     19072     19708     19781     19782     19073
 -1      2625    4    0    1
 -2      7258      7348      7358      7268      7259      7349      7359      7269     19708     19781
 -2     19782     19073     19005     19713     19787     19079     19715     19788     19789     19080
 -1      2626    4    0    1
 -2      7259      7349      7359      7269      7260      7350      7360      7270     19715     19788
 -2     19789     19080     19012     19720     19794     19086     19722     19795     19796     19087
 -1      2627    4    0    1
 -2      7260      7350      7360      7270      7261      7351      7361      7271     19722     19795
 -2     19796     19087     19019     19727     19801     19093     19729     19802     19803     19094
 -1      2628    4    0    1
 -2      7261      7351      7361      7271      7262      7352      7362      7272     19729     19802
 -2     19803     19094     19026     19734     19808     19100     19736     19809     19810     19101
 -1      2629    4    0    1
 -2      7262      7352      7362      7272      4935      4944      4945      4936     19736     19809
 -2     19810     19101     19033     19741     19815     19107      5520      5522      5523      5493
 -1      2630    4    0    1
 -2       539       548       100       101      7263      7353      3294      3304      1126      1128
 -2       130      1099     19037     19745      3870      3902     19747     19819      3903     19111
 -1      2631    4    0    1
 -2      7263      7353      3294      3304      7264      7354      3295      3305     19747     19819
 -2      3903     19111     19044     19752      3873      3905     19754     19823      3906     19115
 -1      2632    4    0    1
 -2      7264      7354      3295      3305      7265      7355      3296      3306     19754     19823
 -2      3906     19115     19051     19759      3876      3908     19761     19827      3909     19119
 -1      2633    4    0    1
 -2      7265      7355      3296      3306      7266      7356      3297      3307     19761     19827
 -2      3909     19119     19058     19766      3879      3911     19768     19831      3912     19123
 -1      2634    4    0    1
 -2      7266      7356      3297      3307      7267      7357      3298      3308     19768     19831
 -2      3912     19123     19065     19773      3882      3914     19775     19835      3915     19127
 -1      2635    4    0    1
 -2      7267      7357      3298      3308      7268      7358      3299      3309     19775     19835
 -2      3915     19127     19072     19780      3885      3917     19782     19839      3918     19131
 -1      2636    4    0    1
 -2      7268      7358      3299      3309      7269      7359      3300      3310     19782     19839
 -2      3918     19131     19079     19787      3888      3920     19789     19843      3921     19135
 -1      2637    4    0    1
 -2      7269      7359      3300      3310      7270      7360      3301      3311     19789     19843
 -2      3921     19135     19086     19794      3891      3923     19796     19847      3924     19139
 -1      2638    4    0    1
 -2      7270      7360      3301      3311      7271      7361      3302      3312     19796     19847
 -2      3924     19139     19093     19801      3894      3926     19803     19851      3927     19143
 -1      2639    4    0    1
 -2      7271      7361      3302      3312      7272      7362      3303      3313     19803     19851
 -2      3927     19143     19100     19808      3897      3929     19810     19855      3930     19147
 -1      2640    4    0    1
 -2      7272      7362      3303      3313      4936      4945       256       257     19810     19855
 -2      3930     19147     19107     19815      3900      3932      5523      5525       286      5496
 -1      2641    4    0    1
 -2        24        25       549       540      1676      1686      7363      7273        54      1130
 -2      1131      1101      2296      2328     19861     19153      2329     19862     19863     19154
 -1      2642    4    0    1
 -2      1676      1686      7363      7273      1677      1687      7364      7274      2329     19862
 -2     19863     19154      2299      2331     19868     19160      2332     19869     19870     19161
 -1      2643    4    0    1
 -2      1677      1687      7364      7274      1678      1688      7365      7275      2332     19869
 -2     19870     19161      2302      2334     19875     19167      2335     19876     19877     19168
 -1      2644    4    0    1
 -2      1678      1688      7365      7275      1679      1689      7366      7276      2335     19876
 -2     19877     19168      2305      2337     19882     19174      2338     19883     19884     19175
 -1      2645    4    0    1
 -2      1679      1689      7366      7276      1680      1690      7367      7277      2338     19883
 -2     19884     19175      2308      2340     19889     19181      2341     19890     19891     19182
 -1      2646    4    0    1
 -2      1680      1690      7367      7277      1681      1691      7368      7278      2341     19890
 -2     19891     19182      2311      2343     19896     19188      2344     19897     19898     19189
 -1      2647    4    0    1
 -2      1681      1691      7368      7278      1682      1692      7369      7279      2344     19897
 -2     19898     19189      2314      2346     19903     19195      2347     19904     19905     19196
 -1      2648    4    0    1
 -2      1682      1692      7369      7279      1683      1693      7370      7280      2347     19904
 -2     19905     19196      2317      2349     19910     19202      2350     19911     19912     19203
 -1      2649    4    0    1
 -2      1683      1693      7370      7280      1684      1694      7371      7281      2350     19911
 -2     19912     19203      2320      2352     19917     19209      2353     19918     19919     19210
 -1      2650    4    0    1
 -2      1684      1694      7371      7281      1685      1695      7372      7282      2353     19918
 -2     19919     19210      2323      2355     19924     19216      2356     19925     19926     19217
 -1      2651    4    0    1
 -2      1685      1695      7372      7282       180       181      4946      4937      2356     19925
 -2     19926     19217      2326      2358     19931     19223       210      5527      5528      5498
 -1      2652    4    0    1
 -2       540       549       550       541      7273      7363      7373      7283      1131      1133
 -2      1134      1104     19153     19861     19935     19227     19863     19936     19937     19228
 -1      2653    4    0    1
 -2      7273      7363      7373      7283      7274      7364      7374      7284     19863     19936
 -2     19937     19228     19160     19868     19942     19234     19870     19943     19944     19235
 -1      2654    4    0    1
 -2      7274      7364      7374      7284      7275      7365      7375      7285     19870     19943
 -2     19944     19235     19167     19875     19949     19241     19877     19950     19951     19242
 -1      2655    4    0    1
 -2      7275      7365      7375      7285      7276      7366      7376      7286     19877     19950
 -2     19951     19242     19174     19882     19956     19248     19884     19957     19958     19249
 -1      2656    4    0    1
 -2      7276      7366      7376      7286      7277      7367      7377      7287     19884     19957
 -2     19958     19249     19181     19889     19963     19255     19891     19964     19965     19256
 -1      2657    4    0    1
 -2      7277      7367      7377      7287      7278      7368      7378      7288     19891     19964
 -2     19965     19256     19188     19896     19970     19262     19898     19971     19972     19263
 -1      2658    4    0    1
 -2      7278      7368      7378      7288      7279      7369      7379      7289     19898     19971
 -2     19972     19263     19195     19903     19977     19269     19905     19978     19979     19270
 -1      2659    4    0    1
 -2      7279      7369      7379      7289      7280      7370      7380      7290     19905     19978
 -2     19979     19270     19202     19910     19984     19276     19912     19985     19986     19277
 -1      2660    4    0    1
 -2      7280      7370      7380      7290      7281      7371      7381      7291     19912     19985
 -2     19986     19277     19209     19917     19991     19283     19919     19992     19993     19284
 -1      2661    4    0    1
 -2      7281      7371      7381      7291      7282      7372      7382      7292     19919     19992
 -2     19993     19284     19216     19924     19998     19290     19926     19999     20000     19291
 -1      2662    4    0    1
 -2      7282      7372      7382      7292      4937      4946      4947      4938     19926     19999
 -2     20000     19291     19223     19931     20005     19297      5528      5530      5531      5501
 -1      2663    4    0    1
 -2       541       550       551       542      7283      7373      7383      7293      1134      1136
 -2      1137      1107     19227     19935     20009     19301     19937     20010     20011     19302
 -1      2664    4    0    1
 -2      7283      7373      7383      7293      7284      7374      7384      7294     19937     20010
 -2     20011     19302     19234     19942     20016     19308     19944     20017     20018     19309
 -1      2665    4    0    1
 -2      7284      7374      7384      7294      7285      7375      7385      7295     19944     20017
 -2     20018     19309     19241     19949     20023     19315     19951     20024     20025     19316
 -1      2666    4    0    1
 -2      7285      7375      7385      7295      7286      7376      7386      7296     19951     20024
 -2     20025     19316     19248     19956     20030     19322     19958     20031     20032     19323
 -1      2667    4    0    1
 -2      7286      7376      7386      7296      7287      7377      7387      7297     19958     20031
 -2     20032     19323     19255     19963     20037     19329     19965     20038     20039     19330
 -1      2668    4    0    1
 -2      7287      7377      7387      7297      7288      7378      7388      7298     19965     20038
 -2     20039     19330     19262     19970     20044     19336     19972     20045     20046     19337
 -1      2669    4    0    1
 -2      7288      7378      7388      7298      7289      7379      7389      7299     19972     20045
 -2     20046     19337     19269     19977     20051     19343     19979     20052     20053     19344
 -1      2670    4    0    1
 -2      7289      7379      7389      7299      7290      7380      7390      7300     19979     20052
 -2     20053     19344     19276     19984     20058     19350     19986     20059     20060     19351
 -1      2671    4    0    1
 -2      7290      7380      7390      7300      7291      7381      7391      7301     19986     20059
 -2     20060     19351     19283     19991     20065     19357     19993     20066     20067     19358
 -1      2672    4    0    1
 -2      7291      7381      7391      7301      7292      7382      7392      7302     19993     20066
 -2     20067     19358     19290     19998     20072     19364     20000     20073     20074     19365
 -1      2673    4    0    1
 -2      7292      7382      7392      7302      4938      4947      4948      4939     20000     20073
 -2     20074     19365     19297     20005     20079     19371      5531      5533      5534      5504
 -1      2674    4    0    1
 -2       542       551       552       543      7293      7383      7393      7303      1137      1139
 -2      1140      1110     19301     20009     20083     19375     20011     20084     20085     19376
 -1      2675    4    0    1
 -2      7293      7383      7393      7303      7294      7384      7394      7304     20011     20084
 -2     20085     19376     19308     20016     20090     19382     20018     20091     20092     19383
 -1      2676    4    0    1
 -2      7294      7384      7394      7304      7295      7385      7395      7305     20018     20091
 -2     20092     19383     19315     20023     20097     19389     20025     20098     20099     19390
 -1      2677    4    0    1
 -2      7295      7385      7395      7305      7296      7386      7396      7306     20025     20098
 -2     20099     19390     19322     20030     20104     19396     20032     20105     20106     19397
 -1      2678    4    0    1
 -2      7296      7386      7396      7306      7297      7387      7397      7307     20032     20105
 -2     20106     19397     19329     20037     20111     19403     20039     20112     20113     19404
 -1      2679    4    0    1
 -2      7297      7387      7397      7307      7298      7388      7398      7308     20039     20112
 -2     20113     19404     19336     20044     20118     19410     20046     20119     20120     19411
 -1      2680    4    0    1
 -2      7298      7388      7398      7308      7299      7389      7399      7309     20046     20119
 -2     20120     19411     19343     20051     20125     19417     20053     20126     20127     19418
 -1      2681    4    0    1
 -2      7299      7389      7399      7309      7300      7390      7400      7310     20053     20126
 -2     20127     19418     19350     20058     20132     19424     20060     20133     20134     19425
 -1      2682    4    0    1
 -2      7300      7390      7400      7310      7301      7391      7401      7311     20060     20133
 -2     20134     19425     19357     20065     20139     19431     20067     20140     20141     19432
 -1      2683    4    0    1
 -2      7301      7391      7401      7311      7302      7392      7402      7312     20067     20140
 -2     20141     19432     19364     20072     20146     19438     20074     20147     20148     19439
 -1      2684    4    0    1
 -2      7302      7392      7402      7312      4939      4948      4949      4940     20074     20147
 -2     20148     19439     19371     20079     20153     19445      5534      5536      5537      5507
 -1      2685    4    0    1
 -2       543       552       553       544      7303      7393      7403      7313      1140      1142
 -2      1143      1113     19375     20083     20157     19449     20085     20158     20159     19450
 -1      2686    4    0    1
 -2      7303      7393      7403      7313      7304      7394      7404      7314     20085     20158
 -2     20159     19450     19382     20090     20164     19456     20092     20165     20166     19457
 -1      2687    4    0    1
 -2      7304      7394      7404      7314      7305      7395      7405      7315     20092     20165
 -2     20166     19457     19389     20097     20171     19463     20099     20172     20173     19464
 -1      2688    4    0    1
 -2      7305      7395      7405      7315      7306      7396      7406      7316     20099     20172
 -2     20173     19464     19396     20104     20178     19470     20106     20179     20180     19471
 -1      2689    4    0    1
 -2      7306      7396      7406      7316      7307      7397      7407      7317     20106     20179
 -2     20180     19471     19403     20111     20185     19477     20113     20186     20187     19478
 -1      2690    4    0    1
 -2      7307      7397      7407      7317      7308      7398      7408      7318     20113     20186
 -2     20187     19478     19410     20118     20192     19484     20120     20193     20194     19485
 -1      2691    4    0    1
 -2      7308      7398      7408      7318      7309      7399      7409      7319     20120     20193
 -2     20194     19485     19417     20125     20199     19491     20127     20200     20201     19492
 -1      2692    4    0    1
 -2      7309      7399      7409      7319      7310      7400      7410      7320     20127     20200
 -2     20201     19492     19424     20132     20206     19498     20134     20207     20208     19499
 -1      2693    4    0    1
 -2      7310      7400      7410      7320      7311      7401      7411      7321     20134     20207
 -2     20208     19499     19431     20139     20213     19505     20141     20214     20215     19506
 -1      2694    4    0    1
 -2      7311      7401      7411      7321      7312      7402      7412      7322     20141     20214
 -2     20215     19506     19438     20146     20220     19512     20148     20221     20222     19513
 -1      2695    4    0    1
 -2      7312      7402      7412      7322      4940      4949      4950      4941     20148     20221
 -2     20222     19513     19445     20153     20227     19519      5537      5539      5540      5510
 -1      2696    4    0    1
 -2       544       553       554       545      7313      7403      7413      7323      1143      1145
 -2      1146      1116     19449     20157     20231     19523     20159     20232     20233     19524
 -1      2697    4    0    1
 -2      7313      7403      7413      7323      7314      7404      7414      7324     20159     20232
 -2     20233     19524     19456     20164     20238     19530     20166     20239     20240     19531
 -1      2698    4    0    1
 -2      7314      7404      7414      7324      7315      7405      7415      7325     20166     20239
 -2     20240     19531     19463     20171     20245     19537     20173     20246     20247     19538
 -1      2699    4    0    1
 -2      7315      7405      7415      7325      7316      7406      7416      7326     20173     20246
 -2     20247     19538     19470     20178     20252     19544     20180     20253     20254     19545
 -1      2700    4    0    1
 -2      7316      7406      7416      7326      7317      7407      7417      7327     20180     20253
 -2     20254     19545     19477     20185     20259     19551     20187     20260     20261     19552
 -1      2701    4    0    1
 -2      7317      7407      7417      7327      7318      7408      7418      7328     20187     20260
 -2     20261     19552     19484     20192     20266     19558     20194     20267     20268     19559
 -1      2702    4    0    1
 -2      7318      7408      7418      7328      7319      7409      7419      7329     20194     20267
 -2     20268     19559     19491     20199     20273     19565     20201     20274     20275     19566
 -1      2703    4    0    1
 -2      7319      7409      7419      7329      7320      7410      7420      7330     20201     20274
 -2     20275     19566     19498     20206     20280     19572     20208     20281     20282     19573
 -1      2704    4    0    1
 -2      7320      7410      7420      7330      7321      7411      7421      7331     20208     20281
 -2     20282     19573     19505     20213     20287     19579     20215     20288     20289     19580
 -1      2705    4    0    1
 -2      7321      7411      7421      7331      7322      7412      7422      7332     20215     20288
 -2     20289     19580     19512     20220     20294     19586     20222     20295     20296     19587
 -1      2706    4    0    1
 -2      7322      7412      7422      7332      4941      4950      4951      4942     20222     20295
 -2     20296     19587     19519     20227     20301     19593      5540      5542      5543      5513
 -1      2707    4    0    1
 -2       545       554       555       546      7323      7413      7423      7333      1146      1148
 -2      1149      1119     19523     20231     20305     19597     20233     20306     20307     19598
 -1      2708    4    0    1
 -2      7323      7413      7423      7333      7324      7414      7424      7334     20233     20306
 -2     20307     19598     19530     20238     20312     19604     20240     20313     20314     19605
 -1      2709    4    0    1
 -2      7324      7414      7424      7334      7325      7415      7425      7335     20240     20313
 -2     20314     19605     19537     20245     20319     19611     20247     20320     20321     19612
 -1      2710    4    0    1
 -2      7325      7415      7425      7335      7326      7416      7426      7336     20247     20320
 -2     20321     19612     19544     20252     20326     19618     20254     20327     20328     19619
 -1      2711    4    0    1
 -2      7326      7416      7426      7336      7327      7417      7427      7337     20254     20327
 -2     20328     19619     19551     20259     20333     19625     20261     20334     20335     19626
 -1      2712    4    0    1
 -2      7327      7417      7427      7337      7328      7418      7428      7338     20261     20334
 -2     20335     19626     19558     20266     20340     19632     20268     20341     20342     19633
 -1      2713    4    0    1
 -2      7328      7418      7428      7338      7329      7419      7429      7339     20268     20341
 -2     20342     19633     19565     20273     20347     19639     20275     20348     20349     19640
 -1      2714    4    0    1
 -2      7329      7419      7429      7339      7330      7420      7430      7340     20275     20348
 -2     20349     19640     19572     20280     20354     19646     20282     20355     20356     19647
 -1      2715    4    0    1
 -2      7330      7420      7430      7340      7331      7421      7431      7341     20282     20355
 -2     20356     19647     19579     20287     20361     19653     20289     20362     20363     19654
 -1      2716    4    0    1
 -2      7331      7421      7431      7341      7332      7422      7432      7342     20289     20362
 -2     20363     19654     19586     20294     20368     19660     20296     20369     20370     19661
 -1      2717    4    0    1
 -2      7332      7422      7432      7342      4942      4951      4952      4943     20296     20369
 -2     20370     19661     19593     20301     20375     19667      5543      5545      5546      5516
 -1      2718    4    0    1
 -2       546       555       556       547      7333      7423      7433      7343      1149      1151
 -2      1152      1122     19597     20305     20379     19671     20307     20380     20381     19672
 -1      2719    4    0    1
 -2      7333      7423      7433      7343      7334      7424      7434      7344     20307     20380
 -2     20381     19672     19604     20312     20386     19678     20314     20387     20388     19679
 -1      2720    4    0    1
 -2      7334      7424      7434      7344      7335      7425      7435      7345     20314     20387
 -2     20388     19679     19611     20319     20393     19685     20321     20394     20395     19686
 -1      2721    4    0    1
 -2      7335      7425      7435      7345      7336      7426      7436      7346     20321     20394
 -2     20395     19686     19618     20326     20400     19692     20328     20401     20402     19693
 -1      2722    4    0    1
 -2      7336      7426      7436      7346      7337      7427      7437      7347     20328     20401
 -2     20402     19693     19625     20333     20407     19699     20335     20408     20409     19700
 -1      2723    4    0    1
 -2      7337      7427      7437      7347      7338      7428      7438      7348     20335     20408
 -2     20409     19700     19632     20340     20414     19706     20342     20415     20416     19707
 -1      2724    4    0    1
 -2      7338      7428      7438      7348      7339      7429      7439      7349     20342     20415
 -2     20416     19707     19639     20347     20421     19713     20349     20422     20423     19714
 -1      2725    4    0    1
 -2      7339      7429      7439      7349      7340      7430      7440      7350     20349     20422
 -2     20423     19714     19646     20354     20428     19720     20356     20429     20430     19721
 -1      2726    4    0    1
 -2      7340      7430      7440      7350      7341      7431      7441      7351     20356     20429
 -2     20430     19721     19653     20361     20435     19727     20363     20436     20437     19728
 -1      2727    4    0    1
 -2      7341      7431      7441      7351      7342      7432      7442      7352     20363     20436
 -2     20437     19728     19660     20368     20442     19734     20370     20443     20444     19735
 -1      2728    4    0    1
 -2      7342      7432      7442      7352      4943      4952      4953      4944     20370     20443
 -2     20444     19735     19667     20375     20449     19741      5546      5548      5549      5519
 -1      2729    4    0    1
 -2       547       556       557       548      7343      7433      7443      7353      1152      1154
 -2      1155      1125     19671     20379     20453     19745     20381     20454     20455     19746
 -1      2730    4    0    1
 -2      7343      7433      7443      7353      7344      7434      7444      7354     20381     20454
 -2     20455     19746     19678     20386     20460     19752     20388     20461     20462     19753
 -1      2731    4    0    1
 -2      7344      7434      7444      7354      7345      7435      7445      7355     20388     20461
 -2     20462     19753     19685     20393     20467     19759     20395     20468     20469     19760
 -1      2732    4    0    1
 -2      7345      7435      7445      7355      7346      7436      7446      7356     20395     20468
 -2     20469     19760     19692     20400     20474     19766     20402     20475     20476     19767
 -1      2733    4    0    1
 -2      7346      7436      7446      7356      7347      7437      7447      7357     20402     20475
 -2     20476     19767     19699     20407     20481     19773     20409     20482     20483     19774
 -1      2734    4    0    1
 -2      7347      7437      7447      7357      7348      7438      7448      7358     20409     20482
 -2     20483     19774     19706     20414     20488     19780     20416     20489     20490     19781
 -1      2735    4    0    1
 -2      7348      7438      7448      7358      7349      7439      7449      7359     20416     20489
 -2     20490     19781     19713     20421     20495     19787     20423     20496     20497     19788
 -1      2736    4    0    1
 -2      7349      7439      7449      7359      7350      7440      7450      7360     20423     20496
 -2     20497     19788     19720     20428     20502     19794     20430     20503     20504     19795
 -1      2737    4    0    1
 -2      7350      7440      7450      7360      7351      7441      7451      7361     20430     20503
 -2     20504     19795     19727     20435     20509     19801     20437     20510     20511     19802
 -1      2738    4    0    1
 -2      7351      7441      7451      7361      7352      7442      7452      7362     20437     20510
 -2     20511     19802     19734     20442     20516     19808     20444     20517     20518     19809
 -1      2739    4    0    1
 -2      7352      7442      7452      7362      4944      4953      4954      4945     20444     20517
 -2     20518     19809     19741     20449     20523     19815      5549      5551      5552      5522
 -1      2740    4    0    1
 -2       548       557        99       100      7353      7443      3284      3294      1155      1157
 -2       129      1128     19745     20453      3838      3870     20455     20527      3871     19819
 -1      2741    4    0    1
 -2      7353      7443      3284      3294      7354      7444      3285      3295     20455     20527
 -2      3871     19819     19752     20460      3841      3873     20462     20531      3874     19823
 -1      2742    4    0    1
 -2      7354      7444      3285      3295      7355      7445      3286      3296     20462     20531
 -2      3874     19823     19759     20467      3844      3876     20469     20535      3877     19827
 -1      2743    4    0    1
 -2      7355      7445      3286      3296      7356      7446      3287      3297     20469     20535
 -2      3877     19827     19766     20474      3847      3879     20476     20539      3880     19831
 -1      2744    4    0    1
 -2      7356      7446      3287      3297      7357      7447      3288      3298     20476     20539
 -2      3880     19831     19773     20481      3850      3882     20483     20543      3883     19835
 -1      2745    4    0    1
 -2      7357      7447      3288      3298      7358      7448      3289      3299     20483     20543
 -2      3883     19835     19780     20488      3853      3885     20490     20547      3886     19839
 -1      2746    4    0    1
 -2      7358      7448      3289      3299      7359      7449      3290      3300     20490     20547
 -2      3886     19839     19787     20495      3856      3888     20497     20551      3889     19843
 -1      2747    4    0    1
 -2      7359      7449      3290      3300      7360      7450      3291      3301     20497     20551
 -2      3889     19843     19794     20502      3859      3891     20504     20555      3892     19847
 -1      2748    4    0    1
 -2      7360      7450      3291      3301      7361      7451      3292      3302     20504     20555
 -2      3892     19847     19801     20509      3862      3894     20511     20559      3895     19851
 -1      2749    4    0    1
 -2      7361      7451      3292      3302      7362      7452      3293      3303     20511     20559
 -2      3895     19851     19808     20516      3865      3897     20518     20563      3898     19855
 -1      2750    4    0    1
 -2      7362      7452      3293      3303      4945      4954       255       256     20518     20563
 -2      3898     19855     19815     20523      3868      3900      5552      5554       285      5525
 -1      2751    4    0    1
 -2        25        26       558       549      1686      1696      7453      7363        55      1159
 -2      1160      1130      2328      2360     20569     19861      2361     20570     20571     19862
 -1      2752    4    0    1
 -2      1686      1696      7453      7363      1687      1697      7454      7364      2361     20570
 -2     20571     19862      2331      2363     20576     19868      2364     20577     20578     19869
 -1      2753    4    0    1
 -2      1687      1697      7454      7364      1688      1698      7455      7365      2364     20577
 -2     20578     19869      2334      2366     20583     19875      2367     20584     20585     19876
 -1      2754    4    0    1
 -2      1688      1698      7455      7365      1689      1699      7456      7366      2367     20584
 -2     20585     19876      2337      2369     20590     19882      2370     20591     20592     19883
 -1      2755    4    0    1
 -2      1689      1699      7456      7366      1690      1700      7457      7367      2370     20591
 -2     20592     19883      2340      2372     20597     19889      2373     20598     20599     19890
 -1      2756    4    0    1
 -2      1690      1700      7457      7367      1691      1701      7458      7368      2373     20598
 -2     20599     19890      2343      2375     20604     19896      2376     20605     20606     19897
 -1      2757    4    0    1
 -2      1691      1701      7458      7368      1692      1702      7459      7369      2376     20605
 -2     20606     19897      2346      2378     20611     19903      2379     20612     20613     19904
 -1      2758    4    0    1
 -2      1692      1702      7459      7369      1693      1703      7460      7370      2379     20612
 -2     20613     19904      2349      2381     20618     19910      2382     20619     20620     19911
 -1      2759    4    0    1
 -2      1693      1703      7460      7370      1694      1704      7461      7371      2382     20619
 -2     20620     19911      2352      2384     20625     19917      2385     20626     20627     19918
 -1      2760    4    0    1
 -2      1694      1704      7461      7371      1695      1705      7462      7372      2385     20626
 -2     20627     19918      2355      2387     20632     19924      2388     20633     20634     19925
 -1      2761    4    0    1
 -2      1695      1705      7462      7372       181       182      4955      4946      2388     20633
 -2     20634     19925      2358      2390     20639     19931       211      5556      5557      5527
 -1      2762    4    0    1
 -2       549       558       559       550      7363      7453      7463      7373      1160      1162
 -2      1163      1133     19861     20569     20643     19935     20571     20644     20645     19936
 -1      2763    4    0    1
 -2      7363      7453      7463      7373      7364      7454      7464      7374     20571     20644
 -2     20645     19936     19868     20576     20650     19942     20578     20651     20652     19943
 -1      2764    4    0    1
 -2      7364      7454      7464      7374      7365      7455      7465      7375     20578     20651
 -2     20652     19943     19875     20583     20657     19949     20585     20658     20659     19950
 -1      2765    4    0    1
 -2      7365      7455      7465      7375      7366      7456      7466      7376     20585     20658
 -2     20659     19950     19882     20590     20664     19956     20592     20665     20666     19957
 -1      2766    4    0    1
 -2      7366      7456      7466      7376      7367      7457      7467      7377     20592     20665
 -2     20666     19957     19889     20597     20671     19963     20599     20672     20673     19964
 -1      2767    4    0    1
 -2      7367      7457      7467      7377      7368      7458      7468      7378     20599     20672
 -2     20673     19964     19896     20604     20678     19970     20606     20679     20680     19971
 -1      2768    4    0    1
 -2      7368      7458      7468      7378      7369      7459      7469      7379     20606     20679
 -2     20680     19971     19903     20611     20685     19977     20613     20686     20687     19978
 -1      2769    4    0    1
 -2      7369      7459      7469      7379      7370      7460      7470      7380     20613     20686
 -2     20687     19978     19910     20618     20692     19984     20620     20693     20694     19985
 -1      2770    4    0    1
 -2      7370      7460      7470      7380      7371      7461      7471      7381     20620     20693
 -2     20694     19985     19917     20625     20699     19991     20627     20700     20701     19992
 -1      2771    4    0    1
 -2      7371      7461      7471      7381      7372      7462      7472      7382     20627     20700
 -2     20701     19992     19924     20632     20706     19998     20634     20707     20708     19999
 -1      2772    4    0    1
 -2      7372      7462      7472      7382      4946      4955      4956      4947     20634     20707
 -2     20708     19999     19931     20639     20713     20005      5557      5559      5560      5530
 -1      2773    4    0    1
 -2       550       559       560       551      7373      7463      7473      7383      1163      1165
 -2      1166      1136     19935     20643     20717     20009     20645     20718     20719     20010
 -1      2774    4    0    1
 -2      7373      7463      7473      7383      7374      7464      7474      7384     20645     20718
 -2     20719     20010     19942     20650     20724     20016     20652     20725     20726     20017
 -1      2775    4    0    1
 -2      7374      7464      7474      7384      7375      7465      7475      7385     20652     20725
 -2     20726     20017     19949     20657     20731     20023     20659     20732     20733     20024
 -1      2776    4    0    1
 -2      7375      7465      7475      7385      7376      7466      7476      7386     20659     20732
 -2     20733     20024     19956     20664     20738     20030     20666     20739     20740     20031
 -1      2777    4    0    1
 -2      7376      7466      7476      7386      7377      7467      7477      7387     20666     20739
 -2     20740     20031     19963     20671     20745     20037     20673     20746     20747     20038
 -1      2778    4    0    1
 -2      7377      7467      7477      7387      7378      7468      7478      7388     20673     20746
 -2     20747     20038     19970     20678     20752     20044     20680     20753     20754     20045
 -1      2779    4    0    1
 -2      7378      7468      7478      7388      7379      7469      7479      7389     20680     20753
 -2     20754     20045     19977     20685     20759     20051     20687     20760     20761     20052
 -1      2780    4    0    1
 -2      7379      7469      7479      7389      7380      7470      7480      7390     20687     20760
 -2     20761     20052     19984     20692     20766     20058     20694     20767     20768     20059
 -1      2781    4    0    1
 -2      7380      7470      7480      7390      7381      7471      7481      7391     20694     20767
 -2     20768     20059     19991     20699     20773     20065     20701     20774     20775     20066
 -1      2782    4    0    1
 -2      7381      7471      7481      7391      7382      7472      7482      7392     20701     20774
 -2     20775     20066     19998     20706     20780     20072     20708     20781     20782     20073
 -1      2783    4    0    1
 -2      7382      7472      7482      7392      4947      4956      4957      4948     20708     20781
 -2     20782     20073     20005     20713     20787     20079      5560      5562      5563      5533
 -1      2784    4    0    1
 -2       551       560       561       552      7383      7473      7483      7393      1166      1168
 -2      1169      1139     20009     20717     20791     20083     20719     20792     20793     20084
 -1      2785    4    0    1
 -2      7383      7473      7483      7393      7384      7474      7484      7394     20719     20792
 -2     20793     20084     20016     20724     20798     20090     20726     20799     20800     20091
 -1      2786    4    0    1
 -2      7384      7474      7484      7394      7385      7475      7485      7395     20726     20799
 -2     20800     20091     20023     20731     20805     20097     20733     20806     20807     20098
 -1      2787    4    0    1
 -2      7385      7475      7485      7395      7386      7476      7486      7396     20733     20806
 -2     20807     20098     20030     20738     20812     20104     20740     20813     20814     20105
 -1      2788    4    0    1
 -2      7386      7476      7486      7396      7387      7477      7487      7397     20740     20813
 -2     20814     20105     20037     20745     20819     20111     20747     20820     20821     20112
 -1      2789    4    0    1
 -2      7387      7477      7487      7397      7388      7478      7488      7398     20747     20820
 -2     20821     20112     20044     20752     20826     20118     20754     20827     20828     20119
 -1      2790    4    0    1
 -2      7388      7478      7488      7398      7389      7479      7489      7399     20754     20827
 -2     20828     20119     20051     20759     20833     20125     20761     20834     20835     20126
 -1      2791    4    0    1
 -2      7389      7479      7489      7399      7390      7480      7490      7400     20761     20834
 -2     20835     20126     20058     20766     20840     20132     20768     20841     20842     20133
 -1      2792    4    0    1
 -2      7390      7480      7490      7400      7391      7481      7491      7401     20768     20841
 -2     20842     20133     20065     20773     20847     20139     20775     20848     20849     20140
 -1      2793    4    0    1
 -2      7391      7481      7491      7401      7392      7482      7492      7402     20775     20848
 -2     20849     20140     20072     20780     20854     20146     20782     20855     20856     20147
 -1      2794    4    0    1
 -2      7392      7482      7492      7402      4948      4957      4958      4949     20782     20855
 -2     20856     20147     20079     20787     20861     20153      5563      5565      5566      5536
 -1      2795    4    0    1
 -2       552       561       562       553      7393      7483      7493      7403      1169      1171
 -2      1172      1142     20083     20791     20865     20157     20793     20866     20867     20158
 -1      2796    4    0    1
 -2      7393      7483      7493      7403      7394      7484      7494      7404     20793     20866
 -2     20867     20158     20090     20798     20872     20164     20800     20873     20874     20165
 -1      2797    4    0    1
 -2      7394      7484      7494      7404      7395      7485      7495      7405     20800     20873
 -2     20874     20165     20097     20805     20879     20171     20807     20880     20881     20172
 -1      2798    4    0    1
 -2      7395      7485      7495      7405      7396      7486      7496      7406     20807     20880
 -2     20881     20172     20104     20812     20886     20178     20814     20887     20888     20179
 -1      2799    4    0    1
 -2      7396      7486      7496      7406      7397      7487      7497      7407     20814     20887
 -2     20888     20179     20111     20819     20893     20185     20821     20894     20895     20186
 -1      2800    4    0    1
 -2      7397      7487      7497      7407      7398      7488      7498      7408     20821     20894
 -2     20895     20186     20118     20826     20900     20192     20828     20901     20902     20193
 -1      2801    4    0    1
 -2      7398      7488      7498      7408      7399      7489      7499      7409     20828     20901
 -2     20902     20193     20125     20833     20907     20199     20835     20908     20909     20200
 -1      2802    4    0    1
 -2      7399      7489      7499      7409      7400      7490      7500      7410     20835     20908
 -2     20909     20200     20132     20840     20914     20206     20842     20915     20916     20207
 -1      2803    4    0    1
 -2      7400      7490      7500      7410      7401      7491      7501      7411     20842     20915
 -2     20916     20207     20139     20847     20921     20213     20849     20922     20923     20214
 -1      2804    4    0    1
 -2      7401      7491      7501      7411      7402      7492      7502      7412     20849     20922
 -2     20923     20214     20146     20854     20928     20220     20856     20929     20930     20221
 -1      2805    4    0    1
 -2      7402      7492      7502      7412      4949      4958      4959      4950     20856     20929
 -2     20930     20221     20153     20861     20935     20227      5566      5568      5569      5539
 -1      2806    4    0    1
 -2       553       562       563       554      7403      7493      7503      7413      1172      1174
 -2      1175      1145     20157     20865     20939     20231     20867     20940     20941     20232
 -1      2807    4    0    1
 -2      7403      7493      7503      7413      7404      7494      7504      7414     20867     20940
 -2     20941     20232     20164     20872     20946     20238     20874     20947     20948     20239
 -1      2808    4    0    1
 -2      7404      7494      7504      7414      7405      7495      7505      7415     20874     20947
 -2     20948     20239     20171     20879     20953     20245     20881     20954     20955     20246
 -1      2809    4    0    1
 -2      7405      7495      7505      7415      7406      7496      7506      7416     20881     20954
 -2     20955     20246     20178     20886     20960     20252     20888     20961     20962     20253
 -1      2810    4    0    1
 -2      7406      7496      7506      7416      7407      7497      7507      7417     20888     20961
 -2     20962     20253     20185     20893     20967     20259     20895     20968     20969     20260
 -1      2811    4    0    1
 -2      7407      7497      7507      7417      7408      7498      7508      7418     20895     20968
 -2     20969     20260     20192     20900     20974     20266     20902     20975     20976     20267
 -1      2812    4    0    1
 -2      7408      7498      7508      7418      7409      7499      7509      7419     20902     20975
 -2     20976     20267     20199     20907     20981     20273     20909     20982     20983     20274
 -1      2813    4    0    1
 -2      7409      7499      7509      7419      7410      7500      7510      7420     20909     20982
 -2     20983     20274     20206     20914     20988     20280     20916     20989     20990     20281
 -1      2814    4    0    1
 -2      7410      7500      7510      7420      7411      7501      7511      7421     20916     20989
 -2     20990     20281     20213     20921     20995     20287     20923     20996     20997     20288
 -1      2815    4    0    1
 -2      7411      7501      7511      7421      7412      7502      7512      7422     20923     20996
 -2     20997     20288     20220     20928     21002     20294     20930     21003     21004     20295
 -1      2816    4    0    1
 -2      7412      7502      7512      7422      4950      4959      4960      4951     20930     21003
 -2     21004     20295     20227     20935     21009     20301      5569      5571      5572      5542
 -1      2817    4    0    1
 -2       554       563       564       555      7413      7503      7513      7423      1175      1177
 -2      1178      1148     20231     20939     21013     20305     20941     21014     21015     20306
 -1      2818    4    0    1
 -2      7413      7503      7513      7423      7414      7504      7514      7424     20941     21014
 -2     21015     20306     20238     20946     21020     20312     20948     21021     21022     20313
 -1      2819    4    0    1
 -2      7414      7504      7514      7424      7415      7505      7515      7425     20948     21021
 -2     21022     20313     20245     20953     21027     20319     20955     21028     21029     20320
 -1      2820    4    0    1
 -2      7415      7505      7515      7425      7416      7506      7516      7426     20955     21028
 -2     21029     20320     20252     20960     21034     20326     20962     21035     21036     20327
 -1      2821    4    0    1
 -2      7416      7506      7516      7426      7417      7507      7517      7427     20962     21035
 -2     21036     20327     20259     20967     21041     20333     20969     21042     21043     20334
 -1      2822    4    0    1
 -2      7417      7507      7517      7427      7418      7508      7518      7428     20969     21042
 -2     21043     20334     20266     20974     21048     20340     20976     21049     21050     20341
 -1      2823    4    0    1
 -2      7418      7508      7518      7428      7419      7509      7519      7429     20976     21049
 -2     21050     20341     20273     20981     21055     20347     20983     21056     21057     20348
 -1      2824    4    0    1
 -2      7419      7509      7519      7429      7420      7510      7520      7430     20983     21056
 -2     21057     20348     20280     20988     21062     20354     20990     21063     21064     20355
 -1      2825    4    0    1
 -2      7420      7510      7520      7430      7421      7511      7521      7431     20990     21063
 -2     21064     20355     20287     20995     21069     20361     20997     21070     21071     20362
 -1      2826    4    0    1
 -2      7421      7511      7521      7431      7422      7512      7522      7432     20997     21070
 -2     21071     20362     20294     21002     21076     20368     21004     21077     21078     20369
 -1      2827    4    0    1
 -2      7422      7512      7522      7432      4951      4960      4961      4952     21004     21077
 -2     21078     20369     20301     21009     21083     20375      5572      5574      5575      5545
 -1      2828    4    0    1
 -2       555       564       565       556      7423      7513      7523      7433      1178      1180
 -2      1181      1151     20305     21013     21087     20379     21015     21088     21089     20380
 -1      2829    4    0    1
 -2      7423      7513      7523      7433      7424      7514      7524      7434     21015     21088
 -2     21089     20380     20312     21020     21094     20386     21022     21095     21096     20387
 -1      2830    4    0    1
 -2      7424      7514      7524      7434      7425      7515      7525      7435     21022     21095
 -2     21096     20387     20319     21027     21101     20393     21029     21102     21103     20394
 -1      2831    4    0    1
 -2      7425      7515      7525      7435      7426      7516      7526      7436     21029     21102
 -2     21103     20394     20326     21034     21108     20400     21036     21109     21110     20401
 -1      2832    4    0    1
 -2      7426      7516      7526      7436      7427      7517      7527      7437     21036     21109
 -2     21110     20401     20333     21041     21115     20407     21043     21116     21117     20408
 -1      2833    4    0    1
 -2      7427      7517      7527      7437      7428      7518      7528      7438     21043     21116
 -2     21117     20408     20340     21048     21122     20414     21050     21123     21124     20415
 -1      2834    4    0    1
 -2      7428      7518      7528      7438      7429      7519      7529      7439     21050     21123
 -2     21124     20415     20347     21055     21129     20421     21057     21130     21131     20422
 -1      2835    4    0    1
 -2      7429      7519      7529      7439      7430      7520      7530      7440     21057     21130
 -2     21131     20422     20354     21062     21136     20428     21064     21137     21138     20429
 -1      2836    4    0    1
 -2      7430      7520      7530      7440      7431      7521      7531      7441     21064     21137
 -2     21138     20429     20361     21069     21143     20435     21071     21144     21145     20436
 -1      2837    4    0    1
 -2      7431      7521      7531      7441      7432      7522      7532      7442     21071     21144
 -2     21145     20436     20368     21076     21150     20442     21078     21151     21152     20443
 -1      2838    4    0    1
 -2      7432      7522      7532      7442      4952      4961      4962      4953     21078     21151
 -2     21152     20443     20375     21083     21157     20449      5575      5577      5578      5548
 -1      2839    4    0    1
 -2       556       565       566       557      7433      7523      7533      7443      1181      1183
 -2      1184      1154     20379     21087     21161     20453     21089     21162     21163     20454
 -1      2840    4    0    1
 -2      7433      7523      7533      7443      7434      7524      7534      7444     21089     21162
 -2     21163     20454     20386     21094     21168     20460     21096     21169     21170     20461
 -1      2841    4    0    1
 -2      7434      7524      7534      7444      7435      7525      7535      7445     21096     21169
 -2     21170     20461     20393     21101     21175     20467     21103     21176     21177     20468
 -1      2842    4    0    1
 -2      7435      7525      7535      7445      7436      7526      7536      7446     21103     21176
 -2     21177     20468     20400     21108     21182     20474     21110     21183     21184     20475
 -1      2843    4    0    1
 -2      7436      7526      7536      7446      7437      7527      7537      7447     21110     21183
 -2     21184     20475     20407     21115     21189     20481     21117     21190     21191     20482
 -1      2844    4    0    1
 -2      7437      7527      7537      7447      7438      7528      7538      7448     21117     21190
 -2     21191     20482     20414     21122     21196     20488     21124     21197     21198     20489
 -1      2845    4    0    1
 -2      7438      7528      7538      7448      7439      7529      7539      7449     21124     21197
 -2     21198     20489     20421     21129     21203     20495     21131     21204     21205     20496
 -1      2846    4    0    1
 -2      7439      7529      7539      7449      7440      7530      7540      7450     21131     21204
 -2     21205     20496     20428     21136     21210     20502     21138     21211     21212     20503
 -1      2847    4    0    1
 -2      7440      7530      7540      7450      7441      7531      7541      7451     21138     21211
 -2     21212     20503     20435     21143     21217     20509     21145     21218     21219     20510
 -1      2848    4    0    1
 -2      7441      7531      7541      7451      7442      7532      7542      7452     21145     21218
 -2     21219     20510     20442     21150     21224     20516     21152     21225     21226     20517
 -1      2849    4    0    1
 -2      7442      7532      7542      7452      4953      4962      4963      4954     21152     21225
 -2     21226     20517     20449     21157     21231     20523      5578      5580      5581      5551
 -1      2850    4    0    1
 -2       557       566        98        99      7443      7533      3274      3284      1184      1186
 -2       128      1157     20453     21161      3806      3838     21163     21235      3839     20527
 -1      2851    4    0    1
 -2      7443      7533      3274      3284      7444      7534      3275      3285     21163     21235
 -2      3839     20527     20460     21168      3809      3841     21170     21239      3842     20531
 -1      2852    4    0    1
 -2      7444      7534      3275      3285      7445      7535      3276      3286     21170     21239
 -2      3842     20531     20467     21175      3812      3844     21177     21243      3845     20535
 -1      2853    4    0    1
 -2      7445      7535      3276      3286      7446      7536      3277      3287     21177     21243
 -2      3845     20535     20474     21182      3815      3847     21184     21247      3848     20539
 -1      2854    4    0    1
 -2      7446      7536      3277      3287      7447      7537      3278      3288     21184     21247
 -2      3848     20539     20481     21189      3818      3850     21191     21251      3851     20543
 -1      2855    4    0    1
 -2      7447      7537      3278      3288      7448      7538      3279      3289     21191     21251
 -2      3851     20543     20488     21196      3821      3853     21198     21255      3854     20547
 -1      2856    4    0    1
 -2      7448      7538      3279      3289      7449      7539      3280      3290     21198     21255
 -2      3854     20547     20495     21203      3824      3856     21205     21259      3857     20551
 -1      2857    4    0    1
 -2      7449      7539      3280      3290      7450      7540      3281      3291     21205     21259
 -2      3857     20551     20502     21210      3827      3859     21212     21263      3860     20555
 -1      2858    4    0    1
 -2      7450      7540      3281      3291      7451      7541      3282      3292     21212     21263
 -2      3860     20555     20509     21217      3830      3862     21219     21267      3863     20559
 -1      2859    4    0    1
 -2      7451      7541      3282      3292      7452      7542      3283      3293     21219     21267
 -2      3863     20559     20516     21224      3833      3865     21226     21271      3866     20563
 -1      2860    4    0    1
 -2      7452      7542      3283      3293      4954      4963       254       255     21226     21271
 -2      3866     20563     20523     21231      3836      3868      5581      5583       284      5554
 -1      2861    4    0    1
 -2        26        27       567       558      1696      1706      7543      7453        56      1188
 -2      1189      1159      2360      2392     21277     20569      2393     21278     21279     20570
 -1      2862    4    0    1
 -2      1696      1706      7543      7453      1697      1707      7544      7454      2393     21278
 -2     21279     20570      2363      2395     21284     20576      2396     21285     21286     20577
 -1      2863    4    0    1
 -2      1697      1707      7544      7454      1698      1708      7545      7455      2396     21285
 -2     21286     20577      2366      2398     21291     20583      2399     21292     21293     20584
 -1      2864    4    0    1
 -2      1698      1708      7545      7455      1699      1709      7546      7456      2399     21292
 -2     21293     20584      2369      2401     21298     20590      2402     21299     21300     20591
 -1      2865    4    0    1
 -2      1699      1709      7546      7456      1700      1710      7547      7457      2402     21299
 -2     21300     20591      2372      2404     21305     20597      2405     21306     21307     20598
 -1      2866    4    0    1
 -2      1700      1710      7547      7457      1701      1711      7548      7458      2405     21306
 -2     21307     20598      2375      2407     21312     20604      2408     21313     21314     20605
 -1      2867    4    0    1
 -2      1701      1711      7548      7458      1702      1712      7549      7459      2408     21313
 -2     21314     20605      2378      2410     21319     20611      2411     21320     21321     20612
 -1      2868    4    0    1
 -2      1702      1712      7549      7459      1703      1713      7550      7460      2411     21320
 -2     21321     20612      2381      2413     21326     20618      2414     21327     21328     20619
 -1      2869    4    0    1
 -2      1703      1713      7550      7460      1704      1714      7551      7461      2414     21327
 -2     21328     20619      2384      2416     21333     20625      2417     21334     21335     20626
 -1      2870    4    0    1
 -2      1704      1714      7551      7461      1705      1715      7552      7462      2417     21334
 -2     21335     20626      2387      2419     21340     20632      2420     21341     21342     20633
 -1      2871    4    0    1
 -2      1705      1715      7552      7462       182       183      4964      4955      2420     21341
 -2     21342     20633      2390      2422     21347     20639       212      5585      5586      5556
 -1      2872    4    0    1
 -2       558       567       568       559      7453      7543      7553      7463      1189      1191
 -2      1192      1162     20569     21277     21351     20643     21279     21352     21353     20644
 -1      2873    4    0    1
 -2      7453      7543      7553      7463      7454      7544      7554      7464     21279     21352
 -2     21353     20644     20576     21284     21358     20650     21286     21359     21360     20651
 -1      2874    4    0    1
 -2      7454      7544      7554      7464      7455      7545      7555      7465     21286     21359
 -2     21360     20651     20583     21291     21365     20657     21293     21366     21367     20658
 -1      2875    4    0    1
 -2      7455      7545      7555      7465      7456      7546      7556      7466     21293     21366
 -2     21367     20658     20590     21298     21372     20664     21300     21373     21374     20665
 -1      2876    4    0    1
 -2      7456      7546      7556      7466      7457      7547      7557      7467     21300     21373
 -2     21374     20665     20597     21305     21379     20671     21307     21380     21381     20672
 -1      2877    4    0    1
 -2      7457      7547      7557      7467      7458      7548      7558      7468     21307     21380
 -2     21381     20672     20604     21312     21386     20678     21314     21387     21388     20679
 -1      2878    4    0    1
 -2      7458      7548      7558      7468      7459      7549      7559      7469     21314     21387
 -2     21388     20679     20611     21319     21393     20685     21321     21394     21395     20686
 -1      2879    4    0    1
 -2      7459      7549      7559      7469      7460      7550      7560      7470     21321     21394
 -2     21395     20686     20618     21326     21400     20692     21328     21401     21402     20693
 -1      2880    4    0    1
 -2      7460      7550      7560      7470      7461      7551      7561      7471     21328     21401
 -2     21402     20693     20625     21333     21407     20699     21335     21408     21409     20700
 -1      2881    4    0    1
 -2      7461      7551      7561      7471      7462      7552      7562      7472     21335     21408
 -2     21409     20700     20632     21340     21414     20706     21342     21415     21416     20707
 -1      2882    4    0    1
 -2      7462      7552      7562      7472      4955      4964      4965      4956     21342     21415
 -2     21416     20707     20639     21347     21421     20713      5586      5588      5589      5559
 -1      2883    4    0    1
 -2       559       568       569       560      7463      7553      7563      7473      1192      1194
 -2      1195      1165     20643     21351     21425     20717     21353     21426     21427     20718
 -1      2884    4    0    1
 -2      7463      7553      7563      7473      7464      7554      7564      7474     21353     21426
 -2     21427     20718     20650     21358     21432     20724     21360     21433     21434     20725
 -1      2885    4    0    1
 -2      7464      7554      7564      7474      7465      7555      7565      7475     21360     21433
 -2     21434     20725     20657     21365     21439     20731     21367     21440     21441     20732
 -1      2886    4    0    1
 -2      7465      7555      7565      7475      7466      7556      7566      7476     21367     21440
 -2     21441     20732     20664     21372     21446     20738     21374     21447     21448     20739
 -1      2887    4    0    1
 -2      7466      7556      7566      7476      7467      7557      7567      7477     21374     21447
 -2     21448     20739     20671     21379     21453     20745     21381     21454     21455     20746
 -1      2888    4    0    1
 -2      7467      7557      7567      7477      7468      7558      7568      7478     21381     21454
 -2     21455     20746     20678     21386     21460     20752     21388     21461     21462     20753
 -1      2889    4    0    1
 -2      7468      7558      7568      7478      7469      7559      7569      7479     21388     21461
 -2     21462     20753     20685     21393     21467     20759     21395     21468     21469     20760
 -1      2890    4    0    1
 -2      7469      7559      7569      7479      7470      7560      7570      7480     21395     21468
 -2     21469     20760     20692     21400     21474     20766     21402     21475     21476     20767
 -1      2891    4    0    1
 -2      7470      7560      7570      7480      7471      7561      7571      7481     21402     21475
 -2     21476     20767     20699     21407     21481     20773     21409     21482     21483     20774
 -1      2892    4    0    1
 -2      7471      7561      7571      7481      7472      7562      7572      7482     21409     21482
 -2     21483     20774     20706     21414     21488     20780     21416     21489     21490     20781
 -1      2893    4    0    1
 -2      7472      7562      7572      7482      4956      4965      4966      4957     21416     21489
 -2     21490     20781     20713     21421     21495     20787      5589      5591      5592      5562
 -1      2894    4    0    1
 -2       560       569       570       561      7473      7563      7573      7483      1195      1197
 -2      1198      1168     20717     21425     21499     20791     21427     21500     21501     20792
 -1      2895    4    0    1
 -2      7473      7563      7573      7483      7474      7564      7574      7484     21427     21500
 -2     21501     20792     20724     21432     21506     20798     21434     21507     21508     20799
 -1      2896    4    0    1
 -2      7474      7564      7574      7484      7475      7565      7575      7485     21434     21507
 -2     21508     20799     20731     21439     21513     20805     21441     21514     21515     20806
 -1      2897    4    0    1
 -2      7475      7565      7575      7485      7476      7566      7576      7486     21441     21514
 -2     21515     20806     20738     21446     21520     20812     21448     21521     21522     20813
 -1      2898    4    0    1
 -2      7476      7566      7576      7486      7477      7567      7577      7487     21448     21521
 -2     21522     20813     20745     21453     21527     20819     21455     21528     21529     20820
 -1      2899    4    0    1
 -2      7477      7567      7577      7487      7478      7568      7578      7488     21455     21528
 -2     21529     20820     20752     21460     21534     20826     21462     21535     21536     20827
 -1      2900    4    0    1
 -2      7478      7568      7578      7488      7479      7569      7579      7489     21462     21535
 -2     21536     20827     20759     21467     21541     20833     21469     21542     21543     20834
 -1      2901    4    0    1
 -2      7479      7569      7579      7489      7480      7570      7580      7490     21469     21542
 -2     21543     20834     20766     21474     21548     20840     21476     21549     21550     20841
 -1      2902    4    0    1
 -2      7480      7570      7580      7490      7481      7571      7581      7491     21476     21549
 -2     21550     20841     20773     21481     21555     20847     21483     21556     21557     20848
 -1      2903    4    0    1
 -2      7481      7571      7581      7491      7482      7572      7582      7492     21483     21556
 -2     21557     20848     20780     21488     21562     20854     21490     21563     21564     20855
 -1      2904    4    0    1
 -2      7482      7572      7582      7492      4957      4966      4967      4958     21490     21563
 -2     21564     20855     20787     21495     21569     20861      5592      5594      5595      5565
 -1      2905    4    0    1
 -2       561       570       571       562      7483      7573      7583      7493      1198      1200
 -2      1201      1171     20791     21499     21573     20865     21501     21574     21575     20866
 -1      2906    4    0    1
 -2      7483      7573      7583      7493      7484      7574      7584      7494     21501     21574
 -2     21575     20866     20798     21506     21580     20872     21508     21581     21582     20873
 -1      2907    4    0    1
 -2      7484      7574      7584      7494      7485      7575      7585      7495     21508     21581
 -2     21582     20873     20805     21513     21587     20879     21515     21588     21589     20880
 -1      2908    4    0    1
 -2      7485      7575      7585      7495      7486      7576      7586      7496     21515     21588
 -2     21589     20880     20812     21520     21594     20886     21522     21595     21596     20887
 -1      2909    4    0    1
 -2      7486      7576      7586      7496      7487      7577      7587      7497     21522     21595
 -2     21596     20887     20819     21527     21601     20893     21529     21602     21603     20894
 -1      2910    4    0    1
 -2      7487      7577      7587      7497      7488      7578      7588      7498     21529     21602
 -2     21603     20894     20826     21534     21608     20900     21536     21609     21610     20901
 -1      2911    4    0    1
 -2      7488      7578      7588      7498      7489      7579      7589      7499     21536     21609
 -2     21610     20901     20833     21541     21615     20907     21543     21616     21617     20908
 -1      2912    4    0    1
 -2      7489      7579      7589      7499      7490      7580      7590      7500     21543     21616
 -2     21617     20908     20840     21548     21622     20914     21550     21623     21624     20915
 -1      2913    4    0    1
 -2      7490      7580      7590      7500      7491      7581      7591      7501     21550     21623
 -2     21624     20915     20847     21555     21629     20921     21557     21630     21631     20922
 -1      2914    4    0    1
 -2      7491      7581      7591      7501      7492      7582      7592      7502     21557     21630
 -2     21631     20922     20854     21562     21636     20928     21564     21637     21638     20929
 -1      2915    4    0    1
 -2      7492      7582      7592      7502      4958      4967      4968      4959     21564     21637
 -2     21638     20929     20861     21569     21643     20935      5595      5597      5598      5568
 -1      2916    4    0    1
 -2       562       571       572       563      7493      7583      7593      7503      1201      1203
 -2      1204      1174     20865     21573     21647     20939     21575     21648     21649     20940
 -1      2917    4    0    1
 -2      7493      7583      7593      7503      7494      7584      7594      7504     21575     21648
 -2     21649     20940     20872     21580     21654     20946     21582     21655     21656     20947
 -1      2918    4    0    1
 -2      7494      7584      7594      7504      7495      7585      7595      7505     21582     21655
 -2     21656     20947     20879     21587     21661     20953     21589     21662     21663     20954
 -1      2919    4    0    1
 -2      7495      7585      7595      7505      7496      7586      7596      7506     21589     21662
 -2     21663     20954     20886     21594     21668     20960     21596     21669     21670     20961
 -1      2920    4    0    1
 -2      7496      7586      7596      7506      7497      7587      7597      7507     21596     21669
 -2     21670     20961     20893     21601     21675     20967     21603     21676     21677     20968
 -1      2921    4    0    1
 -2      7497      7587      7597      7507      7498      7588      7598      7508     21603     21676
 -2     21677     20968     20900     21608     21682     20974     21610     21683     21684     20975
 -1      2922    4    0    1
 -2      7498      7588      7598      7508      7499      7589      7599      7509     21610     21683
 -2     21684     20975     20907     21615     21689     20981     21617     21690     21691     20982
 -1      2923    4    0    1
 -2      7499      7589      7599      7509      7500      7590      7600      7510     21617     21690
 -2     21691     20982     20914     21622     21696     20988     21624     21697     21698     20989
 -1      2924    4    0    1
 -2      7500      7590      7600      7510      7501      7591      7601      7511     21624     21697
 -2     21698     20989     20921     21629     21703     20995     21631     21704     21705     20996
 -1      2925    4    0    1
 -2      7501      7591      7601      7511      7502      7592      7602      7512     21631     21704
 -2     21705     20996     20928     21636     21710     21002     21638     21711     21712     21003
 -1      2926    4    0    1
 -2      7502      7592      7602      7512      4959      4968      4969      4960     21638     21711
 -2     21712     21003     20935     21643     21717     21009      5598      5600      5601      5571
 -1      2927    4    0    1
 -2       563       572       573       564      7503      7593      7603      7513      1204      1206
 -2      1207      1177     20939     21647     21721     21013     21649     21722     21723     21014
 -1      2928    4    0    1
 -2      7503      7593      7603      7513      7504      7594      7604      7514     21649     21722
 -2     21723     21014     20946     21654     21728     21020     21656     21729     21730     21021
 -1      2929    4    0    1
 -2      7504      7594      7604      7514      7505      7595      7605      7515     21656     21729
 -2     21730     21021     20953     21661     21735     21027     21663     21736     21737     21028
 -1      2930    4    0    1
 -2      7505      7595      7605      7515      7506      7596      7606      7516     21663     21736
 -2     21737     21028     20960     21668     21742     21034     21670     21743     21744     21035
 -1      2931    4    0    1
 -2      7506      7596      7606      7516      7507      7597      7607      7517     21670     21743
 -2     21744     21035     20967     21675     21749     21041     21677     21750     21751     21042
 -1      2932    4    0    1
 -2      7507      7597      7607      7517      7508      7598      7608      7518     21677     21750
 -2     21751     21042     20974     21682     21756     21048     21684     21757     21758     21049
 -1      2933    4    0    1
 -2      7508      7598      7608      7518      7509      7599      7609      7519     21684     21757
 -2     21758     21049     20981     21689     21763     21055     21691     21764     21765     21056
 -1      2934    4    0    1
 -2      7509      7599      7609      7519      7510      7600      7610      7520     21691     21764
 -2     21765     21056     20988     21696     21770     21062     21698     21771     21772     21063
 -1      2935    4    0    1
 -2      7510      7600      7610      7520      7511      7601      7611      7521     21698     21771
 -2     21772     21063     20995     21703     21777     21069     21705     21778     21779     21070
 -1      2936    4    0    1
 -2      7511      7601      7611      7521      7512      7602      7612      7522     21705     21778
 -2     21779     21070     21002     21710     21784     21076     21712     21785     21786     21077
 -1      2937    4    0    1
 -2      7512      7602      7612      7522      4960      4969      4970      4961     21712     21785
 -2     21786     21077     21009     21717     21791     21083      5601      5603      5604      5574
 -1      2938    4    0    1
 -2       564       573       574       565      7513      7603      7613      7523      1207      1209
 -2      1210      1180     21013     21721     21795     21087     21723     21796     21797     21088
 -1      2939    4    0    1
 -2      7513      7603      7613      7523      7514      7604      7614      7524     21723     21796
 -2     21797     21088     21020     21728     21802     21094     21730     21803     21804     21095
 -1      2940    4    0    1
 -2      7514      7604      7614      7524      7515      7605      7615      7525     21730     21803
 -2     21804     21095     21027     21735     21809     21101     21737     21810     21811     21102
 -1      2941    4    0    1
 -2      7515      7605      7615      7525      7516      7606      7616      7526     21737     21810
 -2     21811     21102     21034     21742     21816     21108     21744     21817     21818     21109
 -1      2942    4    0    1
 -2      7516      7606      7616      7526      7517      7607      7617      7527     21744     21817
 -2     21818     21109     21041     21749     21823     21115     21751     21824     21825     21116
 -1      2943    4    0    1
 -2      7517      7607      7617      7527      7518      7608      7618      7528     21751     21824
 -2     21825     21116     21048     21756     21830     21122     21758     21831     21832     21123
 -1      2944    4    0    1
 -2      7518      7608      7618      7528      7519      7609      7619      7529     21758     21831
 -2     21832     21123     21055     21763     21837     21129     21765     21838     21839     21130
 -1      2945    4    0    1
 -2      7519      7609      7619      7529      7520      7610      7620      7530     21765     21838
 -2     21839     21130     21062     21770     21844     21136     21772     21845     21846     21137
 -1      2946    4    0    1
 -2      7520      7610      7620      7530      7521      7611      7621      7531     21772     21845
 -2     21846     21137     21069     21777     21851     21143     21779     21852     21853     21144
 -1      2947    4    0    1
 -2      7521      7611      7621      7531      7522      7612      7622      7532     21779     21852
 -2     21853     21144     21076     21784     21858     21150     21786     21859     21860     21151
 -1      2948    4    0    1
 -2      7522      7612      7622      7532      4961      4970      4971      4962     21786     21859
 -2     21860     21151     21083     21791     21865     21157      5604      5606      5607      5577
 -1      2949    4    0    1
 -2       565       574       575       566      7523      7613      7623      7533      1210      1212
 -2      1213      1183     21087     21795     21869     21161     21797     21870     21871     21162
 -1      2950    4    0    1
 -2      7523      7613      7623      7533      7524      7614      7624      7534     21797     21870
 -2     21871     21162     21094     21802     21876     21168     21804     21877     21878     21169
 -1      2951    4    0    1
 -2      7524      7614      7624      7534      7525      7615      7625      7535     21804     21877
 -2     21878     21169     21101     21809     21883     21175     21811     21884     21885     21176
 -1      2952    4    0    1
 -2      7525      7615      7625      7535      7526      7616      7626      7536     21811     21884
 -2     21885     21176     21108     21816     21890     21182     21818     21891     21892     21183
 -1      2953    4    0    1
 -2      7526      7616      7626      7536      7527      7617      7627      7537     21818     21891
 -2     21892     21183     21115     21823     21897     21189     21825     21898     21899     21190
 -1      2954    4    0    1
 -2      7527      7617      7627      7537      7528      7618      7628      7538     21825     21898
 -2     21899     21190     21122     21830     21904     21196     21832     21905     21906     21197
 -1      2955    4    0    1
 -2      7528      7618      7628      7538      7529      7619      7629      7539     21832     21905
 -2     21906     21197     21129     21837     21911     21203     21839     21912     21913     21204
 -1      2956    4    0    1
 -2      7529      7619      7629      7539      7530      7620      7630      7540     21839     21912
 -2     21913     21204     21136     21844     21918     21210     21846     21919     21920     21211
 -1      2957    4    0    1
 -2      7530      7620      7630      7540      7531      7621      7631      7541     21846     21919
 -2     21920     21211     21143     21851     21925     21217     21853     21926     21927     21218
 -1      2958    4    0    1
 -2      7531      7621      7631      7541      7532      7622      7632      7542     21853     21926
 -2     21927     21218     21150     21858     21932     21224     21860     21933     21934     21225
 -1      2959    4    0    1
 -2      7532      7622      7632      7542      4962      4971      4972      4963     21860     21933
 -2     21934     21225     21157     21865     21939     21231      5607      5609      5610      5580
 -1      2960    4    0    1
 -2       566       575        97        98      7533      7623      3264      3274      1213      1215
 -2       127      1186     21161     21869      3774      3806     21871     21943      3807     21235
 -1      2961    4    0    1
 -2      7533      7623      3264      3274      7534      7624      3265      3275     21871     21943
 -2      3807     21235     21168     21876      3777      3809     21878     21947      3810     21239
 -1      2962    4    0    1
 -2      7534      7624      3265      3275      7535      7625      3266      3276     21878     21947
 -2      3810     21239     21175     21883      3780      3812     21885     21951      3813     21243
 -1      2963    4    0    1
 -2      7535      7625      3266      3276      7536      7626      3267      3277     21885     21951
 -2      3813     21243     21182     21890      3783      3815     21892     21955      3816     21247
 -1      2964    4    0    1
 -2      7536      7626      3267      3277      7537      7627      3268      3278     21892     21955
 -2      3816     21247     21189     21897      3786      3818     21899     21959      3819     21251
 -1      2965    4    0    1
 -2      7537      7627      3268      3278      7538      7628      3269      3279     21899     21959
 -2      3819     21251     21196     21904      3789      3821     21906     21963      3822     21255
 -1      2966    4    0    1
 -2      7538      7628      3269      3279      7539      7629      3270      3280     21906     21963
 -2      3822     21255     21203     21911      3792      3824     21913     21967      3825     21259
 -1      2967    4    0    1
 -2      7539      7629      3270      3280      7540      7630      3271      3281     21913     21967
 -2      3825     21259     21210     21918      3795      3827     21920     21971      3828     21263
 -1      2968    4    0    1
 -2      7540      7630      3271      3281      7541      7631      3272      3282     21920     21971
 -2      3828     21263     21217     21925      3798      3830     21927     21975      3831     21267
 -1      2969    4    0    1
 -2      7541      7631      3272      3282      7542      7632      3273      3283     21927     21975
 -2      3831     21267     21224     21932      3801      3833     21934     21979      3834     21271
 -1      2970    4    0    1
 -2      7542      7632      3273      3283      4963      4972       253       254     21934     21979
 -2      3834     21271     21231     21939      3804      3836      5610      5612       283      5583
 -1      2971    4    0    1
 -2        27        28       576       567      1706      1716      7633      7543        57      1217
 -2      1218      1188      2392      2424     21985     21277      2425     21986     21987     21278
 -1      2972    4    0    1
 -2      1706      1716      7633      7543      1707      1717      7634      7544      2425     21986
 -2     21987     21278      2395      2427     21992     21284      2428     21993     21994     21285
 -1      2973    4    0    1
 -2      1707      1717      7634      7544      1708      1718      7635      7545      2428     21993
 -2     21994     21285      2398      2430     21999     21291      2431     22000     22001     21292
 -1      2974    4    0    1
 -2      1708      1718      7635      7545      1709      1719      7636      7546      2431     22000
 -2     22001     21292      2401      2433     22006     21298      2434     22007     22008     21299
 -1      2975    4    0    1
 -2      1709      1719      7636      7546      1710      1720      7637      7547      2434     22007
 -2     22008     21299      2404      2436     22013     21305      2437     22014     22015     21306
 -1      2976    4    0    1
 -2      1710      1720      7637      7547      1711      1721      7638      7548      2437     22014
 -2     22015     21306      2407      2439     22020     21312      2440     22021     22022     21313
 -1      2977    4    0    1
 -2      1711      1721      7638      7548      1712      1722      7639      7549      2440     22021
 -2     22022     21313      2410      2442     22027     21319      2443     22028     22029     21320
 -1      2978    4    0    1
 -2      1712      1722      7639      7549      1713      1723      7640      7550      2443     22028
 -2     22029     21320      2413      2445     22034     21326      2446     22035     22036     21327
 -1      2979    4    0    1
 -2      1713      1723      7640      7550      1714      1724      7641      7551      2446     22035
 -2     22036     21327      2416      2448     22041     21333      2449     22042     22043     21334
 -1      2980    4    0    1
 -2      1714      1724      7641      7551      1715      1725      7642      7552      2449     22042
 -2     22043     21334      2419      2451     22048     21340      2452     22049     22050     21341
 -1      2981    4    0    1
 -2      1715      1725      7642      7552       183       184      4973      4964      2452     22049
 -2     22050     21341      2422      2454     22055     21347       213      5614      5615      5585
 -1      2982    4    0    1
 -2       567       576       577       568      7543      7633      7643      7553      1218      1220
 -2      1221      1191     21277     21985     22059     21351     21987     22060     22061     21352
 -1      2983    4    0    1
 -2      7543      7633      7643      7553      7544      7634      7644      7554     21987     22060
 -2     22061     21352     21284     21992     22066     21358     21994     22067     22068     21359
 -1      2984    4    0    1
 -2      7544      7634      7644      7554      7545      7635      7645      7555     21994     22067
 -2     22068     21359     21291     21999     22073     21365     22001     22074     22075     21366
 -1      2985    4    0    1
 -2      7545      7635      7645      7555      7546      7636      7646      7556     22001     22074
 -2     22075     21366     21298     22006     22080     21372     22008     22081     22082     21373
 -1      2986    4    0    1
 -2      7546      7636      7646      7556      7547      7637      7647      7557     22008     22081
 -2     22082     21373     21305     22013     22087     21379     22015     22088     22089     21380
 -1      2987    4    0    1
 -2      7547      7637      7647      7557      7548      7638      7648      7558     22015     22088
 -2     22089     21380     21312     22020     22094     21386     22022     22095     22096     21387
 -1      2988    4    0    1
 -2      7548      7638      7648      7558      7549      7639      7649      7559     22022     22095
 -2     22096     21387     21319     22027     22101     21393     22029     22102     22103     21394
 -1      2989    4    0    1
 -2      7549      7639      7649      7559      7550      7640      7650      7560     22029     22102
 -2     22103     21394     21326     22034     22108     21400     22036     22109     22110     21401
 -1      2990    4    0    1
 -2      7550      7640      7650      7560      7551      7641      7651      7561     22036     22109
 -2     22110     21401     21333     22041     22115     21407     22043     22116     22117     21408
 -1      2991    4    0    1
 -2      7551      7641      7651      7561      7552      7642      7652      7562     22043     22116
 -2     22117     21408     21340     22048     22122     21414     22050     22123     22124     21415
 -1      2992    4    0    1
 -2      7552      7642      7652      7562      4964      4973      4974      4965     22050     22123
 -2     22124     21415     21347     22055     22129     21421      5615      5617      5618      5588
 -1      2993    4    0    1
 -2       568       577       578       569      7553      7643      7653      7563      1221      1223
 -2      1224      1194     21351     22059     22133     21425     22061     22134     22135     21426
 -1      2994    4    0    1
 -2      7553      7643      7653      7563      7554      7644      7654      7564     22061     22134
 -2     22135     21426     21358     22066     22140     21432     22068     22141     22142     21433
 -1      2995    4    0    1
 -2      7554      7644      7654      7564      7555      7645      7655      7565     22068     22141
 -2     22142     21433     21365     22073     22147     21439     22075     22148     22149     21440
 -1      2996    4    0    1
 -2      7555      7645      7655      7565      7556      7646      7656      7566     22075     22148
 -2     22149     21440     21372     22080     22154     21446     22082     22155     22156     21447
 -1      2997    4    0    1
 -2      7556      7646      7656      7566      7557      7647      7657      7567     22082     22155
 -2     22156     21447     21379     22087     22161     21453     22089     22162     22163     21454
 -1      2998    4    0    1
 -2      7557      7647      7657      7567      7558      7648      7658      7568     22089     22162
 -2     22163     21454     21386     22094     22168     21460     22096     22169     22170     21461
 -1      2999    4    0    1
 -2      7558      7648      7658      7568      7559      7649      7659      7569     22096     22169
 -2     22170     21461     21393     22101     22175     21467     22103     22176     22177     21468
 -1      3000    4    0    1
 -2      7559      7649      7659      7569      7560      7650      7660      7570     22103     22176
 -2     22177     21468     21400     22108     22182     21474     22110     22183     22184     21475
 -1      3001    4    0    1
 -2      7560      7650      7660      7570      7561      7651      7661      7571     22110     22183
 -2     22184     21475     21407     22115     22189     21481     22117     22190     22191     21482
 -1      3002    4    0    1
 -2      7561      7651      7661      7571      7562      7652      7662      7572     22117     22190
 -2     22191     21482     21414     22122     22196     21488     22124     22197     22198     21489
 -1      3003    4    0    1
 -2      7562      7652      7662      7572      4965      4974      4975      4966     22124     22197
 -2     22198     21489     21421     22129     22203     21495      5618      5620      5621      5591
 -1      3004    4    0    1
 -2       569       578       579       570      7563      7653      7663      7573      1224      1226
 -2      1227      1197     21425     22133     22207     21499     22135     22208     22209     21500
 -1      3005    4    0    1
 -2      7563      7653      7663      7573      7564      7654      7664      7574     22135     22208
 -2     22209     21500     21432     22140     22214     21506     22142     22215     22216     21507
 -1      3006    4    0    1
 -2      7564      7654      7664      7574      7565      7655      7665      7575     22142     22215
 -2     22216     21507     21439     22147     22221     21513     22149     22222     22223     21514
 -1      3007    4    0    1
 -2      7565      7655      7665      7575      7566      7656      7666      7576     22149     22222
 -2     22223     21514     21446     22154     22228     21520     22156     22229     22230     21521
 -1      3008    4    0    1
 -2      7566      7656      7666      7576      7567      7657      7667      7577     22156     22229
 -2     22230     21521     21453     22161     22235     21527     22163     22236     22237     21528
 -1      3009    4    0    1
 -2      7567      7657      7667      7577      7568      7658      7668      7578     22163     22236
 -2     22237     21528     21460     22168     22242     21534     22170     22243     22244     21535
 -1      3010    4    0    1
 -2      7568      7658      7668      7578      7569      7659      7669      7579     22170     22243
 -2     22244     21535     21467     22175     22249     21541     22177     22250     22251     21542
 -1      3011    4    0    1
 -2      7569      7659      7669      7579      7570      7660      7670      7580     22177     22250
 -2     22251     21542     21474     22182     22256     21548     22184     22257     22258     21549
 -1      3012    4    0    1
 -2      7570      7660      7670      7580      7571      7661      7671      7581     22184     22257
 -2     22258     21549     21481     22189     22263     21555     22191     22264     22265     21556
 -1      3013    4    0    1
 -2      7571      7661      7671      7581      7572      7662      7672      7582     22191     22264
 -2     22265     21556     21488     22196     22270     21562     22198     22271     22272     21563
 -1      3014    4    0    1
 -2      7572      7662      7672      7582      4966      4975      4976      4967     22198     22271
 -2     22272     21563     21495     22203     22277     21569      5621      5623      5624      5594
 -1      3015    4    0    1
 -2       570       579       580       571      7573      7663      7673      7583      1227      1229
 -2      1230      1200     21499     22207     22281     21573     22209     22282     22283     21574
 -1      3016    4    0    1
 -2      7573      7663      7673      7583      7574      7664      7674      7584     22209     22282
 -2     22283     21574     21506     22214     22288     21580     22216     22289     22290     21581
 -1      3017    4    0    1
 -2      7574      7664      7674      7584      7575      7665      7675      7585     22216     22289
 -2     22290     21581     21513     22221     22295     21587     22223     22296     22297     21588
 -1      3018    4    0    1
 -2      7575      7665      7675      7585      7576      7666      7676      7586     22223     22296
 -2     22297     21588     21520     22228     22302     21594     22230     22303     22304     21595
 -1      3019    4    0    1
 -2      7576      7666      7676      7586      7577      7667      7677      7587     22230     22303
 -2     22304     21595     21527     22235     22309     21601     22237     22310     22311     21602
 -1      3020    4    0    1
 -2      7577      7667      7677      7587      7578      7668      7678      7588     22237     22310
 -2     22311     21602     21534     22242     22316     21608     22244     22317     22318     21609
 -1      3021    4    0    1
 -2      7578      7668      7678      7588      7579      7669      7679      7589     22244     22317
 -2     22318     21609     21541     22249     22323     21615     22251     22324     22325     21616
 -1      3022    4    0    1
 -2      7579      7669      7679      7589      7580      7670      7680      7590     22251     22324
 -2     22325     21616     21548     22256     22330     21622     22258     22331     22332     21623
 -1      3023    4    0    1
 -2      7580      7670      7680      7590      7581      7671      7681      7591     22258     22331
 -2     22332     21623     21555     22263     22337     21629     22265     22338     22339     21630
 -1      3024    4    0    1
 -2      7581      7671      7681      7591      7582      7672      7682      7592     22265     22338
 -2     22339     21630     21562     22270     22344     21636     22272     22345     22346     21637
 -1      3025    4    0    1
 -2      7582      7672      7682      7592      4967      4976      4977      4968     22272     22345
 -2     22346     21637     21569     22277     22351     21643      5624      5626      5627      5597
 -1      3026    4    0    1
 -2       571       580       581       572      7583      7673      7683      7593      1230      1232
 -2      1233      1203     21573     22281     22355     21647     22283     22356     22357     21648
 -1      3027    4    0    1
 -2      7583      7673      7683      7593      7584      7674      7684      7594     22283     22356
 -2     22357     21648     21580     22288     22362     21654     22290     22363     22364     21655
 -1      3028    4    0    1
 -2      7584      7674      7684      7594      7585      7675      7685      7595     22290     22363
 -2     22364     21655     21587     22295     22369     21661     22297     22370     22371     21662
 -1      3029    4    0    1
 -2      7585      7675      7685      7595      7586      7676      7686      7596     22297     22370
 -2     22371     21662     21594     22302     22376     21668     22304     22377     22378     21669
 -1      3030    4    0    1
 -2      7586      7676      7686      7596      7587      7677      7687      7597     22304     22377
 -2     22378     21669     21601     22309     22383     21675     22311     22384     22385     21676
 -1      3031    4    0    1
 -2      7587      7677      7687      7597      7588      7678      7688      7598     22311     22384
 -2     22385     21676     21608     22316     22390     21682     22318     22391     22392     21683
 -1      3032    4    0    1
 -2      7588      7678      7688      7598      7589      7679      7689      7599     22318     22391
 -2     22392     21683     21615     22323     22397     21689     22325     22398     22399     21690
 -1      3033    4    0    1
 -2      7589      7679      7689      7599      7590      7680      7690      7600     22325     22398
 -2     22399     21690     21622     22330     22404     21696     22332     22405     22406     21697
 -1      3034    4    0    1
 -2      7590      7680      7690      7600      7591      7681      7691      7601     22332     22405
 -2     22406     21697     21629     22337     22411     21703     22339     22412     22413     21704
 -1      3035    4    0    1
 -2      7591      7681      7691      7601      7592      7682      7692      7602     22339     22412
 -2     22413     21704     21636     22344     22418     21710     22346     22419     22420     21711
 -1      3036    4    0    1
 -2      7592      7682      7692      7602      4968      4977      4978      4969     22346     22419
 -2     22420     21711     21643     22351     22425     21717      5627      5629      5630      5600
 -1      3037    4    0    1
 -2       572       581       582       573      7593      7683      7693      7603      1233      1235
 -2      1236      1206     21647     22355     22429     21721     22357     22430     22431     21722
 -1      3038    4    0    1
 -2      7593      7683      7693      7603      7594      7684      7694      7604     22357     22430
 -2     22431     21722     21654     22362     22436     21728     22364     22437     22438     21729
 -1      3039    4    0    1
 -2      7594      7684      7694      7604      7595      7685      7695      7605     22364     22437
 -2     22438     21729     21661     22369     22443     21735     22371     22444     22445     21736
 -1      3040    4    0    1
 -2      7595      7685      7695      7605      7596      7686      7696      7606     22371     22444
 -2     22445     21736     21668     22376     22450     21742     22378     22451     22452     21743
 -1      3041    4    0    1
 -2      7596      7686      7696      7606      7597      7687      7697      7607     22378     22451
 -2     22452     21743     21675     22383     22457     21749     22385     22458     22459     21750
 -1      3042    4    0    1
 -2      7597      7687      7697      7607      7598      7688      7698      7608     22385     22458
 -2     22459     21750     21682     22390     22464     21756     22392     22465     22466     21757
 -1      3043    4    0    1
 -2      7598      7688      7698      7608      7599      7689      7699      7609     22392     22465
 -2     22466     21757     21689     22397     22471     21763     22399     22472     22473     21764
 -1      3044    4    0    1
 -2      7599      7689      7699      7609      7600      7690      7700      7610     22399     22472
 -2     22473     21764     21696     22404     22478     21770     22406     22479     22480     21771
 -1      3045    4    0    1
 -2      7600      7690      7700      7610      7601      7691      7701      7611     22406     22479
 -2     22480     21771     21703     22411     22485     21777     22413     22486     22487     21778
 -1      3046    4    0    1
 -2      7601      7691      7701      7611      7602      7692      7702      7612     22413     22486
 -2     22487     21778     21710     22418     22492     21784     22420     22493     22494     21785
 -1      3047    4    0    1
 -2      7602      7692      7702      7612      4969      4978      4979      4970     22420     22493
 -2     22494     21785     21717     22425     22499     21791      5630      5632      5633      5603
 -1      3048    4    0    1
 -2       573       582       583       574      7603      7693      7703      7613      1236      1238
 -2      1239      1209     21721     22429     22503     21795     22431     22504     22505     21796
 -1      3049    4    0    1
 -2      7603      7693      7703      7613      7604      7694      7704      7614     22431     22504
 -2     22505     21796     21728     22436     22510     21802     22438     22511     22512     21803
 -1      3050    4    0    1
 -2      7604      7694      7704      7614      7605      7695      7705      7615     22438     22511
 -2     22512     21803     21735     22443     22517     21809     22445     22518     22519     21810
 -1      3051    4    0    1
 -2      7605      7695      7705      7615      7606      7696      7706      7616     22445     22518
 -2     22519     21810     21742     22450     22524     21816     22452     22525     22526     21817
 -1      3052    4    0    1
 -2      7606      7696      7706      7616      7607      7697      7707      7617     22452     22525
 -2     22526     21817     21749     22457     22531     21823     22459     22532     22533     21824
 -1      3053    4    0    1
 -2      7607      7697      7707      7617      7608      7698      7708      7618     22459     22532
 -2     22533     21824     21756     22464     22538     21830     22466     22539     22540     21831
 -1      3054    4    0    1
 -2      7608      7698      7708      7618      7609      7699      7709      7619     22466     22539
 -2     22540     21831     21763     22471     22545     21837     22473     22546     22547     21838
 -1      3055    4    0    1
 -2      7609      7699      7709      7619      7610      7700      7710      7620     22473     22546
 -2     22547     21838     21770     22478     22552     21844     22480     22553     22554     21845
 -1      3056    4    0    1
 -2      7610      7700      7710      7620      7611      7701      7711      7621     22480     22553
 -2     22554     21845     21777     22485     22559     21851     22487     22560     22561     21852
 -1      3057    4    0    1
 -2      7611      7701      7711      7621      7612      7702      7712      7622     22487     22560
 -2     22561     21852     21784     22492     22566     21858     22494     22567     22568     21859
 -1      3058    4    0    1
 -2      7612      7702      7712      7622      4970      4979      4980      4971     22494     22567
 -2     22568     21859     21791     22499     22573     21865      5633      5635      5636      5606
 -1      3059    4    0    1
 -2       574       583       584       575      7613      7703      7713      7623      1239      1241
 -2      1242      1212     21795     22503     22577     21869     22505     22578     22579     21870
 -1      3060    4    0    1
 -2      7613      7703      7713      7623      7614      7704      7714      7624     22505     22578
 -2     22579     21870     21802     22510     22584     21876     22512     22585     22586     21877
 -1      3061    4    0    1
 -2      7614      7704      7714      7624      7615      7705      7715      7625     22512     22585
 -2     22586     21877     21809     22517     22591     21883     22519     22592     22593     21884
 -1      3062    4    0    1
 -2      7615      7705      7715      7625      7616      7706      7716      7626     22519     22592
 -2     22593     21884     21816     22524     22598     21890     22526     22599     22600     21891
 -1      3063    4    0    1
 -2      7616      7706      7716      7626      7617      7707      7717      7627     22526     22599
 -2     22600     21891     21823     22531     22605     21897     22533     22606     22607     21898
 -1      3064    4    0    1
 -2      7617      7707      7717      7627      7618      7708      7718      7628     22533     22606
 -2     22607     21898     21830     22538     22612     21904     22540     22613     22614     21905
 -1      3065    4    0    1
 -2      7618      7708      7718      7628      7619      7709      7719      7629     22540     22613
 -2     22614     21905     21837     22545     22619     21911     22547     22620     22621     21912
 -1      3066    4    0    1
 -2      7619      7709      7719      7629      7620      7710      7720      7630     22547     22620
 -2     22621     21912     21844     22552     22626     21918     22554     22627     22628     21919
 -1      3067    4    0    1
 -2      7620      7710      7720      7630      7621      7711      7721      7631     22554     22627
 -2     22628     21919     21851     22559     22633     21925     22561     22634     22635     21926
 -1      3068    4    0    1
 -2      7621      7711      7721      7631      7622      7712      7722      7632     22561     22634
 -2     22635     21926     21858     22566     22640     21932     22568     22641     22642     21933
 -1      3069    4    0    1
 -2      7622      7712      7722      7632      4971      4980      4981      4972     22568     22641
 -2     22642     21933     21865     22573     22647     21939      5636      5638      5639      5609
 -1      3070    4    0    1
 -2       575       584        96        97      7623      7713      3254      3264      1242      1244
 -2       126      1215     21869     22577      3742      3774     22579     22651      3775     21943
 -1      3071    4    0    1
 -2      7623      7713      3254      3264      7624      7714      3255      3265     22579     22651
 -2      3775     21943     21876     22584      3745      3777     22586     22655      3778     21947
 -1      3072    4    0    1
 -2      7624      7714      3255      3265      7625      7715      3256      3266     22586     22655
 -2      3778     21947     21883     22591      3748      3780     22593     22659      3781     21951
 -1      3073    4    0    1
 -2      7625      7715      3256      3266      7626      7716      3257      3267     22593     22659
 -2      3781     21951     21890     22598      3751      3783     22600     22663      3784     21955
 -1      3074    4    0    1
 -2      7626      7716      3257      3267      7627      7717      3258      3268     22600     22663
 -2      3784     21955     21897     22605      3754      3786     22607     22667      3787     21959
 -1      3075    4    0    1
 -2      7627      7717      3258      3268      7628      7718      3259      3269     22607     22667
 -2      3787     21959     21904     22612      3757      3789     22614     22671      3790     21963
 -1      3076    4    0    1
 -2      7628      7718      3259      3269      7629      7719      3260      3270     22614     22671
 -2      3790     21963     21911     22619      3760      3792     22621     22675      3793     21967
 -1      3077    4    0    1
 -2      7629      7719      3260      3270      7630      7720      3261      3271     22621     22675
 -2      3793     21967     21918     22626      3763      3795     22628     22679      3796     21971
 -1      3078    4    0    1
 -2      7630      7720      3261      3271      7631      7721      3262      3272     22628     22679
 -2      3796     21971     21925     22633      3766      3798     22635     22683      3799     21975
 -1      3079    4    0    1
 -2      7631      7721      3262      3272      7632      7722      3263      3273     22635     22683
 -2      3799     21975     21932     22640      3769      3801     22642     22687      3802     21979
 -1      3080    4    0    1
 -2      7632      7722      3263      3273      4972      4981       252       253     22642     22687
 -2      3802     21979     21939     22647      3772      3804      5639      5641       282      5612
 -1      3081    4    0    1
 -2        28        29       585       576      1716      1726      7723      7633        58      1246
 -2      1247      1217      2424      2456     22693     21985      2457     22694     22695     21986
 -1      3082    4    0    1
 -2      1716      1726      7723      7633      1717      1727      7724      7634      2457     22694
 -2     22695     21986      2427      2459     22700     21992      2460     22701     22702     21993
 -1      3083    4    0    1
 -2      1717      1727      7724      7634      1718      1728      7725      7635      2460     22701
 -2     22702     21993      2430      2462     22707     21999      2463     22708     22709     22000
 -1      3084    4    0    1
 -2      1718      1728      7725      7635      1719      1729      7726      7636      2463     22708
 -2     22709     22000      2433      2465     22714     22006      2466     22715     22716     22007
 -1      3085    4    0    1
 -2      1719      1729      7726      7636      1720      1730      7727      7637      2466     22715
 -2     22716     22007      2436      2468     22721     22013      2469     22722     22723     22014
 -1      3086    4    0    1
 -2      1720      1730      7727      7637      1721      1731      7728      7638      2469     22722
 -2     22723     22014      2439      2471     22728     22020      2472     22729     22730     22021
 -1      3087    4    0    1
 -2      1721      1731      7728      7638      1722      1732      7729      7639      2472     22729
 -2     22730     22021      2442      2474     22735     22027      2475     22736     22737     22028
 -1      3088    4    0    1
 -2      1722      1732      7729      7639      1723      1733      7730      7640      2475     22736
 -2     22737     22028      2445      2477     22742     22034      2478     22743     22744     22035
 -1      3089    4    0    1
 -2      1723      1733      7730      7640      1724      1734      7731      7641      2478     22743
 -2     22744     22035      2448      2480     22749     22041      2481     22750     22751     22042
 -1      3090    4    0    1
 -2      1724      1734      7731      7641      1725      1735      7732      7642      2481     22750
 -2     22751     22042      2451      2483     22756     22048      2484     22757     22758     22049
 -1      3091    4    0    1
 -2      1725      1735      7732      7642       184       185      4982      4973      2484     22757
 -2     22758     22049      2454      2486     22763     22055       214      5643      5644      5614
 -1      3092    4    0    1
 -2       576       585       586       577      7633      7723      7733      7643      1247      1249
 -2      1250      1220     21985     22693     22767     22059     22695     22768     22769     22060
 -1      3093    4    0    1
 -2      7633      7723      7733      7643      7634      7724      7734      7644     22695     22768
 -2     22769     22060     21992     22700     22774     22066     22702     22775     22776     22067
 -1      3094    4    0    1
 -2      7634      7724      7734      7644      7635      7725      7735      7645     22702     22775
 -2     22776     22067     21999     22707     22781     22073     22709     22782     22783     22074
 -1      3095    4    0    1
 -2      7635      7725      7735      7645      7636      7726      7736      7646     22709     22782
 -2     22783     22074     22006     22714     22788     22080     22716     22789     22790     22081
 -1      3096    4    0    1
 -2      7636      7726      7736      7646      7637      7727      7737      7647     22716     22789
 -2     22790     22081     22013     22721     22795     22087     22723     22796     22797     22088
 -1      3097    4    0    1
 -2      7637      7727      7737      7647      7638      7728      7738      7648     22723     22796
 -2     22797     22088     22020     22728     22802     22094     22730     22803     22804     22095
 -1      3098    4    0    1
 -2      7638      7728      7738      7648      7639      7729      7739      7649     22730     22803
 -2     22804     22095     22027     22735     22809     22101     22737     22810     22811     22102
 -1      3099    4    0    1
 -2      7639      7729      7739      7649      7640      7730      7740      7650     22737     22810
 -2     22811     22102     22034     22742     22816     22108     22744     22817     22818     22109
 -1      3100    4    0    1
 -2      7640      7730      7740      7650      7641      7731      7741      7651     22744     22817
 -2     22818     22109     22041     22749     22823     22115     22751     22824     22825     22116
 -1      3101    4    0    1
 -2      7641      7731      7741      7651      7642      7732      7742      7652     22751     22824
 -2     22825     22116     22048     22756     22830     22122     22758     22831     22832     22123
 -1      3102    4    0    1
 -2      7642      7732      7742      7652      4973      4982      4983      4974     22758     22831
 -2     22832     22123     22055     22763     22837     22129      5644      5646      5647      5617
 -1      3103    4    0    1
 -2       577       586       587       578      7643      7733      7743      7653      1250      1252
 -2      1253      1223     22059     22767     22841     22133     22769     22842     22843     22134
 -1      3104    4    0    1
 -2      7643      7733      7743      7653      7644      7734      7744      7654     22769     22842
 -2     22843     22134     22066     22774     22848     22140     22776     22849     22850     22141
 -1      3105    4    0    1
 -2      7644      7734      7744      7654      7645      7735      7745      7655     22776     22849
 -2     22850     22141     22073     22781     22855     22147     22783     22856     22857     22148
 -1      3106    4    0    1
 -2      7645      7735      7745      7655      7646      7736      7746      7656     22783     22856
 -2     22857     22148     22080     22788     22862     22154     22790     22863     22864     22155
 -1      3107    4    0    1
 -2      7646      7736      7746      7656      7647      7737      7747      7657     22790     22863
 -2     22864     22155     22087     22795     22869     22161     22797     22870     22871     22162
 -1      3108    4    0    1
 -2      7647      7737      7747      7657      7648      7738      7748      7658     22797     22870
 -2     22871     22162     22094     22802     22876     22168     22804     22877     22878     22169
 -1      3109    4    0    1
 -2      7648      7738      7748      7658      7649      7739      7749      7659     22804     22877
 -2     22878     22169     22101     22809     22883     22175     22811     22884     22885     22176
 -1      3110    4    0    1
 -2      7649      7739      7749      7659      7650      7740      7750      7660     22811     22884
 -2     22885     22176     22108     22816     22890     22182     22818     22891     22892     22183
 -1      3111    4    0    1
 -2      7650      7740      7750      7660      7651      7741      7751      7661     22818     22891
 -2     22892     22183     22115     22823     22897     22189     22825     22898     22899     22190
 -1      3112    4    0    1
 -2      7651      7741      7751      7661      7652      7742      7752      7662     22825     22898
 -2     22899     22190     22122     22830     22904     22196     22832     22905     22906     22197
 -1      3113    4    0    1
 -2      7652      7742      7752      7662      4974      4983      4984      4975     22832     22905
 -2     22906     22197     22129     22837     22911     22203      5647      5649      5650      5620
 -1      3114    4    0    1
 -2       578       587       588       579      7653      7743      7753      7663      1253      1255
 -2      1256      1226     22133     22841     22915     22207     22843     22916     22917     22208
 -1      3115    4    0    1
 -2      7653      7743      7753      7663      7654      7744      7754      7664     22843     22916
 -2     22917     22208     22140     22848     22922     22214     22850     22923     22924     22215
 -1      3116    4    0    1
 -2      7654      7744      7754      7664      7655      7745      7755      7665     22850     22923
 -2     22924     22215     22147     22855     22929     22221     22857     22930     22931     22222
 -1      3117    4    0    1
 -2      7655      7745      7755      7665      7656      7746      7756      7666     22857     22930
 -2     22931     22222     22154     22862     22936     22228     22864     22937     22938     22229
 -1      3118    4    0    1
 -2      7656      7746      7756      7666      7657      7747      7757      7667     22864     22937
 -2     22938     22229     22161     22869     22943     22235     22871     22944     22945     22236
 -1      3119    4    0    1
 -2      7657      7747      7757      7667      7658      7748      7758      7668     22871     22944
 -2     22945     22236     22168     22876     22950     22242     22878     22951     22952     22243
 -1      3120    4    0    1
 -2      7658      7748      7758      7668      7659      7749      7759      7669     22878     22951
 -2     22952     22243     22175     22883     22957     22249     22885     22958     22959     22250
 -1      3121    4    0    1
 -2      7659      7749      7759      7669      7660      7750      7760      7670     22885     22958
 -2     22959     22250     22182     22890     22964     22256     22892     22965     22966     22257
 -1      3122    4    0    1
 -2      7660      7750      7760      7670      7661      7751      7761      7671     22892     22965
 -2     22966     22257     22189     22897     22971     22263     22899     22972     22973     22264
 -1      3123    4    0    1
 -2      7661      7751      7761      7671      7662      7752      7762      7672     22899     22972
 -2     22973     22264     22196     22904     22978     22270     22906     22979     22980     22271
 -1      3124    4    0    1
 -2      7662      7752      7762      7672      4975      4984      4985      4976     22906     22979
 -2     22980     22271     22203     22911     22985     22277      5650      5652      5653      5623
 -1      3125    4    0    1
 -2       579       588       589       580      7663      7753      7763      7673      1256      1258
 -2      1259      1229     22207     22915     22989     22281     22917     22990     22991     22282
 -1      3126    4    0    1
 -2      7663      7753      7763      7673      7664      7754      7764      7674     22917     22990
 -2     22991     22282     22214     22922     22996     22288     22924     22997     22998     22289
 -1      3127    4    0    1
 -2      7664      7754      7764      7674      7665      7755      7765      7675     22924     22997
 -2     22998     22289     22221     22929     23003     22295     22931     23004     23005     22296
 -1      3128    4    0    1
 -2      7665      7755      7765      7675      7666      7756      7766      7676     22931     23004
 -2     23005     22296     22228     22936     23010     22302     22938     23011     23012     22303
 -1      3129    4    0    1
 -2      7666      7756      7766      7676      7667      7757      7767      7677     22938     23011
 -2     23012     22303     22235     22943     23017     22309     22945     23018     23019     22310
 -1      3130    4    0    1
 -2      7667      7757      7767      7677      7668      7758      7768      7678     22945     23018
 -2     23019     22310     22242     22950     23024     22316     22952     23025     23026     22317
 -1      3131    4    0    1
 -2      7668      7758      7768      7678      7669      7759      7769      7679     22952     23025
 -2     23026     22317     22249     22957     23031     22323     22959     23032     23033     22324
 -1      3132    4    0    1
 -2      7669      7759      7769      7679      7670      7760      7770      7680     22959     23032
 -2     23033     22324     22256     22964     23038     22330     22966     23039     23040     22331
 -1      3133    4    0    1
 -2      7670      7760      7770      7680      7671      7761      7771      7681     22966     23039
 -2     23040     22331     22263     22971     23045     22337     22973     23046     23047     22338
 -1      3134    4    0    1
 -2      7671      7761      7771      7681      7672      7762      7772      7682     22973     23046
 -2     23047     22338     22270     22978     23052     22344     22980     23053     23054     22345
 -1      3135    4    0    1
 -2      7672      7762      7772      7682      4976      4985      4986      4977     22980     23053
 -2     23054     22345     22277     22985     23059     22351      5653      5655      5656      5626
 -1      3136    4    0    1
 -2       580       589       590       581      7673      7763      7773      7683      1259      1261
 -2      1262      1232     22281     22989     23063     22355     22991     23064     23065     22356
 -1      3137    4    0    1
 -2      7673      7763      7773      7683      7674      7764      7774      7684     22991     23064
 -2     23065     22356     22288     22996     23070     22362     22998     23071     23072     22363
 -1      3138    4    0    1
 -2      7674      7764      7774      7684      7675      7765      7775      7685     22998     23071
 -2     23072     22363     22295     23003     23077     22369     23005     23078     23079     22370
 -1      3139    4    0    1
 -2      7675      7765      7775      7685      7676      7766      7776      7686     23005     23078
 -2     23079     22370     22302     23010     23084     22376     23012     23085     23086     22377
 -1      3140    4    0    1
 -2      7676      7766      7776      7686      7677      7767      7777      7687     23012     23085
 -2     23086     22377     22309     23017     23091     22383     23019     23092     23093     22384
 -1      3141    4    0    1
 -2      7677      7767      7777      7687      7678      7768      7778      7688     23019     23092
 -2     23093     22384     22316     23024     23098     22390     23026     23099     23100     22391
 -1      3142    4    0    1
 -2      7678      7768      7778      7688      7679      7769      7779      7689     23026     23099
 -2     23100     22391     22323     23031     23105     22397     23033     23106     23107     22398
 -1      3143    4    0    1
 -2      7679      7769      7779      7689      7680      7770      7780      7690     23033     23106
 -2     23107     22398     22330     23038     23112     22404     23040     23113     23114     22405
 -1      3144    4    0    1
 -2      7680      7770      7780      7690      7681      7771      7781      7691     23040     23113
 -2     23114     22405     22337     23045     23119     22411     23047     23120     23121     22412
 -1      3145    4    0    1
 -2      7681      7771      7781      7691      7682      7772      7782      7692     23047     23120
 -2     23121     22412     22344     23052     23126     22418     23054     23127     23128     22419
 -1      3146    4    0    1
 -2      7682      7772      7782      7692      4977      4986      4987      4978     23054     23127
 -2     23128     22419     22351     23059     23133     22425      5656      5658      5659      5629
 -1      3147    4    0    1
 -2       581       590       591       582      7683      7773      7783      7693      1262      1264
 -2      1265      1235     22355     23063     23137     22429     23065     23138     23139     22430
 -1      3148    4    0    1
 -2      7683      7773      7783      7693      7684      7774      7784      7694     23065     23138
 -2     23139     22430     22362     23070     23144     22436     23072     23145     23146     22437
 -1      3149    4    0    1
 -2      7684      7774      7784      7694      7685      7775      7785      7695     23072     23145
 -2     23146     22437     22369     23077     23151     22443     23079     23152     23153     22444
 -1      3150    4    0    1
 -2      7685      7775      7785      7695      7686      7776      7786      7696     23079     23152
 -2     23153     22444     22376     23084     23158     22450     23086     23159     23160     22451
 -1      3151    4    0    1
 -2      7686      7776      7786      7696      7687      7777      7787      7697     23086     23159
 -2     23160     22451     22383     23091     23165     22457     23093     23166     23167     22458
 -1      3152    4    0    1
 -2      7687      7777      7787      7697      7688      7778      7788      7698     23093     23166
 -2     23167     22458     22390     23098     23172     22464     23100     23173     23174     22465
 -1      3153    4    0    1
 -2      7688      7778      7788      7698      7689      7779      7789      7699     23100     23173
 -2     23174     22465     22397     23105     23179     22471     23107     23180     23181     22472
 -1      3154    4    0    1
 -2      7689      7779      7789      7699      7690      7780      7790      7700     23107     23180
 -2     23181     22472     22404     23112     23186     22478     23114     23187     23188     22479
 -1      3155    4    0    1
 -2      7690      7780      7790      7700      7691      7781      7791      7701     23114     23187
 -2     23188     22479     22411     23119     23193     22485     23121     23194     23195     22486
 -1      3156    4    0    1
 -2      7691      7781      7791      7701      7692      7782      7792      7702     23121     23194
 -2     23195     22486     22418     23126     23200     22492     23128     23201     23202     22493
 -1      3157    4    0    1
 -2      7692      7782      7792      7702      4978      4987      4988      4979     23128     23201
 -2     23202     22493     22425     23133     23207     22499      5659      5661      5662      5632
 -1      3158    4    0    1
 -2       582       591       592       583      7693      7783      7793      7703      1265      1267
 -2      1268      1238     22429     23137     23211     22503     23139     23212     23213     22504
 -1      3159    4    0    1
 -2      7693      7783      7793      7703      7694      7784      7794      7704     23139     23212
 -2     23213     22504     22436     23144     23218     22510     23146     23219     23220     22511
 -1      3160    4    0    1
 -2      7694      7784      7794      7704      7695      7785      7795      7705     23146     23219
 -2     23220     22511     22443     23151     23225     22517     23153     23226     23227     22518
 -1      3161    4    0    1
 -2      7695      7785      7795      7705      7696      7786      7796      7706     23153     23226
 -2     23227     22518     22450     23158     23232     22524     23160     23233     23234     22525
 -1      3162    4    0    1
 -2      7696      7786      7796      7706      7697      7787      7797      7707     23160     23233
 -2     23234     22525     22457     23165     23239     22531     23167     23240     23241     22532
 -1      3163    4    0    1
 -2      7697      7787      7797      7707      7698      7788      7798      7708     23167     23240
 -2     23241     22532     22464     23172     23246     22538     23174     23247     23248     22539
 -1      3164    4    0    1
 -2      7698      7788      7798      7708      7699      7789      7799      7709     23174     23247
 -2     23248     22539     22471     23179     23253     22545     23181     23254     23255     22546
 -1      3165    4    0    1
 -2      7699      7789      7799      7709      7700      7790      7800      7710     23181     23254
 -2     23255     22546     22478     23186     23260     22552     23188     23261     23262     22553
 -1      3166    4    0    1
 -2      7700      7790      7800      7710      7701      7791      7801      7711     23188     23261
 -2     23262     22553     22485     23193     23267     22559     23195     23268     23269     22560
 -1      3167    4    0    1
 -2      7701      7791      7801      7711      7702      7792      7802      7712     23195     23268
 -2     23269     22560     22492     23200     23274     22566     23202     23275     23276     22567
 -1      3168    4    0    1
 -2      7702      7792      7802      7712      4979      4988      4989      4980     23202     23275
 -2     23276     22567     22499     23207     23281     22573      5662      5664      5665      5635
 -1      3169    4    0    1
 -2       583       592       593       584      7703      7793      7803      7713      1268      1270
 -2      1271      1241     22503     23211     23285     22577     23213     23286     23287     22578
 -1      3170    4    0    1
 -2      7703      7793      7803      7713      7704      7794      7804      7714     23213     23286
 -2     23287     22578     22510     23218     23292     22584     23220     23293     23294     22585
 -1      3171    4    0    1
 -2      7704      7794      7804      7714      7705      7795      7805      7715     23220     23293
 -2     23294     22585     22517     23225     23299     22591     23227     23300     23301     22592
 -1      3172    4    0    1
 -2      7705      7795      7805      7715      7706      7796      7806      7716     23227     23300
 -2     23301     22592     22524     23232     23306     22598     23234     23307     23308     22599
 -1      3173    4    0    1
 -2      7706      7796      7806      7716      7707      7797      7807      7717     23234     23307
 -2     23308     22599     22531     23239     23313     22605     23241     23314     23315     22606
 -1      3174    4    0    1
 -2      7707      7797      7807      7717      7708      7798      7808      7718     23241     23314
 -2     23315     22606     22538     23246     23320     22612     23248     23321     23322     22613
 -1      3175    4    0    1
 -2      7708      7798      7808      7718      7709      7799      7809      7719     23248     23321
 -2     23322     22613     22545     23253     23327     22619     23255     23328     23329     22620
 -1      3176    4    0    1
 -2      7709      7799      7809      7719      7710      7800      7810      7720     23255     23328
 -2     23329     22620     22552     23260     23334     22626     23262     23335     23336     22627
 -1      3177    4    0    1
 -2      7710      7800      7810      7720      7711      7801      7811      7721     23262     23335
 -2     23336     22627     22559     23267     23341     22633     23269     23342     23343     22634
 -1      3178    4    0    1
 -2      7711      7801      7811      7721      7712      7802      7812      7722     23269     23342
 -2     23343     22634     22566     23274     23348     22640     23276     23349     23350     22641
 -1      3179    4    0    1
 -2      7712      7802      7812      7722      4980      4989      4990      4981     23276     23349
 -2     23350     22641     22573     23281     23355     22647      5665      5667      5668      5638
 -1      3180    4    0    1
 -2       584       593        95        96      7713      7803      3244      3254      1271      1273
 -2       125      1244     22577     23285      3710      3742     23287     23359      3743     22651
 -1      3181    4    0    1
 -2      7713      7803      3244      3254      7714      7804      3245      3255     23287     23359
 -2      3743     22651     22584     23292      3713      3745     23294     23363      3746     22655
 -1      3182    4    0    1
 -2      7714      7804      3245      3255      7715      7805      3246      3256     23294     23363
 -2      3746     22655     22591     23299      3716      3748     23301     23367      3749     22659
 -1      3183    4    0    1
 -2      7715      7805      3246      3256      7716      7806      3247      3257     23301     23367
 -2      3749     22659     22598     23306      3719      3751     23308     23371      3752     22663
 -1      3184    4    0    1
 -2      7716      7806      3247      3257      7717      7807      3248      3258     23308     23371
 -2      3752     22663     22605     23313      3722      3754     23315     23375      3755     22667
 -1      3185    4    0    1
 -2      7717      7807      3248      3258      7718      7808      3249      3259     23315     23375
 -2      3755     22667     22612     23320      3725      3757     23322     23379      3758     22671
 -1      3186    4    0    1
 -2      7718      7808      3249      3259      7719      7809      3250      3260     23322     23379
 -2      3758     22671     22619     23327      3728      3760     23329     23383      3761     22675
 -1      3187    4    0    1
 -2      7719      7809      3250      3260      7720      7810      3251      3261     23329     23383
 -2      3761     22675     22626     23334      3731      3763     23336     23387      3764     22679
 -1      3188    4    0    1
 -2      7720      7810      3251      3261      7721      7811      3252      3262     23336     23387
 -2      3764     22679     22633     23341      3734      3766     23343     23391      3767     22683
 -1      3189    4    0    1
 -2      7721      7811      3252      3262      7722      7812      3253      3263     23343     23391
 -2      3767     22683     22640     23348      3737      3769     23350     23395      3770     22687
 -1      3190    4    0    1
 -2      7722      7812      3253      3263      4981      4990       251       252     23350     23395
 -2      3770     22687     22647     23355      3740      3772      5668      5670       281      5641
 -1      3191    4    0    1
 -2        29        30       594       585      1726      1736      7813      7723        59      1275
 -2      1276      1246      2456      2488     23401     22693      2489     23402     23403     22694
 -1      3192    4    0    1
 -2      1726      1736      7813      7723      1727      1737      7814      7724      2489     23402
 -2     23403     22694      2459      2491     23408     22700      2492     23409     23410     22701
 -1      3193    4    0    1
 -2      1727      1737      7814      7724      1728      1738      7815      7725      2492     23409
 -2     23410     22701      2462      2494     23415     22707      2495     23416     23417     22708
 -1      3194    4    0    1
 -2      1728      1738      7815      7725      1729      1739      7816      7726      2495     23416
 -2     23417     22708      2465      2497     23422     22714      2498     23423     23424     22715
 -1      3195    4    0    1
 -2      1729      1739      7816      7726      1730      1740      7817      7727      2498     23423
 -2     23424     22715      2468      2500     23429     22721      2501     23430     23431     22722
 -1      3196    4    0    1
 -2      1730      1740      7817      7727      1731      1741      7818      7728      2501     23430
 -2     23431     22722      2471      2503     23436     22728      2504     23437     23438     22729
 -1      3197    4    0    1
 -2      1731      1741      7818      7728      1732      1742      7819      7729      2504     23437
 -2     23438     22729      2474      2506     23443     22735      2507     23444     23445     22736
 -1      3198    4    0    1
 -2      1732      1742      7819      7729      1733      1743      7820      7730      2507     23444
 -2     23445     22736      2477      2509     23450     22742      2510     23451     23452     22743
 -1      3199    4    0    1
 -2      1733      1743      7820      7730      1734      1744      7821      7731      2510     23451
 -2     23452     22743      2480      2512     23457     22749      2513     23458     23459     22750
 -1      3200    4    0    1
 -2      1734      1744      7821      7731      1735      1745      7822      7732      2513     23458
 -2     23459     22750      2483      2515     23464     22756      2516     23465     23466     22757
 -1      3201    4    0    1
 -2      1735      1745      7822      7732       185       186      4991      4982      2516     23465
 -2     23466     22757      2486      2518     23471     22763       215      5672      5673      5643
 -1      3202    4    0    1
 -2       585       594       595       586      7723      7813      7823      7733      1276      1278
 -2      1279      1249     22693     23401     23475     22767     23403     23476     23477     22768
 -1      3203    4    0    1
 -2      7723      7813      7823      7733      7724      7814      7824      7734     23403     23476
 -2     23477     22768     22700     23408     23482     22774     23410     23483     23484     22775
 -1      3204    4    0    1
 -2      7724      7814      7824      7734      7725      7815      7825      7735     23410     23483
 -2     23484     22775     22707     23415     23489     22781     23417     23490     23491     22782
 -1      3205    4    0    1
 -2      7725      7815      7825      7735      7726      7816      7826      7736     23417     23490
 -2     23491     22782     22714     23422     23496     22788     23424     23497     23498     22789
 -1      3206    4    0    1
 -2      7726      7816      7826      7736      7727      7817      7827      7737     23424     23497
 -2     23498     22789     22721     23429     23503     22795     23431     23504     23505     22796
 -1      3207    4    0    1
 -2      7727      7817      7827      7737      7728      7818      7828      7738     23431     23504
 -2     23505     22796     22728     23436     23510     22802     23438     23511     23512     22803
 -1      3208    4    0    1
 -2      7728      7818      7828      7738      7729      7819      7829      7739     23438     23511
 -2     23512     22803     22735     23443     23517     22809     23445     23518     23519     22810
 -1      3209    4    0    1
 -2      7729      7819      7829      7739      7730      7820      7830      7740     23445     23518
 -2     23519     22810     22742     23450     23524     22816     23452     23525     23526     22817
 -1      3210    4    0    1
 -2      7730      7820      7830      7740      7731      7821      7831      7741     23452     23525
 -2     23526     22817     22749     23457     23531     22823     23459     23532     23533     22824
 -1      3211    4    0    1
 -2      7731      7821      7831      7741      7732      7822      7832      7742     23459     23532
 -2     23533     22824     22756     23464     23538     22830     23466     23539     23540     22831
 -1      3212    4    0    1
 -2      7732      7822      7832      7742      4982      4991      4992      4983     23466     23539
 -2     23540     22831     22763     23471     23545     22837      5673      5675      5676      5646
 -1      3213    4    0    1
 -2       586       595       596       587      7733      7823      7833      7743      1279      1281
 -2      1282      1252     22767     23475     23549     22841     23477     23550     23551     22842
 -1      3214    4    0    1
 -2      7733      7823      7833      7743      7734      7824      7834      7744     23477     23550
 -2     23551     22842     22774     23482     23556     22848     23484     23557     23558     22849
 -1      3215    4    0    1
 -2      7734      7824      7834      7744      7735      7825      7835      7745     23484     23557
 -2     23558     22849     22781     23489     23563     22855     23491     23564     23565     22856
 -1      3216    4    0    1
 -2      7735      7825      7835      7745      7736      7826      7836      7746     23491     23564
 -2     23565     22856     22788     23496     23570     22862     23498     23571     23572     22863
 -1      3217    4    0    1
 -2      7736      7826      7836      7746      7737      7827      7837      7747     23498     23571
 -2     23572     22863     22795     23503     23577     22869     23505     23578     23579     22870
 -1      3218    4    0    1
 -2      7737      7827      7837      7747      7738      7828      7838      7748     23505     23578
 -2     23579     22870     22802     23510     23584     22876     23512     23585     23586     22877
 -1      3219    4    0    1
 -2      7738      7828      7838      7748      7739      7829      7839      7749     23512     23585
 -2     23586     22877     22809     23517     23591     22883     23519     23592     23593     22884
 -1      3220    4    0    1
 -2      7739      7829      7839      7749      7740      7830      7840      7750     23519     23592
 -2     23593     22884     22816     23524     23598     22890     23526     23599     23600     22891
 -1      3221    4    0    1
 -2      7740      7830      7840      7750      7741      7831      7841      7751     23526     23599
 -2     23600     22891     22823     23531     23605     22897     23533     23606     23607     22898
 -1      3222    4    0    1
 -2      7741      7831      7841      7751      7742      7832      7842      7752     23533     23606
 -2     23607     22898     22830     23538     23612     22904     23540     23613     23614     22905
 -1      3223    4    0    1
 -2      7742      7832      7842      7752      4983      4992      4993      4984     23540     23613
 -2     23614     22905     22837     23545     23619     22911      5676      5678      5679      5649
 -1      3224    4    0    1
 -2       587       596       597       588      7743      7833      7843      7753      1282      1284
 -2      1285      1255     22841     23549     23623     22915     23551     23624     23625     22916
 -1      3225    4    0    1
 -2      7743      7833      7843      7753      7744      7834      7844      7754     23551     23624
 -2     23625     22916     22848     23556     23630     22922     23558     23631     23632     22923
 -1      3226    4    0    1
 -2      7744      7834      7844      7754      7745      7835      7845      7755     23558     23631
 -2     23632     22923     22855     23563     23637     22929     23565     23638     23639     22930
 -1      3227    4    0    1
 -2      7745      7835      7845      7755      7746      7836      7846      7756     23565     23638
 -2     23639     22930     22862     23570     23644     22936     23572     23645     23646     22937
 -1      3228    4    0    1
 -2      7746      7836      7846      7756      7747      7837      7847      7757     23572     23645
 -2     23646     22937     22869     23577     23651     22943     23579     23652     23653     22944
 -1      3229    4    0    1
 -2      7747      7837      7847      7757      7748      7838      7848      7758     23579     23652
 -2     23653     22944     22876     23584     23658     22950     23586     23659     23660     22951
 -1      3230    4    0    1
 -2      7748      7838      7848      7758      7749      7839      7849      7759     23586     23659
 -2     23660     22951     22883     23591     23665     22957     23593     23666     23667     22958
 -1      3231    4    0    1
 -2      7749      7839      7849      7759      7750      7840      7850      7760     23593     23666
 -2     23667     22958     22890     23598     23672     22964     23600     23673     23674     22965
 -1      3232    4    0    1
 -2      7750      7840      7850      7760      7751      7841      7851      7761     23600     23673
 -2     23674     22965     22897     23605     23679     22971     23607     23680     23681     22972
 -1      3233    4    0    1
 -2      7751      7841      7851      7761      7752      7842      7852      7762     23607     23680
 -2     23681     22972     22904     23612     23686     22978     23614     23687     23688     22979
 -1      3234    4    0    1
 -2      7752      7842      7852      7762      4984      4993      4994      4985     23614     23687
 -2     23688     22979     22911     23619     23693     22985      5679      5681      5682      5652
 -1      3235    4    0    1
 -2       588       597       598       589      7753      7843      7853      7763      1285      1287
 -2      1288      1258     22915     23623     23697     22989     23625     23698     23699     22990
 -1      3236    4    0    1
 -2      7753      7843      7853      7763      7754      7844      7854      7764     23625     23698
 -2     23699     22990     22922     23630     23704     22996     23632     23705     23706     22997
 -1      3237    4    0    1
 -2      7754      7844      7854      7764      7755      7845      7855      7765     23632     23705
 -2     23706     22997     22929     23637     23711     23003     23639     23712     23713     23004
 -1      3238    4    0    1
 -2      7755      7845      7855      7765      7756      7846      7856      7766     23639     23712
 -2     23713     23004     22936     23644     23718     23010     23646     23719     23720     23011
 -1      3239    4    0    1
 -2      7756      7846      7856      7766      7757      7847      7857      7767     23646     23719
 -2     23720     23011     22943     23651     23725     23017     23653     23726     23727     23018
 -1      3240    4    0    1
 -2      7757      7847      7857      7767      7758      7848      7858      7768     23653     23726
 -2     23727     23018     22950     23658     23732     23024     23660     23733     23734     23025
 -1      3241    4    0    1
 -2      7758      7848      7858      7768      7759      7849      7859      7769     23660     23733
 -2     23734     23025     22957     23665     23739     23031     23667     23740     23741     23032
 -1      3242    4    0    1
 -2      7759      7849      7859      7769      7760      7850      7860      7770     23667     23740
 -2     23741     23032     22964     23672     23746     23038     23674     23747     23748     23039
 -1      3243    4    0    1
 -2      7760      7850      7860      7770      7761      7851      7861      7771     23674     23747
 -2     23748     23039     22971     23679     23753     23045     23681     23754     23755     23046
 -1      3244    4    0    1
 -2      7761      7851      7861      7771      7762      7852      7862      7772     23681     23754
 -2     23755     23046     22978     23686     23760     23052     23688     23761     23762     23053
 -1      3245    4    0    1
 -2      7762      7852      7862      7772      4985      4994      4995      4986     23688     23761
 -2     23762     23053     22985     23693     23767     23059      5682      5684      5685      5655
 -1      3246    4    0    1
 -2       589       598       599       590      7763      7853      7863      7773      1288      1290
 -2      1291      1261     22989     23697     23771     23063     23699     23772     23773     23064
 -1      3247    4    0    1
 -2      7763      7853      7863      7773      7764      7854      7864      7774     23699     23772
 -2     23773     23064     22996     23704     23778     23070     23706     23779     23780     23071
 -1      3248    4    0    1
 -2      7764      7854      7864      7774      7765      7855      7865      7775     23706     23779
 -2     23780     23071     23003     23711     23785     23077     23713     23786     23787     23078
 -1      3249    4    0    1
 -2      7765      7855      7865      7775      7766      7856      7866      7776     23713     23786
 -2     23787     23078     23010     23718     23792     23084     23720     23793     23794     23085
 -1      3250    4    0    1
 -2      7766      7856      7866      7776      7767      7857      7867      7777     23720     23793
 -2     23794     23085     23017     23725     23799     23091     23727     23800     23801     23092
 -1      3251    4    0    1
 -2      7767      7857      7867      7777      7768      7858      7868      7778     23727     23800
 -2     23801     23092     23024     23732     23806     23098     23734     23807     23808     23099
 -1      3252    4    0    1
 -2      7768      7858      7868      7778      7769      7859      7869      7779     23734     23807
 -2     23808     23099     23031     23739     23813     23105     23741     23814     23815     23106
 -1      3253    4    0    1
 -2      7769      7859      7869      7779      7770      7860      7870      7780     23741     23814
 -2     23815     23106     23038     23746     23820     23112     23748     23821     23822     23113
 -1      3254    4    0    1
 -2      7770      7860      7870      7780      7771      7861      7871      7781     23748     23821
 -2     23822     23113     23045     23753     23827     23119     23755     23828     23829     23120
 -1      3255    4    0    1
 -2      7771      7861      7871      7781      7772      7862      7872      7782     23755     23828
 -2     23829     23120     23052     23760     23834     23126     23762     23835     23836     23127
 -1      3256    4    0    1
 -2      7772      7862      7872      7782      4986      4995      4996      4987     23762     23835
 -2     23836     23127     23059     23767     23841     23133      5685      5687      5688      5658
 -1      3257    4    0    1
 -2       590       599       600       591      7773      7863      7873      7783      1291      1293
 -2      1294      1264     23063     23771     23845     23137     23773     23846     23847     23138
 -1      3258    4    0    1
 -2      7773      7863      7873      7783      7774      7864      7874      7784     23773     23846
 -2     23847     23138     23070     23778     23852     23144     23780     23853     23854     23145
 -1      3259    4    0    1
 -2      7774      7864      7874      7784      7775      7865      7875      7785     23780     23853
 -2     23854     23145     23077     23785     23859     23151     23787     23860     23861     23152
 -1      3260    4    0    1
 -2      7775      7865      7875      7785      7776      7866      7876      7786     23787     23860
 -2     23861     23152     23084     23792     23866     23158     23794     23867     23868     23159
 -1      3261    4    0    1
 -2      7776      7866      7876      7786      7777      7867      7877      7787     23794     23867
 -2     23868     23159     23091     23799     23873     23165     23801     23874     23875     23166
 -1      3262    4    0    1
 -2      7777      7867      7877      7787      7778      7868      7878      7788     23801     23874
 -2     23875     23166     23098     23806     23880     23172     23808     23881     23882     23173
 -1      3263    4    0    1
 -2      7778      7868      7878      7788      7779      7869      7879      7789     23808     23881
 -2     23882     23173     23105     23813     23887     23179     23815     23888     23889     23180
 -1      3264    4    0    1
 -2      7779      7869      7879      7789      7780      7870      7880      7790     23815     23888
 -2     23889     23180     23112     23820     23894     23186     23822     23895     23896     23187
 -1      3265    4    0    1
 -2      7780      7870      7880      7790      7781      7871      7881      7791     23822     23895
 -2     23896     23187     23119     23827     23901     23193     23829     23902     23903     23194
 -1      3266    4    0    1
 -2      7781      7871      7881      7791      7782      7872      7882      7792     23829     23902
 -2     23903     23194     23126     23834     23908     23200     23836     23909     23910     23201
 -1      3267    4    0    1
 -2      7782      7872      7882      7792      4987      4996      4997      4988     23836     23909
 -2     23910     23201     23133     23841     23915     23207      5688      5690      5691      5661
 -1      3268    4    0    1
 -2       591       600       601       592      7783      7873      7883      7793      1294      1296
 -2      1297      1267     23137     23845     23919     23211     23847     23920     23921     23212
 -1      3269    4    0    1
 -2      7783      7873      7883      7793      7784      7874      7884      7794     23847     23920
 -2     23921     23212     23144     23852     23926     23218     23854     23927     23928     23219
 -1      3270    4    0    1
 -2      7784      7874      7884      7794      7785      7875      7885      7795     23854     23927
 -2     23928     23219     23151     23859     23933     23225     23861     23934     23935     23226
 -1      3271    4    0    1
 -2      7785      7875      7885      7795      7786      7876      7886      7796     23861     23934
 -2     23935     23226     23158     23866     23940     23232     23868     23941     23942     23233
 -1      3272    4    0    1
 -2      7786      7876      7886      7796      7787      7877      7887      7797     23868     23941
 -2     23942     23233     23165     23873     23947     23239     23875     23948     23949     23240
 -1      3273    4    0    1
 -2      7787      7877      7887      7797      7788      7878      7888      7798     23875     23948
 -2     23949     23240     23172     23880     23954     23246     23882     23955     23956     23247
 -1      3274    4    0    1
 -2      7788      7878      7888      7798      7789      7879      7889      7799     23882     23955
 -2     23956     23247     23179     23887     23961     23253     23889     23962     23963     23254
 -1      3275    4    0    1
 -2      7789      7879      7889      7799      7790      7880      7890      7800     23889     23962
 -2     23963     23254     23186     23894     23968     23260     23896     23969     23970     23261
 -1      3276    4    0    1
 -2      7790      7880      7890      7800      7791      7881      7891      7801     23896     23969
 -2     23970     23261     23193     23901     23975     23267     23903     23976     23977     23268
 -1      3277    4    0    1
 -2      7791      7881      7891      7801      7792      7882      7892      7802     23903     23976
 -2     23977     23268     23200     23908     23982     23274     23910     23983     23984     23275
 -1      3278    4    0    1
 -2      7792      7882      7892      7802      4988      4997      4998      4989     23910     23983
 -2     23984     23275     23207     23915     23989     23281      5691      5693      5694      5664
 -1      3279    4    0    1
 -2       592       601       602       593      7793      7883      7893      7803      1297      1299
 -2      1300      1270     23211     23919     23993     23285     23921     23994     23995     23286
 -1      3280    4    0    1
 -2      7793      7883      7893      7803      7794      7884      7894      7804     23921     23994
 -2     23995     23286     23218     23926     24000     23292     23928     24001     24002     23293
 -1      3281    4    0    1
 -2      7794      7884      7894      7804      7795      7885      7895      7805     23928     24001
 -2     24002     23293     23225     23933     24007     23299     23935     24008     24009     23300
 -1      3282    4    0    1
 -2      7795      7885      7895      7805      7796      7886      7896      7806     23935     24008
 -2     24009     23300     23232     23940     24014     23306     23942     24015     24016     23307
 -1      3283    4    0    1
 -2      7796      7886      7896      7806      7797      7887      7897      7807     23942     24015
 -2     24016     23307     23239     23947     24021     23313     23949     24022     24023     23314
 -1      3284    4    0    1
 -2      7797      7887      7897      7807      7798      7888      7898      7808     23949     24022
 -2     24023     23314     23246     23954     24028     23320     23956     24029     24030     23321
 -1      3285    4    0    1
 -2      7798      7888      7898      7808      7799      7889      7899      7809     23956     24029
 -2     24030     23321     23253     23961     24035     23327     23963     24036     24037     23328
 -1      3286    4    0    1
 -2      7799      7889      7899      7809      7800      7890      7900      7810     23963     24036
 -2     24037     23328     23260     23968     24042     23334     23970     24043     24044     23335
 -1      3287    4    0    1
 -2      7800      7890      7900      7810      7801      7891      7901      7811     23970     24043
 -2     24044     23335     23267     23975     24049     23341     23977     24050     24051     23342
 -1      3288    4    0    1
 -2      7801      7891      7901      7811      7802      7892      7902      7812     23977     24050
 -2     24051     23342     23274     23982     24056     23348     23984     24057     24058     23349
 -1      3289    4    0    1
 -2      7802      7892      7902      7812      4989      4998      4999      4990     23984     24057
 -2     24058     23349     23281     23989     24063     23355      5694      5696      5697      5667
 -1      3290    4    0    1
 -2       593       602        94        95      7803      7893      3234      3244      1300      1302
 -2       124      1273     23285     23993      3678      3710     23995     24067      3711     23359
 -1      3291    4    0    1
 -2      7803      7893      3234      3244      7804      7894      3235      3245     23995     24067
 -2      3711     23359     23292     24000      3681      3713     24002     24071      3714     23363
 -1      3292    4    0    1
 -2      7804      7894      3235      3245      7805      7895      3236      3246     24002     24071
 -2      3714     23363     23299     24007      3684      3716     24009     24075      3717     23367
 -1      3293    4    0    1
 -2      7805      7895      3236      3246      7806      7896      3237      3247     24009     24075
 -2      3717     23367     23306     24014      3687      3719     24016     24079      3720     23371
 -1      3294    4    0    1
 -2      7806      7896      3237      3247      7807      7897      3238      3248     24016     24079
 -2      3720     23371     23313     24021      3690      3722     24023     24083      3723     23375
 -1      3295    4    0    1
 -2      7807      7897      3238      3248      7808      7898      3239      3249     24023     24083
 -2      3723     23375     23320     24028      3693      3725     24030     24087      3726     23379
 -1      3296    4    0    1
 -2      7808      7898      3239      3249      7809      7899      3240      3250     24030     24087
 -2      3726     23379     23327     24035      3696      3728     24037     24091      3729     23383
 -1      3297    4    0    1
 -2      7809      7899      3240      3250      7810      7900      3241      3251     24037     24091
 -2      3729     23383     23334     24042      3699      3731     24044     24095      3732     23387
 -1      3298    4    0    1
 -2      7810      7900      3241      3251      7811      7901      3242      3252     24044     24095
 -2      3732     23387     23341     24049      3702      3734     24051     24099      3735     23391
 -1      3299    4    0    1
 -2      7811      7901      3242      3252      7812      7902      3243      3253     24051     24099
 -2      3735     23391     23348     24056      3705      3737     24058     24103      3738     23395
 -1      3300    4    0    1
 -2      7812      7902      3243      3253      4990      4999       250       251     24058     24103
 -2      3738     23395     23355     24063      3708      3740      5697      5699       280      5670
 -1      3301    4    0    1
 -2        30        31       603       594      1736      1746      7903      7813        60      1304
 -2      1305      1275      2488      2520     24109     23401      2521     24110     24111     23402
 -1      3302    4    0    1
 -2      1736      1746      7903      7813      1737      1747      7904      7814      2521     24110
 -2     24111     23402      2491      2523     24116     23408      2524     24117     24118     23409
 -1      3303    4    0    1
 -2      1737      1747      7904      7814      1738      1748      7905      7815      2524     24117
 -2     24118     23409      2494      2526     24123     23415      2527     24124     24125     23416
 -1      3304    4    0    1
 -2      1738      1748      7905      7815      1739      1749      7906      7816      2527     24124
 -2     24125     23416      2497      2529     24130     23422      2530     24131     24132     23423
 -1      3305    4    0    1
 -2      1739      1749      7906      7816      1740      1750      7907      7817      2530     24131
 -2     24132     23423      2500      2532     24137     23429      2533     24138     24139     23430
 -1      3306    4    0    1
 -2      1740      1750      7907      7817      1741      1751      7908      7818      2533     24138
 -2     24139     23430      2503      2535     24144     23436      2536     24145     24146     23437
 -1      3307    4    0    1
 -2      1741      1751      7908      7818      1742      1752      7909      7819      2536     24145
 -2     24146     23437      2506      2538     24151     23443      2539     24152     24153     23444
 -1      3308    4    0    1
 -2      1742      1752      7909      7819      1743      1753      7910      7820      2539     24152
 -2     24153     23444      2509      2541     24158     23450      2542     24159     24160     23451
 -1      3309    4    0    1
 -2      1743      1753      7910      7820      1744      1754      7911      7821      2542     24159
 -2     24160     23451      2512      2544     24165     23457      2545     24166     24167     23458
 -1      3310    4    0    1
 -2      1744      1754      7911      7821      1745      1755      7912      7822      2545     24166
 -2     24167     23458      2515      2547     24172     23464      2548     24173     24174     23465
 -1      3311    4    0    1
 -2      1745      1755      7912      7822       186       187      5000      4991      2548     24173
 -2     24174     23465      2518      2550     24179     23471       216      5701      5702      5672
 -1      3312    4    0    1
 -2       594       603       604       595      7813      7903      7913      7823      1305      1307
 -2      1308      1278     23401     24109     24183     23475     24111     24184     24185     23476
 -1      3313    4    0    1
 -2      7813      7903      7913      7823      7814      7904      7914      7824     24111     24184
 -2     24185     23476     23408     24116     24190     23482     24118     24191     24192     23483
 -1      3314    4    0    1
 -2      7814      7904      7914      7824      7815      7905      7915      7825     24118     24191
 -2     24192     23483     23415     24123     24197     23489     24125     24198     24199     23490
 -1      3315    4    0    1
 -2      7815      7905      7915      7825      7816      7906      7916      7826     24125     24198
 -2     24199     23490     23422     24130     24204     23496     24132     24205     24206     23497
 -1      3316    4    0    1
 -2      7816      7906      7916      7826      7817      7907      7917      7827     24132     24205
 -2     24206     23497     23429     24137     24211     23503     24139     24212     24213     23504
 -1      3317    4    0    1
 -2      7817      7907      7917      7827      7818      7908      7918      7828     24139     24212
 -2     24213     23504     23436     24144     24218     23510     24146     24219     24220     23511
 -1      3318    4    0    1
 -2      7818      7908      7918      7828      7819      7909      7919      7829     24146     24219
 -2     24220     23511     23443     24151     24225     23517     24153     24226     24227     23518
 -1      3319    4    0    1
 -2      7819      7909      7919      7829      7820      7910      7920      7830     24153     24226
 -2     24227     23518     23450     24158     24232     23524     24160     24233     24234     23525
 -1      3320    4    0    1
 -2      7820      7910      7920      7830      7821      7911      7921      7831     24160     24233
 -2     24234     23525     23457     24165     24239     23531     24167     24240     24241     23532
 -1      3321    4    0    1
 -2      7821      7911      7921      7831      7822      7912      7922      7832     24167     24240
 -2     24241     23532     23464     24172     24246     23538     24174     24247     24248     23539
 -1      3322    4    0    1
 -2      7822      7912      7922      7832      4991      5000      5001      4992     24174     24247
 -2     24248     23539     23471     24179     24253     23545      5702      5704      5705      5675
 -1      3323    4    0    1
 -2       595       604       605       596      7823      7913      7923      7833      1308      1310
 -2      1311      1281     23475     24183     24257     23549     24185     24258     24259     23550
 -1      3324    4    0    1
 -2      7823      7913      7923      7833      7824      7914      7924      7834     24185     24258
 -2     24259     23550     23482     24190     24264     23556     24192     24265     24266     23557
 -1      3325    4    0    1
 -2      7824      7914      7924      7834      7825      7915      7925      7835     24192     24265
 -2     24266     23557     23489     24197     24271     23563     24199     24272     24273     23564
 -1      3326    4    0    1
 -2      7825      7915      7925      7835      7826      7916      7926      7836     24199     24272
 -2     24273     23564     23496     24204     24278     23570     24206     24279     24280     23571
 -1      3327    4    0    1
 -2      7826      7916      7926      7836      7827      7917      7927      7837     24206     24279
 -2     24280     23571     23503     24211     24285     23577     24213     24286     24287     23578
 -1      3328    4    0    1
 -2      7827      7917      7927      7837      7828      7918      7928      7838     24213     24286
 -2     24287     23578     23510     24218     24292     23584     24220     24293     24294     23585
 -1      3329    4    0    1
 -2      7828      7918      7928      7838      7829      7919      7929      7839     24220     24293
 -2     24294     23585     23517     24225     24299     23591     24227     24300     24301     23592
 -1      3330    4    0    1
 -2      7829      7919      7929      7839      7830      7920      7930      7840     24227     24300
 -2     24301     23592     23524     24232     24306     23598     24234     24307     24308     23599
 -1      3331    4    0    1
 -2      7830      7920      7930      7840      7831      7921      7931      7841     24234     24307
 -2     24308     23599     23531     24239     24313     23605     24241     24314     24315     23606
 -1      3332    4    0    1
 -2      7831      7921      7931      7841      7832      7922      7932      7842     24241     24314
 -2     24315     23606     23538     24246     24320     23612     24248     24321     24322     23613
 -1      3333    4    0    1
 -2      7832      7922      7932      7842      4992      5001      5002      4993     24248     24321
 -2     24322     23613     23545     24253     24327     23619      5705      5707      5708      5678
 -1      3334    4    0    1
 -2       596       605       606       597      7833      7923      7933      7843      1311      1313
 -2      1314      1284     23549     24257     24331     23623     24259     24332     24333     23624
 -1      3335    4    0    1
 -2      7833      7923      7933      7843      7834      7924      7934      7844     24259     24332
 -2     24333     23624     23556     24264     24338     23630     24266     24339     24340     23631
 -1      3336    4    0    1
 -2      7834      7924      7934      7844      7835      7925      7935      7845     24266     24339
 -2     24340     23631     23563     24271     24345     23637     24273     24346     24347     23638
 -1      3337    4    0    1
 -2      7835      7925      7935      7845      7836      7926      7936      7846     24273     24346
 -2     24347     23638     23570     24278     24352     23644     24280     24353     24354     23645
 -1      3338    4    0    1
 -2      7836      7926      7936      7846      7837      7927      7937      7847     24280     24353
 -2     24354     23645     23577     24285     24359     23651     24287     24360     24361     23652
 -1      3339    4    0    1
 -2      7837      7927      7937      7847      7838      7928      7938      7848     24287     24360
 -2     24361     23652     23584     24292     24366     23658     24294     24367     24368     23659
 -1      3340    4    0    1
 -2      7838      7928      7938      7848      7839      7929      7939      7849     24294     24367
 -2     24368     23659     23591     24299     24373     23665     24301     24374     24375     23666
 -1      3341    4    0    1
 -2      7839      7929      7939      7849      7840      7930      7940      7850     24301     24374
 -2     24375     23666     23598     24306     24380     23672     24308     24381     24382     23673
 -1      3342    4    0    1
 -2      7840      7930      7940      7850      7841      7931      7941      7851     24308     24381
 -2     24382     23673     23605     24313     24387     23679     24315     24388     24389     23680
 -1      3343    4    0    1
 -2      7841      7931      7941      7851      7842      7932      7942      7852     24315     24388
 -2     24389     23680     23612     24320     24394     23686     24322     24395     24396     23687
 -1      3344    4    0    1
 -2      7842      7932      7942      7852      4993      5002      5003      4994     24322     24395
 -2     24396     23687     23619     24327     24401     23693      5708      5710      5711      5681
 -1      3345    4    0    1
 -2       597       606       607       598      7843      7933      7943      7853      1314      1316
 -2      1317      1287     23623     24331     24405     23697     24333     24406     24407     23698
 -1      3346    4    0    1
 -2      7843      7933      7943      7853      7844      7934      7944      7854     24333     24406
 -2     24407     23698     23630     24338     24412     23704     24340     24413     24414     23705
 -1      3347    4    0    1
 -2      7844      7934      7944      7854      7845      7935      7945      7855     24340     24413
 -2     24414     23705     23637     24345     24419     23711     24347     24420     24421     23712
 -1      3348    4    0    1
 -2      7845      7935      7945      7855      7846      7936      7946      7856     24347     24420
 -2     24421     23712     23644     24352     24426     23718     24354     24427     24428     23719
 -1      3349    4    0    1
 -2      7846      7936      7946      7856      7847      7937      7947      7857     24354     24427
 -2     24428     23719     23651     24359     24433     23725     24361     24434     24435     23726
 -1      3350    4    0    1
 -2      7847      7937      7947      7857      7848      7938      7948      7858     24361     24434
 -2     24435     23726     23658     24366     24440     23732     24368     24441     24442     23733
 -1      3351    4    0    1
 -2      7848      7938      7948      7858      7849      7939      7949      7859     24368     24441
 -2     24442     23733     23665     24373     24447     23739     24375     24448     24449     23740
 -1      3352    4    0    1
 -2      7849      7939      7949      7859      7850      7940      7950      7860     24375     24448
 -2     24449     23740     23672     24380     24454     23746     24382     24455     24456     23747
 -1      3353    4    0    1
 -2      7850      7940      7950      7860      7851      7941      7951      7861     24382     24455
 -2     24456     23747     23679     24387     24461     23753     24389     24462     24463     23754
 -1      3354    4    0    1
 -2      7851      7941      7951      7861      7852      7942      7952      7862     24389     24462
 -2     24463     23754     23686     24394     24468     23760     24396     24469     24470     23761
 -1      3355    4    0    1
 -2      7852      7942      7952      7862      4994      5003      5004      4995     24396     24469
 -2     24470     23761     23693     24401     24475     23767      5711      5713      5714      5684
 -1      3356    4    0    1
 -2       598       607       608       599      7853      7943      7953      7863      1317      1319
 -2      1320      1290     23697     24405     24479     23771     24407     24480     24481     23772
 -1      3357    4    0    1
 -2      7853      7943      7953      7863      7854      7944      7954      7864     24407     24480
 -2     24481     23772     23704     24412     24486     23778     24414     24487     24488     23779
 -1      3358    4    0    1
 -2      7854      7944      7954      7864      7855      7945      7955      7865     24414     24487
 -2     24488     23779     23711     24419     24493     23785     24421     24494     24495     23786
 -1      3359    4    0    1
 -2      7855      7945      7955      7865      7856      7946      7956      7866     24421     24494
 -2     24495     23786     23718     24426     24500     23792     24428     24501     24502     23793
 -1      3360    4    0    1
 -2      7856      7946      7956      7866      7857      7947      7957      7867     24428     24501
 -2     24502     23793     23725     24433     24507     23799     24435     24508     24509     23800
 -1      3361    4    0    1
 -2      7857      7947      7957      7867      7858      7948      7958      7868     24435     24508
 -2     24509     23800     23732     24440     24514     23806     24442     24515     24516     23807
 -1      3362    4    0    1
 -2      7858      7948      7958      7868      7859      7949      7959      7869     24442     24515
 -2     24516     23807     23739     24447     24521     23813     24449     24522     24523     23814
 -1      3363    4    0    1
 -2      7859      7949      7959      7869      7860      7950      7960      7870     24449     24522
 -2     24523     23814     23746     24454     24528     23820     24456     24529     24530     23821
 -1      3364    4    0    1
 -2      7860      7950      7960      7870      7861      7951      7961      7871     24456     24529
 -2     24530     23821     23753     24461     24535     23827     24463     24536     24537     23828
 -1      3365    4    0    1
 -2      7861      7951      7961      7871      7862      7952      7962      7872     24463     24536
 -2     24537     23828     23760     24468     24542     23834     24470     24543     24544     23835
 -1      3366    4    0    1
 -2      7862      7952      7962      7872      4995      5004      5005      4996     24470     24543
 -2     24544     23835     23767     24475     24549     23841      5714      5716      5717      5687
 -1      3367    4    0    1
 -2       599       608       609       600      7863      7953      7963      7873      1320      1322
 -2      1323      1293     23771     24479     24553     23845     24481     24554     24555     23846
 -1      3368    4    0    1
 -2      7863      7953      7963      7873      7864      7954      7964      7874     24481     24554
 -2     24555     23846     23778     24486     24560     23852     24488     24561     24562     23853
 -1      3369    4    0    1
 -2      7864      7954      7964      7874      7865      7955      7965      7875     24488     24561
 -2     24562     23853     23785     24493     24567     23859     24495     24568     24569     23860
 -1      3370    4    0    1
 -2      7865      7955      7965      7875      7866      7956      7966      7876     24495     24568
 -2     24569     23860     23792     24500     24574     23866     24502     24575     24576     23867
 -1      3371    4    0    1
 -2      7866      7956      7966      7876      7867      7957      7967      7877     24502     24575
 -2     24576     23867     23799     24507     24581     23873     24509     24582     24583     23874
 -1      3372    4    0    1
 -2      7867      7957      7967      7877      7868      7958      7968      7878     24509     24582
 -2     24583     23874     23806     24514     24588     23880     24516     24589     24590     23881
 -1      3373    4    0    1
 -2      7868      7958      7968      7878      7869      7959      7969      7879     24516     24589
 -2     24590     23881     23813     24521     24595     23887     24523     24596     24597     23888
 -1      3374    4    0    1
 -2      7869      7959      7969      7879      7870      7960      7970      7880     24523     24596
 -2     24597     23888     23820     24528     24602     23894     24530     24603     24604     23895
 -1      3375    4    0    1
 -2      7870      7960      7970      7880      7871      7961      7971      7881     24530     24603
 -2     24604     23895     23827     24535     24609     23901     24537     24610     24611     23902
 -1      3376    4    0    1
 -2      7871      7961      7971      7881      7872      7962      7972      7882     24537     24610
 -2     24611     23902     23834     24542     24616     23908     24544     24617     24618     23909
 -1      3377    4    0    1
 -2      7872      7962      7972      7882      4996      5005      5006      4997     24544     24617
 -2     24618     23909     23841     24549     24623     23915      5717      5719      5720      5690
 -1      3378    4    0    1
 -2       600       609       610       601      7873      7963      7973      7883      1323      1325
 -2      1326      1296     23845     24553     24627     23919     24555     24628     24629     23920
 -1      3379    4    0    1
 -2      7873      7963      7973      7883      7874      7964      7974      7884     24555     24628
 -2     24629     23920     23852     24560     24634     23926     24562     24635     24636     23927
 -1      3380    4    0    1
 -2      7874      7964      7974      7884      7875      7965      7975      7885     24562     24635
 -2     24636     23927     23859     24567     24641     23933     24569     24642     24643     23934
 -1      3381    4    0    1
 -2      7875      7965      7975      7885      7876      7966      7976      7886     24569     24642
 -2     24643     23934     23866     24574     24648     23940     24576     24649     24650     23941
 -1      3382    4    0    1
 -2      7876      7966      7976      7886      7877      7967      7977      7887     24576     24649
 -2     24650     23941     23873     24581     24655     23947     24583     24656     24657     23948
 -1      3383    4    0    1
 -2      7877      7967      7977      7887      7878      7968      7978      7888     24583     24656
 -2     24657     23948     23880     24588     24662     23954     24590     24663     24664     23955
 -1      3384    4    0    1
 -2      7878      7968      7978      7888      7879      7969      7979      7889     24590     24663
 -2     24664     23955     23887     24595     24669     23961     24597     24670     24671     23962
 -1      3385    4    0    1
 -2      7879      7969      7979      7889      7880      7970      7980      7890     24597     24670
 -2     24671     23962     23894     24602     24676     23968     24604     24677     24678     23969
 -1      3386    4    0    1
 -2      7880      7970      7980      7890      7881      7971      7981      7891     24604     24677
 -2     24678     23969     23901     24609     24683     23975     24611     24684     24685     23976
 -1      3387    4    0    1
 -2      7881      7971      7981      7891      7882      7972      7982      7892     24611     24684
 -2     24685     23976     23908     24616     24690     23982     24618     24691     24692     23983
 -1      3388    4    0    1
 -2      7882      7972      7982      7892      4997      5006      5007      4998     24618     24691
 -2     24692     23983     23915     24623     24697     23989      5720      5722      5723      5693
 -1      3389    4    0    1
 -2       601       610       611       602      7883      7973      7983      7893      1326      1328
 -2      1329      1299     23919     24627     24701     23993     24629     24702     24703     23994
 -1      3390    4    0    1
 -2      7883      7973      7983      7893      7884      7974      7984      7894     24629     24702
 -2     24703     23994     23926     24634     24708     24000     24636     24709     24710     24001
 -1      3391    4    0    1
 -2      7884      7974      7984      7894      7885      7975      7985      7895     24636     24709
 -2     24710     24001     23933     24641     24715     24007     24643     24716     24717     24008
 -1      3392    4    0    1
 -2      7885      7975      7985      7895      7886      7976      7986      7896     24643     24716
 -2     24717     24008     23940     24648     24722     24014     24650     24723     24724     24015
 -1      3393    4    0    1
 -2      7886      7976      7986      7896      7887      7977      7987      7897     24650     24723
 -2     24724     24015     23947     24655     24729     24021     24657     24730     24731     24022
 -1      3394    4    0    1
 -2      7887      7977      7987      7897      7888      7978      7988      7898     24657     24730
 -2     24731     24022     23954     24662     24736     24028     24664     24737     24738     24029
 -1      3395    4    0    1
 -2      7888      7978      7988      7898      7889      7979      7989      7899     24664     24737
 -2     24738     24029     23961     24669     24743     24035     24671     24744     24745     24036
 -1      3396    4    0    1
 -2      7889      7979      7989      7899      7890      7980      7990      7900     24671     24744
 -2     24745     24036     23968     24676     24750     24042     24678     24751     24752     24043
 -1      3397    4    0    1
 -2      7890      7980      7990      7900      7891      7981      7991      7901     24678     24751
 -2     24752     24043     23975     24683     24757     24049     24685     24758     24759     24050
 -1      3398    4    0    1
 -2      7891      7981      7991      7901      7892      7982      7992      7902     24685     24758
 -2     24759     24050     23982     24690     24764     24056     24692     24765     24766     24057
 -1      3399    4    0    1
 -2      7892      7982      7992      7902      4998      5007      5008      4999     24692     24765
 -2     24766     24057     23989     24697     24771     24063      5723      5725      5726      5696
 -1      3400    4    0    1
 -2       602       611        93        94      7893      7983      3224      3234      1329      1331
 -2       123      1302     23993     24701      3646      3678     24703     24775      3679     24067
 -1      3401    4    0    1
 -2      7893      7983      3224      3234      7894      7984      3225      3235     24703     24775
 -2      3679     24067     24000     24708      3649      3681     24710     24779      3682     24071
 -1      3402    4    0    1
 -2      7894      7984      3225      3235      7895      7985      3226      3236     24710     24779
 -2      3682     24071     24007     24715      3652      3684     24717     24783      3685     24075
 -1      3403    4    0    1
 -2      7895      7985      3226      3236      7896      7986      3227      3237     24717     24783
 -2      3685     24075     24014     24722      3655      3687     24724     24787      3688     24079
 -1      3404    4    0    1
 -2      7896      7986      3227      3237      7897      7987      3228      3238     24724     24787
 -2      3688     24079     24021     24729      3658      3690     24731     24791      3691     24083
 -1      3405    4    0    1
 -2      7897      7987      3228      3238      7898      7988      3229      3239     24731     24791
 -2      3691     24083     24028     24736      3661      3693     24738     24795      3694     24087
 -1      3406    4    0    1
 -2      7898      7988      3229      3239      7899      7989      3230      3240     24738     24795
 -2      3694     24087     24035     24743      3664      3696     24745     24799      3697     24091
 -1      3407    4    0    1
 -2      7899      7989      3230      3240      7900      7990      3231      3241     24745     24799
 -2      3697     24091     24042     24750      3667      3699     24752     24803      3700     24095
 -1      3408    4    0    1
 -2      7900      7990      3231      3241      7901      7991      3232      3242     24752     24803
 -2      3700     24095     24049     24757      3670      3702     24759     24807      3703     24099
 -1      3409    4    0    1
 -2      7901      7991      3232      3242      7902      7992      3233      3243     24759     24807
 -2      3703     24099     24056     24764      3673      3705     24766     24811      3706     24103
 -1      3410    4    0    1
 -2      7902      7992      3233      3243      4999      5008       249       250     24766     24811
 -2      3706     24103     24063     24771      3676      3708      5726      5728       279      5699
 -1      3411    4    0    1
 -2        31        32       612       603      1746      1756      7993      7903        61      1333
 -2      1334      1304      2520      2552     24817     24109      2553     24818     24819     24110
 -1      3412    4    0    1
 -2      1746      1756      7993      7903      1747      1757      7994      7904      2553     24818
 -2     24819     24110      2523      2555     24824     24116      2556     24825     24826     24117
 -1      3413    4    0    1
 -2      1747      1757      7994      7904      1748      1758      7995      7905      2556     24825
 -2     24826     24117      2526      2558     24831     24123      2559     24832     24833     24124
 -1      3414    4    0    1
 -2      1748      1758      7995      7905      1749      1759      7996      7906      2559     24832
 -2     24833     24124      2529      2561     24838     24130      2562     24839     24840     24131
 -1      3415    4    0    1
 -2      1749      1759      7996      7906      1750      1760      7997      7907      2562     24839
 -2     24840     24131      2532      2564     24845     24137      2565     24846     24847     24138
 -1      3416    4    0    1
 -2      1750      1760      7997      7907      1751      1761      7998      7908      2565     24846
 -2     24847     24138      2535      2567     24852     24144      2568     24853     24854     24145
 -1      3417    4    0    1
 -2      1751      1761      7998      7908      1752      1762      7999      7909      2568     24853
 -2     24854     24145      2538      2570     24859     24151      2571     24860     24861     24152
 -1      3418    4    0    1
 -2      1752      1762      7999      7909      1753      1763      8000      7910      2571     24860
 -2     24861     24152      2541      2573     24866     24158      2574     24867     24868     24159
 -1      3419    4    0    1
 -2      1753      1763      8000      7910      1754      1764      8001      7911      2574     24867
 -2     24868     24159      2544      2576     24873     24165      2577     24874     24875     24166
 -1      3420    4    0    1
 -2      1754      1764      8001      7911      1755      1765      8002      7912      2577     24874
 -2     24875     24166      2547      2579     24880     24172      2580     24881     24882     24173
 -1      3421    4    0    1
 -2      1755      1765      8002      7912       187       188      5009      5000      2580     24881
 -2     24882     24173      2550      2582     24887     24179       217      5730      5731      5701
 -1      3422    4    0    1
 -2       603       612       613       604      7903      7993      8003      7913      1334      1336
 -2      1337      1307     24109     24817     24891     24183     24819     24892     24893     24184
 -1      3423    4    0    1
 -2      7903      7993      8003      7913      7904      7994      8004      7914     24819     24892
 -2     24893     24184     24116     24824     24898     24190     24826     24899     24900     24191
 -1      3424    4    0    1
 -2      7904      7994      8004      7914      7905      7995      8005      7915     24826     24899
 -2     24900     24191     24123     24831     24905     24197     24833     24906     24907     24198
 -1      3425    4    0    1
 -2      7905      7995      8005      7915      7906      7996      8006      7916     24833     24906
 -2     24907     24198     24130     24838     24912     24204     24840     24913     24914     24205
 -1      3426    4    0    1
 -2      7906      7996      8006      7916      7907      7997      8007      7917     24840     24913
 -2     24914     24205     24137     24845     24919     24211     24847     24920     24921     24212
 -1      3427    4    0    1
 -2      7907      7997      8007      7917      7908      7998      8008      7918     24847     24920
 -2     24921     24212     24144     24852     24926     24218     24854     24927     24928     24219
 -1      3428    4    0    1
 -2      7908      7998      8008      7918      7909      7999      8009      7919     24854     24927
 -2     24928     24219     24151     24859     24933     24225     24861     24934     24935     24226
 -1      3429    4    0    1
 -2      7909      7999      8009      7919      7910      8000      8010      7920     24861     24934
 -2     24935     24226     24158     24866     24940     24232     24868     24941     24942     24233
 -1      3430    4    0    1
 -2      7910      8000      8010      7920      7911      8001      8011      7921     24868     24941
 -2     24942     24233     24165     24873     24947     24239     24875     24948     24949     24240
 -1      3431    4    0    1
 -2      7911      8001      8011      7921      7912      8002      8012      7922     24875     24948
 -2     24949     24240     24172     24880     24954     24246     24882     24955     24956     24247
 -1      3432    4    0    1
 -2      7912      8002      8012      7922      5000      5009      5010      5001     24882     24955
 -2     24956     24247     24179     24887     24961     24253      5731      5733      5734      5704
 -1      3433    4    0    1
 -2       604       613       614       605      7913      8003      8013      7923      1337      1339
 -2      1340      1310     24183     24891     24965     24257     24893     24966     24967     24258
 -1      3434    4    0    1
 -2      7913      8003      8013      7923      7914      8004      8014      7924     24893     24966
 -2     24967     24258     24190     24898     24972     24264     24900     24973     24974     24265
 -1      3435    4    0    1
 -2      7914      8004      8014      7924      7915      8005      8015      7925     24900     24973
 -2     24974     24265     24197     24905     24979     24271     24907     24980     24981     24272
 -1      3436    4    0    1
 -2      7915      8005      8015      7925      7916      8006      8016      7926     24907     24980
 -2     24981     24272     24204     24912     24986     24278     24914     24987     24988     24279
 -1      3437    4    0    1
 -2      7916      8006      8016      7926      7917      8007      8017      7927     24914     24987
 -2     24988     24279     24211     24919     24993     24285     24921     24994     24995     24286
 -1      3438    4    0    1
 -2      7917      8007      8017      7927      7918      8008      8018      7928     24921     24994
 -2     24995     24286     24218     24926     25000     24292     24928     25001     25002     24293
 -1      3439    4    0    1
 -2      7918      8008      8018      7928      7919      8009      8019      7929     24928     25001
 -2     25002     24293     24225     24933     25007     24299     24935     25008     25009     24300
 -1      3440    4    0    1
 -2      7919      8009      8019      7929      7920      8010      8020      7930     24935     25008
 -2     25009     24300     24232     24940     25014     24306     24942     25015     25016     24307
 -1      3441    4    0    1
 -2      7920      8010      8020      7930      7921      8011      8021      7931     24942     25015
 -2     25016     24307     24239     24947     25021     24313     24949     25022     25023     24314
 -1      3442    4    0    1
 -2      7921      8011      8021      7931      7922      8012      8022      7932     24949     25022
 -2     25023     24314     24246     24954     25028     24320     24956     25029     25030     24321
 -1      3443    4    0    1
 -2      7922      8012      8022      7932      5001      5010      5011      5002     24956     25029
 -2     25030     24321     24253     24961     25035     24327      5734      5736      5737      5707
 -1      3444    4    0    1
 -2       605       614       615       606      7923      8013      8023      7933      1340      1342
 -2      1343      1313     24257     24965     25039     24331     24967     25040     25041     24332
 -1      3445    4    0    1
 -2      7923      8013      8023      7933      7924      8014      8024      7934     24967     25040
 -2     25041     24332     24264     24972     25046     24338     24974     25047     25048     24339
 -1      3446    4    0    1
 -2      7924      8014      8024      7934      7925      8015      8025      7935     24974     25047
 -2     25048     24339     24271     24979     25053     24345     24981     25054     25055     24346
 -1      3447    4    0    1
 -2      7925      8015      8025      7935      7926      8016      8026      7936     24981     25054
 -2     25055     24346     24278     24986     25060     24352     24988     25061     25062     24353
 -1      3448    4    0    1
 -2      7926      8016      8026      7936      7927      8017      8027      7937     24988     25061
 -2     25062     24353     24285     24993     25067     24359     24995     25068     25069     24360
 -1      3449    4    0    1
 -2      7927      8017      8027      7937      7928      8018      8028      7938     24995     25068
 -2     25069     24360     24292     25000     25074     24366     25002     25075     25076     24367
 -1      3450    4    0    1
 -2      7928      8018      8028      7938      7929      8019      8029      7939     25002     25075
 -2     25076     24367     24299     25007     25081     24373     25009     25082     25083     24374
 -1      3451    4    0    1
 -2      7929      8019      8029      7939      7930      8020      8030      7940     25009     25082
 -2     25083     24374     24306     25014     25088     24380     25016     25089     25090     24381
 -1      3452    4    0    1
 -2      7930      8020      8030      7940      7931      8021      8031      7941     25016     25089
 -2     25090     24381     24313     25021     25095     24387     25023     25096     25097     24388
 -1      3453    4    0    1
 -2      7931      8021      8031      7941      7932      8022      8032      7942     25023     25096
 -2     25097     24388     24320     25028     25102     24394     25030     25103     25104     24395
 -1      3454    4    0    1
 -2      7932      8022      8032      7942      5002      5011      5012      5003     25030     25103
 -2     25104     24395     24327     25035     25109     24401      5737      5739      5740      5710
 -1      3455    4    0    1
 -2       606       615       616       607      7933      8023      8033      7943      1343      1345
 -2      1346      1316     24331     25039     25113     24405     25041     25114     25115     24406
 -1      3456    4    0    1
 -2      7933      8023      8033      7943      7934      8024      8034      7944     25041     25114
 -2     25115     24406     24338     25046     25120     24412     25048     25121     25122     24413
 -1      3457    4    0    1
 -2      7934      8024      8034      7944      7935      8025      8035      7945     25048     25121
 -2     25122     24413     24345     25053     25127     24419     25055     25128     25129     24420
 -1      3458    4    0    1
 -2      7935      8025      8035      7945      7936      8026      8036      7946     25055     25128
 -2     25129     24420     24352     25060     25134     24426     25062     25135     25136     24427
 -1      3459    4    0    1
 -2      7936      8026      8036      7946      7937      8027      8037      7947     25062     25135
 -2     25136     24427     24359     25067     25141     24433     25069     25142     25143     24434
 -1      3460    4    0    1
 -2      7937      8027      8037      7947      7938      8028      8038      7948     25069     25142
 -2     25143     24434     24366     25074     25148     24440     25076     25149     25150     24441
 -1      3461    4    0    1
 -2      7938      8028      8038      7948      7939      8029      8039      7949     25076     25149
 -2     25150     24441     24373     25081     25155     24447     25083     25156     25157     24448
 -1      3462    4    0    1
 -2      7939      8029      8039      7949      7940      8030      8040      7950     25083     25156
 -2     25157     24448     24380     25088     25162     24454     25090     25163     25164     24455
 -1      3463    4    0    1
 -2      7940      8030      8040      7950      7941      8031      8041      7951     25090     25163
 -2     25164     24455     24387     25095     25169     24461     25097     25170     25171     24462
 -1      3464    4    0    1
 -2      7941      8031      8041      7951      7942      8032      8042      7952     25097     25170
 -2     25171     24462     24394     25102     25176     24468     25104     25177     25178     24469
 -1      3465    4    0    1
 -2      7942      8032      8042      7952      5003      5012      5013      5004     25104     25177
 -2     25178     24469     24401     25109     25183     24475      5740      5742      5743      5713
 -1      3466    4    0    1
 -2       607       616       617       608      7943      8033      8043      7953      1346      1348
 -2      1349      1319     24405     25113     25187     24479     25115     25188     25189     24480
 -1      3467    4    0    1
 -2      7943      8033      8043      7953      7944      8034      8044      7954     25115     25188
 -2     25189     24480     24412     25120     25194     24486     25122     25195     25196     24487
 -1      3468    4    0    1
 -2      7944      8034      8044      7954      7945      8035      8045      7955     25122     25195
 -2     25196     24487     24419     25127     25201     24493     25129     25202     25203     24494
 -1      3469    4    0    1
 -2      7945      8035      8045      7955      7946      8036      8046      7956     25129     25202
 -2     25203     24494     24426     25134     25208     24500     25136     25209     25210     24501
 -1      3470    4    0    1
 -2      7946      8036      8046      7956      7947      8037      8047      7957     25136     25209
 -2     25210     24501     24433     25141     25215     24507     25143     25216     25217     24508
 -1      3471    4    0    1
 -2      7947      8037      8047      7957      7948      8038      8048      7958     25143     25216
 -2     25217     24508     24440     25148     25222     24514     25150     25223     25224     24515
 -1      3472    4    0    1
 -2      7948      8038      8048      7958      7949      8039      8049      7959     25150     25223
 -2     25224     24515     24447     25155     25229     24521     25157     25230     25231     24522
 -1      3473    4    0    1
 -2      7949      8039      8049      7959      7950      8040      8050      7960     25157     25230
 -2     25231     24522     24454     25162     25236     24528     25164     25237     25238     24529
 -1      3474    4    0    1
 -2      7950      8040      8050      7960      7951      8041      8051      7961     25164     25237
 -2     25238     24529     24461     25169     25243     24535     25171     25244     25245     24536
 -1      3475    4    0    1
 -2      7951      8041      8051      7961      7952      8042      8052      7962     25171     25244
 -2     25245     24536     24468     25176     25250     24542     25178     25251     25252     24543
 -1      3476    4    0    1
 -2      7952      8042      8052      7962      5004      5013      5014      5005     25178     25251
 -2     25252     24543     24475     25183     25257     24549      5743      5745      5746      5716
 -1      3477    4    0    1
 -2       608       617       618       609      7953      8043      8053      7963      1349      1351
 -2      1352      1322     24479     25187     25261     24553     25189     25262     25263     24554
 -1      3478    4    0    1
 -2      7953      8043      8053      7963      7954      8044      8054      7964     25189     25262
 -2     25263     24554     24486     25194     25268     24560     25196     25269     25270     24561
 -1      3479    4    0    1
 -2      7954      8044      8054      7964      7955      8045      8055      7965     25196     25269
 -2     25270     24561     24493     25201     25275     24567     25203     25276     25277     24568
 -1      3480    4    0    1
 -2      7955      8045      8055      7965      7956      8046      8056      7966     25203     25276
 -2     25277     24568     24500     25208     25282     24574     25210     25283     25284     24575
 -1      3481    4    0    1
 -2      7956      8046      8056      7966      7957      8047      8057      7967     25210     25283
 -2     25284     24575     24507     25215     25289     24581     25217     25290     25291     24582
 -1      3482    4    0    1
 -2      7957      8047      8057      7967      7958      8048      8058      7968     25217     25290
 -2     25291     24582     24514     25222     25296     24588     25224     25297     25298     24589
 -1      3483    4    0    1
 -2      7958      8048      8058      7968      7959      8049      8059      7969     25224     25297
 -2     25298     24589     24521     25229     25303     24595     25231     25304     25305     24596
 -1      3484    4    0    1
 -2      7959      8049      8059      7969      7960      8050      8060      7970     25231     25304
 -2     25305     24596     24528     25236     25310     24602     25238     25311     25312     24603
 -1      3485    4    0    1
 -2      7960      8050      8060      7970      7961      8051      8061      7971     25238     25311
 -2     25312     24603     24535     25243     25317     24609     25245     25318     25319     24610
 -1      3486    4    0    1
 -2      7961      8051      8061      7971      7962      8052      8062      7972     25245     25318
 -2     25319     24610     24542     25250     25324     24616     25252     25325     25326     24617
 -1      3487    4    0    1
 -2      7962      8052      8062      7972      5005      5014      5015      5006     25252     25325
 -2     25326     24617     24549     25257     25331     24623      5746      5748      5749      5719
 -1      3488    4    0    1
 -2       609       618       619       610      7963      8053      8063      7973      1352      1354
 -2      1355      1325     24553     25261     25335     24627     25263     25336     25337     24628
 -1      3489    4    0    1
 -2      7963      8053      8063      7973      7964      8054      8064      7974     25263     25336
 -2     25337     24628     24560     25268     25342     24634     25270     25343     25344     24635
 -1      3490    4    0    1
 -2      7964      8054      8064      7974      7965      8055      8065      7975     25270     25343
 -2     25344     24635     24567     25275     25349     24641     25277     25350     25351     24642
 -1      3491    4    0    1
 -2      7965      8055      8065      7975      7966      8056      8066      7976     25277     25350
 -2     25351     24642     24574     25282     25356     24648     25284     25357     25358     24649
 -1      3492    4    0    1
 -2      7966      8056      8066      7976      7967      8057      8067      7977     25284     25357
 -2     25358     24649     24581     25289     25363     24655     25291     25364     25365     24656
 -1      3493    4    0    1
 -2      7967      8057      8067      7977      7968      8058      8068      7978     25291     25364
 -2     25365     24656     24588     25296     25370     24662     25298     25371     25372     24663
 -1      3494    4    0    1
 -2      7968      8058      8068      7978      7969      8059      8069      7979     25298     25371
 -2     25372     24663     24595     25303     25377     24669     25305     25378     25379     24670
 -1      3495    4    0    1
 -2      7969      8059      8069      7979      7970      8060      8070      7980     25305     25378
 -2     25379     24670     24602     25310     25384     24676     25312     25385     25386     24677
 -1      3496    4    0    1
 -2      7970      8060      8070      7980      7971      8061      8071      7981     25312     25385
 -2     25386     24677     24609     25317     25391     24683     25319     25392     25393     24684
 -1      3497    4    0    1
 -2      7971      8061      8071      7981      7972      8062      8072      7982     25319     25392
 -2     25393     24684     24616     25324     25398     24690     25326     25399     25400     24691
 -1      3498    4    0    1
 -2      7972      8062      8072      7982      5006      5015      5016      5007     25326     25399
 -2     25400     24691     24623     25331     25405     24697      5749      5751      5752      5722
 -1      3499    4    0    1
 -2       610       619       620       611      7973      8063      8073      7983      1355      1357
 -2      1358      1328     24627     25335     25409     24701     25337     25410     25411     24702
 -1      3500    4    0    1
 -2      7973      8063      8073      7983      7974      8064      8074      7984     25337     25410
 -2     25411     24702     24634     25342     25416     24708     25344     25417     25418     24709
 -1      3501    4    0    1
 -2      7974      8064      8074      7984      7975      8065      8075      7985     25344     25417
 -2     25418     24709     24641     25349     25423     24715     25351     25424     25425     24716
 -1      3502    4    0    1
 -2      7975      8065      8075      7985      7976      8066      8076      7986     25351     25424
 -2     25425     24716     24648     25356     25430     24722     25358     25431     25432     24723
 -1      3503    4    0    1
 -2      7976      8066      8076      7986      7977      8067      8077      7987     25358     25431
 -2     25432     24723     24655     25363     25437     24729     25365     25438     25439     24730
 -1      3504    4    0    1
 -2      7977      8067      8077      7987      7978      8068      8078      7988     25365     25438
 -2     25439     24730     24662     25370     25444     24736     25372     25445     25446     24737
 -1      3505    4    0    1
 -2      7978      8068      8078      7988      7979      8069      8079      7989     25372     25445
 -2     25446     24737     24669     25377     25451     24743     25379     25452     25453     24744
 -1      3506    4    0    1
 -2      7979      8069      8079      7989      7980      8070      8080      7990     25379     25452
 -2     25453     24744     24676     25384     25458     24750     25386     25459     25460     24751
 -1      3507    4    0    1
 -2      7980      8070      8080      7990      7981      8071      8081      7991     25386     25459
 -2     25460     24751     24683     25391     25465     24757     25393     25466     25467     24758
 -1      3508    4    0    1
 -2      7981      8071      8081      7991      7982      8072      8082      7992     25393     25466
 -2     25467     24758     24690     25398     25472     24764     25400     25473     25474     24765
 -1      3509    4    0    1
 -2      7982      8072      8082      7992      5007      5016      5017      5008     25400     25473
 -2     25474     24765     24697     25405     25479     24771      5752      5754      5755      5725
 -1      3510    4    0    1
 -2       611       620        92        93      7983      8073      3214      3224      1358      1360
 -2       122      1331     24701     25409      3614      3646     25411     25483      3647     24775
 -1      3511    4    0    1
 -2      7983      8073      3214      3224      7984      8074      3215      3225     25411     25483
 -2      3647     24775     24708     25416      3617      3649     25418     25487      3650     24779
 -1      3512    4    0    1
 -2      7984      8074      3215      3225      7985      8075      3216      3226     25418     25487
 -2      3650     24779     24715     25423      3620      3652     25425     25491      3653     24783
 -1      3513    4    0    1
 -2      7985      8075      3216      3226      7986      8076      3217      3227     25425     25491
 -2      3653     24783     24722     25430      3623      3655     25432     25495      3656     24787
 -1      3514    4    0    1
 -2      7986      8076      3217      3227      7987      8077      3218      3228     25432     25495
 -2      3656     24787     24729     25437      3626      3658     25439     25499      3659     24791
 -1      3515    4    0    1
 -2      7987      8077      3218      3228      7988      8078      3219      3229     25439     25499
 -2      3659     24791     24736     25444      3629      3661     25446     25503      3662     24795
 -1      3516    4    0    1
 -2      7988      8078      3219      3229      7989      8079      3220      3230     25446     25503
 -2      3662     24795     24743     25451      3632      3664     25453     25507      3665     24799
 -1      3517    4    0    1
 -2      7989      8079      3220      3230      7990      8080      3221      3231     25453     25507
 -2      3665     24799     24750     25458      3635      3667     25460     25511      3668     24803
 -1      3518    4    0    1
 -2      7990      8080      3221      3231      7991      8081      3222      3232     25460     25511
 -2      3668     24803     24757     25465      3638      3670     25467     25515      3671     24807
 -1      3519    4    0    1
 -2      7991      8081      3222      3232      7992      8082      3223      3233     25467     25515
 -2      3671     24807     24764     25472      3641      3673     25474     25519      3674     24811
 -1      3520    4    0    1
 -2      7992      8082      3223      3233      5008      5017       248       249     25474     25519
 -2      3674     24811     24771     25479      3644      3676      5755      5757       278      5728
 -1      3521    4    0    1
 -2        32        33       621       612      1756      1766      8083      7993        62      1362
 -2      1363      1333      2552      2584     25525     24817      2585     25526     25527     24818
 -1      3522    4    0    1
 -2      1756      1766      8083      7993      1757      1767      8084      7994      2585     25526
 -2     25527     24818      2555      2587     25532     24824      2588     25533     25534     24825
 -1      3523    4    0    1
 -2      1757      1767      8084      7994      1758      1768      8085      7995      2588     25533
 -2     25534     24825      2558      2590     25539     24831      2591     25540     25541     24832
 -1      3524    4    0    1
 -2      1758      1768      8085      7995      1759      1769      8086      7996      2591     25540
 -2     25541     24832      2561      2593     25546     24838      2594     25547     25548     24839
 -1      3525    4    0    1
 -2      1759      1769      8086      7996      1760      1770      8087      7997      2594     25547
 -2     25548     24839      2564      2596     25553     24845      2597     25554     25555     24846
 -1      3526    4    0    1
 -2      1760      1770      8087      7997      1761      1771      8088      7998      2597     25554
 -2     25555     24846      2567      2599     25560     24852      2600     25561     25562     24853
 -1      3527    4    0    1
 -2      1761      1771      8088      7998      1762      1772      8089      7999      2600     25561
 -2     25562     24853      2570      2602     25567     24859      2603     25568     25569     24860
 -1      3528    4    0    1
 -2      1762      1772      8089      7999      1763      1773      8090      8000      2603     25568
 -2     25569     24860      2573      2605     25574     24866      2606     25575     25576     24867
 -1      3529    4    0    1
 -2      1763      1773      8090      8000      1764      1774      8091      8001      2606     25575
 -2     25576     24867      2576      2608     25581     24873      2609     25582     25583     24874
 -1      3530    4    0    1
 -2      1764      1774      8091      8001      1765      1775      8092      8002      2609     25582
 -2     25583     24874      2579      2611     25588     24880      2612     25589     25590     24881
 -1      3531    4    0    1
 -2      1765      1775      8092      8002       188       189      5018      5009      2612     25589
 -2     25590     24881      2582      2614     25595     24887       218      5759      5760      5730
 -1      3532    4    0    1
 -2       612       621       622       613      7993      8083      8093      8003      1363      1365
 -2      1366      1336     24817     25525     25599     24891     25527     25600     25601     24892
 -1      3533    4    0    1
 -2      7993      8083      8093      8003      7994      8084      8094      8004     25527     25600
 -2     25601     24892     24824     25532     25606     24898     25534     25607     25608     24899
 -1      3534    4    0    1
 -2      7994      8084      8094      8004      7995      8085      8095      8005     25534     25607
 -2     25608     24899     24831     25539     25613     24905     25541     25614     25615     24906
 -1      3535    4    0    1
 -2      7995      8085      8095      8005      7996      8086      8096      8006     25541     25614
 -2     25615     24906     24838     25546     25620     24912     25548     25621     25622     24913
 -1      3536    4    0    1
 -2      7996      8086      8096      8006      7997      8087      8097      8007     25548     25621
 -2     25622     24913     24845     25553     25627     24919     25555     25628     25629     24920
 -1      3537    4    0    1
 -2      7997      8087      8097      8007      7998      8088      8098      8008     25555     25628
 -2     25629     24920     24852     25560     25634     24926     25562     25635     25636     24927
 -1      3538    4    0    1
 -2      7998      8088      8098      8008      7999      8089      8099      8009     25562     25635
 -2     25636     24927     24859     25567     25641     24933     25569     25642     25643     24934
 -1      3539    4    0    1
 -2      7999      8089      8099      8009      8000      8090      8100      8010     25569     25642
 -2     25643     24934     24866     25574     25648     24940     25576     25649     25650     24941
 -1      3540    4    0    1
 -2      8000      8090      8100      8010      8001      8091      8101      8011     25576     25649
 -2     25650     24941     24873     25581     25655     24947     25583     25656     25657     24948
 -1      3541    4    0    1
 -2      8001      8091      8101      8011      8002      8092      8102      8012     25583     25656
 -2     25657     24948     24880     25588     25662     24954     25590     25663     25664     24955
 -1      3542    4    0    1
 -2      8002      8092      8102      8012      5009      5018      5019      5010     25590     25663
 -2     25664     24955     24887     25595     25669     24961      5760      5762      5763      5733
 -1      3543    4    0    1
 -2       613       622       623       614      8003      8093      8103      8013      1366      1368
 -2      1369      1339     24891     25599     25673     24965     25601     25674     25675     24966
 -1      3544    4    0    1
 -2      8003      8093      8103      8013      8004      8094      8104      8014     25601     25674
 -2     25675     24966     24898     25606     25680     24972     25608     25681     25682     24973
 -1      3545    4    0    1
 -2      8004      8094      8104      8014      8005      8095      8105      8015     25608     25681
 -2     25682     24973     24905     25613     25687     24979     25615     25688     25689     24980
 -1      3546    4    0    1
 -2      8005      8095      8105      8015      8006      8096      8106      8016     25615     25688
 -2     25689     24980     24912     25620     25694     24986     25622     25695     25696     24987
 -1      3547    4    0    1
 -2      8006      8096      8106      8016      8007      8097      8107      8017     25622     25695
 -2     25696     24987     24919     25627     25701     24993     25629     25702     25703     24994
 -1      3548    4    0    1
 -2      8007      8097      8107      8017      8008      8098      8108      8018     25629     25702
 -2     25703     24994     24926     25634     25708     25000     25636     25709     25710     25001
 -1      3549    4    0    1
 -2      8008      8098      8108      8018      8009      8099      8109      8019     25636     25709
 -2     25710     25001     24933     25641     25715     25007     25643     25716     25717     25008
 -1      3550    4    0    1
 -2      8009      8099      8109      8019      8010      8100      8110      8020     25643     25716
 -2     25717     25008     24940     25648     25722     25014     25650     25723     25724     25015
 -1      3551    4    0    1
 -2      8010      8100      8110      8020      8011      8101      8111      8021     25650     25723
 -2     25724     25015     24947     25655     25729     25021     25657     25730     25731     25022
 -1      3552    4    0    1
 -2      8011      8101      8111      8021      8012      8102      8112      8022     25657     25730
 -2     25731     25022     24954     25662     25736     25028     25664     25737     25738     25029
 -1      3553    4    0    1
 -2      8012      8102      8112      8022      5010      5019      5020      5011     25664     25737
 -2     25738     25029     24961     25669     25743     25035      5763      5765      5766      5736
 -1      3554    4    0    1
 -2       614       623       624       615      8013      8103      8113      8023      1369      1371
 -2      1372      1342     24965     25673     25747     25039     25675     25748     25749     25040
 -1      3555    4    0    1
 -2      8013      8103      8113      8023      8014      8104      8114      8024     25675     25748
 -2     25749     25040     24972     25680     25754     25046     25682     25755     25756     25047
 -1      3556    4    0    1
 -2      8014      8104      8114      8024      8015      8105      8115      8025     25682     25755
 -2     25756     25047     24979     25687     25761     25053     25689     25762     25763     25054
 -1      3557    4    0    1
 -2      8015      8105      8115      8025      8016      8106      8116      8026     25689     25762
 -2     25763     25054     24986     25694     25768     25060     25696     25769     25770     25061
 -1      3558    4    0    1
 -2      8016      8106      8116      8026      8017      8107      8117      8027     25696     25769
 -2     25770     25061     24993     25701     25775     25067     25703     25776     25777     25068
 -1      3559    4    0    1
 -2      8017      8107      8117      8027      8018      8108      8118      8028     25703     25776
 -2     25777     25068     25000     25708     25782     25074     25710     25783     25784     25075
 -1      3560    4    0    1
 -2      8018      8108      8118      8028      8019      8109      8119      8029     25710     25783
 -2     25784     25075     25007     25715     25789     25081     25717     25790     25791     25082
 -1      3561    4    0    1
 -2      8019      8109      8119      8029      8020      8110      8120      8030     25717     25790
 -2     25791     25082     25014     25722     25796     25088     25724     25797     25798     25089
 -1      3562    4    0    1
 -2      8020      8110      8120      8030      8021      8111      8121      8031     25724     25797
 -2     25798     25089     25021     25729     25803     25095     25731     25804     25805     25096
 -1      3563    4    0    1
 -2      8021      8111      8121      8031      8022      8112      8122      8032     25731     25804
 -2     25805     25096     25028     25736     25810     25102     25738     25811     25812     25103
 -1      3564    4    0    1
 -2      8022      8112      8122      8032      5011      5020      5021      5012     25738     25811
 -2     25812     25103     25035     25743     25817     25109      5766      5768      5769      5739
 -1      3565    4    0    1
 -2       615       624       625       616      8023      8113      8123      8033      1372      1374
 -2      1375      1345     25039     25747     25821     25113     25749     25822     25823     25114
 -1      3566    4    0    1
 -2      8023      8113      8123      8033      8024      8114      8124      8034     25749     25822
 -2     25823     25114     25046     25754     25828     25120     25756     25829     25830     25121
 -1      3567    4    0    1
 -2      8024      8114      8124      8034      8025      8115      8125      8035     25756     25829
 -2     25830     25121     25053     25761     25835     25127     25763     25836     25837     25128
 -1      3568    4    0    1
 -2      8025      8115      8125      8035      8026      8116      8126      8036     25763     25836
 -2     25837     25128     25060     25768     25842     25134     25770     25843     25844     25135
 -1      3569    4    0    1
 -2      8026      8116      8126      8036      8027      8117      8127      8037     25770     25843
 -2     25844     25135     25067     25775     25849     25141     25777     25850     25851     25142
 -1      3570    4    0    1
 -2      8027      8117      8127      8037      8028      8118      8128      8038     25777     25850
 -2     25851     25142     25074     25782     25856     25148     25784     25857     25858     25149
 -1      3571    4    0    1
 -2      8028      8118      8128      8038      8029      8119      8129      8039     25784     25857
 -2     25858     25149     25081     25789     25863     25155     25791     25864     25865     25156
 -1      3572    4    0    1
 -2      8029      8119      8129      8039      8030      8120      8130      8040     25791     25864
 -2     25865     25156     25088     25796     25870     25162     25798     25871     25872     25163
 -1      3573    4    0    1
 -2      8030      8120      8130      8040      8031      8121      8131      8041     25798     25871
 -2     25872     25163     25095     25803     25877     25169     25805     25878     25879     25170
 -1      3574    4    0    1
 -2      8031      8121      8131      8041      8032      8122      8132      8042     25805     25878
 -2     25879     25170     25102     25810     25884     25176     25812     25885     25886     25177
 -1      3575    4    0    1
 -2      8032      8122      8132      8042      5012      5021      5022      5013     25812     25885
 -2     25886     25177     25109     25817     25891     25183      5769      5771      5772      5742
 -1      3576    4    0    1
 -2       616       625       626       617      8033      8123      8133      8043      1375      1377
 -2      1378      1348     25113     25821     25895     25187     25823     25896     25897     25188
 -1      3577    4    0    1
 -2      8033      8123      8133      8043      8034      8124      8134      8044     25823     25896
 -2     25897     25188     25120     25828     25902     25194     25830     25903     25904     25195
 -1      3578    4    0    1
 -2      8034      8124      8134      8044      8035      8125      8135      8045     25830     25903
 -2     25904     25195     25127     25835     25909     25201     25837     25910     25911     25202
 -1      3579    4    0    1
 -2      8035      8125      8135      8045      8036      8126      8136      8046     25837     25910
 -2     25911     25202     25134     25842     25916     25208     25844     25917     25918     25209
 -1      3580    4    0    1
 -2      8036      8126      8136      8046      8037      8127      8137      8047     25844     25917
 -2     25918     25209     25141     25849     25923     25215     25851     25924     25925     25216
 -1      3581    4    0    1
 -2      8037      8127      8137      8047      8038      8128      8138      8048     25851     25924
 -2     25925     25216     25148     25856     25930     25222     25858     25931     25932     25223
 -1      3582    4    0    1
 -2      8038      8128      8138      8048      8039      8129      8139      8049     25858     25931
 -2     25932     25223     25155     25863     25937     25229     25865     25938     25939     25230
 -1      3583    4    0    1
 -2      8039      8129      8139      8049      8040      8130      8140      8050     25865     25938
 -2     25939     25230     25162     25870     25944     25236     25872     25945     25946     25237
 -1      3584    4    0    1
 -2      8040      8130      8140      8050      8041      8131      8141      8051     25872     25945
 -2     25946     25237     25169     25877     25951     25243     25879     25952     25953     25244
 -1      3585    4    0    1
 -2      8041      8131      8141      8051      8042      8132      8142      8052     25879     25952
 -2     25953     25244     25176     25884     25958     25250     25886     25959     25960     25251
 -1      3586    4    0    1
 -2      8042      8132      8142      8052      5013      5022      5023      5014     25886     25959
 -2     25960     25251     25183     25891     25965     25257      5772      5774      5775      5745
 -1      3587    4    0    1
 -2       617       626       627       618      8043      8133      8143      8053      1378      1380
 -2      1381      1351     25187     25895     25969     25261     25897     25970     25971     25262
 -1      3588    4    0    1
 -2      8043      8133      8143      8053      8044      8134      8144      8054     25897     25970
 -2     25971     25262     25194     25902     25976     25268     25904     25977     25978     25269
 -1      3589    4    0    1
 -2      8044      8134      8144      8054      8045      8135      8145      8055     25904     25977
 -2     25978     25269     25201     25909     25983     25275     25911     25984     25985     25276
 -1      3590    4    0    1
 -2      8045      8135      8145      8055      8046      8136      8146      8056     25911     25984
 -2     25985     25276     25208     25916     25990     25282     25918     25991     25992     25283
 -1      3591    4    0    1
 -2      8046      8136      8146      8056      8047      8137      8147      8057     25918     25991
 -2     25992     25283     25215     25923     25997     25289     25925     25998     25999     25290
 -1      3592    4    0    1
 -2      8047      8137      8147      8057      8048      8138      8148      8058     25925     25998
 -2     25999     25290     25222     25930     26004     25296     25932     26005     26006     25297
 -1      3593    4    0    1
 -2      8048      8138      8148      8058      8049      8139      8149      8059     25932     26005
 -2     26006     25297     25229     25937     26011     25303     25939     26012     26013     25304
 -1      3594    4    0    1
 -2      8049      8139      8149      8059      8050      8140      8150      8060     25939     26012
 -2     26013     25304     25236     25944     26018     25310     25946     26019     26020     25311
 -1      3595    4    0    1
 -2      8050      8140      8150      8060      8051      8141      8151      8061     25946     26019
 -2     26020     25311     25243     25951     26025     25317     25953     26026     26027     25318
 -1      3596    4    0    1
 -2      8051      8141      8151      8061      8052      8142      8152      8062     25953     26026
 -2     26027     25318     25250     25958     26032     25324     25960     26033     26034     25325
 -1      3597    4    0    1
 -2      8052      8142      8152      8062      5014      5023      5024      5015     25960     26033
 -2     26034     25325     25257     25965     26039     25331      5775      5777      5778      5748
 -1      3598    4    0    1
 -2       618       627       628       619      8053      8143      8153      8063      1381      1383
 -2      1384      1354     25261     25969     26043     25335     25971     26044     26045     25336
 -1      3599    4    0    1
 -2      8053      8143      8153      8063      8054      8144      8154      8064     25971     26044
 -2     26045     25336     25268     25976     26050     25342     25978     26051     26052     25343
 -1      3600    4    0    1
 -2      8054      8144      8154      8064      8055      8145      8155      8065     25978     26051
 -2     26052     25343     25275     25983     26057     25349     25985     26058     26059     25350
 -1      3601    4    0    1
 -2      8055      8145      8155      8065      8056      8146      8156      8066     25985     26058
 -2     26059     25350     25282     25990     26064     25356     25992     26065     26066     25357
 -1      3602    4    0    1
 -2      8056      8146      8156      8066      8057      8147      8157      8067     25992     26065
 -2     26066     25357     25289     25997     26071     25363     25999     26072     26073     25364
 -1      3603    4    0    1
 -2      8057      8147      8157      8067      8058      8148      8158      8068     25999     26072
 -2     26073     25364     25296     26004     26078     25370     26006     26079     26080     25371
 -1      3604    4    0    1
 -2      8058      8148      8158      8068      8059      8149      8159      8069     26006     26079
 -2     26080     25371     25303     26011     26085     25377     26013     26086     26087     25378
 -1      3605    4    0    1
 -2      8059      8149      8159      8069      8060      8150      8160      8070     26013     26086
 -2     26087     25378     25310     26018     26092     25384     26020     26093     26094     25385
 -1      3606    4    0    1
 -2      8060      8150      8160      8070      8061      8151      8161      8071     26020     26093
 -2     26094     25385     25317     26025     26099     25391     26027     26100     26101     25392
 -1      3607    4    0    1
 -2      8061      8151      8161      8071      8062      8152      8162      8072     26027     26100
 -2     26101     25392     25324     26032     26106     25398     26034     26107     26108     25399
 -1      3608    4    0    1
 -2      8062      8152      8162      8072      5015      5024      5025      5016     26034     26107
 -2     26108     25399     25331     26039     26113     25405      5778      5780      5781      5751
 -1      3609    4    0    1
 -2       619       628       629       620      8063      8153      8163      8073      1384      1386
 -2      1387      1357     25335     26043     26117     25409     26045     26118     26119     25410
 -1      3610    4    0    1
 -2      8063      8153      8163      8073      8064      8154      8164      8074     26045     26118
 -2     26119     25410     25342     26050     26124     25416     26052     26125     26126     25417
 -1      3611    4    0    1
 -2      8064      8154      8164      8074      8065      8155      8165      8075     26052     26125
 -2     26126     25417     25349     26057     26131     25423     26059     26132     26133     25424
 -1      3612    4    0    1
 -2      8065      8155      8165      8075      8066      8156      8166      8076     26059     26132
 -2     26133     25424     25356     26064     26138     25430     26066     26139     26140     25431
 -1      3613    4    0    1
 -2      8066      8156      8166      8076      8067      8157      8167      8077     26066     26139
 -2     26140     25431     25363     26071     26145     25437     26073     26146     26147     25438
 -1      3614    4    0    1
 -2      8067      8157      8167      8077      8068      8158      8168      8078     26073     26146
 -2     26147     25438     25370     26078     26152     25444     26080     26153     26154     25445
 -1      3615    4    0    1
 -2      8068      8158      8168      8078      8069      8159      8169      8079     26080     26153
 -2     26154     25445     25377     26085     26159     25451     26087     26160     26161     25452
 -1      3616    4    0    1
 -2      8069      8159      8169      8079      8070      8160      8170      8080     26087     26160
 -2     26161     25452     25384     26092     26166     25458     26094     26167     26168     25459
 -1      3617    4    0    1
 -2      8070      8160      8170      8080      8071      8161      8171      8081     26094     26167
 -2     26168     25459     25391     26099     26173     25465     26101     26174     26175     25466
 -1      3618    4    0    1
 -2      8071      8161      8171      8081      8072      8162      8172      8082     26101     26174
 -2     26175     25466     25398     26106     26180     25472     26108     26181     26182     25473
 -1      3619    4    0    1
 -2      8072      8162      8172      8082      5016      5025      5026      5017     26108     26181
 -2     26182     25473     25405     26113     26187     25479      5781      5783      5784      5754
 -1      3620    4    0    1
 -2       620       629        91        92      8073      8163      3204      3214      1387      1389
 -2       121      1360     25409     26117      3582      3614     26119     26191      3615     25483
 -1      3621    4    0    1
 -2      8073      8163      3204      3214      8074      8164      3205      3215     26119     26191
 -2      3615     25483     25416     26124      3585      3617     26126     26195      3618     25487
 -1      3622    4    0    1
 -2      8074      8164      3205      3215      8075      8165      3206      3216     26126     26195
 -2      3618     25487     25423     26131      3588      3620     26133     26199      3621     25491
 -1      3623    4    0    1
 -2      8075      8165      3206      3216      8076      8166      3207      3217     26133     26199
 -2      3621     25491     25430     26138      3591      3623     26140     26203      3624     25495
 -1      3624    4    0    1
 -2      8076      8166      3207      3217      8077      8167      3208      3218     26140     26203
 -2      3624     25495     25437     26145      3594      3626     26147     26207      3627     25499
 -1      3625    4    0    1
 -2      8077      8167      3208      3218      8078      8168      3209      3219     26147     26207
 -2      3627     25499     25444     26152      3597      3629     26154     26211      3630     25503
 -1      3626    4    0    1
 -2      8078      8168      3209      3219      8079      8169      3210      3220     26154     26211
 -2      3630     25503     25451     26159      3600      3632     26161     26215      3633     25507
 -1      3627    4    0    1
 -2      8079      8169      3210      3220      8080      8170      3211      3221     26161     26215
 -2      3633     25507     25458     26166      3603      3635     26168     26219      3636     25511
 -1      3628    4    0    1
 -2      8080      8170      3211      3221      8081      8171      3212      3222     26168     26219
 -2      3636     25511     25465     26173      3606      3638     26175     26223      3639     25515
 -1      3629    4    0    1
 -2      8081      8171      3212      3222      8082      8172      3213      3223     26175     26223
 -2      3639     25515     25472     26180      3609      3641     26182     26227      3642     25519
 -1      3630    4    0    1
 -2      8082      8172      3213      3223      5017      5026       247       248     26182     26227
 -2      3642     25519     25479     26187      3612      3644      5784      5786       277      5757
 -1      3631    4    0    1
 -2        33        34       630       621      1766      1776      8173      8083        63      1391
 -2      1392      1362      2584      2616     26233     25525      2617     26234     26235     25526
 -1      3632    4    0    1
 -2      1766      1776      8173      8083      1767      1777      8174      8084      2617     26234
 -2     26235     25526      2587      2619     26240     25532      2620     26241     26242     25533
 -1      3633    4    0    1
 -2      1767      1777      8174      8084      1768      1778      8175      8085      2620     26241
 -2     26242     25533      2590      2622     26247     25539      2623     26248     26249     25540
 -1      3634    4    0    1
 -2      1768      1778      8175      8085      1769      1779      8176      8086      2623     26248
 -2     26249     25540      2593      2625     26254     25546      2626     26255     26256     25547
 -1      3635    4    0    1
 -2      1769      1779      8176      8086      1770      1780      8177      8087      2626     26255
 -2     26256     25547      2596      2628     26261     25553      2629     26262     26263     25554
 -1      3636    4    0    1
 -2      1770      1780      8177      8087      1771      1781      8178      8088      2629     26262
 -2     26263     25554      2599      2631     26268     25560      2632     26269     26270     25561
 -1      3637    4    0    1
 -2      1771      1781      8178      8088      1772      1782      8179      8089      2632     26269
 -2     26270     25561      2602      2634     26275     25567      2635     26276     26277     25568
 -1      3638    4    0    1
 -2      1772      1782      8179      8089      1773      1783      8180      8090      2635     26276
 -2     26277     25568      2605      2637     26282     25574      2638     26283     26284     25575
 -1      3639    4    0    1
 -2      1773      1783      8180      8090      1774      1784      8181      8091      2638     26283
 -2     26284     25575      2608      2640     26289     25581      2641     26290     26291     25582
 -1      3640    4    0    1
 -2      1774      1784      8181      8091      1775      1785      8182      8092      2641     26290
 -2     26291     25582      2611      2643     26296     25588      2644     26297     26298     25589
 -1      3641    4    0    1
 -2      1775      1785      8182      8092       189       190      5027      5018      2644     26297
 -2     26298     25589      2614      2646     26303     25595       219      5788      5789      5759
 -1      3642    4    0    1
 -2       621       630       631       622      8083      8173      8183      8093      1392      1394
 -2      1395      1365     25525     26233     26307     25599     26235     26308     26309     25600
 -1      3643    4    0    1
 -2      8083      8173      8183      8093      8084      8174      8184      8094     26235     26308
 -2     26309     25600     25532     26240     26314     25606     26242     26315     26316     25607
 -1      3644    4    0    1
 -2      8084      8174      8184      8094      8085      8175      8185      8095     26242     26315
 -2     26316     25607     25539     26247     26321     25613     26249     26322     26323     25614
 -1      3645    4    0    1
 -2      8085      8175      8185      8095      8086      8176      8186      8096     26249     26322
 -2     26323     25614     25546     26254     26328     25620     26256     26329     26330     25621
 -1      3646    4    0    1
 -2      8086      8176      8186      8096      8087      8177      8187      8097     26256     26329
 -2     26330     25621     25553     26261     26335     25627     26263     26336     26337     25628
 -1      3647    4    0    1
 -2      8087      8177      8187      8097      8088      8178      8188      8098     26263     26336
 -2     26337     25628     25560     26268     26342     25634     26270     26343     26344     25635
 -1      3648    4    0    1
 -2      8088      8178      8188      8098      8089      8179      8189      8099     26270     26343
 -2     26344     25635     25567     26275     26349     25641     26277     26350     26351     25642
 -1      3649    4    0    1
 -2      8089      8179      8189      8099      8090      8180      8190      8100     26277     26350
 -2     26351     25642     25574     26282     26356     25648     26284     26357     26358     25649
 -1      3650    4    0    1
 -2      8090      8180      8190      8100      8091      8181      8191      8101     26284     26357
 -2     26358     25649     25581     26289     26363     25655     26291     26364     26365     25656
 -1      3651    4    0    1
 -2      8091      8181      8191      8101      8092      8182      8192      8102     26291     26364
 -2     26365     25656     25588     26296     26370     25662     26298     26371     26372     25663
 -1      3652    4    0    1
 -2      8092      8182      8192      8102      5018      5027      5028      5019     26298     26371
 -2     26372     25663     25595     26303     26377     25669      5789      5791      5792      5762
 -1      3653    4    0    1
 -2       622       631       632       623      8093      8183      8193      8103      1395      1397
 -2      1398      1368     25599     26307     26381     25673     26309     26382     26383     25674
 -1      3654    4    0    1
 -2      8093      8183      8193      8103      8094      8184      8194      8104     26309     26382
 -2     26383     25674     25606     26314     26388     25680     26316     26389     26390     25681
 -1      3655    4    0    1
 -2      8094      8184      8194      8104      8095      8185      8195      8105     26316     26389
 -2     26390     25681     25613     26321     26395     25687     26323     26396     26397     25688
 -1      3656    4    0    1
 -2      8095      8185      8195      8105      8096      8186      8196      8106     26323     26396
 -2     26397     25688     25620     26328     26402     25694     26330     26403     26404     25695
 -1      3657    4    0    1
 -2      8096      8186      8196      8106      8097      8187      8197      8107     26330     26403
 -2     26404     25695     25627     26335     26409     25701     26337     26410     26411     25702
 -1      3658    4    0    1
 -2      8097      8187      8197      8107      8098      8188      8198      8108     26337     26410
 -2     26411     25702     25634     26342     26416     25708     26344     26417     26418     25709
 -1      3659    4    0    1
 -2      8098      8188      8198      8108      8099      8189      8199      8109     26344     26417
 -2     26418     25709     25641     26349     26423     25715     26351     26424     26425     25716
 -1      3660    4    0    1
 -2      8099      8189      8199      8109      8100      8190      8200      8110     26351     26424
 -2     26425     25716     25648     26356     26430     25722     26358     26431     26432     25723
 -1      3661    4    0    1
 -2      8100      8190      8200      8110      8101      8191      8201      8111     26358     26431
 -2     26432     25723     25655     26363     26437     25729     26365     26438     26439     25730
 -1      3662    4    0    1
 -2      8101      8191      8201      8111      8102      8192      8202      8112     26365     26438
 -2     26439     25730     25662     26370     26444     25736     26372     26445     26446     25737
 -1      3663    4    0    1
 -2      8102      8192      8202      8112      5019      5028      5029      5020     26372     26445
 -2     26446     25737     25669     26377     26451     25743      5792      5794      5795      5765
 -1      3664    4    0    1
 -2       623       632       633       624      8103      8193      8203      8113      1398      1400
 -2      1401      1371     25673     26381     26455     25747     26383     26456     26457     25748
 -1      3665    4    0    1
 -2      8103      8193      8203      8113      8104      8194      8204      8114     26383     26456
 -2     26457     25748     25680     26388     26462     25754     26390     26463     26464     25755
 -1      3666    4    0    1
 -2      8104      8194      8204      8114      8105      8195      8205      8115     26390     26463
 -2     26464     25755     25687     26395     26469     25761     26397     26470     26471     25762
 -1      3667    4    0    1
 -2      8105      8195      8205      8115      8106      8196      8206      8116     26397     26470
 -2     26471     25762     25694     26402     26476     25768     26404     26477     26478     25769
 -1      3668    4    0    1
 -2      8106      8196      8206      8116      8107      8197      8207      8117     26404     26477
 -2     26478     25769     25701     26409     26483     25775     26411     26484     26485     25776
 -1      3669    4    0    1
 -2      8107      8197      8207      8117      8108      8198      8208      8118     26411     26484
 -2     26485     25776     25708     26416     26490     25782     26418     26491     26492     25783
 -1      3670    4    0    1
 -2      8108      8198      8208      8118      8109      8199      8209      8119     26418     26491
 -2     26492     25783     25715     26423     26497     25789     26425     26498     26499     25790
 -1      3671    4    0    1
 -2      8109      8199      8209      8119      8110      8200      8210      8120     26425     26498
 -2     26499     25790     25722     26430     26504     25796     26432     26505     26506     25797
 -1      3672    4    0    1
 -2      8110      8200      8210      8120      8111      8201      8211      8121     26432     26505
 -2     26506     25797     25729     26437     26511     25803     26439     26512     26513     25804
 -1      3673    4    0    1
 -2      8111      8201      8211      8121      8112      8202      8212      8122     26439     26512
 -2     26513     25804     25736     26444     26518     25810     26446     26519     26520     25811
 -1      3674    4    0    1
 -2      8112      8202      8212      8122      5020      5029      5030      5021     26446     26519
 -2     26520     25811     25743     26451     26525     25817      5795      5797      5798      5768
 -1      3675    4    0    1
 -2       624       633       634       625      8113      8203      8213      8123      1401      1403
 -2      1404      1374     25747     26455     26529     25821     26457     26530     26531     25822
 -1      3676    4    0    1
 -2      8113      8203      8213      8123      8114      8204      8214      8124     26457     26530
 -2     26531     25822     25754     26462     26536     25828     26464     26537     26538     25829
 -1      3677    4    0    1
 -2      8114      8204      8214      8124      8115      8205      8215      8125     26464     26537
 -2     26538     25829     25761     26469     26543     25835     26471     26544     26545     25836
 -1      3678    4    0    1
 -2      8115      8205      8215      8125      8116      8206      8216      8126     26471     26544
 -2     26545     25836     25768     26476     26550     25842     26478     26551     26552     25843
 -1      3679    4    0    1
 -2      8116      8206      8216      8126      8117      8207      8217      8127     26478     26551
 -2     26552     25843     25775     26483     26557     25849     26485     26558     26559     25850
 -1      3680    4    0    1
 -2      8117      8207      8217      8127      8118      8208      8218      8128     26485     26558
 -2     26559     25850     25782     26490     26564     25856     26492     26565     26566     25857
 -1      3681    4    0    1
 -2      8118      8208      8218      8128      8119      8209      8219      8129     26492     26565
 -2     26566     25857     25789     26497     26571     25863     26499     26572     26573     25864
 -1      3682    4    0    1
 -2      8119      8209      8219      8129      8120      8210      8220      8130     26499     26572
 -2     26573     25864     25796     26504     26578     25870     26506     26579     26580     25871
 -1      3683    4    0    1
 -2      8120      8210      8220      8130      8121      8211      8221      8131     26506     26579
 -2     26580     25871     25803     26511     26585     25877     26513     26586     26587     25878
 -1      3684    4    0    1
 -2      8121      8211      8221      8131      8122      8212      8222      8132     26513     26586
 -2     26587     25878     25810     26518     26592     25884     26520     26593     26594     25885
 -1      3685    4    0    1
 -2      8122      8212      8222      8132      5021      5030      5031      5022     26520     26593
 -2     26594     25885     25817     26525     26599     25891      5798      5800      5801      5771
 -1      3686    4    0    1
 -2       625       634       635       626      8123      8213      8223      8133      1404      1406
 -2      1407      1377     25821     26529     26603     25895     26531     26604     26605     25896
 -1      3687    4    0    1
 -2      8123      8213      8223      8133      8124      8214      8224      8134     26531     26604
 -2     26605     25896     25828     26536     26610     25902     26538     26611     26612     25903
 -1      3688    4    0    1
 -2      8124      8214      8224      8134      8125      8215      8225      8135     26538     26611
 -2     26612     25903     25835     26543     26617     25909     26545     26618     26619     25910
 -1      3689    4    0    1
 -2      8125      8215      8225      8135      8126      8216      8226      8136     26545     26618
 -2     26619     25910     25842     26550     26624     25916     26552     26625     26626     25917
 -1      3690    4    0    1
 -2      8126      8216      8226      8136      8127      8217      8227      8137     26552     26625
 -2     26626     25917     25849     26557     26631     25923     26559     26632     26633     25924
 -1      3691    4    0    1
 -2      8127      8217      8227      8137      8128      8218      8228      8138     26559     26632
 -2     26633     25924     25856     26564     26638     25930     26566     26639     26640     25931
 -1      3692    4    0    1
 -2      8128      8218      8228      8138      8129      8219      8229      8139     26566     26639
 -2     26640     25931     25863     26571     26645     25937     26573     26646     26647     25938
 -1      3693    4    0    1
 -2      8129      8219      8229      8139      8130      8220      8230      8140     26573     26646
 -2     26647     25938     25870     26578     26652     25944     26580     26653     26654     25945
 -1      3694    4    0    1
 -2      8130      8220      8230      8140      8131      8221      8231      8141     26580     26653
 -2     26654     25945     25877     26585     26659     25951     26587     26660     26661     25952
 -1      3695    4    0    1
 -2      8131      8221      8231      8141      8132      8222      8232      8142     26587     26660
 -2     26661     25952     25884     26592     26666     25958     26594     26667     26668     25959
 -1      3696    4    0    1
 -2      8132      8222      8232      8142      5022      5031      5032      5023     26594     26667
 -2     26668     25959     25891     26599     26673     25965      5801      5803      5804      5774
 -1      3697    4    0    1
 -2       626       635       636       627      8133      8223      8233      8143      1407      1409
 -2      1410      1380     25895     26603     26677     25969     26605     26678     26679     25970
 -1      3698    4    0    1
 -2      8133      8223      8233      8143      8134      8224      8234      8144     26605     26678
 -2     26679     25970     25902     26610     26684     25976     26612     26685     26686     25977
 -1      3699    4    0    1
 -2      8134      8224      8234      8144      8135      8225      8235      8145     26612     26685
 -2     26686     25977     25909     26617     26691     25983     26619     26692     26693     25984
 -1      3700    4    0    1
 -2      8135      8225      8235      8145      8136      8226      8236      8146     26619     26692
 -2     26693     25984     25916     26624     26698     25990     26626     26699     26700     25991
 -1      3701    4    0    1
 -2      8136      8226      8236      8146      8137      8227      8237      8147     26626     26699
 -2     26700     25991     25923     26631     26705     25997     26633     26706     26707     25998
 -1      3702    4    0    1
 -2      8137      8227      8237      8147      8138      8228      8238      8148     26633     26706
 -2     26707     25998     25930     26638     26712     26004     26640     26713     26714     26005
 -1      3703    4    0    1
 -2      8138      8228      8238      8148      8139      8229      8239      8149     26640     26713
 -2     26714     26005     25937     26645     26719     26011     26647     26720     26721     26012
 -1      3704    4    0    1
 -2      8139      8229      8239      8149      8140      8230      8240      8150     26647     26720
 -2     26721     26012     25944     26652     26726     26018     26654     26727     26728     26019
 -1      3705    4    0    1
 -2      8140      8230      8240      8150      8141      8231      8241      8151     26654     26727
 -2     26728     26019     25951     26659     26733     26025     26661     26734     26735     26026
 -1      3706    4    0    1
 -2      8141      8231      8241      8151      8142      8232      8242      8152     26661     26734
 -2     26735     26026     25958     26666     26740     26032     26668     26741     26742     26033
 -1      3707    4    0    1
 -2      8142      8232      8242      8152      5023      5032      5033      5024     26668     26741
 -2     26742     26033     25965     26673     26747     26039      5804      5806      5807      5777
 -1      3708    4    0    1
 -2       627       636       637       628      8143      8233      8243      8153      1410      1412
 -2      1413      1383     25969     26677     26751     26043     26679     26752     26753     26044
 -1      3709    4    0    1
 -2      8143      8233      8243      8153      8144      8234      8244      8154     26679     26752
 -2     26753     26044     25976     26684     26758     26050     26686     26759     26760     26051
 -1      3710    4    0    1
 -2      8144      8234      8244      8154      8145      8235      8245      8155     26686     26759
 -2     26760     26051     25983     26691     26765     26057     26693     26766     26767     26058
 -1      3711    4    0    1
 -2      8145      8235      8245      8155      8146      8236      8246      8156     26693     26766
 -2     26767     26058     25990     26698     26772     26064     26700     26773     26774     26065
 -1      3712    4    0    1
 -2      8146      8236      8246      8156      8147      8237      8247      8157     26700     26773
 -2     26774     26065     25997     26705     26779     26071     26707     26780     26781     26072
 -1      3713    4    0    1
 -2      8147      8237      8247      8157      8148      8238      8248      8158     26707     26780
 -2     26781     26072     26004     26712     26786     26078     26714     26787     26788     26079
 -1      3714    4    0    1
 -2      8148      8238      8248      8158      8149      8239      8249      8159     26714     26787
 -2     26788     26079     26011     26719     26793     26085     26721     26794     26795     26086
 -1      3715    4    0    1
 -2      8149      8239      8249      8159      8150      8240      8250      8160     26721     26794
 -2     26795     26086     26018     26726     26800     26092     26728     26801     26802     26093
 -1      3716    4    0    1
 -2      8150      8240      8250      8160      8151      8241      8251      8161     26728     26801
 -2     26802     26093     26025     26733     26807     26099     26735     26808     26809     26100
 -1      3717    4    0    1
 -2      8151      8241      8251      8161      8152      8242      8252      8162     26735     26808
 -2     26809     26100     26032     26740     26814     26106     26742     26815     26816     26107
 -1      3718    4    0    1
 -2      8152      8242      8252      8162      5024      5033      5034      5025     26742     26815
 -2     26816     26107     26039     26747     26821     26113      5807      5809      5810      5780
 -1      3719    4    0    1
 -2       628       637       638       629      8153      8243      8253      8163      1413      1415
 -2      1416      1386     26043     26751     26825     26117     26753     26826     26827     26118
 -1      3720    4    0    1
 -2      8153      8243      8253      8163      8154      8244      8254      8164     26753     26826
 -2     26827     26118     26050     26758     26832     26124     26760     26833     26834     26125
 -1      3721    4    0    1
 -2      8154      8244      8254      8164      8155      8245      8255      8165     26760     26833
 -2     26834     26125     26057     26765     26839     26131     26767     26840     26841     26132
 -1      3722    4    0    1
 -2      8155      8245      8255      8165      8156      8246      8256      8166     26767     26840
 -2     26841     26132     26064     26772     26846     26138     26774     26847     26848     26139
 -1      3723    4    0    1
 -2      8156      8246      8256      8166      8157      8247      8257      8167     26774     26847
 -2     26848     26139     26071     26779     26853     26145     26781     26854     26855     26146
 -1      3724    4    0    1
 -2      8157      8247      8257      8167      8158      8248      8258      8168     26781     26854
 -2     26855     26146     26078     26786     26860     26152     26788     26861     26862     26153
 -1      3725    4    0    1
 -2      8158      8248      8258      8168      8159      8249      8259      8169     26788     26861
 -2     26862     26153     26085     26793     26867     26159     26795     26868     26869     26160
 -1      3726    4    0    1
 -2      8159      8249      8259      8169      8160      8250      8260      8170     26795     26868
 -2     26869     26160     26092     26800     26874     26166     26802     26875     26876     26167
 -1      3727    4    0    1
 -2      8160      8250      8260      8170      8161      8251      8261      8171     26802     26875
 -2     26876     26167     26099     26807     26881     26173     26809     26882     26883     26174
 -1      3728    4    0    1
 -2      8161      8251      8261      8171      8162      8252      8262      8172     26809     26882
 -2     26883     26174     26106     26814     26888     26180     26816     26889     26890     26181
 -1      3729    4    0    1
 -2      8162      8252      8262      8172      5025      5034      5035      5026     26816     26889
 -2     26890     26181     26113     26821     26895     26187      5810      5812      5813      5783
 -1      3730    4    0    1
 -2       629       638        90        91      8163      8253      3194      3204      1416      1418
 -2       120      1389     26117     26825      3550      3582     26827     26899      3583     26191
 -1      3731    4    0    1
 -2      8163      8253      3194      3204      8164      8254      3195      3205     26827     26899
 -2      3583     26191     26124     26832      3553      3585     26834     26903      3586     26195
 -1      3732    4    0    1
 -2      8164      8254      3195      3205      8165      8255      3196      3206     26834     26903
 -2      3586     26195     26131     26839      3556      3588     26841     26907      3589     26199
 -1      3733    4    0    1
 -2      8165      8255      3196      3206      8166      8256      3197      3207     26841     26907
 -2      3589     26199     26138     26846      3559      3591     26848     26911      3592     26203
 -1      3734    4    0    1
 -2      8166      8256      3197      3207      8167      8257      3198      3208     26848     26911
 -2      3592     26203     26145     26853      3562      3594     26855     26915      3595     26207
 -1      3735    4    0    1
 -2      8167      8257      3198      3208      8168      8258      3199      3209     26855     26915
 -2      3595     26207     26152     26860      3565      3597     26862     26919      3598     26211
 -1      3736    4    0    1
 -2      8168      8258      3199      3209      8169      8259      3200      3210     26862     26919
 -2      3598     26211     26159     26867      3568      3600     26869     26923      3601     26215
 -1      3737    4    0    1
 -2      8169      8259      3200      3210      8170      8260      3201      3211     26869     26923
 -2      3601     26215     26166     26874      3571      3603     26876     26927      3604     26219
 -1      3738    4    0    1
 -2      8170      8260      3201      3211      8171      8261      3202      3212     26876     26927
 -2      3604     26219     26173     26881      3574      3606     26883     26931      3607     26223
 -1      3739    4    0    1
 -2      8171      8261      3202      3212      8172      8262      3203      3213     26883     26931
 -2      3607     26223     26180     26888      3577      3609     26890     26935      3610     26227
 -1      3740    4    0    1
 -2      8172      8262      3203      3213      5026      5035       246       247     26890     26935
 -2      3610     26227     26187     26895      3580      3612      5813      5815       276      5786
 -1      3741    4    0    1
 -2        34        35       639       630      1776      1786      8263      8173        64      1420
 -2      1421      1391      2616      2648     26941     26233      2649     26942     26943     26234
 -1      3742    4    0    1
 -2      1776      1786      8263      8173      1777      1787      8264      8174      2649     26942
 -2     26943     26234      2619      2651     26948     26240      2652     26949     26950     26241
 -1      3743    4    0    1
 -2      1777      1787      8264      8174      1778      1788      8265      8175      2652     26949
 -2     26950     26241      2622      2654     26955     26247      2655     26956     26957     26248
 -1      3744    4    0    1
 -2      1778      1788      8265      8175      1779      1789      8266      8176      2655     26956
 -2     26957     26248      2625      2657     26962     26254      2658     26963     26964     26255
 -1      3745    4    0    1
 -2      1779      1789      8266      8176      1780      1790      8267      8177      2658     26963
 -2     26964     26255      2628      2660     26969     26261      2661     26970     26971     26262
 -1      3746    4    0    1
 -2      1780      1790      8267      8177      1781      1791      8268      8178      2661     26970
 -2     26971     26262      2631      2663     26976     26268      2664     26977     26978     26269
 -1      3747    4    0    1
 -2      1781      1791      8268      8178      1782      1792      8269      8179      2664     26977
 -2     26978     26269      2634      2666     26983     26275      2667     26984     26985     26276
 -1      3748    4    0    1
 -2      1782      1792      8269      8179      1783      1793      8270      8180      2667     26984
 -2     26985     26276      2637      2669     26990     26282      2670     26991     26992     26283
 -1      3749    4    0    1
 -2      1783      1793      8270      8180      1784      1794      8271      8181      2670     26991
 -2     26992     26283      2640      2672     26997     26289      2673     26998     26999     26290
 -1      3750    4    0    1
 -2      1784      1794      8271      8181      1785      1795      8272      8182      2673     26998
 -2     26999     26290      2643      2675     27004     26296      2676     27005     27006     26297
 -1      3751    4    0    1
 -2      1785      1795      8272      8182       190       191      5036      5027      2676     27005
 -2     27006     26297      2646      2678     27011     26303       220      5817      5818      5788
 -1      3752    4    0    1
 -2       630       639       640       631      8173      8263      8273      8183      1421      1423
 -2      1424      1394     26233     26941     27015     26307     26943     27016     27017     26308
 -1      3753    4    0    1
 -2      8173      8263      8273      8183      8174      8264      8274      8184     26943     27016
 -2     27017     26308     26240     26948     27022     26314     26950     27023     27024     26315
 -1      3754    4    0    1
 -2      8174      8264      8274      8184      8175      8265      8275      8185     26950     27023
 -2     27024     26315     26247     26955     27029     26321     26957     27030     27031     26322
 -1      3755    4    0    1
 -2      8175      8265      8275      8185      8176      8266      8276      8186     26957     27030
 -2     27031     26322     26254     26962     27036     26328     26964     27037     27038     26329
 -1      3756    4    0    1
 -2      8176      8266      8276      8186      8177      8267      8277      8187     26964     27037
 -2     27038     26329     26261     26969     27043     26335     26971     27044     27045     26336
 -1      3757    4    0    1
 -2      8177      8267      8277      8187      8178      8268      8278      8188     26971     27044
 -2     27045     26336     26268     26976     27050     26342     26978     27051     27052     26343
 -1      3758    4    0    1
 -2      8178      8268      8278      8188      8179      8269      8279      8189     26978     27051
 -2     27052     26343     26275     26983     27057     26349     26985     27058     27059     26350
 -1      3759    4    0    1
 -2      8179      8269      8279      8189      8180      8270      8280      8190     26985     27058
 -2     27059     26350     26282     26990     27064     26356     26992     27065     27066     26357
 -1      3760    4    0    1
 -2      8180      8270      8280      8190      8181      8271      8281      8191     26992     27065
 -2     27066     26357     26289     26997     27071     26363     26999     27072     27073     26364
 -1      3761    4    0    1
 -2      8181      8271      8281      8191      8182      8272      8282      8192     26999     27072
 -2     27073     26364     26296     27004     27078     26370     27006     27079     27080     26371
 -1      3762    4    0    1
 -2      8182      8272      8282      8192      5027      5036      5037      5028     27006     27079
 -2     27080     26371     26303     27011     27085     26377      5818      5820      5821      5791
 -1      3763    4    0    1
 -2       631       640       641       632      8183      8273      8283      8193      1424      1426
 -2      1427      1397     26307     27015     27089     26381     27017     27090     27091     26382
 -1      3764    4    0    1
 -2      8183      8273      8283      8193      8184      8274      8284      8194     27017     27090
 -2     27091     26382     26314     27022     27096     26388     27024     27097     27098     26389
 -1      3765    4    0    1
 -2      8184      8274      8284      8194      8185      8275      8285      8195     27024     27097
 -2     27098     26389     26321     27029     27103     26395     27031     27104     27105     26396
 -1      3766    4    0    1
 -2      8185      8275      8285      8195      8186      8276      8286      8196     27031     27104
 -2     27105     26396     26328     27036     27110     26402     27038     27111     27112     26403
 -1      3767    4    0    1
 -2      8186      8276      8286      8196      8187      8277      8287      8197     27038     27111
 -2     27112     26403     26335     27043     27117     26409     27045     27118     27119     26410
 -1      3768    4    0    1
 -2      8187      8277      8287      8197      8188      8278      8288      8198     27045     27118
 -2     27119     26410     26342     27050     27124     26416     27052     27125     27126     26417
 -1      3769    4    0    1
 -2      8188      8278      8288      8198      8189      8279      8289      8199     27052     27125
 -2     27126     26417     26349     27057     27131     26423     27059     27132     27133     26424
 -1      3770    4    0    1
 -2      8189      8279      8289      8199      8190      8280      8290      8200     27059     27132
 -2     27133     26424     26356     27064     27138     26430     27066     27139     27140     26431
 -1      3771    4    0    1
 -2      8190      8280      8290      8200      8191      8281      8291      8201     27066     27139
 -2     27140     26431     26363     27071     27145     26437     27073     27146     27147     26438
 -1      3772    4    0    1
 -2      8191      8281      8291      8201      8192      8282      8292      8202     27073     27146
 -2     27147     26438     26370     27078     27152     26444     27080     27153     27154     26445
 -1      3773    4    0    1
 -2      8192      8282      8292      8202      5028      5037      5038      5029     27080     27153
 -2     27154     26445     26377     27085     27159     26451      5821      5823      5824      5794
 -1      3774    4    0    1
 -2       632       641       642       633      8193      8283      8293      8203      1427      1429
 -2      1430      1400     26381     27089     27163     26455     27091     27164     27165     26456
 -1      3775    4    0    1
 -2      8193      8283      8293      8203      8194      8284      8294      8204     27091     27164
 -2     27165     26456     26388     27096     27170     26462     27098     27171     27172     26463
 -1      3776    4    0    1
 -2      8194      8284      8294      8204      8195      8285      8295      8205     27098     27171
 -2     27172     26463     26395     27103     27177     26469     27105     27178     27179     26470
 -1      3777    4    0    1
 -2      8195      8285      8295      8205      8196      8286      8296      8206     27105     27178
 -2     27179     26470     26402     27110     27184     26476     27112     27185     27186     26477
 -1      3778    4    0    1
 -2      8196      8286      8296      8206      8197      8287      8297      8207     27112     27185
 -2     27186     26477     26409     27117     27191     26483     27119     27192     27193     26484
 -1      3779    4    0    1
 -2      8197      8287      8297      8207      8198      8288      8298      8208     27119     27192
 -2     27193     26484     26416     27124     27198     26490     27126     27199     27200     26491
 -1      3780    4    0    1
 -2      8198      8288      8298      8208      8199      8289      8299      8209     27126     27199
 -2     27200     26491     26423     27131     27205     26497     27133     27206     27207     26498
 -1      3781    4    0    1
 -2      8199      8289      8299      8209      8200      8290      8300      8210     27133     27206
 -2     27207     26498     26430     27138     27212     26504     27140     27213     27214     26505
 -1      3782    4    0    1
 -2      8200      8290      8300      8210      8201      8291      8301      8211     27140     27213
 -2     27214     26505     26437     27145     27219     26511     27147     27220     27221     26512
 -1      3783    4    0    1
 -2      8201      8291      8301      8211      8202      8292      8302      8212     27147     27220
 -2     27221     26512     26444     27152     27226     26518     27154     27227     27228     26519
 -1      3784    4    0    1
 -2      8202      8292      8302      8212      5029      5038      5039      5030     27154     27227
 -2     27228     26519     26451     27159     27233     26525      5824      5826      5827      5797
 -1      3785    4    0    1
 -2       633       642       643       634      8203      8293      8303      8213      1430      1432
 -2      1433      1403     26455     27163     27237     26529     27165     27238     27239     26530
 -1      3786    4    0    1
 -2      8203      8293      8303      8213      8204      8294      8304      8214     27165     27238
 -2     27239     26530     26462     27170     27244     26536     27172     27245     27246     26537
 -1      3787    4    0    1
 -2      8204      8294      8304      8214      8205      8295      8305      8215     27172     27245
 -2     27246     26537     26469     27177     27251     26543     27179     27252     27253     26544
 -1      3788    4    0    1
 -2      8205      8295      8305      8215      8206      8296      8306      8216     27179     27252
 -2     27253     26544     26476     27184     27258     26550     27186     27259     27260     26551
 -1      3789    4    0    1
 -2      8206      8296      8306      8216      8207      8297      8307      8217     27186     27259
 -2     27260     26551     26483     27191     27265     26557     27193     27266     27267     26558
 -1      3790    4    0    1
 -2      8207      8297      8307      8217      8208      8298      8308      8218     27193     27266
 -2     27267     26558     26490     27198     27272     26564     27200     27273     27274     26565
 -1      3791    4    0    1
 -2      8208      8298      8308      8218      8209      8299      8309      8219     27200     27273
 -2     27274     26565     26497     27205     27279     26571     27207     27280     27281     26572
 -1      3792    4    0    1
 -2      8209      8299      8309      8219      8210      8300      8310      8220     27207     27280
 -2     27281     26572     26504     27212     27286     26578     27214     27287     27288     26579
 -1      3793    4    0    1
 -2      8210      8300      8310      8220      8211      8301      8311      8221     27214     27287
 -2     27288     26579     26511     27219     27293     26585     27221     27294     27295     26586
 -1      3794    4    0    1
 -2      8211      8301      8311      8221      8212      8302      8312      8222     27221     27294
 -2     27295     26586     26518     27226     27300     26592     27228     27301     27302     26593
 -1      3795    4    0    1
 -2      8212      8302      8312      8222      5030      5039      5040      5031     27228     27301
 -2     27302     26593     26525     27233     27307     26599      5827      5829      5830      5800
 -1      3796    4    0    1
 -2       634       643       644       635      8213      8303      8313      8223      1433      1435
 -2      1436      1406     26529     27237     27311     26603     27239     27312     27313     26604
 -1      3797    4    0    1
 -2      8213      8303      8313      8223      8214      8304      8314      8224     27239     27312
 -2     27313     26604     26536     27244     27318     26610     27246     27319     27320     26611
 -1      3798    4    0    1
 -2      8214      8304      8314      8224      8215      8305      8315      8225     27246     27319
 -2     27320     26611     26543     27251     27325     26617     27253     27326     27327     26618
 -1      3799    4    0    1
 -2      8215      8305      8315      8225      8216      8306      8316      8226     27253     27326
 -2     27327     26618     26550     27258     27332     26624     27260     27333     27334     26625
 -1      3800    4    0    1
 -2      8216      8306      8316      8226      8217      8307      8317      8227     27260     27333
 -2     27334     26625     26557     27265     27339     26631     27267     27340     27341     26632
 -1      3801    4    0    1
 -2      8217      8307      8317      8227      8218      8308      8318      8228     27267     27340
 -2     27341     26632     26564     27272     27346     26638     27274     27347     27348     26639
 -1      3802    4    0    1
 -2      8218      8308      8318      8228      8219      8309      8319      8229     27274     27347
 -2     27348     26639     26571     27279     27353     26645     27281     27354     27355     26646
 -1      3803    4    0    1
 -2      8219      8309      8319      8229      8220      8310      8320      8230     27281     27354
 -2     27355     26646     26578     27286     27360     26652     27288     27361     27362     26653
 -1      3804    4    0    1
 -2      8220      8310      8320      8230      8221      8311      8321      8231     27288     27361
 -2     27362     26653     26585     27293     27367     26659     27295     27368     27369     26660
 -1      3805    4    0    1
 -2      8221      8311      8321      8231      8222      8312      8322      8232     27295     27368
 -2     27369     26660     26592     27300     27374     26666     27302     27375     27376     26667
 -1      3806    4    0    1
 -2      8222      8312      8322      8232      5031      5040      5041      5032     27302     27375
 -2     27376     26667     26599     27307     27381     26673      5830      5832      5833      5803
 -1      3807    4    0    1
 -2       635       644       645       636      8223      8313      8323      8233      1436      1438
 -2      1439      1409     26603     27311     27385     26677     27313     27386     27387     26678
 -1      3808    4    0    1
 -2      8223      8313      8323      8233      8224      8314      8324      8234     27313     27386
 -2     27387     26678     26610     27318     27392     26684     27320     27393     27394     26685
 -1      3809    4    0    1
 -2      8224      8314      8324      8234      8225      8315      8325      8235     27320     27393
 -2     27394     26685     26617     27325     27399     26691     27327     27400     27401     26692
 -1      3810    4    0    1
 -2      8225      8315      8325      8235      8226      8316      8326      8236     27327     27400
 -2     27401     26692     26624     27332     27406     26698     27334     27407     27408     26699
 -1      3811    4    0    1
 -2      8226      8316      8326      8236      8227      8317      8327      8237     27334     27407
 -2     27408     26699     26631     27339     27413     26705     27341     27414     27415     26706
 -1      3812    4    0    1
 -2      8227      8317      8327      8237      8228      8318      8328      8238     27341     27414
 -2     27415     26706     26638     27346     27420     26712     27348     27421     27422     26713
 -1      3813    4    0    1
 -2      8228      8318      8328      8238      8229      8319      8329      8239     27348     27421
 -2     27422     26713     26645     27353     27427     26719     27355     27428     27429     26720
 -1      3814    4    0    1
 -2      8229      8319      8329      8239      8230      8320      8330      8240     27355     27428
 -2     27429     26720     26652     27360     27434     26726     27362     27435     27436     26727
 -1      3815    4    0    1
 -2      8230      8320      8330      8240      8231      8321      8331      8241     27362     27435
 -2     27436     26727     26659     27367     27441     26733     27369     27442     27443     26734
 -1      3816    4    0    1
 -2      8231      8321      8331      8241      8232      8322      8332      8242     27369     27442
 -2     27443     26734     26666     27374     27448     26740     27376     27449     27450     26741
 -1      3817    4    0    1
 -2      8232      8322      8332      8242      5032      5041      5042      5033     27376     27449
 -2     27450     26741     26673     27381     27455     26747      5833      5835      5836      5806
 -1      3818    4    0    1
 -2       636       645       646       637      8233      8323      8333      8243      1439      1441
 -2      1442      1412     26677     27385     27459     26751     27387     27460     27461     26752
 -1      3819    4    0    1
 -2      8233      8323      8333      8243      8234      8324      8334      8244     27387     27460
 -2     27461     26752     26684     27392     27466     26758     27394     27467     27468     26759
 -1      3820    4    0    1
 -2      8234      8324      8334      8244      8235      8325      8335      8245     27394     27467
 -2     27468     26759     26691     27399     27473     26765     27401     27474     27475     26766
 -1      3821    4    0    1
 -2      8235      8325      8335      8245      8236      8326      8336      8246     27401     27474
 -2     27475     26766     26698     27406     27480     26772     27408     27481     27482     26773
 -1      3822    4    0    1
 -2      8236      8326      8336      8246      8237      8327      8337      8247     27408     27481
 -2     27482     26773     26705     27413     27487     26779     27415     27488     27489     26780
 -1      3823    4    0    1
 -2      8237      8327      8337      8247      8238      8328      8338      8248     27415     27488
 -2     27489     26780     26712     27420     27494     26786     27422     27495     27496     26787
 -1      3824    4    0    1
 -2      8238      8328      8338      8248      8239      8329      8339      8249     27422     27495
 -2     27496     26787     26719     27427     27501     26793     27429     27502     27503     26794
 -1      3825    4    0    1
 -2      8239      8329      8339      8249      8240      8330      8340      8250     27429     27502
 -2     27503     26794     26726     27434     27508     26800     27436     27509     27510     26801
 -1      3826    4    0    1
 -2      8240      8330      8340      8250      8241      8331      8341      8251     27436     27509
 -2     27510     26801     26733     27441     27515     26807     27443     27516     27517     26808
 -1      3827    4    0    1
 -2      8241      8331      8341      8251      8242      8332      8342      8252     27443     27516
 -2     27517     26808     26740     27448     27522     26814     27450     27523     27524     26815
 -1      3828    4    0    1
 -2      8242      8332      8342      8252      5033      5042      5043      5034     27450     27523
 -2     27524     26815     26747     27455     27529     26821      5836      5838      5839      5809
 -1      3829    4    0    1
 -2       637       646       647       638      8243      8333      8343      8253      1442      1444
 -2      1445      1415     26751     27459     27533     26825     27461     27534     27535     26826
 -1      3830    4    0    1
 -2      8243      8333      8343      8253      8244      8334      8344      8254     27461     27534
 -2     27535     26826     26758     27466     27540     26832     27468     27541     27542     26833
 -1      3831    4    0    1
 -2      8244      8334      8344      8254      8245      8335      8345      8255     27468     27541
 -2     27542     26833     26765     27473     27547     26839     27475     27548     27549     26840
 -1      3832    4    0    1
 -2      8245      8335      8345      8255      8246      8336      8346      8256     27475     27548
 -2     27549     26840     26772     27480     27554     26846     27482     27555     27556     26847
 -1      3833    4    0    1
 -2      8246      8336      8346      8256      8247      8337      8347      8257     27482     27555
 -2     27556     26847     26779     27487     27561     26853     27489     27562     27563     26854
 -1      3834    4    0    1
 -2      8247      8337      8347      8257      8248      8338      8348      8258     27489     27562
 -2     27563     26854     26786     27494     27568     26860     27496     27569     27570     26861
 -1      3835    4    0    1
 -2      8248      8338      8348      8258      8249      8339      8349      8259     27496     27569
 -2     27570     26861     26793     27501     27575     26867     27503     27576     27577     26868
 -1      3836    4    0    1
 -2      8249      8339      8349      8259      8250      8340      8350      8260     27503     27576
 -2     27577     26868     26800     27508     27582     26874     27510     27583     27584     26875
 -1      3837    4    0    1
 -2      8250      8340      8350      8260      8251      8341      8351      8261     27510     27583
 -2     27584     26875     26807     27515     27589     26881     27517     27590     27591     26882
 -1      3838    4    0    1
 -2      8251      8341      8351      8261      8252      8342      8352      8262     27517     27590
 -2     27591     26882     26814     27522     27596     26888     27524     27597     27598     26889
 -1      3839    4    0    1
 -2      8252      8342      8352      8262      5034      5043      5044      5035     27524     27597
 -2     27598     26889     26821     27529     27603     26895      5839      5841      5842      5812
 -1      3840    4    0    1
 -2       638       647        89        90      8253      8343      3184      3194      1445      1447
 -2       119      1418     26825     27533      3518      3550     27535     27607      3551     26899
 -1      3841    4    0    1
 -2      8253      8343      3184      3194      8254      8344      3185      3195     27535     27607
 -2      3551     26899     26832     27540      3521      3553     27542     27611      3554     26903
 -1      3842    4    0    1
 -2      8254      8344      3185      3195      8255      8345      3186      3196     27542     27611
 -2      3554     26903     26839     27547      3524      3556     27549     27615      3557     26907
 -1      3843    4    0    1
 -2      8255      8345      3186      3196      8256      8346      3187      3197     27549     27615
 -2      3557     26907     26846     27554      3527      3559     27556     27619      3560     26911
 -1      3844    4    0    1
 -2      8256      8346      3187      3197      8257      8347      3188      3198     27556     27619
 -2      3560     26911     26853     27561      3530      3562     27563     27623      3563     26915
 -1      3845    4    0    1
 -2      8257      8347      3188      3198      8258      8348      3189      3199     27563     27623
 -2      3563     26915     26860     27568      3533      3565     27570     27627      3566     26919
 -1      3846    4    0    1
 -2      8258      8348      3189      3199      8259      8349      3190      3200     27570     27627
 -2      3566     26919     26867     27575      3536      3568     27577     27631      3569     26923
 -1      3847    4    0    1
 -2      8259      8349      3190      3200      8260      8350      3191      3201     27577     27631
 -2      3569     26923     26874     27582      3539      3571     27584     27635      3572     26927
 -1      3848    4    0    1
 -2      8260      8350      3191      3201      8261      8351      3192      3202     27584     27635
 -2      3572     26927     26881     27589      3542      3574     27591     27639      3575     26931
 -1      3849    4    0    1
 -2      8261      8351      3192      3202      8262      8352      3193      3203     27591     27639
 -2      3575     26931     26888     27596      3545      3577     27598     27643      3578     26935
 -1      3850    4    0    1
 -2      8262      8352      3193      3203      5035      5044       245       246     27598     27643
 -2      3578     26935     26895     27603      3548      3580      5842      5844       275      5815
 -1      3851    4    0    1
 -2        35        36       648       639      1786      1796      8353      8263        65      1449
 -2      1450      1420      2648      2680     27649     26941      2681     27650     27651     26942
 -1      3852    4    0    1
 -2      1786      1796      8353      8263      1787      1797      8354      8264      2681     27650
 -2     27651     26942      2651      2683     27656     26948      2684     27657     27658     26949
 -1      3853    4    0    1
 -2      1787      1797      8354      8264      1788      1798      8355      8265      2684     27657
 -2     27658     26949      2654      2686     27663     26955      2687     27664     27665     26956
 -1      3854    4    0    1
 -2      1788      1798      8355      8265      1789      1799      8356      8266      2687     27664
 -2     27665     26956      2657      2689     27670     26962      2690     27671     27672     26963
 -1      3855    4    0    1
 -2      1789      1799      8356      8266      1790      1800      8357      8267      2690     27671
 -2     27672     26963      2660      2692     27677     26969      2693     27678     27679     26970
 -1      3856    4    0    1
 -2      1790      1800      8357      8267      1791      1801      8358      8268      2693     27678
 -2     27679     26970      2663      2695     27684     26976      2696     27685     27686     26977
 -1      3857    4    0    1
 -2      1791      1801      8358      8268      1792      1802      8359      8269      2696     27685
 -2     27686     26977      2666      2698     27691     26983      2699     27692     27693     26984
 -1      3858    4    0    1
 -2      1792      1802      8359      8269      1793      1803      8360      8270      2699     27692
 -2     27693     26984      2669      2701     27698     26990      2702     27699     27700     26991
 -1      3859    4    0    1
 -2      1793      1803      8360      8270      1794      1804      8361      8271      2702     27699
 -2     27700     26991      2672      2704     27705     26997      2705     27706     27707     26998
 -1      3860    4    0    1
 -2      1794      1804      8361      8271      1795      1805      8362      8272      2705     27706
 -2     27707     26998      2675      2707     27712     27004      2708     27713     27714     27005
 -1      3861    4    0    1
 -2      1795      1805      8362      8272       191       192      5045      5036      2708     27713
 -2     27714     27005      2678      2710     27719     27011       221      5846      5847      5817
 -1      3862    4    0    1
 -2       639       648       649       640      8263      8353      8363      8273      1450      1452
 -2      1453      1423     26941     27649     27723     27015     27651     27724     27725     27016
 -1      3863    4    0    1
 -2      8263      8353      8363      8273      8264      8354      8364      8274     27651     27724
 -2     27725     27016     26948     27656     27730     27022     27658     27731     27732     27023
 -1      3864    4    0    1
 -2      8264      8354      8364      8274      8265      8355      8365      8275     27658     27731
 -2     27732     27023     26955     27663     27737     27029     27665     27738     27739     27030
 -1      3865    4    0    1
 -2      8265      8355      8365      8275      8266      8356      8366      8276     27665     27738
 -2     27739     27030     26962     27670     27744     27036     27672     27745     27746     27037
 -1      3866    4    0    1
 -2      8266      8356      8366      8276      8267      8357      8367      8277     27672     27745
 -2     27746     27037     26969     27677     27751     27043     27679     27752     27753     27044
 -1      3867    4    0    1
 -2      8267      8357      8367      8277      8268      8358      8368      8278     27679     27752
 -2     27753     27044     26976     27684     27758     27050     27686     27759     27760     27051
 -1      3868    4    0    1
 -2      8268      8358      8368      8278      8269      8359      8369      8279     27686     27759
 -2     27760     27051     26983     27691     27765     27057     27693     27766     27767     27058
 -1      3869    4    0    1
 -2      8269      8359      8369      8279      8270      8360      8370      8280     27693     27766
 -2     27767     27058     26990     27698     27772     27064     27700     27773     27774     27065
 -1      3870    4    0    1
 -2      8270      8360      8370      8280      8271      8361      8371      8281     27700     27773
 -2     27774     27065     26997     27705     27779     27071     27707     27780     27781     27072
 -1      3871    4    0    1
 -2      8271      8361      8371      8281      8272      8362      8372      8282     27707     27780
 -2     27781     27072     27004     27712     27786     27078     27714     27787     27788     27079
 -1      3872    4    0    1
 -2      8272      8362      8372      8282      5036      5045      5046      5037     27714     27787
 -2     27788     27079     27011     27719     27793     27085      5847      5849      5850      5820
 -1      3873    4    0    1
 -2       640       649       650       641      8273      8363      8373      8283      1453      1455
 -2      1456      1426     27015     27723     27797     27089     27725     27798     27799     27090
 -1      3874    4    0    1
 -2      8273      8363      8373      8283      8274      8364      8374      8284     27725     27798
 -2     27799     27090     27022     27730     27804     27096     27732     27805     27806     27097
 -1      3875    4    0    1
 -2      8274      8364      8374      8284      8275      8365      8375      8285     27732     27805
 -2     27806     27097     27029     27737     27811     27103     27739     27812     27813     27104
 -1      3876    4    0    1
 -2      8275      8365      8375      8285      8276      8366      8376      8286     27739     27812
 -2     27813     27104     27036     27744     27818     27110     27746     27819     27820     27111
 -1      3877    4    0    1
 -2      8276      8366      8376      8286      8277      8367      8377      8287     27746     27819
 -2     27820     27111     27043     27751     27825     27117     27753     27826     27827     27118
 -1      3878    4    0    1
 -2      8277      8367      8377      8287      8278      8368      8378      8288     27753     27826
 -2     27827     27118     27050     27758     27832     27124     27760     27833     27834     27125
 -1      3879    4    0    1
 -2      8278      8368      8378      8288      8279      8369      8379      8289     27760     27833
 -2     27834     27125     27057     27765     27839     27131     27767     27840     27841     27132
 -1      3880    4    0    1
 -2      8279      8369      8379      8289      8280      8370      8380      8290     27767     27840
 -2     27841     27132     27064     27772     27846     27138     27774     27847     27848     27139
 -1      3881    4    0    1
 -2      8280      8370      8380      8290      8281      8371      8381      8291     27774     27847
 -2     27848     27139     27071     27779     27853     27145     27781     27854     27855     27146
 -1      3882    4    0    1
 -2      8281      8371      8381      8291      8282      8372      8382      8292     27781     27854
 -2     27855     27146     27078     27786     27860     27152     27788     27861     27862     27153
 -1      3883    4    0    1
 -2      8282      8372      8382      8292      5037      5046      5047      5038     27788     27861
 -2     27862     27153     27085     27793     27867     27159      5850      5852      5853      5823
 -1      3884    4    0    1
 -2       641       650       651       642      8283      8373      8383      8293      1456      1458
 -2      1459      1429     27089     27797     27871     27163     27799     27872     27873     27164
 -1      3885    4    0    1
 -2      8283      8373      8383      8293      8284      8374      8384      8294     27799     27872
 -2     27873     27164     27096     27804     27878     27170     27806     27879     27880     27171
 -1      3886    4    0    1
 -2      8284      8374      8384      8294      8285      8375      8385      8295     27806     27879
 -2     27880     27171     27103     27811     27885     27177     27813     27886     27887     27178
 -1      3887    4    0    1
 -2      8285      8375      8385      8295      8286      8376      8386      8296     27813     27886
 -2     27887     27178     27110     27818     27892     27184     27820     27893     27894     27185
 -1      3888    4    0    1
 -2      8286      8376      8386      8296      8287      8377      8387      8297     27820     27893
 -2     27894     27185     27117     27825     27899     27191     27827     27900     27901     27192
 -1      3889    4    0    1
 -2      8287      8377      8387      8297      8288      8378      8388      8298     27827     27900
 -2     27901     27192     27124     27832     27906     27198     27834     27907     27908     27199
 -1      3890    4    0    1
 -2      8288      8378      8388      8298      8289      8379      8389      8299     27834     27907
 -2     27908     27199     27131     27839     27913     27205     27841     27914     27915     27206
 -1      3891    4    0    1
 -2      8289      8379      8389      8299      8290      8380      8390      8300     27841     27914
 -2     27915     27206     27138     27846     27920     27212     27848     27921     27922     27213
 -1      3892    4    0    1
 -2      8290      8380      8390      8300      8291      8381      8391      8301     27848     27921
 -2     27922     27213     27145     27853     27927     27219     27855     27928     27929     27220
 -1      3893    4    0    1
 -2      8291      8381      8391      8301      8292      8382      8392      8302     27855     27928
 -2     27929     27220     27152     27860     27934     27226     27862     27935     27936     27227
 -1      3894    4    0    1
 -2      8292      8382      8392      8302      5038      5047      5048      5039     27862     27935
 -2     27936     27227     27159     27867     27941     27233      5853      5855      5856      5826
 -1      3895    4    0    1
 -2       642       651       652       643      8293      8383      8393      8303      1459      1461
 -2      1462      1432     27163     27871     27945     27237     27873     27946     27947     27238
 -1      3896    4    0    1
 -2      8293      8383      8393      8303      8294      8384      8394      8304     27873     27946
 -2     27947     27238     27170     27878     27952     27244     27880     27953     27954     27245
 -1      3897    4    0    1
 -2      8294      8384      8394      8304      8295      8385      8395      8305     27880     27953
 -2     27954     27245     27177     27885     27959     27251     27887     27960     27961     27252
 -1      3898    4    0    1
 -2      8295      8385      8395      8305      8296      8386      8396      8306     27887     27960
 -2     27961     27252     27184     27892     27966     27258     27894     27967     27968     27259
 -1      3899    4    0    1
 -2      8296      8386      8396      8306      8297      8387      8397      8307     27894     27967
 -2     27968     27259     27191     27899     27973     27265     27901     27974     27975     27266
 -1      3900    4    0    1
 -2      8297      8387      8397      8307      8298      8388      8398      8308     27901     27974
 -2     27975     27266     27198     27906     27980     27272     27908     27981     27982     27273
 -1      3901    4    0    1
 -2      8298      8388      8398      8308      8299      8389      8399      8309     27908     27981
 -2     27982     27273     27205     27913     27987     27279     27915     27988     27989     27280
 -1      3902    4    0    1
 -2      8299      8389      8399      8309      8300      8390      8400      8310     27915     27988
 -2     27989     27280     27212     27920     27994     27286     27922     27995     27996     27287
 -1      3903    4    0    1
 -2      8300      8390      8400      8310      8301      8391      8401      8311     27922     27995
 -2     27996     27287     27219     27927     28001     27293     27929     28002     28003     27294
 -1      3904    4    0    1
 -2      8301      8391      8401      8311      8302      8392      8402      8312     27929     28002
 -2     28003     27294     27226     27934     28008     27300     27936     28009     28010     27301
 -1      3905    4    0    1
 -2      8302      8392      8402      8312      5039      5048      5049      5040     27936     28009
 -2     28010     27301     27233     27941     28015     27307      5856      5858      5859      5829
 -1      3906    4    0    1
 -2       643       652       653       644      8303      8393      8403      8313      1462      1464
 -2      1465      1435     27237     27945     28019     27311     27947     28020     28021     27312
 -1      3907    4    0    1
 -2      8303      8393      8403      8313      8304      8394      8404      8314     27947     28020
 -2     28021     27312     27244     27952     28026     27318     27954     28027     28028     27319
 -1      3908    4    0    1
 -2      8304      8394      8404      8314      8305      8395      8405      8315     27954     28027
 -2     28028     27319     27251     27959     28033     27325     27961     28034     28035     27326
 -1      3909    4    0    1
 -2      8305      8395      8405      8315      8306      8396      8406      8316     27961     28034
 -2     28035     27326     27258     27966     28040     27332     27968     28041     28042     27333
 -1      3910    4    0    1
 -2      8306      8396      8406      8316      8307      8397      8407      8317     27968     28041
 -2     28042     27333     27265     27973     28047     27339     27975     28048     28049     27340
 -1      3911    4    0    1
 -2      8307      8397      8407      8317      8308      8398      8408      8318     27975     28048
 -2     28049     27340     27272     27980     28054     27346     27982     28055     28056     27347
 -1      3912    4    0    1
 -2      8308      8398      8408      8318      8309      8399      8409      8319     27982     28055
 -2     28056     27347     27279     27987     28061     27353     27989     28062     28063     27354
 -1      3913    4    0    1
 -2      8309      8399      8409      8319      8310      8400      8410      8320     27989     28062
 -2     28063     27354     27286     27994     28068     27360     27996     28069     28070     27361
 -1      3914    4    0    1
 -2      8310      8400      8410      8320      8311      8401      8411      8321     27996     28069
 -2     28070     27361     27293     28001     28075     27367     28003     28076     28077     27368
 -1      3915    4    0    1
 -2      8311      8401      8411      8321      8312      8402      8412      8322     28003     28076
 -2     28077     27368     27300     28008     28082     27374     28010     28083     28084     27375
 -1      3916    4    0    1
 -2      8312      8402      8412      8322      5040      5049      5050      5041     28010     28083
 -2     28084     27375     27307     28015     28089     27381      5859      5861      5862      5832
 -1      3917    4    0    1
 -2       644       653       654       645      8313      8403      8413      8323      1465      1467
 -2      1468      1438     27311     28019     28093     27385     28021     28094     28095     27386
 -1      3918    4    0    1
 -2      8313      8403      8413      8323      8314      8404      8414      8324     28021     28094
 -2     28095     27386     27318     28026     28100     27392     28028     28101     28102     27393
 -1      3919    4    0    1
 -2      8314      8404      8414      8324      8315      8405      8415      8325     28028     28101
 -2     28102     27393     27325     28033     28107     27399     28035     28108     28109     27400
 -1      3920    4    0    1
 -2      8315      8405      8415      8325      8316      8406      8416      8326     28035     28108
 -2     28109     27400     27332     28040     28114     27406     28042     28115     28116     27407
 -1      3921    4    0    1
 -2      8316      8406      8416      8326      8317      8407      8417      8327     28042     28115
 -2     28116     27407     27339     28047     28121     27413     28049     28122     28123     27414
 -1      3922    4    0    1
 -2      8317      8407      8417      8327      8318      8408      8418      8328     28049     28122
 -2     28123     27414     27346     28054     28128     27420     28056     28129     28130     27421
 -1      3923    4    0    1
 -2      8318      8408      8418      8328      8319      8409      8419      8329     28056     28129
 -2     28130     27421     27353     28061     28135     27427     28063     28136     28137     27428
 -1      3924    4    0    1
 -2      8319      8409      8419      8329      8320      8410      8420      8330     28063     28136
 -2     28137     27428     27360     28068     28142     27434     28070     28143     28144     27435
 -1      3925    4    0    1
 -2      8320      8410      8420      8330      8321      8411      8421      8331     28070     28143
 -2     28144     27435     27367     28075     28149     27441     28077     28150     28151     27442
 -1      3926    4    0    1
 -2      8321      8411      8421      8331      8322      8412      8422      8332     28077     28150
 -2     28151     27442     27374     28082     28156     27448     28084     28157     28158     27449
 -1      3927    4    0    1
 -2      8322      8412      8422      8332      5041      5050      5051      5042     28084     28157
 -2     28158     27449     27381     28089     28163     27455      5862      5864      5865      5835
 -1      3928    4    0    1
 -2       645       654       655       646      8323      8413      8423      8333      1468      1470
 -2      1471      1441     27385     28093     28167     27459     28095     28168     28169     27460
 -1      3929    4    0    1
 -2      8323      8413      8423      8333      8324      8414      8424      8334     28095     28168
 -2     28169     27460     27392     28100     28174     27466     28102     28175     28176     27467
 -1      3930    4    0    1
 -2      8324      8414      8424      8334      8325      8415      8425      8335     28102     28175
 -2     28176     27467     27399     28107     28181     27473     28109     28182     28183     27474
 -1      3931    4    0    1
 -2      8325      8415      8425      8335      8326      8416      8426      8336     28109     28182
 -2     28183     27474     27406     28114     28188     27480     28116     28189     28190     27481
 -1      3932    4    0    1
 -2      8326      8416      8426      8336      8327      8417      8427      8337     28116     28189
 -2     28190     27481     27413     28121     28195     27487     28123     28196     28197     27488
 -1      3933    4    0    1
 -2      8327      8417      8427      8337      8328      8418      8428      8338     28123     28196
 -2     28197     27488     27420     28128     28202     27494     28130     28203     28204     27495
 -1      3934    4    0    1
 -2      8328      8418      8428      8338      8329      8419      8429      8339     28130     28203
 -2     28204     27495     27427     28135     28209     27501     28137     28210     28211     27502
 -1      3935    4    0    1
 -2      8329      8419      8429      8339      8330      8420      8430      8340     28137     28210
 -2     28211     27502     27434     28142     28216     27508     28144     28217     28218     27509
 -1      3936    4    0    1
 -2      8330      8420      8430      8340      8331      8421      8431      8341     28144     28217
 -2     28218     27509     27441     28149     28223     27515     28151     28224     28225     27516
 -1      3937    4    0    1
 -2      8331      8421      8431      8341      8332      8422      8432      8342     28151     28224
 -2     28225     27516     27448     28156     28230     27522     28158     28231     28232     27523
 -1      3938    4    0    1
 -2      8332      8422      8432      8342      5042      5051      5052      5043     28158     28231
 -2     28232     27523     27455     28163     28237     27529      5865      5867      5868      5838
 -1      3939    4    0    1
 -2       646       655       656       647      8333      8423      8433      8343      1471      1473
 -2      1474      1444     27459     28167     28241     27533     28169     28242     28243     27534
 -1      3940    4    0    1
 -2      8333      8423      8433      8343      8334      8424      8434      8344     28169     28242
 -2     28243     27534     27466     28174     28248     27540     28176     28249     28250     27541
 -1      3941    4    0    1
 -2      8334      8424      8434      8344      8335      8425      8435      8345     28176     28249
 -2     28250     27541     27473     28181     28255     27547     28183     28256     28257     27548
 -1      3942    4    0    1
 -2      8335      8425      8435      8345      8336      8426      8436      8346     28183     28256
 -2     28257     27548     27480     28188     28262     27554     28190     28263     28264     27555
 -1      3943    4    0    1
 -2      8336      8426      8436      8346      8337      8427      8437      8347     28190     28263
 -2     28264     27555     27487     28195     28269     27561     28197     28270     28271     27562
 -1      3944    4    0    1
 -2      8337      8427      8437      8347      8338      8428      8438      8348     28197     28270
 -2     28271     27562     27494     28202     28276     27568     28204     28277     28278     27569
 -1      3945    4    0    1
 -2      8338      8428      8438      8348      8339      8429      8439      8349     28204     28277
 -2     28278     27569     27501     28209     28283     27575     28211     28284     28285     27576
 -1      3946    4    0    1
 -2      8339      8429      8439      8349      8340      8430      8440      8350     28211     28284
 -2     28285     27576     27508     28216     28290     27582     28218     28291     28292     27583
 -1      3947    4    0    1
 -2      8340      8430      8440      8350      8341      8431      8441      8351     28218     28291
 -2     28292     27583     27515     28223     28297     27589     28225     28298     28299     27590
 -1      3948    4    0    1
 -2      8341      8431      8441      8351      8342      8432      8442      8352     28225     28298
 -2     28299     27590     27522     28230     28304     27596     28232     28305     28306     27597
 -1      3949    4    0    1
 -2      8342      8432      8442      8352      5043      5052      5053      5044     28232     28305
 -2     28306     27597     27529     28237     28311     27603      5868      5870      5871      5841
 -1      3950    4    0    1
 -2       647       656        88        89      8343      8433      3174      3184      1474      1476
 -2       118      1447     27533     28241      3486      3518     28243     28315      3519     27607
 -1      3951    4    0    1
 -2      8343      8433      3174      3184      8344      8434      3175      3185     28243     28315
 -2      3519     27607     27540     28248      3489      3521     28250     28319      3522     27611
 -1      3952    4    0    1
 -2      8344      8434      3175      3185      8345      8435      3176      3186     28250     28319
 -2      3522     27611     27547     28255      3492      3524     28257     28323      3525     27615
 -1      3953    4    0    1
 -2      8345      8435      3176      3186      8346      8436      3177      3187     28257     28323
 -2      3525     27615     27554     28262      3495      3527     28264     28327      3528     27619
 -1      3954    4    0    1
 -2      8346      8436      3177      3187      8347      8437      3178      3188     28264     28327
 -2      3528     27619     27561     28269      3498      3530     28271     28331      3531     27623
 -1      3955    4    0    1
 -2      8347      8437      3178      3188      8348      8438      3179      3189     28271     28331
 -2      3531     27623     27568     28276      3501      3533     28278     28335      3534     27627
 -1      3956    4    0    1
 -2      8348      8438      3179      3189      8349      8439      3180      3190     28278     28335
 -2      3534     27627     27575     28283      3504      3536     28285     28339      3537     27631
 -1      3957    4    0    1
 -2      8349      8439      3180      3190      8350      8440      3181      3191     28285     28339
 -2      3537     27631     27582     28290      3507      3539     28292     28343      3540     27635
 -1      3958    4    0    1
 -2      8350      8440      3181      3191      8351      8441      3182      3192     28292     28343
 -2      3540     27635     27589     28297      3510      3542     28299     28347      3543     27639
 -1      3959    4    0    1
 -2      8351      8441      3182      3192      8352      8442      3183      3193     28299     28347
 -2      3543     27639     27596     28304      3513      3545     28306     28351      3546     27643
 -1      3960    4    0    1
 -2      8352      8442      3183      3193      5044      5053       244       245     28306     28351
 -2      3546     27643     27603     28311      3516      3548      5871      5873       274      5844
 -1      3961    4    0    1
 -2        36        37       657       648      1796      1806      8443      8353        66      1478
 -2      1479      1449      2680      2712     28357     27649      2713     28358     28359     27650
 -1      3962    4    0    1
 -2      1796      1806      8443      8353      1797      1807      8444      8354      2713     28358
 -2     28359     27650      2683      2715     28364     27656      2716     28365     28366     27657
 -1      3963    4    0    1
 -2      1797      1807      8444      8354      1798      1808      8445      8355      2716     28365
 -2     28366     27657      2686      2718     28371     27663      2719     28372     28373     27664
 -1      3964    4    0    1
 -2      1798      1808      8445      8355      1799      1809      8446      8356      2719     28372
 -2     28373     27664      2689      2721     28378     27670      2722     28379     28380     27671
 -1      3965    4    0    1
 -2      1799      1809      8446      8356      1800      1810      8447      8357      2722     28379
 -2     28380     27671      2692      2724     28385     27677      2725     28386     28387     27678
 -1      3966    4    0    1
 -2      1800      1810      8447      8357      1801      1811      8448      8358      2725     28386
 -2     28387     27678      2695      2727     28392     27684      2728     28393     28394     27685
 -1      3967    4    0    1
 -2      1801      1811      8448      8358      1802      1812      8449      8359      2728     28393
 -2     28394     27685      2698      2730     28399     27691      2731     28400     28401     27692
 -1      3968    4    0    1
 -2      1802      1812      8449      8359      1803      1813      8450      8360      2731     28400
 -2     28401     27692      2701      2733     28406     27698      2734     28407     28408     27699
 -1      3969    4    0    1
 -2      1803      1813      8450      8360      1804      1814      8451      8361      2734     28407
 -2     28408     27699      2704      2736     28413     27705      2737     28414     28415     27706
 -1      3970    4    0    1
 -2      1804      1814      8451      8361      1805      1815      8452      8362      2737     28414
 -2     28415     27706      2707      2739     28420     27712      2740     28421     28422     27713
 -1      3971    4    0    1
 -2      1805      1815      8452      8362       192       193      5054      5045      2740     28421
 -2     28422     27713      2710      2742     28427     27719       222      5875      5876      5846
 -1      3972    4    0    1
 -2       648       657       658       649      8353      8443      8453      8363      1479      1481
 -2      1482      1452     27649     28357     28431     27723     28359     28432     28433     27724
 -1      3973    4    0    1
 -2      8353      8443      8453      8363      8354      8444      8454      8364     28359     28432
 -2     28433     27724     27656     28364     28438     27730     28366     28439     28440     27731
 -1      3974    4    0    1
 -2      8354      8444      8454      8364      8355      8445      8455      8365     28366     28439
 -2     28440     27731     27663     28371     28445     27737     28373     28446     28447     27738
 -1      3975    4    0    1
 -2      8355      8445      8455      8365      8356      8446      8456      8366     28373     28446
 -2     28447     27738     27670     28378     28452     27744     28380     28453     28454     27745
 -1      3976    4    0    1
 -2      8356      8446      8456      8366      8357      8447      8457      8367     28380     28453
 -2     28454     27745     27677     28385     28459     27751     28387     28460     28461     27752
 -1      3977    4    0    1
 -2      8357      8447      8457      8367      8358      8448      8458      8368     28387     28460
 -2     28461     27752     27684     28392     28466     27758     28394     28467     28468     27759
 -1      3978    4    0    1
 -2      8358      8448      8458      8368      8359      8449      8459      8369     28394     28467
 -2     28468     27759     27691     28399     28473     27765     28401     28474     28475     27766
 -1      3979    4    0    1
 -2      8359      8449      8459      8369      8360      8450      8460      8370     28401     28474
 -2     28475     27766     27698     28406     28480     27772     28408     28481     28482     27773
 -1      3980    4    0    1
 -2      8360      8450      8460      8370      8361      8451      8461      8371     28408     28481
 -2     28482     27773     27705     28413     28487     27779     28415     28488     28489     27780
 -1      3981    4    0    1
 -2      8361      8451      8461      8371      8362      8452      8462      8372     28415     28488
 -2     28489     27780     27712     28420     28494     27786     28422     28495     28496     27787
 -1      3982    4    0    1
 -2      8362      8452      8462      8372      5045      5054      5055      5046     28422     28495
 -2     28496     27787     27719     28427     28501     27793      5876      5878      5879      5849
 -1      3983    4    0    1
 -2       649       658       659       650      8363      8453      8463      8373      1482      1484
 -2      1485      1455     27723     28431     28505     27797     28433     28506     28507     27798
 -1      3984    4    0    1
 -2      8363      8453      8463      8373      8364      8454      8464      8374     28433     28506
 -2     28507     27798     27730     28438     28512     27804     28440     28513     28514     27805
 -1      3985    4    0    1
 -2      8364      8454      8464      8374      8365      8455      8465      8375     28440     28513
 -2     28514     27805     27737     28445     28519     27811     28447     28520     28521     27812
 -1      3986    4    0    1
 -2      8365      8455      8465      8375      8366      8456      8466      8376     28447     28520
 -2     28521     27812     27744     28452     28526     27818     28454     28527     28528     27819
 -1      3987    4    0    1
 -2      8366      8456      8466      8376      8367      8457      8467      8377     28454     28527
 -2     28528     27819     27751     28459     28533     27825     28461     28534     28535     27826
 -1      3988    4    0    1
 -2      8367      8457      8467      8377      8368      8458      8468      8378     28461     28534
 -2     28535     27826     27758     28466     28540     27832     28468     28541     28542     27833
 -1      3989    4    0    1
 -2      8368      8458      8468      8378      8369      8459      8469      8379     28468     28541
 -2     28542     27833     27765     28473     28547     27839     28475     28548     28549     27840
 -1      3990    4    0    1
 -2      8369      8459      8469      8379      8370      8460      8470      8380     28475     28548
 -2     28549     27840     27772     28480     28554     27846     28482     28555     28556     27847
 -1      3991    4    0    1
 -2      8370      8460      8470      8380      8371      8461      8471      8381     28482     28555
 -2     28556     27847     27779     28487     28561     27853     28489     28562     28563     27854
 -1      3992    4    0    1
 -2      8371      8461      8471      8381      8372      8462      8472      8382     28489     28562
 -2     28563     27854     27786     28494     28568     27860     28496     28569     28570     27861
 -1      3993    4    0    1
 -2      8372      8462      8472      8382      5046      5055      5056      5047     28496     28569
 -2     28570     27861     27793     28501     28575     27867      5879      5881      5882      5852
 -1      3994    4    0    1
 -2       650       659       660       651      8373      8463      8473      8383      1485      1487
 -2      1488      1458     27797     28505     28579     27871     28507     28580     28581     27872
 -1      3995    4    0    1
 -2      8373      8463      8473      8383      8374      8464      8474      8384     28507     28580
 -2     28581     27872     27804     28512     28586     27878     28514     28587     28588     27879
 -1      3996    4    0    1
 -2      8374      8464      8474      8384      8375      8465      8475      8385     28514     28587
 -2     28588     27879     27811     28519     28593     27885     28521     28594     28595     27886
 -1      3997    4    0    1
 -2      8375      8465      8475      8385      8376      8466      8476      8386     28521     28594
 -2     28595     27886     27818     28526     28600     27892     28528     28601     28602     27893
 -1      3998    4    0    1
 -2      8376      8466      8476      8386      8377      8467      8477      8387     28528     28601
 -2     28602     27893     27825     28533     28607     27899     28535     28608     28609     27900
 -1      3999    4    0    1
 -2      8377      8467      8477      8387      8378      8468      8478      8388     28535     28608
 -2     28609     27900     27832     28540     28614     27906     28542     28615     28616     27907
 -1      4000    4    0    1
 -2      8378      8468      8478      8388      8379      8469      8479      8389     28542     28615
 -2     28616     27907     27839     28547     28621     27913     28549     28622     28623     27914
 -1      4001    4    0    1
 -2      8379      8469      8479      8389      8380      8470      8480      8390     28549     28622
 -2     28623     27914     27846     28554     28628     27920     28556     28629     28630     27921
 -1      4002    4    0    1
 -2      8380      8470      8480      8390      8381      8471      8481      8391     28556     28629
 -2     28630     27921     27853     28561     28635     27927     28563     28636     28637     27928
 -1      4003    4    0    1
 -2      8381      8471      8481      8391      8382      8472      8482      8392     28563     28636
 -2     28637     27928     27860     28568     28642     27934     28570     28643     28644     27935
 -1      4004    4    0    1
 -2      8382      8472      8482      8392      5047      5056      5057      5048     28570     28643
 -2     28644     27935     27867     28575     28649     27941      5882      5884      5885      5855
 -1      4005    4    0    1
 -2       651       660       661       652      8383      8473      8483      8393      1488      1490
 -2      1491      1461     27871     28579     28653     27945     28581     28654     28655     27946
 -1      4006    4    0    1
 -2      8383      8473      8483      8393      8384      8474      8484      8394     28581     28654
 -2     28655     27946     27878     28586     28660     27952     28588     28661     28662     27953
 -1      4007    4    0    1
 -2      8384      8474      8484      8394      8385      8475      8485      8395     28588     28661
 -2     28662     27953     27885     28593     28667     27959     28595     28668     28669     27960
 -1      4008    4    0    1
 -2      8385      8475      8485      8395      8386      8476      8486      8396     28595     28668
 -2     28669     27960     27892     28600     28674     27966     28602     28675     28676     27967
 -1      4009    4    0    1
 -2      8386      8476      8486      8396      8387      8477      8487      8397     28602     28675
 -2     28676     27967     27899     28607     28681     27973     28609     28682     28683     27974
 -1      4010    4    0    1
 -2      8387      8477      8487      8397      8388      8478      8488      8398     28609     28682
 -2     28683     27974     27906     28614     28688     27980     28616     28689     28690     27981
 -1      4011    4    0    1
 -2      8388      8478      8488      8398      8389      8479      8489      8399     28616     28689
 -2     28690     27981     27913     28621     28695     27987     28623     28696     28697     27988
 -1      4012    4    0    1
 -2      8389      8479      8489      8399      8390      8480      8490      8400     28623     28696
 -2     28697     27988     27920     28628     28702     27994     28630     28703     28704     27995
 -1      4013    4    0    1
 -2      8390      8480      8490      8400      8391      8481      8491      8401     28630     28703
 -2     28704     27995     27927     28635     28709     28001     28637     28710     28711     28002
 -1      4014    4    0    1
 -2      8391      8481      8491      8401      8392      8482      8492      8402     28637     28710
 -2     28711     28002     27934     28642     28716     28008     28644     28717     28718     28009
 -1      4015    4    0    1
 -2      8392      8482      8492      8402      5048      5057      5058      5049     28644     28717
 -2     28718     28009     27941     28649     28723     28015      5885      5887      5888      5858
 -1      4016    4    0    1
 -2       652       661       662       653      8393      8483      8493      8403      1491      1493
 -2      1494      1464     27945     28653     28727     28019     28655     28728     28729     28020
 -1      4017    4    0    1
 -2      8393      8483      8493      8403      8394      8484      8494      8404     28655     28728
 -2     28729     28020     27952     28660     28734     28026     28662     28735     28736     28027
 -1      4018    4    0    1
 -2      8394      8484      8494      8404      8395      8485      8495      8405     28662     28735
 -2     28736     28027     27959     28667     28741     28033     28669     28742     28743     28034
 -1      4019    4    0    1
 -2      8395      8485      8495      8405      8396      8486      8496      8406     28669     28742
 -2     28743     28034     27966     28674     28748     28040     28676     28749     28750     28041
 -1      4020    4    0    1
 -2      8396      8486      8496      8406      8397      8487      8497      8407     28676     28749
 -2     28750     28041     27973     28681     28755     28047     28683     28756     28757     28048
 -1      4021    4    0    1
 -2      8397      8487      8497      8407      8398      8488      8498      8408     28683     28756
 -2     28757     28048     27980     28688     28762     28054     28690     28763     28764     28055
 -1      4022    4    0    1
 -2      8398      8488      8498      8408      8399      8489      8499      8409     28690     28763
 -2     28764     28055     27987     28695     28769     28061     28697     28770     28771     28062
 -1      4023    4    0    1
 -2      8399      8489      8499      8409      8400      8490      8500      8410     28697     28770
 -2     28771     28062     27994     28702     28776     28068     28704     28777     28778     28069
 -1      4024    4    0    1
 -2      8400      8490      8500      8410      8401      8491      8501      8411     28704     28777
 -2     28778     28069     28001     28709     28783     28075     28711     28784     28785     28076
 -1      4025    4    0    1
 -2      8401      8491      8501      8411      8402      8492      8502      8412     28711     28784
 -2     28785     28076     28008     28716     28790     28082     28718     28791     28792     28083
 -1      4026    4    0    1
 -2      8402      8492      8502      8412      5049      5058      5059      5050     28718     28791
 -2     28792     28083     28015     28723     28797     28089      5888      5890      5891      5861
 -1      4027    4    0    1
 -2       653       662       663       654      8403      8493      8503      8413      1494      1496
 -2      1497      1467     28019     28727     28801     28093     28729     28802     28803     28094
 -1      4028    4    0    1
 -2      8403      8493      8503      8413      8404      8494      8504      8414     28729     28802
 -2     28803     28094     28026     28734     28808     28100     28736     28809     28810     28101
 -1      4029    4    0    1
 -2      8404      8494      8504      8414      8405      8495      8505      8415     28736     28809
 -2     28810     28101     28033     28741     28815     28107     28743     28816     28817     28108
 -1      4030    4    0    1
 -2      8405      8495      8505      8415      8406      8496      8506      8416     28743     28816
 -2     28817     28108     28040     28748     28822     28114     28750     28823     28824     28115
 -1      4031    4    0    1
 -2      8406      8496      8506      8416      8407      8497      8507      8417     28750     28823
 -2     28824     28115     28047     28755     28829     28121     28757     28830     28831     28122
 -1      4032    4    0    1
 -2      8407      8497      8507      8417      8408      8498      8508      8418     28757     28830
 -2     28831     28122     28054     28762     28836     28128     28764     28837     28838     28129
 -1      4033    4    0    1
 -2      8408      8498      8508      8418      8409      8499      8509      8419     28764     28837
 -2     28838     28129     28061     28769     28843     28135     28771     28844     28845     28136
 -1      4034    4    0    1
 -2      8409      8499      8509      8419      8410      8500      8510      8420     28771     28844
 -2     28845     28136     28068     28776     28850     28142     28778     28851     28852     28143
 -1      4035    4    0    1
 -2      8410      8500      8510      8420      8411      8501      8511      8421     28778     28851
 -2     28852     28143     28075     28783     28857     28149     28785     28858     28859     28150
 -1      4036    4    0    1
 -2      8411      8501      8511      8421      8412      8502      8512      8422     28785     28858
 -2     28859     28150     28082     28790     28864     28156     28792     28865     28866     28157
 -1      4037    4    0    1
 -2      8412      8502      8512      8422      5050      5059      5060      5051     28792     28865
 -2     28866     28157     28089     28797     28871     28163      5891      5893      5894      5864
 -1      4038    4    0    1
 -2       654       663       664       655      8413      8503      8513      8423      1497      1499
 -2      1500      1470     28093     28801     28875     28167     28803     28876     28877     28168
 -1      4039    4    0    1
 -2      8413      8503      8513      8423      8414      8504      8514      8424     28803     28876
 -2     28877     28168     28100     28808     28882     28174     28810     28883     28884     28175
 -1      4040    4    0    1
 -2      8414      8504      8514      8424      8415      8505      8515      8425     28810     28883
 -2     28884     28175     28107     28815     28889     28181     28817     28890     28891     28182
 -1      4041    4    0    1
 -2      8415      8505      8515      8425      8416      8506      8516      8426     28817     28890
 -2     28891     28182     28114     28822     28896     28188     28824     28897     28898     28189
 -1      4042    4    0    1
 -2      8416      8506      8516      8426      8417      8507      8517      8427     28824     28897
 -2     28898     28189     28121     28829     28903     28195     28831     28904     28905     28196
 -1      4043    4    0    1
 -2      8417      8507      8517      8427      8418      8508      8518      8428     28831     28904
 -2     28905     28196     28128     28836     28910     28202     28838     28911     28912     28203
 -1      4044    4    0    1
 -2      8418      8508      8518      8428      8419      8509      8519      8429     28838     28911
 -2     28912     28203     28135     28843     28917     28209     28845     28918     28919     28210
 -1      4045    4    0    1
 -2      8419      8509      8519      8429      8420      8510      8520      8430     28845     28918
 -2     28919     28210     28142     28850     28924     28216     28852     28925     28926     28217
 -1      4046    4    0    1
 -2      8420      8510      8520      8430      8421      8511      8521      8431     28852     28925
 -2     28926     28217     28149     28857     28931     28223     28859     28932     28933     28224
 -1      4047    4    0    1
 -2      8421      8511      8521      8431      8422      8512      8522      8432     28859     28932
 -2     28933     28224     28156     28864     28938     28230     28866     28939     28940     28231
 -1      4048    4    0    1
 -2      8422      8512      8522      8432      5051      5060      5061      5052     28866     28939
 -2     28940     28231     28163     28871     28945     28237      5894      5896      5897      5867
 -1      4049    4    0    1
 -2       655       664       665       656      8423      8513      8523      8433      1500      1502
 -2      1503      1473     28167     28875     28949     28241     28877     28950     28951     28242
 -1      4050    4    0    1
 -2      8423      8513      8523      8433      8424      8514      8524      8434     28877     28950
 -2     28951     28242     28174     28882     28956     28248     28884     28957     28958     28249
 -1      4051    4    0    1
 -2      8424      8514      8524      8434      8425      8515      8525      8435     28884     28957
 -2     28958     28249     28181     28889     28963     28255     28891     28964     28965     28256
 -1      4052    4    0    1
 -2      8425      8515      8525      8435      8426      8516      8526      8436     28891     28964
 -2     28965     28256     28188     28896     28970     28262     28898     28971     28972     28263
 -1      4053    4    0    1
 -2      8426      8516      8526      8436      8427      8517      8527      8437     28898     28971
 -2     28972     28263     28195     28903     28977     28269     28905     28978     28979     28270
 -1      4054    4    0    1
 -2      8427      8517      8527      8437      8428      8518      8528      8438     28905     28978
 -2     28979     28270     28202     28910     28984     28276     28912     28985     28986     28277
 -1      4055    4    0    1
 -2      8428      8518      8528      8438      8429      8519      8529      8439     28912     28985
 -2     28986     28277     28209     28917     28991     28283     28919     28992     28993     28284
 -1      4056    4    0    1
 -2      8429      8519      8529      8439      8430      8520      8530      8440     28919     28992
 -2     28993     28284     28216     28924     28998     28290     28926     28999     29000     28291
 -1      4057    4    0    1
 -2      8430      8520      8530      8440      8431      8521      8531      8441     28926     28999
 -2     29000     28291     28223     28931     29005     28297     28933     29006     29007     28298
 -1      4058    4    0    1
 -2      8431      8521      8531      8441      8432      8522      8532      8442     28933     29006
 -2     29007     28298     28230     28938     29012     28304     28940     29013     29014     28305
 -1      4059    4    0    1
 -2      8432      8522      8532      8442      5052      5061      5062      5053     28940     29013
 -2     29014     28305     28237     28945     29019     28311      5897      5899      5900      5870
 -1      4060    4    0    1
 -2       656       665        87        88      8433      8523      3164      3174      1503      1505
 -2       117      1476     28241     28949      3454      3486     28951     29023      3487     28315
 -1      4061    4    0    1
 -2      8433      8523      3164      3174      8434      8524      3165      3175     28951     29023
 -2      3487     28315     28248     28956      3457      3489     28958     29027      3490     28319
 -1      4062    4    0    1
 -2      8434      8524      3165      3175      8435      8525      3166      3176     28958     29027
 -2      3490     28319     28255     28963      3460      3492     28965     29031      3493     28323
 -1      4063    4    0    1
 -2      8435      8525      3166      3176      8436      8526      3167      3177     28965     29031
 -2      3493     28323     28262     28970      3463      3495     28972     29035      3496     28327
 -1      4064    4    0    1
 -2      8436      8526      3167      3177      8437      8527      3168      3178     28972     29035
 -2      3496     28327     28269     28977      3466      3498     28979     29039      3499     28331
 -1      4065    4    0    1
 -2      8437      8527      3168      3178      8438      8528      3169      3179     28979     29039
 -2      3499     28331     28276     28984      3469      3501     28986     29043      3502     28335
 -1      4066    4    0    1
 -2      8438      8528      3169      3179      8439      8529      3170      3180     28986     29043
 -2      3502     28335     28283     28991      3472      3504     28993     29047      3505     28339
 -1      4067    4    0    1
 -2      8439      8529      3170      3180      8440      8530      3171      3181     28993     29047
 -2      3505     28339     28290     28998      3475      3507     29000     29051      3508     28343
 -1      4068    4    0    1
 -2      8440      8530      3171      3181      8441      8531      3172      3182     29000     29051
 -2      3508     28343     28297     29005      3478      3510     29007     29055      3511     28347
 -1      4069    4    0    1
 -2      8441      8531      3172      3182      8442      8532      3173      3183     29007     29055
 -2      3511     28347     28304     29012      3481      3513     29014     29059      3514     28351
 -1      4070    4    0    1
 -2      8442      8532      3173      3183      5053      5062       243       244     29014     29059
 -2      3514     28351     28311     29019      3484      3516      5900      5902       273      5873
 -1      4071    4    0    1
 -2        37         2        68       657      1806       342      2765      8443        67        77
 -2      1507      1478      2712       352      2855     28357      2744      2856     29065     28358
 -1      4072    4    0    1
 -2      1806       342      2765      8443      1807       343      2766      8444      2744      2856
 -2     29065     28358      2715       353      2858     28364      2746      2859     29069     28365
 -1      4073    4    0    1
 -2      1807       343      2766      8444      1808       344      2767      8445      2746      2859
 -2     29069     28365      2718       354      2861     28371      2748      2862     29073     28372
 -1      4074    4    0    1
 -2      1808       344      2767      8445      1809       345      2768      8446      2748      2862
 -2     29073     28372      2721       355      2864     28378      2750      2865     29077     28379
 -1      4075    4    0    1
 -2      1809       345      2768      8446      1810       346      2769      8447      2750      2865
 -2     29077     28379      2724       356      2867     28385      2752      2868     29081     28386
 -1      4076    4    0    1
 -2      1810       346      2769      8447      1811       347      2770      8448      2752      2868
 -2     29081     28386      2727       357      2870     28392      2754      2871     29085     28393
 -1      4077    4    0    1
 -2      1811       347      2770      8448      1812       348      2771      8449      2754      2871
 -2     29085     28393      2730       358      2873     28399      2756      2874     29089     28400
 -1      4078    4    0    1
 -2      1812       348      2771      8449      1813       349      2772      8450      2756      2874
 -2     29089     28400      2733       359      2876     28406      2758      2877     29093     28407
 -1      4079    4    0    1
 -2      1813       349      2772      8450      1814       350      2773      8451      2758      2877
 -2     29093     28407      2736       360      2879     28413      2760      2880     29097     28414
 -1      4080    4    0    1
 -2      1814       350      2773      8451      1815       351      2774      8452      2760      2880
 -2     29097     28414      2739       361      2882     28420      2762      2883     29101     28421
 -1      4081    4    0    1
 -2      1815       351      2774      8452       193         6       224      5054      2762      2883
 -2     29101     28421      2742       362      2885     28427       223       233      5904      5875
 -1      4082    4    0    1
 -2       657        68        69       658      8443      2765      2775      8453      1507        78
 -2      1509      1481     28357      2855      2887     28431     29065      2888     29107     28432
 -1      4083    4    0    1
 -2      8443      2765      2775      8453      8444      2766      2776      8454     29065      2888
 -2     29107     28432     28364      2858      2890     28438     29069      2891     29111     28439
 -1      4084    4    0    1
 -2      8444      2766      2776      8454      8445      2767      2777      8455     29069      2891
 -2     29111     28439     28371      2861      2893     28445     29073      2894     29115     28446
 -1      4085    4    0    1
 -2      8445      2767      2777      8455      8446      2768      2778      8456     29073      2894
 -2     29115     28446     28378      2864      2896     28452     29077      2897     29119     28453
 -1      4086    4    0    1
 -2      8446      2768      2778      8456      8447      2769      2779      8457     29077      2897
 -2     29119     28453     28385      2867      2899     28459     29081      2900     29123     28460
 -1      4087    4    0    1
 -2      8447      2769      2779      8457      8448      2770      2780      8458     29081      2900
 -2     29123     28460     28392      2870      2902     28466     29085      2903     29127     28467
 -1      4088    4    0    1
 -2      8448      2770      2780      8458      8449      2771      2781      8459     29085      2903
 -2     29127     28467     28399      2873      2905     28473     29089      2906     29131     28474
 -1      4089    4    0    1
 -2      8449      2771      2781      8459      8450      2772      2782      8460     29089      2906
 -2     29131     28474     28406      2876      2908     28480     29093      2909     29135     28481
 -1      4090    4    0    1
 -2      8450      2772      2782      8460      8451      2773      2783      8461     29093      2909
 -2     29135     28481     28413      2879      2911     28487     29097      2912     29139     28488
 -1      4091    4    0    1
 -2      8451      2773      2783      8461      8452      2774      2784      8462     29097      2912
 -2     29139     28488     28420      2882      2914     28494     29101      2915     29143     28495
 -1      4092    4    0    1
 -2      8452      2774      2784      8462      5054       224       225      5055     29101      2915
 -2     29143     28495     28427      2885      2917     28501      5904       234      5906      5878
 -1      4093    4    0    1
 -2       658        69        70       659      8453      2775      2785      8463      1509        79
 -2      1511      1484     28431      2887      2919     28505     29107      2920     29149     28506
 -1      4094    4    0    1
 -2      8453      2775      2785      8463      8454      2776      2786      8464     29107      2920
 -2     29149     28506     28438      2890      2922     28512     29111      2923     29153     28513
 -1      4095    4    0    1
 -2      8454      2776      2786      8464      8455      2777      2787      8465     29111      2923
 -2     29153     28513     28445      2893      2925     28519     29115      2926     29157     28520
 -1      4096    4    0    1
 -2      8455      2777      2787      8465      8456      2778      2788      8466     29115      2926
 -2     29157     28520     28452      2896      2928     28526     29119      2929     29161     28527
 -1      4097    4    0    1
 -2      8456      2778      2788      8466      8457      2779      2789      8467     29119      2929
 -2     29161     28527     28459      2899      2931     28533     29123      2932     29165     28534
 -1      4098    4    0    1
 -2      8457      2779      2789      8467      8458      2780      2790      8468     29123      2932
 -2     29165     28534     28466      2902      2934     28540     29127      2935     29169     28541
 -1      4099    4    0    1
 -2      8458      2780      2790      8468      8459      2781      2791      8469     29127      2935
 -2     29169     28541     28473      2905      2937     28547     29131      2938     29173     28548
 -1      4100    4    0    1
 -2      8459      2781      2791      8469      8460      2782      2792      8470     29131      2938
 -2     29173     28548     28480      2908      2940     28554     29135      2941     29177     28555
 -1      4101    4    0    1
 -2      8460      2782      2792      8470      8461      2783      2793      8471     29135      2941
 -2     29177     28555     28487      2911      2943     28561     29139      2944     29181     28562
 -1      4102    4    0    1
 -2      8461      2783      2793      8471      8462      2784      2794      8472     29139      2944
 -2     29181     28562     28494      2914      2946     28568     29143      2947     29185     28569
 -1      4103    4    0    1
 -2      8462      2784      2794      8472      5055       225       226      5056     29143      2947
 -2     29185     28569     28501      2917      2949     28575      5906       235      5908      5881
 -1      4104    4    0    1
 -2       659        70        71       660      8463      2785      2795      8473      1511        80
 -2      1513      1487     28505      2919      2951     28579     29149      2952     29191     28580
 -1      4105    4    0    1
 -2      8463      2785      2795      8473      8464      2786      2796      8474     29149      2952
 -2     29191     28580     28512      2922      2954     28586     29153      2955     29195     28587
 -1      4106    4    0    1
 -2      8464      2786      2796      8474      8465      2787      2797      8475     29153      2955
 -2     29195     28587     28519      2925      2957     28593     29157      2958     29199     28594
 -1      4107    4    0    1
 -2      8465      2787      2797      8475      8466      2788      2798      8476     29157      2958
 -2     29199     28594     28526      2928      2960     28600     29161      2961     29203     28601
 -1      4108    4    0    1
 -2      8466      2788      2798      8476      8467      2789      2799      8477     29161      2961
 -2     29203     28601     28533      2931      2963     28607     29165      2964     29207     28608
 -1      4109    4    0    1
 -2      8467      2789      2799      8477      8468      2790      2800      8478     29165      2964
 -2     29207     28608     28540      2934      2966     28614     29169      2967     29211     28615
 -1      4110    4    0    1
 -2      8468      2790      2800      8478      8469      2791      2801      8479     29169      2967
 -2     29211     28615     28547      2937      2969     28621     29173      2970     29215     28622
 -1      4111    4    0    1
 -2      8469      2791      2801      8479      8470      2792      2802      8480     29173      2970
 -2     29215     28622     28554      2940      2972     28628     29177      2973     29219     28629
 -1      4112    4    0    1
 -2      8470      2792      2802      8480      8471      2793      2803      8481     29177      2973
 -2     29219     28629     28561      2943      2975     28635     29181      2976     29223     28636
 -1      4113    4    0    1
 -2      8471      2793      2803      8481      8472      2794      2804      8482     29181      2976
 -2     29223     28636     28568      2946      2978     28642     29185      2979     29227     28643
 -1      4114    4    0    1
 -2      8472      2794      2804      8482      5056       226       227      5057     29185      2979
 -2     29227     28643     28575      2949      2981     28649      5908       236      5910      5884
 -1      4115    4    0    1
 -2       660        71        72       661      8473      2795      2805      8483      1513        81
 -2      1515      1490     28579      2951      2983     28653     29191      2984     29233     28654
 -1      4116    4    0    1
 -2      8473      2795      2805      8483      8474      2796      2806      8484     29191      2984
 -2     29233     28654     28586      2954      2986     28660     29195      2987     29237     28661
 -1      4117    4    0    1
 -2      8474      2796      2806      8484      8475      2797      2807      8485     29195      2987
 -2     29237     28661     28593      2957      2989     28667     29199      2990     29241     28668
 -1      4118    4    0    1
 -2      8475      2797      2807      8485      8476      2798      2808      8486     29199      2990
 -2     29241     28668     28600      2960      2992     28674     29203      2993     29245     28675
 -1      4119    4    0    1
 -2      8476      2798      2808      8486      8477      2799      2809      8487     29203      2993
 -2     29245     28675     28607      2963      2995     28681     29207      2996     29249     28682
 -1      4120    4    0    1
 -2      8477      2799      2809      8487      8478      2800      2810      8488     29207      2996
 -2     29249     28682     28614      2966      2998     28688     29211      2999     29253     28689
 -1      4121    4    0    1
 -2      8478      2800      2810      8488      8479      2801      2811      8489     29211      2999
 -2     29253     28689     28621      2969      3001     28695     29215      3002     29257     28696
 -1      4122    4    0    1
 -2      8479      2801      2811      8489      8480      2802      2812      8490     29215      3002
 -2     29257     28696     28628      2972      3004     28702     29219      3005     29261     28703
 -1      4123    4    0    1
 -2      8480      2802      2812      8490      8481      2803      2813      8491     29219      3005
 -2     29261     28703     28635      2975      3007     28709     29223      3008     29265     28710
 -1      4124    4    0    1
 -2      8481      2803      2813      8491      8482      2804      2814      8492     29223      3008
 -2     29265     28710     28642      2978      3010     28716     29227      3011     29269     28717
 -1      4125    4    0    1
 -2      8482      2804      2814      8492      5057       227       228      5058     29227      3011
 -2     29269     28717     28649      2981      3013     28723      5910       237      5912      5887
 -1      4126    4    0    1
 -2       661        72        73       662      8483      2805      2815      8493      1515        82
 -2      1517      1493     28653      2983      3015     28727     29233      3016     29275     28728
 -1      4127    4    0    1
 -2      8483      2805      2815      8493      8484      2806      2816      8494     29233      3016
 -2     29275     28728     28660      2986      3018     28734     29237      3019     29279     28735
 -1      4128    4    0    1
 -2      8484      2806      2816      8494      8485      2807      2817      8495     29237      3019
 -2     29279     28735     28667      2989      3021     28741     29241      3022     29283     28742
 -1      4129    4    0    1
 -2      8485      2807      2817      8495      8486      2808      2818      8496     29241      3022
 -2     29283     28742     28674      2992      3024     28748     29245      3025     29287     28749
 -1      4130    4    0    1
 -2      8486      2808      2818      8496      8487      2809      2819      8497     29245      3025
 -2     29287     28749     28681      2995      3027     28755     29249      3028     29291     28756
 -1      4131    4    0    1
 -2      8487      2809      2819      8497      8488      2810      2820      8498     29249      3028
 -2     29291     28756     28688      2998      3030     28762     29253      3031     29295     28763
 -1      4132    4    0    1
 -2      8488      2810      2820      8498      8489      2811      2821      8499     29253      3031
 -2     29295     28763     28695      3001      3033     28769     29257      3034     29299     28770
 -1      4133    4    0    1
 -2      8489      2811      2821      8499      8490      2812      2822      8500     29257      3034
 -2     29299     28770     28702      3004      3036     28776     29261      3037     29303     28777
 -1      4134    4    0    1
 -2      8490      2812      2822      8500      8491      2813      2823      8501     29261      3037
 -2     29303     28777     28709      3007      3039     28783     29265      3040     29307     28784
 -1      4135    4    0    1
 -2      8491      2813      2823      8501      8492      2814      2824      8502     29265      3040
 -2     29307     28784     28716      3010      3042     28790     29269      3043     29311     28791
 -1      4136    4    0    1
 -2      8492      2814      2824      8502      5058       228       229      5059     29269      3043
 -2     29311     28791     28723      3013      3045     28797      5912       238      5914      5890
 -1      4137    4    0    1
 -2       662        73        74       663      8493      2815      2825      8503      1517        83
 -2      1519      1496     28727      3015      3047     28801     29275      3048     29317     28802
 -1      4138    4    0    1
 -2      8493      2815      2825      8503      8494      2816      2826      8504     29275      3048
 -2     29317     28802     28734      3018      3050     28808     29279      3051     29321     28809
 -1      4139    4    0    1
 -2      8494      2816      2826      8504      8495      2817      2827      8505     29279      3051
 -2     29321     28809     28741      3021      3053     28815     29283      3054     29325     28816
 -1      4140    4    0    1
 -2      8495      2817      2827      8505      8496      2818      2828      8506     29283      3054
 -2     29325     28816     28748      3024      3056     28822     29287      3057     29329     28823
 -1      4141    4    0    1
 -2      8496      2818      2828      8506      8497      2819      2829      8507     29287      3057
 -2     29329     28823     28755      3027      3059     28829     29291      3060     29333     28830
 -1      4142    4    0    1
 -2      8497      2819      2829      8507      8498      2820      2830      8508     29291      3060
 -2     29333     28830     28762      3030      3062     28836     29295      3063     29337     28837
 -1      4143    4    0    1
 -2      8498      2820      2830      8508      8499      2821      2831      8509     29295      3063
 -2     29337     28837     28769      3033      3065     28843     29299      3066     29341     28844
 -1      4144    4    0    1
 -2      8499      2821      2831      8509      8500      2822      2832      8510     29299      3066
 -2     29341     28844     28776      3036      3068     28850     29303      3069     29345     28851
 -1      4145    4    0    1
 -2      8500      2822      2832      8510      8501      2823      2833      8511     29303      3069
 -2     29345     28851     28783      3039      3071     28857     29307      3072     29349     28858
 -1      4146    4    0    1
 -2      8501      2823      2833      8511      8502      2824      2834      8512     29307      3072
 -2     29349     28858     28790      3042      3074     28864     29311      3075     29353     28865
 -1      4147    4    0    1
 -2      8502      2824      2834      8512      5059       229       230      5060     29311      3075
 -2     29353     28865     28797      3045      3077     28871      5914       239      5916      5893
 -1      4148    4    0    1
 -2       663        74        75       664      8503      2825      2835      8513      1519        84
 -2      1521      1499     28801      3047      3079     28875     29317      3080     29359     28876
 -1      4149    4    0    1
 -2      8503      2825      2835      8513      8504      2826      2836      8514     29317      3080
 -2     29359     28876     28808      3050      3082     28882     29321      3083     29363     28883
 -1      4150    4    0    1
 -2      8504      2826      2836      8514      8505      2827      2837      8515     29321      3083
 -2     29363     28883     28815      3053      3085     28889     29325      3086     29367     28890
 -1      4151    4    0    1
 -2      8505      2827      2837      8515      8506      2828      2838      8516     29325      3086
 -2     29367     28890     28822      3056      3088     28896     29329      3089     29371     28897
 -1      4152    4    0    1
 -2      8506      2828      2838      8516      8507      2829      2839      8517     29329      3089
 -2     29371     28897     28829      3059      3091     28903     29333      3092     29375     28904
 -1      4153    4    0    1
 -2      8507      2829      2839      8517      8508      2830      2840      8518     29333      3092
 -2     29375     28904     28836      3062      3094     28910     29337      3095     29379     28911
 -1      4154    4    0    1
 -2      8508      2830      2840      8518      8509      2831      2841      8519     29337      3095
 -2     29379     28911     28843      3065      3097     28917     29341      3098     29383     28918
 -1      4155    4    0    1
 -2      8509      2831      2841      8519      8510      2832      2842      8520     29341      3098
 -2     29383     28918     28850      3068      3100     28924     29345      3101     29387     28925
 -1      4156    4    0    1
 -2      8510      2832      2842      8520      8511      2833      2843      8521     29345      3101
 -2     29387     28925     28857      3071      3103     28931     29349      3104     29391     28932
 -1      4157    4    0    1
 -2      8511      2833      2843      8521      8512      2834      2844      8522     29349      3104
 -2     29391     28932     28864      3074      3106     28938     29353      3107     29395     28939
 -1      4158    4    0    1
 -2      8512      2834      2844      8522      5060       230       231      5061     29353      3107
 -2     29395     28939     28871      3077      3109     28945      5916       240      5918      5896
 -1      4159    4    0    1
 -2       664        75        76       665      8513      2835      2845      8523      1521        85
 -2      1523      1502     28875      3079      3111     28949     29359      3112     29401     28950
 -1      4160    4    0    1
 -2      8513      2835      2845      8523      8514      2836      2846      8524     29359      3112
 -2     29401     28950     28882      3082      3114     28956     29363      3115     29405     28957
 -1      4161    4    0    1
 -2      8514      2836      2846      8524      8515      2837      2847      8525     29363      3115
 -2     29405     28957     28889      3085      3117     28963     29367      3118     29409     28964
 -1      4162    4    0    1
 -2      8515      2837      2847      8525      8516      2838      2848      8526     29367      3118
 -2     29409     28964     28896      3088      3120     28970     29371      3121     29413     28971
 -1      4163    4    0    1
 -2      8516      2838      2848      8526      8517      2839      2849      8527     29371      3121
 -2     29413     28971     28903      3091      3123     28977     29375      3124     29417     28978
 -1      4164    4    0    1
 -2      8517      2839      2849      8527      8518      2840      2850      8528     29375      3124
 -2     29417     28978     28910      3094      3126     28984     29379      3127     29421     28985
 -1      4165    4    0    1
 -2      8518      2840      2850      8528      8519      2841      2851      8529     29379      3127
 -2     29421     28985     28917      3097      3129     28991     29383      3130     29425     28992
 -1      4166    4    0    1
 -2      8519      2841      2851      8529      8520      2842      2852      8530     29383      3130
 -2     29425     28992     28924      3100      3132     28998     29387      3133     29429     28999
 -1      4167    4    0    1
 -2      8520      2842      2852      8530      8521      2843      2853      8531     29387      3133
 -2     29429     28999     28931      3103      3135     29005     29391      3136     29433     29006
 -1      4168    4    0    1
 -2      8521      2843      2853      8531      8522      2844      2854      8532     29391      3136
 -2     29433     29006     28938      3106      3138     29012     29395      3139     29437     29013
 -1      4169    4    0    1
 -2      8522      2844      2854      8532      5061       231       232      5062     29395      3139
 -2     29437     29013     28945      3109      3141     29019      5918       241      5920      5899
 -1      4170    4    0    1
 -2       665        76         3        87      8523      2845       363      3164      1523        86
 -2       116      1505     28949      3111       373      3454     29401      3143      3455     29023
 -1      4171    4    0    1
 -2      8523      2845       363      3164      8524      2846       364      3165     29401      3143
 -2      3455     29023     28956      3114       374      3457     29405      3145      3458     29027
 -1      4172    4    0    1
 -2      8524      2846       364      3165      8525      2847       365      3166     29405      3145
 -2      3458     29027     28963      3117       375      3460     29409      3147      3461     29031
 -1      4173    4    0    1
 -2      8525      2847       365      3166      8526      2848       366      3167     29409      3147
 -2      3461     29031     28970      3120       376      3463     29413      3149      3464     29035
 -1      4174    4    0    1
 -2      8526      2848       366      3167      8527      2849       367      3168     29413      3149
 -2      3464     29035     28977      3123       377      3466     29417      3151      3467     29039
 -1      4175    4    0    1
 -2      8527      2849       367      3168      8528      2850       368      3169     29417      3151
 -2      3467     29039     28984      3126       378      3469     29421      3153      3470     29043
 -1      4176    4    0    1
 -2      8528      2850       368      3169      8529      2851       369      3170     29421      3153
 -2      3470     29043     28991      3129       379      3472     29425      3155      3473     29047
 -1      4177    4    0    1
 -2      8529      2851       369      3170      8530      2852       370      3171     29425      3155
 -2      3473     29047     28998      3132       380      3475     29429      3157      3476     29051
 -1      4178    4    0    1
 -2      8530      2852       370      3171      8531      2853       371      3172     29429      3157
 -2      3476     29051     29005      3135       381      3478     29433      3159      3479     29055
 -1      4179    4    0    1
 -2      8531      2853       371      3172      8532      2854       372      3173     29433      3159
 -2      3479     29055     29012      3138       382      3481     29437      3161      3482     29059
 -1      4180    4    0    1
 -2      8532      2854       372      3173      5062       232         7       243     29437      3161
 -2      3482     29059     29019      3141       383      3484      5920       242       272      5902
 -3
    1PSTEP                         1           1           1          
  100CL  101 1.000000000       15523                     0    1           1
 -4  DISP        4    1
 -5  D1          1    2    1    0
 -5  D2          1    2    2    0
 -5  D3          1    2    3    0
 -5  ALL         1    2    0    0    1ALL
 -1         1 4.24533E-04 0.00000E+00-7.01942E-06
 -1         2 4.60338E-04 0.00000E+00-7.01931E-06
 -1         3 0.00000E+00 4.60338E-04-7.01906E-06
 -1         4 0.00000E+00 4.24533E-04-7.01942E-06
 -1         5 4.24533E-04 0.00000E+00-3.94001E-05
 -1         6 4.60338E-04 0.00000E+00-3.94002E-05
 -1         7 0.00000E+00 4.60338E-04-3.94005E-05
 -1         8 0.00000E+00 4.24533E-04-3.94001E-05
 -1         9 4.04015E-04 0.00000E+00-7.01931E-06
 -1        10 3.88470E-04 0.00000E+00-7.01928E-06
 -1        11 3.76744E-04 0.00000E+00-7.01930E-06
 -1        12 3.68050E-04 0.00000E+00-7.01930E-06
 -1        13 3.61772E-04 0.00000E+00-7.01930E-06
 -1        14 3.57460E-04 0.00000E+00-7.01930E-06
 -1        15 3.54766E-04 0.00000E+00-7.01930E-06
 -1        16 3.53421E-04 0.00000E+00-7.01930E-06
 -1        17 3.53211E-04 0.00000E+00-7.01930E-06
 -1        18 3.53967E-04 0.00000E+00-7.01930E-06
 -1        19 3.55551E-04 0.00000E+00-7.01930E-06
 -1        20 3.57849E-04 0.00000E+00-7.01930E-06
 -1        21 3.60769E-04 0.00000E+00-7.01930E-06
 -1        22 3.64232E-04 0.00000E+00-7.01930E-06
 -1        23 3.68174E-04 0.00000E+00-7.01930E-06
 -1        24 3.72539E-04 0.00000E+00-7.01930E-06
 -1        25 3.77280E-04 0.00000E+00-7.01930E-06
 -1        26 3.82358E-04 0.00000E+00-7.01930E-06
 -1        27 3.87736E-04 0.00000E+00-7.01930E-06
 -1        28 3.93386E-04 0.00000E+00-7.01930E-06
 -1        29 3.99280E-04 0.00000E+00-7.01930E-06
 -1        30 4.05396E-04 0.00000E+00-7.01930E-06
 -1        31 4.11714E-04 0.00000E+00-7.01930E-06
 -1        32 4.18216E-04 0.00000E+00-7.01930E-06
 -1        33 4.24886E-04 0.00000E+00-7.01930E-06
 -1        34 4.31710E-04 0.00000E+00-7.01930E-06
 -1        35 4.38677E-04 0.00000E+00-7.01930E-06
 -1        36 4.45767E-04 0.00000E+00-7.01931E-06
 -1        37 4.53009E-04 0.00000E+00-7.01928E-06
 -1        38 4.13588E-04 0.00000E+00-7.01921E-06
 -1        39 3.95697E-04 0.00000E+00-7.01938E-06
 -1        40 3.82182E-04 0.00000E+00-7.01928E-06
 -1        41 3.72059E-04 0.00000E+00-7.01931E-06
 -1        42 3.64638E-04 0.00000E+00-7.01930E-06
 -1        43 3.59393E-04 0.00000E+00-7.01930E-06
 -1        44 3.55928E-04 0.00000E+00-7.01930E-06
 -1        45 3.53938E-04 0.00000E+00-7.01930E-06
 -1        46 3.53185E-04 0.00000E+00-7.01930E-06
 -1        47 3.53478E-04 0.00000E+00-7.01930E-06
 -1        48 3.54663E-04 0.00000E+00-7.01930E-06
 -1        49 3.56617E-04 0.00000E+00-7.01930E-06
 -1        50 3.59236E-04 0.00000E+00-7.01930E-06
 -1        51 3.62437E-04 0.00000E+00-7.01930E-06
 -1        52 3.66147E-04 0.00000E+00-7.01930E-06
 -1        53 3.70306E-04 0.00000E+00-7.01930E-06
 -1        54 3.74865E-04 0.00000E+00-7.01930E-06
 -1        55 3.79779E-04 0.00000E+00-7.01930E-06
 -1        56 3.85011E-04 0.00000E+00-7.01930E-06
 -1        57 3.90529E-04 0.00000E+00-7.01930E-06
 -1        58 3.96304E-04 0.00000E+00-7.01930E-06
 -1        59 4.02312E-04 0.00000E+00-7.01930E-06
 -1        60 4.08531E-04 0.00000E+00-7.01930E-06
 -1        61 4.14943E-04 0.00000E+00-7.01930E-06
 -1        62 4.21531E-04 0.00000E+00-7.01930E-06
 -1        63 4.28279E-04 0.00000E+00-7.01930E-06
 -1        64 4.35177E-04 0.00000E+00-7.01930E-06
 -1        65 4.42207E-04 0.00000E+00-7.01931E-06
 -1        66 4.49374E-04 0.00000E+00-7.01928E-06
 -1        67 4.56658E-04 0.00000E+00-7.01932E-06
 -1        68 4.54670E-04 7.20127E-05-7.01931E-06
 -1        69 4.37807E-04 1.42252E-04-7.01931E-06
 -1        70 4.10164E-04 2.08989E-04-7.01932E-06
 -1        71 3.72421E-04 2.70580E-04-7.01935E-06
 -1        72 3.25508E-04 3.25508E-04-7.01934E-06
 -1        73 2.70580E-04 3.72421E-04-7.01924E-06
 -1        74 2.08989E-04 4.10164E-04-7.01930E-06
 -1        75 1.42252E-04 4.37807E-04-7.01938E-06
 -1        76 7.20127E-05 4.54670E-04-7.01923E-06
 -1        77 4.58888E-04 3.61153E-05-7.01930E-06
 -1        78 4.47589E-04 1.07457E-04-7.01929E-06
 -1        79 4.25268E-04 1.76152E-04-7.01929E-06
 -1        80 3.92476E-04 2.40510E-04-7.01928E-06
 -1        81 3.50020E-04 2.98946E-04-7.01929E-06
 -1        82 2.98946E-04 3.50020E-04-7.01930E-06
 -1        83 2.40510E-04 3.92476E-04-7.01930E-06
 -1        84 1.76152E-04 4.25268E-04-7.01929E-06
 -1        85 1.07457E-04 4.47589E-04-7.01931E-06
 -1        86 3.61153E-05 4.58888E-04-7.01934E-06
 -1        87 0.00000E+00 4.53009E-04-7.01929E-06
 -1        88 0.00000E+00 4.45767E-04-7.01930E-06
 -1        89 0.00000E+00 4.38677E-04-7.01930E-06
 -1        90 0.00000E+00 4.31710E-04-7.01930E-06
 -1        91 0.00000E+00 4.24886E-04-7.01930E-06
 -1        92 0.00000E+00 4.18216E-04-7.01930E-06
 -1        93 0.00000E+00 4.11714E-04-7.01930E-06
 -1        94 0.00000E+00 4.05396E-04-7.01930E-06
 -1        95 0.00000E+00 3.99280E-04-7.01930E-06
 -1        96 0.00000E+00 3.93386E-04-7.01930E-06
 -1        97 0.00000E+00 3.87736E-04-7.01930E-06
 -1        98 0.00000E+00 3.82358E-04-7.01930E-06
 -1        99 0.00000E+00 3.77280E-04-7.01930E-06
 -1       100 0.00000E+00 3.72539E-04-7.01930E-06
 -1       101 0.00000E+00 3.68174E-04-7.01930E-06
 -1       102 0.00000E+00 3.64232E-04-7.01930E-06
 -1       103 0.00000E+00 3.60769E-04-7.01930E-06
 -1       104 0.00000E+00 3.57849E-04-7.01930E-06
 -1       105 0.00000E+00 3.55551E-04-7.01930E-06
 -1       106 0.00000E+00 3.53967E-04-7.01930E-06
 -1       107 0.00000E+00 3.53211E-04-7.01930E-06
 -1       108 0.00000E+00 3.53421E-04-7.01930E-06
 -1       109 0.00000E+00 3.54766E-04-7.01930E-06
 -1       110 0.00000E+00 3.57460E-04-7.01930E-06
 -1       111 0.00000E+00 3.61772E-04-7.01930E-06
 -1       112 0.00000E+00 3.68050E-04-7.01930E-06
 -1       113 0.00000E+00 3.76744E-04-7.01930E-06
 -1       114 0.00000E+00 3.88470E-04-7.01928E-06
 -1       115 0.00000E+00 4.04015E-04-7.01931E-06
 -1       116 0.00000E+00 4.56658E-04-7.01923E-06
 -1       117 0.00000E+00 4.49374E-04-7.01928E-06
 -1       118 0.00000E+00 4.42207E-04-7.01930E-06
 -1       119 0.00000E+00 4.35177E-04-7.01930E-06
 -1       120 0.00000E+00 4.28280E-04-7.01930E-06
 -1       121 0.00000E+00 4.21531E-04-7.01930E-06
 -1       122 0.00000E+00 4.14943E-04-7.01930E-06
 -1       123 0.00000E+00 4.08531E-04-7.01930E-06
 -1       124 0.00000E+00 4.02312E-04-7.01930E-06
 -1       125 0.00000E+00 3.96304E-04-7.01930E-06
 -1       126 0.00000E+00 3.90529E-04-7.01930E-06
 -1       127 0.00000E+00 3.85011E-04-7.01930E-06
 -1       128 0.00000E+00 3.79779E-04-7.01930E-06
 -1       129 0.00000E+00 3.74865E-04-7.01930E-06
 -1       130 0.00000E+00 3.70306E-04-7.01930E-06
 -1       131 0.00000E+00 3.66147E-04-7.01930E-06
 -1       132 0.00000E+00 3.62437E-04-7.01930E-06
 -1       133 0.00000E+00 3.59236E-04-7.01930E-06
 -1       134 0.00000E+00 3.56617E-04-7.01930E-06
 -1       135 0.00000E+00 3.54663E-04-7.01930E-06
 -1       136 0.00000E+00 3.53478E-04-7.01930E-06
 -1       137 0.00000E+00 3.53185E-04-7.01930E-06
 -1       138 0.00000E+00 3.53938E-04-7.01930E-06
 -1       139 0.00000E+00 3.55928E-04-7.01930E-06
 -1       140 0.00000E+00 3.59393E-04-7.01930E-06
 -1       141 0.00000E+00 3.64638E-04-7.01930E-06
 -1       142 0.00000E+00 3.72059E-04-7.01931E-06
 -1       143 0.00000E+00 3.82182E-04-7.01928E-06
 -1       144 0.00000E+00 3.95697E-04-7.01938E-06
 -1       145 0.00000E+00 4.13588E-04-7.01921E-06
 -1       146 6.64116E-05 4.19306E-04-7.01942E-06
 -1       147 1.31188E-04 4.03755E-04-7.01942E-06
 -1       148 1.92734E-04 3.78262E-04-7.01942E-06
 -1       149 2.49534E-04 3.43455E-04-7.01942E-06
 -1       150 3.00190E-04 3.00190E-04-7.01942E-06
 -1       151 3.43455E-04 2.49534E-04-7.01942E-06
 -1       152 3.78262E-04 1.92734E-04-7.01942E-06
 -1       153 4.03755E-04 1.31188E-04-7.01942E-06
 -1       154 4.19306E-04 6.64116E-05-7.01942E-06
 -1       155 3.33167E-05 4.23329E-04-7.01943E-06
 -1       156 9.91299E-05 4.12906E-04-7.01943E-06
 -1       157 1.62502E-04 3.92315E-04-7.01943E-06
 -1       158 2.21873E-04 3.62064E-04-7.01943E-06
 -1       159 2.75781E-04 3.22898E-04-7.01943E-06
 -1       160 3.22898E-04 2.75781E-04-7.01943E-06
 -1       161 3.62064E-04 2.21873E-04-7.01943E-06
 -1       162 3.92315E-04 1.62502E-04-7.01943E-06
 -1       163 4.12906E-04 9.91299E-05-7.01943E-06
 -1       164 4.23329E-04 3.33167E-05-7.01943E-06
 -1       165 4.04015E-04 0.00000E+00-3.94002E-05
 -1       166 3.88470E-04 0.00000E+00-3.94003E-05
 -1       167 3.76744E-04 0.00000E+00-3.94002E-05
 -1       168 3.68050E-04 0.00000E+00-3.94003E-05
 -1       169 3.61772E-04 0.00000E+00-3.94003E-05
 -1       170 3.57460E-04 0.00000E+00-3.94003E-05
 -1       171 3.54766E-04 0.00000E+00-3.94003E-05
 -1       172 3.53421E-04 0.00000E+00-3.94003E-05
 -1       173 3.53211E-04 0.00000E+00-3.94003E-05
 -1       174 3.53967E-04 0.00000E+00-3.94003E-05
 -1       175 3.55551E-04 0.00000E+00-3.94003E-05
 -1       176 3.57849E-04 0.00000E+00-3.94003E-05
 -1       177 3.60769E-04 0.00000E+00-3.94003E-05
 -1       178 3.64232E-04 0.00000E+00-3.94003E-05
 -1       179 3.68174E-04 0.00000E+00-3.94003E-05
 -1       180 3.72539E-04 0.00000E+00-3.94003E-05
 -1       181 3.77280E-04 0.00000E+00-3.94003E-05
 -1       182 3.82358E-04 0.00000E+00-3.94003E-05
 -1       183 3.87736E-04 0.00000E+00-3.94003E-05
 -1       184 3.93386E-04 0.00000E+00-3.94003E-05
 -1       185 3.99280E-04 0.00000E+00-3.94003E-05
 -1       186 4.05396E-04 0.00000E+00-3.94003E-05
 -1       187 4.11714E-04 0.00000E+00-3.94003E-05
 -1       188 4.18216E-04 0.00000E+00-3.94003E-05
 -1       189 4.24886E-04 0.00000E+00-3.94003E-05
 -1       190 4.31710E-04 0.00000E+00-3.94003E-05
 -1       191 4.38677E-04 0.00000E+00-3.94003E-05
 -1       192 4.45767E-04 0.00000E+00-3.94002E-05
 -1       193 4.53009E-04 0.00000E+00-3.94003E-05
 -1       194 4.13588E-04 0.00000E+00-3.94003E-05
 -1       195 3.95697E-04 0.00000E+00-3.94002E-05
 -1       196 3.82182E-04 0.00000E+00-3.94003E-05
 -1       197 3.72059E-04 0.00000E+00-3.94002E-05
 -1       198 3.64638E-04 0.00000E+00-3.94003E-05
 -1       199 3.59393E-04 0.00000E+00-3.94003E-05
 -1       200 3.55928E-04 0.00000E+00-3.94003E-05
 -1       201 3.53938E-04 0.00000E+00-3.94003E-05
 -1       202 3.53185E-04 0.00000E+00-3.94003E-05
 -1       203 3.53478E-04 0.00000E+00-3.94003E-05
 -1       204 3.54663E-04 0.00000E+00-3.94003E-05
 -1       205 3.56617E-04 0.00000E+00-3.94003E-05
 -1       206 3.59236E-04 0.00000E+00-3.94003E-05
 -1       207 3.62437E-04 0.00000E+00-3.94003E-05
 -1       208 3.66147E-04 0.00000E+00-3.94003E-05
 -1       209 3.70306E-04 0.00000E+00-3.94003E-05
 -1       210 3.74865E-04 0.00000E+00-3.94003E-05
 -1       211 3.79779E-04 0.00000E+00-3.94003E-05
 -1       212 3.85011E-04 0.00000E+00-3.94003E-05
 -1       213 3.90529E-04 0.00000E+00-3.94003E-05
 -1       214 3.96304E-04 0.00000E+00-3.94003E-05
 -1       215 4.02312E-04 0.00000E+00-3.94003E-05
 -1       216 4.08531E-04 0.00000E+00-3.94003E-05
 -1       217 4.14943E-04 0.00000E+00-3.94003E-05
 -1       218 4.21531E-04 0.00000E+00-3.94003E-05
 -1       219 4.28279E-04 0.00000E+00-3.94003E-05
 -1       220 4.35177E-04 0.00000E+00-3.94003E-05
 -1       221 4.42207E-04 0.00000E+00-3.94002E-05
 -1       222 4.49374E-04 0.00000E+00-3.94003E-05
 -1       223 4.56658E-04 0.00000E+00-3.94002E-05
 -1       224 4.54670E-04 7.20127E-05-3.94002E-05
 -1       225 4.37807E-04 1.42252E-04-3.94002E-05
 -1       226 4.10164E-04 2.08989E-04-3.94002E-05
 -1       227 3.72421E-04 2.70580E-04-3.94002E-05
 -1       228 3.25508E-04 3.25508E-04-3.94002E-05
 -1       229 2.70580E-04 3.72421E-04-3.94003E-05
 -1       230 2.08989E-04 4.10164E-04-3.94003E-05
 -1       231 1.42252E-04 4.37807E-04-3.94002E-05
 -1       232 7.20127E-05 4.54670E-04-3.94003E-05
 -1       233 4.58888E-04 3.61153E-05-3.94003E-05
 -1       234 4.47589E-04 1.07457E-04-3.94003E-05
 -1       235 4.25268E-04 1.76152E-04-3.94003E-05
 -1       236 3.92476E-04 2.40510E-04-3.94003E-05
 -1       237 3.50020E-04 2.98946E-04-3.94003E-05
 -1       238 2.98946E-04 3.50020E-04-3.94003E-05
 -1       239 2.40510E-04 3.92476E-04-3.94003E-05
 -1       240 1.76152E-04 4.25268E-04-3.94003E-05
 -1       241 1.07457E-04 4.47589E-04-3.94002E-05
 -1       242 3.61153E-05 4.58888E-04-3.94002E-05
 -1       243 0.00000E+00 4.53009E-04-3.94003E-05
 -1       244 0.00000E+00 4.45767E-04-3.94003E-05
 -1       245 0.00000E+00 4.38677E-04-3.94003E-05
 -1       246 0.00000E+00 4.31710E-04-3.94003E-05
 -1       247 0.00000E+00 4.24886E-04-3.94003E-05
 -1       248 0.00000E+00 4.18216E-04-3.94003E-05
 -1       249 0.00000E+00 4.11714E-04-3.94003E-05
 -1       250 0.00000E+00 4.05396E-04-3.94003E-05
 -1       251 0.00000E+00 3.99280E-04-3.94003E-05
 -1       252 0.00000E+00 3.93386E-04-3.94003E-05
 -1       253 0.00000E+00 3.87736E-04-3.94003E-05
 -1       254 0.00000E+00 3.82358E-04-3.94003E-05
 -1       255 0.00000E+00 3.77280E-04-3.94003E-05
 -1       256 0.00000E+00 3.72539E-04-3.94003E-05
 -1       257 0.00000E+00 3.68174E-04-3.94003E-05
 -1       258 0.00000E+00 3.64232E-04-3.94003E-05
 -1       259 0.00000E+00 3.60769E-04-3.94003E-05
 -1       260 0.00000E+00 3.57849E-04-3.94003E-05
 -1       261 0.00000E+00 3.55551E-04-3.94003E-05
 -1       262 0.00000E+00 3.53967E-04-3.94003E-05
 -1       263 0.00000E+00 3.53211E-04-3.94003E-05
 -1       264 0.00000E+00 3.53421E-04-3.94003E-05
 -1       265 0.00000E+00 3.54766E-04-3.94003E-05
 -1       266 0.00000E+00 3.57460E-04-3.94003E-05
 -1       267 0.00000E+00 3.61772E-04-3.94003E-05
 -1       268 0.00000E+00 3.68050E-04-3.94003E-05
 -1       269 0.00000E+00 3.76744E-04-3.94002E-05
 -1       270 0.00000E+00 3.88470E-04-3.94003E-05
 -1       271 0.00000E+00 4.04015E-04-3.94002E-05
 -1       272 0.00000E+00 4.56658E-04-3.94003E-05
 -1       273 0.00000E+00 4.49374E-04-3.94003E-05
 -1       274 0.00000E+00 4.42207E-04-3.94002E-05
 -1       275 0.00000E+00 4.35177E-04-3.94003E-05
 -1       276 0.00000E+00 4.28280E-04-3.94003E-05
 -1       277 0.00000E+00 4.21531E-04-3.94003E-05
 -1       278 0.00000E+00 4.14943E-04-3.94003E-05
 -1       279 0.00000E+00 4.08531E-04-3.94003E-05
 -1       280 0.00000E+00 4.02312E-04-3.94003E-05
 -1       281 0.00000E+00 3.96304E-04-3.94003E-05
 -1       282 0.00000E+00 3.90529E-04-3.94003E-05
 -1       283 0.00000E+00 3.85011E-04-3.94003E-05
 -1       284 0.00000E+00 3.79779E-04-3.94003E-05
 -1       285 0.00000E+00 3.74865E-04-3.94003E-05
 -1       286 0.00000E+00 3.70306E-04-3.94003E-05
 -1       287 0.00000E+00 3.66147E-04-3.94003E-05
 -1       288 0.00000E+00 3.62437E-04-3.94003E-05
 -1       289 0.00000E+00 3.59236E-04-3.94003E-05
 -1       290 0.00000E+00 3.56617E-04-3.94003E-05
 -1       291 0.00000E+00 3.54663E-04-3.94003E-05
 -1       292 0.00000E+00 3.53478E-04-3.94003E-05
 -1       293 0.00000E+00 3.53185E-04-3.94003E-05
 -1       294 0.00000E+00 3.53938E-04-3.94003E-05
 -1       295 0.00000E+00 3.55928E-04-3.94003E-05
 -1       296 0.00000E+00 3.59393E-04-3.94003E-05
 -1       297 0.00000E+00 3.64638E-04-3.94003E-05
 -1       298 0.00000E+00 3.72059E-04-3.94002E-05
 -1       299 0.00000E+00 3.82182E-04-3.94003E-05
 -1       300 0.00000E+00 3.95697E-04-3.94002E-05
 -1       301 0.00000E+00 4.13588E-04-3.94003E-05
 -1       302 6.64116E-05 4.19306E-04-3.94001E-05
 -1       303 1.31188E-04 4.03755E-04-3.94001E-05
 -1       304 1.92734E-04 3.78262E-04-3.94001E-05
 -1       305 2.49534E-04 3.43455E-04-3.94001E-05
 -1       306 3.00190E-04 3.00190E-04-3.94001E-05
 -1       307 3.43455E-04 2.49534E-04-3.94001E-05
 -1       308 3.78262E-04 1.92734E-04-3.94001E-05
 -1       309 4.03755E-04 1.31188E-04-3.94001E-05
 -1       310 4.19306E-04 6.64116E-05-3.94001E-05
 -1       311 3.33167E-05 4.23329E-04-3.94001E-05
 -1       312 9.91299E-05 4.12906E-04-3.94001E-05
 -1       313 1.62502E-04 3.92315E-04-3.94001E-05
 -1       314 2.21873E-04 3.62064E-04-3.94001E-05
 -1       315 2.75781E-04 3.22898E-04-3.94001E-05
 -1       316 3.22898E-04 2.75781E-04-3.94001E-05
 -1       317 3.62064E-04 2.21873E-04-3.94001E-05
 -1       318 3.92315E-04 1.62502E-04-3.94001E-05
 -1       319 4.12906E-04 9.91299E-05-3.94001E-05
 -1       320 4.23329E-04 3.33167E-05-3.94001E-05
 -1       321 4.24533E-04 0.00000E+00-9.96303E-06
 -1       322 4.24533E-04 0.00000E+00-1.29067E-05
 -1       323 4.24533E-04 0.00000E+00-1.58505E-05
 -1       324 4.24533E-04 0.00000E+00-1.87942E-05
 -1       325 4.24533E-04 0.00000E+00-2.17379E-05
 -1       326 4.24533E-04 0.00000E+00-2.46816E-05
 -1       327 4.24533E-04 0.00000E+00-2.76254E-05
 -1       328 4.24533E-04 0.00000E+00-3.05691E-05
 -1       329 4.24533E-04 0.00000E+00-3.35128E-05
 -1       330 4.24533E-04 0.00000E+00-3.64565E-05
 -1       331 4.24533E-04 0.00000E+00-8.49122E-06
 -1       332 4.24533E-04 0.00000E+00-1.14349E-05
 -1       333 4.24533E-04 0.00000E+00-1.43786E-05
 -1       334 4.24533E-04 0.00000E+00-1.73223E-05
 -1       335 4.24533E-04 0.00000E+00-2.02661E-05
 -1       336 4.24533E-04 0.00000E+00-2.32098E-05
 -1       337 4.24533E-04 0.00000E+00-2.61535E-05
 -1       338 4.24533E-04 0.00000E+00-2.90972E-05
 -1       339 4.24533E-04 0.00000E+00-3.20410E-05
 -1       340 4.24533E-04 0.00000E+00-3.49847E-05
 -1       341 4.24533E-04 0.00000E+00-3.79283E-05
 -1       342 4.60338E-04 0.00000E+00-9.96304E-06
 -1       343 4.60338E-04 0.00000E+00-1.29068E-05
 -1       344 4.60338E-04 0.00000E+00-1.58505E-05
 -1       345 4.60338E-04 0.00000E+00-1.87942E-05
 -1       346 4.60338E-04 0.00000E+00-2.17379E-05
 -1       347 4.60338E-04 0.00000E+00-2.46816E-05
 -1       348 4.60338E-04 0.00000E+00-2.76254E-05
 -1       349 4.60338E-04 0.00000E+00-3.05691E-05
 -1       350 4.60338E-04 0.00000E+00-3.35128E-05
 -1       351 4.60338E-04 0.00000E+00-3.64565E-05
 -1       352 4.60338E-04 0.00000E+00-8.49117E-06
 -1       353 4.60338E-04 0.00000E+00-1.14349E-05
 -1       354 4.60338E-04 0.00000E+00-1.43786E-05
 -1       355 4.60338E-04 0.00000E+00-1.73223E-05
 -1       356 4.60338E-04 0.00000E+00-2.02661E-05
 -1       357 4.60338E-04 0.00000E+00-2.32098E-05
 -1       358 4.60338E-04 0.00000E+00-2.61535E-05
 -1       359 4.60338E-04 0.00000E+00-2.90972E-05
 -1       360 4.60338E-04 0.00000E+00-3.20409E-05
 -1       361 4.60338E-04 0.00000E+00-3.49847E-05
 -1       362 4.60338E-04 0.00000E+00-3.79284E-05
 -1       363 0.00000E+00 4.60338E-04-9.96286E-06
 -1       364 0.00000E+00 4.60338E-04-1.29067E-05
 -1       365 0.00000E+00 4.60338E-04-1.58504E-05
 -1       366 0.00000E+00 4.60338E-04-1.87942E-05
 -1       367 0.00000E+00 4.60338E-04-2.17379E-05
 -1       368 0.00000E+00 4.60338E-04-2.46816E-05
 -1       369 0.00000E+00 4.60338E-04-2.76254E-05
 -1       370 0.00000E+00 4.60338E-04-3.05691E-05
 -1       371 0.00000E+00 4.60338E-04-3.35129E-05
 -1       372 0.00000E+00 4.60338E-04-3.64567E-05
 -1       373 0.00000E+00 4.60338E-04-8.49096E-06
 -1       374 0.00000E+00 4.60338E-04-1.14348E-05
 -1       375 0.00000E+00 4.60338E-04-1.43785E-05
 -1       376 0.00000E+00 4.60338E-04-1.73223E-05
 -1       377 0.00000E+00 4.60338E-04-2.02660E-05
 -1       378 0.00000E+00 4.60338E-04-2.32098E-05
 -1       379 0.00000E+00 4.60338E-04-2.61535E-05
 -1       380 0.00000E+00 4.60338E-04-2.90973E-05
 -1       381 0.00000E+00 4.60338E-04-3.20410E-05
 -1       382 0.00000E+00 4.60338E-04-3.49848E-05
 -1       383 0.00000E+00 4.60338E-04-3.79286E-05
 -1       384 0.00000E+00 4.24533E-04-9.96303E-06
 -1       385 0.00000E+00 4.24533E-04-1.29067E-05
 -1       386 0.00000E+00 4.24533E-04-1.58505E-05
 -1       387 0.00000E+00 4.24533E-04-1.87942E-05
 -1       388 0.00000E+00 4.24533E-04-2.17379E-05
 -1       389 0.00000E+00 4.24533E-04-2.46816E-05
 -1       390 0.00000E+00 4.24533E-04-2.76254E-05
 -1       391 0.00000E+00 4.24533E-04-3.05691E-05
 -1       392 0.00000E+00 4.24533E-04-3.35128E-05
 -1       393 0.00000E+00 4.24533E-04-3.64565E-05
 -1       394 0.00000E+00 4.24533E-04-8.49122E-06
 -1       395 0.00000E+00 4.24533E-04-1.14349E-05
 -1       396 0.00000E+00 4.24533E-04-1.43786E-05
 -1       397 0.00000E+00 4.24533E-04-1.73223E-05
 -1       398 0.00000E+00 4.24533E-04-2.02661E-05
 -1       399 0.00000E+00 4.24533E-04-2.32098E-05
 -1       400 0.00000E+00 4.24533E-04-2.61535E-05
 -1       401 0.00000E+00 4.24533E-04-2.90972E-05
 -1       402 0.00000E+00 4.24533E-04-3.20410E-05
 -1       403 0.00000E+00 4.24533E-04-3.49847E-05
 -1       404 0.00000E+00 4.24533E-04-3.79283E-05
 -1       405 3.99041E-04 6.32019E-05-7.01931E-06
 -1       406 3.84241E-04 1.24848E-04-7.01931E-06
 -1       407 3.59980E-04 1.83419E-04-7.01931E-06
 -1       408 3.26855E-04 2.37474E-04-7.01931E-06
 -1       409 2.85682E-04 2.85682E-04-7.01931E-06
 -1       410 2.37474E-04 3.26855E-04-7.01931E-06
 -1       411 1.83419E-04 3.59980E-04-7.01931E-06
 -1       412 1.24848E-04 3.84241E-04-7.01931E-06
 -1       413 6.32019E-05 3.99041E-04-7.01931E-06
 -1       414 3.83687E-04 6.07701E-05-7.01928E-06
 -1       415 3.69457E-04 1.20044E-04-7.01928E-06
 -1       416 3.46129E-04 1.76362E-04-7.01928E-06
 -1       417 3.14279E-04 2.28337E-04-7.01928E-06
 -1       418 2.74690E-04 2.74690E-04-7.01928E-06
 -1       419 2.28337E-04 3.14279E-04-7.01928E-06
 -1       420 1.76362E-04 3.46129E-04-7.01928E-06
 -1       421 1.20044E-04 3.69457E-04-7.01928E-06
 -1       422 6.07701E-05 3.83687E-04-7.01928E-06
 -1       423 3.72106E-04 5.89358E-05-7.01930E-06
 -1       424 3.58305E-04 1.16420E-04-7.01930E-06
 -1       425 3.35681E-04 1.71038E-04-7.01930E-06
 -1       426 3.04792E-04 2.21445E-04-7.01930E-06
 -1       427 2.66398E-04 2.66398E-04-7.01930E-06
 -1       428 2.21445E-04 3.04792E-04-7.01930E-06
 -1       429 1.71038E-04 3.35681E-04-7.01930E-06
 -1       430 1.16420E-04 3.58305E-04-7.01930E-06
 -1       431 5.89358E-05 3.72106E-04-7.01930E-06
 -1       432 3.63518E-04 5.75756E-05-7.01930E-06
 -1       433 3.50036E-04 1.13734E-04-7.01930E-06
 -1       434 3.27935E-04 1.67091E-04-7.01930E-06
 -1       435 2.97758E-04 2.16334E-04-7.01930E-06
 -1       436 2.60250E-04 2.60250E-04-7.01930E-06
 -1       437 2.16334E-04 2.97758E-04-7.01930E-06
 -1       438 1.67091E-04 3.27935E-04-7.01930E-06
 -1       439 1.13734E-04 3.50036E-04-7.01930E-06
 -1       440 5.75756E-05 3.63518E-04-7.01930E-06
 -1       441 3.57318E-04 5.65936E-05-7.01930E-06
 -1       442 3.44065E-04 1.11794E-04-7.01930E-06
 -1       443 3.22341E-04 1.64241E-04-7.01930E-06
 -1       444 2.92679E-04 2.12644E-04-7.01930E-06
 -1       445 2.55811E-04 2.55811E-04-7.01930E-06
 -1       446 2.12644E-04 2.92679E-04-7.01930E-06
 -1       447 1.64241E-04 3.22341E-04-7.01930E-06
 -1       448 1.11794E-04 3.44065E-04-7.01930E-06
 -1       449 5.65936E-05 3.57318E-04-7.01930E-06
 -1       450 3.53059E-04 5.59190E-05-7.01930E-06
 -1       451 3.39964E-04 1.10461E-04-7.01930E-06
 -1       452 3.18499E-04 1.62283E-04-7.01930E-06
 -1       453 2.89191E-04 2.10109E-04-7.01930E-06
 -1       454 2.52762E-04 2.52762E-04-7.01930E-06
 -1       455 2.10109E-04 2.89191E-04-7.01930E-06
 -1       456 1.62283E-04 3.18499E-04-7.01930E-06
 -1       457 1.10461E-04 3.39964E-04-7.01930E-06
 -1       458 5.59190E-05 3.53059E-04-7.01930E-06
 -1       459 3.50398E-04 5.54976E-05-7.01930E-06
 -1       460 3.37402E-04 1.09629E-04-7.01930E-06
 -1       461 3.16099E-04 1.61060E-04-7.01930E-06
 -1       462 2.87012E-04 2.08526E-04-7.01930E-06
 -1       463 2.50857E-04 2.50857E-04-7.01930E-06
 -1       464 2.08526E-04 2.87012E-04-7.01930E-06
 -1       465 1.61060E-04 3.16099E-04-7.01930E-06
 -1       466 1.09629E-04 3.37402E-04-7.01930E-06
 -1       467 5.54976E-05 3.50398E-04-7.01930E-06
 -1       468 3.49070E-04 5.52872E-05-7.01930E-06
 -1       469 3.36123E-04 1.09213E-04-7.01930E-06
 -1       470 3.14900E-04 1.60450E-04-7.01930E-06
 -1       471 2.85923E-04 2.07736E-04-7.01930E-06
 -1       472 2.49906E-04 2.49906E-04-7.01930E-06
 -1       473 2.07736E-04 2.85923E-04-7.01930E-06
 -1       474 1.60450E-04 3.14900E-04-7.01930E-06
 -1       475 1.09213E-04 3.36123E-04-7.01930E-06
 -1       476 5.52872E-05 3.49070E-04-7.01930E-06
 -1       477 3.48863E-04 5.52544E-05-7.01930E-06
 -1       478 3.35924E-04 1.09148E-04-7.01930E-06
 -1       479 3.14714E-04 1.60355E-04-7.01930E-06
 -1       480 2.85754E-04 2.07612E-04-7.01930E-06
 -1       481 2.49758E-04 2.49758E-04-7.01930E-06
 -1       482 2.07612E-04 2.85754E-04-7.01930E-06
 -1       483 1.60355E-04 3.14714E-04-7.01930E-06
 -1       484 1.09148E-04 3.35924E-04-7.01930E-06
 -1       485 5.52544E-05 3.48863E-04-7.01930E-06
 -1       486 3.49610E-04 5.53727E-05-7.01930E-06
 -1       487 3.36643E-04 1.09382E-04-7.01930E-06
 -1       488 3.15387E-04 1.60698E-04-7.01930E-06
 -1       489 2.86366E-04 2.08057E-04-7.01930E-06
 -1       490 2.50293E-04 2.50293E-04-7.01930E-06
 -1       491 2.08057E-04 2.86366E-04-7.01930E-06
 -1       492 1.60698E-04 3.15387E-04-7.01930E-06
 -1       493 1.09382E-04 3.36643E-04-7.01930E-06
 -1       494 5.53727E-05 3.49610E-04-7.01930E-06
 -1       495 3.51174E-04 5.56204E-05-7.01930E-06
 -1       496 3.38149E-04 1.09871E-04-7.01930E-06
 -1       497 3.16798E-04 1.61417E-04-7.01930E-06
 -1       498 2.87647E-04 2.08988E-04-7.01930E-06
 -1       499 2.51413E-04 2.51413E-04-7.01930E-06
 -1       500 2.08988E-04 2.87647E-04-7.01930E-06
 -1       501 1.61417E-04 3.16798E-04-7.01930E-06
 -1       502 1.09871E-04 3.38149E-04-7.01930E-06
 -1       503 5.56204E-05 3.51174E-04-7.01930E-06
 -1       504 3.53443E-04 5.59799E-05-7.01930E-06
 -1       505 3.40335E-04 1.10581E-04-7.01930E-06
 -1       506 3.18846E-04 1.62460E-04-7.01930E-06
 -1       507 2.89506E-04 2.10338E-04-7.01930E-06
 -1       508 2.53038E-04 2.53038E-04-7.01930E-06
 -1       509 2.10338E-04 2.89506E-04-7.01930E-06
 -1       510 1.62460E-04 3.18846E-04-7.01930E-06
 -1       511 1.10581E-04 3.40335E-04-7.01930E-06
 -1       512 5.59799E-05 3.53443E-04-7.01930E-06
 -1       513 3.56327E-04 5.64367E-05-7.01930E-06
 -1       514 3.43111E-04 1.11484E-04-7.01930E-06
 -1       515 3.21447E-04 1.63786E-04-7.01930E-06
 -1       516 2.91868E-04 2.12055E-04-7.01930E-06
 -1       517 2.55102E-04 2.55102E-04-7.01930E-06
 -1       518 2.12055E-04 2.91868E-04-7.01930E-06
 -1       519 1.63786E-04 3.21447E-04-7.01930E-06
 -1       520 1.11484E-04 3.43111E-04-7.01930E-06
 -1       521 5.64367E-05 3.56327E-04-7.01930E-06
 -1       522 3.59748E-04 5.69785E-05-7.01930E-06
 -1       523 3.46405E-04 1.12554E-04-7.01930E-06
 -1       524 3.24533E-04 1.65358E-04-7.01930E-06
 -1       525 2.94670E-04 2.14090E-04-7.01930E-06
 -1       526 2.57551E-04 2.57551E-04-7.01930E-06
 -1       527 2.14090E-04 2.94670E-04-7.01930E-06
 -1       528 1.65358E-04 3.24533E-04-7.01930E-06
 -1       529 1.12554E-04 3.46405E-04-7.01930E-06
 -1       530 5.69785E-05 3.59748E-04-7.01930E-06
 -1       531 3.63641E-04 5.75951E-05-7.01930E-06
 -1       532 3.50154E-04 1.13772E-04-7.01930E-06
 -1       533 3.28045E-04 1.67147E-04-7.01930E-06
 -1       534 2.97859E-04 2.16407E-04-7.01930E-06
 -1       535 2.60338E-04 2.60338E-04-7.01930E-06
 -1       536 2.16407E-04 2.97859E-04-7.01930E-06
 -1       537 1.67147E-04 3.28045E-04-7.01930E-06
 -1       538 1.13772E-04 3.50154E-04-7.01930E-06
 -1       539 5.75951E-05 3.63641E-04-7.01930E-06
 -1       540 3.67952E-04 5.82779E-05-7.01930E-06
 -1       541 3.54306E-04 1.15121E-04-7.01930E-06
 -1       542 3.31935E-04 1.69129E-04-7.01930E-06
 -1       543 3.01390E-04 2.18973E-04-7.01930E-06
 -1       544 2.63425E-04 2.63425E-04-7.01930E-06
 -1       545 2.18973E-04 3.01390E-04-7.01930E-06
 -1       546 1.69129E-04 3.31935E-04-7.01930E-06
 -1       547 1.15121E-04 3.54306E-04-7.01930E-06
 -1       548 5.82779E-05 3.67952E-04-7.01930E-06
 -1       549 3.72635E-04 5.90196E-05-7.01930E-06
 -1       550 3.58815E-04 1.16586E-04-7.01930E-06
 -1       551 3.36159E-04 1.71282E-04-7.01930E-06
 -1       552 3.05226E-04 2.21760E-04-7.01930E-06
 -1       553 2.66777E-04 2.66777E-04-7.01930E-06
 -1       554 2.21760E-04 3.05226E-04-7.01930E-06
 -1       555 1.71282E-04 3.36159E-04-7.01930E-06
 -1       556 1.16586E-04 3.58815E-04-7.01930E-06
 -1       557 5.90196E-05 3.72635E-04-7.01930E-06
 -1       558 3.77650E-04 5.98139E-05-7.01930E-06
 -1       559 3.63644E-04 1.18155E-04-7.01930E-06
 -1       560 3.40683E-04 1.73587E-04-7.01930E-06
 -1       561 3.09334E-04 2.24744E-04-7.01930E-06
 -1       562 2.70368E-04 2.70368E-04-7.01930E-06
 -1       563 2.24744E-04 3.09334E-04-7.01930E-06
 -1       564 1.73587E-04 3.40683E-04-7.01930E-06
 -1       565 1.18155E-04 3.63644E-04-7.01930E-06
 -1       566 5.98139E-05 3.77650E-04-7.01930E-06
 -1       567 3.82962E-04 6.06553E-05-7.01930E-06
 -1       568 3.68759E-04 1.19817E-04-7.01930E-06
 -1       569 3.45475E-04 1.76029E-04-7.01930E-06
 -1       570 3.13685E-04 2.27906E-04-7.01930E-06
 -1       571 2.74171E-04 2.74171E-04-7.01930E-06
 -1       572 2.27906E-04 3.13685E-04-7.01930E-06
 -1       573 1.76028E-04 3.45475E-04-7.01930E-06
 -1       574 1.19817E-04 3.68759E-04-7.01930E-06
 -1       575 6.06553E-05 3.82962E-04-7.01930E-06
 -1       576 3.88542E-04 6.15391E-05-7.01930E-06
 -1       577 3.74132E-04 1.21563E-04-7.01930E-06
 -1       578 3.50509E-04 1.78593E-04-7.01930E-06
 -1       579 3.18256E-04 2.31226E-04-7.01930E-06
 -1       580 2.78166E-04 2.78166E-04-7.01930E-06
 -1       581 2.31226E-04 3.18256E-04-7.01930E-06
 -1       582 1.78593E-04 3.50509E-04-7.01930E-06
 -1       583 1.21563E-04 3.74132E-04-7.01930E-06
 -1       584 6.15391E-05 3.88542E-04-7.01930E-06
 -1       585 3.94364E-04 6.24611E-05-7.01930E-06
 -1       586 3.79738E-04 1.23384E-04-7.01930E-06
 -1       587 3.55761E-04 1.81269E-04-7.01930E-06
 -1       588 3.23024E-04 2.34691E-04-7.01930E-06
 -1       589 2.82334E-04 2.82334E-04-7.01930E-06
 -1       590 2.34691E-04 3.23024E-04-7.01930E-06
 -1       591 1.81269E-04 3.55761E-04-7.01930E-06
 -1       592 1.23384E-04 3.79738E-04-7.01930E-06
 -1       593 6.24611E-05 3.94364E-04-7.01930E-06
 -1       594 4.00405E-04 6.34179E-05-7.01930E-06
 -1       595 3.85555E-04 1.25274E-04-7.01930E-06
 -1       596 3.61211E-04 1.84046E-04-7.01930E-06
 -1       597 3.27972E-04 2.38286E-04-7.01930E-06
 -1       598 2.86658E-04 2.86658E-04-7.01930E-06
 -1       599 2.38286E-04 3.27972E-04-7.01930E-06
 -1       600 1.84046E-04 3.61211E-04-7.01930E-06
 -1       601 1.25274E-04 3.85555E-04-7.01930E-06
 -1       602 6.34179E-05 4.00405E-04-7.01930E-06
 -1       603 4.06645E-04 6.44063E-05-7.01930E-06
 -1       604 3.91563E-04 1.27227E-04-7.01930E-06
 -1       605 3.66840E-04 1.86914E-04-7.01930E-06
 -1       606 3.33084E-04 2.42000E-04-7.01930E-06
 -1       607 2.91126E-04 2.91126E-04-7.01930E-06
 -1       608 2.42000E-04 3.33084E-04-7.01930E-06
 -1       609 1.86914E-04 3.66840E-04-7.01930E-06
 -1       610 1.27227E-04 3.91563E-04-7.01930E-06
 -1       611 6.44063E-05 4.06645E-04-7.01930E-06
 -1       612 4.13067E-04 6.54234E-05-7.01930E-06
 -1       613 3.97747E-04 1.29236E-04-7.01930E-06
 -1       614 3.72633E-04 1.89866E-04-7.01930E-06
 -1       615 3.38344E-04 2.45821E-04-7.01930E-06
 -1       616 2.95723E-04 2.95723E-04-7.01930E-06
 -1       617 2.45821E-04 3.38344E-04-7.01930E-06
 -1       618 1.89866E-04 3.72633E-04-7.01930E-06
 -1       619 1.29236E-04 3.97747E-04-7.01930E-06
 -1       620 6.54234E-05 4.13067E-04-7.01930E-06
 -1       621 4.19655E-04 6.64668E-05-7.01930E-06
 -1       622 4.04091E-04 1.31297E-04-7.01930E-06
 -1       623 3.78576E-04 1.92894E-04-7.01930E-06
 -1       624 3.43740E-04 2.49742E-04-7.01930E-06
 -1       625 3.00440E-04 3.00440E-04-7.01930E-06
 -1       626 2.49742E-04 3.43740E-04-7.01930E-06
 -1       627 1.92894E-04 3.78576E-04-7.01930E-06
 -1       628 1.31297E-04 4.04091E-04-7.01930E-06
 -1       629 6.64668E-05 4.19655E-04-7.01930E-06
 -1       630 4.26395E-04 6.75343E-05-7.01930E-06
 -1       631 4.10581E-04 1.33406E-04-7.01930E-06
 -1       632 3.84656E-04 1.95992E-04-7.01930E-06
 -1       633 3.49261E-04 2.53753E-04-7.01930E-06
 -1       634 3.05265E-04 3.05265E-04-7.01930E-06
 -1       635 2.53753E-04 3.49261E-04-7.01930E-06
 -1       636 1.95992E-04 3.84656E-04-7.01930E-06
 -1       637 1.33406E-04 4.10581E-04-7.01930E-06
 -1       638 6.75343E-05 4.26395E-04-7.01930E-06
 -1       639 4.33276E-04 6.86242E-05-7.01930E-06
 -1       640 4.17207E-04 1.35559E-04-7.01930E-06
 -1       641 3.90864E-04 1.99155E-04-7.01930E-06
 -1       642 3.54897E-04 2.57848E-04-7.01930E-06
 -1       643 3.10192E-04 3.10192E-04-7.01930E-06
 -1       644 2.57848E-04 3.54897E-04-7.01930E-06
 -1       645 1.99155E-04 3.90864E-04-7.01930E-06
 -1       646 1.35559E-04 4.17207E-04-7.01930E-06
 -1       647 6.86242E-05 4.33276E-04-7.01930E-06
 -1       648 4.40279E-04 6.97334E-05-7.01931E-06
 -1       649 4.23950E-04 1.37750E-04-7.01931E-06
 -1       650 3.97181E-04 2.02374E-04-7.01931E-06
 -1       651 3.60633E-04 2.62015E-04-7.01931E-06
 -1       652 3.15205E-04 3.15205E-04-7.01931E-06
 -1       653 2.62015E-04 3.60633E-04-7.01930E-06
 -1       654 2.02374E-04 3.97182E-04-7.01930E-06
 -1       655 1.37750E-04 4.23950E-04-7.01931E-06
 -1       656 6.97334E-05 4.40279E-04-7.01930E-06
 -1       657 4.47432E-04 7.08663E-05-7.01928E-06
 -1       658 4.30837E-04 1.39988E-04-7.01928E-06
 -1       659 4.03634E-04 2.05662E-04-7.01928E-06
 -1       660 3.66492E-04 2.66272E-04-7.01928E-06
 -1       661 3.20326E-04 3.20326E-04-7.01929E-06
 -1       662 2.66272E-04 3.66492E-04-7.01928E-06
 -1       663 2.05662E-04 4.03634E-04-7.01929E-06
 -1       664 1.39988E-04 4.30837E-04-7.01930E-06
 -1       665 7.08663E-05 4.47432E-04-7.01930E-06
 -1       666 4.03400E-04 3.17483E-05-7.01931E-06
 -1       667 4.08496E-04 6.46994E-05-7.01921E-06
 -1       669 3.93467E-04 9.44631E-05-7.01931E-06
 -1       670 3.93346E-04 1.27806E-04-7.01921E-06
 -1       672 3.73845E-04 1.54852E-04-7.01931E-06
 -1       673 3.68510E-04 1.87765E-04-7.01921E-06
 -1       675 3.45019E-04 2.11428E-04-7.01931E-06
 -1       676 3.34600E-04 2.43101E-04-7.01921E-06
 -1       678 3.07696E-04 2.62797E-04-7.01931E-06
 -1       679 2.92451E-04 2.92451E-04-7.01921E-06
 -1       681 2.62797E-04 3.07696E-04-7.01931E-06
 -1       682 2.43101E-04 3.34600E-04-7.01921E-06
 -1       684 2.11428E-04 3.45019E-04-7.01931E-06
 -1       685 1.87765E-04 3.68510E-04-7.01921E-06
 -1       687 1.54852E-04 3.73845E-04-7.01931E-06
 -1       688 1.27806E-04 3.93346E-04-7.01921E-06
 -1       690 9.44631E-05 3.93467E-04-7.01931E-06
 -1       691 6.46994E-05 4.08496E-04-7.01921E-06
 -1       693 3.17483E-05 4.03400E-04-7.01931E-06
 -1       695 3.87763E-04 3.05176E-05-7.01928E-06
 -1       696 3.90825E-04 6.19006E-05-7.01938E-06
 -1       698 3.78215E-04 9.08014E-05-7.01928E-06
 -1       699 3.76330E-04 1.22277E-04-7.01938E-06
 -1       701 3.59354E-04 1.48849E-04-7.01928E-06
 -1       702 3.52568E-04 1.79642E-04-7.01938E-06
 -1       704 3.31645E-04 2.03232E-04-7.01928E-06
 -1       705 3.20125E-04 2.32585E-04-7.01938E-06
 -1       707 2.95769E-04 2.52611E-04-7.01928E-06
 -1       708 2.79800E-04 2.79800E-04-7.01938E-06
 -1       710 2.52611E-04 2.95769E-04-7.01928E-06
 -1       711 2.32585E-04 3.20125E-04-7.01938E-06
 -1       713 2.03232E-04 3.31645E-04-7.01928E-06
 -1       714 1.79642E-04 3.52568E-04-7.01938E-06
 -1       716 1.48849E-04 3.59354E-04-7.01928E-06
 -1       717 1.22277E-04 3.76330E-04-7.01938E-06
 -1       719 9.08014E-05 3.78215E-04-7.01928E-06
 -1       720 6.19006E-05 3.90825E-04-7.01938E-06
 -1       722 3.05176E-05 3.87763E-04-7.01928E-06
 -1       724 3.75989E-04 2.95910E-05-7.01930E-06
 -1       725 3.77477E-04 5.97865E-05-7.01928E-06
 -1       727 3.66731E-04 8.80443E-05-7.01930E-06
 -1       728 3.63477E-04 1.18101E-04-7.01928E-06
 -1       730 3.48442E-04 1.44330E-04-7.01930E-06
 -1       731 3.40527E-04 1.73507E-04-7.01928E-06
 -1       733 3.21574E-04 1.97061E-04-7.01930E-06
 -1       734 3.09192E-04 2.24641E-04-7.01928E-06
 -1       736 2.86788E-04 2.44940E-04-7.01930E-06
 -1       737 2.70244E-04 2.70244E-04-7.01928E-06
 -1       739 2.44940E-04 2.86788E-04-7.01930E-06
 -1       740 2.24641E-04 3.09192E-04-7.01928E-06
 -1       742 1.97061E-04 3.21574E-04-7.01930E-06
 -1       743 1.73507E-04 3.40527E-04-7.01928E-06
 -1       745 1.44330E-04 3.48442E-04-7.01930E-06
 -1       746 1.18101E-04 3.63477E-04-7.01928E-06
 -1       748 8.80443E-05 3.66731E-04-7.01930E-06
 -1       749 5.97865E-05 3.77477E-04-7.01928E-06
 -1       751 2.95910E-05 3.75989E-04-7.01930E-06
 -1       753 3.67234E-04 2.89019E-05-7.01930E-06
 -1       754 3.67479E-04 5.82029E-05-7.01931E-06
 -1       756 3.58191E-04 8.59941E-05-7.01930E-06
 -1       757 3.53850E-04 1.14973E-04-7.01931E-06
 -1       759 3.40329E-04 1.40969E-04-7.01930E-06
 -1       760 3.31507E-04 1.68911E-04-7.01931E-06
 -1       762 3.14087E-04 1.92472E-04-7.01930E-06
 -1       763 3.01002E-04 2.18691E-04-7.01931E-06
 -1       765 2.80110E-04 2.39237E-04-7.01930E-06
 -1       766 2.63086E-04 2.63086E-04-7.01931E-06
 -1       768 2.39237E-04 2.80110E-04-7.01930E-06
 -1       769 2.18691E-04 3.01002E-04-7.01931E-06
 -1       771 1.92472E-04 3.14087E-04-7.01930E-06
 -1       772 1.68911E-04 3.31507E-04-7.01931E-06
 -1       774 1.40969E-04 3.40329E-04-7.01930E-06
 -1       775 1.14973E-04 3.53850E-04-7.01931E-06
 -1       777 8.59941E-05 3.58191E-04-7.01930E-06
 -1       778 5.82029E-05 3.67479E-04-7.01931E-06
 -1       780 2.89019E-05 3.67234E-04-7.01930E-06
 -1       782 3.60899E-04 2.84033E-05-7.01930E-06
 -1       783 3.60149E-04 5.70420E-05-7.01930E-06
 -1       785 3.52012E-04 8.45107E-05-7.01930E-06
 -1       786 3.46792E-04 1.12679E-04-7.01930E-06
 -1       788 3.34458E-04 1.38537E-04-7.01930E-06
 -1       789 3.24895E-04 1.65542E-04-7.01930E-06
 -1       791 3.08668E-04 1.89152E-04-7.01930E-06
 -1       792 2.94999E-04 2.14329E-04-7.01930E-06
 -1       794 2.75278E-04 2.35110E-04-7.01930E-06
 -1       795 2.57838E-04 2.57838E-04-7.01930E-06
 -1       797 2.35110E-04 2.75278E-04-7.01930E-06
 -1       798 2.14329E-04 2.94999E-04-7.01930E-06
 -1       800 1.89152E-04 3.08668E-04-7.01930E-06
 -1       801 1.65542E-04 3.24895E-04-7.01930E-06
 -1       803 1.38537E-04 3.34458E-04-7.01930E-06
 -1       804 1.12679E-04 3.46792E-04-7.01930E-06
 -1       806 8.45107E-05 3.52012E-04-7.01930E-06
 -1       807 5.70420E-05 3.60149E-04-7.01930E-06
 -1       809 2.84033E-05 3.60899E-04-7.01930E-06
 -1       811 3.56529E-04 2.80594E-05-7.01930E-06
 -1       812 3.54968E-04 5.62214E-05-7.01930E-06
 -1       814 3.47750E-04 8.34873E-05-7.01930E-06
 -1       815 3.41803E-04 1.11058E-04-7.01930E-06
 -1       817 3.30408E-04 1.36859E-04-7.01930E-06
 -1       818 3.20221E-04 1.63161E-04-7.01930E-06
 -1       820 3.04931E-04 1.86862E-04-7.01930E-06
 -1       821 2.90755E-04 2.11246E-04-7.01930E-06
 -1       823 2.71945E-04 2.32263E-04-7.01930E-06
 -1       824 2.54129E-04 2.54129E-04-7.01930E-06
 -1       826 2.32263E-04 2.71945E-04-7.01930E-06
 -1       827 2.11246E-04 2.90755E-04-7.01930E-06
 -1       829 1.86862E-04 3.04931E-04-7.01930E-06
 -1       830 1.63161E-04 3.20221E-04-7.01930E-06
 -1       832 1.36859E-04 3.30408E-04-7.01930E-06
 -1       833 1.11058E-04 3.41803E-04-7.01930E-06
 -1       835 8.34873E-05 3.47750E-04-7.01930E-06
 -1       836 5.62214E-05 3.54968E-04-7.01930E-06
 -1       838 2.80594E-05 3.56529E-04-7.01930E-06
 -1       840 3.53777E-04 2.78428E-05-7.01930E-06
 -1       841 3.51546E-04 5.56794E-05-7.01930E-06
 -1       843 3.45066E-04 8.28429E-05-7.01930E-06
 -1       844 3.38508E-04 1.09988E-04-7.01930E-06
 -1       846 3.27858E-04 1.35803E-04-7.01930E-06
 -1       847 3.17134E-04 1.61588E-04-7.01930E-06
 -1       849 3.02577E-04 1.85419E-04-7.01930E-06
 -1       850 2.87952E-04 2.09209E-04-7.01930E-06
 -1       852 2.69846E-04 2.30470E-04-7.01930E-06
 -1       853 2.51679E-04 2.51679E-04-7.01930E-06
 -1       855 2.30470E-04 2.69846E-04-7.01930E-06
 -1       856 2.09209E-04 2.87952E-04-7.01930E-06
 -1       858 1.85419E-04 3.02577E-04-7.01930E-06
 -1       859 1.61588E-04 3.17134E-04-7.01930E-06
 -1       861 1.35803E-04 3.27858E-04-7.01930E-06
 -1       862 1.09988E-04 3.38508E-04-7.01930E-06
 -1       864 8.28429E-05 3.45066E-04-7.01930E-06
 -1       865 5.56794E-05 3.51546E-04-7.01930E-06
 -1       867 2.78428E-05 3.53777E-04-7.01930E-06
 -1       869 3.52374E-04 2.77324E-05-7.01930E-06
 -1       870 3.49581E-04 5.53682E-05-7.01930E-06
 -1       872 3.43697E-04 8.25144E-05-7.01930E-06
 -1       873 3.36616E-04 1.09373E-04-7.01930E-06
 -1       875 3.26557E-04 1.35265E-04-7.01930E-06
 -1       876 3.15362E-04 1.60685E-04-7.01930E-06
 -1       878 3.01377E-04 1.84684E-04-7.01930E-06
 -1       879 2.86342E-04 2.08040E-04-7.01930E-06
 -1       881 2.68776E-04 2.29556E-04-7.01930E-06
 -1       882 2.50272E-04 2.50272E-04-7.01930E-06
 -1       884 2.29556E-04 2.68776E-04-7.01930E-06
 -1       885 2.08040E-04 2.86342E-04-7.01930E-06
 -1       887 1.84684E-04 3.01377E-04-7.01930E-06
 -1       888 1.60685E-04 3.15362E-04-7.01930E-06
 -1       890 1.35265E-04 3.26557E-04-7.01930E-06
 -1       891 1.09373E-04 3.36616E-04-7.01930E-06
 -1       893 8.25144E-05 3.43697E-04-7.01930E-06
 -1       894 5.53682E-05 3.49581E-04-7.01930E-06
 -1       896 2.77324E-05 3.52374E-04-7.01930E-06
 -1       898 3.52106E-04 2.77114E-05-7.01930E-06
 -1       899 3.48837E-04 5.52503E-05-7.01930E-06
 -1       901 3.43436E-04 8.24518E-05-7.01930E-06
 -1       902 3.35899E-04 1.09140E-04-7.01930E-06
 -1       904 3.26310E-04 1.35162E-04-7.01930E-06
 -1       905 3.14690E-04 1.60343E-04-7.01930E-06
 -1       907 3.01148E-04 1.84544E-04-7.01930E-06
 -1       908 2.85733E-04 2.07597E-04-7.01930E-06
 -1       910 2.68572E-04 2.29382E-04-7.01930E-06
 -1       911 2.49740E-04 2.49740E-04-7.01930E-06
 -1       913 2.29382E-04 2.68572E-04-7.01930E-06
 -1       914 2.07597E-04 2.85733E-04-7.01930E-06
 -1       916 1.84544E-04 3.01148E-04-7.01930E-06
 -1       917 1.60343E-04 3.14690E-04-7.01930E-06
 -1       919 1.35162E-04 3.26310E-04-7.01930E-06
 -1       920 1.09140E-04 3.35899E-04-7.01930E-06
 -1       922 8.24518E-05 3.43436E-04-7.01930E-06
 -1       923 5.52503E-05 3.48837E-04-7.01930E-06
 -1       925 2.77114E-05 3.52106E-04-7.01930E-06
 -1       927 3.52804E-04 2.77663E-05-7.01930E-06
 -1       928 3.49126E-04 5.52961E-05-7.01930E-06
 -1       930 3.44117E-04 8.26152E-05-7.01930E-06
 -1       931 3.36177E-04 1.09231E-04-7.01930E-06
 -1       933 3.26957E-04 1.35430E-04-7.01930E-06
 -1       934 3.14951E-04 1.60475E-04-7.01930E-06
 -1       936 3.01745E-04 1.84910E-04-7.01930E-06
 -1       937 2.85969E-04 2.07769E-04-7.01930E-06
 -1       939 2.69104E-04 2.29837E-04-7.01930E-06
 -1       940 2.49946E-04 2.49946E-04-7.01930E-06
 -1       942 2.29837E-04 2.69104E-04-7.01930E-06
 -1       943 2.07769E-04 2.85969E-04-7.01930E-06
 -1       945 1.84910E-04 3.01745E-04-7.01930E-06
 -1       946 1.60475E-04 3.14951E-04-7.01930E-06
 -1       948 1.35430E-04 3.26957E-04-7.01930E-06
 -1       949 1.09231E-04 3.36177E-04-7.01930E-06
 -1       951 8.26152E-05 3.44117E-04-7.01930E-06
 -1       952 5.52961E-05 3.49126E-04-7.01930E-06
 -1       954 2.77663E-05 3.52804E-04-7.01930E-06
 -1       956 3.54330E-04 2.78864E-05-7.01930E-06
 -1       957 3.50296E-04 5.54815E-05-7.01930E-06
 -1       959 3.45605E-04 8.29724E-05-7.01930E-06
 -1       960 3.37305E-04 1.09597E-04-7.01930E-06
 -1       962 3.28370E-04 1.36015E-04-7.01930E-06
 -1       963 3.16007E-04 1.61014E-04-7.01930E-06
 -1       965 3.03050E-04 1.85709E-04-7.01930E-06
 -1       966 2.86928E-04 2.08466E-04-7.01930E-06
 -1       968 2.70268E-04 2.30830E-04-7.01930E-06
 -1       969 2.50785E-04 2.50785E-04-7.01930E-06
 -1       971 2.30830E-04 2.70268E-04-7.01930E-06
 -1       972 2.08466E-04 2.86928E-04-7.01930E-06
 -1       974 1.85709E-04 3.03050E-04-7.01930E-06
 -1       975 1.61014E-04 3.16007E-04-7.01930E-06
 -1       977 1.36015E-04 3.28370E-04-7.01930E-06
 -1       978 1.09597E-04 3.37305E-04-7.01930E-06
 -1       980 8.29724E-05 3.45605E-04-7.01930E-06
 -1       981 5.54815E-05 3.50296E-04-7.01930E-06
 -1       983 2.78864E-05 3.54330E-04-7.01930E-06
 -1       985 3.56570E-04 2.80627E-05-7.01930E-06
 -1       986 3.52226E-04 5.57871E-05-7.01930E-06
 -1       988 3.47790E-04 8.34970E-05-7.01930E-06
 -1       989 3.39163E-04 1.10201E-04-7.01930E-06
 -1       991 3.30446E-04 1.36875E-04-7.01930E-06
 -1       992 3.17748E-04 1.61901E-04-7.01930E-06
 -1       994 3.04966E-04 1.86883E-04-7.01930E-06
 -1       995 2.88509E-04 2.09614E-04-7.01930E-06
 -1       997 2.71976E-04 2.32290E-04-7.01930E-06
 -1       998 2.52166E-04 2.52166E-04-7.01930E-06
 -1      1000 2.32290E-04 2.71976E-04-7.01930E-06
 -1      1001 2.09614E-04 2.88509E-04-7.01930E-06
 -1      1003 1.86883E-04 3.04966E-04-7.01930E-06
 -1      1004 1.61901E-04 3.17748E-04-7.01930E-06
 -1      1006 1.36875E-04 3.30446E-04-7.01930E-06
 -1      1007 1.10201E-04 3.39163E-04-7.01930E-06
 -1      1009 8.34970E-05 3.47790E-04-7.01930E-06
 -1      1010 5.57871E-05 3.52226E-04-7.01930E-06
 -1      1012 2.80627E-05 3.56570E-04-7.01930E-06
 -1      1014 3.59431E-04 2.82879E-05-7.01930E-06
 -1      1015 3.54813E-04 5.61969E-05-7.01930E-06
 -1      1017 3.50581E-04 8.41670E-05-7.01930E-06
 -1      1018 3.41654E-04 1.11010E-04-7.01930E-06
 -1      1020 3.33098E-04 1.37974E-04-7.01930E-06
 -1      1021 3.20082E-04 1.63090E-04-7.01930E-06
 -1      1023 3.07413E-04 1.88383E-04-7.01930E-06
 -1      1024 2.90628E-04 2.11154E-04-7.01930E-06
 -1      1026 2.74159E-04 2.34154E-04-7.01930E-06
 -1      1027 2.54018E-04 2.54018E-04-7.01930E-06
 -1      1029 2.34154E-04 2.74159E-04-7.01930E-06
 -1      1030 2.11154E-04 2.90628E-04-7.01930E-06
 -1      1032 1.88383E-04 3.07413E-04-7.01930E-06
 -1      1033 1.63090E-04 3.20082E-04-7.01930E-06
 -1      1035 1.37974E-04 3.33098E-04-7.01930E-06
 -1      1036 1.11010E-04 3.41654E-04-7.01930E-06
 -1      1038 8.41670E-05 3.50581E-04-7.01930E-06
 -1      1039 5.61969E-05 3.54813E-04-7.01930E-06
 -1      1041 2.82879E-05 3.59431E-04-7.01930E-06
 -1      1043 3.62837E-04 2.85559E-05-7.01930E-06
 -1      1044 3.57974E-04 5.66976E-05-7.01930E-06
 -1      1046 3.53902E-04 8.49644E-05-7.01930E-06
 -1      1047 3.44698E-04 1.11999E-04-7.01930E-06
 -1      1049 3.36254E-04 1.39281E-04-7.01930E-06
 -1      1050 3.22933E-04 1.64543E-04-7.01930E-06
 -1      1052 3.10326E-04 1.90168E-04-7.01930E-06
 -1      1053 2.93217E-04 2.13035E-04-7.01930E-06
 -1      1055 2.76756E-04 2.36372E-04-7.01930E-06
 -1      1056 2.56281E-04 2.56281E-04-7.01930E-06
 -1      1058 2.36372E-04 2.76756E-04-7.01930E-06
 -1      1059 2.13035E-04 2.93217E-04-7.01930E-06
 -1      1061 1.90168E-04 3.10326E-04-7.01930E-06
 -1      1062 1.64543E-04 3.22933E-04-7.01930E-06
 -1      1064 1.39281E-04 3.36254E-04-7.01930E-06
 -1      1065 1.11999E-04 3.44698E-04-7.01930E-06
 -1      1067 8.49644E-05 3.53902E-04-7.01930E-06
 -1      1068 5.66976E-05 3.57974E-04-7.01930E-06
 -1      1070 2.85559E-05 3.62837E-04-7.01930E-06
 -1      1072 3.66720E-04 2.88615E-05-7.01930E-06
 -1      1073 3.61639E-04 5.72779E-05-7.01930E-06
 -1      1075 3.57690E-04 8.58739E-05-7.01930E-06
 -1      1076 3.48226E-04 1.13146E-04-7.01930E-06
 -1      1078 3.39853E-04 1.40772E-04-7.01930E-06
 -1      1079 3.26239E-04 1.66227E-04-7.01930E-06
 -1      1081 3.13647E-04 1.92203E-04-7.01930E-06
 -1      1082 2.96219E-04 2.15216E-04-7.01930E-06
 -1      1084 2.79719E-04 2.38902E-04-7.01930E-06
 -1      1085 2.58905E-04 2.58905E-04-7.01930E-06
 -1      1087 2.38902E-04 2.79719E-04-7.01930E-06
 -1      1088 2.15216E-04 2.96219E-04-7.01930E-06
 -1      1090 1.92203E-04 3.13647E-04-7.01930E-06
 -1      1091 1.66227E-04 3.26239E-04-7.01930E-06
 -1      1093 1.40772E-04 3.39853E-04-7.01930E-06
 -1      1094 1.13146E-04 3.48226E-04-7.01930E-06
 -1      1096 8.58739E-05 3.57690E-04-7.01930E-06
 -1      1097 5.72779E-05 3.61639E-04-7.01930E-06
 -1      1099 2.88615E-05 3.66720E-04-7.01930E-06
 -1      1101 3.71027E-04 2.92005E-05-7.01930E-06
 -1      1102 3.65747E-04 5.79287E-05-7.01930E-06
 -1      1104 3.61891E-04 8.68824E-05-7.01930E-06
 -1      1105 3.52182E-04 1.14431E-04-7.01930E-06
 -1      1107 3.43844E-04 1.42425E-04-7.01930E-06
 -1      1108 3.29945E-04 1.68116E-04-7.01930E-06
 -1      1110 3.17331E-04 1.94461E-04-7.01930E-06
 -1      1111 2.99584E-04 2.17661E-04-7.01930E-06
 -1      1113 2.83004E-04 2.41708E-04-7.01930E-06
 -1      1114 2.61846E-04 2.61846E-04-7.01930E-06
 -1      1116 2.41708E-04 2.83004E-04-7.01930E-06
 -1      1117 2.17661E-04 2.99584E-04-7.01930E-06
 -1      1119 1.94461E-04 3.17331E-04-7.01930E-06
 -1      1120 1.68116E-04 3.29945E-04-7.01930E-06
 -1      1122 1.42425E-04 3.43844E-04-7.01930E-06
 -1      1123 1.14431E-04 3.52182E-04-7.01930E-06
 -1      1125 8.68824E-05 3.61891E-04-7.01930E-06
 -1      1126 5.79287E-05 3.65747E-04-7.01930E-06
 -1      1128 2.92005E-05 3.71027E-04-7.01930E-06
 -1      1130 3.75710E-04 2.95691E-05-7.01930E-06
 -1      1131 3.70250E-04 5.86418E-05-7.01930E-06
 -1      1133 3.66459E-04 8.79791E-05-7.01930E-06
 -1      1134 3.56518E-04 1.15840E-04-7.01930E-06
 -1      1136 3.48185E-04 1.44223E-04-7.01930E-06
 -1      1137 3.34007E-04 1.70185E-04-7.01930E-06
 -1      1139 3.21336E-04 1.96915E-04-7.01930E-06
 -1      1140 3.03272E-04 2.20340E-04-7.01930E-06
 -1      1142 2.86576E-04 2.44759E-04-7.01930E-06
 -1      1143 2.65070E-04 2.65070E-04-7.01930E-06
 -1      1145 2.44759E-04 2.86576E-04-7.01930E-06
 -1      1146 2.20340E-04 3.03272E-04-7.01930E-06
 -1      1148 1.96915E-04 3.21336E-04-7.01930E-06
 -1      1149 1.70185E-04 3.34007E-04-7.01930E-06
 -1      1151 1.44223E-04 3.48185E-04-7.01930E-06
 -1      1152 1.15840E-04 3.56518E-04-7.01930E-06
 -1      1154 8.79791E-05 3.66459E-04-7.01930E-06
 -1      1155 5.86418E-05 3.70250E-04-7.01930E-06
 -1      1157 2.95691E-05 3.75710E-04-7.01930E-06
 -1      1159 3.80730E-04 2.99641E-05-7.01930E-06
 -1      1160 3.75103E-04 5.94105E-05-7.01930E-06
 -1      1162 3.71355E-04 8.91544E-05-7.01930E-06
 -1      1163 3.61191E-04 1.17358E-04-7.01930E-06
 -1      1165 3.52836E-04 1.46149E-04-7.01930E-06
 -1      1166 3.38386E-04 1.72416E-04-7.01930E-06
 -1      1168 3.25629E-04 1.99546E-04-7.01930E-06
 -1      1169 3.07248E-04 2.23229E-04-7.01930E-06
 -1      1171 2.90404E-04 2.48029E-04-7.01930E-06
 -1      1172 2.68544E-04 2.68544E-04-7.01930E-06
 -1      1174 2.48029E-04 2.90404E-04-7.01930E-06
 -1      1175 2.23229E-04 3.07248E-04-7.01930E-06
 -1      1177 1.99546E-04 3.25629E-04-7.01930E-06
 -1      1178 1.72416E-04 3.38386E-04-7.01930E-06
 -1      1180 1.46149E-04 3.52836E-04-7.01930E-06
 -1      1181 1.17358E-04 3.61191E-04-7.01930E-06
 -1      1183 8.91544E-05 3.71355E-04-7.01930E-06
 -1      1184 5.94105E-05 3.75103E-04-7.01930E-06
 -1      1186 2.99641E-05 3.80730E-04-7.01930E-06
 -1      1188 3.86050E-04 3.03828E-05-7.01930E-06
 -1      1189 3.80271E-04 6.02290E-05-7.01930E-06
 -1      1191 3.76544E-04 9.04002E-05-7.01930E-06
 -1      1192 3.66167E-04 1.18975E-04-7.01930E-06
 -1      1194 3.57767E-04 1.48192E-04-7.01930E-06
 -1      1195 3.43047E-04 1.74791E-04-7.01930E-06
 -1      1197 3.30180E-04 2.02334E-04-7.01930E-06
 -1      1198 3.11480E-04 2.26304E-04-7.01930E-06
 -1      1200 2.94462E-04 2.51495E-04-7.01930E-06
 -1      1201 2.72244E-04 2.72244E-04-7.01930E-06
 -1      1203 2.51495E-04 2.94462E-04-7.01930E-06
 -1      1204 2.26304E-04 3.11480E-04-7.01930E-06
 -1      1206 2.02334E-04 3.30180E-04-7.01930E-06
 -1      1207 1.74791E-04 3.43047E-04-7.01930E-06
 -1      1209 1.48192E-04 3.57767E-04-7.01930E-06
 -1      1210 1.18975E-04 3.66167E-04-7.01930E-06
 -1      1212 9.04002E-05 3.76544E-04-7.01930E-06
 -1      1213 6.02290E-05 3.80271E-04-7.01930E-06
 -1      1215 3.03828E-05 3.86050E-04-7.01930E-06
 -1      1217 3.91641E-04 3.08228E-05-7.01930E-06
 -1      1218 3.85721E-04 6.10921E-05-7.01930E-06
 -1      1220 3.81998E-04 9.17096E-05-7.01930E-06
 -1      1221 3.71415E-04 1.20680E-04-7.01930E-06
 -1      1223 3.62948E-04 1.50338E-04-7.01930E-06
 -1      1224 3.47964E-04 1.77296E-04-7.01930E-06
 -1      1226 3.34962E-04 2.05265E-04-7.01930E-06
 -1      1227 3.15944E-04 2.29547E-04-7.01930E-06
 -1      1229 2.98727E-04 2.55137E-04-7.01930E-06
 -1      1230 2.76145E-04 2.76145E-04-7.01930E-06
 -1      1232 2.55137E-04 2.98727E-04-7.01930E-06
 -1      1233 2.29547E-04 3.15944E-04-7.01930E-06
 -1      1235 2.05265E-04 3.34962E-04-7.01930E-06
 -1      1236 1.77296E-04 3.47964E-04-7.01930E-06
 -1      1238 1.50338E-04 3.62948E-04-7.01930E-06
 -1      1239 1.20680E-04 3.71415E-04-7.01930E-06
 -1      1241 9.17096E-05 3.81998E-04-7.01930E-06
 -1      1242 6.10921E-05 3.85721E-04-7.01930E-06
 -1      1244 3.08228E-05 3.91641E-04-7.01930E-06
 -1      1246 3.97478E-04 3.12822E-05-7.01930E-06
 -1      1247 3.91424E-04 6.19955E-05-7.01930E-06
 -1      1249 3.87690E-04 9.30762E-05-7.01930E-06
 -1      1250 3.76907E-04 1.22465E-04-7.01930E-06
 -1      1252 3.68357E-04 1.52578E-04-7.01930E-06
 -1      1253 3.53109E-04 1.79918E-04-7.01930E-06
 -1      1255 3.39953E-04 2.08324E-04-7.01930E-06
 -1      1256 3.20616E-04 2.32941E-04-7.01930E-06
 -1      1258 3.03179E-04 2.58939E-04-7.01930E-06
 -1      1259 2.80229E-04 2.80229E-04-7.01930E-06
 -1      1261 2.58939E-04 3.03179E-04-7.01930E-06
 -1      1262 2.32941E-04 3.20616E-04-7.01930E-06
 -1      1264 2.08324E-04 3.39953E-04-7.01930E-06
 -1      1265 1.79918E-04 3.53109E-04-7.01930E-06
 -1      1267 1.52578E-04 3.68357E-04-7.01930E-06
 -1      1268 1.22465E-04 3.76907E-04-7.01930E-06
 -1      1270 9.30762E-05 3.87690E-04-7.01930E-06
 -1      1271 6.19955E-05 3.91424E-04-7.01930E-06
 -1      1273 3.12822E-05 3.97478E-04-7.01930E-06
 -1      1275 4.03536E-04 3.17589E-05-7.01930E-06
 -1      1276 3.97358E-04 6.29354E-05-7.01930E-06
 -1      1278 3.93599E-04 9.44948E-05-7.01930E-06
 -1      1279 3.82621E-04 1.24321E-04-7.01930E-06
 -1      1281 3.73971E-04 1.54904E-04-7.01930E-06
 -1      1282 3.58462E-04 1.82646E-04-7.01930E-06
 -1      1284 3.45135E-04 2.11499E-04-7.01930E-06
 -1      1285 3.25477E-04 2.36473E-04-7.01930E-06
 -1      1287 3.07800E-04 2.62886E-04-7.01930E-06
 -1      1288 2.84477E-04 2.84477E-04-7.01930E-06
 -1      1290 2.62886E-04 3.07800E-04-7.01930E-06
 -1      1291 2.36473E-04 3.25477E-04-7.01930E-06
 -1      1293 2.11499E-04 3.45135E-04-7.01930E-06
 -1      1294 1.82646E-04 3.58462E-04-7.01930E-06
 -1      1296 1.54904E-04 3.73971E-04-7.01930E-06
 -1      1297 1.24321E-04 3.82621E-04-7.01930E-06
 -1      1299 9.44948E-05 3.93599E-04-7.01930E-06
 -1      1300 6.29354E-05 3.97358E-04-7.01930E-06
 -1      1302 3.17589E-05 4.03536E-04-7.01930E-06
 -1      1304 4.09796E-04 3.22516E-05-7.01930E-06
 -1      1305 4.03501E-04 6.39083E-05-7.01930E-06
 -1      1307 3.99705E-04 9.59607E-05-7.01930E-06
 -1      1308 3.88536E-04 1.26243E-04-7.01930E-06
 -1      1310 3.79772E-04 1.57307E-04-7.01930E-06
 -1      1311 3.64004E-04 1.85469E-04-7.01930E-06
 -1      1313 3.50489E-04 2.14780E-04-7.01930E-06
 -1      1314 3.30509E-04 2.40129E-04-7.01930E-06
 -1      1316 3.12575E-04 2.66964E-04-7.01930E-06
 -1      1317 2.88875E-04 2.88875E-04-7.01930E-06
 -1      1319 2.66964E-04 3.12575E-04-7.01930E-06
 -1      1320 2.40129E-04 3.30509E-04-7.01930E-06
 -1      1322 2.14780E-04 3.50489E-04-7.01930E-06
 -1      1323 1.85469E-04 3.64004E-04-7.01930E-06
 -1      1325 1.57307E-04 3.79772E-04-7.01930E-06
 -1      1326 1.26243E-04 3.88536E-04-7.01930E-06
 -1      1328 9.59607E-05 3.99705E-04-7.01930E-06
 -1      1329 6.39083E-05 4.03501E-04-7.01930E-06
 -1      1331 3.22516E-05 4.09796E-04-7.01930E-06
 -1      1333 4.16239E-04 3.27587E-05-7.01930E-06
 -1      1334 4.09834E-04 6.49114E-05-7.01930E-06
 -1      1336 4.05990E-04 9.74696E-05-7.01930E-06
 -1      1337 3.94634E-04 1.28224E-04-7.01930E-06
 -1      1339 3.85744E-04 1.59780E-04-7.01930E-06
 -1      1340 3.69717E-04 1.88380E-04-7.01930E-06
 -1      1342 3.56000E-04 2.18157E-04-7.01930E-06
 -1      1343 3.35696E-04 2.43897E-04-7.01930E-06
 -1      1345 3.17490E-04 2.71162E-04-7.01930E-06
 -1      1346 2.93409E-04 2.93409E-04-7.01930E-06
 -1      1348 2.71162E-04 3.17490E-04-7.01930E-06
 -1      1349 2.43897E-04 3.35696E-04-7.01930E-06
 -1      1351 2.18157E-04 3.56000E-04-7.01930E-06
 -1      1352 1.88380E-04 3.69717E-04-7.01930E-06
 -1      1354 1.59780E-04 3.85744E-04-7.01930E-06
 -1      1355 1.28224E-04 3.94634E-04-7.01930E-06
 -1      1357 9.74696E-05 4.05990E-04-7.01930E-06
 -1      1358 6.49114E-05 4.09834E-04-7.01930E-06
 -1      1360 3.27587E-05 4.16239E-04-7.01930E-06
 -1      1362 4.22851E-04 3.32791E-05-7.01930E-06
 -1      1363 4.16341E-04 6.59420E-05-7.01930E-06
 -1      1365 4.12439E-04 9.90179E-05-7.01930E-06
 -1      1366 4.00900E-04 1.30260E-04-7.01930E-06
 -1      1368 3.91871E-04 1.62318E-04-7.01930E-06
 -1      1369 3.75587E-04 1.91371E-04-7.01930E-06
 -1      1371 3.61655E-04 2.21622E-04-7.01930E-06
 -1      1372 3.41026E-04 2.47770E-04-7.01930E-06
 -1      1374 3.22533E-04 2.75469E-04-7.01930E-06
 -1      1375 2.98067E-04 2.98067E-04-7.01930E-06
 -1      1377 2.75469E-04 3.22533E-04-7.01930E-06
 -1      1378 2.47770E-04 3.41026E-04-7.01930E-06
 -1      1380 2.21622E-04 3.61655E-04-7.01930E-06
 -1      1381 1.91371E-04 3.75587E-04-7.01930E-06
 -1      1383 1.62318E-04 3.91871E-04-7.01930E-06
 -1      1384 1.30260E-04 4.00900E-04-7.01930E-06
 -1      1386 9.90179E-05 4.12439E-04-7.01930E-06
 -1      1387 6.59420E-05 4.16341E-04-7.01930E-06
 -1      1389 3.32791E-05 4.22851E-04-7.01930E-06
 -1      1391 4.29617E-04 3.38116E-05-7.01930E-06
 -1      1392 4.23007E-04 6.69977E-05-7.01930E-06
 -1      1394 4.19039E-04 1.00602E-04-7.01930E-06
 -1      1395 4.07318E-04 1.32346E-04-7.01930E-06
 -1      1397 3.98142E-04 1.64916E-04-7.01930E-06
 -1      1398 3.81600E-04 1.94435E-04-7.01930E-06
 -1      1400 3.67442E-04 2.25169E-04-7.01930E-06
 -1      1401 3.46485E-04 2.51736E-04-7.01930E-06
 -1      1403 3.27694E-04 2.79877E-04-7.01930E-06
 -1      1404 3.02839E-04 3.02839E-04-7.01930E-06
 -1      1406 2.79877E-04 3.27694E-04-7.01930E-06
 -1      1407 2.51736E-04 3.46485E-04-7.01930E-06
 -1      1409 2.25169E-04 3.67442E-04-7.01930E-06
 -1      1410 1.94435E-04 3.81600E-04-7.01930E-06
 -1      1412 1.64916E-04 3.98142E-04-7.01930E-06
 -1      1413 1.32346E-04 4.07318E-04-7.01930E-06
 -1      1415 1.00602E-04 4.19039E-04-7.01930E-06
 -1      1416 6.69977E-05 4.23007E-04-7.01930E-06
 -1      1418 3.38116E-05 4.29617E-04-7.01930E-06
 -1      1420 4.36524E-04 3.43552E-05-7.01930E-06
 -1      1421 4.29819E-04 6.80766E-05-7.01930E-06
 -1      1423 4.25776E-04 1.02220E-04-7.01930E-06
 -1      1424 4.13877E-04 1.34477E-04-7.01930E-06
 -1      1426 4.04543E-04 1.67567E-04-7.01930E-06
 -1      1427 3.87745E-04 1.97566E-04-7.01930E-06
 -1      1429 3.73349E-04 2.28789E-04-7.01930E-06
 -1      1430 3.52065E-04 2.55790E-04-7.01930E-06
 -1      1432 3.32962E-04 2.84376E-04-7.01930E-06
 -1      1433 3.07716E-04 3.07716E-04-7.01930E-06
 -1      1435 2.84376E-04 3.32962E-04-7.01930E-06
 -1      1436 2.55790E-04 3.52065E-04-7.01930E-06
 -1      1438 2.28789E-04 3.73349E-04-7.01930E-06
 -1      1439 1.97566E-04 3.87745E-04-7.01930E-06
 -1      1441 1.67567E-04 4.04543E-04-7.01930E-06
 -1      1442 1.34477E-04 4.13877E-04-7.01930E-06
 -1      1444 1.02220E-04 4.25776E-04-7.01930E-06
 -1      1445 6.80766E-05 4.29819E-04-7.01930E-06
 -1      1447 3.43552E-05 4.36524E-04-7.01930E-06
 -1      1449 4.43565E-04 3.49094E-05-7.01931E-06
 -1      1450 4.36762E-04 6.91763E-05-7.01931E-06
 -1      1452 4.32643E-04 1.03868E-04-7.01931E-06
 -1      1453 4.20563E-04 1.36649E-04-7.01931E-06
 -1      1455 4.11068E-04 1.70270E-04-7.01931E-06
 -1      1456 3.94009E-04 2.00758E-04-7.01931E-06
 -1      1458 3.79371E-04 2.32479E-04-7.01931E-06
 -1      1459 3.57753E-04 2.59922E-04-7.01931E-06
 -1      1461 3.38333E-04 2.88963E-04-7.01931E-06
 -1      1462 3.12687E-04 3.12687E-04-7.01931E-06
 -1      1464 2.88963E-04 3.38333E-04-7.01931E-06
 -1      1465 2.59922E-04 3.57753E-04-7.01931E-06
 -1      1467 2.32479E-04 3.79371E-04-7.01931E-06
 -1      1468 2.00758E-04 3.94009E-04-7.01930E-06
 -1      1470 1.70270E-04 4.11068E-04-7.01931E-06
 -1      1471 1.36649E-04 4.20563E-04-7.01930E-06
 -1      1473 1.03868E-04 4.32643E-04-7.01931E-06
 -1      1474 6.91763E-05 4.36762E-04-7.01930E-06
 -1      1476 3.49094E-05 4.43565E-04-7.01931E-06
 -1      1478 4.50711E-04 3.54718E-05-7.01928E-06
 -1      1479 4.43841E-04 7.02975E-05-7.01928E-06
 -1      1481 4.39613E-04 1.05542E-04-7.01928E-06
 -1      1482 4.27380E-04 1.38864E-04-7.01928E-06
 -1      1484 4.17691E-04 1.73013E-04-7.01928E-06
 -1      1485 4.00395E-04 2.04011E-04-7.01928E-06
 -1      1487 3.85483E-04 2.36224E-04-7.01928E-06
 -1      1488 3.63551E-04 2.64135E-04-7.01928E-06
 -1      1490 3.43783E-04 2.93619E-04-7.01928E-06
 -1      1491 3.17755E-04 3.17755E-04-7.01928E-06
 -1      1493 2.93619E-04 3.43783E-04-7.01928E-06
 -1      1494 2.64135E-04 3.63551E-04-7.01928E-06
 -1      1496 2.36224E-04 3.85483E-04-7.01928E-06
 -1      1497 2.04011E-04 4.00395E-04-7.01928E-06
 -1      1499 1.73013E-04 4.17691E-04-7.01928E-06
 -1      1500 1.38864E-04 4.27380E-04-7.01929E-06
 -1      1502 1.05542E-04 4.39613E-04-7.01928E-06
 -1      1503 7.02975E-05 4.43841E-04-7.01929E-06
 -1      1505 3.54718E-05 4.50711E-04-7.01927E-06
 -1      1507 4.51036E-04 7.14370E-05-7.01932E-06
 -1      1509 4.34307E-04 1.41115E-04-7.01932E-06
 -1      1511 4.06885E-04 2.07318E-04-7.01933E-06
 -1      1513 3.69444E-04 2.68417E-04-7.01934E-06
 -1      1515 3.22906E-04 3.22906E-04-7.01933E-06
 -1      1517 2.68417E-04 3.69444E-04-7.01930E-06
 -1      1519 2.07318E-04 4.06885E-04-7.01932E-06
 -1      1521 1.41115E-04 4.34307E-04-7.01935E-06
 -1      1523 7.14371E-05 4.51036E-04-7.01929E-06
 -1      1526 4.04015E-04 0.00000E+00-9.96302E-06
 -1      1527 4.04015E-04 0.00000E+00-1.29067E-05
 -1      1528 4.04015E-04 0.00000E+00-1.58505E-05
 -1      1529 4.04015E-04 0.00000E+00-1.87942E-05
 -1      1530 4.04015E-04 0.00000E+00-2.17379E-05
 -1      1531 4.04015E-04 0.00000E+00-2.46816E-05
 -1      1532 4.04015E-04 0.00000E+00-2.76254E-05
 -1      1533 4.04015E-04 0.00000E+00-3.05691E-05
 -1      1534 4.04015E-04 0.00000E+00-3.35128E-05
 -1      1535 4.04015E-04 0.00000E+00-3.64565E-05
 -1      1536 3.88470E-04 0.00000E+00-9.96302E-06
 -1      1537 3.88470E-04 0.00000E+00-1.29068E-05
 -1      1538 3.88470E-04 0.00000E+00-1.58505E-05
 -1      1539 3.88470E-04 0.00000E+00-1.87942E-05
 -1      1540 3.88470E-04 0.00000E+00-2.17379E-05
 -1      1541 3.88470E-04 0.00000E+00-2.46816E-05
 -1      1542 3.88470E-04 0.00000E+00-2.76254E-05
 -1      1543 3.88470E-04 0.00000E+00-3.05691E-05
 -1      1544 3.88470E-04 0.00000E+00-3.35128E-05
 -1      1545 3.88470E-04 0.00000E+00-3.64565E-05
 -1      1546 3.76744E-04 0.00000E+00-9.96303E-06
 -1      1547 3.76744E-04 0.00000E+00-1.29067E-05
 -1      1548 3.76744E-04 0.00000E+00-1.58505E-05
 -1      1549 3.76744E-04 0.00000E+00-1.87942E-05
 -1      1550 3.76744E-04 0.00000E+00-2.17379E-05
 -1      1551 3.76744E-04 0.00000E+00-2.46816E-05
 -1      1552 3.76744E-04 0.00000E+00-2.76254E-05
 -1      1553 3.76744E-04 0.00000E+00-3.05691E-05
 -1      1554 3.76744E-04 0.00000E+00-3.35128E-05
 -1      1555 3.76744E-04 0.00000E+00-3.64565E-05
 -1      1556 3.68050E-04 0.00000E+00-9.96302E-06
 -1      1557 3.68050E-04 0.00000E+00-1.29067E-05
 -1      1558 3.68050E-04 0.00000E+00-1.58505E-05
 -1      1559 3.68050E-04 0.00000E+00-1.87942E-05
 -1      1560 3.68050E-04 0.00000E+00-2.17379E-05
 -1      1561 3.68050E-04 0.00000E+00-2.46816E-05
 -1      1562 3.68050E-04 0.00000E+00-2.76254E-05
 -1      1563 3.68050E-04 0.00000E+00-3.05691E-05
 -1      1564 3.68050E-04 0.00000E+00-3.35128E-05
 -1      1565 3.68050E-04 0.00000E+00-3.64565E-05
 -1      1566 3.61772E-04 0.00000E+00-9.96302E-06
 -1      1567 3.61772E-04 0.00000E+00-1.29067E-05
 -1      1568 3.61772E-04 0.00000E+00-1.58505E-05
 -1      1569 3.61772E-04 0.00000E+00-1.87942E-05
 -1      1570 3.61772E-04 0.00000E+00-2.17379E-05
 -1      1571 3.61772E-04 0.00000E+00-2.46816E-05
 -1      1572 3.61772E-04 0.00000E+00-2.76254E-05
 -1      1573 3.61772E-04 0.00000E+00-3.05691E-05
 -1      1574 3.61772E-04 0.00000E+00-3.35128E-05
 -1      1575 3.61772E-04 0.00000E+00-3.64565E-05
 -1      1576 3.57460E-04 0.00000E+00-9.96302E-06
 -1      1577 3.57460E-04 0.00000E+00-1.29067E-05
 -1      1578 3.57460E-04 0.00000E+00-1.58505E-05
 -1      1579 3.57460E-04 0.00000E+00-1.87942E-05
 -1      1580 3.57460E-04 0.00000E+00-2.17379E-05
 -1      1581 3.57460E-04 0.00000E+00-2.46816E-05
 -1      1582 3.57460E-04 0.00000E+00-2.76254E-05
 -1      1583 3.57460E-04 0.00000E+00-3.05691E-05
 -1      1584 3.57460E-04 0.00000E+00-3.35128E-05
 -1      1585 3.57460E-04 0.00000E+00-3.64565E-05
 -1      1586 3.54766E-04 0.00000E+00-9.96302E-06
 -1      1587 3.54766E-04 0.00000E+00-1.29067E-05
 -1      1588 3.54766E-04 0.00000E+00-1.58505E-05
 -1      1589 3.54766E-04 0.00000E+00-1.87942E-05
 -1      1590 3.54766E-04 0.00000E+00-2.17379E-05
 -1      1591 3.54766E-04 0.00000E+00-2.46816E-05
 -1      1592 3.54766E-04 0.00000E+00-2.76254E-05
 -1      1593 3.54766E-04 0.00000E+00-3.05691E-05
 -1      1594 3.54766E-04 0.00000E+00-3.35128E-05
 -1      1595 3.54766E-04 0.00000E+00-3.64565E-05
 -1      1596 3.53421E-04 0.00000E+00-9.96302E-06
 -1      1597 3.53421E-04 0.00000E+00-1.29067E-05
 -1      1598 3.53421E-04 0.00000E+00-1.58505E-05
 -1      1599 3.53421E-04 0.00000E+00-1.87942E-05
 -1      1600 3.53421E-04 0.00000E+00-2.17379E-05
 -1      1601 3.53421E-04 0.00000E+00-2.46816E-05
 -1      1602 3.53421E-04 0.00000E+00-2.76254E-05
 -1      1603 3.53421E-04 0.00000E+00-3.05691E-05
 -1      1604 3.53421E-04 0.00000E+00-3.35128E-05
 -1      1605 3.53421E-04 0.00000E+00-3.64565E-05
 -1      1606 3.53211E-04 0.00000E+00-9.96302E-06
 -1      1607 3.53211E-04 0.00000E+00-1.29067E-05
 -1      1608 3.53211E-04 0.00000E+00-1.58505E-05
 -1      1609 3.53211E-04 0.00000E+00-1.87942E-05
 -1      1610 3.53211E-04 0.00000E+00-2.17379E-05
 -1      1611 3.53211E-04 0.00000E+00-2.46816E-05
 -1      1612 3.53211E-04 0.00000E+00-2.76254E-05
 -1      1613 3.53211E-04 0.00000E+00-3.05691E-05
 -1      1614 3.53211E-04 0.00000E+00-3.35128E-05
 -1      1615 3.53211E-04 0.00000E+00-3.64565E-05
 -1      1616 3.53967E-04 0.00000E+00-9.96302E-06
 -1      1617 3.53967E-04 0.00000E+00-1.29067E-05
 -1      1618 3.53967E-04 0.00000E+00-1.58505E-05
 -1      1619 3.53967E-04 0.00000E+00-1.87942E-05
 -1      1620 3.53967E-04 0.00000E+00-2.17379E-05
 -1      1621 3.53967E-04 0.00000E+00-2.46816E-05
 -1      1622 3.53967E-04 0.00000E+00-2.76254E-05
 -1      1623 3.53967E-04 0.00000E+00-3.05691E-05
 -1      1624 3.53967E-04 0.00000E+00-3.35128E-05
 -1      1625 3.53967E-04 0.00000E+00-3.64565E-05
 -1      1626 3.55551E-04 0.00000E+00-9.96302E-06
 -1      1627 3.55551E-04 0.00000E+00-1.29067E-05
 -1      1628 3.55551E-04 0.00000E+00-1.58505E-05
 -1      1629 3.55551E-04 0.00000E+00-1.87942E-05
 -1      1630 3.55551E-04 0.00000E+00-2.17379E-05
 -1      1631 3.55551E-04 0.00000E+00-2.46816E-05
 -1      1632 3.55551E-04 0.00000E+00-2.76254E-05
 -1      1633 3.55551E-04 0.00000E+00-3.05691E-05
 -1      1634 3.55551E-04 0.00000E+00-3.35128E-05
 -1      1635 3.55551E-04 0.00000E+00-3.64565E-05
 -1      1636 3.57849E-04 0.00000E+00-9.96302E-06
 -1      1637 3.57849E-04 0.00000E+00-1.29067E-05
 -1      1638 3.57849E-04 0.00000E+00-1.58505E-05
 -1      1639 3.57849E-04 0.00000E+00-1.87942E-05
 -1      1640 3.57849E-04 0.00000E+00-2.17379E-05
 -1      1641 3.57849E-04 0.00000E+00-2.46816E-05
 -1      1642 3.57849E-04 0.00000E+00-2.76254E-05
 -1      1643 3.57849E-04 0.00000E+00-3.05691E-05
 -1      1644 3.57849E-04 0.00000E+00-3.35128E-05
 -1      1645 3.57849E-04 0.00000E+00-3.64565E-05
 -1      1646 3.60769E-04 0.00000E+00-9.96302E-06
 -1      1647 3.60769E-04 0.00000E+00-1.29067E-05
 -1      1648 3.60769E-04 0.00000E+00-1.58505E-05
 -1      1649 3.60769E-04 0.00000E+00-1.87942E-05
 -1      1650 3.60769E-04 0.00000E+00-2.17379E-05
 -1      1651 3.60769E-04 0.00000E+00-2.46816E-05
 -1      1652 3.60769E-04 0.00000E+00-2.76254E-05
 -1      1653 3.60769E-04 0.00000E+00-3.05691E-05
 -1      1654 3.60769E-04 0.00000E+00-3.35128E-05
 -1      1655 3.60769E-04 0.00000E+00-3.64565E-05
 -1      1656 3.64232E-04 0.00000E+00-9.96302E-06
 -1      1657 3.64232E-04 0.00000E+00-1.29067E-05
 -1      1658 3.64232E-04 0.00000E+00-1.58505E-05
 -1      1659 3.64232E-04 0.00000E+00-1.87942E-05
 -1      1660 3.64232E-04 0.00000E+00-2.17379E-05
 -1      1661 3.64232E-04 0.00000E+00-2.46816E-05
 -1      1662 3.64232E-04 0.00000E+00-2.76254E-05
 -1      1663 3.64232E-04 0.00000E+00-3.05691E-05
 -1      1664 3.64232E-04 0.00000E+00-3.35128E-05
 -1      1665 3.64232E-04 0.00000E+00-3.64565E-05
 -1      1666 3.68174E-04 0.00000E+00-9.96302E-06
 -1      1667 3.68174E-04 0.00000E+00-1.29067E-05
 -1      1668 3.68174E-04 0.00000E+00-1.58505E-05
 -1      1669 3.68174E-04 0.00000E+00-1.87942E-05
 -1      1670 3.68174E-04 0.00000E+00-2.17379E-05
 -1      1671 3.68174E-04 0.00000E+00-2.46816E-05
 -1      1672 3.68174E-04 0.00000E+00-2.76254E-05
 -1      1673 3.68174E-04 0.00000E+00-3.05691E-05
 -1      1674 3.68174E-04 0.00000E+00-3.35128E-05
 -1      1675 3.68174E-04 0.00000E+00-3.64565E-05
 -1      1676 3.72539E-04 0.00000E+00-9.96302E-06
 -1      1677 3.72539E-04 0.00000E+00-1.29067E-05
 -1      1678 3.72539E-04 0.00000E+00-1.58505E-05
 -1      1679 3.72539E-04 0.00000E+00-1.87942E-05
 -1      1680 3.72539E-04 0.00000E+00-2.17379E-05
 -1      1681 3.72539E-04 0.00000E+00-2.46816E-05
 -1      1682 3.72539E-04 0.00000E+00-2.76254E-05
 -1      1683 3.72539E-04 0.00000E+00-3.05691E-05
 -1      1684 3.72539E-04 0.00000E+00-3.35128E-05
 -1      1685 3.72539E-04 0.00000E+00-3.64565E-05
 -1      1686 3.77280E-04 0.00000E+00-9.96302E-06
 -1      1687 3.77280E-04 0.00000E+00-1.29067E-05
 -1      1688 3.77280E-04 0.00000E+00-1.58505E-05
 -1      1689 3.77280E-04 0.00000E+00-1.87942E-05
 -1      1690 3.77280E-04 0.00000E+00-2.17379E-05
 -1      1691 3.77280E-04 0.00000E+00-2.46816E-05
 -1      1692 3.77280E-04 0.00000E+00-2.76254E-05
 -1      1693 3.77280E-04 0.00000E+00-3.05691E-05
 -1      1694 3.77280E-04 0.00000E+00-3.35128E-05
 -1      1695 3.77280E-04 0.00000E+00-3.64565E-05
 -1      1696 3.82358E-04 0.00000E+00-9.96302E-06
 -1      1697 3.82358E-04 0.00000E+00-1.29067E-05
 -1      1698 3.82358E-04 0.00000E+00-1.58505E-05
 -1      1699 3.82358E-04 0.00000E+00-1.87942E-05
 -1      1700 3.82358E-04 0.00000E+00-2.17379E-05
 -1      1701 3.82358E-04 0.00000E+00-2.46816E-05
 -1      1702 3.82358E-04 0.00000E+00-2.76254E-05
 -1      1703 3.82358E-04 0.00000E+00-3.05691E-05
 -1      1704 3.82358E-04 0.00000E+00-3.35128E-05
 -1      1705 3.82358E-04 0.00000E+00-3.64565E-05
 -1      1706 3.87736E-04 0.00000E+00-9.96302E-06
 -1      1707 3.87736E-04 0.00000E+00-1.29067E-05
 -1      1708 3.87736E-04 0.00000E+00-1.58505E-05
 -1      1709 3.87736E-04 0.00000E+00-1.87942E-05
 -1      1710 3.87736E-04 0.00000E+00-2.17379E-05
 -1      1711 3.87736E-04 0.00000E+00-2.46816E-05
 -1      1712 3.87736E-04 0.00000E+00-2.76254E-05
 -1      1713 3.87736E-04 0.00000E+00-3.05691E-05
 -1      1714 3.87736E-04 0.00000E+00-3.35128E-05
 -1      1715 3.87736E-04 0.00000E+00-3.64565E-05
 -1      1716 3.93386E-04 0.00000E+00-9.96302E-06
 -1      1717 3.93386E-04 0.00000E+00-1.29067E-05
 -1      1718 3.93386E-04 0.00000E+00-1.58505E-05
 -1      1719 3.93386E-04 0.00000E+00-1.87942E-05
 -1      1720 3.93386E-04 0.00000E+00-2.17379E-05
 -1      1721 3.93386E-04 0.00000E+00-2.46816E-05
 -1      1722 3.93386E-04 0.00000E+00-2.76254E-05
 -1      1723 3.93386E-04 0.00000E+00-3.05691E-05
 -1      1724 3.93386E-04 0.00000E+00-3.35128E-05
 -1      1725 3.93386E-04 0.00000E+00-3.64565E-05
 -1      1726 3.99280E-04 0.00000E+00-9.96302E-06
 -1      1727 3.99280E-04 0.00000E+00-1.29067E-05
 -1      1728 3.99280E-04 0.00000E+00-1.58505E-05
 -1      1729 3.99280E-04 0.00000E+00-1.87942E-05
 -1      1730 3.99280E-04 0.00000E+00-2.17379E-05
 -1      1731 3.99280E-04 0.00000E+00-2.46816E-05
 -1      1732 3.99280E-04 0.00000E+00-2.76254E-05
 -1      1733 3.99280E-04 0.00000E+00-3.05691E-05
 -1      1734 3.99280E-04 0.00000E+00-3.35128E-05
 -1      1735 3.99280E-04 0.00000E+00-3.64565E-05
 -1      1736 4.05396E-04 0.00000E+00-9.96302E-06
 -1      1737 4.05396E-04 0.00000E+00-1.29067E-05
 -1      1738 4.05396E-04 0.00000E+00-1.58505E-05
 -1      1739 4.05396E-04 0.00000E+00-1.87942E-05
 -1      1740 4.05396E-04 0.00000E+00-2.17379E-05
 -1      1741 4.05396E-04 0.00000E+00-2.46816E-05
 -1      1742 4.05396E-04 0.00000E+00-2.76254E-05
 -1      1743 4.05396E-04 0.00000E+00-3.05691E-05
 -1      1744 4.05396E-04 0.00000E+00-3.35128E-05
 -1      1745 4.05396E-04 0.00000E+00-3.64565E-05
 -1      1746 4.11714E-04 0.00000E+00-9.96302E-06
 -1      1747 4.11714E-04 0.00000E+00-1.29067E-05
 -1      1748 4.11714E-04 0.00000E+00-1.58505E-05
 -1      1749 4.11714E-04 0.00000E+00-1.87942E-05
 -1      1750 4.11714E-04 0.00000E+00-2.17379E-05
 -1      1751 4.11714E-04 0.00000E+00-2.46816E-05
 -1      1752 4.11714E-04 0.00000E+00-2.76254E-05
 -1      1753 4.11714E-04 0.00000E+00-3.05691E-05
 -1      1754 4.11714E-04 0.00000E+00-3.35128E-05
 -1      1755 4.11714E-04 0.00000E+00-3.64565E-05
 -1      1756 4.18216E-04 0.00000E+00-9.96302E-06
 -1      1757 4.18216E-04 0.00000E+00-1.29067E-05
 -1      1758 4.18216E-04 0.00000E+00-1.58505E-05
 -1      1759 4.18216E-04 0.00000E+00-1.87942E-05
 -1      1760 4.18216E-04 0.00000E+00-2.17379E-05
 -1      1761 4.18216E-04 0.00000E+00-2.46816E-05
 -1      1762 4.18216E-04 0.00000E+00-2.76254E-05
 -1      1763 4.18216E-04 0.00000E+00-3.05691E-05
 -1      1764 4.18216E-04 0.00000E+00-3.35128E-05
 -1      1765 4.18216E-04 0.00000E+00-3.64565E-05
 -1      1766 4.24886E-04 0.00000E+00-9.96302E-06
 -1      1767 4.24886E-04 0.00000E+00-1.29067E-05
 -1      1768 4.24886E-04 0.00000E+00-1.58505E-05
 -1      1769 4.24886E-04 0.00000E+00-1.87942E-05
 -1      1770 4.24886E-04 0.00000E+00-2.17379E-05
 -1      1771 4.24886E-04 0.00000E+00-2.46816E-05
 -1      1772 4.24886E-04 0.00000E+00-2.76254E-05
 -1      1773 4.24886E-04 0.00000E+00-3.05691E-05
 -1      1774 4.24886E-04 0.00000E+00-3.35128E-05
 -1      1775 4.24886E-04 0.00000E+00-3.64565E-05
 -1      1776 4.31710E-04 0.00000E+00-9.96302E-06
 -1      1777 4.31710E-04 0.00000E+00-1.29067E-05
 -1      1778 4.31710E-04 0.00000E+00-1.58505E-05
 -1      1779 4.31710E-04 0.00000E+00-1.87942E-05
 -1      1780 4.31710E-04 0.00000E+00-2.17379E-05
 -1      1781 4.31710E-04 0.00000E+00-2.46816E-05
 -1      1782 4.31710E-04 0.00000E+00-2.76254E-05
 -1      1783 4.31710E-04 0.00000E+00-3.05691E-05
 -1      1784 4.31710E-04 0.00000E+00-3.35128E-05
 -1      1785 4.31710E-04 0.00000E+00-3.64565E-05
 -1      1786 4.38677E-04 0.00000E+00-9.96302E-06
 -1      1787 4.38677E-04 0.00000E+00-1.29067E-05
 -1      1788 4.38677E-04 0.00000E+00-1.58505E-05
 -1      1789 4.38677E-04 0.00000E+00-1.87942E-05
 -1      1790 4.38677E-04 0.00000E+00-2.17379E-05
 -1      1791 4.38677E-04 0.00000E+00-2.46816E-05
 -1      1792 4.38677E-04 0.00000E+00-2.76254E-05
 -1      1793 4.38677E-04 0.00000E+00-3.05691E-05
 -1      1794 4.38677E-04 0.00000E+00-3.35128E-05
 -1      1795 4.38677E-04 0.00000E+00-3.64565E-05
 -1      1796 4.45767E-04 0.00000E+00-9.96302E-06
 -1      1797 4.45767E-04 0.00000E+00-1.29067E-05
 -1      1798 4.45767E-04 0.00000E+00-1.58505E-05
 -1      1799 4.45767E-04 0.00000E+00-1.87942E-05
 -1      1800 4.45767E-04 0.00000E+00-2.17379E-05
 -1      1801 4.45767E-04 0.00000E+00-2.46816E-05
 -1      1802 4.45767E-04 0.00000E+00-2.76254E-05
 -1      1803 4.45767E-04 0.00000E+00-3.05691E-05
 -1      1804 4.45767E-04 0.00000E+00-3.35128E-05
 -1      1805 4.45767E-04 0.00000E+00-3.64565E-05
 -1      1806 4.53009E-04 0.00000E+00-9.96302E-06
 -1      1807 4.53009E-04 0.00000E+00-1.29067E-05
 -1      1808 4.53009E-04 0.00000E+00-1.58505E-05
 -1      1809 4.53009E-04 0.00000E+00-1.87942E-05
 -1      1810 4.53009E-04 0.00000E+00-2.17379E-05
 -1      1811 4.53009E-04 0.00000E+00-2.46816E-05
 -1      1812 4.53009E-04 0.00000E+00-2.76254E-05
 -1      1813 4.53009E-04 0.00000E+00-3.05691E-05
 -1      1814 4.53009E-04 0.00000E+00-3.35128E-05
 -1      1815 4.53009E-04 0.00000E+00-3.64565E-05
 -1      1816 4.04015E-04 0.00000E+00-8.49117E-06
 -1      1817 4.13588E-04 0.00000E+00-9.96299E-06
 -1      1819 4.04015E-04 0.00000E+00-1.14349E-05
 -1      1820 4.13588E-04 0.00000E+00-1.29067E-05
 -1      1822 4.04015E-04 0.00000E+00-1.43786E-05
 -1      1823 4.13588E-04 0.00000E+00-1.58505E-05
 -1      1825 4.04015E-04 0.00000E+00-1.73223E-05
 -1      1826 4.13588E-04 0.00000E+00-1.87942E-05
 -1      1828 4.04015E-04 0.00000E+00-2.02661E-05
 -1      1829 4.13588E-04 0.00000E+00-2.17379E-05
 -1      1831 4.04015E-04 0.00000E+00-2.32098E-05
 -1      1832 4.13588E-04 0.00000E+00-2.46816E-05
 -1      1834 4.04015E-04 0.00000E+00-2.61535E-05
 -1      1835 4.13588E-04 0.00000E+00-2.76254E-05
 -1      1837 4.04015E-04 0.00000E+00-2.90972E-05
 -1      1838 4.13588E-04 0.00000E+00-3.05691E-05
 -1      1840 4.04015E-04 0.00000E+00-3.20409E-05
 -1      1841 4.13588E-04 0.00000E+00-3.35128E-05
 -1      1843 4.04015E-04 0.00000E+00-3.49847E-05
 -1      1844 4.13588E-04 0.00000E+00-3.64566E-05
 -1      1846 4.04015E-04 0.00000E+00-3.79284E-05
 -1      1848 3.88470E-04 0.00000E+00-8.49115E-06
 -1      1849 3.95697E-04 0.00000E+00-9.96306E-06
 -1      1851 3.88470E-04 0.00000E+00-1.14349E-05
 -1      1852 3.95697E-04 0.00000E+00-1.29068E-05
 -1      1854 3.88470E-04 0.00000E+00-1.43786E-05
 -1      1855 3.95697E-04 0.00000E+00-1.58505E-05
 -1      1857 3.88470E-04 0.00000E+00-1.73223E-05
 -1      1858 3.95697E-04 0.00000E+00-1.87942E-05
 -1      1860 3.88470E-04 0.00000E+00-2.02661E-05
 -1      1861 3.95697E-04 0.00000E+00-2.17379E-05
 -1      1863 3.88470E-04 0.00000E+00-2.32098E-05
 -1      1864 3.95697E-04 0.00000E+00-2.46816E-05
 -1      1866 3.88470E-04 0.00000E+00-2.61535E-05
 -1      1867 3.95697E-04 0.00000E+00-2.76254E-05
 -1      1869 3.88470E-04 0.00000E+00-2.90972E-05
 -1      1870 3.95697E-04 0.00000E+00-3.05691E-05
 -1      1872 3.88470E-04 0.00000E+00-3.20409E-05
 -1      1873 3.95697E-04 0.00000E+00-3.35128E-05
 -1      1875 3.88470E-04 0.00000E+00-3.49847E-05
 -1      1876 3.95697E-04 0.00000E+00-3.64565E-05
 -1      1878 3.88470E-04 0.00000E+00-3.79284E-05
 -1      1880 3.76744E-04 0.00000E+00-8.49116E-06
 -1      1881 3.82182E-04 0.00000E+00-9.96301E-06
 -1      1883 3.76744E-04 0.00000E+00-1.14349E-05
 -1      1884 3.82182E-04 0.00000E+00-1.29067E-05
 -1      1886 3.76744E-04 0.00000E+00-1.43786E-05
 -1      1887 3.82182E-04 0.00000E+00-1.58505E-05
 -1      1889 3.76744E-04 0.00000E+00-1.73223E-05
 -1      1890 3.82182E-04 0.00000E+00-1.87942E-05
 -1      1892 3.76744E-04 0.00000E+00-2.02661E-05
 -1      1893 3.82182E-04 0.00000E+00-2.17379E-05
 -1      1895 3.76744E-04 0.00000E+00-2.32098E-05
 -1      1896 3.82182E-04 0.00000E+00-2.46816E-05
 -1      1898 3.76744E-04 0.00000E+00-2.61535E-05
 -1      1899 3.82182E-04 0.00000E+00-2.76254E-05
 -1      1901 3.76744E-04 0.00000E+00-2.90972E-05
 -1      1902 3.82182E-04 0.00000E+00-3.05691E-05
 -1      1904 3.76744E-04 0.00000E+00-3.20409E-05
 -1      1905 3.82182E-04 0.00000E+00-3.35128E-05
 -1      1907 3.76744E-04 0.00000E+00-3.49847E-05
 -1      1908 3.82182E-04 0.00000E+00-3.64565E-05
 -1      1910 3.76744E-04 0.00000E+00-3.79284E-05
 -1      1912 3.68050E-04 0.00000E+00-8.49116E-06
 -1      1913 3.72059E-04 0.00000E+00-9.96303E-06
 -1      1915 3.68050E-04 0.00000E+00-1.14349E-05
 -1      1916 3.72059E-04 0.00000E+00-1.29067E-05
 -1      1918 3.68050E-04 0.00000E+00-1.43786E-05
 -1      1919 3.72059E-04 0.00000E+00-1.58505E-05
 -1      1921 3.68050E-04 0.00000E+00-1.73223E-05
 -1      1922 3.72059E-04 0.00000E+00-1.87942E-05
 -1      1924 3.68050E-04 0.00000E+00-2.02661E-05
 -1      1925 3.72059E-04 0.00000E+00-2.17379E-05
 -1      1927 3.68050E-04 0.00000E+00-2.32098E-05
 -1      1928 3.72059E-04 0.00000E+00-2.46816E-05
 -1      1930 3.68050E-04 0.00000E+00-2.61535E-05
 -1      1931 3.72059E-04 0.00000E+00-2.76254E-05
 -1      1933 3.68050E-04 0.00000E+00-2.90972E-05
 -1      1934 3.72059E-04 0.00000E+00-3.05691E-05
 -1      1936 3.68050E-04 0.00000E+00-3.20409E-05
 -1      1937 3.72059E-04 0.00000E+00-3.35128E-05
 -1      1939 3.68050E-04 0.00000E+00-3.49847E-05
 -1      1940 3.72059E-04 0.00000E+00-3.64565E-05
 -1      1942 3.68050E-04 0.00000E+00-3.79284E-05
 -1      1944 3.61772E-04 0.00000E+00-8.49116E-06
 -1      1945 3.64638E-04 0.00000E+00-9.96302E-06
 -1      1947 3.61772E-04 0.00000E+00-1.14349E-05
 -1      1948 3.64638E-04 0.00000E+00-1.29067E-05
 -1      1950 3.61772E-04 0.00000E+00-1.43786E-05
 -1      1951 3.64638E-04 0.00000E+00-1.58505E-05
 -1      1953 3.61772E-04 0.00000E+00-1.73223E-05
 -1      1954 3.64638E-04 0.00000E+00-1.87942E-05
 -1      1956 3.61772E-04 0.00000E+00-2.02661E-05
 -1      1957 3.64638E-04 0.00000E+00-2.17379E-05
 -1      1959 3.61772E-04 0.00000E+00-2.32098E-05
 -1      1960 3.64638E-04 0.00000E+00-2.46816E-05
 -1      1962 3.61772E-04 0.00000E+00-2.61535E-05
 -1      1963 3.64638E-04 0.00000E+00-2.76254E-05
 -1      1965 3.61772E-04 0.00000E+00-2.90972E-05
 -1      1966 3.64638E-04 0.00000E+00-3.05691E-05
 -1      1968 3.61772E-04 0.00000E+00-3.20409E-05
 -1      1969 3.64638E-04 0.00000E+00-3.35128E-05
 -1      1971 3.61772E-04 0.00000E+00-3.49847E-05
 -1      1972 3.64638E-04 0.00000E+00-3.64565E-05
 -1      1974 3.61772E-04 0.00000E+00-3.79284E-05
 -1      1976 3.57460E-04 0.00000E+00-8.49116E-06
 -1      1977 3.59393E-04 0.00000E+00-9.96302E-06
 -1      1979 3.57460E-04 0.00000E+00-1.14349E-05
 -1      1980 3.59393E-04 0.00000E+00-1.29067E-05
 -1      1982 3.57460E-04 0.00000E+00-1.43786E-05
 -1      1983 3.59393E-04 0.00000E+00-1.58505E-05
 -1      1985 3.57460E-04 0.00000E+00-1.73223E-05
 -1      1986 3.59393E-04 0.00000E+00-1.87942E-05
 -1      1988 3.57460E-04 0.00000E+00-2.02661E-05
 -1      1989 3.59393E-04 0.00000E+00-2.17379E-05
 -1      1991 3.57460E-04 0.00000E+00-2.32098E-05
 -1      1992 3.59393E-04 0.00000E+00-2.46816E-05
 -1      1994 3.57460E-04 0.00000E+00-2.61535E-05
 -1      1995 3.59393E-04 0.00000E+00-2.76254E-05
 -1      1997 3.57460E-04 0.00000E+00-2.90972E-05
 -1      1998 3.59393E-04 0.00000E+00-3.05691E-05
 -1      2000 3.57460E-04 0.00000E+00-3.20409E-05
 -1      2001 3.59393E-04 0.00000E+00-3.35128E-05
 -1      2003 3.57460E-04 0.00000E+00-3.49847E-05
 -1      2004 3.59393E-04 0.00000E+00-3.64565E-05
 -1      2006 3.57460E-04 0.00000E+00-3.79284E-05
 -1      2008 3.54766E-04 0.00000E+00-8.49116E-06
 -1      2009 3.55928E-04 0.00000E+00-9.96302E-06
 -1      2011 3.54766E-04 0.00000E+00-1.14349E-05
 -1      2012 3.55928E-04 0.00000E+00-1.29067E-05
 -1      2014 3.54766E-04 0.00000E+00-1.43786E-05
 -1      2015 3.55928E-04 0.00000E+00-1.58505E-05
 -1      2017 3.54766E-04 0.00000E+00-1.73223E-05
 -1      2018 3.55928E-04 0.00000E+00-1.87942E-05
 -1      2020 3.54766E-04 0.00000E+00-2.02661E-05
 -1      2021 3.55928E-04 0.00000E+00-2.17379E-05
 -1      2023 3.54766E-04 0.00000E+00-2.32098E-05
 -1      2024 3.55928E-04 0.00000E+00-2.46816E-05
 -1      2026 3.54766E-04 0.00000E+00-2.61535E-05
 -1      2027 3.55928E-04 0.00000E+00-2.76254E-05
 -1      2029 3.54766E-04 0.00000E+00-2.90972E-05
 -1      2030 3.55928E-04 0.00000E+00-3.05691E-05
 -1      2032 3.54766E-04 0.00000E+00-3.20409E-05
 -1      2033 3.55928E-04 0.00000E+00-3.35128E-05
 -1      2035 3.54766E-04 0.00000E+00-3.49847E-05
 -1      2036 3.55928E-04 0.00000E+00-3.64565E-05
 -1      2038 3.54766E-04 0.00000E+00-3.79284E-05
 -1      2040 3.53421E-04 0.00000E+00-8.49116E-06
 -1      2041 3.53938E-04 0.00000E+00-9.96302E-06
 -1      2043 3.53421E-04 0.00000E+00-1.14349E-05
 -1      2044 3.53938E-04 0.00000E+00-1.29067E-05
 -1      2046 3.53421E-04 0.00000E+00-1.43786E-05
 -1      2047 3.53938E-04 0.00000E+00-1.58505E-05
 -1      2049 3.53421E-04 0.00000E+00-1.73223E-05
 -1      2050 3.53938E-04 0.00000E+00-1.87942E-05
 -1      2052 3.53421E-04 0.00000E+00-2.02661E-05
 -1      2053 3.53938E-04 0.00000E+00-2.17379E-05
 -1      2055 3.53421E-04 0.00000E+00-2.32098E-05
 -1      2056 3.53938E-04 0.00000E+00-2.46816E-05
 -1      2058 3.53421E-04 0.00000E+00-2.61535E-05
 -1      2059 3.53938E-04 0.00000E+00-2.76254E-05
 -1      2061 3.53421E-04 0.00000E+00-2.90972E-05
 -1      2062 3.53938E-04 0.00000E+00-3.05691E-05
 -1      2064 3.53421E-04 0.00000E+00-3.20409E-05
 -1      2065 3.53938E-04 0.00000E+00-3.35128E-05
 -1      2067 3.53421E-04 0.00000E+00-3.49847E-05
 -1      2068 3.53938E-04 0.00000E+00-3.64565E-05
 -1      2070 3.53421E-04 0.00000E+00-3.79284E-05
 -1      2072 3.53211E-04 0.00000E+00-8.49116E-06
 -1      2073 3.53185E-04 0.00000E+00-9.96302E-06
 -1      2075 3.53211E-04 0.00000E+00-1.14349E-05
 -1      2076 3.53185E-04 0.00000E+00-1.29067E-05
 -1      2078 3.53211E-04 0.00000E+00-1.43786E-05
 -1      2079 3.53185E-04 0.00000E+00-1.58505E-05
 -1      2081 3.53211E-04 0.00000E+00-1.73223E-05
 -1      2082 3.53185E-04 0.00000E+00-1.87942E-05
 -1      2084 3.53211E-04 0.00000E+00-2.02661E-05
 -1      2085 3.53185E-04 0.00000E+00-2.17379E-05
 -1      2087 3.53211E-04 0.00000E+00-2.32098E-05
 -1      2088 3.53185E-04 0.00000E+00-2.46816E-05
 -1      2090 3.53211E-04 0.00000E+00-2.61535E-05
 -1      2091 3.53185E-04 0.00000E+00-2.76254E-05
 -1      2093 3.53211E-04 0.00000E+00-2.90972E-05
 -1      2094 3.53185E-04 0.00000E+00-3.05691E-05
 -1      2096 3.53211E-04 0.00000E+00-3.20409E-05
 -1      2097 3.53185E-04 0.00000E+00-3.35128E-05
 -1      2099 3.53211E-04 0.00000E+00-3.49847E-05
 -1      2100 3.53185E-04 0.00000E+00-3.64565E-05
 -1      2102 3.53211E-04 0.00000E+00-3.79284E-05
 -1      2104 3.53967E-04 0.00000E+00-8.49116E-06
 -1      2105 3.53478E-04 0.00000E+00-9.96302E-06
 -1      2107 3.53967E-04 0.00000E+00-1.14349E-05
 -1      2108 3.53478E-04 0.00000E+00-1.29067E-05
 -1      2110 3.53967E-04 0.00000E+00-1.43786E-05
 -1      2111 3.53478E-04 0.00000E+00-1.58505E-05
 -1      2113 3.53967E-04 0.00000E+00-1.73223E-05
 -1      2114 3.53478E-04 0.00000E+00-1.87942E-05
 -1      2116 3.53967E-04 0.00000E+00-2.02661E-05
 -1      2117 3.53478E-04 0.00000E+00-2.17379E-05
 -1      2119 3.53967E-04 0.00000E+00-2.32098E-05
 -1      2120 3.53478E-04 0.00000E+00-2.46816E-05
 -1      2122 3.53967E-04 0.00000E+00-2.61535E-05
 -1      2123 3.53478E-04 0.00000E+00-2.76254E-05
 -1      2125 3.53967E-04 0.00000E+00-2.90972E-05
 -1      2126 3.53478E-04 0.00000E+00-3.05691E-05
 -1      2128 3.53967E-04 0.00000E+00-3.20409E-05
 -1      2129 3.53478E-04 0.00000E+00-3.35128E-05
 -1      2131 3.53967E-04 0.00000E+00-3.49847E-05
 -1      2132 3.53478E-04 0.00000E+00-3.64565E-05
 -1      2134 3.53967E-04 0.00000E+00-3.79284E-05
 -1      2136 3.55551E-04 0.00000E+00-8.49116E-06
 -1      2137 3.54663E-04 0.00000E+00-9.96302E-06
 -1      2139 3.55551E-04 0.00000E+00-1.14349E-05
 -1      2140 3.54663E-04 0.00000E+00-1.29067E-05
 -1      2142 3.55551E-04 0.00000E+00-1.43786E-05
 -1      2143 3.54663E-04 0.00000E+00-1.58505E-05
 -1      2145 3.55551E-04 0.00000E+00-1.73223E-05
 -1      2146 3.54663E-04 0.00000E+00-1.87942E-05
 -1      2148 3.55551E-04 0.00000E+00-2.02661E-05
 -1      2149 3.54663E-04 0.00000E+00-2.17379E-05
 -1      2151 3.55551E-04 0.00000E+00-2.32098E-05
 -1      2152 3.54663E-04 0.00000E+00-2.46816E-05
 -1      2154 3.55551E-04 0.00000E+00-2.61535E-05
 -1      2155 3.54663E-04 0.00000E+00-2.76254E-05
 -1      2157 3.55551E-04 0.00000E+00-2.90972E-05
 -1      2158 3.54663E-04 0.00000E+00-3.05691E-05
 -1      2160 3.55551E-04 0.00000E+00-3.20409E-05
 -1      2161 3.54663E-04 0.00000E+00-3.35128E-05
 -1      2163 3.55551E-04 0.00000E+00-3.49847E-05
 -1      2164 3.54663E-04 0.00000E+00-3.64565E-05
 -1      2166 3.55551E-04 0.00000E+00-3.79284E-05
 -1      2168 3.57849E-04 0.00000E+00-8.49116E-06
 -1      2169 3.56617E-04 0.00000E+00-9.96302E-06
 -1      2171 3.57849E-04 0.00000E+00-1.14349E-05
 -1      2172 3.56617E-04 0.00000E+00-1.29067E-05
 -1      2174 3.57849E-04 0.00000E+00-1.43786E-05
 -1      2175 3.56617E-04 0.00000E+00-1.58505E-05
 -1      2177 3.57849E-04 0.00000E+00-1.73223E-05
 -1      2178 3.56617E-04 0.00000E+00-1.87942E-05
 -1      2180 3.57849E-04 0.00000E+00-2.02661E-05
 -1      2181 3.56617E-04 0.00000E+00-2.17379E-05
 -1      2183 3.57849E-04 0.00000E+00-2.32098E-05
 -1      2184 3.56617E-04 0.00000E+00-2.46816E-05
 -1      2186 3.57849E-04 0.00000E+00-2.61535E-05
 -1      2187 3.56617E-04 0.00000E+00-2.76254E-05
 -1      2189 3.57849E-04 0.00000E+00-2.90972E-05
 -1      2190 3.56617E-04 0.00000E+00-3.05691E-05
 -1      2192 3.57849E-04 0.00000E+00-3.20409E-05
 -1      2193 3.56617E-04 0.00000E+00-3.35128E-05
 -1      2195 3.57849E-04 0.00000E+00-3.49847E-05
 -1      2196 3.56617E-04 0.00000E+00-3.64565E-05
 -1      2198 3.57849E-04 0.00000E+00-3.79284E-05
 -1      2200 3.60769E-04 0.00000E+00-8.49116E-06
 -1      2201 3.59236E-04 0.00000E+00-9.96302E-06
 -1      2203 3.60769E-04 0.00000E+00-1.14349E-05
 -1      2204 3.59236E-04 0.00000E+00-1.29067E-05
 -1      2206 3.60769E-04 0.00000E+00-1.43786E-05
 -1      2207 3.59236E-04 0.00000E+00-1.58505E-05
 -1      2209 3.60769E-04 0.00000E+00-1.73223E-05
 -1      2210 3.59236E-04 0.00000E+00-1.87942E-05
 -1      2212 3.60769E-04 0.00000E+00-2.02661E-05
 -1      2213 3.59236E-04 0.00000E+00-2.17379E-05
 -1      2215 3.60769E-04 0.00000E+00-2.32098E-05
 -1      2216 3.59236E-04 0.00000E+00-2.46816E-05
 -1      2218 3.60769E-04 0.00000E+00-2.61535E-05
 -1      2219 3.59236E-04 0.00000E+00-2.76254E-05
 -1      2221 3.60769E-04 0.00000E+00-2.90972E-05
 -1      2222 3.59236E-04 0.00000E+00-3.05691E-05
 -1      2224 3.60769E-04 0.00000E+00-3.20409E-05
 -1      2225 3.59236E-04 0.00000E+00-3.35128E-05
 -1      2227 3.60769E-04 0.00000E+00-3.49847E-05
 -1      2228 3.59236E-04 0.00000E+00-3.64565E-05
 -1      2230 3.60769E-04 0.00000E+00-3.79284E-05
 -1      2232 3.64232E-04 0.00000E+00-8.49116E-06
 -1      2233 3.62437E-04 0.00000E+00-9.96302E-06
 -1      2235 3.64232E-04 0.00000E+00-1.14349E-05
 -1      2236 3.62437E-04 0.00000E+00-1.29067E-05
 -1      2238 3.64232E-04 0.00000E+00-1.43786E-05
 -1      2239 3.62437E-04 0.00000E+00-1.58505E-05
 -1      2241 3.64232E-04 0.00000E+00-1.73223E-05
 -1      2242 3.62437E-04 0.00000E+00-1.87942E-05
 -1      2244 3.64232E-04 0.00000E+00-2.02661E-05
 -1      2245 3.62437E-04 0.00000E+00-2.17379E-05
 -1      2247 3.64232E-04 0.00000E+00-2.32098E-05
 -1      2248 3.62437E-04 0.00000E+00-2.46816E-05
 -1      2250 3.64232E-04 0.00000E+00-2.61535E-05
 -1      2251 3.62437E-04 0.00000E+00-2.76254E-05
 -1      2253 3.64232E-04 0.00000E+00-2.90972E-05
 -1      2254 3.62437E-04 0.00000E+00-3.05691E-05
 -1      2256 3.64232E-04 0.00000E+00-3.20409E-05
 -1      2257 3.62437E-04 0.00000E+00-3.35128E-05
 -1      2259 3.64232E-04 0.00000E+00-3.49847E-05
 -1      2260 3.62437E-04 0.00000E+00-3.64565E-05
 -1      2262 3.64232E-04 0.00000E+00-3.79284E-05
 -1      2264 3.68174E-04 0.00000E+00-8.49116E-06
 -1      2265 3.66147E-04 0.00000E+00-9.96302E-06
 -1      2267 3.68174E-04 0.00000E+00-1.14349E-05
 -1      2268 3.66147E-04 0.00000E+00-1.29067E-05
 -1      2270 3.68174E-04 0.00000E+00-1.43786E-05
 -1      2271 3.66147E-04 0.00000E+00-1.58505E-05
 -1      2273 3.68174E-04 0.00000E+00-1.73223E-05
 -1      2274 3.66147E-04 0.00000E+00-1.87942E-05
 -1      2276 3.68174E-04 0.00000E+00-2.02661E-05
 -1      2277 3.66147E-04 0.00000E+00-2.17379E-05
 -1      2279 3.68174E-04 0.00000E+00-2.32098E-05
 -1      2280 3.66147E-04 0.00000E+00-2.46816E-05
 -1      2282 3.68174E-04 0.00000E+00-2.61535E-05
 -1      2283 3.66147E-04 0.00000E+00-2.76254E-05
 -1      2285 3.68174E-04 0.00000E+00-2.90972E-05
 -1      2286 3.66147E-04 0.00000E+00-3.05691E-05
 -1      2288 3.68174E-04 0.00000E+00-3.20409E-05
 -1      2289 3.66147E-04 0.00000E+00-3.35128E-05
 -1      2291 3.68174E-04 0.00000E+00-3.49847E-05
 -1      2292 3.66147E-04 0.00000E+00-3.64565E-05
 -1      2294 3.68174E-04 0.00000E+00-3.79284E-05
 -1      2296 3.72539E-04 0.00000E+00-8.49116E-06
 -1      2297 3.70306E-04 0.00000E+00-9.96302E-06
 -1      2299 3.72539E-04 0.00000E+00-1.14349E-05
 -1      2300 3.70306E-04 0.00000E+00-1.29067E-05
 -1      2302 3.72539E-04 0.00000E+00-1.43786E-05
 -1      2303 3.70306E-04 0.00000E+00-1.58505E-05
 -1      2305 3.72539E-04 0.00000E+00-1.73223E-05
 -1      2306 3.70306E-04 0.00000E+00-1.87942E-05
 -1      2308 3.72539E-04 0.00000E+00-2.02661E-05
 -1      2309 3.70306E-04 0.00000E+00-2.17379E-05
 -1      2311 3.72539E-04 0.00000E+00-2.32098E-05
 -1      2312 3.70306E-04 0.00000E+00-2.46816E-05
 -1      2314 3.72539E-04 0.00000E+00-2.61535E-05
 -1      2315 3.70306E-04 0.00000E+00-2.76254E-05
 -1      2317 3.72539E-04 0.00000E+00-2.90972E-05
 -1      2318 3.70306E-04 0.00000E+00-3.05691E-05
 -1      2320 3.72539E-04 0.00000E+00-3.20409E-05
 -1      2321 3.70306E-04 0.00000E+00-3.35128E-05
 -1      2323 3.72539E-04 0.00000E+00-3.49847E-05
 -1      2324 3.70306E-04 0.00000E+00-3.64565E-05
 -1      2326 3.72539E-04 0.00000E+00-3.79284E-05
 -1      2328 3.77280E-04 0.00000E+00-8.49116E-06
 -1      2329 3.74865E-04 0.00000E+00-9.96302E-06
 -1      2331 3.77280E-04 0.00000E+00-1.14349E-05
 -1      2332 3.74865E-04 0.00000E+00-1.29067E-05
 -1      2334 3.77280E-04 0.00000E+00-1.43786E-05
 -1      2335 3.74865E-04 0.00000E+00-1.58505E-05
 -1      2337 3.77280E-04 0.00000E+00-1.73223E-05
 -1      2338 3.74865E-04 0.00000E+00-1.87942E-05
 -1      2340 3.77280E-04 0.00000E+00-2.02661E-05
 -1      2341 3.74865E-04 0.00000E+00-2.17379E-05
 -1      2343 3.77280E-04 0.00000E+00-2.32098E-05
 -1      2344 3.74865E-04 0.00000E+00-2.46816E-05
 -1      2346 3.77280E-04 0.00000E+00-2.61535E-05
 -1      2347 3.74865E-04 0.00000E+00-2.76254E-05
 -1      2349 3.77280E-04 0.00000E+00-2.90972E-05
 -1      2350 3.74865E-04 0.00000E+00-3.05691E-05
 -1      2352 3.77280E-04 0.00000E+00-3.20409E-05
 -1      2353 3.74865E-04 0.00000E+00-3.35128E-05
 -1      2355 3.77280E-04 0.00000E+00-3.49847E-05
 -1      2356 3.74865E-04 0.00000E+00-3.64565E-05
 -1      2358 3.77280E-04 0.00000E+00-3.79284E-05
 -1      2360 3.82358E-04 0.00000E+00-8.49116E-06
 -1      2361 3.79779E-04 0.00000E+00-9.96302E-06
 -1      2363 3.82358E-04 0.00000E+00-1.14349E-05
 -1      2364 3.79779E-04 0.00000E+00-1.29067E-05
 -1      2366 3.82358E-04 0.00000E+00-1.43786E-05
 -1      2367 3.79779E-04 0.00000E+00-1.58505E-05
 -1      2369 3.82358E-04 0.00000E+00-1.73223E-05
 -1      2370 3.79779E-04 0.00000E+00-1.87942E-05
 -1      2372 3.82358E-04 0.00000E+00-2.02661E-05
 -1      2373 3.79779E-04 0.00000E+00-2.17379E-05
 -1      2375 3.82358E-04 0.00000E+00-2.32098E-05
 -1      2376 3.79779E-04 0.00000E+00-2.46816E-05
 -1      2378 3.82358E-04 0.00000E+00-2.61535E-05
 -1      2379 3.79779E-04 0.00000E+00-2.76254E-05
 -1      2381 3.82358E-04 0.00000E+00-2.90972E-05
 -1      2382 3.79779E-04 0.00000E+00-3.05691E-05
 -1      2384 3.82358E-04 0.00000E+00-3.20409E-05
 -1      2385 3.79779E-04 0.00000E+00-3.35128E-05
 -1      2387 3.82358E-04 0.00000E+00-3.49847E-05
 -1      2388 3.79779E-04 0.00000E+00-3.64565E-05
 -1      2390 3.82358E-04 0.00000E+00-3.79284E-05
 -1      2392 3.87736E-04 0.00000E+00-8.49116E-06
 -1      2393 3.85011E-04 0.00000E+00-9.96302E-06
 -1      2395 3.87736E-04 0.00000E+00-1.14349E-05
 -1      2396 3.85011E-04 0.00000E+00-1.29067E-05
 -1      2398 3.87736E-04 0.00000E+00-1.43786E-05
 -1      2399 3.85011E-04 0.00000E+00-1.58505E-05
 -1      2401 3.87736E-04 0.00000E+00-1.73223E-05
 -1      2402 3.85011E-04 0.00000E+00-1.87942E-05
 -1      2404 3.87736E-04 0.00000E+00-2.02661E-05
 -1      2405 3.85011E-04 0.00000E+00-2.17379E-05
 -1      2407 3.87736E-04 0.00000E+00-2.32098E-05
 -1      2408 3.85011E-04 0.00000E+00-2.46816E-05
 -1      2410 3.87736E-04 0.00000E+00-2.61535E-05
 -1      2411 3.85011E-04 0.00000E+00-2.76254E-05
 -1      2413 3.87736E-04 0.00000E+00-2.90972E-05
 -1      2414 3.85011E-04 0.00000E+00-3.05691E-05
 -1      2416 3.87736E-04 0.00000E+00-3.20409E-05
 -1      2417 3.85011E-04 0.00000E+00-3.35128E-05
 -1      2419 3.87736E-04 0.00000E+00-3.49847E-05
 -1      2420 3.85011E-04 0.00000E+00-3.64565E-05
 -1      2422 3.87736E-04 0.00000E+00-3.79284E-05
 -1      2424 3.93386E-04 0.00000E+00-8.49116E-06
 -1      2425 3.90529E-04 0.00000E+00-9.96302E-06
 -1      2427 3.93386E-04 0.00000E+00-1.14349E-05
 -1      2428 3.90529E-04 0.00000E+00-1.29067E-05
 -1      2430 3.93386E-04 0.00000E+00-1.43786E-05
 -1      2431 3.90529E-04 0.00000E+00-1.58505E-05
 -1      2433 3.93386E-04 0.00000E+00-1.73223E-05
 -1      2434 3.90529E-04 0.00000E+00-1.87942E-05
 -1      2436 3.93386E-04 0.00000E+00-2.02661E-05
 -1      2437 3.90529E-04 0.00000E+00-2.17379E-05
 -1      2439 3.93386E-04 0.00000E+00-2.32098E-05
 -1      2440 3.90529E-04 0.00000E+00-2.46816E-05
 -1      2442 3.93386E-04 0.00000E+00-2.61535E-05
 -1      2443 3.90529E-04 0.00000E+00-2.76254E-05
 -1      2445 3.93386E-04 0.00000E+00-2.90972E-05
 -1      2446 3.90529E-04 0.00000E+00-3.05691E-05
 -1      2448 3.93386E-04 0.00000E+00-3.20409E-05
 -1      2449 3.90529E-04 0.00000E+00-3.35128E-05
 -1      2451 3.93386E-04 0.00000E+00-3.49847E-05
 -1      2452 3.90529E-04 0.00000E+00-3.64565E-05
 -1      2454 3.93386E-04 0.00000E+00-3.79284E-05
 -1      2456 3.99280E-04 0.00000E+00-8.49116E-06
 -1      2457 3.96304E-04 0.00000E+00-9.96302E-06
 -1      2459 3.99280E-04 0.00000E+00-1.14349E-05
 -1      2460 3.96304E-04 0.00000E+00-1.29067E-05
 -1      2462 3.99280E-04 0.00000E+00-1.43786E-05
 -1      2463 3.96304E-04 0.00000E+00-1.58505E-05
 -1      2465 3.99280E-04 0.00000E+00-1.73223E-05
 -1      2466 3.96304E-04 0.00000E+00-1.87942E-05
 -1      2468 3.99280E-04 0.00000E+00-2.02661E-05
 -1      2469 3.96304E-04 0.00000E+00-2.17379E-05
 -1      2471 3.99280E-04 0.00000E+00-2.32098E-05
 -1      2472 3.96304E-04 0.00000E+00-2.46816E-05
 -1      2474 3.99280E-04 0.00000E+00-2.61535E-05
 -1      2475 3.96304E-04 0.00000E+00-2.76254E-05
 -1      2477 3.99280E-04 0.00000E+00-2.90972E-05
 -1      2478 3.96304E-04 0.00000E+00-3.05691E-05
 -1      2480 3.99280E-04 0.00000E+00-3.20409E-05
 -1      2481 3.96304E-04 0.00000E+00-3.35128E-05
 -1      2483 3.99280E-04 0.00000E+00-3.49847E-05
 -1      2484 3.96304E-04 0.00000E+00-3.64565E-05
 -1      2486 3.99280E-04 0.00000E+00-3.79284E-05
 -1      2488 4.05396E-04 0.00000E+00-8.49116E-06
 -1      2489 4.02312E-04 0.00000E+00-9.96302E-06
 -1      2491 4.05396E-04 0.00000E+00-1.14349E-05
 -1      2492 4.02312E-04 0.00000E+00-1.29067E-05
 -1      2494 4.05396E-04 0.00000E+00-1.43786E-05
 -1      2495 4.02312E-04 0.00000E+00-1.58505E-05
 -1      2497 4.05396E-04 0.00000E+00-1.73223E-05
 -1      2498 4.02312E-04 0.00000E+00-1.87942E-05
 -1      2500 4.05396E-04 0.00000E+00-2.02661E-05
 -1      2501 4.02312E-04 0.00000E+00-2.17379E-05
 -1      2503 4.05396E-04 0.00000E+00-2.32098E-05
 -1      2504 4.02312E-04 0.00000E+00-2.46816E-05
 -1      2506 4.05396E-04 0.00000E+00-2.61535E-05
 -1      2507 4.02312E-04 0.00000E+00-2.76254E-05
 -1      2509 4.05396E-04 0.00000E+00-2.90972E-05
 -1      2510 4.02312E-04 0.00000E+00-3.05691E-05
 -1      2512 4.05396E-04 0.00000E+00-3.20409E-05
 -1      2513 4.02312E-04 0.00000E+00-3.35128E-05
 -1      2515 4.05396E-04 0.00000E+00-3.49847E-05
 -1      2516 4.02312E-04 0.00000E+00-3.64565E-05
 -1      2518 4.05396E-04 0.00000E+00-3.79284E-05
 -1      2520 4.11714E-04 0.00000E+00-8.49116E-06
 -1      2521 4.08531E-04 0.00000E+00-9.96302E-06
 -1      2523 4.11714E-04 0.00000E+00-1.14349E-05
 -1      2524 4.08531E-04 0.00000E+00-1.29067E-05
 -1      2526 4.11714E-04 0.00000E+00-1.43786E-05
 -1      2527 4.08531E-04 0.00000E+00-1.58505E-05
 -1      2529 4.11714E-04 0.00000E+00-1.73223E-05
 -1      2530 4.08531E-04 0.00000E+00-1.87942E-05
 -1      2532 4.11714E-04 0.00000E+00-2.02661E-05
 -1      2533 4.08531E-04 0.00000E+00-2.17379E-05
 -1      2535 4.11714E-04 0.00000E+00-2.32098E-05
 -1      2536 4.08531E-04 0.00000E+00-2.46816E-05
 -1      2538 4.11714E-04 0.00000E+00-2.61535E-05
 -1      2539 4.08531E-04 0.00000E+00-2.76254E-05
 -1      2541 4.11714E-04 0.00000E+00-2.90972E-05
 -1      2542 4.08531E-04 0.00000E+00-3.05691E-05
 -1      2544 4.11714E-04 0.00000E+00-3.20409E-05
 -1      2545 4.08531E-04 0.00000E+00-3.35128E-05
 -1      2547 4.11714E-04 0.00000E+00-3.49847E-05
 -1      2548 4.08531E-04 0.00000E+00-3.64565E-05
 -1      2550 4.11714E-04 0.00000E+00-3.79284E-05
 -1      2552 4.18216E-04 0.00000E+00-8.49116E-06
 -1      2553 4.14943E-04 0.00000E+00-9.96302E-06
 -1      2555 4.18216E-04 0.00000E+00-1.14349E-05
 -1      2556 4.14943E-04 0.00000E+00-1.29067E-05
 -1      2558 4.18216E-04 0.00000E+00-1.43786E-05
 -1      2559 4.14943E-04 0.00000E+00-1.58505E-05
 -1      2561 4.18216E-04 0.00000E+00-1.73223E-05
 -1      2562 4.14943E-04 0.00000E+00-1.87942E-05
 -1      2564 4.18216E-04 0.00000E+00-2.02661E-05
 -1      2565 4.14943E-04 0.00000E+00-2.17379E-05
 -1      2567 4.18216E-04 0.00000E+00-2.32098E-05
 -1      2568 4.14943E-04 0.00000E+00-2.46816E-05
 -1      2570 4.18216E-04 0.00000E+00-2.61535E-05
 -1      2571 4.14943E-04 0.00000E+00-2.76254E-05
 -1      2573 4.18216E-04 0.00000E+00-2.90972E-05
 -1      2574 4.14943E-04 0.00000E+00-3.05691E-05
 -1      2576 4.18216E-04 0.00000E+00-3.20409E-05
 -1      2577 4.14943E-04 0.00000E+00-3.35128E-05
 -1      2579 4.18216E-04 0.00000E+00-3.49847E-05
 -1      2580 4.14943E-04 0.00000E+00-3.64565E-05
 -1      2582 4.18216E-04 0.00000E+00-3.79284E-05
 -1      2584 4.24886E-04 0.00000E+00-8.49116E-06
 -1      2585 4.21531E-04 0.00000E+00-9.96302E-06
 -1      2587 4.24886E-04 0.00000E+00-1.14349E-05
 -1      2588 4.21531E-04 0.00000E+00-1.29067E-05
 -1      2590 4.24886E-04 0.00000E+00-1.43786E-05
 -1      2591 4.21531E-04 0.00000E+00-1.58505E-05
 -1      2593 4.24886E-04 0.00000E+00-1.73223E-05
 -1      2594 4.21531E-04 0.00000E+00-1.87942E-05
 -1      2596 4.24886E-04 0.00000E+00-2.02661E-05
 -1      2597 4.21531E-04 0.00000E+00-2.17379E-05
 -1      2599 4.24886E-04 0.00000E+00-2.32098E-05
 -1      2600 4.21531E-04 0.00000E+00-2.46816E-05
 -1      2602 4.24886E-04 0.00000E+00-2.61535E-05
 -1      2603 4.21531E-04 0.00000E+00-2.76254E-05
 -1      2605 4.24886E-04 0.00000E+00-2.90972E-05
 -1      2606 4.21531E-04 0.00000E+00-3.05691E-05
 -1      2608 4.24886E-04 0.00000E+00-3.20409E-05
 -1      2609 4.21531E-04 0.00000E+00-3.35128E-05
 -1      2611 4.24886E-04 0.00000E+00-3.49847E-05
 -1      2612 4.21531E-04 0.00000E+00-3.64565E-05
 -1      2614 4.24886E-04 0.00000E+00-3.79284E-05
 -1      2616 4.31710E-04 0.00000E+00-8.49116E-06
 -1      2617 4.28279E-04 0.00000E+00-9.96302E-06
 -1      2619 4.31710E-04 0.00000E+00-1.14349E-05
 -1      2620 4.28279E-04 0.00000E+00-1.29067E-05
 -1      2622 4.31710E-04 0.00000E+00-1.43786E-05
 -1      2623 4.28279E-04 0.00000E+00-1.58505E-05
 -1      2625 4.31710E-04 0.00000E+00-1.73223E-05
 -1      2626 4.28279E-04 0.00000E+00-1.87942E-05
 -1      2628 4.31710E-04 0.00000E+00-2.02661E-05
 -1      2629 4.28279E-04 0.00000E+00-2.17379E-05
 -1      2631 4.31710E-04 0.00000E+00-2.32098E-05
 -1      2632 4.28279E-04 0.00000E+00-2.46816E-05
 -1      2634 4.31710E-04 0.00000E+00-2.61535E-05
 -1      2635 4.28279E-04 0.00000E+00-2.76254E-05
 -1      2637 4.31710E-04 0.00000E+00-2.90972E-05
 -1      2638 4.28279E-04 0.00000E+00-3.05691E-05
 -1      2640 4.31710E-04 0.00000E+00-3.20409E-05
 -1      2641 4.28279E-04 0.00000E+00-3.35128E-05
 -1      2643 4.31710E-04 0.00000E+00-3.49847E-05
 -1      2644 4.28279E-04 0.00000E+00-3.64565E-05
 -1      2646 4.31710E-04 0.00000E+00-3.79284E-05
 -1      2648 4.38677E-04 0.00000E+00-8.49116E-06
 -1      2649 4.35177E-04 0.00000E+00-9.96302E-06
 -1      2651 4.38677E-04 0.00000E+00-1.14349E-05
 -1      2652 4.35177E-04 0.00000E+00-1.29067E-05
 -1      2654 4.38677E-04 0.00000E+00-1.43786E-05
 -1      2655 4.35177E-04 0.00000E+00-1.58505E-05
 -1      2657 4.38677E-04 0.00000E+00-1.73223E-05
 -1      2658 4.35177E-04 0.00000E+00-1.87942E-05
 -1      2660 4.38677E-04 0.00000E+00-2.02661E-05
 -1      2661 4.35177E-04 0.00000E+00-2.17379E-05
 -1      2663 4.38677E-04 0.00000E+00-2.32098E-05
 -1      2664 4.35177E-04 0.00000E+00-2.46816E-05
 -1      2666 4.38677E-04 0.00000E+00-2.61535E-05
 -1      2667 4.35177E-04 0.00000E+00-2.76254E-05
 -1      2669 4.38677E-04 0.00000E+00-2.90972E-05
 -1      2670 4.35177E-04 0.00000E+00-3.05691E-05
 -1      2672 4.38677E-04 0.00000E+00-3.20409E-05
 -1      2673 4.35177E-04 0.00000E+00-3.35128E-05
 -1      2675 4.38677E-04 0.00000E+00-3.49847E-05
 -1      2676 4.35177E-04 0.00000E+00-3.64565E-05
 -1      2678 4.38677E-04 0.00000E+00-3.79284E-05
 -1      2680 4.45767E-04 0.00000E+00-8.49117E-06
 -1      2681 4.42207E-04 0.00000E+00-9.96303E-06
 -1      2683 4.45767E-04 0.00000E+00-1.14349E-05
 -1      2684 4.42207E-04 0.00000E+00-1.29067E-05
 -1      2686 4.45767E-04 0.00000E+00-1.43786E-05
 -1      2687 4.42207E-04 0.00000E+00-1.58505E-05
 -1      2689 4.45767E-04 0.00000E+00-1.73223E-05
 -1      2690 4.42207E-04 0.00000E+00-1.87942E-05
 -1      2692 4.45767E-04 0.00000E+00-2.02661E-05
 -1      2693 4.42207E-04 0.00000E+00-2.17379E-05
 -1      2695 4.45767E-04 0.00000E+00-2.32098E-05
 -1      2696 4.42207E-04 0.00000E+00-2.46816E-05
 -1      2698 4.45767E-04 0.00000E+00-2.61535E-05
 -1      2699 4.42207E-04 0.00000E+00-2.76254E-05
 -1      2701 4.45767E-04 0.00000E+00-2.90972E-05
 -1      2702 4.42207E-04 0.00000E+00-3.05691E-05
 -1      2704 4.45767E-04 0.00000E+00-3.20409E-05
 -1      2705 4.42207E-04 0.00000E+00-3.35128E-05
 -1      2707 4.45767E-04 0.00000E+00-3.49847E-05
 -1      2708 4.42207E-04 0.00000E+00-3.64565E-05
 -1      2710 4.45767E-04 0.00000E+00-3.79284E-05
 -1      2712 4.53009E-04 0.00000E+00-8.49115E-06
 -1      2713 4.49374E-04 0.00000E+00-9.96301E-06
 -1      2715 4.53009E-04 0.00000E+00-1.14349E-05
 -1      2716 4.49374E-04 0.00000E+00-1.29067E-05
 -1      2718 4.53009E-04 0.00000E+00-1.43786E-05
 -1      2719 4.49374E-04 0.00000E+00-1.58505E-05
 -1      2721 4.53009E-04 0.00000E+00-1.73223E-05
 -1      2722 4.49374E-04 0.00000E+00-1.87942E-05
 -1      2724 4.53009E-04 0.00000E+00-2.02661E-05
 -1      2725 4.49374E-04 0.00000E+00-2.17379E-05
 -1      2727 4.53009E-04 0.00000E+00-2.32098E-05
 -1      2728 4.49374E-04 0.00000E+00-2.46816E-05
 -1      2730 4.53009E-04 0.00000E+00-2.61535E-05
 -1      2731 4.49374E-04 0.00000E+00-2.76254E-05
 -1      2733 4.53009E-04 0.00000E+00-2.90972E-05
 -1      2734 4.49374E-04 0.00000E+00-3.05691E-05
 -1      2736 4.53009E-04 0.00000E+00-3.20409E-05
 -1      2737 4.49374E-04 0.00000E+00-3.35128E-05
 -1      2739 4.53009E-04 0.00000E+00-3.49847E-05
 -1      2740 4.49374E-04 0.00000E+00-3.64565E-05
 -1      2742 4.53009E-04 0.00000E+00-3.79284E-05
 -1      2744 4.56658E-04 0.00000E+00-9.96303E-06
 -1      2746 4.56658E-04 0.00000E+00-1.29067E-05
 -1      2748 4.56658E-04 0.00000E+00-1.58505E-05
 -1      2750 4.56658E-04 0.00000E+00-1.87942E-05
 -1      2752 4.56658E-04 0.00000E+00-2.17379E-05
 -1      2754 4.56658E-04 0.00000E+00-2.46816E-05
 -1      2756 4.56658E-04 0.00000E+00-2.76254E-05
 -1      2758 4.56658E-04 0.00000E+00-3.05691E-05
 -1      2760 4.56658E-04 0.00000E+00-3.35128E-05
 -1      2762 4.56658E-04 0.00000E+00-3.64565E-05
 -1      2765 4.54670E-04 7.20127E-05-9.96304E-06
 -1      2766 4.54670E-04 7.20127E-05-1.29068E-05
 -1      2767 4.54670E-04 7.20127E-05-1.58505E-05
 -1      2768 4.54670E-04 7.20127E-05-1.87942E-05
 -1      2769 4.54670E-04 7.20127E-05-2.17379E-05
 -1      2770 4.54670E-04 7.20127E-05-2.46816E-05
 -1      2771 4.54670E-04 7.20127E-05-2.76254E-05
 -1      2772 4.54670E-04 7.20127E-05-3.05691E-05
 -1      2773 4.54670E-04 7.20127E-05-3.35128E-05
 -1      2774 4.54670E-04 7.20127E-05-3.64565E-05
 -1      2775 4.37807E-04 1.42252E-04-9.96304E-06
 -1      2776 4.37807E-04 1.42252E-04-1.29068E-05
 -1      2777 4.37807E-04 1.42252E-04-1.58505E-05
 -1      2778 4.37807E-04 1.42252E-04-1.87942E-05
 -1      2779 4.37807E-04 1.42252E-04-2.17379E-05
 -1      2780 4.37807E-04 1.42252E-04-2.46816E-05
 -1      2781 4.37807E-04 1.42252E-04-2.76254E-05
 -1      2782 4.37807E-04 1.42252E-04-3.05691E-05
 -1      2783 4.37807E-04 1.42252E-04-3.35128E-05
 -1      2784 4.37807E-04 1.42252E-04-3.64565E-05
 -1      2785 4.10164E-04 2.08989E-04-9.96305E-06
 -1      2786 4.10164E-04 2.08989E-04-1.29068E-05
 -1      2787 4.10164E-04 2.08989E-04-1.58505E-05
 -1      2788 4.10164E-04 2.08989E-04-1.87942E-05
 -1      2789 4.10164E-04 2.08989E-04-2.17379E-05
 -1      2790 4.10164E-04 2.08989E-04-2.46816E-05
 -1      2791 4.10164E-04 2.08989E-04-2.76254E-05
 -1      2792 4.10164E-04 2.08989E-04-3.05691E-05
 -1      2793 4.10164E-04 2.08989E-04-3.35128E-05
 -1      2794 4.10164E-04 2.08989E-04-3.64565E-05
 -1      2795 3.72421E-04 2.70580E-04-9.96308E-06
 -1      2796 3.72421E-04 2.70580E-04-1.29068E-05
 -1      2797 3.72421E-04 2.70580E-04-1.58505E-05
 -1      2798 3.72421E-04 2.70580E-04-1.87942E-05
 -1      2799 3.72421E-04 2.70580E-04-2.17379E-05
 -1      2800 3.72421E-04 2.70580E-04-2.46816E-05
 -1      2801 3.72421E-04 2.70580E-04-2.76254E-05
 -1      2802 3.72421E-04 2.70580E-04-3.05691E-05
 -1      2803 3.72421E-04 2.70580E-04-3.35128E-05
 -1      2804 3.72421E-04 2.70580E-04-3.64565E-05
 -1      2805 3.25508E-04 3.25508E-04-9.96307E-06
 -1      2806 3.25508E-04 3.25508E-04-1.29068E-05
 -1      2807 3.25508E-04 3.25508E-04-1.58505E-05
 -1      2808 3.25508E-04 3.25508E-04-1.87942E-05
 -1      2809 3.25508E-04 3.25508E-04-2.17379E-05
 -1      2810 3.25508E-04 3.25508E-04-2.46816E-05
 -1      2811 3.25508E-04 3.25508E-04-2.76254E-05
 -1      2812 3.25508E-04 3.25508E-04-3.05691E-05
 -1      2813 3.25508E-04 3.25508E-04-3.35128E-05
 -1      2814 3.25508E-04 3.25508E-04-3.64565E-05
 -1      2815 2.70580E-04 3.72421E-04-9.96299E-06
 -1      2816 2.70580E-04 3.72421E-04-1.29067E-05
 -1      2817 2.70580E-04 3.72421E-04-1.58505E-05
 -1      2818 2.70580E-04 3.72421E-04-1.87942E-05
 -1      2819 2.70580E-04 3.72421E-04-2.17379E-05
 -1      2820 2.70580E-04 3.72421E-04-2.46816E-05
 -1      2821 2.70580E-04 3.72421E-04-2.76254E-05
 -1      2822 2.70580E-04 3.72421E-04-3.05691E-05
 -1      2823 2.70580E-04 3.72421E-04-3.35128E-05
 -1      2824 2.70580E-04 3.72421E-04-3.64566E-05
 -1      2825 2.08989E-04 4.10164E-04-9.96304E-06
 -1      2826 2.08989E-04 4.10164E-04-1.29068E-05
 -1      2827 2.08989E-04 4.10164E-04-1.58505E-05
 -1      2828 2.08989E-04 4.10164E-04-1.87942E-05
 -1      2829 2.08989E-04 4.10164E-04-2.17379E-05
 -1      2830 2.08989E-04 4.10164E-04-2.46816E-05
 -1      2831 2.08989E-04 4.10164E-04-2.76254E-05
 -1      2832 2.08989E-04 4.10164E-04-3.05691E-05
 -1      2833 2.08989E-04 4.10164E-04-3.35128E-05
 -1      2834 2.08989E-04 4.10164E-04-3.64565E-05
 -1      2835 1.42252E-04 4.37807E-04-9.96310E-06
 -1      2836 1.42252E-04 4.37807E-04-1.29068E-05
 -1      2837 1.42252E-04 4.37807E-04-1.58505E-05
 -1      2838 1.42252E-04 4.37807E-04-1.87942E-05
 -1      2839 1.42252E-04 4.37807E-04-2.17379E-05
 -1      2840 1.42252E-04 4.37807E-04-2.46816E-05
 -1      2841 1.42252E-04 4.37807E-04-2.76253E-05
 -1      2842 1.42252E-04 4.37807E-04-3.05690E-05
 -1      2843 1.42252E-04 4.37807E-04-3.35127E-05
 -1      2844 1.42252E-04 4.37807E-04-3.64565E-05
 -1      2845 7.20127E-05 4.54670E-04-9.96299E-06
 -1      2846 7.20127E-05 4.54670E-04-1.29067E-05
 -1      2847 7.20127E-05 4.54670E-04-1.58505E-05
 -1      2848 7.20127E-05 4.54670E-04-1.87942E-05
 -1      2849 7.20127E-05 4.54670E-04-2.17379E-05
 -1      2850 7.20127E-05 4.54670E-04-2.46816E-05
 -1      2851 7.20127E-05 4.54670E-04-2.76254E-05
 -1      2852 7.20127E-05 4.54670E-04-3.05691E-05
 -1      2853 7.20127E-05 4.54670E-04-3.35128E-05
 -1      2854 7.20127E-05 4.54670E-04-3.64566E-05
 -1      2855 4.54670E-04 7.20127E-05-8.49117E-06
 -1      2856 4.58888E-04 3.61153E-05-9.96303E-06
 -1      2858 4.54670E-04 7.20127E-05-1.14349E-05
 -1      2859 4.58888E-04 3.61153E-05-1.29068E-05
 -1      2861 4.54670E-04 7.20127E-05-1.43786E-05
 -1      2862 4.58888E-04 3.61153E-05-1.58505E-05
 -1      2864 4.54670E-04 7.20127E-05-1.73223E-05
 -1      2865 4.58888E-04 3.61153E-05-1.87942E-05
 -1      2867 4.54670E-04 7.20127E-05-2.02661E-05
 -1      2868 4.58888E-04 3.61153E-05-2.17379E-05
 -1      2870 4.54670E-04 7.20127E-05-2.32098E-05
 -1      2871 4.58888E-04 3.61153E-05-2.46816E-05
 -1      2873 4.54670E-04 7.20127E-05-2.61535E-05
 -1      2874 4.58888E-04 3.61153E-05-2.76254E-05
 -1      2876 4.54670E-04 7.20127E-05-2.90972E-05
 -1      2877 4.58888E-04 3.61153E-05-3.05691E-05
 -1      2879 4.54670E-04 7.20127E-05-3.20409E-05
 -1      2880 4.58888E-04 3.61153E-05-3.35128E-05
 -1      2882 4.54670E-04 7.20127E-05-3.49847E-05
 -1      2883 4.58888E-04 3.61153E-05-3.64565E-05
 -1      2885 4.54670E-04 7.20127E-05-3.79284E-05
 -1      2887 4.37807E-04 1.42252E-04-8.49118E-06
 -1      2888 4.47589E-04 1.07457E-04-9.96303E-06
 -1      2890 4.37807E-04 1.42252E-04-1.14349E-05
 -1      2891 4.47589E-04 1.07457E-04-1.29068E-05
 -1      2893 4.37807E-04 1.42252E-04-1.43786E-05
 -1      2894 4.47589E-04 1.07457E-04-1.58505E-05
 -1      2896 4.37807E-04 1.42252E-04-1.73223E-05
 -1      2897 4.47589E-04 1.07457E-04-1.87942E-05
 -1      2899 4.37807E-04 1.42252E-04-2.02661E-05
 -1      2900 4.47589E-04 1.07457E-04-2.17379E-05
 -1      2902 4.37807E-04 1.42252E-04-2.32098E-05
 -1      2903 4.47589E-04 1.07457E-04-2.46816E-05
 -1      2905 4.37807E-04 1.42252E-04-2.61535E-05
 -1      2906 4.47589E-04 1.07457E-04-2.76254E-05
 -1      2908 4.37807E-04 1.42252E-04-2.90972E-05
 -1      2909 4.47589E-04 1.07457E-04-3.05691E-05
 -1      2911 4.37807E-04 1.42252E-04-3.20409E-05
 -1      2912 4.47589E-04 1.07457E-04-3.35128E-05
 -1      2914 4.37807E-04 1.42252E-04-3.49847E-05
 -1      2915 4.47589E-04 1.07457E-04-3.64565E-05
 -1      2917 4.37807E-04 1.42252E-04-3.79284E-05
 -1      2919 4.10164E-04 2.08989E-04-8.49119E-06
 -1      2920 4.25268E-04 1.76152E-04-9.96303E-06
 -1      2922 4.10164E-04 2.08989E-04-1.14349E-05
 -1      2923 4.25268E-04 1.76152E-04-1.29068E-05
 -1      2925 4.10164E-04 2.08989E-04-1.43786E-05
 -1      2926 4.25268E-04 1.76152E-04-1.58505E-05
 -1      2928 4.10164E-04 2.08989E-04-1.73223E-05
 -1      2929 4.25268E-04 1.76152E-04-1.87942E-05
 -1      2931 4.10164E-04 2.08989E-04-2.02661E-05
 -1      2932 4.25268E-04 1.76152E-04-2.17379E-05
 -1      2934 4.10164E-04 2.08989E-04-2.32098E-05
 -1      2935 4.25268E-04 1.76152E-04-2.46816E-05
 -1      2937 4.10164E-04 2.08989E-04-2.61535E-05
 -1      2938 4.25268E-04 1.76152E-04-2.76254E-05
 -1      2940 4.10164E-04 2.08989E-04-2.90972E-05
 -1      2941 4.25268E-04 1.76152E-04-3.05691E-05
 -1      2943 4.10164E-04 2.08989E-04-3.20409E-05
 -1      2944 4.25268E-04 1.76152E-04-3.35128E-05
 -1      2946 4.10164E-04 2.08989E-04-3.49846E-05
 -1      2947 4.25268E-04 1.76152E-04-3.64565E-05
 -1      2949 4.10164E-04 2.08989E-04-3.79284E-05
 -1      2951 3.72421E-04 2.70580E-04-8.49122E-06
 -1      2952 3.92476E-04 2.40510E-04-9.96302E-06
 -1      2954 3.72421E-04 2.70580E-04-1.14349E-05
 -1      2955 3.92476E-04 2.40510E-04-1.29068E-05
 -1      2957 3.72421E-04 2.70580E-04-1.43786E-05
 -1      2958 3.92476E-04 2.40510E-04-1.58505E-05
 -1      2960 3.72421E-04 2.70580E-04-1.73223E-05
 -1      2961 3.92476E-04 2.40510E-04-1.87942E-05
 -1      2963 3.72421E-04 2.70580E-04-2.02661E-05
 -1      2964 3.92476E-04 2.40510E-04-2.17379E-05
 -1      2966 3.72421E-04 2.70580E-04-2.32098E-05
 -1      2967 3.92476E-04 2.40510E-04-2.46816E-05
 -1      2969 3.72421E-04 2.70580E-04-2.61535E-05
 -1      2970 3.92476E-04 2.40510E-04-2.76254E-05
 -1      2972 3.72421E-04 2.70580E-04-2.90972E-05
 -1      2973 3.92476E-04 2.40510E-04-3.05691E-05
 -1      2975 3.72421E-04 2.70580E-04-3.20409E-05
 -1      2976 3.92476E-04 2.40510E-04-3.35128E-05
 -1      2978 3.72421E-04 2.70580E-04-3.49846E-05
 -1      2979 3.92476E-04 2.40510E-04-3.64565E-05
 -1      2981 3.72421E-04 2.70580E-04-3.79283E-05
 -1      2983 3.25508E-04 3.25508E-04-8.49121E-06
 -1      2984 3.50021E-04 2.98945E-04-9.96302E-06
 -1      2986 3.25508E-04 3.25508E-04-1.14349E-05
 -1      2987 3.50021E-04 2.98945E-04-1.29067E-05
 -1      2989 3.25508E-04 3.25508E-04-1.43786E-05
 -1      2990 3.50021E-04 2.98945E-04-1.58505E-05
 -1      2992 3.25508E-04 3.25508E-04-1.73223E-05
 -1      2993 3.50021E-04 2.98945E-04-1.87942E-05
 -1      2995 3.25508E-04 3.25508E-04-2.02661E-05
 -1      2996 3.50021E-04 2.98945E-04-2.17379E-05
 -1      2998 3.25508E-04 3.25508E-04-2.32098E-05
 -1      2999 3.50021E-04 2.98945E-04-2.46816E-05
 -1      3001 3.25508E-04 3.25508E-04-2.61535E-05
 -1      3002 3.50021E-04 2.98945E-04-2.76254E-05
 -1      3004 3.25508E-04 3.25508E-04-2.90972E-05
 -1      3005 3.50021E-04 2.98945E-04-3.05691E-05
 -1      3007 3.25508E-04 3.25508E-04-3.20409E-05
 -1      3008 3.50021E-04 2.98945E-04-3.35128E-05
 -1      3010 3.25508E-04 3.25508E-04-3.49846E-05
 -1      3011 3.50021E-04 2.98945E-04-3.64565E-05
 -1      3013 3.25508E-04 3.25508E-04-3.79283E-05
 -1      3015 2.70580E-04 3.72421E-04-8.49111E-06
 -1      3016 2.98946E-04 3.50020E-04-9.96304E-06
 -1      3018 2.70580E-04 3.72421E-04-1.14349E-05
 -1      3019 2.98946E-04 3.50020E-04-1.29068E-05
 -1      3021 2.70580E-04 3.72421E-04-1.43786E-05
 -1      3022 2.98946E-04 3.50020E-04-1.58505E-05
 -1      3024 2.70580E-04 3.72421E-04-1.73223E-05
 -1      3025 2.98946E-04 3.50020E-04-1.87942E-05
 -1      3027 2.70580E-04 3.72421E-04-2.02660E-05
 -1      3028 2.98946E-04 3.50020E-04-2.17379E-05
 -1      3030 2.70580E-04 3.72421E-04-2.32098E-05
 -1      3031 2.98946E-04 3.50020E-04-2.46816E-05
 -1      3033 2.70580E-04 3.72421E-04-2.61535E-05
 -1      3034 2.98946E-04 3.50020E-04-2.76254E-05
 -1      3036 2.70580E-04 3.72421E-04-2.90972E-05
 -1      3037 2.98946E-04 3.50020E-04-3.05691E-05
 -1      3039 2.70580E-04 3.72421E-04-3.20410E-05
 -1      3040 2.98946E-04 3.50020E-04-3.35128E-05
 -1      3042 2.70580E-04 3.72421E-04-3.49847E-05
 -1      3043 2.98946E-04 3.50020E-04-3.64565E-05
 -1      3045 2.70580E-04 3.72421E-04-3.79284E-05
 -1      3047 2.08989E-04 4.10164E-04-8.49117E-06
 -1      3048 2.40510E-04 3.92476E-04-9.96304E-06
 -1      3050 2.08989E-04 4.10164E-04-1.14349E-05
 -1      3051 2.40510E-04 3.92476E-04-1.29068E-05
 -1      3053 2.08989E-04 4.10164E-04-1.43786E-05
 -1      3054 2.40510E-04 3.92476E-04-1.58505E-05
 -1      3056 2.08989E-04 4.10164E-04-1.73223E-05
 -1      3057 2.40510E-04 3.92476E-04-1.87942E-05
 -1      3059 2.08989E-04 4.10164E-04-2.02661E-05
 -1      3060 2.40510E-04 3.92476E-04-2.17379E-05
 -1      3062 2.08989E-04 4.10164E-04-2.32098E-05
 -1      3063 2.40510E-04 3.92476E-04-2.46816E-05
 -1      3065 2.08989E-04 4.10164E-04-2.61535E-05
 -1      3066 2.40510E-04 3.92476E-04-2.76254E-05
 -1      3068 2.08989E-04 4.10164E-04-2.90972E-05
 -1      3069 2.40510E-04 3.92476E-04-3.05691E-05
 -1      3071 2.08989E-04 4.10164E-04-3.20409E-05
 -1      3072 2.40510E-04 3.92476E-04-3.35128E-05
 -1      3074 2.08989E-04 4.10164E-04-3.49847E-05
 -1      3075 2.40510E-04 3.92476E-04-3.64565E-05
 -1      3077 2.08989E-04 4.10164E-04-3.79284E-05
 -1      3079 1.42252E-04 4.37807E-04-8.49124E-06
 -1      3080 1.76152E-04 4.25268E-04-9.96303E-06
 -1      3082 1.42252E-04 4.37807E-04-1.14350E-05
 -1      3083 1.76152E-04 4.25268E-04-1.29067E-05
 -1      3085 1.42252E-04 4.37807E-04-1.43787E-05
 -1      3086 1.76152E-04 4.25268E-04-1.58505E-05
 -1      3088 1.42252E-04 4.37807E-04-1.73224E-05
 -1      3089 1.76152E-04 4.25268E-04-1.87942E-05
 -1      3091 1.42252E-04 4.37807E-04-2.02661E-05
 -1      3092 1.76152E-04 4.25268E-04-2.17379E-05
 -1      3094 1.42252E-04 4.37807E-04-2.32098E-05
 -1      3095 1.76152E-04 4.25268E-04-2.46816E-05
 -1      3097 1.42252E-04 4.37807E-04-2.61535E-05
 -1      3098 1.76152E-04 4.25268E-04-2.76254E-05
 -1      3100 1.42252E-04 4.37807E-04-2.90972E-05
 -1      3101 1.76152E-04 4.25268E-04-3.05691E-05
 -1      3103 1.42252E-04 4.37807E-04-3.20409E-05
 -1      3104 1.76152E-04 4.25268E-04-3.35128E-05
 -1      3106 1.42252E-04 4.37807E-04-3.49846E-05
 -1      3107 1.76152E-04 4.25268E-04-3.64565E-05
 -1      3109 1.42252E-04 4.37807E-04-3.79283E-05
 -1      3111 7.20127E-05 4.54670E-04-8.49111E-06
 -1      3112 1.07457E-04 4.47589E-04-9.96304E-06
 -1      3114 7.20127E-05 4.54670E-04-1.14349E-05
 -1      3115 1.07457E-04 4.47589E-04-1.29067E-05
 -1      3117 7.20127E-05 4.54670E-04-1.43786E-05
 -1      3118 1.07457E-04 4.47589E-04-1.58505E-05
 -1      3120 7.20127E-05 4.54670E-04-1.73223E-05
 -1      3121 1.07457E-04 4.47589E-04-1.87942E-05
 -1      3123 7.20127E-05 4.54670E-04-2.02661E-05
 -1      3124 1.07457E-04 4.47589E-04-2.17379E-05
 -1      3126 7.20127E-05 4.54670E-04-2.32098E-05
 -1      3127 1.07457E-04 4.47589E-04-2.46816E-05
 -1      3129 7.20127E-05 4.54670E-04-2.61535E-05
 -1      3130 1.07457E-04 4.47589E-04-2.76254E-05
 -1      3132 7.20127E-05 4.54670E-04-2.90972E-05
 -1      3133 1.07457E-04 4.47589E-04-3.05691E-05
 -1      3135 7.20127E-05 4.54670E-04-3.20409E-05
 -1      3136 1.07457E-04 4.47589E-04-3.35128E-05
 -1      3138 7.20127E-05 4.54670E-04-3.49847E-05
 -1      3139 1.07457E-04 4.47589E-04-3.64565E-05
 -1      3141 7.20127E-05 4.54670E-04-3.79284E-05
 -1      3143 3.61158E-05 4.58888E-04-9.96307E-06
 -1      3145 3.61158E-05 4.58888E-04-1.29068E-05
 -1      3147 3.61158E-05 4.58888E-04-1.58505E-05
 -1      3149 3.61158E-05 4.58888E-04-1.87942E-05
 -1      3151 3.61158E-05 4.58888E-04-2.17379E-05
 -1      3153 3.61158E-05 4.58888E-04-2.46816E-05
 -1      3155 3.61158E-05 4.58888E-04-2.76254E-05
 -1      3157 3.61158E-05 4.58888E-04-3.05691E-05
 -1      3159 3.61158E-05 4.58888E-04-3.35128E-05
 -1      3161 3.61158E-05 4.58888E-04-3.64565E-05
 -1      3164 0.00000E+00 4.53009E-04-9.96302E-06
 -1      3165 0.00000E+00 4.53009E-04-1.29067E-05
 -1      3166 0.00000E+00 4.53009E-04-1.58505E-05
 -1      3167 0.00000E+00 4.53009E-04-1.87942E-05
 -1      3168 0.00000E+00 4.53009E-04-2.17379E-05
 -1      3169 0.00000E+00 4.53009E-04-2.46816E-05
 -1      3170 0.00000E+00 4.53009E-04-2.76254E-05
 -1      3171 0.00000E+00 4.53009E-04-3.05691E-05
 -1      3172 0.00000E+00 4.53009E-04-3.35128E-05
 -1      3173 0.00000E+00 4.53009E-04-3.64565E-05
 -1      3174 0.00000E+00 4.45767E-04-9.96302E-06
 -1      3175 0.00000E+00 4.45767E-04-1.29067E-05
 -1      3176 0.00000E+00 4.45767E-04-1.58505E-05
 -1      3177 0.00000E+00 4.45767E-04-1.87942E-05
 -1      3178 0.00000E+00 4.45767E-04-2.17379E-05
 -1      3179 0.00000E+00 4.45767E-04-2.46816E-05
 -1      3180 0.00000E+00 4.45767E-04-2.76254E-05
 -1      3181 0.00000E+00 4.45767E-04-3.05691E-05
 -1      3182 0.00000E+00 4.45767E-04-3.35128E-05
 -1      3183 0.00000E+00 4.45767E-04-3.64565E-05
 -1      3184 0.00000E+00 4.38677E-04-9.96303E-06
 -1      3185 0.00000E+00 4.38677E-04-1.29067E-05
 -1      3186 0.00000E+00 4.38677E-04-1.58505E-05
 -1      3187 0.00000E+00 4.38677E-04-1.87942E-05
 -1      3188 0.00000E+00 4.38677E-04-2.17379E-05
 -1      3189 0.00000E+00 4.38677E-04-2.46816E-05
 -1      3190 0.00000E+00 4.38677E-04-2.76254E-05
 -1      3191 0.00000E+00 4.38677E-04-3.05691E-05
 -1      3192 0.00000E+00 4.38677E-04-3.35128E-05
 -1      3193 0.00000E+00 4.38677E-04-3.64565E-05
 -1      3194 0.00000E+00 4.31710E-04-9.96302E-06
 -1      3195 0.00000E+00 4.31710E-04-1.29067E-05
 -1      3196 0.00000E+00 4.31710E-04-1.58505E-05
 -1      3197 0.00000E+00 4.31710E-04-1.87942E-05
 -1      3198 0.00000E+00 4.31710E-04-2.17379E-05
 -1      3199 0.00000E+00 4.31710E-04-2.46816E-05
 -1      3200 0.00000E+00 4.31710E-04-2.76254E-05
 -1      3201 0.00000E+00 4.31710E-04-3.05691E-05
 -1      3202 0.00000E+00 4.31710E-04-3.35128E-05
 -1      3203 0.00000E+00 4.31710E-04-3.64565E-05
 -1      3204 0.00000E+00 4.24886E-04-9.96302E-06
 -1      3205 0.00000E+00 4.24886E-04-1.29067E-05
 -1      3206 0.00000E+00 4.24886E-04-1.58505E-05
 -1      3207 0.00000E+00 4.24886E-04-1.87942E-05
 -1      3208 0.00000E+00 4.24886E-04-2.17379E-05
 -1      3209 0.00000E+00 4.24886E-04-2.46816E-05
 -1      3210 0.00000E+00 4.24886E-04-2.76254E-05
 -1      3211 0.00000E+00 4.24886E-04-3.05691E-05
 -1      3212 0.00000E+00 4.24886E-04-3.35128E-05
 -1      3213 0.00000E+00 4.24886E-04-3.64565E-05
 -1      3214 0.00000E+00 4.18216E-04-9.96302E-06
 -1      3215 0.00000E+00 4.18216E-04-1.29067E-05
 -1      3216 0.00000E+00 4.18216E-04-1.58505E-05
 -1      3217 0.00000E+00 4.18216E-04-1.87942E-05
 -1      3218 0.00000E+00 4.18216E-04-2.17379E-05
 -1      3219 0.00000E+00 4.18216E-04-2.46816E-05
 -1      3220 0.00000E+00 4.18216E-04-2.76254E-05
 -1      3221 0.00000E+00 4.18216E-04-3.05691E-05
 -1      3222 0.00000E+00 4.18216E-04-3.35128E-05
 -1      3223 0.00000E+00 4.18216E-04-3.64565E-05
 -1      3224 0.00000E+00 4.11714E-04-9.96302E-06
 -1      3225 0.00000E+00 4.11714E-04-1.29067E-05
 -1      3226 0.00000E+00 4.11714E-04-1.58505E-05
 -1      3227 0.00000E+00 4.11714E-04-1.87942E-05
 -1      3228 0.00000E+00 4.11714E-04-2.17379E-05
 -1      3229 0.00000E+00 4.11714E-04-2.46816E-05
 -1      3230 0.00000E+00 4.11714E-04-2.76254E-05
 -1      3231 0.00000E+00 4.11714E-04-3.05691E-05
 -1      3232 0.00000E+00 4.11714E-04-3.35128E-05
 -1      3233 0.00000E+00 4.11714E-04-3.64565E-05
 -1      3234 0.00000E+00 4.05396E-04-9.96302E-06
 -1      3235 0.00000E+00 4.05396E-04-1.29067E-05
 -1      3236 0.00000E+00 4.05396E-04-1.58505E-05
 -1      3237 0.00000E+00 4.05396E-04-1.87942E-05
 -1      3238 0.00000E+00 4.05396E-04-2.17379E-05
 -1      3239 0.00000E+00 4.05396E-04-2.46816E-05
 -1      3240 0.00000E+00 4.05396E-04-2.76254E-05
 -1      3241 0.00000E+00 4.05396E-04-3.05691E-05
 -1      3242 0.00000E+00 4.05396E-04-3.35128E-05
 -1      3243 0.00000E+00 4.05396E-04-3.64565E-05
 -1      3244 0.00000E+00 3.99280E-04-9.96302E-06
 -1      3245 0.00000E+00 3.99280E-04-1.29067E-05
 -1      3246 0.00000E+00 3.99280E-04-1.58505E-05
 -1      3247 0.00000E+00 3.99280E-04-1.87942E-05
 -1      3248 0.00000E+00 3.99280E-04-2.17379E-05
 -1      3249 0.00000E+00 3.99280E-04-2.46816E-05
 -1      3250 0.00000E+00 3.99280E-04-2.76254E-05
 -1      3251 0.00000E+00 3.99280E-04-3.05691E-05
 -1      3252 0.00000E+00 3.99280E-04-3.35128E-05
 -1      3253 0.00000E+00 3.99280E-04-3.64565E-05
 -1      3254 0.00000E+00 3.93386E-04-9.96302E-06
 -1      3255 0.00000E+00 3.93386E-04-1.29067E-05
 -1      3256 0.00000E+00 3.93386E-04-1.58505E-05
 -1      3257 0.00000E+00 3.93386E-04-1.87942E-05
 -1      3258 0.00000E+00 3.93386E-04-2.17379E-05
 -1      3259 0.00000E+00 3.93386E-04-2.46816E-05
 -1      3260 0.00000E+00 3.93386E-04-2.76254E-05
 -1      3261 0.00000E+00 3.93386E-04-3.05691E-05
 -1      3262 0.00000E+00 3.93386E-04-3.35128E-05
 -1      3263 0.00000E+00 3.93386E-04-3.64565E-05
 -1      3264 0.00000E+00 3.87736E-04-9.96302E-06
 -1      3265 0.00000E+00 3.87736E-04-1.29067E-05
 -1      3266 0.00000E+00 3.87736E-04-1.58505E-05
 -1      3267 0.00000E+00 3.87736E-04-1.87942E-05
 -1      3268 0.00000E+00 3.87736E-04-2.17379E-05
 -1      3269 0.00000E+00 3.87736E-04-2.46816E-05
 -1      3270 0.00000E+00 3.87736E-04-2.76254E-05
 -1      3271 0.00000E+00 3.87736E-04-3.05691E-05
 -1      3272 0.00000E+00 3.87736E-04-3.35128E-05
 -1      3273 0.00000E+00 3.87736E-04-3.64565E-05
 -1      3274 0.00000E+00 3.82358E-04-9.96302E-06
 -1      3275 0.00000E+00 3.82358E-04-1.29067E-05
 -1      3276 0.00000E+00 3.82358E-04-1.58505E-05
 -1      3277 0.00000E+00 3.82358E-04-1.87942E-05
 -1      3278 0.00000E+00 3.82358E-04-2.17379E-05
 -1      3279 0.00000E+00 3.82358E-04-2.46816E-05
 -1      3280 0.00000E+00 3.82358E-04-2.76254E-05
 -1      3281 0.00000E+00 3.82358E-04-3.05691E-05
 -1      3282 0.00000E+00 3.82358E-04-3.35128E-05
 -1      3283 0.00000E+00 3.82358E-04-3.64565E-05
 -1      3284 0.00000E+00 3.77280E-04-9.96302E-06
 -1      3285 0.00000E+00 3.77280E-04-1.29067E-05
 -1      3286 0.00000E+00 3.77280E-04-1.58505E-05
 -1      3287 0.00000E+00 3.77280E-04-1.87942E-05
 -1      3288 0.00000E+00 3.77280E-04-2.17379E-05
 -1      3289 0.00000E+00 3.77280E-04-2.46816E-05
 -1      3290 0.00000E+00 3.77280E-04-2.76254E-05
 -1      3291 0.00000E+00 3.77280E-04-3.05691E-05
 -1      3292 0.00000E+00 3.77280E-04-3.35128E-05
 -1      3293 0.00000E+00 3.77280E-04-3.64565E-05
 -1      3294 0.00000E+00 3.72539E-04-9.96302E-06
 -1      3295 0.00000E+00 3.72539E-04-1.29067E-05
 -1      3296 0.00000E+00 3.72539E-04-1.58505E-05
 -1      3297 0.00000E+00 3.72539E-04-1.87942E-05
 -1      3298 0.00000E+00 3.72539E-04-2.17379E-05
 -1      3299 0.00000E+00 3.72539E-04-2.46816E-05
 -1      3300 0.00000E+00 3.72539E-04-2.76254E-05
 -1      3301 0.00000E+00 3.72539E-04-3.05691E-05
 -1      3302 0.00000E+00 3.72539E-04-3.35128E-05
 -1      3303 0.00000E+00 3.72539E-04-3.64565E-05
 -1      3304 0.00000E+00 3.68174E-04-9.96302E-06
 -1      3305 0.00000E+00 3.68174E-04-1.29067E-05
 -1      3306 0.00000E+00 3.68174E-04-1.58505E-05
 -1      3307 0.00000E+00 3.68174E-04-1.87942E-05
 -1      3308 0.00000E+00 3.68174E-04-2.17379E-05
 -1      3309 0.00000E+00 3.68174E-04-2.46816E-05
 -1      3310 0.00000E+00 3.68174E-04-2.76254E-05
 -1      3311 0.00000E+00 3.68174E-04-3.05691E-05
 -1      3312 0.00000E+00 3.68174E-04-3.35128E-05
 -1      3313 0.00000E+00 3.68174E-04-3.64565E-05
 -1      3314 0.00000E+00 3.64232E-04-9.96302E-06
 -1      3315 0.00000E+00 3.64232E-04-1.29067E-05
 -1      3316 0.00000E+00 3.64232E-04-1.58505E-05
 -1      3317 0.00000E+00 3.64232E-04-1.87942E-05
 -1      3318 0.00000E+00 3.64232E-04-2.17379E-05
 -1      3319 0.00000E+00 3.64232E-04-2.46816E-05
 -1      3320 0.00000E+00 3.64232E-04-2.76254E-05
 -1      3321 0.00000E+00 3.64232E-04-3.05691E-05
 -1      3322 0.00000E+00 3.64232E-04-3.35128E-05
 -1      3323 0.00000E+00 3.64232E-04-3.64565E-05
 -1      3324 0.00000E+00 3.60769E-04-9.96302E-06
 -1      3325 0.00000E+00 3.60769E-04-1.29067E-05
 -1      3326 0.00000E+00 3.60769E-04-1.58505E-05
 -1      3327 0.00000E+00 3.60769E-04-1.87942E-05
 -1      3328 0.00000E+00 3.60769E-04-2.17379E-05
 -1      3329 0.00000E+00 3.60769E-04-2.46816E-05
 -1      3330 0.00000E+00 3.60769E-04-2.76254E-05
 -1      3331 0.00000E+00 3.60769E-04-3.05691E-05
 -1      3332 0.00000E+00 3.60769E-04-3.35128E-05
 -1      3333 0.00000E+00 3.60769E-04-3.64565E-05
 -1      3334 0.00000E+00 3.57849E-04-9.96302E-06
 -1      3335 0.00000E+00 3.57849E-04-1.29067E-05
 -1      3336 0.00000E+00 3.57849E-04-1.58505E-05
 -1      3337 0.00000E+00 3.57849E-04-1.87942E-05
 -1      3338 0.00000E+00 3.57849E-04-2.17379E-05
 -1      3339 0.00000E+00 3.57849E-04-2.46816E-05
 -1      3340 0.00000E+00 3.57849E-04-2.76254E-05
 -1      3341 0.00000E+00 3.57849E-04-3.05691E-05
 -1      3342 0.00000E+00 3.57849E-04-3.35128E-05
 -1      3343 0.00000E+00 3.57849E-04-3.64565E-05
 -1      3344 0.00000E+00 3.55551E-04-9.96302E-06
 -1      3345 0.00000E+00 3.55551E-04-1.29067E-05
 -1      3346 0.00000E+00 3.55551E-04-1.58505E-05
 -1      3347 0.00000E+00 3.55551E-04-1.87942E-05
 -1      3348 0.00000E+00 3.55551E-04-2.17379E-05
 -1      3349 0.00000E+00 3.55551E-04-2.46816E-05
 -1      3350 0.00000E+00 3.55551E-04-2.76254E-05
 -1      3351 0.00000E+00 3.55551E-04-3.05691E-05
 -1      3352 0.00000E+00 3.55551E-04-3.35128E-05
 -1      3353 0.00000E+00 3.55551E-04-3.64565E-05
 -1      3354 0.00000E+00 3.53967E-04-9.96302E-06
 -1      3355 0.00000E+00 3.53967E-04-1.29067E-05
 -1      3356 0.00000E+00 3.53967E-04-1.58505E-05
 -1      3357 0.00000E+00 3.53967E-04-1.87942E-05
 -1      3358 0.00000E+00 3.53967E-04-2.17379E-05
 -1      3359 0.00000E+00 3.53967E-04-2.46816E-05
 -1      3360 0.00000E+00 3.53967E-04-2.76254E-05
 -1      3361 0.00000E+00 3.53967E-04-3.05691E-05
 -1      3362 0.00000E+00 3.53967E-04-3.35128E-05
 -1      3363 0.00000E+00 3.53967E-04-3.64565E-05
 -1      3364 0.00000E+00 3.53211E-04-9.96302E-06
 -1      3365 0.00000E+00 3.53211E-04-1.29067E-05
 -1      3366 0.00000E+00 3.53211E-04-1.58505E-05
 -1      3367 0.00000E+00 3.53211E-04-1.87942E-05
 -1      3368 0.00000E+00 3.53211E-04-2.17379E-05
 -1      3369 0.00000E+00 3.53211E-04-2.46816E-05
 -1      3370 0.00000E+00 3.53211E-04-2.76254E-05
 -1      3371 0.00000E+00 3.53211E-04-3.05691E-05
 -1      3372 0.00000E+00 3.53211E-04-3.35128E-05
 -1      3373 0.00000E+00 3.53211E-04-3.64565E-05
 -1      3374 0.00000E+00 3.53421E-04-9.96302E-06
 -1      3375 0.00000E+00 3.53421E-04-1.29067E-05
 -1      3376 0.00000E+00 3.53421E-04-1.58505E-05
 -1      3377 0.00000E+00 3.53421E-04-1.87942E-05
 -1      3378 0.00000E+00 3.53421E-04-2.17379E-05
 -1      3379 0.00000E+00 3.53421E-04-2.46816E-05
 -1      3380 0.00000E+00 3.53421E-04-2.76254E-05
 -1      3381 0.00000E+00 3.53421E-04-3.05691E-05
 -1      3382 0.00000E+00 3.53421E-04-3.35128E-05
 -1      3383 0.00000E+00 3.53421E-04-3.64565E-05
 -1      3384 0.00000E+00 3.54766E-04-9.96302E-06
 -1      3385 0.00000E+00 3.54766E-04-1.29067E-05
 -1      3386 0.00000E+00 3.54766E-04-1.58505E-05
 -1      3387 0.00000E+00 3.54766E-04-1.87942E-05
 -1      3388 0.00000E+00 3.54766E-04-2.17379E-05
 -1      3389 0.00000E+00 3.54766E-04-2.46816E-05
 -1      3390 0.00000E+00 3.54766E-04-2.76254E-05
 -1      3391 0.00000E+00 3.54766E-04-3.05691E-05
 -1      3392 0.00000E+00 3.54766E-04-3.35128E-05
 -1      3393 0.00000E+00 3.54766E-04-3.64565E-05
 -1      3394 0.00000E+00 3.57460E-04-9.96302E-06
 -1      3395 0.00000E+00 3.57460E-04-1.29067E-05
 -1      3396 0.00000E+00 3.57460E-04-1.58505E-05
 -1      3397 0.00000E+00 3.57460E-04-1.87942E-05
 -1      3398 0.00000E+00 3.57460E-04-2.17379E-05
 -1      3399 0.00000E+00 3.57460E-04-2.46816E-05
 -1      3400 0.00000E+00 3.57460E-04-2.76254E-05
 -1      3401 0.00000E+00 3.57460E-04-3.05691E-05
 -1      3402 0.00000E+00 3.57460E-04-3.35128E-05
 -1      3403 0.00000E+00 3.57460E-04-3.64565E-05
 -1      3404 0.00000E+00 3.61772E-04-9.96302E-06
 -1      3405 0.00000E+00 3.61772E-04-1.29067E-05
 -1      3406 0.00000E+00 3.61772E-04-1.58505E-05
 -1      3407 0.00000E+00 3.61772E-04-1.87942E-05
 -1      3408 0.00000E+00 3.61772E-04-2.17379E-05
 -1      3409 0.00000E+00 3.61772E-04-2.46816E-05
 -1      3410 0.00000E+00 3.61772E-04-2.76254E-05
 -1      3411 0.00000E+00 3.61772E-04-3.05691E-05
 -1      3412 0.00000E+00 3.61772E-04-3.35128E-05
 -1      3413 0.00000E+00 3.61772E-04-3.64565E-05
 -1      3414 0.00000E+00 3.68050E-04-9.96302E-06
 -1      3415 0.00000E+00 3.68050E-04-1.29067E-05
 -1      3416 0.00000E+00 3.68050E-04-1.58505E-05
 -1      3417 0.00000E+00 3.68050E-04-1.87942E-05
 -1      3418 0.00000E+00 3.68050E-04-2.17379E-05
 -1      3419 0.00000E+00 3.68050E-04-2.46816E-05
 -1      3420 0.00000E+00 3.68050E-04-2.76254E-05
 -1      3421 0.00000E+00 3.68050E-04-3.05691E-05
 -1      3422 0.00000E+00 3.68050E-04-3.35128E-05
 -1      3423 0.00000E+00 3.68050E-04-3.64565E-05
 -1      3424 0.00000E+00 3.76744E-04-9.96303E-06
 -1      3425 0.00000E+00 3.76744E-04-1.29067E-05
 -1      3426 0.00000E+00 3.76744E-04-1.58505E-05
 -1      3427 0.00000E+00 3.76744E-04-1.87942E-05
 -1      3428 0.00000E+00 3.76744E-04-2.17379E-05
 -1      3429 0.00000E+00 3.76744E-04-2.46816E-05
 -1      3430 0.00000E+00 3.76744E-04-2.76254E-05
 -1      3431 0.00000E+00 3.76744E-04-3.05691E-05
 -1      3432 0.00000E+00 3.76744E-04-3.35128E-05
 -1      3433 0.00000E+00 3.76744E-04-3.64565E-05
 -1      3434 0.00000E+00 3.88470E-04-9.96302E-06
 -1      3435 0.00000E+00 3.88470E-04-1.29068E-05
 -1      3436 0.00000E+00 3.88470E-04-1.58505E-05
 -1      3437 0.00000E+00 3.88470E-04-1.87942E-05
 -1      3438 0.00000E+00 3.88470E-04-2.17379E-05
 -1      3439 0.00000E+00 3.88470E-04-2.46816E-05
 -1      3440 0.00000E+00 3.88470E-04-2.76254E-05
 -1      3441 0.00000E+00 3.88470E-04-3.05691E-05
 -1      3442 0.00000E+00 3.88470E-04-3.35128E-05
 -1      3443 0.00000E+00 3.88470E-04-3.64565E-05
 -1      3444 0.00000E+00 4.04015E-04-9.96302E-06
 -1      3445 0.00000E+00 4.04015E-04-1.29067E-05
 -1      3446 0.00000E+00 4.04015E-04-1.58505E-05
 -1      3447 0.00000E+00 4.04015E-04-1.87942E-05
 -1      3448 0.00000E+00 4.04015E-04-2.17379E-05
 -1      3449 0.00000E+00 4.04015E-04-2.46816E-05
 -1      3450 0.00000E+00 4.04015E-04-2.76254E-05
 -1      3451 0.00000E+00 4.04015E-04-3.05691E-05
 -1      3452 0.00000E+00 4.04015E-04-3.35128E-05
 -1      3453 0.00000E+00 4.04015E-04-3.64565E-05
 -1      3454 0.00000E+00 4.53009E-04-8.49115E-06
 -1      3455 0.00000E+00 4.56658E-04-9.96295E-06
 -1      3457 0.00000E+00 4.53009E-04-1.14349E-05
 -1      3458 0.00000E+00 4.56658E-04-1.29067E-05
 -1      3460 0.00000E+00 4.53009E-04-1.43786E-05
 -1      3461 0.00000E+00 4.56658E-04-1.58504E-05
 -1      3463 0.00000E+00 4.53009E-04-1.73223E-05
 -1      3464 0.00000E+00 4.56658E-04-1.87942E-05
 -1      3466 0.00000E+00 4.53009E-04-2.02660E-05
 -1      3467 0.00000E+00 4.56658E-04-2.17379E-05
 -1      3469 0.00000E+00 4.53009E-04-2.32098E-05
 -1      3470 0.00000E+00 4.56658E-04-2.46816E-05
 -1      3472 0.00000E+00 4.53009E-04-2.61535E-05
 -1      3473 0.00000E+00 4.56658E-04-2.76254E-05
 -1      3475 0.00000E+00 4.53009E-04-2.90972E-05
 -1      3476 0.00000E+00 4.56658E-04-3.05691E-05
 -1      3478 0.00000E+00 4.53009E-04-3.20410E-05
 -1      3479 0.00000E+00 4.56658E-04-3.35129E-05
 -1      3481 0.00000E+00 4.53009E-04-3.49847E-05
 -1      3482 0.00000E+00 4.56658E-04-3.64566E-05
 -1      3484 0.00000E+00 4.53009E-04-3.79284E-05
 -1      3486 0.00000E+00 4.45767E-04-8.49116E-06
 -1      3487 0.00000E+00 4.49374E-04-9.96301E-06
 -1      3489 0.00000E+00 4.45767E-04-1.14349E-05
 -1      3490 0.00000E+00 4.49374E-04-1.29067E-05
 -1      3492 0.00000E+00 4.45767E-04-1.43786E-05
 -1      3493 0.00000E+00 4.49374E-04-1.58505E-05
 -1      3495 0.00000E+00 4.45767E-04-1.73223E-05
 -1      3496 0.00000E+00 4.49374E-04-1.87942E-05
 -1      3498 0.00000E+00 4.45767E-04-2.02661E-05
 -1      3499 0.00000E+00 4.49374E-04-2.17379E-05
 -1      3501 0.00000E+00 4.45767E-04-2.32098E-05
 -1      3502 0.00000E+00 4.49374E-04-2.46816E-05
 -1      3504 0.00000E+00 4.45767E-04-2.61535E-05
 -1      3505 0.00000E+00 4.49374E-04-2.76254E-05
 -1      3507 0.00000E+00 4.45767E-04-2.90972E-05
 -1      3508 0.00000E+00 4.49374E-04-3.05691E-05
 -1      3510 0.00000E+00 4.45767E-04-3.20409E-05
 -1      3511 0.00000E+00 4.49374E-04-3.35128E-05
 -1      3513 0.00000E+00 4.45767E-04-3.49847E-05
 -1      3514 0.00000E+00 4.49374E-04-3.64565E-05
 -1      3516 0.00000E+00 4.45767E-04-3.79284E-05
 -1      3518 0.00000E+00 4.38677E-04-8.49116E-06
 -1      3519 0.00000E+00 4.42207E-04-9.96303E-06
 -1      3521 0.00000E+00 4.38677E-04-1.14349E-05
 -1      3522 0.00000E+00 4.42207E-04-1.29067E-05
 -1      3524 0.00000E+00 4.38677E-04-1.43786E-05
 -1      3525 0.00000E+00 4.42207E-04-1.58505E-05
 -1      3527 0.00000E+00 4.38677E-04-1.73223E-05
 -1      3528 0.00000E+00 4.42207E-04-1.87942E-05
 -1      3530 0.00000E+00 4.38677E-04-2.02661E-05
 -1      3531 0.00000E+00 4.42207E-04-2.17379E-05
 -1      3533 0.00000E+00 4.38677E-04-2.32098E-05
 -1      3534 0.00000E+00 4.42207E-04-2.46816E-05
 -1      3536 0.00000E+00 4.38677E-04-2.61535E-05
 -1      3537 0.00000E+00 4.42207E-04-2.76254E-05
 -1      3539 0.00000E+00 4.38677E-04-2.90972E-05
 -1      3540 0.00000E+00 4.42207E-04-3.05691E-05
 -1      3542 0.00000E+00 4.38677E-04-3.20409E-05
 -1      3543 0.00000E+00 4.42207E-04-3.35128E-05
 -1      3545 0.00000E+00 4.38677E-04-3.49847E-05
 -1      3546 0.00000E+00 4.42207E-04-3.64565E-05
 -1      3548 0.00000E+00 4.38677E-04-3.79284E-05
 -1      3550 0.00000E+00 4.31710E-04-8.49116E-06
 -1      3551 0.00000E+00 4.35177E-04-9.96302E-06
 -1      3553 0.00000E+00 4.31710E-04-1.14349E-05
 -1      3554 0.00000E+00 4.35177E-04-1.29067E-05
 -1      3556 0.00000E+00 4.31710E-04-1.43786E-05
 -1      3557 0.00000E+00 4.35177E-04-1.58505E-05
 -1      3559 0.00000E+00 4.31710E-04-1.73223E-05
 -1      3560 0.00000E+00 4.35177E-04-1.87942E-05
 -1      3562 0.00000E+00 4.31710E-04-2.02661E-05
 -1      3563 0.00000E+00 4.35177E-04-2.17379E-05
 -1      3565 0.00000E+00 4.31710E-04-2.32098E-05
 -1      3566 0.00000E+00 4.35177E-04-2.46816E-05
 -1      3568 0.00000E+00 4.31710E-04-2.61535E-05
 -1      3569 0.00000E+00 4.35177E-04-2.76254E-05
 -1      3571 0.00000E+00 4.31710E-04-2.90972E-05
 -1      3572 0.00000E+00 4.35177E-04-3.05691E-05
 -1      3574 0.00000E+00 4.31710E-04-3.20409E-05
 -1      3575 0.00000E+00 4.35177E-04-3.35128E-05
 -1      3577 0.00000E+00 4.31710E-04-3.49847E-05
 -1      3578 0.00000E+00 4.35177E-04-3.64565E-05
 -1      3580 0.00000E+00 4.31710E-04-3.79284E-05
 -1      3582 0.00000E+00 4.24886E-04-8.49116E-06
 -1      3583 0.00000E+00 4.28280E-04-9.96302E-06
 -1      3585 0.00000E+00 4.24886E-04-1.14349E-05
 -1      3586 0.00000E+00 4.28280E-04-1.29067E-05
 -1      3588 0.00000E+00 4.24886E-04-1.43786E-05
 -1      3589 0.00000E+00 4.28280E-04-1.58505E-05
 -1      3591 0.00000E+00 4.24886E-04-1.73223E-05
 -1      3592 0.00000E+00 4.28280E-04-1.87942E-05
 -1      3594 0.00000E+00 4.24886E-04-2.02661E-05
 -1      3595 0.00000E+00 4.28280E-04-2.17379E-05
 -1      3597 0.00000E+00 4.24886E-04-2.32098E-05
 -1      3598 0.00000E+00 4.28280E-04-2.46816E-05
 -1      3600 0.00000E+00 4.24886E-04-2.61535E-05
 -1      3601 0.00000E+00 4.28280E-04-2.76254E-05
 -1      3603 0.00000E+00 4.24886E-04-2.90972E-05
 -1      3604 0.00000E+00 4.28280E-04-3.05691E-05
 -1      3606 0.00000E+00 4.24886E-04-3.20409E-05
 -1      3607 0.00000E+00 4.28280E-04-3.35128E-05
 -1      3609 0.00000E+00 4.24886E-04-3.49847E-05
 -1      3610 0.00000E+00 4.28280E-04-3.64565E-05
 -1      3612 0.00000E+00 4.24886E-04-3.79284E-05
 -1      3614 0.00000E+00 4.18216E-04-8.49116E-06
 -1      3615 0.00000E+00 4.21531E-04-9.96302E-06
 -1      3617 0.00000E+00 4.18216E-04-1.14349E-05
 -1      3618 0.00000E+00 4.21531E-04-1.29067E-05
 -1      3620 0.00000E+00 4.18216E-04-1.43786E-05
 -1      3621 0.00000E+00 4.21531E-04-1.58505E-05
 -1      3623 0.00000E+00 4.18216E-04-1.73223E-05
 -1      3624 0.00000E+00 4.21531E-04-1.87942E-05
 -1      3626 0.00000E+00 4.18216E-04-2.02661E-05
 -1      3627 0.00000E+00 4.21531E-04-2.17379E-05
 -1      3629 0.00000E+00 4.18216E-04-2.32098E-05
 -1      3630 0.00000E+00 4.21531E-04-2.46816E-05
 -1      3632 0.00000E+00 4.18216E-04-2.61535E-05
 -1      3633 0.00000E+00 4.21531E-04-2.76254E-05
 -1      3635 0.00000E+00 4.18216E-04-2.90972E-05
 -1      3636 0.00000E+00 4.21531E-04-3.05691E-05
 -1      3638 0.00000E+00 4.18216E-04-3.20409E-05
 -1      3639 0.00000E+00 4.21531E-04-3.35128E-05
 -1      3641 0.00000E+00 4.18216E-04-3.49847E-05
 -1      3642 0.00000E+00 4.21531E-04-3.64565E-05
 -1      3644 0.00000E+00 4.18216E-04-3.79284E-05
 -1      3646 0.00000E+00 4.11714E-04-8.49116E-06
 -1      3647 0.00000E+00 4.14943E-04-9.96302E-06
 -1      3649 0.00000E+00 4.11714E-04-1.14349E-05
 -1      3650 0.00000E+00 4.14943E-04-1.29067E-05
 -1      3652 0.00000E+00 4.11714E-04-1.43786E-05
 -1      3653 0.00000E+00 4.14943E-04-1.58505E-05
 -1      3655 0.00000E+00 4.11714E-04-1.73223E-05
 -1      3656 0.00000E+00 4.14943E-04-1.87942E-05
 -1      3658 0.00000E+00 4.11714E-04-2.02661E-05
 -1      3659 0.00000E+00 4.14943E-04-2.17379E-05
 -1      3661 0.00000E+00 4.11714E-04-2.32098E-05
 -1      3662 0.00000E+00 4.14943E-04-2.46816E-05
 -1      3664 0.00000E+00 4.11714E-04-2.61535E-05
 -1      3665 0.00000E+00 4.14943E-04-2.76254E-05
 -1      3667 0.00000E+00 4.11714E-04-2.90972E-05
 -1      3668 0.00000E+00 4.14943E-04-3.05691E-05
 -1      3670 0.00000E+00 4.11714E-04-3.20409E-05
 -1      3671 0.00000E+00 4.14943E-04-3.35128E-05
 -1      3673 0.00000E+00 4.11714E-04-3.49847E-05
 -1      3674 0.00000E+00 4.14943E-04-3.64565E-05
 -1      3676 0.00000E+00 4.11714E-04-3.79284E-05
 -1      3678 0.00000E+00 4.05396E-04-8.49116E-06
 -1      3679 0.00000E+00 4.08531E-04-9.96302E-06
 -1      3681 0.00000E+00 4.05396E-04-1.14349E-05
 -1      3682 0.00000E+00 4.08531E-04-1.29067E-05
 -1      3684 0.00000E+00 4.05396E-04-1.43786E-05
 -1      3685 0.00000E+00 4.08531E-04-1.58505E-05
 -1      3687 0.00000E+00 4.05396E-04-1.73223E-05
 -1      3688 0.00000E+00 4.08531E-04-1.87942E-05
 -1      3690 0.00000E+00 4.05396E-04-2.02661E-05
 -1      3691 0.00000E+00 4.08531E-04-2.17379E-05
 -1      3693 0.00000E+00 4.05396E-04-2.32098E-05
 -1      3694 0.00000E+00 4.08531E-04-2.46816E-05
 -1      3696 0.00000E+00 4.05396E-04-2.61535E-05
 -1      3697 0.00000E+00 4.08531E-04-2.76254E-05
 -1      3699 0.00000E+00 4.05396E-04-2.90972E-05
 -1      3700 0.00000E+00 4.08531E-04-3.05691E-05
 -1      3702 0.00000E+00 4.05396E-04-3.20409E-05
 -1      3703 0.00000E+00 4.08531E-04-3.35128E-05
 -1      3705 0.00000E+00 4.05396E-04-3.49847E-05
 -1      3706 0.00000E+00 4.08531E-04-3.64565E-05
 -1      3708 0.00000E+00 4.05396E-04-3.79284E-05
 -1      3710 0.00000E+00 3.99280E-04-8.49116E-06
 -1      3711 0.00000E+00 4.02312E-04-9.96302E-06
 -1      3713 0.00000E+00 3.99280E-04-1.14349E-05
 -1      3714 0.00000E+00 4.02312E-04-1.29067E-05
 -1      3716 0.00000E+00 3.99280E-04-1.43786E-05
 -1      3717 0.00000E+00 4.02312E-04-1.58505E-05
 -1      3719 0.00000E+00 3.99280E-04-1.73223E-05
 -1      3720 0.00000E+00 4.02312E-04-1.87942E-05
 -1      3722 0.00000E+00 3.99280E-04-2.02661E-05
 -1      3723 0.00000E+00 4.02312E-04-2.17379E-05
 -1      3725 0.00000E+00 3.99280E-04-2.32098E-05
 -1      3726 0.00000E+00 4.02312E-04-2.46816E-05
 -1      3728 0.00000E+00 3.99280E-04-2.61535E-05
 -1      3729 0.00000E+00 4.02312E-04-2.76254E-05
 -1      3731 0.00000E+00 3.99280E-04-2.90972E-05
 -1      3732 0.00000E+00 4.02312E-04-3.05691E-05
 -1      3734 0.00000E+00 3.99280E-04-3.20409E-05
 -1      3735 0.00000E+00 4.02312E-04-3.35128E-05
 -1      3737 0.00000E+00 3.99280E-04-3.49847E-05
 -1      3738 0.00000E+00 4.02312E-04-3.64565E-05
 -1      3740 0.00000E+00 3.99280E-04-3.79284E-05
 -1      3742 0.00000E+00 3.93386E-04-8.49116E-06
 -1      3743 0.00000E+00 3.96304E-04-9.96302E-06
 -1      3745 0.00000E+00 3.93386E-04-1.14349E-05
 -1      3746 0.00000E+00 3.96304E-04-1.29067E-05
 -1      3748 0.00000E+00 3.93386E-04-1.43786E-05
 -1      3749 0.00000E+00 3.96304E-04-1.58505E-05
 -1      3751 0.00000E+00 3.93386E-04-1.73223E-05
 -1      3752 0.00000E+00 3.96304E-04-1.87942E-05
 -1      3754 0.00000E+00 3.93386E-04-2.02661E-05
 -1      3755 0.00000E+00 3.96304E-04-2.17379E-05
 -1      3757 0.00000E+00 3.93386E-04-2.32098E-05
 -1      3758 0.00000E+00 3.96304E-04-2.46816E-05
 -1      3760 0.00000E+00 3.93386E-04-2.61535E-05
 -1      3761 0.00000E+00 3.96304E-04-2.76254E-05
 -1      3763 0.00000E+00 3.93386E-04-2.90972E-05
 -1      3764 0.00000E+00 3.96304E-04-3.05691E-05
 -1      3766 0.00000E+00 3.93386E-04-3.20409E-05
 -1      3767 0.00000E+00 3.96304E-04-3.35128E-05
 -1      3769 0.00000E+00 3.93386E-04-3.49847E-05
 -1      3770 0.00000E+00 3.96304E-04-3.64565E-05
 -1      3772 0.00000E+00 3.93386E-04-3.79284E-05
 -1      3774 0.00000E+00 3.87736E-04-8.49116E-06
 -1      3775 0.00000E+00 3.90529E-04-9.96302E-06
 -1      3777 0.00000E+00 3.87736E-04-1.14349E-05
 -1      3778 0.00000E+00 3.90529E-04-1.29067E-05
 -1      3780 0.00000E+00 3.87736E-04-1.43786E-05
 -1      3781 0.00000E+00 3.90529E-04-1.58505E-05
 -1      3783 0.00000E+00 3.87736E-04-1.73223E-05
 -1      3784 0.00000E+00 3.90529E-04-1.87942E-05
 -1      3786 0.00000E+00 3.87736E-04-2.02661E-05
 -1      3787 0.00000E+00 3.90529E-04-2.17379E-05
 -1      3789 0.00000E+00 3.87736E-04-2.32098E-05
 -1      3790 0.00000E+00 3.90529E-04-2.46816E-05
 -1      3792 0.00000E+00 3.87736E-04-2.61535E-05
 -1      3793 0.00000E+00 3.90529E-04-2.76254E-05
 -1      3795 0.00000E+00 3.87736E-04-2.90972E-05
 -1      3796 0.00000E+00 3.90529E-04-3.05691E-05
 -1      3798 0.00000E+00 3.87736E-04-3.20409E-05
 -1      3799 0.00000E+00 3.90529E-04-3.35128E-05
 -1      3801 0.00000E+00 3.87736E-04-3.49847E-05
 -1      3802 0.00000E+00 3.90529E-04-3.64565E-05
 -1      3804 0.00000E+00 3.87736E-04-3.79284E-05
 -1      3806 0.00000E+00 3.82358E-04-8.49116E-06
 -1      3807 0.00000E+00 3.85011E-04-9.96302E-06
 -1      3809 0.00000E+00 3.82358E-04-1.14349E-05
 -1      3810 0.00000E+00 3.85011E-04-1.29067E-05
 -1      3812 0.00000E+00 3.82358E-04-1.43786E-05
 -1      3813 0.00000E+00 3.85011E-04-1.58505E-05
 -1      3815 0.00000E+00 3.82358E-04-1.73223E-05
 -1      3816 0.00000E+00 3.85011E-04-1.87942E-05
 -1      3818 0.00000E+00 3.82358E-04-2.02661E-05
 -1      3819 0.00000E+00 3.85011E-04-2.17379E-05
 -1      3821 0.00000E+00 3.82358E-04-2.32098E-05
 -1      3822 0.00000E+00 3.85011E-04-2.46816E-05
 -1      3824 0.00000E+00 3.82358E-04-2.61535E-05
 -1      3825 0.00000E+00 3.85011E-04-2.76254E-05
 -1      3827 0.00000E+00 3.82358E-04-2.90972E-05
 -1      3828 0.00000E+00 3.85011E-04-3.05691E-05
 -1      3830 0.00000E+00 3.82358E-04-3.20409E-05
 -1      3831 0.00000E+00 3.85011E-04-3.35128E-05
 -1      3833 0.00000E+00 3.82358E-04-3.49847E-05
 -1      3834 0.00000E+00 3.85011E-04-3.64565E-05
 -1      3836 0.00000E+00 3.82358E-04-3.79284E-05
 -1      3838 0.00000E+00 3.77280E-04-8.49116E-06
 -1      3839 0.00000E+00 3.79779E-04-9.96302E-06
 -1      3841 0.00000E+00 3.77280E-04-1.14349E-05
 -1      3842 0.00000E+00 3.79779E-04-1.29067E-05
 -1      3844 0.00000E+00 3.77280E-04-1.43786E-05
 -1      3845 0.00000E+00 3.79779E-04-1.58505E-05
 -1      3847 0.00000E+00 3.77280E-04-1.73223E-05
 -1      3848 0.00000E+00 3.79779E-04-1.87942E-05
 -1      3850 0.00000E+00 3.77280E-04-2.02661E-05
 -1      3851 0.00000E+00 3.79779E-04-2.17379E-05
 -1      3853 0.00000E+00 3.77280E-04-2.32098E-05
 -1      3854 0.00000E+00 3.79779E-04-2.46816E-05
 -1      3856 0.00000E+00 3.77280E-04-2.61535E-05
 -1      3857 0.00000E+00 3.79779E-04-2.76254E-05
 -1      3859 0.00000E+00 3.77280E-04-2.90972E-05
 -1      3860 0.00000E+00 3.79779E-04-3.05691E-05
 -1      3862 0.00000E+00 3.77280E-04-3.20409E-05
 -1      3863 0.00000E+00 3.79779E-04-3.35128E-05
 -1      3865 0.00000E+00 3.77280E-04-3.49847E-05
 -1      3866 0.00000E+00 3.79779E-04-3.64565E-05
 -1      3868 0.00000E+00 3.77280E-04-3.79284E-05
 -1      3870 0.00000E+00 3.72539E-04-8.49116E-06
 -1      3871 0.00000E+00 3.74865E-04-9.96302E-06
 -1      3873 0.00000E+00 3.72539E-04-1.14349E-05
 -1      3874 0.00000E+00 3.74865E-04-1.29067E-05
 -1      3876 0.00000E+00 3.72539E-04-1.43786E-05
 -1      3877 0.00000E+00 3.74865E-04-1.58505E-05
 -1      3879 0.00000E+00 3.72539E-04-1.73223E-05
 -1      3880 0.00000E+00 3.74865E-04-1.87942E-05
 -1      3882 0.00000E+00 3.72539E-04-2.02661E-05
 -1      3883 0.00000E+00 3.74865E-04-2.17379E-05
 -1      3885 0.00000E+00 3.72539E-04-2.32098E-05
 -1      3886 0.00000E+00 3.74865E-04-2.46816E-05
 -1      3888 0.00000E+00 3.72539E-04-2.61535E-05
 -1      3889 0.00000E+00 3.74865E-04-2.76254E-05
 -1      3891 0.00000E+00 3.72539E-04-2.90972E-05
 -1      3892 0.00000E+00 3.74865E-04-3.05691E-05
 -1      3894 0.00000E+00 3.72539E-04-3.20409E-05
 -1      3895 0.00000E+00 3.74865E-04-3.35128E-05
 -1      3897 0.00000E+00 3.72539E-04-3.49847E-05
 -1      3898 0.00000E+00 3.74865E-04-3.64565E-05
 -1      3900 0.00000E+00 3.72539E-04-3.79284E-05
 -1      3902 0.00000E+00 3.68174E-04-8.49116E-06
 -1      3903 0.00000E+00 3.70306E-04-9.96302E-06
 -1      3905 0.00000E+00 3.68174E-04-1.14349E-05
 -1      3906 0.00000E+00 3.70306E-04-1.29067E-05
 -1      3908 0.00000E+00 3.68174E-04-1.43786E-05
 -1      3909 0.00000E+00 3.70306E-04-1.58505E-05
 -1      3911 0.00000E+00 3.68174E-04-1.73223E-05
 -1      3912 0.00000E+00 3.70306E-04-1.87942E-05
 -1      3914 0.00000E+00 3.68174E-04-2.02661E-05
 -1      3915 0.00000E+00 3.70306E-04-2.17379E-05
 -1      3917 0.00000E+00 3.68174E-04-2.32098E-05
 -1      3918 0.00000E+00 3.70306E-04-2.46816E-05
 -1      3920 0.00000E+00 3.68174E-04-2.61535E-05
 -1      3921 0.00000E+00 3.70306E-04-2.76254E-05
 -1      3923 0.00000E+00 3.68174E-04-2.90972E-05
 -1      3924 0.00000E+00 3.70306E-04-3.05691E-05
 -1      3926 0.00000E+00 3.68174E-04-3.20409E-05
 -1      3927 0.00000E+00 3.70306E-04-3.35128E-05
 -1      3929 0.00000E+00 3.68174E-04-3.49847E-05
 -1      3930 0.00000E+00 3.70306E-04-3.64565E-05
 -1      3932 0.00000E+00 3.68174E-04-3.79284E-05
 -1      3934 0.00000E+00 3.64232E-04-8.49116E-06
 -1      3935 0.00000E+00 3.66147E-04-9.96302E-06
 -1      3937 0.00000E+00 3.64232E-04-1.14349E-05
 -1      3938 0.00000E+00 3.66147E-04-1.29067E-05
 -1      3940 0.00000E+00 3.64232E-04-1.43786E-05
 -1      3941 0.00000E+00 3.66147E-04-1.58505E-05
 -1      3943 0.00000E+00 3.64232E-04-1.73223E-05
 -1      3944 0.00000E+00 3.66147E-04-1.87942E-05
 -1      3946 0.00000E+00 3.64232E-04-2.02661E-05
 -1      3947 0.00000E+00 3.66147E-04-2.17379E-05
 -1      3949 0.00000E+00 3.64232E-04-2.32098E-05
 -1      3950 0.00000E+00 3.66147E-04-2.46816E-05
 -1      3952 0.00000E+00 3.64232E-04-2.61535E-05
 -1      3953 0.00000E+00 3.66147E-04-2.76254E-05
 -1      3955 0.00000E+00 3.64232E-04-2.90972E-05
 -1      3956 0.00000E+00 3.66147E-04-3.05691E-05
 -1      3958 0.00000E+00 3.64232E-04-3.20409E-05
 -1      3959 0.00000E+00 3.66147E-04-3.35128E-05
 -1      3961 0.00000E+00 3.64232E-04-3.49847E-05
 -1      3962 0.00000E+00 3.66147E-04-3.64565E-05
 -1      3964 0.00000E+00 3.64232E-04-3.79284E-05
 -1      3966 0.00000E+00 3.60769E-04-8.49116E-06
 -1      3967 0.00000E+00 3.62437E-04-9.96302E-06
 -1      3969 0.00000E+00 3.60769E-04-1.14349E-05
 -1      3970 0.00000E+00 3.62437E-04-1.29067E-05
 -1      3972 0.00000E+00 3.60769E-04-1.43786E-05
 -1      3973 0.00000E+00 3.62437E-04-1.58505E-05
 -1      3975 0.00000E+00 3.60769E-04-1.73223E-05
 -1      3976 0.00000E+00 3.62437E-04-1.87942E-05
 -1      3978 0.00000E+00 3.60769E-04-2.02661E-05
 -1      3979 0.00000E+00 3.62437E-04-2.17379E-05
 -1      3981 0.00000E+00 3.60769E-04-2.32098E-05
 -1      3982 0.00000E+00 3.62437E-04-2.46816E-05
 -1      3984 0.00000E+00 3.60769E-04-2.61535E-05
 -1      3985 0.00000E+00 3.62437E-04-2.76254E-05
 -1      3987 0.00000E+00 3.60769E-04-2.90972E-05
 -1      3988 0.00000E+00 3.62437E-04-3.05691E-05
 -1      3990 0.00000E+00 3.60769E-04-3.20409E-05
 -1      3991 0.00000E+00 3.62437E-04-3.35128E-05
 -1      3993 0.00000E+00 3.60769E-04-3.49847E-05
 -1      3994 0.00000E+00 3.62437E-04-3.64565E-05
 -1      3996 0.00000E+00 3.60769E-04-3.79284E-05
 -1      3998 0.00000E+00 3.57849E-04-8.49116E-06
 -1      3999 0.00000E+00 3.59236E-04-9.96302E-06
 -1      4001 0.00000E+00 3.57849E-04-1.14349E-05
 -1      4002 0.00000E+00 3.59236E-04-1.29067E-05
 -1      4004 0.00000E+00 3.57849E-04-1.43786E-05
 -1      4005 0.00000E+00 3.59236E-04-1.58505E-05
 -1      4007 0.00000E+00 3.57849E-04-1.73223E-05
 -1      4008 0.00000E+00 3.59236E-04-1.87942E-05
 -1      4010 0.00000E+00 3.57849E-04-2.02661E-05
 -1      4011 0.00000E+00 3.59236E-04-2.17379E-05
 -1      4013 0.00000E+00 3.57849E-04-2.32098E-05
 -1      4014 0.00000E+00 3.59236E-04-2.46816E-05
 -1      4016 0.00000E+00 3.57849E-04-2.61535E-05
 -1      4017 0.00000E+00 3.59236E-04-2.76254E-05
 -1      4019 0.00000E+00 3.57849E-04-2.90972E-05
 -1      4020 0.00000E+00 3.59236E-04-3.05691E-05
 -1      4022 0.00000E+00 3.57849E-04-3.20409E-05
 -1      4023 0.00000E+00 3.59236E-04-3.35128E-05
 -1      4025 0.00000E+00 3.57849E-04-3.49847E-05
 -1      4026 0.00000E+00 3.59236E-04-3.64565E-05
 -1      4028 0.00000E+00 3.57849E-04-3.79284E-05
 -1      4030 0.00000E+00 3.55551E-04-8.49116E-06
 -1      4031 0.00000E+00 3.56617E-04-9.96302E-06
 -1      4033 0.00000E+00 3.55551E-04-1.14349E-05
 -1      4034 0.00000E+00 3.56617E-04-1.29067E-05
 -1      4036 0.00000E+00 3.55551E-04-1.43786E-05
 -1      4037 0.00000E+00 3.56617E-04-1.58505E-05
 -1      4039 0.00000E+00 3.55551E-04-1.73223E-05
 -1      4040 0.00000E+00 3.56617E-04-1.87942E-05
 -1      4042 0.00000E+00 3.55551E-04-2.02661E-05
 -1      4043 0.00000E+00 3.56617E-04-2.17379E-05
 -1      4045 0.00000E+00 3.55551E-04-2.32098E-05
 -1      4046 0.00000E+00 3.56617E-04-2.46816E-05
 -1      4048 0.00000E+00 3.55551E-04-2.61535E-05
 -1      4049 0.00000E+00 3.56617E-04-2.76254E-05
 -1      4051 0.00000E+00 3.55551E-04-2.90972E-05
 -1      4052 0.00000E+00 3.56617E-04-3.05691E-05
 -1      4054 0.00000E+00 3.55551E-04-3.20409E-05
 -1      4055 0.00000E+00 3.56617E-04-3.35128E-05
 -1      4057 0.00000E+00 3.55551E-04-3.49847E-05
 -1      4058 0.00000E+00 3.56617E-04-3.64565E-05
 -1      4060 0.00000E+00 3.55551E-04-3.79284E-05
 -1      4062 0.00000E+00 3.53967E-04-8.49116E-06
 -1      4063 0.00000E+00 3.54663E-04-9.96302E-06
 -1      4065 0.00000E+00 3.53967E-04-1.14349E-05
 -1      4066 0.00000E+00 3.54663E-04-1.29067E-05
 -1      4068 0.00000E+00 3.53967E-04-1.43786E-05
 -1      4069 0.00000E+00 3.54663E-04-1.58505E-05
 -1      4071 0.00000E+00 3.53967E-04-1.73223E-05
 -1      4072 0.00000E+00 3.54663E-04-1.87942E-05
 -1      4074 0.00000E+00 3.53967E-04-2.02661E-05
 -1      4075 0.00000E+00 3.54663E-04-2.17379E-05
 -1      4077 0.00000E+00 3.53967E-04-2.32098E-05
 -1      4078 0.00000E+00 3.54663E-04-2.46816E-05
 -1      4080 0.00000E+00 3.53967E-04-2.61535E-05
 -1      4081 0.00000E+00 3.54663E-04-2.76254E-05
 -1      4083 0.00000E+00 3.53967E-04-2.90972E-05
 -1      4084 0.00000E+00 3.54663E-04-3.05691E-05
 -1      4086 0.00000E+00 3.53967E-04-3.20409E-05
 -1      4087 0.00000E+00 3.54663E-04-3.35128E-05
 -1      4089 0.00000E+00 3.53967E-04-3.49847E-05
 -1      4090 0.00000E+00 3.54663E-04-3.64565E-05
 -1      4092 0.00000E+00 3.53967E-04-3.79284E-05
 -1      4094 0.00000E+00 3.53211E-04-8.49116E-06
 -1      4095 0.00000E+00 3.53478E-04-9.96302E-06
 -1      4097 0.00000E+00 3.53211E-04-1.14349E-05
 -1      4098 0.00000E+00 3.53478E-04-1.29067E-05
 -1      4100 0.00000E+00 3.53211E-04-1.43786E-05
 -1      4101 0.00000E+00 3.53478E-04-1.58505E-05
 -1      4103 0.00000E+00 3.53211E-04-1.73223E-05
 -1      4104 0.00000E+00 3.53478E-04-1.87942E-05
 -1      4106 0.00000E+00 3.53211E-04-2.02661E-05
 -1      4107 0.00000E+00 3.53478E-04-2.17379E-05
 -1      4109 0.00000E+00 3.53211E-04-2.32098E-05
 -1      4110 0.00000E+00 3.53478E-04-2.46816E-05
 -1      4112 0.00000E+00 3.53211E-04-2.61535E-05
 -1      4113 0.00000E+00 3.53478E-04-2.76254E-05
 -1      4115 0.00000E+00 3.53211E-04-2.90972E-05
 -1      4116 0.00000E+00 3.53478E-04-3.05691E-05
 -1      4118 0.00000E+00 3.53211E-04-3.20409E-05
 -1      4119 0.00000E+00 3.53478E-04-3.35128E-05
 -1      4121 0.00000E+00 3.53211E-04-3.49847E-05
 -1      4122 0.00000E+00 3.53478E-04-3.64565E-05
 -1      4124 0.00000E+00 3.53211E-04-3.79284E-05
 -1      4126 0.00000E+00 3.53421E-04-8.49116E-06
 -1      4127 0.00000E+00 3.53185E-04-9.96302E-06
 -1      4129 0.00000E+00 3.53421E-04-1.14349E-05
 -1      4130 0.00000E+00 3.53185E-04-1.29067E-05
 -1      4132 0.00000E+00 3.53421E-04-1.43786E-05
 -1      4133 0.00000E+00 3.53185E-04-1.58505E-05
 -1      4135 0.00000E+00 3.53421E-04-1.73223E-05
 -1      4136 0.00000E+00 3.53185E-04-1.87942E-05
 -1      4138 0.00000E+00 3.53421E-04-2.02661E-05
 -1      4139 0.00000E+00 3.53185E-04-2.17379E-05
 -1      4141 0.00000E+00 3.53421E-04-2.32098E-05
 -1      4142 0.00000E+00 3.53185E-04-2.46816E-05
 -1      4144 0.00000E+00 3.53421E-04-2.61535E-05
 -1      4145 0.00000E+00 3.53185E-04-2.76254E-05
 -1      4147 0.00000E+00 3.53421E-04-2.90972E-05
 -1      4148 0.00000E+00 3.53185E-04-3.05691E-05
 -1      4150 0.00000E+00 3.53421E-04-3.20409E-05
 -1      4151 0.00000E+00 3.53185E-04-3.35128E-05
 -1      4153 0.00000E+00 3.53421E-04-3.49847E-05
 -1      4154 0.00000E+00 3.53185E-04-3.64565E-05
 -1      4156 0.00000E+00 3.53421E-04-3.79284E-05
 -1      4158 0.00000E+00 3.54766E-04-8.49116E-06
 -1      4159 0.00000E+00 3.53938E-04-9.96302E-06
 -1      4161 0.00000E+00 3.54766E-04-1.14349E-05
 -1      4162 0.00000E+00 3.53938E-04-1.29067E-05
 -1      4164 0.00000E+00 3.54766E-04-1.43786E-05
 -1      4165 0.00000E+00 3.53938E-04-1.58505E-05
 -1      4167 0.00000E+00 3.54766E-04-1.73223E-05
 -1      4168 0.00000E+00 3.53938E-04-1.87942E-05
 -1      4170 0.00000E+00 3.54766E-04-2.02661E-05
 -1      4171 0.00000E+00 3.53938E-04-2.17379E-05
 -1      4173 0.00000E+00 3.54766E-04-2.32098E-05
 -1      4174 0.00000E+00 3.53938E-04-2.46816E-05
 -1      4176 0.00000E+00 3.54766E-04-2.61535E-05
 -1      4177 0.00000E+00 3.53938E-04-2.76254E-05
 -1      4179 0.00000E+00 3.54766E-04-2.90972E-05
 -1      4180 0.00000E+00 3.53938E-04-3.05691E-05
 -1      4182 0.00000E+00 3.54766E-04-3.20409E-05
 -1      4183 0.00000E+00 3.53938E-04-3.35128E-05
 -1      4185 0.00000E+00 3.54766E-04-3.49847E-05
 -1      4186 0.00000E+00 3.53938E-04-3.64565E-05
 -1      4188 0.00000E+00 3.54766E-04-3.79284E-05
 -1      4190 0.00000E+00 3.57460E-04-8.49116E-06
 -1      4191 0.00000E+00 3.55928E-04-9.96302E-06
 -1      4193 0.00000E+00 3.57460E-04-1.14349E-05
 -1      4194 0.00000E+00 3.55928E-04-1.29067E-05
 -1      4196 0.00000E+00 3.57460E-04-1.43786E-05
 -1      4197 0.00000E+00 3.55928E-04-1.58505E-05
 -1      4199 0.00000E+00 3.57460E-04-1.73223E-05
 -1      4200 0.00000E+00 3.55928E-04-1.87942E-05
 -1      4202 0.00000E+00 3.57460E-04-2.02661E-05
 -1      4203 0.00000E+00 3.55928E-04-2.17379E-05
 -1      4205 0.00000E+00 3.57460E-04-2.32098E-05
 -1      4206 0.00000E+00 3.55928E-04-2.46816E-05
 -1      4208 0.00000E+00 3.57460E-04-2.61535E-05
 -1      4209 0.00000E+00 3.55928E-04-2.76254E-05
 -1      4211 0.00000E+00 3.57460E-04-2.90972E-05
 -1      4212 0.00000E+00 3.55928E-04-3.05691E-05
 -1      4214 0.00000E+00 3.57460E-04-3.20409E-05
 -1      4215 0.00000E+00 3.55928E-04-3.35128E-05
 -1      4217 0.00000E+00 3.57460E-04-3.49847E-05
 -1      4218 0.00000E+00 3.55928E-04-3.64565E-05
 -1      4220 0.00000E+00 3.57460E-04-3.79284E-05
 -1      4222 0.00000E+00 3.61772E-04-8.49116E-06
 -1      4223 0.00000E+00 3.59393E-04-9.96302E-06
 -1      4225 0.00000E+00 3.61772E-04-1.14349E-05
 -1      4226 0.00000E+00 3.59393E-04-1.29067E-05
 -1      4228 0.00000E+00 3.61772E-04-1.43786E-05
 -1      4229 0.00000E+00 3.59393E-04-1.58505E-05
 -1      4231 0.00000E+00 3.61772E-04-1.73223E-05
 -1      4232 0.00000E+00 3.59393E-04-1.87942E-05
 -1      4234 0.00000E+00 3.61772E-04-2.02661E-05
 -1      4235 0.00000E+00 3.59393E-04-2.17379E-05
 -1      4237 0.00000E+00 3.61772E-04-2.32098E-05
 -1      4238 0.00000E+00 3.59393E-04-2.46816E-05
 -1      4240 0.00000E+00 3.61772E-04-2.61535E-05
 -1      4241 0.00000E+00 3.59393E-04-2.76254E-05
 -1      4243 0.00000E+00 3.61772E-04-2.90972E-05
 -1      4244 0.00000E+00 3.59393E-04-3.05691E-05
 -1      4246 0.00000E+00 3.61772E-04-3.20409E-05
 -1      4247 0.00000E+00 3.59393E-04-3.35128E-05
 -1      4249 0.00000E+00 3.61772E-04-3.49847E-05
 -1      4250 0.00000E+00 3.59393E-04-3.64565E-05
 -1      4252 0.00000E+00 3.61772E-04-3.79284E-05
 -1      4254 0.00000E+00 3.68050E-04-8.49116E-06
 -1      4255 0.00000E+00 3.64638E-04-9.96302E-06
 -1      4257 0.00000E+00 3.68050E-04-1.14349E-05
 -1      4258 0.00000E+00 3.64638E-04-1.29067E-05
 -1      4260 0.00000E+00 3.68050E-04-1.43786E-05
 -1      4261 0.00000E+00 3.64638E-04-1.58505E-05
 -1      4263 0.00000E+00 3.68050E-04-1.73223E-05
 -1      4264 0.00000E+00 3.64638E-04-1.87942E-05
 -1      4266 0.00000E+00 3.68050E-04-2.02661E-05
 -1      4267 0.00000E+00 3.64638E-04-2.17379E-05
 -1      4269 0.00000E+00 3.68050E-04-2.32098E-05
 -1      4270 0.00000E+00 3.64638E-04-2.46816E-05
 -1      4272 0.00000E+00 3.68050E-04-2.61535E-05
 -1      4273 0.00000E+00 3.64638E-04-2.76254E-05
 -1      4275 0.00000E+00 3.68050E-04-2.90972E-05
 -1      4276 0.00000E+00 3.64638E-04-3.05691E-05
 -1      4278 0.00000E+00 3.68050E-04-3.20409E-05
 -1      4279 0.00000E+00 3.64638E-04-3.35128E-05
 -1      4281 0.00000E+00 3.68050E-04-3.49847E-05
 -1      4282 0.00000E+00 3.64638E-04-3.64565E-05
 -1      4284 0.00000E+00 3.68050E-04-3.79284E-05
 -1      4286 0.00000E+00 3.76744E-04-8.49116E-06
 -1      4287 0.00000E+00 3.72059E-04-9.96303E-06
 -1      4289 0.00000E+00 3.76744E-04-1.14349E-05
 -1      4290 0.00000E+00 3.72059E-04-1.29067E-05
 -1      4292 0.00000E+00 3.76744E-04-1.43786E-05
 -1      4293 0.00000E+00 3.72059E-04-1.58505E-05
 -1      4295 0.00000E+00 3.76744E-04-1.73223E-05
 -1      4296 0.00000E+00 3.72059E-04-1.87942E-05
 -1      4298 0.00000E+00 3.76744E-04-2.02661E-05
 -1      4299 0.00000E+00 3.72059E-04-2.17379E-05
 -1      4301 0.00000E+00 3.76744E-04-2.32098E-05
 -1      4302 0.00000E+00 3.72059E-04-2.46816E-05
 -1      4304 0.00000E+00 3.76744E-04-2.61535E-05
 -1      4305 0.00000E+00 3.72059E-04-2.76254E-05
 -1      4307 0.00000E+00 3.76744E-04-2.90972E-05
 -1      4308 0.00000E+00 3.72059E-04-3.05691E-05
 -1      4310 0.00000E+00 3.76744E-04-3.20409E-05
 -1      4311 0.00000E+00 3.72059E-04-3.35128E-05
 -1      4313 0.00000E+00 3.76744E-04-3.49847E-05
 -1      4314 0.00000E+00 3.72059E-04-3.64565E-05
 -1      4316 0.00000E+00 3.76744E-04-3.79284E-05
 -1      4318 0.00000E+00 3.88470E-04-8.49115E-06
 -1      4319 0.00000E+00 3.82182E-04-9.96301E-06
 -1      4321 0.00000E+00 3.88470E-04-1.14349E-05
 -1      4322 0.00000E+00 3.82182E-04-1.29067E-05
 -1      4324 0.00000E+00 3.88470E-04-1.43786E-05
 -1      4325 0.00000E+00 3.82182E-04-1.58505E-05
 -1      4327 0.00000E+00 3.88470E-04-1.73223E-05
 -1      4328 0.00000E+00 3.82182E-04-1.87942E-05
 -1      4330 0.00000E+00 3.88470E-04-2.02661E-05
 -1      4331 0.00000E+00 3.82182E-04-2.17379E-05
 -1      4333 0.00000E+00 3.88470E-04-2.32098E-05
 -1      4334 0.00000E+00 3.82182E-04-2.46816E-05
 -1      4336 0.00000E+00 3.88470E-04-2.61535E-05
 -1      4337 0.00000E+00 3.82182E-04-2.76254E-05
 -1      4339 0.00000E+00 3.88470E-04-2.90972E-05
 -1      4340 0.00000E+00 3.82182E-04-3.05691E-05
 -1      4342 0.00000E+00 3.88470E-04-3.20409E-05
 -1      4343 0.00000E+00 3.82182E-04-3.35128E-05
 -1      4345 0.00000E+00 3.88470E-04-3.49847E-05
 -1      4346 0.00000E+00 3.82182E-04-3.64565E-05
 -1      4348 0.00000E+00 3.88470E-04-3.79284E-05
 -1      4350 0.00000E+00 4.04015E-04-8.49117E-06
 -1      4351 0.00000E+00 3.95697E-04-9.96306E-06
 -1      4353 0.00000E+00 4.04015E-04-1.14349E-05
 -1      4354 0.00000E+00 3.95697E-04-1.29068E-05
 -1      4356 0.00000E+00 4.04015E-04-1.43786E-05
 -1      4357 0.00000E+00 3.95697E-04-1.58505E-05
 -1      4359 0.00000E+00 4.04015E-04-1.73223E-05
 -1      4360 0.00000E+00 3.95697E-04-1.87942E-05
 -1      4362 0.00000E+00 4.04015E-04-2.02661E-05
 -1      4363 0.00000E+00 3.95697E-04-2.17379E-05
 -1      4365 0.00000E+00 4.04015E-04-2.32098E-05
 -1      4366 0.00000E+00 3.95697E-04-2.46816E-05
 -1      4368 0.00000E+00 4.04015E-04-2.61535E-05
 -1      4369 0.00000E+00 3.95697E-04-2.76254E-05
 -1      4371 0.00000E+00 4.04015E-04-2.90972E-05
 -1      4372 0.00000E+00 3.95697E-04-3.05691E-05
 -1      4374 0.00000E+00 4.04015E-04-3.20409E-05
 -1      4375 0.00000E+00 3.95697E-04-3.35128E-05
 -1      4377 0.00000E+00 4.04015E-04-3.49847E-05
 -1      4378 0.00000E+00 3.95697E-04-3.64565E-05
 -1      4380 0.00000E+00 4.04015E-04-3.79284E-05
 -1      4382 0.00000E+00 4.13588E-04-9.96299E-06
 -1      4384 0.00000E+00 4.13588E-04-1.29067E-05
 -1      4386 0.00000E+00 4.13588E-04-1.58505E-05
 -1      4388 0.00000E+00 4.13588E-04-1.87942E-05
 -1      4390 0.00000E+00 4.13588E-04-2.17379E-05
 -1      4392 0.00000E+00 4.13588E-04-2.46816E-05
 -1      4394 0.00000E+00 4.13588E-04-2.76254E-05
 -1      4396 0.00000E+00 4.13588E-04-3.05691E-05
 -1      4398 0.00000E+00 4.13588E-04-3.35128E-05
 -1      4400 0.00000E+00 4.13588E-04-3.64566E-05
 -1      4403 6.64116E-05 4.19306E-04-9.96303E-06
 -1      4404 6.64116E-05 4.19306E-04-1.29067E-05
 -1      4405 6.64116E-05 4.19306E-04-1.58505E-05
 -1      4406 6.64116E-05 4.19306E-04-1.87942E-05
 -1      4407 6.64116E-05 4.19306E-04-2.17379E-05
 -1      4408 6.64116E-05 4.19306E-04-2.46816E-05
 -1      4409 6.64116E-05 4.19306E-04-2.76254E-05
 -1      4410 6.64116E-05 4.19306E-04-3.05691E-05
 -1      4411 6.64116E-05 4.19306E-04-3.35128E-05
 -1      4412 6.64116E-05 4.19306E-04-3.64565E-05
 -1      4413 1.31188E-04 4.03755E-04-9.96303E-06
 -1      4414 1.31188E-04 4.03755E-04-1.29067E-05
 -1      4415 1.31188E-04 4.03755E-04-1.58505E-05
 -1      4416 1.31188E-04 4.03755E-04-1.87942E-05
 -1      4417 1.31188E-04 4.03755E-04-2.17379E-05
 -1      4418 1.31188E-04 4.03755E-04-2.46816E-05
 -1      4419 1.31188E-04 4.03755E-04-2.76254E-05
 -1      4420 1.31188E-04 4.03755E-04-3.05691E-05
 -1      4421 1.31188E-04 4.03755E-04-3.35128E-05
 -1      4422 1.31188E-04 4.03755E-04-3.64565E-05
 -1      4423 1.92734E-04 3.78262E-04-9.96303E-06
 -1      4424 1.92734E-04 3.78262E-04-1.29067E-05
 -1      4425 1.92734E-04 3.78262E-04-1.58505E-05
 -1      4426 1.92734E-04 3.78262E-04-1.87942E-05
 -1      4427 1.92734E-04 3.78262E-04-2.17379E-05
 -1      4428 1.92734E-04 3.78262E-04-2.46816E-05
 -1      4429 1.92734E-04 3.78262E-04-2.76254E-05
 -1      4430 1.92734E-04 3.78262E-04-3.05691E-05
 -1      4431 1.92734E-04 3.78262E-04-3.35128E-05
 -1      4432 1.92734E-04 3.78262E-04-3.64565E-05
 -1      4433 2.49534E-04 3.43454E-04-9.96303E-06
 -1      4434 2.49534E-04 3.43454E-04-1.29067E-05
 -1      4435 2.49534E-04 3.43454E-04-1.58505E-05
 -1      4436 2.49534E-04 3.43454E-04-1.87942E-05
 -1      4437 2.49534E-04 3.43454E-04-2.17379E-05
 -1      4438 2.49534E-04 3.43454E-04-2.46816E-05
 -1      4439 2.49534E-04 3.43454E-04-2.76254E-05
 -1      4440 2.49534E-04 3.43454E-04-3.05691E-05
 -1      4441 2.49534E-04 3.43454E-04-3.35128E-05
 -1      4442 2.49534E-04 3.43454E-04-3.64565E-05
 -1      4443 3.00190E-04 3.00190E-04-9.96303E-06
 -1      4444 3.00190E-04 3.00190E-04-1.29067E-05
 -1      4445 3.00190E-04 3.00190E-04-1.58505E-05
 -1      4446 3.00190E-04 3.00190E-04-1.87942E-05
 -1      4447 3.00190E-04 3.00190E-04-2.17379E-05
 -1      4448 3.00190E-04 3.00190E-04-2.46816E-05
 -1      4449 3.00190E-04 3.00190E-04-2.76254E-05
 -1      4450 3.00190E-04 3.00190E-04-3.05691E-05
 -1      4451 3.00190E-04 3.00190E-04-3.35128E-05
 -1      4452 3.00190E-04 3.00190E-04-3.64565E-05
 -1      4453 3.43454E-04 2.49534E-04-9.96303E-06
 -1      4454 3.43454E-04 2.49534E-04-1.29067E-05
 -1      4455 3.43454E-04 2.49534E-04-1.58505E-05
 -1      4456 3.43454E-04 2.49534E-04-1.87942E-05
 -1      4457 3.43454E-04 2.49534E-04-2.17379E-05
 -1      4458 3.43454E-04 2.49534E-04-2.46816E-05
 -1      4459 3.43454E-04 2.49534E-04-2.76254E-05
 -1      4460 3.43454E-04 2.49534E-04-3.05691E-05
 -1      4461 3.43454E-04 2.49534E-04-3.35128E-05
 -1      4462 3.43454E-04 2.49534E-04-3.64565E-05
 -1      4463 3.78262E-04 1.92734E-04-9.96303E-06
 -1      4464 3.78262E-04 1.92734E-04-1.29067E-05
 -1      4465 3.78262E-04 1.92734E-04-1.58505E-05
 -1      4466 3.78262E-04 1.92734E-04-1.87942E-05
 -1      4467 3.78262E-04 1.92734E-04-2.17379E-05
 -1      4468 3.78262E-04 1.92734E-04-2.46816E-05
 -1      4469 3.78262E-04 1.92734E-04-2.76254E-05
 -1      4470 3.78262E-04 1.92734E-04-3.05691E-05
 -1      4471 3.78262E-04 1.92734E-04-3.35128E-05
 -1      4472 3.78262E-04 1.92734E-04-3.64565E-05
 -1      4473 4.03755E-04 1.31188E-04-9.96303E-06
 -1      4474 4.03755E-04 1.31188E-04-1.29067E-05
 -1      4475 4.03755E-04 1.31188E-04-1.58505E-05
 -1      4476 4.03755E-04 1.31188E-04-1.87942E-05
 -1      4477 4.03755E-04 1.31188E-04-2.17379E-05
 -1      4478 4.03755E-04 1.31188E-04-2.46816E-05
 -1      4479 4.03755E-04 1.31188E-04-2.76254E-05
 -1      4480 4.03755E-04 1.31188E-04-3.05691E-05
 -1      4481 4.03755E-04 1.31188E-04-3.35128E-05
 -1      4482 4.03755E-04 1.31188E-04-3.64565E-05
 -1      4483 4.19306E-04 6.64116E-05-9.96303E-06
 -1      4484 4.19306E-04 6.64116E-05-1.29067E-05
 -1      4485 4.19306E-04 6.64116E-05-1.58505E-05
 -1      4486 4.19306E-04 6.64116E-05-1.87942E-05
 -1      4487 4.19306E-04 6.64116E-05-2.17379E-05
 -1      4488 4.19306E-04 6.64116E-05-2.46816E-05
 -1      4489 4.19306E-04 6.64116E-05-2.76254E-05
 -1      4490 4.19306E-04 6.64116E-05-3.05691E-05
 -1      4491 4.19306E-04 6.64116E-05-3.35128E-05
 -1      4492 4.19306E-04 6.64116E-05-3.64565E-05
 -1      4493 6.64116E-05 4.19306E-04-8.49122E-06
 -1      4494 3.33167E-05 4.23329E-04-9.96303E-06
 -1      4496 6.64116E-05 4.19306E-04-1.14349E-05
 -1      4497 3.33167E-05 4.23329E-04-1.29067E-05
 -1      4499 6.64116E-05 4.19306E-04-1.43786E-05
 -1      4500 3.33167E-05 4.23329E-04-1.58505E-05
 -1      4502 6.64116E-05 4.19306E-04-1.73223E-05
 -1      4503 3.33167E-05 4.23329E-04-1.87942E-05
 -1      4505 6.64116E-05 4.19306E-04-2.02661E-05
 -1      4506 3.33167E-05 4.23329E-04-2.17379E-05
 -1      4508 6.64116E-05 4.19306E-04-2.32098E-05
 -1      4509 3.33167E-05 4.23329E-04-2.46816E-05
 -1      4511 6.64116E-05 4.19306E-04-2.61535E-05
 -1      4512 3.33167E-05 4.23329E-04-2.76254E-05
 -1      4514 6.64116E-05 4.19306E-04-2.90972E-05
 -1      4515 3.33167E-05 4.23329E-04-3.05691E-05
 -1      4517 6.64116E-05 4.19306E-04-3.20410E-05
 -1      4518 3.33167E-05 4.23329E-04-3.35128E-05
 -1      4520 6.64116E-05 4.19306E-04-3.49847E-05
 -1      4521 3.33167E-05 4.23329E-04-3.64565E-05
 -1      4523 6.64116E-05 4.19306E-04-3.79283E-05
 -1      4525 1.31188E-04 4.03755E-04-8.49122E-06
 -1      4526 9.91298E-05 4.12906E-04-9.96303E-06
 -1      4528 1.31188E-04 4.03755E-04-1.14349E-05
 -1      4529 9.91299E-05 4.12906E-04-1.29067E-05
 -1      4531 1.31188E-04 4.03755E-04-1.43786E-05
 -1      4532 9.91299E-05 4.12906E-04-1.58505E-05
 -1      4534 1.31188E-04 4.03755E-04-1.73223E-05
 -1      4535 9.91299E-05 4.12906E-04-1.87942E-05
 -1      4537 1.31188E-04 4.03755E-04-2.02661E-05
 -1      4538 9.91299E-05 4.12906E-04-2.17379E-05
 -1      4540 1.31188E-04 4.03755E-04-2.32098E-05
 -1      4541 9.91299E-05 4.12906E-04-2.46816E-05
 -1      4543 1.31188E-04 4.03755E-04-2.61535E-05
 -1      4544 9.91299E-05 4.12906E-04-2.76254E-05
 -1      4546 1.31188E-04 4.03755E-04-2.90972E-05
 -1      4547 9.91299E-05 4.12906E-04-3.05691E-05
 -1      4549 1.31188E-04 4.03755E-04-3.20410E-05
 -1      4550 9.91299E-05 4.12906E-04-3.35128E-05
 -1      4552 1.31188E-04 4.03755E-04-3.49847E-05
 -1      4553 9.91298E-05 4.12906E-04-3.64565E-05
 -1      4555 1.31188E-04 4.03755E-04-3.79283E-05
 -1      4557 1.92734E-04 3.78262E-04-8.49122E-06
 -1      4558 1.62502E-04 3.92315E-04-9.96303E-06
 -1      4560 1.92734E-04 3.78262E-04-1.14349E-05
 -1      4561 1.62502E-04 3.92315E-04-1.29067E-05
 -1      4563 1.92734E-04 3.78262E-04-1.43786E-05
 -1      4564 1.62502E-04 3.92315E-04-1.58505E-05
 -1      4566 1.92734E-04 3.78262E-04-1.73223E-05
 -1      4567 1.62502E-04 3.92315E-04-1.87942E-05
 -1      4569 1.92734E-04 3.78262E-04-2.02661E-05
 -1      4570 1.62502E-04 3.92315E-04-2.17379E-05
 -1      4572 1.92734E-04 3.78262E-04-2.32098E-05
 -1      4573 1.62502E-04 3.92315E-04-2.46816E-05
 -1      4575 1.92734E-04 3.78262E-04-2.61535E-05
 -1      4576 1.62502E-04 3.92315E-04-2.76254E-05
 -1      4578 1.92734E-04 3.78262E-04-2.90972E-05
 -1      4579 1.62502E-04 3.92315E-04-3.05691E-05
 -1      4581 1.92734E-04 3.78262E-04-3.20410E-05
 -1      4582 1.62502E-04 3.92315E-04-3.35128E-05
 -1      4584 1.92734E-04 3.78262E-04-3.49847E-05
 -1      4585 1.62502E-04 3.92315E-04-3.64565E-05
 -1      4587 1.92734E-04 3.78262E-04-3.79283E-05
 -1      4589 2.49534E-04 3.43454E-04-8.49122E-06
 -1      4590 2.21873E-04 3.62064E-04-9.96303E-06
 -1      4592 2.49534E-04 3.43454E-04-1.14349E-05
 -1      4593 2.21873E-04 3.62064E-04-1.29067E-05
 -1      4595 2.49534E-04 3.43454E-04-1.43786E-05
 -1      4596 2.21873E-04 3.62064E-04-1.58505E-05
 -1      4598 2.49534E-04 3.43454E-04-1.73223E-05
 -1      4599 2.21873E-04 3.62064E-04-1.87942E-05
 -1      4601 2.49534E-04 3.43454E-04-2.02661E-05
 -1      4602 2.21873E-04 3.62064E-04-2.17379E-05
 -1      4604 2.49534E-04 3.43454E-04-2.32098E-05
 -1      4605 2.21873E-04 3.62064E-04-2.46816E-05
 -1      4607 2.49534E-04 3.43454E-04-2.61535E-05
 -1      4608 2.21873E-04 3.62064E-04-2.76254E-05
 -1      4610 2.49534E-04 3.43454E-04-2.90972E-05
 -1      4611 2.21873E-04 3.62064E-04-3.05691E-05
 -1      4613 2.49534E-04 3.43454E-04-3.20410E-05
 -1      4614 2.21873E-04 3.62064E-04-3.35128E-05
 -1      4616 2.49534E-04 3.43454E-04-3.49847E-05
 -1      4617 2.21873E-04 3.62064E-04-3.64565E-05
 -1      4619 2.49534E-04 3.43454E-04-3.79283E-05
 -1      4621 3.00190E-04 3.00190E-04-8.49122E-06
 -1      4622 2.75781E-04 3.22898E-04-9.96303E-06
 -1      4624 3.00190E-04 3.00190E-04-1.14349E-05
 -1      4625 2.75781E-04 3.22898E-04-1.29067E-05
 -1      4627 3.00190E-04 3.00190E-04-1.43786E-05
 -1      4628 2.75781E-04 3.22898E-04-1.58505E-05
 -1      4630 3.00190E-04 3.00190E-04-1.73223E-05
 -1      4631 2.75781E-04 3.22898E-04-1.87942E-05
 -1      4633 3.00190E-04 3.00190E-04-2.02661E-05
 -1      4634 2.75781E-04 3.22898E-04-2.17379E-05
 -1      4636 3.00190E-04 3.00190E-04-2.32098E-05
 -1      4637 2.75781E-04 3.22898E-04-2.46816E-05
 -1      4639 3.00190E-04 3.00190E-04-2.61535E-05
 -1      4640 2.75781E-04 3.22898E-04-2.76254E-05
 -1      4642 3.00190E-04 3.00190E-04-2.90972E-05
 -1      4643 2.75781E-04 3.22898E-04-3.05691E-05
 -1      4645 3.00190E-04 3.00190E-04-3.20410E-05
 -1      4646 2.75781E-04 3.22898E-04-3.35128E-05
 -1      4648 3.00190E-04 3.00190E-04-3.49847E-05
 -1      4649 2.75781E-04 3.22898E-04-3.64565E-05
 -1      4651 3.00190E-04 3.00190E-04-3.79283E-05
 -1      4653 3.43454E-04 2.49534E-04-8.49122E-06
 -1      4654 3.22898E-04 2.75781E-04-9.96303E-06
 -1      4656 3.43454E-04 2.49534E-04-1.14349E-05
 -1      4657 3.22898E-04 2.75781E-04-1.29067E-05
 -1      4659 3.43454E-04 2.49534E-04-1.43786E-05
 -1      4660 3.22898E-04 2.75781E-04-1.58505E-05
 -1      4662 3.43454E-04 2.49534E-04-1.73223E-05
 -1      4663 3.22898E-04 2.75781E-04-1.87942E-05
 -1      4665 3.43454E-04 2.49534E-04-2.02661E-05
 -1      4666 3.22898E-04 2.75781E-04-2.17379E-05
 -1      4668 3.43454E-04 2.49534E-04-2.32098E-05
 -1      4669 3.22898E-04 2.75781E-04-2.46816E-05
 -1      4671 3.43454E-04 2.49534E-04-2.61535E-05
 -1      4672 3.22898E-04 2.75781E-04-2.76254E-05
 -1      4674 3.43454E-04 2.49534E-04-2.90972E-05
 -1      4675 3.22898E-04 2.75781E-04-3.05691E-05
 -1      4677 3.43454E-04 2.49534E-04-3.20410E-05
 -1      4678 3.22898E-04 2.75781E-04-3.35128E-05
 -1      4680 3.43454E-04 2.49534E-04-3.49847E-05
 -1      4681 3.22898E-04 2.75781E-04-3.64565E-05
 -1      4683 3.43454E-04 2.49534E-04-3.79283E-05
 -1      4685 3.78262E-04 1.92734E-04-8.49122E-06
 -1      4686 3.62064E-04 2.21873E-04-9.96303E-06
 -1      4688 3.78262E-04 1.92734E-04-1.14349E-05
 -1      4689 3.62064E-04 2.21873E-04-1.29067E-05
 -1      4691 3.78262E-04 1.92734E-04-1.43786E-05
 -1      4692 3.62064E-04 2.21873E-04-1.58505E-05
 -1      4694 3.78262E-04 1.92734E-04-1.73223E-05
 -1      4695 3.62064E-04 2.21873E-04-1.87942E-05
 -1      4697 3.78262E-04 1.92734E-04-2.02661E-05
 -1      4698 3.62064E-04 2.21873E-04-2.17379E-05
 -1      4700 3.78262E-04 1.92734E-04-2.32098E-05
 -1      4701 3.62064E-04 2.21873E-04-2.46816E-05
 -1      4703 3.78262E-04 1.92734E-04-2.61535E-05
 -1      4704 3.62064E-04 2.21873E-04-2.76254E-05
 -1      4706 3.78262E-04 1.92734E-04-2.90972E-05
 -1      4707 3.62064E-04 2.21873E-04-3.05691E-05
 -1      4709 3.78262E-04 1.92734E-04-3.20410E-05
 -1      4710 3.62064E-04 2.21873E-04-3.35128E-05
 -1      4712 3.78262E-04 1.92734E-04-3.49847E-05
 -1      4713 3.62064E-04 2.21873E-04-3.64565E-05
 -1      4715 3.78262E-04 1.92734E-04-3.79283E-05
 -1      4717 4.03755E-04 1.31188E-04-8.49122E-06
 -1      4718 3.92315E-04 1.62502E-04-9.96303E-06
 -1      4720 4.03755E-04 1.31188E-04-1.14349E-05
 -1      4721 3.92315E-04 1.62502E-04-1.29067E-05
 -1      4723 4.03755E-04 1.31188E-04-1.43786E-05
 -1      4724 3.92315E-04 1.62502E-04-1.58505E-05
 -1      4726 4.03755E-04 1.31188E-04-1.73223E-05
 -1      4727 3.92315E-04 1.62502E-04-1.87942E-05
 -1      4729 4.03755E-04 1.31188E-04-2.02661E-05
 -1      4730 3.92315E-04 1.62502E-04-2.17379E-05
 -1      4732 4.03755E-04 1.31188E-04-2.32098E-05
 -1      4733 3.92315E-04 1.62502E-04-2.46816E-05
 -1      4735 4.03755E-04 1.31188E-04-2.61535E-05
 -1      4736 3.92315E-04 1.62502E-04-2.76254E-05
 -1      4738 4.03755E-04 1.31188E-04-2.90972E-05
 -1      4739 3.92315E-04 1.62502E-04-3.05691E-05
 -1      4741 4.03755E-04 1.31188E-04-3.20410E-05
 -1      4742 3.92315E-04 1.62502E-04-3.35128E-05
 -1      4744 4.03755E-04 1.31188E-04-3.49847E-05
 -1      4745 3.92315E-04 1.62502E-04-3.64565E-05
 -1      4747 4.03755E-04 1.31188E-04-3.79283E-05
 -1      4749 4.19306E-04 6.64116E-05-8.49122E-06
 -1      4750 4.12906E-04 9.91298E-05-9.96303E-06
 -1      4752 4.19306E-04 6.64116E-05-1.14349E-05
 -1      4753 4.12906E-04 9.91299E-05-1.29067E-05
 -1      4755 4.19306E-04 6.64116E-05-1.43786E-05
 -1      4756 4.12906E-04 9.91299E-05-1.58505E-05
 -1      4758 4.19306E-04 6.64116E-05-1.73223E-05
 -1      4759 4.12906E-04 9.91299E-05-1.87942E-05
 -1      4761 4.19306E-04 6.64116E-05-2.02661E-05
 -1      4762 4.12906E-04 9.91299E-05-2.17379E-05
 -1      4764 4.19306E-04 6.64116E-05-2.32098E-05
 -1      4765 4.12906E-04 9.91299E-05-2.46816E-05
 -1      4767 4.19306E-04 6.64116E-05-2.61535E-05
 -1      4768 4.12906E-04 9.91299E-05-2.76254E-05
 -1      4770 4.19306E-04 6.64116E-05-2.90972E-05
 -1      4771 4.12906E-04 9.91299E-05-3.05691E-05
 -1      4773 4.19306E-04 6.64116E-05-3.20410E-05
 -1      4774 4.12906E-04 9.91299E-05-3.35128E-05
 -1      4776 4.19306E-04 6.64116E-05-3.49847E-05
 -1      4777 4.12906E-04 9.91298E-05-3.64565E-05
 -1      4779 4.19306E-04 6.64116E-05-3.79283E-05
 -1      4781 4.23329E-04 3.33167E-05-9.96303E-06
 -1      4783 4.23329E-04 3.33167E-05-1.29067E-05
 -1      4785 4.23329E-04 3.33167E-05-1.58505E-05
 -1      4787 4.23329E-04 3.33167E-05-1.87942E-05
 -1      4789 4.23329E-04 3.33167E-05-2.17379E-05
 -1      4791 4.23329E-04 3.33167E-05-2.46816E-05
 -1      4793 4.23329E-04 3.33167E-05-2.76254E-05
 -1      4795 4.23329E-04 3.33167E-05-3.05691E-05
 -1      4797 4.23329E-04 3.33167E-05-3.35128E-05
 -1      4799 4.23329E-04 3.33167E-05-3.64565E-05
 -1      4802 3.99041E-04 6.32019E-05-3.94002E-05
 -1      4803 3.84241E-04 1.24848E-04-3.94002E-05
 -1      4804 3.59980E-04 1.83419E-04-3.94002E-05
 -1      4805 3.26855E-04 2.37474E-04-3.94002E-05
 -1      4806 2.85682E-04 2.85682E-04-3.94002E-05
 -1      4807 2.37474E-04 3.26855E-04-3.94002E-05
 -1      4808 1.83419E-04 3.59980E-04-3.94002E-05
 -1      4809 1.24848E-04 3.84241E-04-3.94002E-05
 -1      4810 6.32019E-05 3.99041E-04-3.94002E-05
 -1      4811 3.83687E-04 6.07701E-05-3.94003E-05
 -1      4812 3.69457E-04 1.20044E-04-3.94003E-05
 -1      4813 3.46129E-04 1.76362E-04-3.94003E-05
 -1      4814 3.14279E-04 2.28337E-04-3.94003E-05
 -1      4815 2.74690E-04 2.74690E-04-3.94003E-05
 -1      4816 2.28337E-04 3.14279E-04-3.94003E-05
 -1      4817 1.76362E-04 3.46129E-04-3.94003E-05
 -1      4818 1.20044E-04 3.69457E-04-3.94003E-05
 -1      4819 6.07701E-05 3.83687E-04-3.94003E-05
 -1      4820 3.72106E-04 5.89358E-05-3.94002E-05
 -1      4821 3.58305E-04 1.16420E-04-3.94002E-05
 -1      4822 3.35681E-04 1.71038E-04-3.94002E-05
 -1      4823 3.04792E-04 2.21445E-04-3.94002E-05
 -1      4824 2.66398E-04 2.66398E-04-3.94002E-05
 -1      4825 2.21445E-04 3.04792E-04-3.94002E-05
 -1      4826 1.71038E-04 3.35681E-04-3.94002E-05
 -1      4827 1.16420E-04 3.58305E-04-3.94002E-05
 -1      4828 5.89358E-05 3.72106E-04-3.94002E-05
 -1      4829 3.63518E-04 5.75756E-05-3.94003E-05
 -1      4830 3.50036E-04 1.13734E-04-3.94003E-05
 -1      4831 3.27935E-04 1.67091E-04-3.94003E-05
 -1      4832 2.97758E-04 2.16334E-04-3.94003E-05
 -1      4833 2.60250E-04 2.60250E-04-3.94003E-05
 -1      4834 2.16334E-04 2.97758E-04-3.94003E-05
 -1      4835 1.67091E-04 3.27935E-04-3.94003E-05
 -1      4836 1.13734E-04 3.50036E-04-3.94003E-05
 -1      4837 5.75756E-05 3.63518E-04-3.94003E-05
 -1      4838 3.57318E-04 5.65936E-05-3.94003E-05
 -1      4839 3.44065E-04 1.11794E-04-3.94003E-05
 -1      4840 3.22341E-04 1.64241E-04-3.94003E-05
 -1      4841 2.92679E-04 2.12644E-04-3.94003E-05
 -1      4842 2.55811E-04 2.55811E-04-3.94003E-05
 -1      4843 2.12644E-04 2.92679E-04-3.94003E-05
 -1      4844 1.64241E-04 3.22341E-04-3.94003E-05
 -1      4845 1.11794E-04 3.44065E-04-3.94003E-05
 -1      4846 5.65936E-05 3.57318E-04-3.94003E-05
 -1      4847 3.53059E-04 5.59190E-05-3.94003E-05
 -1      4848 3.39964E-04 1.10461E-04-3.94003E-05
 -1      4849 3.18499E-04 1.62283E-04-3.94003E-05
 -1      4850 2.89191E-04 2.10109E-04-3.94003E-05
 -1      4851 2.52762E-04 2.52762E-04-3.94003E-05
 -1      4852 2.10109E-04 2.89191E-04-3.94003E-05
 -1      4853 1.62283E-04 3.18499E-04-3.94003E-05
 -1      4854 1.10461E-04 3.39964E-04-3.94003E-05
 -1      4855 5.59190E-05 3.53059E-04-3.94003E-05
 -1      4856 3.50398E-04 5.54976E-05-3.94003E-05
 -1      4857 3.37402E-04 1.09629E-04-3.94003E-05
 -1      4858 3.16099E-04 1.61060E-04-3.94003E-05
 -1      4859 2.87012E-04 2.08526E-04-3.94003E-05
 -1      4860 2.50857E-04 2.50857E-04-3.94003E-05
 -1      4861 2.08526E-04 2.87012E-04-3.94003E-05
 -1      4862 1.61060E-04 3.16099E-04-3.94003E-05
 -1      4863 1.09629E-04 3.37402E-04-3.94003E-05
 -1      4864 5.54976E-05 3.50398E-04-3.94003E-05
 -1      4865 3.49070E-04 5.52872E-05-3.94003E-05
 -1      4866 3.36123E-04 1.09213E-04-3.94003E-05
 -1      4867 3.14900E-04 1.60450E-04-3.94003E-05
 -1      4868 2.85923E-04 2.07736E-04-3.94003E-05
 -1      4869 2.49906E-04 2.49906E-04-3.94003E-05
 -1      4870 2.07736E-04 2.85923E-04-3.94003E-05
 -1      4871 1.60450E-04 3.14900E-04-3.94003E-05
 -1      4872 1.09213E-04 3.36123E-04-3.94003E-05
 -1      4873 5.52872E-05 3.49070E-04-3.94003E-05
 -1      4874 3.48863E-04 5.52544E-05-3.94003E-05
 -1      4875 3.35924E-04 1.09148E-04-3.94003E-05
 -1      4876 3.14714E-04 1.60355E-04-3.94003E-05
 -1      4877 2.85754E-04 2.07612E-04-3.94003E-05
 -1      4878 2.49758E-04 2.49758E-04-3.94003E-05
 -1      4879 2.07612E-04 2.85754E-04-3.94003E-05
 -1      4880 1.60355E-04 3.14714E-04-3.94003E-05
 -1      4881 1.09148E-04 3.35924E-04-3.94003E-05
 -1      4882 5.52544E-05 3.48863E-04-3.94003E-05
 -1      4883 3.49610E-04 5.53727E-05-3.94003E-05
 -1      4884 3.36643E-04 1.09382E-04-3.94003E-05
 -1      4885 3.15387E-04 1.60698E-04-3.94003E-05
 -1      4886 2.86366E-04 2.08057E-04-3.94003E-05
 -1      4887 2.50293E-04 2.50293E-04-3.94003E-05
 -1      4888 2.08057E-04 2.86366E-04-3.94003E-05
 -1      4889 1.60698E-04 3.15387E-04-3.94003E-05
 -1      4890 1.09382E-04 3.36643E-04-3.94003E-05
 -1      4891 5.53727E-05 3.49610E-04-3.94003E-05
 -1      4892 3.51174E-04 5.56204E-05-3.94003E-05
 -1      4893 3.38149E-04 1.09871E-04-3.94003E-05
 -1      4894 3.16798E-04 1.61417E-04-3.94003E-05
 -1      4895 2.87647E-04 2.08988E-04-3.94003E-05
 -1      4896 2.51413E-04 2.51413E-04-3.94003E-05
 -1      4897 2.08988E-04 2.87647E-04-3.94003E-05
 -1      4898 1.61417E-04 3.16798E-04-3.94003E-05
 -1      4899 1.09871E-04 3.38149E-04-3.94003E-05
 -1      4900 5.56204E-05 3.51174E-04-3.94003E-05
 -1      4901 3.53443E-04 5.59799E-05-3.94003E-05
 -1      4902 3.40335E-04 1.10581E-04-3.94003E-05
 -1      4903 3.18846E-04 1.62460E-04-3.94003E-05
 -1      4904 2.89506E-04 2.10338E-04-3.94003E-05
 -1      4905 2.53038E-04 2.53038E-04-3.94003E-05
 -1      4906 2.10338E-04 2.89506E-04-3.94003E-05
 -1      4907 1.62460E-04 3.18846E-04-3.94003E-05
 -1      4908 1.10581E-04 3.40335E-04-3.94003E-05
 -1      4909 5.59799E-05 3.53443E-04-3.94003E-05
 -1      4910 3.56327E-04 5.64367E-05-3.94003E-05
 -1      4911 3.43111E-04 1.11484E-04-3.94003E-05
 -1      4912 3.21447E-04 1.63786E-04-3.94003E-05
 -1      4913 2.91868E-04 2.12055E-04-3.94003E-05
 -1      4914 2.55102E-04 2.55102E-04-3.94003E-05
 -1      4915 2.12055E-04 2.91868E-04-3.94003E-05
 -1      4916 1.63786E-04 3.21447E-04-3.94003E-05
 -1      4917 1.11484E-04 3.43111E-04-3.94003E-05
 -1      4918 5.64367E-05 3.56327E-04-3.94003E-05
 -1      4919 3.59748E-04 5.69785E-05-3.94003E-05
 -1      4920 3.46405E-04 1.12554E-04-3.94003E-05
 -1      4921 3.24533E-04 1.65358E-04-3.94003E-05
 -1      4922 2.94670E-04 2.14090E-04-3.94003E-05
 -1      4923 2.57551E-04 2.57551E-04-3.94003E-05
 -1      4924 2.14090E-04 2.94670E-04-3.94003E-05
 -1      4925 1.65358E-04 3.24533E-04-3.94003E-05
 -1      4926 1.12554E-04 3.46405E-04-3.94003E-05
 -1      4927 5.69785E-05 3.59748E-04-3.94003E-05
 -1      4928 3.63641E-04 5.75951E-05-3.94003E-05
 -1      4929 3.50154E-04 1.13772E-04-3.94003E-05
 -1      4930 3.28045E-04 1.67147E-04-3.94003E-05
 -1      4931 2.97859E-04 2.16407E-04-3.94003E-05
 -1      4932 2.60338E-04 2.60338E-04-3.94003E-05
 -1      4933 2.16407E-04 2.97859E-04-3.94003E-05
 -1      4934 1.67147E-04 3.28045E-04-3.94003E-05
 -1      4935 1.13772E-04 3.50154E-04-3.94003E-05
 -1      4936 5.75951E-05 3.63641E-04-3.94003E-05
 -1      4937 3.67952E-04 5.82779E-05-3.94003E-05
 -1      4938 3.54306E-04 1.15121E-04-3.94003E-05
 -1      4939 3.31935E-04 1.69129E-04-3.94003E-05
 -1      4940 3.01390E-04 2.18973E-04-3.94003E-05
 -1      4941 2.63425E-04 2.63425E-04-3.94003E-05
 -1      4942 2.18973E-04 3.01390E-04-3.94003E-05
 -1      4943 1.69129E-04 3.31935E-04-3.94003E-05
 -1      4944 1.15121E-04 3.54306E-04-3.94003E-05
 -1      4945 5.82779E-05 3.67952E-04-3.94003E-05
 -1      4946 3.72635E-04 5.90196E-05-3.94003E-05
 -1      4947 3.58815E-04 1.16586E-04-3.94003E-05
 -1      4948 3.36159E-04 1.71282E-04-3.94003E-05
 -1      4949 3.05226E-04 2.21760E-04-3.94003E-05
 -1      4950 2.66777E-04 2.66777E-04-3.94003E-05
 -1      4951 2.21760E-04 3.05226E-04-3.94003E-05
 -1      4952 1.71282E-04 3.36159E-04-3.94003E-05
 -1      4953 1.16586E-04 3.58815E-04-3.94003E-05
 -1      4954 5.90196E-05 3.72635E-04-3.94003E-05
 -1      4955 3.77650E-04 5.98139E-05-3.94003E-05
 -1      4956 3.63644E-04 1.18155E-04-3.94003E-05
 -1      4957 3.40683E-04 1.73587E-04-3.94003E-05
 -1      4958 3.09334E-04 2.24744E-04-3.94003E-05
 -1      4959 2.70368E-04 2.70368E-04-3.94003E-05
 -1      4960 2.24744E-04 3.09334E-04-3.94003E-05
 -1      4961 1.73587E-04 3.40683E-04-3.94003E-05
 -1      4962 1.18155E-04 3.63644E-04-3.94003E-05
 -1      4963 5.98139E-05 3.77650E-04-3.94003E-05
 -1      4964 3.82962E-04 6.06553E-05-3.94003E-05
 -1      4965 3.68759E-04 1.19817E-04-3.94003E-05
 -1      4966 3.45475E-04 1.76029E-04-3.94003E-05
 -1      4967 3.13685E-04 2.27906E-04-3.94003E-05
 -1      4968 2.74171E-04 2.74171E-04-3.94003E-05
 -1      4969 2.27906E-04 3.13685E-04-3.94003E-05
 -1      4970 1.76028E-04 3.45475E-04-3.94003E-05
 -1      4971 1.19817E-04 3.68759E-04-3.94003E-05
 -1      4972 6.06553E-05 3.82962E-04-3.94003E-05
 -1      4973 3.88542E-04 6.15391E-05-3.94003E-05
 -1      4974 3.74132E-04 1.21563E-04-3.94003E-05
 -1      4975 3.50509E-04 1.78593E-04-3.94003E-05
 -1      4976 3.18256E-04 2.31226E-04-3.94003E-05
 -1      4977 2.78166E-04 2.78166E-04-3.94003E-05
 -1      4978 2.31226E-04 3.18256E-04-3.94003E-05
 -1      4979 1.78593E-04 3.50509E-04-3.94003E-05
 -1      4980 1.21563E-04 3.74132E-04-3.94003E-05
 -1      4981 6.15391E-05 3.88542E-04-3.94003E-05
 -1      4982 3.94364E-04 6.24611E-05-3.94003E-05
 -1      4983 3.79738E-04 1.23384E-04-3.94003E-05
 -1      4984 3.55761E-04 1.81269E-04-3.94003E-05
 -1      4985 3.23024E-04 2.34691E-04-3.94003E-05
 -1      4986 2.82334E-04 2.82334E-04-3.94003E-05
 -1      4987 2.34691E-04 3.23024E-04-3.94003E-05
 -1      4988 1.81269E-04 3.55761E-04-3.94003E-05
 -1      4989 1.23384E-04 3.79738E-04-3.94003E-05
 -1      4990 6.24611E-05 3.94364E-04-3.94003E-05
 -1      4991 4.00405E-04 6.34179E-05-3.94003E-05
 -1      4992 3.85555E-04 1.25274E-04-3.94003E-05
 -1      4993 3.61211E-04 1.84046E-04-3.94003E-05
 -1      4994 3.27972E-04 2.38286E-04-3.94003E-05
 -1      4995 2.86658E-04 2.86658E-04-3.94003E-05
 -1      4996 2.38286E-04 3.27972E-04-3.94003E-05
 -1      4997 1.84046E-04 3.61211E-04-3.94003E-05
 -1      4998 1.25274E-04 3.85555E-04-3.94003E-05
 -1      4999 6.34179E-05 4.00405E-04-3.94003E-05
 -1      5000 4.06645E-04 6.44063E-05-3.94003E-05
 -1      5001 3.91563E-04 1.27227E-04-3.94003E-05
 -1      5002 3.66840E-04 1.86914E-04-3.94003E-05
 -1      5003 3.33084E-04 2.42000E-04-3.94003E-05
 -1      5004 2.91126E-04 2.91126E-04-3.94003E-05
 -1      5005 2.42000E-04 3.33084E-04-3.94003E-05
 -1      5006 1.86914E-04 3.66840E-04-3.94003E-05
 -1      5007 1.27227E-04 3.91563E-04-3.94003E-05
 -1      5008 6.44063E-05 4.06645E-04-3.94003E-05
 -1      5009 4.13067E-04 6.54234E-05-3.94003E-05
 -1      5010 3.97747E-04 1.29236E-04-3.94003E-05
 -1      5011 3.72633E-04 1.89866E-04-3.94003E-05
 -1      5012 3.38344E-04 2.45821E-04-3.94003E-05
 -1      5013 2.95723E-04 2.95723E-04-3.94003E-05
 -1      5014 2.45821E-04 3.38344E-04-3.94003E-05
 -1      5015 1.89866E-04 3.72633E-04-3.94003E-05
 -1      5016 1.29236E-04 3.97747E-04-3.94003E-05
 -1      5017 6.54234E-05 4.13067E-04-3.94003E-05
 -1      5018 4.19655E-04 6.64668E-05-3.94003E-05
 -1      5019 4.04091E-04 1.31297E-04-3.94003E-05
 -1      5020 3.78576E-04 1.92894E-04-3.94003E-05
 -1      5021 3.43740E-04 2.49742E-04-3.94003E-05
 -1      5022 3.00440E-04 3.00440E-04-3.94003E-05
 -1      5023 2.49742E-04 3.43740E-04-3.94003E-05
 -1      5024 1.92894E-04 3.78576E-04-3.94003E-05
 -1      5025 1.31297E-04 4.04091E-04-3.94003E-05
 -1      5026 6.64668E-05 4.19655E-04-3.94003E-05
 -1      5027 4.26395E-04 6.75343E-05-3.94003E-05
 -1      5028 4.10581E-04 1.33406E-04-3.94003E-05
 -1      5029 3.84656E-04 1.95992E-04-3.94003E-05
 -1      5030 3.49261E-04 2.53753E-04-3.94003E-05
 -1      5031 3.05265E-04 3.05265E-04-3.94003E-05
 -1      5032 2.53753E-04 3.49261E-04-3.94003E-05
 -1      5033 1.95992E-04 3.84656E-04-3.94003E-05
 -1      5034 1.33406E-04 4.10581E-04-3.94003E-05
 -1      5035 6.75343E-05 4.26395E-04-3.94003E-05
 -1      5036 4.33276E-04 6.86242E-05-3.94003E-05
 -1      5037 4.17207E-04 1.35559E-04-3.94003E-05
 -1      5038 3.90864E-04 1.99155E-04-3.94003E-05
 -1      5039 3.54897E-04 2.57848E-04-3.94003E-05
 -1      5040 3.10192E-04 3.10192E-04-3.94003E-05
 -1      5041 2.57848E-04 3.54897E-04-3.94003E-05
 -1      5042 1.99155E-04 3.90864E-04-3.94003E-05
 -1      5043 1.35559E-04 4.17207E-04-3.94003E-05
 -1      5044 6.86242E-05 4.33276E-04-3.94003E-05
 -1      5045 4.40279E-04 6.97334E-05-3.94002E-05
 -1      5046 4.23950E-04 1.37750E-04-3.94002E-05
 -1      5047 3.97181E-04 2.02374E-04-3.94002E-05
 -1      5048 3.60633E-04 2.62015E-04-3.94002E-05
 -1      5049 3.15205E-04 3.15205E-04-3.94002E-05
 -1      5050 2.62015E-04 3.60633E-04-3.94002E-05
 -1      5051 2.02374E-04 3.97182E-04-3.94002E-05
 -1      5052 1.37750E-04 4.23950E-04-3.94002E-05
 -1      5053 6.97334E-05 4.40279E-04-3.94002E-05
 -1      5054 4.47432E-04 7.08663E-05-3.94003E-05
 -1      5055 4.30837E-04 1.39988E-04-3.94003E-05
 -1      5056 4.03634E-04 2.05662E-04-3.94003E-05
 -1      5057 3.66492E-04 2.66272E-04-3.94003E-05
 -1      5058 3.20326E-04 3.20326E-04-3.94003E-05
 -1      5059 2.66272E-04 3.66492E-04-3.94003E-05
 -1      5060 2.05662E-04 4.03634E-04-3.94003E-05
 -1      5061 1.39988E-04 4.30837E-04-3.94003E-05
 -1      5062 7.08663E-05 4.47432E-04-3.94003E-05
 -1      5063 4.03400E-04 3.17483E-05-3.94002E-05
 -1      5064 4.08496E-04 6.46994E-05-3.94003E-05
 -1      5066 3.93467E-04 9.44631E-05-3.94002E-05
 -1      5067 3.93346E-04 1.27806E-04-3.94003E-05
 -1      5069 3.73845E-04 1.54852E-04-3.94002E-05
 -1      5070 3.68510E-04 1.87765E-04-3.94003E-05
 -1      5072 3.45019E-04 2.11428E-04-3.94002E-05
 -1      5073 3.34600E-04 2.43101E-04-3.94003E-05
 -1      5075 3.07696E-04 2.62797E-04-3.94002E-05
 -1      5076 2.92451E-04 2.92451E-04-3.94003E-05
 -1      5078 2.62797E-04 3.07696E-04-3.94002E-05
 -1      5079 2.43101E-04 3.34600E-04-3.94003E-05
 -1      5081 2.11428E-04 3.45019E-04-3.94002E-05
 -1      5082 1.87765E-04 3.68510E-04-3.94003E-05
 -1      5084 1.54852E-04 3.73845E-04-3.94002E-05
 -1      5085 1.27806E-04 3.93346E-04-3.94003E-05
 -1      5087 9.44631E-05 3.93467E-04-3.94002E-05
 -1      5088 6.46994E-05 4.08496E-04-3.94003E-05
 -1      5090 3.17483E-05 4.03400E-04-3.94002E-05
 -1      5092 3.87763E-04 3.05176E-05-3.94003E-05
 -1      5093 3.90825E-04 6.19006E-05-3.94002E-05
 -1      5095 3.78215E-04 9.08014E-05-3.94003E-05
 -1      5096 3.76330E-04 1.22277E-04-3.94002E-05
 -1      5098 3.59354E-04 1.48849E-04-3.94003E-05
 -1      5099 3.52568E-04 1.79642E-04-3.94002E-05
 -1      5101 3.31645E-04 2.03232E-04-3.94003E-05
 -1      5102 3.20125E-04 2.32585E-04-3.94002E-05
 -1      5104 2.95769E-04 2.52611E-04-3.94003E-05
 -1      5105 2.79800E-04 2.79800E-04-3.94002E-05
 -1      5107 2.52611E-04 2.95769E-04-3.94003E-05
 -1      5108 2.32585E-04 3.20125E-04-3.94002E-05
 -1      5110 2.03232E-04 3.31645E-04-3.94003E-05
 -1      5111 1.79642E-04 3.52568E-04-3.94002E-05
 -1      5113 1.48849E-04 3.59354E-04-3.94003E-05
 -1      5114 1.22277E-04 3.76330E-04-3.94002E-05
 -1      5116 9.08014E-05 3.78215E-04-3.94003E-05
 -1      5117 6.19006E-05 3.90825E-04-3.94002E-05
 -1      5119 3.05176E-05 3.87763E-04-3.94003E-05
 -1      5121 3.75989E-04 2.95910E-05-3.94003E-05
 -1      5122 3.77477E-04 5.97865E-05-3.94003E-05
 -1      5124 3.66731E-04 8.80443E-05-3.94003E-05
 -1      5125 3.63477E-04 1.18101E-04-3.94003E-05
 -1      5127 3.48442E-04 1.44330E-04-3.94003E-05
 -1      5128 3.40527E-04 1.73507E-04-3.94003E-05
 -1      5130 3.21574E-04 1.97061E-04-3.94003E-05
 -1      5131 3.09192E-04 2.24641E-04-3.94003E-05
 -1      5133 2.86788E-04 2.44940E-04-3.94003E-05
 -1      5134 2.70244E-04 2.70244E-04-3.94003E-05
 -1      5136 2.44940E-04 2.86788E-04-3.94003E-05
 -1      5137 2.24641E-04 3.09192E-04-3.94003E-05
 -1      5139 1.97061E-04 3.21574E-04-3.94003E-05
 -1      5140 1.73507E-04 3.40527E-04-3.94003E-05
 -1      5142 1.44330E-04 3.48442E-04-3.94003E-05
 -1      5143 1.18101E-04 3.63477E-04-3.94003E-05
 -1      5145 8.80443E-05 3.66731E-04-3.94003E-05
 -1      5146 5.97865E-05 3.77477E-04-3.94003E-05
 -1      5148 2.95910E-05 3.75989E-04-3.94003E-05
 -1      5150 3.67234E-04 2.89019E-05-3.94003E-05
 -1      5151 3.67479E-04 5.82029E-05-3.94002E-05
 -1      5153 3.58191E-04 8.59941E-05-3.94003E-05
 -1      5154 3.53850E-04 1.14973E-04-3.94002E-05
 -1      5156 3.40329E-04 1.40969E-04-3.94003E-05
 -1      5157 3.31507E-04 1.68911E-04-3.94002E-05
 -1      5159 3.14087E-04 1.92472E-04-3.94003E-05
 -1      5160 3.01002E-04 2.18691E-04-3.94002E-05
 -1      5162 2.80110E-04 2.39237E-04-3.94003E-05
 -1      5163 2.63086E-04 2.63086E-04-3.94002E-05
 -1      5165 2.39237E-04 2.80110E-04-3.94003E-05
 -1      5166 2.18691E-04 3.01002E-04-3.94002E-05
 -1      5168 1.92472E-04 3.14087E-04-3.94003E-05
 -1      5169 1.68911E-04 3.31507E-04-3.94002E-05
 -1      5171 1.40969E-04 3.40329E-04-3.94003E-05
 -1      5172 1.14973E-04 3.53850E-04-3.94002E-05
 -1      5174 8.59941E-05 3.58191E-04-3.94003E-05
 -1      5175 5.82029E-05 3.67479E-04-3.94002E-05
 -1      5177 2.89019E-05 3.67234E-04-3.94003E-05
 -1      5179 3.60899E-04 2.84033E-05-3.94003E-05
 -1      5180 3.60149E-04 5.70420E-05-3.94003E-05
 -1      5182 3.52012E-04 8.45107E-05-3.94003E-05
 -1      5183 3.46792E-04 1.12679E-04-3.94003E-05
 -1      5185 3.34458E-04 1.38537E-04-3.94003E-05
 -1      5186 3.24895E-04 1.65542E-04-3.94003E-05
 -1      5188 3.08668E-04 1.89152E-04-3.94003E-05
 -1      5189 2.94999E-04 2.14329E-04-3.94003E-05
 -1      5191 2.75278E-04 2.35110E-04-3.94003E-05
 -1      5192 2.57838E-04 2.57838E-04-3.94003E-05
 -1      5194 2.35110E-04 2.75278E-04-3.94003E-05
 -1      5195 2.14329E-04 2.94999E-04-3.94003E-05
 -1      5197 1.89152E-04 3.08668E-04-3.94003E-05
 -1      5198 1.65542E-04 3.24895E-04-3.94003E-05
 -1      5200 1.38537E-04 3.34458E-04-3.94003E-05
 -1      5201 1.12679E-04 3.46792E-04-3.94003E-05
 -1      5203 8.45107E-05 3.52012E-04-3.94003E-05
 -1      5204 5.70420E-05 3.60149E-04-3.94003E-05
 -1      5206 2.84033E-05 3.60899E-04-3.94003E-05
 -1      5208 3.56529E-04 2.80594E-05-3.94003E-05
 -1      5209 3.54968E-04 5.62214E-05-3.94003E-05
 -1      5211 3.47750E-04 8.34873E-05-3.94003E-05
 -1      5212 3.41803E-04 1.11058E-04-3.94003E-05
 -1      5214 3.30408E-04 1.36859E-04-3.94003E-05
 -1      5215 3.20221E-04 1.63161E-04-3.94003E-05
 -1      5217 3.04931E-04 1.86862E-04-3.94003E-05
 -1      5218 2.90755E-04 2.11246E-04-3.94003E-05
 -1      5220 2.71945E-04 2.32263E-04-3.94003E-05
 -1      5221 2.54129E-04 2.54129E-04-3.94003E-05
 -1      5223 2.32263E-04 2.71945E-04-3.94003E-05
 -1      5224 2.11246E-04 2.90755E-04-3.94003E-05
 -1      5226 1.86862E-04 3.04931E-04-3.94003E-05
 -1      5227 1.63161E-04 3.20221E-04-3.94003E-05
 -1      5229 1.36859E-04 3.30408E-04-3.94003E-05
 -1      5230 1.11058E-04 3.41803E-04-3.94003E-05
 -1      5232 8.34873E-05 3.47750E-04-3.94003E-05
 -1      5233 5.62214E-05 3.54968E-04-3.94003E-05
 -1      5235 2.80594E-05 3.56529E-04-3.94003E-05
 -1      5237 3.53777E-04 2.78428E-05-3.94003E-05
 -1      5238 3.51546E-04 5.56794E-05-3.94003E-05
 -1      5240 3.45066E-04 8.28429E-05-3.94003E-05
 -1      5241 3.38508E-04 1.09988E-04-3.94003E-05
 -1      5243 3.27858E-04 1.35803E-04-3.94003E-05
 -1      5244 3.17134E-04 1.61588E-04-3.94003E-05
 -1      5246 3.02577E-04 1.85419E-04-3.94003E-05
 -1      5247 2.87952E-04 2.09209E-04-3.94003E-05
 -1      5249 2.69846E-04 2.30470E-04-3.94003E-05
 -1      5250 2.51679E-04 2.51679E-04-3.94003E-05
 -1      5252 2.30470E-04 2.69846E-04-3.94003E-05
 -1      5253 2.09209E-04 2.87952E-04-3.94003E-05
 -1      5255 1.85419E-04 3.02577E-04-3.94003E-05
 -1      5256 1.61588E-04 3.17134E-04-3.94003E-05
 -1      5258 1.35803E-04 3.27858E-04-3.94003E-05
 -1      5259 1.09988E-04 3.38508E-04-3.94003E-05
 -1      5261 8.28429E-05 3.45066E-04-3.94003E-05
 -1      5262 5.56794E-05 3.51546E-04-3.94003E-05
 -1      5264 2.78428E-05 3.53777E-04-3.94003E-05
 -1      5266 3.52374E-04 2.77324E-05-3.94003E-05
 -1      5267 3.49581E-04 5.53682E-05-3.94003E-05
 -1      5269 3.43697E-04 8.25144E-05-3.94003E-05
 -1      5270 3.36616E-04 1.09373E-04-3.94003E-05
 -1      5272 3.26557E-04 1.35265E-04-3.94003E-05
 -1      5273 3.15362E-04 1.60685E-04-3.94003E-05
 -1      5275 3.01377E-04 1.84684E-04-3.94003E-05
 -1      5276 2.86342E-04 2.08040E-04-3.94003E-05
 -1      5278 2.68776E-04 2.29556E-04-3.94003E-05
 -1      5279 2.50272E-04 2.50272E-04-3.94003E-05
 -1      5281 2.29556E-04 2.68776E-04-3.94003E-05
 -1      5282 2.08040E-04 2.86342E-04-3.94003E-05
 -1      5284 1.84684E-04 3.01377E-04-3.94003E-05
 -1      5285 1.60685E-04 3.15362E-04-3.94003E-05
 -1      5287 1.35265E-04 3.26557E-04-3.94003E-05
 -1      5288 1.09373E-04 3.36616E-04-3.94003E-05
 -1      5290 8.25144E-05 3.43697E-04-3.94003E-05
 -1      5291 5.53682E-05 3.49581E-04-3.94003E-05
 -1      5293 2.77324E-05 3.52374E-04-3.94003E-05
 -1      5295 3.52106E-04 2.77114E-05-3.94003E-05
 -1      5296 3.48837E-04 5.52503E-05-3.94003E-05
 -1      5298 3.43436E-04 8.24518E-05-3.94003E-05
 -1      5299 3.35899E-04 1.09140E-04-3.94003E-05
 -1      5301 3.26310E-04 1.35162E-04-3.94003E-05
 -1      5302 3.14690E-04 1.60343E-04-3.94003E-05
 -1      5304 3.01148E-04 1.84544E-04-3.94003E-05
 -1      5305 2.85733E-04 2.07597E-04-3.94003E-05
 -1      5307 2.68572E-04 2.29382E-04-3.94003E-05
 -1      5308 2.49740E-04 2.49740E-04-3.94003E-05
 -1      5310 2.29382E-04 2.68572E-04-3.94003E-05
 -1      5311 2.07597E-04 2.85733E-04-3.94003E-05
 -1      5313 1.84544E-04 3.01148E-04-3.94003E-05
 -1      5314 1.60343E-04 3.14690E-04-3.94003E-05
 -1      5316 1.35162E-04 3.26310E-04-3.94003E-05
 -1      5317 1.09140E-04 3.35899E-04-3.94003E-05
 -1      5319 8.24518E-05 3.43436E-04-3.94003E-05
 -1      5320 5.52503E-05 3.48837E-04-3.94003E-05
 -1      5322 2.77114E-05 3.52106E-04-3.94003E-05
 -1      5324 3.52804E-04 2.77663E-05-3.94003E-05
 -1      5325 3.49126E-04 5.52961E-05-3.94003E-05
 -1      5327 3.44117E-04 8.26152E-05-3.94003E-05
 -1      5328 3.36177E-04 1.09231E-04-3.94003E-05
 -1      5330 3.26957E-04 1.35430E-04-3.94003E-05
 -1      5331 3.14951E-04 1.60475E-04-3.94003E-05
 -1      5333 3.01745E-04 1.84910E-04-3.94003E-05
 -1      5334 2.85969E-04 2.07769E-04-3.94003E-05
 -1      5336 2.69104E-04 2.29837E-04-3.94003E-05
 -1      5337 2.49946E-04 2.49946E-04-3.94003E-05
 -1      5339 2.29837E-04 2.69104E-04-3.94003E-05
 -1      5340 2.07769E-04 2.85969E-04-3.94003E-05
 -1      5342 1.84910E-04 3.01745E-04-3.94003E-05
 -1      5343 1.60475E-04 3.14951E-04-3.94003E-05
 -1      5345 1.35430E-04 3.26957E-04-3.94003E-05
 -1      5346 1.09231E-04 3.36177E-04-3.94003E-05
 -1      5348 8.26152E-05 3.44117E-04-3.94003E-05
 -1      5349 5.52961E-05 3.49126E-04-3.94003E-05
 -1      5351 2.77663E-05 3.52804E-04-3.94003E-05
 -1      5353 3.54330E-04 2.78864E-05-3.94003E-05
 -1      5354 3.50296E-04 5.54815E-05-3.94003E-05
 -1      5356 3.45605E-04 8.29724E-05-3.94003E-05
 -1      5357 3.37305E-04 1.09597E-04-3.94003E-05
 -1      5359 3.28370E-04 1.36015E-04-3.94003E-05
 -1      5360 3.16007E-04 1.61014E-04-3.94003E-05
 -1      5362 3.03050E-04 1.85709E-04-3.94003E-05
 -1      5363 2.86928E-04 2.08466E-04-3.94003E-05
 -1      5365 2.70268E-04 2.30830E-04-3.94003E-05
 -1      5366 2.50785E-04 2.50785E-04-3.94003E-05
 -1      5368 2.30830E-04 2.70268E-04-3.94003E-05
 -1      5369 2.08466E-04 2.86928E-04-3.94003E-05
 -1      5371 1.85709E-04 3.03050E-04-3.94003E-05
 -1      5372 1.61014E-04 3.16007E-04-3.94003E-05
 -1      5374 1.36015E-04 3.28370E-04-3.94003E-05
 -1      5375 1.09597E-04 3.37305E-04-3.94003E-05
 -1      5377 8.29724E-05 3.45605E-04-3.94003E-05
 -1      5378 5.54815E-05 3.50296E-04-3.94003E-05
 -1      5380 2.78864E-05 3.54330E-04-3.94003E-05
 -1      5382 3.56570E-04 2.80627E-05-3.94003E-05
 -1      5383 3.52226E-04 5.57871E-05-3.94003E-05
 -1      5385 3.47790E-04 8.34970E-05-3.94003E-05
 -1      5386 3.39163E-04 1.10201E-04-3.94003E-05
 -1      5388 3.30446E-04 1.36875E-04-3.94003E-05
 -1      5389 3.17748E-04 1.61901E-04-3.94003E-05
 -1      5391 3.04966E-04 1.86883E-04-3.94003E-05
 -1      5392 2.88509E-04 2.09614E-04-3.94003E-05
 -1      5394 2.71976E-04 2.32290E-04-3.94003E-05
 -1      5395 2.52166E-04 2.52166E-04-3.94003E-05
 -1      5397 2.32290E-04 2.71976E-04-3.94003E-05
 -1      5398 2.09614E-04 2.88509E-04-3.94003E-05
 -1      5400 1.86883E-04 3.04966E-04-3.94003E-05
 -1      5401 1.61901E-04 3.17748E-04-3.94003E-05
 -1      5403 1.36875E-04 3.30446E-04-3.94003E-05
 -1      5404 1.10201E-04 3.39163E-04-3.94003E-05
 -1      5406 8.34970E-05 3.47790E-04-3.94003E-05
 -1      5407 5.57871E-05 3.52226E-04-3.94003E-05
 -1      5409 2.80627E-05 3.56570E-04-3.94003E-05
 -1      5411 3.59431E-04 2.82879E-05-3.94003E-05
 -1      5412 3.54813E-04 5.61969E-05-3.94003E-05
 -1      5414 3.50581E-04 8.41670E-05-3.94003E-05
 -1      5415 3.41654E-04 1.11010E-04-3.94003E-05
 -1      5417 3.33098E-04 1.37974E-04-3.94003E-05
 -1      5418 3.20082E-04 1.63090E-04-3.94003E-05
 -1      5420 3.07413E-04 1.88383E-04-3.94003E-05
 -1      5421 2.90628E-04 2.11154E-04-3.94003E-05
 -1      5423 2.74159E-04 2.34154E-04-3.94003E-05
 -1      5424 2.54018E-04 2.54018E-04-3.94003E-05
 -1      5426 2.34154E-04 2.74159E-04-3.94003E-05
 -1      5427 2.11154E-04 2.90628E-04-3.94003E-05
 -1      5429 1.88383E-04 3.07413E-04-3.94003E-05
 -1      5430 1.63090E-04 3.20082E-04-3.94003E-05
 -1      5432 1.37974E-04 3.33098E-04-3.94003E-05
 -1      5433 1.11010E-04 3.41654E-04-3.94003E-05
 -1      5435 8.41670E-05 3.50581E-04-3.94003E-05
 -1      5436 5.61969E-05 3.54813E-04-3.94003E-05
 -1      5438 2.82879E-05 3.59431E-04-3.94003E-05
 -1      5440 3.62837E-04 2.85559E-05-3.94003E-05
 -1      5441 3.57974E-04 5.66976E-05-3.94003E-05
 -1      5443 3.53902E-04 8.49644E-05-3.94003E-05
 -1      5444 3.44698E-04 1.11999E-04-3.94003E-05
 -1      5446 3.36254E-04 1.39281E-04-3.94003E-05
 -1      5447 3.22933E-04 1.64543E-04-3.94003E-05
 -1      5449 3.10326E-04 1.90168E-04-3.94003E-05
 -1      5450 2.93217E-04 2.13035E-04-3.94003E-05
 -1      5452 2.76756E-04 2.36372E-04-3.94003E-05
 -1      5453 2.56281E-04 2.56281E-04-3.94003E-05
 -1      5455 2.36372E-04 2.76756E-04-3.94003E-05
 -1      5456 2.13035E-04 2.93217E-04-3.94003E-05
 -1      5458 1.90168E-04 3.10326E-04-3.94003E-05
 -1      5459 1.64543E-04 3.22933E-04-3.94003E-05
 -1      5461 1.39281E-04 3.36254E-04-3.94003E-05
 -1      5462 1.11999E-04 3.44698E-04-3.94003E-05
 -1      5464 8.49644E-05 3.53902E-04-3.94003E-05
 -1      5465 5.66976E-05 3.57974E-04-3.94003E-05
 -1      5467 2.85559E-05 3.62837E-04-3.94003E-05
 -1      5469 3.66720E-04 2.88615E-05-3.94003E-05
 -1      5470 3.61639E-04 5.72779E-05-3.94003E-05
 -1      5472 3.57690E-04 8.58739E-05-3.94003E-05
 -1      5473 3.48226E-04 1.13146E-04-3.94003E-05
 -1      5475 3.39853E-04 1.40772E-04-3.94003E-05
 -1      5476 3.26239E-04 1.66227E-04-3.94003E-05
 -1      5478 3.13647E-04 1.92203E-04-3.94003E-05
 -1      5479 2.96219E-04 2.15216E-04-3.94003E-05
 -1      5481 2.79719E-04 2.38902E-04-3.94003E-05
 -1      5482 2.58905E-04 2.58905E-04-3.94003E-05
 -1      5484 2.38902E-04 2.79719E-04-3.94003E-05
 -1      5485 2.15216E-04 2.96219E-04-3.94003E-05
 -1      5487 1.92203E-04 3.13647E-04-3.94003E-05
 -1      5488 1.66227E-04 3.26239E-04-3.94003E-05
 -1      5490 1.40772E-04 3.39853E-04-3.94003E-05
 -1      5491 1.13146E-04 3.48226E-04-3.94003E-05
 -1      5493 8.58739E-05 3.57690E-04-3.94003E-05
 -1      5494 5.72779E-05 3.61639E-04-3.94003E-05
 -1      5496 2.88615E-05 3.66720E-04-3.94003E-05
 -1      5498 3.71027E-04 2.92005E-05-3.94003E-05
 -1      5499 3.65747E-04 5.79287E-05-3.94003E-05
 -1      5501 3.61891E-04 8.68824E-05-3.94003E-05
 -1      5502 3.52182E-04 1.14431E-04-3.94003E-05
 -1      5504 3.43844E-04 1.42425E-04-3.94003E-05
 -1      5505 3.29945E-04 1.68116E-04-3.94003E-05
 -1      5507 3.17331E-04 1.94461E-04-3.94003E-05
 -1      5508 2.99584E-04 2.17661E-04-3.94003E-05
 -1      5510 2.83004E-04 2.41708E-04-3.94003E-05
 -1      5511 2.61846E-04 2.61846E-04-3.94003E-05
 -1      5513 2.41708E-04 2.83004E-04-3.94003E-05
 -1      5514 2.17661E-04 2.99584E-04-3.94003E-05
 -1      5516 1.94461E-04 3.17331E-04-3.94003E-05
 -1      5517 1.68116E-04 3.29945E-04-3.94003E-05
 -1      5519 1.42425E-04 3.43844E-04-3.94003E-05
 -1      5520 1.14431E-04 3.52182E-04-3.94003E-05
 -1      5522 8.68824E-05 3.61891E-04-3.94003E-05
 -1      5523 5.79287E-05 3.65747E-04-3.94003E-05
 -1      5525 2.92005E-05 3.71027E-04-3.94003E-05
 -1      5527 3.75710E-04 2.95691E-05-3.94003E-05
 -1      5528 3.70250E-04 5.86418E-05-3.94003E-05
 -1      5530 3.66459E-04 8.79791E-05-3.94003E-05
 -1      5531 3.56518E-04 1.15840E-04-3.94003E-05
 -1      5533 3.48185E-04 1.44223E-04-3.94003E-05
 -1      5534 3.34007E-04 1.70185E-04-3.94003E-05
 -1      5536 3.21336E-04 1.96915E-04-3.94003E-05
 -1      5537 3.03272E-04 2.20340E-04-3.94003E-05
 -1      5539 2.86576E-04 2.44759E-04-3.94003E-05
 -1      5540 2.65070E-04 2.65070E-04-3.94003E-05
 -1      5542 2.44759E-04 2.86576E-04-3.94003E-05
 -1      5543 2.20340E-04 3.03272E-04-3.94003E-05
 -1      5545 1.96915E-04 3.21336E-04-3.94003E-05
 -1      5546 1.70185E-04 3.34007E-04-3.94003E-05
 -1      5548 1.44223E-04 3.48185E-04-3.94003E-05
 -1      5549 1.15840E-04 3.56518E-04-3.94003E-05
 -1      5551 8.79791E-05 3.66459E-04-3.94003E-05
 -1      5552 5.86418E-05 3.70250E-04-3.94003E-05
 -1      5554 2.95691E-05 3.75710E-04-3.94003E-05
 -1      5556 3.80730E-04 2.99641E-05-3.94003E-05
 -1      5557 3.75103E-04 5.94105E-05-3.94003E-05
 -1      5559 3.71355E-04 8.91544E-05-3.94003E-05
 -1      5560 3.61191E-04 1.17358E-04-3.94003E-05
 -1      5562 3.52836E-04 1.46149E-04-3.94003E-05
 -1      5563 3.38386E-04 1.72416E-04-3.94003E-05
 -1      5565 3.25629E-04 1.99546E-04-3.94003E-05
 -1      5566 3.07248E-04 2.23229E-04-3.94003E-05
 -1      5568 2.90404E-04 2.48029E-04-3.94003E-05
 -1      5569 2.68544E-04 2.68544E-04-3.94003E-05
 -1      5571 2.48029E-04 2.90404E-04-3.94003E-05
 -1      5572 2.23229E-04 3.07248E-04-3.94003E-05
 -1      5574 1.99546E-04 3.25629E-04-3.94003E-05
 -1      5575 1.72416E-04 3.38386E-04-3.94003E-05
 -1      5577 1.46149E-04 3.52836E-04-3.94003E-05
 -1      5578 1.17358E-04 3.61191E-04-3.94003E-05
 -1      5580 8.91544E-05 3.71355E-04-3.94003E-05
 -1      5581 5.94105E-05 3.75103E-04-3.94003E-05
 -1      5583 2.99641E-05 3.80730E-04-3.94003E-05
 -1      5585 3.86050E-04 3.03828E-05-3.94003E-05
 -1      5586 3.80271E-04 6.02290E-05-3.94003E-05
 -1      5588 3.76544E-04 9.04002E-05-3.94003E-05
 -1      5589 3.66167E-04 1.18975E-04-3.94003E-05
 -1      5591 3.57767E-04 1.48192E-04-3.94003E-05
 -1      5592 3.43047E-04 1.74791E-04-3.94003E-05
 -1      5594 3.30180E-04 2.02334E-04-3.94003E-05
 -1      5595 3.11480E-04 2.26304E-04-3.94003E-05
 -1      5597 2.94462E-04 2.51495E-04-3.94003E-05
 -1      5598 2.72244E-04 2.72244E-04-3.94003E-05
 -1      5600 2.51495E-04 2.94462E-04-3.94003E-05
 -1      5601 2.26304E-04 3.11480E-04-3.94003E-05
 -1      5603 2.02334E-04 3.30180E-04-3.94003E-05
 -1      5604 1.74791E-04 3.43047E-04-3.94003E-05
 -1      5606 1.48192E-04 3.57767E-04-3.94003E-05
 -1      5607 1.18975E-04 3.66167E-04-3.94003E-05
 -1      5609 9.04002E-05 3.76544E-04-3.94003E-05
 -1      5610 6.02290E-05 3.80271E-04-3.94003E-05
 -1      5612 3.03828E-05 3.86050E-04-3.94003E-05
 -1      5614 3.91641E-04 3.08228E-05-3.94003E-05
 -1      5615 3.85721E-04 6.10921E-05-3.94003E-05
 -1      5617 3.81998E-04 9.17096E-05-3.94003E-05
 -1      5618 3.71415E-04 1.20680E-04-3.94003E-05
 -1      5620 3.62948E-04 1.50338E-04-3.94003E-05
 -1      5621 3.47964E-04 1.77296E-04-3.94003E-05
 -1      5623 3.34962E-04 2.05265E-04-3.94003E-05
 -1      5624 3.15944E-04 2.29547E-04-3.94003E-05
 -1      5626 2.98727E-04 2.55137E-04-3.94003E-05
 -1      5627 2.76145E-04 2.76145E-04-3.94003E-05
 -1      5629 2.55137E-04 2.98727E-04-3.94003E-05
 -1      5630 2.29547E-04 3.15944E-04-3.94003E-05
 -1      5632 2.05265E-04 3.34962E-04-3.94003E-05
 -1      5633 1.77296E-04 3.47964E-04-3.94003E-05
 -1      5635 1.50338E-04 3.62948E-04-3.94003E-05
 -1      5636 1.20680E-04 3.71415E-04-3.94003E-05
 -1      5638 9.17096E-05 3.81998E-04-3.94003E-05
 -1      5639 6.10921E-05 3.85721E-04-3.94003E-05
 -1      5641 3.08228E-05 3.91641E-04-3.94003E-05
 -1      5643 3.97478E-04 3.12822E-05-3.94003E-05
 -1      5644 3.91424E-04 6.19955E-05-3.94003E-05
 -1      5646 3.87690E-04 9.30762E-05-3.94003E-05
 -1      5647 3.76907E-04 1.22465E-04-3.94003E-05
 -1      5649 3.68357E-04 1.52578E-04-3.94003E-05
 -1      5650 3.53109E-04 1.79918E-04-3.94003E-05
 -1      5652 3.39953E-04 2.08324E-04-3.94003E-05
 -1      5653 3.20616E-04 2.32941E-04-3.94003E-05
 -1      5655 3.03179E-04 2.58939E-04-3.94003E-05
 -1      5656 2.80229E-04 2.80229E-04-3.94003E-05
 -1      5658 2.58939E-04 3.03179E-04-3.94003E-05
 -1      5659 2.32941E-04 3.20616E-04-3.94003E-05
 -1      5661 2.08324E-04 3.39953E-04-3.94003E-05
 -1      5662 1.79918E-04 3.53109E-04-3.94003E-05
 -1      5664 1.52578E-04 3.68357E-04-3.94003E-05
 -1      5665 1.22465E-04 3.76907E-04-3.94003E-05
 -1      5667 9.30762E-05 3.87690E-04-3.94003E-05
 -1      5668 6.19955E-05 3.91424E-04-3.94003E-05
 -1      5670 3.12822E-05 3.97478E-04-3.94003E-05
 -1      5672 4.03536E-04 3.17589E-05-3.94003E-05
 -1      5673 3.97358E-04 6.29354E-05-3.94003E-05
 -1      5675 3.93599E-04 9.44948E-05-3.94003E-05
 -1      5676 3.82621E-04 1.24321E-04-3.94003E-05
 -1      5678 3.73971E-04 1.54904E-04-3.94003E-05
 -1      5679 3.58462E-04 1.82646E-04-3.94003E-05
 -1      5681 3.45135E-04 2.11499E-04-3.94003E-05
 -1      5682 3.25477E-04 2.36473E-04-3.94003E-05
 -1      5684 3.07800E-04 2.62886E-04-3.94003E-05
 -1      5685 2.84477E-04 2.84477E-04-3.94003E-05
 -1      5687 2.62886E-04 3.07800E-04-3.94003E-05
 -1      5688 2.36473E-04 3.25477E-04-3.94003E-05
 -1      5690 2.11499E-04 3.45135E-04-3.94003E-05
 -1      5691 1.82646E-04 3.58462E-04-3.94003E-05
 -1      5693 1.54904E-04 3.73971E-04-3.94003E-05
 -1      5694 1.24321E-04 3.82621E-04-3.94003E-05
 -1      5696 9.44948E-05 3.93599E-04-3.94003E-05
 -1      5697 6.29354E-05 3.97358E-04-3.94003E-05
 -1      5699 3.17589E-05 4.03536E-04-3.94003E-05
 -1      5701 4.09796E-04 3.22516E-05-3.94003E-05
 -1      5702 4.03501E-04 6.39083E-05-3.94003E-05
 -1      5704 3.99705E-04 9.59607E-05-3.94003E-05
 -1      5705 3.88536E-04 1.26243E-04-3.94003E-05
 -1      5707 3.79772E-04 1.57307E-04-3.94003E-05
 -1      5708 3.64004E-04 1.85469E-04-3.94003E-05
 -1      5710 3.50489E-04 2.14780E-04-3.94003E-05
 -1      5711 3.30509E-04 2.40129E-04-3.94003E-05
 -1      5713 3.12575E-04 2.66964E-04-3.94003E-05
 -1      5714 2.88875E-04 2.88875E-04-3.94003E-05
 -1      5716 2.66964E-04 3.12575E-04-3.94003E-05
 -1      5717 2.40129E-04 3.30509E-04-3.94003E-05
 -1      5719 2.14780E-04 3.50489E-04-3.94003E-05
 -1      5720 1.85469E-04 3.64004E-04-3.94003E-05
 -1      5722 1.57307E-04 3.79772E-04-3.94003E-05
 -1      5723 1.26243E-04 3.88536E-04-3.94003E-05
 -1      5725 9.59607E-05 3.99705E-04-3.94003E-05
 -1      5726 6.39083E-05 4.03501E-04-3.94003E-05
 -1      5728 3.22516E-05 4.09796E-04-3.94003E-05
 -1      5730 4.16239E-04 3.27587E-05-3.94003E-05
 -1      5731 4.09834E-04 6.49114E-05-3.94003E-05
 -1      5733 4.05990E-04 9.74696E-05-3.94003E-05
 -1      5734 3.94634E-04 1.28224E-04-3.94003E-05
 -1      5736 3.85744E-04 1.59780E-04-3.94003E-05
 -1      5737 3.69717E-04 1.88380E-04-3.94003E-05
 -1      5739 3.56000E-04 2.18157E-04-3.94003E-05
 -1      5740 3.35696E-04 2.43897E-04-3.94003E-05
 -1      5742 3.17490E-04 2.71162E-04-3.94003E-05
 -1      5743 2.93409E-04 2.93409E-04-3.94003E-05
 -1      5745 2.71162E-04 3.17490E-04-3.94003E-05
 -1      5746 2.43897E-04 3.35696E-04-3.94003E-05
 -1      5748 2.18157E-04 3.56000E-04-3.94003E-05
 -1      5749 1.88380E-04 3.69717E-04-3.94003E-05
 -1      5751 1.59780E-04 3.85744E-04-3.94003E-05
 -1      5752 1.28224E-04 3.94634E-04-3.94003E-05
 -1      5754 9.74696E-05 4.05990E-04-3.94003E-05
 -1      5755 6.49114E-05 4.09834E-04-3.94003E-05
 -1      5757 3.27587E-05 4.16239E-04-3.94003E-05
 -1      5759 4.22851E-04 3.32791E-05-3.94003E-05
 -1      5760 4.16341E-04 6.59420E-05-3.94003E-05
 -1      5762 4.12439E-04 9.90179E-05-3.94003E-05
 -1      5763 4.00900E-04 1.30260E-04-3.94003E-05
 -1      5765 3.91871E-04 1.62318E-04-3.94003E-05
 -1      5766 3.75587E-04 1.91371E-04-3.94003E-05
 -1      5768 3.61655E-04 2.21622E-04-3.94003E-05
 -1      5769 3.41026E-04 2.47770E-04-3.94003E-05
 -1      5771 3.22533E-04 2.75469E-04-3.94003E-05
 -1      5772 2.98067E-04 2.98067E-04-3.94003E-05
 -1      5774 2.75469E-04 3.22533E-04-3.94003E-05
 -1      5775 2.47770E-04 3.41026E-04-3.94003E-05
 -1      5777 2.21622E-04 3.61655E-04-3.94003E-05
 -1      5778 1.91371E-04 3.75587E-04-3.94003E-05
 -1      5780 1.62318E-04 3.91871E-04-3.94003E-05
 -1      5781 1.30260E-04 4.00900E-04-3.94003E-05
 -1      5783 9.90179E-05 4.12439E-04-3.94003E-05
 -1      5784 6.59420E-05 4.16341E-04-3.94003E-05
 -1      5786 3.32791E-05 4.22851E-04-3.94003E-05
 -1      5788 4.29617E-04 3.38116E-05-3.94003E-05
 -1      5789 4.23007E-04 6.69977E-05-3.94003E-05
 -1      5791 4.19039E-04 1.00602E-04-3.94003E-05
 -1      5792 4.07318E-04 1.32346E-04-3.94003E-05
 -1      5794 3.98142E-04 1.64916E-04-3.94003E-05
 -1      5795 3.81600E-04 1.94435E-04-3.94003E-05
 -1      5797 3.67442E-04 2.25169E-04-3.94003E-05
 -1      5798 3.46485E-04 2.51736E-04-3.94003E-05
 -1      5800 3.27694E-04 2.79877E-04-3.94003E-05
 -1      5801 3.02839E-04 3.02839E-04-3.94003E-05
 -1      5803 2.79877E-04 3.27694E-04-3.94003E-05
 -1      5804 2.51736E-04 3.46485E-04-3.94003E-05
 -1      5806 2.25169E-04 3.67442E-04-3.94003E-05
 -1      5807 1.94435E-04 3.81600E-04-3.94003E-05
 -1      5809 1.64916E-04 3.98142E-04-3.94003E-05
 -1      5810 1.32346E-04 4.07318E-04-3.94003E-05
 -1      5812 1.00602E-04 4.19039E-04-3.94003E-05
 -1      5813 6.69977E-05 4.23007E-04-3.94003E-05
 -1      5815 3.38116E-05 4.29617E-04-3.94003E-05
 -1      5817 4.36524E-04 3.43552E-05-3.94003E-05
 -1      5818 4.29819E-04 6.80766E-05-3.94003E-05
 -1      5820 4.25776E-04 1.02220E-04-3.94003E-05
 -1      5821 4.13877E-04 1.34477E-04-3.94003E-05
 -1      5823 4.04543E-04 1.67567E-04-3.94003E-05
 -1      5824 3.87745E-04 1.97566E-04-3.94003E-05
 -1      5826 3.73349E-04 2.28789E-04-3.94003E-05
 -1      5827 3.52065E-04 2.55790E-04-3.94003E-05
 -1      5829 3.32962E-04 2.84376E-04-3.94003E-05
 -1      5830 3.07716E-04 3.07716E-04-3.94003E-05
 -1      5832 2.84376E-04 3.32962E-04-3.94003E-05
 -1      5833 2.55790E-04 3.52065E-04-3.94003E-05
 -1      5835 2.28789E-04 3.73349E-04-3.94003E-05
 -1      5836 1.97566E-04 3.87745E-04-3.94003E-05
 -1      5838 1.67567E-04 4.04543E-04-3.94003E-05
 -1      5839 1.34477E-04 4.13877E-04-3.94003E-05
 -1      5841 1.02220E-04 4.25776E-04-3.94003E-05
 -1      5842 6.80766E-05 4.29819E-04-3.94003E-05
 -1      5844 3.43552E-05 4.36524E-04-3.94003E-05
 -1      5846 4.43565E-04 3.49094E-05-3.94002E-05
 -1      5847 4.36762E-04 6.91763E-05-3.94002E-05
 -1      5849 4.32643E-04 1.03868E-04-3.94002E-05
 -1      5850 4.20563E-04 1.36649E-04-3.94002E-05
 -1      5852 4.11068E-04 1.70270E-04-3.94002E-05
 -1      5853 3.94009E-04 2.00758E-04-3.94002E-05
 -1      5855 3.79371E-04 2.32479E-04-3.94002E-05
 -1      5856 3.57753E-04 2.59922E-04-3.94002E-05
 -1      5858 3.38333E-04 2.88963E-04-3.94002E-05
 -1      5859 3.12687E-04 3.12687E-04-3.94002E-05
 -1      5861 2.88963E-04 3.38333E-04-3.94002E-05
 -1      5862 2.59922E-04 3.57753E-04-3.94002E-05
 -1      5864 2.32479E-04 3.79371E-04-3.94002E-05
 -1      5865 2.00758E-04 3.94009E-04-3.94002E-05
 -1      5867 1.70270E-04 4.11068E-04-3.94002E-05
 -1      5868 1.36649E-04 4.20563E-04-3.94002E-05
 -1      5870 1.03868E-04 4.32643E-04-3.94002E-05
 -1      5871 6.91763E-05 4.36762E-04-3.94002E-05
 -1      5873 3.49094E-05 4.43565E-04-3.94002E-05
 -1      5875 4.50711E-04 3.54718E-05-3.94003E-05
 -1      5876 4.43841E-04 7.02975E-05-3.94003E-05
 -1      5878 4.39613E-04 1.05542E-04-3.94003E-05
 -1      5879 4.27380E-04 1.38864E-04-3.94003E-05
 -1      5881 4.17691E-04 1.73013E-04-3.94003E-05
 -1      5882 4.00395E-04 2.04011E-04-3.94003E-05
 -1      5884 3.85483E-04 2.36224E-04-3.94003E-05
 -1      5885 3.63551E-04 2.64135E-04-3.94003E-05
 -1      5887 3.43783E-04 2.93619E-04-3.94003E-05
 -1      5888 3.17755E-04 3.17755E-04-3.94003E-05
 -1      5890 2.93619E-04 3.43783E-04-3.94003E-05
 -1      5891 2.64135E-04 3.63551E-04-3.94003E-05
 -1      5893 2.36224E-04 3.85483E-04-3.94003E-05
 -1      5894 2.04011E-04 4.00395E-04-3.94003E-05
 -1      5896 1.73013E-04 4.17691E-04-3.94003E-05
 -1      5897 1.38864E-04 4.27380E-04-3.94003E-05
 -1      5899 1.05542E-04 4.39613E-04-3.94003E-05
 -1      5900 7.02975E-05 4.43841E-04-3.94003E-05
 -1      5902 3.54718E-05 4.50711E-04-3.94003E-05
 -1      5904 4.51036E-04 7.14370E-05-3.94002E-05
 -1      5906 4.34307E-04 1.41115E-04-3.94002E-05
 -1      5908 4.06885E-04 2.07318E-04-3.94002E-05
 -1      5910 3.69444E-04 2.68417E-04-3.94002E-05
 -1      5912 3.22906E-04 3.22906E-04-3.94002E-05
 -1      5914 2.68417E-04 3.69444E-04-3.94003E-05
 -1      5916 2.07318E-04 4.06885E-04-3.94002E-05
 -1      5918 1.41115E-04 4.34307E-04-3.94002E-05
 -1      5920 7.14371E-05 4.51036E-04-3.94003E-05
 -1      5923 3.99041E-04 6.32019E-05-9.96302E-06
 -1      5924 3.99041E-04 6.32019E-05-1.29067E-05
 -1      5925 3.99041E-04 6.32019E-05-1.58505E-05
 -1      5926 3.99041E-04 6.32019E-05-1.87942E-05
 -1      5927 3.99041E-04 6.32019E-05-2.17379E-05
 -1      5928 3.99041E-04 6.32019E-05-2.46816E-05
 -1      5929 3.99041E-04 6.32019E-05-2.76254E-05
 -1      5930 3.99041E-04 6.32019E-05-3.05691E-05
 -1      5931 3.99041E-04 6.32019E-05-3.35128E-05
 -1      5932 3.99041E-04 6.32019E-05-3.64565E-05
 -1      5933 3.84241E-04 1.24848E-04-9.96302E-06
 -1      5934 3.84241E-04 1.24848E-04-1.29067E-05
 -1      5935 3.84241E-04 1.24848E-04-1.58505E-05
 -1      5936 3.84241E-04 1.24848E-04-1.87942E-05
 -1      5937 3.84241E-04 1.24848E-04-2.17379E-05
 -1      5938 3.84241E-04 1.24848E-04-2.46816E-05
 -1      5939 3.84241E-04 1.24848E-04-2.76254E-05
 -1      5940 3.84241E-04 1.24848E-04-3.05691E-05
 -1      5941 3.84241E-04 1.24848E-04-3.35128E-05
 -1      5942 3.84241E-04 1.24848E-04-3.64565E-05
 -1      5943 3.59980E-04 1.83419E-04-9.96302E-06
 -1      5944 3.59980E-04 1.83419E-04-1.29067E-05
 -1      5945 3.59980E-04 1.83419E-04-1.58505E-05
 -1      5946 3.59980E-04 1.83419E-04-1.87942E-05
 -1      5947 3.59980E-04 1.83419E-04-2.17379E-05
 -1      5948 3.59980E-04 1.83419E-04-2.46816E-05
 -1      5949 3.59980E-04 1.83419E-04-2.76254E-05
 -1      5950 3.59980E-04 1.83419E-04-3.05691E-05
 -1      5951 3.59980E-04 1.83419E-04-3.35128E-05
 -1      5952 3.59980E-04 1.83419E-04-3.64565E-05
 -1      5953 3.26855E-04 2.37474E-04-9.96302E-06
 -1      5954 3.26855E-04 2.37474E-04-1.29067E-05
 -1      5955 3.26855E-04 2.37474E-04-1.58505E-05
 -1      5956 3.26855E-04 2.37474E-04-1.87942E-05
 -1      5957 3.26855E-04 2.37474E-04-2.17379E-05
 -1      5958 3.26855E-04 2.37474E-04-2.46816E-05
 -1      5959 3.26855E-04 2.37474E-04-2.76254E-05
 -1      5960 3.26855E-04 2.37474E-04-3.05691E-05
 -1      5961 3.26855E-04 2.37474E-04-3.35128E-05
 -1      5962 3.26855E-04 2.37474E-04-3.64565E-05
 -1      5963 2.85682E-04 2.85682E-04-9.96302E-06
 -1      5964 2.85682E-04 2.85682E-04-1.29067E-05
 -1      5965 2.85682E-04 2.85682E-04-1.58505E-05
 -1      5966 2.85682E-04 2.85682E-04-1.87942E-05
 -1      5967 2.85682E-04 2.85682E-04-2.17379E-05
 -1      5968 2.85682E-04 2.85682E-04-2.46816E-05
 -1      5969 2.85682E-04 2.85682E-04-2.76254E-05
 -1      5970 2.85682E-04 2.85682E-04-3.05691E-05
 -1      5971 2.85682E-04 2.85682E-04-3.35128E-05
 -1      5972 2.85682E-04 2.85682E-04-3.64565E-05
 -1      5973 2.37474E-04 3.26855E-04-9.96302E-06
 -1      5974 2.37474E-04 3.26855E-04-1.29067E-05
 -1      5975 2.37474E-04 3.26855E-04-1.58505E-05
 -1      5976 2.37474E-04 3.26855E-04-1.87942E-05
 -1      5977 2.37474E-04 3.26855E-04-2.17379E-05
 -1      5978 2.37474E-04 3.26855E-04-2.46816E-05
 -1      5979 2.37474E-04 3.26855E-04-2.76254E-05
 -1      5980 2.37474E-04 3.26855E-04-3.05691E-05
 -1      5981 2.37474E-04 3.26855E-04-3.35128E-05
 -1      5982 2.37474E-04 3.26855E-04-3.64565E-05
 -1      5983 1.83419E-04 3.59980E-04-9.96302E-06
 -1      5984 1.83419E-04 3.59980E-04-1.29067E-05
 -1      5985 1.83419E-04 3.59980E-04-1.58505E-05
 -1      5986 1.83419E-04 3.59980E-04-1.87942E-05
 -1      5987 1.83419E-04 3.59980E-04-2.17379E-05
 -1      5988 1.83419E-04 3.59980E-04-2.46816E-05
 -1      5989 1.83419E-04 3.59980E-04-2.76254E-05
 -1      5990 1.83419E-04 3.59980E-04-3.05691E-05
 -1      5991 1.83419E-04 3.59980E-04-3.35128E-05
 -1      5992 1.83419E-04 3.59980E-04-3.64565E-05
 -1      5993 1.24848E-04 3.84241E-04-9.96302E-06
 -1      5994 1.24848E-04 3.84241E-04-1.29067E-05
 -1      5995 1.24848E-04 3.84241E-04-1.58505E-05
 -1      5996 1.24848E-04 3.84241E-04-1.87942E-05
 -1      5997 1.24848E-04 3.84241E-04-2.17379E-05
 -1      5998 1.24848E-04 3.84241E-04-2.46816E-05
 -1      5999 1.24848E-04 3.84241E-04-2.76254E-05
 -1      6000 1.24848E-04 3.84241E-04-3.05691E-05
 -1      6001 1.24848E-04 3.84241E-04-3.35128E-05
 -1      6002 1.24848E-04 3.84241E-04-3.64565E-05
 -1      6003 6.32019E-05 3.99041E-04-9.96302E-06
 -1      6004 6.32019E-05 3.99041E-04-1.29067E-05
 -1      6005 6.32019E-05 3.99041E-04-1.58505E-05
 -1      6006 6.32019E-05 3.99041E-04-1.87942E-05
 -1      6007 6.32019E-05 3.99041E-04-2.17379E-05
 -1      6008 6.32019E-05 3.99041E-04-2.46816E-05
 -1      6009 6.32019E-05 3.99041E-04-2.76254E-05
 -1      6010 6.32019E-05 3.99041E-04-3.05691E-05
 -1      6011 6.32019E-05 3.99041E-04-3.35128E-05
 -1      6012 6.32019E-05 3.99041E-04-3.64565E-05
 -1      6013 3.83687E-04 6.07701E-05-9.96302E-06
 -1      6014 3.83687E-04 6.07701E-05-1.29068E-05
 -1      6015 3.83687E-04 6.07701E-05-1.58505E-05
 -1      6016 3.83687E-04 6.07701E-05-1.87942E-05
 -1      6017 3.83687E-04 6.07701E-05-2.17379E-05
 -1      6018 3.83687E-04 6.07701E-05-2.46816E-05
 -1      6019 3.83687E-04 6.07701E-05-2.76254E-05
 -1      6020 3.83687E-04 6.07701E-05-3.05691E-05
 -1      6021 3.83687E-04 6.07701E-05-3.35128E-05
 -1      6022 3.83687E-04 6.07701E-05-3.64565E-05
 -1      6023 3.69457E-04 1.20044E-04-9.96302E-06
 -1      6024 3.69457E-04 1.20044E-04-1.29068E-05
 -1      6025 3.69457E-04 1.20044E-04-1.58505E-05
 -1      6026 3.69457E-04 1.20044E-04-1.87942E-05
 -1      6027 3.69457E-04 1.20044E-04-2.17379E-05
 -1      6028 3.69457E-04 1.20044E-04-2.46816E-05
 -1      6029 3.69457E-04 1.20044E-04-2.76254E-05
 -1      6030 3.69457E-04 1.20044E-04-3.05691E-05
 -1      6031 3.69457E-04 1.20044E-04-3.35128E-05
 -1      6032 3.69457E-04 1.20044E-04-3.64565E-05
 -1      6033 3.46129E-04 1.76362E-04-9.96302E-06
 -1      6034 3.46129E-04 1.76362E-04-1.29068E-05
 -1      6035 3.46129E-04 1.76362E-04-1.58505E-05
 -1      6036 3.46129E-04 1.76362E-04-1.87942E-05
 -1      6037 3.46129E-04 1.76362E-04-2.17379E-05
 -1      6038 3.46129E-04 1.76362E-04-2.46816E-05
 -1      6039 3.46129E-04 1.76362E-04-2.76254E-05
 -1      6040 3.46129E-04 1.76362E-04-3.05691E-05
 -1      6041 3.46129E-04 1.76362E-04-3.35128E-05
 -1      6042 3.46129E-04 1.76362E-04-3.64565E-05
 -1      6043 3.14279E-04 2.28337E-04-9.96302E-06
 -1      6044 3.14279E-04 2.28337E-04-1.29068E-05
 -1      6045 3.14279E-04 2.28337E-04-1.58505E-05
 -1      6046 3.14279E-04 2.28337E-04-1.87942E-05
 -1      6047 3.14279E-04 2.28337E-04-2.17379E-05
 -1      6048 3.14279E-04 2.28337E-04-2.46816E-05
 -1      6049 3.14279E-04 2.28337E-04-2.76254E-05
 -1      6050 3.14279E-04 2.28337E-04-3.05691E-05
 -1      6051 3.14279E-04 2.28337E-04-3.35128E-05
 -1      6052 3.14279E-04 2.28337E-04-3.64565E-05
 -1      6053 2.74690E-04 2.74690E-04-9.96302E-06
 -1      6054 2.74690E-04 2.74690E-04-1.29068E-05
 -1      6055 2.74690E-04 2.74690E-04-1.58505E-05
 -1      6056 2.74690E-04 2.74690E-04-1.87942E-05
 -1      6057 2.74690E-04 2.74690E-04-2.17379E-05
 -1      6058 2.74690E-04 2.74690E-04-2.46816E-05
 -1      6059 2.74690E-04 2.74690E-04-2.76254E-05
 -1      6060 2.74690E-04 2.74690E-04-3.05691E-05
 -1      6061 2.74690E-04 2.74690E-04-3.35128E-05
 -1      6062 2.74690E-04 2.74690E-04-3.64565E-05
 -1      6063 2.28337E-04 3.14279E-04-9.96302E-06
 -1      6064 2.28337E-04 3.14279E-04-1.29068E-05
 -1      6065 2.28337E-04 3.14279E-04-1.58505E-05
 -1      6066 2.28337E-04 3.14279E-04-1.87942E-05
 -1      6067 2.28337E-04 3.14279E-04-2.17379E-05
 -1      6068 2.28337E-04 3.14279E-04-2.46816E-05
 -1      6069 2.28337E-04 3.14279E-04-2.76254E-05
 -1      6070 2.28337E-04 3.14279E-04-3.05691E-05
 -1      6071 2.28337E-04 3.14279E-04-3.35128E-05
 -1      6072 2.28337E-04 3.14279E-04-3.64565E-05
 -1      6073 1.76362E-04 3.46129E-04-9.96302E-06
 -1      6074 1.76362E-04 3.46129E-04-1.29068E-05
 -1      6075 1.76362E-04 3.46129E-04-1.58505E-05
 -1      6076 1.76362E-04 3.46129E-04-1.87942E-05
 -1      6077 1.76362E-04 3.46129E-04-2.17379E-05
 -1      6078 1.76362E-04 3.46129E-04-2.46816E-05
 -1      6079 1.76362E-04 3.46129E-04-2.76254E-05
 -1      6080 1.76362E-04 3.46129E-04-3.05691E-05
 -1      6081 1.76362E-04 3.46129E-04-3.35128E-05
 -1      6082 1.76362E-04 3.46129E-04-3.64565E-05
 -1      6083 1.20044E-04 3.69457E-04-9.96302E-06
 -1      6084 1.20044E-04 3.69457E-04-1.29068E-05
 -1      6085 1.20044E-04 3.69457E-04-1.58505E-05
 -1      6086 1.20044E-04 3.69457E-04-1.87942E-05
 -1      6087 1.20044E-04 3.69457E-04-2.17379E-05
 -1      6088 1.20044E-04 3.69457E-04-2.46816E-05
 -1      6089 1.20044E-04 3.69457E-04-2.76254E-05
 -1      6090 1.20044E-04 3.69457E-04-3.05691E-05
 -1      6091 1.20044E-04 3.69457E-04-3.35128E-05
 -1      6092 1.20044E-04 3.69457E-04-3.64565E-05
 -1      6093 6.07701E-05 3.83687E-04-9.96302E-06
 -1      6094 6.07701E-05 3.83687E-04-1.29068E-05
 -1      6095 6.07701E-05 3.83687E-04-1.58505E-05
 -1      6096 6.07701E-05 3.83687E-04-1.87942E-05
 -1      6097 6.07701E-05 3.83687E-04-2.17379E-05
 -1      6098 6.07701E-05 3.83687E-04-2.46816E-05
 -1      6099 6.07701E-05 3.83687E-04-2.76254E-05
 -1      6100 6.07701E-05 3.83687E-04-3.05691E-05
 -1      6101 6.07701E-05 3.83687E-04-3.35128E-05
 -1      6102 6.07701E-05 3.83687E-04-3.64565E-05
 -1      6103 3.72106E-04 5.89358E-05-9.96303E-06
 -1      6104 3.72106E-04 5.89358E-05-1.29067E-05
 -1      6105 3.72106E-04 5.89358E-05-1.58505E-05
 -1      6106 3.72106E-04 5.89358E-05-1.87942E-05
 -1      6107 3.72106E-04 5.89358E-05-2.17379E-05
 -1      6108 3.72106E-04 5.89358E-05-2.46816E-05
 -1      6109 3.72106E-04 5.89358E-05-2.76254E-05
 -1      6110 3.72106E-04 5.89358E-05-3.05691E-05
 -1      6111 3.72106E-04 5.89358E-05-3.35128E-05
 -1      6112 3.72106E-04 5.89358E-05-3.64565E-05
 -1      6113 3.58305E-04 1.16420E-04-9.96303E-06
 -1      6114 3.58305E-04 1.16420E-04-1.29067E-05
 -1      6115 3.58305E-04 1.16420E-04-1.58505E-05
 -1      6116 3.58305E-04 1.16420E-04-1.87942E-05
 -1      6117 3.58305E-04 1.16420E-04-2.17379E-05
 -1      6118 3.58305E-04 1.16420E-04-2.46816E-05
 -1      6119 3.58305E-04 1.16420E-04-2.76254E-05
 -1      6120 3.58305E-04 1.16420E-04-3.05691E-05
 -1      6121 3.58305E-04 1.16420E-04-3.35128E-05
 -1      6122 3.58305E-04 1.16420E-04-3.64565E-05
 -1      6123 3.35681E-04 1.71038E-04-9.96303E-06
 -1      6124 3.35681E-04 1.71038E-04-1.29067E-05
 -1      6125 3.35681E-04 1.71038E-04-1.58505E-05
 -1      6126 3.35681E-04 1.71038E-04-1.87942E-05
 -1      6127 3.35681E-04 1.71038E-04-2.17379E-05
 -1      6128 3.35681E-04 1.71038E-04-2.46816E-05
 -1      6129 3.35681E-04 1.71038E-04-2.76254E-05
 -1      6130 3.35681E-04 1.71038E-04-3.05691E-05
 -1      6131 3.35681E-04 1.71038E-04-3.35128E-05
 -1      6132 3.35681E-04 1.71038E-04-3.64565E-05
 -1      6133 3.04792E-04 2.21445E-04-9.96303E-06
 -1      6134 3.04792E-04 2.21445E-04-1.29067E-05
 -1      6135 3.04792E-04 2.21445E-04-1.58505E-05
 -1      6136 3.04792E-04 2.21445E-04-1.87942E-05
 -1      6137 3.04792E-04 2.21445E-04-2.17379E-05
 -1      6138 3.04792E-04 2.21445E-04-2.46816E-05
 -1      6139 3.04792E-04 2.21445E-04-2.76254E-05
 -1      6140 3.04792E-04 2.21445E-04-3.05691E-05
 -1      6141 3.04792E-04 2.21445E-04-3.35128E-05
 -1      6142 3.04792E-04 2.21445E-04-3.64565E-05
 -1      6143 2.66398E-04 2.66398E-04-9.96303E-06
 -1      6144 2.66398E-04 2.66398E-04-1.29067E-05
 -1      6145 2.66398E-04 2.66398E-04-1.58505E-05
 -1      6146 2.66398E-04 2.66398E-04-1.87942E-05
 -1      6147 2.66398E-04 2.66398E-04-2.17379E-05
 -1      6148 2.66398E-04 2.66398E-04-2.46816E-05
 -1      6149 2.66398E-04 2.66398E-04-2.76254E-05
 -1      6150 2.66398E-04 2.66398E-04-3.05691E-05
 -1      6151 2.66398E-04 2.66398E-04-3.35128E-05
 -1      6152 2.66398E-04 2.66398E-04-3.64565E-05
 -1      6153 2.21445E-04 3.04792E-04-9.96303E-06
 -1      6154 2.21445E-04 3.04792E-04-1.29067E-05
 -1      6155 2.21445E-04 3.04792E-04-1.58505E-05
 -1      6156 2.21445E-04 3.04792E-04-1.87942E-05
 -1      6157 2.21445E-04 3.04792E-04-2.17379E-05
 -1      6158 2.21445E-04 3.04792E-04-2.46816E-05
 -1      6159 2.21445E-04 3.04792E-04-2.76254E-05
 -1      6160 2.21445E-04 3.04792E-04-3.05691E-05
 -1      6161 2.21445E-04 3.04792E-04-3.35128E-05
 -1      6162 2.21445E-04 3.04792E-04-3.64565E-05
 -1      6163 1.71038E-04 3.35681E-04-9.96303E-06
 -1      6164 1.71038E-04 3.35681E-04-1.29067E-05
 -1      6165 1.71038E-04 3.35681E-04-1.58505E-05
 -1      6166 1.71038E-04 3.35681E-04-1.87942E-05
 -1      6167 1.71038E-04 3.35681E-04-2.17379E-05
 -1      6168 1.71038E-04 3.35681E-04-2.46816E-05
 -1      6169 1.71038E-04 3.35681E-04-2.76254E-05
 -1      6170 1.71038E-04 3.35681E-04-3.05691E-05
 -1      6171 1.71038E-04 3.35681E-04-3.35128E-05
 -1      6172 1.71038E-04 3.35681E-04-3.64565E-05
 -1      6173 1.16420E-04 3.58305E-04-9.96303E-06
 -1      6174 1.16420E-04 3.58305E-04-1.29067E-05
 -1      6175 1.16420E-04 3.58305E-04-1.58505E-05
 -1      6176 1.16420E-04 3.58305E-04-1.87942E-05
 -1      6177 1.16420E-04 3.58305E-04-2.17379E-05
 -1      6178 1.16420E-04 3.58305E-04-2.46816E-05
 -1      6179 1.16420E-04 3.58305E-04-2.76254E-05
 -1      6180 1.16420E-04 3.58305E-04-3.05691E-05
 -1      6181 1.16420E-04 3.58305E-04-3.35128E-05
 -1      6182 1.16420E-04 3.58305E-04-3.64565E-05
 -1      6183 5.89358E-05 3.72106E-04-9.96303E-06
 -1      6184 5.89358E-05 3.72106E-04-1.29067E-05
 -1      6185 5.89358E-05 3.72106E-04-1.58505E-05
 -1      6186 5.89358E-05 3.72106E-04-1.87942E-05
 -1      6187 5.89358E-05 3.72106E-04-2.17379E-05
 -1      6188 5.89358E-05 3.72106E-04-2.46816E-05
 -1      6189 5.89358E-05 3.72106E-04-2.76254E-05
 -1      6190 5.89358E-05 3.72106E-04-3.05691E-05
 -1      6191 5.89358E-05 3.72106E-04-3.35128E-05
 -1      6192 5.89358E-05 3.72106E-04-3.64565E-05
 -1      6193 3.63518E-04 5.75756E-05-9.96302E-06
 -1      6194 3.63518E-04 5.75756E-05-1.29067E-05
 -1      6195 3.63518E-04 5.75756E-05-1.58505E-05
 -1      6196 3.63518E-04 5.75756E-05-1.87942E-05
 -1      6197 3.63518E-04 5.75756E-05-2.17379E-05
 -1      6198 3.63518E-04 5.75756E-05-2.46816E-05
 -1      6199 3.63518E-04 5.75756E-05-2.76254E-05
 -1      6200 3.63518E-04 5.75756E-05-3.05691E-05
 -1      6201 3.63518E-04 5.75756E-05-3.35128E-05
 -1      6202 3.63518E-04 5.75756E-05-3.64565E-05
 -1      6203 3.50036E-04 1.13734E-04-9.96302E-06
 -1      6204 3.50036E-04 1.13734E-04-1.29067E-05
 -1      6205 3.50036E-04 1.13734E-04-1.58505E-05
 -1      6206 3.50036E-04 1.13734E-04-1.87942E-05
 -1      6207 3.50036E-04 1.13734E-04-2.17379E-05
 -1      6208 3.50036E-04 1.13734E-04-2.46816E-05
 -1      6209 3.50036E-04 1.13734E-04-2.76254E-05
 -1      6210 3.50036E-04 1.13734E-04-3.05691E-05
 -1      6211 3.50036E-04 1.13734E-04-3.35128E-05
 -1      6212 3.50036E-04 1.13734E-04-3.64565E-05
 -1      6213 3.27935E-04 1.67091E-04-9.96302E-06
 -1      6214 3.27935E-04 1.67091E-04-1.29067E-05
 -1      6215 3.27935E-04 1.67091E-04-1.58505E-05
 -1      6216 3.27935E-04 1.67091E-04-1.87942E-05
 -1      6217 3.27935E-04 1.67091E-04-2.17379E-05
 -1      6218 3.27935E-04 1.67091E-04-2.46816E-05
 -1      6219 3.27935E-04 1.67091E-04-2.76254E-05
 -1      6220 3.27935E-04 1.67091E-04-3.05691E-05
 -1      6221 3.27935E-04 1.67091E-04-3.35128E-05
 -1      6222 3.27935E-04 1.67091E-04-3.64565E-05
 -1      6223 2.97758E-04 2.16334E-04-9.96302E-06
 -1      6224 2.97758E-04 2.16334E-04-1.29067E-05
 -1      6225 2.97758E-04 2.16334E-04-1.58505E-05
 -1      6226 2.97758E-04 2.16334E-04-1.87942E-05
 -1      6227 2.97758E-04 2.16334E-04-2.17379E-05
 -1      6228 2.97758E-04 2.16334E-04-2.46816E-05
 -1      6229 2.97758E-04 2.16334E-04-2.76254E-05
 -1      6230 2.97758E-04 2.16334E-04-3.05691E-05
 -1      6231 2.97758E-04 2.16334E-04-3.35128E-05
 -1      6232 2.97758E-04 2.16334E-04-3.64565E-05
 -1      6233 2.60250E-04 2.60250E-04-9.96302E-06
 -1      6234 2.60250E-04 2.60250E-04-1.29067E-05
 -1      6235 2.60250E-04 2.60250E-04-1.58505E-05
 -1      6236 2.60250E-04 2.60250E-04-1.87942E-05
 -1      6237 2.60250E-04 2.60250E-04-2.17379E-05
 -1      6238 2.60250E-04 2.60250E-04-2.46816E-05
 -1      6239 2.60250E-04 2.60250E-04-2.76254E-05
 -1      6240 2.60250E-04 2.60250E-04-3.05691E-05
 -1      6241 2.60250E-04 2.60250E-04-3.35128E-05
 -1      6242 2.60250E-04 2.60250E-04-3.64565E-05
 -1      6243 2.16334E-04 2.97758E-04-9.96302E-06
 -1      6244 2.16334E-04 2.97758E-04-1.29067E-05
 -1      6245 2.16334E-04 2.97758E-04-1.58505E-05
 -1      6246 2.16334E-04 2.97758E-04-1.87942E-05
 -1      6247 2.16334E-04 2.97758E-04-2.17379E-05
 -1      6248 2.16334E-04 2.97758E-04-2.46816E-05
 -1      6249 2.16334E-04 2.97758E-04-2.76254E-05
 -1      6250 2.16334E-04 2.97758E-04-3.05691E-05
 -1      6251 2.16334E-04 2.97758E-04-3.35128E-05
 -1      6252 2.16334E-04 2.97758E-04-3.64565E-05
 -1      6253 1.67091E-04 3.27935E-04-9.96302E-06
 -1      6254 1.67091E-04 3.27935E-04-1.29067E-05
 -1      6255 1.67091E-04 3.27935E-04-1.58505E-05
 -1      6256 1.67091E-04 3.27935E-04-1.87942E-05
 -1      6257 1.67091E-04 3.27935E-04-2.17379E-05
 -1      6258 1.67091E-04 3.27935E-04-2.46816E-05
 -1      6259 1.67091E-04 3.27935E-04-2.76254E-05
 -1      6260 1.67091E-04 3.27935E-04-3.05691E-05
 -1      6261 1.67091E-04 3.27935E-04-3.35128E-05
 -1      6262 1.67091E-04 3.27935E-04-3.64565E-05
 -1      6263 1.13734E-04 3.50036E-04-9.96302E-06
 -1      6264 1.13734E-04 3.50036E-04-1.29067E-05
 -1      6265 1.13734E-04 3.50036E-04-1.58505E-05
 -1      6266 1.13734E-04 3.50036E-04-1.87942E-05
 -1      6267 1.13734E-04 3.50036E-04-2.17379E-05
 -1      6268 1.13734E-04 3.50036E-04-2.46816E-05
 -1      6269 1.13734E-04 3.50036E-04-2.76254E-05
 -1      6270 1.13734E-04 3.50036E-04-3.05691E-05
 -1      6271 1.13734E-04 3.50036E-04-3.35128E-05
 -1      6272 1.13734E-04 3.50036E-04-3.64565E-05
 -1      6273 5.75756E-05 3.63518E-04-9.96302E-06
 -1      6274 5.75756E-05 3.63518E-04-1.29067E-05
 -1      6275 5.75756E-05 3.63518E-04-1.58505E-05
 -1      6276 5.75756E-05 3.63518E-04-1.87942E-05
 -1      6277 5.75756E-05 3.63518E-04-2.17379E-05
 -1      6278 5.75756E-05 3.63518E-04-2.46816E-05
 -1      6279 5.75756E-05 3.63518E-04-2.76254E-05
 -1      6280 5.75756E-05 3.63518E-04-3.05691E-05
 -1      6281 5.75756E-05 3.63518E-04-3.35128E-05
 -1      6282 5.75756E-05 3.63518E-04-3.64565E-05
 -1      6283 3.57318E-04 5.65936E-05-9.96302E-06
 -1      6284 3.57318E-04 5.65936E-05-1.29067E-05
 -1      6285 3.57318E-04 5.65936E-05-1.58505E-05
 -1      6286 3.57318E-04 5.65936E-05-1.87942E-05
 -1      6287 3.57318E-04 5.65936E-05-2.17379E-05
 -1      6288 3.57318E-04 5.65936E-05-2.46816E-05
 -1      6289 3.57318E-04 5.65936E-05-2.76254E-05
 -1      6290 3.57318E-04 5.65936E-05-3.05691E-05
 -1      6291 3.57318E-04 5.65936E-05-3.35128E-05
 -1      6292 3.57318E-04 5.65936E-05-3.64565E-05
 -1      6293 3.44065E-04 1.11794E-04-9.96302E-06
 -1      6294 3.44065E-04 1.11794E-04-1.29067E-05
 -1      6295 3.44065E-04 1.11794E-04-1.58505E-05
 -1      6296 3.44065E-04 1.11794E-04-1.87942E-05
 -1      6297 3.44065E-04 1.11794E-04-2.17379E-05
 -1      6298 3.44065E-04 1.11794E-04-2.46816E-05
 -1      6299 3.44065E-04 1.11794E-04-2.76254E-05
 -1      6300 3.44065E-04 1.11794E-04-3.05691E-05
 -1      6301 3.44065E-04 1.11794E-04-3.35128E-05
 -1      6302 3.44065E-04 1.11794E-04-3.64565E-05
 -1      6303 3.22341E-04 1.64241E-04-9.96302E-06
 -1      6304 3.22341E-04 1.64241E-04-1.29067E-05
 -1      6305 3.22341E-04 1.64241E-04-1.58505E-05
 -1      6306 3.22341E-04 1.64241E-04-1.87942E-05
 -1      6307 3.22341E-04 1.64241E-04-2.17379E-05
 -1      6308 3.22341E-04 1.64241E-04-2.46816E-05
 -1      6309 3.22341E-04 1.64241E-04-2.76254E-05
 -1      6310 3.22341E-04 1.64241E-04-3.05691E-05
 -1      6311 3.22341E-04 1.64241E-04-3.35128E-05
 -1      6312 3.22341E-04 1.64241E-04-3.64565E-05
 -1      6313 2.92679E-04 2.12644E-04-9.96302E-06
 -1      6314 2.92679E-04 2.12644E-04-1.29067E-05
 -1      6315 2.92679E-04 2.12644E-04-1.58505E-05
 -1      6316 2.92679E-04 2.12644E-04-1.87942E-05
 -1      6317 2.92679E-04 2.12644E-04-2.17379E-05
 -1      6318 2.92679E-04 2.12644E-04-2.46816E-05
 -1      6319 2.92679E-04 2.12644E-04-2.76254E-05
 -1      6320 2.92679E-04 2.12644E-04-3.05691E-05
 -1      6321 2.92679E-04 2.12644E-04-3.35128E-05
 -1      6322 2.92679E-04 2.12644E-04-3.64565E-05
 -1      6323 2.55811E-04 2.55811E-04-9.96302E-06
 -1      6324 2.55811E-04 2.55811E-04-1.29067E-05
 -1      6325 2.55811E-04 2.55811E-04-1.58505E-05
 -1      6326 2.55811E-04 2.55811E-04-1.87942E-05
 -1      6327 2.55811E-04 2.55811E-04-2.17379E-05
 -1      6328 2.55811E-04 2.55811E-04-2.46816E-05
 -1      6329 2.55811E-04 2.55811E-04-2.76254E-05
 -1      6330 2.55811E-04 2.55811E-04-3.05691E-05
 -1      6331 2.55811E-04 2.55811E-04-3.35128E-05
 -1      6332 2.55811E-04 2.55811E-04-3.64565E-05
 -1      6333 2.12644E-04 2.92679E-04-9.96302E-06
 -1      6334 2.12644E-04 2.92679E-04-1.29067E-05
 -1      6335 2.12644E-04 2.92679E-04-1.58505E-05
 -1      6336 2.12644E-04 2.92679E-04-1.87942E-05
 -1      6337 2.12644E-04 2.92679E-04-2.17379E-05
 -1      6338 2.12644E-04 2.92679E-04-2.46816E-05
 -1      6339 2.12644E-04 2.92679E-04-2.76254E-05
 -1      6340 2.12644E-04 2.92679E-04-3.05691E-05
 -1      6341 2.12644E-04 2.92679E-04-3.35128E-05
 -1      6342 2.12644E-04 2.92679E-04-3.64565E-05
 -1      6343 1.64241E-04 3.22341E-04-9.96302E-06
 -1      6344 1.64241E-04 3.22341E-04-1.29067E-05
 -1      6345 1.64241E-04 3.22341E-04-1.58505E-05
 -1      6346 1.64241E-04 3.22341E-04-1.87942E-05
 -1      6347 1.64241E-04 3.22341E-04-2.17379E-05
 -1      6348 1.64241E-04 3.22341E-04-2.46816E-05
 -1      6349 1.64241E-04 3.22341E-04-2.76254E-05
 -1      6350 1.64241E-04 3.22341E-04-3.05691E-05
 -1      6351 1.64241E-04 3.22341E-04-3.35128E-05
 -1      6352 1.64241E-04 3.22341E-04-3.64565E-05
 -1      6353 1.11794E-04 3.44065E-04-9.96302E-06
 -1      6354 1.11794E-04 3.44065E-04-1.29067E-05
 -1      6355 1.11794E-04 3.44065E-04-1.58505E-05
 -1      6356 1.11794E-04 3.44065E-04-1.87942E-05
 -1      6357 1.11794E-04 3.44065E-04-2.17379E-05
 -1      6358 1.11794E-04 3.44065E-04-2.46816E-05
 -1      6359 1.11794E-04 3.44065E-04-2.76254E-05
 -1      6360 1.11794E-04 3.44065E-04-3.05691E-05
 -1      6361 1.11794E-04 3.44065E-04-3.35128E-05
 -1      6362 1.11794E-04 3.44065E-04-3.64565E-05
 -1      6363 5.65936E-05 3.57318E-04-9.96302E-06
 -1      6364 5.65936E-05 3.57318E-04-1.29067E-05
 -1      6365 5.65936E-05 3.57318E-04-1.58505E-05
 -1      6366 5.65936E-05 3.57318E-04-1.87942E-05
 -1      6367 5.65936E-05 3.57318E-04-2.17379E-05
 -1      6368 5.65936E-05 3.57318E-04-2.46816E-05
 -1      6369 5.65936E-05 3.57318E-04-2.76254E-05
 -1      6370 5.65936E-05 3.57318E-04-3.05691E-05
 -1      6371 5.65936E-05 3.57318E-04-3.35128E-05
 -1      6372 5.65936E-05 3.57318E-04-3.64565E-05
 -1      6373 3.53059E-04 5.59190E-05-9.96302E-06
 -1      6374 3.53059E-04 5.59190E-05-1.29067E-05
 -1      6375 3.53059E-04 5.59190E-05-1.58505E-05
 -1      6376 3.53059E-04 5.59190E-05-1.87942E-05
 -1      6377 3.53059E-04 5.59190E-05-2.17379E-05
 -1      6378 3.53059E-04 5.59190E-05-2.46816E-05
 -1      6379 3.53059E-04 5.59190E-05-2.76254E-05
 -1      6380 3.53059E-04 5.59190E-05-3.05691E-05
 -1      6381 3.53059E-04 5.59190E-05-3.35128E-05
 -1      6382 3.53059E-04 5.59190E-05-3.64565E-05
 -1      6383 3.39964E-04 1.10461E-04-9.96302E-06
 -1      6384 3.39964E-04 1.10461E-04-1.29067E-05
 -1      6385 3.39964E-04 1.10461E-04-1.58505E-05
 -1      6386 3.39964E-04 1.10461E-04-1.87942E-05
 -1      6387 3.39964E-04 1.10461E-04-2.17379E-05
 -1      6388 3.39964E-04 1.10461E-04-2.46816E-05
 -1      6389 3.39964E-04 1.10461E-04-2.76254E-05
 -1      6390 3.39964E-04 1.10461E-04-3.05691E-05
 -1      6391 3.39964E-04 1.10461E-04-3.35128E-05
 -1      6392 3.39964E-04 1.10461E-04-3.64565E-05
 -1      6393 3.18499E-04 1.62283E-04-9.96302E-06
 -1      6394 3.18499E-04 1.62283E-04-1.29067E-05
 -1      6395 3.18499E-04 1.62283E-04-1.58505E-05
 -1      6396 3.18499E-04 1.62283E-04-1.87942E-05
 -1      6397 3.18499E-04 1.62283E-04-2.17379E-05
 -1      6398 3.18499E-04 1.62283E-04-2.46816E-05
 -1      6399 3.18499E-04 1.62283E-04-2.76254E-05
 -1      6400 3.18499E-04 1.62283E-04-3.05691E-05
 -1      6401 3.18499E-04 1.62283E-04-3.35128E-05
 -1      6402 3.18499E-04 1.62283E-04-3.64565E-05
 -1      6403 2.89191E-04 2.10109E-04-9.96302E-06
 -1      6404 2.89191E-04 2.10109E-04-1.29067E-05
 -1      6405 2.89191E-04 2.10109E-04-1.58505E-05
 -1      6406 2.89191E-04 2.10109E-04-1.87942E-05
 -1      6407 2.89191E-04 2.10109E-04-2.17379E-05
 -1      6408 2.89191E-04 2.10109E-04-2.46816E-05
 -1      6409 2.89191E-04 2.10109E-04-2.76254E-05
 -1      6410 2.89191E-04 2.10109E-04-3.05691E-05
 -1      6411 2.89191E-04 2.10109E-04-3.35128E-05
 -1      6412 2.89191E-04 2.10109E-04-3.64565E-05
 -1      6413 2.52762E-04 2.52762E-04-9.96302E-06
 -1      6414 2.52762E-04 2.52762E-04-1.29067E-05
 -1      6415 2.52762E-04 2.52762E-04-1.58505E-05
 -1      6416 2.52762E-04 2.52762E-04-1.87942E-05
 -1      6417 2.52762E-04 2.52762E-04-2.17379E-05
 -1      6418 2.52762E-04 2.52762E-04-2.46816E-05
 -1      6419 2.52762E-04 2.52762E-04-2.76254E-05
 -1      6420 2.52762E-04 2.52762E-04-3.05691E-05
 -1      6421 2.52762E-04 2.52762E-04-3.35128E-05
 -1      6422 2.52762E-04 2.52762E-04-3.64565E-05
 -1      6423 2.10109E-04 2.89191E-04-9.96302E-06
 -1      6424 2.10109E-04 2.89191E-04-1.29067E-05
 -1      6425 2.10109E-04 2.89191E-04-1.58505E-05
 -1      6426 2.10109E-04 2.89191E-04-1.87942E-05
 -1      6427 2.10109E-04 2.89191E-04-2.17379E-05
 -1      6428 2.10109E-04 2.89191E-04-2.46816E-05
 -1      6429 2.10109E-04 2.89191E-04-2.76254E-05
 -1      6430 2.10109E-04 2.89191E-04-3.05691E-05
 -1      6431 2.10109E-04 2.89191E-04-3.35128E-05
 -1      6432 2.10109E-04 2.89191E-04-3.64565E-05
 -1      6433 1.62283E-04 3.18499E-04-9.96302E-06
 -1      6434 1.62283E-04 3.18499E-04-1.29067E-05
 -1      6435 1.62283E-04 3.18499E-04-1.58505E-05
 -1      6436 1.62283E-04 3.18499E-04-1.87942E-05
 -1      6437 1.62283E-04 3.18499E-04-2.17379E-05
 -1      6438 1.62283E-04 3.18499E-04-2.46816E-05
 -1      6439 1.62283E-04 3.18499E-04-2.76254E-05
 -1      6440 1.62283E-04 3.18499E-04-3.05691E-05
 -1      6441 1.62283E-04 3.18499E-04-3.35128E-05
 -1      6442 1.62283E-04 3.18499E-04-3.64565E-05
 -1      6443 1.10461E-04 3.39964E-04-9.96302E-06
 -1      6444 1.10461E-04 3.39964E-04-1.29067E-05
 -1      6445 1.10461E-04 3.39964E-04-1.58505E-05
 -1      6446 1.10461E-04 3.39964E-04-1.87942E-05
 -1      6447 1.10461E-04 3.39964E-04-2.17379E-05
 -1      6448 1.10461E-04 3.39964E-04-2.46816E-05
 -1      6449 1.10461E-04 3.39964E-04-2.76254E-05
 -1      6450 1.10461E-04 3.39964E-04-3.05691E-05
 -1      6451 1.10461E-04 3.39964E-04-3.35128E-05
 -1      6452 1.10461E-04 3.39964E-04-3.64565E-05
 -1      6453 5.59190E-05 3.53059E-04-9.96302E-06
 -1      6454 5.59190E-05 3.53059E-04-1.29067E-05
 -1      6455 5.59190E-05 3.53059E-04-1.58505E-05
 -1      6456 5.59190E-05 3.53059E-04-1.87942E-05
 -1      6457 5.59190E-05 3.53059E-04-2.17379E-05
 -1      6458 5.59190E-05 3.53059E-04-2.46816E-05
 -1      6459 5.59190E-05 3.53059E-04-2.76254E-05
 -1      6460 5.59190E-05 3.53059E-04-3.05691E-05
 -1      6461 5.59190E-05 3.53059E-04-3.35128E-05
 -1      6462 5.59190E-05 3.53059E-04-3.64565E-05
 -1      6463 3.50398E-04 5.54976E-05-9.96302E-06
 -1      6464 3.50398E-04 5.54976E-05-1.29067E-05
 -1      6465 3.50398E-04 5.54976E-05-1.58505E-05
 -1      6466 3.50398E-04 5.54976E-05-1.87942E-05
 -1      6467 3.50398E-04 5.54976E-05-2.17379E-05
 -1      6468 3.50398E-04 5.54976E-05-2.46816E-05
 -1      6469 3.50398E-04 5.54976E-05-2.76254E-05
 -1      6470 3.50398E-04 5.54976E-05-3.05691E-05
 -1      6471 3.50398E-04 5.54976E-05-3.35128E-05
 -1      6472 3.50398E-04 5.54976E-05-3.64565E-05
 -1      6473 3.37402E-04 1.09629E-04-9.96302E-06
 -1      6474 3.37402E-04 1.09629E-04-1.29067E-05
 -1      6475 3.37402E-04 1.09629E-04-1.58505E-05
 -1      6476 3.37402E-04 1.09629E-04-1.87942E-05
 -1      6477 3.37402E-04 1.09629E-04-2.17379E-05
 -1      6478 3.37402E-04 1.09629E-04-2.46816E-05
 -1      6479 3.37402E-04 1.09629E-04-2.76254E-05
 -1      6480 3.37402E-04 1.09629E-04-3.05691E-05
 -1      6481 3.37402E-04 1.09629E-04-3.35128E-05
 -1      6482 3.37402E-04 1.09629E-04-3.64565E-05
 -1      6483 3.16099E-04 1.61060E-04-9.96302E-06
 -1      6484 3.16099E-04 1.61060E-04-1.29067E-05
 -1      6485 3.16099E-04 1.61060E-04-1.58505E-05
 -1      6486 3.16099E-04 1.61060E-04-1.87942E-05
 -1      6487 3.16099E-04 1.61060E-04-2.17379E-05
 -1      6488 3.16099E-04 1.61060E-04-2.46816E-05
 -1      6489 3.16099E-04 1.61060E-04-2.76254E-05
 -1      6490 3.16099E-04 1.61060E-04-3.05691E-05
 -1      6491 3.16099E-04 1.61060E-04-3.35128E-05
 -1      6492 3.16099E-04 1.61060E-04-3.64565E-05
 -1      6493 2.87012E-04 2.08526E-04-9.96302E-06
 -1      6494 2.87012E-04 2.08526E-04-1.29067E-05
 -1      6495 2.87012E-04 2.08526E-04-1.58505E-05
 -1      6496 2.87012E-04 2.08526E-04-1.87942E-05
 -1      6497 2.87012E-04 2.08526E-04-2.17379E-05
 -1      6498 2.87012E-04 2.08526E-04-2.46816E-05
 -1      6499 2.87012E-04 2.08526E-04-2.76254E-05
 -1      6500 2.87012E-04 2.08526E-04-3.05691E-05
 -1      6501 2.87012E-04 2.08526E-04-3.35128E-05
 -1      6502 2.87012E-04 2.08526E-04-3.64565E-05
 -1      6503 2.50857E-04 2.50857E-04-9.96302E-06
 -1      6504 2.50857E-04 2.50857E-04-1.29067E-05
 -1      6505 2.50857E-04 2.50857E-04-1.58505E-05
 -1      6506 2.50857E-04 2.50857E-04-1.87942E-05
 -1      6507 2.50857E-04 2.50857E-04-2.17379E-05
 -1      6508 2.50857E-04 2.50857E-04-2.46816E-05
 -1      6509 2.50857E-04 2.50857E-04-2.76254E-05
 -1      6510 2.50857E-04 2.50857E-04-3.05691E-05
 -1      6511 2.50857E-04 2.50857E-04-3.35128E-05
 -1      6512 2.50857E-04 2.50857E-04-3.64565E-05
 -1      6513 2.08526E-04 2.87012E-04-9.96302E-06
 -1      6514 2.08526E-04 2.87012E-04-1.29067E-05
 -1      6515 2.08526E-04 2.87012E-04-1.58505E-05
 -1      6516 2.08526E-04 2.87012E-04-1.87942E-05
 -1      6517 2.08526E-04 2.87012E-04-2.17379E-05
 -1      6518 2.08526E-04 2.87012E-04-2.46816E-05
 -1      6519 2.08526E-04 2.87012E-04-2.76254E-05
 -1      6520 2.08526E-04 2.87012E-04-3.05691E-05
 -1      6521 2.08526E-04 2.87012E-04-3.35128E-05
 -1      6522 2.08526E-04 2.87012E-04-3.64565E-05
 -1      6523 1.61060E-04 3.16099E-04-9.96302E-06
 -1      6524 1.61060E-04 3.16099E-04-1.29067E-05
 -1      6525 1.61060E-04 3.16099E-04-1.58505E-05
 -1      6526 1.61060E-04 3.16099E-04-1.87942E-05
 -1      6527 1.61060E-04 3.16099E-04-2.17379E-05
 -1      6528 1.61060E-04 3.16099E-04-2.46816E-05
 -1      6529 1.61060E-04 3.16099E-04-2.76254E-05
 -1      6530 1.61060E-04 3.16099E-04-3.05691E-05
 -1      6531 1.61060E-04 3.16099E-04-3.35128E-05
 -1      6532 1.61060E-04 3.16099E-04-3.64565E-05
 -1      6533 1.09629E-04 3.37402E-04-9.96302E-06
 -1      6534 1.09629E-04 3.37402E-04-1.29067E-05
 -1      6535 1.09629E-04 3.37402E-04-1.58505E-05
 -1      6536 1.09629E-04 3.37402E-04-1.87942E-05
 -1      6537 1.09629E-04 3.37402E-04-2.17379E-05
 -1      6538 1.09629E-04 3.37402E-04-2.46816E-05
 -1      6539 1.09629E-04 3.37402E-04-2.76254E-05
 -1      6540 1.09629E-04 3.37402E-04-3.05691E-05
 -1      6541 1.09629E-04 3.37402E-04-3.35128E-05
 -1      6542 1.09629E-04 3.37402E-04-3.64565E-05
 -1      6543 5.54976E-05 3.50398E-04-9.96302E-06
 -1      6544 5.54976E-05 3.50398E-04-1.29067E-05
 -1      6545 5.54976E-05 3.50398E-04-1.58505E-05
 -1      6546 5.54976E-05 3.50398E-04-1.87942E-05
 -1      6547 5.54976E-05 3.50398E-04-2.17379E-05
 -1      6548 5.54976E-05 3.50398E-04-2.46816E-05
 -1      6549 5.54976E-05 3.50398E-04-2.76254E-05
 -1      6550 5.54976E-05 3.50398E-04-3.05691E-05
 -1      6551 5.54976E-05 3.50398E-04-3.35128E-05
 -1      6552 5.54976E-05 3.50398E-04-3.64565E-05
 -1      6553 3.49070E-04 5.52872E-05-9.96302E-06
 -1      6554 3.49070E-04 5.52872E-05-1.29067E-05
 -1      6555 3.49070E-04 5.52872E-05-1.58505E-05
 -1      6556 3.49070E-04 5.52872E-05-1.87942E-05
 -1      6557 3.49070E-04 5.52872E-05-2.17379E-05
 -1      6558 3.49070E-04 5.52872E-05-2.46816E-05
 -1      6559 3.49070E-04 5.52872E-05-2.76254E-05
 -1      6560 3.49070E-04 5.52872E-05-3.05691E-05
 -1      6561 3.49070E-04 5.52872E-05-3.35128E-05
 -1      6562 3.49070E-04 5.52872E-05-3.64565E-05
 -1      6563 3.36123E-04 1.09213E-04-9.96302E-06
 -1      6564 3.36123E-04 1.09213E-04-1.29067E-05
 -1      6565 3.36123E-04 1.09213E-04-1.58505E-05
 -1      6566 3.36123E-04 1.09213E-04-1.87942E-05
 -1      6567 3.36123E-04 1.09213E-04-2.17379E-05
 -1      6568 3.36123E-04 1.09213E-04-2.46816E-05
 -1      6569 3.36123E-04 1.09213E-04-2.76254E-05
 -1      6570 3.36123E-04 1.09213E-04-3.05691E-05
 -1      6571 3.36123E-04 1.09213E-04-3.35128E-05
 -1      6572 3.36123E-04 1.09213E-04-3.64565E-05
 -1      6573 3.14900E-04 1.60450E-04-9.96302E-06
 -1      6574 3.14900E-04 1.60450E-04-1.29067E-05
 -1      6575 3.14900E-04 1.60450E-04-1.58505E-05
 -1      6576 3.14900E-04 1.60450E-04-1.87942E-05
 -1      6577 3.14900E-04 1.60450E-04-2.17379E-05
 -1      6578 3.14900E-04 1.60450E-04-2.46816E-05
 -1      6579 3.14900E-04 1.60450E-04-2.76254E-05
 -1      6580 3.14900E-04 1.60450E-04-3.05691E-05
 -1      6581 3.14900E-04 1.60450E-04-3.35128E-05
 -1      6582 3.14900E-04 1.60450E-04-3.64565E-05
 -1      6583 2.85923E-04 2.07736E-04-9.96302E-06
 -1      6584 2.85923E-04 2.07736E-04-1.29067E-05
 -1      6585 2.85923E-04 2.07736E-04-1.58505E-05
 -1      6586 2.85923E-04 2.07736E-04-1.87942E-05
 -1      6587 2.85923E-04 2.07736E-04-2.17379E-05
 -1      6588 2.85923E-04 2.07736E-04-2.46816E-05
 -1      6589 2.85923E-04 2.07736E-04-2.76254E-05
 -1      6590 2.85923E-04 2.07736E-04-3.05691E-05
 -1      6591 2.85923E-04 2.07736E-04-3.35128E-05
 -1      6592 2.85923E-04 2.07736E-04-3.64565E-05
 -1      6593 2.49906E-04 2.49906E-04-9.96302E-06
 -1      6594 2.49906E-04 2.49906E-04-1.29067E-05
 -1      6595 2.49906E-04 2.49906E-04-1.58505E-05
 -1      6596 2.49906E-04 2.49906E-04-1.87942E-05
 -1      6597 2.49906E-04 2.49906E-04-2.17379E-05
 -1      6598 2.49906E-04 2.49906E-04-2.46816E-05
 -1      6599 2.49906E-04 2.49906E-04-2.76254E-05
 -1      6600 2.49906E-04 2.49906E-04-3.05691E-05
 -1      6601 2.49906E-04 2.49906E-04-3.35128E-05
 -1      6602 2.49906E-04 2.49906E-04-3.64565E-05
 -1      6603 2.07736E-04 2.85923E-04-9.96302E-06
 -1      6604 2.07736E-04 2.85923E-04-1.29067E-05
 -1      6605 2.07736E-04 2.85923E-04-1.58505E-05
 -1      6606 2.07736E-04 2.85923E-04-1.87942E-05
 -1      6607 2.07736E-04 2.85923E-04-2.17379E-05
 -1      6608 2.07736E-04 2.85923E-04-2.46816E-05
 -1      6609 2.07736E-04 2.85923E-04-2.76254E-05
 -1      6610 2.07736E-04 2.85923E-04-3.05691E-05
 -1      6611 2.07736E-04 2.85923E-04-3.35128E-05
 -1      6612 2.07736E-04 2.85923E-04-3.64565E-05
 -1      6613 1.60450E-04 3.14900E-04-9.96302E-06
 -1      6614 1.60450E-04 3.14900E-04-1.29067E-05
 -1      6615 1.60450E-04 3.14900E-04-1.58505E-05
 -1      6616 1.60450E-04 3.14900E-04-1.87942E-05
 -1      6617 1.60450E-04 3.14900E-04-2.17379E-05
 -1      6618 1.60450E-04 3.14900E-04-2.46816E-05
 -1      6619 1.60450E-04 3.14900E-04-2.76254E-05
 -1      6620 1.60450E-04 3.14900E-04-3.05691E-05
 -1      6621 1.60450E-04 3.14900E-04-3.35128E-05
 -1      6622 1.60450E-04 3.14900E-04-3.64565E-05
 -1      6623 1.09213E-04 3.36123E-04-9.96302E-06
 -1      6624 1.09213E-04 3.36123E-04-1.29067E-05
 -1      6625 1.09213E-04 3.36123E-04-1.58505E-05
 -1      6626 1.09213E-04 3.36123E-04-1.87942E-05
 -1      6627 1.09213E-04 3.36123E-04-2.17379E-05
 -1      6628 1.09213E-04 3.36123E-04-2.46816E-05
 -1      6629 1.09213E-04 3.36123E-04-2.76254E-05
 -1      6630 1.09213E-04 3.36123E-04-3.05691E-05
 -1      6631 1.09213E-04 3.36123E-04-3.35128E-05
 -1      6632 1.09213E-04 3.36123E-04-3.64565E-05
 -1      6633 5.52872E-05 3.49070E-04-9.96302E-06
 -1      6634 5.52872E-05 3.49070E-04-1.29067E-05
 -1      6635 5.52872E-05 3.49070E-04-1.58505E-05
 -1      6636 5.52872E-05 3.49070E-04-1.87942E-05
 -1      6637 5.52872E-05 3.49070E-04-2.17379E-05
 -1      6638 5.52872E-05 3.49070E-04-2.46816E-05
 -1      6639 5.52872E-05 3.49070E-04-2.76254E-05
 -1      6640 5.52872E-05 3.49070E-04-3.05691E-05
 -1      6641 5.52872E-05 3.49070E-04-3.35128E-05
 -1      6642 5.52872E-05 3.49070E-04-3.64565E-05
 -1      6643 3.48863E-04 5.52544E-05-9.96302E-06
 -1      6644 3.48863E-04 5.52544E-05-1.29067E-05
 -1      6645 3.48863E-04 5.52544E-05-1.58505E-05
 -1      6646 3.48863E-04 5.52544E-05-1.87942E-05
 -1      6647 3.48863E-04 5.52544E-05-2.17379E-05
 -1      6648 3.48863E-04 5.52544E-05-2.46816E-05
 -1      6649 3.48863E-04 5.52544E-05-2.76254E-05
 -1      6650 3.48863E-04 5.52544E-05-3.05691E-05
 -1      6651 3.48863E-04 5.52544E-05-3.35128E-05
 -1      6652 3.48863E-04 5.52544E-05-3.64565E-05
 -1      6653 3.35924E-04 1.09148E-04-9.96302E-06
 -1      6654 3.35924E-04 1.09148E-04-1.29067E-05
 -1      6655 3.35924E-04 1.09148E-04-1.58505E-05
 -1      6656 3.35924E-04 1.09148E-04-1.87942E-05
 -1      6657 3.35924E-04 1.09148E-04-2.17379E-05
 -1      6658 3.35924E-04 1.09148E-04-2.46816E-05
 -1      6659 3.35924E-04 1.09148E-04-2.76254E-05
 -1      6660 3.35924E-04 1.09148E-04-3.05691E-05
 -1      6661 3.35924E-04 1.09148E-04-3.35128E-05
 -1      6662 3.35924E-04 1.09148E-04-3.64565E-05
 -1      6663 3.14714E-04 1.60355E-04-9.96302E-06
 -1      6664 3.14714E-04 1.60355E-04-1.29067E-05
 -1      6665 3.14714E-04 1.60355E-04-1.58505E-05
 -1      6666 3.14714E-04 1.60355E-04-1.87942E-05
 -1      6667 3.14714E-04 1.60355E-04-2.17379E-05
 -1      6668 3.14714E-04 1.60355E-04-2.46816E-05
 -1      6669 3.14714E-04 1.60355E-04-2.76254E-05
 -1      6670 3.14714E-04 1.60355E-04-3.05691E-05
 -1      6671 3.14714E-04 1.60355E-04-3.35128E-05
 -1      6672 3.14714E-04 1.60355E-04-3.64565E-05
 -1      6673 2.85754E-04 2.07612E-04-9.96302E-06
 -1      6674 2.85754E-04 2.07612E-04-1.29067E-05
 -1      6675 2.85754E-04 2.07612E-04-1.58505E-05
 -1      6676 2.85754E-04 2.07612E-04-1.87942E-05
 -1      6677 2.85754E-04 2.07612E-04-2.17379E-05
 -1      6678 2.85754E-04 2.07612E-04-2.46816E-05
 -1      6679 2.85754E-04 2.07612E-04-2.76254E-05
 -1      6680 2.85754E-04 2.07612E-04-3.05691E-05
 -1      6681 2.85754E-04 2.07612E-04-3.35128E-05
 -1      6682 2.85754E-04 2.07612E-04-3.64565E-05
 -1      6683 2.49758E-04 2.49758E-04-9.96302E-06
 -1      6684 2.49758E-04 2.49758E-04-1.29067E-05
 -1      6685 2.49758E-04 2.49758E-04-1.58505E-05
 -1      6686 2.49758E-04 2.49758E-04-1.87942E-05
 -1      6687 2.49758E-04 2.49758E-04-2.17379E-05
 -1      6688 2.49758E-04 2.49758E-04-2.46816E-05
 -1      6689 2.49758E-04 2.49758E-04-2.76254E-05
 -1      6690 2.49758E-04 2.49758E-04-3.05691E-05
 -1      6691 2.49758E-04 2.49758E-04-3.35128E-05
 -1      6692 2.49758E-04 2.49758E-04-3.64565E-05
 -1      6693 2.07612E-04 2.85754E-04-9.96302E-06
 -1      6694 2.07612E-04 2.85754E-04-1.29067E-05
 -1      6695 2.07612E-04 2.85754E-04-1.58505E-05
 -1      6696 2.07612E-04 2.85754E-04-1.87942E-05
 -1      6697 2.07612E-04 2.85754E-04-2.17379E-05
 -1      6698 2.07612E-04 2.85754E-04-2.46816E-05
 -1      6699 2.07612E-04 2.85754E-04-2.76254E-05
 -1      6700 2.07612E-04 2.85754E-04-3.05691E-05
 -1      6701 2.07612E-04 2.85754E-04-3.35128E-05
 -1      6702 2.07612E-04 2.85754E-04-3.64565E-05
 -1      6703 1.60355E-04 3.14714E-04-9.96302E-06
 -1      6704 1.60355E-04 3.14714E-04-1.29067E-05
 -1      6705 1.60355E-04 3.14714E-04-1.58505E-05
 -1      6706 1.60355E-04 3.14714E-04-1.87942E-05
 -1      6707 1.60355E-04 3.14714E-04-2.17379E-05
 -1      6708 1.60355E-04 3.14714E-04-2.46816E-05
 -1      6709 1.60355E-04 3.14714E-04-2.76254E-05
 -1      6710 1.60355E-04 3.14714E-04-3.05691E-05
 -1      6711 1.60355E-04 3.14714E-04-3.35128E-05
 -1      6712 1.60355E-04 3.14714E-04-3.64565E-05
 -1      6713 1.09148E-04 3.35924E-04-9.96302E-06
 -1      6714 1.09148E-04 3.35924E-04-1.29067E-05
 -1      6715 1.09148E-04 3.35924E-04-1.58505E-05
 -1      6716 1.09148E-04 3.35924E-04-1.87942E-05
 -1      6717 1.09148E-04 3.35924E-04-2.17379E-05
 -1      6718 1.09148E-04 3.35924E-04-2.46816E-05
 -1      6719 1.09148E-04 3.35924E-04-2.76254E-05
 -1      6720 1.09148E-04 3.35924E-04-3.05691E-05
 -1      6721 1.09148E-04 3.35924E-04-3.35128E-05
 -1      6722 1.09148E-04 3.35924E-04-3.64565E-05
 -1      6723 5.52544E-05 3.48863E-04-9.96302E-06
 -1      6724 5.52544E-05 3.48863E-04-1.29067E-05
 -1      6725 5.52544E-05 3.48863E-04-1.58505E-05
 -1      6726 5.52544E-05 3.48863E-04-1.87942E-05
 -1      6727 5.52544E-05 3.48863E-04-2.17379E-05
 -1      6728 5.52544E-05 3.48863E-04-2.46816E-05
 -1      6729 5.52544E-05 3.48863E-04-2.76254E-05
 -1      6730 5.52544E-05 3.48863E-04-3.05691E-05
 -1      6731 5.52544E-05 3.48863E-04-3.35128E-05
 -1      6732 5.52544E-05 3.48863E-04-3.64565E-05
 -1      6733 3.49610E-04 5.53727E-05-9.96302E-06
 -1      6734 3.49610E-04 5.53727E-05-1.29067E-05
 -1      6735 3.49610E-04 5.53727E-05-1.58505E-05
 -1      6736 3.49610E-04 5.53727E-05-1.87942E-05
 -1      6737 3.49610E-04 5.53727E-05-2.17379E-05
 -1      6738 3.49610E-04 5.53727E-05-2.46816E-05
 -1      6739 3.49610E-04 5.53727E-05-2.76254E-05
 -1      6740 3.49610E-04 5.53727E-05-3.05691E-05
 -1      6741 3.49610E-04 5.53727E-05-3.35128E-05
 -1      6742 3.49610E-04 5.53727E-05-3.64565E-05
 -1      6743 3.36643E-04 1.09382E-04-9.96302E-06
 -1      6744 3.36643E-04 1.09382E-04-1.29067E-05
 -1      6745 3.36643E-04 1.09382E-04-1.58505E-05
 -1      6746 3.36643E-04 1.09382E-04-1.87942E-05
 -1      6747 3.36643E-04 1.09382E-04-2.17379E-05
 -1      6748 3.36643E-04 1.09382E-04-2.46816E-05
 -1      6749 3.36643E-04 1.09382E-04-2.76254E-05
 -1      6750 3.36643E-04 1.09382E-04-3.05691E-05
 -1      6751 3.36643E-04 1.09382E-04-3.35128E-05
 -1      6752 3.36643E-04 1.09382E-04-3.64565E-05
 -1      6753 3.15387E-04 1.60698E-04-9.96302E-06
 -1      6754 3.15387E-04 1.60698E-04-1.29067E-05
 -1      6755 3.15387E-04 1.60698E-04-1.58505E-05
 -1      6756 3.15387E-04 1.60698E-04-1.87942E-05
 -1      6757 3.15387E-04 1.60698E-04-2.17379E-05
 -1      6758 3.15387E-04 1.60698E-04-2.46816E-05
 -1      6759 3.15387E-04 1.60698E-04-2.76254E-05
 -1      6760 3.15387E-04 1.60698E-04-3.05691E-05
 -1      6761 3.15387E-04 1.60698E-04-3.35128E-05
 -1      6762 3.15387E-04 1.60698E-04-3.64565E-05
 -1      6763 2.86366E-04 2.08057E-04-9.96302E-06
 -1      6764 2.86366E-04 2.08057E-04-1.29067E-05
 -1      6765 2.86366E-04 2.08057E-04-1.58505E-05
 -1      6766 2.86366E-04 2.08057E-04-1.87942E-05
 -1      6767 2.86366E-04 2.08057E-04-2.17379E-05
 -1      6768 2.86366E-04 2.08057E-04-2.46816E-05
 -1      6769 2.86366E-04 2.08057E-04-2.76254E-05
 -1      6770 2.86366E-04 2.08057E-04-3.05691E-05
 -1      6771 2.86366E-04 2.08057E-04-3.35128E-05
 -1      6772 2.86366E-04 2.08057E-04-3.64565E-05
 -1      6773 2.50293E-04 2.50293E-04-9.96302E-06
 -1      6774 2.50293E-04 2.50293E-04-1.29067E-05
 -1      6775 2.50293E-04 2.50293E-04-1.58505E-05
 -1      6776 2.50293E-04 2.50293E-04-1.87942E-05
 -1      6777 2.50293E-04 2.50293E-04-2.17379E-05
 -1      6778 2.50293E-04 2.50293E-04-2.46816E-05
 -1      6779 2.50293E-04 2.50293E-04-2.76254E-05
 -1      6780 2.50293E-04 2.50293E-04-3.05691E-05
 -1      6781 2.50293E-04 2.50293E-04-3.35128E-05
 -1      6782 2.50293E-04 2.50293E-04-3.64565E-05
 -1      6783 2.08057E-04 2.86366E-04-9.96302E-06
 -1      6784 2.08057E-04 2.86366E-04-1.29067E-05
 -1      6785 2.08057E-04 2.86366E-04-1.58505E-05
 -1      6786 2.08057E-04 2.86366E-04-1.87942E-05
 -1      6787 2.08057E-04 2.86366E-04-2.17379E-05
 -1      6788 2.08057E-04 2.86366E-04-2.46816E-05
 -1      6789 2.08057E-04 2.86366E-04-2.76254E-05
 -1      6790 2.08057E-04 2.86366E-04-3.05691E-05
 -1      6791 2.08057E-04 2.86366E-04-3.35128E-05
 -1      6792 2.08057E-04 2.86366E-04-3.64565E-05
 -1      6793 1.60698E-04 3.15387E-04-9.96302E-06
 -1      6794 1.60698E-04 3.15387E-04-1.29067E-05
 -1      6795 1.60698E-04 3.15387E-04-1.58505E-05
 -1      6796 1.60698E-04 3.15387E-04-1.87942E-05
 -1      6797 1.60698E-04 3.15387E-04-2.17379E-05
 -1      6798 1.60698E-04 3.15387E-04-2.46816E-05
 -1      6799 1.60698E-04 3.15387E-04-2.76254E-05
 -1      6800 1.60698E-04 3.15387E-04-3.05691E-05
 -1      6801 1.60698E-04 3.15387E-04-3.35128E-05
 -1      6802 1.60698E-04 3.15387E-04-3.64565E-05
 -1      6803 1.09382E-04 3.36643E-04-9.96302E-06
 -1      6804 1.09382E-04 3.36643E-04-1.29067E-05
 -1      6805 1.09382E-04 3.36643E-04-1.58505E-05
 -1      6806 1.09382E-04 3.36643E-04-1.87942E-05
 -1      6807 1.09382E-04 3.36643E-04-2.17379E-05
 -1      6808 1.09382E-04 3.36643E-04-2.46816E-05
 -1      6809 1.09382E-04 3.36643E-04-2.76254E-05
 -1      6810 1.09382E-04 3.36643E-04-3.05691E-05
 -1      6811 1.09382E-04 3.36643E-04-3.35128E-05
 -1      6812 1.09382E-04 3.36643E-04-3.64565E-05
 -1      6813 5.53727E-05 3.49610E-04-9.96302E-06
 -1      6814 5.53727E-05 3.49610E-04-1.29067E-05
 -1      6815 5.53727E-05 3.49610E-04-1.58505E-05
 -1      6816 5.53727E-05 3.49610E-04-1.87942E-05
 -1      6817 5.53727E-05 3.49610E-04-2.17379E-05
 -1      6818 5.53727E-05 3.49610E-04-2.46816E-05
 -1      6819 5.53727E-05 3.49610E-04-2.76254E-05
 -1      6820 5.53727E-05 3.49610E-04-3.05691E-05
 -1      6821 5.53727E-05 3.49610E-04-3.35128E-05
 -1      6822 5.53727E-05 3.49610E-04-3.64565E-05
 -1      6823 3.51174E-04 5.56204E-05-9.96302E-06
 -1      6824 3.51174E-04 5.56204E-05-1.29067E-05
 -1      6825 3.51174E-04 5.56204E-05-1.58505E-05
 -1      6826 3.51174E-04 5.56204E-05-1.87942E-05
 -1      6827 3.51174E-04 5.56204E-05-2.17379E-05
 -1      6828 3.51174E-04 5.56204E-05-2.46816E-05
 -1      6829 3.51174E-04 5.56204E-05-2.76254E-05
 -1      6830 3.51174E-04 5.56204E-05-3.05691E-05
 -1      6831 3.51174E-04 5.56204E-05-3.35128E-05
 -1      6832 3.51174E-04 5.56204E-05-3.64565E-05
 -1      6833 3.38149E-04 1.09871E-04-9.96302E-06
 -1      6834 3.38149E-04 1.09871E-04-1.29067E-05
 -1      6835 3.38149E-04 1.09871E-04-1.58505E-05
 -1      6836 3.38149E-04 1.09871E-04-1.87942E-05
 -1      6837 3.38149E-04 1.09871E-04-2.17379E-05
 -1      6838 3.38149E-04 1.09871E-04-2.46816E-05
 -1      6839 3.38149E-04 1.09871E-04-2.76254E-05
 -1      6840 3.38149E-04 1.09871E-04-3.05691E-05
 -1      6841 3.38149E-04 1.09871E-04-3.35128E-05
 -1      6842 3.38149E-04 1.09871E-04-3.64565E-05
 -1      6843 3.16798E-04 1.61417E-04-9.96302E-06
 -1      6844 3.16798E-04 1.61417E-04-1.29067E-05
 -1      6845 3.16798E-04 1.61417E-04-1.58505E-05
 -1      6846 3.16798E-04 1.61417E-04-1.87942E-05
 -1      6847 3.16798E-04 1.61417E-04-2.17379E-05
 -1      6848 3.16798E-04 1.61417E-04-2.46816E-05
 -1      6849 3.16798E-04 1.61417E-04-2.76254E-05
 -1      6850 3.16798E-04 1.61417E-04-3.05691E-05
 -1      6851 3.16798E-04 1.61417E-04-3.35128E-05
 -1      6852 3.16798E-04 1.61417E-04-3.64565E-05
 -1      6853 2.87647E-04 2.08988E-04-9.96302E-06
 -1      6854 2.87647E-04 2.08988E-04-1.29067E-05
 -1      6855 2.87647E-04 2.08988E-04-1.58505E-05
 -1      6856 2.87647E-04 2.08988E-04-1.87942E-05
 -1      6857 2.87647E-04 2.08988E-04-2.17379E-05
 -1      6858 2.87647E-04 2.08988E-04-2.46816E-05
 -1      6859 2.87647E-04 2.08988E-04-2.76254E-05
 -1      6860 2.87647E-04 2.08988E-04-3.05691E-05
 -1      6861 2.87647E-04 2.08988E-04-3.35128E-05
 -1      6862 2.87647E-04 2.08988E-04-3.64565E-05
 -1      6863 2.51413E-04 2.51413E-04-9.96302E-06
 -1      6864 2.51413E-04 2.51413E-04-1.29067E-05
 -1      6865 2.51413E-04 2.51413E-04-1.58505E-05
 -1      6866 2.51413E-04 2.51413E-04-1.87942E-05
 -1      6867 2.51413E-04 2.51413E-04-2.17379E-05
 -1      6868 2.51413E-04 2.51413E-04-2.46816E-05
 -1      6869 2.51413E-04 2.51413E-04-2.76254E-05
 -1      6870 2.51413E-04 2.51413E-04-3.05691E-05
 -1      6871 2.51413E-04 2.51413E-04-3.35128E-05
 -1      6872 2.51413E-04 2.51413E-04-3.64565E-05
 -1      6873 2.08988E-04 2.87647E-04-9.96302E-06
 -1      6874 2.08988E-04 2.87647E-04-1.29067E-05
 -1      6875 2.08988E-04 2.87647E-04-1.58505E-05
 -1      6876 2.08988E-04 2.87647E-04-1.87942E-05
 -1      6877 2.08988E-04 2.87647E-04-2.17379E-05
 -1      6878 2.08988E-04 2.87647E-04-2.46816E-05
 -1      6879 2.08988E-04 2.87647E-04-2.76254E-05
 -1      6880 2.08988E-04 2.87647E-04-3.05691E-05
 -1      6881 2.08988E-04 2.87647E-04-3.35128E-05
 -1      6882 2.08988E-04 2.87647E-04-3.64565E-05
 -1      6883 1.61417E-04 3.16798E-04-9.96302E-06
 -1      6884 1.61417E-04 3.16798E-04-1.29067E-05
 -1      6885 1.61417E-04 3.16798E-04-1.58505E-05
 -1      6886 1.61417E-04 3.16798E-04-1.87942E-05
 -1      6887 1.61417E-04 3.16798E-04-2.17379E-05
 -1      6888 1.61417E-04 3.16798E-04-2.46816E-05
 -1      6889 1.61417E-04 3.16798E-04-2.76254E-05
 -1      6890 1.61417E-04 3.16798E-04-3.05691E-05
 -1      6891 1.61417E-04 3.16798E-04-3.35128E-05
 -1      6892 1.61417E-04 3.16798E-04-3.64565E-05
 -1      6893 1.09871E-04 3.38149E-04-9.96302E-06
 -1      6894 1.09871E-04 3.38149E-04-1.29067E-05
 -1      6895 1.09871E-04 3.38149E-04-1.58505E-05
 -1      6896 1.09871E-04 3.38149E-04-1.87942E-05
 -1      6897 1.09871E-04 3.38149E-04-2.17379E-05
 -1      6898 1.09871E-04 3.38149E-04-2.46816E-05
 -1      6899 1.09871E-04 3.38149E-04-2.76254E-05
 -1      6900 1.09871E-04 3.38149E-04-3.05691E-05
 -1      6901 1.09871E-04 3.38149E-04-3.35128E-05
 -1      6902 1.09871E-04 3.38149E-04-3.64565E-05
 -1      6903 5.56204E-05 3.51174E-04-9.96302E-06
 -1      6904 5.56204E-05 3.51174E-04-1.29067E-05
 -1      6905 5.56204E-05 3.51174E-04-1.58505E-05
 -1      6906 5.56204E-05 3.51174E-04-1.87942E-05
 -1      6907 5.56204E-05 3.51174E-04-2.17379E-05
 -1      6908 5.56204E-05 3.51174E-04-2.46816E-05
 -1      6909 5.56204E-05 3.51174E-04-2.76254E-05
 -1      6910 5.56204E-05 3.51174E-04-3.05691E-05
 -1      6911 5.56204E-05 3.51174E-04-3.35128E-05
 -1      6912 5.56204E-05 3.51174E-04-3.64565E-05
 -1      6913 3.53443E-04 5.59799E-05-9.96302E-06
 -1      6914 3.53443E-04 5.59799E-05-1.29067E-05
 -1      6915 3.53443E-04 5.59799E-05-1.58505E-05
 -1      6916 3.53443E-04 5.59799E-05-1.87942E-05
 -1      6917 3.53443E-04 5.59799E-05-2.17379E-05
 -1      6918 3.53443E-04 5.59799E-05-2.46816E-05
 -1      6919 3.53443E-04 5.59799E-05-2.76254E-05
 -1      6920 3.53443E-04 5.59799E-05-3.05691E-05
 -1      6921 3.53443E-04 5.59799E-05-3.35128E-05
 -1      6922 3.53443E-04 5.59799E-05-3.64565E-05
 -1      6923 3.40335E-04 1.10581E-04-9.96302E-06
 -1      6924 3.40335E-04 1.10581E-04-1.29067E-05
 -1      6925 3.40335E-04 1.10581E-04-1.58505E-05
 -1      6926 3.40335E-04 1.10581E-04-1.87942E-05
 -1      6927 3.40335E-04 1.10581E-04-2.17379E-05
 -1      6928 3.40335E-04 1.10581E-04-2.46816E-05
 -1      6929 3.40335E-04 1.10581E-04-2.76254E-05
 -1      6930 3.40335E-04 1.10581E-04-3.05691E-05
 -1      6931 3.40335E-04 1.10581E-04-3.35128E-05
 -1      6932 3.40335E-04 1.10581E-04-3.64565E-05
 -1      6933 3.18846E-04 1.62460E-04-9.96302E-06
 -1      6934 3.18846E-04 1.62460E-04-1.29067E-05
 -1      6935 3.18846E-04 1.62460E-04-1.58505E-05
 -1      6936 3.18846E-04 1.62460E-04-1.87942E-05
 -1      6937 3.18846E-04 1.62460E-04-2.17379E-05
 -1      6938 3.18846E-04 1.62460E-04-2.46816E-05
 -1      6939 3.18846E-04 1.62460E-04-2.76254E-05
 -1      6940 3.18846E-04 1.62460E-04-3.05691E-05
 -1      6941 3.18846E-04 1.62460E-04-3.35128E-05
 -1      6942 3.18846E-04 1.62460E-04-3.64565E-05
 -1      6943 2.89506E-04 2.10338E-04-9.96302E-06
 -1      6944 2.89506E-04 2.10338E-04-1.29067E-05
 -1      6945 2.89506E-04 2.10338E-04-1.58505E-05
 -1      6946 2.89506E-04 2.10338E-04-1.87942E-05
 -1      6947 2.89506E-04 2.10338E-04-2.17379E-05
 -1      6948 2.89506E-04 2.10338E-04-2.46816E-05
 -1      6949 2.89506E-04 2.10338E-04-2.76254E-05
 -1      6950 2.89506E-04 2.10338E-04-3.05691E-05
 -1      6951 2.89506E-04 2.10338E-04-3.35128E-05
 -1      6952 2.89506E-04 2.10338E-04-3.64565E-05
 -1      6953 2.53038E-04 2.53038E-04-9.96302E-06
 -1      6954 2.53038E-04 2.53038E-04-1.29067E-05
 -1      6955 2.53038E-04 2.53038E-04-1.58505E-05
 -1      6956 2.53038E-04 2.53038E-04-1.87942E-05
 -1      6957 2.53038E-04 2.53038E-04-2.17379E-05
 -1      6958 2.53038E-04 2.53038E-04-2.46816E-05
 -1      6959 2.53038E-04 2.53038E-04-2.76254E-05
 -1      6960 2.53038E-04 2.53038E-04-3.05691E-05
 -1      6961 2.53038E-04 2.53038E-04-3.35128E-05
 -1      6962 2.53038E-04 2.53038E-04-3.64565E-05
 -1      6963 2.10338E-04 2.89506E-04-9.96302E-06
 -1      6964 2.10338E-04 2.89506E-04-1.29067E-05
 -1      6965 2.10338E-04 2.89506E-04-1.58505E-05
 -1      6966 2.10338E-04 2.89506E-04-1.87942E-05
 -1      6967 2.10338E-04 2.89506E-04-2.17379E-05
 -1      6968 2.10338E-04 2.89506E-04-2.46816E-05
 -1      6969 2.10338E-04 2.89506E-04-2.76254E-05
 -1      6970 2.10338E-04 2.89506E-04-3.05691E-05
 -1      6971 2.10338E-04 2.89506E-04-3.35128E-05
 -1      6972 2.10338E-04 2.89506E-04-3.64565E-05
 -1      6973 1.62460E-04 3.18846E-04-9.96302E-06
 -1      6974 1.62460E-04 3.18846E-04-1.29067E-05
 -1      6975 1.62460E-04 3.18846E-04-1.58505E-05
 -1      6976 1.62460E-04 3.18846E-04-1.87942E-05
 -1      6977 1.62460E-04 3.18846E-04-2.17379E-05
 -1      6978 1.62460E-04 3.18846E-04-2.46816E-05
 -1      6979 1.62460E-04 3.18846E-04-2.76254E-05
 -1      6980 1.62460E-04 3.18846E-04-3.05691E-05
 -1      6981 1.62460E-04 3.18846E-04-3.35128E-05
 -1      6982 1.62460E-04 3.18846E-04-3.64565E-05
 -1      6983 1.10581E-04 3.40335E-04-9.96302E-06
 -1      6984 1.10581E-04 3.40335E-04-1.29067E-05
 -1      6985 1.10581E-04 3.40335E-04-1.58505E-05
 -1      6986 1.10581E-04 3.40335E-04-1.87942E-05
 -1      6987 1.10581E-04 3.40335E-04-2.17379E-05
 -1      6988 1.10581E-04 3.40335E-04-2.46816E-05
 -1      6989 1.10581E-04 3.40335E-04-2.76254E-05
 -1      6990 1.10581E-04 3.40335E-04-3.05691E-05
 -1      6991 1.10581E-04 3.40335E-04-3.35128E-05
 -1      6992 1.10581E-04 3.40335E-04-3.64565E-05
 -1      6993 5.59799E-05 3.53443E-04-9.96302E-06
 -1      6994 5.59799E-05 3.53443E-04-1.29067E-05
 -1      6995 5.59799E-05 3.53443E-04-1.58505E-05
 -1      6996 5.59799E-05 3.53443E-04-1.87942E-05
 -1      6997 5.59799E-05 3.53443E-04-2.17379E-05
 -1      6998 5.59799E-05 3.53443E-04-2.46816E-05
 -1      6999 5.59799E-05 3.53443E-04-2.76254E-05
 -1      7000 5.59799E-05 3.53443E-04-3.05691E-05
 -1      7001 5.59799E-05 3.53443E-04-3.35128E-05
 -1      7002 5.59799E-05 3.53443E-04-3.64565E-05
 -1      7003 3.56327E-04 5.64367E-05-9.96302E-06
 -1      7004 3.56327E-04 5.64367E-05-1.29067E-05
 -1      7005 3.56327E-04 5.64367E-05-1.58505E-05
 -1      7006 3.56327E-04 5.64367E-05-1.87942E-05
 -1      7007 3.56327E-04 5.64367E-05-2.17379E-05
 -1      7008 3.56327E-04 5.64367E-05-2.46816E-05
 -1      7009 3.56327E-04 5.64367E-05-2.76254E-05
 -1      7010 3.56327E-04 5.64367E-05-3.05691E-05
 -1      7011 3.56327E-04 5.64367E-05-3.35128E-05
 -1      7012 3.56327E-04 5.64367E-05-3.64565E-05
 -1      7013 3.43111E-04 1.11484E-04-9.96302E-06
 -1      7014 3.43111E-04 1.11484E-04-1.29067E-05
 -1      7015 3.43111E-04 1.11484E-04-1.58505E-05
 -1      7016 3.43111E-04 1.11484E-04-1.87942E-05
 -1      7017 3.43111E-04 1.11484E-04-2.17379E-05
 -1      7018 3.43111E-04 1.11484E-04-2.46816E-05
 -1      7019 3.43111E-04 1.11484E-04-2.76254E-05
 -1      7020 3.43111E-04 1.11484E-04-3.05691E-05
 -1      7021 3.43111E-04 1.11484E-04-3.35128E-05
 -1      7022 3.43111E-04 1.11484E-04-3.64565E-05
 -1      7023 3.21447E-04 1.63786E-04-9.96302E-06
 -1      7024 3.21447E-04 1.63786E-04-1.29067E-05
 -1      7025 3.21447E-04 1.63786E-04-1.58505E-05
 -1      7026 3.21447E-04 1.63786E-04-1.87942E-05
 -1      7027 3.21447E-04 1.63786E-04-2.17379E-05
 -1      7028 3.21447E-04 1.63786E-04-2.46816E-05
 -1      7029 3.21447E-04 1.63786E-04-2.76254E-05
 -1      7030 3.21447E-04 1.63786E-04-3.05691E-05
 -1      7031 3.21447E-04 1.63786E-04-3.35128E-05
 -1      7032 3.21447E-04 1.63786E-04-3.64565E-05
 -1      7033 2.91868E-04 2.12055E-04-9.96302E-06
 -1      7034 2.91868E-04 2.12055E-04-1.29067E-05
 -1      7035 2.91868E-04 2.12055E-04-1.58505E-05
 -1      7036 2.91868E-04 2.12055E-04-1.87942E-05
 -1      7037 2.91868E-04 2.12055E-04-2.17379E-05
 -1      7038 2.91868E-04 2.12055E-04-2.46816E-05
 -1      7039 2.91868E-04 2.12055E-04-2.76254E-05
 -1      7040 2.91868E-04 2.12055E-04-3.05691E-05
 -1      7041 2.91868E-04 2.12055E-04-3.35128E-05
 -1      7042 2.91868E-04 2.12055E-04-3.64565E-05
 -1      7043 2.55102E-04 2.55102E-04-9.96302E-06
 -1      7044 2.55102E-04 2.55102E-04-1.29067E-05
 -1      7045 2.55102E-04 2.55102E-04-1.58505E-05
 -1      7046 2.55102E-04 2.55102E-04-1.87942E-05
 -1      7047 2.55102E-04 2.55102E-04-2.17379E-05
 -1      7048 2.55102E-04 2.55102E-04-2.46816E-05
 -1      7049 2.55102E-04 2.55102E-04-2.76254E-05
 -1      7050 2.55102E-04 2.55102E-04-3.05691E-05
 -1      7051 2.55102E-04 2.55102E-04-3.35128E-05
 -1      7052 2.55102E-04 2.55102E-04-3.64565E-05
 -1      7053 2.12055E-04 2.91868E-04-9.96302E-06
 -1      7054 2.12055E-04 2.91868E-04-1.29067E-05
 -1      7055 2.12055E-04 2.91868E-04-1.58505E-05
 -1      7056 2.12055E-04 2.91868E-04-1.87942E-05
 -1      7057 2.12055E-04 2.91868E-04-2.17379E-05
 -1      7058 2.12055E-04 2.91868E-04-2.46816E-05
 -1      7059 2.12055E-04 2.91868E-04-2.76254E-05
 -1      7060 2.12055E-04 2.91868E-04-3.05691E-05
 -1      7061 2.12055E-04 2.91868E-04-3.35128E-05
 -1      7062 2.12055E-04 2.91868E-04-3.64565E-05
 -1      7063 1.63786E-04 3.21447E-04-9.96302E-06
 -1      7064 1.63786E-04 3.21447E-04-1.29067E-05
 -1      7065 1.63786E-04 3.21447E-04-1.58505E-05
 -1      7066 1.63786E-04 3.21447E-04-1.87942E-05
 -1      7067 1.63786E-04 3.21447E-04-2.17379E-05
 -1      7068 1.63786E-04 3.21447E-04-2.46816E-05
 -1      7069 1.63786E-04 3.21447E-04-2.76254E-05
 -1      7070 1.63786E-04 3.21447E-04-3.05691E-05
 -1      7071 1.63786E-04 3.21447E-04-3.35128E-05
 -1      7072 1.63786E-04 3.21447E-04-3.64565E-05
 -1      7073 1.11484E-04 3.43111E-04-9.96302E-06
 -1      7074 1.11484E-04 3.43111E-04-1.29067E-05
 -1      7075 1.11484E-04 3.43111E-04-1.58505E-05
 -1      7076 1.11484E-04 3.43111E-04-1.87942E-05
 -1      7077 1.11484E-04 3.43111E-04-2.17379E-05
 -1      7078 1.11484E-04 3.43111E-04-2.46816E-05
 -1      7079 1.11484E-04 3.43111E-04-2.76254E-05
 -1      7080 1.11484E-04 3.43111E-04-3.05691E-05
 -1      7081 1.11484E-04 3.43111E-04-3.35128E-05
 -1      7082 1.11484E-04 3.43111E-04-3.64565E-05
 -1      7083 5.64367E-05 3.56327E-04-9.96302E-06
 -1      7084 5.64367E-05 3.56327E-04-1.29067E-05
 -1      7085 5.64367E-05 3.56327E-04-1.58505E-05
 -1      7086 5.64367E-05 3.56327E-04-1.87942E-05
 -1      7087 5.64367E-05 3.56327E-04-2.17379E-05
 -1      7088 5.64367E-05 3.56327E-04-2.46816E-05
 -1      7089 5.64367E-05 3.56327E-04-2.76254E-05
 -1      7090 5.64367E-05 3.56327E-04-3.05691E-05
 -1      7091 5.64367E-05 3.56327E-04-3.35128E-05
 -1      7092 5.64367E-05 3.56327E-04-3.64565E-05
 -1      7093 3.59748E-04 5.69785E-05-9.96302E-06
 -1      7094 3.59748E-04 5.69785E-05-1.29067E-05
 -1      7095 3.59748E-04 5.69785E-05-1.58505E-05
 -1      7096 3.59748E-04 5.69785E-05-1.87942E-05
 -1      7097 3.59748E-04 5.69785E-05-2.17379E-05
 -1      7098 3.59748E-04 5.69785E-05-2.46816E-05
 -1      7099 3.59748E-04 5.69785E-05-2.76254E-05
 -1      7100 3.59748E-04 5.69785E-05-3.05691E-05
 -1      7101 3.59748E-04 5.69785E-05-3.35128E-05
 -1      7102 3.59748E-04 5.69785E-05-3.64565E-05
 -1      7103 3.46405E-04 1.12554E-04-9.96302E-06
 -1      7104 3.46405E-04 1.12554E-04-1.29067E-05
 -1      7105 3.46405E-04 1.12554E-04-1.58505E-05
 -1      7106 3.46405E-04 1.12554E-04-1.87942E-05
 -1      7107 3.46405E-04 1.12554E-04-2.17379E-05
 -1      7108 3.46405E-04 1.12554E-04-2.46816E-05
 -1      7109 3.46405E-04 1.12554E-04-2.76254E-05
 -1      7110 3.46405E-04 1.12554E-04-3.05691E-05
 -1      7111 3.46405E-04 1.12554E-04-3.35128E-05
 -1      7112 3.46405E-04 1.12554E-04-3.64565E-05
 -1      7113 3.24533E-04 1.65358E-04-9.96302E-06
 -1      7114 3.24533E-04 1.65358E-04-1.29067E-05
 -1      7115 3.24533E-04 1.65358E-04-1.58505E-05
 -1      7116 3.24533E-04 1.65358E-04-1.87942E-05
 -1      7117 3.24533E-04 1.65358E-04-2.17379E-05
 -1      7118 3.24533E-04 1.65358E-04-2.46816E-05
 -1      7119 3.24533E-04 1.65358E-04-2.76254E-05
 -1      7120 3.24533E-04 1.65358E-04-3.05691E-05
 -1      7121 3.24533E-04 1.65358E-04-3.35128E-05
 -1      7122 3.24533E-04 1.65358E-04-3.64565E-05
 -1      7123 2.94670E-04 2.14090E-04-9.96302E-06
 -1      7124 2.94670E-04 2.14090E-04-1.29067E-05
 -1      7125 2.94670E-04 2.14090E-04-1.58505E-05
 -1      7126 2.94670E-04 2.14090E-04-1.87942E-05
 -1      7127 2.94670E-04 2.14090E-04-2.17379E-05
 -1      7128 2.94670E-04 2.14090E-04-2.46816E-05
 -1      7129 2.94670E-04 2.14090E-04-2.76254E-05
 -1      7130 2.94670E-04 2.14090E-04-3.05691E-05
 -1      7131 2.94670E-04 2.14090E-04-3.35128E-05
 -1      7132 2.94670E-04 2.14090E-04-3.64565E-05
 -1      7133 2.57551E-04 2.57551E-04-9.96302E-06
 -1      7134 2.57551E-04 2.57551E-04-1.29067E-05
 -1      7135 2.57551E-04 2.57551E-04-1.58505E-05
 -1      7136 2.57551E-04 2.57551E-04-1.87942E-05
 -1      7137 2.57551E-04 2.57551E-04-2.17379E-05
 -1      7138 2.57551E-04 2.57551E-04-2.46816E-05
 -1      7139 2.57551E-04 2.57551E-04-2.76254E-05
 -1      7140 2.57551E-04 2.57551E-04-3.05691E-05
 -1      7141 2.57551E-04 2.57551E-04-3.35128E-05
 -1      7142 2.57551E-04 2.57551E-04-3.64565E-05
 -1      7143 2.14090E-04 2.94670E-04-9.96302E-06
 -1      7144 2.14090E-04 2.94670E-04-1.29067E-05
 -1      7145 2.14090E-04 2.94670E-04-1.58505E-05
 -1      7146 2.14090E-04 2.94670E-04-1.87942E-05
 -1      7147 2.14090E-04 2.94670E-04-2.17379E-05
 -1      7148 2.14090E-04 2.94670E-04-2.46816E-05
 -1      7149 2.14090E-04 2.94670E-04-2.76254E-05
 -1      7150 2.14090E-04 2.94670E-04-3.05691E-05
 -1      7151 2.14090E-04 2.94670E-04-3.35128E-05
 -1      7152 2.14090E-04 2.94670E-04-3.64565E-05
 -1      7153 1.65358E-04 3.24533E-04-9.96302E-06
 -1      7154 1.65358E-04 3.24533E-04-1.29067E-05
 -1      7155 1.65358E-04 3.24533E-04-1.58505E-05
 -1      7156 1.65358E-04 3.24533E-04-1.87942E-05
 -1      7157 1.65358E-04 3.24533E-04-2.17379E-05
 -1      7158 1.65358E-04 3.24533E-04-2.46816E-05
 -1      7159 1.65358E-04 3.24533E-04-2.76254E-05
 -1      7160 1.65358E-04 3.24533E-04-3.05691E-05
 -1      7161 1.65358E-04 3.24533E-04-3.35128E-05
 -1      7162 1.65358E-04 3.24533E-04-3.64565E-05
 -1      7163 1.12554E-04 3.46405E-04-9.96302E-06
 -1      7164 1.12554E-04 3.46405E-04-1.29067E-05
 -1      7165 1.12554E-04 3.46405E-04-1.58505E-05
 -1      7166 1.12554E-04 3.46405E-04-1.87942E-05
 -1      7167 1.12554E-04 3.46405E-04-2.17379E-05
 -1      7168 1.12554E-04 3.46405E-04-2.46816E-05
 -1      7169 1.12554E-04 3.46405E-04-2.76254E-05
 -1      7170 1.12554E-04 3.46405E-04-3.05691E-05
 -1      7171 1.12554E-04 3.46405E-04-3.35128E-05
 -1      7172 1.12554E-04 3.46405E-04-3.64565E-05
 -1      7173 5.69785E-05 3.59748E-04-9.96302E-06
 -1      7174 5.69785E-05 3.59748E-04-1.29067E-05
 -1      7175 5.69785E-05 3.59748E-04-1.58505E-05
 -1      7176 5.69785E-05 3.59748E-04-1.87942E-05
 -1      7177 5.69785E-05 3.59748E-04-2.17379E-05
 -1      7178 5.69785E-05 3.59748E-04-2.46816E-05
 -1      7179 5.69785E-05 3.59748E-04-2.76254E-05
 -1      7180 5.69785E-05 3.59748E-04-3.05691E-05
 -1      7181 5.69785E-05 3.59748E-04-3.35128E-05
 -1      7182 5.69785E-05 3.59748E-04-3.64565E-05
 -1      7183 3.63641E-04 5.75951E-05-9.96302E-06
 -1      7184 3.63641E-04 5.75951E-05-1.29067E-05
 -1      7185 3.63641E-04 5.75951E-05-1.58505E-05
 -1      7186 3.63641E-04 5.75951E-05-1.87942E-05
 -1      7187 3.63641E-04 5.75951E-05-2.17379E-05
 -1      7188 3.63641E-04 5.75951E-05-2.46816E-05
 -1      7189 3.63641E-04 5.75951E-05-2.76254E-05
 -1      7190 3.63641E-04 5.75951E-05-3.05691E-05
 -1      7191 3.63641E-04 5.75951E-05-3.35128E-05
 -1      7192 3.63641E-04 5.75951E-05-3.64565E-05
 -1      7193 3.50154E-04 1.13772E-04-9.96302E-06
 -1      7194 3.50154E-04 1.13772E-04-1.29067E-05
 -1      7195 3.50154E-04 1.13772E-04-1.58505E-05
 -1      7196 3.50154E-04 1.13772E-04-1.87942E-05
 -1      7197 3.50154E-04 1.13772E-04-2.17379E-05
 -1      7198 3.50154E-04 1.13772E-04-2.46816E-05
 -1      7199 3.50154E-04 1.13772E-04-2.76254E-05
 -1      7200 3.50154E-04 1.13772E-04-3.05691E-05
 -1      7201 3.50154E-04 1.13772E-04-3.35128E-05
 -1      7202 3.50154E-04 1.13772E-04-3.64565E-05
 -1      7203 3.28045E-04 1.67147E-04-9.96302E-06
 -1      7204 3.28045E-04 1.67147E-04-1.29067E-05
 -1      7205 3.28045E-04 1.67147E-04-1.58505E-05
 -1      7206 3.28045E-04 1.67147E-04-1.87942E-05
 -1      7207 3.28045E-04 1.67147E-04-2.17379E-05
 -1      7208 3.28045E-04 1.67147E-04-2.46816E-05
 -1      7209 3.28045E-04 1.67147E-04-2.76254E-05
 -1      7210 3.28045E-04 1.67147E-04-3.05691E-05
 -1      7211 3.28045E-04 1.67147E-04-3.35128E-05
 -1      7212 3.28045E-04 1.67147E-04-3.64565E-05
 -1      7213 2.97859E-04 2.16407E-04-9.96302E-06
 -1      7214 2.97859E-04 2.16407E-04-1.29067E-05
 -1      7215 2.97859E-04 2.16407E-04-1.58505E-05
 -1      7216 2.97859E-04 2.16407E-04-1.87942E-05
 -1      7217 2.97859E-04 2.16407E-04-2.17379E-05
 -1      7218 2.97859E-04 2.16407E-04-2.46816E-05
 -1      7219 2.97859E-04 2.16407E-04-2.76254E-05
 -1      7220 2.97859E-04 2.16407E-04-3.05691E-05
 -1      7221 2.97859E-04 2.16407E-04-3.35128E-05
 -1      7222 2.97859E-04 2.16407E-04-3.64565E-05
 -1      7223 2.60338E-04 2.60338E-04-9.96302E-06
 -1      7224 2.60338E-04 2.60338E-04-1.29067E-05
 -1      7225 2.60338E-04 2.60338E-04-1.58505E-05
 -1      7226 2.60338E-04 2.60338E-04-1.87942E-05
 -1      7227 2.60338E-04 2.60338E-04-2.17379E-05
 -1      7228 2.60338E-04 2.60338E-04-2.46816E-05
 -1      7229 2.60338E-04 2.60338E-04-2.76254E-05
 -1      7230 2.60338E-04 2.60338E-04-3.05691E-05
 -1      7231 2.60338E-04 2.60338E-04-3.35128E-05
 -1      7232 2.60338E-04 2.60338E-04-3.64565E-05
 -1      7233 2.16407E-04 2.97859E-04-9.96302E-06
 -1      7234 2.16407E-04 2.97859E-04-1.29067E-05
 -1      7235 2.16407E-04 2.97859E-04-1.58505E-05
 -1      7236 2.16407E-04 2.97859E-04-1.87942E-05
 -1      7237 2.16407E-04 2.97859E-04-2.17379E-05
 -1      7238 2.16407E-04 2.97859E-04-2.46816E-05
 -1      7239 2.16407E-04 2.97859E-04-2.76254E-05
 -1      7240 2.16407E-04 2.97859E-04-3.05691E-05
 -1      7241 2.16407E-04 2.97859E-04-3.35128E-05
 -1      7242 2.16407E-04 2.97859E-04-3.64565E-05
 -1      7243 1.67147E-04 3.28045E-04-9.96302E-06
 -1      7244 1.67147E-04 3.28045E-04-1.29067E-05
 -1      7245 1.67147E-04 3.28045E-04-1.58505E-05
 -1      7246 1.67147E-04 3.28045E-04-1.87942E-05
 -1      7247 1.67147E-04 3.28045E-04-2.17379E-05
 -1      7248 1.67147E-04 3.28045E-04-2.46816E-05
 -1      7249 1.67147E-04 3.28045E-04-2.76254E-05
 -1      7250 1.67147E-04 3.28045E-04-3.05691E-05
 -1      7251 1.67147E-04 3.28045E-04-3.35128E-05
 -1      7252 1.67147E-04 3.28045E-04-3.64565E-05
 -1      7253 1.13772E-04 3.50154E-04-9.96302E-06
 -1      7254 1.13772E-04 3.50154E-04-1.29067E-05
 -1      7255 1.13772E-04 3.50154E-04-1.58505E-05
 -1      7256 1.13772E-04 3.50154E-04-1.87942E-05
 -1      7257 1.13772E-04 3.50154E-04-2.17379E-05
 -1      7258 1.13772E-04 3.50154E-04-2.46816E-05
 -1      7259 1.13772E-04 3.50154E-04-2.76254E-05
 -1      7260 1.13772E-04 3.50154E-04-3.05691E-05
 -1      7261 1.13772E-04 3.50154E-04-3.35128E-05
 -1      7262 1.13772E-04 3.50154E-04-3.64565E-05
 -1      7263 5.75951E-05 3.63641E-04-9.96302E-06
 -1      7264 5.75951E-05 3.63641E-04-1.29067E-05
 -1      7265 5.75951E-05 3.63641E-04-1.58505E-05
 -1      7266 5.75951E-05 3.63641E-04-1.87942E-05
 -1      7267 5.75951E-05 3.63641E-04-2.17379E-05
 -1      7268 5.75951E-05 3.63641E-04-2.46816E-05
 -1      7269 5.75951E-05 3.63641E-04-2.76254E-05
 -1      7270 5.75951E-05 3.63641E-04-3.05691E-05
 -1      7271 5.75951E-05 3.63641E-04-3.35128E-05
 -1      7272 5.75951E-05 3.63641E-04-3.64565E-05
 -1      7273 3.67952E-04 5.82779E-05-9.96302E-06
 -1      7274 3.67952E-04 5.82779E-05-1.29067E-05
 -1      7275 3.67952E-04 5.82779E-05-1.58505E-05
 -1      7276 3.67952E-04 5.82779E-05-1.87942E-05
 -1      7277 3.67952E-04 5.82779E-05-2.17379E-05
 -1      7278 3.67952E-04 5.82779E-05-2.46816E-05
 -1      7279 3.67952E-04 5.82779E-05-2.76254E-05
 -1      7280 3.67952E-04 5.82779E-05-3.05691E-05
 -1      7281 3.67952E-04 5.82779E-05-3.35128E-05
 -1      7282 3.67952E-04 5.82779E-05-3.64565E-05
 -1      7283 3.54306E-04 1.15121E-04-9.96302E-06
 -1      7284 3.54306E-04 1.15121E-04-1.29067E-05
 -1      7285 3.54306E-04 1.15121E-04-1.58505E-05
 -1      7286 3.54306E-04 1.15121E-04-1.87942E-05
 -1      7287 3.54306E-04 1.15121E-04-2.17379E-05
 -1      7288 3.54306E-04 1.15121E-04-2.46816E-05
 -1      7289 3.54306E-04 1.15121E-04-2.76254E-05
 -1      7290 3.54306E-04 1.15121E-04-3.05691E-05
 -1      7291 3.54306E-04 1.15121E-04-3.35128E-05
 -1      7292 3.54306E-04 1.15121E-04-3.64565E-05
 -1      7293 3.31935E-04 1.69129E-04-9.96302E-06
 -1      7294 3.31935E-04 1.69129E-04-1.29067E-05
 -1      7295 3.31935E-04 1.69129E-04-1.58505E-05
 -1      7296 3.31935E-04 1.69129E-04-1.87942E-05
 -1      7297 3.31935E-04 1.69129E-04-2.17379E-05
 -1      7298 3.31935E-04 1.69129E-04-2.46816E-05
 -1      7299 3.31935E-04 1.69129E-04-2.76254E-05
 -1      7300 3.31935E-04 1.69129E-04-3.05691E-05
 -1      7301 3.31935E-04 1.69129E-04-3.35128E-05
 -1      7302 3.31935E-04 1.69129E-04-3.64565E-05
 -1      7303 3.01390E-04 2.18973E-04-9.96302E-06
 -1      7304 3.01390E-04 2.18973E-04-1.29067E-05
 -1      7305 3.01390E-04 2.18973E-04-1.58505E-05
 -1      7306 3.01390E-04 2.18973E-04-1.87942E-05
 -1      7307 3.01390E-04 2.18973E-04-2.17379E-05
 -1      7308 3.01390E-04 2.18973E-04-2.46816E-05
 -1      7309 3.01390E-04 2.18973E-04-2.76254E-05
 -1      7310 3.01390E-04 2.18973E-04-3.05691E-05
 -1      7311 3.01390E-04 2.18973E-04-3.35128E-05
 -1      7312 3.01390E-04 2.18973E-04-3.64565E-05
 -1      7313 2.63425E-04 2.63425E-04-9.96302E-06
 -1      7314 2.63425E-04 2.63425E-04-1.29067E-05
 -1      7315 2.63425E-04 2.63425E-04-1.58505E-05
 -1      7316 2.63425E-04 2.63425E-04-1.87942E-05
 -1      7317 2.63425E-04 2.63425E-04-2.17379E-05
 -1      7318 2.63425E-04 2.63425E-04-2.46816E-05
 -1      7319 2.63425E-04 2.63425E-04-2.76254E-05
 -1      7320 2.63425E-04 2.63425E-04-3.05691E-05
 -1      7321 2.63425E-04 2.63425E-04-3.35128E-05
 -1      7322 2.63425E-04 2.63425E-04-3.64565E-05
 -1      7323 2.18973E-04 3.01390E-04-9.96302E-06
 -1      7324 2.18973E-04 3.01390E-04-1.29067E-05
 -1      7325 2.18973E-04 3.01390E-04-1.58505E-05
 -1      7326 2.18973E-04 3.01390E-04-1.87942E-05
 -1      7327 2.18973E-04 3.01390E-04-2.17379E-05
 -1      7328 2.18973E-04 3.01390E-04-2.46816E-05
 -1      7329 2.18973E-04 3.01390E-04-2.76254E-05
 -1      7330 2.18973E-04 3.01390E-04-3.05691E-05
 -1      7331 2.18973E-04 3.01390E-04-3.35128E-05
 -1      7332 2.18973E-04 3.01390E-04-3.64565E-05
 -1      7333 1.69129E-04 3.31935E-04-9.96302E-06
 -1      7334 1.69129E-04 3.31935E-04-1.29067E-05
 -1      7335 1.69129E-04 3.31935E-04-1.58505E-05
 -1      7336 1.69129E-04 3.31935E-04-1.87942E-05
 -1      7337 1.69129E-04 3.31935E-04-2.17379E-05
 -1      7338 1.69129E-04 3.31935E-04-2.46816E-05
 -1      7339 1.69129E-04 3.31935E-04-2.76254E-05
 -1      7340 1.69129E-04 3.31935E-04-3.05691E-05
 -1      7341 1.69129E-04 3.31935E-04-3.35128E-05
 -1      7342 1.69129E-04 3.31935E-04-3.64565E-05
 -1      7343 1.15121E-04 3.54306E-04-9.96302E-06
 -1      7344 1.15121E-04 3.54306E-04-1.29067E-05
 -1      7345 1.15121E-04 3.54306E-04-1.58505E-05
 -1      7346 1.15121E-04 3.54306E-04-1.87942E-05
 -1      7347 1.15121E-04 3.54306E-04-2.17379E-05
 -1      7348 1.15121E-04 3.54306E-04-2.46816E-05
 -1      7349 1.15121E-04 3.54306E-04-2.76254E-05
 -1      7350 1.15121E-04 3.54306E-04-3.05691E-05
 -1      7351 1.15121E-04 3.54306E-04-3.35128E-05
 -1      7352 1.15121E-04 3.54306E-04-3.64565E-05
 -1      7353 5.82779E-05 3.67952E-04-9.96302E-06
 -1      7354 5.82779E-05 3.67952E-04-1.29067E-05
 -1      7355 5.82779E-05 3.67952E-04-1.58505E-05
 -1      7356 5.82779E-05 3.67952E-04-1.87942E-05
 -1      7357 5.82779E-05 3.67952E-04-2.17379E-05
 -1      7358 5.82779E-05 3.67952E-04-2.46816E-05
 -1      7359 5.82779E-05 3.67952E-04-2.76254E-05
 -1      7360 5.82779E-05 3.67952E-04-3.05691E-05
 -1      7361 5.82779E-05 3.67952E-04-3.35128E-05
 -1      7362 5.82779E-05 3.67952E-04-3.64565E-05
 -1      7363 3.72635E-04 5.90196E-05-9.96302E-06
 -1      7364 3.72635E-04 5.90196E-05-1.29067E-05
 -1      7365 3.72635E-04 5.90196E-05-1.58505E-05
 -1      7366 3.72635E-04 5.90196E-05-1.87942E-05
 -1      7367 3.72635E-04 5.90196E-05-2.17379E-05
 -1      7368 3.72635E-04 5.90196E-05-2.46816E-05
 -1      7369 3.72635E-04 5.90196E-05-2.76254E-05
 -1      7370 3.72635E-04 5.90196E-05-3.05691E-05
 -1      7371 3.72635E-04 5.90196E-05-3.35128E-05
 -1      7372 3.72635E-04 5.90196E-05-3.64565E-05
 -1      7373 3.58815E-04 1.16586E-04-9.96302E-06
 -1      7374 3.58815E-04 1.16586E-04-1.29067E-05
 -1      7375 3.58815E-04 1.16586E-04-1.58505E-05
 -1      7376 3.58815E-04 1.16586E-04-1.87942E-05
 -1      7377 3.58815E-04 1.16586E-04-2.17379E-05
 -1      7378 3.58815E-04 1.16586E-04-2.46816E-05
 -1      7379 3.58815E-04 1.16586E-04-2.76254E-05
 -1      7380 3.58815E-04 1.16586E-04-3.05691E-05
 -1      7381 3.58815E-04 1.16586E-04-3.35128E-05
 -1      7382 3.58815E-04 1.16586E-04-3.64565E-05
 -1      7383 3.36159E-04 1.71282E-04-9.96302E-06
 -1      7384 3.36159E-04 1.71282E-04-1.29067E-05
 -1      7385 3.36159E-04 1.71282E-04-1.58505E-05
 -1      7386 3.36159E-04 1.71282E-04-1.87942E-05
 -1      7387 3.36159E-04 1.71282E-04-2.17379E-05
 -1      7388 3.36159E-04 1.71282E-04-2.46816E-05
 -1      7389 3.36159E-04 1.71282E-04-2.76254E-05
 -1      7390 3.36159E-04 1.71282E-04-3.05691E-05
 -1      7391 3.36159E-04 1.71282E-04-3.35128E-05
 -1      7392 3.36159E-04 1.71282E-04-3.64565E-05
 -1      7393 3.05226E-04 2.21760E-04-9.96302E-06
 -1      7394 3.05226E-04 2.21760E-04-1.29067E-05
 -1      7395 3.05226E-04 2.21760E-04-1.58505E-05
 -1      7396 3.05226E-04 2.21760E-04-1.87942E-05
 -1      7397 3.05226E-04 2.21760E-04-2.17379E-05
 -1      7398 3.05226E-04 2.21760E-04-2.46816E-05
 -1      7399 3.05226E-04 2.21760E-04-2.76254E-05
 -1      7400 3.05226E-04 2.21760E-04-3.05691E-05
 -1      7401 3.05226E-04 2.21760E-04-3.35128E-05
 -1      7402 3.05226E-04 2.21760E-04-3.64565E-05
 -1      7403 2.66777E-04 2.66777E-04-9.96302E-06
 -1      7404 2.66777E-04 2.66777E-04-1.29067E-05
 -1      7405 2.66777E-04 2.66777E-04-1.58505E-05
 -1      7406 2.66777E-04 2.66777E-04-1.87942E-05
 -1      7407 2.66777E-04 2.66777E-04-2.17379E-05
 -1      7408 2.66777E-04 2.66777E-04-2.46816E-05
 -1      7409 2.66777E-04 2.66777E-04-2.76254E-05
 -1      7410 2.66777E-04 2.66777E-04-3.05691E-05
 -1      7411 2.66777E-04 2.66777E-04-3.35128E-05
 -1      7412 2.66777E-04 2.66777E-04-3.64565E-05
 -1      7413 2.21760E-04 3.05226E-04-9.96302E-06
 -1      7414 2.21760E-04 3.05226E-04-1.29067E-05
 -1      7415 2.21760E-04 3.05226E-04-1.58505E-05
 -1      7416 2.21760E-04 3.05226E-04-1.87942E-05
 -1      7417 2.21760E-04 3.05226E-04-2.17379E-05
 -1      7418 2.21760E-04 3.05226E-04-2.46816E-05
 -1      7419 2.21760E-04 3.05226E-04-2.76254E-05
 -1      7420 2.21760E-04 3.05226E-04-3.05691E-05
 -1      7421 2.21760E-04 3.05226E-04-3.35128E-05
 -1      7422 2.21760E-04 3.05226E-04-3.64565E-05
 -1      7423 1.71282E-04 3.36159E-04-9.96302E-06
 -1      7424 1.71282E-04 3.36159E-04-1.29067E-05
 -1      7425 1.71282E-04 3.36159E-04-1.58505E-05
 -1      7426 1.71282E-04 3.36159E-04-1.87942E-05
 -1      7427 1.71282E-04 3.36159E-04-2.17379E-05
 -1      7428 1.71282E-04 3.36159E-04-2.46816E-05
 -1      7429 1.71282E-04 3.36159E-04-2.76254E-05
 -1      7430 1.71282E-04 3.36159E-04-3.05691E-05
 -1      7431 1.71282E-04 3.36159E-04-3.35128E-05
 -1      7432 1.71282E-04 3.36159E-04-3.64565E-05
 -1      7433 1.16586E-04 3.58815E-04-9.96302E-06
 -1      7434 1.16586E-04 3.58815E-04-1.29067E-05
 -1      7435 1.16586E-04 3.58815E-04-1.58505E-05
 -1      7436 1.16586E-04 3.58815E-04-1.87942E-05
 -1      7437 1.16586E-04 3.58815E-04-2.17379E-05
 -1      7438 1.16586E-04 3.58815E-04-2.46816E-05
 -1      7439 1.16586E-04 3.58815E-04-2.76254E-05
 -1      7440 1.16586E-04 3.58815E-04-3.05691E-05
 -1      7441 1.16586E-04 3.58815E-04-3.35128E-05
 -1      7442 1.16586E-04 3.58815E-04-3.64565E-05
 -1      7443 5.90196E-05 3.72635E-04-9.96302E-06
 -1      7444 5.90196E-05 3.72635E-04-1.29067E-05
 -1      7445 5.90196E-05 3.72635E-04-1.58505E-05
 -1      7446 5.90196E-05 3.72635E-04-1.87942E-05
 -1      7447 5.90196E-05 3.72635E-04-2.17379E-05
 -1      7448 5.90196E-05 3.72635E-04-2.46816E-05
 -1      7449 5.90196E-05 3.72635E-04-2.76254E-05
 -1      7450 5.90196E-05 3.72635E-04-3.05691E-05
 -1      7451 5.90196E-05 3.72635E-04-3.35128E-05
 -1      7452 5.90196E-05 3.72635E-04-3.64565E-05
 -1      7453 3.77650E-04 5.98139E-05-9.96302E-06
 -1      7454 3.77650E-04 5.98139E-05-1.29067E-05
 -1      7455 3.77650E-04 5.98139E-05-1.58505E-05
 -1      7456 3.77650E-04 5.98139E-05-1.87942E-05
 -1      7457 3.77650E-04 5.98139E-05-2.17379E-05
 -1      7458 3.77650E-04 5.98139E-05-2.46816E-05
 -1      7459 3.77650E-04 5.98139E-05-2.76254E-05
 -1      7460 3.77650E-04 5.98139E-05-3.05691E-05
 -1      7461 3.77650E-04 5.98139E-05-3.35128E-05
 -1      7462 3.77650E-04 5.98139E-05-3.64565E-05
 -1      7463 3.63644E-04 1.18155E-04-9.96302E-06
 -1      7464 3.63644E-04 1.18155E-04-1.29067E-05
 -1      7465 3.63644E-04 1.18155E-04-1.58505E-05
 -1      7466 3.63644E-04 1.18155E-04-1.87942E-05
 -1      7467 3.63644E-04 1.18155E-04-2.17379E-05
 -1      7468 3.63644E-04 1.18155E-04-2.46816E-05
 -1      7469 3.63644E-04 1.18155E-04-2.76254E-05
 -1      7470 3.63644E-04 1.18155E-04-3.05691E-05
 -1      7471 3.63644E-04 1.18155E-04-3.35128E-05
 -1      7472 3.63644E-04 1.18155E-04-3.64565E-05
 -1      7473 3.40683E-04 1.73587E-04-9.96302E-06
 -1      7474 3.40683E-04 1.73587E-04-1.29067E-05
 -1      7475 3.40683E-04 1.73587E-04-1.58505E-05
 -1      7476 3.40683E-04 1.73587E-04-1.87942E-05
 -1      7477 3.40683E-04 1.73587E-04-2.17379E-05
 -1      7478 3.40683E-04 1.73587E-04-2.46816E-05
 -1      7479 3.40683E-04 1.73587E-04-2.76254E-05
 -1      7480 3.40683E-04 1.73587E-04-3.05691E-05
 -1      7481 3.40683E-04 1.73587E-04-3.35128E-05
 -1      7482 3.40683E-04 1.73587E-04-3.64565E-05
 -1      7483 3.09334E-04 2.24744E-04-9.96302E-06
 -1      7484 3.09334E-04 2.24744E-04-1.29067E-05
 -1      7485 3.09334E-04 2.24744E-04-1.58505E-05
 -1      7486 3.09334E-04 2.24744E-04-1.87942E-05
 -1      7487 3.09334E-04 2.24744E-04-2.17379E-05
 -1      7488 3.09334E-04 2.24744E-04-2.46816E-05
 -1      7489 3.09334E-04 2.24744E-04-2.76254E-05
 -1      7490 3.09334E-04 2.24744E-04-3.05691E-05
 -1      7491 3.09334E-04 2.24744E-04-3.35128E-05
 -1      7492 3.09334E-04 2.24744E-04-3.64565E-05
 -1      7493 2.70368E-04 2.70368E-04-9.96302E-06
 -1      7494 2.70368E-04 2.70368E-04-1.29067E-05
 -1      7495 2.70368E-04 2.70368E-04-1.58505E-05
 -1      7496 2.70368E-04 2.70368E-04-1.87942E-05
 -1      7497 2.70368E-04 2.70368E-04-2.17379E-05
 -1      7498 2.70368E-04 2.70368E-04-2.46816E-05
 -1      7499 2.70368E-04 2.70368E-04-2.76254E-05
 -1      7500 2.70368E-04 2.70368E-04-3.05691E-05
 -1      7501 2.70368E-04 2.70368E-04-3.35128E-05
 -1      7502 2.70368E-04 2.70368E-04-3.64565E-05
 -1      7503 2.24744E-04 3.09334E-04-9.96302E-06
 -1      7504 2.24744E-04 3.09334E-04-1.29067E-05
 -1      7505 2.24744E-04 3.09334E-04-1.58505E-05
 -1      7506 2.24744E-04 3.09334E-04-1.87942E-05
 -1      7507 2.24744E-04 3.09334E-04-2.17379E-05
 -1      7508 2.24744E-04 3.09334E-04-2.46816E-05
 -1      7509 2.24744E-04 3.09334E-04-2.76254E-05
 -1      7510 2.24744E-04 3.09334E-04-3.05691E-05
 -1      7511 2.24744E-04 3.09334E-04-3.35128E-05
 -1      7512 2.24744E-04 3.09334E-04-3.64565E-05
 -1      7513 1.73587E-04 3.40683E-04-9.96302E-06
 -1      7514 1.73587E-04 3.40683E-04-1.29067E-05
 -1      7515 1.73587E-04 3.40683E-04-1.58505E-05
 -1      7516 1.73587E-04 3.40683E-04-1.87942E-05
 -1      7517 1.73587E-04 3.40683E-04-2.17379E-05
 -1      7518 1.73587E-04 3.40683E-04-2.46816E-05
 -1      7519 1.73587E-04 3.40683E-04-2.76254E-05
 -1      7520 1.73587E-04 3.40683E-04-3.05691E-05
 -1      7521 1.73587E-04 3.40683E-04-3.35128E-05
 -1      7522 1.73587E-04 3.40683E-04-3.64565E-05
 -1      7523 1.18155E-04 3.63644E-04-9.96302E-06
 -1      7524 1.18155E-04 3.63644E-04-1.29067E-05
 -1      7525 1.18155E-04 3.63644E-04-1.58505E-05
 -1      7526 1.18155E-04 3.63644E-04-1.87942E-05
 -1      7527 1.18155E-04 3.63644E-04-2.17379E-05
 -1      7528 1.18155E-04 3.63644E-04-2.46816E-05
 -1      7529 1.18155E-04 3.63644E-04-2.76254E-05
 -1      7530 1.18155E-04 3.63644E-04-3.05691E-05
 -1      7531 1.18155E-04 3.63644E-04-3.35128E-05
 -1      7532 1.18155E-04 3.63644E-04-3.64565E-05
 -1      7533 5.98139E-05 3.77650E-04-9.96302E-06
 -1      7534 5.98139E-05 3.77650E-04-1.29067E-05
 -1      7535 5.98139E-05 3.77650E-04-1.58505E-05
 -1      7536 5.98139E-05 3.77650E-04-1.87942E-05
 -1      7537 5.98139E-05 3.77650E-04-2.17379E-05
 -1      7538 5.98139E-05 3.77650E-04-2.46816E-05
 -1      7539 5.98139E-05 3.77650E-04-2.76254E-05
 -1      7540 5.98139E-05 3.77650E-04-3.05691E-05
 -1      7541 5.98139E-05 3.77650E-04-3.35128E-05
 -1      7542 5.98139E-05 3.77650E-04-3.64565E-05
 -1      7543 3.82962E-04 6.06553E-05-9.96302E-06
 -1      7544 3.82962E-04 6.06553E-05-1.29067E-05
 -1      7545 3.82962E-04 6.06553E-05-1.58505E-05
 -1      7546 3.82962E-04 6.06553E-05-1.87942E-05
 -1      7547 3.82962E-04 6.06553E-05-2.17379E-05
 -1      7548 3.82962E-04 6.06553E-05-2.46816E-05
 -1      7549 3.82962E-04 6.06553E-05-2.76254E-05
 -1      7550 3.82962E-04 6.06553E-05-3.05691E-05
 -1      7551 3.82962E-04 6.06553E-05-3.35128E-05
 -1      7552 3.82962E-04 6.06553E-05-3.64565E-05
 -1      7553 3.68759E-04 1.19817E-04-9.96302E-06
 -1      7554 3.68759E-04 1.19817E-04-1.29067E-05
 -1      7555 3.68759E-04 1.19817E-04-1.58505E-05
 -1      7556 3.68759E-04 1.19817E-04-1.87942E-05
 -1      7557 3.68759E-04 1.19817E-04-2.17379E-05
 -1      7558 3.68759E-04 1.19817E-04-2.46816E-05
 -1      7559 3.68759E-04 1.19817E-04-2.76254E-05
 -1      7560 3.68759E-04 1.19817E-04-3.05691E-05
 -1      7561 3.68759E-04 1.19817E-04-3.35128E-05
 -1      7562 3.68759E-04 1.19817E-04-3.64565E-05
 -1      7563 3.45475E-04 1.76029E-04-9.96302E-06
 -1      7564 3.45475E-04 1.76029E-04-1.29067E-05
 -1      7565 3.45475E-04 1.76029E-04-1.58505E-05
 -1      7566 3.45475E-04 1.76029E-04-1.87942E-05
 -1      7567 3.45475E-04 1.76029E-04-2.17379E-05
 -1      7568 3.45475E-04 1.76029E-04-2.46816E-05
 -1      7569 3.45475E-04 1.76029E-04-2.76254E-05
 -1      7570 3.45475E-04 1.76029E-04-3.05691E-05
 -1      7571 3.45475E-04 1.76029E-04-3.35128E-05
 -1      7572 3.45475E-04 1.76029E-04-3.64565E-05
 -1      7573 3.13685E-04 2.27906E-04-9.96302E-06
 -1      7574 3.13685E-04 2.27906E-04-1.29067E-05
 -1      7575 3.13685E-04 2.27906E-04-1.58505E-05
 -1      7576 3.13685E-04 2.27906E-04-1.87942E-05
 -1      7577 3.13685E-04 2.27906E-04-2.17379E-05
 -1      7578 3.13685E-04 2.27906E-04-2.46816E-05
 -1      7579 3.13685E-04 2.27906E-04-2.76254E-05
 -1      7580 3.13685E-04 2.27906E-04-3.05691E-05
 -1      7581 3.13685E-04 2.27906E-04-3.35128E-05
 -1      7582 3.13685E-04 2.27906E-04-3.64565E-05
 -1      7583 2.74171E-04 2.74171E-04-9.96302E-06
 -1      7584 2.74171E-04 2.74171E-04-1.29067E-05
 -1      7585 2.74171E-04 2.74171E-04-1.58505E-05
 -1      7586 2.74171E-04 2.74171E-04-1.87942E-05
 -1      7587 2.74171E-04 2.74171E-04-2.17379E-05
 -1      7588 2.74171E-04 2.74171E-04-2.46816E-05
 -1      7589 2.74171E-04 2.74171E-04-2.76254E-05
 -1      7590 2.74171E-04 2.74171E-04-3.05691E-05
 -1      7591 2.74171E-04 2.74171E-04-3.35128E-05
 -1      7592 2.74171E-04 2.74171E-04-3.64565E-05
 -1      7593 2.27906E-04 3.13685E-04-9.96302E-06
 -1      7594 2.27906E-04 3.13685E-04-1.29067E-05
 -1      7595 2.27906E-04 3.13685E-04-1.58505E-05
 -1      7596 2.27906E-04 3.13685E-04-1.87942E-05
 -1      7597 2.27906E-04 3.13685E-04-2.17379E-05
 -1      7598 2.27906E-04 3.13685E-04-2.46816E-05
 -1      7599 2.27906E-04 3.13685E-04-2.76254E-05
 -1      7600 2.27906E-04 3.13685E-04-3.05691E-05
 -1      7601 2.27906E-04 3.13685E-04-3.35128E-05
 -1      7602 2.27906E-04 3.13685E-04-3.64565E-05
 -1      7603 1.76028E-04 3.45475E-04-9.96302E-06
 -1      7604 1.76028E-04 3.45475E-04-1.29067E-05
 -1      7605 1.76028E-04 3.45475E-04-1.58505E-05
 -1      7606 1.76028E-04 3.45475E-04-1.87942E-05
 -1      7607 1.76028E-04 3.45475E-04-2.17379E-05
 -1      7608 1.76028E-04 3.45475E-04-2.46816E-05
 -1      7609 1.76028E-04 3.45475E-04-2.76254E-05
 -1      7610 1.76028E-04 3.45475E-04-3.05691E-05
 -1      7611 1.76028E-04 3.45475E-04-3.35128E-05
 -1      7612 1.76028E-04 3.45475E-04-3.64565E-05
 -1      7613 1.19817E-04 3.68759E-04-9.96302E-06
 -1      7614 1.19817E-04 3.68759E-04-1.29067E-05
 -1      7615 1.19817E-04 3.68759E-04-1.58505E-05
 -1      7616 1.19817E-04 3.68759E-04-1.87942E-05
 -1      7617 1.19817E-04 3.68759E-04-2.17379E-05
 -1      7618 1.19817E-04 3.68759E-04-2.46816E-05
 -1      7619 1.19817E-04 3.68759E-04-2.76254E-05
 -1      7620 1.19817E-04 3.68759E-04-3.05691E-05
 -1      7621 1.19817E-04 3.68759E-04-3.35128E-05
 -1      7622 1.19817E-04 3.68759E-04-3.64565E-05
 -1      7623 6.06553E-05 3.82962E-04-9.96302E-06
 -1      7624 6.06553E-05 3.82962E-04-1.29067E-05
 -1      7625 6.06553E-05 3.82962E-04-1.58505E-05
 -1      7626 6.06553E-05 3.82962E-04-1.87942E-05
 -1      7627 6.06553E-05 3.82962E-04-2.17379E-05
 -1      7628 6.06553E-05 3.82962E-04-2.46816E-05
 -1      7629 6.06553E-05 3.82962E-04-2.76254E-05
 -1      7630 6.06553E-05 3.82962E-04-3.05691E-05
 -1      7631 6.06553E-05 3.82962E-04-3.35128E-05
 -1      7632 6.06553E-05 3.82962E-04-3.64565E-05
 -1      7633 3.88542E-04 6.15391E-05-9.96302E-06
 -1      7634 3.88542E-04 6.15391E-05-1.29067E-05
 -1      7635 3.88542E-04 6.15391E-05-1.58505E-05
 -1      7636 3.88542E-04 6.15391E-05-1.87942E-05
 -1      7637 3.88542E-04 6.15391E-05-2.17379E-05
 -1      7638 3.88542E-04 6.15391E-05-2.46816E-05
 -1      7639 3.88542E-04 6.15391E-05-2.76254E-05
 -1      7640 3.88542E-04 6.15391E-05-3.05691E-05
 -1      7641 3.88542E-04 6.15391E-05-3.35128E-05
 -1      7642 3.88542E-04 6.15391E-05-3.64565E-05
 -1      7643 3.74132E-04 1.21563E-04-9.96302E-06
 -1      7644 3.74132E-04 1.21563E-04-1.29067E-05
 -1      7645 3.74132E-04 1.21563E-04-1.58505E-05
 -1      7646 3.74132E-04 1.21563E-04-1.87942E-05
 -1      7647 3.74132E-04 1.21563E-04-2.17379E-05
 -1      7648 3.74132E-04 1.21563E-04-2.46816E-05
 -1      7649 3.74132E-04 1.21563E-04-2.76254E-05
 -1      7650 3.74132E-04 1.21563E-04-3.05691E-05
 -1      7651 3.74132E-04 1.21563E-04-3.35128E-05
 -1      7652 3.74132E-04 1.21563E-04-3.64565E-05
 -1      7653 3.50509E-04 1.78593E-04-9.96302E-06
 -1      7654 3.50509E-04 1.78593E-04-1.29067E-05
 -1      7655 3.50509E-04 1.78593E-04-1.58505E-05
 -1      7656 3.50509E-04 1.78593E-04-1.87942E-05
 -1      7657 3.50509E-04 1.78593E-04-2.17379E-05
 -1      7658 3.50509E-04 1.78593E-04-2.46816E-05
 -1      7659 3.50509E-04 1.78593E-04-2.76254E-05
 -1      7660 3.50509E-04 1.78593E-04-3.05691E-05
 -1      7661 3.50509E-04 1.78593E-04-3.35128E-05
 -1      7662 3.50509E-04 1.78593E-04-3.64565E-05
 -1      7663 3.18256E-04 2.31226E-04-9.96302E-06
 -1      7664 3.18256E-04 2.31226E-04-1.29067E-05
 -1      7665 3.18256E-04 2.31226E-04-1.58505E-05
 -1      7666 3.18256E-04 2.31226E-04-1.87942E-05
 -1      7667 3.18256E-04 2.31226E-04-2.17379E-05
 -1      7668 3.18256E-04 2.31226E-04-2.46816E-05
 -1      7669 3.18256E-04 2.31226E-04-2.76254E-05
 -1      7670 3.18256E-04 2.31226E-04-3.05691E-05
 -1      7671 3.18256E-04 2.31226E-04-3.35128E-05
 -1      7672 3.18256E-04 2.31226E-04-3.64565E-05
 -1      7673 2.78166E-04 2.78166E-04-9.96302E-06
 -1      7674 2.78166E-04 2.78166E-04-1.29067E-05
 -1      7675 2.78166E-04 2.78166E-04-1.58505E-05
 -1      7676 2.78166E-04 2.78166E-04-1.87942E-05
 -1      7677 2.78166E-04 2.78166E-04-2.17379E-05
 -1      7678 2.78166E-04 2.78166E-04-2.46816E-05
 -1      7679 2.78166E-04 2.78166E-04-2.76254E-05
 -1      7680 2.78166E-04 2.78166E-04-3.05691E-05
 -1      7681 2.78166E-04 2.78166E-04-3.35128E-05
 -1      7682 2.78166E-04 2.78166E-04-3.64565E-05
 -1      7683 2.31226E-04 3.18256E-04-9.96302E-06
 -1      7684 2.31226E-04 3.18256E-04-1.29067E-05
 -1      7685 2.31226E-04 3.18256E-04-1.58505E-05
 -1      7686 2.31226E-04 3.18256E-04-1.87942E-05
 -1      7687 2.31226E-04 3.18256E-04-2.17379E-05
 -1      7688 2.31226E-04 3.18256E-04-2.46816E-05
 -1      7689 2.31226E-04 3.18256E-04-2.76254E-05
 -1      7690 2.31226E-04 3.18256E-04-3.05691E-05
 -1      7691 2.31226E-04 3.18256E-04-3.35128E-05
 -1      7692 2.31226E-04 3.18256E-04-3.64565E-05
 -1      7693 1.78593E-04 3.50509E-04-9.96302E-06
 -1      7694 1.78593E-04 3.50509E-04-1.29067E-05
 -1      7695 1.78593E-04 3.50509E-04-1.58505E-05
 -1      7696 1.78593E-04 3.50509E-04-1.87942E-05
 -1      7697 1.78593E-04 3.50509E-04-2.17379E-05
 -1      7698 1.78593E-04 3.50509E-04-2.46816E-05
 -1      7699 1.78593E-04 3.50509E-04-2.76254E-05
 -1      7700 1.78593E-04 3.50509E-04-3.05691E-05
 -1      7701 1.78593E-04 3.50509E-04-3.35128E-05
 -1      7702 1.78593E-04 3.50509E-04-3.64565E-05
 -1      7703 1.21563E-04 3.74132E-04-9.96302E-06
 -1      7704 1.21563E-04 3.74132E-04-1.29067E-05
 -1      7705 1.21563E-04 3.74132E-04-1.58505E-05
 -1      7706 1.21563E-04 3.74132E-04-1.87942E-05
 -1      7707 1.21563E-04 3.74132E-04-2.17379E-05
 -1      7708 1.21563E-04 3.74132E-04-2.46816E-05
 -1      7709 1.21563E-04 3.74132E-04-2.76254E-05
 -1      7710 1.21563E-04 3.74132E-04-3.05691E-05
 -1      7711 1.21563E-04 3.74132E-04-3.35128E-05
 -1      7712 1.21563E-04 3.74132E-04-3.64565E-05
 -1      7713 6.15391E-05 3.88542E-04-9.96302E-06
 -1      7714 6.15391E-05 3.88542E-04-1.29067E-05
 -1      7715 6.15391E-05 3.88542E-04-1.58505E-05
 -1      7716 6.15391E-05 3.88542E-04-1.87942E-05
 -1      7717 6.15391E-05 3.88542E-04-2.17379E-05
 -1      7718 6.15391E-05 3.88542E-04-2.46816E-05
 -1      7719 6.15391E-05 3.88542E-04-2.76254E-05
 -1      7720 6.15391E-05 3.88542E-04-3.05691E-05
 -1      7721 6.15391E-05 3.88542E-04-3.35128E-05
 -1      7722 6.15391E-05 3.88542E-04-3.64565E-05
 -1      7723 3.94364E-04 6.24611E-05-9.96302E-06
 -1      7724 3.94364E-04 6.24611E-05-1.29067E-05
 -1      7725 3.94364E-04 6.24611E-05-1.58505E-05
 -1      7726 3.94364E-04 6.24611E-05-1.87942E-05
 -1      7727 3.94364E-04 6.24611E-05-2.17379E-05
 -1      7728 3.94364E-04 6.24611E-05-2.46816E-05
 -1      7729 3.94364E-04 6.24611E-05-2.76254E-05
 -1      7730 3.94364E-04 6.24611E-05-3.05691E-05
 -1      7731 3.94364E-04 6.24611E-05-3.35128E-05
 -1      7732 3.94364E-04 6.24611E-05-3.64565E-05
 -1      7733 3.79738E-04 1.23384E-04-9.96302E-06
 -1      7734 3.79738E-04 1.23384E-04-1.29067E-05
 -1      7735 3.79738E-04 1.23384E-04-1.58505E-05
 -1      7736 3.79738E-04 1.23384E-04-1.87942E-05
 -1      7737 3.79738E-04 1.23384E-04-2.17379E-05
 -1      7738 3.79738E-04 1.23384E-04-2.46816E-05
 -1      7739 3.79738E-04 1.23384E-04-2.76254E-05
 -1      7740 3.79738E-04 1.23384E-04-3.05691E-05
 -1      7741 3.79738E-04 1.23384E-04-3.35128E-05
 -1      7742 3.79738E-04 1.23384E-04-3.64565E-05
 -1      7743 3.55761E-04 1.81269E-04-9.96302E-06
 -1      7744 3.55761E-04 1.81269E-04-1.29067E-05
 -1      7745 3.55761E-04 1.81269E-04-1.58505E-05
 -1      7746 3.55761E-04 1.81269E-04-1.87942E-05
 -1      7747 3.55761E-04 1.81269E-04-2.17379E-05
 -1      7748 3.55761E-04 1.81269E-04-2.46816E-05
 -1      7749 3.55761E-04 1.81269E-04-2.76254E-05
 -1      7750 3.55761E-04 1.81269E-04-3.05691E-05
 -1      7751 3.55761E-04 1.81269E-04-3.35128E-05
 -1      7752 3.55761E-04 1.81269E-04-3.64565E-05
 -1      7753 3.23024E-04 2.34691E-04-9.96302E-06
 -1      7754 3.23024E-04 2.34691E-04-1.29067E-05
 -1      7755 3.23024E-04 2.34691E-04-1.58505E-05
 -1      7756 3.23024E-04 2.34691E-04-1.87942E-05
 -1      7757 3.23024E-04 2.34691E-04-2.17379E-05
 -1      7758 3.23024E-04 2.34691E-04-2.46816E-05
 -1      7759 3.23024E-04 2.34691E-04-2.76254E-05
 -1      7760 3.23024E-04 2.34691E-04-3.05691E-05
 -1      7761 3.23024E-04 2.34691E-04-3.35128E-05
 -1      7762 3.23024E-04 2.34691E-04-3.64565E-05
 -1      7763 2.82334E-04 2.82334E-04-9.96302E-06
 -1      7764 2.82334E-04 2.82334E-04-1.29067E-05
 -1      7765 2.82334E-04 2.82334E-04-1.58505E-05
 -1      7766 2.82334E-04 2.82334E-04-1.87942E-05
 -1      7767 2.82334E-04 2.82334E-04-2.17379E-05
 -1      7768 2.82334E-04 2.82334E-04-2.46816E-05
 -1      7769 2.82334E-04 2.82334E-04-2.76254E-05
 -1      7770 2.82334E-04 2.82334E-04-3.05691E-05
 -1      7771 2.82334E-04 2.82334E-04-3.35128E-05
 -1      7772 2.82334E-04 2.82334E-04-3.64565E-05
 -1      7773 2.34691E-04 3.23024E-04-9.96302E-06
 -1      7774 2.34691E-04 3.23024E-04-1.29067E-05
 -1      7775 2.34691E-04 3.23024E-04-1.58505E-05
 -1      7776 2.34691E-04 3.23024E-04-1.87942E-05
 -1      7777 2.34691E-04 3.23024E-04-2.17379E-05
 -1      7778 2.34691E-04 3.23024E-04-2.46816E-05
 -1      7779 2.34691E-04 3.23024E-04-2.76254E-05
 -1      7780 2.34691E-04 3.23024E-04-3.05691E-05
 -1      7781 2.34691E-04 3.23024E-04-3.35128E-05
 -1      7782 2.34691E-04 3.23024E-04-3.64565E-05
 -1      7783 1.81269E-04 3.55761E-04-9.96302E-06
 -1      7784 1.81269E-04 3.55761E-04-1.29067E-05
 -1      7785 1.81269E-04 3.55761E-04-1.58505E-05
 -1      7786 1.81269E-04 3.55761E-04-1.87942E-05
 -1      7787 1.81269E-04 3.55761E-04-2.17379E-05
 -1      7788 1.81269E-04 3.55761E-04-2.46816E-05
 -1      7789 1.81269E-04 3.55761E-04-2.76254E-05
 -1      7790 1.81269E-04 3.55761E-04-3.05691E-05
 -1      7791 1.81269E-04 3.55761E-04-3.35128E-05
 -1      7792 1.81269E-04 3.55761E-04-3.64565E-05
 -1      7793 1.23384E-04 3.79738E-04-9.96302E-06
 -1      7794 1.23384E-04 3.79738E-04-1.29067E-05
 -1      7795 1.23384E-04 3.79738E-04-1.58505E-05
 -1      7796 1.23384E-04 3.79738E-04-1.87942E-05
 -1      7797 1.23384E-04 3.79738E-04-2.17379E-05
 -1      7798 1.23384E-04 3.79738E-04-2.46816E-05
 -1      7799 1.23384E-04 3.79738E-04-2.76254E-05
 -1      7800 1.23384E-04 3.79738E-04-3.05691E-05
 -1      7801 1.23384E-04 3.79738E-04-3.35128E-05
 -1      7802 1.23384E-04 3.79738E-04-3.64565E-05
 -1      7803 6.24611E-05 3.94364E-04-9.96302E-06
 -1      7804 6.24611E-05 3.94364E-04-1.29067E-05
 -1      7805 6.24611E-05 3.94364E-04-1.58505E-05
 -1      7806 6.24611E-05 3.94364E-04-1.87942E-05
 -1      7807 6.24611E-05 3.94364E-04-2.17379E-05
 -1      7808 6.24611E-05 3.94364E-04-2.46816E-05
 -1      7809 6.24611E-05 3.94364E-04-2.76254E-05
 -1      7810 6.24611E-05 3.94364E-04-3.05691E-05
 -1      7811 6.24611E-05 3.94364E-04-3.35128E-05
 -1      7812 6.24611E-05 3.94364E-04-3.64565E-05
 -1      7813 4.00405E-04 6.34179E-05-9.96302E-06
 -1      7814 4.00405E-04 6.34179E-05-1.29067E-05
 -1      7815 4.00405E-04 6.34179E-05-1.58505E-05
 -1      7816 4.00405E-04 6.34179E-05-1.87942E-05
 -1      7817 4.00405E-04 6.34179E-05-2.17379E-05
 -1      7818 4.00405E-04 6.34179E-05-2.46816E-05
 -1      7819 4.00405E-04 6.34179E-05-2.76254E-05
 -1      7820 4.00405E-04 6.34179E-05-3.05691E-05
 -1      7821 4.00405E-04 6.34179E-05-3.35128E-05
 -1      7822 4.00405E-04 6.34179E-05-3.64565E-05
 -1      7823 3.85555E-04 1.25274E-04-9.96302E-06
 -1      7824 3.85555E-04 1.25274E-04-1.29067E-05
 -1      7825 3.85555E-04 1.25274E-04-1.58505E-05
 -1      7826 3.85555E-04 1.25274E-04-1.87942E-05
 -1      7827 3.85555E-04 1.25274E-04-2.17379E-05
 -1      7828 3.85555E-04 1.25274E-04-2.46816E-05
 -1      7829 3.85555E-04 1.25274E-04-2.76254E-05
 -1      7830 3.85555E-04 1.25274E-04-3.05691E-05
 -1      7831 3.85555E-04 1.25274E-04-3.35128E-05
 -1      7832 3.85555E-04 1.25274E-04-3.64565E-05
 -1      7833 3.61211E-04 1.84046E-04-9.96302E-06
 -1      7834 3.61211E-04 1.84046E-04-1.29067E-05
 -1      7835 3.61211E-04 1.84046E-04-1.58505E-05
 -1      7836 3.61211E-04 1.84046E-04-1.87942E-05
 -1      7837 3.61211E-04 1.84046E-04-2.17379E-05
 -1      7838 3.61211E-04 1.84046E-04-2.46816E-05
 -1      7839 3.61211E-04 1.84046E-04-2.76254E-05
 -1      7840 3.61211E-04 1.84046E-04-3.05691E-05
 -1      7841 3.61211E-04 1.84046E-04-3.35128E-05
 -1      7842 3.61211E-04 1.84046E-04-3.64565E-05
 -1      7843 3.27972E-04 2.38286E-04-9.96302E-06
 -1      7844 3.27972E-04 2.38286E-04-1.29067E-05
 -1      7845 3.27972E-04 2.38286E-04-1.58505E-05
 -1      7846 3.27972E-04 2.38286E-04-1.87942E-05
 -1      7847 3.27972E-04 2.38286E-04-2.17379E-05
 -1      7848 3.27972E-04 2.38286E-04-2.46816E-05
 -1      7849 3.27972E-04 2.38286E-04-2.76254E-05
 -1      7850 3.27972E-04 2.38286E-04-3.05691E-05
 -1      7851 3.27972E-04 2.38286E-04-3.35128E-05
 -1      7852 3.27972E-04 2.38286E-04-3.64565E-05
 -1      7853 2.86658E-04 2.86658E-04-9.96302E-06
 -1      7854 2.86658E-04 2.86658E-04-1.29067E-05
 -1      7855 2.86658E-04 2.86658E-04-1.58505E-05
 -1      7856 2.86658E-04 2.86658E-04-1.87942E-05
 -1      7857 2.86658E-04 2.86658E-04-2.17379E-05
 -1      7858 2.86658E-04 2.86658E-04-2.46816E-05
 -1      7859 2.86658E-04 2.86658E-04-2.76254E-05
 -1      7860 2.86658E-04 2.86658E-04-3.05691E-05
 -1      7861 2.86658E-04 2.86658E-04-3.35128E-05
 -1      7862 2.86658E-04 2.86658E-04-3.64565E-05
 -1      7863 2.38286E-04 3.27972E-04-9.96302E-06
 -1      7864 2.38286E-04 3.27972E-04-1.29067E-05
 -1      7865 2.38286E-04 3.27972E-04-1.58505E-05
 -1      7866 2.38286E-04 3.27972E-04-1.87942E-05
 -1      7867 2.38286E-04 3.27972E-04-2.17379E-05
 -1      7868 2.38286E-04 3.27972E-04-2.46816E-05
 -1      7869 2.38286E-04 3.27972E-04-2.76254E-05
 -1      7870 2.38286E-04 3.27972E-04-3.05691E-05
 -1      7871 2.38286E-04 3.27972E-04-3.35128E-05
 -1      7872 2.38286E-04 3.27972E-04-3.64565E-05
 -1      7873 1.84046E-04 3.61211E-04-9.96302E-06
 -1      7874 1.84046E-04 3.61211E-04-1.29067E-05
 -1      7875 1.84046E-04 3.61211E-04-1.58505E-05
 -1      7876 1.84046E-04 3.61211E-04-1.87942E-05
 -1      7877 1.84046E-04 3.61211E-04-2.17379E-05
 -1      7878 1.84046E-04 3.61211E-04-2.46816E-05
 -1      7879 1.84046E-04 3.61211E-04-2.76254E-05
 -1      7880 1.84046E-04 3.61211E-04-3.05691E-05
 -1      7881 1.84046E-04 3.61211E-04-3.35128E-05
 -1      7882 1.84046E-04 3.61211E-04-3.64565E-05
 -1      7883 1.25274E-04 3.85555E-04-9.96302E-06
 -1      7884 1.25274E-04 3.85555E-04-1.29067E-05
 -1      7885 1.25274E-04 3.85555E-04-1.58505E-05
 -1      7886 1.25274E-04 3.85555E-04-1.87942E-05
 -1      7887 1.25274E-04 3.85555E-04-2.17379E-05
 -1      7888 1.25274E-04 3.85555E-04-2.46816E-05
 -1      7889 1.25274E-04 3.85555E-04-2.76254E-05
 -1      7890 1.25274E-04 3.85555E-04-3.05691E-05
 -1      7891 1.25274E-04 3.85555E-04-3.35128E-05
 -1      7892 1.25274E-04 3.85555E-04-3.64565E-05
 -1      7893 6.34179E-05 4.00405E-04-9.96302E-06
 -1      7894 6.34179E-05 4.00405E-04-1.29067E-05
 -1      7895 6.34179E-05 4.00405E-04-1.58505E-05
 -1      7896 6.34179E-05 4.00405E-04-1.87942E-05
 -1      7897 6.34179E-05 4.00405E-04-2.17379E-05
 -1      7898 6.34179E-05 4.00405E-04-2.46816E-05
 -1      7899 6.34179E-05 4.00405E-04-2.76254E-05
 -1      7900 6.34179E-05 4.00405E-04-3.05691E-05
 -1      7901 6.34179E-05 4.00405E-04-3.35128E-05
 -1      7902 6.34179E-05 4.00405E-04-3.64565E-05
 -1      7903 4.06645E-04 6.44063E-05-9.96302E-06
 -1      7904 4.06645E-04 6.44063E-05-1.29067E-05
 -1      7905 4.06645E-04 6.44063E-05-1.58505E-05
 -1      7906 4.06645E-04 6.44063E-05-1.87942E-05
 -1      7907 4.06645E-04 6.44063E-05-2.17379E-05
 -1      7908 4.06645E-04 6.44063E-05-2.46816E-05
 -1      7909 4.06645E-04 6.44063E-05-2.76254E-05
 -1      7910 4.06645E-04 6.44063E-05-3.05691E-05
 -1      7911 4.06645E-04 6.44063E-05-3.35128E-05
 -1      7912 4.06645E-04 6.44063E-05-3.64565E-05
 -1      7913 3.91563E-04 1.27227E-04-9.96302E-06
 -1      7914 3.91563E-04 1.27227E-04-1.29067E-05
 -1      7915 3.91563E-04 1.27227E-04-1.58505E-05
 -1      7916 3.91563E-04 1.27227E-04-1.87942E-05
 -1      7917 3.91563E-04 1.27227E-04-2.17379E-05
 -1      7918 3.91563E-04 1.27227E-04-2.46816E-05
 -1      7919 3.91563E-04 1.27227E-04-2.76254E-05
 -1      7920 3.91563E-04 1.27227E-04-3.05691E-05
 -1      7921 3.91563E-04 1.27227E-04-3.35128E-05
 -1      7922 3.91563E-04 1.27227E-04-3.64565E-05
 -1      7923 3.66840E-04 1.86914E-04-9.96302E-06
 -1      7924 3.66840E-04 1.86914E-04-1.29067E-05
 -1      7925 3.66840E-04 1.86914E-04-1.58505E-05
 -1      7926 3.66840E-04 1.86914E-04-1.87942E-05
 -1      7927 3.66840E-04 1.86914E-04-2.17379E-05
 -1      7928 3.66840E-04 1.86914E-04-2.46816E-05
 -1      7929 3.66840E-04 1.86914E-04-2.76254E-05
 -1      7930 3.66840E-04 1.86914E-04-3.05691E-05
 -1      7931 3.66840E-04 1.86914E-04-3.35128E-05
 -1      7932 3.66840E-04 1.86914E-04-3.64565E-05
 -1      7933 3.33084E-04 2.42000E-04-9.96302E-06
 -1      7934 3.33084E-04 2.42000E-04-1.29067E-05
 -1      7935 3.33084E-04 2.42000E-04-1.58505E-05
 -1      7936 3.33084E-04 2.42000E-04-1.87942E-05
 -1      7937 3.33084E-04 2.42000E-04-2.17379E-05
 -1      7938 3.33084E-04 2.42000E-04-2.46816E-05
 -1      7939 3.33084E-04 2.42000E-04-2.76254E-05
 -1      7940 3.33084E-04 2.42000E-04-3.05691E-05
 -1      7941 3.33084E-04 2.42000E-04-3.35128E-05
 -1      7942 3.33084E-04 2.42000E-04-3.64565E-05
 -1      7943 2.91126E-04 2.91126E-04-9.96302E-06
 -1      7944 2.91126E-04 2.91126E-04-1.29067E-05
 -1      7945 2.91126E-04 2.91126E-04-1.58505E-05
 -1      7946 2.91126E-04 2.91126E-04-1.87942E-05
 -1      7947 2.91126E-04 2.91126E-04-2.17379E-05
 -1      7948 2.91126E-04 2.91126E-04-2.46816E-05
 -1      7949 2.91126E-04 2.91126E-04-2.76254E-05
 -1      7950 2.91126E-04 2.91126E-04-3.05691E-05
 -1      7951 2.91126E-04 2.91126E-04-3.35128E-05
 -1      7952 2.91126E-04 2.91126E-04-3.64565E-05
 -1      7953 2.42000E-04 3.33084E-04-9.96302E-06
 -1      7954 2.42000E-04 3.33084E-04-1.29067E-05
 -1      7955 2.42000E-04 3.33084E-04-1.58505E-05
 -1      7956 2.42000E-04 3.33084E-04-1.87942E-05
 -1      7957 2.42000E-04 3.33084E-04-2.17379E-05
 -1      7958 2.42000E-04 3.33084E-04-2.46816E-05
 -1      7959 2.42000E-04 3.33084E-04-2.76254E-05
 -1      7960 2.42000E-04 3.33084E-04-3.05691E-05
 -1      7961 2.42000E-04 3.33084E-04-3.35128E-05
 -1      7962 2.42000E-04 3.33084E-04-3.64565E-05
 -1      7963 1.86914E-04 3.66840E-04-9.96302E-06
 -1      7964 1.86914E-04 3.66840E-04-1.29067E-05
 -1      7965 1.86914E-04 3.66840E-04-1.58505E-05
 -1      7966 1.86914E-04 3.66840E-04-1.87942E-05
 -1      7967 1.86914E-04 3.66840E-04-2.17379E-05
 -1      7968 1.86914E-04 3.66840E-04-2.46816E-05
 -1      7969 1.86914E-04 3.66840E-04-2.76254E-05
 -1      7970 1.86914E-04 3.66840E-04-3.05691E-05
 -1      7971 1.86914E-04 3.66840E-04-3.35128E-05
 -1      7972 1.86914E-04 3.66840E-04-3.64565E-05
 -1      7973 1.27227E-04 3.91563E-04-9.96302E-06
 -1      7974 1.27227E-04 3.91563E-04-1.29067E-05
 -1      7975 1.27227E-04 3.91563E-04-1.58505E-05
 -1      7976 1.27227E-04 3.91563E-04-1.87942E-05
 -1      7977 1.27227E-04 3.91563E-04-2.17379E-05
 -1      7978 1.27227E-04 3.91563E-04-2.46816E-05
 -1      7979 1.27227E-04 3.91563E-04-2.76254E-05
 -1      7980 1.27227E-04 3.91563E-04-3.05691E-05
 -1      7981 1.27227E-04 3.91563E-04-3.35128E-05
 -1      7982 1.27227E-04 3.91563E-04-3.64565E-05
 -1      7983 6.44063E-05 4.06645E-04-9.96302E-06
 -1      7984 6.44063E-05 4.06645E-04-1.29067E-05
 -1      7985 6.44063E-05 4.06645E-04-1.58505E-05
 -1      7986 6.44063E-05 4.06645E-04-1.87942E-05
 -1      7987 6.44063E-05 4.06645E-04-2.17379E-05
 -1      7988 6.44063E-05 4.06645E-04-2.46816E-05
 -1      7989 6.44063E-05 4.06645E-04-2.76254E-05
 -1      7990 6.44063E-05 4.06645E-04-3.05691E-05
 -1      7991 6.44063E-05 4.06645E-04-3.35128E-05
 -1      7992 6.44063E-05 4.06645E-04-3.64565E-05
 -1      7993 4.13067E-04 6.54234E-05-9.96302E-06
 -1      7994 4.13067E-04 6.54234E-05-1.29067E-05
 -1      7995 4.13067E-04 6.54234E-05-1.58505E-05
 -1      7996 4.13067E-04 6.54234E-05-1.87942E-05
 -1      7997 4.13067E-04 6.54234E-05-2.17379E-05
 -1      7998 4.13067E-04 6.54234E-05-2.46816E-05
 -1      7999 4.13067E-04 6.54234E-05-2.76254E-05
 -1      8000 4.13067E-04 6.54234E-05-3.05691E-05
 -1      8001 4.13067E-04 6.54234E-05-3.35128E-05
 -1      8002 4.13067E-04 6.54234E-05-3.64565E-05
 -1      8003 3.97747E-04 1.29236E-04-9.96302E-06
 -1      8004 3.97747E-04 1.29236E-04-1.29067E-05
 -1      8005 3.97747E-04 1.29236E-04-1.58505E-05
 -1      8006 3.97747E-04 1.29236E-04-1.87942E-05
 -1      8007 3.97747E-04 1.29236E-04-2.17379E-05
 -1      8008 3.97747E-04 1.29236E-04-2.46816E-05
 -1      8009 3.97747E-04 1.29236E-04-2.76254E-05
 -1      8010 3.97747E-04 1.29236E-04-3.05691E-05
 -1      8011 3.97747E-04 1.29236E-04-3.35128E-05
 -1      8012 3.97747E-04 1.29236E-04-3.64565E-05
 -1      8013 3.72633E-04 1.89866E-04-9.96302E-06
 -1      8014 3.72633E-04 1.89866E-04-1.29067E-05
 -1      8015 3.72633E-04 1.89866E-04-1.58505E-05
 -1      8016 3.72633E-04 1.89866E-04-1.87942E-05
 -1      8017 3.72633E-04 1.89866E-04-2.17379E-05
 -1      8018 3.72633E-04 1.89866E-04-2.46816E-05
 -1      8019 3.72633E-04 1.89866E-04-2.76254E-05
 -1      8020 3.72633E-04 1.89866E-04-3.05691E-05
 -1      8021 3.72633E-04 1.89866E-04-3.35128E-05
 -1      8022 3.72633E-04 1.89866E-04-3.64565E-05
 -1      8023 3.38344E-04 2.45821E-04-9.96302E-06
 -1      8024 3.38344E-04 2.45821E-04-1.29067E-05
 -1      8025 3.38344E-04 2.45821E-04-1.58505E-05
 -1      8026 3.38344E-04 2.45821E-04-1.87942E-05
 -1      8027 3.38344E-04 2.45821E-04-2.17379E-05
 -1      8028 3.38344E-04 2.45821E-04-2.46816E-05
 -1      8029 3.38344E-04 2.45821E-04-2.76254E-05
 -1      8030 3.38344E-04 2.45821E-04-3.05691E-05
 -1      8031 3.38344E-04 2.45821E-04-3.35128E-05
 -1      8032 3.38344E-04 2.45821E-04-3.64565E-05
 -1      8033 2.95723E-04 2.95723E-04-9.96302E-06
 -1      8034 2.95723E-04 2.95723E-04-1.29067E-05
 -1      8035 2.95723E-04 2.95723E-04-1.58505E-05
 -1      8036 2.95723E-04 2.95723E-04-1.87942E-05
 -1      8037 2.95723E-04 2.95723E-04-2.17379E-05
 -1      8038 2.95723E-04 2.95723E-04-2.46816E-05
 -1      8039 2.95723E-04 2.95723E-04-2.76254E-05
 -1      8040 2.95723E-04 2.95723E-04-3.05691E-05
 -1      8041 2.95723E-04 2.95723E-04-3.35128E-05
 -1      8042 2.95723E-04 2.95723E-04-3.64565E-05
 -1      8043 2.45821E-04 3.38344E-04-9.96302E-06
 -1      8044 2.45821E-04 3.38344E-04-1.29067E-05
 -1      8045 2.45821E-04 3.38344E-04-1.58505E-05
 -1      8046 2.45821E-04 3.38344E-04-1.87942E-05
 -1      8047 2.45821E-04 3.38344E-04-2.17379E-05
 -1      8048 2.45821E-04 3.38344E-04-2.46816E-05
 -1      8049 2.45821E-04 3.38344E-04-2.76254E-05
 -1      8050 2.45821E-04 3.38344E-04-3.05691E-05
 -1      8051 2.45821E-04 3.38344E-04-3.35128E-05
 -1      8052 2.45821E-04 3.38344E-04-3.64565E-05
 -1      8053 1.89866E-04 3.72633E-04-9.96302E-06
 -1      8054 1.89866E-04 3.72633E-04-1.29067E-05
 -1      8055 1.89866E-04 3.72633E-04-1.58505E-05
 -1      8056 1.89866E-04 3.72633E-04-1.87942E-05
 -1      8057 1.89866E-04 3.72633E-04-2.17379E-05
 -1      8058 1.89866E-04 3.72633E-04-2.46816E-05
 -1      8059 1.89866E-04 3.72633E-04-2.76254E-05
 -1      8060 1.89866E-04 3.72633E-04-3.05691E-05
 -1      8061 1.89866E-04 3.72633E-04-3.35128E-05
 -1      8062 1.89866E-04 3.72633E-04-3.64565E-05
 -1      8063 1.29236E-04 3.97747E-04-9.96302E-06
 -1      8064 1.29236E-04 3.97747E-04-1.29067E-05
 -1      8065 1.29236E-04 3.97747E-04-1.58505E-05
 -1      8066 1.29236E-04 3.97747E-04-1.87942E-05
 -1      8067 1.29236E-04 3.97747E-04-2.17379E-05
 -1      8068 1.29236E-04 3.97747E-04-2.46816E-05
 -1      8069 1.29236E-04 3.97747E-04-2.76254E-05
 -1      8070 1.29236E-04 3.97747E-04-3.05691E-05
 -1      8071 1.29236E-04 3.97747E-04-3.35128E-05
 -1      8072 1.29236E-04 3.97747E-04-3.64565E-05
 -1      8073 6.54234E-05 4.13067E-04-9.96302E-06
 -1      8074 6.54234E-05 4.13067E-04-1.29067E-05
 -1      8075 6.54234E-05 4.13067E-04-1.58505E-05
 -1      8076 6.54234E-05 4.13067E-04-1.87942E-05
 -1      8077 6.54234E-05 4.13067E-04-2.17379E-05
 -1      8078 6.54234E-05 4.13067E-04-2.46816E-05
 -1      8079 6.54234E-05 4.13067E-04-2.76254E-05
 -1      8080 6.54234E-05 4.13067E-04-3.05691E-05
 -1      8081 6.54234E-05 4.13067E-04-3.35128E-05
 -1      8082 6.54234E-05 4.13067E-04-3.64565E-05
 -1      8083 4.19655E-04 6.64668E-05-9.96302E-06
 -1      8084 4.19655E-04 6.64668E-05-1.29067E-05
 -1      8085 4.19655E-04 6.64668E-05-1.58505E-05
 -1      8086 4.19655E-04 6.64668E-05-1.87942E-05
 -1      8087 4.19655E-04 6.64668E-05-2.17379E-05
 -1      8088 4.19655E-04 6.64668E-05-2.46816E-05
 -1      8089 4.19655E-04 6.64668E-05-2.76254E-05
 -1      8090 4.19655E-04 6.64668E-05-3.05691E-05
 -1      8091 4.19655E-04 6.64668E-05-3.35128E-05
 -1      8092 4.19655E-04 6.64668E-05-3.64565E-05
 -1      8093 4.04091E-04 1.31297E-04-9.96302E-06
 -1      8094 4.04091E-04 1.31297E-04-1.29067E-05
 -1      8095 4.04091E-04 1.31297E-04-1.58505E-05
 -1      8096 4.04091E-04 1.31297E-04-1.87942E-05
 -1      8097 4.04091E-04 1.31297E-04-2.17379E-05
 -1      8098 4.04091E-04 1.31297E-04-2.46816E-05
 -1      8099 4.04091E-04 1.31297E-04-2.76254E-05
 -1      8100 4.04091E-04 1.31297E-04-3.05691E-05
 -1      8101 4.04091E-04 1.31297E-04-3.35128E-05
 -1      8102 4.04091E-04 1.31297E-04-3.64565E-05
 -1      8103 3.78576E-04 1.92894E-04-9.96302E-06
 -1      8104 3.78576E-04 1.92894E-04-1.29067E-05
 -1      8105 3.78576E-04 1.92894E-04-1.58505E-05
 -1      8106 3.78576E-04 1.92894E-04-1.87942E-05
 -1      8107 3.78576E-04 1.92894E-04-2.17379E-05
 -1      8108 3.78576E-04 1.92894E-04-2.46816E-05
 -1      8109 3.78576E-04 1.92894E-04-2.76254E-05
 -1      8110 3.78576E-04 1.92894E-04-3.05691E-05
 -1      8111 3.78576E-04 1.92894E-04-3.35128E-05
 -1      8112 3.78576E-04 1.92894E-04-3.64565E-05
 -1      8113 3.43740E-04 2.49742E-04-9.96302E-06
 -1      8114 3.43740E-04 2.49742E-04-1.29067E-05
 -1      8115 3.43740E-04 2.49742E-04-1.58505E-05
 -1      8116 3.43740E-04 2.49742E-04-1.87942E-05
 -1      8117 3.43740E-04 2.49742E-04-2.17379E-05
 -1      8118 3.43740E-04 2.49742E-04-2.46816E-05
 -1      8119 3.43740E-04 2.49742E-04-2.76254E-05
 -1      8120 3.43740E-04 2.49742E-04-3.05691E-05
 -1      8121 3.43740E-04 2.49742E-04-3.35128E-05
 -1      8122 3.43740E-04 2.49742E-04-3.64565E-05
 -1      8123 3.00440E-04 3.00440E-04-9.96302E-06
 -1      8124 3.00440E-04 3.00440E-04-1.29067E-05
 -1      8125 3.00440E-04 3.00440E-04-1.58505E-05
 -1      8126 3.00440E-04 3.00440E-04-1.87942E-05
 -1      8127 3.00440E-04 3.00440E-04-2.17379E-05
 -1      8128 3.00440E-04 3.00440E-04-2.46816E-05
 -1      8129 3.00440E-04 3.00440E-04-2.76254E-05
 -1      8130 3.00440E-04 3.00440E-04-3.05691E-05
 -1      8131 3.00440E-04 3.00440E-04-3.35128E-05
 -1      8132 3.00440E-04 3.00440E-04-3.64565E-05
 -1      8133 2.49742E-04 3.43740E-04-9.96302E-06
 -1      8134 2.49742E-04 3.43740E-04-1.29067E-05
 -1      8135 2.49742E-04 3.43740E-04-1.58505E-05
 -1      8136 2.49742E-04 3.43740E-04-1.87942E-05
 -1      8137 2.49742E-04 3.43740E-04-2.17379E-05
 -1      8138 2.49742E-04 3.43740E-04-2.46816E-05
 -1      8139 2.49742E-04 3.43740E-04-2.76254E-05
 -1      8140 2.49742E-04 3.43740E-04-3.05691E-05
 -1      8141 2.49742E-04 3.43740E-04-3.35128E-05
 -1      8142 2.49742E-04 3.43740E-04-3.64565E-05
 -1      8143 1.92894E-04 3.78576E-04-9.96302E-06
 -1      8144 1.92894E-04 3.78576E-04-1.29067E-05
 -1      8145 1.92894E-04 3.78576E-04-1.58505E-05
 -1      8146 1.92894E-04 3.78576E-04-1.87942E-05
 -1      8147 1.92894E-04 3.78576E-04-2.17379E-05
 -1      8148 1.92894E-04 3.78576E-04-2.46816E-05
 -1      8149 1.92894E-04 3.78576E-04-2.76254E-05
 -1      8150 1.92894E-04 3.78576E-04-3.05691E-05
 -1      8151 1.92894E-04 3.78576E-04-3.35128E-05
 -1      8152 1.92894E-04 3.78576E-04-3.64565E-05
 -1      8153 1.31297E-04 4.04091E-04-9.96302E-06
 -1      8154 1.31297E-04 4.04091E-04-1.29067E-05
 -1      8155 1.31297E-04 4.04091E-04-1.58505E-05
 -1      8156 1.31297E-04 4.04091E-04-1.87942E-05
 -1      8157 1.31297E-04 4.04091E-04-2.17379E-05
 -1      8158 1.31297E-04 4.04091E-04-2.46816E-05
 -1      8159 1.31297E-04 4.04091E-04-2.76254E-05
 -1      8160 1.31297E-04 4.04091E-04-3.05691E-05
 -1      8161 1.31297E-04 4.04091E-04-3.35128E-05
 -1      8162 1.31297E-04 4.04091E-04-3.64565E-05
 -1      8163 6.64668E-05 4.19655E-04-9.96302E-06
 -1      8164 6.64668E-05 4.19655E-04-1.29067E-05
 -1      8165 6.64668E-05 4.19655E-04-1.58505E-05
 -1      8166 6.64668E-05 4.19655E-04-1.87942E-05
 -1      8167 6.64668E-05 4.19655E-04-2.17379E-05
 -1      8168 6.64668E-05 4.19655E-04-2.46816E-05
 -1      8169 6.64668E-05 4.19655E-04-2.76254E-05
 -1      8170 6.64668E-05 4.19655E-04-3.05691E-05
 -1      8171 6.64668E-05 4.19655E-04-3.35128E-05
 -1      8172 6.64668E-05 4.19655E-04-3.64565E-05
 -1      8173 4.26395E-04 6.75343E-05-9.96302E-06
 -1      8174 4.26395E-04 6.75343E-05-1.29067E-05
 -1      8175 4.26395E-04 6.75343E-05-1.58505E-05
 -1      8176 4.26395E-04 6.75343E-05-1.87942E-05
 -1      8177 4.26395E-04 6.75343E-05-2.17379E-05
 -1      8178 4.26395E-04 6.75343E-05-2.46816E-05
 -1      8179 4.26395E-04 6.75343E-05-2.76254E-05
 -1      8180 4.26395E-04 6.75343E-05-3.05691E-05
 -1      8181 4.26395E-04 6.75343E-05-3.35128E-05
 -1      8182 4.26395E-04 6.75343E-05-3.64565E-05
 -1      8183 4.10581E-04 1.33406E-04-9.96302E-06
 -1      8184 4.10581E-04 1.33406E-04-1.29067E-05
 -1      8185 4.10581E-04 1.33406E-04-1.58505E-05
 -1      8186 4.10581E-04 1.33406E-04-1.87942E-05
 -1      8187 4.10581E-04 1.33406E-04-2.17379E-05
 -1      8188 4.10581E-04 1.33406E-04-2.46816E-05
 -1      8189 4.10581E-04 1.33406E-04-2.76254E-05
 -1      8190 4.10581E-04 1.33406E-04-3.05691E-05
 -1      8191 4.10581E-04 1.33406E-04-3.35128E-05
 -1      8192 4.10581E-04 1.33406E-04-3.64565E-05
 -1      8193 3.84656E-04 1.95992E-04-9.96302E-06
 -1      8194 3.84656E-04 1.95992E-04-1.29067E-05
 -1      8195 3.84656E-04 1.95992E-04-1.58505E-05
 -1      8196 3.84656E-04 1.95992E-04-1.87942E-05
 -1      8197 3.84656E-04 1.95992E-04-2.17379E-05
 -1      8198 3.84656E-04 1.95992E-04-2.46816E-05
 -1      8199 3.84656E-04 1.95992E-04-2.76254E-05
 -1      8200 3.84656E-04 1.95992E-04-3.05691E-05
 -1      8201 3.84656E-04 1.95992E-04-3.35128E-05
 -1      8202 3.84656E-04 1.95992E-04-3.64565E-05
 -1      8203 3.49261E-04 2.53753E-04-9.96302E-06
 -1      8204 3.49261E-04 2.53753E-04-1.29067E-05
 -1      8205 3.49261E-04 2.53753E-04-1.58505E-05
 -1      8206 3.49261E-04 2.53753E-04-1.87942E-05
 -1      8207 3.49261E-04 2.53753E-04-2.17379E-05
 -1      8208 3.49261E-04 2.53753E-04-2.46816E-05
 -1      8209 3.49261E-04 2.53753E-04-2.76254E-05
 -1      8210 3.49261E-04 2.53753E-04-3.05691E-05
 -1      8211 3.49261E-04 2.53753E-04-3.35128E-05
 -1      8212 3.49261E-04 2.53753E-04-3.64565E-05
 -1      8213 3.05265E-04 3.05265E-04-9.96302E-06
 -1      8214 3.05265E-04 3.05265E-04-1.29067E-05
 -1      8215 3.05265E-04 3.05265E-04-1.58505E-05
 -1      8216 3.05265E-04 3.05265E-04-1.87942E-05
 -1      8217 3.05265E-04 3.05265E-04-2.17379E-05
 -1      8218 3.05265E-04 3.05265E-04-2.46816E-05
 -1      8219 3.05265E-04 3.05265E-04-2.76254E-05
 -1      8220 3.05265E-04 3.05265E-04-3.05691E-05
 -1      8221 3.05265E-04 3.05265E-04-3.35128E-05
 -1      8222 3.05265E-04 3.05265E-04-3.64565E-05
 -1      8223 2.53753E-04 3.49261E-04-9.96302E-06
 -1      8224 2.53753E-04 3.49261E-04-1.29067E-05
 -1      8225 2.53753E-04 3.49261E-04-1.58505E-05
 -1      8226 2.53753E-04 3.49261E-04-1.87942E-05
 -1      8227 2.53753E-04 3.49261E-04-2.17379E-05
 -1      8228 2.53753E-04 3.49261E-04-2.46816E-05
 -1      8229 2.53753E-04 3.49261E-04-2.76254E-05
 -1      8230 2.53753E-04 3.49261E-04-3.05691E-05
 -1      8231 2.53753E-04 3.49261E-04-3.35128E-05
 -1      8232 2.53753E-04 3.49261E-04-3.64565E-05
 -1      8233 1.95992E-04 3.84656E-04-9.96302E-06
 -1      8234 1.95992E-04 3.84656E-04-1.29067E-05
 -1      8235 1.95992E-04 3.84656E-04-1.58505E-05
 -1      8236 1.95992E-04 3.84656E-04-1.87942E-05
 -1      8237 1.95992E-04 3.84656E-04-2.17379E-05
 -1      8238 1.95992E-04 3.84656E-04-2.46816E-05
 -1      8239 1.95992E-04 3.84656E-04-2.76254E-05
 -1      8240 1.95992E-04 3.84656E-04-3.05691E-05
 -1      8241 1.95992E-04 3.84656E-04-3.35128E-05
 -1      8242 1.95992E-04 3.84656E-04-3.64565E-05
 -1      8243 1.33406E-04 4.10581E-04-9.96302E-06
 -1      8244 1.33406E-04 4.10581E-04-1.29067E-05
 -1      8245 1.33406E-04 4.10581E-04-1.58505E-05
 -1      8246 1.33406E-04 4.10581E-04-1.87942E-05
 -1      8247 1.33406E-04 4.10581E-04-2.17379E-05
 -1      8248 1.33406E-04 4.10581E-04-2.46816E-05
 -1      8249 1.33406E-04 4.10581E-04-2.76254E-05
 -1      8250 1.33406E-04 4.10581E-04-3.05691E-05
 -1      8251 1.33406E-04 4.10581E-04-3.35128E-05
 -1      8252 1.33406E-04 4.10581E-04-3.64565E-05
 -1      8253 6.75343E-05 4.26395E-04-9.96302E-06
 -1      8254 6.75343E-05 4.26395E-04-1.29067E-05
 -1      8255 6.75343E-05 4.26395E-04-1.58505E-05
 -1      8256 6.75343E-05 4.26395E-04-1.87942E-05
 -1      8257 6.75343E-05 4.26395E-04-2.17379E-05
 -1      8258 6.75343E-05 4.26395E-04-2.46816E-05
 -1      8259 6.75343E-05 4.26395E-04-2.76254E-05
 -1      8260 6.75343E-05 4.26395E-04-3.05691E-05
 -1      8261 6.75343E-05 4.26395E-04-3.35128E-05
 -1      8262 6.75343E-05 4.26395E-04-3.64565E-05
 -1      8263 4.33276E-04 6.86242E-05-9.96302E-06
 -1      8264 4.33276E-04 6.86242E-05-1.29067E-05
 -1      8265 4.33276E-04 6.86242E-05-1.58505E-05
 -1      8266 4.33276E-04 6.86242E-05-1.87942E-05
 -1      8267 4.33276E-04 6.86242E-05-2.17379E-05
 -1      8268 4.33276E-04 6.86242E-05-2.46816E-05
 -1      8269 4.33276E-04 6.86242E-05-2.76254E-05
 -1      8270 4.33276E-04 6.86242E-05-3.05691E-05
 -1      8271 4.33276E-04 6.86242E-05-3.35128E-05
 -1      8272 4.33276E-04 6.86242E-05-3.64565E-05
 -1      8273 4.17207E-04 1.35559E-04-9.96302E-06
 -1      8274 4.17207E-04 1.35559E-04-1.29067E-05
 -1      8275 4.17207E-04 1.35559E-04-1.58505E-05
 -1      8276 4.17207E-04 1.35559E-04-1.87942E-05
 -1      8277 4.17207E-04 1.35559E-04-2.17379E-05
 -1      8278 4.17207E-04 1.35559E-04-2.46816E-05
 -1      8279 4.17207E-04 1.35559E-04-2.76254E-05
 -1      8280 4.17207E-04 1.35559E-04-3.05691E-05
 -1      8281 4.17207E-04 1.35559E-04-3.35128E-05
 -1      8282 4.17207E-04 1.35559E-04-3.64565E-05
 -1      8283 3.90864E-04 1.99155E-04-9.96302E-06
 -1      8284 3.90864E-04 1.99155E-04-1.29067E-05
 -1      8285 3.90864E-04 1.99155E-04-1.58505E-05
 -1      8286 3.90864E-04 1.99155E-04-1.87942E-05
 -1      8287 3.90864E-04 1.99155E-04-2.17379E-05
 -1      8288 3.90864E-04 1.99155E-04-2.46816E-05
 -1      8289 3.90864E-04 1.99155E-04-2.76254E-05
 -1      8290 3.90864E-04 1.99155E-04-3.05691E-05
 -1      8291 3.90864E-04 1.99155E-04-3.35128E-05
 -1      8292 3.90864E-04 1.99155E-04-3.64565E-05
 -1      8293 3.54897E-04 2.57848E-04-9.96302E-06
 -1      8294 3.54897E-04 2.57848E-04-1.29067E-05
 -1      8295 3.54897E-04 2.57848E-04-1.58505E-05
 -1      8296 3.54897E-04 2.57848E-04-1.87942E-05
 -1      8297 3.54897E-04 2.57848E-04-2.17379E-05
 -1      8298 3.54897E-04 2.57848E-04-2.46816E-05
 -1      8299 3.54897E-04 2.57848E-04-2.76254E-05
 -1      8300 3.54897E-04 2.57848E-04-3.05691E-05
 -1      8301 3.54897E-04 2.57848E-04-3.35128E-05
 -1      8302 3.54897E-04 2.57848E-04-3.64565E-05
 -1      8303 3.10192E-04 3.10192E-04-9.96302E-06
 -1      8304 3.10192E-04 3.10192E-04-1.29067E-05
 -1      8305 3.10192E-04 3.10192E-04-1.58505E-05
 -1      8306 3.10192E-04 3.10192E-04-1.87942E-05
 -1      8307 3.10192E-04 3.10192E-04-2.17379E-05
 -1      8308 3.10192E-04 3.10192E-04-2.46816E-05
 -1      8309 3.10192E-04 3.10192E-04-2.76254E-05
 -1      8310 3.10192E-04 3.10192E-04-3.05691E-05
 -1      8311 3.10192E-04 3.10192E-04-3.35128E-05
 -1      8312 3.10192E-04 3.10192E-04-3.64565E-05
 -1      8313 2.57848E-04 3.54897E-04-9.96302E-06
 -1      8314 2.57848E-04 3.54897E-04-1.29067E-05
 -1      8315 2.57848E-04 3.54897E-04-1.58505E-05
 -1      8316 2.57848E-04 3.54897E-04-1.87942E-05
 -1      8317 2.57848E-04 3.54897E-04-2.17379E-05
 -1      8318 2.57848E-04 3.54897E-04-2.46816E-05
 -1      8319 2.57848E-04 3.54897E-04-2.76254E-05
 -1      8320 2.57848E-04 3.54897E-04-3.05691E-05
 -1      8321 2.57848E-04 3.54897E-04-3.35128E-05
 -1      8322 2.57848E-04 3.54897E-04-3.64565E-05
 -1      8323 1.99155E-04 3.90864E-04-9.96302E-06
 -1      8324 1.99155E-04 3.90864E-04-1.29067E-05
 -1      8325 1.99155E-04 3.90864E-04-1.58505E-05
 -1      8326 1.99155E-04 3.90864E-04-1.87942E-05
 -1      8327 1.99155E-04 3.90864E-04-2.17379E-05
 -1      8328 1.99155E-04 3.90864E-04-2.46816E-05
 -1      8329 1.99155E-04 3.90864E-04-2.76254E-05
 -1      8330 1.99155E-04 3.90864E-04-3.05691E-05
 -1      8331 1.99155E-04 3.90864E-04-3.35128E-05
 -1      8332 1.99155E-04 3.90864E-04-3.64565E-05
 -1      8333 1.35559E-04 4.17207E-04-9.96302E-06
 -1      8334 1.35559E-04 4.17207E-04-1.29067E-05
 -1      8335 1.35559E-04 4.17207E-04-1.58505E-05
 -1      8336 1.35559E-04 4.17207E-04-1.87942E-05
 -1      8337 1.35559E-04 4.17207E-04-2.17379E-05
 -1      8338 1.35559E-04 4.17207E-04-2.46816E-05
 -1      8339 1.35559E-04 4.17207E-04-2.76254E-05
 -1      8340 1.35559E-04 4.17207E-04-3.05691E-05
 -1      8341 1.35559E-04 4.17207E-04-3.35128E-05
 -1      8342 1.35559E-04 4.17207E-04-3.64565E-05
 -1      8343 6.86242E-05 4.33276E-04-9.96302E-06
 -1      8344 6.86242E-05 4.33276E-04-1.29067E-05
 -1      8345 6.86242E-05 4.33276E-04-1.58505E-05
 -1      8346 6.86242E-05 4.33276E-04-1.87942E-05
 -1      8347 6.86242E-05 4.33276E-04-2.17379E-05
 -1      8348 6.86242E-05 4.33276E-04-2.46816E-05
 -1      8349 6.86242E-05 4.33276E-04-2.76254E-05
 -1      8350 6.86242E-05 4.33276E-04-3.05691E-05
 -1      8351 6.86242E-05 4.33276E-04-3.35128E-05
 -1      8352 6.86242E-05 4.33276E-04-3.64565E-05
 -1      8353 4.40279E-04 6.97334E-05-9.96302E-06
 -1      8354 4.40279E-04 6.97334E-05-1.29067E-05
 -1      8355 4.40279E-04 6.97334E-05-1.58505E-05
 -1      8356 4.40279E-04 6.97334E-05-1.87942E-05
 -1      8357 4.40279E-04 6.97334E-05-2.17379E-05
 -1      8358 4.40279E-04 6.97334E-05-2.46816E-05
 -1      8359 4.40279E-04 6.97334E-05-2.76254E-05
 -1      8360 4.40279E-04 6.97334E-05-3.05691E-05
 -1      8361 4.40279E-04 6.97334E-05-3.35128E-05
 -1      8362 4.40279E-04 6.97334E-05-3.64565E-05
 -1      8363 4.23950E-04 1.37750E-04-9.96302E-06
 -1      8364 4.23950E-04 1.37750E-04-1.29067E-05
 -1      8365 4.23950E-04 1.37750E-04-1.58505E-05
 -1      8366 4.23950E-04 1.37750E-04-1.87942E-05
 -1      8367 4.23950E-04 1.37750E-04-2.17379E-05
 -1      8368 4.23950E-04 1.37750E-04-2.46816E-05
 -1      8369 4.23950E-04 1.37750E-04-2.76254E-05
 -1      8370 4.23950E-04 1.37750E-04-3.05691E-05
 -1      8371 4.23950E-04 1.37750E-04-3.35128E-05
 -1      8372 4.23950E-04 1.37750E-04-3.64565E-05
 -1      8373 3.97181E-04 2.02374E-04-9.96302E-06
 -1      8374 3.97181E-04 2.02374E-04-1.29067E-05
 -1      8375 3.97181E-04 2.02374E-04-1.58505E-05
 -1      8376 3.97181E-04 2.02374E-04-1.87942E-05
 -1      8377 3.97181E-04 2.02374E-04-2.17379E-05
 -1      8378 3.97181E-04 2.02374E-04-2.46816E-05
 -1      8379 3.97181E-04 2.02374E-04-2.76254E-05
 -1      8380 3.97181E-04 2.02374E-04-3.05691E-05
 -1      8381 3.97181E-04 2.02374E-04-3.35128E-05
 -1      8382 3.97181E-04 2.02374E-04-3.64565E-05
 -1      8383 3.60633E-04 2.62015E-04-9.96302E-06
 -1      8384 3.60633E-04 2.62015E-04-1.29067E-05
 -1      8385 3.60633E-04 2.62015E-04-1.58505E-05
 -1      8386 3.60633E-04 2.62015E-04-1.87942E-05
 -1      8387 3.60633E-04 2.62015E-04-2.17379E-05
 -1      8388 3.60633E-04 2.62015E-04-2.46816E-05
 -1      8389 3.60633E-04 2.62015E-04-2.76254E-05
 -1      8390 3.60633E-04 2.62015E-04-3.05691E-05
 -1      8391 3.60633E-04 2.62015E-04-3.35128E-05
 -1      8392 3.60633E-04 2.62015E-04-3.64565E-05
 -1      8393 3.15205E-04 3.15205E-04-9.96302E-06
 -1      8394 3.15205E-04 3.15205E-04-1.29067E-05
 -1      8395 3.15205E-04 3.15205E-04-1.58505E-05
 -1      8396 3.15205E-04 3.15205E-04-1.87942E-05
 -1      8397 3.15205E-04 3.15205E-04-2.17379E-05
 -1      8398 3.15205E-04 3.15205E-04-2.46816E-05
 -1      8399 3.15205E-04 3.15205E-04-2.76254E-05
 -1      8400 3.15205E-04 3.15205E-04-3.05691E-05
 -1      8401 3.15205E-04 3.15205E-04-3.35128E-05
 -1      8402 3.15205E-04 3.15205E-04-3.64565E-05
 -1      8403 2.62015E-04 3.60633E-04-9.96302E-06
 -1      8404 2.62015E-04 3.60633E-04-1.29067E-05
 -1      8405 2.62015E-04 3.60633E-04-1.58505E-05
 -1      8406 2.62015E-04 3.60633E-04-1.87942E-05
 -1      8407 2.62015E-04 3.60633E-04-2.17379E-05
 -1      8408 2.62015E-04 3.60633E-04-2.46816E-05
 -1      8409 2.62015E-04 3.60633E-04-2.76254E-05
 -1      8410 2.62015E-04 3.60633E-04-3.05691E-05
 -1      8411 2.62015E-04 3.60633E-04-3.35128E-05
 -1      8412 2.62015E-04 3.60633E-04-3.64565E-05
 -1      8413 2.02374E-04 3.97181E-04-9.96302E-06
 -1      8414 2.02374E-04 3.97181E-04-1.29067E-05
 -1      8415 2.02374E-04 3.97181E-04-1.58505E-05
 -1      8416 2.02374E-04 3.97181E-04-1.87942E-05
 -1      8417 2.02374E-04 3.97181E-04-2.17379E-05
 -1      8418 2.02374E-04 3.97181E-04-2.46816E-05
 -1      8419 2.02374E-04 3.97181E-04-2.76254E-05
 -1      8420 2.02374E-04 3.97181E-04-3.05691E-05
 -1      8421 2.02374E-04 3.97181E-04-3.35128E-05
 -1      8422 2.02374E-04 3.97181E-04-3.64565E-05
 -1      8423 1.37750E-04 4.23950E-04-9.96302E-06
 -1      8424 1.37750E-04 4.23950E-04-1.29067E-05
 -1      8425 1.37750E-04 4.23950E-04-1.58505E-05
 -1      8426 1.37750E-04 4.23950E-04-1.87942E-05
 -1      8427 1.37750E-04 4.23950E-04-2.17379E-05
 -1      8428 1.37750E-04 4.23950E-04-2.46816E-05
 -1      8429 1.37750E-04 4.23950E-04-2.76254E-05
 -1      8430 1.37750E-04 4.23950E-04-3.05691E-05
 -1      8431 1.37750E-04 4.23950E-04-3.35128E-05
 -1      8432 1.37750E-04 4.23950E-04-3.64565E-05
 -1      8433 6.97334E-05 4.40279E-04-9.96302E-06
 -1      8434 6.97334E-05 4.40279E-04-1.29067E-05
 -1      8435 6.97334E-05 4.40279E-04-1.58505E-05
 -1      8436 6.97334E-05 4.40279E-04-1.87942E-05
 -1      8437 6.97334E-05 4.40279E-04-2.17379E-05
 -1      8438 6.97334E-05 4.40279E-04-2.46816E-05
 -1      8439 6.97334E-05 4.40279E-04-2.76254E-05
 -1      8440 6.97334E-05 4.40279E-04-3.05691E-05
 -1      8441 6.97334E-05 4.40279E-04-3.35128E-05
 -1      8442 6.97334E-05 4.40279E-04-3.64565E-05
 -1      8443 4.47432E-04 7.08663E-05-9.96301E-06
 -1      8444 4.47432E-04 7.08663E-05-1.29067E-05
 -1      8445 4.47432E-04 7.08663E-05-1.58505E-05
 -1      8446 4.47432E-04 7.08663E-05-1.87942E-05
 -1      8447 4.47432E-04 7.08663E-05-2.17379E-05
 -1      8448 4.47432E-04 7.08663E-05-2.46816E-05
 -1      8449 4.47432E-04 7.08663E-05-2.76254E-05
 -1      8450 4.47432E-04 7.08663E-05-3.05691E-05
 -1      8451 4.47432E-04 7.08663E-05-3.35128E-05
 -1      8452 4.47432E-04 7.08663E-05-3.64565E-05
 -1      8453 4.30837E-04 1.39988E-04-9.96301E-06
 -1      8454 4.30837E-04 1.39988E-04-1.29067E-05
 -1      8455 4.30837E-04 1.39988E-04-1.58505E-05
 -1      8456 4.30837E-04 1.39988E-04-1.87942E-05
 -1      8457 4.30837E-04 1.39988E-04-2.17379E-05
 -1      8458 4.30837E-04 1.39988E-04-2.46816E-05
 -1      8459 4.30837E-04 1.39988E-04-2.76254E-05
 -1      8460 4.30837E-04 1.39988E-04-3.05691E-05
 -1      8461 4.30837E-04 1.39988E-04-3.35128E-05
 -1      8462 4.30837E-04 1.39988E-04-3.64565E-05
 -1      8463 4.03634E-04 2.05662E-04-9.96301E-06
 -1      8464 4.03634E-04 2.05662E-04-1.29067E-05
 -1      8465 4.03634E-04 2.05662E-04-1.58505E-05
 -1      8466 4.03634E-04 2.05662E-04-1.87942E-05
 -1      8467 4.03634E-04 2.05662E-04-2.17379E-05
 -1      8468 4.03634E-04 2.05662E-04-2.46816E-05
 -1      8469 4.03634E-04 2.05662E-04-2.76254E-05
 -1      8470 4.03634E-04 2.05662E-04-3.05691E-05
 -1      8471 4.03634E-04 2.05662E-04-3.35128E-05
 -1      8472 4.03634E-04 2.05662E-04-3.64565E-05
 -1      8473 3.66492E-04 2.66272E-04-9.96302E-06
 -1      8474 3.66492E-04 2.66272E-04-1.29067E-05
 -1      8475 3.66492E-04 2.66272E-04-1.58505E-05
 -1      8476 3.66492E-04 2.66272E-04-1.87942E-05
 -1      8477 3.66492E-04 2.66272E-04-2.17379E-05
 -1      8478 3.66492E-04 2.66272E-04-2.46816E-05
 -1      8479 3.66492E-04 2.66272E-04-2.76254E-05
 -1      8480 3.66492E-04 2.66272E-04-3.05691E-05
 -1      8481 3.66492E-04 2.66272E-04-3.35128E-05
 -1      8482 3.66492E-04 2.66272E-04-3.64565E-05
 -1      8483 3.20326E-04 3.20326E-04-9.96302E-06
 -1      8484 3.20326E-04 3.20326E-04-1.29067E-05
 -1      8485 3.20326E-04 3.20326E-04-1.58505E-05
 -1      8486 3.20326E-04 3.20326E-04-1.87942E-05
 -1      8487 3.20326E-04 3.20326E-04-2.17379E-05
 -1      8488 3.20326E-04 3.20326E-04-2.46816E-05
 -1      8489 3.20326E-04 3.20326E-04-2.76254E-05
 -1      8490 3.20326E-04 3.20326E-04-3.05691E-05
 -1      8491 3.20326E-04 3.20326E-04-3.35128E-05
 -1      8492 3.20326E-04 3.20326E-04-3.64565E-05
 -1      8493 2.66272E-04 3.66492E-04-9.96301E-06
 -1      8494 2.66272E-04 3.66492E-04-1.29067E-05
 -1      8495 2.66272E-04 3.66492E-04-1.58505E-05
 -1      8496 2.66272E-04 3.66492E-04-1.87942E-05
 -1      8497 2.66272E-04 3.66492E-04-2.17379E-05
 -1      8498 2.66272E-04 3.66492E-04-2.46816E-05
 -1      8499 2.66272E-04 3.66492E-04-2.76254E-05
 -1      8500 2.66272E-04 3.66492E-04-3.05691E-05
 -1      8501 2.66272E-04 3.66492E-04-3.35128E-05
 -1      8502 2.66272E-04 3.66492E-04-3.64565E-05
 -1      8503 2.05662E-04 4.03634E-04-9.96302E-06
 -1      8504 2.05662E-04 4.03634E-04-1.29067E-05
 -1      8505 2.05662E-04 4.03634E-04-1.58505E-05
 -1      8506 2.05662E-04 4.03634E-04-1.87942E-05
 -1      8507 2.05662E-04 4.03634E-04-2.17379E-05
 -1      8508 2.05662E-04 4.03634E-04-2.46816E-05
 -1      8509 2.05662E-04 4.03634E-04-2.76254E-05
 -1      8510 2.05662E-04 4.03634E-04-3.05691E-05
 -1      8511 2.05662E-04 4.03634E-04-3.35128E-05
 -1      8512 2.05662E-04 4.03634E-04-3.64565E-05
 -1      8513 1.39988E-04 4.30837E-04-9.96303E-06
 -1      8514 1.39988E-04 4.30837E-04-1.29067E-05
 -1      8515 1.39988E-04 4.30837E-04-1.58505E-05
 -1      8516 1.39988E-04 4.30837E-04-1.87942E-05
 -1      8517 1.39988E-04 4.30837E-04-2.17379E-05
 -1      8518 1.39988E-04 4.30837E-04-2.46816E-05
 -1      8519 1.39988E-04 4.30837E-04-2.76254E-05
 -1      8520 1.39988E-04 4.30837E-04-3.05691E-05
 -1      8521 1.39988E-04 4.30837E-04-3.35128E-05
 -1      8522 1.39988E-04 4.30837E-04-3.64565E-05
 -1      8523 7.08663E-05 4.47432E-04-9.96302E-06
 -1      8524 7.08663E-05 4.47432E-04-1.29067E-05
 -1      8525 7.08662E-05 4.47432E-04-1.58505E-05
 -1      8526 7.08662E-05 4.47432E-04-1.87942E-05
 -1      8527 7.08662E-05 4.47432E-04-2.17379E-05
 -1      8528 7.08662E-05 4.47432E-04-2.46816E-05
 -1      8529 7.08662E-05 4.47432E-04-2.76254E-05
 -1      8530 7.08662E-05 4.47432E-04-3.05691E-05
 -1      8531 7.08663E-05 4.47432E-04-3.35128E-05
 -1      8532 7.08663E-05 4.47432E-04-3.64565E-05
 -1      8533 3.99041E-04 6.32019E-05-8.49117E-06
 -1      8534 4.03400E-04 3.17483E-05-9.96301E-06
 -1      8535 4.08496E-04 6.46994E-05-9.96299E-06
 -1      8540 3.99041E-04 6.32019E-05-1.14349E-05
 -1      8541 4.03400E-04 3.17483E-05-1.29067E-05
 -1      8542 4.08496E-04 6.46994E-05-1.29067E-05
 -1      8547 3.99041E-04 6.32019E-05-1.43786E-05
 -1      8548 4.03400E-04 3.17483E-05-1.58505E-05
 -1      8549 4.08496E-04 6.46994E-05-1.58505E-05
 -1      8554 3.99041E-04 6.32019E-05-1.73223E-05
 -1      8555 4.03400E-04 3.17483E-05-1.87942E-05
 -1      8556 4.08496E-04 6.46994E-05-1.87942E-05
 -1      8561 3.99041E-04 6.32019E-05-2.02661E-05
 -1      8562 4.03400E-04 3.17483E-05-2.17379E-05
 -1      8563 4.08496E-04 6.46994E-05-2.17379E-05
 -1      8568 3.99041E-04 6.32019E-05-2.32098E-05
 -1      8569 4.03400E-04 3.17483E-05-2.46816E-05
 -1      8570 4.08496E-04 6.46994E-05-2.46816E-05
 -1      8575 3.99041E-04 6.32019E-05-2.61535E-05
 -1      8576 4.03400E-04 3.17483E-05-2.76254E-05
 -1      8577 4.08496E-04 6.46994E-05-2.76254E-05
 -1      8582 3.99041E-04 6.32019E-05-2.90972E-05
 -1      8583 4.03400E-04 3.17483E-05-3.05691E-05
 -1      8584 4.08496E-04 6.46994E-05-3.05691E-05
 -1      8589 3.99041E-04 6.32019E-05-3.20409E-05
 -1      8590 4.03400E-04 3.17483E-05-3.35128E-05
 -1      8591 4.08496E-04 6.46994E-05-3.35128E-05
 -1      8596 3.99041E-04 6.32019E-05-3.49847E-05
 -1      8597 4.03400E-04 3.17483E-05-3.64565E-05
 -1      8598 4.08496E-04 6.46994E-05-3.64566E-05
 -1      8603 3.99041E-04 6.32019E-05-3.79284E-05
 -1      8607 3.84241E-04 1.24848E-04-8.49117E-06
 -1      8608 3.93467E-04 9.44631E-05-9.96301E-06
 -1      8609 3.93346E-04 1.27806E-04-9.96299E-06
 -1      8614 3.84241E-04 1.24848E-04-1.14349E-05
 -1      8615 3.93467E-04 9.44631E-05-1.29067E-05
 -1      8616 3.93346E-04 1.27806E-04-1.29067E-05
 -1      8621 3.84241E-04 1.24848E-04-1.43786E-05
 -1      8622 3.93467E-04 9.44631E-05-1.58505E-05
 -1      8623 3.93346E-04 1.27806E-04-1.58505E-05
 -1      8628 3.84241E-04 1.24848E-04-1.73223E-05
 -1      8629 3.93467E-04 9.44631E-05-1.87942E-05
 -1      8630 3.93346E-04 1.27806E-04-1.87942E-05
 -1      8635 3.84241E-04 1.24848E-04-2.02661E-05
 -1      8636 3.93467E-04 9.44631E-05-2.17379E-05
 -1      8637 3.93346E-04 1.27806E-04-2.17379E-05
 -1      8642 3.84241E-04 1.24848E-04-2.32098E-05
 -1      8643 3.93467E-04 9.44631E-05-2.46816E-05
 -1      8644 3.93346E-04 1.27806E-04-2.46816E-05
 -1      8649 3.84241E-04 1.24848E-04-2.61535E-05
 -1      8650 3.93467E-04 9.44631E-05-2.76254E-05
 -1      8651 3.93346E-04 1.27806E-04-2.76254E-05
 -1      8656 3.84241E-04 1.24848E-04-2.90972E-05
 -1      8657 3.93467E-04 9.44631E-05-3.05691E-05
 -1      8658 3.93346E-04 1.27806E-04-3.05691E-05
 -1      8663 3.84241E-04 1.24848E-04-3.20409E-05
 -1      8664 3.93467E-04 9.44631E-05-3.35128E-05
 -1      8665 3.93346E-04 1.27806E-04-3.35128E-05
 -1      8670 3.84241E-04 1.24848E-04-3.49847E-05
 -1      8671 3.93467E-04 9.44631E-05-3.64565E-05
 -1      8672 3.93346E-04 1.27806E-04-3.64566E-05
 -1      8677 3.84241E-04 1.24848E-04-3.79284E-05
 -1      8681 3.59980E-04 1.83419E-04-8.49117E-06
 -1      8682 3.73845E-04 1.54852E-04-9.96301E-06
 -1      8683 3.68510E-04 1.87765E-04-9.96299E-06
 -1      8688 3.59980E-04 1.83419E-04-1.14349E-05
 -1      8689 3.73845E-04 1.54852E-04-1.29067E-05
 -1      8690 3.68510E-04 1.87765E-04-1.29067E-05
 -1      8695 3.59980E-04 1.83419E-04-1.43786E-05
 -1      8696 3.73845E-04 1.54852E-04-1.58505E-05
 -1      8697 3.68510E-04 1.87765E-04-1.58505E-05
 -1      8702 3.59980E-04 1.83419E-04-1.73223E-05
 -1      8703 3.73845E-04 1.54852E-04-1.87942E-05
 -1      8704 3.68510E-04 1.87765E-04-1.87942E-05
 -1      8709 3.59980E-04 1.83419E-04-2.02661E-05
 -1      8710 3.73845E-04 1.54852E-04-2.17379E-05
 -1      8711 3.68510E-04 1.87765E-04-2.17379E-05
 -1      8716 3.59980E-04 1.83419E-04-2.32098E-05
 -1      8717 3.73845E-04 1.54852E-04-2.46816E-05
 -1      8718 3.68510E-04 1.87765E-04-2.46816E-05
 -1      8723 3.59980E-04 1.83419E-04-2.61535E-05
 -1      8724 3.73845E-04 1.54852E-04-2.76254E-05
 -1      8725 3.68510E-04 1.87765E-04-2.76254E-05
 -1      8730 3.59980E-04 1.83419E-04-2.90972E-05
 -1      8731 3.73845E-04 1.54852E-04-3.05691E-05
 -1      8732 3.68510E-04 1.87765E-04-3.05691E-05
 -1      8737 3.59980E-04 1.83419E-04-3.20409E-05
 -1      8738 3.73845E-04 1.54852E-04-3.35128E-05
 -1      8739 3.68510E-04 1.87765E-04-3.35128E-05
 -1      8744 3.59980E-04 1.83419E-04-3.49847E-05
 -1      8745 3.73845E-04 1.54852E-04-3.64565E-05
 -1      8746 3.68510E-04 1.87765E-04-3.64566E-05
 -1      8751 3.59980E-04 1.83419E-04-3.79284E-05
 -1      8755 3.26855E-04 2.37474E-04-8.49117E-06
 -1      8756 3.45019E-04 2.11428E-04-9.96301E-06
 -1      8757 3.34600E-04 2.43101E-04-9.96299E-06
 -1      8762 3.26855E-04 2.37474E-04-1.14349E-05
 -1      8763 3.45019E-04 2.11428E-04-1.29067E-05
 -1      8764 3.34600E-04 2.43101E-04-1.29067E-05
 -1      8769 3.26855E-04 2.37474E-04-1.43786E-05
 -1      8770 3.45019E-04 2.11428E-04-1.58505E-05
 -1      8771 3.34600E-04 2.43101E-04-1.58505E-05
 -1      8776 3.26855E-04 2.37474E-04-1.73223E-05
 -1      8777 3.45019E-04 2.11428E-04-1.87942E-05
 -1      8778 3.34600E-04 2.43101E-04-1.87942E-05
 -1      8783 3.26855E-04 2.37474E-04-2.02661E-05
 -1      8784 3.45019E-04 2.11428E-04-2.17379E-05
 -1      8785 3.34600E-04 2.43101E-04-2.17379E-05
 -1      8790 3.26855E-04 2.37474E-04-2.32098E-05
 -1      8791 3.45019E-04 2.11428E-04-2.46816E-05
 -1      8792 3.34600E-04 2.43101E-04-2.46816E-05
 -1      8797 3.26855E-04 2.37474E-04-2.61535E-05
 -1      8798 3.45019E-04 2.11428E-04-2.76254E-05
 -1      8799 3.34600E-04 2.43101E-04-2.76254E-05
 -1      8804 3.26855E-04 2.37474E-04-2.90972E-05
 -1      8805 3.45019E-04 2.11428E-04-3.05691E-05
 -1      8806 3.34600E-04 2.43101E-04-3.05691E-05
 -1      8811 3.26855E-04 2.37474E-04-3.20409E-05
 -1      8812 3.45019E-04 2.11428E-04-3.35128E-05
 -1      8813 3.34600E-04 2.43101E-04-3.35128E-05
 -1      8818 3.26855E-04 2.37474E-04-3.49847E-05
 -1      8819 3.45019E-04 2.11428E-04-3.64565E-05
 -1      8820 3.34600E-04 2.43101E-04-3.64566E-05
 -1      8825 3.26855E-04 2.37474E-04-3.79284E-05
 -1      8829 2.85682E-04 2.85682E-04-8.49117E-06
 -1      8830 3.07696E-04 2.62797E-04-9.96301E-06
 -1      8831 2.92451E-04 2.92451E-04-9.96299E-06
 -1      8836 2.85682E-04 2.85682E-04-1.14349E-05
 -1      8837 3.07696E-04 2.62797E-04-1.29067E-05
 -1      8838 2.92451E-04 2.92451E-04-1.29067E-05
 -1      8843 2.85682E-04 2.85682E-04-1.43786E-05
 -1      8844 3.07696E-04 2.62797E-04-1.58505E-05
 -1      8845 2.92451E-04 2.92451E-04-1.58505E-05
 -1      8850 2.85682E-04 2.85682E-04-1.73223E-05
 -1      8851 3.07696E-04 2.62797E-04-1.87942E-05
 -1      8852 2.92451E-04 2.92451E-04-1.87942E-05
 -1      8857 2.85682E-04 2.85682E-04-2.02661E-05
 -1      8858 3.07696E-04 2.62797E-04-2.17379E-05
 -1      8859 2.92451E-04 2.92451E-04-2.17379E-05
 -1      8864 2.85682E-04 2.85682E-04-2.32098E-05
 -1      8865 3.07696E-04 2.62797E-04-2.46816E-05
 -1      8866 2.92451E-04 2.92451E-04-2.46816E-05
 -1      8871 2.85682E-04 2.85682E-04-2.61535E-05
 -1      8872 3.07696E-04 2.62797E-04-2.76254E-05
 -1      8873 2.92451E-04 2.92451E-04-2.76254E-05
 -1      8878 2.85682E-04 2.85682E-04-2.90972E-05
 -1      8879 3.07696E-04 2.62797E-04-3.05691E-05
 -1      8880 2.92451E-04 2.92451E-04-3.05691E-05
 -1      8885 2.85682E-04 2.85682E-04-3.20409E-05
 -1      8886 3.07696E-04 2.62797E-04-3.35128E-05
 -1      8887 2.92451E-04 2.92451E-04-3.35128E-05
 -1      8892 2.85682E-04 2.85682E-04-3.49847E-05
 -1      8893 3.07696E-04 2.62797E-04-3.64565E-05
 -1      8894 2.92451E-04 2.92451E-04-3.64566E-05
 -1      8899 2.85682E-04 2.85682E-04-3.79284E-05
 -1      8903 2.37474E-04 3.26855E-04-8.49117E-06
 -1      8904 2.62797E-04 3.07696E-04-9.96301E-06
 -1      8905 2.43101E-04 3.34600E-04-9.96299E-06
 -1      8910 2.37474E-04 3.26855E-04-1.14349E-05
 -1      8911 2.62797E-04 3.07696E-04-1.29067E-05
 -1      8912 2.43101E-04 3.34600E-04-1.29067E-05
 -1      8917 2.37474E-04 3.26855E-04-1.43786E-05
 -1      8918 2.62797E-04 3.07696E-04-1.58505E-05
 -1      8919 2.43101E-04 3.34600E-04-1.58505E-05
 -1      8924 2.37474E-04 3.26855E-04-1.73223E-05
 -1      8925 2.62797E-04 3.07696E-04-1.87942E-05
 -1      8926 2.43101E-04 3.34600E-04-1.87942E-05
 -1      8931 2.37474E-04 3.26855E-04-2.02661E-05
 -1      8932 2.62797E-04 3.07696E-04-2.17379E-05
 -1      8933 2.43101E-04 3.34600E-04-2.17379E-05
 -1      8938 2.37474E-04 3.26855E-04-2.32098E-05
 -1      8939 2.62797E-04 3.07696E-04-2.46816E-05
 -1      8940 2.43101E-04 3.34600E-04-2.46816E-05
 -1      8945 2.37474E-04 3.26855E-04-2.61535E-05
 -1      8946 2.62797E-04 3.07696E-04-2.76254E-05
 -1      8947 2.43101E-04 3.34600E-04-2.76254E-05
 -1      8952 2.37474E-04 3.26855E-04-2.90972E-05
 -1      8953 2.62797E-04 3.07696E-04-3.05691E-05
 -1      8954 2.43101E-04 3.34600E-04-3.05691E-05
 -1      8959 2.37474E-04 3.26855E-04-3.20409E-05
 -1      8960 2.62797E-04 3.07696E-04-3.35128E-05
 -1      8961 2.43101E-04 3.34600E-04-3.35128E-05
 -1      8966 2.37474E-04 3.26855E-04-3.49847E-05
 -1      8967 2.62797E-04 3.07696E-04-3.64565E-05
 -1      8968 2.43101E-04 3.34600E-04-3.64566E-05
 -1      8973 2.37474E-04 3.26855E-04-3.79284E-05
 -1      8977 1.83419E-04 3.59980E-04-8.49117E-06
 -1      8978 2.11428E-04 3.45019E-04-9.96301E-06
 -1      8979 1.87765E-04 3.68510E-04-9.96299E-06
 -1      8984 1.83419E-04 3.59980E-04-1.14349E-05
 -1      8985 2.11428E-04 3.45019E-04-1.29067E-05
 -1      8986 1.87765E-04 3.68510E-04-1.29067E-05
 -1      8991 1.83419E-04 3.59980E-04-1.43786E-05
 -1      8992 2.11428E-04 3.45019E-04-1.58505E-05
 -1      8993 1.87765E-04 3.68510E-04-1.58505E-05
 -1      8998 1.83419E-04 3.59980E-04-1.73223E-05
 -1      8999 2.11428E-04 3.45019E-04-1.87942E-05
 -1      9000 1.87765E-04 3.68510E-04-1.87942E-05
 -1      9005 1.83419E-04 3.59980E-04-2.02661E-05
 -1      9006 2.11428E-04 3.45019E-04-2.17379E-05
 -1      9007 1.87765E-04 3.68510E-04-2.17379E-05
 -1      9012 1.83419E-04 3.59980E-04-2.32098E-05
 -1      9013 2.11428E-04 3.45019E-04-2.46816E-05
 -1      9014 1.87765E-04 3.68510E-04-2.46816E-05
 -1      9019 1.83419E-04 3.59980E-04-2.61535E-05
 -1      9020 2.11428E-04 3.45019E-04-2.76254E-05
 -1      9021 1.87765E-04 3.68510E-04-2.76254E-05
 -1      9026 1.83419E-04 3.59980E-04-2.90972E-05
 -1      9027 2.11428E-04 3.45019E-04-3.05691E-05
 -1      9028 1.87765E-04 3.68510E-04-3.05691E-05
 -1      9033 1.83419E-04 3.59980E-04-3.20409E-05
 -1      9034 2.11428E-04 3.45019E-04-3.35128E-05
 -1      9035 1.87765E-04 3.68510E-04-3.35128E-05
 -1      9040 1.83419E-04 3.59980E-04-3.49847E-05
 -1      9041 2.11428E-04 3.45019E-04-3.64565E-05
 -1      9042 1.87765E-04 3.68510E-04-3.64566E-05
 -1      9047 1.83419E-04 3.59980E-04-3.79284E-05
 -1      9051 1.24848E-04 3.84241E-04-8.49117E-06
 -1      9052 1.54852E-04 3.73845E-04-9.96301E-06
 -1      9053 1.27806E-04 3.93346E-04-9.96299E-06
 -1      9058 1.24848E-04 3.84241E-04-1.14349E-05
 -1      9059 1.54852E-04 3.73845E-04-1.29067E-05
 -1      9060 1.27806E-04 3.93346E-04-1.29067E-05
 -1      9065 1.24848E-04 3.84241E-04-1.43786E-05
 -1      9066 1.54852E-04 3.73845E-04-1.58505E-05
 -1      9067 1.27806E-04 3.93346E-04-1.58505E-05
 -1      9072 1.24848E-04 3.84241E-04-1.73223E-05
 -1      9073 1.54852E-04 3.73845E-04-1.87942E-05
 -1      9074 1.27806E-04 3.93346E-04-1.87942E-05
 -1      9079 1.24848E-04 3.84241E-04-2.02661E-05
 -1      9080 1.54852E-04 3.73845E-04-2.17379E-05
 -1      9081 1.27806E-04 3.93346E-04-2.17379E-05
 -1      9086 1.24848E-04 3.84241E-04-2.32098E-05
 -1      9087 1.54852E-04 3.73845E-04-2.46816E-05
 -1      9088 1.27806E-04 3.93346E-04-2.46816E-05
 -1      9093 1.24848E-04 3.84241E-04-2.61535E-05
 -1      9094 1.54852E-04 3.73845E-04-2.76254E-05
 -1      9095 1.27806E-04 3.93346E-04-2.76254E-05
 -1      9100 1.24848E-04 3.84241E-04-2.90972E-05
 -1      9101 1.54852E-04 3.73845E-04-3.05691E-05
 -1      9102 1.27806E-04 3.93346E-04-3.05691E-05
 -1      9107 1.24848E-04 3.84241E-04-3.20409E-05
 -1      9108 1.54852E-04 3.73845E-04-3.35128E-05
 -1      9109 1.27806E-04 3.93346E-04-3.35128E-05
 -1      9114 1.24848E-04 3.84241E-04-3.49847E-05
 -1      9115 1.54852E-04 3.73845E-04-3.64565E-05
 -1      9116 1.27806E-04 3.93346E-04-3.64566E-05
 -1      9121 1.24848E-04 3.84241E-04-3.79284E-05
 -1      9125 6.32019E-05 3.99041E-04-8.49117E-06
 -1      9126 9.44631E-05 3.93467E-04-9.96301E-06
 -1      9127 6.46994E-05 4.08496E-04-9.96299E-06
 -1      9132 6.32019E-05 3.99041E-04-1.14349E-05
 -1      9133 9.44631E-05 3.93467E-04-1.29067E-05
 -1      9134 6.46994E-05 4.08496E-04-1.29067E-05
 -1      9139 6.32019E-05 3.99041E-04-1.43786E-05
 -1      9140 9.44631E-05 3.93467E-04-1.58505E-05
 -1      9141 6.46994E-05 4.08496E-04-1.58505E-05
 -1      9146 6.32019E-05 3.99041E-04-1.73223E-05
 -1      9147 9.44631E-05 3.93467E-04-1.87942E-05
 -1      9148 6.46994E-05 4.08496E-04-1.87942E-05
 -1      9153 6.32019E-05 3.99041E-04-2.02661E-05
 -1      9154 9.44631E-05 3.93467E-04-2.17379E-05
 -1      9155 6.46994E-05 4.08496E-04-2.17379E-05
 -1      9160 6.32019E-05 3.99041E-04-2.32098E-05
 -1      9161 9.44631E-05 3.93467E-04-2.46816E-05
 -1      9162 6.46994E-05 4.08496E-04-2.46816E-05
 -1      9167 6.32019E-05 3.99041E-04-2.61535E-05
 -1      9168 9.44631E-05 3.93467E-04-2.76254E-05
 -1      9169 6.46994E-05 4.08496E-04-2.76254E-05
 -1      9174 6.32019E-05 3.99041E-04-2.90972E-05
 -1      9175 9.44631E-05 3.93467E-04-3.05691E-05
 -1      9176 6.46994E-05 4.08496E-04-3.05691E-05
 -1      9181 6.32019E-05 3.99041E-04-3.20409E-05
 -1      9182 9.44631E-05 3.93467E-04-3.35128E-05
 -1      9183 6.46994E-05 4.08496E-04-3.35128E-05
 -1      9188 6.32019E-05 3.99041E-04-3.49847E-05
 -1      9189 9.44631E-05 3.93467E-04-3.64565E-05
 -1      9190 6.46994E-05 4.08496E-04-3.64566E-05
 -1      9195 6.32019E-05 3.99041E-04-3.79284E-05
 -1      9199 3.17483E-05 4.03400E-04-9.96301E-06
 -1      9203 3.17483E-05 4.03400E-04-1.29067E-05
 -1      9207 3.17483E-05 4.03400E-04-1.58505E-05
 -1      9211 3.17483E-05 4.03400E-04-1.87942E-05
 -1      9215 3.17483E-05 4.03400E-04-2.17379E-05
 -1      9219 3.17483E-05 4.03400E-04-2.46816E-05
 -1      9223 3.17483E-05 4.03400E-04-2.76254E-05
 -1      9227 3.17483E-05 4.03400E-04-3.05691E-05
 -1      9231 3.17483E-05 4.03400E-04-3.35128E-05
 -1      9235 3.17483E-05 4.03400E-04-3.64565E-05
 -1      9241 3.83687E-04 6.07701E-05-8.49115E-06
 -1      9242 3.87763E-04 3.05176E-05-9.96303E-06
 -1      9243 3.90825E-04 6.19006E-05-9.96306E-06
 -1      9248 3.83687E-04 6.07701E-05-1.14349E-05
 -1      9249 3.87763E-04 3.05176E-05-1.29068E-05
 -1      9250 3.90825E-04 6.19006E-05-1.29068E-05
 -1      9255 3.83687E-04 6.07701E-05-1.43786E-05
 -1      9256 3.87763E-04 3.05176E-05-1.58505E-05
 -1      9257 3.90825E-04 6.19006E-05-1.58505E-05
 -1      9262 3.83687E-04 6.07701E-05-1.73223E-05
 -1      9263 3.87763E-04 3.05176E-05-1.87942E-05
 -1      9264 3.90825E-04 6.19006E-05-1.87942E-05
 -1      9269 3.83687E-04 6.07701E-05-2.02661E-05
 -1      9270 3.87763E-04 3.05176E-05-2.17379E-05
 -1      9271 3.90825E-04 6.19006E-05-2.17379E-05
 -1      9276 3.83687E-04 6.07701E-05-2.32098E-05
 -1      9277 3.87763E-04 3.05176E-05-2.46816E-05
 -1      9278 3.90825E-04 6.19006E-05-2.46816E-05
 -1      9283 3.83687E-04 6.07701E-05-2.61535E-05
 -1      9284 3.87763E-04 3.05176E-05-2.76254E-05
 -1      9285 3.90825E-04 6.19006E-05-2.76254E-05
 -1      9290 3.83687E-04 6.07701E-05-2.90972E-05
 -1      9291 3.87763E-04 3.05176E-05-3.05691E-05
 -1      9292 3.90825E-04 6.19006E-05-3.05691E-05
 -1      9297 3.83687E-04 6.07701E-05-3.20409E-05
 -1      9298 3.87763E-04 3.05176E-05-3.35128E-05
 -1      9299 3.90825E-04 6.19006E-05-3.35128E-05
 -1      9304 3.83687E-04 6.07701E-05-3.49847E-05
 -1      9305 3.87763E-04 3.05176E-05-3.64565E-05
 -1      9306 3.90825E-04 6.19006E-05-3.64565E-05
 -1      9311 3.83687E-04 6.07701E-05-3.79284E-05
 -1      9315 3.69457E-04 1.20044E-04-8.49115E-06
 -1      9316 3.78215E-04 9.08014E-05-9.96303E-06
 -1      9317 3.76330E-04 1.22277E-04-9.96306E-06
 -1      9322 3.69457E-04 1.20044E-04-1.14349E-05
 -1      9323 3.78215E-04 9.08014E-05-1.29068E-05
 -1      9324 3.76330E-04 1.22277E-04-1.29068E-05
 -1      9329 3.69457E-04 1.20044E-04-1.43786E-05
 -1      9330 3.78215E-04 9.08014E-05-1.58505E-05
 -1      9331 3.76330E-04 1.22277E-04-1.58505E-05
 -1      9336 3.69457E-04 1.20044E-04-1.73223E-05
 -1      9337 3.78215E-04 9.08014E-05-1.87942E-05
 -1      9338 3.76330E-04 1.22277E-04-1.87942E-05
 -1      9343 3.69457E-04 1.20044E-04-2.02661E-05
 -1      9344 3.78215E-04 9.08014E-05-2.17379E-05
 -1      9345 3.76330E-04 1.22277E-04-2.17379E-05
 -1      9350 3.69457E-04 1.20044E-04-2.32098E-05
 -1      9351 3.78215E-04 9.08014E-05-2.46816E-05
 -1      9352 3.76330E-04 1.22277E-04-2.46816E-05
 -1      9357 3.69457E-04 1.20044E-04-2.61535E-05
 -1      9358 3.78215E-04 9.08014E-05-2.76254E-05
 -1      9359 3.76330E-04 1.22277E-04-2.76254E-05
 -1      9364 3.69457E-04 1.20044E-04-2.90972E-05
 -1      9365 3.78215E-04 9.08014E-05-3.05691E-05
 -1      9366 3.76330E-04 1.22277E-04-3.05691E-05
 -1      9371 3.69457E-04 1.20044E-04-3.20409E-05
 -1      9372 3.78215E-04 9.08014E-05-3.35128E-05
 -1      9373 3.76330E-04 1.22277E-04-3.35128E-05
 -1      9378 3.69457E-04 1.20044E-04-3.49847E-05
 -1      9379 3.78215E-04 9.08014E-05-3.64565E-05
 -1      9380 3.76330E-04 1.22277E-04-3.64565E-05
 -1      9385 3.69457E-04 1.20044E-04-3.79284E-05
 -1      9389 3.46129E-04 1.76362E-04-8.49115E-06
 -1      9390 3.59354E-04 1.48849E-04-9.96303E-06
 -1      9391 3.52568E-04 1.79642E-04-9.96306E-06
 -1      9396 3.46129E-04 1.76362E-04-1.14349E-05
 -1      9397 3.59354E-04 1.48849E-04-1.29068E-05
 -1      9398 3.52568E-04 1.79642E-04-1.29068E-05
 -1      9403 3.46129E-04 1.76362E-04-1.43786E-05
 -1      9404 3.59354E-04 1.48849E-04-1.58505E-05
 -1      9405 3.52568E-04 1.79642E-04-1.58505E-05
 -1      9410 3.46129E-04 1.76362E-04-1.73223E-05
 -1      9411 3.59354E-04 1.48849E-04-1.87942E-05
 -1      9412 3.52568E-04 1.79642E-04-1.87942E-05
 -1      9417 3.46129E-04 1.76362E-04-2.02661E-05
 -1      9418 3.59354E-04 1.48849E-04-2.17379E-05
 -1      9419 3.52568E-04 1.79642E-04-2.17379E-05
 -1      9424 3.46129E-04 1.76362E-04-2.32098E-05
 -1      9425 3.59354E-04 1.48849E-04-2.46816E-05
 -1      9426 3.52568E-04 1.79642E-04-2.46816E-05
 -1      9431 3.46129E-04 1.76362E-04-2.61535E-05
 -1      9432 3.59354E-04 1.48849E-04-2.76254E-05
 -1      9433 3.52568E-04 1.79642E-04-2.76254E-05
 -1      9438 3.46129E-04 1.76362E-04-2.90972E-05
 -1      9439 3.59354E-04 1.48849E-04-3.05691E-05
 -1      9440 3.52568E-04 1.79642E-04-3.05691E-05
 -1      9445 3.46129E-04 1.76362E-04-3.20409E-05
 -1      9446 3.59354E-04 1.48849E-04-3.35128E-05
 -1      9447 3.52568E-04 1.79642E-04-3.35128E-05
 -1      9452 3.46129E-04 1.76362E-04-3.49847E-05
 -1      9453 3.59354E-04 1.48849E-04-3.64565E-05
 -1      9454 3.52568E-04 1.79642E-04-3.64565E-05
 -1      9459 3.46129E-04 1.76362E-04-3.79284E-05
 -1      9463 3.14279E-04 2.28337E-04-8.49115E-06
 -1      9464 3.31645E-04 2.03232E-04-9.96303E-06
 -1      9465 3.20125E-04 2.32585E-04-9.96306E-06
 -1      9470 3.14279E-04 2.28337E-04-1.14349E-05
 -1      9471 3.31645E-04 2.03232E-04-1.29068E-05
 -1      9472 3.20125E-04 2.32585E-04-1.29068E-05
 -1      9477 3.14279E-04 2.28337E-04-1.43786E-05
 -1      9478 3.31645E-04 2.03232E-04-1.58505E-05
 -1      9479 3.20125E-04 2.32585E-04-1.58505E-05
 -1      9484 3.14279E-04 2.28337E-04-1.73223E-05
 -1      9485 3.31645E-04 2.03232E-04-1.87942E-05
 -1      9486 3.20125E-04 2.32585E-04-1.87942E-05
 -1      9491 3.14279E-04 2.28337E-04-2.02661E-05
 -1      9492 3.31645E-04 2.03232E-04-2.17379E-05
 -1      9493 3.20125E-04 2.32585E-04-2.17379E-05
 -1      9498 3.14279E-04 2.28337E-04-2.32098E-05
 -1      9499 3.31645E-04 2.03232E-04-2.46816E-05
 -1      9500 3.20125E-04 2.32585E-04-2.46816E-05
 -1      9505 3.14279E-04 2.28337E-04-2.61535E-05
 -1      9506 3.31645E-04 2.03232E-04-2.76254E-05
 -1      9507 3.20125E-04 2.32585E-04-2.76254E-05
 -1      9512 3.14279E-04 2.28337E-04-2.90972E-05
 -1      9513 3.31645E-04 2.03232E-04-3.05691E-05
 -1      9514 3.20125E-04 2.32585E-04-3.05691E-05
 -1      9519 3.14279E-04 2.28337E-04-3.20409E-05
 -1      9520 3.31645E-04 2.03232E-04-3.35128E-05
 -1      9521 3.20125E-04 2.32585E-04-3.35128E-05
 -1      9526 3.14279E-04 2.28337E-04-3.49847E-05
 -1      9527 3.31645E-04 2.03232E-04-3.64565E-05
 -1      9528 3.20125E-04 2.32585E-04-3.64565E-05
 -1      9533 3.14279E-04 2.28337E-04-3.79284E-05
 -1      9537 2.74690E-04 2.74690E-04-8.49115E-06
 -1      9538 2.95769E-04 2.52611E-04-9.96303E-06
 -1      9539 2.79800E-04 2.79800E-04-9.96306E-06
 -1      9544 2.74690E-04 2.74690E-04-1.14349E-05
 -1      9545 2.95769E-04 2.52611E-04-1.29068E-05
 -1      9546 2.79800E-04 2.79800E-04-1.29068E-05
 -1      9551 2.74690E-04 2.74690E-04-1.43786E-05
 -1      9552 2.95769E-04 2.52611E-04-1.58505E-05
 -1      9553 2.79800E-04 2.79800E-04-1.58505E-05
 -1      9558 2.74690E-04 2.74690E-04-1.73223E-05
 -1      9559 2.95769E-04 2.52611E-04-1.87942E-05
 -1      9560 2.79800E-04 2.79800E-04-1.87942E-05
 -1      9565 2.74690E-04 2.74690E-04-2.02661E-05
 -1      9566 2.95769E-04 2.52611E-04-2.17379E-05
 -1      9567 2.79800E-04 2.79800E-04-2.17379E-05
 -1      9572 2.74690E-04 2.74690E-04-2.32098E-05
 -1      9573 2.95769E-04 2.52611E-04-2.46816E-05
 -1      9574 2.79800E-04 2.79800E-04-2.46816E-05
 -1      9579 2.74690E-04 2.74690E-04-2.61535E-05
 -1      9580 2.95769E-04 2.52611E-04-2.76254E-05
 -1      9581 2.79800E-04 2.79800E-04-2.76254E-05
 -1      9586 2.74690E-04 2.74690E-04-2.90972E-05
 -1      9587 2.95769E-04 2.52611E-04-3.05691E-05
 -1      9588 2.79800E-04 2.79800E-04-3.05691E-05
 -1      9593 2.74690E-04 2.74690E-04-3.20409E-05
 -1      9594 2.95769E-04 2.52611E-04-3.35128E-05
 -1      9595 2.79800E-04 2.79800E-04-3.35128E-05
 -1      9600 2.74690E-04 2.74690E-04-3.49847E-05
 -1      9601 2.95769E-04 2.52611E-04-3.64565E-05
 -1      9602 2.79800E-04 2.79800E-04-3.64565E-05
 -1      9607 2.74690E-04 2.74690E-04-3.79284E-05
 -1      9611 2.28337E-04 3.14279E-04-8.49115E-06
 -1      9612 2.52611E-04 2.95769E-04-9.96303E-06
 -1      9613 2.32585E-04 3.20125E-04-9.96306E-06
 -1      9618 2.28337E-04 3.14279E-04-1.14349E-05
 -1      9619 2.52611E-04 2.95769E-04-1.29068E-05
 -1      9620 2.32585E-04 3.20125E-04-1.29068E-05
 -1      9625 2.28337E-04 3.14279E-04-1.43786E-05
 -1      9626 2.52611E-04 2.95769E-04-1.58505E-05
 -1      9627 2.32585E-04 3.20125E-04-1.58505E-05
 -1      9632 2.28337E-04 3.14279E-04-1.73223E-05
 -1      9633 2.52611E-04 2.95769E-04-1.87942E-05
 -1      9634 2.32585E-04 3.20125E-04-1.87942E-05
 -1      9639 2.28337E-04 3.14279E-04-2.02661E-05
 -1      9640 2.52611E-04 2.95769E-04-2.17379E-05
 -1      9641 2.32585E-04 3.20125E-04-2.17379E-05
 -1      9646 2.28337E-04 3.14279E-04-2.32098E-05
 -1      9647 2.52611E-04 2.95769E-04-2.46816E-05
 -1      9648 2.32585E-04 3.20125E-04-2.46816E-05
 -1      9653 2.28337E-04 3.14279E-04-2.61535E-05
 -1      9654 2.52611E-04 2.95769E-04-2.76254E-05
 -1      9655 2.32585E-04 3.20125E-04-2.76254E-05
 -1      9660 2.28337E-04 3.14279E-04-2.90972E-05
 -1      9661 2.52611E-04 2.95769E-04-3.05691E-05
 -1      9662 2.32585E-04 3.20125E-04-3.05691E-05
 -1      9667 2.28337E-04 3.14279E-04-3.20409E-05
 -1      9668 2.52611E-04 2.95769E-04-3.35128E-05
 -1      9669 2.32585E-04 3.20125E-04-3.35128E-05
 -1      9674 2.28337E-04 3.14279E-04-3.49847E-05
 -1      9675 2.52611E-04 2.95769E-04-3.64565E-05
 -1      9676 2.32585E-04 3.20125E-04-3.64565E-05
 -1      9681 2.28337E-04 3.14279E-04-3.79284E-05
 -1      9685 1.76362E-04 3.46129E-04-8.49115E-06
 -1      9686 2.03232E-04 3.31645E-04-9.96303E-06
 -1      9687 1.79642E-04 3.52568E-04-9.96306E-06
 -1      9692 1.76362E-04 3.46129E-04-1.14349E-05
 -1      9693 2.03232E-04 3.31645E-04-1.29068E-05
 -1      9694 1.79642E-04 3.52568E-04-1.29068E-05
 -1      9699 1.76362E-04 3.46129E-04-1.43786E-05
 -1      9700 2.03232E-04 3.31645E-04-1.58505E-05
 -1      9701 1.79642E-04 3.52568E-04-1.58505E-05
 -1      9706 1.76362E-04 3.46129E-04-1.73223E-05
 -1      9707 2.03232E-04 3.31645E-04-1.87942E-05
 -1      9708 1.79642E-04 3.52568E-04-1.87942E-05
 -1      9713 1.76362E-04 3.46129E-04-2.02661E-05
 -1      9714 2.03232E-04 3.31645E-04-2.17379E-05
 -1      9715 1.79642E-04 3.52568E-04-2.17379E-05
 -1      9720 1.76362E-04 3.46129E-04-2.32098E-05
 -1      9721 2.03232E-04 3.31645E-04-2.46816E-05
 -1      9722 1.79642E-04 3.52568E-04-2.46816E-05
 -1      9727 1.76362E-04 3.46129E-04-2.61535E-05
 -1      9728 2.03232E-04 3.31645E-04-2.76254E-05
 -1      9729 1.79642E-04 3.52568E-04-2.76254E-05
 -1      9734 1.76362E-04 3.46129E-04-2.90972E-05
 -1      9735 2.03232E-04 3.31645E-04-3.05691E-05
 -1      9736 1.79642E-04 3.52568E-04-3.05691E-05
 -1      9741 1.76362E-04 3.46129E-04-3.20409E-05
 -1      9742 2.03232E-04 3.31645E-04-3.35128E-05
 -1      9743 1.79642E-04 3.52568E-04-3.35128E-05
 -1      9748 1.76362E-04 3.46129E-04-3.49847E-05
 -1      9749 2.03232E-04 3.31645E-04-3.64565E-05
 -1      9750 1.79642E-04 3.52568E-04-3.64565E-05
 -1      9755 1.76362E-04 3.46129E-04-3.79284E-05
 -1      9759 1.20044E-04 3.69457E-04-8.49115E-06
 -1      9760 1.48849E-04 3.59354E-04-9.96303E-06
 -1      9761 1.22277E-04 3.76330E-04-9.96306E-06
 -1      9766 1.20044E-04 3.69457E-04-1.14349E-05
 -1      9767 1.48849E-04 3.59354E-04-1.29068E-05
 -1      9768 1.22277E-04 3.76330E-04-1.29068E-05
 -1      9773 1.20044E-04 3.69457E-04-1.43786E-05
 -1      9774 1.48849E-04 3.59354E-04-1.58505E-05
 -1      9775 1.22277E-04 3.76330E-04-1.58505E-05
 -1      9780 1.20044E-04 3.69457E-04-1.73223E-05
 -1      9781 1.48849E-04 3.59354E-04-1.87942E-05
 -1      9782 1.22277E-04 3.76330E-04-1.87942E-05
 -1      9787 1.20044E-04 3.69457E-04-2.02661E-05
 -1      9788 1.48849E-04 3.59354E-04-2.17379E-05
 -1      9789 1.22277E-04 3.76330E-04-2.17379E-05
 -1      9794 1.20044E-04 3.69457E-04-2.32098E-05
 -1      9795 1.48849E-04 3.59354E-04-2.46816E-05
 -1      9796 1.22277E-04 3.76330E-04-2.46816E-05
 -1      9801 1.20044E-04 3.69457E-04-2.61535E-05
 -1      9802 1.48849E-04 3.59354E-04-2.76254E-05
 -1      9803 1.22277E-04 3.76330E-04-2.76254E-05
 -1      9808 1.20044E-04 3.69457E-04-2.90972E-05
 -1      9809 1.48849E-04 3.59354E-04-3.05691E-05
 -1      9810 1.22277E-04 3.76330E-04-3.05691E-05
 -1      9815 1.20044E-04 3.69457E-04-3.20409E-05
 -1      9816 1.48849E-04 3.59354E-04-3.35128E-05
 -1      9817 1.22277E-04 3.76330E-04-3.35128E-05
 -1      9822 1.20044E-04 3.69457E-04-3.49847E-05
 -1      9823 1.48849E-04 3.59354E-04-3.64565E-05
 -1      9824 1.22277E-04 3.76330E-04-3.64565E-05
 -1      9829 1.20044E-04 3.69457E-04-3.79284E-05
 -1      9833 6.07701E-05 3.83687E-04-8.49115E-06
 -1      9834 9.08014E-05 3.78215E-04-9.96303E-06
 -1      9835 6.19006E-05 3.90825E-04-9.96306E-06
 -1      9840 6.07701E-05 3.83687E-04-1.14349E-05
 -1      9841 9.08014E-05 3.78215E-04-1.29068E-05
 -1      9842 6.19006E-05 3.90825E-04-1.29068E-05
 -1      9847 6.07701E-05 3.83687E-04-1.43786E-05
 -1      9848 9.08014E-05 3.78215E-04-1.58505E-05
 -1      9849 6.19006E-05 3.90825E-04-1.58505E-05
 -1      9854 6.07701E-05 3.83687E-04-1.73223E-05
 -1      9855 9.08014E-05 3.78215E-04-1.87942E-05
 -1      9856 6.19006E-05 3.90825E-04-1.87942E-05
 -1      9861 6.07701E-05 3.83687E-04-2.02661E-05
 -1      9862 9.08014E-05 3.78215E-04-2.17379E-05
 -1      9863 6.19006E-05 3.90825E-04-2.17379E-05
 -1      9868 6.07701E-05 3.83687E-04-2.32098E-05
 -1      9869 9.08014E-05 3.78215E-04-2.46816E-05
 -1      9870 6.19006E-05 3.90825E-04-2.46816E-05
 -1      9875 6.07701E-05 3.83687E-04-2.61535E-05
 -1      9876 9.08014E-05 3.78215E-04-2.76254E-05
 -1      9877 6.19006E-05 3.90825E-04-2.76254E-05
 -1      9882 6.07701E-05 3.83687E-04-2.90972E-05
 -1      9883 9.08014E-05 3.78215E-04-3.05691E-05
 -1      9884 6.19006E-05 3.90825E-04-3.05691E-05
 -1      9889 6.07701E-05 3.83687E-04-3.20409E-05
 -1      9890 9.08014E-05 3.78215E-04-3.35128E-05
 -1      9891 6.19006E-05 3.90825E-04-3.35128E-05
 -1      9896 6.07701E-05 3.83687E-04-3.49847E-05
 -1      9897 9.08014E-05 3.78215E-04-3.64565E-05
 -1      9898 6.19006E-05 3.90825E-04-3.64565E-05
 -1      9903 6.07701E-05 3.83687E-04-3.79284E-05
 -1      9907 3.05176E-05 3.87763E-04-9.96303E-06
 -1      9911 3.05176E-05 3.87763E-04-1.29068E-05
 -1      9915 3.05176E-05 3.87763E-04-1.58505E-05
 -1      9919 3.05176E-05 3.87763E-04-1.87942E-05
 -1      9923 3.05176E-05 3.87763E-04-2.17379E-05
 -1      9927 3.05176E-05 3.87763E-04-2.46816E-05
 -1      9931 3.05176E-05 3.87763E-04-2.76254E-05
 -1      9935 3.05176E-05 3.87763E-04-3.05691E-05
 -1      9939 3.05176E-05 3.87763E-04-3.35128E-05
 -1      9943 3.05176E-05 3.87763E-04-3.64565E-05
 -1      9949 3.72106E-04 5.89358E-05-8.49116E-06
 -1      9950 3.75989E-04 2.95910E-05-9.96302E-06
 -1      9951 3.77477E-04 5.97865E-05-9.96301E-06
 -1      9956 3.72106E-04 5.89358E-05-1.14349E-05
 -1      9957 3.75989E-04 2.95910E-05-1.29067E-05
 -1      9958 3.77477E-04 5.97865E-05-1.29067E-05
 -1      9963 3.72106E-04 5.89358E-05-1.43786E-05
 -1      9964 3.75989E-04 2.95910E-05-1.58505E-05
 -1      9965 3.77477E-04 5.97865E-05-1.58505E-05
 -1      9970 3.72106E-04 5.89358E-05-1.73223E-05
 -1      9971 3.75989E-04 2.95910E-05-1.87942E-05
 -1      9972 3.77477E-04 5.97865E-05-1.87942E-05
 -1      9977 3.72106E-04 5.89358E-05-2.02661E-05
 -1      9978 3.75989E-04 2.95910E-05-2.17379E-05
 -1      9979 3.77477E-04 5.97865E-05-2.17379E-05
 -1      9984 3.72106E-04 5.89358E-05-2.32098E-05
 -1      9985 3.75989E-04 2.95910E-05-2.46816E-05
 -1      9986 3.77477E-04 5.97865E-05-2.46816E-05
 -1      9991 3.72106E-04 5.89358E-05-2.61535E-05
 -1      9992 3.75989E-04 2.95910E-05-2.76254E-05
 -1      9993 3.77477E-04 5.97865E-05-2.76254E-05
 -1      9998 3.72106E-04 5.89358E-05-2.90972E-05
 -1      9999 3.75989E-04 2.95910E-05-3.05691E-05
 -1     10000 3.77477E-04 5.97865E-05-3.05691E-05
 -1     10005 3.72106E-04 5.89358E-05-3.20409E-05
 -1     10006 3.75989E-04 2.95910E-05-3.35128E-05
 -1     10007 3.77477E-04 5.97865E-05-3.35128E-05
 -1     10012 3.72106E-04 5.89358E-05-3.49847E-05
 -1     10013 3.75989E-04 2.95910E-05-3.64565E-05
 -1     10014 3.77477E-04 5.97865E-05-3.64565E-05
 -1     10019 3.72106E-04 5.89358E-05-3.79284E-05
 -1     10023 3.58305E-04 1.16420E-04-8.49116E-06
 -1     10024 3.66731E-04 8.80443E-05-9.96302E-06
 -1     10025 3.63477E-04 1.18101E-04-9.96301E-06
 -1     10030 3.58305E-04 1.16420E-04-1.14349E-05
 -1     10031 3.66731E-04 8.80443E-05-1.29067E-05
 -1     10032 3.63477E-04 1.18101E-04-1.29067E-05
 -1     10037 3.58305E-04 1.16420E-04-1.43786E-05
 -1     10038 3.66731E-04 8.80443E-05-1.58505E-05
 -1     10039 3.63477E-04 1.18101E-04-1.58505E-05
 -1     10044 3.58305E-04 1.16420E-04-1.73223E-05
 -1     10045 3.66731E-04 8.80443E-05-1.87942E-05
 -1     10046 3.63477E-04 1.18101E-04-1.87942E-05
 -1     10051 3.58305E-04 1.16420E-04-2.02661E-05
 -1     10052 3.66731E-04 8.80443E-05-2.17379E-05
 -1     10053 3.63477E-04 1.18101E-04-2.17379E-05
 -1     10058 3.58305E-04 1.16420E-04-2.32098E-05
 -1     10059 3.66731E-04 8.80443E-05-2.46816E-05
 -1     10060 3.63477E-04 1.18101E-04-2.46816E-05
 -1     10065 3.58305E-04 1.16420E-04-2.61535E-05
 -1     10066 3.66731E-04 8.80443E-05-2.76254E-05
 -1     10067 3.63477E-04 1.18101E-04-2.76254E-05
 -1     10072 3.58305E-04 1.16420E-04-2.90972E-05
 -1     10073 3.66731E-04 8.80443E-05-3.05691E-05
 -1     10074 3.63477E-04 1.18101E-04-3.05691E-05
 -1     10079 3.58305E-04 1.16420E-04-3.20409E-05
 -1     10080 3.66731E-04 8.80443E-05-3.35128E-05
 -1     10081 3.63477E-04 1.18101E-04-3.35128E-05
 -1     10086 3.58305E-04 1.16420E-04-3.49847E-05
 -1     10087 3.66731E-04 8.80443E-05-3.64565E-05
 -1     10088 3.63477E-04 1.18101E-04-3.64565E-05
 -1     10093 3.58305E-04 1.16420E-04-3.79284E-05
 -1     10097 3.35681E-04 1.71038E-04-8.49116E-06
 -1     10098 3.48442E-04 1.44330E-04-9.96302E-06
 -1     10099 3.40527E-04 1.73507E-04-9.96301E-06
 -1     10104 3.35681E-04 1.71038E-04-1.14349E-05
 -1     10105 3.48442E-04 1.44330E-04-1.29067E-05
 -1     10106 3.40527E-04 1.73507E-04-1.29067E-05
 -1     10111 3.35681E-04 1.71038E-04-1.43786E-05
 -1     10112 3.48442E-04 1.44330E-04-1.58505E-05
 -1     10113 3.40527E-04 1.73507E-04-1.58505E-05
 -1     10118 3.35681E-04 1.71038E-04-1.73223E-05
 -1     10119 3.48442E-04 1.44330E-04-1.87942E-05
 -1     10120 3.40527E-04 1.73507E-04-1.87942E-05
 -1     10125 3.35681E-04 1.71038E-04-2.02661E-05
 -1     10126 3.48442E-04 1.44330E-04-2.17379E-05
 -1     10127 3.40527E-04 1.73507E-04-2.17379E-05
 -1     10132 3.35681E-04 1.71038E-04-2.32098E-05
 -1     10133 3.48442E-04 1.44330E-04-2.46816E-05
 -1     10134 3.40527E-04 1.73507E-04-2.46816E-05
 -1     10139 3.35681E-04 1.71038E-04-2.61535E-05
 -1     10140 3.48442E-04 1.44330E-04-2.76254E-05
 -1     10141 3.40527E-04 1.73507E-04-2.76254E-05
 -1     10146 3.35681E-04 1.71038E-04-2.90972E-05
 -1     10147 3.48442E-04 1.44330E-04-3.05691E-05
 -1     10148 3.40527E-04 1.73507E-04-3.05691E-05
 -1     10153 3.35681E-04 1.71038E-04-3.20409E-05
 -1     10154 3.48442E-04 1.44330E-04-3.35128E-05
 -1     10155 3.40527E-04 1.73507E-04-3.35128E-05
 -1     10160 3.35681E-04 1.71038E-04-3.49847E-05
 -1     10161 3.48442E-04 1.44330E-04-3.64565E-05
 -1     10162 3.40527E-04 1.73507E-04-3.64565E-05
 -1     10167 3.35681E-04 1.71038E-04-3.79284E-05
 -1     10171 3.04792E-04 2.21445E-04-8.49116E-06
 -1     10172 3.21574E-04 1.97061E-04-9.96302E-06
 -1     10173 3.09192E-04 2.24641E-04-9.96301E-06
 -1     10178 3.04792E-04 2.21445E-04-1.14349E-05
 -1     10179 3.21574E-04 1.97061E-04-1.29067E-05
 -1     10180 3.09192E-04 2.24641E-04-1.29067E-05
 -1     10185 3.04792E-04 2.21445E-04-1.43786E-05
 -1     10186 3.21574E-04 1.97061E-04-1.58505E-05
 -1     10187 3.09192E-04 2.24641E-04-1.58505E-05
 -1     10192 3.04792E-04 2.21445E-04-1.73223E-05
 -1     10193 3.21574E-04 1.97061E-04-1.87942E-05
 -1     10194 3.09192E-04 2.24641E-04-1.87942E-05
 -1     10199 3.04792E-04 2.21445E-04-2.02661E-05
 -1     10200 3.21574E-04 1.97061E-04-2.17379E-05
 -1     10201 3.09192E-04 2.24641E-04-2.17379E-05
 -1     10206 3.04792E-04 2.21445E-04-2.32098E-05
 -1     10207 3.21574E-04 1.97061E-04-2.46816E-05
 -1     10208 3.09192E-04 2.24641E-04-2.46816E-05
 -1     10213 3.04792E-04 2.21445E-04-2.61535E-05
 -1     10214 3.21574E-04 1.97061E-04-2.76254E-05
 -1     10215 3.09192E-04 2.24641E-04-2.76254E-05
 -1     10220 3.04792E-04 2.21445E-04-2.90972E-05
 -1     10221 3.21574E-04 1.97061E-04-3.05691E-05
 -1     10222 3.09192E-04 2.24641E-04-3.05691E-05
 -1     10227 3.04792E-04 2.21445E-04-3.20409E-05
 -1     10228 3.21574E-04 1.97061E-04-3.35128E-05
 -1     10229 3.09192E-04 2.24641E-04-3.35128E-05
 -1     10234 3.04792E-04 2.21445E-04-3.49847E-05
 -1     10235 3.21574E-04 1.97061E-04-3.64565E-05
 -1     10236 3.09192E-04 2.24641E-04-3.64565E-05
 -1     10241 3.04792E-04 2.21445E-04-3.79284E-05
 -1     10245 2.66398E-04 2.66398E-04-8.49116E-06
 -1     10246 2.86788E-04 2.44940E-04-9.96302E-06
 -1     10247 2.70244E-04 2.70244E-04-9.96301E-06
 -1     10252 2.66398E-04 2.66398E-04-1.14349E-05
 -1     10253 2.86788E-04 2.44940E-04-1.29067E-05
 -1     10254 2.70244E-04 2.70244E-04-1.29067E-05
 -1     10259 2.66398E-04 2.66398E-04-1.43786E-05
 -1     10260 2.86788E-04 2.44940E-04-1.58505E-05
 -1     10261 2.70244E-04 2.70244E-04-1.58505E-05
 -1     10266 2.66398E-04 2.66398E-04-1.73223E-05
 -1     10267 2.86788E-04 2.44940E-04-1.87942E-05
 -1     10268 2.70244E-04 2.70244E-04-1.87942E-05
 -1     10273 2.66398E-04 2.66398E-04-2.02661E-05
 -1     10274 2.86788E-04 2.44940E-04-2.17379E-05
 -1     10275 2.70244E-04 2.70244E-04-2.17379E-05
 -1     10280 2.66398E-04 2.66398E-04-2.32098E-05
 -1     10281 2.86788E-04 2.44940E-04-2.46816E-05
 -1     10282 2.70244E-04 2.70244E-04-2.46816E-05
 -1     10287 2.66398E-04 2.66398E-04-2.61535E-05
 -1     10288 2.86788E-04 2.44940E-04-2.76254E-05
 -1     10289 2.70244E-04 2.70244E-04-2.76254E-05
 -1     10294 2.66398E-04 2.66398E-04-2.90972E-05
 -1     10295 2.86788E-04 2.44940E-04-3.05691E-05
 -1     10296 2.70244E-04 2.70244E-04-3.05691E-05
 -1     10301 2.66398E-04 2.66398E-04-3.20409E-05
 -1     10302 2.86788E-04 2.44940E-04-3.35128E-05
 -1     10303 2.70244E-04 2.70244E-04-3.35128E-05
 -1     10308 2.66398E-04 2.66398E-04-3.49847E-05
 -1     10309 2.86788E-04 2.44940E-04-3.64565E-05
 -1     10310 2.70244E-04 2.70244E-04-3.64565E-05
 -1     10315 2.66398E-04 2.66398E-04-3.79284E-05
 -1     10319 2.21445E-04 3.04792E-04-8.49116E-06
 -1     10320 2.44940E-04 2.86788E-04-9.96302E-06
 -1     10321 2.24641E-04 3.09192E-04-9.96301E-06
 -1     10326 2.21445E-04 3.04792E-04-1.14349E-05
 -1     10327 2.44940E-04 2.86788E-04-1.29067E-05
 -1     10328 2.24641E-04 3.09192E-04-1.29067E-05
 -1     10333 2.21445E-04 3.04792E-04-1.43786E-05
 -1     10334 2.44940E-04 2.86788E-04-1.58505E-05
 -1     10335 2.24641E-04 3.09192E-04-1.58505E-05
 -1     10340 2.21445E-04 3.04792E-04-1.73223E-05
 -1     10341 2.44940E-04 2.86788E-04-1.87942E-05
 -1     10342 2.24641E-04 3.09192E-04-1.87942E-05
 -1     10347 2.21445E-04 3.04792E-04-2.02661E-05
 -1     10348 2.44940E-04 2.86788E-04-2.17379E-05
 -1     10349 2.24641E-04 3.09192E-04-2.17379E-05
 -1     10354 2.21445E-04 3.04792E-04-2.32098E-05
 -1     10355 2.44940E-04 2.86788E-04-2.46816E-05
 -1     10356 2.24641E-04 3.09192E-04-2.46816E-05
 -1     10361 2.21445E-04 3.04792E-04-2.61535E-05
 -1     10362 2.44940E-04 2.86788E-04-2.76254E-05
 -1     10363 2.24641E-04 3.09192E-04-2.76254E-05
 -1     10368 2.21445E-04 3.04792E-04-2.90972E-05
 -1     10369 2.44940E-04 2.86788E-04-3.05691E-05
 -1     10370 2.24641E-04 3.09192E-04-3.05691E-05
 -1     10375 2.21445E-04 3.04792E-04-3.20409E-05
 -1     10376 2.44940E-04 2.86788E-04-3.35128E-05
 -1     10377 2.24641E-04 3.09192E-04-3.35128E-05
 -1     10382 2.21445E-04 3.04792E-04-3.49847E-05
 -1     10383 2.44940E-04 2.86788E-04-3.64565E-05
 -1     10384 2.24641E-04 3.09192E-04-3.64565E-05
 -1     10389 2.21445E-04 3.04792E-04-3.79284E-05
 -1     10393 1.71038E-04 3.35681E-04-8.49116E-06
 -1     10394 1.97061E-04 3.21574E-04-9.96302E-06
 -1     10395 1.73507E-04 3.40527E-04-9.96301E-06
 -1     10400 1.71038E-04 3.35681E-04-1.14349E-05
 -1     10401 1.97061E-04 3.21574E-04-1.29067E-05
 -1     10402 1.73507E-04 3.40527E-04-1.29067E-05
 -1     10407 1.71038E-04 3.35681E-04-1.43786E-05
 -1     10408 1.97061E-04 3.21574E-04-1.58505E-05
 -1     10409 1.73507E-04 3.40527E-04-1.58505E-05
 -1     10414 1.71038E-04 3.35681E-04-1.73223E-05
 -1     10415 1.97061E-04 3.21574E-04-1.87942E-05
 -1     10416 1.73507E-04 3.40527E-04-1.87942E-05
 -1     10421 1.71038E-04 3.35681E-04-2.02661E-05
 -1     10422 1.97061E-04 3.21574E-04-2.17379E-05
 -1     10423 1.73507E-04 3.40527E-04-2.17379E-05
 -1     10428 1.71038E-04 3.35681E-04-2.32098E-05
 -1     10429 1.97061E-04 3.21574E-04-2.46816E-05
 -1     10430 1.73507E-04 3.40527E-04-2.46816E-05
 -1     10435 1.71038E-04 3.35681E-04-2.61535E-05
 -1     10436 1.97061E-04 3.21574E-04-2.76254E-05
 -1     10437 1.73507E-04 3.40527E-04-2.76254E-05
 -1     10442 1.71038E-04 3.35681E-04-2.90972E-05
 -1     10443 1.97061E-04 3.21574E-04-3.05691E-05
 -1     10444 1.73507E-04 3.40527E-04-3.05691E-05
 -1     10449 1.71038E-04 3.35681E-04-3.20409E-05
 -1     10450 1.97061E-04 3.21574E-04-3.35128E-05
 -1     10451 1.73507E-04 3.40527E-04-3.35128E-05
 -1     10456 1.71038E-04 3.35681E-04-3.49847E-05
 -1     10457 1.97061E-04 3.21574E-04-3.64565E-05
 -1     10458 1.73507E-04 3.40527E-04-3.64565E-05
 -1     10463 1.71038E-04 3.35681E-04-3.79284E-05
 -1     10467 1.16420E-04 3.58305E-04-8.49116E-06
 -1     10468 1.44330E-04 3.48442E-04-9.96302E-06
 -1     10469 1.18101E-04 3.63477E-04-9.96301E-06
 -1     10474 1.16420E-04 3.58305E-04-1.14349E-05
 -1     10475 1.44330E-04 3.48442E-04-1.29067E-05
 -1     10476 1.18101E-04 3.63477E-04-1.29067E-05
 -1     10481 1.16420E-04 3.58305E-04-1.43786E-05
 -1     10482 1.44330E-04 3.48442E-04-1.58505E-05
 -1     10483 1.18101E-04 3.63477E-04-1.58505E-05
 -1     10488 1.16420E-04 3.58305E-04-1.73223E-05
 -1     10489 1.44330E-04 3.48442E-04-1.87942E-05
 -1     10490 1.18101E-04 3.63477E-04-1.87942E-05
 -1     10495 1.16420E-04 3.58305E-04-2.02661E-05
 -1     10496 1.44330E-04 3.48442E-04-2.17379E-05
 -1     10497 1.18101E-04 3.63477E-04-2.17379E-05
 -1     10502 1.16420E-04 3.58305E-04-2.32098E-05
 -1     10503 1.44330E-04 3.48442E-04-2.46816E-05
 -1     10504 1.18101E-04 3.63477E-04-2.46816E-05
 -1     10509 1.16420E-04 3.58305E-04-2.61535E-05
 -1     10510 1.44330E-04 3.48442E-04-2.76254E-05
 -1     10511 1.18101E-04 3.63477E-04-2.76254E-05
 -1     10516 1.16420E-04 3.58305E-04-2.90972E-05
 -1     10517 1.44330E-04 3.48442E-04-3.05691E-05
 -1     10518 1.18101E-04 3.63477E-04-3.05691E-05
 -1     10523 1.16420E-04 3.58305E-04-3.20409E-05
 -1     10524 1.44330E-04 3.48442E-04-3.35128E-05
 -1     10525 1.18101E-04 3.63477E-04-3.35128E-05
 -1     10530 1.16420E-04 3.58305E-04-3.49847E-05
 -1     10531 1.44330E-04 3.48442E-04-3.64565E-05
 -1     10532 1.18101E-04 3.63477E-04-3.64565E-05
 -1     10537 1.16420E-04 3.58305E-04-3.79284E-05
 -1     10541 5.89358E-05 3.72106E-04-8.49116E-06
 -1     10542 8.80443E-05 3.66731E-04-9.96302E-06
 -1     10543 5.97865E-05 3.77477E-04-9.96301E-06
 -1     10548 5.89358E-05 3.72106E-04-1.14349E-05
 -1     10549 8.80443E-05 3.66731E-04-1.29067E-05
 -1     10550 5.97865E-05 3.77477E-04-1.29067E-05
 -1     10555 5.89358E-05 3.72106E-04-1.43786E-05
 -1     10556 8.80443E-05 3.66731E-04-1.58505E-05
 -1     10557 5.97865E-05 3.77477E-04-1.58505E-05
 -1     10562 5.89358E-05 3.72106E-04-1.73223E-05
 -1     10563 8.80443E-05 3.66731E-04-1.87942E-05
 -1     10564 5.97865E-05 3.77477E-04-1.87942E-05
 -1     10569 5.89358E-05 3.72106E-04-2.02661E-05
 -1     10570 8.80443E-05 3.66731E-04-2.17379E-05
 -1     10571 5.97865E-05 3.77477E-04-2.17379E-05
 -1     10576 5.89358E-05 3.72106E-04-2.32098E-05
 -1     10577 8.80443E-05 3.66731E-04-2.46816E-05
 -1     10578 5.97865E-05 3.77477E-04-2.46816E-05
 -1     10583 5.89358E-05 3.72106E-04-2.61535E-05
 -1     10584 8.80443E-05 3.66731E-04-2.76254E-05
 -1     10585 5.97865E-05 3.77477E-04-2.76254E-05
 -1     10590 5.89358E-05 3.72106E-04-2.90972E-05
 -1     10591 8.80443E-05 3.66731E-04-3.05691E-05
 -1     10592 5.97865E-05 3.77477E-04-3.05691E-05
 -1     10597 5.89358E-05 3.72106E-04-3.20409E-05
 -1     10598 8.80443E-05 3.66731E-04-3.35128E-05
 -1     10599 5.97865E-05 3.77477E-04-3.35128E-05
 -1     10604 5.89358E-05 3.72106E-04-3.49847E-05
 -1     10605 8.80443E-05 3.66731E-04-3.64565E-05
 -1     10606 5.97865E-05 3.77477E-04-3.64565E-05
 -1     10611 5.89358E-05 3.72106E-04-3.79284E-05
 -1     10615 2.95910E-05 3.75989E-04-9.96302E-06
 -1     10619 2.95910E-05 3.75989E-04-1.29067E-05
 -1     10623 2.95910E-05 3.75989E-04-1.58505E-05
 -1     10627 2.95910E-05 3.75989E-04-1.87942E-05
 -1     10631 2.95910E-05 3.75989E-04-2.17379E-05
 -1     10635 2.95910E-05 3.75989E-04-2.46816E-05
 -1     10639 2.95910E-05 3.75989E-04-2.76254E-05
 -1     10643 2.95910E-05 3.75989E-04-3.05691E-05
 -1     10647 2.95910E-05 3.75989E-04-3.35128E-05
 -1     10651 2.95910E-05 3.75989E-04-3.64565E-05
 -1     10657 3.63518E-04 5.75756E-05-8.49116E-06
 -1     10658 3.67234E-04 2.89019E-05-9.96303E-06
 -1     10659 3.67479E-04 5.82029E-05-9.96303E-06
 -1     10664 3.63518E-04 5.75756E-05-1.14349E-05
 -1     10665 3.67234E-04 2.89019E-05-1.29067E-05
 -1     10666 3.67479E-04 5.82029E-05-1.29067E-05
 -1     10671 3.63518E-04 5.75756E-05-1.43786E-05
 -1     10672 3.67234E-04 2.89019E-05-1.58505E-05
 -1     10673 3.67479E-04 5.82029E-05-1.58505E-05
 -1     10678 3.63518E-04 5.75756E-05-1.73223E-05
 -1     10679 3.67234E-04 2.89019E-05-1.87942E-05
 -1     10680 3.67479E-04 5.82029E-05-1.87942E-05
 -1     10685 3.63518E-04 5.75756E-05-2.02661E-05
 -1     10686 3.67234E-04 2.89019E-05-2.17379E-05
 -1     10687 3.67479E-04 5.82029E-05-2.17379E-05
 -1     10692 3.63518E-04 5.75756E-05-2.32098E-05
 -1     10693 3.67234E-04 2.89019E-05-2.46816E-05
 -1     10694 3.67479E-04 5.82029E-05-2.46816E-05
 -1     10699 3.63518E-04 5.75756E-05-2.61535E-05
 -1     10700 3.67234E-04 2.89019E-05-2.76254E-05
 -1     10701 3.67479E-04 5.82029E-05-2.76254E-05
 -1     10706 3.63518E-04 5.75756E-05-2.90972E-05
 -1     10707 3.67234E-04 2.89019E-05-3.05691E-05
 -1     10708 3.67479E-04 5.82029E-05-3.05691E-05
 -1     10713 3.63518E-04 5.75756E-05-3.20409E-05
 -1     10714 3.67234E-04 2.89019E-05-3.35128E-05
 -1     10715 3.67479E-04 5.82029E-05-3.35128E-05
 -1     10720 3.63518E-04 5.75756E-05-3.49847E-05
 -1     10721 3.67234E-04 2.89019E-05-3.64565E-05
 -1     10722 3.67479E-04 5.82029E-05-3.64565E-05
 -1     10727 3.63518E-04 5.75756E-05-3.79284E-05
 -1     10731 3.50036E-04 1.13734E-04-8.49116E-06
 -1     10732 3.58191E-04 8.59941E-05-9.96303E-06
 -1     10733 3.53850E-04 1.14973E-04-9.96303E-06
 -1     10738 3.50036E-04 1.13734E-04-1.14349E-05
 -1     10739 3.58191E-04 8.59941E-05-1.29067E-05
 -1     10740 3.53850E-04 1.14973E-04-1.29067E-05
 -1     10745 3.50036E-04 1.13734E-04-1.43786E-05
 -1     10746 3.58191E-04 8.59941E-05-1.58505E-05
 -1     10747 3.53850E-04 1.14973E-04-1.58505E-05
 -1     10752 3.50036E-04 1.13734E-04-1.73223E-05
 -1     10753 3.58191E-04 8.59941E-05-1.87942E-05
 -1     10754 3.53850E-04 1.14973E-04-1.87942E-05
 -1     10759 3.50036E-04 1.13734E-04-2.02661E-05
 -1     10760 3.58191E-04 8.59941E-05-2.17379E-05
 -1     10761 3.53850E-04 1.14973E-04-2.17379E-05
 -1     10766 3.50036E-04 1.13734E-04-2.32098E-05
 -1     10767 3.58191E-04 8.59941E-05-2.46816E-05
 -1     10768 3.53850E-04 1.14973E-04-2.46816E-05
 -1     10773 3.50036E-04 1.13734E-04-2.61535E-05
 -1     10774 3.58191E-04 8.59941E-05-2.76254E-05
 -1     10775 3.53850E-04 1.14973E-04-2.76254E-05
 -1     10780 3.50036E-04 1.13734E-04-2.90972E-05
 -1     10781 3.58191E-04 8.59941E-05-3.05691E-05
 -1     10782 3.53850E-04 1.14973E-04-3.05691E-05
 -1     10787 3.50036E-04 1.13734E-04-3.20409E-05
 -1     10788 3.58191E-04 8.59941E-05-3.35128E-05
 -1     10789 3.53850E-04 1.14973E-04-3.35128E-05
 -1     10794 3.50036E-04 1.13734E-04-3.49847E-05
 -1     10795 3.58191E-04 8.59941E-05-3.64565E-05
 -1     10796 3.53850E-04 1.14973E-04-3.64565E-05
 -1     10801 3.50036E-04 1.13734E-04-3.79284E-05
 -1     10805 3.27935E-04 1.67091E-04-8.49116E-06
 -1     10806 3.40329E-04 1.40969E-04-9.96303E-06
 -1     10807 3.31507E-04 1.68911E-04-9.96303E-06
 -1     10812 3.27935E-04 1.67091E-04-1.14349E-05
 -1     10813 3.40329E-04 1.40969E-04-1.29067E-05
 -1     10814 3.31507E-04 1.68911E-04-1.29067E-05
 -1     10819 3.27935E-04 1.67091E-04-1.43786E-05
 -1     10820 3.40329E-04 1.40969E-04-1.58505E-05
 -1     10821 3.31507E-04 1.68911E-04-1.58505E-05
 -1     10826 3.27935E-04 1.67091E-04-1.73223E-05
 -1     10827 3.40329E-04 1.40969E-04-1.87942E-05
 -1     10828 3.31507E-04 1.68911E-04-1.87942E-05
 -1     10833 3.27935E-04 1.67091E-04-2.02661E-05
 -1     10834 3.40329E-04 1.40969E-04-2.17379E-05
 -1     10835 3.31507E-04 1.68911E-04-2.17379E-05
 -1     10840 3.27935E-04 1.67091E-04-2.32098E-05
 -1     10841 3.40329E-04 1.40969E-04-2.46816E-05
 -1     10842 3.31507E-04 1.68911E-04-2.46816E-05
 -1     10847 3.27935E-04 1.67091E-04-2.61535E-05
 -1     10848 3.40329E-04 1.40969E-04-2.76254E-05
 -1     10849 3.31507E-04 1.68911E-04-2.76254E-05
 -1     10854 3.27935E-04 1.67091E-04-2.90972E-05
 -1     10855 3.40329E-04 1.40969E-04-3.05691E-05
 -1     10856 3.31507E-04 1.68911E-04-3.05691E-05
 -1     10861 3.27935E-04 1.67091E-04-3.20409E-05
 -1     10862 3.40329E-04 1.40969E-04-3.35128E-05
 -1     10863 3.31507E-04 1.68911E-04-3.35128E-05
 -1     10868 3.27935E-04 1.67091E-04-3.49847E-05
 -1     10869 3.40329E-04 1.40969E-04-3.64565E-05
 -1     10870 3.31507E-04 1.68911E-04-3.64565E-05
 -1     10875 3.27935E-04 1.67091E-04-3.79284E-05
 -1     10879 2.97758E-04 2.16334E-04-8.49116E-06
 -1     10880 3.14087E-04 1.92472E-04-9.96303E-06
 -1     10881 3.01002E-04 2.18691E-04-9.96303E-06
 -1     10886 2.97758E-04 2.16334E-04-1.14349E-05
 -1     10887 3.14087E-04 1.92472E-04-1.29067E-05
 -1     10888 3.01002E-04 2.18691E-04-1.29067E-05
 -1     10893 2.97758E-04 2.16334E-04-1.43786E-05
 -1     10894 3.14087E-04 1.92472E-04-1.58505E-05
 -1     10895 3.01002E-04 2.18691E-04-1.58505E-05
 -1     10900 2.97758E-04 2.16334E-04-1.73223E-05
 -1     10901 3.14087E-04 1.92472E-04-1.87942E-05
 -1     10902 3.01002E-04 2.18691E-04-1.87942E-05
 -1     10907 2.97758E-04 2.16334E-04-2.02661E-05
 -1     10908 3.14087E-04 1.92472E-04-2.17379E-05
 -1     10909 3.01002E-04 2.18691E-04-2.17379E-05
 -1     10914 2.97758E-04 2.16334E-04-2.32098E-05
 -1     10915 3.14087E-04 1.92472E-04-2.46816E-05
 -1     10916 3.01002E-04 2.18691E-04-2.46816E-05
 -1     10921 2.97758E-04 2.16334E-04-2.61535E-05
 -1     10922 3.14087E-04 1.92472E-04-2.76254E-05
 -1     10923 3.01002E-04 2.18691E-04-2.76254E-05
 -1     10928 2.97758E-04 2.16334E-04-2.90972E-05
 -1     10929 3.14087E-04 1.92472E-04-3.05691E-05
 -1     10930 3.01002E-04 2.18691E-04-3.05691E-05
 -1     10935 2.97758E-04 2.16334E-04-3.20409E-05
 -1     10936 3.14087E-04 1.92472E-04-3.35128E-05
 -1     10937 3.01002E-04 2.18691E-04-3.35128E-05
 -1     10942 2.97758E-04 2.16334E-04-3.49847E-05
 -1     10943 3.14087E-04 1.92472E-04-3.64565E-05
 -1     10944 3.01002E-04 2.18691E-04-3.64565E-05
 -1     10949 2.97758E-04 2.16334E-04-3.79284E-05
 -1     10953 2.60250E-04 2.60250E-04-8.49116E-06
 -1     10954 2.80110E-04 2.39237E-04-9.96303E-06
 -1     10955 2.63086E-04 2.63086E-04-9.96303E-06
 -1     10960 2.60250E-04 2.60250E-04-1.14349E-05
 -1     10961 2.80110E-04 2.39237E-04-1.29067E-05
 -1     10962 2.63086E-04 2.63086E-04-1.29067E-05
 -1     10967 2.60250E-04 2.60250E-04-1.43786E-05
 -1     10968 2.80110E-04 2.39237E-04-1.58505E-05
 -1     10969 2.63086E-04 2.63086E-04-1.58505E-05
 -1     10974 2.60250E-04 2.60250E-04-1.73223E-05
 -1     10975 2.80110E-04 2.39237E-04-1.87942E-05
 -1     10976 2.63086E-04 2.63086E-04-1.87942E-05
 -1     10981 2.60250E-04 2.60250E-04-2.02661E-05
 -1     10982 2.80110E-04 2.39237E-04-2.17379E-05
 -1     10983 2.63086E-04 2.63086E-04-2.17379E-05
 -1     10988 2.60250E-04 2.60250E-04-2.32098E-05
 -1     10989 2.80110E-04 2.39237E-04-2.46816E-05
 -1     10990 2.63086E-04 2.63086E-04-2.46816E-05
 -1     10995 2.60250E-04 2.60250E-04-2.61535E-05
 -1     10996 2.80110E-04 2.39237E-04-2.76254E-05
 -1     10997 2.63086E-04 2.63086E-04-2.76254E-05
 -1     11002 2.60250E-04 2.60250E-04-2.90972E-05
 -1     11003 2.80110E-04 2.39237E-04-3.05691E-05
 -1     11004 2.63086E-04 2.63086E-04-3.05691E-05
 -1     11009 2.60250E-04 2.60250E-04-3.20409E-05
 -1     11010 2.80110E-04 2.39237E-04-3.35128E-05
 -1     11011 2.63086E-04 2.63086E-04-3.35128E-05
 -1     11016 2.60250E-04 2.60250E-04-3.49847E-05
 -1     11017 2.80110E-04 2.39237E-04-3.64565E-05
 -1     11018 2.63086E-04 2.63086E-04-3.64565E-05
 -1     11023 2.60250E-04 2.60250E-04-3.79284E-05
 -1     11027 2.16334E-04 2.97758E-04-8.49116E-06
 -1     11028 2.39237E-04 2.80110E-04-9.96303E-06
 -1     11029 2.18691E-04 3.01002E-04-9.96303E-06
 -1     11034 2.16334E-04 2.97758E-04-1.14349E-05
 -1     11035 2.39237E-04 2.80110E-04-1.29067E-05
 -1     11036 2.18691E-04 3.01002E-04-1.29067E-05
 -1     11041 2.16334E-04 2.97758E-04-1.43786E-05
 -1     11042 2.39237E-04 2.80110E-04-1.58505E-05
 -1     11043 2.18691E-04 3.01002E-04-1.58505E-05
 -1     11048 2.16334E-04 2.97758E-04-1.73223E-05
 -1     11049 2.39237E-04 2.80110E-04-1.87942E-05
 -1     11050 2.18691E-04 3.01002E-04-1.87942E-05
 -1     11055 2.16334E-04 2.97758E-04-2.02661E-05
 -1     11056 2.39237E-04 2.80110E-04-2.17379E-05
 -1     11057 2.18691E-04 3.01002E-04-2.17379E-05
 -1     11062 2.16334E-04 2.97758E-04-2.32098E-05
 -1     11063 2.39237E-04 2.80110E-04-2.46816E-05
 -1     11064 2.18691E-04 3.01002E-04-2.46816E-05
 -1     11069 2.16334E-04 2.97758E-04-2.61535E-05
 -1     11070 2.39237E-04 2.80110E-04-2.76254E-05
 -1     11071 2.18691E-04 3.01002E-04-2.76254E-05
 -1     11076 2.16334E-04 2.97758E-04-2.90972E-05
 -1     11077 2.39237E-04 2.80110E-04-3.05691E-05
 -1     11078 2.18691E-04 3.01002E-04-3.05691E-05
 -1     11083 2.16334E-04 2.97758E-04-3.20409E-05
 -1     11084 2.39237E-04 2.80110E-04-3.35128E-05
 -1     11085 2.18691E-04 3.01002E-04-3.35128E-05
 -1     11090 2.16334E-04 2.97758E-04-3.49847E-05
 -1     11091 2.39237E-04 2.80110E-04-3.64565E-05
 -1     11092 2.18691E-04 3.01002E-04-3.64565E-05
 -1     11097 2.16334E-04 2.97758E-04-3.79284E-05
 -1     11101 1.67091E-04 3.27935E-04-8.49116E-06
 -1     11102 1.92472E-04 3.14087E-04-9.96303E-06
 -1     11103 1.68911E-04 3.31507E-04-9.96303E-06
 -1     11108 1.67091E-04 3.27935E-04-1.14349E-05
 -1     11109 1.92472E-04 3.14087E-04-1.29067E-05
 -1     11110 1.68911E-04 3.31507E-04-1.29067E-05
 -1     11115 1.67091E-04 3.27935E-04-1.43786E-05
 -1     11116 1.92472E-04 3.14087E-04-1.58505E-05
 -1     11117 1.68911E-04 3.31507E-04-1.58505E-05
 -1     11122 1.67091E-04 3.27935E-04-1.73223E-05
 -1     11123 1.92472E-04 3.14087E-04-1.87942E-05
 -1     11124 1.68911E-04 3.31507E-04-1.87942E-05
 -1     11129 1.67091E-04 3.27935E-04-2.02661E-05
 -1     11130 1.92472E-04 3.14087E-04-2.17379E-05
 -1     11131 1.68911E-04 3.31507E-04-2.17379E-05
 -1     11136 1.67091E-04 3.27935E-04-2.32098E-05
 -1     11137 1.92472E-04 3.14087E-04-2.46816E-05
 -1     11138 1.68911E-04 3.31507E-04-2.46816E-05
 -1     11143 1.67091E-04 3.27935E-04-2.61535E-05
 -1     11144 1.92472E-04 3.14087E-04-2.76254E-05
 -1     11145 1.68911E-04 3.31507E-04-2.76254E-05
 -1     11150 1.67091E-04 3.27935E-04-2.90972E-05
 -1     11151 1.92472E-04 3.14087E-04-3.05691E-05
 -1     11152 1.68911E-04 3.31507E-04-3.05691E-05
 -1     11157 1.67091E-04 3.27935E-04-3.20409E-05
 -1     11158 1.92472E-04 3.14087E-04-3.35128E-05
 -1     11159 1.68911E-04 3.31507E-04-3.35128E-05
 -1     11164 1.67091E-04 3.27935E-04-3.49847E-05
 -1     11165 1.92472E-04 3.14087E-04-3.64565E-05
 -1     11166 1.68911E-04 3.31507E-04-3.64565E-05
 -1     11171 1.67091E-04 3.27935E-04-3.79284E-05
 -1     11175 1.13734E-04 3.50036E-04-8.49116E-06
 -1     11176 1.40969E-04 3.40329E-04-9.96303E-06
 -1     11177 1.14973E-04 3.53850E-04-9.96303E-06
 -1     11182 1.13734E-04 3.50036E-04-1.14349E-05
 -1     11183 1.40969E-04 3.40329E-04-1.29067E-05
 -1     11184 1.14973E-04 3.53850E-04-1.29067E-05
 -1     11189 1.13734E-04 3.50036E-04-1.43786E-05
 -1     11190 1.40969E-04 3.40329E-04-1.58505E-05
 -1     11191 1.14973E-04 3.53850E-04-1.58505E-05
 -1     11196 1.13734E-04 3.50036E-04-1.73223E-05
 -1     11197 1.40969E-04 3.40329E-04-1.87942E-05
 -1     11198 1.14973E-04 3.53850E-04-1.87942E-05
 -1     11203 1.13734E-04 3.50036E-04-2.02661E-05
 -1     11204 1.40969E-04 3.40329E-04-2.17379E-05
 -1     11205 1.14973E-04 3.53850E-04-2.17379E-05
 -1     11210 1.13734E-04 3.50036E-04-2.32098E-05
 -1     11211 1.40969E-04 3.40329E-04-2.46816E-05
 -1     11212 1.14973E-04 3.53850E-04-2.46816E-05
 -1     11217 1.13734E-04 3.50036E-04-2.61535E-05
 -1     11218 1.40969E-04 3.40329E-04-2.76254E-05
 -1     11219 1.14973E-04 3.53850E-04-2.76254E-05
 -1     11224 1.13734E-04 3.50036E-04-2.90972E-05
 -1     11225 1.40969E-04 3.40329E-04-3.05691E-05
 -1     11226 1.14973E-04 3.53850E-04-3.05691E-05
 -1     11231 1.13734E-04 3.50036E-04-3.20409E-05
 -1     11232 1.40969E-04 3.40329E-04-3.35128E-05
 -1     11233 1.14973E-04 3.53850E-04-3.35128E-05
 -1     11238 1.13734E-04 3.50036E-04-3.49847E-05
 -1     11239 1.40969E-04 3.40329E-04-3.64565E-05
 -1     11240 1.14973E-04 3.53850E-04-3.64565E-05
 -1     11245 1.13734E-04 3.50036E-04-3.79284E-05
 -1     11249 5.75756E-05 3.63518E-04-8.49116E-06
 -1     11250 8.59941E-05 3.58191E-04-9.96303E-06
 -1     11251 5.82029E-05 3.67479E-04-9.96303E-06
 -1     11256 5.75756E-05 3.63518E-04-1.14349E-05
 -1     11257 8.59941E-05 3.58191E-04-1.29067E-05
 -1     11258 5.82029E-05 3.67479E-04-1.29067E-05
 -1     11263 5.75756E-05 3.63518E-04-1.43786E-05
 -1     11264 8.59941E-05 3.58191E-04-1.58505E-05
 -1     11265 5.82029E-05 3.67479E-04-1.58505E-05
 -1     11270 5.75756E-05 3.63518E-04-1.73223E-05
 -1     11271 8.59941E-05 3.58191E-04-1.87942E-05
 -1     11272 5.82029E-05 3.67479E-04-1.87942E-05
 -1     11277 5.75756E-05 3.63518E-04-2.02661E-05
 -1     11278 8.59941E-05 3.58191E-04-2.17379E-05
 -1     11279 5.82029E-05 3.67479E-04-2.17379E-05
 -1     11284 5.75756E-05 3.63518E-04-2.32098E-05
 -1     11285 8.59941E-05 3.58191E-04-2.46816E-05
 -1     11286 5.82029E-05 3.67479E-04-2.46816E-05
 -1     11291 5.75756E-05 3.63518E-04-2.61535E-05
 -1     11292 8.59941E-05 3.58191E-04-2.76254E-05
 -1     11293 5.82029E-05 3.67479E-04-2.76254E-05
 -1     11298 5.75756E-05 3.63518E-04-2.90972E-05
 -1     11299 8.59941E-05 3.58191E-04-3.05691E-05
 -1     11300 5.82029E-05 3.67479E-04-3.05691E-05
 -1     11305 5.75756E-05 3.63518E-04-3.20409E-05
 -1     11306 8.59941E-05 3.58191E-04-3.35128E-05
 -1     11307 5.82029E-05 3.67479E-04-3.35128E-05
 -1     11312 5.75756E-05 3.63518E-04-3.49847E-05
 -1     11313 8.59941E-05 3.58191E-04-3.64565E-05
 -1     11314 5.82029E-05 3.67479E-04-3.64565E-05
 -1     11319 5.75756E-05 3.63518E-04-3.79284E-05
 -1     11323 2.89019E-05 3.67234E-04-9.96303E-06
 -1     11327 2.89019E-05 3.67234E-04-1.29067E-05
 -1     11331 2.89019E-05 3.67234E-04-1.58505E-05
 -1     11335 2.89019E-05 3.67234E-04-1.87942E-05
 -1     11339 2.89019E-05 3.67234E-04-2.17379E-05
 -1     11343 2.89019E-05 3.67234E-04-2.46816E-05
 -1     11347 2.89019E-05 3.67234E-04-2.76254E-05
 -1     11351 2.89019E-05 3.67234E-04-3.05691E-05
 -1     11355 2.89019E-05 3.67234E-04-3.35128E-05
 -1     11359 2.89019E-05 3.67234E-04-3.64565E-05
 -1     11365 3.57318E-04 5.65936E-05-8.49116E-06
 -1     11366 3.60899E-04 2.84033E-05-9.96302E-06
 -1     11367 3.60149E-04 5.70420E-05-9.96302E-06
 -1     11372 3.57318E-04 5.65936E-05-1.14349E-05
 -1     11373 3.60899E-04 2.84033E-05-1.29067E-05
 -1     11374 3.60149E-04 5.70420E-05-1.29067E-05
 -1     11379 3.57318E-04 5.65936E-05-1.43786E-05
 -1     11380 3.60899E-04 2.84033E-05-1.58505E-05
 -1     11381 3.60149E-04 5.70420E-05-1.58505E-05
 -1     11386 3.57318E-04 5.65936E-05-1.73223E-05
 -1     11387 3.60899E-04 2.84033E-05-1.87942E-05
 -1     11388 3.60149E-04 5.70420E-05-1.87942E-05
 -1     11393 3.57318E-04 5.65936E-05-2.02661E-05
 -1     11394 3.60899E-04 2.84033E-05-2.17379E-05
 -1     11395 3.60149E-04 5.70420E-05-2.17379E-05
 -1     11400 3.57318E-04 5.65936E-05-2.32098E-05
 -1     11401 3.60899E-04 2.84033E-05-2.46816E-05
 -1     11402 3.60149E-04 5.70420E-05-2.46816E-05
 -1     11407 3.57318E-04 5.65936E-05-2.61535E-05
 -1     11408 3.60899E-04 2.84033E-05-2.76254E-05
 -1     11409 3.60149E-04 5.70420E-05-2.76254E-05
 -1     11414 3.57318E-04 5.65936E-05-2.90972E-05
 -1     11415 3.60899E-04 2.84033E-05-3.05691E-05
 -1     11416 3.60149E-04 5.70420E-05-3.05691E-05
 -1     11421 3.57318E-04 5.65936E-05-3.20409E-05
 -1     11422 3.60899E-04 2.84033E-05-3.35128E-05
 -1     11423 3.60149E-04 5.70420E-05-3.35128E-05
 -1     11428 3.57318E-04 5.65936E-05-3.49847E-05
 -1     11429 3.60899E-04 2.84033E-05-3.64565E-05
 -1     11430 3.60149E-04 5.70420E-05-3.64565E-05
 -1     11435 3.57318E-04 5.65936E-05-3.79284E-05
 -1     11439 3.44065E-04 1.11794E-04-8.49116E-06
 -1     11440 3.52012E-04 8.45107E-05-9.96302E-06
 -1     11441 3.46792E-04 1.12679E-04-9.96302E-06
 -1     11446 3.44065E-04 1.11794E-04-1.14349E-05
 -1     11447 3.52012E-04 8.45107E-05-1.29067E-05
 -1     11448 3.46792E-04 1.12679E-04-1.29067E-05
 -1     11453 3.44065E-04 1.11794E-04-1.43786E-05
 -1     11454 3.52012E-04 8.45107E-05-1.58505E-05
 -1     11455 3.46792E-04 1.12679E-04-1.58505E-05
 -1     11460 3.44065E-04 1.11794E-04-1.73223E-05
 -1     11461 3.52012E-04 8.45107E-05-1.87942E-05
 -1     11462 3.46792E-04 1.12679E-04-1.87942E-05
 -1     11467 3.44065E-04 1.11794E-04-2.02661E-05
 -1     11468 3.52012E-04 8.45107E-05-2.17379E-05
 -1     11469 3.46792E-04 1.12679E-04-2.17379E-05
 -1     11474 3.44065E-04 1.11794E-04-2.32098E-05
 -1     11475 3.52012E-04 8.45107E-05-2.46816E-05
 -1     11476 3.46792E-04 1.12679E-04-2.46816E-05
 -1     11481 3.44065E-04 1.11794E-04-2.61535E-05
 -1     11482 3.52012E-04 8.45107E-05-2.76254E-05
 -1     11483 3.46792E-04 1.12679E-04-2.76254E-05
 -1     11488 3.44065E-04 1.11794E-04-2.90972E-05
 -1     11489 3.52012E-04 8.45107E-05-3.05691E-05
 -1     11490 3.46792E-04 1.12679E-04-3.05691E-05
 -1     11495 3.44065E-04 1.11794E-04-3.20409E-05
 -1     11496 3.52012E-04 8.45107E-05-3.35128E-05
 -1     11497 3.46792E-04 1.12679E-04-3.35128E-05
 -1     11502 3.44065E-04 1.11794E-04-3.49847E-05
 -1     11503 3.52012E-04 8.45107E-05-3.64565E-05
 -1     11504 3.46792E-04 1.12679E-04-3.64565E-05
 -1     11509 3.44065E-04 1.11794E-04-3.79284E-05
 -1     11513 3.22341E-04 1.64241E-04-8.49116E-06
 -1     11514 3.34458E-04 1.38537E-04-9.96302E-06
 -1     11515 3.24895E-04 1.65542E-04-9.96302E-06
 -1     11520 3.22341E-04 1.64241E-04-1.14349E-05
 -1     11521 3.34458E-04 1.38537E-04-1.29067E-05
 -1     11522 3.24895E-04 1.65542E-04-1.29067E-05
 -1     11527 3.22341E-04 1.64241E-04-1.43786E-05
 -1     11528 3.34458E-04 1.38537E-04-1.58505E-05
 -1     11529 3.24895E-04 1.65542E-04-1.58505E-05
 -1     11534 3.22341E-04 1.64241E-04-1.73223E-05
 -1     11535 3.34458E-04 1.38537E-04-1.87942E-05
 -1     11536 3.24895E-04 1.65542E-04-1.87942E-05
 -1     11541 3.22341E-04 1.64241E-04-2.02661E-05
 -1     11542 3.34458E-04 1.38537E-04-2.17379E-05
 -1     11543 3.24895E-04 1.65542E-04-2.17379E-05
 -1     11548 3.22341E-04 1.64241E-04-2.32098E-05
 -1     11549 3.34458E-04 1.38537E-04-2.46816E-05
 -1     11550 3.24895E-04 1.65542E-04-2.46816E-05
 -1     11555 3.22341E-04 1.64241E-04-2.61535E-05
 -1     11556 3.34458E-04 1.38537E-04-2.76254E-05
 -1     11557 3.24895E-04 1.65542E-04-2.76254E-05
 -1     11562 3.22341E-04 1.64241E-04-2.90972E-05
 -1     11563 3.34458E-04 1.38537E-04-3.05691E-05
 -1     11564 3.24895E-04 1.65542E-04-3.05691E-05
 -1     11569 3.22341E-04 1.64241E-04-3.20409E-05
 -1     11570 3.34458E-04 1.38537E-04-3.35128E-05
 -1     11571 3.24895E-04 1.65542E-04-3.35128E-05
 -1     11576 3.22341E-04 1.64241E-04-3.49847E-05
 -1     11577 3.34458E-04 1.38537E-04-3.64565E-05
 -1     11578 3.24895E-04 1.65542E-04-3.64565E-05
 -1     11583 3.22341E-04 1.64241E-04-3.79284E-05
 -1     11587 2.92679E-04 2.12644E-04-8.49116E-06
 -1     11588 3.08668E-04 1.89152E-04-9.96302E-06
 -1     11589 2.94999E-04 2.14329E-04-9.96302E-06
 -1     11594 2.92679E-04 2.12644E-04-1.14349E-05
 -1     11595 3.08668E-04 1.89152E-04-1.29067E-05
 -1     11596 2.94999E-04 2.14329E-04-1.29067E-05
 -1     11601 2.92679E-04 2.12644E-04-1.43786E-05
 -1     11602 3.08668E-04 1.89152E-04-1.58505E-05
 -1     11603 2.94999E-04 2.14329E-04-1.58505E-05
 -1     11608 2.92679E-04 2.12644E-04-1.73223E-05
 -1     11609 3.08668E-04 1.89152E-04-1.87942E-05
 -1     11610 2.94999E-04 2.14329E-04-1.87942E-05
 -1     11615 2.92679E-04 2.12644E-04-2.02661E-05
 -1     11616 3.08668E-04 1.89152E-04-2.17379E-05
 -1     11617 2.94999E-04 2.14329E-04-2.17379E-05
 -1     11622 2.92679E-04 2.12644E-04-2.32098E-05
 -1     11623 3.08668E-04 1.89152E-04-2.46816E-05
 -1     11624 2.94999E-04 2.14329E-04-2.46816E-05
 -1     11629 2.92679E-04 2.12644E-04-2.61535E-05
 -1     11630 3.08668E-04 1.89152E-04-2.76254E-05
 -1     11631 2.94999E-04 2.14329E-04-2.76254E-05
 -1     11636 2.92679E-04 2.12644E-04-2.90972E-05
 -1     11637 3.08668E-04 1.89152E-04-3.05691E-05
 -1     11638 2.94999E-04 2.14329E-04-3.05691E-05
 -1     11643 2.92679E-04 2.12644E-04-3.20409E-05
 -1     11644 3.08668E-04 1.89152E-04-3.35128E-05
 -1     11645 2.94999E-04 2.14329E-04-3.35128E-05
 -1     11650 2.92679E-04 2.12644E-04-3.49847E-05
 -1     11651 3.08668E-04 1.89152E-04-3.64565E-05
 -1     11652 2.94999E-04 2.14329E-04-3.64565E-05
 -1     11657 2.92679E-04 2.12644E-04-3.79284E-05
 -1     11661 2.55811E-04 2.55811E-04-8.49116E-06
 -1     11662 2.75278E-04 2.35110E-04-9.96302E-06
 -1     11663 2.57838E-04 2.57838E-04-9.96302E-06
 -1     11668 2.55811E-04 2.55811E-04-1.14349E-05
 -1     11669 2.75278E-04 2.35110E-04-1.29067E-05
 -1     11670 2.57838E-04 2.57838E-04-1.29067E-05
 -1     11675 2.55811E-04 2.55811E-04-1.43786E-05
 -1     11676 2.75278E-04 2.35110E-04-1.58505E-05
 -1     11677 2.57838E-04 2.57838E-04-1.58505E-05
 -1     11682 2.55811E-04 2.55811E-04-1.73223E-05
 -1     11683 2.75278E-04 2.35110E-04-1.87942E-05
 -1     11684 2.57838E-04 2.57838E-04-1.87942E-05
 -1     11689 2.55811E-04 2.55811E-04-2.02661E-05
 -1     11690 2.75278E-04 2.35110E-04-2.17379E-05
 -1     11691 2.57838E-04 2.57838E-04-2.17379E-05
 -1     11696 2.55811E-04 2.55811E-04-2.32098E-05
 -1     11697 2.75278E-04 2.35110E-04-2.46816E-05
 -1     11698 2.57838E-04 2.57838E-04-2.46816E-05
 -1     11703 2.55811E-04 2.55811E-04-2.61535E-05
 -1     11704 2.75278E-04 2.35110E-04-2.76254E-05
 -1     11705 2.57838E-04 2.57838E-04-2.76254E-05
 -1     11710 2.55811E-04 2.55811E-04-2.90972E-05
 -1     11711 2.75278E-04 2.35110E-04-3.05691E-05
 -1     11712 2.57838E-04 2.57838E-04-3.05691E-05
 -1     11717 2.55811E-04 2.55811E-04-3.20409E-05
 -1     11718 2.75278E-04 2.35110E-04-3.35128E-05
 -1     11719 2.57838E-04 2.57838E-04-3.35128E-05
 -1     11724 2.55811E-04 2.55811E-04-3.49847E-05
 -1     11725 2.75278E-04 2.35110E-04-3.64565E-05
 -1     11726 2.57838E-04 2.57838E-04-3.64565E-05
 -1     11731 2.55811E-04 2.55811E-04-3.79284E-05
 -1     11735 2.12644E-04 2.92679E-04-8.49116E-06
 -1     11736 2.35110E-04 2.75278E-04-9.96302E-06
 -1     11737 2.14329E-04 2.94999E-04-9.96302E-06
 -1     11742 2.12644E-04 2.92679E-04-1.14349E-05
 -1     11743 2.35110E-04 2.75278E-04-1.29067E-05
 -1     11744 2.14329E-04 2.94999E-04-1.29067E-05
 -1     11749 2.12644E-04 2.92679E-04-1.43786E-05
 -1     11750 2.35110E-04 2.75278E-04-1.58505E-05
 -1     11751 2.14329E-04 2.94999E-04-1.58505E-05
 -1     11756 2.12644E-04 2.92679E-04-1.73223E-05
 -1     11757 2.35110E-04 2.75278E-04-1.87942E-05
 -1     11758 2.14329E-04 2.94999E-04-1.87942E-05
 -1     11763 2.12644E-04 2.92679E-04-2.02661E-05
 -1     11764 2.35110E-04 2.75278E-04-2.17379E-05
 -1     11765 2.14329E-04 2.94999E-04-2.17379E-05
 -1     11770 2.12644E-04 2.92679E-04-2.32098E-05
 -1     11771 2.35110E-04 2.75278E-04-2.46816E-05
 -1     11772 2.14329E-04 2.94999E-04-2.46816E-05
 -1     11777 2.12644E-04 2.92679E-04-2.61535E-05
 -1     11778 2.35110E-04 2.75278E-04-2.76254E-05
 -1     11779 2.14329E-04 2.94999E-04-2.76254E-05
 -1     11784 2.12644E-04 2.92679E-04-2.90972E-05
 -1     11785 2.35110E-04 2.75278E-04-3.05691E-05
 -1     11786 2.14329E-04 2.94999E-04-3.05691E-05
 -1     11791 2.12644E-04 2.92679E-04-3.20409E-05
 -1     11792 2.35110E-04 2.75278E-04-3.35128E-05
 -1     11793 2.14329E-04 2.94999E-04-3.35128E-05
 -1     11798 2.12644E-04 2.92679E-04-3.49847E-05
 -1     11799 2.35110E-04 2.75278E-04-3.64565E-05
 -1     11800 2.14329E-04 2.94999E-04-3.64565E-05
 -1     11805 2.12644E-04 2.92679E-04-3.79284E-05
 -1     11809 1.64241E-04 3.22341E-04-8.49116E-06
 -1     11810 1.89152E-04 3.08668E-04-9.96302E-06
 -1     11811 1.65542E-04 3.24895E-04-9.96302E-06
 -1     11816 1.64241E-04 3.22341E-04-1.14349E-05
 -1     11817 1.89152E-04 3.08668E-04-1.29067E-05
 -1     11818 1.65542E-04 3.24895E-04-1.29067E-05
 -1     11823 1.64241E-04 3.22341E-04-1.43786E-05
 -1     11824 1.89152E-04 3.08668E-04-1.58505E-05
 -1     11825 1.65542E-04 3.24895E-04-1.58505E-05
 -1     11830 1.64241E-04 3.22341E-04-1.73223E-05
 -1     11831 1.89152E-04 3.08668E-04-1.87942E-05
 -1     11832 1.65542E-04 3.24895E-04-1.87942E-05
 -1     11837 1.64241E-04 3.22341E-04-2.02661E-05
 -1     11838 1.89152E-04 3.08668E-04-2.17379E-05
 -1     11839 1.65542E-04 3.24895E-04-2.17379E-05
 -1     11844 1.64241E-04 3.22341E-04-2.32098E-05
 -1     11845 1.89152E-04 3.08668E-04-2.46816E-05
 -1     11846 1.65542E-04 3.24895E-04-2.46816E-05
 -1     11851 1.64241E-04 3.22341E-04-2.61535E-05
 -1     11852 1.89152E-04 3.08668E-04-2.76254E-05
 -1     11853 1.65542E-04 3.24895E-04-2.76254E-05
 -1     11858 1.64241E-04 3.22341E-04-2.90972E-05
 -1     11859 1.89152E-04 3.08668E-04-3.05691E-05
 -1     11860 1.65542E-04 3.24895E-04-3.05691E-05
 -1     11865 1.64241E-04 3.22341E-04-3.20409E-05
 -1     11866 1.89152E-04 3.08668E-04-3.35128E-05
 -1     11867 1.65542E-04 3.24895E-04-3.35128E-05
 -1     11872 1.64241E-04 3.22341E-04-3.49847E-05
 -1     11873 1.89152E-04 3.08668E-04-3.64565E-05
 -1     11874 1.65542E-04 3.24895E-04-3.64565E-05
 -1     11879 1.64241E-04 3.22341E-04-3.79284E-05
 -1     11883 1.11794E-04 3.44065E-04-8.49116E-06
 -1     11884 1.38537E-04 3.34458E-04-9.96302E-06
 -1     11885 1.12679E-04 3.46792E-04-9.96302E-06
 -1     11890 1.11794E-04 3.44065E-04-1.14349E-05
 -1     11891 1.38537E-04 3.34458E-04-1.29067E-05
 -1     11892 1.12679E-04 3.46792E-04-1.29067E-05
 -1     11897 1.11794E-04 3.44065E-04-1.43786E-05
 -1     11898 1.38537E-04 3.34458E-04-1.58505E-05
 -1     11899 1.12679E-04 3.46792E-04-1.58505E-05
 -1     11904 1.11794E-04 3.44065E-04-1.73223E-05
 -1     11905 1.38537E-04 3.34458E-04-1.87942E-05
 -1     11906 1.12679E-04 3.46792E-04-1.87942E-05
 -1     11911 1.11794E-04 3.44065E-04-2.02661E-05
 -1     11912 1.38537E-04 3.34458E-04-2.17379E-05
 -1     11913 1.12679E-04 3.46792E-04-2.17379E-05
 -1     11918 1.11794E-04 3.44065E-04-2.32098E-05
 -1     11919 1.38537E-04 3.34458E-04-2.46816E-05
 -1     11920 1.12679E-04 3.46792E-04-2.46816E-05
 -1     11925 1.11794E-04 3.44065E-04-2.61535E-05
 -1     11926 1.38537E-04 3.34458E-04-2.76254E-05
 -1     11927 1.12679E-04 3.46792E-04-2.76254E-05
 -1     11932 1.11794E-04 3.44065E-04-2.90972E-05
 -1     11933 1.38537E-04 3.34458E-04-3.05691E-05
 -1     11934 1.12679E-04 3.46792E-04-3.05691E-05
 -1     11939 1.11794E-04 3.44065E-04-3.20409E-05
 -1     11940 1.38537E-04 3.34458E-04-3.35128E-05
 -1     11941 1.12679E-04 3.46792E-04-3.35128E-05
 -1     11946 1.11794E-04 3.44065E-04-3.49847E-05
 -1     11947 1.38537E-04 3.34458E-04-3.64565E-05
 -1     11948 1.12679E-04 3.46792E-04-3.64565E-05
 -1     11953 1.11794E-04 3.44065E-04-3.79284E-05
 -1     11957 5.65936E-05 3.57318E-04-8.49116E-06
 -1     11958 8.45107E-05 3.52012E-04-9.96302E-06
 -1     11959 5.70420E-05 3.60149E-04-9.96302E-06
 -1     11964 5.65936E-05 3.57318E-04-1.14349E-05
 -1     11965 8.45107E-05 3.52012E-04-1.29067E-05
 -1     11966 5.70420E-05 3.60149E-04-1.29067E-05
 -1     11971 5.65936E-05 3.57318E-04-1.43786E-05
 -1     11972 8.45107E-05 3.52012E-04-1.58505E-05
 -1     11973 5.70420E-05 3.60149E-04-1.58505E-05
 -1     11978 5.65936E-05 3.57318E-04-1.73223E-05
 -1     11979 8.45107E-05 3.52012E-04-1.87942E-05
 -1     11980 5.70420E-05 3.60149E-04-1.87942E-05
 -1     11985 5.65936E-05 3.57318E-04-2.02661E-05
 -1     11986 8.45107E-05 3.52012E-04-2.17379E-05
 -1     11987 5.70420E-05 3.60149E-04-2.17379E-05
 -1     11992 5.65936E-05 3.57318E-04-2.32098E-05
 -1     11993 8.45107E-05 3.52012E-04-2.46816E-05
 -1     11994 5.70420E-05 3.60149E-04-2.46816E-05
 -1     11999 5.65936E-05 3.57318E-04-2.61535E-05
 -1     12000 8.45107E-05 3.52012E-04-2.76254E-05
 -1     12001 5.70420E-05 3.60149E-04-2.76254E-05
 -1     12006 5.65936E-05 3.57318E-04-2.90972E-05
 -1     12007 8.45107E-05 3.52012E-04-3.05691E-05
 -1     12008 5.70420E-05 3.60149E-04-3.05691E-05
 -1     12013 5.65936E-05 3.57318E-04-3.20409E-05
 -1     12014 8.45107E-05 3.52012E-04-3.35128E-05
 -1     12015 5.70420E-05 3.60149E-04-3.35128E-05
 -1     12020 5.65936E-05 3.57318E-04-3.49847E-05
 -1     12021 8.45107E-05 3.52012E-04-3.64565E-05
 -1     12022 5.70420E-05 3.60149E-04-3.64565E-05
 -1     12027 5.65936E-05 3.57318E-04-3.79284E-05
 -1     12031 2.84033E-05 3.60899E-04-9.96302E-06
 -1     12035 2.84033E-05 3.60899E-04-1.29067E-05
 -1     12039 2.84033E-05 3.60899E-04-1.58505E-05
 -1     12043 2.84033E-05 3.60899E-04-1.87942E-05
 -1     12047 2.84033E-05 3.60899E-04-2.17379E-05
 -1     12051 2.84033E-05 3.60899E-04-2.46816E-05
 -1     12055 2.84033E-05 3.60899E-04-2.76254E-05
 -1     12059 2.84033E-05 3.60899E-04-3.05691E-05
 -1     12063 2.84033E-05 3.60899E-04-3.35128E-05
 -1     12067 2.84033E-05 3.60899E-04-3.64565E-05
 -1     12073 3.53059E-04 5.59190E-05-8.49116E-06
 -1     12074 3.56529E-04 2.80594E-05-9.96302E-06
 -1     12075 3.54968E-04 5.62214E-05-9.96302E-06
 -1     12080 3.53059E-04 5.59190E-05-1.14349E-05
 -1     12081 3.56529E-04 2.80594E-05-1.29067E-05
 -1     12082 3.54968E-04 5.62214E-05-1.29067E-05
 -1     12087 3.53059E-04 5.59190E-05-1.43786E-05
 -1     12088 3.56529E-04 2.80594E-05-1.58505E-05
 -1     12089 3.54968E-04 5.62214E-05-1.58505E-05
 -1     12094 3.53059E-04 5.59190E-05-1.73223E-05
 -1     12095 3.56529E-04 2.80594E-05-1.87942E-05
 -1     12096 3.54968E-04 5.62214E-05-1.87942E-05
 -1     12101 3.53059E-04 5.59190E-05-2.02661E-05
 -1     12102 3.56529E-04 2.80594E-05-2.17379E-05
 -1     12103 3.54968E-04 5.62214E-05-2.17379E-05
 -1     12108 3.53059E-04 5.59190E-05-2.32098E-05
 -1     12109 3.56529E-04 2.80594E-05-2.46816E-05
 -1     12110 3.54968E-04 5.62214E-05-2.46816E-05
 -1     12115 3.53059E-04 5.59190E-05-2.61535E-05
 -1     12116 3.56529E-04 2.80594E-05-2.76254E-05
 -1     12117 3.54968E-04 5.62214E-05-2.76254E-05
 -1     12122 3.53059E-04 5.59190E-05-2.90972E-05
 -1     12123 3.56529E-04 2.80594E-05-3.05691E-05
 -1     12124 3.54968E-04 5.62214E-05-3.05691E-05
 -1     12129 3.53059E-04 5.59190E-05-3.20409E-05
 -1     12130 3.56529E-04 2.80594E-05-3.35128E-05
 -1     12131 3.54968E-04 5.62214E-05-3.35128E-05
 -1     12136 3.53059E-04 5.59190E-05-3.49847E-05
 -1     12137 3.56529E-04 2.80594E-05-3.64565E-05
 -1     12138 3.54968E-04 5.62214E-05-3.64565E-05
 -1     12143 3.53059E-04 5.59190E-05-3.79284E-05
 -1     12147 3.39964E-04 1.10461E-04-8.49116E-06
 -1     12148 3.47750E-04 8.34873E-05-9.96302E-06
 -1     12149 3.41803E-04 1.11058E-04-9.96302E-06
 -1     12154 3.39964E-04 1.10461E-04-1.14349E-05
 -1     12155 3.47750E-04 8.34873E-05-1.29067E-05
 -1     12156 3.41803E-04 1.11058E-04-1.29067E-05
 -1     12161 3.39964E-04 1.10461E-04-1.43786E-05
 -1     12162 3.47750E-04 8.34873E-05-1.58505E-05
 -1     12163 3.41803E-04 1.11058E-04-1.58505E-05
 -1     12168 3.39964E-04 1.10461E-04-1.73223E-05
 -1     12169 3.47750E-04 8.34873E-05-1.87942E-05
 -1     12170 3.41803E-04 1.11058E-04-1.87942E-05
 -1     12175 3.39964E-04 1.10461E-04-2.02661E-05
 -1     12176 3.47750E-04 8.34873E-05-2.17379E-05
 -1     12177 3.41803E-04 1.11058E-04-2.17379E-05
 -1     12182 3.39964E-04 1.10461E-04-2.32098E-05
 -1     12183 3.47750E-04 8.34873E-05-2.46816E-05
 -1     12184 3.41803E-04 1.11058E-04-2.46816E-05
 -1     12189 3.39964E-04 1.10461E-04-2.61535E-05
 -1     12190 3.47750E-04 8.34873E-05-2.76254E-05
 -1     12191 3.41803E-04 1.11058E-04-2.76254E-05
 -1     12196 3.39964E-04 1.10461E-04-2.90972E-05
 -1     12197 3.47750E-04 8.34873E-05-3.05691E-05
 -1     12198 3.41803E-04 1.11058E-04-3.05691E-05
 -1     12203 3.39964E-04 1.10461E-04-3.20409E-05
 -1     12204 3.47750E-04 8.34873E-05-3.35128E-05
 -1     12205 3.41803E-04 1.11058E-04-3.35128E-05
 -1     12210 3.39964E-04 1.10461E-04-3.49847E-05
 -1     12211 3.47750E-04 8.34873E-05-3.64565E-05
 -1     12212 3.41803E-04 1.11058E-04-3.64565E-05
 -1     12217 3.39964E-04 1.10461E-04-3.79284E-05
 -1     12221 3.18499E-04 1.62283E-04-8.49116E-06
 -1     12222 3.30408E-04 1.36859E-04-9.96302E-06
 -1     12223 3.20221E-04 1.63161E-04-9.96302E-06
 -1     12228 3.18499E-04 1.62283E-04-1.14349E-05
 -1     12229 3.30408E-04 1.36859E-04-1.29067E-05
 -1     12230 3.20221E-04 1.63161E-04-1.29067E-05
 -1     12235 3.18499E-04 1.62283E-04-1.43786E-05
 -1     12236 3.30408E-04 1.36859E-04-1.58505E-05
 -1     12237 3.20221E-04 1.63161E-04-1.58505E-05
 -1     12242 3.18499E-04 1.62283E-04-1.73223E-05
 -1     12243 3.30408E-04 1.36859E-04-1.87942E-05
 -1     12244 3.20221E-04 1.63161E-04-1.87942E-05
 -1     12249 3.18499E-04 1.62283E-04-2.02661E-05
 -1     12250 3.30408E-04 1.36859E-04-2.17379E-05
 -1     12251 3.20221E-04 1.63161E-04-2.17379E-05
 -1     12256 3.18499E-04 1.62283E-04-2.32098E-05
 -1     12257 3.30408E-04 1.36859E-04-2.46816E-05
 -1     12258 3.20221E-04 1.63161E-04-2.46816E-05
 -1     12263 3.18499E-04 1.62283E-04-2.61535E-05
 -1     12264 3.30408E-04 1.36859E-04-2.76254E-05
 -1     12265 3.20221E-04 1.63161E-04-2.76254E-05
 -1     12270 3.18499E-04 1.62283E-04-2.90972E-05
 -1     12271 3.30408E-04 1.36859E-04-3.05691E-05
 -1     12272 3.20221E-04 1.63161E-04-3.05691E-05
 -1     12277 3.18499E-04 1.62283E-04-3.20409E-05
 -1     12278 3.30408E-04 1.36859E-04-3.35128E-05
 -1     12279 3.20221E-04 1.63161E-04-3.35128E-05
 -1     12284 3.18499E-04 1.62283E-04-3.49847E-05
 -1     12285 3.30408E-04 1.36859E-04-3.64565E-05
 -1     12286 3.20221E-04 1.63161E-04-3.64565E-05
 -1     12291 3.18499E-04 1.62283E-04-3.79284E-05
 -1     12295 2.89191E-04 2.10109E-04-8.49116E-06
 -1     12296 3.04931E-04 1.86862E-04-9.96302E-06
 -1     12297 2.90755E-04 2.11246E-04-9.96302E-06
 -1     12302 2.89191E-04 2.10109E-04-1.14349E-05
 -1     12303 3.04931E-04 1.86862E-04-1.29067E-05
 -1     12304 2.90755E-04 2.11246E-04-1.29067E-05
 -1     12309 2.89191E-04 2.10109E-04-1.43786E-05
 -1     12310 3.04931E-04 1.86862E-04-1.58505E-05
 -1     12311 2.90755E-04 2.11246E-04-1.58505E-05
 -1     12316 2.89191E-04 2.10109E-04-1.73223E-05
 -1     12317 3.04931E-04 1.86862E-04-1.87942E-05
 -1     12318 2.90755E-04 2.11246E-04-1.87942E-05
 -1     12323 2.89191E-04 2.10109E-04-2.02661E-05
 -1     12324 3.04931E-04 1.86862E-04-2.17379E-05
 -1     12325 2.90755E-04 2.11246E-04-2.17379E-05
 -1     12330 2.89191E-04 2.10109E-04-2.32098E-05
 -1     12331 3.04931E-04 1.86862E-04-2.46816E-05
 -1     12332 2.90755E-04 2.11246E-04-2.46816E-05
 -1     12337 2.89191E-04 2.10109E-04-2.61535E-05
 -1     12338 3.04931E-04 1.86862E-04-2.76254E-05
 -1     12339 2.90755E-04 2.11246E-04-2.76254E-05
 -1     12344 2.89191E-04 2.10109E-04-2.90972E-05
 -1     12345 3.04931E-04 1.86862E-04-3.05691E-05
 -1     12346 2.90755E-04 2.11246E-04-3.05691E-05
 -1     12351 2.89191E-04 2.10109E-04-3.20409E-05
 -1     12352 3.04931E-04 1.86862E-04-3.35128E-05
 -1     12353 2.90755E-04 2.11246E-04-3.35128E-05
 -1     12358 2.89191E-04 2.10109E-04-3.49847E-05
 -1     12359 3.04931E-04 1.86862E-04-3.64565E-05
 -1     12360 2.90755E-04 2.11246E-04-3.64565E-05
 -1     12365 2.89191E-04 2.10109E-04-3.79284E-05
 -1     12369 2.52762E-04 2.52762E-04-8.49116E-06
 -1     12370 2.71945E-04 2.32263E-04-9.96302E-06
 -1     12371 2.54129E-04 2.54129E-04-9.96302E-06
 -1     12376 2.52762E-04 2.52762E-04-1.14349E-05
 -1     12377 2.71945E-04 2.32263E-04-1.29067E-05
 -1     12378 2.54129E-04 2.54129E-04-1.29067E-05
 -1     12383 2.52762E-04 2.52762E-04-1.43786E-05
 -1     12384 2.71945E-04 2.32263E-04-1.58505E-05
 -1     12385 2.54129E-04 2.54129E-04-1.58505E-05
 -1     12390 2.52762E-04 2.52762E-04-1.73223E-05
 -1     12391 2.71945E-04 2.32263E-04-1.87942E-05
 -1     12392 2.54129E-04 2.54129E-04-1.87942E-05
 -1     12397 2.52762E-04 2.52762E-04-2.02661E-05
 -1     12398 2.71945E-04 2.32263E-04-2.17379E-05
 -1     12399 2.54129E-04 2.54129E-04-2.17379E-05
 -1     12404 2.52762E-04 2.52762E-04-2.32098E-05
 -1     12405 2.71945E-04 2.32263E-04-2.46816E-05
 -1     12406 2.54129E-04 2.54129E-04-2.46816E-05
 -1     12411 2.52762E-04 2.52762E-04-2.61535E-05
 -1     12412 2.71945E-04 2.32263E-04-2.76254E-05
 -1     12413 2.54129E-04 2.54129E-04-2.76254E-05
 -1     12418 2.52762E-04 2.52762E-04-2.90972E-05
 -1     12419 2.71945E-04 2.32263E-04-3.05691E-05
 -1     12420 2.54129E-04 2.54129E-04-3.05691E-05
 -1     12425 2.52762E-04 2.52762E-04-3.20409E-05
 -1     12426 2.71945E-04 2.32263E-04-3.35128E-05
 -1     12427 2.54129E-04 2.54129E-04-3.35128E-05
 -1     12432 2.52762E-04 2.52762E-04-3.49847E-05
 -1     12433 2.71945E-04 2.32263E-04-3.64565E-05
 -1     12434 2.54129E-04 2.54129E-04-3.64565E-05
 -1     12439 2.52762E-04 2.52762E-04-3.79284E-05
 -1     12443 2.10109E-04 2.89191E-04-8.49116E-06
 -1     12444 2.32263E-04 2.71945E-04-9.96302E-06
 -1     12445 2.11246E-04 2.90755E-04-9.96302E-06
 -1     12450 2.10109E-04 2.89191E-04-1.14349E-05
 -1     12451 2.32263E-04 2.71945E-04-1.29067E-05
 -1     12452 2.11246E-04 2.90755E-04-1.29067E-05
 -1     12457 2.10109E-04 2.89191E-04-1.43786E-05
 -1     12458 2.32263E-04 2.71945E-04-1.58505E-05
 -1     12459 2.11246E-04 2.90755E-04-1.58505E-05
 -1     12464 2.10109E-04 2.89191E-04-1.73223E-05
 -1     12465 2.32263E-04 2.71945E-04-1.87942E-05
 -1     12466 2.11246E-04 2.90755E-04-1.87942E-05
 -1     12471 2.10109E-04 2.89191E-04-2.02661E-05
 -1     12472 2.32263E-04 2.71945E-04-2.17379E-05
 -1     12473 2.11246E-04 2.90755E-04-2.17379E-05
 -1     12478 2.10109E-04 2.89191E-04-2.32098E-05
 -1     12479 2.32263E-04 2.71945E-04-2.46816E-05
 -1     12480 2.11246E-04 2.90755E-04-2.46816E-05
 -1     12485 2.10109E-04 2.89191E-04-2.61535E-05
 -1     12486 2.32263E-04 2.71945E-04-2.76254E-05
 -1     12487 2.11246E-04 2.90755E-04-2.76254E-05
 -1     12492 2.10109E-04 2.89191E-04-2.90972E-05
 -1     12493 2.32263E-04 2.71945E-04-3.05691E-05
 -1     12494 2.11246E-04 2.90755E-04-3.05691E-05
 -1     12499 2.10109E-04 2.89191E-04-3.20409E-05
 -1     12500 2.32263E-04 2.71945E-04-3.35128E-05
 -1     12501 2.11246E-04 2.90755E-04-3.35128E-05
 -1     12506 2.10109E-04 2.89191E-04-3.49847E-05
 -1     12507 2.32263E-04 2.71945E-04-3.64565E-05
 -1     12508 2.11246E-04 2.90755E-04-3.64565E-05
 -1     12513 2.10109E-04 2.89191E-04-3.79284E-05
 -1     12517 1.62283E-04 3.18499E-04-8.49116E-06
 -1     12518 1.86862E-04 3.04931E-04-9.96302E-06
 -1     12519 1.63161E-04 3.20221E-04-9.96302E-06
 -1     12524 1.62283E-04 3.18499E-04-1.14349E-05
 -1     12525 1.86862E-04 3.04931E-04-1.29067E-05
 -1     12526 1.63161E-04 3.20221E-04-1.29067E-05
 -1     12531 1.62283E-04 3.18499E-04-1.43786E-05
 -1     12532 1.86862E-04 3.04931E-04-1.58505E-05
 -1     12533 1.63161E-04 3.20221E-04-1.58505E-05
 -1     12538 1.62283E-04 3.18499E-04-1.73223E-05
 -1     12539 1.86862E-04 3.04931E-04-1.87942E-05
 -1     12540 1.63161E-04 3.20221E-04-1.87942E-05
 -1     12545 1.62283E-04 3.18499E-04-2.02661E-05
 -1     12546 1.86862E-04 3.04931E-04-2.17379E-05
 -1     12547 1.63161E-04 3.20221E-04-2.17379E-05
 -1     12552 1.62283E-04 3.18499E-04-2.32098E-05
 -1     12553 1.86862E-04 3.04931E-04-2.46816E-05
 -1     12554 1.63161E-04 3.20221E-04-2.46816E-05
 -1     12559 1.62283E-04 3.18499E-04-2.61535E-05
 -1     12560 1.86862E-04 3.04931E-04-2.76254E-05
 -1     12561 1.63161E-04 3.20221E-04-2.76254E-05
 -1     12566 1.62283E-04 3.18499E-04-2.90972E-05
 -1     12567 1.86862E-04 3.04931E-04-3.05691E-05
 -1     12568 1.63161E-04 3.20221E-04-3.05691E-05
 -1     12573 1.62283E-04 3.18499E-04-3.20409E-05
 -1     12574 1.86862E-04 3.04931E-04-3.35128E-05
 -1     12575 1.63161E-04 3.20221E-04-3.35128E-05
 -1     12580 1.62283E-04 3.18499E-04-3.49847E-05
 -1     12581 1.86862E-04 3.04931E-04-3.64565E-05
 -1     12582 1.63161E-04 3.20221E-04-3.64565E-05
 -1     12587 1.62283E-04 3.18499E-04-3.79284E-05
 -1     12591 1.10461E-04 3.39964E-04-8.49116E-06
 -1     12592 1.36859E-04 3.30408E-04-9.96302E-06
 -1     12593 1.11058E-04 3.41803E-04-9.96302E-06
 -1     12598 1.10461E-04 3.39964E-04-1.14349E-05
 -1     12599 1.36859E-04 3.30408E-04-1.29067E-05
 -1     12600 1.11058E-04 3.41803E-04-1.29067E-05
 -1     12605 1.10461E-04 3.39964E-04-1.43786E-05
 -1     12606 1.36859E-04 3.30408E-04-1.58505E-05
 -1     12607 1.11058E-04 3.41803E-04-1.58505E-05
 -1     12612 1.10461E-04 3.39964E-04-1.73223E-05
 -1     12613 1.36859E-04 3.30408E-04-1.87942E-05
 -1     12614 1.11058E-04 3.41803E-04-1.87942E-05
 -1     12619 1.10461E-04 3.39964E-04-2.02661E-05
 -1     12620 1.36859E-04 3.30408E-04-2.17379E-05
 -1     12621 1.11058E-04 3.41803E-04-2.17379E-05
 -1     12626 1.10461E-04 3.39964E-04-2.32098E-05
 -1     12627 1.36859E-04 3.30408E-04-2.46816E-05
 -1     12628 1.11058E-04 3.41803E-04-2.46816E-05
 -1     12633 1.10461E-04 3.39964E-04-2.61535E-05
 -1     12634 1.36859E-04 3.30408E-04-2.76254E-05
 -1     12635 1.11058E-04 3.41803E-04-2.76254E-05
 -1     12640 1.10461E-04 3.39964E-04-2.90972E-05
 -1     12641 1.36859E-04 3.30408E-04-3.05691E-05
 -1     12642 1.11058E-04 3.41803E-04-3.05691E-05
 -1     12647 1.10461E-04 3.39964E-04-3.20409E-05
 -1     12648 1.36859E-04 3.30408E-04-3.35128E-05
 -1     12649 1.11058E-04 3.41803E-04-3.35128E-05
 -1     12654 1.10461E-04 3.39964E-04-3.49847E-05
 -1     12655 1.36859E-04 3.30408E-04-3.64565E-05
 -1     12656 1.11058E-04 3.41803E-04-3.64565E-05
 -1     12661 1.10461E-04 3.39964E-04-3.79284E-05
 -1     12665 5.59190E-05 3.53059E-04-8.49116E-06
 -1     12666 8.34873E-05 3.47750E-04-9.96302E-06
 -1     12667 5.62214E-05 3.54968E-04-9.96302E-06
 -1     12672 5.59190E-05 3.53059E-04-1.14349E-05
 -1     12673 8.34873E-05 3.47750E-04-1.29067E-05
 -1     12674 5.62214E-05 3.54968E-04-1.29067E-05
 -1     12679 5.59190E-05 3.53059E-04-1.43786E-05
 -1     12680 8.34873E-05 3.47750E-04-1.58505E-05
 -1     12681 5.62214E-05 3.54968E-04-1.58505E-05
 -1     12686 5.59190E-05 3.53059E-04-1.73223E-05
 -1     12687 8.34873E-05 3.47750E-04-1.87942E-05
 -1     12688 5.62214E-05 3.54968E-04-1.87942E-05
 -1     12693 5.59190E-05 3.53059E-04-2.02661E-05
 -1     12694 8.34873E-05 3.47750E-04-2.17379E-05
 -1     12695 5.62214E-05 3.54968E-04-2.17379E-05
 -1     12700 5.59190E-05 3.53059E-04-2.32098E-05
 -1     12701 8.34873E-05 3.47750E-04-2.46816E-05
 -1     12702 5.62214E-05 3.54968E-04-2.46816E-05
 -1     12707 5.59190E-05 3.53059E-04-2.61535E-05
 -1     12708 8.34873E-05 3.47750E-04-2.76254E-05
 -1     12709 5.62214E-05 3.54968E-04-2.76254E-05
 -1     12714 5.59190E-05 3.53059E-04-2.90972E-05
 -1     12715 8.34873E-05 3.47750E-04-3.05691E-05
 -1     12716 5.62214E-05 3.54968E-04-3.05691E-05
 -1     12721 5.59190E-05 3.53059E-04-3.20409E-05
 -1     12722 8.34873E-05 3.47750E-04-3.35128E-05
 -1     12723 5.62214E-05 3.54968E-04-3.35128E-05
 -1     12728 5.59190E-05 3.53059E-04-3.49847E-05
 -1     12729 8.34873E-05 3.47750E-04-3.64565E-05
 -1     12730 5.62214E-05 3.54968E-04-3.64565E-05
 -1     12735 5.59190E-05 3.53059E-04-3.79284E-05
 -1     12739 2.80594E-05 3.56529E-04-9.96302E-06
 -1     12743 2.80594E-05 3.56529E-04-1.29067E-05
 -1     12747 2.80594E-05 3.56529E-04-1.58505E-05
 -1     12751 2.80594E-05 3.56529E-04-1.87942E-05
 -1     12755 2.80594E-05 3.56529E-04-2.17379E-05
 -1     12759 2.80594E-05 3.56529E-04-2.46816E-05
 -1     12763 2.80594E-05 3.56529E-04-2.76254E-05
 -1     12767 2.80594E-05 3.56529E-04-3.05691E-05
 -1     12771 2.80594E-05 3.56529E-04-3.35128E-05
 -1     12775 2.80594E-05 3.56529E-04-3.64565E-05
 -1     12781 3.50398E-04 5.54976E-05-8.49116E-06
 -1     12782 3.53777E-04 2.78428E-05-9.96302E-06
 -1     12783 3.51546E-04 5.56794E-05-9.96302E-06
 -1     12788 3.50398E-04 5.54976E-05-1.14349E-05
 -1     12789 3.53777E-04 2.78428E-05-1.29067E-05
 -1     12790 3.51546E-04 5.56794E-05-1.29067E-05
 -1     12795 3.50398E-04 5.54976E-05-1.43786E-05
 -1     12796 3.53777E-04 2.78428E-05-1.58505E-05
 -1     12797 3.51546E-04 5.56794E-05-1.58505E-05
 -1     12802 3.50398E-04 5.54976E-05-1.73223E-05
 -1     12803 3.53777E-04 2.78428E-05-1.87942E-05
 -1     12804 3.51546E-04 5.56794E-05-1.87942E-05
 -1     12809 3.50398E-04 5.54976E-05-2.02661E-05
 -1     12810 3.53777E-04 2.78428E-05-2.17379E-05
 -1     12811 3.51546E-04 5.56794E-05-2.17379E-05
 -1     12816 3.50398E-04 5.54976E-05-2.32098E-05
 -1     12817 3.53777E-04 2.78428E-05-2.46816E-05
 -1     12818 3.51546E-04 5.56794E-05-2.46816E-05
 -1     12823 3.50398E-04 5.54976E-05-2.61535E-05
 -1     12824 3.53777E-04 2.78428E-05-2.76254E-05
 -1     12825 3.51546E-04 5.56794E-05-2.76254E-05
 -1     12830 3.50398E-04 5.54976E-05-2.90972E-05
 -1     12831 3.53777E-04 2.78428E-05-3.05691E-05
 -1     12832 3.51546E-04 5.56794E-05-3.05691E-05
 -1     12837 3.50398E-04 5.54976E-05-3.20409E-05
 -1     12838 3.53777E-04 2.78428E-05-3.35128E-05
 -1     12839 3.51546E-04 5.56794E-05-3.35128E-05
 -1     12844 3.50398E-04 5.54976E-05-3.49847E-05
 -1     12845 3.53777E-04 2.78428E-05-3.64565E-05
 -1     12846 3.51546E-04 5.56794E-05-3.64565E-05
 -1     12851 3.50398E-04 5.54976E-05-3.79284E-05
 -1     12855 3.37402E-04 1.09629E-04-8.49116E-06
 -1     12856 3.45066E-04 8.28429E-05-9.96302E-06
 -1     12857 3.38508E-04 1.09988E-04-9.96302E-06
 -1     12862 3.37402E-04 1.09629E-04-1.14349E-05
 -1     12863 3.45066E-04 8.28429E-05-1.29067E-05
 -1     12864 3.38508E-04 1.09988E-04-1.29067E-05
 -1     12869 3.37402E-04 1.09629E-04-1.43786E-05
 -1     12870 3.45066E-04 8.28429E-05-1.58505E-05
 -1     12871 3.38508E-04 1.09988E-04-1.58505E-05
 -1     12876 3.37402E-04 1.09629E-04-1.73223E-05
 -1     12877 3.45066E-04 8.28429E-05-1.87942E-05
 -1     12878 3.38508E-04 1.09988E-04-1.87942E-05
 -1     12883 3.37402E-04 1.09629E-04-2.02661E-05
 -1     12884 3.45066E-04 8.28429E-05-2.17379E-05
 -1     12885 3.38508E-04 1.09988E-04-2.17379E-05
 -1     12890 3.37402E-04 1.09629E-04-2.32098E-05
 -1     12891 3.45066E-04 8.28429E-05-2.46816E-05
 -1     12892 3.38508E-04 1.09988E-04-2.46816E-05
 -1     12897 3.37402E-04 1.09629E-04-2.61535E-05
 -1     12898 3.45066E-04 8.28429E-05-2.76254E-05
 -1     12899 3.38508E-04 1.09988E-04-2.76254E-05
 -1     12904 3.37402E-04 1.09629E-04-2.90972E-05
 -1     12905 3.45066E-04 8.28429E-05-3.05691E-05
 -1     12906 3.38508E-04 1.09988E-04-3.05691E-05
 -1     12911 3.37402E-04 1.09629E-04-3.20409E-05
 -1     12912 3.45066E-04 8.28429E-05-3.35128E-05
 -1     12913 3.38508E-04 1.09988E-04-3.35128E-05
 -1     12918 3.37402E-04 1.09629E-04-3.49847E-05
 -1     12919 3.45066E-04 8.28429E-05-3.64565E-05
 -1     12920 3.38508E-04 1.09988E-04-3.64565E-05
 -1     12925 3.37402E-04 1.09629E-04-3.79284E-05
 -1     12929 3.16099E-04 1.61060E-04-8.49116E-06
 -1     12930 3.27858E-04 1.35803E-04-9.96302E-06
 -1     12931 3.17134E-04 1.61588E-04-9.96302E-06
 -1     12936 3.16099E-04 1.61060E-04-1.14349E-05
 -1     12937 3.27858E-04 1.35803E-04-1.29067E-05
 -1     12938 3.17134E-04 1.61588E-04-1.29067E-05
 -1     12943 3.16099E-04 1.61060E-04-1.43786E-05
 -1     12944 3.27858E-04 1.35803E-04-1.58505E-05
 -1     12945 3.17134E-04 1.61588E-04-1.58505E-05
 -1     12950 3.16099E-04 1.61060E-04-1.73223E-05
 -1     12951 3.27858E-04 1.35803E-04-1.87942E-05
 -1     12952 3.17134E-04 1.61588E-04-1.87942E-05
 -1     12957 3.16099E-04 1.61060E-04-2.02661E-05
 -1     12958 3.27858E-04 1.35803E-04-2.17379E-05
 -1     12959 3.17134E-04 1.61588E-04-2.17379E-05
 -1     12964 3.16099E-04 1.61060E-04-2.32098E-05
 -1     12965 3.27858E-04 1.35803E-04-2.46816E-05
 -1     12966 3.17134E-04 1.61588E-04-2.46816E-05
 -1     12971 3.16099E-04 1.61060E-04-2.61535E-05
 -1     12972 3.27858E-04 1.35803E-04-2.76254E-05
 -1     12973 3.17134E-04 1.61588E-04-2.76254E-05
 -1     12978 3.16099E-04 1.61060E-04-2.90972E-05
 -1     12979 3.27858E-04 1.35803E-04-3.05691E-05
 -1     12980 3.17134E-04 1.61588E-04-3.05691E-05
 -1     12985 3.16099E-04 1.61060E-04-3.20409E-05
 -1     12986 3.27858E-04 1.35803E-04-3.35128E-05
 -1     12987 3.17134E-04 1.61588E-04-3.35128E-05
 -1     12992 3.16099E-04 1.61060E-04-3.49847E-05
 -1     12993 3.27858E-04 1.35803E-04-3.64565E-05
 -1     12994 3.17134E-04 1.61588E-04-3.64565E-05
 -1     12999 3.16099E-04 1.61060E-04-3.79284E-05
 -1     13003 2.87012E-04 2.08526E-04-8.49116E-06
 -1     13004 3.02577E-04 1.85419E-04-9.96302E-06
 -1     13005 2.87952E-04 2.09209E-04-9.96302E-06
 -1     13010 2.87012E-04 2.08526E-04-1.14349E-05
 -1     13011 3.02577E-04 1.85419E-04-1.29067E-05
 -1     13012 2.87952E-04 2.09209E-04-1.29067E-05
 -1     13017 2.87012E-04 2.08526E-04-1.43786E-05
 -1     13018 3.02577E-04 1.85419E-04-1.58505E-05
 -1     13019 2.87952E-04 2.09209E-04-1.58505E-05
 -1     13024 2.87012E-04 2.08526E-04-1.73223E-05
 -1     13025 3.02577E-04 1.85419E-04-1.87942E-05
 -1     13026 2.87952E-04 2.09209E-04-1.87942E-05
 -1     13031 2.87012E-04 2.08526E-04-2.02661E-05
 -1     13032 3.02577E-04 1.85419E-04-2.17379E-05
 -1     13033 2.87952E-04 2.09209E-04-2.17379E-05
 -1     13038 2.87012E-04 2.08526E-04-2.32098E-05
 -1     13039 3.02577E-04 1.85419E-04-2.46816E-05
 -1     13040 2.87952E-04 2.09209E-04-2.46816E-05
 -1     13045 2.87012E-04 2.08526E-04-2.61535E-05
 -1     13046 3.02577E-04 1.85419E-04-2.76254E-05
 -1     13047 2.87952E-04 2.09209E-04-2.76254E-05
 -1     13052 2.87012E-04 2.08526E-04-2.90972E-05
 -1     13053 3.02577E-04 1.85419E-04-3.05691E-05
 -1     13054 2.87952E-04 2.09209E-04-3.05691E-05
 -1     13059 2.87012E-04 2.08526E-04-3.20409E-05
 -1     13060 3.02577E-04 1.85419E-04-3.35128E-05
 -1     13061 2.87952E-04 2.09209E-04-3.35128E-05
 -1     13066 2.87012E-04 2.08526E-04-3.49847E-05
 -1     13067 3.02577E-04 1.85419E-04-3.64565E-05
 -1     13068 2.87952E-04 2.09209E-04-3.64565E-05
 -1     13073 2.87012E-04 2.08526E-04-3.79284E-05
 -1     13077 2.50857E-04 2.50857E-04-8.49116E-06
 -1     13078 2.69846E-04 2.30470E-04-9.96302E-06
 -1     13079 2.51679E-04 2.51679E-04-9.96302E-06
 -1     13084 2.50857E-04 2.50857E-04-1.14349E-05
 -1     13085 2.69846E-04 2.30470E-04-1.29067E-05
 -1     13086 2.51679E-04 2.51679E-04-1.29067E-05
 -1     13091 2.50857E-04 2.50857E-04-1.43786E-05
 -1     13092 2.69846E-04 2.30470E-04-1.58505E-05
 -1     13093 2.51679E-04 2.51679E-04-1.58505E-05
 -1     13098 2.50857E-04 2.50857E-04-1.73223E-05
 -1     13099 2.69846E-04 2.30470E-04-1.87942E-05
 -1     13100 2.51679E-04 2.51679E-04-1.87942E-05
 -1     13105 2.50857E-04 2.50857E-04-2.02661E-05
 -1     13106 2.69846E-04 2.30470E-04-2.17379E-05
 -1     13107 2.51679E-04 2.51679E-04-2.17379E-05
 -1     13112 2.50857E-04 2.50857E-04-2.32098E-05
 -1     13113 2.69846E-04 2.30470E-04-2.46816E-05
 -1     13114 2.51679E-04 2.51679E-04-2.46816E-05
 -1     13119 2.50857E-04 2.50857E-04-2.61535E-05
 -1     13120 2.69846E-04 2.30470E-04-2.76254E-05
 -1     13121 2.51679E-04 2.51679E-04-2.76254E-05
 -1     13126 2.50857E-04 2.50857E-04-2.90972E-05
 -1     13127 2.69846E-04 2.30470E-04-3.05691E-05
 -1     13128 2.51679E-04 2.51679E-04-3.05691E-05
 -1     13133 2.50857E-04 2.50857E-04-3.20409E-05
 -1     13134 2.69846E-04 2.30470E-04-3.35128E-05
 -1     13135 2.51679E-04 2.51679E-04-3.35128E-05
 -1     13140 2.50857E-04 2.50857E-04-3.49847E-05
 -1     13141 2.69846E-04 2.30470E-04-3.64565E-05
 -1     13142 2.51679E-04 2.51679E-04-3.64565E-05
 -1     13147 2.50857E-04 2.50857E-04-3.79284E-05
 -1     13151 2.08526E-04 2.87012E-04-8.49116E-06
 -1     13152 2.30470E-04 2.69846E-04-9.96302E-06
 -1     13153 2.09209E-04 2.87952E-04-9.96302E-06
 -1     13158 2.08526E-04 2.87012E-04-1.14349E-05
 -1     13159 2.30470E-04 2.69846E-04-1.29067E-05
 -1     13160 2.09209E-04 2.87952E-04-1.29067E-05
 -1     13165 2.08526E-04 2.87012E-04-1.43786E-05
 -1     13166 2.30470E-04 2.69846E-04-1.58505E-05
 -1     13167 2.09209E-04 2.87952E-04-1.58505E-05
 -1     13172 2.08526E-04 2.87012E-04-1.73223E-05
 -1     13173 2.30470E-04 2.69846E-04-1.87942E-05
 -1     13174 2.09209E-04 2.87952E-04-1.87942E-05
 -1     13179 2.08526E-04 2.87012E-04-2.02661E-05
 -1     13180 2.30470E-04 2.69846E-04-2.17379E-05
 -1     13181 2.09209E-04 2.87952E-04-2.17379E-05
 -1     13186 2.08526E-04 2.87012E-04-2.32098E-05
 -1     13187 2.30470E-04 2.69846E-04-2.46816E-05
 -1     13188 2.09209E-04 2.87952E-04-2.46816E-05
 -1     13193 2.08526E-04 2.87012E-04-2.61535E-05
 -1     13194 2.30470E-04 2.69846E-04-2.76254E-05
 -1     13195 2.09209E-04 2.87952E-04-2.76254E-05
 -1     13200 2.08526E-04 2.87012E-04-2.90972E-05
 -1     13201 2.30470E-04 2.69846E-04-3.05691E-05
 -1     13202 2.09209E-04 2.87952E-04-3.05691E-05
 -1     13207 2.08526E-04 2.87012E-04-3.20409E-05
 -1     13208 2.30470E-04 2.69846E-04-3.35128E-05
 -1     13209 2.09209E-04 2.87952E-04-3.35128E-05
 -1     13214 2.08526E-04 2.87012E-04-3.49847E-05
 -1     13215 2.30470E-04 2.69846E-04-3.64565E-05
 -1     13216 2.09209E-04 2.87952E-04-3.64565E-05
 -1     13221 2.08526E-04 2.87012E-04-3.79284E-05
 -1     13225 1.61060E-04 3.16099E-04-8.49116E-06
 -1     13226 1.85419E-04 3.02577E-04-9.96302E-06
 -1     13227 1.61588E-04 3.17134E-04-9.96302E-06
 -1     13232 1.61060E-04 3.16099E-04-1.14349E-05
 -1     13233 1.85419E-04 3.02577E-04-1.29067E-05
 -1     13234 1.61588E-04 3.17134E-04-1.29067E-05
 -1     13239 1.61060E-04 3.16099E-04-1.43786E-05
 -1     13240 1.85419E-04 3.02577E-04-1.58505E-05
 -1     13241 1.61588E-04 3.17134E-04-1.58505E-05
 -1     13246 1.61060E-04 3.16099E-04-1.73223E-05
 -1     13247 1.85419E-04 3.02577E-04-1.87942E-05
 -1     13248 1.61588E-04 3.17134E-04-1.87942E-05
 -1     13253 1.61060E-04 3.16099E-04-2.02661E-05
 -1     13254 1.85419E-04 3.02577E-04-2.17379E-05
 -1     13255 1.61588E-04 3.17134E-04-2.17379E-05
 -1     13260 1.61060E-04 3.16099E-04-2.32098E-05
 -1     13261 1.85419E-04 3.02577E-04-2.46816E-05
 -1     13262 1.61588E-04 3.17134E-04-2.46816E-05
 -1     13267 1.61060E-04 3.16099E-04-2.61535E-05
 -1     13268 1.85419E-04 3.02577E-04-2.76254E-05
 -1     13269 1.61588E-04 3.17134E-04-2.76254E-05
 -1     13274 1.61060E-04 3.16099E-04-2.90972E-05
 -1     13275 1.85419E-04 3.02577E-04-3.05691E-05
 -1     13276 1.61588E-04 3.17134E-04-3.05691E-05
 -1     13281 1.61060E-04 3.16099E-04-3.20409E-05
 -1     13282 1.85419E-04 3.02577E-04-3.35128E-05
 -1     13283 1.61588E-04 3.17134E-04-3.35128E-05
 -1     13288 1.61060E-04 3.16099E-04-3.49847E-05
 -1     13289 1.85419E-04 3.02577E-04-3.64565E-05
 -1     13290 1.61588E-04 3.17134E-04-3.64565E-05
 -1     13295 1.61060E-04 3.16099E-04-3.79284E-05
 -1     13299 1.09629E-04 3.37402E-04-8.49116E-06
 -1     13300 1.35803E-04 3.27858E-04-9.96302E-06
 -1     13301 1.09988E-04 3.38508E-04-9.96302E-06
 -1     13306 1.09629E-04 3.37402E-04-1.14349E-05
 -1     13307 1.35803E-04 3.27858E-04-1.29067E-05
 -1     13308 1.09988E-04 3.38508E-04-1.29067E-05
 -1     13313 1.09629E-04 3.37402E-04-1.43786E-05
 -1     13314 1.35803E-04 3.27858E-04-1.58505E-05
 -1     13315 1.09988E-04 3.38508E-04-1.58505E-05
 -1     13320 1.09629E-04 3.37402E-04-1.73223E-05
 -1     13321 1.35803E-04 3.27858E-04-1.87942E-05
 -1     13322 1.09988E-04 3.38508E-04-1.87942E-05
 -1     13327 1.09629E-04 3.37402E-04-2.02661E-05
 -1     13328 1.35803E-04 3.27858E-04-2.17379E-05
 -1     13329 1.09988E-04 3.38508E-04-2.17379E-05
 -1     13334 1.09629E-04 3.37402E-04-2.32098E-05
 -1     13335 1.35803E-04 3.27858E-04-2.46816E-05
 -1     13336 1.09988E-04 3.38508E-04-2.46816E-05
 -1     13341 1.09629E-04 3.37402E-04-2.61535E-05
 -1     13342 1.35803E-04 3.27858E-04-2.76254E-05
 -1     13343 1.09988E-04 3.38508E-04-2.76254E-05
 -1     13348 1.09629E-04 3.37402E-04-2.90972E-05
 -1     13349 1.35803E-04 3.27858E-04-3.05691E-05
 -1     13350 1.09988E-04 3.38508E-04-3.05691E-05
 -1     13355 1.09629E-04 3.37402E-04-3.20409E-05
 -1     13356 1.35803E-04 3.27858E-04-3.35128E-05
 -1     13357 1.09988E-04 3.38508E-04-3.35128E-05
 -1     13362 1.09629E-04 3.37402E-04-3.49847E-05
 -1     13363 1.35803E-04 3.27858E-04-3.64565E-05
 -1     13364 1.09988E-04 3.38508E-04-3.64565E-05
 -1     13369 1.09629E-04 3.37402E-04-3.79284E-05
 -1     13373 5.54976E-05 3.50398E-04-8.49116E-06
 -1     13374 8.28429E-05 3.45066E-04-9.96302E-06
 -1     13375 5.56794E-05 3.51546E-04-9.96302E-06
 -1     13380 5.54976E-05 3.50398E-04-1.14349E-05
 -1     13381 8.28429E-05 3.45066E-04-1.29067E-05
 -1     13382 5.56794E-05 3.51546E-04-1.29067E-05
 -1     13387 5.54976E-05 3.50398E-04-1.43786E-05
 -1     13388 8.28429E-05 3.45066E-04-1.58505E-05
 -1     13389 5.56794E-05 3.51546E-04-1.58505E-05
 -1     13394 5.54976E-05 3.50398E-04-1.73223E-05
 -1     13395 8.28429E-05 3.45066E-04-1.87942E-05
 -1     13396 5.56794E-05 3.51546E-04-1.87942E-05
 -1     13401 5.54976E-05 3.50398E-04-2.02661E-05
 -1     13402 8.28429E-05 3.45066E-04-2.17379E-05
 -1     13403 5.56794E-05 3.51546E-04-2.17379E-05
 -1     13408 5.54976E-05 3.50398E-04-2.32098E-05
 -1     13409 8.28429E-05 3.45066E-04-2.46816E-05
 -1     13410 5.56794E-05 3.51546E-04-2.46816E-05
 -1     13415 5.54976E-05 3.50398E-04-2.61535E-05
 -1     13416 8.28429E-05 3.45066E-04-2.76254E-05
 -1     13417 5.56794E-05 3.51546E-04-2.76254E-05
 -1     13422 5.54976E-05 3.50398E-04-2.90972E-05
 -1     13423 8.28429E-05 3.45066E-04-3.05691E-05
 -1     13424 5.56794E-05 3.51546E-04-3.05691E-05
 -1     13429 5.54976E-05 3.50398E-04-3.20409E-05
 -1     13430 8.28429E-05 3.45066E-04-3.35128E-05
 -1     13431 5.56794E-05 3.51546E-04-3.35128E-05
 -1     13436 5.54976E-05 3.50398E-04-3.49847E-05
 -1     13437 8.28429E-05 3.45066E-04-3.64565E-05
 -1     13438 5.56794E-05 3.51546E-04-3.64565E-05
 -1     13443 5.54976E-05 3.50398E-04-3.79284E-05
 -1     13447 2.78428E-05 3.53777E-04-9.96302E-06
 -1     13451 2.78428E-05 3.53777E-04-1.29067E-05
 -1     13455 2.78428E-05 3.53777E-04-1.58505E-05
 -1     13459 2.78428E-05 3.53777E-04-1.87942E-05
 -1     13463 2.78428E-05 3.53777E-04-2.17379E-05
 -1     13467 2.78428E-05 3.53777E-04-2.46816E-05
 -1     13471 2.78428E-05 3.53777E-04-2.76254E-05
 -1     13475 2.78428E-05 3.53777E-04-3.05691E-05
 -1     13479 2.78428E-05 3.53777E-04-3.35128E-05
 -1     13483 2.78428E-05 3.53777E-04-3.64565E-05
 -1     13489 3.49070E-04 5.52872E-05-8.49116E-06
 -1     13490 3.52374E-04 2.77324E-05-9.96302E-06
 -1     13491 3.49581E-04 5.53682E-05-9.96302E-06
 -1     13496 3.49070E-04 5.52872E-05-1.14349E-05
 -1     13497 3.52374E-04 2.77324E-05-1.29067E-05
 -1     13498 3.49581E-04 5.53682E-05-1.29067E-05
 -1     13503 3.49070E-04 5.52872E-05-1.43786E-05
 -1     13504 3.52374E-04 2.77324E-05-1.58505E-05
 -1     13505 3.49581E-04 5.53682E-05-1.58505E-05
 -1     13510 3.49070E-04 5.52872E-05-1.73223E-05
 -1     13511 3.52374E-04 2.77324E-05-1.87942E-05
 -1     13512 3.49581E-04 5.53682E-05-1.87942E-05
 -1     13517 3.49070E-04 5.52872E-05-2.02661E-05
 -1     13518 3.52374E-04 2.77324E-05-2.17379E-05
 -1     13519 3.49581E-04 5.53682E-05-2.17379E-05
 -1     13524 3.49070E-04 5.52872E-05-2.32098E-05
 -1     13525 3.52374E-04 2.77324E-05-2.46816E-05
 -1     13526 3.49581E-04 5.53682E-05-2.46816E-05
 -1     13531 3.49070E-04 5.52872E-05-2.61535E-05
 -1     13532 3.52374E-04 2.77324E-05-2.76254E-05
 -1     13533 3.49581E-04 5.53682E-05-2.76254E-05
 -1     13538 3.49070E-04 5.52872E-05-2.90972E-05
 -1     13539 3.52374E-04 2.77324E-05-3.05691E-05
 -1     13540 3.49581E-04 5.53682E-05-3.05691E-05
 -1     13545 3.49070E-04 5.52872E-05-3.20409E-05
 -1     13546 3.52374E-04 2.77324E-05-3.35128E-05
 -1     13547 3.49581E-04 5.53682E-05-3.35128E-05
 -1     13552 3.49070E-04 5.52872E-05-3.49847E-05
 -1     13553 3.52374E-04 2.77324E-05-3.64565E-05
 -1     13554 3.49581E-04 5.53682E-05-3.64565E-05
 -1     13559 3.49070E-04 5.52872E-05-3.79284E-05
 -1     13563 3.36123E-04 1.09213E-04-8.49116E-06
 -1     13564 3.43697E-04 8.25144E-05-9.96302E-06
 -1     13565 3.36616E-04 1.09373E-04-9.96302E-06
 -1     13570 3.36123E-04 1.09213E-04-1.14349E-05
 -1     13571 3.43697E-04 8.25144E-05-1.29067E-05
 -1     13572 3.36616E-04 1.09373E-04-1.29067E-05
 -1     13577 3.36123E-04 1.09213E-04-1.43786E-05
 -1     13578 3.43697E-04 8.25144E-05-1.58505E-05
 -1     13579 3.36616E-04 1.09373E-04-1.58505E-05
 -1     13584 3.36123E-04 1.09213E-04-1.73223E-05
 -1     13585 3.43697E-04 8.25144E-05-1.87942E-05
 -1     13586 3.36616E-04 1.09373E-04-1.87942E-05
 -1     13591 3.36123E-04 1.09213E-04-2.02661E-05
 -1     13592 3.43697E-04 8.25144E-05-2.17379E-05
 -1     13593 3.36616E-04 1.09373E-04-2.17379E-05
 -1     13598 3.36123E-04 1.09213E-04-2.32098E-05
 -1     13599 3.43697E-04 8.25144E-05-2.46816E-05
 -1     13600 3.36616E-04 1.09373E-04-2.46816E-05
 -1     13605 3.36123E-04 1.09213E-04-2.61535E-05
 -1     13606 3.43697E-04 8.25144E-05-2.76254E-05
 -1     13607 3.36616E-04 1.09373E-04-2.76254E-05
 -1     13612 3.36123E-04 1.09213E-04-2.90972E-05
 -1     13613 3.43697E-04 8.25144E-05-3.05691E-05
 -1     13614 3.36616E-04 1.09373E-04-3.05691E-05
 -1     13619 3.36123E-04 1.09213E-04-3.20409E-05
 -1     13620 3.43697E-04 8.25144E-05-3.35128E-05
 -1     13621 3.36616E-04 1.09373E-04-3.35128E-05
 -1     13626 3.36123E-04 1.09213E-04-3.49847E-05
 -1     13627 3.43697E-04 8.25144E-05-3.64565E-05
 -1     13628 3.36616E-04 1.09373E-04-3.64565E-05
 -1     13633 3.36123E-04 1.09213E-04-3.79284E-05
 -1     13637 3.14900E-04 1.60450E-04-8.49116E-06
 -1     13638 3.26557E-04 1.35265E-04-9.96302E-06
 -1     13639 3.15362E-04 1.60685E-04-9.96302E-06
 -1     13644 3.14900E-04 1.60450E-04-1.14349E-05
 -1     13645 3.26557E-04 1.35265E-04-1.29067E-05
 -1     13646 3.15362E-04 1.60685E-04-1.29067E-05
 -1     13651 3.14900E-04 1.60450E-04-1.43786E-05
 -1     13652 3.26557E-04 1.35265E-04-1.58505E-05
 -1     13653 3.15362E-04 1.60685E-04-1.58505E-05
 -1     13658 3.14900E-04 1.60450E-04-1.73223E-05
 -1     13659 3.26557E-04 1.35265E-04-1.87942E-05
 -1     13660 3.15362E-04 1.60685E-04-1.87942E-05
 -1     13665 3.14900E-04 1.60450E-04-2.02661E-05
 -1     13666 3.26557E-04 1.35265E-04-2.17379E-05
 -1     13667 3.15362E-04 1.60685E-04-2.17379E-05
 -1     13672 3.14900E-04 1.60450E-04-2.32098E-05
 -1     13673 3.26557E-04 1.35265E-04-2.46816E-05
 -1     13674 3.15362E-04 1.60685E-04-2.46816E-05
 -1     13679 3.14900E-04 1.60450E-04-2.61535E-05
 -1     13680 3.26557E-04 1.35265E-04-2.76254E-05
 -1     13681 3.15362E-04 1.60685E-04-2.76254E-05
 -1     13686 3.14900E-04 1.60450E-04-2.90972E-05
 -1     13687 3.26557E-04 1.35265E-04-3.05691E-05
 -1     13688 3.15362E-04 1.60685E-04-3.05691E-05
 -1     13693 3.14900E-04 1.60450E-04-3.20409E-05
 -1     13694 3.26557E-04 1.35265E-04-3.35128E-05
 -1     13695 3.15362E-04 1.60685E-04-3.35128E-05
 -1     13700 3.14900E-04 1.60450E-04-3.49847E-05
 -1     13701 3.26557E-04 1.35265E-04-3.64565E-05
 -1     13702 3.15362E-04 1.60685E-04-3.64565E-05
 -1     13707 3.14900E-04 1.60450E-04-3.79284E-05
 -1     13711 2.85923E-04 2.07736E-04-8.49116E-06
 -1     13712 3.01377E-04 1.84684E-04-9.96302E-06
 -1     13713 2.86342E-04 2.08040E-04-9.96302E-06
 -1     13718 2.85923E-04 2.07736E-04-1.14349E-05
 -1     13719 3.01377E-04 1.84684E-04-1.29067E-05
 -1     13720 2.86342E-04 2.08040E-04-1.29067E-05
 -1     13725 2.85923E-04 2.07736E-04-1.43786E-05
 -1     13726 3.01377E-04 1.84684E-04-1.58505E-05
 -1     13727 2.86342E-04 2.08040E-04-1.58505E-05
 -1     13732 2.85923E-04 2.07736E-04-1.73223E-05
 -1     13733 3.01377E-04 1.84684E-04-1.87942E-05
 -1     13734 2.86342E-04 2.08040E-04-1.87942E-05
 -1     13739 2.85923E-04 2.07736E-04-2.02661E-05
 -1     13740 3.01377E-04 1.84684E-04-2.17379E-05
 -1     13741 2.86342E-04 2.08040E-04-2.17379E-05
 -1     13746 2.85923E-04 2.07736E-04-2.32098E-05
 -1     13747 3.01377E-04 1.84684E-04-2.46816E-05
 -1     13748 2.86342E-04 2.08040E-04-2.46816E-05
 -1     13753 2.85923E-04 2.07736E-04-2.61535E-05
 -1     13754 3.01377E-04 1.84684E-04-2.76254E-05
 -1     13755 2.86342E-04 2.08040E-04-2.76254E-05
 -1     13760 2.85923E-04 2.07736E-04-2.90972E-05
 -1     13761 3.01377E-04 1.84684E-04-3.05691E-05
 -1     13762 2.86342E-04 2.08040E-04-3.05691E-05
 -1     13767 2.85923E-04 2.07736E-04-3.20409E-05
 -1     13768 3.01377E-04 1.84684E-04-3.35128E-05
 -1     13769 2.86342E-04 2.08040E-04-3.35128E-05
 -1     13774 2.85923E-04 2.07736E-04-3.49847E-05
 -1     13775 3.01377E-04 1.84684E-04-3.64565E-05
 -1     13776 2.86342E-04 2.08040E-04-3.64565E-05
 -1     13781 2.85923E-04 2.07736E-04-3.79284E-05
 -1     13785 2.49906E-04 2.49906E-04-8.49116E-06
 -1     13786 2.68776E-04 2.29556E-04-9.96302E-06
 -1     13787 2.50272E-04 2.50272E-04-9.96302E-06
 -1     13792 2.49906E-04 2.49906E-04-1.14349E-05
 -1     13793 2.68776E-04 2.29556E-04-1.29067E-05
 -1     13794 2.50272E-04 2.50272E-04-1.29067E-05
 -1     13799 2.49906E-04 2.49906E-04-1.43786E-05
 -1     13800 2.68776E-04 2.29556E-04-1.58505E-05
 -1     13801 2.50272E-04 2.50272E-04-1.58505E-05
 -1     13806 2.49906E-04 2.49906E-04-1.73223E-05
 -1     13807 2.68776E-04 2.29556E-04-1.87942E-05
 -1     13808 2.50272E-04 2.50272E-04-1.87942E-05
 -1     13813 2.49906E-04 2.49906E-04-2.02661E-05
 -1     13814 2.68776E-04 2.29556E-04-2.17379E-05
 -1     13815 2.50272E-04 2.50272E-04-2.17379E-05
 -1     13820 2.49906E-04 2.49906E-04-2.32098E-05
 -1     13821 2.68776E-04 2.29556E-04-2.46816E-05
 -1     13822 2.50272E-04 2.50272E-04-2.46816E-05
 -1     13827 2.49906E-04 2.49906E-04-2.61535E-05
 -1     13828 2.68776E-04 2.29556E-04-2.76254E-05
 -1     13829 2.50272E-04 2.50272E-04-2.76254E-05
 -1     13834 2.49906E-04 2.49906E-04-2.90972E-05
 -1     13835 2.68776E-04 2.29556E-04-3.05691E-05
 -1     13836 2.50272E-04 2.50272E-04-3.05691E-05
 -1     13841 2.49906E-04 2.49906E-04-3.20409E-05
 -1     13842 2.68776E-04 2.29556E-04-3.35128E-05
 -1     13843 2.50272E-04 2.50272E-04-3.35128E-05
 -1     13848 2.49906E-04 2.49906E-04-3.49847E-05
 -1     13849 2.68776E-04 2.29556E-04-3.64565E-05
 -1     13850 2.50272E-04 2.50272E-04-3.64565E-05
 -1     13855 2.49906E-04 2.49906E-04-3.79284E-05
 -1     13859 2.07736E-04 2.85923E-04-8.49116E-06
 -1     13860 2.29556E-04 2.68776E-04-9.96302E-06
 -1     13861 2.08040E-04 2.86342E-04-9.96302E-06
 -1     13866 2.07736E-04 2.85923E-04-1.14349E-05
 -1     13867 2.29556E-04 2.68776E-04-1.29067E-05
 -1     13868 2.08040E-04 2.86342E-04-1.29067E-05
 -1     13873 2.07736E-04 2.85923E-04-1.43786E-05
 -1     13874 2.29556E-04 2.68776E-04-1.58505E-05
 -1     13875 2.08040E-04 2.86342E-04-1.58505E-05
 -1     13880 2.07736E-04 2.85923E-04-1.73223E-05
 -1     13881 2.29556E-04 2.68776E-04-1.87942E-05
 -1     13882 2.08040E-04 2.86342E-04-1.87942E-05
 -1     13887 2.07736E-04 2.85923E-04-2.02661E-05
 -1     13888 2.29556E-04 2.68776E-04-2.17379E-05
 -1     13889 2.08040E-04 2.86342E-04-2.17379E-05
 -1     13894 2.07736E-04 2.85923E-04-2.32098E-05
 -1     13895 2.29556E-04 2.68776E-04-2.46816E-05
 -1     13896 2.08040E-04 2.86342E-04-2.46816E-05
 -1     13901 2.07736E-04 2.85923E-04-2.61535E-05
 -1     13902 2.29556E-04 2.68776E-04-2.76254E-05
 -1     13903 2.08040E-04 2.86342E-04-2.76254E-05
 -1     13908 2.07736E-04 2.85923E-04-2.90972E-05
 -1     13909 2.29556E-04 2.68776E-04-3.05691E-05
 -1     13910 2.08040E-04 2.86342E-04-3.05691E-05
 -1     13915 2.07736E-04 2.85923E-04-3.20409E-05
 -1     13916 2.29556E-04 2.68776E-04-3.35128E-05
 -1     13917 2.08040E-04 2.86342E-04-3.35128E-05
 -1     13922 2.07736E-04 2.85923E-04-3.49847E-05
 -1     13923 2.29556E-04 2.68776E-04-3.64565E-05
 -1     13924 2.08040E-04 2.86342E-04-3.64565E-05
 -1     13929 2.07736E-04 2.85923E-04-3.79284E-05
 -1     13933 1.60450E-04 3.14900E-04-8.49116E-06
 -1     13934 1.84684E-04 3.01377E-04-9.96302E-06
 -1     13935 1.60685E-04 3.15362E-04-9.96302E-06
 -1     13940 1.60450E-04 3.14900E-04-1.14349E-05
 -1     13941 1.84684E-04 3.01377E-04-1.29067E-05
 -1     13942 1.60685E-04 3.15362E-04-1.29067E-05
 -1     13947 1.60450E-04 3.14900E-04-1.43786E-05
 -1     13948 1.84684E-04 3.01377E-04-1.58505E-05
 -1     13949 1.60685E-04 3.15362E-04-1.58505E-05
 -1     13954 1.60450E-04 3.14900E-04-1.73223E-05
 -1     13955 1.84684E-04 3.01377E-04-1.87942E-05
 -1     13956 1.60685E-04 3.15362E-04-1.87942E-05
 -1     13961 1.60450E-04 3.14900E-04-2.02661E-05
 -1     13962 1.84684E-04 3.01377E-04-2.17379E-05
 -1     13963 1.60685E-04 3.15362E-04-2.17379E-05
 -1     13968 1.60450E-04 3.14900E-04-2.32098E-05
 -1     13969 1.84684E-04 3.01377E-04-2.46816E-05
 -1     13970 1.60685E-04 3.15362E-04-2.46816E-05
 -1     13975 1.60450E-04 3.14900E-04-2.61535E-05
 -1     13976 1.84684E-04 3.01377E-04-2.76254E-05
 -1     13977 1.60685E-04 3.15362E-04-2.76254E-05
 -1     13982 1.60450E-04 3.14900E-04-2.90972E-05
 -1     13983 1.84684E-04 3.01377E-04-3.05691E-05
 -1     13984 1.60685E-04 3.15362E-04-3.05691E-05
 -1     13989 1.60450E-04 3.14900E-04-3.20409E-05
 -1     13990 1.84684E-04 3.01377E-04-3.35128E-05
 -1     13991 1.60685E-04 3.15362E-04-3.35128E-05
 -1     13996 1.60450E-04 3.14900E-04-3.49847E-05
 -1     13997 1.84684E-04 3.01377E-04-3.64565E-05
 -1     13998 1.60685E-04 3.15362E-04-3.64565E-05
 -1     14003 1.60450E-04 3.14900E-04-3.79284E-05
 -1     14007 1.09213E-04 3.36123E-04-8.49116E-06
 -1     14008 1.35265E-04 3.26557E-04-9.96302E-06
 -1     14009 1.09373E-04 3.36616E-04-9.96302E-06
 -1     14014 1.09213E-04 3.36123E-04-1.14349E-05
 -1     14015 1.35265E-04 3.26557E-04-1.29067E-05
 -1     14016 1.09373E-04 3.36616E-04-1.29067E-05
 -1     14021 1.09213E-04 3.36123E-04-1.43786E-05
 -1     14022 1.35265E-04 3.26557E-04-1.58505E-05
 -1     14023 1.09373E-04 3.36616E-04-1.58505E-05
 -1     14028 1.09213E-04 3.36123E-04-1.73223E-05
 -1     14029 1.35265E-04 3.26557E-04-1.87942E-05
 -1     14030 1.09373E-04 3.36616E-04-1.87942E-05
 -1     14035 1.09213E-04 3.36123E-04-2.02661E-05
 -1     14036 1.35265E-04 3.26557E-04-2.17379E-05
 -1     14037 1.09373E-04 3.36616E-04-2.17379E-05
 -1     14042 1.09213E-04 3.36123E-04-2.32098E-05
 -1     14043 1.35265E-04 3.26557E-04-2.46816E-05
 -1     14044 1.09373E-04 3.36616E-04-2.46816E-05
 -1     14049 1.09213E-04 3.36123E-04-2.61535E-05
 -1     14050 1.35265E-04 3.26557E-04-2.76254E-05
 -1     14051 1.09373E-04 3.36616E-04-2.76254E-05
 -1     14056 1.09213E-04 3.36123E-04-2.90972E-05
 -1     14057 1.35265E-04 3.26557E-04-3.05691E-05
 -1     14058 1.09373E-04 3.36616E-04-3.05691E-05
 -1     14063 1.09213E-04 3.36123E-04-3.20409E-05
 -1     14064 1.35265E-04 3.26557E-04-3.35128E-05
 -1     14065 1.09373E-04 3.36616E-04-3.35128E-05
 -1     14070 1.09213E-04 3.36123E-04-3.49847E-05
 -1     14071 1.35265E-04 3.26557E-04-3.64565E-05
 -1     14072 1.09373E-04 3.36616E-04-3.64565E-05
 -1     14077 1.09213E-04 3.36123E-04-3.79284E-05
 -1     14081 5.52872E-05 3.49070E-04-8.49116E-06
 -1     14082 8.25144E-05 3.43697E-04-9.96302E-06
 -1     14083 5.53682E-05 3.49581E-04-9.96302E-06
 -1     14088 5.52872E-05 3.49070E-04-1.14349E-05
 -1     14089 8.25144E-05 3.43697E-04-1.29067E-05
 -1     14090 5.53682E-05 3.49581E-04-1.29067E-05
 -1     14095 5.52872E-05 3.49070E-04-1.43786E-05
 -1     14096 8.25144E-05 3.43697E-04-1.58505E-05
 -1     14097 5.53682E-05 3.49581E-04-1.58505E-05
 -1     14102 5.52872E-05 3.49070E-04-1.73223E-05
 -1     14103 8.25144E-05 3.43697E-04-1.87942E-05
 -1     14104 5.53682E-05 3.49581E-04-1.87942E-05
 -1     14109 5.52872E-05 3.49070E-04-2.02661E-05
 -1     14110 8.25144E-05 3.43697E-04-2.17379E-05
 -1     14111 5.53682E-05 3.49581E-04-2.17379E-05
 -1     14116 5.52872E-05 3.49070E-04-2.32098E-05
 -1     14117 8.25144E-05 3.43697E-04-2.46816E-05
 -1     14118 5.53682E-05 3.49581E-04-2.46816E-05
 -1     14123 5.52872E-05 3.49070E-04-2.61535E-05
 -1     14124 8.25144E-05 3.43697E-04-2.76254E-05
 -1     14125 5.53682E-05 3.49581E-04-2.76254E-05
 -1     14130 5.52872E-05 3.49070E-04-2.90972E-05
 -1     14131 8.25144E-05 3.43697E-04-3.05691E-05
 -1     14132 5.53682E-05 3.49581E-04-3.05691E-05
 -1     14137 5.52872E-05 3.49070E-04-3.20409E-05
 -1     14138 8.25144E-05 3.43697E-04-3.35128E-05
 -1     14139 5.53682E-05 3.49581E-04-3.35128E-05
 -1     14144 5.52872E-05 3.49070E-04-3.49847E-05
 -1     14145 8.25144E-05 3.43697E-04-3.64565E-05
 -1     14146 5.53682E-05 3.49581E-04-3.64565E-05
 -1     14151 5.52872E-05 3.49070E-04-3.79284E-05
 -1     14155 2.77324E-05 3.52374E-04-9.96302E-06
 -1     14159 2.77324E-05 3.52374E-04-1.29067E-05
 -1     14163 2.77324E-05 3.52374E-04-1.58505E-05
 -1     14167 2.77324E-05 3.52374E-04-1.87942E-05
 -1     14171 2.77324E-05 3.52374E-04-2.17379E-05
 -1     14175 2.77324E-05 3.52374E-04-2.46816E-05
 -1     14179 2.77324E-05 3.52374E-04-2.76254E-05
 -1     14183 2.77324E-05 3.52374E-04-3.05691E-05
 -1     14187 2.77324E-05 3.52374E-04-3.35128E-05
 -1     14191 2.77324E-05 3.52374E-04-3.64565E-05
 -1     14197 3.48863E-04 5.52544E-05-8.49116E-06
 -1     14198 3.52106E-04 2.77114E-05-9.96302E-06
 -1     14199 3.48837E-04 5.52503E-05-9.96302E-06
 -1     14204 3.48863E-04 5.52544E-05-1.14349E-05
 -1     14205 3.52106E-04 2.77114E-05-1.29067E-05
 -1     14206 3.48837E-04 5.52503E-05-1.29067E-05
 -1     14211 3.48863E-04 5.52544E-05-1.43786E-05
 -1     14212 3.52106E-04 2.77114E-05-1.58505E-05
 -1     14213 3.48837E-04 5.52503E-05-1.58505E-05
 -1     14218 3.48863E-04 5.52544E-05-1.73223E-05
 -1     14219 3.52106E-04 2.77114E-05-1.87942E-05
 -1     14220 3.48837E-04 5.52503E-05-1.87942E-05
 -1     14225 3.48863E-04 5.52544E-05-2.02661E-05
 -1     14226 3.52106E-04 2.77114E-05-2.17379E-05
 -1     14227 3.48837E-04 5.52503E-05-2.17379E-05
 -1     14232 3.48863E-04 5.52544E-05-2.32098E-05
 -1     14233 3.52106E-04 2.77114E-05-2.46816E-05
 -1     14234 3.48837E-04 5.52503E-05-2.46816E-05
 -1     14239 3.48863E-04 5.52544E-05-2.61535E-05
 -1     14240 3.52106E-04 2.77114E-05-2.76254E-05
 -1     14241 3.48837E-04 5.52503E-05-2.76254E-05
 -1     14246 3.48863E-04 5.52544E-05-2.90972E-05
 -1     14247 3.52106E-04 2.77114E-05-3.05691E-05
 -1     14248 3.48837E-04 5.52503E-05-3.05691E-05
 -1     14253 3.48863E-04 5.52544E-05-3.20409E-05
 -1     14254 3.52106E-04 2.77114E-05-3.35128E-05
 -1     14255 3.48837E-04 5.52503E-05-3.35128E-05
 -1     14260 3.48863E-04 5.52544E-05-3.49847E-05
 -1     14261 3.52106E-04 2.77114E-05-3.64565E-05
 -1     14262 3.48837E-04 5.52503E-05-3.64565E-05
 -1     14267 3.48863E-04 5.52544E-05-3.79284E-05
 -1     14271 3.35924E-04 1.09148E-04-8.49116E-06
 -1     14272 3.43436E-04 8.24518E-05-9.96302E-06
 -1     14273 3.35899E-04 1.09140E-04-9.96302E-06
 -1     14278 3.35924E-04 1.09148E-04-1.14349E-05
 -1     14279 3.43436E-04 8.24518E-05-1.29067E-05
 -1     14280 3.35899E-04 1.09140E-04-1.29067E-05
 -1     14285 3.35924E-04 1.09148E-04-1.43786E-05
 -1     14286 3.43436E-04 8.24518E-05-1.58505E-05
 -1     14287 3.35899E-04 1.09140E-04-1.58505E-05
 -1     14292 3.35924E-04 1.09148E-04-1.73223E-05
 -1     14293 3.43436E-04 8.24518E-05-1.87942E-05
 -1     14294 3.35899E-04 1.09140E-04-1.87942E-05
 -1     14299 3.35924E-04 1.09148E-04-2.02661E-05
 -1     14300 3.43436E-04 8.24518E-05-2.17379E-05
 -1     14301 3.35899E-04 1.09140E-04-2.17379E-05
 -1     14306 3.35924E-04 1.09148E-04-2.32098E-05
 -1     14307 3.43436E-04 8.24518E-05-2.46816E-05
 -1     14308 3.35899E-04 1.09140E-04-2.46816E-05
 -1     14313 3.35924E-04 1.09148E-04-2.61535E-05
 -1     14314 3.43436E-04 8.24518E-05-2.76254E-05
 -1     14315 3.35899E-04 1.09140E-04-2.76254E-05
 -1     14320 3.35924E-04 1.09148E-04-2.90972E-05
 -1     14321 3.43436E-04 8.24518E-05-3.05691E-05
 -1     14322 3.35899E-04 1.09140E-04-3.05691E-05
 -1     14327 3.35924E-04 1.09148E-04-3.20409E-05
 -1     14328 3.43436E-04 8.24518E-05-3.35128E-05
 -1     14329 3.35899E-04 1.09140E-04-3.35128E-05
 -1     14334 3.35924E-04 1.09148E-04-3.49847E-05
 -1     14335 3.43436E-04 8.24518E-05-3.64565E-05
 -1     14336 3.35899E-04 1.09140E-04-3.64565E-05
 -1     14341 3.35924E-04 1.09148E-04-3.79284E-05
 -1     14345 3.14714E-04 1.60355E-04-8.49116E-06
 -1     14346 3.26310E-04 1.35162E-04-9.96302E-06
 -1     14347 3.14690E-04 1.60343E-04-9.96302E-06
 -1     14352 3.14714E-04 1.60355E-04-1.14349E-05
 -1     14353 3.26310E-04 1.35162E-04-1.29067E-05
 -1     14354 3.14690E-04 1.60343E-04-1.29067E-05
 -1     14359 3.14714E-04 1.60355E-04-1.43786E-05
 -1     14360 3.26310E-04 1.35162E-04-1.58505E-05
 -1     14361 3.14690E-04 1.60343E-04-1.58505E-05
 -1     14366 3.14714E-04 1.60355E-04-1.73223E-05
 -1     14367 3.26310E-04 1.35162E-04-1.87942E-05
 -1     14368 3.14690E-04 1.60343E-04-1.87942E-05
 -1     14373 3.14714E-04 1.60355E-04-2.02661E-05
 -1     14374 3.26310E-04 1.35162E-04-2.17379E-05
 -1     14375 3.14690E-04 1.60343E-04-2.17379E-05
 -1     14380 3.14714E-04 1.60355E-04-2.32098E-05
 -1     14381 3.26310E-04 1.35162E-04-2.46816E-05
 -1     14382 3.14690E-04 1.60343E-04-2.46816E-05
 -1     14387 3.14714E-04 1.60355E-04-2.61535E-05
 -1     14388 3.26310E-04 1.35162E-04-2.76254E-05
 -1     14389 3.14690E-04 1.60343E-04-2.76254E-05
 -1     14394 3.14714E-04 1.60355E-04-2.90972E-05
 -1     14395 3.26310E-04 1.35162E-04-3.05691E-05
 -1     14396 3.14690E-04 1.60343E-04-3.05691E-05
 -1     14401 3.14714E-04 1.60355E-04-3.20409E-05
 -1     14402 3.26310E-04 1.35162E-04-3.35128E-05
 -1     14403 3.14690E-04 1.60343E-04-3.35128E-05
 -1     14408 3.14714E-04 1.60355E-04-3.49847E-05
 -1     14409 3.26310E-04 1.35162E-04-3.64565E-05
 -1     14410 3.14690E-04 1.60343E-04-3.64565E-05
 -1     14415 3.14714E-04 1.60355E-04-3.79284E-05
 -1     14419 2.85754E-04 2.07612E-04-8.49116E-06
 -1     14420 3.01148E-04 1.84544E-04-9.96302E-06
 -1     14421 2.85733E-04 2.07597E-04-9.96302E-06
 -1     14426 2.85754E-04 2.07612E-04-1.14349E-05
 -1     14427 3.01148E-04 1.84544E-04-1.29067E-05
 -1     14428 2.85733E-04 2.07597E-04-1.29067E-05
 -1     14433 2.85754E-04 2.07612E-04-1.43786E-05
 -1     14434 3.01148E-04 1.84544E-04-1.58505E-05
 -1     14435 2.85733E-04 2.07597E-04-1.58505E-05
 -1     14440 2.85754E-04 2.07612E-04-1.73223E-05
 -1     14441 3.01148E-04 1.84544E-04-1.87942E-05
 -1     14442 2.85733E-04 2.07597E-04-1.87942E-05
 -1     14447 2.85754E-04 2.07612E-04-2.02661E-05
 -1     14448 3.01148E-04 1.84544E-04-2.17379E-05
 -1     14449 2.85733E-04 2.07597E-04-2.17379E-05
 -1     14454 2.85754E-04 2.07612E-04-2.32098E-05
 -1     14455 3.01148E-04 1.84544E-04-2.46816E-05
 -1     14456 2.85733E-04 2.07597E-04-2.46816E-05
 -1     14461 2.85754E-04 2.07612E-04-2.61535E-05
 -1     14462 3.01148E-04 1.84544E-04-2.76254E-05
 -1     14463 2.85733E-04 2.07597E-04-2.76254E-05
 -1     14468 2.85754E-04 2.07612E-04-2.90972E-05
 -1     14469 3.01148E-04 1.84544E-04-3.05691E-05
 -1     14470 2.85733E-04 2.07597E-04-3.05691E-05
 -1     14475 2.85754E-04 2.07612E-04-3.20409E-05
 -1     14476 3.01148E-04 1.84544E-04-3.35128E-05
 -1     14477 2.85733E-04 2.07597E-04-3.35128E-05
 -1     14482 2.85754E-04 2.07612E-04-3.49847E-05
 -1     14483 3.01148E-04 1.84544E-04-3.64565E-05
 -1     14484 2.85733E-04 2.07597E-04-3.64565E-05
 -1     14489 2.85754E-04 2.07612E-04-3.79284E-05
 -1     14493 2.49758E-04 2.49758E-04-8.49116E-06
 -1     14494 2.68572E-04 2.29382E-04-9.96302E-06
 -1     14495 2.49740E-04 2.49740E-04-9.96302E-06
 -1     14500 2.49758E-04 2.49758E-04-1.14349E-05
 -1     14501 2.68572E-04 2.29382E-04-1.29067E-05
 -1     14502 2.49740E-04 2.49740E-04-1.29067E-05
 -1     14507 2.49758E-04 2.49758E-04-1.43786E-05
 -1     14508 2.68572E-04 2.29382E-04-1.58505E-05
 -1     14509 2.49740E-04 2.49740E-04-1.58505E-05
 -1     14514 2.49758E-04 2.49758E-04-1.73223E-05
 -1     14515 2.68572E-04 2.29382E-04-1.87942E-05
 -1     14516 2.49740E-04 2.49740E-04-1.87942E-05
 -1     14521 2.49758E-04 2.49758E-04-2.02661E-05
 -1     14522 2.68572E-04 2.29382E-04-2.17379E-05
 -1     14523 2.49740E-04 2.49740E-04-2.17379E-05
 -1     14528 2.49758E-04 2.49758E-04-2.32098E-05
 -1     14529 2.68572E-04 2.29382E-04-2.46816E-05
 -1     14530 2.49740E-04 2.49740E-04-2.46816E-05
 -1     14535 2.49758E-04 2.49758E-04-2.61535E-05
 -1     14536 2.68572E-04 2.29382E-04-2.76254E-05
 -1     14537 2.49740E-04 2.49740E-04-2.76254E-05
 -1     14542 2.49758E-04 2.49758E-04-2.90972E-05
 -1     14543 2.68572E-04 2.29382E-04-3.05691E-05
 -1     14544 2.49740E-04 2.49740E-04-3.05691E-05
 -1     14549 2.49758E-04 2.49758E-04-3.20409E-05
 -1     14550 2.68572E-04 2.29382E-04-3.35128E-05
 -1     14551 2.49740E-04 2.49740E-04-3.35128E-05
 -1     14556 2.49758E-04 2.49758E-04-3.49847E-05
 -1     14557 2.68572E-04 2.29382E-04-3.64565E-05
 -1     14558 2.49740E-04 2.49740E-04-3.64565E-05
 -1     14563 2.49758E-04 2.49758E-04-3.79284E-05
 -1     14567 2.07612E-04 2.85754E-04-8.49116E-06
 -1     14568 2.29382E-04 2.68572E-04-9.96302E-06
 -1     14569 2.07597E-04 2.85733E-04-9.96302E-06
 -1     14574 2.07612E-04 2.85754E-04-1.14349E-05
 -1     14575 2.29382E-04 2.68572E-04-1.29067E-05
 -1     14576 2.07597E-04 2.85733E-04-1.29067E-05
 -1     14581 2.07612E-04 2.85754E-04-1.43786E-05
 -1     14582 2.29382E-04 2.68572E-04-1.58505E-05
 -1     14583 2.07597E-04 2.85733E-04-1.58505E-05
 -1     14588 2.07612E-04 2.85754E-04-1.73223E-05
 -1     14589 2.29382E-04 2.68572E-04-1.87942E-05
 -1     14590 2.07597E-04 2.85733E-04-1.87942E-05
 -1     14595 2.07612E-04 2.85754E-04-2.02661E-05
 -1     14596 2.29382E-04 2.68572E-04-2.17379E-05
 -1     14597 2.07597E-04 2.85733E-04-2.17379E-05
 -1     14602 2.07612E-04 2.85754E-04-2.32098E-05
 -1     14603 2.29382E-04 2.68572E-04-2.46816E-05
 -1     14604 2.07597E-04 2.85733E-04-2.46816E-05
 -1     14609 2.07612E-04 2.85754E-04-2.61535E-05
 -1     14610 2.29382E-04 2.68572E-04-2.76254E-05
 -1     14611 2.07597E-04 2.85733E-04-2.76254E-05
 -1     14616 2.07612E-04 2.85754E-04-2.90972E-05
 -1     14617 2.29382E-04 2.68572E-04-3.05691E-05
 -1     14618 2.07597E-04 2.85733E-04-3.05691E-05
 -1     14623 2.07612E-04 2.85754E-04-3.20409E-05
 -1     14624 2.29382E-04 2.68572E-04-3.35128E-05
 -1     14625 2.07597E-04 2.85733E-04-3.35128E-05
 -1     14630 2.07612E-04 2.85754E-04-3.49847E-05
 -1     14631 2.29382E-04 2.68572E-04-3.64565E-05
 -1     14632 2.07597E-04 2.85733E-04-3.64565E-05
 -1     14637 2.07612E-04 2.85754E-04-3.79284E-05
 -1     14641 1.60355E-04 3.14714E-04-8.49116E-06
 -1     14642 1.84544E-04 3.01148E-04-9.96302E-06
 -1     14643 1.60343E-04 3.14690E-04-9.96302E-06
 -1     14648 1.60355E-04 3.14714E-04-1.14349E-05
 -1     14649 1.84544E-04 3.01148E-04-1.29067E-05
 -1     14650 1.60343E-04 3.14690E-04-1.29067E-05
 -1     14655 1.60355E-04 3.14714E-04-1.43786E-05
 -1     14656 1.84544E-04 3.01148E-04-1.58505E-05
 -1     14657 1.60343E-04 3.14690E-04-1.58505E-05
 -1     14662 1.60355E-04 3.14714E-04-1.73223E-05
 -1     14663 1.84544E-04 3.01148E-04-1.87942E-05
 -1     14664 1.60343E-04 3.14690E-04-1.87942E-05
 -1     14669 1.60355E-04 3.14714E-04-2.02661E-05
 -1     14670 1.84544E-04 3.01148E-04-2.17379E-05
 -1     14671 1.60343E-04 3.14690E-04-2.17379E-05
 -1     14676 1.60355E-04 3.14714E-04-2.32098E-05
 -1     14677 1.84544E-04 3.01148E-04-2.46816E-05
 -1     14678 1.60343E-04 3.14690E-04-2.46816E-05
 -1     14683 1.60355E-04 3.14714E-04-2.61535E-05
 -1     14684 1.84544E-04 3.01148E-04-2.76254E-05
 -1     14685 1.60343E-04 3.14690E-04-2.76254E-05
 -1     14690 1.60355E-04 3.14714E-04-2.90972E-05
 -1     14691 1.84544E-04 3.01148E-04-3.05691E-05
 -1     14692 1.60343E-04 3.14690E-04-3.05691E-05
 -1     14697 1.60355E-04 3.14714E-04-3.20409E-05
 -1     14698 1.84544E-04 3.01148E-04-3.35128E-05
 -1     14699 1.60343E-04 3.14690E-04-3.35128E-05
 -1     14704 1.60355E-04 3.14714E-04-3.49847E-05
 -1     14705 1.84544E-04 3.01148E-04-3.64565E-05
 -1     14706 1.60343E-04 3.14690E-04-3.64565E-05
 -1     14711 1.60355E-04 3.14714E-04-3.79284E-05
 -1     14715 1.09148E-04 3.35924E-04-8.49116E-06
 -1     14716 1.35162E-04 3.26310E-04-9.96302E-06
 -1     14717 1.09140E-04 3.35899E-04-9.96302E-06
 -1     14722 1.09148E-04 3.35924E-04-1.14349E-05
 -1     14723 1.35162E-04 3.26310E-04-1.29067E-05
 -1     14724 1.09140E-04 3.35899E-04-1.29067E-05
 -1     14729 1.09148E-04 3.35924E-04-1.43786E-05
 -1     14730 1.35162E-04 3.26310E-04-1.58505E-05
 -1     14731 1.09140E-04 3.35899E-04-1.58505E-05
 -1     14736 1.09148E-04 3.35924E-04-1.73223E-05
 -1     14737 1.35162E-04 3.26310E-04-1.87942E-05
 -1     14738 1.09140E-04 3.35899E-04-1.87942E-05
 -1     14743 1.09148E-04 3.35924E-04-2.02661E-05
 -1     14744 1.35162E-04 3.26310E-04-2.17379E-05
 -1     14745 1.09140E-04 3.35899E-04-2.17379E-05
 -1     14750 1.09148E-04 3.35924E-04-2.32098E-05
 -1     14751 1.35162E-04 3.26310E-04-2.46816E-05
 -1     14752 1.09140E-04 3.35899E-04-2.46816E-05
 -1     14757 1.09148E-04 3.35924E-04-2.61535E-05
 -1     14758 1.35162E-04 3.26310E-04-2.76254E-05
 -1     14759 1.09140E-04 3.35899E-04-2.76254E-05
 -1     14764 1.09148E-04 3.35924E-04-2.90972E-05
 -1     14765 1.35162E-04 3.26310E-04-3.05691E-05
 -1     14766 1.09140E-04 3.35899E-04-3.05691E-05
 -1     14771 1.09148E-04 3.35924E-04-3.20409E-05
 -1     14772 1.35162E-04 3.26310E-04-3.35128E-05
 -1     14773 1.09140E-04 3.35899E-04-3.35128E-05
 -1     14778 1.09148E-04 3.35924E-04-3.49847E-05
 -1     14779 1.35162E-04 3.26310E-04-3.64565E-05
 -1     14780 1.09140E-04 3.35899E-04-3.64565E-05
 -1     14785 1.09148E-04 3.35924E-04-3.79284E-05
 -1     14789 5.52544E-05 3.48863E-04-8.49116E-06
 -1     14790 8.24518E-05 3.43436E-04-9.96302E-06
 -1     14791 5.52503E-05 3.48837E-04-9.96302E-06
 -1     14796 5.52544E-05 3.48863E-04-1.14349E-05
 -1     14797 8.24518E-05 3.43436E-04-1.29067E-05
 -1     14798 5.52503E-05 3.48837E-04-1.29067E-05
 -1     14803 5.52544E-05 3.48863E-04-1.43786E-05
 -1     14804 8.24518E-05 3.43436E-04-1.58505E-05
 -1     14805 5.52503E-05 3.48837E-04-1.58505E-05
 -1     14810 5.52544E-05 3.48863E-04-1.73223E-05
 -1     14811 8.24518E-05 3.43436E-04-1.87942E-05
 -1     14812 5.52503E-05 3.48837E-04-1.87942E-05
 -1     14817 5.52544E-05 3.48863E-04-2.02661E-05
 -1     14818 8.24518E-05 3.43436E-04-2.17379E-05
 -1     14819 5.52503E-05 3.48837E-04-2.17379E-05
 -1     14824 5.52544E-05 3.48863E-04-2.32098E-05
 -1     14825 8.24518E-05 3.43436E-04-2.46816E-05
 -1     14826 5.52503E-05 3.48837E-04-2.46816E-05
 -1     14831 5.52544E-05 3.48863E-04-2.61535E-05
 -1     14832 8.24518E-05 3.43436E-04-2.76254E-05
 -1     14833 5.52503E-05 3.48837E-04-2.76254E-05
 -1     14838 5.52544E-05 3.48863E-04-2.90972E-05
 -1     14839 8.24518E-05 3.43436E-04-3.05691E-05
 -1     14840 5.52503E-05 3.48837E-04-3.05691E-05
 -1     14845 5.52544E-05 3.48863E-04-3.20409E-05
 -1     14846 8.24518E-05 3.43436E-04-3.35128E-05
 -1     14847 5.52503E-05 3.48837E-04-3.35128E-05
 -1     14852 5.52544E-05 3.48863E-04-3.49847E-05
 -1     14853 8.24518E-05 3.43436E-04-3.64565E-05
 -1     14854 5.52503E-05 3.48837E-04-3.64565E-05
 -1     14859 5.52544E-05 3.48863E-04-3.79284E-05
 -1     14863 2.77114E-05 3.52106E-04-9.96302E-06
 -1     14867 2.77114E-05 3.52106E-04-1.29067E-05
 -1     14871 2.77114E-05 3.52106E-04-1.58505E-05
 -1     14875 2.77114E-05 3.52106E-04-1.87942E-05
 -1     14879 2.77114E-05 3.52106E-04-2.17379E-05
 -1     14883 2.77114E-05 3.52106E-04-2.46816E-05
 -1     14887 2.77114E-05 3.52106E-04-2.76254E-05
 -1     14891 2.77114E-05 3.52106E-04-3.05691E-05
 -1     14895 2.77114E-05 3.52106E-04-3.35128E-05
 -1     14899 2.77114E-05 3.52106E-04-3.64565E-05
 -1     14905 3.49610E-04 5.53727E-05-8.49116E-06
 -1     14906 3.52804E-04 2.77663E-05-9.96302E-06
 -1     14907 3.49126E-04 5.52961E-05-9.96302E-06
 -1     14912 3.49610E-04 5.53727E-05-1.14349E-05
 -1     14913 3.52804E-04 2.77663E-05-1.29067E-05
 -1     14914 3.49126E-04 5.52961E-05-1.29067E-05
 -1     14919 3.49610E-04 5.53727E-05-1.43786E-05
 -1     14920 3.52804E-04 2.77663E-05-1.58505E-05
 -1     14921 3.49126E-04 5.52961E-05-1.58505E-05
 -1     14926 3.49610E-04 5.53727E-05-1.73223E-05
 -1     14927 3.52804E-04 2.77663E-05-1.87942E-05
 -1     14928 3.49126E-04 5.52961E-05-1.87942E-05
 -1     14933 3.49610E-04 5.53727E-05-2.02661E-05
 -1     14934 3.52804E-04 2.77663E-05-2.17379E-05
 -1     14935 3.49126E-04 5.52961E-05-2.17379E-05
 -1     14940 3.49610E-04 5.53727E-05-2.32098E-05
 -1     14941 3.52804E-04 2.77663E-05-2.46816E-05
 -1     14942 3.49126E-04 5.52961E-05-2.46816E-05
 -1     14947 3.49610E-04 5.53727E-05-2.61535E-05
 -1     14948 3.52804E-04 2.77663E-05-2.76254E-05
 -1     14949 3.49126E-04 5.52961E-05-2.76254E-05
 -1     14954 3.49610E-04 5.53727E-05-2.90972E-05
 -1     14955 3.52804E-04 2.77663E-05-3.05691E-05
 -1     14956 3.49126E-04 5.52961E-05-3.05691E-05
 -1     14961 3.49610E-04 5.53727E-05-3.20409E-05
 -1     14962 3.52804E-04 2.77663E-05-3.35128E-05
 -1     14963 3.49126E-04 5.52961E-05-3.35128E-05
 -1     14968 3.49610E-04 5.53727E-05-3.49847E-05
 -1     14969 3.52804E-04 2.77663E-05-3.64565E-05
 -1     14970 3.49126E-04 5.52961E-05-3.64565E-05
 -1     14975 3.49610E-04 5.53727E-05-3.79284E-05
 -1     14979 3.36643E-04 1.09382E-04-8.49116E-06
 -1     14980 3.44117E-04 8.26152E-05-9.96302E-06
 -1     14981 3.36177E-04 1.09231E-04-9.96302E-06
 -1     14986 3.36643E-04 1.09382E-04-1.14349E-05
 -1     14987 3.44117E-04 8.26152E-05-1.29067E-05
 -1     14988 3.36177E-04 1.09231E-04-1.29067E-05
 -1     14993 3.36643E-04 1.09382E-04-1.43786E-05
 -1     14994 3.44117E-04 8.26152E-05-1.58505E-05
 -1     14995 3.36177E-04 1.09231E-04-1.58505E-05
 -1     15000 3.36643E-04 1.09382E-04-1.73223E-05
 -1     15001 3.44117E-04 8.26152E-05-1.87942E-05
 -1     15002 3.36177E-04 1.09231E-04-1.87942E-05
 -1     15007 3.36643E-04 1.09382E-04-2.02661E-05
 -1     15008 3.44117E-04 8.26152E-05-2.17379E-05
 -1     15009 3.36177E-04 1.09231E-04-2.17379E-05
 -1     15014 3.36643E-04 1.09382E-04-2.32098E-05
 -1     15015 3.44117E-04 8.26152E-05-2.46816E-05
 -1     15016 3.36177E-04 1.09231E-04-2.46816E-05
 -1     15021 3.36643E-04 1.09382E-04-2.61535E-05
 -1     15022 3.44117E-04 8.26152E-05-2.76254E-05
 -1     15023 3.36177E-04 1.09231E-04-2.76254E-05
 -1     15028 3.36643E-04 1.09382E-04-2.90972E-05
 -1     15029 3.44117E-04 8.26152E-05-3.05691E-05
 -1     15030 3.36177E-04 1.09231E-04-3.05691E-05
 -1     15035 3.36643E-04 1.09382E-04-3.20409E-05
 -1     15036 3.44117E-04 8.26152E-05-3.35128E-05
 -1     15037 3.36177E-04 1.09231E-04-3.35128E-05
 -1     15042 3.36643E-04 1.09382E-04-3.49847E-05
 -1     15043 3.44117E-04 8.26152E-05-3.64565E-05
 -1     15044 3.36177E-04 1.09231E-04-3.64565E-05
 -1     15049 3.36643E-04 1.09382E-04-3.79284E-05
 -1     15053 3.15387E-04 1.60698E-04-8.49116E-06
 -1     15054 3.26957E-04 1.35430E-04-9.96302E-06
 -1     15055 3.14951E-04 1.60475E-04-9.96302E-06
 -1     15060 3.15387E-04 1.60698E-04-1.14349E-05
 -1     15061 3.26957E-04 1.35430E-04-1.29067E-05
 -1     15062 3.14951E-04 1.60475E-04-1.29067E-05
 -1     15067 3.15387E-04 1.60698E-04-1.43786E-05
 -1     15068 3.26957E-04 1.35430E-04-1.58505E-05
 -1     15069 3.14951E-04 1.60475E-04-1.58505E-05
 -1     15074 3.15387E-04 1.60698E-04-1.73223E-05
 -1     15075 3.26957E-04 1.35430E-04-1.87942E-05
 -1     15076 3.14951E-04 1.60475E-04-1.87942E-05
 -1     15081 3.15387E-04 1.60698E-04-2.02661E-05
 -1     15082 3.26957E-04 1.35430E-04-2.17379E-05
 -1     15083 3.14951E-04 1.60475E-04-2.17379E-05
 -1     15088 3.15387E-04 1.60698E-04-2.32098E-05
 -1     15089 3.26957E-04 1.35430E-04-2.46816E-05
 -1     15090 3.14951E-04 1.60475E-04-2.46816E-05
 -1     15095 3.15387E-04 1.60698E-04-2.61535E-05
 -1     15096 3.26957E-04 1.35430E-04-2.76254E-05
 -1     15097 3.14951E-04 1.60475E-04-2.76254E-05
 -1     15102 3.15387E-04 1.60698E-04-2.90972E-05
 -1     15103 3.26957E-04 1.35430E-04-3.05691E-05
 -1     15104 3.14951E-04 1.60475E-04-3.05691E-05
 -1     15109 3.15387E-04 1.60698E-04-3.20409E-05
 -1     15110 3.26957E-04 1.35430E-04-3.35128E-05
 -1     15111 3.14951E-04 1.60475E-04-3.35128E-05
 -1     15116 3.15387E-04 1.60698E-04-3.49847E-05
 -1     15117 3.26957E-04 1.35430E-04-3.64565E-05
 -1     15118 3.14951E-04 1.60475E-04-3.64565E-05
 -1     15123 3.15387E-04 1.60698E-04-3.79284E-05
 -1     15127 2.86366E-04 2.08057E-04-8.49116E-06
 -1     15128 3.01745E-04 1.84910E-04-9.96302E-06
 -1     15129 2.85969E-04 2.07769E-04-9.96302E-06
 -1     15134 2.86366E-04 2.08057E-04-1.14349E-05
 -1     15135 3.01745E-04 1.84910E-04-1.29067E-05
 -1     15136 2.85969E-04 2.07769E-04-1.29067E-05
 -1     15141 2.86366E-04 2.08057E-04-1.43786E-05
 -1     15142 3.01745E-04 1.84910E-04-1.58505E-05
 -1     15143 2.85969E-04 2.07769E-04-1.58505E-05
 -1     15148 2.86366E-04 2.08057E-04-1.73223E-05
 -1     15149 3.01745E-04 1.84910E-04-1.87942E-05
 -1     15150 2.85969E-04 2.07769E-04-1.87942E-05
 -1     15155 2.86366E-04 2.08057E-04-2.02661E-05
 -1     15156 3.01745E-04 1.84910E-04-2.17379E-05
 -1     15157 2.85969E-04 2.07769E-04-2.17379E-05
 -1     15162 2.86366E-04 2.08057E-04-2.32098E-05
 -1     15163 3.01745E-04 1.84910E-04-2.46816E-05
 -1     15164 2.85969E-04 2.07769E-04-2.46816E-05
 -1     15169 2.86366E-04 2.08057E-04-2.61535E-05
 -1     15170 3.01745E-04 1.84910E-04-2.76254E-05
 -1     15171 2.85969E-04 2.07769E-04-2.76254E-05
 -1     15176 2.86366E-04 2.08057E-04-2.90972E-05
 -1     15177 3.01745E-04 1.84910E-04-3.05691E-05
 -1     15178 2.85969E-04 2.07769E-04-3.05691E-05
 -1     15183 2.86366E-04 2.08057E-04-3.20409E-05
 -1     15184 3.01745E-04 1.84910E-04-3.35128E-05
 -1     15185 2.85969E-04 2.07769E-04-3.35128E-05
 -1     15190 2.86366E-04 2.08057E-04-3.49847E-05
 -1     15191 3.01745E-04 1.84910E-04-3.64565E-05
 -1     15192 2.85969E-04 2.07769E-04-3.64565E-05
 -1     15197 2.86366E-04 2.08057E-04-3.79284E-05
 -1     15201 2.50293E-04 2.50293E-04-8.49116E-06
 -1     15202 2.69104E-04 2.29837E-04-9.96302E-06
 -1     15203 2.49946E-04 2.49946E-04-9.96302E-06
 -1     15208 2.50293E-04 2.50293E-04-1.14349E-05
 -1     15209 2.69104E-04 2.29837E-04-1.29067E-05
 -1     15210 2.49946E-04 2.49946E-04-1.29067E-05
 -1     15215 2.50293E-04 2.50293E-04-1.43786E-05
 -1     15216 2.69104E-04 2.29837E-04-1.58505E-05
 -1     15217 2.49946E-04 2.49946E-04-1.58505E-05
 -1     15222 2.50293E-04 2.50293E-04-1.73223E-05
 -1     15223 2.69104E-04 2.29837E-04-1.87942E-05
 -1     15224 2.49946E-04 2.49946E-04-1.87942E-05
 -1     15229 2.50293E-04 2.50293E-04-2.02661E-05
 -1     15230 2.69104E-04 2.29837E-04-2.17379E-05
 -1     15231 2.49946E-04 2.49946E-04-2.17379E-05
 -1     15236 2.50293E-04 2.50293E-04-2.32098E-05
 -1     15237 2.69104E-04 2.29837E-04-2.46816E-05
 -1     15238 2.49946E-04 2.49946E-04-2.46816E-05
 -1     15243 2.50293E-04 2.50293E-04-2.61535E-05
 -1     15244 2.69104E-04 2.29837E-04-2.76254E-05
 -1     15245 2.49946E-04 2.49946E-04-2.76254E-05
 -1     15250 2.50293E-04 2.50293E-04-2.90972E-05
 -1     15251 2.69104E-04 2.29837E-04-3.05691E-05
 -1     15252 2.49946E-04 2.49946E-04-3.05691E-05
 -1     15257 2.50293E-04 2.50293E-04-3.20409E-05
 -1     15258 2.69104E-04 2.29837E-04-3.35128E-05
 -1     15259 2.49946E-04 2.49946E-04-3.35128E-05
 -1     15264 2.50293E-04 2.50293E-04-3.49847E-05
 -1     15265 2.69104E-04 2.29837E-04-3.64565E-05
 -1     15266 2.49946E-04 2.49946E-04-3.64565E-05
 -1     15271 2.50293E-04 2.50293E-04-3.79284E-05
 -1     15275 2.08057E-04 2.86366E-04-8.49116E-06
 -1     15276 2.29837E-04 2.69104E-04-9.96302E-06
 -1     15277 2.07769E-04 2.85969E-04-9.96302E-06
 -1     15282 2.08057E-04 2.86366E-04-1.14349E-05
 -1     15283 2.29837E-04 2.69104E-04-1.29067E-05
 -1     15284 2.07769E-04 2.85969E-04-1.29067E-05
 -1     15289 2.08057E-04 2.86366E-04-1.43786E-05
 -1     15290 2.29837E-04 2.69104E-04-1.58505E-05
 -1     15291 2.07769E-04 2.85969E-04-1.58505E-05
 -1     15296 2.08057E-04 2.86366E-04-1.73223E-05
 -1     15297 2.29837E-04 2.69104E-04-1.87942E-05
 -1     15298 2.07769E-04 2.85969E-04-1.87942E-05
 -1     15303 2.08057E-04 2.86366E-04-2.02661E-05
 -1     15304 2.29837E-04 2.69104E-04-2.17379E-05
 -1     15305 2.07769E-04 2.85969E-04-2.17379E-05
 -1     15310 2.08057E-04 2.86366E-04-2.32098E-05
 -1     15311 2.29837E-04 2.69104E-04-2.46816E-05
 -1     15312 2.07769E-04 2.85969E-04-2.46816E-05
 -1     15317 2.08057E-04 2.86366E-04-2.61535E-05
 -1     15318 2.29837E-04 2.69104E-04-2.76254E-05
 -1     15319 2.07769E-04 2.85969E-04-2.76254E-05
 -1     15324 2.08057E-04 2.86366E-04-2.90972E-05
 -1     15325 2.29837E-04 2.69104E-04-3.05691E-05
 -1     15326 2.07769E-04 2.85969E-04-3.05691E-05
 -1     15331 2.08057E-04 2.86366E-04-3.20409E-05
 -1     15332 2.29837E-04 2.69104E-04-3.35128E-05
 -1     15333 2.07769E-04 2.85969E-04-3.35128E-05
 -1     15338 2.08057E-04 2.86366E-04-3.49847E-05
 -1     15339 2.29837E-04 2.69104E-04-3.64565E-05
 -1     15340 2.07769E-04 2.85969E-04-3.64565E-05
 -1     15345 2.08057E-04 2.86366E-04-3.79284E-05
 -1     15349 1.60698E-04 3.15387E-04-8.49116E-06
 -1     15350 1.84910E-04 3.01745E-04-9.96302E-06
 -1     15351 1.60475E-04 3.14951E-04-9.96302E-06
 -1     15356 1.60698E-04 3.15387E-04-1.14349E-05
 -1     15357 1.84910E-04 3.01745E-04-1.29067E-05
 -1     15358 1.60475E-04 3.14951E-04-1.29067E-05
 -1     15363 1.60698E-04 3.15387E-04-1.43786E-05
 -1     15364 1.84910E-04 3.01745E-04-1.58505E-05
 -1     15365 1.60475E-04 3.14951E-04-1.58505E-05
 -1     15370 1.60698E-04 3.15387E-04-1.73223E-05
 -1     15371 1.84910E-04 3.01745E-04-1.87942E-05
 -1     15372 1.60475E-04 3.14951E-04-1.87942E-05
 -1     15377 1.60698E-04 3.15387E-04-2.02661E-05
 -1     15378 1.84910E-04 3.01745E-04-2.17379E-05
 -1     15379 1.60475E-04 3.14951E-04-2.17379E-05
 -1     15384 1.60698E-04 3.15387E-04-2.32098E-05
 -1     15385 1.84910E-04 3.01745E-04-2.46816E-05
 -1     15386 1.60475E-04 3.14951E-04-2.46816E-05
 -1     15391 1.60698E-04 3.15387E-04-2.61535E-05
 -1     15392 1.84910E-04 3.01745E-04-2.76254E-05
 -1     15393 1.60475E-04 3.14951E-04-2.76254E-05
 -1     15398 1.60698E-04 3.15387E-04-2.90972E-05
 -1     15399 1.84910E-04 3.01745E-04-3.05691E-05
 -1     15400 1.60475E-04 3.14951E-04-3.05691E-05
 -1     15405 1.60698E-04 3.15387E-04-3.20409E-05
 -1     15406 1.84910E-04 3.01745E-04-3.35128E-05
 -1     15407 1.60475E-04 3.14951E-04-3.35128E-05
 -1     15412 1.60698E-04 3.15387E-04-3.49847E-05
 -1     15413 1.84910E-04 3.01745E-04-3.64565E-05
 -1     15414 1.60475E-04 3.14951E-04-3.64565E-05
 -1     15419 1.60698E-04 3.15387E-04-3.79284E-05
 -1     15423 1.09382E-04 3.36643E-04-8.49116E-06
 -1     15424 1.35430E-04 3.26957E-04-9.96302E-06
 -1     15425 1.09231E-04 3.36177E-04-9.96302E-06
 -1     15430 1.09382E-04 3.36643E-04-1.14349E-05
 -1     15431 1.35430E-04 3.26957E-04-1.29067E-05
 -1     15432 1.09231E-04 3.36177E-04-1.29067E-05
 -1     15437 1.09382E-04 3.36643E-04-1.43786E-05
 -1     15438 1.35430E-04 3.26957E-04-1.58505E-05
 -1     15439 1.09231E-04 3.36177E-04-1.58505E-05
 -1     15444 1.09382E-04 3.36643E-04-1.73223E-05
 -1     15445 1.35430E-04 3.26957E-04-1.87942E-05
 -1     15446 1.09231E-04 3.36177E-04-1.87942E-05
 -1     15451 1.09382E-04 3.36643E-04-2.02661E-05
 -1     15452 1.35430E-04 3.26957E-04-2.17379E-05
 -1     15453 1.09231E-04 3.36177E-04-2.17379E-05
 -1     15458 1.09382E-04 3.36643E-04-2.32098E-05
 -1     15459 1.35430E-04 3.26957E-04-2.46816E-05
 -1     15460 1.09231E-04 3.36177E-04-2.46816E-05
 -1     15465 1.09382E-04 3.36643E-04-2.61535E-05
 -1     15466 1.35430E-04 3.26957E-04-2.76254E-05
 -1     15467 1.09231E-04 3.36177E-04-2.76254E-05
 -1     15472 1.09382E-04 3.36643E-04-2.90972E-05
 -1     15473 1.35430E-04 3.26957E-04-3.05691E-05
 -1     15474 1.09231E-04 3.36177E-04-3.05691E-05
 -1     15479 1.09382E-04 3.36643E-04-3.20409E-05
 -1     15480 1.35430E-04 3.26957E-04-3.35128E-05
 -1     15481 1.09231E-04 3.36177E-04-3.35128E-05
 -1     15486 1.09382E-04 3.36643E-04-3.49847E-05
 -1     15487 1.35430E-04 3.26957E-04-3.64565E-05
 -1     15488 1.09231E-04 3.36177E-04-3.64565E-05
 -1     15493 1.09382E-04 3.36643E-04-3.79284E-05
 -1     15497 5.53727E-05 3.49610E-04-8.49116E-06
 -1     15498 8.26152E-05 3.44117E-04-9.96302E-06
 -1     15499 5.52961E-05 3.49126E-04-9.96302E-06
 -1     15504 5.53727E-05 3.49610E-04-1.14349E-05
 -1     15505 8.26152E-05 3.44117E-04-1.29067E-05
 -1     15506 5.52961E-05 3.49126E-04-1.29067E-05
 -1     15511 5.53727E-05 3.49610E-04-1.43786E-05
 -1     15512 8.26152E-05 3.44117E-04-1.58505E-05
 -1     15513 5.52961E-05 3.49126E-04-1.58505E-05
 -1     15518 5.53727E-05 3.49610E-04-1.73223E-05
 -1     15519 8.26152E-05 3.44117E-04-1.87942E-05
 -1     15520 5.52961E-05 3.49126E-04-1.87942E-05
 -1     15525 5.53727E-05 3.49610E-04-2.02661E-05
 -1     15526 8.26152E-05 3.44117E-04-2.17379E-05
 -1     15527 5.52961E-05 3.49126E-04-2.17379E-05
 -1     15532 5.53727E-05 3.49610E-04-2.32098E-05
 -1     15533 8.26152E-05 3.44117E-04-2.46816E-05
 -1     15534 5.52961E-05 3.49126E-04-2.46816E-05
 -1     15539 5.53727E-05 3.49610E-04-2.61535E-05
 -1     15540 8.26152E-05 3.44117E-04-2.76254E-05
 -1     15541 5.52961E-05 3.49126E-04-2.76254E-05
 -1     15546 5.53727E-05 3.49610E-04-2.90972E-05
 -1     15547 8.26152E-05 3.44117E-04-3.05691E-05
 -1     15548 5.52961E-05 3.49126E-04-3.05691E-05
 -1     15553 5.53727E-05 3.49610E-04-3.20409E-05
 -1     15554 8.26152E-05 3.44117E-04-3.35128E-05
 -1     15555 5.52961E-05 3.49126E-04-3.35128E-05
 -1     15560 5.53727E-05 3.49610E-04-3.49847E-05
 -1     15561 8.26152E-05 3.44117E-04-3.64565E-05
 -1     15562 5.52961E-05 3.49126E-04-3.64565E-05
 -1     15567 5.53727E-05 3.49610E-04-3.79284E-05
 -1     15571 2.77663E-05 3.52804E-04-9.96302E-06
 -1     15575 2.77663E-05 3.52804E-04-1.29067E-05
 -1     15579 2.77663E-05 3.52804E-04-1.58505E-05
 -1     15583 2.77663E-05 3.52804E-04-1.87942E-05
 -1     15587 2.77663E-05 3.52804E-04-2.17379E-05
 -1     15591 2.77663E-05 3.52804E-04-2.46816E-05
 -1     15595 2.77663E-05 3.52804E-04-2.76254E-05
 -1     15599 2.77663E-05 3.52804E-04-3.05691E-05
 -1     15603 2.77663E-05 3.52804E-04-3.35128E-05
 -1     15607 2.77663E-05 3.52804E-04-3.64565E-05
 -1     15613 3.51174E-04 5.56204E-05-8.49116E-06
 -1     15614 3.54330E-04 2.78864E-05-9.96302E-06
 -1     15615 3.50296E-04 5.54815E-05-9.96302E-06
 -1     15620 3.51174E-04 5.56204E-05-1.14349E-05
 -1     15621 3.54330E-04 2.78864E-05-1.29067E-05
 -1     15622 3.50296E-04 5.54815E-05-1.29067E-05
 -1     15627 3.51174E-04 5.56204E-05-1.43786E-05
 -1     15628 3.54330E-04 2.78864E-05-1.58505E-05
 -1     15629 3.50296E-04 5.54815E-05-1.58505E-05
 -1     15634 3.51174E-04 5.56204E-05-1.73223E-05
 -1     15635 3.54330E-04 2.78864E-05-1.87942E-05
 -1     15636 3.50296E-04 5.54815E-05-1.87942E-05
 -1     15641 3.51174E-04 5.56204E-05-2.02661E-05
 -1     15642 3.54330E-04 2.78864E-05-2.17379E-05
 -1     15643 3.50296E-04 5.54815E-05-2.17379E-05
 -1     15648 3.51174E-04 5.56204E-05-2.32098E-05
 -1     15649 3.54330E-04 2.78864E-05-2.46816E-05
 -1     15650 3.50296E-04 5.54815E-05-2.46816E-05
 -1     15655 3.51174E-04 5.56204E-05-2.61535E-05
 -1     15656 3.54330E-04 2.78864E-05-2.76254E-05
 -1     15657 3.50296E-04 5.54815E-05-2.76254E-05
 -1     15662 3.51174E-04 5.56204E-05-2.90972E-05
 -1     15663 3.54330E-04 2.78864E-05-3.05691E-05
 -1     15664 3.50296E-04 5.54815E-05-3.05691E-05
 -1     15669 3.51174E-04 5.56204E-05-3.20409E-05
 -1     15670 3.54330E-04 2.78864E-05-3.35128E-05
 -1     15671 3.50296E-04 5.54815E-05-3.35128E-05
 -1     15676 3.51174E-04 5.56204E-05-3.49847E-05
 -1     15677 3.54330E-04 2.78864E-05-3.64565E-05
 -1     15678 3.50296E-04 5.54815E-05-3.64565E-05
 -1     15683 3.51174E-04 5.56204E-05-3.79284E-05
 -1     15687 3.38149E-04 1.09871E-04-8.49116E-06
 -1     15688 3.45605E-04 8.29724E-05-9.96302E-06
 -1     15689 3.37305E-04 1.09597E-04-9.96302E-06
 -1     15694 3.38149E-04 1.09871E-04-1.14349E-05
 -1     15695 3.45605E-04 8.29724E-05-1.29067E-05
 -1     15696 3.37305E-04 1.09597E-04-1.29067E-05
 -1     15701 3.38149E-04 1.09871E-04-1.43786E-05
 -1     15702 3.45605E-04 8.29724E-05-1.58505E-05
 -1     15703 3.37305E-04 1.09597E-04-1.58505E-05
 -1     15708 3.38149E-04 1.09871E-04-1.73223E-05
 -1     15709 3.45605E-04 8.29724E-05-1.87942E-05
 -1     15710 3.37305E-04 1.09597E-04-1.87942E-05
 -1     15715 3.38149E-04 1.09871E-04-2.02661E-05
 -1     15716 3.45605E-04 8.29724E-05-2.17379E-05
 -1     15717 3.37305E-04 1.09597E-04-2.17379E-05
 -1     15722 3.38149E-04 1.09871E-04-2.32098E-05
 -1     15723 3.45605E-04 8.29724E-05-2.46816E-05
 -1     15724 3.37305E-04 1.09597E-04-2.46816E-05
 -1     15729 3.38149E-04 1.09871E-04-2.61535E-05
 -1     15730 3.45605E-04 8.29724E-05-2.76254E-05
 -1     15731 3.37305E-04 1.09597E-04-2.76254E-05
 -1     15736 3.38149E-04 1.09871E-04-2.90972E-05
 -1     15737 3.45605E-04 8.29724E-05-3.05691E-05
 -1     15738 3.37305E-04 1.09597E-04-3.05691E-05
 -1     15743 3.38149E-04 1.09871E-04-3.20409E-05
 -1     15744 3.45605E-04 8.29724E-05-3.35128E-05
 -1     15745 3.37305E-04 1.09597E-04-3.35128E-05
 -1     15750 3.38149E-04 1.09871E-04-3.49847E-05
 -1     15751 3.45605E-04 8.29724E-05-3.64565E-05
 -1     15752 3.37305E-04 1.09597E-04-3.64565E-05
 -1     15757 3.38149E-04 1.09871E-04-3.79284E-05
 -1     15761 3.16798E-04 1.61417E-04-8.49116E-06
 -1     15762 3.28370E-04 1.36015E-04-9.96302E-06
 -1     15763 3.16007E-04 1.61014E-04-9.96302E-06
 -1     15768 3.16798E-04 1.61417E-04-1.14349E-05
 -1     15769 3.28370E-04 1.36015E-04-1.29067E-05
 -1     15770 3.16007E-04 1.61014E-04-1.29067E-05
 -1     15775 3.16798E-04 1.61417E-04-1.43786E-05
 -1     15776 3.28370E-04 1.36015E-04-1.58505E-05
 -1     15777 3.16007E-04 1.61014E-04-1.58505E-05
 -1     15782 3.16798E-04 1.61417E-04-1.73223E-05
 -1     15783 3.28370E-04 1.36015E-04-1.87942E-05
 -1     15784 3.16007E-04 1.61014E-04-1.87942E-05
 -1     15789 3.16798E-04 1.61417E-04-2.02661E-05
 -1     15790 3.28370E-04 1.36015E-04-2.17379E-05
 -1     15791 3.16007E-04 1.61014E-04-2.17379E-05
 -1     15796 3.16798E-04 1.61417E-04-2.32098E-05
 -1     15797 3.28370E-04 1.36015E-04-2.46816E-05
 -1     15798 3.16007E-04 1.61014E-04-2.46816E-05
 -1     15803 3.16798E-04 1.61417E-04-2.61535E-05
 -1     15804 3.28370E-04 1.36015E-04-2.76254E-05
 -1     15805 3.16007E-04 1.61014E-04-2.76254E-05
 -1     15810 3.16798E-04 1.61417E-04-2.90972E-05
 -1     15811 3.28370E-04 1.36015E-04-3.05691E-05
 -1     15812 3.16007E-04 1.61014E-04-3.05691E-05
 -1     15817 3.16798E-04 1.61417E-04-3.20409E-05
 -1     15818 3.28370E-04 1.36015E-04-3.35128E-05
 -1     15819 3.16007E-04 1.61014E-04-3.35128E-05
 -1     15824 3.16798E-04 1.61417E-04-3.49847E-05
 -1     15825 3.28370E-04 1.36015E-04-3.64565E-05
 -1     15826 3.16007E-04 1.61014E-04-3.64565E-05
 -1     15831 3.16798E-04 1.61417E-04-3.79284E-05
 -1     15835 2.87647E-04 2.08988E-04-8.49116E-06
 -1     15836 3.03050E-04 1.85709E-04-9.96302E-06
 -1     15837 2.86928E-04 2.08466E-04-9.96302E-06
 -1     15842 2.87647E-04 2.08988E-04-1.14349E-05
 -1     15843 3.03050E-04 1.85709E-04-1.29067E-05
 -1     15844 2.86928E-04 2.08466E-04-1.29067E-05
 -1     15849 2.87647E-04 2.08988E-04-1.43786E-05
 -1     15850 3.03050E-04 1.85709E-04-1.58505E-05
 -1     15851 2.86928E-04 2.08466E-04-1.58505E-05
 -1     15856 2.87647E-04 2.08988E-04-1.73223E-05
 -1     15857 3.03050E-04 1.85709E-04-1.87942E-05
 -1     15858 2.86928E-04 2.08466E-04-1.87942E-05
 -1     15863 2.87647E-04 2.08988E-04-2.02661E-05
 -1     15864 3.03050E-04 1.85709E-04-2.17379E-05
 -1     15865 2.86928E-04 2.08466E-04-2.17379E-05
 -1     15870 2.87647E-04 2.08988E-04-2.32098E-05
 -1     15871 3.03050E-04 1.85709E-04-2.46816E-05
 -1     15872 2.86928E-04 2.08466E-04-2.46816E-05
 -1     15877 2.87647E-04 2.08988E-04-2.61535E-05
 -1     15878 3.03050E-04 1.85709E-04-2.76254E-05
 -1     15879 2.86928E-04 2.08466E-04-2.76254E-05
 -1     15884 2.87647E-04 2.08988E-04-2.90972E-05
 -1     15885 3.03050E-04 1.85709E-04-3.05691E-05
 -1     15886 2.86928E-04 2.08466E-04-3.05691E-05
 -1     15891 2.87647E-04 2.08988E-04-3.20409E-05
 -1     15892 3.03050E-04 1.85709E-04-3.35128E-05
 -1     15893 2.86928E-04 2.08466E-04-3.35128E-05
 -1     15898 2.87647E-04 2.08988E-04-3.49847E-05
 -1     15899 3.03050E-04 1.85709E-04-3.64565E-05
 -1     15900 2.86928E-04 2.08466E-04-3.64565E-05
 -1     15905 2.87647E-04 2.08988E-04-3.79284E-05
 -1     15909 2.51413E-04 2.51413E-04-8.49116E-06
 -1     15910 2.70268E-04 2.30830E-04-9.96302E-06
 -1     15911 2.50785E-04 2.50785E-04-9.96302E-06
 -1     15916 2.51413E-04 2.51413E-04-1.14349E-05
 -1     15917 2.70268E-04 2.30830E-04-1.29067E-05
 -1     15918 2.50785E-04 2.50785E-04-1.29067E-05
 -1     15923 2.51413E-04 2.51413E-04-1.43786E-05
 -1     15924 2.70268E-04 2.30830E-04-1.58505E-05
 -1     15925 2.50785E-04 2.50785E-04-1.58505E-05
 -1     15930 2.51413E-04 2.51413E-04-1.73223E-05
 -1     15931 2.70268E-04 2.30830E-04-1.87942E-05
 -1     15932 2.50785E-04 2.50785E-04-1.87942E-05
 -1     15937 2.51413E-04 2.51413E-04-2.02661E-05
 -1     15938 2.70268E-04 2.30830E-04-2.17379E-05
 -1     15939 2.50785E-04 2.50785E-04-2.17379E-05
 -1     15944 2.51413E-04 2.51413E-04-2.32098E-05
 -1     15945 2.70268E-04 2.30830E-04-2.46816E-05
 -1     15946 2.50785E-04 2.50785E-04-2.46816E-05
 -1     15951 2.51413E-04 2.51413E-04-2.61535E-05
 -1     15952 2.70268E-04 2.30830E-04-2.76254E-05
 -1     15953 2.50785E-04 2.50785E-04-2.76254E-05
 -1     15958 2.51413E-04 2.51413E-04-2.90972E-05
 -1     15959 2.70268E-04 2.30830E-04-3.05691E-05
 -1     15960 2.50785E-04 2.50785E-04-3.05691E-05
 -1     15965 2.51413E-04 2.51413E-04-3.20409E-05
 -1     15966 2.70268E-04 2.30830E-04-3.35128E-05
 -1     15967 2.50785E-04 2.50785E-04-3.35128E-05
 -1     15972 2.51413E-04 2.51413E-04-3.49847E-05
 -1     15973 2.70268E-04 2.30830E-04-3.64565E-05
 -1     15974 2.50785E-04 2.50785E-04-3.64565E-05
 -1     15979 2.51413E-04 2.51413E-04-3.79284E-05
 -1     15983 2.08988E-04 2.87647E-04-8.49116E-06
 -1     15984 2.30830E-04 2.70268E-04-9.96302E-06
 -1     15985 2.08466E-04 2.86928E-04-9.96302E-06
 -1     15990 2.08988E-04 2.87647E-04-1.14349E-05
 -1     15991 2.30830E-04 2.70268E-04-1.29067E-05
 -1     15992 2.08466E-04 2.86928E-04-1.29067E-05
 -1     15997 2.08988E-04 2.87647E-04-1.43786E-05
 -1     15998 2.30830E-04 2.70268E-04-1.58505E-05
 -1     15999 2.08466E-04 2.86928E-04-1.58505E-05
 -1     16004 2.08988E-04 2.87647E-04-1.73223E-05
 -1     16005 2.30830E-04 2.70268E-04-1.87942E-05
 -1     16006 2.08466E-04 2.86928E-04-1.87942E-05
 -1     16011 2.08988E-04 2.87647E-04-2.02661E-05
 -1     16012 2.30830E-04 2.70268E-04-2.17379E-05
 -1     16013 2.08466E-04 2.86928E-04-2.17379E-05
 -1     16018 2.08988E-04 2.87647E-04-2.32098E-05
 -1     16019 2.30830E-04 2.70268E-04-2.46816E-05
 -1     16020 2.08466E-04 2.86928E-04-2.46816E-05
 -1     16025 2.08988E-04 2.87647E-04-2.61535E-05
 -1     16026 2.30830E-04 2.70268E-04-2.76254E-05
 -1     16027 2.08466E-04 2.86928E-04-2.76254E-05
 -1     16032 2.08988E-04 2.87647E-04-2.90972E-05
 -1     16033 2.30830E-04 2.70268E-04-3.05691E-05
 -1     16034 2.08466E-04 2.86928E-04-3.05691E-05
 -1     16039 2.08988E-04 2.87647E-04-3.20409E-05
 -1     16040 2.30830E-04 2.70268E-04-3.35128E-05
 -1     16041 2.08466E-04 2.86928E-04-3.35128E-05
 -1     16046 2.08988E-04 2.87647E-04-3.49847E-05
 -1     16047 2.30830E-04 2.70268E-04-3.64565E-05
 -1     16048 2.08466E-04 2.86928E-04-3.64565E-05
 -1     16053 2.08988E-04 2.87647E-04-3.79284E-05
 -1     16057 1.61417E-04 3.16798E-04-8.49116E-06
 -1     16058 1.85709E-04 3.03050E-04-9.96302E-06
 -1     16059 1.61014E-04 3.16007E-04-9.96302E-06
 -1     16064 1.61417E-04 3.16798E-04-1.14349E-05
 -1     16065 1.85709E-04 3.03050E-04-1.29067E-05
 -1     16066 1.61014E-04 3.16007E-04-1.29067E-05
 -1     16071 1.61417E-04 3.16798E-04-1.43786E-05
 -1     16072 1.85709E-04 3.03050E-04-1.58505E-05
 -1     16073 1.61014E-04 3.16007E-04-1.58505E-05
 -1     16078 1.61417E-04 3.16798E-04-1.73223E-05
 -1     16079 1.85709E-04 3.03050E-04-1.87942E-05
 -1     16080 1.61014E-04 3.16007E-04-1.87942E-05
 -1     16085 1.61417E-04 3.16798E-04-2.02661E-05
 -1     16086 1.85709E-04 3.03050E-04-2.17379E-05
 -1     16087 1.61014E-04 3.16007E-04-2.17379E-05
 -1     16092 1.61417E-04 3.16798E-04-2.32098E-05
 -1     16093 1.85709E-04 3.03050E-04-2.46816E-05
 -1     16094 1.61014E-04 3.16007E-04-2.46816E-05
 -1     16099 1.61417E-04 3.16798E-04-2.61535E-05
 -1     16100 1.85709E-04 3.03050E-04-2.76254E-05
 -1     16101 1.61014E-04 3.16007E-04-2.76254E-05
 -1     16106 1.61417E-04 3.16798E-04-2.90972E-05
 -1     16107 1.85709E-04 3.03050E-04-3.05691E-05
 -1     16108 1.61014E-04 3.16007E-04-3.05691E-05
 -1     16113 1.61417E-04 3.16798E-04-3.20409E-05
 -1     16114 1.85709E-04 3.03050E-04-3.35128E-05
 -1     16115 1.61014E-04 3.16007E-04-3.35128E-05
 -1     16120 1.61417E-04 3.16798E-04-3.49847E-05
 -1     16121 1.85709E-04 3.03050E-04-3.64565E-05
 -1     16122 1.61014E-04 3.16007E-04-3.64565E-05
 -1     16127 1.61417E-04 3.16798E-04-3.79284E-05
 -1     16131 1.09871E-04 3.38149E-04-8.49116E-06
 -1     16132 1.36015E-04 3.28370E-04-9.96302E-06
 -1     16133 1.09597E-04 3.37305E-04-9.96302E-06
 -1     16138 1.09871E-04 3.38149E-04-1.14349E-05
 -1     16139 1.36015E-04 3.28370E-04-1.29067E-05
 -1     16140 1.09597E-04 3.37305E-04-1.29067E-05
 -1     16145 1.09871E-04 3.38149E-04-1.43786E-05
 -1     16146 1.36015E-04 3.28370E-04-1.58505E-05
 -1     16147 1.09597E-04 3.37305E-04-1.58505E-05
 -1     16152 1.09871E-04 3.38149E-04-1.73223E-05
 -1     16153 1.36015E-04 3.28370E-04-1.87942E-05
 -1     16154 1.09597E-04 3.37305E-04-1.87942E-05
 -1     16159 1.09871E-04 3.38149E-04-2.02661E-05
 -1     16160 1.36015E-04 3.28370E-04-2.17379E-05
 -1     16161 1.09597E-04 3.37305E-04-2.17379E-05
 -1     16166 1.09871E-04 3.38149E-04-2.32098E-05
 -1     16167 1.36015E-04 3.28370E-04-2.46816E-05
 -1     16168 1.09597E-04 3.37305E-04-2.46816E-05
 -1     16173 1.09871E-04 3.38149E-04-2.61535E-05
 -1     16174 1.36015E-04 3.28370E-04-2.76254E-05
 -1     16175 1.09597E-04 3.37305E-04-2.76254E-05
 -1     16180 1.09871E-04 3.38149E-04-2.90972E-05
 -1     16181 1.36015E-04 3.28370E-04-3.05691E-05
 -1     16182 1.09597E-04 3.37305E-04-3.05691E-05
 -1     16187 1.09871E-04 3.38149E-04-3.20409E-05
 -1     16188 1.36015E-04 3.28370E-04-3.35128E-05
 -1     16189 1.09597E-04 3.37305E-04-3.35128E-05
 -1     16194 1.09871E-04 3.38149E-04-3.49847E-05
 -1     16195 1.36015E-04 3.28370E-04-3.64565E-05
 -1     16196 1.09597E-04 3.37305E-04-3.64565E-05
 -1     16201 1.09871E-04 3.38149E-04-3.79284E-05
 -1     16205 5.56204E-05 3.51174E-04-8.49116E-06
 -1     16206 8.29724E-05 3.45605E-04-9.96302E-06
 -1     16207 5.54815E-05 3.50296E-04-9.96302E-06
 -1     16212 5.56204E-05 3.51174E-04-1.14349E-05
 -1     16213 8.29724E-05 3.45605E-04-1.29067E-05
 -1     16214 5.54815E-05 3.50296E-04-1.29067E-05
 -1     16219 5.56204E-05 3.51174E-04-1.43786E-05
 -1     16220 8.29724E-05 3.45605E-04-1.58505E-05
 -1     16221 5.54815E-05 3.50296E-04-1.58505E-05
 -1     16226 5.56204E-05 3.51174E-04-1.73223E-05
 -1     16227 8.29724E-05 3.45605E-04-1.87942E-05
 -1     16228 5.54815E-05 3.50296E-04-1.87942E-05
 -1     16233 5.56204E-05 3.51174E-04-2.02661E-05
 -1     16234 8.29724E-05 3.45605E-04-2.17379E-05
 -1     16235 5.54815E-05 3.50296E-04-2.17379E-05
 -1     16240 5.56204E-05 3.51174E-04-2.32098E-05
 -1     16241 8.29724E-05 3.45605E-04-2.46816E-05
 -1     16242 5.54815E-05 3.50296E-04-2.46816E-05
 -1     16247 5.56204E-05 3.51174E-04-2.61535E-05
 -1     16248 8.29724E-05 3.45605E-04-2.76254E-05
 -1     16249 5.54815E-05 3.50296E-04-2.76254E-05
 -1     16254 5.56204E-05 3.51174E-04-2.90972E-05
 -1     16255 8.29724E-05 3.45605E-04-3.05691E-05
 -1     16256 5.54815E-05 3.50296E-04-3.05691E-05
 -1     16261 5.56204E-05 3.51174E-04-3.20409E-05
 -1     16262 8.29724E-05 3.45605E-04-3.35128E-05
 -1     16263 5.54815E-05 3.50296E-04-3.35128E-05
 -1     16268 5.56204E-05 3.51174E-04-3.49847E-05
 -1     16269 8.29724E-05 3.45605E-04-3.64565E-05
 -1     16270 5.54815E-05 3.50296E-04-3.64565E-05
 -1     16275 5.56204E-05 3.51174E-04-3.79284E-05
 -1     16279 2.78864E-05 3.54330E-04-9.96302E-06
 -1     16283 2.78864E-05 3.54330E-04-1.29067E-05
 -1     16287 2.78864E-05 3.54330E-04-1.58505E-05
 -1     16291 2.78864E-05 3.54330E-04-1.87942E-05
 -1     16295 2.78864E-05 3.54330E-04-2.17379E-05
 -1     16299 2.78864E-05 3.54330E-04-2.46816E-05
 -1     16303 2.78864E-05 3.54330E-04-2.76254E-05
 -1     16307 2.78864E-05 3.54330E-04-3.05691E-05
 -1     16311 2.78864E-05 3.54330E-04-3.35128E-05
 -1     16315 2.78864E-05 3.54330E-04-3.64565E-05
 -1     16321 3.53443E-04 5.59799E-05-8.49116E-06
 -1     16322 3.56570E-04 2.80627E-05-9.96302E-06
 -1     16323 3.52226E-04 5.57871E-05-9.96302E-06
 -1     16328 3.53443E-04 5.59799E-05-1.14349E-05
 -1     16329 3.56570E-04 2.80627E-05-1.29067E-05
 -1     16330 3.52226E-04 5.57871E-05-1.29067E-05
 -1     16335 3.53443E-04 5.59799E-05-1.43786E-05
 -1     16336 3.56570E-04 2.80627E-05-1.58505E-05
 -1     16337 3.52226E-04 5.57871E-05-1.58505E-05
 -1     16342 3.53443E-04 5.59799E-05-1.73223E-05
 -1     16343 3.56570E-04 2.80627E-05-1.87942E-05
 -1     16344 3.52226E-04 5.57871E-05-1.87942E-05
 -1     16349 3.53443E-04 5.59799E-05-2.02661E-05
 -1     16350 3.56570E-04 2.80627E-05-2.17379E-05
 -1     16351 3.52226E-04 5.57871E-05-2.17379E-05
 -1     16356 3.53443E-04 5.59799E-05-2.32098E-05
 -1     16357 3.56570E-04 2.80627E-05-2.46816E-05
 -1     16358 3.52226E-04 5.57871E-05-2.46816E-05
 -1     16363 3.53443E-04 5.59799E-05-2.61535E-05
 -1     16364 3.56570E-04 2.80627E-05-2.76254E-05
 -1     16365 3.52226E-04 5.57871E-05-2.76254E-05
 -1     16370 3.53443E-04 5.59799E-05-2.90972E-05
 -1     16371 3.56570E-04 2.80627E-05-3.05691E-05
 -1     16372 3.52226E-04 5.57871E-05-3.05691E-05
 -1     16377 3.53443E-04 5.59799E-05-3.20409E-05
 -1     16378 3.56570E-04 2.80627E-05-3.35128E-05
 -1     16379 3.52226E-04 5.57871E-05-3.35128E-05
 -1     16384 3.53443E-04 5.59799E-05-3.49847E-05
 -1     16385 3.56570E-04 2.80627E-05-3.64565E-05
 -1     16386 3.52226E-04 5.57871E-05-3.64565E-05
 -1     16391 3.53443E-04 5.59799E-05-3.79284E-05
 -1     16395 3.40335E-04 1.10581E-04-8.49116E-06
 -1     16396 3.47790E-04 8.34970E-05-9.96302E-06
 -1     16397 3.39163E-04 1.10201E-04-9.96302E-06
 -1     16402 3.40335E-04 1.10581E-04-1.14349E-05
 -1     16403 3.47790E-04 8.34970E-05-1.29067E-05
 -1     16404 3.39163E-04 1.10201E-04-1.29067E-05
 -1     16409 3.40335E-04 1.10581E-04-1.43786E-05
 -1     16410 3.47790E-04 8.34970E-05-1.58505E-05
 -1     16411 3.39163E-04 1.10201E-04-1.58505E-05
 -1     16416 3.40335E-04 1.10581E-04-1.73223E-05
 -1     16417 3.47790E-04 8.34970E-05-1.87942E-05
 -1     16418 3.39163E-04 1.10201E-04-1.87942E-05
 -1     16423 3.40335E-04 1.10581E-04-2.02661E-05
 -1     16424 3.47790E-04 8.34970E-05-2.17379E-05
 -1     16425 3.39163E-04 1.10201E-04-2.17379E-05
 -1     16430 3.40335E-04 1.10581E-04-2.32098E-05
 -1     16431 3.47790E-04 8.34970E-05-2.46816E-05
 -1     16432 3.39163E-04 1.10201E-04-2.46816E-05
 -1     16437 3.40335E-04 1.10581E-04-2.61535E-05
 -1     16438 3.47790E-04 8.34970E-05-2.76254E-05
 -1     16439 3.39163E-04 1.10201E-04-2.76254E-05
 -1     16444 3.40335E-04 1.10581E-04-2.90972E-05
 -1     16445 3.47790E-04 8.34970E-05-3.05691E-05
 -1     16446 3.39163E-04 1.10201E-04-3.05691E-05
 -1     16451 3.40335E-04 1.10581E-04-3.20409E-05
 -1     16452 3.47790E-04 8.34970E-05-3.35128E-05
 -1     16453 3.39163E-04 1.10201E-04-3.35128E-05
 -1     16458 3.40335E-04 1.10581E-04-3.49847E-05
 -1     16459 3.47790E-04 8.34970E-05-3.64565E-05
 -1     16460 3.39163E-04 1.10201E-04-3.64565E-05
 -1     16465 3.40335E-04 1.10581E-04-3.79284E-05
 -1     16469 3.18846E-04 1.62460E-04-8.49116E-06
 -1     16470 3.30446E-04 1.36875E-04-9.96302E-06
 -1     16471 3.17748E-04 1.61901E-04-9.96302E-06
 -1     16476 3.18846E-04 1.62460E-04-1.14349E-05
 -1     16477 3.30446E-04 1.36875E-04-1.29067E-05
 -1     16478 3.17748E-04 1.61901E-04-1.29067E-05
 -1     16483 3.18846E-04 1.62460E-04-1.43786E-05
 -1     16484 3.30446E-04 1.36875E-04-1.58505E-05
 -1     16485 3.17748E-04 1.61901E-04-1.58505E-05
 -1     16490 3.18846E-04 1.62460E-04-1.73223E-05
 -1     16491 3.30446E-04 1.36875E-04-1.87942E-05
 -1     16492 3.17748E-04 1.61901E-04-1.87942E-05
 -1     16497 3.18846E-04 1.62460E-04-2.02661E-05
 -1     16498 3.30446E-04 1.36875E-04-2.17379E-05
 -1     16499 3.17748E-04 1.61901E-04-2.17379E-05
 -1     16504 3.18846E-04 1.62460E-04-2.32098E-05
 -1     16505 3.30446E-04 1.36875E-04-2.46816E-05
 -1     16506 3.17748E-04 1.61901E-04-2.46816E-05
 -1     16511 3.18846E-04 1.62460E-04-2.61535E-05
 -1     16512 3.30446E-04 1.36875E-04-2.76254E-05
 -1     16513 3.17748E-04 1.61901E-04-2.76254E-05
 -1     16518 3.18846E-04 1.62460E-04-2.90972E-05
 -1     16519 3.30446E-04 1.36875E-04-3.05691E-05
 -1     16520 3.17748E-04 1.61901E-04-3.05691E-05
 -1     16525 3.18846E-04 1.62460E-04-3.20409E-05
 -1     16526 3.30446E-04 1.36875E-04-3.35128E-05
 -1     16527 3.17748E-04 1.61901E-04-3.35128E-05
 -1     16532 3.18846E-04 1.62460E-04-3.49847E-05
 -1     16533 3.30446E-04 1.36875E-04-3.64565E-05
 -1     16534 3.17748E-04 1.61901E-04-3.64565E-05
 -1     16539 3.18846E-04 1.62460E-04-3.79284E-05
 -1     16543 2.89506E-04 2.10338E-04-8.49116E-06
 -1     16544 3.04966E-04 1.86883E-04-9.96302E-06
 -1     16545 2.88509E-04 2.09614E-04-9.96302E-06
 -1     16550 2.89506E-04 2.10338E-04-1.14349E-05
 -1     16551 3.04966E-04 1.86883E-04-1.29067E-05
 -1     16552 2.88509E-04 2.09614E-04-1.29067E-05
 -1     16557 2.89506E-04 2.10338E-04-1.43786E-05
 -1     16558 3.04966E-04 1.86883E-04-1.58505E-05
 -1     16559 2.88509E-04 2.09614E-04-1.58505E-05
 -1     16564 2.89506E-04 2.10338E-04-1.73223E-05
 -1     16565 3.04966E-04 1.86883E-04-1.87942E-05
 -1     16566 2.88509E-04 2.09614E-04-1.87942E-05
 -1     16571 2.89506E-04 2.10338E-04-2.02661E-05
 -1     16572 3.04966E-04 1.86883E-04-2.17379E-05
 -1     16573 2.88509E-04 2.09614E-04-2.17379E-05
 -1     16578 2.89506E-04 2.10338E-04-2.32098E-05
 -1     16579 3.04966E-04 1.86883E-04-2.46816E-05
 -1     16580 2.88509E-04 2.09614E-04-2.46816E-05
 -1     16585 2.89506E-04 2.10338E-04-2.61535E-05
 -1     16586 3.04966E-04 1.86883E-04-2.76254E-05
 -1     16587 2.88509E-04 2.09614E-04-2.76254E-05
 -1     16592 2.89506E-04 2.10338E-04-2.90972E-05
 -1     16593 3.04966E-04 1.86883E-04-3.05691E-05
 -1     16594 2.88509E-04 2.09614E-04-3.05691E-05
 -1     16599 2.89506E-04 2.10338E-04-3.20409E-05
 -1     16600 3.04966E-04 1.86883E-04-3.35128E-05
 -1     16601 2.88509E-04 2.09614E-04-3.35128E-05
 -1     16606 2.89506E-04 2.10338E-04-3.49847E-05
 -1     16607 3.04966E-04 1.86883E-04-3.64565E-05
 -1     16608 2.88509E-04 2.09614E-04-3.64565E-05
 -1     16613 2.89506E-04 2.10338E-04-3.79284E-05
 -1     16617 2.53038E-04 2.53038E-04-8.49116E-06
 -1     16618 2.71976E-04 2.32290E-04-9.96302E-06
 -1     16619 2.52166E-04 2.52166E-04-9.96302E-06
 -1     16624 2.53038E-04 2.53038E-04-1.14349E-05
 -1     16625 2.71976E-04 2.32290E-04-1.29067E-05
 -1     16626 2.52166E-04 2.52166E-04-1.29067E-05
 -1     16631 2.53038E-04 2.53038E-04-1.43786E-05
 -1     16632 2.71976E-04 2.32290E-04-1.58505E-05
 -1     16633 2.52166E-04 2.52166E-04-1.58505E-05
 -1     16638 2.53038E-04 2.53038E-04-1.73223E-05
 -1     16639 2.71976E-04 2.32290E-04-1.87942E-05
 -1     16640 2.52166E-04 2.52166E-04-1.87942E-05
 -1     16645 2.53038E-04 2.53038E-04-2.02661E-05
 -1     16646 2.71976E-04 2.32290E-04-2.17379E-05
 -1     16647 2.52166E-04 2.52166E-04-2.17379E-05
 -1     16652 2.53038E-04 2.53038E-04-2.32098E-05
 -1     16653 2.71976E-04 2.32290E-04-2.46816E-05
 -1     16654 2.52166E-04 2.52166E-04-2.46816E-05
 -1     16659 2.53038E-04 2.53038E-04-2.61535E-05
 -1     16660 2.71976E-04 2.32290E-04-2.76254E-05
 -1     16661 2.52166E-04 2.52166E-04-2.76254E-05
 -1     16666 2.53038E-04 2.53038E-04-2.90972E-05
 -1     16667 2.71976E-04 2.32290E-04-3.05691E-05
 -1     16668 2.52166E-04 2.52166E-04-3.05691E-05
 -1     16673 2.53038E-04 2.53038E-04-3.20409E-05
 -1     16674 2.71976E-04 2.32290E-04-3.35128E-05
 -1     16675 2.52166E-04 2.52166E-04-3.35128E-05
 -1     16680 2.53038E-04 2.53038E-04-3.49847E-05
 -1     16681 2.71976E-04 2.32290E-04-3.64565E-05
 -1     16682 2.52166E-04 2.52166E-04-3.64565E-05
 -1     16687 2.53038E-04 2.53038E-04-3.79284E-05
 -1     16691 2.10338E-04 2.89506E-04-8.49116E-06
 -1     16692 2.32290E-04 2.71976E-04-9.96302E-06
 -1     16693 2.09614E-04 2.88509E-04-9.96302E-06
 -1     16698 2.10338E-04 2.89506E-04-1.14349E-05
 -1     16699 2.32290E-04 2.71976E-04-1.29067E-05
 -1     16700 2.09614E-04 2.88509E-04-1.29067E-05
 -1     16705 2.10338E-04 2.89506E-04-1.43786E-05
 -1     16706 2.32290E-04 2.71976E-04-1.58505E-05
 -1     16707 2.09614E-04 2.88509E-04-1.58505E-05
 -1     16712 2.10338E-04 2.89506E-04-1.73223E-05
 -1     16713 2.32290E-04 2.71976E-04-1.87942E-05
 -1     16714 2.09614E-04 2.88509E-04-1.87942E-05
 -1     16719 2.10338E-04 2.89506E-04-2.02661E-05
 -1     16720 2.32290E-04 2.71976E-04-2.17379E-05
 -1     16721 2.09614E-04 2.88509E-04-2.17379E-05
 -1     16726 2.10338E-04 2.89506E-04-2.32098E-05
 -1     16727 2.32290E-04 2.71976E-04-2.46816E-05
 -1     16728 2.09614E-04 2.88509E-04-2.46816E-05
 -1     16733 2.10338E-04 2.89506E-04-2.61535E-05
 -1     16734 2.32290E-04 2.71976E-04-2.76254E-05
 -1     16735 2.09614E-04 2.88509E-04-2.76254E-05
 -1     16740 2.10338E-04 2.89506E-04-2.90972E-05
 -1     16741 2.32290E-04 2.71976E-04-3.05691E-05
 -1     16742 2.09614E-04 2.88509E-04-3.05691E-05
 -1     16747 2.10338E-04 2.89506E-04-3.20409E-05
 -1     16748 2.32290E-04 2.71976E-04-3.35128E-05
 -1     16749 2.09614E-04 2.88509E-04-3.35128E-05
 -1     16754 2.10338E-04 2.89506E-04-3.49847E-05
 -1     16755 2.32290E-04 2.71976E-04-3.64565E-05
 -1     16756 2.09614E-04 2.88509E-04-3.64565E-05
 -1     16761 2.10338E-04 2.89506E-04-3.79284E-05
 -1     16765 1.62460E-04 3.18846E-04-8.49116E-06
 -1     16766 1.86883E-04 3.04966E-04-9.96302E-06
 -1     16767 1.61901E-04 3.17748E-04-9.96302E-06
 -1     16772 1.62460E-04 3.18846E-04-1.14349E-05
 -1     16773 1.86883E-04 3.04966E-04-1.29067E-05
 -1     16774 1.61901E-04 3.17748E-04-1.29067E-05
 -1     16779 1.62460E-04 3.18846E-04-1.43786E-05
 -1     16780 1.86883E-04 3.04966E-04-1.58505E-05
 -1     16781 1.61901E-04 3.17748E-04-1.58505E-05
 -1     16786 1.62460E-04 3.18846E-04-1.73223E-05
 -1     16787 1.86883E-04 3.04966E-04-1.87942E-05
 -1     16788 1.61901E-04 3.17748E-04-1.87942E-05
 -1     16793 1.62460E-04 3.18846E-04-2.02661E-05
 -1     16794 1.86883E-04 3.04966E-04-2.17379E-05
 -1     16795 1.61901E-04 3.17748E-04-2.17379E-05
 -1     16800 1.62460E-04 3.18846E-04-2.32098E-05
 -1     16801 1.86883E-04 3.04966E-04-2.46816E-05
 -1     16802 1.61901E-04 3.17748E-04-2.46816E-05
 -1     16807 1.62460E-04 3.18846E-04-2.61535E-05
 -1     16808 1.86883E-04 3.04966E-04-2.76254E-05
 -1     16809 1.61901E-04 3.17748E-04-2.76254E-05
 -1     16814 1.62460E-04 3.18846E-04-2.90972E-05
 -1     16815 1.86883E-04 3.04966E-04-3.05691E-05
 -1     16816 1.61901E-04 3.17748E-04-3.05691E-05
 -1     16821 1.62460E-04 3.18846E-04-3.20409E-05
 -1     16822 1.86883E-04 3.04966E-04-3.35128E-05
 -1     16823 1.61901E-04 3.17748E-04-3.35128E-05
 -1     16828 1.62460E-04 3.18846E-04-3.49847E-05
 -1     16829 1.86883E-04 3.04966E-04-3.64565E-05
 -1     16830 1.61901E-04 3.17748E-04-3.64565E-05
 -1     16835 1.62460E-04 3.18846E-04-3.79284E-05
 -1     16839 1.10581E-04 3.40335E-04-8.49116E-06
 -1     16840 1.36875E-04 3.30446E-04-9.96302E-06
 -1     16841 1.10201E-04 3.39163E-04-9.96302E-06
 -1     16846 1.10581E-04 3.40335E-04-1.14349E-05
 -1     16847 1.36875E-04 3.30446E-04-1.29067E-05
 -1     16848 1.10201E-04 3.39163E-04-1.29067E-05
 -1     16853 1.10581E-04 3.40335E-04-1.43786E-05
 -1     16854 1.36875E-04 3.30446E-04-1.58505E-05
 -1     16855 1.10201E-04 3.39163E-04-1.58505E-05
 -1     16860 1.10581E-04 3.40335E-04-1.73223E-05
 -1     16861 1.36875E-04 3.30446E-04-1.87942E-05
 -1     16862 1.10201E-04 3.39163E-04-1.87942E-05
 -1     16867 1.10581E-04 3.40335E-04-2.02661E-05
 -1     16868 1.36875E-04 3.30446E-04-2.17379E-05
 -1     16869 1.10201E-04 3.39163E-04-2.17379E-05
 -1     16874 1.10581E-04 3.40335E-04-2.32098E-05
 -1     16875 1.36875E-04 3.30446E-04-2.46816E-05
 -1     16876 1.10201E-04 3.39163E-04-2.46816E-05
 -1     16881 1.10581E-04 3.40335E-04-2.61535E-05
 -1     16882 1.36875E-04 3.30446E-04-2.76254E-05
 -1     16883 1.10201E-04 3.39163E-04-2.76254E-05
 -1     16888 1.10581E-04 3.40335E-04-2.90972E-05
 -1     16889 1.36875E-04 3.30446E-04-3.05691E-05
 -1     16890 1.10201E-04 3.39163E-04-3.05691E-05
 -1     16895 1.10581E-04 3.40335E-04-3.20409E-05
 -1     16896 1.36875E-04 3.30446E-04-3.35128E-05
 -1     16897 1.10201E-04 3.39163E-04-3.35128E-05
 -1     16902 1.10581E-04 3.40335E-04-3.49847E-05
 -1     16903 1.36875E-04 3.30446E-04-3.64565E-05
 -1     16904 1.10201E-04 3.39163E-04-3.64565E-05
 -1     16909 1.10581E-04 3.40335E-04-3.79284E-05
 -1     16913 5.59799E-05 3.53443E-04-8.49116E-06
 -1     16914 8.34970E-05 3.47790E-04-9.96302E-06
 -1     16915 5.57871E-05 3.52226E-04-9.96302E-06
 -1     16920 5.59799E-05 3.53443E-04-1.14349E-05
 -1     16921 8.34970E-05 3.47790E-04-1.29067E-05
 -1     16922 5.57871E-05 3.52226E-04-1.29067E-05
 -1     16927 5.59799E-05 3.53443E-04-1.43786E-05
 -1     16928 8.34970E-05 3.47790E-04-1.58505E-05
 -1     16929 5.57871E-05 3.52226E-04-1.58505E-05
 -1     16934 5.59799E-05 3.53443E-04-1.73223E-05
 -1     16935 8.34970E-05 3.47790E-04-1.87942E-05
 -1     16936 5.57871E-05 3.52226E-04-1.87942E-05
 -1     16941 5.59799E-05 3.53443E-04-2.02661E-05
 -1     16942 8.34970E-05 3.47790E-04-2.17379E-05
 -1     16943 5.57871E-05 3.52226E-04-2.17379E-05
 -1     16948 5.59799E-05 3.53443E-04-2.32098E-05
 -1     16949 8.34970E-05 3.47790E-04-2.46816E-05
 -1     16950 5.57871E-05 3.52226E-04-2.46816E-05
 -1     16955 5.59799E-05 3.53443E-04-2.61535E-05
 -1     16956 8.34970E-05 3.47790E-04-2.76254E-05
 -1     16957 5.57871E-05 3.52226E-04-2.76254E-05
 -1     16962 5.59799E-05 3.53443E-04-2.90972E-05
 -1     16963 8.34970E-05 3.47790E-04-3.05691E-05
 -1     16964 5.57871E-05 3.52226E-04-3.05691E-05
 -1     16969 5.59799E-05 3.53443E-04-3.20409E-05
 -1     16970 8.34970E-05 3.47790E-04-3.35128E-05
 -1     16971 5.57871E-05 3.52226E-04-3.35128E-05
 -1     16976 5.59799E-05 3.53443E-04-3.49847E-05
 -1     16977 8.34970E-05 3.47790E-04-3.64565E-05
 -1     16978 5.57871E-05 3.52226E-04-3.64565E-05
 -1     16983 5.59799E-05 3.53443E-04-3.79284E-05
 -1     16987 2.80627E-05 3.56570E-04-9.96302E-06
 -1     16991 2.80627E-05 3.56570E-04-1.29067E-05
 -1     16995 2.80627E-05 3.56570E-04-1.58505E-05
 -1     16999 2.80627E-05 3.56570E-04-1.87942E-05
 -1     17003 2.80627E-05 3.56570E-04-2.17379E-05
 -1     17007 2.80627E-05 3.56570E-04-2.46816E-05
 -1     17011 2.80627E-05 3.56570E-04-2.76254E-05
 -1     17015 2.80627E-05 3.56570E-04-3.05691E-05
 -1     17019 2.80627E-05 3.56570E-04-3.35128E-05
 -1     17023 2.80627E-05 3.56570E-04-3.64565E-05
 -1     17029 3.56327E-04 5.64367E-05-8.49116E-06
 -1     17030 3.59431E-04 2.82879E-05-9.96302E-06
 -1     17031 3.54813E-04 5.61969E-05-9.96302E-06
 -1     17036 3.56327E-04 5.64367E-05-1.14349E-05
 -1     17037 3.59431E-04 2.82879E-05-1.29067E-05
 -1     17038 3.54813E-04 5.61969E-05-1.29067E-05
 -1     17043 3.56327E-04 5.64367E-05-1.43786E-05
 -1     17044 3.59431E-04 2.82879E-05-1.58505E-05
 -1     17045 3.54813E-04 5.61969E-05-1.58505E-05
 -1     17050 3.56327E-04 5.64367E-05-1.73223E-05
 -1     17051 3.59431E-04 2.82879E-05-1.87942E-05
 -1     17052 3.54813E-04 5.61969E-05-1.87942E-05
 -1     17057 3.56327E-04 5.64367E-05-2.02661E-05
 -1     17058 3.59431E-04 2.82879E-05-2.17379E-05
 -1     17059 3.54813E-04 5.61969E-05-2.17379E-05
 -1     17064 3.56327E-04 5.64367E-05-2.32098E-05
 -1     17065 3.59431E-04 2.82879E-05-2.46816E-05
 -1     17066 3.54813E-04 5.61969E-05-2.46816E-05
 -1     17071 3.56327E-04 5.64367E-05-2.61535E-05
 -1     17072 3.59431E-04 2.82879E-05-2.76254E-05
 -1     17073 3.54813E-04 5.61969E-05-2.76254E-05
 -1     17078 3.56327E-04 5.64367E-05-2.90972E-05
 -1     17079 3.59431E-04 2.82879E-05-3.05691E-05
 -1     17080 3.54813E-04 5.61969E-05-3.05691E-05
 -1     17085 3.56327E-04 5.64367E-05-3.20409E-05
 -1     17086 3.59431E-04 2.82879E-05-3.35128E-05
 -1     17087 3.54813E-04 5.61969E-05-3.35128E-05
 -1     17092 3.56327E-04 5.64367E-05-3.49847E-05
 -1     17093 3.59431E-04 2.82879E-05-3.64565E-05
 -1     17094 3.54813E-04 5.61969E-05-3.64565E-05
 -1     17099 3.56327E-04 5.64367E-05-3.79284E-05
 -1     17103 3.43111E-04 1.11484E-04-8.49116E-06
 -1     17104 3.50581E-04 8.41670E-05-9.96302E-06
 -1     17105 3.41654E-04 1.11010E-04-9.96302E-06
 -1     17110 3.43111E-04 1.11484E-04-1.14349E-05
 -1     17111 3.50581E-04 8.41670E-05-1.29067E-05
 -1     17112 3.41654E-04 1.11010E-04-1.29067E-05
 -1     17117 3.43111E-04 1.11484E-04-1.43786E-05
 -1     17118 3.50581E-04 8.41670E-05-1.58505E-05
 -1     17119 3.41654E-04 1.11010E-04-1.58505E-05
 -1     17124 3.43111E-04 1.11484E-04-1.73223E-05
 -1     17125 3.50581E-04 8.41670E-05-1.87942E-05
 -1     17126 3.41654E-04 1.11010E-04-1.87942E-05
 -1     17131 3.43111E-04 1.11484E-04-2.02661E-05
 -1     17132 3.50581E-04 8.41670E-05-2.17379E-05
 -1     17133 3.41654E-04 1.11010E-04-2.17379E-05
 -1     17138 3.43111E-04 1.11484E-04-2.32098E-05
 -1     17139 3.50581E-04 8.41670E-05-2.46816E-05
 -1     17140 3.41654E-04 1.11010E-04-2.46816E-05
 -1     17145 3.43111E-04 1.11484E-04-2.61535E-05
 -1     17146 3.50581E-04 8.41670E-05-2.76254E-05
 -1     17147 3.41654E-04 1.11010E-04-2.76254E-05
 -1     17152 3.43111E-04 1.11484E-04-2.90972E-05
 -1     17153 3.50581E-04 8.41670E-05-3.05691E-05
 -1     17154 3.41654E-04 1.11010E-04-3.05691E-05
 -1     17159 3.43111E-04 1.11484E-04-3.20409E-05
 -1     17160 3.50581E-04 8.41670E-05-3.35128E-05
 -1     17161 3.41654E-04 1.11010E-04-3.35128E-05
 -1     17166 3.43111E-04 1.11484E-04-3.49847E-05
 -1     17167 3.50581E-04 8.41670E-05-3.64565E-05
 -1     17168 3.41654E-04 1.11010E-04-3.64565E-05
 -1     17173 3.43111E-04 1.11484E-04-3.79284E-05
 -1     17177 3.21447E-04 1.63786E-04-8.49116E-06
 -1     17178 3.33098E-04 1.37974E-04-9.96302E-06
 -1     17179 3.20082E-04 1.63090E-04-9.96302E-06
 -1     17184 3.21447E-04 1.63786E-04-1.14349E-05
 -1     17185 3.33098E-04 1.37974E-04-1.29067E-05
 -1     17186 3.20082E-04 1.63090E-04-1.29067E-05
 -1     17191 3.21447E-04 1.63786E-04-1.43786E-05
 -1     17192 3.33098E-04 1.37974E-04-1.58505E-05
 -1     17193 3.20082E-04 1.63090E-04-1.58505E-05
 -1     17198 3.21447E-04 1.63786E-04-1.73223E-05
 -1     17199 3.33098E-04 1.37974E-04-1.87942E-05
 -1     17200 3.20082E-04 1.63090E-04-1.87942E-05
 -1     17205 3.21447E-04 1.63786E-04-2.02661E-05
 -1     17206 3.33098E-04 1.37974E-04-2.17379E-05
 -1     17207 3.20082E-04 1.63090E-04-2.17379E-05
 -1     17212 3.21447E-04 1.63786E-04-2.32098E-05
 -1     17213 3.33098E-04 1.37974E-04-2.46816E-05
 -1     17214 3.20082E-04 1.63090E-04-2.46816E-05
 -1     17219 3.21447E-04 1.63786E-04-2.61535E-05
 -1     17220 3.33098E-04 1.37974E-04-2.76254E-05
 -1     17221 3.20082E-04 1.63090E-04-2.76254E-05
 -1     17226 3.21447E-04 1.63786E-04-2.90972E-05
 -1     17227 3.33098E-04 1.37974E-04-3.05691E-05
 -1     17228 3.20082E-04 1.63090E-04-3.05691E-05
 -1     17233 3.21447E-04 1.63786E-04-3.20409E-05
 -1     17234 3.33098E-04 1.37974E-04-3.35128E-05
 -1     17235 3.20082E-04 1.63090E-04-3.35128E-05
 -1     17240 3.21447E-04 1.63786E-04-3.49847E-05
 -1     17241 3.33098E-04 1.37974E-04-3.64565E-05
 -1     17242 3.20082E-04 1.63090E-04-3.64565E-05
 -1     17247 3.21447E-04 1.63786E-04-3.79284E-05
 -1     17251 2.91868E-04 2.12055E-04-8.49116E-06
 -1     17252 3.07413E-04 1.88383E-04-9.96302E-06
 -1     17253 2.90628E-04 2.11154E-04-9.96302E-06
 -1     17258 2.91868E-04 2.12055E-04-1.14349E-05
 -1     17259 3.07413E-04 1.88383E-04-1.29067E-05
 -1     17260 2.90628E-04 2.11154E-04-1.29067E-05
 -1     17265 2.91868E-04 2.12055E-04-1.43786E-05
 -1     17266 3.07413E-04 1.88383E-04-1.58505E-05
 -1     17267 2.90628E-04 2.11154E-04-1.58505E-05
 -1     17272 2.91868E-04 2.12055E-04-1.73223E-05
 -1     17273 3.07413E-04 1.88383E-04-1.87942E-05
 -1     17274 2.90628E-04 2.11154E-04-1.87942E-05
 -1     17279 2.91868E-04 2.12055E-04-2.02661E-05
 -1     17280 3.07413E-04 1.88383E-04-2.17379E-05
 -1     17281 2.90628E-04 2.11154E-04-2.17379E-05
 -1     17286 2.91868E-04 2.12055E-04-2.32098E-05
 -1     17287 3.07413E-04 1.88383E-04-2.46816E-05
 -1     17288 2.90628E-04 2.11154E-04-2.46816E-05
 -1     17293 2.91868E-04 2.12055E-04-2.61535E-05
 -1     17294 3.07413E-04 1.88383E-04-2.76254E-05
 -1     17295 2.90628E-04 2.11154E-04-2.76254E-05
 -1     17300 2.91868E-04 2.12055E-04-2.90972E-05
 -1     17301 3.07413E-04 1.88383E-04-3.05691E-05
 -1     17302 2.90628E-04 2.11154E-04-3.05691E-05
 -1     17307 2.91868E-04 2.12055E-04-3.20409E-05
 -1     17308 3.07413E-04 1.88383E-04-3.35128E-05
 -1     17309 2.90628E-04 2.11154E-04-3.35128E-05
 -1     17314 2.91868E-04 2.12055E-04-3.49847E-05
 -1     17315 3.07413E-04 1.88383E-04-3.64565E-05
 -1     17316 2.90628E-04 2.11154E-04-3.64565E-05
 -1     17321 2.91868E-04 2.12055E-04-3.79284E-05
 -1     17325 2.55102E-04 2.55102E-04-8.49116E-06
 -1     17326 2.74159E-04 2.34154E-04-9.96302E-06
 -1     17327 2.54018E-04 2.54018E-04-9.96302E-06
 -1     17332 2.55102E-04 2.55102E-04-1.14349E-05
 -1     17333 2.74159E-04 2.34154E-04-1.29067E-05
 -1     17334 2.54018E-04 2.54018E-04-1.29067E-05
 -1     17339 2.55102E-04 2.55102E-04-1.43786E-05
 -1     17340 2.74159E-04 2.34154E-04-1.58505E-05
 -1     17341 2.54018E-04 2.54018E-04-1.58505E-05
 -1     17346 2.55102E-04 2.55102E-04-1.73223E-05
 -1     17347 2.74159E-04 2.34154E-04-1.87942E-05
 -1     17348 2.54018E-04 2.54018E-04-1.87942E-05
 -1     17353 2.55102E-04 2.55102E-04-2.02661E-05
 -1     17354 2.74159E-04 2.34154E-04-2.17379E-05
 -1     17355 2.54018E-04 2.54018E-04-2.17379E-05
 -1     17360 2.55102E-04 2.55102E-04-2.32098E-05
 -1     17361 2.74159E-04 2.34154E-04-2.46816E-05
 -1     17362 2.54018E-04 2.54018E-04-2.46816E-05
 -1     17367 2.55102E-04 2.55102E-04-2.61535E-05
 -1     17368 2.74159E-04 2.34154E-04-2.76254E-05
 -1     17369 2.54018E-04 2.54018E-04-2.76254E-05
 -1     17374 2.55102E-04 2.55102E-04-2.90972E-05
 -1     17375 2.74159E-04 2.34154E-04-3.05691E-05
 -1     17376 2.54018E-04 2.54018E-04-3.05691E-05
 -1     17381 2.55102E-04 2.55102E-04-3.20409E-05
 -1     17382 2.74159E-04 2.34154E-04-3.35128E-05
 -1     17383 2.54018E-04 2.54018E-04-3.35128E-05
 -1     17388 2.55102E-04 2.55102E-04-3.49847E-05
 -1     17389 2.74159E-04 2.34154E-04-3.64565E-05
 -1     17390 2.54018E-04 2.54018E-04-3.64565E-05
 -1     17395 2.55102E-04 2.55102E-04-3.79284E-05
 -1     17399 2.12055E-04 2.91868E-04-8.49116E-06
 -1     17400 2.34154E-04 2.74159E-04-9.96302E-06
 -1     17401 2.11154E-04 2.90628E-04-9.96302E-06
 -1     17406 2.12055E-04 2.91868E-04-1.14349E-05
 -1     17407 2.34154E-04 2.74159E-04-1.29067E-05
 -1     17408 2.11154E-04 2.90628E-04-1.29067E-05
 -1     17413 2.12055E-04 2.91868E-04-1.43786E-05
 -1     17414 2.34154E-04 2.74159E-04-1.58505E-05
 -1     17415 2.11154E-04 2.90628E-04-1.58505E-05
 -1     17420 2.12055E-04 2.91868E-04-1.73223E-05
 -1     17421 2.34154E-04 2.74159E-04-1.87942E-05
 -1     17422 2.11154E-04 2.90628E-04-1.87942E-05
 -1     17427 2.12055E-04 2.91868E-04-2.02661E-05
 -1     17428 2.34154E-04 2.74159E-04-2.17379E-05
 -1     17429 2.11154E-04 2.90628E-04-2.17379E-05
 -1     17434 2.12055E-04 2.91868E-04-2.32098E-05
 -1     17435 2.34154E-04 2.74159E-04-2.46816E-05
 -1     17436 2.11154E-04 2.90628E-04-2.46816E-05
 -1     17441 2.12055E-04 2.91868E-04-2.61535E-05
 -1     17442 2.34154E-04 2.74159E-04-2.76254E-05
 -1     17443 2.11154E-04 2.90628E-04-2.76254E-05
 -1     17448 2.12055E-04 2.91868E-04-2.90972E-05
 -1     17449 2.34154E-04 2.74159E-04-3.05691E-05
 -1     17450 2.11154E-04 2.90628E-04-3.05691E-05
 -1     17455 2.12055E-04 2.91868E-04-3.20409E-05
 -1     17456 2.34154E-04 2.74159E-04-3.35128E-05
 -1     17457 2.11154E-04 2.90628E-04-3.35128E-05
 -1     17462 2.12055E-04 2.91868E-04-3.49847E-05
 -1     17463 2.34154E-04 2.74159E-04-3.64565E-05
 -1     17464 2.11154E-04 2.90628E-04-3.64565E-05
 -1     17469 2.12055E-04 2.91868E-04-3.79284E-05
 -1     17473 1.63786E-04 3.21447E-04-8.49116E-06
 -1     17474 1.88383E-04 3.07413E-04-9.96302E-06
 -1     17475 1.63090E-04 3.20082E-04-9.96302E-06
 -1     17480 1.63786E-04 3.21447E-04-1.14349E-05
 -1     17481 1.88383E-04 3.07413E-04-1.29067E-05
 -1     17482 1.63090E-04 3.20082E-04-1.29067E-05
 -1     17487 1.63786E-04 3.21447E-04-1.43786E-05
 -1     17488 1.88383E-04 3.07413E-04-1.58505E-05
 -1     17489 1.63090E-04 3.20082E-04-1.58505E-05
 -1     17494 1.63786E-04 3.21447E-04-1.73223E-05
 -1     17495 1.88383E-04 3.07413E-04-1.87942E-05
 -1     17496 1.63090E-04 3.20082E-04-1.87942E-05
 -1     17501 1.63786E-04 3.21447E-04-2.02661E-05
 -1     17502 1.88383E-04 3.07413E-04-2.17379E-05
 -1     17503 1.63090E-04 3.20082E-04-2.17379E-05
 -1     17508 1.63786E-04 3.21447E-04-2.32098E-05
 -1     17509 1.88383E-04 3.07413E-04-2.46816E-05
 -1     17510 1.63090E-04 3.20082E-04-2.46816E-05
 -1     17515 1.63786E-04 3.21447E-04-2.61535E-05
 -1     17516 1.88383E-04 3.07413E-04-2.76254E-05
 -1     17517 1.63090E-04 3.20082E-04-2.76254E-05
 -1     17522 1.63786E-04 3.21447E-04-2.90972E-05
 -1     17523 1.88383E-04 3.07413E-04-3.05691E-05
 -1     17524 1.63090E-04 3.20082E-04-3.05691E-05
 -1     17529 1.63786E-04 3.21447E-04-3.20409E-05
 -1     17530 1.88383E-04 3.07413E-04-3.35128E-05
 -1     17531 1.63090E-04 3.20082E-04-3.35128E-05
 -1     17536 1.63786E-04 3.21447E-04-3.49847E-05
 -1     17537 1.88383E-04 3.07413E-04-3.64565E-05
 -1     17538 1.63090E-04 3.20082E-04-3.64565E-05
 -1     17543 1.63786E-04 3.21447E-04-3.79284E-05
 -1     17547 1.11484E-04 3.43111E-04-8.49116E-06
 -1     17548 1.37974E-04 3.33098E-04-9.96302E-06
 -1     17549 1.11010E-04 3.41654E-04-9.96302E-06
 -1     17554 1.11484E-04 3.43111E-04-1.14349E-05
 -1     17555 1.37974E-04 3.33098E-04-1.29067E-05
 -1     17556 1.11010E-04 3.41654E-04-1.29067E-05
 -1     17561 1.11484E-04 3.43111E-04-1.43786E-05
 -1     17562 1.37974E-04 3.33098E-04-1.58505E-05
 -1     17563 1.11010E-04 3.41654E-04-1.58505E-05
 -1     17568 1.11484E-04 3.43111E-04-1.73223E-05
 -1     17569 1.37974E-04 3.33098E-04-1.87942E-05
 -1     17570 1.11010E-04 3.41654E-04-1.87942E-05
 -1     17575 1.11484E-04 3.43111E-04-2.02661E-05
 -1     17576 1.37974E-04 3.33098E-04-2.17379E-05
 -1     17577 1.11010E-04 3.41654E-04-2.17379E-05
 -1     17582 1.11484E-04 3.43111E-04-2.32098E-05
 -1     17583 1.37974E-04 3.33098E-04-2.46816E-05
 -1     17584 1.11010E-04 3.41654E-04-2.46816E-05
 -1     17589 1.11484E-04 3.43111E-04-2.61535E-05
 -1     17590 1.37974E-04 3.33098E-04-2.76254E-05
 -1     17591 1.11010E-04 3.41654E-04-2.76254E-05
 -1     17596 1.11484E-04 3.43111E-04-2.90972E-05
 -1     17597 1.37974E-04 3.33098E-04-3.05691E-05
 -1     17598 1.11010E-04 3.41654E-04-3.05691E-05
 -1     17603 1.11484E-04 3.43111E-04-3.20409E-05
 -1     17604 1.37974E-04 3.33098E-04-3.35128E-05
 -1     17605 1.11010E-04 3.41654E-04-3.35128E-05
 -1     17610 1.11484E-04 3.43111E-04-3.49847E-05
 -1     17611 1.37974E-04 3.33098E-04-3.64565E-05
 -1     17612 1.11010E-04 3.41654E-04-3.64565E-05
 -1     17617 1.11484E-04 3.43111E-04-3.79284E-05
 -1     17621 5.64367E-05 3.56327E-04-8.49116E-06
 -1     17622 8.41670E-05 3.50581E-04-9.96302E-06
 -1     17623 5.61969E-05 3.54813E-04-9.96302E-06
 -1     17628 5.64367E-05 3.56327E-04-1.14349E-05
 -1     17629 8.41670E-05 3.50581E-04-1.29067E-05
 -1     17630 5.61969E-05 3.54813E-04-1.29067E-05
 -1     17635 5.64367E-05 3.56327E-04-1.43786E-05
 -1     17636 8.41670E-05 3.50581E-04-1.58505E-05
 -1     17637 5.61969E-05 3.54813E-04-1.58505E-05
 -1     17642 5.64367E-05 3.56327E-04-1.73223E-05
 -1     17643 8.41670E-05 3.50581E-04-1.87942E-05
 -1     17644 5.61969E-05 3.54813E-04-1.87942E-05
 -1     17649 5.64367E-05 3.56327E-04-2.02661E-05
 -1     17650 8.41670E-05 3.50581E-04-2.17379E-05
 -1     17651 5.61969E-05 3.54813E-04-2.17379E-05
 -1     17656 5.64367E-05 3.56327E-04-2.32098E-05
 -1     17657 8.41670E-05 3.50581E-04-2.46816E-05
 -1     17658 5.61969E-05 3.54813E-04-2.46816E-05
 -1     17663 5.64367E-05 3.56327E-04-2.61535E-05
 -1     17664 8.41670E-05 3.50581E-04-2.76254E-05
 -1     17665 5.61969E-05 3.54813E-04-2.76254E-05
 -1     17670 5.64367E-05 3.56327E-04-2.90972E-05
 -1     17671 8.41670E-05 3.50581E-04-3.05691E-05
 -1     17672 5.61969E-05 3.54813E-04-3.05691E-05
 -1     17677 5.64367E-05 3.56327E-04-3.20409E-05
 -1     17678 8.41670E-05 3.50581E-04-3.35128E-05
 -1     17679 5.61969E-05 3.54813E-04-3.35128E-05
 -1     17684 5.64367E-05 3.56327E-04-3.49847E-05
 -1     17685 8.41670E-05 3.50581E-04-3.64565E-05
 -1     17686 5.61969E-05 3.54813E-04-3.64565E-05
 -1     17691 5.64367E-05 3.56327E-04-3.79284E-05
 -1     17695 2.82879E-05 3.59431E-04-9.96302E-06
 -1     17699 2.82879E-05 3.59431E-04-1.29067E-05
 -1     17703 2.82879E-05 3.59431E-04-1.58505E-05
 -1     17707 2.82879E-05 3.59431E-04-1.87942E-05
 -1     17711 2.82879E-05 3.59431E-04-2.17379E-05
 -1     17715 2.82879E-05 3.59431E-04-2.46816E-05
 -1     17719 2.82879E-05 3.59431E-04-2.76254E-05
 -1     17723 2.82879E-05 3.59431E-04-3.05691E-05
 -1     17727 2.82879E-05 3.59431E-04-3.35128E-05
 -1     17731 2.82879E-05 3.59431E-04-3.64565E-05
 -1     17737 3.59748E-04 5.69785E-05-8.49116E-06
 -1     17738 3.62837E-04 2.85559E-05-9.96302E-06
 -1     17739 3.57974E-04 5.66976E-05-9.96302E-06
 -1     17744 3.59748E-04 5.69785E-05-1.14349E-05
 -1     17745 3.62837E-04 2.85559E-05-1.29067E-05
 -1     17746 3.57974E-04 5.66976E-05-1.29067E-05
 -1     17751 3.59748E-04 5.69785E-05-1.43786E-05
 -1     17752 3.62837E-04 2.85559E-05-1.58505E-05
 -1     17753 3.57974E-04 5.66976E-05-1.58505E-05
 -1     17758 3.59748E-04 5.69785E-05-1.73223E-05
 -1     17759 3.62837E-04 2.85559E-05-1.87942E-05
 -1     17760 3.57974E-04 5.66976E-05-1.87942E-05
 -1     17765 3.59748E-04 5.69785E-05-2.02661E-05
 -1     17766 3.62837E-04 2.85559E-05-2.17379E-05
 -1     17767 3.57974E-04 5.66976E-05-2.17379E-05
 -1     17772 3.59748E-04 5.69785E-05-2.32098E-05
 -1     17773 3.62837E-04 2.85559E-05-2.46816E-05
 -1     17774 3.57974E-04 5.66976E-05-2.46816E-05
 -1     17779 3.59748E-04 5.69785E-05-2.61535E-05
 -1     17780 3.62837E-04 2.85559E-05-2.76254E-05
 -1     17781 3.57974E-04 5.66976E-05-2.76254E-05
 -1     17786 3.59748E-04 5.69785E-05-2.90972E-05
 -1     17787 3.62837E-04 2.85559E-05-3.05691E-05
 -1     17788 3.57974E-04 5.66976E-05-3.05691E-05
 -1     17793 3.59748E-04 5.69785E-05-3.20409E-05
 -1     17794 3.62837E-04 2.85559E-05-3.35128E-05
 -1     17795 3.57974E-04 5.66976E-05-3.35128E-05
 -1     17800 3.59748E-04 5.69785E-05-3.49847E-05
 -1     17801 3.62837E-04 2.85559E-05-3.64565E-05
 -1     17802 3.57974E-04 5.66976E-05-3.64565E-05
 -1     17807 3.59748E-04 5.69785E-05-3.79284E-05
 -1     17811 3.46405E-04 1.12554E-04-8.49116E-06
 -1     17812 3.53902E-04 8.49644E-05-9.96302E-06
 -1     17813 3.44698E-04 1.11999E-04-9.96302E-06
 -1     17818 3.46405E-04 1.12554E-04-1.14349E-05
 -1     17819 3.53902E-04 8.49644E-05-1.29067E-05
 -1     17820 3.44698E-04 1.11999E-04-1.29067E-05
 -1     17825 3.46405E-04 1.12554E-04-1.43786E-05
 -1     17826 3.53902E-04 8.49644E-05-1.58505E-05
 -1     17827 3.44698E-04 1.11999E-04-1.58505E-05
 -1     17832 3.46405E-04 1.12554E-04-1.73223E-05
 -1     17833 3.53902E-04 8.49644E-05-1.87942E-05
 -1     17834 3.44698E-04 1.11999E-04-1.87942E-05
 -1     17839 3.46405E-04 1.12554E-04-2.02661E-05
 -1     17840 3.53902E-04 8.49644E-05-2.17379E-05
 -1     17841 3.44698E-04 1.11999E-04-2.17379E-05
 -1     17846 3.46405E-04 1.12554E-04-2.32098E-05
 -1     17847 3.53902E-04 8.49644E-05-2.46816E-05
 -1     17848 3.44698E-04 1.11999E-04-2.46816E-05
 -1     17853 3.46405E-04 1.12554E-04-2.61535E-05
 -1     17854 3.53902E-04 8.49644E-05-2.76254E-05
 -1     17855 3.44698E-04 1.11999E-04-2.76254E-05
 -1     17860 3.46405E-04 1.12554E-04-2.90972E-05
 -1     17861 3.53902E-04 8.49644E-05-3.05691E-05
 -1     17862 3.44698E-04 1.11999E-04-3.05691E-05
 -1     17867 3.46405E-04 1.12554E-04-3.20409E-05
 -1     17868 3.53902E-04 8.49644E-05-3.35128E-05
 -1     17869 3.44698E-04 1.11999E-04-3.35128E-05
 -1     17874 3.46405E-04 1.12554E-04-3.49847E-05
 -1     17875 3.53902E-04 8.49644E-05-3.64565E-05
 -1     17876 3.44698E-04 1.11999E-04-3.64565E-05
 -1     17881 3.46405E-04 1.12554E-04-3.79284E-05
 -1     17885 3.24533E-04 1.65358E-04-8.49116E-06
 -1     17886 3.36254E-04 1.39281E-04-9.96302E-06
 -1     17887 3.22933E-04 1.64543E-04-9.96302E-06
 -1     17892 3.24533E-04 1.65358E-04-1.14349E-05
 -1     17893 3.36254E-04 1.39281E-04-1.29067E-05
 -1     17894 3.22933E-04 1.64543E-04-1.29067E-05
 -1     17899 3.24533E-04 1.65358E-04-1.43786E-05
 -1     17900 3.36254E-04 1.39281E-04-1.58505E-05
 -1     17901 3.22933E-04 1.64543E-04-1.58505E-05
 -1     17906 3.24533E-04 1.65358E-04-1.73223E-05
 -1     17907 3.36254E-04 1.39281E-04-1.87942E-05
 -1     17908 3.22933E-04 1.64543E-04-1.87942E-05
 -1     17913 3.24533E-04 1.65358E-04-2.02661E-05
 -1     17914 3.36254E-04 1.39281E-04-2.17379E-05
 -1     17915 3.22933E-04 1.64543E-04-2.17379E-05
 -1     17920 3.24533E-04 1.65358E-04-2.32098E-05
 -1     17921 3.36254E-04 1.39281E-04-2.46816E-05
 -1     17922 3.22933E-04 1.64543E-04-2.46816E-05
 -1     17927 3.24533E-04 1.65358E-04-2.61535E-05
 -1     17928 3.36254E-04 1.39281E-04-2.76254E-05
 -1     17929 3.22933E-04 1.64543E-04-2.76254E-05
 -1     17934 3.24533E-04 1.65358E-04-2.90972E-05
 -1     17935 3.36254E-04 1.39281E-04-3.05691E-05
 -1     17936 3.22933E-04 1.64543E-04-3.05691E-05
 -1     17941 3.24533E-04 1.65358E-04-3.20409E-05
 -1     17942 3.36254E-04 1.39281E-04-3.35128E-05
 -1     17943 3.22933E-04 1.64543E-04-3.35128E-05
 -1     17948 3.24533E-04 1.65358E-04-3.49847E-05
 -1     17949 3.36254E-04 1.39281E-04-3.64565E-05
 -1     17950 3.22933E-04 1.64543E-04-3.64565E-05
 -1     17955 3.24533E-04 1.65358E-04-3.79284E-05
 -1     17959 2.94670E-04 2.14090E-04-8.49116E-06
 -1     17960 3.10326E-04 1.90168E-04-9.96302E-06
 -1     17961 2.93217E-04 2.13035E-04-9.96302E-06
 -1     17966 2.94670E-04 2.14090E-04-1.14349E-05
 -1     17967 3.10326E-04 1.90168E-04-1.29067E-05
 -1     17968 2.93217E-04 2.13035E-04-1.29067E-05
 -1     17973 2.94670E-04 2.14090E-04-1.43786E-05
 -1     17974 3.10326E-04 1.90168E-04-1.58505E-05
 -1     17975 2.93217E-04 2.13035E-04-1.58505E-05
 -1     17980 2.94670E-04 2.14090E-04-1.73223E-05
 -1     17981 3.10326E-04 1.90168E-04-1.87942E-05
 -1     17982 2.93217E-04 2.13035E-04-1.87942E-05
 -1     17987 2.94670E-04 2.14090E-04-2.02661E-05
 -1     17988 3.10326E-04 1.90168E-04-2.17379E-05
 -1     17989 2.93217E-04 2.13035E-04-2.17379E-05
 -1     17994 2.94670E-04 2.14090E-04-2.32098E-05
 -1     17995 3.10326E-04 1.90168E-04-2.46816E-05
 -1     17996 2.93217E-04 2.13035E-04-2.46816E-05
 -1     18001 2.94670E-04 2.14090E-04-2.61535E-05
 -1     18002 3.10326E-04 1.90168E-04-2.76254E-05
 -1     18003 2.93217E-04 2.13035E-04-2.76254E-05
 -1     18008 2.94670E-04 2.14090E-04-2.90972E-05
 -1     18009 3.10326E-04 1.90168E-04-3.05691E-05
 -1     18010 2.93217E-04 2.13035E-04-3.05691E-05
 -1     18015 2.94670E-04 2.14090E-04-3.20409E-05
 -1     18016 3.10326E-04 1.90168E-04-3.35128E-05
 -1     18017 2.93217E-04 2.13035E-04-3.35128E-05
 -1     18022 2.94670E-04 2.14090E-04-3.49847E-05
 -1     18023 3.10326E-04 1.90168E-04-3.64565E-05
 -1     18024 2.93217E-04 2.13035E-04-3.64565E-05
 -1     18029 2.94670E-04 2.14090E-04-3.79284E-05
 -1     18033 2.57551E-04 2.57551E-04-8.49116E-06
 -1     18034 2.76756E-04 2.36372E-04-9.96302E-06
 -1     18035 2.56281E-04 2.56281E-04-9.96302E-06
 -1     18040 2.57551E-04 2.57551E-04-1.14349E-05
 -1     18041 2.76756E-04 2.36372E-04-1.29067E-05
 -1     18042 2.56281E-04 2.56281E-04-1.29067E-05
 -1     18047 2.57551E-04 2.57551E-04-1.43786E-05
 -1     18048 2.76756E-04 2.36372E-04-1.58505E-05
 -1     18049 2.56281E-04 2.56281E-04-1.58505E-05
 -1     18054 2.57551E-04 2.57551E-04-1.73223E-05
 -1     18055 2.76756E-04 2.36372E-04-1.87942E-05
 -1     18056 2.56281E-04 2.56281E-04-1.87942E-05
 -1     18061 2.57551E-04 2.57551E-04-2.02661E-05
 -1     18062 2.76756E-04 2.36372E-04-2.17379E-05
 -1     18063 2.56281E-04 2.56281E-04-2.17379E-05
 -1     18068 2.57551E-04 2.57551E-04-2.32098E-05
 -1     18069 2.76756E-04 2.36372E-04-2.46816E-05
 -1     18070 2.56281E-04 2.56281E-04-2.46816E-05
 -1     18075 2.57551E-04 2.57551E-04-2.61535E-05
 -1     18076 2.76756E-04 2.36372E-04-2.76254E-05
 -1     18077 2.56281E-04 2.56281E-04-2.76254E-05
 -1     18082 2.57551E-04 2.57551E-04-2.90972E-05
 -1     18083 2.76756E-04 2.36372E-04-3.05691E-05
 -1     18084 2.56281E-04 2.56281E-04-3.05691E-05
 -1     18089 2.57551E-04 2.57551E-04-3.20409E-05
 -1     18090 2.76756E-04 2.36372E-04-3.35128E-05
 -1     18091 2.56281E-04 2.56281E-04-3.35128E-05
 -1     18096 2.57551E-04 2.57551E-04-3.49847E-05
 -1     18097 2.76756E-04 2.36372E-04-3.64565E-05
 -1     18098 2.56281E-04 2.56281E-04-3.64565E-05
 -1     18103 2.57551E-04 2.57551E-04-3.79284E-05
 -1     18107 2.14090E-04 2.94670E-04-8.49116E-06
 -1     18108 2.36372E-04 2.76756E-04-9.96302E-06
 -1     18109 2.13035E-04 2.93217E-04-9.96302E-06
 -1     18114 2.14090E-04 2.94670E-04-1.14349E-05
 -1     18115 2.36372E-04 2.76756E-04-1.29067E-05
 -1     18116 2.13035E-04 2.93217E-04-1.29067E-05
 -1     18121 2.14090E-04 2.94670E-04-1.43786E-05
 -1     18122 2.36372E-04 2.76756E-04-1.58505E-05
 -1     18123 2.13035E-04 2.93217E-04-1.58505E-05
 -1     18128 2.14090E-04 2.94670E-04-1.73223E-05
 -1     18129 2.36372E-04 2.76756E-04-1.87942E-05
 -1     18130 2.13035E-04 2.93217E-04-1.87942E-05
 -1     18135 2.14090E-04 2.94670E-04-2.02661E-05
 -1     18136 2.36372E-04 2.76756E-04-2.17379E-05
 -1     18137 2.13035E-04 2.93217E-04-2.17379E-05
 -1     18142 2.14090E-04 2.94670E-04-2.32098E-05
 -1     18143 2.36372E-04 2.76756E-04-2.46816E-05
 -1     18144 2.13035E-04 2.93217E-04-2.46816E-05
 -1     18149 2.14090E-04 2.94670E-04-2.61535E-05
 -1     18150 2.36372E-04 2.76756E-04-2.76254E-05
 -1     18151 2.13035E-04 2.93217E-04-2.76254E-05
 -1     18156 2.14090E-04 2.94670E-04-2.90972E-05
 -1     18157 2.36372E-04 2.76756E-04-3.05691E-05
 -1     18158 2.13035E-04 2.93217E-04-3.05691E-05
 -1     18163 2.14090E-04 2.94670E-04-3.20409E-05
 -1     18164 2.36372E-04 2.76756E-04-3.35128E-05
 -1     18165 2.13035E-04 2.93217E-04-3.35128E-05
 -1     18170 2.14090E-04 2.94670E-04-3.49847E-05
 -1     18171 2.36372E-04 2.76756E-04-3.64565E-05
 -1     18172 2.13035E-04 2.93217E-04-3.64565E-05
 -1     18177 2.14090E-04 2.94670E-04-3.79284E-05
 -1     18181 1.65358E-04 3.24533E-04-8.49116E-06
 -1     18182 1.90168E-04 3.10326E-04-9.96302E-06
 -1     18183 1.64543E-04 3.22933E-04-9.96302E-06
 -1     18188 1.65358E-04 3.24533E-04-1.14349E-05
 -1     18189 1.90168E-04 3.10326E-04-1.29067E-05
 -1     18190 1.64543E-04 3.22933E-04-1.29067E-05
 -1     18195 1.65358E-04 3.24533E-04-1.43786E-05
 -1     18196 1.90168E-04 3.10326E-04-1.58505E-05
 -1     18197 1.64543E-04 3.22933E-04-1.58505E-05
 -1     18202 1.65358E-04 3.24533E-04-1.73223E-05
 -1     18203 1.90168E-04 3.10326E-04-1.87942E-05
 -1     18204 1.64543E-04 3.22933E-04-1.87942E-05
 -1     18209 1.65358E-04 3.24533E-04-2.02661E-05
 -1     18210 1.90168E-04 3.10326E-04-2.17379E-05
 -1     18211 1.64543E-04 3.22933E-04-2.17379E-05
 -1     18216 1.65358E-04 3.24533E-04-2.32098E-05
 -1     18217 1.90168E-04 3.10326E-04-2.46816E-05
 -1     18218 1.64543E-04 3.22933E-04-2.46816E-05
 -1     18223 1.65358E-04 3.24533E-04-2.61535E-05
 -1     18224 1.90168E-04 3.10326E-04-2.76254E-05
 -1     18225 1.64543E-04 3.22933E-04-2.76254E-05
 -1     18230 1.65358E-04 3.24533E-04-2.90972E-05
 -1     18231 1.90168E-04 3.10326E-04-3.05691E-05
 -1     18232 1.64543E-04 3.22933E-04-3.05691E-05
 -1     18237 1.65358E-04 3.24533E-04-3.20409E-05
 -1     18238 1.90168E-04 3.10326E-04-3.35128E-05
 -1     18239 1.64543E-04 3.22933E-04-3.35128E-05
 -1     18244 1.65358E-04 3.24533E-04-3.49847E-05
 -1     18245 1.90168E-04 3.10326E-04-3.64565E-05
 -1     18246 1.64543E-04 3.22933E-04-3.64565E-05
 -1     18251 1.65358E-04 3.24533E-04-3.79284E-05
 -1     18255 1.12554E-04 3.46405E-04-8.49116E-06
 -1     18256 1.39281E-04 3.36254E-04-9.96302E-06
 -1     18257 1.11999E-04 3.44698E-04-9.96302E-06
 -1     18262 1.12554E-04 3.46405E-04-1.14349E-05
 -1     18263 1.39281E-04 3.36254E-04-1.29067E-05
 -1     18264 1.11999E-04 3.44698E-04-1.29067E-05
 -1     18269 1.12554E-04 3.46405E-04-1.43786E-05
 -1     18270 1.39281E-04 3.36254E-04-1.58505E-05
 -1     18271 1.11999E-04 3.44698E-04-1.58505E-05
 -1     18276 1.12554E-04 3.46405E-04-1.73223E-05
 -1     18277 1.39281E-04 3.36254E-04-1.87942E-05
 -1     18278 1.11999E-04 3.44698E-04-1.87942E-05
 -1     18283 1.12554E-04 3.46405E-04-2.02661E-05
 -1     18284 1.39281E-04 3.36254E-04-2.17379E-05
 -1     18285 1.11999E-04 3.44698E-04-2.17379E-05
 -1     18290 1.12554E-04 3.46405E-04-2.32098E-05
 -1     18291 1.39281E-04 3.36254E-04-2.46816E-05
 -1     18292 1.11999E-04 3.44698E-04-2.46816E-05
 -1     18297 1.12554E-04 3.46405E-04-2.61535E-05
 -1     18298 1.39281E-04 3.36254E-04-2.76254E-05
 -1     18299 1.11999E-04 3.44698E-04-2.76254E-05
 -1     18304 1.12554E-04 3.46405E-04-2.90972E-05
 -1     18305 1.39281E-04 3.36254E-04-3.05691E-05
 -1     18306 1.11999E-04 3.44698E-04-3.05691E-05
 -1     18311 1.12554E-04 3.46405E-04-3.20409E-05
 -1     18312 1.39281E-04 3.36254E-04-3.35128E-05
 -1     18313 1.11999E-04 3.44698E-04-3.35128E-05
 -1     18318 1.12554E-04 3.46405E-04-3.49847E-05
 -1     18319 1.39281E-04 3.36254E-04-3.64565E-05
 -1     18320 1.11999E-04 3.44698E-04-3.64565E-05
 -1     18325 1.12554E-04 3.46405E-04-3.79284E-05
 -1     18329 5.69785E-05 3.59748E-04-8.49116E-06
 -1     18330 8.49644E-05 3.53902E-04-9.96302E-06
 -1     18331 5.66976E-05 3.57974E-04-9.96302E-06
 -1     18336 5.69785E-05 3.59748E-04-1.14349E-05
 -1     18337 8.49644E-05 3.53902E-04-1.29067E-05
 -1     18338 5.66976E-05 3.57974E-04-1.29067E-05
 -1     18343 5.69785E-05 3.59748E-04-1.43786E-05
 -1     18344 8.49644E-05 3.53902E-04-1.58505E-05
 -1     18345 5.66976E-05 3.57974E-04-1.58505E-05
 -1     18350 5.69785E-05 3.59748E-04-1.73223E-05
 -1     18351 8.49644E-05 3.53902E-04-1.87942E-05
 -1     18352 5.66976E-05 3.57974E-04-1.87942E-05
 -1     18357 5.69785E-05 3.59748E-04-2.02661E-05
 -1     18358 8.49644E-05 3.53902E-04-2.17379E-05
 -1     18359 5.66976E-05 3.57974E-04-2.17379E-05
 -1     18364 5.69785E-05 3.59748E-04-2.32098E-05
 -1     18365 8.49644E-05 3.53902E-04-2.46816E-05
 -1     18366 5.66976E-05 3.57974E-04-2.46816E-05
 -1     18371 5.69785E-05 3.59748E-04-2.61535E-05
 -1     18372 8.49644E-05 3.53902E-04-2.76254E-05
 -1     18373 5.66976E-05 3.57974E-04-2.76254E-05
 -1     18378 5.69785E-05 3.59748E-04-2.90972E-05
 -1     18379 8.49644E-05 3.53902E-04-3.05691E-05
 -1     18380 5.66976E-05 3.57974E-04-3.05691E-05
 -1     18385 5.69785E-05 3.59748E-04-3.20409E-05
 -1     18386 8.49644E-05 3.53902E-04-3.35128E-05
 -1     18387 5.66976E-05 3.57974E-04-3.35128E-05
 -1     18392 5.69785E-05 3.59748E-04-3.49847E-05
 -1     18393 8.49644E-05 3.53902E-04-3.64565E-05
 -1     18394 5.66976E-05 3.57974E-04-3.64565E-05
 -1     18399 5.69785E-05 3.59748E-04-3.79284E-05
 -1     18403 2.85559E-05 3.62837E-04-9.96302E-06
 -1     18407 2.85559E-05 3.62837E-04-1.29067E-05
 -1     18411 2.85559E-05 3.62837E-04-1.58505E-05
 -1     18415 2.85559E-05 3.62837E-04-1.87942E-05
 -1     18419 2.85559E-05 3.62837E-04-2.17379E-05
 -1     18423 2.85559E-05 3.62837E-04-2.46816E-05
 -1     18427 2.85559E-05 3.62837E-04-2.76254E-05
 -1     18431 2.85559E-05 3.62837E-04-3.05691E-05
 -1     18435 2.85559E-05 3.62837E-04-3.35128E-05
 -1     18439 2.85559E-05 3.62837E-04-3.64565E-05
 -1     18445 3.63641E-04 5.75951E-05-8.49116E-06
 -1     18446 3.66720E-04 2.88615E-05-9.96302E-06
 -1     18447 3.61639E-04 5.72779E-05-9.96302E-06
 -1     18452 3.63641E-04 5.75951E-05-1.14349E-05
 -1     18453 3.66720E-04 2.88615E-05-1.29067E-05
 -1     18454 3.61639E-04 5.72779E-05-1.29067E-05
 -1     18459 3.63641E-04 5.75951E-05-1.43786E-05
 -1     18460 3.66720E-04 2.88615E-05-1.58505E-05
 -1     18461 3.61639E-04 5.72779E-05-1.58505E-05
 -1     18466 3.63641E-04 5.75951E-05-1.73223E-05
 -1     18467 3.66720E-04 2.88615E-05-1.87942E-05
 -1     18468 3.61639E-04 5.72779E-05-1.87942E-05
 -1     18473 3.63641E-04 5.75951E-05-2.02661E-05
 -1     18474 3.66720E-04 2.88615E-05-2.17379E-05
 -1     18475 3.61639E-04 5.72779E-05-2.17379E-05
 -1     18480 3.63641E-04 5.75951E-05-2.32098E-05
 -1     18481 3.66720E-04 2.88615E-05-2.46816E-05
 -1     18482 3.61639E-04 5.72779E-05-2.46816E-05
 -1     18487 3.63641E-04 5.75951E-05-2.61535E-05
 -1     18488 3.66720E-04 2.88615E-05-2.76254E-05
 -1     18489 3.61639E-04 5.72779E-05-2.76254E-05
 -1     18494 3.63641E-04 5.75951E-05-2.90972E-05
 -1     18495 3.66720E-04 2.88615E-05-3.05691E-05
 -1     18496 3.61639E-04 5.72779E-05-3.05691E-05
 -1     18501 3.63641E-04 5.75951E-05-3.20409E-05
 -1     18502 3.66720E-04 2.88615E-05-3.35128E-05
 -1     18503 3.61639E-04 5.72779E-05-3.35128E-05
 -1     18508 3.63641E-04 5.75951E-05-3.49847E-05
 -1     18509 3.66720E-04 2.88615E-05-3.64565E-05
 -1     18510 3.61639E-04 5.72779E-05-3.64565E-05
 -1     18515 3.63641E-04 5.75951E-05-3.79284E-05
 -1     18519 3.50154E-04 1.13772E-04-8.49116E-06
 -1     18520 3.57690E-04 8.58739E-05-9.96302E-06
 -1     18521 3.48226E-04 1.13146E-04-9.96302E-06
 -1     18526 3.50154E-04 1.13772E-04-1.14349E-05
 -1     18527 3.57690E-04 8.58739E-05-1.29067E-05
 -1     18528 3.48226E-04 1.13146E-04-1.29067E-05
 -1     18533 3.50154E-04 1.13772E-04-1.43786E-05
 -1     18534 3.57690E-04 8.58739E-05-1.58505E-05
 -1     18535 3.48226E-04 1.13146E-04-1.58505E-05
 -1     18540 3.50154E-04 1.13772E-04-1.73223E-05
 -1     18541 3.57690E-04 8.58739E-05-1.87942E-05
 -1     18542 3.48226E-04 1.13146E-04-1.87942E-05
 -1     18547 3.50154E-04 1.13772E-04-2.02661E-05
 -1     18548 3.57690E-04 8.58739E-05-2.17379E-05
 -1     18549 3.48226E-04 1.13146E-04-2.17379E-05
 -1     18554 3.50154E-04 1.13772E-04-2.32098E-05
 -1     18555 3.57690E-04 8.58739E-05-2.46816E-05
 -1     18556 3.48226E-04 1.13146E-04-2.46816E-05
 -1     18561 3.50154E-04 1.13772E-04-2.61535E-05
 -1     18562 3.57690E-04 8.58739E-05-2.76254E-05
 -1     18563 3.48226E-04 1.13146E-04-2.76254E-05
 -1     18568 3.50154E-04 1.13772E-04-2.90972E-05
 -1     18569 3.57690E-04 8.58739E-05-3.05691E-05
 -1     18570 3.48226E-04 1.13146E-04-3.05691E-05
 -1     18575 3.50154E-04 1.13772E-04-3.20409E-05
 -1     18576 3.57690E-04 8.58739E-05-3.35128E-05
 -1     18577 3.48226E-04 1.13146E-04-3.35128E-05
 -1     18582 3.50154E-04 1.13772E-04-3.49847E-05
 -1     18583 3.57690E-04 8.58739E-05-3.64565E-05
 -1     18584 3.48226E-04 1.13146E-04-3.64565E-05
 -1     18589 3.50154E-04 1.13772E-04-3.79284E-05
 -1     18593 3.28045E-04 1.67147E-04-8.49116E-06
 -1     18594 3.39853E-04 1.40772E-04-9.96302E-06
 -1     18595 3.26239E-04 1.66227E-04-9.96302E-06
 -1     18600 3.28045E-04 1.67147E-04-1.14349E-05
 -1     18601 3.39853E-04 1.40772E-04-1.29067E-05
 -1     18602 3.26239E-04 1.66227E-04-1.29067E-05
 -1     18607 3.28045E-04 1.67147E-04-1.43786E-05
 -1     18608 3.39853E-04 1.40772E-04-1.58505E-05
 -1     18609 3.26239E-04 1.66227E-04-1.58505E-05
 -1     18614 3.28045E-04 1.67147E-04-1.73223E-05
 -1     18615 3.39853E-04 1.40772E-04-1.87942E-05
 -1     18616 3.26239E-04 1.66227E-04-1.87942E-05
 -1     18621 3.28045E-04 1.67147E-04-2.02661E-05
 -1     18622 3.39853E-04 1.40772E-04-2.17379E-05
 -1     18623 3.26239E-04 1.66227E-04-2.17379E-05
 -1     18628 3.28045E-04 1.67147E-04-2.32098E-05
 -1     18629 3.39853E-04 1.40772E-04-2.46816E-05
 -1     18630 3.26239E-04 1.66227E-04-2.46816E-05
 -1     18635 3.28045E-04 1.67147E-04-2.61535E-05
 -1     18636 3.39853E-04 1.40772E-04-2.76254E-05
 -1     18637 3.26239E-04 1.66227E-04-2.76254E-05
 -1     18642 3.28045E-04 1.67147E-04-2.90972E-05
 -1     18643 3.39853E-04 1.40772E-04-3.05691E-05
 -1     18644 3.26239E-04 1.66227E-04-3.05691E-05
 -1     18649 3.28045E-04 1.67147E-04-3.20409E-05
 -1     18650 3.39853E-04 1.40772E-04-3.35128E-05
 -1     18651 3.26239E-04 1.66227E-04-3.35128E-05
 -1     18656 3.28045E-04 1.67147E-04-3.49847E-05
 -1     18657 3.39853E-04 1.40772E-04-3.64565E-05
 -1     18658 3.26239E-04 1.66227E-04-3.64565E-05
 -1     18663 3.28045E-04 1.67147E-04-3.79284E-05
 -1     18667 2.97859E-04 2.16407E-04-8.49116E-06
 -1     18668 3.13647E-04 1.92203E-04-9.96302E-06
 -1     18669 2.96219E-04 2.15216E-04-9.96302E-06
 -1     18674 2.97859E-04 2.16407E-04-1.14349E-05
 -1     18675 3.13647E-04 1.92203E-04-1.29067E-05
 -1     18676 2.96219E-04 2.15216E-04-1.29067E-05
 -1     18681 2.97859E-04 2.16407E-04-1.43786E-05
 -1     18682 3.13647E-04 1.92203E-04-1.58505E-05
 -1     18683 2.96219E-04 2.15216E-04-1.58505E-05
 -1     18688 2.97859E-04 2.16407E-04-1.73223E-05
 -1     18689 3.13647E-04 1.92203E-04-1.87942E-05
 -1     18690 2.96219E-04 2.15216E-04-1.87942E-05
 -1     18695 2.97859E-04 2.16407E-04-2.02661E-05
 -1     18696 3.13647E-04 1.92203E-04-2.17379E-05
 -1     18697 2.96219E-04 2.15216E-04-2.17379E-05
 -1     18702 2.97859E-04 2.16407E-04-2.32098E-05
 -1     18703 3.13647E-04 1.92203E-04-2.46816E-05
 -1     18704 2.96219E-04 2.15216E-04-2.46816E-05
 -1     18709 2.97859E-04 2.16407E-04-2.61535E-05
 -1     18710 3.13647E-04 1.92203E-04-2.76254E-05
 -1     18711 2.96219E-04 2.15216E-04-2.76254E-05
 -1     18716 2.97859E-04 2.16407E-04-2.90972E-05
 -1     18717 3.13647E-04 1.92203E-04-3.05691E-05
 -1     18718 2.96219E-04 2.15216E-04-3.05691E-05
 -1     18723 2.97859E-04 2.16407E-04-3.20409E-05
 -1     18724 3.13647E-04 1.92203E-04-3.35128E-05
 -1     18725 2.96219E-04 2.15216E-04-3.35128E-05
 -1     18730 2.97859E-04 2.16407E-04-3.49847E-05
 -1     18731 3.13647E-04 1.92203E-04-3.64565E-05
 -1     18732 2.96219E-04 2.15216E-04-3.64565E-05
 -1     18737 2.97859E-04 2.16407E-04-3.79284E-05
 -1     18741 2.60338E-04 2.60338E-04-8.49116E-06
 -1     18742 2.79719E-04 2.38902E-04-9.96302E-06
 -1     18743 2.58905E-04 2.58905E-04-9.96302E-06
 -1     18748 2.60338E-04 2.60338E-04-1.14349E-05
 -1     18749 2.79719E-04 2.38902E-04-1.29067E-05
 -1     18750 2.58905E-04 2.58905E-04-1.29067E-05
 -1     18755 2.60338E-04 2.60338E-04-1.43786E-05
 -1     18756 2.79719E-04 2.38902E-04-1.58505E-05
 -1     18757 2.58905E-04 2.58905E-04-1.58505E-05
 -1     18762 2.60338E-04 2.60338E-04-1.73223E-05
 -1     18763 2.79719E-04 2.38902E-04-1.87942E-05
 -1     18764 2.58905E-04 2.58905E-04-1.87942E-05
 -1     18769 2.60338E-04 2.60338E-04-2.02661E-05
 -1     18770 2.79719E-04 2.38902E-04-2.17379E-05
 -1     18771 2.58905E-04 2.58905E-04-2.17379E-05
 -1     18776 2.60338E-04 2.60338E-04-2.32098E-05
 -1     18777 2.79719E-04 2.38902E-04-2.46816E-05
 -1     18778 2.58905E-04 2.58905E-04-2.46816E-05
 -1     18783 2.60338E-04 2.60338E-04-2.61535E-05
 -1     18784 2.79719E-04 2.38902E-04-2.76254E-05
 -1     18785 2.58905E-04 2.58905E-04-2.76254E-05
 -1     18790 2.60338E-04 2.60338E-04-2.90972E-05
 -1     18791 2.79719E-04 2.38902E-04-3.05691E-05
 -1     18792 2.58905E-04 2.58905E-04-3.05691E-05
 -1     18797 2.60338E-04 2.60338E-04-3.20409E-05
 -1     18798 2.79719E-04 2.38902E-04-3.35128E-05
 -1     18799 2.58905E-04 2.58905E-04-3.35128E-05
 -1     18804 2.60338E-04 2.60338E-04-3.49847E-05
 -1     18805 2.79719E-04 2.38902E-04-3.64565E-05
 -1     18806 2.58905E-04 2.58905E-04-3.64565E-05
 -1     18811 2.60338E-04 2.60338E-04-3.79284E-05
 -1     18815 2.16407E-04 2.97859E-04-8.49116E-06
 -1     18816 2.38902E-04 2.79719E-04-9.96302E-06
 -1     18817 2.15216E-04 2.96219E-04-9.96302E-06
 -1     18822 2.16407E-04 2.97859E-04-1.14349E-05
 -1     18823 2.38902E-04 2.79719E-04-1.29067E-05
 -1     18824 2.15216E-04 2.96219E-04-1.29067E-05
 -1     18829 2.16407E-04 2.97859E-04-1.43786E-05
 -1     18830 2.38902E-04 2.79719E-04-1.58505E-05
 -1     18831 2.15216E-04 2.96219E-04-1.58505E-05
 -1     18836 2.16407E-04 2.97859E-04-1.73223E-05
 -1     18837 2.38902E-04 2.79719E-04-1.87942E-05
 -1     18838 2.15216E-04 2.96219E-04-1.87942E-05
 -1     18843 2.16407E-04 2.97859E-04-2.02661E-05
 -1     18844 2.38902E-04 2.79719E-04-2.17379E-05
 -1     18845 2.15216E-04 2.96219E-04-2.17379E-05
 -1     18850 2.16407E-04 2.97859E-04-2.32098E-05
 -1     18851 2.38902E-04 2.79719E-04-2.46816E-05
 -1     18852 2.15216E-04 2.96219E-04-2.46816E-05
 -1     18857 2.16407E-04 2.97859E-04-2.61535E-05
 -1     18858 2.38902E-04 2.79719E-04-2.76254E-05
 -1     18859 2.15216E-04 2.96219E-04-2.76254E-05
 -1     18864 2.16407E-04 2.97859E-04-2.90972E-05
 -1     18865 2.38902E-04 2.79719E-04-3.05691E-05
 -1     18866 2.15216E-04 2.96219E-04-3.05691E-05
 -1     18871 2.16407E-04 2.97859E-04-3.20409E-05
 -1     18872 2.38902E-04 2.79719E-04-3.35128E-05
 -1     18873 2.15216E-04 2.96219E-04-3.35128E-05
 -1     18878 2.16407E-04 2.97859E-04-3.49847E-05
 -1     18879 2.38902E-04 2.79719E-04-3.64565E-05
 -1     18880 2.15216E-04 2.96219E-04-3.64565E-05
 -1     18885 2.16407E-04 2.97859E-04-3.79284E-05
 -1     18889 1.67147E-04 3.28045E-04-8.49116E-06
 -1     18890 1.92203E-04 3.13647E-04-9.96302E-06
 -1     18891 1.66227E-04 3.26239E-04-9.96302E-06
 -1     18896 1.67147E-04 3.28045E-04-1.14349E-05
 -1     18897 1.92203E-04 3.13647E-04-1.29067E-05
 -1     18898 1.66227E-04 3.26239E-04-1.29067E-05
 -1     18903 1.67147E-04 3.28045E-04-1.43786E-05
 -1     18904 1.92203E-04 3.13647E-04-1.58505E-05
 -1     18905 1.66227E-04 3.26239E-04-1.58505E-05
 -1     18910 1.67147E-04 3.28045E-04-1.73223E-05
 -1     18911 1.92203E-04 3.13647E-04-1.87942E-05
 -1     18912 1.66227E-04 3.26239E-04-1.87942E-05
 -1     18917 1.67147E-04 3.28045E-04-2.02661E-05
 -1     18918 1.92203E-04 3.13647E-04-2.17379E-05
 -1     18919 1.66227E-04 3.26239E-04-2.17379E-05
 -1     18924 1.67147E-04 3.28045E-04-2.32098E-05
 -1     18925 1.92203E-04 3.13647E-04-2.46816E-05
 -1     18926 1.66227E-04 3.26239E-04-2.46816E-05
 -1     18931 1.67147E-04 3.28045E-04-2.61535E-05
 -1     18932 1.92203E-04 3.13647E-04-2.76254E-05
 -1     18933 1.66227E-04 3.26239E-04-2.76254E-05
 -1     18938 1.67147E-04 3.28045E-04-2.90972E-05
 -1     18939 1.92203E-04 3.13647E-04-3.05691E-05
 -1     18940 1.66227E-04 3.26239E-04-3.05691E-05
 -1     18945 1.67147E-04 3.28045E-04-3.20409E-05
 -1     18946 1.92203E-04 3.13647E-04-3.35128E-05
 -1     18947 1.66227E-04 3.26239E-04-3.35128E-05
 -1     18952 1.67147E-04 3.28045E-04-3.49847E-05
 -1     18953 1.92203E-04 3.13647E-04-3.64565E-05
 -1     18954 1.66227E-04 3.26239E-04-3.64565E-05
 -1     18959 1.67147E-04 3.28045E-04-3.79284E-05
 -1     18963 1.13772E-04 3.50154E-04-8.49116E-06
 -1     18964 1.40772E-04 3.39853E-04-9.96302E-06
 -1     18965 1.13146E-04 3.48226E-04-9.96302E-06
 -1     18970 1.13772E-04 3.50154E-04-1.14349E-05
 -1     18971 1.40772E-04 3.39853E-04-1.29067E-05
 -1     18972 1.13146E-04 3.48226E-04-1.29067E-05
 -1     18977 1.13772E-04 3.50154E-04-1.43786E-05
 -1     18978 1.40772E-04 3.39853E-04-1.58505E-05
 -1     18979 1.13146E-04 3.48226E-04-1.58505E-05
 -1     18984 1.13772E-04 3.50154E-04-1.73223E-05
 -1     18985 1.40772E-04 3.39853E-04-1.87942E-05
 -1     18986 1.13146E-04 3.48226E-04-1.87942E-05
 -1     18991 1.13772E-04 3.50154E-04-2.02661E-05
 -1     18992 1.40772E-04 3.39853E-04-2.17379E-05
 -1     18993 1.13146E-04 3.48226E-04-2.17379E-05
 -1     18998 1.13772E-04 3.50154E-04-2.32098E-05
 -1     18999 1.40772E-04 3.39853E-04-2.46816E-05
 -1     19000 1.13146E-04 3.48226E-04-2.46816E-05
 -1     19005 1.13772E-04 3.50154E-04-2.61535E-05
 -1     19006 1.40772E-04 3.39853E-04-2.76254E-05
 -1     19007 1.13146E-04 3.48226E-04-2.76254E-05
 -1     19012 1.13772E-04 3.50154E-04-2.90972E-05
 -1     19013 1.40772E-04 3.39853E-04-3.05691E-05
 -1     19014 1.13146E-04 3.48226E-04-3.05691E-05
 -1     19019 1.13772E-04 3.50154E-04-3.20409E-05
 -1     19020 1.40772E-04 3.39853E-04-3.35128E-05
 -1     19021 1.13146E-04 3.48226E-04-3.35128E-05
 -1     19026 1.13772E-04 3.50154E-04-3.49847E-05
 -1     19027 1.40772E-04 3.39853E-04-3.64565E-05
 -1     19028 1.13146E-04 3.48226E-04-3.64565E-05
 -1     19033 1.13772E-04 3.50154E-04-3.79284E-05
 -1     19037 5.75951E-05 3.63641E-04-8.49116E-06
 -1     19038 8.58739E-05 3.57690E-04-9.96302E-06
 -1     19039 5.72779E-05 3.61639E-04-9.96302E-06
 -1     19044 5.75951E-05 3.63641E-04-1.14349E-05
 -1     19045 8.58739E-05 3.57690E-04-1.29067E-05
 -1     19046 5.72779E-05 3.61639E-04-1.29067E-05
 -1     19051 5.75951E-05 3.63641E-04-1.43786E-05
 -1     19052 8.58739E-05 3.57690E-04-1.58505E-05
 -1     19053 5.72779E-05 3.61639E-04-1.58505E-05
 -1     19058 5.75951E-05 3.63641E-04-1.73223E-05
 -1     19059 8.58739E-05 3.57690E-04-1.87942E-05
 -1     19060 5.72779E-05 3.61639E-04-1.87942E-05
 -1     19065 5.75951E-05 3.63641E-04-2.02661E-05
 -1     19066 8.58739E-05 3.57690E-04-2.17379E-05
 -1     19067 5.72779E-05 3.61639E-04-2.17379E-05
 -1     19072 5.75951E-05 3.63641E-04-2.32098E-05
 -1     19073 8.58739E-05 3.57690E-04-2.46816E-05
 -1     19074 5.72779E-05 3.61639E-04-2.46816E-05
 -1     19079 5.75951E-05 3.63641E-04-2.61535E-05
 -1     19080 8.58739E-05 3.57690E-04-2.76254E-05
 -1     19081 5.72779E-05 3.61639E-04-2.76254E-05
 -1     19086 5.75951E-05 3.63641E-04-2.90972E-05
 -1     19087 8.58739E-05 3.57690E-04-3.05691E-05
 -1     19088 5.72779E-05 3.61639E-04-3.05691E-05
 -1     19093 5.75951E-05 3.63641E-04-3.20409E-05
 -1     19094 8.58739E-05 3.57690E-04-3.35128E-05
 -1     19095 5.72779E-05 3.61639E-04-3.35128E-05
 -1     19100 5.75951E-05 3.63641E-04-3.49847E-05
 -1     19101 8.58739E-05 3.57690E-04-3.64565E-05
 -1     19102 5.72779E-05 3.61639E-04-3.64565E-05
 -1     19107 5.75951E-05 3.63641E-04-3.79284E-05
 -1     19111 2.88615E-05 3.66720E-04-9.96302E-06
 -1     19115 2.88615E-05 3.66720E-04-1.29067E-05
 -1     19119 2.88615E-05 3.66720E-04-1.58505E-05
 -1     19123 2.88615E-05 3.66720E-04-1.87942E-05
 -1     19127 2.88615E-05 3.66720E-04-2.17379E-05
 -1     19131 2.88615E-05 3.66720E-04-2.46816E-05
 -1     19135 2.88615E-05 3.66720E-04-2.76254E-05
 -1     19139 2.88615E-05 3.66720E-04-3.05691E-05
 -1     19143 2.88615E-05 3.66720E-04-3.35128E-05
 -1     19147 2.88615E-05 3.66720E-04-3.64565E-05
 -1     19153 3.67952E-04 5.82779E-05-8.49116E-06
 -1     19154 3.71027E-04 2.92005E-05-9.96302E-06
 -1     19155 3.65747E-04 5.79287E-05-9.96302E-06
 -1     19160 3.67952E-04 5.82779E-05-1.14349E-05
 -1     19161 3.71027E-04 2.92005E-05-1.29067E-05
 -1     19162 3.65747E-04 5.79287E-05-1.29067E-05
 -1     19167 3.67952E-04 5.82779E-05-1.43786E-05
 -1     19168 3.71027E-04 2.92005E-05-1.58505E-05
 -1     19169 3.65747E-04 5.79287E-05-1.58505E-05
 -1     19174 3.67952E-04 5.82779E-05-1.73223E-05
 -1     19175 3.71027E-04 2.92005E-05-1.87942E-05
 -1     19176 3.65747E-04 5.79287E-05-1.87942E-05
 -1     19181 3.67952E-04 5.82779E-05-2.02661E-05
 -1     19182 3.71027E-04 2.92005E-05-2.17379E-05
 -1     19183 3.65747E-04 5.79287E-05-2.17379E-05
 -1     19188 3.67952E-04 5.82779E-05-2.32098E-05
 -1     19189 3.71027E-04 2.92005E-05-2.46816E-05
 -1     19190 3.65747E-04 5.79287E-05-2.46816E-05
 -1     19195 3.67952E-04 5.82779E-05-2.61535E-05
 -1     19196 3.71027E-04 2.92005E-05-2.76254E-05
 -1     19197 3.65747E-04 5.79287E-05-2.76254E-05
 -1     19202 3.67952E-04 5.82779E-05-2.90972E-05
 -1     19203 3.71027E-04 2.92005E-05-3.05691E-05
 -1     19204 3.65747E-04 5.79287E-05-3.05691E-05
 -1     19209 3.67952E-04 5.82779E-05-3.20409E-05
 -1     19210 3.71027E-04 2.92005E-05-3.35128E-05
 -1     19211 3.65747E-04 5.79287E-05-3.35128E-05
 -1     19216 3.67952E-04 5.82779E-05-3.49847E-05
 -1     19217 3.71027E-04 2.92005E-05-3.64565E-05
 -1     19218 3.65747E-04 5.79287E-05-3.64565E-05
 -1     19223 3.67952E-04 5.82779E-05-3.79284E-05
 -1     19227 3.54306E-04 1.15121E-04-8.49116E-06
 -1     19228 3.61891E-04 8.68824E-05-9.96302E-06
 -1     19229 3.52182E-04 1.14431E-04-9.96302E-06
 -1     19234 3.54306E-04 1.15121E-04-1.14349E-05
 -1     19235 3.61891E-04 8.68824E-05-1.29067E-05
 -1     19236 3.52182E-04 1.14431E-04-1.29067E-05
 -1     19241 3.54306E-04 1.15121E-04-1.43786E-05
 -1     19242 3.61891E-04 8.68824E-05-1.58505E-05
 -1     19243 3.52182E-04 1.14431E-04-1.58505E-05
 -1     19248 3.54306E-04 1.15121E-04-1.73223E-05
 -1     19249 3.61891E-04 8.68824E-05-1.87942E-05
 -1     19250 3.52182E-04 1.14431E-04-1.87942E-05
 -1     19255 3.54306E-04 1.15121E-04-2.02661E-05
 -1     19256 3.61891E-04 8.68824E-05-2.17379E-05
 -1     19257 3.52182E-04 1.14431E-04-2.17379E-05
 -1     19262 3.54306E-04 1.15121E-04-2.32098E-05
 -1     19263 3.61891E-04 8.68824E-05-2.46816E-05
 -1     19264 3.52182E-04 1.14431E-04-2.46816E-05
 -1     19269 3.54306E-04 1.15121E-04-2.61535E-05
 -1     19270 3.61891E-04 8.68824E-05-2.76254E-05
 -1     19271 3.52182E-04 1.14431E-04-2.76254E-05
 -1     19276 3.54306E-04 1.15121E-04-2.90972E-05
 -1     19277 3.61891E-04 8.68824E-05-3.05691E-05
 -1     19278 3.52182E-04 1.14431E-04-3.05691E-05
 -1     19283 3.54306E-04 1.15121E-04-3.20409E-05
 -1     19284 3.61891E-04 8.68824E-05-3.35128E-05
 -1     19285 3.52182E-04 1.14431E-04-3.35128E-05
 -1     19290 3.54306E-04 1.15121E-04-3.49847E-05
 -1     19291 3.61891E-04 8.68824E-05-3.64565E-05
 -1     19292 3.52182E-04 1.14431E-04-3.64565E-05
 -1     19297 3.54306E-04 1.15121E-04-3.79284E-05
 -1     19301 3.31935E-04 1.69129E-04-8.49116E-06
 -1     19302 3.43844E-04 1.42425E-04-9.96302E-06
 -1     19303 3.29945E-04 1.68116E-04-9.96302E-06
 -1     19308 3.31935E-04 1.69129E-04-1.14349E-05
 -1     19309 3.43844E-04 1.42425E-04-1.29067E-05
 -1     19310 3.29945E-04 1.68116E-04-1.29067E-05
 -1     19315 3.31935E-04 1.69129E-04-1.43786E-05
 -1     19316 3.43844E-04 1.42425E-04-1.58505E-05
 -1     19317 3.29945E-04 1.68116E-04-1.58505E-05
 -1     19322 3.31935E-04 1.69129E-04-1.73223E-05
 -1     19323 3.43844E-04 1.42425E-04-1.87942E-05
 -1     19324 3.29945E-04 1.68116E-04-1.87942E-05
 -1     19329 3.31935E-04 1.69129E-04-2.02661E-05
 -1     19330 3.43844E-04 1.42425E-04-2.17379E-05
 -1     19331 3.29945E-04 1.68116E-04-2.17379E-05
 -1     19336 3.31935E-04 1.69129E-04-2.32098E-05
 -1     19337 3.43844E-04 1.42425E-04-2.46816E-05
 -1     19338 3.29945E-04 1.68116E-04-2.46816E-05
 -1     19343 3.31935E-04 1.69129E-04-2.61535E-05
 -1     19344 3.43844E-04 1.42425E-04-2.76254E-05
 -1     19345 3.29945E-04 1.68116E-04-2.76254E-05
 -1     19350 3.31935E-04 1.69129E-04-2.90972E-05
 -1     19351 3.43844E-04 1.42425E-04-3.05691E-05
 -1     19352 3.29945E-04 1.68116E-04-3.05691E-05
 -1     19357 3.31935E-04 1.69129E-04-3.20409E-05
 -1     19358 3.43844E-04 1.42425E-04-3.35128E-05
 -1     19359 3.29945E-04 1.68116E-04-3.35128E-05
 -1     19364 3.31935E-04 1.69129E-04-3.49847E-05
 -1     19365 3.43844E-04 1.42425E-04-3.64565E-05
 -1     19366 3.29945E-04 1.68116E-04-3.64565E-05
 -1     19371 3.31935E-04 1.69129E-04-3.79284E-05
 -1     19375 3.01390E-04 2.18973E-04-8.49116E-06
 -1     19376 3.17331E-04 1.94461E-04-9.96302E-06
 -1     19377 2.99584E-04 2.17661E-04-9.96302E-06
 -1     19382 3.01390E-04 2.18973E-04-1.14349E-05
 -1     19383 3.17331E-04 1.94461E-04-1.29067E-05
 -1     19384 2.99584E-04 2.17661E-04-1.29067E-05
 -1     19389 3.01390E-04 2.18973E-04-1.43786E-05
 -1     19390 3.17331E-04 1.94461E-04-1.58505E-05
 -1     19391 2.99584E-04 2.17661E-04-1.58505E-05
 -1     19396 3.01390E-04 2.18973E-04-1.73223E-05
 -1     19397 3.17331E-04 1.94461E-04-1.87942E-05
 -1     19398 2.99584E-04 2.17661E-04-1.87942E-05
 -1     19403 3.01390E-04 2.18973E-04-2.02661E-05
 -1     19404 3.17331E-04 1.94461E-04-2.17379E-05
 -1     19405 2.99584E-04 2.17661E-04-2.17379E-05
 -1     19410 3.01390E-04 2.18973E-04-2.32098E-05
 -1     19411 3.17331E-04 1.94461E-04-2.46816E-05
 -1     19412 2.99584E-04 2.17661E-04-2.46816E-05
 -1     19417 3.01390E-04 2.18973E-04-2.61535E-05
 -1     19418 3.17331E-04 1.94461E-04-2.76254E-05
 -1     19419 2.99584E-04 2.17661E-04-2.76254E-05
 -1     19424 3.01390E-04 2.18973E-04-2.90972E-05
 -1     19425 3.17331E-04 1.94461E-04-3.05691E-05
 -1     19426 2.99584E-04 2.17661E-04-3.05691E-05
 -1     19431 3.01390E-04 2.18973E-04-3.20409E-05
 -1     19432 3.17331E-04 1.94461E-04-3.35128E-05
 -1     19433 2.99584E-04 2.17661E-04-3.35128E-05
 -1     19438 3.01390E-04 2.18973E-04-3.49847E-05
 -1     19439 3.17331E-04 1.94461E-04-3.64565E-05
 -1     19440 2.99584E-04 2.17661E-04-3.64565E-05
 -1     19445 3.01390E-04 2.18973E-04-3.79284E-05
 -1     19449 2.63425E-04 2.63425E-04-8.49116E-06
 -1     19450 2.83004E-04 2.41708E-04-9.96302E-06
 -1     19451 2.61846E-04 2.61846E-04-9.96302E-06
 -1     19456 2.63425E-04 2.63425E-04-1.14349E-05
 -1     19457 2.83004E-04 2.41708E-04-1.29067E-05
 -1     19458 2.61846E-04 2.61846E-04-1.29067E-05
 -1     19463 2.63425E-04 2.63425E-04-1.43786E-05
 -1     19464 2.83004E-04 2.41708E-04-1.58505E-05
 -1     19465 2.61846E-04 2.61846E-04-1.58505E-05
 -1     19470 2.63425E-04 2.63425E-04-1.73223E-05
 -1     19471 2.83004E-04 2.41708E-04-1.87942E-05
 -1     19472 2.61846E-04 2.61846E-04-1.87942E-05
 -1     19477 2.63425E-04 2.63425E-04-2.02661E-05
 -1     19478 2.83004E-04 2.41708E-04-2.17379E-05
 -1     19479 2.61846E-04 2.61846E-04-2.17379E-05
 -1     19484 2.63425E-04 2.63425E-04-2.32098E-05
 -1     19485 2.83004E-04 2.41708E-04-2.46816E-05
 -1     19486 2.61846E-04 2.61846E-04-2.46816E-05
 -1     19491 2.63425E-04 2.63425E-04-2.61535E-05
 -1     19492 2.83004E-04 2.41708E-04-2.76254E-05
 -1     19493 2.61846E-04 2.61846E-04-2.76254E-05
 -1     19498 2.63425E-04 2.63425E-04-2.90972E-05
 -1     19499 2.83004E-04 2.41708E-04-3.05691E-05
 -1     19500 2.61846E-04 2.61846E-04-3.05691E-05
 -1     19505 2.63425E-04 2.63425E-04-3.20409E-05
 -1     19506 2.83004E-04 2.41708E-04-3.35128E-05
 -1     19507 2.61846E-04 2.61846E-04-3.35128E-05
 -1     19512 2.63425E-04 2.63425E-04-3.49847E-05
 -1     19513 2.83004E-04 2.41708E-04-3.64565E-05
 -1     19514 2.61846E-04 2.61846E-04-3.64565E-05
 -1     19519 2.63425E-04 2.63425E-04-3.79284E-05
 -1     19523 2.18973E-04 3.01390E-04-8.49116E-06
 -1     19524 2.41708E-04 2.83004E-04-9.96302E-06
 -1     19525 2.17661E-04 2.99584E-04-9.96302E-06
 -1     19530 2.18973E-04 3.01390E-04-1.14349E-05
 -1     19531 2.41708E-04 2.83004E-04-1.29067E-05
 -1     19532 2.17661E-04 2.99584E-04-1.29067E-05
 -1     19537 2.18973E-04 3.01390E-04-1.43786E-05
 -1     19538 2.41708E-04 2.83004E-04-1.58505E-05
 -1     19539 2.17661E-04 2.99584E-04-1.58505E-05
 -1     19544 2.18973E-04 3.01390E-04-1.73223E-05
 -1     19545 2.41708E-04 2.83004E-04-1.87942E-05
 -1     19546 2.17661E-04 2.99584E-04-1.87942E-05
 -1     19551 2.18973E-04 3.01390E-04-2.02661E-05
 -1     19552 2.41708E-04 2.83004E-04-2.17379E-05
 -1     19553 2.17661E-04 2.99584E-04-2.17379E-05
 -1     19558 2.18973E-04 3.01390E-04-2.32098E-05
 -1     19559 2.41708E-04 2.83004E-04-2.46816E-05
 -1     19560 2.17661E-04 2.99584E-04-2.46816E-05
 -1     19565 2.18973E-04 3.01390E-04-2.61535E-05
 -1     19566 2.41708E-04 2.83004E-04-2.76254E-05
 -1     19567 2.17661E-04 2.99584E-04-2.76254E-05
 -1     19572 2.18973E-04 3.01390E-04-2.90972E-05
 -1     19573 2.41708E-04 2.83004E-04-3.05691E-05
 -1     19574 2.17661E-04 2.99584E-04-3.05691E-05
 -1     19579 2.18973E-04 3.01390E-04-3.20409E-05
 -1     19580 2.41708E-04 2.83004E-04-3.35128E-05
 -1     19581 2.17661E-04 2.99584E-04-3.35128E-05
 -1     19586 2.18973E-04 3.01390E-04-3.49847E-05
 -1     19587 2.41708E-04 2.83004E-04-3.64565E-05
 -1     19588 2.17661E-04 2.99584E-04-3.64565E-05
 -1     19593 2.18973E-04 3.01390E-04-3.79284E-05
 -1     19597 1.69129E-04 3.31935E-04-8.49116E-06
 -1     19598 1.94461E-04 3.17331E-04-9.96302E-06
 -1     19599 1.68116E-04 3.29945E-04-9.96302E-06
 -1     19604 1.69129E-04 3.31935E-04-1.14349E-05
 -1     19605 1.94461E-04 3.17331E-04-1.29067E-05
 -1     19606 1.68116E-04 3.29945E-04-1.29067E-05
 -1     19611 1.69129E-04 3.31935E-04-1.43786E-05
 -1     19612 1.94461E-04 3.17331E-04-1.58505E-05
 -1     19613 1.68116E-04 3.29945E-04-1.58505E-05
 -1     19618 1.69129E-04 3.31935E-04-1.73223E-05
 -1     19619 1.94461E-04 3.17331E-04-1.87942E-05
 -1     19620 1.68116E-04 3.29945E-04-1.87942E-05
 -1     19625 1.69129E-04 3.31935E-04-2.02661E-05
 -1     19626 1.94461E-04 3.17331E-04-2.17379E-05
 -1     19627 1.68116E-04 3.29945E-04-2.17379E-05
 -1     19632 1.69129E-04 3.31935E-04-2.32098E-05
 -1     19633 1.94461E-04 3.17331E-04-2.46816E-05
 -1     19634 1.68116E-04 3.29945E-04-2.46816E-05
 -1     19639 1.69129E-04 3.31935E-04-2.61535E-05
 -1     19640 1.94461E-04 3.17331E-04-2.76254E-05
 -1     19641 1.68116E-04 3.29945E-04-2.76254E-05
 -1     19646 1.69129E-04 3.31935E-04-2.90972E-05
 -1     19647 1.94461E-04 3.17331E-04-3.05691E-05
 -1     19648 1.68116E-04 3.29945E-04-3.05691E-05
 -1     19653 1.69129E-04 3.31935E-04-3.20409E-05
 -1     19654 1.94461E-04 3.17331E-04-3.35128E-05
 -1     19655 1.68116E-04 3.29945E-04-3.35128E-05
 -1     19660 1.69129E-04 3.31935E-04-3.49847E-05
 -1     19661 1.94461E-04 3.17331E-04-3.64565E-05
 -1     19662 1.68116E-04 3.29945E-04-3.64565E-05
 -1     19667 1.69129E-04 3.31935E-04-3.79284E-05
 -1     19671 1.15121E-04 3.54306E-04-8.49116E-06
 -1     19672 1.42425E-04 3.43844E-04-9.96302E-06
 -1     19673 1.14431E-04 3.52182E-04-9.96302E-06
 -1     19678 1.15121E-04 3.54306E-04-1.14349E-05
 -1     19679 1.42425E-04 3.43844E-04-1.29067E-05
 -1     19680 1.14431E-04 3.52182E-04-1.29067E-05
 -1     19685 1.15121E-04 3.54306E-04-1.43786E-05
 -1     19686 1.42425E-04 3.43844E-04-1.58505E-05
 -1     19687 1.14431E-04 3.52182E-04-1.58505E-05
 -1     19692 1.15121E-04 3.54306E-04-1.73223E-05
 -1     19693 1.42425E-04 3.43844E-04-1.87942E-05
 -1     19694 1.14431E-04 3.52182E-04-1.87942E-05
 -1     19699 1.15121E-04 3.54306E-04-2.02661E-05
 -1     19700 1.42425E-04 3.43844E-04-2.17379E-05
 -1     19701 1.14431E-04 3.52182E-04-2.17379E-05
 -1     19706 1.15121E-04 3.54306E-04-2.32098E-05
 -1     19707 1.42425E-04 3.43844E-04-2.46816E-05
 -1     19708 1.14431E-04 3.52182E-04-2.46816E-05
 -1     19713 1.15121E-04 3.54306E-04-2.61535E-05
 -1     19714 1.42425E-04 3.43844E-04-2.76254E-05
 -1     19715 1.14431E-04 3.52182E-04-2.76254E-05
 -1     19720 1.15121E-04 3.54306E-04-2.90972E-05
 -1     19721 1.42425E-04 3.43844E-04-3.05691E-05
 -1     19722 1.14431E-04 3.52182E-04-3.05691E-05
 -1     19727 1.15121E-04 3.54306E-04-3.20409E-05
 -1     19728 1.42425E-04 3.43844E-04-3.35128E-05
 -1     19729 1.14431E-04 3.52182E-04-3.35128E-05
 -1     19734 1.15121E-04 3.54306E-04-3.49847E-05
 -1     19735 1.42425E-04 3.43844E-04-3.64565E-05
 -1     19736 1.14431E-04 3.52182E-04-3.64565E-05
 -1     19741 1.15121E-04 3.54306E-04-3.79284E-05
 -1     19745 5.82779E-05 3.67952E-04-8.49116E-06
 -1     19746 8.68824E-05 3.61891E-04-9.96302E-06
 -1     19747 5.79287E-05 3.65747E-04-9.96302E-06
 -1     19752 5.82779E-05 3.67952E-04-1.14349E-05
 -1     19753 8.68824E-05 3.61891E-04-1.29067E-05
 -1     19754 5.79287E-05 3.65747E-04-1.29067E-05
 -1     19759 5.82779E-05 3.67952E-04-1.43786E-05
 -1     19760 8.68824E-05 3.61891E-04-1.58505E-05
 -1     19761 5.79287E-05 3.65747E-04-1.58505E-05
 -1     19766 5.82779E-05 3.67952E-04-1.73223E-05
 -1     19767 8.68824E-05 3.61891E-04-1.87942E-05
 -1     19768 5.79287E-05 3.65747E-04-1.87942E-05
 -1     19773 5.82779E-05 3.67952E-04-2.02661E-05
 -1     19774 8.68824E-05 3.61891E-04-2.17379E-05
 -1     19775 5.79287E-05 3.65747E-04-2.17379E-05
 -1     19780 5.82779E-05 3.67952E-04-2.32098E-05
 -1     19781 8.68824E-05 3.61891E-04-2.46816E-05
 -1     19782 5.79287E-05 3.65747E-04-2.46816E-05
 -1     19787 5.82779E-05 3.67952E-04-2.61535E-05
 -1     19788 8.68824E-05 3.61891E-04-2.76254E-05
 -1     19789 5.79287E-05 3.65747E-04-2.76254E-05
 -1     19794 5.82779E-05 3.67952E-04-2.90972E-05
 -1     19795 8.68824E-05 3.61891E-04-3.05691E-05
 -1     19796 5.79287E-05 3.65747E-04-3.05691E-05
 -1     19801 5.82779E-05 3.67952E-04-3.20409E-05
 -1     19802 8.68824E-05 3.61891E-04-3.35128E-05
 -1     19803 5.79287E-05 3.65747E-04-3.35128E-05
 -1     19808 5.82779E-05 3.67952E-04-3.49847E-05
 -1     19809 8.68824E-05 3.61891E-04-3.64565E-05
 -1     19810 5.79287E-05 3.65747E-04-3.64565E-05
 -1     19815 5.82779E-05 3.67952E-04-3.79284E-05
 -1     19819 2.92005E-05 3.71027E-04-9.96302E-06
 -1     19823 2.92005E-05 3.71027E-04-1.29067E-05
 -1     19827 2.92005E-05 3.71027E-04-1.58505E-05
 -1     19831 2.92005E-05 3.71027E-04-1.87942E-05
 -1     19835 2.92005E-05 3.71027E-04-2.17379E-05
 -1     19839 2.92005E-05 3.71027E-04-2.46816E-05
 -1     19843 2.92005E-05 3.71027E-04-2.76254E-05
 -1     19847 2.92005E-05 3.71027E-04-3.05691E-05
 -1     19851 2.92005E-05 3.71027E-04-3.35128E-05
 -1     19855 2.92005E-05 3.71027E-04-3.64565E-05
 -1     19861 3.72635E-04 5.90196E-05-8.49116E-06
 -1     19862 3.75710E-04 2.95691E-05-9.96302E-06
 -1     19863 3.70250E-04 5.86418E-05-9.96302E-06
 -1     19868 3.72635E-04 5.90196E-05-1.14349E-05
 -1     19869 3.75710E-04 2.95691E-05-1.29067E-05
 -1     19870 3.70250E-04 5.86418E-05-1.29067E-05
 -1     19875 3.72635E-04 5.90196E-05-1.43786E-05
 -1     19876 3.75710E-04 2.95691E-05-1.58505E-05
 -1     19877 3.70250E-04 5.86418E-05-1.58505E-05
 -1     19882 3.72635E-04 5.90196E-05-1.73223E-05
 -1     19883 3.75710E-04 2.95691E-05-1.87942E-05
 -1     19884 3.70250E-04 5.86418E-05-1.87942E-05
 -1     19889 3.72635E-04 5.90196E-05-2.02661E-05
 -1     19890 3.75710E-04 2.95691E-05-2.17379E-05
 -1     19891 3.70250E-04 5.86418E-05-2.17379E-05
 -1     19896 3.72635E-04 5.90196E-05-2.32098E-05
 -1     19897 3.75710E-04 2.95691E-05-2.46816E-05
 -1     19898 3.70250E-04 5.86418E-05-2.46816E-05
 -1     19903 3.72635E-04 5.90196E-05-2.61535E-05
 -1     19904 3.75710E-04 2.95691E-05-2.76254E-05
 -1     19905 3.70250E-04 5.86418E-05-2.76254E-05
 -1     19910 3.72635E-04 5.90196E-05-2.90972E-05
 -1     19911 3.75710E-04 2.95691E-05-3.05691E-05
 -1     19912 3.70250E-04 5.86418E-05-3.05691E-05
 -1     19917 3.72635E-04 5.90196E-05-3.20409E-05
 -1     19918 3.75710E-04 2.95691E-05-3.35128E-05
 -1     19919 3.70250E-04 5.86418E-05-3.35128E-05
 -1     19924 3.72635E-04 5.90196E-05-3.49847E-05
 -1     19925 3.75710E-04 2.95691E-05-3.64565E-05
 -1     19926 3.70250E-04 5.86418E-05-3.64565E-05
 -1     19931 3.72635E-04 5.90196E-05-3.79284E-05
 -1     19935 3.58815E-04 1.16586E-04-8.49116E-06
 -1     19936 3.66459E-04 8.79791E-05-9.96302E-06
 -1     19937 3.56518E-04 1.15840E-04-9.96302E-06
 -1     19942 3.58815E-04 1.16586E-04-1.14349E-05
 -1     19943 3.66459E-04 8.79791E-05-1.29067E-05
 -1     19944 3.56518E-04 1.15840E-04-1.29067E-05
 -1     19949 3.58815E-04 1.16586E-04-1.43786E-05
 -1     19950 3.66459E-04 8.79791E-05-1.58505E-05
 -1     19951 3.56518E-04 1.15840E-04-1.58505E-05
 -1     19956 3.58815E-04 1.16586E-04-1.73223E-05
 -1     19957 3.66459E-04 8.79791E-05-1.87942E-05
 -1     19958 3.56518E-04 1.15840E-04-1.87942E-05
 -1     19963 3.58815E-04 1.16586E-04-2.02661E-05
 -1     19964 3.66459E-04 8.79791E-05-2.17379E-05
 -1     19965 3.56518E-04 1.15840E-04-2.17379E-05
 -1     19970 3.58815E-04 1.16586E-04-2.32098E-05
 -1     19971 3.66459E-04 8.79791E-05-2.46816E-05
 -1     19972 3.56518E-04 1.15840E-04-2.46816E-05
 -1     19977 3.58815E-04 1.16586E-04-2.61535E-05
 -1     19978 3.66459E-04 8.79791E-05-2.76254E-05
 -1     19979 3.56518E-04 1.15840E-04-2.76254E-05
 -1     19984 3.58815E-04 1.16586E-04-2.90972E-05
 -1     19985 3.66459E-04 8.79791E-05-3.05691E-05
 -1     19986 3.56518E-04 1.15840E-04-3.05691E-05
 -1     19991 3.58815E-04 1.16586E-04-3.20409E-05
 -1     19992 3.66459E-04 8.79791E-05-3.35128E-05
 -1     19993 3.56518E-04 1.15840E-04-3.35128E-05
 -1     19998 3.58815E-04 1.16586E-04-3.49847E-05
 -1     19999 3.66459E-04 8.79791E-05-3.64565E-05
 -1     20000 3.56518E-04 1.15840E-04-3.64565E-05
 -1     20005 3.58815E-04 1.16586E-04-3.79284E-05
 -1     20009 3.36159E-04 1.71282E-04-8.49116E-06
 -1     20010 3.48185E-04 1.44223E-04-9.96302E-06
 -1     20011 3.34007E-04 1.70185E-04-9.96302E-06
 -1     20016 3.36159E-04 1.71282E-04-1.14349E-05
 -1     20017 3.48185E-04 1.44223E-04-1.29067E-05
 -1     20018 3.34007E-04 1.70185E-04-1.29067E-05
 -1     20023 3.36159E-04 1.71282E-04-1.43786E-05
 -1     20024 3.48185E-04 1.44223E-04-1.58505E-05
 -1     20025 3.34007E-04 1.70185E-04-1.58505E-05
 -1     20030 3.36159E-04 1.71282E-04-1.73223E-05
 -1     20031 3.48185E-04 1.44223E-04-1.87942E-05
 -1     20032 3.34007E-04 1.70185E-04-1.87942E-05
 -1     20037 3.36159E-04 1.71282E-04-2.02661E-05
 -1     20038 3.48185E-04 1.44223E-04-2.17379E-05
 -1     20039 3.34007E-04 1.70185E-04-2.17379E-05
 -1     20044 3.36159E-04 1.71282E-04-2.32098E-05
 -1     20045 3.48185E-04 1.44223E-04-2.46816E-05
 -1     20046 3.34007E-04 1.70185E-04-2.46816E-05
 -1     20051 3.36159E-04 1.71282E-04-2.61535E-05
 -1     20052 3.48185E-04 1.44223E-04-2.76254E-05
 -1     20053 3.34007E-04 1.70185E-04-2.76254E-05
 -1     20058 3.36159E-04 1.71282E-04-2.90972E-05
 -1     20059 3.48185E-04 1.44223E-04-3.05691E-05
 -1     20060 3.34007E-04 1.70185E-04-3.05691E-05
 -1     20065 3.36159E-04 1.71282E-04-3.20409E-05
 -1     20066 3.48185E-04 1.44223E-04-3.35128E-05
 -1     20067 3.34007E-04 1.70185E-04-3.35128E-05
 -1     20072 3.36159E-04 1.71282E-04-3.49847E-05
 -1     20073 3.48185E-04 1.44223E-04-3.64565E-05
 -1     20074 3.34007E-04 1.70185E-04-3.64565E-05
 -1     20079 3.36159E-04 1.71282E-04-3.79284E-05
 -1     20083 3.05226E-04 2.21760E-04-8.49116E-06
 -1     20084 3.21336E-04 1.96915E-04-9.96302E-06
 -1     20085 3.03272E-04 2.20340E-04-9.96302E-06
 -1     20090 3.05226E-04 2.21760E-04-1.14349E-05
 -1     20091 3.21336E-04 1.96915E-04-1.29067E-05
 -1     20092 3.03272E-04 2.20340E-04-1.29067E-05
 -1     20097 3.05226E-04 2.21760E-04-1.43786E-05
 -1     20098 3.21336E-04 1.96915E-04-1.58505E-05
 -1     20099 3.03272E-04 2.20340E-04-1.58505E-05
 -1     20104 3.05226E-04 2.21760E-04-1.73223E-05
 -1     20105 3.21336E-04 1.96915E-04-1.87942E-05
 -1     20106 3.03272E-04 2.20340E-04-1.87942E-05
 -1     20111 3.05226E-04 2.21760E-04-2.02661E-05
 -1     20112 3.21336E-04 1.96915E-04-2.17379E-05
 -1     20113 3.03272E-04 2.20340E-04-2.17379E-05
 -1     20118 3.05226E-04 2.21760E-04-2.32098E-05
 -1     20119 3.21336E-04 1.96915E-04-2.46816E-05
 -1     20120 3.03272E-04 2.20340E-04-2.46816E-05
 -1     20125 3.05226E-04 2.21760E-04-2.61535E-05
 -1     20126 3.21336E-04 1.96915E-04-2.76254E-05
 -1     20127 3.03272E-04 2.20340E-04-2.76254E-05
 -1     20132 3.05226E-04 2.21760E-04-2.90972E-05
 -1     20133 3.21336E-04 1.96915E-04-3.05691E-05
 -1     20134 3.03272E-04 2.20340E-04-3.05691E-05
 -1     20139 3.05226E-04 2.21760E-04-3.20409E-05
 -1     20140 3.21336E-04 1.96915E-04-3.35128E-05
 -1     20141 3.03272E-04 2.20340E-04-3.35128E-05
 -1     20146 3.05226E-04 2.21760E-04-3.49847E-05
 -1     20147 3.21336E-04 1.96915E-04-3.64565E-05
 -1     20148 3.03272E-04 2.20340E-04-3.64565E-05
 -1     20153 3.05226E-04 2.21760E-04-3.79284E-05
 -1     20157 2.66777E-04 2.66777E-04-8.49116E-06
 -1     20158 2.86576E-04 2.44759E-04-9.96302E-06
 -1     20159 2.65070E-04 2.65070E-04-9.96302E-06
 -1     20164 2.66777E-04 2.66777E-04-1.14349E-05
 -1     20165 2.86576E-04 2.44759E-04-1.29067E-05
 -1     20166 2.65070E-04 2.65070E-04-1.29067E-05
 -1     20171 2.66777E-04 2.66777E-04-1.43786E-05
 -1     20172 2.86576E-04 2.44759E-04-1.58505E-05
 -1     20173 2.65070E-04 2.65070E-04-1.58505E-05
 -1     20178 2.66777E-04 2.66777E-04-1.73223E-05
 -1     20179 2.86576E-04 2.44759E-04-1.87942E-05
 -1     20180 2.65070E-04 2.65070E-04-1.87942E-05
 -1     20185 2.66777E-04 2.66777E-04-2.02661E-05
 -1     20186 2.86576E-04 2.44759E-04-2.17379E-05
 -1     20187 2.65070E-04 2.65070E-04-2.17379E-05
 -1     20192 2.66777E-04 2.66777E-04-2.32098E-05
 -1     20193 2.86576E-04 2.44759E-04-2.46816E-05
 -1     20194 2.65070E-04 2.65070E-04-2.46816E-05
 -1     20199 2.66777E-04 2.66777E-04-2.61535E-05
 -1     20200 2.86576E-04 2.44759E-04-2.76254E-05
 -1     20201 2.65070E-04 2.65070E-04-2.76254E-05
 -1     20206 2.66777E-04 2.66777E-04-2.90972E-05
 -1     20207 2.86576E-04 2.44759E-04-3.05691E-05
 -1     20208 2.65070E-04 2.65070E-04-3.05691E-05
 -1     20213 2.66777E-04 2.66777E-04-3.20409E-05
 -1     20214 2.86576E-04 2.44759E-04-3.35128E-05
 -1     20215 2.65070E-04 2.65070E-04-3.35128E-05
 -1     20220 2.66777E-04 2.66777E-04-3.49847E-05
 -1     20221 2.86576E-04 2.44759E-04-3.64565E-05
 -1     20222 2.65070E-04 2.65070E-04-3.64565E-05
 -1     20227 2.66777E-04 2.66777E-04-3.79284E-05
 -1     20231 2.21760E-04 3.05226E-04-8.49116E-06
 -1     20232 2.44759E-04 2.86576E-04-9.96302E-06
 -1     20233 2.20340E-04 3.03272E-04-9.96302E-06
 -1     20238 2.21760E-04 3.05226E-04-1.14349E-05
 -1     20239 2.44759E-04 2.86576E-04-1.29067E-05
 -1     20240 2.20340E-04 3.03272E-04-1.29067E-05
 -1     20245 2.21760E-04 3.05226E-04-1.43786E-05
 -1     20246 2.44759E-04 2.86576E-04-1.58505E-05
 -1     20247 2.20340E-04 3.03272E-04-1.58505E-05
 -1     20252 2.21760E-04 3.05226E-04-1.73223E-05
 -1     20253 2.44759E-04 2.86576E-04-1.87942E-05
 -1     20254 2.20340E-04 3.03272E-04-1.87942E-05
 -1     20259 2.21760E-04 3.05226E-04-2.02661E-05
 -1     20260 2.44759E-04 2.86576E-04-2.17379E-05
 -1     20261 2.20340E-04 3.03272E-04-2.17379E-05
 -1     20266 2.21760E-04 3.05226E-04-2.32098E-05
 -1     20267 2.44759E-04 2.86576E-04-2.46816E-05
 -1     20268 2.20340E-04 3.03272E-04-2.46816E-05
 -1     20273 2.21760E-04 3.05226E-04-2.61535E-05
 -1     20274 2.44759E-04 2.86576E-04-2.76254E-05
 -1     20275 2.20340E-04 3.03272E-04-2.76254E-05
 -1     20280 2.21760E-04 3.05226E-04-2.90972E-05
 -1     20281 2.44759E-04 2.86576E-04-3.05691E-05
 -1     20282 2.20340E-04 3.03272E-04-3.05691E-05
 -1     20287 2.21760E-04 3.05226E-04-3.20409E-05
 -1     20288 2.44759E-04 2.86576E-04-3.35128E-05
 -1     20289 2.20340E-04 3.03272E-04-3.35128E-05
 -1     20294 2.21760E-04 3.05226E-04-3.49847E-05
 -1     20295 2.44759E-04 2.86576E-04-3.64565E-05
 -1     20296 2.20340E-04 3.03272E-04-3.64565E-05
 -1     20301 2.21760E-04 3.05226E-04-3.79284E-05
 -1     20305 1.71282E-04 3.36159E-04-8.49116E-06
 -1     20306 1.96915E-04 3.21336E-04-9.96302E-06
 -1     20307 1.70185E-04 3.34007E-04-9.96302E-06
 -1     20312 1.71282E-04 3.36159E-04-1.14349E-05
 -1     20313 1.96915E-04 3.21336E-04-1.29067E-05
 -1     20314 1.70185E-04 3.34007E-04-1.29067E-05
 -1     20319 1.71282E-04 3.36159E-04-1.43786E-05
 -1     20320 1.96915E-04 3.21336E-04-1.58505E-05
 -1     20321 1.70185E-04 3.34007E-04-1.58505E-05
 -1     20326 1.71282E-04 3.36159E-04-1.73223E-05
 -1     20327 1.96915E-04 3.21336E-04-1.87942E-05
 -1     20328 1.70185E-04 3.34007E-04-1.87942E-05
 -1     20333 1.71282E-04 3.36159E-04-2.02661E-05
 -1     20334 1.96915E-04 3.21336E-04-2.17379E-05
 -1     20335 1.70185E-04 3.34007E-04-2.17379E-05
 -1     20340 1.71282E-04 3.36159E-04-2.32098E-05
 -1     20341 1.96915E-04 3.21336E-04-2.46816E-05
 -1     20342 1.70185E-04 3.34007E-04-2.46816E-05
 -1     20347 1.71282E-04 3.36159E-04-2.61535E-05
 -1     20348 1.96915E-04 3.21336E-04-2.76254E-05
 -1     20349 1.70185E-04 3.34007E-04-2.76254E-05
 -1     20354 1.71282E-04 3.36159E-04-2.90972E-05
 -1     20355 1.96915E-04 3.21336E-04-3.05691E-05
 -1     20356 1.70185E-04 3.34007E-04-3.05691E-05
 -1     20361 1.71282E-04 3.36159E-04-3.20409E-05
 -1     20362 1.96915E-04 3.21336E-04-3.35128E-05
 -1     20363 1.70185E-04 3.34007E-04-3.35128E-05
 -1     20368 1.71282E-04 3.36159E-04-3.49847E-05
 -1     20369 1.96915E-04 3.21336E-04-3.64565E-05
 -1     20370 1.70185E-04 3.34007E-04-3.64565E-05
 -1     20375 1.71282E-04 3.36159E-04-3.79284E-05
 -1     20379 1.16586E-04 3.58815E-04-8.49116E-06
 -1     20380 1.44223E-04 3.48185E-04-9.96302E-06
 -1     20381 1.15840E-04 3.56518E-04-9.96302E-06
 -1     20386 1.16586E-04 3.58815E-04-1.14349E-05
 -1     20387 1.44223E-04 3.48185E-04-1.29067E-05
 -1     20388 1.15840E-04 3.56518E-04-1.29067E-05
 -1     20393 1.16586E-04 3.58815E-04-1.43786E-05
 -1     20394 1.44223E-04 3.48185E-04-1.58505E-05
 -1     20395 1.15840E-04 3.56518E-04-1.58505E-05
 -1     20400 1.16586E-04 3.58815E-04-1.73223E-05
 -1     20401 1.44223E-04 3.48185E-04-1.87942E-05
 -1     20402 1.15840E-04 3.56518E-04-1.87942E-05
 -1     20407 1.16586E-04 3.58815E-04-2.02661E-05
 -1     20408 1.44223E-04 3.48185E-04-2.17379E-05
 -1     20409 1.15840E-04 3.56518E-04-2.17379E-05
 -1     20414 1.16586E-04 3.58815E-04-2.32098E-05
 -1     20415 1.44223E-04 3.48185E-04-2.46816E-05
 -1     20416 1.15840E-04 3.56518E-04-2.46816E-05
 -1     20421 1.16586E-04 3.58815E-04-2.61535E-05
 -1     20422 1.44223E-04 3.48185E-04-2.76254E-05
 -1     20423 1.15840E-04 3.56518E-04-2.76254E-05
 -1     20428 1.16586E-04 3.58815E-04-2.90972E-05
 -1     20429 1.44223E-04 3.48185E-04-3.05691E-05
 -1     20430 1.15840E-04 3.56518E-04-3.05691E-05
 -1     20435 1.16586E-04 3.58815E-04-3.20409E-05
 -1     20436 1.44223E-04 3.48185E-04-3.35128E-05
 -1     20437 1.15840E-04 3.56518E-04-3.35128E-05
 -1     20442 1.16586E-04 3.58815E-04-3.49847E-05
 -1     20443 1.44223E-04 3.48185E-04-3.64565E-05
 -1     20444 1.15840E-04 3.56518E-04-3.64565E-05
 -1     20449 1.16586E-04 3.58815E-04-3.79284E-05
 -1     20453 5.90196E-05 3.72635E-04-8.49116E-06
 -1     20454 8.79791E-05 3.66459E-04-9.96302E-06
 -1     20455 5.86418E-05 3.70250E-04-9.96302E-06
 -1     20460 5.90196E-05 3.72635E-04-1.14349E-05
 -1     20461 8.79791E-05 3.66459E-04-1.29067E-05
 -1     20462 5.86418E-05 3.70250E-04-1.29067E-05
 -1     20467 5.90196E-05 3.72635E-04-1.43786E-05
 -1     20468 8.79791E-05 3.66459E-04-1.58505E-05
 -1     20469 5.86418E-05 3.70250E-04-1.58505E-05
 -1     20474 5.90196E-05 3.72635E-04-1.73223E-05
 -1     20475 8.79791E-05 3.66459E-04-1.87942E-05
 -1     20476 5.86418E-05 3.70250E-04-1.87942E-05
 -1     20481 5.90196E-05 3.72635E-04-2.02661E-05
 -1     20482 8.79791E-05 3.66459E-04-2.17379E-05
 -1     20483 5.86418E-05 3.70250E-04-2.17379E-05
 -1     20488 5.90196E-05 3.72635E-04-2.32098E-05
 -1     20489 8.79791E-05 3.66459E-04-2.46816E-05
 -1     20490 5.86418E-05 3.70250E-04-2.46816E-05
 -1     20495 5.90196E-05 3.72635E-04-2.61535E-05
 -1     20496 8.79791E-05 3.66459E-04-2.76254E-05
 -1     20497 5.86418E-05 3.70250E-04-2.76254E-05
 -1     20502 5.90196E-05 3.72635E-04-2.90972E-05
 -1     20503 8.79791E-05 3.66459E-04-3.05691E-05
 -1     20504 5.86418E-05 3.70250E-04-3.05691E-05
 -1     20509 5.90196E-05 3.72635E-04-3.20409E-05
 -1     20510 8.79791E-05 3.66459E-04-3.35128E-05
 -1     20511 5.86418E-05 3.70250E-04-3.35128E-05
 -1     20516 5.90196E-05 3.72635E-04-3.49847E-05
 -1     20517 8.79791E-05 3.66459E-04-3.64565E-05
 -1     20518 5.86418E-05 3.70250E-04-3.64565E-05
 -1     20523 5.90196E-05 3.72635E-04-3.79284E-05
 -1     20527 2.95691E-05 3.75710E-04-9.96302E-06
 -1     20531 2.95691E-05 3.75710E-04-1.29067E-05
 -1     20535 2.95691E-05 3.75710E-04-1.58505E-05
 -1     20539 2.95691E-05 3.75710E-04-1.87942E-05
 -1     20543 2.95691E-05 3.75710E-04-2.17379E-05
 -1     20547 2.95691E-05 3.75710E-04-2.46816E-05
 -1     20551 2.95691E-05 3.75710E-04-2.76254E-05
 -1     20555 2.95691E-05 3.75710E-04-3.05691E-05
 -1     20559 2.95691E-05 3.75710E-04-3.35128E-05
 -1     20563 2.95691E-05 3.75710E-04-3.64565E-05
 -1     20569 3.77650E-04 5.98139E-05-8.49116E-06
 -1     20570 3.80730E-04 2.99641E-05-9.96302E-06
 -1     20571 3.75103E-04 5.94105E-05-9.96302E-06
 -1     20576 3.77650E-04 5.98139E-05-1.14349E-05
 -1     20577 3.80730E-04 2.99641E-05-1.29067E-05
 -1     20578 3.75103E-04 5.94105E-05-1.29067E-05
 -1     20583 3.77650E-04 5.98139E-05-1.43786E-05
 -1     20584 3.80730E-04 2.99641E-05-1.58505E-05
 -1     20585 3.75103E-04 5.94105E-05-1.58505E-05
 -1     20590 3.77650E-04 5.98139E-05-1.73223E-05
 -1     20591 3.80730E-04 2.99641E-05-1.87942E-05
 -1     20592 3.75103E-04 5.94105E-05-1.87942E-05
 -1     20597 3.77650E-04 5.98139E-05-2.02661E-05
 -1     20598 3.80730E-04 2.99641E-05-2.17379E-05
 -1     20599 3.75103E-04 5.94105E-05-2.17379E-05
 -1     20604 3.77650E-04 5.98139E-05-2.32098E-05
 -1     20605 3.80730E-04 2.99641E-05-2.46816E-05
 -1     20606 3.75103E-04 5.94105E-05-2.46816E-05
 -1     20611 3.77650E-04 5.98139E-05-2.61535E-05
 -1     20612 3.80730E-04 2.99641E-05-2.76254E-05
 -1     20613 3.75103E-04 5.94105E-05-2.76254E-05
 -1     20618 3.77650E-04 5.98139E-05-2.90972E-05
 -1     20619 3.80730E-04 2.99641E-05-3.05691E-05
 -1     20620 3.75103E-04 5.94105E-05-3.05691E-05
 -1     20625 3.77650E-04 5.98139E-05-3.20409E-05
 -1     20626 3.80730E-04 2.99641E-05-3.35128E-05
 -1     20627 3.75103E-04 5.94105E-05-3.35128E-05
 -1     20632 3.77650E-04 5.98139E-05-3.49847E-05
 -1     20633 3.80730E-04 2.99641E-05-3.64565E-05
 -1     20634 3.75103E-04 5.94105E-05-3.64565E-05
 -1     20639 3.77650E-04 5.98139E-05-3.79284E-05
 -1     20643 3.63644E-04 1.18155E-04-8.49116E-06
 -1     20644 3.71355E-04 8.91544E-05-9.96302E-06
 -1     20645 3.61191E-04 1.17358E-04-9.96302E-06
 -1     20650 3.63644E-04 1.18155E-04-1.14349E-05
 -1     20651 3.71355E-04 8.91544E-05-1.29067E-05
 -1     20652 3.61191E-04 1.17358E-04-1.29067E-05
 -1     20657 3.63644E-04 1.18155E-04-1.43786E-05
 -1     20658 3.71355E-04 8.91544E-05-1.58505E-05
 -1     20659 3.61191E-04 1.17358E-04-1.58505E-05
 -1     20664 3.63644E-04 1.18155E-04-1.73223E-05
 -1     20665 3.71355E-04 8.91544E-05-1.87942E-05
 -1     20666 3.61191E-04 1.17358E-04-1.87942E-05
 -1     20671 3.63644E-04 1.18155E-04-2.02661E-05
 -1     20672 3.71355E-04 8.91544E-05-2.17379E-05
 -1     20673 3.61191E-04 1.17358E-04-2.17379E-05
 -1     20678 3.63644E-04 1.18155E-04-2.32098E-05
 -1     20679 3.71355E-04 8.91544E-05-2.46816E-05
 -1     20680 3.61191E-04 1.17358E-04-2.46816E-05
 -1     20685 3.63644E-04 1.18155E-04-2.61535E-05
 -1     20686 3.71355E-04 8.91544E-05-2.76254E-05
 -1     20687 3.61191E-04 1.17358E-04-2.76254E-05
 -1     20692 3.63644E-04 1.18155E-04-2.90972E-05
 -1     20693 3.71355E-04 8.91544E-05-3.05691E-05
 -1     20694 3.61191E-04 1.17358E-04-3.05691E-05
 -1     20699 3.63644E-04 1.18155E-04-3.20409E-05
 -1     20700 3.71355E-04 8.91544E-05-3.35128E-05
 -1     20701 3.61191E-04 1.17358E-04-3.35128E-05
 -1     20706 3.63644E-04 1.18155E-04-3.49847E-05
 -1     20707 3.71355E-04 8.91544E-05-3.64565E-05
 -1     20708 3.61191E-04 1.17358E-04-3.64565E-05
 -1     20713 3.63644E-04 1.18155E-04-3.79284E-05
 -1     20717 3.40683E-04 1.73587E-04-8.49116E-06
 -1     20718 3.52836E-04 1.46149E-04-9.96302E-06
 -1     20719 3.38386E-04 1.72416E-04-9.96302E-06
 -1     20724 3.40683E-04 1.73587E-04-1.14349E-05
 -1     20725 3.52836E-04 1.46149E-04-1.29067E-05
 -1     20726 3.38386E-04 1.72416E-04-1.29067E-05
 -1     20731 3.40683E-04 1.73587E-04-1.43786E-05
 -1     20732 3.52836E-04 1.46149E-04-1.58505E-05
 -1     20733 3.38386E-04 1.72416E-04-1.58505E-05
 -1     20738 3.40683E-04 1.73587E-04-1.73223E-05
 -1     20739 3.52836E-04 1.46149E-04-1.87942E-05
 -1     20740 3.38386E-04 1.72416E-04-1.87942E-05
 -1     20745 3.40683E-04 1.73587E-04-2.02661E-05
 -1     20746 3.52836E-04 1.46149E-04-2.17379E-05
 -1     20747 3.38386E-04 1.72416E-04-2.17379E-05
 -1     20752 3.40683E-04 1.73587E-04-2.32098E-05
 -1     20753 3.52836E-04 1.46149E-04-2.46816E-05
 -1     20754 3.38386E-04 1.72416E-04-2.46816E-05
 -1     20759 3.40683E-04 1.73587E-04-2.61535E-05
 -1     20760 3.52836E-04 1.46149E-04-2.76254E-05
 -1     20761 3.38386E-04 1.72416E-04-2.76254E-05
 -1     20766 3.40683E-04 1.73587E-04-2.90972E-05
 -1     20767 3.52836E-04 1.46149E-04-3.05691E-05
 -1     20768 3.38386E-04 1.72416E-04-3.05691E-05
 -1     20773 3.40683E-04 1.73587E-04-3.20409E-05
 -1     20774 3.52836E-04 1.46149E-04-3.35128E-05
 -1     20775 3.38386E-04 1.72416E-04-3.35128E-05
 -1     20780 3.40683E-04 1.73587E-04-3.49847E-05
 -1     20781 3.52836E-04 1.46149E-04-3.64565E-05
 -1     20782 3.38386E-04 1.72416E-04-3.64565E-05
 -1     20787 3.40683E-04 1.73587E-04-3.79284E-05
 -1     20791 3.09334E-04 2.24744E-04-8.49116E-06
 -1     20792 3.25629E-04 1.99546E-04-9.96302E-06
 -1     20793 3.07248E-04 2.23229E-04-9.96302E-06
 -1     20798 3.09334E-04 2.24744E-04-1.14349E-05
 -1     20799 3.25629E-04 1.99546E-04-1.29067E-05
 -1     20800 3.07248E-04 2.23229E-04-1.29067E-05
 -1     20805 3.09334E-04 2.24744E-04-1.43786E-05
 -1     20806 3.25629E-04 1.99546E-04-1.58505E-05
 -1     20807 3.07248E-04 2.23229E-04-1.58505E-05
 -1     20812 3.09334E-04 2.24744E-04-1.73223E-05
 -1     20813 3.25629E-04 1.99546E-04-1.87942E-05
 -1     20814 3.07248E-04 2.23229E-04-1.87942E-05
 -1     20819 3.09334E-04 2.24744E-04-2.02661E-05
 -1     20820 3.25629E-04 1.99546E-04-2.17379E-05
 -1     20821 3.07248E-04 2.23229E-04-2.17379E-05
 -1     20826 3.09334E-04 2.24744E-04-2.32098E-05
 -1     20827 3.25629E-04 1.99546E-04-2.46816E-05
 -1     20828 3.07248E-04 2.23229E-04-2.46816E-05
 -1     20833 3.09334E-04 2.24744E-04-2.61535E-05
 -1     20834 3.25629E-04 1.99546E-04-2.76254E-05
 -1     20835 3.07248E-04 2.23229E-04-2.76254E-05
 -1     20840 3.09334E-04 2.24744E-04-2.90972E-05
 -1     20841 3.25629E-04 1.99546E-04-3.05691E-05
 -1     20842 3.07248E-04 2.23229E-04-3.05691E-05
 -1     20847 3.09334E-04 2.24744E-04-3.20409E-05
 -1     20848 3.25629E-04 1.99546E-04-3.35128E-05
 -1     20849 3.07248E-04 2.23229E-04-3.35128E-05
 -1     20854 3.09334E-04 2.24744E-04-3.49847E-05
 -1     20855 3.25629E-04 1.99546E-04-3.64565E-05
 -1     20856 3.07248E-04 2.23229E-04-3.64565E-05
 -1     20861 3.09334E-04 2.24744E-04-3.79284E-05
 -1     20865 2.70368E-04 2.70368E-04-8.49116E-06
 -1     20866 2.90404E-04 2.48029E-04-9.96302E-06
 -1     20867 2.68544E-04 2.68544E-04-9.96302E-06
 -1     20872 2.70368E-04 2.70368E-04-1.14349E-05
 -1     20873 2.90404E-04 2.48029E-04-1.29067E-05
 -1     20874 2.68544E-04 2.68544E-04-1.29067E-05
 -1     20879 2.70368E-04 2.70368E-04-1.43786E-05
 -1     20880 2.90404E-04 2.48029E-04-1.58505E-05
 -1     20881 2.68544E-04 2.68544E-04-1.58505E-05
 -1     20886 2.70368E-04 2.70368E-04-1.73223E-05
 -1     20887 2.90404E-04 2.48029E-04-1.87942E-05
 -1     20888 2.68544E-04 2.68544E-04-1.87942E-05
 -1     20893 2.70368E-04 2.70368E-04-2.02661E-05
 -1     20894 2.90404E-04 2.48029E-04-2.17379E-05
 -1     20895 2.68544E-04 2.68544E-04-2.17379E-05
 -1     20900 2.70368E-04 2.70368E-04-2.32098E-05
 -1     20901 2.90404E-04 2.48029E-04-2.46816E-05
 -1     20902 2.68544E-04 2.68544E-04-2.46816E-05
 -1     20907 2.70368E-04 2.70368E-04-2.61535E-05
 -1     20908 2.90404E-04 2.48029E-04-2.76254E-05
 -1     20909 2.68544E-04 2.68544E-04-2.76254E-05
 -1     20914 2.70368E-04 2.70368E-04-2.90972E-05
 -1     20915 2.90404E-04 2.48029E-04-3.05691E-05
 -1     20916 2.68544E-04 2.68544E-04-3.05691E-05
 -1     20921 2.70368E-04 2.70368E-04-3.20409E-05
 -1     20922 2.90404E-04 2.48029E-04-3.35128E-05
 -1     20923 2.68544E-04 2.68544E-04-3.35128E-05
 -1     20928 2.70368E-04 2.70368E-04-3.49847E-05
 -1     20929 2.90404E-04 2.48029E-04-3.64565E-05
 -1     20930 2.68544E-04 2.68544E-04-3.64565E-05
 -1     20935 2.70368E-04 2.70368E-04-3.79284E-05
 -1     20939 2.24744E-04 3.09334E-04-8.49116E-06
 -1     20940 2.48029E-04 2.90404E-04-9.96302E-06
 -1     20941 2.23229E-04 3.07248E-04-9.96302E-06
 -1     20946 2.24744E-04 3.09334E-04-1.14349E-05
 -1     20947 2.48029E-04 2.90404E-04-1.29067E-05
 -1     20948 2.23229E-04 3.07248E-04-1.29067E-05
 -1     20953 2.24744E-04 3.09334E-04-1.43786E-05
 -1     20954 2.48029E-04 2.90404E-04-1.58505E-05
 -1     20955 2.23229E-04 3.07248E-04-1.58505E-05
 -1     20960 2.24744E-04 3.09334E-04-1.73223E-05
 -1     20961 2.48029E-04 2.90404E-04-1.87942E-05
 -1     20962 2.23229E-04 3.07248E-04-1.87942E-05
 -1     20967 2.24744E-04 3.09334E-04-2.02661E-05
 -1     20968 2.48029E-04 2.90404E-04-2.17379E-05
 -1     20969 2.23229E-04 3.07248E-04-2.17379E-05
 -1     20974 2.24744E-04 3.09334E-04-2.32098E-05
 -1     20975 2.48029E-04 2.90404E-04-2.46816E-05
 -1     20976 2.23229E-04 3.07248E-04-2.46816E-05
 -1     20981 2.24744E-04 3.09334E-04-2.61535E-05
 -1     20982 2.48029E-04 2.90404E-04-2.76254E-05
 -1     20983 2.23229E-04 3.07248E-04-2.76254E-05
 -1     20988 2.24744E-04 3.09334E-04-2.90972E-05
 -1     20989 2.48029E-04 2.90404E-04-3.05691E-05
 -1     20990 2.23229E-04 3.07248E-04-3.05691E-05
 -1     20995 2.24744E-04 3.09334E-04-3.20409E-05
 -1     20996 2.48029E-04 2.90404E-04-3.35128E-05
 -1     20997 2.23229E-04 3.07248E-04-3.35128E-05
 -1     21002 2.24744E-04 3.09334E-04-3.49847E-05
 -1     21003 2.48029E-04 2.90404E-04-3.64565E-05
 -1     21004 2.23229E-04 3.07248E-04-3.64565E-05
 -1     21009 2.24744E-04 3.09334E-04-3.79284E-05
 -1     21013 1.73587E-04 3.40683E-04-8.49116E-06
 -1     21014 1.99546E-04 3.25629E-04-9.96302E-06
 -1     21015 1.72416E-04 3.38386E-04-9.96302E-06
 -1     21020 1.73587E-04 3.40683E-04-1.14349E-05
 -1     21021 1.99546E-04 3.25629E-04-1.29067E-05
 -1     21022 1.72416E-04 3.38386E-04-1.29067E-05
 -1     21027 1.73587E-04 3.40683E-04-1.43786E-05
 -1     21028 1.99546E-04 3.25629E-04-1.58505E-05
 -1     21029 1.72416E-04 3.38386E-04-1.58505E-05
 -1     21034 1.73587E-04 3.40683E-04-1.73223E-05
 -1     21035 1.99546E-04 3.25629E-04-1.87942E-05
 -1     21036 1.72416E-04 3.38386E-04-1.87942E-05
 -1     21041 1.73587E-04 3.40683E-04-2.02661E-05
 -1     21042 1.99546E-04 3.25629E-04-2.17379E-05
 -1     21043 1.72416E-04 3.38386E-04-2.17379E-05
 -1     21048 1.73587E-04 3.40683E-04-2.32098E-05
 -1     21049 1.99546E-04 3.25629E-04-2.46816E-05
 -1     21050 1.72416E-04 3.38386E-04-2.46816E-05
 -1     21055 1.73587E-04 3.40683E-04-2.61535E-05
 -1     21056 1.99546E-04 3.25629E-04-2.76254E-05
 -1     21057 1.72416E-04 3.38386E-04-2.76254E-05
 -1     21062 1.73587E-04 3.40683E-04-2.90972E-05
 -1     21063 1.99546E-04 3.25629E-04-3.05691E-05
 -1     21064 1.72416E-04 3.38386E-04-3.05691E-05
 -1     21069 1.73587E-04 3.40683E-04-3.20409E-05
 -1     21070 1.99546E-04 3.25629E-04-3.35128E-05
 -1     21071 1.72416E-04 3.38386E-04-3.35128E-05
 -1     21076 1.73587E-04 3.40683E-04-3.49847E-05
 -1     21077 1.99546E-04 3.25629E-04-3.64565E-05
 -1     21078 1.72416E-04 3.38386E-04-3.64565E-05
 -1     21083 1.73587E-04 3.40683E-04-3.79284E-05
 -1     21087 1.18155E-04 3.63644E-04-8.49116E-06
 -1     21088 1.46149E-04 3.52836E-04-9.96302E-06
 -1     21089 1.17358E-04 3.61191E-04-9.96302E-06
 -1     21094 1.18155E-04 3.63644E-04-1.14349E-05
 -1     21095 1.46149E-04 3.52836E-04-1.29067E-05
 -1     21096 1.17358E-04 3.61191E-04-1.29067E-05
 -1     21101 1.18155E-04 3.63644E-04-1.43786E-05
 -1     21102 1.46149E-04 3.52836E-04-1.58505E-05
 -1     21103 1.17358E-04 3.61191E-04-1.58505E-05
 -1     21108 1.18155E-04 3.63644E-04-1.73223E-05
 -1     21109 1.46149E-04 3.52836E-04-1.87942E-05
 -1     21110 1.17358E-04 3.61191E-04-1.87942E-05
 -1     21115 1.18155E-04 3.63644E-04-2.02661E-05
 -1     21116 1.46149E-04 3.52836E-04-2.17379E-05
 -1     21117 1.17358E-04 3.61191E-04-2.17379E-05
 -1     21122 1.18155E-04 3.63644E-04-2.32098E-05
 -1     21123 1.46149E-04 3.52836E-04-2.46816E-05
 -1     21124 1.17358E-04 3.61191E-04-2.46816E-05
 -1     21129 1.18155E-04 3.63644E-04-2.61535E-05
 -1     21130 1.46149E-04 3.52836E-04-2.76254E-05
 -1     21131 1.17358E-04 3.61191E-04-2.76254E-05
 -1     21136 1.18155E-04 3.63644E-04-2.90972E-05
 -1     21137 1.46149E-04 3.52836E-04-3.05691E-05
 -1     21138 1.17358E-04 3.61191E-04-3.05691E-05
 -1     21143 1.18155E-04 3.63644E-04-3.20409E-05
 -1     21144 1.46149E-04 3.52836E-04-3.35128E-05
 -1     21145 1.17358E-04 3.61191E-04-3.35128E-05
 -1     21150 1.18155E-04 3.63644E-04-3.49847E-05
 -1     21151 1.46149E-04 3.52836E-04-3.64565E-05
 -1     21152 1.17358E-04 3.61191E-04-3.64565E-05
 -1     21157 1.18155E-04 3.63644E-04-3.79284E-05
 -1     21161 5.98139E-05 3.77650E-04-8.49116E-06
 -1     21162 8.91544E-05 3.71355E-04-9.96302E-06
 -1     21163 5.94105E-05 3.75103E-04-9.96302E-06
 -1     21168 5.98139E-05 3.77650E-04-1.14349E-05
 -1     21169 8.91544E-05 3.71355E-04-1.29067E-05
 -1     21170 5.94105E-05 3.75103E-04-1.29067E-05
 -1     21175 5.98139E-05 3.77650E-04-1.43786E-05
 -1     21176 8.91544E-05 3.71355E-04-1.58505E-05
 -1     21177 5.94105E-05 3.75103E-04-1.58505E-05
 -1     21182 5.98139E-05 3.77650E-04-1.73223E-05
 -1     21183 8.91544E-05 3.71355E-04-1.87942E-05
 -1     21184 5.94105E-05 3.75103E-04-1.87942E-05
 -1     21189 5.98139E-05 3.77650E-04-2.02661E-05
 -1     21190 8.91544E-05 3.71355E-04-2.17379E-05
 -1     21191 5.94105E-05 3.75103E-04-2.17379E-05
 -1     21196 5.98139E-05 3.77650E-04-2.32098E-05
 -1     21197 8.91544E-05 3.71355E-04-2.46816E-05
 -1     21198 5.94105E-05 3.75103E-04-2.46816E-05
 -1     21203 5.98139E-05 3.77650E-04-2.61535E-05
 -1     21204 8.91544E-05 3.71355E-04-2.76254E-05
 -1     21205 5.94105E-05 3.75103E-04-2.76254E-05
 -1     21210 5.98139E-05 3.77650E-04-2.90972E-05
 -1     21211 8.91544E-05 3.71355E-04-3.05691E-05
 -1     21212 5.94105E-05 3.75103E-04-3.05691E-05
 -1     21217 5.98139E-05 3.77650E-04-3.20409E-05
 -1     21218 8.91544E-05 3.71355E-04-3.35128E-05
 -1     21219 5.94105E-05 3.75103E-04-3.35128E-05
 -1     21224 5.98139E-05 3.77650E-04-3.49847E-05
 -1     21225 8.91544E-05 3.71355E-04-3.64565E-05
 -1     21226 5.94105E-05 3.75103E-04-3.64565E-05
 -1     21231 5.98139E-05 3.77650E-04-3.79284E-05
 -1     21235 2.99641E-05 3.80730E-04-9.96302E-06
 -1     21239 2.99641E-05 3.80730E-04-1.29067E-05
 -1     21243 2.99641E-05 3.80730E-04-1.58505E-05
 -1     21247 2.99641E-05 3.80730E-04-1.87942E-05
 -1     21251 2.99641E-05 3.80730E-04-2.17379E-05
 -1     21255 2.99641E-05 3.80730E-04-2.46816E-05
 -1     21259 2.99641E-05 3.80730E-04-2.76254E-05
 -1     21263 2.99641E-05 3.80730E-04-3.05691E-05
 -1     21267 2.99641E-05 3.80730E-04-3.35128E-05
 -1     21271 2.99641E-05 3.80730E-04-3.64565E-05
 -1     21277 3.82962E-04 6.06553E-05-8.49116E-06
 -1     21278 3.86050E-04 3.03828E-05-9.96302E-06
 -1     21279 3.80271E-04 6.02290E-05-9.96302E-06
 -1     21284 3.82962E-04 6.06553E-05-1.14349E-05
 -1     21285 3.86050E-04 3.03828E-05-1.29067E-05
 -1     21286 3.80271E-04 6.02290E-05-1.29067E-05
 -1     21291 3.82962E-04 6.06553E-05-1.43786E-05
 -1     21292 3.86050E-04 3.03828E-05-1.58505E-05
 -1     21293 3.80271E-04 6.02290E-05-1.58505E-05
 -1     21298 3.82962E-04 6.06553E-05-1.73223E-05
 -1     21299 3.86050E-04 3.03828E-05-1.87942E-05
 -1     21300 3.80271E-04 6.02290E-05-1.87942E-05
 -1     21305 3.82962E-04 6.06553E-05-2.02661E-05
 -1     21306 3.86050E-04 3.03828E-05-2.17379E-05
 -1     21307 3.80271E-04 6.02290E-05-2.17379E-05
 -1     21312 3.82962E-04 6.06553E-05-2.32098E-05
 -1     21313 3.86050E-04 3.03828E-05-2.46816E-05
 -1     21314 3.80271E-04 6.02290E-05-2.46816E-05
 -1     21319 3.82962E-04 6.06553E-05-2.61535E-05
 -1     21320 3.86050E-04 3.03828E-05-2.76254E-05
 -1     21321 3.80271E-04 6.02290E-05-2.76254E-05
 -1     21326 3.82962E-04 6.06553E-05-2.90972E-05
 -1     21327 3.86050E-04 3.03828E-05-3.05691E-05
 -1     21328 3.80271E-04 6.02290E-05-3.05691E-05
 -1     21333 3.82962E-04 6.06553E-05-3.20409E-05
 -1     21334 3.86050E-04 3.03828E-05-3.35128E-05
 -1     21335 3.80271E-04 6.02290E-05-3.35128E-05
 -1     21340 3.82962E-04 6.06553E-05-3.49847E-05
 -1     21341 3.86050E-04 3.03828E-05-3.64565E-05
 -1     21342 3.80271E-04 6.02290E-05-3.64565E-05
 -1     21347 3.82962E-04 6.06553E-05-3.79284E-05
 -1     21351 3.68759E-04 1.19817E-04-8.49116E-06
 -1     21352 3.76544E-04 9.04002E-05-9.96302E-06
 -1     21353 3.66167E-04 1.18975E-04-9.96302E-06
 -1     21358 3.68759E-04 1.19817E-04-1.14349E-05
 -1     21359 3.76544E-04 9.04002E-05-1.29067E-05
 -1     21360 3.66167E-04 1.18975E-04-1.29067E-05
 -1     21365 3.68759E-04 1.19817E-04-1.43786E-05
 -1     21366 3.76544E-04 9.04002E-05-1.58505E-05
 -1     21367 3.66167E-04 1.18975E-04-1.58505E-05
 -1     21372 3.68759E-04 1.19817E-04-1.73223E-05
 -1     21373 3.76544E-04 9.04002E-05-1.87942E-05
 -1     21374 3.66167E-04 1.18975E-04-1.87942E-05
 -1     21379 3.68759E-04 1.19817E-04-2.02661E-05
 -1     21380 3.76544E-04 9.04002E-05-2.17379E-05
 -1     21381 3.66167E-04 1.18975E-04-2.17379E-05
 -1     21386 3.68759E-04 1.19817E-04-2.32098E-05
 -1     21387 3.76544E-04 9.04002E-05-2.46816E-05
 -1     21388 3.66167E-04 1.18975E-04-2.46816E-05
 -1     21393 3.68759E-04 1.19817E-04-2.61535E-05
 -1     21394 3.76544E-04 9.04002E-05-2.76254E-05
 -1     21395 3.66167E-04 1.18975E-04-2.76254E-05
 -1     21400 3.68759E-04 1.19817E-04-2.90972E-05
 -1     21401 3.76544E-04 9.04002E-05-3.05691E-05
 -1     21402 3.66167E-04 1.18975E-04-3.05691E-05
 -1     21407 3.68759E-04 1.19817E-04-3.20409E-05
 -1     21408 3.76544E-04 9.04002E-05-3.35128E-05
 -1     21409 3.66167E-04 1.18975E-04-3.35128E-05
 -1     21414 3.68759E-04 1.19817E-04-3.49847E-05
 -1     21415 3.76544E-04 9.04002E-05-3.64565E-05
 -1     21416 3.66167E-04 1.18975E-04-3.64565E-05
 -1     21421 3.68759E-04 1.19817E-04-3.79284E-05
 -1     21425 3.45475E-04 1.76029E-04-8.49116E-06
 -1     21426 3.57767E-04 1.48192E-04-9.96302E-06
 -1     21427 3.43047E-04 1.74791E-04-9.96302E-06
 -1     21432 3.45475E-04 1.76029E-04-1.14349E-05
 -1     21433 3.57767E-04 1.48192E-04-1.29067E-05
 -1     21434 3.43047E-04 1.74791E-04-1.29067E-05
 -1     21439 3.45475E-04 1.76029E-04-1.43786E-05
 -1     21440 3.57767E-04 1.48192E-04-1.58505E-05
 -1     21441 3.43047E-04 1.74791E-04-1.58505E-05
 -1     21446 3.45475E-04 1.76029E-04-1.73223E-05
 -1     21447 3.57767E-04 1.48192E-04-1.87942E-05
 -1     21448 3.43047E-04 1.74791E-04-1.87942E-05
 -1     21453 3.45475E-04 1.76029E-04-2.02661E-05
 -1     21454 3.57767E-04 1.48192E-04-2.17379E-05
 -1     21455 3.43047E-04 1.74791E-04-2.17379E-05
 -1     21460 3.45475E-04 1.76029E-04-2.32098E-05
 -1     21461 3.57767E-04 1.48192E-04-2.46816E-05
 -1     21462 3.43047E-04 1.74791E-04-2.46816E-05
 -1     21467 3.45475E-04 1.76029E-04-2.61535E-05
 -1     21468 3.57767E-04 1.48192E-04-2.76254E-05
 -1     21469 3.43047E-04 1.74791E-04-2.76254E-05
 -1     21474 3.45475E-04 1.76029E-04-2.90972E-05
 -1     21475 3.57767E-04 1.48192E-04-3.05691E-05
 -1     21476 3.43047E-04 1.74791E-04-3.05691E-05
 -1     21481 3.45475E-04 1.76029E-04-3.20409E-05
 -1     21482 3.57767E-04 1.48192E-04-3.35128E-05
 -1     21483 3.43047E-04 1.74791E-04-3.35128E-05
 -1     21488 3.45475E-04 1.76029E-04-3.49847E-05
 -1     21489 3.57767E-04 1.48192E-04-3.64565E-05
 -1     21490 3.43047E-04 1.74791E-04-3.64565E-05
 -1     21495 3.45475E-04 1.76029E-04-3.79284E-05
 -1     21499 3.13685E-04 2.27906E-04-8.49116E-06
 -1     21500 3.30180E-04 2.02334E-04-9.96302E-06
 -1     21501 3.11480E-04 2.26304E-04-9.96302E-06
 -1     21506 3.13685E-04 2.27906E-04-1.14349E-05
 -1     21507 3.30180E-04 2.02334E-04-1.29067E-05
 -1     21508 3.11480E-04 2.26304E-04-1.29067E-05
 -1     21513 3.13685E-04 2.27906E-04-1.43786E-05
 -1     21514 3.30180E-04 2.02334E-04-1.58505E-05
 -1     21515 3.11480E-04 2.26304E-04-1.58505E-05
 -1     21520 3.13685E-04 2.27906E-04-1.73223E-05
 -1     21521 3.30180E-04 2.02334E-04-1.87942E-05
 -1     21522 3.11480E-04 2.26304E-04-1.87942E-05
 -1     21527 3.13685E-04 2.27906E-04-2.02661E-05
 -1     21528 3.30180E-04 2.02334E-04-2.17379E-05
 -1     21529 3.11480E-04 2.26304E-04-2.17379E-05
 -1     21534 3.13685E-04 2.27906E-04-2.32098E-05
 -1     21535 3.30180E-04 2.02334E-04-2.46816E-05
 -1     21536 3.11480E-04 2.26304E-04-2.46816E-05
 -1     21541 3.13685E-04 2.27906E-04-2.61535E-05
 -1     21542 3.30180E-04 2.02334E-04-2.76254E-05
 -1     21543 3.11480E-04 2.26304E-04-2.76254E-05
 -1     21548 3.13685E-04 2.27906E-04-2.90972E-05
 -1     21549 3.30180E-04 2.02334E-04-3.05691E-05
 -1     21550 3.11480E-04 2.26304E-04-3.05691E-05
 -1     21555 3.13685E-04 2.27906E-04-3.20409E-05
 -1     21556 3.30180E-04 2.02334E-04-3.35128E-05
 -1     21557 3.11480E-04 2.26304E-04-3.35128E-05
 -1     21562 3.13685E-04 2.27906E-04-3.49847E-05
 -1     21563 3.30180E-04 2.02334E-04-3.64565E-05
 -1     21564 3.11480E-04 2.26304E-04-3.64565E-05
 -1     21569 3.13685E-04 2.27906E-04-3.79284E-05
 -1     21573 2.74171E-04 2.74171E-04-8.49116E-06
 -1     21574 2.94462E-04 2.51495E-04-9.96302E-06
 -1     21575 2.72244E-04 2.72244E-04-9.96302E-06
 -1     21580 2.74171E-04 2.74171E-04-1.14349E-05
 -1     21581 2.94462E-04 2.51495E-04-1.29067E-05
 -1     21582 2.72244E-04 2.72244E-04-1.29067E-05
 -1     21587 2.74171E-04 2.74171E-04-1.43786E-05
 -1     21588 2.94462E-04 2.51495E-04-1.58505E-05
 -1     21589 2.72244E-04 2.72244E-04-1.58505E-05
 -1     21594 2.74171E-04 2.74171E-04-1.73223E-05
 -1     21595 2.94462E-04 2.51495E-04-1.87942E-05
 -1     21596 2.72244E-04 2.72244E-04-1.87942E-05
 -1     21601 2.74171E-04 2.74171E-04-2.02661E-05
 -1     21602 2.94462E-04 2.51495E-04-2.17379E-05
 -1     21603 2.72244E-04 2.72244E-04-2.17379E-05
 -1     21608 2.74171E-04 2.74171E-04-2.32098E-05
 -1     21609 2.94462E-04 2.51495E-04-2.46816E-05
 -1     21610 2.72244E-04 2.72244E-04-2.46816E-05
 -1     21615 2.74171E-04 2.74171E-04-2.61535E-05
 -1     21616 2.94462E-04 2.51495E-04-2.76254E-05
 -1     21617 2.72244E-04 2.72244E-04-2.76254E-05
 -1     21622 2.74171E-04 2.74171E-04-2.90972E-05
 -1     21623 2.94462E-04 2.51495E-04-3.05691E-05
 -1     21624 2.72244E-04 2.72244E-04-3.05691E-05
 -1     21629 2.74171E-04 2.74171E-04-3.20409E-05
 -1     21630 2.94462E-04 2.51495E-04-3.35128E-05
 -1     21631 2.72244E-04 2.72244E-04-3.35128E-05
 -1     21636 2.74171E-04 2.74171E-04-3.49847E-05
 -1     21637 2.94462E-04 2.51495E-04-3.64565E-05
 -1     21638 2.72244E-04 2.72244E-04-3.64565E-05
 -1     21643 2.74171E-04 2.74171E-04-3.79284E-05
 -1     21647 2.27906E-04 3.13685E-04-8.49116E-06
 -1     21648 2.51495E-04 2.94462E-04-9.96302E-06
 -1     21649 2.26304E-04 3.11480E-04-9.96302E-06
 -1     21654 2.27906E-04 3.13685E-04-1.14349E-05
 -1     21655 2.51495E-04 2.94462E-04-1.29067E-05
 -1     21656 2.26304E-04 3.11480E-04-1.29067E-05
 -1     21661 2.27906E-04 3.13685E-04-1.43786E-05
 -1     21662 2.51495E-04 2.94462E-04-1.58505E-05
 -1     21663 2.26304E-04 3.11480E-04-1.58505E-05
 -1     21668 2.27906E-04 3.13685E-04-1.73223E-05
 -1     21669 2.51495E-04 2.94462E-04-1.87942E-05
 -1     21670 2.26304E-04 3.11480E-04-1.87942E-05
 -1     21675 2.27906E-04 3.13685E-04-2.02661E-05
 -1     21676 2.51495E-04 2.94462E-04-2.17379E-05
 -1     21677 2.26304E-04 3.11480E-04-2.17379E-05
 -1     21682 2.27906E-04 3.13685E-04-2.32098E-05
 -1     21683 2.51495E-04 2.94462E-04-2.46816E-05
 -1     21684 2.26304E-04 3.11480E-04-2.46816E-05
 -1     21689 2.27906E-04 3.13685E-04-2.61535E-05
 -1     21690 2.51495E-04 2.94462E-04-2.76254E-05
 -1     21691 2.26304E-04 3.11480E-04-2.76254E-05
 -1     21696 2.27906E-04 3.13685E-04-2.90972E-05
 -1     21697 2.51495E-04 2.94462E-04-3.05691E-05
 -1     21698 2.26304E-04 3.11480E-04-3.05691E-05
 -1     21703 2.27906E-04 3.13685E-04-3.20409E-05
 -1     21704 2.51495E-04 2.94462E-04-3.35128E-05
 -1     21705 2.26304E-04 3.11480E-04-3.35128E-05
 -1     21710 2.27906E-04 3.13685E-04-3.49847E-05
 -1     21711 2.51495E-04 2.94462E-04-3.64565E-05
 -1     21712 2.26304E-04 3.11480E-04-3.64565E-05
 -1     21717 2.27906E-04 3.13685E-04-3.79284E-05
 -1     21721 1.76028E-04 3.45475E-04-8.49116E-06
 -1     21722 2.02334E-04 3.30180E-04-9.96302E-06
 -1     21723 1.74791E-04 3.43047E-04-9.96302E-06
 -1     21728 1.76028E-04 3.45475E-04-1.14349E-05
 -1     21729 2.02334E-04 3.30180E-04-1.29067E-05
 -1     21730 1.74791E-04 3.43047E-04-1.29067E-05
 -1     21735 1.76028E-04 3.45475E-04-1.43786E-05
 -1     21736 2.02334E-04 3.30180E-04-1.58505E-05
 -1     21737 1.74791E-04 3.43047E-04-1.58505E-05
 -1     21742 1.76028E-04 3.45475E-04-1.73223E-05
 -1     21743 2.02334E-04 3.30180E-04-1.87942E-05
 -1     21744 1.74791E-04 3.43047E-04-1.87942E-05
 -1     21749 1.76028E-04 3.45475E-04-2.02661E-05
 -1     21750 2.02334E-04 3.30180E-04-2.17379E-05
 -1     21751 1.74791E-04 3.43047E-04-2.17379E-05
 -1     21756 1.76028E-04 3.45475E-04-2.32098E-05
 -1     21757 2.02334E-04 3.30180E-04-2.46816E-05
 -1     21758 1.74791E-04 3.43047E-04-2.46816E-05
 -1     21763 1.76028E-04 3.45475E-04-2.61535E-05
 -1     21764 2.02334E-04 3.30180E-04-2.76254E-05
 -1     21765 1.74791E-04 3.43047E-04-2.76254E-05
 -1     21770 1.76028E-04 3.45475E-04-2.90972E-05
 -1     21771 2.02334E-04 3.30180E-04-3.05691E-05
 -1     21772 1.74791E-04 3.43047E-04-3.05691E-05
 -1     21777 1.76028E-04 3.45475E-04-3.20409E-05
 -1     21778 2.02334E-04 3.30180E-04-3.35128E-05
 -1     21779 1.74791E-04 3.43047E-04-3.35128E-05
 -1     21784 1.76028E-04 3.45475E-04-3.49847E-05
 -1     21785 2.02334E-04 3.30180E-04-3.64565E-05
 -1     21786 1.74791E-04 3.43047E-04-3.64565E-05
 -1     21791 1.76028E-04 3.45475E-04-3.79284E-05
 -1     21795 1.19817E-04 3.68759E-04-8.49116E-06
 -1     21796 1.48192E-04 3.57767E-04-9.96302E-06
 -1     21797 1.18975E-04 3.66167E-04-9.96302E-06
 -1     21802 1.19817E-04 3.68759E-04-1.14349E-05
 -1     21803 1.48192E-04 3.57767E-04-1.29067E-05
 -1     21804 1.18975E-04 3.66167E-04-1.29067E-05
 -1     21809 1.19817E-04 3.68759E-04-1.43786E-05
 -1     21810 1.48192E-04 3.57767E-04-1.58505E-05
 -1     21811 1.18975E-04 3.66167E-04-1.58505E-05
 -1     21816 1.19817E-04 3.68759E-04-1.73223E-05
 -1     21817 1.48192E-04 3.57767E-04-1.87942E-05
 -1     21818 1.18975E-04 3.66167E-04-1.87942E-05
 -1     21823 1.19817E-04 3.68759E-04-2.02661E-05
 -1     21824 1.48192E-04 3.57767E-04-2.17379E-05
 -1     21825 1.18975E-04 3.66167E-04-2.17379E-05
 -1     21830 1.19817E-04 3.68759E-04-2.32098E-05
 -1     21831 1.48192E-04 3.57767E-04-2.46816E-05
 -1     21832 1.18975E-04 3.66167E-04-2.46816E-05
 -1     21837 1.19817E-04 3.68759E-04-2.61535E-05
 -1     21838 1.48192E-04 3.57767E-04-2.76254E-05
 -1     21839 1.18975E-04 3.66167E-04-2.76254E-05
 -1     21844 1.19817E-04 3.68759E-04-2.90972E-05
 -1     21845 1.48192E-04 3.57767E-04-3.05691E-05
 -1     21846 1.18975E-04 3.66167E-04-3.05691E-05
 -1     21851 1.19817E-04 3.68759E-04-3.20409E-05
 -1     21852 1.48192E-04 3.57767E-04-3.35128E-05
 -1     21853 1.18975E-04 3.66167E-04-3.35128E-05
 -1     21858 1.19817E-04 3.68759E-04-3.49847E-05
 -1     21859 1.48192E-04 3.57767E-04-3.64565E-05
 -1     21860 1.18975E-04 3.66167E-04-3.64565E-05
 -1     21865 1.19817E-04 3.68759E-04-3.79284E-05
 -1     21869 6.06553E-05 3.82962E-04-8.49116E-06
 -1     21870 9.04002E-05 3.76544E-04-9.96302E-06
 -1     21871 6.02290E-05 3.80271E-04-9.96302E-06
 -1     21876 6.06553E-05 3.82962E-04-1.14349E-05
 -1     21877 9.04002E-05 3.76544E-04-1.29067E-05
 -1     21878 6.02290E-05 3.80271E-04-1.29067E-05
 -1     21883 6.06553E-05 3.82962E-04-1.43786E-05
 -1     21884 9.04002E-05 3.76544E-04-1.58505E-05
 -1     21885 6.02290E-05 3.80271E-04-1.58505E-05
 -1     21890 6.06553E-05 3.82962E-04-1.73223E-05
 -1     21891 9.04002E-05 3.76544E-04-1.87942E-05
 -1     21892 6.02290E-05 3.80271E-04-1.87942E-05
 -1     21897 6.06553E-05 3.82962E-04-2.02661E-05
 -1     21898 9.04002E-05 3.76544E-04-2.17379E-05
 -1     21899 6.02290E-05 3.80271E-04-2.17379E-05
 -1     21904 6.06553E-05 3.82962E-04-2.32098E-05
 -1     21905 9.04002E-05 3.76544E-04-2.46816E-05
 -1     21906 6.02290E-05 3.80271E-04-2.46816E-05
 -1     21911 6.06553E-05 3.82962E-04-2.61535E-05
 -1     21912 9.04002E-05 3.76544E-04-2.76254E-05
 -1     21913 6.02290E-05 3.80271E-04-2.76254E-05
 -1     21918 6.06553E-05 3.82962E-04-2.90972E-05
 -1     21919 9.04002E-05 3.76544E-04-3.05691E-05
 -1     21920 6.02290E-05 3.80271E-04-3.05691E-05
 -1     21925 6.06553E-05 3.82962E-04-3.20409E-05
 -1     21926 9.04002E-05 3.76544E-04-3.35128E-05
 -1     21927 6.02290E-05 3.80271E-04-3.35128E-05
 -1     21932 6.06553E-05 3.82962E-04-3.49847E-05
 -1     21933 9.04002E-05 3.76544E-04-3.64565E-05
 -1     21934 6.02290E-05 3.80271E-04-3.64565E-05
 -1     21939 6.06553E-05 3.82962E-04-3.79284E-05
 -1     21943 3.03828E-05 3.86050E-04-9.96302E-06
 -1     21947 3.03828E-05 3.86050E-04-1.29067E-05
 -1     21951 3.03828E-05 3.86050E-04-1.58505E-05
 -1     21955 3.03828E-05 3.86050E-04-1.87942E-05
 -1     21959 3.03828E-05 3.86050E-04-2.17379E-05
 -1     21963 3.03828E-05 3.86050E-04-2.46816E-05
 -1     21967 3.03828E-05 3.86050E-04-2.76254E-05
 -1     21971 3.03828E-05 3.86050E-04-3.05691E-05
 -1     21975 3.03828E-05 3.86050E-04-3.35128E-05
 -1     21979 3.03828E-05 3.86050E-04-3.64565E-05
 -1     21985 3.88542E-04 6.15391E-05-8.49116E-06
 -1     21986 3.91641E-04 3.08228E-05-9.96302E-06
 -1     21987 3.85721E-04 6.10921E-05-9.96302E-06
 -1     21992 3.88542E-04 6.15391E-05-1.14349E-05
 -1     21993 3.91641E-04 3.08228E-05-1.29067E-05
 -1     21994 3.85721E-04 6.10921E-05-1.29067E-05
 -1     21999 3.88542E-04 6.15391E-05-1.43786E-05
 -1     22000 3.91641E-04 3.08228E-05-1.58505E-05
 -1     22001 3.85721E-04 6.10921E-05-1.58505E-05
 -1     22006 3.88542E-04 6.15391E-05-1.73223E-05
 -1     22007 3.91641E-04 3.08228E-05-1.87942E-05
 -1     22008 3.85721E-04 6.10921E-05-1.87942E-05
 -1     22013 3.88542E-04 6.15391E-05-2.02661E-05
 -1     22014 3.91641E-04 3.08228E-05-2.17379E-05
 -1     22015 3.85721E-04 6.10921E-05-2.17379E-05
 -1     22020 3.88542E-04 6.15391E-05-2.32098E-05
 -1     22021 3.91641E-04 3.08228E-05-2.46816E-05
 -1     22022 3.85721E-04 6.10921E-05-2.46816E-05
 -1     22027 3.88542E-04 6.15391E-05-2.61535E-05
 -1     22028 3.91641E-04 3.08228E-05-2.76254E-05
 -1     22029 3.85721E-04 6.10921E-05-2.76254E-05
 -1     22034 3.88542E-04 6.15391E-05-2.90972E-05
 -1     22035 3.91641E-04 3.08228E-05-3.05691E-05
 -1     22036 3.85721E-04 6.10921E-05-3.05691E-05
 -1     22041 3.88542E-04 6.15391E-05-3.20409E-05
 -1     22042 3.91641E-04 3.08228E-05-3.35128E-05
 -1     22043 3.85721E-04 6.10921E-05-3.35128E-05
 -1     22048 3.88542E-04 6.15391E-05-3.49847E-05
 -1     22049 3.91641E-04 3.08228E-05-3.64565E-05
 -1     22050 3.85721E-04 6.10921E-05-3.64565E-05
 -1     22055 3.88542E-04 6.15391E-05-3.79284E-05
 -1     22059 3.74132E-04 1.21563E-04-8.49116E-06
 -1     22060 3.81998E-04 9.17096E-05-9.96302E-06
 -1     22061 3.71415E-04 1.20680E-04-9.96302E-06
 -1     22066 3.74132E-04 1.21563E-04-1.14349E-05
 -1     22067 3.81998E-04 9.17096E-05-1.29067E-05
 -1     22068 3.71415E-04 1.20680E-04-1.29067E-05
 -1     22073 3.74132E-04 1.21563E-04-1.43786E-05
 -1     22074 3.81998E-04 9.17096E-05-1.58505E-05
 -1     22075 3.71415E-04 1.20680E-04-1.58505E-05
 -1     22080 3.74132E-04 1.21563E-04-1.73223E-05
 -1     22081 3.81998E-04 9.17096E-05-1.87942E-05
 -1     22082 3.71415E-04 1.20680E-04-1.87942E-05
 -1     22087 3.74132E-04 1.21563E-04-2.02661E-05
 -1     22088 3.81998E-04 9.17096E-05-2.17379E-05
 -1     22089 3.71415E-04 1.20680E-04-2.17379E-05
 -1     22094 3.74132E-04 1.21563E-04-2.32098E-05
 -1     22095 3.81998E-04 9.17096E-05-2.46816E-05
 -1     22096 3.71415E-04 1.20680E-04-2.46816E-05
 -1     22101 3.74132E-04 1.21563E-04-2.61535E-05
 -1     22102 3.81998E-04 9.17096E-05-2.76254E-05
 -1     22103 3.71415E-04 1.20680E-04-2.76254E-05
 -1     22108 3.74132E-04 1.21563E-04-2.90972E-05
 -1     22109 3.81998E-04 9.17096E-05-3.05691E-05
 -1     22110 3.71415E-04 1.20680E-04-3.05691E-05
 -1     22115 3.74132E-04 1.21563E-04-3.20409E-05
 -1     22116 3.81998E-04 9.17096E-05-3.35128E-05
 -1     22117 3.71415E-04 1.20680E-04-3.35128E-05
 -1     22122 3.74132E-04 1.21563E-04-3.49847E-05
 -1     22123 3.81998E-04 9.17096E-05-3.64565E-05
 -1     22124 3.71415E-04 1.20680E-04-3.64565E-05
 -1     22129 3.74132E-04 1.21563E-04-3.79284E-05
 -1     22133 3.50509E-04 1.78593E-04-8.49116E-06
 -1     22134 3.62948E-04 1.50338E-04-9.96302E-06
 -1     22135 3.47964E-04 1.77296E-04-9.96302E-06
 -1     22140 3.50509E-04 1.78593E-04-1.14349E-05
 -1     22141 3.62948E-04 1.50338E-04-1.29067E-05
 -1     22142 3.47964E-04 1.77296E-04-1.29067E-05
 -1     22147 3.50509E-04 1.78593E-04-1.43786E-05
 -1     22148 3.62948E-04 1.50338E-04-1.58505E-05
 -1     22149 3.47964E-04 1.77296E-04-1.58505E-05
 -1     22154 3.50509E-04 1.78593E-04-1.73223E-05
 -1     22155 3.62948E-04 1.50338E-04-1.87942E-05
 -1     22156 3.47964E-04 1.77296E-04-1.87942E-05
 -1     22161 3.50509E-04 1.78593E-04-2.02661E-05
 -1     22162 3.62948E-04 1.50338E-04-2.17379E-05
 -1     22163 3.47964E-04 1.77296E-04-2.17379E-05
 -1     22168 3.50509E-04 1.78593E-04-2.32098E-05
 -1     22169 3.62948E-04 1.50338E-04-2.46816E-05
 -1     22170 3.47964E-04 1.77296E-04-2.46816E-05
 -1     22175 3.50509E-04 1.78593E-04-2.61535E-05
 -1     22176 3.62948E-04 1.50338E-04-2.76254E-05
 -1     22177 3.47964E-04 1.77296E-04-2.76254E-05
 -1     22182 3.50509E-04 1.78593E-04-2.90972E-05
 -1     22183 3.62948E-04 1.50338E-04-3.05691E-05
 -1     22184 3.47964E-04 1.77296E-04-3.05691E-05
 -1     22189 3.50509E-04 1.78593E-04-3.20409E-05
 -1     22190 3.62948E-04 1.50338E-04-3.35128E-05
 -1     22191 3.47964E-04 1.77296E-04-3.35128E-05
 -1     22196 3.50509E-04 1.78593E-04-3.49847E-05
 -1     22197 3.62948E-04 1.50338E-04-3.64565E-05
 -1     22198 3.47964E-04 1.77296E-04-3.64565E-05
 -1     22203 3.50509E-04 1.78593E-04-3.79284E-05
 -1     22207 3.18256E-04 2.31226E-04-8.49116E-06
 -1     22208 3.34962E-04 2.05265E-04-9.96302E-06
 -1     22209 3.15944E-04 2.29547E-04-9.96302E-06
 -1     22214 3.18256E-04 2.31226E-04-1.14349E-05
 -1     22215 3.34962E-04 2.05265E-04-1.29067E-05
 -1     22216 3.15944E-04 2.29547E-04-1.29067E-05
 -1     22221 3.18256E-04 2.31226E-04-1.43786E-05
 -1     22222 3.34962E-04 2.05265E-04-1.58505E-05
 -1     22223 3.15944E-04 2.29547E-04-1.58505E-05
 -1     22228 3.18256E-04 2.31226E-04-1.73223E-05
 -1     22229 3.34962E-04 2.05265E-04-1.87942E-05
 -1     22230 3.15944E-04 2.29547E-04-1.87942E-05
 -1     22235 3.18256E-04 2.31226E-04-2.02661E-05
 -1     22236 3.34962E-04 2.05265E-04-2.17379E-05
 -1     22237 3.15944E-04 2.29547E-04-2.17379E-05
 -1     22242 3.18256E-04 2.31226E-04-2.32098E-05
 -1     22243 3.34962E-04 2.05265E-04-2.46816E-05
 -1     22244 3.15944E-04 2.29547E-04-2.46816E-05
 -1     22249 3.18256E-04 2.31226E-04-2.61535E-05
 -1     22250 3.34962E-04 2.05265E-04-2.76254E-05
 -1     22251 3.15944E-04 2.29547E-04-2.76254E-05
 -1     22256 3.18256E-04 2.31226E-04-2.90972E-05
 -1     22257 3.34962E-04 2.05265E-04-3.05691E-05
 -1     22258 3.15944E-04 2.29547E-04-3.05691E-05
 -1     22263 3.18256E-04 2.31226E-04-3.20409E-05
 -1     22264 3.34962E-04 2.05265E-04-3.35128E-05
 -1     22265 3.15944E-04 2.29547E-04-3.35128E-05
 -1     22270 3.18256E-04 2.31226E-04-3.49847E-05
 -1     22271 3.34962E-04 2.05265E-04-3.64565E-05
 -1     22272 3.15944E-04 2.29547E-04-3.64565E-05
 -1     22277 3.18256E-04 2.31226E-04-3.79284E-05
 -1     22281 2.78166E-04 2.78166E-04-8.49116E-06
 -1     22282 2.98727E-04 2.55137E-04-9.96302E-06
 -1     22283 2.76145E-04 2.76145E-04-9.96302E-06
 -1     22288 2.78166E-04 2.78166E-04-1.14349E-05
 -1     22289 2.98727E-04 2.55137E-04-1.29067E-05
 -1     22290 2.76145E-04 2.76145E-04-1.29067E-05
 -1     22295 2.78166E-04 2.78166E-04-1.43786E-05
 -1     22296 2.98727E-04 2.55137E-04-1.58505E-05
 -1     22297 2.76145E-04 2.76145E-04-1.58505E-05
 -1     22302 2.78166E-04 2.78166E-04-1.73223E-05
 -1     22303 2.98727E-04 2.55137E-04-1.87942E-05
 -1     22304 2.76145E-04 2.76145E-04-1.87942E-05
 -1     22309 2.78166E-04 2.78166E-04-2.02661E-05
 -1     22310 2.98727E-04 2.55137E-04-2.17379E-05
 -1     22311 2.76145E-04 2.76145E-04-2.17379E-05
 -1     22316 2.78166E-04 2.78166E-04-2.32098E-05
 -1     22317 2.98727E-04 2.55137E-04-2.46816E-05
 -1     22318 2.76145E-04 2.76145E-04-2.46816E-05
 -1     22323 2.78166E-04 2.78166E-04-2.61535E-05
 -1     22324 2.98727E-04 2.55137E-04-2.76254E-05
 -1     22325 2.76145E-04 2.76145E-04-2.76254E-05
 -1     22330 2.78166E-04 2.78166E-04-2.90972E-05
 -1     22331 2.98727E-04 2.55137E-04-3.05691E-05
 -1     22332 2.76145E-04 2.76145E-04-3.05691E-05
 -1     22337 2.78166E-04 2.78166E-04-3.20409E-05
 -1     22338 2.98727E-04 2.55137E-04-3.35128E-05
 -1     22339 2.76145E-04 2.76145E-04-3.35128E-05
 -1     22344 2.78166E-04 2.78166E-04-3.49847E-05
 -1     22345 2.98727E-04 2.55137E-04-3.64565E-05
 -1     22346 2.76145E-04 2.76145E-04-3.64565E-05
 -1     22351 2.78166E-04 2.78166E-04-3.79284E-05
 -1     22355 2.31226E-04 3.18256E-04-8.49116E-06
 -1     22356 2.55137E-04 2.98727E-04-9.96302E-06
 -1     22357 2.29547E-04 3.15944E-04-9.96302E-06
 -1     22362 2.31226E-04 3.18256E-04-1.14349E-05
 -1     22363 2.55137E-04 2.98727E-04-1.29067E-05
 -1     22364 2.29547E-04 3.15944E-04-1.29067E-05
 -1     22369 2.31226E-04 3.18256E-04-1.43786E-05
 -1     22370 2.55137E-04 2.98727E-04-1.58505E-05
 -1     22371 2.29547E-04 3.15944E-04-1.58505E-05
 -1     22376 2.31226E-04 3.18256E-04-1.73223E-05
 -1     22377 2.55137E-04 2.98727E-04-1.87942E-05
 -1     22378 2.29547E-04 3.15944E-04-1.87942E-05
 -1     22383 2.31226E-04 3.18256E-04-2.02661E-05
 -1     22384 2.55137E-04 2.98727E-04-2.17379E-05
 -1     22385 2.29547E-04 3.15944E-04-2.17379E-05
 -1     22390 2.31226E-04 3.18256E-04-2.32098E-05
 -1     22391 2.55137E-04 2.98727E-04-2.46816E-05
 -1     22392 2.29547E-04 3.15944E-04-2.46816E-05
 -1     22397 2.31226E-04 3.18256E-04-2.61535E-05
 -1     22398 2.55137E-04 2.98727E-04-2.76254E-05
 -1     22399 2.29547E-04 3.15944E-04-2.76254E-05
 -1     22404 2.31226E-04 3.18256E-04-2.90972E-05
 -1     22405 2.55137E-04 2.98727E-04-3.05691E-05
 -1     22406 2.29547E-04 3.15944E-04-3.05691E-05
 -1     22411 2.31226E-04 3.18256E-04-3.20409E-05
 -1     22412 2.55137E-04 2.98727E-04-3.35128E-05
 -1     22413 2.29547E-04 3.15944E-04-3.35128E-05
 -1     22418 2.31226E-04 3.18256E-04-3.49847E-05
 -1     22419 2.55137E-04 2.98727E-04-3.64565E-05
 -1     22420 2.29547E-04 3.15944E-04-3.64565E-05
 -1     22425 2.31226E-04 3.18256E-04-3.79284E-05
 -1     22429 1.78593E-04 3.50509E-04-8.49116E-06
 -1     22430 2.05265E-04 3.34962E-04-9.96302E-06
 -1     22431 1.77296E-04 3.47964E-04-9.96302E-06
 -1     22436 1.78593E-04 3.50509E-04-1.14349E-05
 -1     22437 2.05265E-04 3.34962E-04-1.29067E-05
 -1     22438 1.77296E-04 3.47964E-04-1.29067E-05
 -1     22443 1.78593E-04 3.50509E-04-1.43786E-05
 -1     22444 2.05265E-04 3.34962E-04-1.58505E-05
 -1     22445 1.77296E-04 3.47964E-04-1.58505E-05
 -1     22450 1.78593E-04 3.50509E-04-1.73223E-05
 -1     22451 2.05265E-04 3.34962E-04-1.87942E-05
 -1     22452 1.77296E-04 3.47964E-04-1.87942E-05
 -1     22457 1.78593E-04 3.50509E-04-2.02661E-05
 -1     22458 2.05265E-04 3.34962E-04-2.17379E-05
 -1     22459 1.77296E-04 3.47964E-04-2.17379E-05
 -1     22464 1.78593E-04 3.50509E-04-2.32098E-05
 -1     22465 2.05265E-04 3.34962E-04-2.46816E-05
 -1     22466 1.77296E-04 3.47964E-04-2.46816E-05
 -1     22471 1.78593E-04 3.50509E-04-2.61535E-05
 -1     22472 2.05265E-04 3.34962E-04-2.76254E-05
 -1     22473 1.77296E-04 3.47964E-04-2.76254E-05
 -1     22478 1.78593E-04 3.50509E-04-2.90972E-05
 -1     22479 2.05265E-04 3.34962E-04-3.05691E-05
 -1     22480 1.77296E-04 3.47964E-04-3.05691E-05
 -1     22485 1.78593E-04 3.50509E-04-3.20409E-05
 -1     22486 2.05265E-04 3.34962E-04-3.35128E-05
 -1     22487 1.77296E-04 3.47964E-04-3.35128E-05
 -1     22492 1.78593E-04 3.50509E-04-3.49847E-05
 -1     22493 2.05265E-04 3.34962E-04-3.64565E-05
 -1     22494 1.77296E-04 3.47964E-04-3.64565E-05
 -1     22499 1.78593E-04 3.50509E-04-3.79284E-05
 -1     22503 1.21563E-04 3.74132E-04-8.49116E-06
 -1     22504 1.50338E-04 3.62948E-04-9.96302E-06
 -1     22505 1.20680E-04 3.71415E-04-9.96302E-06
 -1     22510 1.21563E-04 3.74132E-04-1.14349E-05
 -1     22511 1.50338E-04 3.62948E-04-1.29067E-05
 -1     22512 1.20680E-04 3.71415E-04-1.29067E-05
 -1     22517 1.21563E-04 3.74132E-04-1.43786E-05
 -1     22518 1.50338E-04 3.62948E-04-1.58505E-05
 -1     22519 1.20680E-04 3.71415E-04-1.58505E-05
 -1     22524 1.21563E-04 3.74132E-04-1.73223E-05
 -1     22525 1.50338E-04 3.62948E-04-1.87942E-05
 -1     22526 1.20680E-04 3.71415E-04-1.87942E-05
 -1     22531 1.21563E-04 3.74132E-04-2.02661E-05
 -1     22532 1.50338E-04 3.62948E-04-2.17379E-05
 -1     22533 1.20680E-04 3.71415E-04-2.17379E-05
 -1     22538 1.21563E-04 3.74132E-04-2.32098E-05
 -1     22539 1.50338E-04 3.62948E-04-2.46816E-05
 -1     22540 1.20680E-04 3.71415E-04-2.46816E-05
 -1     22545 1.21563E-04 3.74132E-04-2.61535E-05
 -1     22546 1.50338E-04 3.62948E-04-2.76254E-05
 -1     22547 1.20680E-04 3.71415E-04-2.76254E-05
 -1     22552 1.21563E-04 3.74132E-04-2.90972E-05
 -1     22553 1.50338E-04 3.62948E-04-3.05691E-05
 -1     22554 1.20680E-04 3.71415E-04-3.05691E-05
 -1     22559 1.21563E-04 3.74132E-04-3.20409E-05
 -1     22560 1.50338E-04 3.62948E-04-3.35128E-05
 -1     22561 1.20680E-04 3.71415E-04-3.35128E-05
 -1     22566 1.21563E-04 3.74132E-04-3.49847E-05
 -1     22567 1.50338E-04 3.62948E-04-3.64565E-05
 -1     22568 1.20680E-04 3.71415E-04-3.64565E-05
 -1     22573 1.21563E-04 3.74132E-04-3.79284E-05
 -1     22577 6.15391E-05 3.88542E-04-8.49116E-06
 -1     22578 9.17096E-05 3.81998E-04-9.96302E-06
 -1     22579 6.10921E-05 3.85721E-04-9.96302E-06
 -1     22584 6.15391E-05 3.88542E-04-1.14349E-05
 -1     22585 9.17096E-05 3.81998E-04-1.29067E-05
 -1     22586 6.10921E-05 3.85721E-04-1.29067E-05
 -1     22591 6.15391E-05 3.88542E-04-1.43786E-05
 -1     22592 9.17096E-05 3.81998E-04-1.58505E-05
 -1     22593 6.10921E-05 3.85721E-04-1.58505E-05
 -1     22598 6.15391E-05 3.88542E-04-1.73223E-05
 -1     22599 9.17096E-05 3.81998E-04-1.87942E-05
 -1     22600 6.10921E-05 3.85721E-04-1.87942E-05
 -1     22605 6.15391E-05 3.88542E-04-2.02661E-05
 -1     22606 9.17096E-05 3.81998E-04-2.17379E-05
 -1     22607 6.10921E-05 3.85721E-04-2.17379E-05
 -1     22612 6.15391E-05 3.88542E-04-2.32098E-05
 -1     22613 9.17096E-05 3.81998E-04-2.46816E-05
 -1     22614 6.10921E-05 3.85721E-04-2.46816E-05
 -1     22619 6.15391E-05 3.88542E-04-2.61535E-05
 -1     22620 9.17096E-05 3.81998E-04-2.76254E-05
 -1     22621 6.10921E-05 3.85721E-04-2.76254E-05
 -1     22626 6.15391E-05 3.88542E-04-2.90972E-05
 -1     22627 9.17096E-05 3.81998E-04-3.05691E-05
 -1     22628 6.10921E-05 3.85721E-04-3.05691E-05
 -1     22633 6.15391E-05 3.88542E-04-3.20409E-05
 -1     22634 9.17096E-05 3.81998E-04-3.35128E-05
 -1     22635 6.10921E-05 3.85721E-04-3.35128E-05
 -1     22640 6.15391E-05 3.88542E-04-3.49847E-05
 -1     22641 9.17096E-05 3.81998E-04-3.64565E-05
 -1     22642 6.10921E-05 3.85721E-04-3.64565E-05
 -1     22647 6.15391E-05 3.88542E-04-3.79284E-05
 -1     22651 3.08228E-05 3.91641E-04-9.96302E-06
 -1     22655 3.08228E-05 3.91641E-04-1.29067E-05
 -1     22659 3.08228E-05 3.91641E-04-1.58505E-05
 -1     22663 3.08228E-05 3.91641E-04-1.87942E-05
 -1     22667 3.08228E-05 3.91641E-04-2.17379E-05
 -1     22671 3.08228E-05 3.91641E-04-2.46816E-05
 -1     22675 3.08228E-05 3.91641E-04-2.76254E-05
 -1     22679 3.08228E-05 3.91641E-04-3.05691E-05
 -1     22683 3.08228E-05 3.91641E-04-3.35128E-05
 -1     22687 3.08228E-05 3.91641E-04-3.64565E-05
 -1     22693 3.94364E-04 6.24611E-05-8.49116E-06
 -1     22694 3.97478E-04 3.12822E-05-9.96302E-06
 -1     22695 3.91424E-04 6.19955E-05-9.96302E-06
 -1     22700 3.94364E-04 6.24611E-05-1.14349E-05
 -1     22701 3.97478E-04 3.12822E-05-1.29067E-05
 -1     22702 3.91424E-04 6.19955E-05-1.29067E-05
 -1     22707 3.94364E-04 6.24611E-05-1.43786E-05
 -1     22708 3.97478E-04 3.12822E-05-1.58505E-05
 -1     22709 3.91424E-04 6.19955E-05-1.58505E-05
 -1     22714 3.94364E-04 6.24611E-05-1.73223E-05
 -1     22715 3.97478E-04 3.12822E-05-1.87942E-05
 -1     22716 3.91424E-04 6.19955E-05-1.87942E-05
 -1     22721 3.94364E-04 6.24611E-05-2.02661E-05
 -1     22722 3.97478E-04 3.12822E-05-2.17379E-05
 -1     22723 3.91424E-04 6.19955E-05-2.17379E-05
 -1     22728 3.94364E-04 6.24611E-05-2.32098E-05
 -1     22729 3.97478E-04 3.12822E-05-2.46816E-05
 -1     22730 3.91424E-04 6.19955E-05-2.46816E-05
 -1     22735 3.94364E-04 6.24611E-05-2.61535E-05
 -1     22736 3.97478E-04 3.12822E-05-2.76254E-05
 -1     22737 3.91424E-04 6.19955E-05-2.76254E-05
 -1     22742 3.94364E-04 6.24611E-05-2.90972E-05
 -1     22743 3.97478E-04 3.12822E-05-3.05691E-05
 -1     22744 3.91424E-04 6.19955E-05-3.05691E-05
 -1     22749 3.94364E-04 6.24611E-05-3.20409E-05
 -1     22750 3.97478E-04 3.12822E-05-3.35128E-05
 -1     22751 3.91424E-04 6.19955E-05-3.35128E-05
 -1     22756 3.94364E-04 6.24611E-05-3.49847E-05
 -1     22757 3.97478E-04 3.12822E-05-3.64565E-05
 -1     22758 3.91424E-04 6.19955E-05-3.64565E-05
 -1     22763 3.94364E-04 6.24611E-05-3.79284E-05
 -1     22767 3.79738E-04 1.23384E-04-8.49116E-06
 -1     22768 3.87690E-04 9.30762E-05-9.96302E-06
 -1     22769 3.76907E-04 1.22465E-04-9.96302E-06
 -1     22774 3.79738E-04 1.23384E-04-1.14349E-05
 -1     22775 3.87690E-04 9.30762E-05-1.29067E-05
 -1     22776 3.76907E-04 1.22465E-04-1.29067E-05
 -1     22781 3.79738E-04 1.23384E-04-1.43786E-05
 -1     22782 3.87690E-04 9.30762E-05-1.58505E-05
 -1     22783 3.76907E-04 1.22465E-04-1.58505E-05
 -1     22788 3.79738E-04 1.23384E-04-1.73223E-05
 -1     22789 3.87690E-04 9.30762E-05-1.87942E-05
 -1     22790 3.76907E-04 1.22465E-04-1.87942E-05
 -1     22795 3.79738E-04 1.23384E-04-2.02661E-05
 -1     22796 3.87690E-04 9.30762E-05-2.17379E-05
 -1     22797 3.76907E-04 1.22465E-04-2.17379E-05
 -1     22802 3.79738E-04 1.23384E-04-2.32098E-05
 -1     22803 3.87690E-04 9.30762E-05-2.46816E-05
 -1     22804 3.76907E-04 1.22465E-04-2.46816E-05
 -1     22809 3.79738E-04 1.23384E-04-2.61535E-05
 -1     22810 3.87690E-04 9.30762E-05-2.76254E-05
 -1     22811 3.76907E-04 1.22465E-04-2.76254E-05
 -1     22816 3.79738E-04 1.23384E-04-2.90972E-05
 -1     22817 3.87690E-04 9.30762E-05-3.05691E-05
 -1     22818 3.76907E-04 1.22465E-04-3.05691E-05
 -1     22823 3.79738E-04 1.23384E-04-3.20409E-05
 -1     22824 3.87690E-04 9.30762E-05-3.35128E-05
 -1     22825 3.76907E-04 1.22465E-04-3.35128E-05
 -1     22830 3.79738E-04 1.23384E-04-3.49847E-05
 -1     22831 3.87690E-04 9.30762E-05-3.64565E-05
 -1     22832 3.76907E-04 1.22465E-04-3.64565E-05
 -1     22837 3.79738E-04 1.23384E-04-3.79284E-05
 -1     22841 3.55761E-04 1.81269E-04-8.49116E-06
 -1     22842 3.68357E-04 1.52578E-04-9.96302E-06
 -1     22843 3.53109E-04 1.79918E-04-9.96302E-06
 -1     22848 3.55761E-04 1.81269E-04-1.14349E-05
 -1     22849 3.68357E-04 1.52578E-04-1.29067E-05
 -1     22850 3.53109E-04 1.79918E-04-1.29067E-05
 -1     22855 3.55761E-04 1.81269E-04-1.43786E-05
 -1     22856 3.68357E-04 1.52578E-04-1.58505E-05
 -1     22857 3.53109E-04 1.79918E-04-1.58505E-05
 -1     22862 3.55761E-04 1.81269E-04-1.73223E-05
 -1     22863 3.68357E-04 1.52578E-04-1.87942E-05
 -1     22864 3.53109E-04 1.79918E-04-1.87942E-05
 -1     22869 3.55761E-04 1.81269E-04-2.02661E-05
 -1     22870 3.68357E-04 1.52578E-04-2.17379E-05
 -1     22871 3.53109E-04 1.79918E-04-2.17379E-05
 -1     22876 3.55761E-04 1.81269E-04-2.32098E-05
 -1     22877 3.68357E-04 1.52578E-04-2.46816E-05
 -1     22878 3.53109E-04 1.79918E-04-2.46816E-05
 -1     22883 3.55761E-04 1.81269E-04-2.61535E-05
 -1     22884 3.68357E-04 1.52578E-04-2.76254E-05
 -1     22885 3.53109E-04 1.79918E-04-2.76254E-05
 -1     22890 3.55761E-04 1.81269E-04-2.90972E-05
 -1     22891 3.68357E-04 1.52578E-04-3.05691E-05
 -1     22892 3.53109E-04 1.79918E-04-3.05691E-05
 -1     22897 3.55761E-04 1.81269E-04-3.20409E-05
 -1     22898 3.68357E-04 1.52578E-04-3.35128E-05
 -1     22899 3.53109E-04 1.79918E-04-3.35128E-05
 -1     22904 3.55761E-04 1.81269E-04-3.49847E-05
 -1     22905 3.68357E-04 1.52578E-04-3.64565E-05
 -1     22906 3.53109E-04 1.79918E-04-3.64565E-05
 -1     22911 3.55761E-04 1.81269E-04-3.79284E-05
 -1     22915 3.23024E-04 2.34691E-04-8.49116E-06
 -1     22916 3.39953E-04 2.08324E-04-9.96302E-06
 -1     22917 3.20616E-04 2.32941E-04-9.96302E-06
 -1     22922 3.23024E-04 2.34691E-04-1.14349E-05
 -1     22923 3.39953E-04 2.08324E-04-1.29067E-05
 -1     22924 3.20616E-04 2.32941E-04-1.29067E-05
 -1     22929 3.23024E-04 2.34691E-04-1.43786E-05
 -1     22930 3.39953E-04 2.08324E-04-1.58505E-05
 -1     22931 3.20616E-04 2.32941E-04-1.58505E-05
 -1     22936 3.23024E-04 2.34691E-04-1.73223E-05
 -1     22937 3.39953E-04 2.08324E-04-1.87942E-05
 -1     22938 3.20616E-04 2.32941E-04-1.87942E-05
 -1     22943 3.23024E-04 2.34691E-04-2.02661E-05
 -1     22944 3.39953E-04 2.08324E-04-2.17379E-05
 -1     22945 3.20616E-04 2.32941E-04-2.17379E-05
 -1     22950 3.23024E-04 2.34691E-04-2.32098E-05
 -1     22951 3.39953E-04 2.08324E-04-2.46816E-05
 -1     22952 3.20616E-04 2.32941E-04-2.46816E-05
 -1     22957 3.23024E-04 2.34691E-04-2.61535E-05
 -1     22958 3.39953E-04 2.08324E-04-2.76254E-05
 -1     22959 3.20616E-04 2.32941E-04-2.76254E-05
 -1     22964 3.23024E-04 2.34691E-04-2.90972E-05
 -1     22965 3.39953E-04 2.08324E-04-3.05691E-05
 -1     22966 3.20616E-04 2.32941E-04-3.05691E-05
 -1     22971 3.23024E-04 2.34691E-04-3.20409E-05
 -1     22972 3.39953E-04 2.08324E-04-3.35128E-05
 -1     22973 3.20616E-04 2.32941E-04-3.35128E-05
 -1     22978 3.23024E-04 2.34691E-04-3.49847E-05
 -1     22979 3.39953E-04 2.08324E-04-3.64565E-05
 -1     22980 3.20616E-04 2.32941E-04-3.64565E-05
 -1     22985 3.23024E-04 2.34691E-04-3.79284E-05
 -1     22989 2.82334E-04 2.82334E-04-8.49116E-06
 -1     22990 3.03179E-04 2.58939E-04-9.96302E-06
 -1     22991 2.80229E-04 2.80229E-04-9.96302E-06
 -1     22996 2.82334E-04 2.82334E-04-1.14349E-05
 -1     22997 3.03179E-04 2.58939E-04-1.29067E-05
 -1     22998 2.80229E-04 2.80229E-04-1.29067E-05
 -1     23003 2.82334E-04 2.82334E-04-1.43786E-05
 -1     23004 3.03179E-04 2.58939E-04-1.58505E-05
 -1     23005 2.80229E-04 2.80229E-04-1.58505E-05
 -1     23010 2.82334E-04 2.82334E-04-1.73223E-05
 -1     23011 3.03179E-04 2.58939E-04-1.87942E-05
 -1     23012 2.80229E-04 2.80229E-04-1.87942E-05
 -1     23017 2.82334E-04 2.82334E-04-2.02661E-05
 -1     23018 3.03179E-04 2.58939E-04-2.17379E-05
 -1     23019 2.80229E-04 2.80229E-04-2.17379E-05
 -1     23024 2.82334E-04 2.82334E-04-2.32098E-05
 -1     23025 3.03179E-04 2.58939E-04-2.46816E-05
 -1     23026 2.80229E-04 2.80229E-04-2.46816E-05
 -1     23031 2.82334E-04 2.82334E-04-2.61535E-05
 -1     23032 3.03179E-04 2.58939E-04-2.76254E-05
 -1     23033 2.80229E-04 2.80229E-04-2.76254E-05
 -1     23038 2.82334E-04 2.82334E-04-2.90972E-05
 -1     23039 3.03179E-04 2.58939E-04-3.05691E-05
 -1     23040 2.80229E-04 2.80229E-04-3.05691E-05
 -1     23045 2.82334E-04 2.82334E-04-3.20409E-05
 -1     23046 3.03179E-04 2.58939E-04-3.35128E-05
 -1     23047 2.80229E-04 2.80229E-04-3.35128E-05
 -1     23052 2.82334E-04 2.82334E-04-3.49847E-05
 -1     23053 3.03179E-04 2.58939E-04-3.64565E-05
 -1     23054 2.80229E-04 2.80229E-04-3.64565E-05
 -1     23059 2.82334E-04 2.82334E-04-3.79284E-05
 -1     23063 2.34691E-04 3.23024E-04-8.49116E-06
 -1     23064 2.58939E-04 3.03179E-04-9.96302E-06
 -1     23065 2.32941E-04 3.20616E-04-9.96302E-06
 -1     23070 2.34691E-04 3.23024E-04-1.14349E-05
 -1     23071 2.58939E-04 3.03179E-04-1.29067E-05
 -1     23072 2.32941E-04 3.20616E-04-1.29067E-05
 -1     23077 2.34691E-04 3.23024E-04-1.43786E-05
 -1     23078 2.58939E-04 3.03179E-04-1.58505E-05
 -1     23079 2.32941E-04 3.20616E-04-1.58505E-05
 -1     23084 2.34691E-04 3.23024E-04-1.73223E-05
 -1     23085 2.58939E-04 3.03179E-04-1.87942E-05
 -1     23086 2.32941E-04 3.20616E-04-1.87942E-05
 -1     23091 2.34691E-04 3.23024E-04-2.02661E-05
 -1     23092 2.58939E-04 3.03179E-04-2.17379E-05
 -1     23093 2.32941E-04 3.20616E-04-2.17379E-05
 -1     23098 2.34691E-04 3.23024E-04-2.32098E-05
 -1     23099 2.58939E-04 3.03179E-04-2.46816E-05
 -1     23100 2.32941E-04 3.20616E-04-2.46816E-05
 -1     23105 2.34691E-04 3.23024E-04-2.61535E-05
 -1     23106 2.58939E-04 3.03179E-04-2.76254E-05
 -1     23107 2.32941E-04 3.20616E-04-2.76254E-05
 -1     23112 2.34691E-04 3.23024E-04-2.90972E-05
 -1     23113 2.58939E-04 3.03179E-04-3.05691E-05
 -1     23114 2.32941E-04 3.20616E-04-3.05691E-05
 -1     23119 2.34691E-04 3.23024E-04-3.20409E-05
 -1     23120 2.58939E-04 3.03179E-04-3.35128E-05
 -1     23121 2.32941E-04 3.20616E-04-3.35128E-05
 -1     23126 2.34691E-04 3.23024E-04-3.49847E-05
 -1     23127 2.58939E-04 3.03179E-04-3.64565E-05
 -1     23128 2.32941E-04 3.20616E-04-3.64565E-05
 -1     23133 2.34691E-04 3.23024E-04-3.79284E-05
 -1     23137 1.81269E-04 3.55761E-04-8.49116E-06
 -1     23138 2.08324E-04 3.39953E-04-9.96302E-06
 -1     23139 1.79918E-04 3.53109E-04-9.96302E-06
 -1     23144 1.81269E-04 3.55761E-04-1.14349E-05
 -1     23145 2.08324E-04 3.39953E-04-1.29067E-05
 -1     23146 1.79918E-04 3.53109E-04-1.29067E-05
 -1     23151 1.81269E-04 3.55761E-04-1.43786E-05
 -1     23152 2.08324E-04 3.39953E-04-1.58505E-05
 -1     23153 1.79918E-04 3.53109E-04-1.58505E-05
 -1     23158 1.81269E-04 3.55761E-04-1.73223E-05
 -1     23159 2.08324E-04 3.39953E-04-1.87942E-05
 -1     23160 1.79918E-04 3.53109E-04-1.87942E-05
 -1     23165 1.81269E-04 3.55761E-04-2.02661E-05
 -1     23166 2.08324E-04 3.39953E-04-2.17379E-05
 -1     23167 1.79918E-04 3.53109E-04-2.17379E-05
 -1     23172 1.81269E-04 3.55761E-04-2.32098E-05
 -1     23173 2.08324E-04 3.39953E-04-2.46816E-05
 -1     23174 1.79918E-04 3.53109E-04-2.46816E-05
 -1     23179 1.81269E-04 3.55761E-04-2.61535E-05
 -1     23180 2.08324E-04 3.39953E-04-2.76254E-05
 -1     23181 1.79918E-04 3.53109E-04-2.76254E-05
 -1     23186 1.81269E-04 3.55761E-04-2.90972E-05
 -1     23187 2.08324E-04 3.39953E-04-3.05691E-05
 -1     23188 1.79918E-04 3.53109E-04-3.05691E-05
 -1     23193 1.81269E-04 3.55761E-04-3.20409E-05
 -1     23194 2.08324E-04 3.39953E-04-3.35128E-05
 -1     23195 1.79918E-04 3.53109E-04-3.35128E-05
 -1     23200 1.81269E-04 3.55761E-04-3.49847E-05
 -1     23201 2.08324E-04 3.39953E-04-3.64565E-05
 -1     23202 1.79918E-04 3.53109E-04-3.64565E-05
 -1     23207 1.81269E-04 3.55761E-04-3.79284E-05
 -1     23211 1.23384E-04 3.79738E-04-8.49116E-06
 -1     23212 1.52578E-04 3.68357E-04-9.96302E-06
 -1     23213 1.22465E-04 3.76907E-04-9.96302E-06
 -1     23218 1.23384E-04 3.79738E-04-1.14349E-05
 -1     23219 1.52578E-04 3.68357E-04-1.29067E-05
 -1     23220 1.22465E-04 3.76907E-04-1.29067E-05
 -1     23225 1.23384E-04 3.79738E-04-1.43786E-05
 -1     23226 1.52578E-04 3.68357E-04-1.58505E-05
 -1     23227 1.22465E-04 3.76907E-04-1.58505E-05
 -1     23232 1.23384E-04 3.79738E-04-1.73223E-05
 -1     23233 1.52578E-04 3.68357E-04-1.87942E-05
 -1     23234 1.22465E-04 3.76907E-04-1.87942E-05
 -1     23239 1.23384E-04 3.79738E-04-2.02661E-05
 -1     23240 1.52578E-04 3.68357E-04-2.17379E-05
 -1     23241 1.22465E-04 3.76907E-04-2.17379E-05
 -1     23246 1.23384E-04 3.79738E-04-2.32098E-05
 -1     23247 1.52578E-04 3.68357E-04-2.46816E-05
 -1     23248 1.22465E-04 3.76907E-04-2.46816E-05
 -1     23253 1.23384E-04 3.79738E-04-2.61535E-05
 -1     23254 1.52578E-04 3.68357E-04-2.76254E-05
 -1     23255 1.22465E-04 3.76907E-04-2.76254E-05
 -1     23260 1.23384E-04 3.79738E-04-2.90972E-05
 -1     23261 1.52578E-04 3.68357E-04-3.05691E-05
 -1     23262 1.22465E-04 3.76907E-04-3.05691E-05
 -1     23267 1.23384E-04 3.79738E-04-3.20409E-05
 -1     23268 1.52578E-04 3.68357E-04-3.35128E-05
 -1     23269 1.22465E-04 3.76907E-04-3.35128E-05
 -1     23274 1.23384E-04 3.79738E-04-3.49847E-05
 -1     23275 1.52578E-04 3.68357E-04-3.64565E-05
 -1     23276 1.22465E-04 3.76907E-04-3.64565E-05
 -1     23281 1.23384E-04 3.79738E-04-3.79284E-05
 -1     23285 6.24611E-05 3.94364E-04-8.49116E-06
 -1     23286 9.30762E-05 3.87690E-04-9.96302E-06
 -1     23287 6.19955E-05 3.91424E-04-9.96302E-06
 -1     23292 6.24611E-05 3.94364E-04-1.14349E-05
 -1     23293 9.30762E-05 3.87690E-04-1.29067E-05
 -1     23294 6.19955E-05 3.91424E-04-1.29067E-05
 -1     23299 6.24611E-05 3.94364E-04-1.43786E-05
 -1     23300 9.30762E-05 3.87690E-04-1.58505E-05
 -1     23301 6.19955E-05 3.91424E-04-1.58505E-05
 -1     23306 6.24611E-05 3.94364E-04-1.73223E-05
 -1     23307 9.30762E-05 3.87690E-04-1.87942E-05
 -1     23308 6.19955E-05 3.91424E-04-1.87942E-05
 -1     23313 6.24611E-05 3.94364E-04-2.02661E-05
 -1     23314 9.30762E-05 3.87690E-04-2.17379E-05
 -1     23315 6.19955E-05 3.91424E-04-2.17379E-05
 -1     23320 6.24611E-05 3.94364E-04-2.32098E-05
 -1     23321 9.30762E-05 3.87690E-04-2.46816E-05
 -1     23322 6.19955E-05 3.91424E-04-2.46816E-05
 -1     23327 6.24611E-05 3.94364E-04-2.61535E-05
 -1     23328 9.30762E-05 3.87690E-04-2.76254E-05
 -1     23329 6.19955E-05 3.91424E-04-2.76254E-05
 -1     23334 6.24611E-05 3.94364E-04-2.90972E-05
 -1     23335 9.30762E-05 3.87690E-04-3.05691E-05
 -1     23336 6.19955E-05 3.91424E-04-3.05691E-05
 -1     23341 6.24611E-05 3.94364E-04-3.20409E-05
 -1     23342 9.30762E-05 3.87690E-04-3.35128E-05
 -1     23343 6.19955E-05 3.91424E-04-3.35128E-05
 -1     23348 6.24611E-05 3.94364E-04-3.49847E-05
 -1     23349 9.30762E-05 3.87690E-04-3.64565E-05
 -1     23350 6.19955E-05 3.91424E-04-3.64565E-05
 -1     23355 6.24611E-05 3.94364E-04-3.79284E-05
 -1     23359 3.12822E-05 3.97478E-04-9.96302E-06
 -1     23363 3.12822E-05 3.97478E-04-1.29067E-05
 -1     23367 3.12822E-05 3.97478E-04-1.58505E-05
 -1     23371 3.12822E-05 3.97478E-04-1.87942E-05
 -1     23375 3.12822E-05 3.97478E-04-2.17379E-05
 -1     23379 3.12822E-05 3.97478E-04-2.46816E-05
 -1     23383 3.12822E-05 3.97478E-04-2.76254E-05
 -1     23387 3.12822E-05 3.97478E-04-3.05691E-05
 -1     23391 3.12822E-05 3.97478E-04-3.35128E-05
 -1     23395 3.12822E-05 3.97478E-04-3.64565E-05
 -1     23401 4.00405E-04 6.34179E-05-8.49116E-06
 -1     23402 4.03536E-04 3.17589E-05-9.96302E-06
 -1     23403 3.97358E-04 6.29354E-05-9.96302E-06
 -1     23408 4.00405E-04 6.34179E-05-1.14349E-05
 -1     23409 4.03536E-04 3.17589E-05-1.29067E-05
 -1     23410 3.97358E-04 6.29354E-05-1.29067E-05
 -1     23415 4.00405E-04 6.34179E-05-1.43786E-05
 -1     23416 4.03536E-04 3.17589E-05-1.58505E-05
 -1     23417 3.97358E-04 6.29354E-05-1.58505E-05
 -1     23422 4.00405E-04 6.34179E-05-1.73223E-05
 -1     23423 4.03536E-04 3.17589E-05-1.87942E-05
 -1     23424 3.97358E-04 6.29354E-05-1.87942E-05
 -1     23429 4.00405E-04 6.34179E-05-2.02661E-05
 -1     23430 4.03536E-04 3.17589E-05-2.17379E-05
 -1     23431 3.97358E-04 6.29354E-05-2.17379E-05
 -1     23436 4.00405E-04 6.34179E-05-2.32098E-05
 -1     23437 4.03536E-04 3.17589E-05-2.46816E-05
 -1     23438 3.97358E-04 6.29354E-05-2.46816E-05
 -1     23443 4.00405E-04 6.34179E-05-2.61535E-05
 -1     23444 4.03536E-04 3.17589E-05-2.76254E-05
 -1     23445 3.97358E-04 6.29354E-05-2.76254E-05
 -1     23450 4.00405E-04 6.34179E-05-2.90972E-05
 -1     23451 4.03536E-04 3.17589E-05-3.05691E-05
 -1     23452 3.97358E-04 6.29354E-05-3.05691E-05
 -1     23457 4.00405E-04 6.34179E-05-3.20409E-05
 -1     23458 4.03536E-04 3.17589E-05-3.35128E-05
 -1     23459 3.97358E-04 6.29354E-05-3.35128E-05
 -1     23464 4.00405E-04 6.34179E-05-3.49847E-05
 -1     23465 4.03536E-04 3.17589E-05-3.64565E-05
 -1     23466 3.97358E-04 6.29354E-05-3.64565E-05
 -1     23471 4.00405E-04 6.34179E-05-3.79284E-05
 -1     23475 3.85555E-04 1.25274E-04-8.49116E-06
 -1     23476 3.93599E-04 9.44948E-05-9.96302E-06
 -1     23477 3.82621E-04 1.24321E-04-9.96302E-06
 -1     23482 3.85555E-04 1.25274E-04-1.14349E-05
 -1     23483 3.93599E-04 9.44948E-05-1.29067E-05
 -1     23484 3.82621E-04 1.24321E-04-1.29067E-05
 -1     23489 3.85555E-04 1.25274E-04-1.43786E-05
 -1     23490 3.93599E-04 9.44948E-05-1.58505E-05
 -1     23491 3.82621E-04 1.24321E-04-1.58505E-05
 -1     23496 3.85555E-04 1.25274E-04-1.73223E-05
 -1     23497 3.93599E-04 9.44948E-05-1.87942E-05
 -1     23498 3.82621E-04 1.24321E-04-1.87942E-05
 -1     23503 3.85555E-04 1.25274E-04-2.02661E-05
 -1     23504 3.93599E-04 9.44948E-05-2.17379E-05
 -1     23505 3.82621E-04 1.24321E-04-2.17379E-05
 -1     23510 3.85555E-04 1.25274E-04-2.32098E-05
 -1     23511 3.93599E-04 9.44948E-05-2.46816E-05
 -1     23512 3.82621E-04 1.24321E-04-2.46816E-05
 -1     23517 3.85555E-04 1.25274E-04-2.61535E-05
 -1     23518 3.93599E-04 9.44948E-05-2.76254E-05
 -1     23519 3.82621E-04 1.24321E-04-2.76254E-05
 -1     23524 3.85555E-04 1.25274E-04-2.90972E-05
 -1     23525 3.93599E-04 9.44948E-05-3.05691E-05
 -1     23526 3.82621E-04 1.24321E-04-3.05691E-05
 -1     23531 3.85555E-04 1.25274E-04-3.20409E-05
 -1     23532 3.93599E-04 9.44948E-05-3.35128E-05
 -1     23533 3.82621E-04 1.24321E-04-3.35128E-05
 -1     23538 3.85555E-04 1.25274E-04-3.49847E-05
 -1     23539 3.93599E-04 9.44948E-05-3.64565E-05
 -1     23540 3.82621E-04 1.24321E-04-3.64565E-05
 -1     23545 3.85555E-04 1.25274E-04-3.79284E-05
 -1     23549 3.61211E-04 1.84046E-04-8.49116E-06
 -1     23550 3.73971E-04 1.54904E-04-9.96302E-06
 -1     23551 3.58462E-04 1.82646E-04-9.96302E-06
 -1     23556 3.61211E-04 1.84046E-04-1.14349E-05
 -1     23557 3.73971E-04 1.54904E-04-1.29067E-05
 -1     23558 3.58462E-04 1.82646E-04-1.29067E-05
 -1     23563 3.61211E-04 1.84046E-04-1.43786E-05
 -1     23564 3.73971E-04 1.54904E-04-1.58505E-05
 -1     23565 3.58462E-04 1.82646E-04-1.58505E-05
 -1     23570 3.61211E-04 1.84046E-04-1.73223E-05
 -1     23571 3.73971E-04 1.54904E-04-1.87942E-05
 -1     23572 3.58462E-04 1.82646E-04-1.87942E-05
 -1     23577 3.61211E-04 1.84046E-04-2.02661E-05
 -1     23578 3.73971E-04 1.54904E-04-2.17379E-05
 -1     23579 3.58462E-04 1.82646E-04-2.17379E-05
 -1     23584 3.61211E-04 1.84046E-04-2.32098E-05
 -1     23585 3.73971E-04 1.54904E-04-2.46816E-05
 -1     23586 3.58462E-04 1.82646E-04-2.46816E-05
 -1     23591 3.61211E-04 1.84046E-04-2.61535E-05
 -1     23592 3.73971E-04 1.54904E-04-2.76254E-05
 -1     23593 3.58462E-04 1.82646E-04-2.76254E-05
 -1     23598 3.61211E-04 1.84046E-04-2.90972E-05
 -1     23599 3.73971E-04 1.54904E-04-3.05691E-05
 -1     23600 3.58462E-04 1.82646E-04-3.05691E-05
 -1     23605 3.61211E-04 1.84046E-04-3.20409E-05
 -1     23606 3.73971E-04 1.54904E-04-3.35128E-05
 -1     23607 3.58462E-04 1.82646E-04-3.35128E-05
 -1     23612 3.61211E-04 1.84046E-04-3.49847E-05
 -1     23613 3.73971E-04 1.54904E-04-3.64565E-05
 -1     23614 3.58462E-04 1.82646E-04-3.64565E-05
 -1     23619 3.61211E-04 1.84046E-04-3.79284E-05
 -1     23623 3.27972E-04 2.38286E-04-8.49116E-06
 -1     23624 3.45135E-04 2.11499E-04-9.96302E-06
 -1     23625 3.25477E-04 2.36473E-04-9.96302E-06
 -1     23630 3.27972E-04 2.38286E-04-1.14349E-05
 -1     23631 3.45135E-04 2.11499E-04-1.29067E-05
 -1     23632 3.25477E-04 2.36473E-04-1.29067E-05
 -1     23637 3.27972E-04 2.38286E-04-1.43786E-05
 -1     23638 3.45135E-04 2.11499E-04-1.58505E-05
 -1     23639 3.25477E-04 2.36473E-04-1.58505E-05
 -1     23644 3.27972E-04 2.38286E-04-1.73223E-05
 -1     23645 3.45135E-04 2.11499E-04-1.87942E-05
 -1     23646 3.25477E-04 2.36473E-04-1.87942E-05
 -1     23651 3.27972E-04 2.38286E-04-2.02661E-05
 -1     23652 3.45135E-04 2.11499E-04-2.17379E-05
 -1     23653 3.25477E-04 2.36473E-04-2.17379E-05
 -1     23658 3.27972E-04 2.38286E-04-2.32098E-05
 -1     23659 3.45135E-04 2.11499E-04-2.46816E-05
 -1     23660 3.25477E-04 2.36473E-04-2.46816E-05
 -1     23665 3.27972E-04 2.38286E-04-2.61535E-05
 -1     23666 3.45135E-04 2.11499E-04-2.76254E-05
 -1     23667 3.25477E-04 2.36473E-04-2.76254E-05
 -1     23672 3.27972E-04 2.38286E-04-2.90972E-05
 -1     23673 3.45135E-04 2.11499E-04-3.05691E-05
 -1     23674 3.25477E-04 2.36473E-04-3.05691E-05
 -1     23679 3.27972E-04 2.38286E-04-3.20409E-05
 -1     23680 3.45135E-04 2.11499E-04-3.35128E-05
 -1     23681 3.25477E-04 2.36473E-04-3.35128E-05
 -1     23686 3.27972E-04 2.38286E-04-3.49847E-05
 -1     23687 3.45135E-04 2.11499E-04-3.64565E-05
 -1     23688 3.25477E-04 2.36473E-04-3.64565E-05
 -1     23693 3.27972E-04 2.38286E-04-3.79284E-05
 -1     23697 2.86658E-04 2.86658E-04-8.49116E-06
 -1     23698 3.07800E-04 2.62886E-04-9.96302E-06
 -1     23699 2.84477E-04 2.84477E-04-9.96302E-06
 -1     23704 2.86658E-04 2.86658E-04-1.14349E-05
 -1     23705 3.07800E-04 2.62886E-04-1.29067E-05
 -1     23706 2.84477E-04 2.84477E-04-1.29067E-05
 -1     23711 2.86658E-04 2.86658E-04-1.43786E-05
 -1     23712 3.07800E-04 2.62886E-04-1.58505E-05
 -1     23713 2.84477E-04 2.84477E-04-1.58505E-05
 -1     23718 2.86658E-04 2.86658E-04-1.73223E-05
 -1     23719 3.07800E-04 2.62886E-04-1.87942E-05
 -1     23720 2.84477E-04 2.84477E-04-1.87942E-05
 -1     23725 2.86658E-04 2.86658E-04-2.02661E-05
 -1     23726 3.07800E-04 2.62886E-04-2.17379E-05
 -1     23727 2.84477E-04 2.84477E-04-2.17379E-05
 -1     23732 2.86658E-04 2.86658E-04-2.32098E-05
 -1     23733 3.07800E-04 2.62886E-04-2.46816E-05
 -1     23734 2.84477E-04 2.84477E-04-2.46816E-05
 -1     23739 2.86658E-04 2.86658E-04-2.61535E-05
 -1     23740 3.07800E-04 2.62886E-04-2.76254E-05
 -1     23741 2.84477E-04 2.84477E-04-2.76254E-05
 -1     23746 2.86658E-04 2.86658E-04-2.90972E-05
 -1     23747 3.07800E-04 2.62886E-04-3.05691E-05
 -1     23748 2.84477E-04 2.84477E-04-3.05691E-05
 -1     23753 2.86658E-04 2.86658E-04-3.20409E-05
 -1     23754 3.07800E-04 2.62886E-04-3.35128E-05
 -1     23755 2.84477E-04 2.84477E-04-3.35128E-05
 -1     23760 2.86658E-04 2.86658E-04-3.49847E-05
 -1     23761 3.07800E-04 2.62886E-04-3.64565E-05
 -1     23762 2.84477E-04 2.84477E-04-3.64565E-05
 -1     23767 2.86658E-04 2.86658E-04-3.79284E-05
 -1     23771 2.38286E-04 3.27972E-04-8.49116E-06
 -1     23772 2.62886E-04 3.07800E-04-9.96302E-06
 -1     23773 2.36473E-04 3.25477E-04-9.96302E-06
 -1     23778 2.38286E-04 3.27972E-04-1.14349E-05
 -1     23779 2.62886E-04 3.07800E-04-1.29067E-05
 -1     23780 2.36473E-04 3.25477E-04-1.29067E-05
 -1     23785 2.38286E-04 3.27972E-04-1.43786E-05
 -1     23786 2.62886E-04 3.07800E-04-1.58505E-05
 -1     23787 2.36473E-04 3.25477E-04-1.58505E-05
 -1     23792 2.38286E-04 3.27972E-04-1.73223E-05
 -1     23793 2.62886E-04 3.07800E-04-1.87942E-05
 -1     23794 2.36473E-04 3.25477E-04-1.87942E-05
 -1     23799 2.38286E-04 3.27972E-04-2.02661E-05
 -1     23800 2.62886E-04 3.07800E-04-2.17379E-05
 -1     23801 2.36473E-04 3.25477E-04-2.17379E-05
 -1     23806 2.38286E-04 3.27972E-04-2.32098E-05
 -1     23807 2.62886E-04 3.07800E-04-2.46816E-05
 -1     23808 2.36473E-04 3.25477E-04-2.46816E-05
 -1     23813 2.38286E-04 3.27972E-04-2.61535E-05
 -1     23814 2.62886E-04 3.07800E-04-2.76254E-05
 -1     23815 2.36473E-04 3.25477E-04-2.76254E-05
 -1     23820 2.38286E-04 3.27972E-04-2.90972E-05
 -1     23821 2.62886E-04 3.07800E-04-3.05691E-05
 -1     23822 2.36473E-04 3.25477E-04-3.05691E-05
 -1     23827 2.38286E-04 3.27972E-04-3.20409E-05
 -1     23828 2.62886E-04 3.07800E-04-3.35128E-05
 -1     23829 2.36473E-04 3.25477E-04-3.35128E-05
 -1     23834 2.38286E-04 3.27972E-04-3.49847E-05
 -1     23835 2.62886E-04 3.07800E-04-3.64565E-05
 -1     23836 2.36473E-04 3.25477E-04-3.64565E-05
 -1     23841 2.38286E-04 3.27972E-04-3.79284E-05
 -1     23845 1.84046E-04 3.61211E-04-8.49116E-06
 -1     23846 2.11499E-04 3.45135E-04-9.96302E-06
 -1     23847 1.82646E-04 3.58462E-04-9.96302E-06
 -1     23852 1.84046E-04 3.61211E-04-1.14349E-05
 -1     23853 2.11499E-04 3.45135E-04-1.29067E-05
 -1     23854 1.82646E-04 3.58462E-04-1.29067E-05
 -1     23859 1.84046E-04 3.61211E-04-1.43786E-05
 -1     23860 2.11499E-04 3.45135E-04-1.58505E-05
 -1     23861 1.82646E-04 3.58462E-04-1.58505E-05
 -1     23866 1.84046E-04 3.61211E-04-1.73223E-05
 -1     23867 2.11499E-04 3.45135E-04-1.87942E-05
 -1     23868 1.82646E-04 3.58462E-04-1.87942E-05
 -1     23873 1.84046E-04 3.61211E-04-2.02661E-05
 -1     23874 2.11499E-04 3.45135E-04-2.17379E-05
 -1     23875 1.82646E-04 3.58462E-04-2.17379E-05
 -1     23880 1.84046E-04 3.61211E-04-2.32098E-05
 -1     23881 2.11499E-04 3.45135E-04-2.46816E-05
 -1     23882 1.82646E-04 3.58462E-04-2.46816E-05
 -1     23887 1.84046E-04 3.61211E-04-2.61535E-05
 -1     23888 2.11499E-04 3.45135E-04-2.76254E-05
 -1     23889 1.82646E-04 3.58462E-04-2.76254E-05
 -1     23894 1.84046E-04 3.61211E-04-2.90972E-05
 -1     23895 2.11499E-04 3.45135E-04-3.05691E-05
 -1     23896 1.82646E-04 3.58462E-04-3.05691E-05
 -1     23901 1.84046E-04 3.61211E-04-3.20409E-05
 -1     23902 2.11499E-04 3.45135E-04-3.35128E-05
 -1     23903 1.82646E-04 3.58462E-04-3.35128E-05
 -1     23908 1.84046E-04 3.61211E-04-3.49847E-05
 -1     23909 2.11499E-04 3.45135E-04-3.64565E-05
 -1     23910 1.82646E-04 3.58462E-04-3.64565E-05
 -1     23915 1.84046E-04 3.61211E-04-3.79284E-05
 -1     23919 1.25274E-04 3.85555E-04-8.49116E-06
 -1     23920 1.54904E-04 3.73971E-04-9.96302E-06
 -1     23921 1.24321E-04 3.82621E-04-9.96302E-06
 -1     23926 1.25274E-04 3.85555E-04-1.14349E-05
 -1     23927 1.54904E-04 3.73971E-04-1.29067E-05
 -1     23928 1.24321E-04 3.82621E-04-1.29067E-05
 -1     23933 1.25274E-04 3.85555E-04-1.43786E-05
 -1     23934 1.54904E-04 3.73971E-04-1.58505E-05
 -1     23935 1.24321E-04 3.82621E-04-1.58505E-05
 -1     23940 1.25274E-04 3.85555E-04-1.73223E-05
 -1     23941 1.54904E-04 3.73971E-04-1.87942E-05
 -1     23942 1.24321E-04 3.82621E-04-1.87942E-05
 -1     23947 1.25274E-04 3.85555E-04-2.02661E-05
 -1     23948 1.54904E-04 3.73971E-04-2.17379E-05
 -1     23949 1.24321E-04 3.82621E-04-2.17379E-05
 -1     23954 1.25274E-04 3.85555E-04-2.32098E-05
 -1     23955 1.54904E-04 3.73971E-04-2.46816E-05
 -1     23956 1.24321E-04 3.82621E-04-2.46816E-05
 -1     23961 1.25274E-04 3.85555E-04-2.61535E-05
 -1     23962 1.54904E-04 3.73971E-04-2.76254E-05
 -1     23963 1.24321E-04 3.82621E-04-2.76254E-05
 -1     23968 1.25274E-04 3.85555E-04-2.90972E-05
 -1     23969 1.54904E-04 3.73971E-04-3.05691E-05
 -1     23970 1.24321E-04 3.82621E-04-3.05691E-05
 -1     23975 1.25274E-04 3.85555E-04-3.20409E-05
 -1     23976 1.54904E-04 3.73971E-04-3.35128E-05
 -1     23977 1.24321E-04 3.82621E-04-3.35128E-05
 -1     23982 1.25274E-04 3.85555E-04-3.49847E-05
 -1     23983 1.54904E-04 3.73971E-04-3.64565E-05
 -1     23984 1.24321E-04 3.82621E-04-3.64565E-05
 -1     23989 1.25274E-04 3.85555E-04-3.79284E-05
 -1     23993 6.34179E-05 4.00405E-04-8.49116E-06
 -1     23994 9.44948E-05 3.93599E-04-9.96302E-06
 -1     23995 6.29354E-05 3.97358E-04-9.96302E-06
 -1     24000 6.34179E-05 4.00405E-04-1.14349E-05
 -1     24001 9.44948E-05 3.93599E-04-1.29067E-05
 -1     24002 6.29354E-05 3.97358E-04-1.29067E-05
 -1     24007 6.34179E-05 4.00405E-04-1.43786E-05
 -1     24008 9.44948E-05 3.93599E-04-1.58505E-05
 -1     24009 6.29354E-05 3.97358E-04-1.58505E-05
 -1     24014 6.34179E-05 4.00405E-04-1.73223E-05
 -1     24015 9.44948E-05 3.93599E-04-1.87942E-05
 -1     24016 6.29354E-05 3.97358E-04-1.87942E-05
 -1     24021 6.34179E-05 4.00405E-04-2.02661E-05
 -1     24022 9.44948E-05 3.93599E-04-2.17379E-05
 -1     24023 6.29354E-05 3.97358E-04-2.17379E-05
 -1     24028 6.34179E-05 4.00405E-04-2.32098E-05
 -1     24029 9.44948E-05 3.93599E-04-2.46816E-05
 -1     24030 6.29354E-05 3.97358E-04-2.46816E-05
 -1     24035 6.34179E-05 4.00405E-04-2.61535E-05
 -1     24036 9.44948E-05 3.93599E-04-2.76254E-05
 -1     24037 6.29354E-05 3.97358E-04-2.76254E-05
 -1     24042 6.34179E-05 4.00405E-04-2.90972E-05
 -1     24043 9.44948E-05 3.93599E-04-3.05691E-05
 -1     24044 6.29354E-05 3.97358E-04-3.05691E-05
 -1     24049 6.34179E-05 4.00405E-04-3.20409E-05
 -1     24050 9.44948E-05 3.93599E-04-3.35128E-05
 -1     24051 6.29354E-05 3.97358E-04-3.35128E-05
 -1     24056 6.34179E-05 4.00405E-04-3.49847E-05
 -1     24057 9.44948E-05 3.93599E-04-3.64565E-05
 -1     24058 6.29354E-05 3.97358E-04-3.64565E-05
 -1     24063 6.34179E-05 4.00405E-04-3.79284E-05
 -1     24067 3.17589E-05 4.03536E-04-9.96302E-06
 -1     24071 3.17589E-05 4.03536E-04-1.29067E-05
 -1     24075 3.17589E-05 4.03536E-04-1.58505E-05
 -1     24079 3.17589E-05 4.03536E-04-1.87942E-05
 -1     24083 3.17589E-05 4.03536E-04-2.17379E-05
 -1     24087 3.17589E-05 4.03536E-04-2.46816E-05
 -1     24091 3.17589E-05 4.03536E-04-2.76254E-05
 -1     24095 3.17589E-05 4.03536E-04-3.05691E-05
 -1     24099 3.17589E-05 4.03536E-04-3.35128E-05
 -1     24103 3.17589E-05 4.03536E-04-3.64565E-05
 -1     24109 4.06645E-04 6.44063E-05-8.49116E-06
 -1     24110 4.09796E-04 3.22516E-05-9.96302E-06
 -1     24111 4.03501E-04 6.39083E-05-9.96302E-06
 -1     24116 4.06645E-04 6.44063E-05-1.14349E-05
 -1     24117 4.09796E-04 3.22516E-05-1.29067E-05
 -1     24118 4.03501E-04 6.39083E-05-1.29067E-05
 -1     24123 4.06645E-04 6.44063E-05-1.43786E-05
 -1     24124 4.09796E-04 3.22516E-05-1.58505E-05
 -1     24125 4.03501E-04 6.39083E-05-1.58505E-05
 -1     24130 4.06645E-04 6.44063E-05-1.73223E-05
 -1     24131 4.09796E-04 3.22516E-05-1.87942E-05
 -1     24132 4.03501E-04 6.39083E-05-1.87942E-05
 -1     24137 4.06645E-04 6.44063E-05-2.02661E-05
 -1     24138 4.09796E-04 3.22516E-05-2.17379E-05
 -1     24139 4.03501E-04 6.39083E-05-2.17379E-05
 -1     24144 4.06645E-04 6.44063E-05-2.32098E-05
 -1     24145 4.09796E-04 3.22516E-05-2.46816E-05
 -1     24146 4.03501E-04 6.39083E-05-2.46816E-05
 -1     24151 4.06645E-04 6.44063E-05-2.61535E-05
 -1     24152 4.09796E-04 3.22516E-05-2.76254E-05
 -1     24153 4.03501E-04 6.39083E-05-2.76254E-05
 -1     24158 4.06645E-04 6.44063E-05-2.90972E-05
 -1     24159 4.09796E-04 3.22516E-05-3.05691E-05
 -1     24160 4.03501E-04 6.39083E-05-3.05691E-05
 -1     24165 4.06645E-04 6.44063E-05-3.20409E-05
 -1     24166 4.09796E-04 3.22516E-05-3.35128E-05
 -1     24167 4.03501E-04 6.39083E-05-3.35128E-05
 -1     24172 4.06645E-04 6.44063E-05-3.49847E-05
 -1     24173 4.09796E-04 3.22516E-05-3.64565E-05
 -1     24174 4.03501E-04 6.39083E-05-3.64565E-05
 -1     24179 4.06645E-04 6.44063E-05-3.79284E-05
 -1     24183 3.91563E-04 1.27227E-04-8.49116E-06
 -1     24184 3.99705E-04 9.59607E-05-9.96302E-06
 -1     24185 3.88536E-04 1.26243E-04-9.96302E-06
 -1     24190 3.91563E-04 1.27227E-04-1.14349E-05
 -1     24191 3.99705E-04 9.59607E-05-1.29067E-05
 -1     24192 3.88536E-04 1.26243E-04-1.29067E-05
 -1     24197 3.91563E-04 1.27227E-04-1.43786E-05
 -1     24198 3.99705E-04 9.59607E-05-1.58505E-05
 -1     24199 3.88536E-04 1.26243E-04-1.58505E-05
 -1     24204 3.91563E-04 1.27227E-04-1.73223E-05
 -1     24205 3.99705E-04 9.59607E-05-1.87942E-05
 -1     24206 3.88536E-04 1.26243E-04-1.87942E-05
 -1     24211 3.91563E-04 1.27227E-04-2.02661E-05
 -1     24212 3.99705E-04 9.59607E-05-2.17379E-05
 -1     24213 3.88536E-04 1.26243E-04-2.17379E-05
 -1     24218 3.91563E-04 1.27227E-04-2.32098E-05
 -1     24219 3.99705E-04 9.59607E-05-2.46816E-05
 -1     24220 3.88536E-04 1.26243E-04-2.46816E-05
 -1     24225 3.91563E-04 1.27227E-04-2.61535E-05
 -1     24226 3.99705E-04 9.59607E-05-2.76254E-05
 -1     24227 3.88536E-04 1.26243E-04-2.76254E-05
 -1     24232 3.91563E-04 1.27227E-04-2.90972E-05
 -1     24233 3.99705E-04 9.59607E-05-3.05691E-05
 -1     24234 3.88536E-04 1.26243E-04-3.05691E-05
 -1     24239 3.91563E-04 1.27227E-04-3.20409E-05
 -1     24240 3.99705E-04 9.59607E-05-3.35128E-05
 -1     24241 3.88536E-04 1.26243E-04-3.35128E-05
 -1     24246 3.91563E-04 1.27227E-04-3.49847E-05
 -1     24247 3.99705E-04 9.59607E-05-3.64565E-05
 -1     24248 3.88536E-04 1.26243E-04-3.64565E-05
 -1     24253 3.91563E-04 1.27227E-04-3.79284E-05
 -1     24257 3.66840E-04 1.86914E-04-8.49116E-06
 -1     24258 3.79772E-04 1.57307E-04-9.96302E-06
 -1     24259 3.64004E-04 1.85469E-04-9.96302E-06
 -1     24264 3.66840E-04 1.86914E-04-1.14349E-05
 -1     24265 3.79772E-04 1.57307E-04-1.29067E-05
 -1     24266 3.64004E-04 1.85469E-04-1.29067E-05
 -1     24271 3.66840E-04 1.86914E-04-1.43786E-05
 -1     24272 3.79772E-04 1.57307E-04-1.58505E-05
 -1     24273 3.64004E-04 1.85469E-04-1.58505E-05
 -1     24278 3.66840E-04 1.86914E-04-1.73223E-05
 -1     24279 3.79772E-04 1.57307E-04-1.87942E-05
 -1     24280 3.64004E-04 1.85469E-04-1.87942E-05
 -1     24285 3.66840E-04 1.86914E-04-2.02661E-05
 -1     24286 3.79772E-04 1.57307E-04-2.17379E-05
 -1     24287 3.64004E-04 1.85469E-04-2.17379E-05
 -1     24292 3.66840E-04 1.86914E-04-2.32098E-05
 -1     24293 3.79772E-04 1.57307E-04-2.46816E-05
 -1     24294 3.64004E-04 1.85469E-04-2.46816E-05
 -1     24299 3.66840E-04 1.86914E-04-2.61535E-05
 -1     24300 3.79772E-04 1.57307E-04-2.76254E-05
 -1     24301 3.64004E-04 1.85469E-04-2.76254E-05
 -1     24306 3.66840E-04 1.86914E-04-2.90972E-05
 -1     24307 3.79772E-04 1.57307E-04-3.05691E-05
 -1     24308 3.64004E-04 1.85469E-04-3.05691E-05
 -1     24313 3.66840E-04 1.86914E-04-3.20409E-05
 -1     24314 3.79772E-04 1.57307E-04-3.35128E-05
 -1     24315 3.64004E-04 1.85469E-04-3.35128E-05
 -1     24320 3.66840E-04 1.86914E-04-3.49847E-05
 -1     24321 3.79772E-04 1.57307E-04-3.64565E-05
 -1     24322 3.64004E-04 1.85469E-04-3.64565E-05
 -1     24327 3.66840E-04 1.86914E-04-3.79284E-05
 -1     24331 3.33084E-04 2.42000E-04-8.49116E-06
 -1     24332 3.50489E-04 2.14780E-04-9.96302E-06
 -1     24333 3.30509E-04 2.40129E-04-9.96302E-06
 -1     24338 3.33084E-04 2.42000E-04-1.14349E-05
 -1     24339 3.50489E-04 2.14780E-04-1.29067E-05
 -1     24340 3.30509E-04 2.40129E-04-1.29067E-05
 -1     24345 3.33084E-04 2.42000E-04-1.43786E-05
 -1     24346 3.50489E-04 2.14780E-04-1.58505E-05
 -1     24347 3.30509E-04 2.40129E-04-1.58505E-05
 -1     24352 3.33084E-04 2.42000E-04-1.73223E-05
 -1     24353 3.50489E-04 2.14780E-04-1.87942E-05
 -1     24354 3.30509E-04 2.40129E-04-1.87942E-05
 -1     24359 3.33084E-04 2.42000E-04-2.02661E-05
 -1     24360 3.50489E-04 2.14780E-04-2.17379E-05
 -1     24361 3.30509E-04 2.40129E-04-2.17379E-05
 -1     24366 3.33084E-04 2.42000E-04-2.32098E-05
 -1     24367 3.50489E-04 2.14780E-04-2.46816E-05
 -1     24368 3.30509E-04 2.40129E-04-2.46816E-05
 -1     24373 3.33084E-04 2.42000E-04-2.61535E-05
 -1     24374 3.50489E-04 2.14780E-04-2.76254E-05
 -1     24375 3.30509E-04 2.40129E-04-2.76254E-05
 -1     24380 3.33084E-04 2.42000E-04-2.90972E-05
 -1     24381 3.50489E-04 2.14780E-04-3.05691E-05
 -1     24382 3.30509E-04 2.40129E-04-3.05691E-05
 -1     24387 3.33084E-04 2.42000E-04-3.20409E-05
 -1     24388 3.50489E-04 2.14780E-04-3.35128E-05
 -1     24389 3.30509E-04 2.40129E-04-3.35128E-05
 -1     24394 3.33084E-04 2.42000E-04-3.49847E-05
 -1     24395 3.50489E-04 2.14780E-04-3.64565E-05
 -1     24396 3.30509E-04 2.40129E-04-3.64565E-05
 -1     24401 3.33084E-04 2.42000E-04-3.79284E-05
 -1     24405 2.91126E-04 2.91126E-04-8.49116E-06
 -1     24406 3.12575E-04 2.66964E-04-9.96302E-06
 -1     24407 2.88875E-04 2.88875E-04-9.96302E-06
 -1     24412 2.91126E-04 2.91126E-04-1.14349E-05
 -1     24413 3.12575E-04 2.66964E-04-1.29067E-05
 -1     24414 2.88875E-04 2.88875E-04-1.29067E-05
 -1     24419 2.91126E-04 2.91126E-04-1.43786E-05
 -1     24420 3.12575E-04 2.66964E-04-1.58505E-05
 -1     24421 2.88875E-04 2.88875E-04-1.58505E-05
 -1     24426 2.91126E-04 2.91126E-04-1.73223E-05
 -1     24427 3.12575E-04 2.66964E-04-1.87942E-05
 -1     24428 2.88875E-04 2.88875E-04-1.87942E-05
 -1     24433 2.91126E-04 2.91126E-04-2.02661E-05
 -1     24434 3.12575E-04 2.66964E-04-2.17379E-05
 -1     24435 2.88875E-04 2.88875E-04-2.17379E-05
 -1     24440 2.91126E-04 2.91126E-04-2.32098E-05
 -1     24441 3.12575E-04 2.66964E-04-2.46816E-05
 -1     24442 2.88875E-04 2.88875E-04-2.46816E-05
 -1     24447 2.91126E-04 2.91126E-04-2.61535E-05
 -1     24448 3.12575E-04 2.66964E-04-2.76254E-05
 -1     24449 2.88875E-04 2.88875E-04-2.76254E-05
 -1     24454 2.91126E-04 2.91126E-04-2.90972E-05
 -1     24455 3.12575E-04 2.66964E-04-3.05691E-05
 -1     24456 2.88875E-04 2.88875E-04-3.05691E-05
 -1     24461 2.91126E-04 2.91126E-04-3.20409E-05
 -1     24462 3.12575E-04 2.66964E-04-3.35128E-05
 -1     24463 2.88875E-04 2.88875E-04-3.35128E-05
 -1     24468 2.91126E-04 2.91126E-04-3.49847E-05
 -1     24469 3.12575E-04 2.66964E-04-3.64565E-05
 -1     24470 2.88875E-04 2.88875E-04-3.64565E-05
 -1     24475 2.91126E-04 2.91126E-04-3.79284E-05
 -1     24479 2.42000E-04 3.33084E-04-8.49116E-06
 -1     24480 2.66964E-04 3.12575E-04-9.96302E-06
 -1     24481 2.40129E-04 3.30509E-04-9.96302E-06
 -1     24486 2.42000E-04 3.33084E-04-1.14349E-05
 -1     24487 2.66964E-04 3.12575E-04-1.29067E-05
 -1     24488 2.40129E-04 3.30509E-04-1.29067E-05
 -1     24493 2.42000E-04 3.33084E-04-1.43786E-05
 -1     24494 2.66964E-04 3.12575E-04-1.58505E-05
 -1     24495 2.40129E-04 3.30509E-04-1.58505E-05
 -1     24500 2.42000E-04 3.33084E-04-1.73223E-05
 -1     24501 2.66964E-04 3.12575E-04-1.87942E-05
 -1     24502 2.40129E-04 3.30509E-04-1.87942E-05
 -1     24507 2.42000E-04 3.33084E-04-2.02661E-05
 -1     24508 2.66964E-04 3.12575E-04-2.17379E-05
 -1     24509 2.40129E-04 3.30509E-04-2.17379E-05
 -1     24514 2.42000E-04 3.33084E-04-2.32098E-05
 -1     24515 2.66964E-04 3.12575E-04-2.46816E-05
 -1     24516 2.40129E-04 3.30509E-04-2.46816E-05
 -1     24521 2.42000E-04 3.33084E-04-2.61535E-05
 -1     24522 2.66964E-04 3.12575E-04-2.76254E-05
 -1     24523 2.40129E-04 3.30509E-04-2.76254E-05
 -1     24528 2.42000E-04 3.33084E-04-2.90972E-05
 -1     24529 2.66964E-04 3.12575E-04-3.05691E-05
 -1     24530 2.40129E-04 3.30509E-04-3.05691E-05
 -1     24535 2.42000E-04 3.33084E-04-3.20409E-05
 -1     24536 2.66964E-04 3.12575E-04-3.35128E-05
 -1     24537 2.40129E-04 3.30509E-04-3.35128E-05
 -1     24542 2.42000E-04 3.33084E-04-3.49847E-05
 -1     24543 2.66964E-04 3.12575E-04-3.64565E-05
 -1     24544 2.40129E-04 3.30509E-04-3.64565E-05
 -1     24549 2.42000E-04 3.33084E-04-3.79284E-05
 -1     24553 1.86914E-04 3.66840E-04-8.49116E-06
 -1     24554 2.14780E-04 3.50489E-04-9.96302E-06
 -1     24555 1.85469E-04 3.64004E-04-9.96302E-06
 -1     24560 1.86914E-04 3.66840E-04-1.14349E-05
 -1     24561 2.14780E-04 3.50489E-04-1.29067E-05
 -1     24562 1.85469E-04 3.64004E-04-1.29067E-05
 -1     24567 1.86914E-04 3.66840E-04-1.43786E-05
 -1     24568 2.14780E-04 3.50489E-04-1.58505E-05
 -1     24569 1.85469E-04 3.64004E-04-1.58505E-05
 -1     24574 1.86914E-04 3.66840E-04-1.73223E-05
 -1     24575 2.14780E-04 3.50489E-04-1.87942E-05
 -1     24576 1.85469E-04 3.64004E-04-1.87942E-05
 -1     24581 1.86914E-04 3.66840E-04-2.02661E-05
 -1     24582 2.14780E-04 3.50489E-04-2.17379E-05
 -1     24583 1.85469E-04 3.64004E-04-2.17379E-05
 -1     24588 1.86914E-04 3.66840E-04-2.32098E-05
 -1     24589 2.14780E-04 3.50489E-04-2.46816E-05
 -1     24590 1.85469E-04 3.64004E-04-2.46816E-05
 -1     24595 1.86914E-04 3.66840E-04-2.61535E-05
 -1     24596 2.14780E-04 3.50489E-04-2.76254E-05
 -1     24597 1.85469E-04 3.64004E-04-2.76254E-05
 -1     24602 1.86914E-04 3.66840E-04-2.90972E-05
 -1     24603 2.14780E-04 3.50489E-04-3.05691E-05
 -1     24604 1.85469E-04 3.64004E-04-3.05691E-05
 -1     24609 1.86914E-04 3.66840E-04-3.20409E-05
 -1     24610 2.14780E-04 3.50489E-04-3.35128E-05
 -1     24611 1.85469E-04 3.64004E-04-3.35128E-05
 -1     24616 1.86914E-04 3.66840E-04-3.49847E-05
 -1     24617 2.14780E-04 3.50489E-04-3.64565E-05
 -1     24618 1.85469E-04 3.64004E-04-3.64565E-05
 -1     24623 1.86914E-04 3.66840E-04-3.79284E-05
 -1     24627 1.27227E-04 3.91563E-04-8.49116E-06
 -1     24628 1.57307E-04 3.79772E-04-9.96302E-06
 -1     24629 1.26243E-04 3.88536E-04-9.96302E-06
 -1     24634 1.27227E-04 3.91563E-04-1.14349E-05
 -1     24635 1.57307E-04 3.79772E-04-1.29067E-05
 -1     24636 1.26243E-04 3.88536E-04-1.29067E-05
 -1     24641 1.27227E-04 3.91563E-04-1.43786E-05
 -1     24642 1.57307E-04 3.79772E-04-1.58505E-05
 -1     24643 1.26243E-04 3.88536E-04-1.58505E-05
 -1     24648 1.27227E-04 3.91563E-04-1.73223E-05
 -1     24649 1.57307E-04 3.79772E-04-1.87942E-05
 -1     24650 1.26243E-04 3.88536E-04-1.87942E-05
 -1     24655 1.27227E-04 3.91563E-04-2.02661E-05
 -1     24656 1.57307E-04 3.79772E-04-2.17379E-05
 -1     24657 1.26243E-04 3.88536E-04-2.17379E-05
 -1     24662 1.27227E-04 3.91563E-04-2.32098E-05
 -1     24663 1.57307E-04 3.79772E-04-2.46816E-05
 -1     24664 1.26243E-04 3.88536E-04-2.46816E-05
 -1     24669 1.27227E-04 3.91563E-04-2.61535E-05
 -1     24670 1.57307E-04 3.79772E-04-2.76254E-05
 -1     24671 1.26243E-04 3.88536E-04-2.76254E-05
 -1     24676 1.27227E-04 3.91563E-04-2.90972E-05
 -1     24677 1.57307E-04 3.79772E-04-3.05691E-05
 -1     24678 1.26243E-04 3.88536E-04-3.05691E-05
 -1     24683 1.27227E-04 3.91563E-04-3.20409E-05
 -1     24684 1.57307E-04 3.79772E-04-3.35128E-05
 -1     24685 1.26243E-04 3.88536E-04-3.35128E-05
 -1     24690 1.27227E-04 3.91563E-04-3.49847E-05
 -1     24691 1.57307E-04 3.79772E-04-3.64565E-05
 -1     24692 1.26243E-04 3.88536E-04-3.64565E-05
 -1     24697 1.27227E-04 3.91563E-04-3.79284E-05
 -1     24701 6.44063E-05 4.06645E-04-8.49116E-06
 -1     24702 9.59607E-05 3.99705E-04-9.96302E-06
 -1     24703 6.39083E-05 4.03501E-04-9.96302E-06
 -1     24708 6.44063E-05 4.06645E-04-1.14349E-05
 -1     24709 9.59607E-05 3.99705E-04-1.29067E-05
 -1     24710 6.39083E-05 4.03501E-04-1.29067E-05
 -1     24715 6.44063E-05 4.06645E-04-1.43786E-05
 -1     24716 9.59607E-05 3.99705E-04-1.58505E-05
 -1     24717 6.39083E-05 4.03501E-04-1.58505E-05
 -1     24722 6.44063E-05 4.06645E-04-1.73223E-05
 -1     24723 9.59607E-05 3.99705E-04-1.87942E-05
 -1     24724 6.39083E-05 4.03501E-04-1.87942E-05
 -1     24729 6.44063E-05 4.06645E-04-2.02661E-05
 -1     24730 9.59607E-05 3.99705E-04-2.17379E-05
 -1     24731 6.39083E-05 4.03501E-04-2.17379E-05
 -1     24736 6.44063E-05 4.06645E-04-2.32098E-05
 -1     24737 9.59607E-05 3.99705E-04-2.46816E-05
 -1     24738 6.39083E-05 4.03501E-04-2.46816E-05
 -1     24743 6.44063E-05 4.06645E-04-2.61535E-05
 -1     24744 9.59607E-05 3.99705E-04-2.76254E-05
 -1     24745 6.39083E-05 4.03501E-04-2.76254E-05
 -1     24750 6.44063E-05 4.06645E-04-2.90972E-05
 -1     24751 9.59607E-05 3.99705E-04-3.05691E-05
 -1     24752 6.39083E-05 4.03501E-04-3.05691E-05
 -1     24757 6.44063E-05 4.06645E-04-3.20409E-05
 -1     24758 9.59607E-05 3.99705E-04-3.35128E-05
 -1     24759 6.39083E-05 4.03501E-04-3.35128E-05
 -1     24764 6.44063E-05 4.06645E-04-3.49847E-05
 -1     24765 9.59607E-05 3.99705E-04-3.64565E-05
 -1     24766 6.39083E-05 4.03501E-04-3.64565E-05
 -1     24771 6.44063E-05 4.06645E-04-3.79284E-05
 -1     24775 3.22516E-05 4.09796E-04-9.96302E-06
 -1     24779 3.22516E-05 4.09796E-04-1.29067E-05
 -1     24783 3.22516E-05 4.09796E-04-1.58505E-05
 -1     24787 3.22516E-05 4.09796E-04-1.87942E-05
 -1     24791 3.22516E-05 4.09796E-04-2.17379E-05
 -1     24795 3.22516E-05 4.09796E-04-2.46816E-05
 -1     24799 3.22516E-05 4.09796E-04-2.76254E-05
 -1     24803 3.22516E-05 4.09796E-04-3.05691E-05
 -1     24807 3.22516E-05 4.09796E-04-3.35128E-05
 -1     24811 3.22516E-05 4.09796E-04-3.64565E-05
 -1     24817 4.13067E-04 6.54234E-05-8.49116E-06
 -1     24818 4.16239E-04 3.27587E-05-9.96302E-06
 -1     24819 4.09834E-04 6.49114E-05-9.96302E-06
 -1     24824 4.13067E-04 6.54234E-05-1.14349E-05
 -1     24825 4.16239E-04 3.27587E-05-1.29067E-05
 -1     24826 4.09834E-04 6.49114E-05-1.29067E-05
 -1     24831 4.13067E-04 6.54234E-05-1.43786E-05
 -1     24832 4.16239E-04 3.27587E-05-1.58505E-05
 -1     24833 4.09834E-04 6.49114E-05-1.58505E-05
 -1     24838 4.13067E-04 6.54234E-05-1.73223E-05
 -1     24839 4.16239E-04 3.27587E-05-1.87942E-05
 -1     24840 4.09834E-04 6.49114E-05-1.87942E-05
 -1     24845 4.13067E-04 6.54234E-05-2.02661E-05
 -1     24846 4.16239E-04 3.27587E-05-2.17379E-05
 -1     24847 4.09834E-04 6.49114E-05-2.17379E-05
 -1     24852 4.13067E-04 6.54234E-05-2.32098E-05
 -1     24853 4.16239E-04 3.27587E-05-2.46816E-05
 -1     24854 4.09834E-04 6.49114E-05-2.46816E-05
 -1     24859 4.13067E-04 6.54234E-05-2.61535E-05
 -1     24860 4.16239E-04 3.27587E-05-2.76254E-05
 -1     24861 4.09834E-04 6.49114E-05-2.76254E-05
 -1     24866 4.13067E-04 6.54234E-05-2.90972E-05
 -1     24867 4.16239E-04 3.27587E-05-3.05691E-05
 -1     24868 4.09834E-04 6.49114E-05-3.05691E-05
 -1     24873 4.13067E-04 6.54234E-05-3.20409E-05
 -1     24874 4.16239E-04 3.27587E-05-3.35128E-05
 -1     24875 4.09834E-04 6.49114E-05-3.35128E-05
 -1     24880 4.13067E-04 6.54234E-05-3.49847E-05
 -1     24881 4.16239E-04 3.27587E-05-3.64565E-05
 -1     24882 4.09834E-04 6.49114E-05-3.64565E-05
 -1     24887 4.13067E-04 6.54234E-05-3.79284E-05
 -1     24891 3.97747E-04 1.29236E-04-8.49116E-06
 -1     24892 4.05990E-04 9.74696E-05-9.96302E-06
 -1     24893 3.94634E-04 1.28224E-04-9.96302E-06
 -1     24898 3.97747E-04 1.29236E-04-1.14349E-05
 -1     24899 4.05990E-04 9.74696E-05-1.29067E-05
 -1     24900 3.94634E-04 1.28224E-04-1.29067E-05
 -1     24905 3.97747E-04 1.29236E-04-1.43786E-05
 -1     24906 4.05990E-04 9.74696E-05-1.58505E-05
 -1     24907 3.94634E-04 1.28224E-04-1.58505E-05
 -1     24912 3.97747E-04 1.29236E-04-1.73223E-05
 -1     24913 4.05990E-04 9.74696E-05-1.87942E-05
 -1     24914 3.94634E-04 1.28224E-04-1.87942E-05
 -1     24919 3.97747E-04 1.29236E-04-2.02661E-05
 -1     24920 4.05990E-04 9.74696E-05-2.17379E-05
 -1     24921 3.94634E-04 1.28224E-04-2.17379E-05
 -1     24926 3.97747E-04 1.29236E-04-2.32098E-05
 -1     24927 4.05990E-04 9.74696E-05-2.46816E-05
 -1     24928 3.94634E-04 1.28224E-04-2.46816E-05
 -1     24933 3.97747E-04 1.29236E-04-2.61535E-05
 -1     24934 4.05990E-04 9.74696E-05-2.76254E-05
 -1     24935 3.94634E-04 1.28224E-04-2.76254E-05
 -1     24940 3.97747E-04 1.29236E-04-2.90972E-05
 -1     24941 4.05990E-04 9.74696E-05-3.05691E-05
 -1     24942 3.94634E-04 1.28224E-04-3.05691E-05
 -1     24947 3.97747E-04 1.29236E-04-3.20409E-05
 -1     24948 4.05990E-04 9.74696E-05-3.35128E-05
 -1     24949 3.94634E-04 1.28224E-04-3.35128E-05
 -1     24954 3.97747E-04 1.29236E-04-3.49847E-05
 -1     24955 4.05990E-04 9.74696E-05-3.64565E-05
 -1     24956 3.94634E-04 1.28224E-04-3.64565E-05
 -1     24961 3.97747E-04 1.29236E-04-3.79284E-05
 -1     24965 3.72633E-04 1.89866E-04-8.49116E-06
 -1     24966 3.85744E-04 1.59780E-04-9.96302E-06
 -1     24967 3.69717E-04 1.88380E-04-9.96302E-06
 -1     24972 3.72633E-04 1.89866E-04-1.14349E-05
 -1     24973 3.85744E-04 1.59780E-04-1.29067E-05
 -1     24974 3.69717E-04 1.88380E-04-1.29067E-05
 -1     24979 3.72633E-04 1.89866E-04-1.43786E-05
 -1     24980 3.85744E-04 1.59780E-04-1.58505E-05
 -1     24981 3.69717E-04 1.88380E-04-1.58505E-05
 -1     24986 3.72633E-04 1.89866E-04-1.73223E-05
 -1     24987 3.85744E-04 1.59780E-04-1.87942E-05
 -1     24988 3.69717E-04 1.88380E-04-1.87942E-05
 -1     24993 3.72633E-04 1.89866E-04-2.02661E-05
 -1     24994 3.85744E-04 1.59780E-04-2.17379E-05
 -1     24995 3.69717E-04 1.88380E-04-2.17379E-05
 -1     25000 3.72633E-04 1.89866E-04-2.32098E-05
 -1     25001 3.85744E-04 1.59780E-04-2.46816E-05
 -1     25002 3.69717E-04 1.88380E-04-2.46816E-05
 -1     25007 3.72633E-04 1.89866E-04-2.61535E-05
 -1     25008 3.85744E-04 1.59780E-04-2.76254E-05
 -1     25009 3.69717E-04 1.88380E-04-2.76254E-05
 -1     25014 3.72633E-04 1.89866E-04-2.90972E-05
 -1     25015 3.85744E-04 1.59780E-04-3.05691E-05
 -1     25016 3.69717E-04 1.88380E-04-3.05691E-05
 -1     25021 3.72633E-04 1.89866E-04-3.20409E-05
 -1     25022 3.85744E-04 1.59780E-04-3.35128E-05
 -1     25023 3.69717E-04 1.88380E-04-3.35128E-05
 -1     25028 3.72633E-04 1.89866E-04-3.49847E-05
 -1     25029 3.85744E-04 1.59780E-04-3.64565E-05
 -1     25030 3.69717E-04 1.88380E-04-3.64565E-05
 -1     25035 3.72633E-04 1.89866E-04-3.79284E-05
 -1     25039 3.38344E-04 2.45821E-04-8.49116E-06
 -1     25040 3.56000E-04 2.18157E-04-9.96302E-06
 -1     25041 3.35696E-04 2.43897E-04-9.96302E-06
 -1     25046 3.38344E-04 2.45821E-04-1.14349E-05
 -1     25047 3.56000E-04 2.18157E-04-1.29067E-05
 -1     25048 3.35696E-04 2.43897E-04-1.29067E-05
 -1     25053 3.38344E-04 2.45821E-04-1.43786E-05
 -1     25054 3.56000E-04 2.18157E-04-1.58505E-05
 -1     25055 3.35696E-04 2.43897E-04-1.58505E-05
 -1     25060 3.38344E-04 2.45821E-04-1.73223E-05
 -1     25061 3.56000E-04 2.18157E-04-1.87942E-05
 -1     25062 3.35696E-04 2.43897E-04-1.87942E-05
 -1     25067 3.38344E-04 2.45821E-04-2.02661E-05
 -1     25068 3.56000E-04 2.18157E-04-2.17379E-05
 -1     25069 3.35696E-04 2.43897E-04-2.17379E-05
 -1     25074 3.38344E-04 2.45821E-04-2.32098E-05
 -1     25075 3.56000E-04 2.18157E-04-2.46816E-05
 -1     25076 3.35696E-04 2.43897E-04-2.46816E-05
 -1     25081 3.38344E-04 2.45821E-04-2.61535E-05
 -1     25082 3.56000E-04 2.18157E-04-2.76254E-05
 -1     25083 3.35696E-04 2.43897E-04-2.76254E-05
 -1     25088 3.38344E-04 2.45821E-04-2.90972E-05
 -1     25089 3.56000E-04 2.18157E-04-3.05691E-05
 -1     25090 3.35696E-04 2.43897E-04-3.05691E-05
 -1     25095 3.38344E-04 2.45821E-04-3.20409E-05
 -1     25096 3.56000E-04 2.18157E-04-3.35128E-05
 -1     25097 3.35696E-04 2.43897E-04-3.35128E-05
 -1     25102 3.38344E-04 2.45821E-04-3.49847E-05
 -1     25103 3.56000E-04 2.18157E-04-3.64565E-05
 -1     25104 3.35696E-04 2.43897E-04-3.64565E-05
 -1     25109 3.38344E-04 2.45821E-04-3.79284E-05
 -1     25113 2.95723E-04 2.95723E-04-8.49116E-06
 -1     25114 3.17490E-04 2.71162E-04-9.96302E-06
 -1     25115 2.93409E-04 2.93409E-04-9.96302E-06
 -1     25120 2.95723E-04 2.95723E-04-1.14349E-05
 -1     25121 3.17490E-04 2.71162E-04-1.29067E-05
 -1     25122 2.93409E-04 2.93409E-04-1.29067E-05
 -1     25127 2.95723E-04 2.95723E-04-1.43786E-05
 -1     25128 3.17490E-04 2.71162E-04-1.58505E-05
 -1     25129 2.93409E-04 2.93409E-04-1.58505E-05
 -1     25134 2.95723E-04 2.95723E-04-1.73223E-05
 -1     25135 3.17490E-04 2.71162E-04-1.87942E-05
 -1     25136 2.93409E-04 2.93409E-04-1.87942E-05
 -1     25141 2.95723E-04 2.95723E-04-2.02661E-05
 -1     25142 3.17490E-04 2.71162E-04-2.17379E-05
 -1     25143 2.93409E-04 2.93409E-04-2.17379E-05
 -1     25148 2.95723E-04 2.95723E-04-2.32098E-05
 -1     25149 3.17490E-04 2.71162E-04-2.46816E-05
 -1     25150 2.93409E-04 2.93409E-04-2.46816E-05
 -1     25155 2.95723E-04 2.95723E-04-2.61535E-05
 -1     25156 3.17490E-04 2.71162E-04-2.76254E-05
 -1     25157 2.93409E-04 2.93409E-04-2.76254E-05
 -1     25162 2.95723E-04 2.95723E-04-2.90972E-05
 -1     25163 3.17490E-04 2.71162E-04-3.05691E-05
 -1     25164 2.93409E-04 2.93409E-04-3.05691E-05
 -1     25169 2.95723E-04 2.95723E-04-3.20409E-05
 -1     25170 3.17490E-04 2.71162E-04-3.35128E-05
 -1     25171 2.93409E-04 2.93409E-04-3.35128E-05
 -1     25176 2.95723E-04 2.95723E-04-3.49847E-05
 -1     25177 3.17490E-04 2.71162E-04-3.64565E-05
 -1     25178 2.93409E-04 2.93409E-04-3.64565E-05
 -1     25183 2.95723E-04 2.95723E-04-3.79284E-05
 -1     25187 2.45821E-04 3.38344E-04-8.49116E-06
 -1     25188 2.71162E-04 3.17490E-04-9.96302E-06
 -1     25189 2.43897E-04 3.35696E-04-9.96302E-06
 -1     25194 2.45821E-04 3.38344E-04-1.14349E-05
 -1     25195 2.71162E-04 3.17490E-04-1.29067E-05
 -1     25196 2.43897E-04 3.35696E-04-1.29067E-05
 -1     25201 2.45821E-04 3.38344E-04-1.43786E-05
 -1     25202 2.71162E-04 3.17490E-04-1.58505E-05
 -1     25203 2.43897E-04 3.35696E-04-1.58505E-05
 -1     25208 2.45821E-04 3.38344E-04-1.73223E-05
 -1     25209 2.71162E-04 3.17490E-04-1.87942E-05
 -1     25210 2.43897E-04 3.35696E-04-1.87942E-05
 -1     25215 2.45821E-04 3.38344E-04-2.02661E-05
 -1     25216 2.71162E-04 3.17490E-04-2.17379E-05
 -1     25217 2.43897E-04 3.35696E-04-2.17379E-05
 -1     25222 2.45821E-04 3.38344E-04-2.32098E-05
 -1     25223 2.71162E-04 3.17490E-04-2.46816E-05
 -1     25224 2.43897E-04 3.35696E-04-2.46816E-05
 -1     25229 2.45821E-04 3.38344E-04-2.61535E-05
 -1     25230 2.71162E-04 3.17490E-04-2.76254E-05
 -1     25231 2.43897E-04 3.35696E-04-2.76254E-05
 -1     25236 2.45821E-04 3.38344E-04-2.90972E-05
 -1     25237 2.71162E-04 3.17490E-04-3.05691E-05
 -1     25238 2.43897E-04 3.35696E-04-3.05691E-05
 -1     25243 2.45821E-04 3.38344E-04-3.20409E-05
 -1     25244 2.71162E-04 3.17490E-04-3.35128E-05
 -1     25245 2.43897E-04 3.35696E-04-3.35128E-05
 -1     25250 2.45821E-04 3.38344E-04-3.49847E-05
 -1     25251 2.71162E-04 3.17490E-04-3.64565E-05
 -1     25252 2.43897E-04 3.35696E-04-3.64565E-05
 -1     25257 2.45821E-04 3.38344E-04-3.79284E-05
 -1     25261 1.89866E-04 3.72633E-04-8.49116E-06
 -1     25262 2.18157E-04 3.56000E-04-9.96302E-06
 -1     25263 1.88380E-04 3.69717E-04-9.96302E-06
 -1     25268 1.89866E-04 3.72633E-04-1.14349E-05
 -1     25269 2.18157E-04 3.56000E-04-1.29067E-05
 -1     25270 1.88380E-04 3.69717E-04-1.29067E-05
 -1     25275 1.89866E-04 3.72633E-04-1.43786E-05
 -1     25276 2.18157E-04 3.56000E-04-1.58505E-05
 -1     25277 1.88380E-04 3.69717E-04-1.58505E-05
 -1     25282 1.89866E-04 3.72633E-04-1.73223E-05
 -1     25283 2.18157E-04 3.56000E-04-1.87942E-05
 -1     25284 1.88380E-04 3.69717E-04-1.87942E-05
 -1     25289 1.89866E-04 3.72633E-04-2.02661E-05
 -1     25290 2.18157E-04 3.56000E-04-2.17379E-05
 -1     25291 1.88380E-04 3.69717E-04-2.17379E-05
 -1     25296 1.89866E-04 3.72633E-04-2.32098E-05
 -1     25297 2.18157E-04 3.56000E-04-2.46816E-05
 -1     25298 1.88380E-04 3.69717E-04-2.46816E-05
 -1     25303 1.89866E-04 3.72633E-04-2.61535E-05
 -1     25304 2.18157E-04 3.56000E-04-2.76254E-05
 -1     25305 1.88380E-04 3.69717E-04-2.76254E-05
 -1     25310 1.89866E-04 3.72633E-04-2.90972E-05
 -1     25311 2.18157E-04 3.56000E-04-3.05691E-05
 -1     25312 1.88380E-04 3.69717E-04-3.05691E-05
 -1     25317 1.89866E-04 3.72633E-04-3.20409E-05
 -1     25318 2.18157E-04 3.56000E-04-3.35128E-05
 -1     25319 1.88380E-04 3.69717E-04-3.35128E-05
 -1     25324 1.89866E-04 3.72633E-04-3.49847E-05
 -1     25325 2.18157E-04 3.56000E-04-3.64565E-05
 -1     25326 1.88380E-04 3.69717E-04-3.64565E-05
 -1     25331 1.89866E-04 3.72633E-04-3.79284E-05
 -1     25335 1.29236E-04 3.97747E-04-8.49116E-06
 -1     25336 1.59780E-04 3.85744E-04-9.96302E-06
 -1     25337 1.28224E-04 3.94634E-04-9.96302E-06
 -1     25342 1.29236E-04 3.97747E-04-1.14349E-05
 -1     25343 1.59780E-04 3.85744E-04-1.29067E-05
 -1     25344 1.28224E-04 3.94634E-04-1.29067E-05
 -1     25349 1.29236E-04 3.97747E-04-1.43786E-05
 -1     25350 1.59780E-04 3.85744E-04-1.58505E-05
 -1     25351 1.28224E-04 3.94634E-04-1.58505E-05
 -1     25356 1.29236E-04 3.97747E-04-1.73223E-05
 -1     25357 1.59780E-04 3.85744E-04-1.87942E-05
 -1     25358 1.28224E-04 3.94634E-04-1.87942E-05
 -1     25363 1.29236E-04 3.97747E-04-2.02661E-05
 -1     25364 1.59780E-04 3.85744E-04-2.17379E-05
 -1     25365 1.28224E-04 3.94634E-04-2.17379E-05
 -1     25370 1.29236E-04 3.97747E-04-2.32098E-05
 -1     25371 1.59780E-04 3.85744E-04-2.46816E-05
 -1     25372 1.28224E-04 3.94634E-04-2.46816E-05
 -1     25377 1.29236E-04 3.97747E-04-2.61535E-05
 -1     25378 1.59780E-04 3.85744E-04-2.76254E-05
 -1     25379 1.28224E-04 3.94634E-04-2.76254E-05
 -1     25384 1.29236E-04 3.97747E-04-2.90972E-05
 -1     25385 1.59780E-04 3.85744E-04-3.05691E-05
 -1     25386 1.28224E-04 3.94634E-04-3.05691E-05
 -1     25391 1.29236E-04 3.97747E-04-3.20409E-05
 -1     25392 1.59780E-04 3.85744E-04-3.35128E-05
 -1     25393 1.28224E-04 3.94634E-04-3.35128E-05
 -1     25398 1.29236E-04 3.97747E-04-3.49847E-05
 -1     25399 1.59780E-04 3.85744E-04-3.64565E-05
 -1     25400 1.28224E-04 3.94634E-04-3.64565E-05
 -1     25405 1.29236E-04 3.97747E-04-3.79284E-05
 -1     25409 6.54234E-05 4.13067E-04-8.49116E-06
 -1     25410 9.74696E-05 4.05990E-04-9.96302E-06
 -1     25411 6.49114E-05 4.09834E-04-9.96302E-06
 -1     25416 6.54234E-05 4.13067E-04-1.14349E-05
 -1     25417 9.74696E-05 4.05990E-04-1.29067E-05
 -1     25418 6.49114E-05 4.09834E-04-1.29067E-05
 -1     25423 6.54234E-05 4.13067E-04-1.43786E-05
 -1     25424 9.74696E-05 4.05990E-04-1.58505E-05
 -1     25425 6.49114E-05 4.09834E-04-1.58505E-05
 -1     25430 6.54234E-05 4.13067E-04-1.73223E-05
 -1     25431 9.74696E-05 4.05990E-04-1.87942E-05
 -1     25432 6.49114E-05 4.09834E-04-1.87942E-05
 -1     25437 6.54234E-05 4.13067E-04-2.02661E-05
 -1     25438 9.74696E-05 4.05990E-04-2.17379E-05
 -1     25439 6.49114E-05 4.09834E-04-2.17379E-05
 -1     25444 6.54234E-05 4.13067E-04-2.32098E-05
 -1     25445 9.74696E-05 4.05990E-04-2.46816E-05
 -1     25446 6.49114E-05 4.09834E-04-2.46816E-05
 -1     25451 6.54234E-05 4.13067E-04-2.61535E-05
 -1     25452 9.74696E-05 4.05990E-04-2.76254E-05
 -1     25453 6.49114E-05 4.09834E-04-2.76254E-05
 -1     25458 6.54234E-05 4.13067E-04-2.90972E-05
 -1     25459 9.74696E-05 4.05990E-04-3.05691E-05
 -1     25460 6.49114E-05 4.09834E-04-3.05691E-05
 -1     25465 6.54234E-05 4.13067E-04-3.20409E-05
 -1     25466 9.74696E-05 4.05990E-04-3.35128E-05
 -1     25467 6.49114E-05 4.09834E-04-3.35128E-05
 -1     25472 6.54234E-05 4.13067E-04-3.49847E-05
 -1     25473 9.74696E-05 4.05990E-04-3.64565E-05
 -1     25474 6.49114E-05 4.09834E-04-3.64565E-05
 -1     25479 6.54234E-05 4.13067E-04-3.79284E-05
 -1     25483 3.27587E-05 4.16239E-04-9.96302E-06
 -1     25487 3.27587E-05 4.16239E-04-1.29067E-05
 -1     25491 3.27587E-05 4.16239E-04-1.58505E-05
 -1     25495 3.27587E-05 4.16239E-04-1.87942E-05
 -1     25499 3.27587E-05 4.16239E-04-2.17379E-05
 -1     25503 3.27587E-05 4.16239E-04-2.46816E-05
 -1     25507 3.27587E-05 4.16239E-04-2.76254E-05
 -1     25511 3.27587E-05 4.16239E-04-3.05691E-05
 -1     25515 3.27587E-05 4.16239E-04-3.35128E-05
 -1     25519 3.27587E-05 4.16239E-04-3.64565E-05
 -1     25525 4.19655E-04 6.64668E-05-8.49116E-06
 -1     25526 4.22851E-04 3.32791E-05-9.96302E-06
 -1     25527 4.16341E-04 6.59420E-05-9.96302E-06
 -1     25532 4.19655E-04 6.64668E-05-1.14349E-05
 -1     25533 4.22851E-04 3.32791E-05-1.29067E-05
 -1     25534 4.16341E-04 6.59420E-05-1.29067E-05
 -1     25539 4.19655E-04 6.64668E-05-1.43786E-05
 -1     25540 4.22851E-04 3.32791E-05-1.58505E-05
 -1     25541 4.16341E-04 6.59420E-05-1.58505E-05
 -1     25546 4.19655E-04 6.64668E-05-1.73223E-05
 -1     25547 4.22851E-04 3.32791E-05-1.87942E-05
 -1     25548 4.16341E-04 6.59420E-05-1.87942E-05
 -1     25553 4.19655E-04 6.64668E-05-2.02661E-05
 -1     25554 4.22851E-04 3.32791E-05-2.17379E-05
 -1     25555 4.16341E-04 6.59420E-05-2.17379E-05
 -1     25560 4.19655E-04 6.64668E-05-2.32098E-05
 -1     25561 4.22851E-04 3.32791E-05-2.46816E-05
 -1     25562 4.16341E-04 6.59420E-05-2.46816E-05
 -1     25567 4.19655E-04 6.64668E-05-2.61535E-05
 -1     25568 4.22851E-04 3.32791E-05-2.76254E-05
 -1     25569 4.16341E-04 6.59420E-05-2.76254E-05
 -1     25574 4.19655E-04 6.64668E-05-2.90972E-05
 -1     25575 4.22851E-04 3.32791E-05-3.05691E-05
 -1     25576 4.16341E-04 6.59420E-05-3.05691E-05
 -1     25581 4.19655E-04 6.64668E-05-3.20409E-05
 -1     25582 4.22851E-04 3.32791E-05-3.35128E-05
 -1     25583 4.16341E-04 6.59420E-05-3.35128E-05
 -1     25588 4.19655E-04 6.64668E-05-3.49847E-05
 -1     25589 4.22851E-04 3.32791E-05-3.64565E-05
 -1     25590 4.16341E-04 6.59420E-05-3.64565E-05
 -1     25595 4.19655E-04 6.64668E-05-3.79284E-05
 -1     25599 4.04091E-04 1.31297E-04-8.49116E-06
 -1     25600 4.12439E-04 9.90179E-05-9.96302E-06
 -1     25601 4.00900E-04 1.30260E-04-9.96302E-06
 -1     25606 4.04091E-04 1.31297E-04-1.14349E-05
 -1     25607 4.12439E-04 9.90179E-05-1.29067E-05
 -1     25608 4.00900E-04 1.30260E-04-1.29067E-05
 -1     25613 4.04091E-04 1.31297E-04-1.43786E-05
 -1     25614 4.12439E-04 9.90179E-05-1.58505E-05
 -1     25615 4.00900E-04 1.30260E-04-1.58505E-05
 -1     25620 4.04091E-04 1.31297E-04-1.73223E-05
 -1     25621 4.12439E-04 9.90179E-05-1.87942E-05
 -1     25622 4.00900E-04 1.30260E-04-1.87942E-05
 -1     25627 4.04091E-04 1.31297E-04-2.02661E-05
 -1     25628 4.12439E-04 9.90179E-05-2.17379E-05
 -1     25629 4.00900E-04 1.30260E-04-2.17379E-05
 -1     25634 4.04091E-04 1.31297E-04-2.32098E-05
 -1     25635 4.12439E-04 9.90179E-05-2.46816E-05
 -1     25636 4.00900E-04 1.30260E-04-2.46816E-05
 -1     25641 4.04091E-04 1.31297E-04-2.61535E-05
 -1     25642 4.12439E-04 9.90179E-05-2.76254E-05
 -1     25643 4.00900E-04 1.30260E-04-2.76254E-05
 -1     25648 4.04091E-04 1.31297E-04-2.90972E-05
 -1     25649 4.12439E-04 9.90179E-05-3.05691E-05
 -1     25650 4.00900E-04 1.30260E-04-3.05691E-05
 -1     25655 4.04091E-04 1.31297E-04-3.20409E-05
 -1     25656 4.12439E-04 9.90179E-05-3.35128E-05
 -1     25657 4.00900E-04 1.30260E-04-3.35128E-05
 -1     25662 4.04091E-04 1.31297E-04-3.49847E-05
 -1     25663 4.12439E-04 9.90179E-05-3.64565E-05
 -1     25664 4.00900E-04 1.30260E-04-3.64565E-05
 -1     25669 4.04091E-04 1.31297E-04-3.79284E-05
 -1     25673 3.78576E-04 1.92894E-04-8.49116E-06
 -1     25674 3.91871E-04 1.62318E-04-9.96302E-06
 -1     25675 3.75587E-04 1.91371E-04-9.96302E-06
 -1     25680 3.78576E-04 1.92894E-04-1.14349E-05
 -1     25681 3.91871E-04 1.62318E-04-1.29067E-05
 -1     25682 3.75587E-04 1.91371E-04-1.29067E-05
 -1     25687 3.78576E-04 1.92894E-04-1.43786E-05
 -1     25688 3.91871E-04 1.62318E-04-1.58505E-05
 -1     25689 3.75587E-04 1.91371E-04-1.58505E-05
 -1     25694 3.78576E-04 1.92894E-04-1.73223E-05
 -1     25695 3.91871E-04 1.62318E-04-1.87942E-05
 -1     25696 3.75587E-04 1.91371E-04-1.87942E-05
 -1     25701 3.78576E-04 1.92894E-04-2.02661E-05
 -1     25702 3.91871E-04 1.62318E-04-2.17379E-05
 -1     25703 3.75587E-04 1.91371E-04-2.17379E-05
 -1     25708 3.78576E-04 1.92894E-04-2.32098E-05
 -1     25709 3.91871E-04 1.62318E-04-2.46816E-05
 -1     25710 3.75587E-04 1.91371E-04-2.46816E-05
 -1     25715 3.78576E-04 1.92894E-04-2.61535E-05
 -1     25716 3.91871E-04 1.62318E-04-2.76254E-05
 -1     25717 3.75587E-04 1.91371E-04-2.76254E-05
 -1     25722 3.78576E-04 1.92894E-04-2.90972E-05
 -1     25723 3.91871E-04 1.62318E-04-3.05691E-05
 -1     25724 3.75587E-04 1.91371E-04-3.05691E-05
 -1     25729 3.78576E-04 1.92894E-04-3.20409E-05
 -1     25730 3.91871E-04 1.62318E-04-3.35128E-05
 -1     25731 3.75587E-04 1.91371E-04-3.35128E-05
 -1     25736 3.78576E-04 1.92894E-04-3.49847E-05
 -1     25737 3.91871E-04 1.62318E-04-3.64565E-05
 -1     25738 3.75587E-04 1.91371E-04-3.64565E-05
 -1     25743 3.78576E-04 1.92894E-04-3.79284E-05
 -1     25747 3.43740E-04 2.49742E-04-8.49116E-06
 -1     25748 3.61655E-04 2.21622E-04-9.96302E-06
 -1     25749 3.41026E-04 2.47770E-04-9.96302E-06
 -1     25754 3.43740E-04 2.49742E-04-1.14349E-05
 -1     25755 3.61655E-04 2.21622E-04-1.29067E-05
 -1     25756 3.41026E-04 2.47770E-04-1.29067E-05
 -1     25761 3.43740E-04 2.49742E-04-1.43786E-05
 -1     25762 3.61655E-04 2.21622E-04-1.58505E-05
 -1     25763 3.41026E-04 2.47770E-04-1.58505E-05
 -1     25768 3.43740E-04 2.49742E-04-1.73223E-05
 -1     25769 3.61655E-04 2.21622E-04-1.87942E-05
 -1     25770 3.41026E-04 2.47770E-04-1.87942E-05
 -1     25775 3.43740E-04 2.49742E-04-2.02661E-05
 -1     25776 3.61655E-04 2.21622E-04-2.17379E-05
 -1     25777 3.41026E-04 2.47770E-04-2.17379E-05
 -1     25782 3.43740E-04 2.49742E-04-2.32098E-05
 -1     25783 3.61655E-04 2.21622E-04-2.46816E-05
 -1     25784 3.41026E-04 2.47770E-04-2.46816E-05
 -1     25789 3.43740E-04 2.49742E-04-2.61535E-05
 -1     25790 3.61655E-04 2.21622E-04-2.76254E-05
 -1     25791 3.41026E-04 2.47770E-04-2.76254E-05
 -1     25796 3.43740E-04 2.49742E-04-2.90972E-05
 -1     25797 3.61655E-04 2.21622E-04-3.05691E-05
 -1     25798 3.41026E-04 2.47770E-04-3.05691E-05
 -1     25803 3.43740E-04 2.49742E-04-3.20409E-05
 -1     25804 3.61655E-04 2.21622E-04-3.35128E-05
 -1     25805 3.41026E-04 2.47770E-04-3.35128E-05
 -1     25810 3.43740E-04 2.49742E-04-3.49847E-05
 -1     25811 3.61655E-04 2.21622E-04-3.64565E-05
 -1     25812 3.41026E-04 2.47770E-04-3.64565E-05
 -1     25817 3.43740E-04 2.49742E-04-3.79284E-05
 -1     25821 3.00440E-04 3.00440E-04-8.49116E-06
 -1     25822 3.22533E-04 2.75469E-04-9.96302E-06
 -1     25823 2.98067E-04 2.98067E-04-9.96302E-06
 -1     25828 3.00440E-04 3.00440E-04-1.14349E-05
 -1     25829 3.22533E-04 2.75469E-04-1.29067E-05
 -1     25830 2.98067E-04 2.98067E-04-1.29067E-05
 -1     25835 3.00440E-04 3.00440E-04-1.43786E-05
 -1     25836 3.22533E-04 2.75469E-04-1.58505E-05
 -1     25837 2.98067E-04 2.98067E-04-1.58505E-05
 -1     25842 3.00440E-04 3.00440E-04-1.73223E-05
 -1     25843 3.22533E-04 2.75469E-04-1.87942E-05
 -1     25844 2.98067E-04 2.98067E-04-1.87942E-05
 -1     25849 3.00440E-04 3.00440E-04-2.02661E-05
 -1     25850 3.22533E-04 2.75469E-04-2.17379E-05
 -1     25851 2.98067E-04 2.98067E-04-2.17379E-05
 -1     25856 3.00440E-04 3.00440E-04-2.32098E-05
 -1     25857 3.22533E-04 2.75469E-04-2.46816E-05
 -1     25858 2.98067E-04 2.98067E-04-2.46816E-05
 -1     25863 3.00440E-04 3.00440E-04-2.61535E-05
 -1     25864 3.22533E-04 2.75469E-04-2.76254E-05
 -1     25865 2.98067E-04 2.98067E-04-2.76254E-05
 -1     25870 3.00440E-04 3.00440E-04-2.90972E-05
 -1     25871 3.22533E-04 2.75469E-04-3.05691E-05
 -1     25872 2.98067E-04 2.98067E-04-3.05691E-05
 -1     25877 3.00440E-04 3.00440E-04-3.20409E-05
 -1     25878 3.22533E-04 2.75469E-04-3.35128E-05
 -1     25879 2.98067E-04 2.98067E-04-3.35128E-05
 -1     25884 3.00440E-04 3.00440E-04-3.49847E-05
 -1     25885 3.22533E-04 2.75469E-04-3.64565E-05
 -1     25886 2.98067E-04 2.98067E-04-3.64565E-05
 -1     25891 3.00440E-04 3.00440E-04-3.79284E-05
 -1     25895 2.49742E-04 3.43740E-04-8.49116E-06
 -1     25896 2.75469E-04 3.22533E-04-9.96302E-06
 -1     25897 2.47770E-04 3.41026E-04-9.96302E-06
 -1     25902 2.49742E-04 3.43740E-04-1.14349E-05
 -1     25903 2.75469E-04 3.22533E-04-1.29067E-05
 -1     25904 2.47770E-04 3.41026E-04-1.29067E-05
 -1     25909 2.49742E-04 3.43740E-04-1.43786E-05
 -1     25910 2.75469E-04 3.22533E-04-1.58505E-05
 -1     25911 2.47770E-04 3.41026E-04-1.58505E-05
 -1     25916 2.49742E-04 3.43740E-04-1.73223E-05
 -1     25917 2.75469E-04 3.22533E-04-1.87942E-05
 -1     25918 2.47770E-04 3.41026E-04-1.87942E-05
 -1     25923 2.49742E-04 3.43740E-04-2.02661E-05
 -1     25924 2.75469E-04 3.22533E-04-2.17379E-05
 -1     25925 2.47770E-04 3.41026E-04-2.17379E-05
 -1     25930 2.49742E-04 3.43740E-04-2.32098E-05
 -1     25931 2.75469E-04 3.22533E-04-2.46816E-05
 -1     25932 2.47770E-04 3.41026E-04-2.46816E-05
 -1     25937 2.49742E-04 3.43740E-04-2.61535E-05
 -1     25938 2.75469E-04 3.22533E-04-2.76254E-05
 -1     25939 2.47770E-04 3.41026E-04-2.76254E-05
 -1     25944 2.49742E-04 3.43740E-04-2.90972E-05
 -1     25945 2.75469E-04 3.22533E-04-3.05691E-05
 -1     25946 2.47770E-04 3.41026E-04-3.05691E-05
 -1     25951 2.49742E-04 3.43740E-04-3.20409E-05
 -1     25952 2.75469E-04 3.22533E-04-3.35128E-05
 -1     25953 2.47770E-04 3.41026E-04-3.35128E-05
 -1     25958 2.49742E-04 3.43740E-04-3.49847E-05
 -1     25959 2.75469E-04 3.22533E-04-3.64565E-05
 -1     25960 2.47770E-04 3.41026E-04-3.64565E-05
 -1     25965 2.49742E-04 3.43740E-04-3.79284E-05
 -1     25969 1.92894E-04 3.78576E-04-8.49116E-06
 -1     25970 2.21622E-04 3.61655E-04-9.96302E-06
 -1     25971 1.91371E-04 3.75587E-04-9.96302E-06
 -1     25976 1.92894E-04 3.78576E-04-1.14349E-05
 -1     25977 2.21622E-04 3.61655E-04-1.29067E-05
 -1     25978 1.91371E-04 3.75587E-04-1.29067E-05
 -1     25983 1.92894E-04 3.78576E-04-1.43786E-05
 -1     25984 2.21622E-04 3.61655E-04-1.58505E-05
 -1     25985 1.91371E-04 3.75587E-04-1.58505E-05
 -1     25990 1.92894E-04 3.78576E-04-1.73223E-05
 -1     25991 2.21622E-04 3.61655E-04-1.87942E-05
 -1     25992 1.91371E-04 3.75587E-04-1.87942E-05
 -1     25997 1.92894E-04 3.78576E-04-2.02661E-05
 -1     25998 2.21622E-04 3.61655E-04-2.17379E-05
 -1     25999 1.91371E-04 3.75587E-04-2.17379E-05
 -1     26004 1.92894E-04 3.78576E-04-2.32098E-05
 -1     26005 2.21622E-04 3.61655E-04-2.46816E-05
 -1     26006 1.91371E-04 3.75587E-04-2.46816E-05
 -1     26011 1.92894E-04 3.78576E-04-2.61535E-05
 -1     26012 2.21622E-04 3.61655E-04-2.76254E-05
 -1     26013 1.91371E-04 3.75587E-04-2.76254E-05
 -1     26018 1.92894E-04 3.78576E-04-2.90972E-05
 -1     26019 2.21622E-04 3.61655E-04-3.05691E-05
 -1     26020 1.91371E-04 3.75587E-04-3.05691E-05
 -1     26025 1.92894E-04 3.78576E-04-3.20409E-05
 -1     26026 2.21622E-04 3.61655E-04-3.35128E-05
 -1     26027 1.91371E-04 3.75587E-04-3.35128E-05
 -1     26032 1.92894E-04 3.78576E-04-3.49847E-05
 -1     26033 2.21622E-04 3.61655E-04-3.64565E-05
 -1     26034 1.91371E-04 3.75587E-04-3.64565E-05
 -1     26039 1.92894E-04 3.78576E-04-3.79284E-05
 -1     26043 1.31297E-04 4.04091E-04-8.49116E-06
 -1     26044 1.62318E-04 3.91871E-04-9.96302E-06
 -1     26045 1.30260E-04 4.00900E-04-9.96302E-06
 -1     26050 1.31297E-04 4.04091E-04-1.14349E-05
 -1     26051 1.62318E-04 3.91871E-04-1.29067E-05
 -1     26052 1.30260E-04 4.00900E-04-1.29067E-05
 -1     26057 1.31297E-04 4.04091E-04-1.43786E-05
 -1     26058 1.62318E-04 3.91871E-04-1.58505E-05
 -1     26059 1.30260E-04 4.00900E-04-1.58505E-05
 -1     26064 1.31297E-04 4.04091E-04-1.73223E-05
 -1     26065 1.62318E-04 3.91871E-04-1.87942E-05
 -1     26066 1.30260E-04 4.00900E-04-1.87942E-05
 -1     26071 1.31297E-04 4.04091E-04-2.02661E-05
 -1     26072 1.62318E-04 3.91871E-04-2.17379E-05
 -1     26073 1.30260E-04 4.00900E-04-2.17379E-05
 -1     26078 1.31297E-04 4.04091E-04-2.32098E-05
 -1     26079 1.62318E-04 3.91871E-04-2.46816E-05
 -1     26080 1.30260E-04 4.00900E-04-2.46816E-05
 -1     26085 1.31297E-04 4.04091E-04-2.61535E-05
 -1     26086 1.62318E-04 3.91871E-04-2.76254E-05
 -1     26087 1.30260E-04 4.00900E-04-2.76254E-05
 -1     26092 1.31297E-04 4.04091E-04-2.90972E-05
 -1     26093 1.62318E-04 3.91871E-04-3.05691E-05
 -1     26094 1.30260E-04 4.00900E-04-3.05691E-05
 -1     26099 1.31297E-04 4.04091E-04-3.20409E-05
 -1     26100 1.62318E-04 3.91871E-04-3.35128E-05
 -1     26101 1.30260E-04 4.00900E-04-3.35128E-05
 -1     26106 1.31297E-04 4.04091E-04-3.49847E-05
 -1     26107 1.62318E-04 3.91871E-04-3.64565E-05
 -1     26108 1.30260E-04 4.00900E-04-3.64565E-05
 -1     26113 1.31297E-04 4.04091E-04-3.79284E-05
 -1     26117 6.64668E-05 4.19655E-04-8.49116E-06
 -1     26118 9.90179E-05 4.12439E-04-9.96302E-06
 -1     26119 6.59420E-05 4.16341E-04-9.96302E-06
 -1     26124 6.64668E-05 4.19655E-04-1.14349E-05
 -1     26125 9.90179E-05 4.12439E-04-1.29067E-05
 -1     26126 6.59420E-05 4.16341E-04-1.29067E-05
 -1     26131 6.64668E-05 4.19655E-04-1.43786E-05
 -1     26132 9.90179E-05 4.12439E-04-1.58505E-05
 -1     26133 6.59420E-05 4.16341E-04-1.58505E-05
 -1     26138 6.64668E-05 4.19655E-04-1.73223E-05
 -1     26139 9.90179E-05 4.12439E-04-1.87942E-05
 -1     26140 6.59420E-05 4.16341E-04-1.87942E-05
 -1     26145 6.64668E-05 4.19655E-04-2.02661E-05
 -1     26146 9.90179E-05 4.12439E-04-2.17379E-05
 -1     26147 6.59420E-05 4.16341E-04-2.17379E-05
 -1     26152 6.64668E-05 4.19655E-04-2.32098E-05
 -1     26153 9.90179E-05 4.12439E-04-2.46816E-05
 -1     26154 6.59420E-05 4.16341E-04-2.46816E-05
 -1     26159 6.64668E-05 4.19655E-04-2.61535E-05
 -1     26160 9.90179E-05 4.12439E-04-2.76254E-05
 -1     26161 6.59420E-05 4.16341E-04-2.76254E-05
 -1     26166 6.64668E-05 4.19655E-04-2.90972E-05
 -1     26167 9.90179E-05 4.12439E-04-3.05691E-05
 -1     26168 6.59420E-05 4.16341E-04-3.05691E-05
 -1     26173 6.64668E-05 4.19655E-04-3.20409E-05
 -1     26174 9.90179E-05 4.12439E-04-3.35128E-05
 -1     26175 6.59420E-05 4.16341E-04-3.35128E-05
 -1     26180 6.64668E-05 4.19655E-04-3.49847E-05
 -1     26181 9.90179E-05 4.12439E-04-3.64565E-05
 -1     26182 6.59420E-05 4.16341E-04-3.64565E-05
 -1     26187 6.64668E-05 4.19655E-04-3.79284E-05
 -1     26191 3.32791E-05 4.22851E-04-9.96302E-06
 -1     26195 3.32791E-05 4.22851E-04-1.29067E-05
 -1     26199 3.32791E-05 4.22851E-04-1.58505E-05
 -1     26203 3.32791E-05 4.22851E-04-1.87942E-05
 -1     26207 3.32791E-05 4.22851E-04-2.17379E-05
 -1     26211 3.32791E-05 4.22851E-04-2.46816E-05
 -1     26215 3.32791E-05 4.22851E-04-2.76254E-05
 -1     26219 3.32791E-05 4.22851E-04-3.05691E-05
 -1     26223 3.32791E-05 4.22851E-04-3.35128E-05
 -1     26227 3.32791E-05 4.22851E-04-3.64565E-05
 -1     26233 4.26395E-04 6.75343E-05-8.49116E-06
 -1     26234 4.29617E-04 3.38116E-05-9.96302E-06
 -1     26235 4.23007E-04 6.69977E-05-9.96302E-06
 -1     26240 4.26395E-04 6.75343E-05-1.14349E-05
 -1     26241 4.29617E-04 3.38116E-05-1.29067E-05
 -1     26242 4.23007E-04 6.69977E-05-1.29067E-05
 -1     26247 4.26395E-04 6.75343E-05-1.43786E-05
 -1     26248 4.29617E-04 3.38116E-05-1.58505E-05
 -1     26249 4.23007E-04 6.69977E-05-1.58505E-05
 -1     26254 4.26395E-04 6.75343E-05-1.73223E-05
 -1     26255 4.29617E-04 3.38116E-05-1.87942E-05
 -1     26256 4.23007E-04 6.69977E-05-1.87942E-05
 -1     26261 4.26395E-04 6.75343E-05-2.02661E-05
 -1     26262 4.29617E-04 3.38116E-05-2.17379E-05
 -1     26263 4.23007E-04 6.69977E-05-2.17379E-05
 -1     26268 4.26395E-04 6.75343E-05-2.32098E-05
 -1     26269 4.29617E-04 3.38116E-05-2.46816E-05
 -1     26270 4.23007E-04 6.69977E-05-2.46816E-05
 -1     26275 4.26395E-04 6.75343E-05-2.61535E-05
 -1     26276 4.29617E-04 3.38116E-05-2.76254E-05
 -1     26277 4.23007E-04 6.69977E-05-2.76254E-05
 -1     26282 4.26395E-04 6.75343E-05-2.90972E-05
 -1     26283 4.29617E-04 3.38116E-05-3.05691E-05
 -1     26284 4.23007E-04 6.69977E-05-3.05691E-05
 -1     26289 4.26395E-04 6.75343E-05-3.20409E-05
 -1     26290 4.29617E-04 3.38116E-05-3.35128E-05
 -1     26291 4.23007E-04 6.69977E-05-3.35128E-05
 -1     26296 4.26395E-04 6.75343E-05-3.49847E-05
 -1     26297 4.29617E-04 3.38116E-05-3.64565E-05
 -1     26298 4.23007E-04 6.69977E-05-3.64565E-05
 -1     26303 4.26395E-04 6.75343E-05-3.79284E-05
 -1     26307 4.10581E-04 1.33406E-04-8.49116E-06
 -1     26308 4.19039E-04 1.00602E-04-9.96302E-06
 -1     26309 4.07318E-04 1.32346E-04-9.96302E-06
 -1     26314 4.10581E-04 1.33406E-04-1.14349E-05
 -1     26315 4.19039E-04 1.00602E-04-1.29067E-05
 -1     26316 4.07318E-04 1.32346E-04-1.29067E-05
 -1     26321 4.10581E-04 1.33406E-04-1.43786E-05
 -1     26322 4.19039E-04 1.00602E-04-1.58505E-05
 -1     26323 4.07318E-04 1.32346E-04-1.58505E-05
 -1     26328 4.10581E-04 1.33406E-04-1.73223E-05
 -1     26329 4.19039E-04 1.00602E-04-1.87942E-05
 -1     26330 4.07318E-04 1.32346E-04-1.87942E-05
 -1     26335 4.10581E-04 1.33406E-04-2.02661E-05
 -1     26336 4.19039E-04 1.00602E-04-2.17379E-05
 -1     26337 4.07318E-04 1.32346E-04-2.17379E-05
 -1     26342 4.10581E-04 1.33406E-04-2.32098E-05
 -1     26343 4.19039E-04 1.00602E-04-2.46816E-05
 -1     26344 4.07318E-04 1.32346E-04-2.46816E-05
 -1     26349 4.10581E-04 1.33406E-04-2.61535E-05
 -1     26350 4.19039E-04 1.00602E-04-2.76254E-05
 -1     26351 4.07318E-04 1.32346E-04-2.76254E-05
 -1     26356 4.10581E-04 1.33406E-04-2.90972E-05
 -1     26357 4.19039E-04 1.00602E-04-3.05691E-05
 -1     26358 4.07318E-04 1.32346E-04-3.05691E-05
 -1     26363 4.10581E-04 1.33406E-04-3.20409E-05
 -1     26364 4.19039E-04 1.00602E-04-3.35128E-05
 -1     26365 4.07318E-04 1.32346E-04-3.35128E-05
 -1     26370 4.10581E-04 1.33406E-04-3.49847E-05
 -1     26371 4.19039E-04 1.00602E-04-3.64565E-05
 -1     26372 4.07318E-04 1.32346E-04-3.64565E-05
 -1     26377 4.10581E-04 1.33406E-04-3.79284E-05
 -1     26381 3.84656E-04 1.95992E-04-8.49116E-06
 -1     26382 3.98142E-04 1.64916E-04-9.96302E-06
 -1     26383 3.81600E-04 1.94435E-04-9.96302E-06
 -1     26388 3.84656E-04 1.95992E-04-1.14349E-05
 -1     26389 3.98142E-04 1.64916E-04-1.29067E-05
 -1     26390 3.81600E-04 1.94435E-04-1.29067E-05
 -1     26395 3.84656E-04 1.95992E-04-1.43786E-05
 -1     26396 3.98142E-04 1.64916E-04-1.58505E-05
 -1     26397 3.81600E-04 1.94435E-04-1.58505E-05
 -1     26402 3.84656E-04 1.95992E-04-1.73223E-05
 -1     26403 3.98142E-04 1.64916E-04-1.87942E-05
 -1     26404 3.81600E-04 1.94435E-04-1.87942E-05
 -1     26409 3.84656E-04 1.95992E-04-2.02661E-05
 -1     26410 3.98142E-04 1.64916E-04-2.17379E-05
 -1     26411 3.81600E-04 1.94435E-04-2.17379E-05
 -1     26416 3.84656E-04 1.95992E-04-2.32098E-05
 -1     26417 3.98142E-04 1.64916E-04-2.46816E-05
 -1     26418 3.81600E-04 1.94435E-04-2.46816E-05
 -1     26423 3.84656E-04 1.95992E-04-2.61535E-05
 -1     26424 3.98142E-04 1.64916E-04-2.76254E-05
 -1     26425 3.81600E-04 1.94435E-04-2.76254E-05
 -1     26430 3.84656E-04 1.95992E-04-2.90972E-05
 -1     26431 3.98142E-04 1.64916E-04-3.05691E-05
 -1     26432 3.81600E-04 1.94435E-04-3.05691E-05
 -1     26437 3.84656E-04 1.95992E-04-3.20409E-05
 -1     26438 3.98142E-04 1.64916E-04-3.35128E-05
 -1     26439 3.81600E-04 1.94435E-04-3.35128E-05
 -1     26444 3.84656E-04 1.95992E-04-3.49847E-05
 -1     26445 3.98142E-04 1.64916E-04-3.64565E-05
 -1     26446 3.81600E-04 1.94435E-04-3.64565E-05
 -1     26451 3.84656E-04 1.95992E-04-3.79284E-05
 -1     26455 3.49261E-04 2.53753E-04-8.49116E-06
 -1     26456 3.67442E-04 2.25169E-04-9.96302E-06
 -1     26457 3.46485E-04 2.51736E-04-9.96302E-06
 -1     26462 3.49261E-04 2.53753E-04-1.14349E-05
 -1     26463 3.67442E-04 2.25169E-04-1.29067E-05
 -1     26464 3.46485E-04 2.51736E-04-1.29067E-05
 -1     26469 3.49261E-04 2.53753E-04-1.43786E-05
 -1     26470 3.67442E-04 2.25169E-04-1.58505E-05
 -1     26471 3.46485E-04 2.51736E-04-1.58505E-05
 -1     26476 3.49261E-04 2.53753E-04-1.73223E-05
 -1     26477 3.67442E-04 2.25169E-04-1.87942E-05
 -1     26478 3.46485E-04 2.51736E-04-1.87942E-05
 -1     26483 3.49261E-04 2.53753E-04-2.02661E-05
 -1     26484 3.67442E-04 2.25169E-04-2.17379E-05
 -1     26485 3.46485E-04 2.51736E-04-2.17379E-05
 -1     26490 3.49261E-04 2.53753E-04-2.32098E-05
 -1     26491 3.67442E-04 2.25169E-04-2.46816E-05
 -1     26492 3.46485E-04 2.51736E-04-2.46816E-05
 -1     26497 3.49261E-04 2.53753E-04-2.61535E-05
 -1     26498 3.67442E-04 2.25169E-04-2.76254E-05
 -1     26499 3.46485E-04 2.51736E-04-2.76254E-05
 -1     26504 3.49261E-04 2.53753E-04-2.90972E-05
 -1     26505 3.67442E-04 2.25169E-04-3.05691E-05
 -1     26506 3.46485E-04 2.51736E-04-3.05691E-05
 -1     26511 3.49261E-04 2.53753E-04-3.20409E-05
 -1     26512 3.67442E-04 2.25169E-04-3.35128E-05
 -1     26513 3.46485E-04 2.51736E-04-3.35128E-05
 -1     26518 3.49261E-04 2.53753E-04-3.49847E-05
 -1     26519 3.67442E-04 2.25169E-04-3.64565E-05
 -1     26520 3.46485E-04 2.51736E-04-3.64565E-05
 -1     26525 3.49261E-04 2.53753E-04-3.79284E-05
 -1     26529 3.05265E-04 3.05265E-04-8.49116E-06
 -1     26530 3.27694E-04 2.79877E-04-9.96302E-06
 -1     26531 3.02839E-04 3.02839E-04-9.96302E-06
 -1     26536 3.05265E-04 3.05265E-04-1.14349E-05
 -1     26537 3.27694E-04 2.79877E-04-1.29067E-05
 -1     26538 3.02839E-04 3.02839E-04-1.29067E-05
 -1     26543 3.05265E-04 3.05265E-04-1.43786E-05
 -1     26544 3.27694E-04 2.79877E-04-1.58505E-05
 -1     26545 3.02839E-04 3.02839E-04-1.58505E-05
 -1     26550 3.05265E-04 3.05265E-04-1.73223E-05
 -1     26551 3.27694E-04 2.79877E-04-1.87942E-05
 -1     26552 3.02839E-04 3.02839E-04-1.87942E-05
 -1     26557 3.05265E-04 3.05265E-04-2.02661E-05
 -1     26558 3.27694E-04 2.79877E-04-2.17379E-05
 -1     26559 3.02839E-04 3.02839E-04-2.17379E-05
 -1     26564 3.05265E-04 3.05265E-04-2.32098E-05
 -1     26565 3.27694E-04 2.79877E-04-2.46816E-05
 -1     26566 3.02839E-04 3.02839E-04-2.46816E-05
 -1     26571 3.05265E-04 3.05265E-04-2.61535E-05
 -1     26572 3.27694E-04 2.79877E-04-2.76254E-05
 -1     26573 3.02839E-04 3.02839E-04-2.76254E-05
 -1     26578 3.05265E-04 3.05265E-04-2.90972E-05
 -1     26579 3.27694E-04 2.79877E-04-3.05691E-05
 -1     26580 3.02839E-04 3.02839E-04-3.05691E-05
 -1     26585 3.05265E-04 3.05265E-04-3.20409E-05
 -1     26586 3.27694E-04 2.79877E-04-3.35128E-05
 -1     26587 3.02839E-04 3.02839E-04-3.35128E-05
 -1     26592 3.05265E-04 3.05265E-04-3.49847E-05
 -1     26593 3.27694E-04 2.79877E-04-3.64565E-05
 -1     26594 3.02839E-04 3.02839E-04-3.64565E-05
 -1     26599 3.05265E-04 3.05265E-04-3.79284E-05
 -1     26603 2.53753E-04 3.49261E-04-8.49116E-06
 -1     26604 2.79877E-04 3.27694E-04-9.96302E-06
 -1     26605 2.51736E-04 3.46485E-04-9.96302E-06
 -1     26610 2.53753E-04 3.49261E-04-1.14349E-05
 -1     26611 2.79877E-04 3.27694E-04-1.29067E-05
 -1     26612 2.51736E-04 3.46485E-04-1.29067E-05
 -1     26617 2.53753E-04 3.49261E-04-1.43786E-05
 -1     26618 2.79877E-04 3.27694E-04-1.58505E-05
 -1     26619 2.51736E-04 3.46485E-04-1.58505E-05
 -1     26624 2.53753E-04 3.49261E-04-1.73223E-05
 -1     26625 2.79877E-04 3.27694E-04-1.87942E-05
 -1     26626 2.51736E-04 3.46485E-04-1.87942E-05
 -1     26631 2.53753E-04 3.49261E-04-2.02661E-05
 -1     26632 2.79877E-04 3.27694E-04-2.17379E-05
 -1     26633 2.51736E-04 3.46485E-04-2.17379E-05
 -1     26638 2.53753E-04 3.49261E-04-2.32098E-05
 -1     26639 2.79877E-04 3.27694E-04-2.46816E-05
 -1     26640 2.51736E-04 3.46485E-04-2.46816E-05
 -1     26645 2.53753E-04 3.49261E-04-2.61535E-05
 -1     26646 2.79877E-04 3.27694E-04-2.76254E-05
 -1     26647 2.51736E-04 3.46485E-04-2.76254E-05
 -1     26652 2.53753E-04 3.49261E-04-2.90972E-05
 -1     26653 2.79877E-04 3.27694E-04-3.05691E-05
 -1     26654 2.51736E-04 3.46485E-04-3.05691E-05
 -1     26659 2.53753E-04 3.49261E-04-3.20409E-05
 -1     26660 2.79877E-04 3.27694E-04-3.35128E-05
 -1     26661 2.51736E-04 3.46485E-04-3.35128E-05
 -1     26666 2.53753E-04 3.49261E-04-3.49847E-05
 -1     26667 2.79877E-04 3.27694E-04-3.64565E-05
 -1     26668 2.51736E-04 3.46485E-04-3.64565E-05
 -1     26673 2.53753E-04 3.49261E-04-3.79284E-05
 -1     26677 1.95992E-04 3.84656E-04-8.49116E-06
 -1     26678 2.25169E-04 3.67442E-04-9.96302E-06
 -1     26679 1.94435E-04 3.81600E-04-9.96302E-06
 -1     26684 1.95992E-04 3.84656E-04-1.14349E-05
 -1     26685 2.25169E-04 3.67442E-04-1.29067E-05
 -1     26686 1.94435E-04 3.81600E-04-1.29067E-05
 -1     26691 1.95992E-04 3.84656E-04-1.43786E-05
 -1     26692 2.25169E-04 3.67442E-04-1.58505E-05
 -1     26693 1.94435E-04 3.81600E-04-1.58505E-05
 -1     26698 1.95992E-04 3.84656E-04-1.73223E-05
 -1     26699 2.25169E-04 3.67442E-04-1.87942E-05
 -1     26700 1.94435E-04 3.81600E-04-1.87942E-05
 -1     26705 1.95992E-04 3.84656E-04-2.02661E-05
 -1     26706 2.25169E-04 3.67442E-04-2.17379E-05
 -1     26707 1.94435E-04 3.81600E-04-2.17379E-05
 -1     26712 1.95992E-04 3.84656E-04-2.32098E-05
 -1     26713 2.25169E-04 3.67442E-04-2.46816E-05
 -1     26714 1.94435E-04 3.81600E-04-2.46816E-05
 -1     26719 1.95992E-04 3.84656E-04-2.61535E-05
 -1     26720 2.25169E-04 3.67442E-04-2.76254E-05
 -1     26721 1.94435E-04 3.81600E-04-2.76254E-05
 -1     26726 1.95992E-04 3.84656E-04-2.90972E-05
 -1     26727 2.25169E-04 3.67442E-04-3.05691E-05
 -1     26728 1.94435E-04 3.81600E-04-3.05691E-05
 -1     26733 1.95992E-04 3.84656E-04-3.20409E-05
 -1     26734 2.25169E-04 3.67442E-04-3.35128E-05
 -1     26735 1.94435E-04 3.81600E-04-3.35128E-05
 -1     26740 1.95992E-04 3.84656E-04-3.49847E-05
 -1     26741 2.25169E-04 3.67442E-04-3.64565E-05
 -1     26742 1.94435E-04 3.81600E-04-3.64565E-05
 -1     26747 1.95992E-04 3.84656E-04-3.79284E-05
 -1     26751 1.33406E-04 4.10581E-04-8.49116E-06
 -1     26752 1.64916E-04 3.98142E-04-9.96302E-06
 -1     26753 1.32346E-04 4.07318E-04-9.96302E-06
 -1     26758 1.33406E-04 4.10581E-04-1.14349E-05
 -1     26759 1.64916E-04 3.98142E-04-1.29067E-05
 -1     26760 1.32346E-04 4.07318E-04-1.29067E-05
 -1     26765 1.33406E-04 4.10581E-04-1.43786E-05
 -1     26766 1.64916E-04 3.98142E-04-1.58505E-05
 -1     26767 1.32346E-04 4.07318E-04-1.58505E-05
 -1     26772 1.33406E-04 4.10581E-04-1.73223E-05
 -1     26773 1.64916E-04 3.98142E-04-1.87942E-05
 -1     26774 1.32346E-04 4.07318E-04-1.87942E-05
 -1     26779 1.33406E-04 4.10581E-04-2.02661E-05
 -1     26780 1.64916E-04 3.98142E-04-2.17379E-05
 -1     26781 1.32346E-04 4.07318E-04-2.17379E-05
 -1     26786 1.33406E-04 4.10581E-04-2.32098E-05
 -1     26787 1.64916E-04 3.98142E-04-2.46816E-05
 -1     26788 1.32346E-04 4.07318E-04-2.46816E-05
 -1     26793 1.33406E-04 4.10581E-04-2.61535E-05
 -1     26794 1.64916E-04 3.98142E-04-2.76254E-05
 -1     26795 1.32346E-04 4.07318E-04-2.76254E-05
 -1     26800 1.33406E-04 4.10581E-04-2.90972E-05
 -1     26801 1.64916E-04 3.98142E-04-3.05691E-05
 -1     26802 1.32346E-04 4.07318E-04-3.05691E-05
 -1     26807 1.33406E-04 4.10581E-04-3.20409E-05
 -1     26808 1.64916E-04 3.98142E-04-3.35128E-05
 -1     26809 1.32346E-04 4.07318E-04-3.35128E-05
 -1     26814 1.33406E-04 4.10581E-04-3.49847E-05
 -1     26815 1.64916E-04 3.98142E-04-3.64565E-05
 -1     26816 1.32346E-04 4.07318E-04-3.64565E-05
 -1     26821 1.33406E-04 4.10581E-04-3.79284E-05
 -1     26825 6.75343E-05 4.26395E-04-8.49116E-06
 -1     26826 1.00602E-04 4.19039E-04-9.96302E-06
 -1     26827 6.69977E-05 4.23007E-04-9.96302E-06
 -1     26832 6.75343E-05 4.26395E-04-1.14349E-05
 -1     26833 1.00602E-04 4.19039E-04-1.29067E-05
 -1     26834 6.69977E-05 4.23007E-04-1.29067E-05
 -1     26839 6.75343E-05 4.26395E-04-1.43786E-05
 -1     26840 1.00602E-04 4.19039E-04-1.58505E-05
 -1     26841 6.69977E-05 4.23007E-04-1.58505E-05
 -1     26846 6.75343E-05 4.26395E-04-1.73223E-05
 -1     26847 1.00602E-04 4.19039E-04-1.87942E-05
 -1     26848 6.69977E-05 4.23007E-04-1.87942E-05
 -1     26853 6.75343E-05 4.26395E-04-2.02661E-05
 -1     26854 1.00602E-04 4.19039E-04-2.17379E-05
 -1     26855 6.69977E-05 4.23007E-04-2.17379E-05
 -1     26860 6.75343E-05 4.26395E-04-2.32098E-05
 -1     26861 1.00602E-04 4.19039E-04-2.46816E-05
 -1     26862 6.69977E-05 4.23007E-04-2.46816E-05
 -1     26867 6.75343E-05 4.26395E-04-2.61535E-05
 -1     26868 1.00602E-04 4.19039E-04-2.76254E-05
 -1     26869 6.69977E-05 4.23007E-04-2.76254E-05
 -1     26874 6.75343E-05 4.26395E-04-2.90972E-05
 -1     26875 1.00602E-04 4.19039E-04-3.05691E-05
 -1     26876 6.69977E-05 4.23007E-04-3.05691E-05
 -1     26881 6.75343E-05 4.26395E-04-3.20409E-05
 -1     26882 1.00602E-04 4.19039E-04-3.35128E-05
 -1     26883 6.69977E-05 4.23007E-04-3.35128E-05
 -1     26888 6.75343E-05 4.26395E-04-3.49847E-05
 -1     26889 1.00602E-04 4.19039E-04-3.64565E-05
 -1     26890 6.69977E-05 4.23007E-04-3.64565E-05
 -1     26895 6.75343E-05 4.26395E-04-3.79284E-05
 -1     26899 3.38116E-05 4.29617E-04-9.96302E-06
 -1     26903 3.38116E-05 4.29617E-04-1.29067E-05
 -1     26907 3.38116E-05 4.29617E-04-1.58505E-05
 -1     26911 3.38116E-05 4.29617E-04-1.87942E-05
 -1     26915 3.38116E-05 4.29617E-04-2.17379E-05
 -1     26919 3.38116E-05 4.29617E-04-2.46816E-05
 -1     26923 3.38116E-05 4.29617E-04-2.76254E-05
 -1     26927 3.38116E-05 4.29617E-04-3.05691E-05
 -1     26931 3.38116E-05 4.29617E-04-3.35128E-05
 -1     26935 3.38116E-05 4.29617E-04-3.64565E-05
 -1     26941 4.33276E-04 6.86242E-05-8.49116E-06
 -1     26942 4.36524E-04 3.43552E-05-9.96302E-06
 -1     26943 4.29819E-04 6.80766E-05-9.96302E-06
 -1     26948 4.33276E-04 6.86242E-05-1.14349E-05
 -1     26949 4.36524E-04 3.43552E-05-1.29067E-05
 -1     26950 4.29819E-04 6.80766E-05-1.29067E-05
 -1     26955 4.33276E-04 6.86242E-05-1.43786E-05
 -1     26956 4.36524E-04 3.43552E-05-1.58505E-05
 -1     26957 4.29819E-04 6.80766E-05-1.58505E-05
 -1     26962 4.33276E-04 6.86242E-05-1.73223E-05
 -1     26963 4.36524E-04 3.43552E-05-1.87942E-05
 -1     26964 4.29819E-04 6.80766E-05-1.87942E-05
 -1     26969 4.33276E-04 6.86242E-05-2.02661E-05
 -1     26970 4.36524E-04 3.43552E-05-2.17379E-05
 -1     26971 4.29819E-04 6.80766E-05-2.17379E-05
 -1     26976 4.33276E-04 6.86242E-05-2.32098E-05
 -1     26977 4.36524E-04 3.43552E-05-2.46816E-05
 -1     26978 4.29819E-04 6.80766E-05-2.46816E-05
 -1     26983 4.33276E-04 6.86242E-05-2.61535E-05
 -1     26984 4.36524E-04 3.43552E-05-2.76254E-05
 -1     26985 4.29819E-04 6.80766E-05-2.76254E-05
 -1     26990 4.33276E-04 6.86242E-05-2.90972E-05
 -1     26991 4.36524E-04 3.43552E-05-3.05691E-05
 -1     26992 4.29819E-04 6.80766E-05-3.05691E-05
 -1     26997 4.33276E-04 6.86242E-05-3.20409E-05
 -1     26998 4.36524E-04 3.43552E-05-3.35128E-05
 -1     26999 4.29819E-04 6.80766E-05-3.35128E-05
 -1     27004 4.33276E-04 6.86242E-05-3.49847E-05
 -1     27005 4.36524E-04 3.43552E-05-3.64565E-05
 -1     27006 4.29819E-04 6.80766E-05-3.64565E-05
 -1     27011 4.33276E-04 6.86242E-05-3.79284E-05
 -1     27015 4.17207E-04 1.35559E-04-8.49116E-06
 -1     27016 4.25776E-04 1.02220E-04-9.96302E-06
 -1     27017 4.13877E-04 1.34477E-04-9.96302E-06
 -1     27022 4.17207E-04 1.35559E-04-1.14349E-05
 -1     27023 4.25776E-04 1.02220E-04-1.29067E-05
 -1     27024 4.13877E-04 1.34477E-04-1.29067E-05
 -1     27029 4.17207E-04 1.35559E-04-1.43786E-05
 -1     27030 4.25776E-04 1.02220E-04-1.58505E-05
 -1     27031 4.13877E-04 1.34477E-04-1.58505E-05
 -1     27036 4.17207E-04 1.35559E-04-1.73223E-05
 -1     27037 4.25776E-04 1.02220E-04-1.87942E-05
 -1     27038 4.13877E-04 1.34477E-04-1.87942E-05
 -1     27043 4.17207E-04 1.35559E-04-2.02661E-05
 -1     27044 4.25776E-04 1.02220E-04-2.17379E-05
 -1     27045 4.13877E-04 1.34477E-04-2.17379E-05
 -1     27050 4.17207E-04 1.35559E-04-2.32098E-05
 -1     27051 4.25776E-04 1.02220E-04-2.46816E-05
 -1     27052 4.13877E-04 1.34477E-04-2.46816E-05
 -1     27057 4.17207E-04 1.35559E-04-2.61535E-05
 -1     27058 4.25776E-04 1.02220E-04-2.76254E-05
 -1     27059 4.13877E-04 1.34477E-04-2.76254E-05
 -1     27064 4.17207E-04 1.35559E-04-2.90972E-05
 -1     27065 4.25776E-04 1.02220E-04-3.05691E-05
 -1     27066 4.13877E-04 1.34477E-04-3.05691E-05
 -1     27071 4.17207E-04 1.35559E-04-3.20409E-05
 -1     27072 4.25776E-04 1.02220E-04-3.35128E-05
 -1     27073 4.13877E-04 1.34477E-04-3.35128E-05
 -1     27078 4.17207E-04 1.35559E-04-3.49847E-05
 -1     27079 4.25776E-04 1.02220E-04-3.64565E-05
 -1     27080 4.13877E-04 1.34477E-04-3.64565E-05
 -1     27085 4.17207E-04 1.35559E-04-3.79284E-05
 -1     27089 3.90864E-04 1.99155E-04-8.49116E-06
 -1     27090 4.04543E-04 1.67567E-04-9.96302E-06
 -1     27091 3.87745E-04 1.97566E-04-9.96302E-06
 -1     27096 3.90864E-04 1.99155E-04-1.14349E-05
 -1     27097 4.04543E-04 1.67567E-04-1.29067E-05
 -1     27098 3.87745E-04 1.97566E-04-1.29067E-05
 -1     27103 3.90864E-04 1.99155E-04-1.43786E-05
 -1     27104 4.04543E-04 1.67567E-04-1.58505E-05
 -1     27105 3.87745E-04 1.97566E-04-1.58505E-05
 -1     27110 3.90864E-04 1.99155E-04-1.73223E-05
 -1     27111 4.04543E-04 1.67567E-04-1.87942E-05
 -1     27112 3.87745E-04 1.97566E-04-1.87942E-05
 -1     27117 3.90864E-04 1.99155E-04-2.02661E-05
 -1     27118 4.04543E-04 1.67567E-04-2.17379E-05
 -1     27119 3.87745E-04 1.97566E-04-2.17379E-05
 -1     27124 3.90864E-04 1.99155E-04-2.32098E-05
 -1     27125 4.04543E-04 1.67567E-04-2.46816E-05
 -1     27126 3.87745E-04 1.97566E-04-2.46816E-05
 -1     27131 3.90864E-04 1.99155E-04-2.61535E-05
 -1     27132 4.04543E-04 1.67567E-04-2.76254E-05
 -1     27133 3.87745E-04 1.97566E-04-2.76254E-05
 -1     27138 3.90864E-04 1.99155E-04-2.90972E-05
 -1     27139 4.04543E-04 1.67567E-04-3.05691E-05
 -1     27140 3.87745E-04 1.97566E-04-3.05691E-05
 -1     27145 3.90864E-04 1.99155E-04-3.20409E-05
 -1     27146 4.04543E-04 1.67567E-04-3.35128E-05
 -1     27147 3.87745E-04 1.97566E-04-3.35128E-05
 -1     27152 3.90864E-04 1.99155E-04-3.49847E-05
 -1     27153 4.04543E-04 1.67567E-04-3.64565E-05
 -1     27154 3.87745E-04 1.97566E-04-3.64565E-05
 -1     27159 3.90864E-04 1.99155E-04-3.79284E-05
 -1     27163 3.54897E-04 2.57848E-04-8.49116E-06
 -1     27164 3.73349E-04 2.28789E-04-9.96302E-06
 -1     27165 3.52065E-04 2.55790E-04-9.96302E-06
 -1     27170 3.54897E-04 2.57848E-04-1.14349E-05
 -1     27171 3.73349E-04 2.28789E-04-1.29067E-05
 -1     27172 3.52065E-04 2.55790E-04-1.29067E-05
 -1     27177 3.54897E-04 2.57848E-04-1.43786E-05
 -1     27178 3.73349E-04 2.28789E-04-1.58505E-05
 -1     27179 3.52065E-04 2.55790E-04-1.58505E-05
 -1     27184 3.54897E-04 2.57848E-04-1.73223E-05
 -1     27185 3.73349E-04 2.28789E-04-1.87942E-05
 -1     27186 3.52065E-04 2.55790E-04-1.87942E-05
 -1     27191 3.54897E-04 2.57848E-04-2.02661E-05
 -1     27192 3.73349E-04 2.28789E-04-2.17379E-05
 -1     27193 3.52065E-04 2.55790E-04-2.17379E-05
 -1     27198 3.54897E-04 2.57848E-04-2.32098E-05
 -1     27199 3.73349E-04 2.28789E-04-2.46816E-05
 -1     27200 3.52065E-04 2.55790E-04-2.46816E-05
 -1     27205 3.54897E-04 2.57848E-04-2.61535E-05
 -1     27206 3.73349E-04 2.28789E-04-2.76254E-05
 -1     27207 3.52065E-04 2.55790E-04-2.76254E-05
 -1     27212 3.54897E-04 2.57848E-04-2.90972E-05
 -1     27213 3.73349E-04 2.28789E-04-3.05691E-05
 -1     27214 3.52065E-04 2.55790E-04-3.05691E-05
 -1     27219 3.54897E-04 2.57848E-04-3.20409E-05
 -1     27220 3.73349E-04 2.28789E-04-3.35128E-05
 -1     27221 3.52065E-04 2.55790E-04-3.35128E-05
 -1     27226 3.54897E-04 2.57848E-04-3.49847E-05
 -1     27227 3.73349E-04 2.28789E-04-3.64565E-05
 -1     27228 3.52065E-04 2.55790E-04-3.64565E-05
 -1     27233 3.54897E-04 2.57848E-04-3.79284E-05
 -1     27237 3.10192E-04 3.10192E-04-8.49116E-06
 -1     27238 3.32962E-04 2.84376E-04-9.96302E-06
 -1     27239 3.07716E-04 3.07716E-04-9.96302E-06
 -1     27244 3.10192E-04 3.10192E-04-1.14349E-05
 -1     27245 3.32962E-04 2.84376E-04-1.29067E-05
 -1     27246 3.07716E-04 3.07716E-04-1.29067E-05
 -1     27251 3.10192E-04 3.10192E-04-1.43786E-05
 -1     27252 3.32962E-04 2.84376E-04-1.58505E-05
 -1     27253 3.07716E-04 3.07716E-04-1.58505E-05
 -1     27258 3.10192E-04 3.10192E-04-1.73223E-05
 -1     27259 3.32962E-04 2.84376E-04-1.87942E-05
 -1     27260 3.07716E-04 3.07716E-04-1.87942E-05
 -1     27265 3.10192E-04 3.10192E-04-2.02661E-05
 -1     27266 3.32962E-04 2.84376E-04-2.17379E-05
 -1     27267 3.07716E-04 3.07716E-04-2.17379E-05
 -1     27272 3.10192E-04 3.10192E-04-2.32098E-05
 -1     27273 3.32962E-04 2.84376E-04-2.46816E-05
 -1     27274 3.07716E-04 3.07716E-04-2.46816E-05
 -1     27279 3.10192E-04 3.10192E-04-2.61535E-05
 -1     27280 3.32962E-04 2.84376E-04-2.76254E-05
 -1     27281 3.07716E-04 3.07716E-04-2.76254E-05
 -1     27286 3.10192E-04 3.10192E-04-2.90972E-05
 -1     27287 3.32962E-04 2.84376E-04-3.05691E-05
 -1     27288 3.07716E-04 3.07716E-04-3.05691E-05
 -1     27293 3.10192E-04 3.10192E-04-3.20409E-05
 -1     27294 3.32962E-04 2.84376E-04-3.35128E-05
 -1     27295 3.07716E-04 3.07716E-04-3.35128E-05
 -1     27300 3.10192E-04 3.10192E-04-3.49847E-05
 -1     27301 3.32962E-04 2.84376E-04-3.64565E-05
 -1     27302 3.07716E-04 3.07716E-04-3.64565E-05
 -1     27307 3.10192E-04 3.10192E-04-3.79284E-05
 -1     27311 2.57848E-04 3.54897E-04-8.49116E-06
 -1     27312 2.84376E-04 3.32962E-04-9.96302E-06
 -1     27313 2.55790E-04 3.52065E-04-9.96302E-06
 -1     27318 2.57848E-04 3.54897E-04-1.14349E-05
 -1     27319 2.84376E-04 3.32962E-04-1.29067E-05
 -1     27320 2.55790E-04 3.52065E-04-1.29067E-05
 -1     27325 2.57848E-04 3.54897E-04-1.43786E-05
 -1     27326 2.84376E-04 3.32962E-04-1.58505E-05
 -1     27327 2.55790E-04 3.52065E-04-1.58505E-05
 -1     27332 2.57848E-04 3.54897E-04-1.73223E-05
 -1     27333 2.84376E-04 3.32962E-04-1.87942E-05
 -1     27334 2.55790E-04 3.52065E-04-1.87942E-05
 -1     27339 2.57848E-04 3.54897E-04-2.02661E-05
 -1     27340 2.84376E-04 3.32962E-04-2.17379E-05
 -1     27341 2.55790E-04 3.52065E-04-2.17379E-05
 -1     27346 2.57848E-04 3.54897E-04-2.32098E-05
 -1     27347 2.84376E-04 3.32962E-04-2.46816E-05
 -1     27348 2.55790E-04 3.52065E-04-2.46816E-05
 -1     27353 2.57848E-04 3.54897E-04-2.61535E-05
 -1     27354 2.84376E-04 3.32962E-04-2.76254E-05
 -1     27355 2.55790E-04 3.52065E-04-2.76254E-05
 -1     27360 2.57848E-04 3.54897E-04-2.90972E-05
 -1     27361 2.84376E-04 3.32962E-04-3.05691E-05
 -1     27362 2.55790E-04 3.52065E-04-3.05691E-05
 -1     27367 2.57848E-04 3.54897E-04-3.20409E-05
 -1     27368 2.84376E-04 3.32962E-04-3.35128E-05
 -1     27369 2.55790E-04 3.52065E-04-3.35128E-05
 -1     27374 2.57848E-04 3.54897E-04-3.49847E-05
 -1     27375 2.84376E-04 3.32962E-04-3.64565E-05
 -1     27376 2.55790E-04 3.52065E-04-3.64565E-05
 -1     27381 2.57848E-04 3.54897E-04-3.79284E-05
 -1     27385 1.99155E-04 3.90864E-04-8.49116E-06
 -1     27386 2.28789E-04 3.73349E-04-9.96302E-06
 -1     27387 1.97566E-04 3.87745E-04-9.96302E-06
 -1     27392 1.99155E-04 3.90864E-04-1.14349E-05
 -1     27393 2.28789E-04 3.73349E-04-1.29067E-05
 -1     27394 1.97566E-04 3.87745E-04-1.29067E-05
 -1     27399 1.99155E-04 3.90864E-04-1.43786E-05
 -1     27400 2.28789E-04 3.73349E-04-1.58505E-05
 -1     27401 1.97566E-04 3.87745E-04-1.58505E-05
 -1     27406 1.99155E-04 3.90864E-04-1.73223E-05
 -1     27407 2.28789E-04 3.73349E-04-1.87942E-05
 -1     27408 1.97566E-04 3.87745E-04-1.87942E-05
 -1     27413 1.99155E-04 3.90864E-04-2.02661E-05
 -1     27414 2.28789E-04 3.73349E-04-2.17379E-05
 -1     27415 1.97566E-04 3.87745E-04-2.17379E-05
 -1     27420 1.99155E-04 3.90864E-04-2.32098E-05
 -1     27421 2.28789E-04 3.73349E-04-2.46816E-05
 -1     27422 1.97566E-04 3.87745E-04-2.46816E-05
 -1     27427 1.99155E-04 3.90864E-04-2.61535E-05
 -1     27428 2.28789E-04 3.73349E-04-2.76254E-05
 -1     27429 1.97566E-04 3.87745E-04-2.76254E-05
 -1     27434 1.99155E-04 3.90864E-04-2.90972E-05
 -1     27435 2.28789E-04 3.73349E-04-3.05691E-05
 -1     27436 1.97566E-04 3.87745E-04-3.05691E-05
 -1     27441 1.99155E-04 3.90864E-04-3.20409E-05
 -1     27442 2.28789E-04 3.73349E-04-3.35128E-05
 -1     27443 1.97566E-04 3.87745E-04-3.35128E-05
 -1     27448 1.99155E-04 3.90864E-04-3.49847E-05
 -1     27449 2.28789E-04 3.73349E-04-3.64565E-05
 -1     27450 1.97566E-04 3.87745E-04-3.64565E-05
 -1     27455 1.99155E-04 3.90864E-04-3.79284E-05
 -1     27459 1.35559E-04 4.17207E-04-8.49116E-06
 -1     27460 1.67567E-04 4.04543E-04-9.96302E-06
 -1     27461 1.34477E-04 4.13877E-04-9.96302E-06
 -1     27466 1.35559E-04 4.17207E-04-1.14349E-05
 -1     27467 1.67567E-04 4.04543E-04-1.29067E-05
 -1     27468 1.34477E-04 4.13877E-04-1.29067E-05
 -1     27473 1.35559E-04 4.17207E-04-1.43786E-05
 -1     27474 1.67567E-04 4.04543E-04-1.58505E-05
 -1     27475 1.34477E-04 4.13877E-04-1.58505E-05
 -1     27480 1.35559E-04 4.17207E-04-1.73223E-05
 -1     27481 1.67567E-04 4.04543E-04-1.87942E-05
 -1     27482 1.34477E-04 4.13877E-04-1.87942E-05
 -1     27487 1.35559E-04 4.17207E-04-2.02661E-05
 -1     27488 1.67567E-04 4.04543E-04-2.17379E-05
 -1     27489 1.34477E-04 4.13877E-04-2.17379E-05
 -1     27494 1.35559E-04 4.17207E-04-2.32098E-05
 -1     27495 1.67567E-04 4.04543E-04-2.46816E-05
 -1     27496 1.34477E-04 4.13877E-04-2.46816E-05
 -1     27501 1.35559E-04 4.17207E-04-2.61535E-05
 -1     27502 1.67567E-04 4.04543E-04-2.76254E-05
 -1     27503 1.34477E-04 4.13877E-04-2.76254E-05
 -1     27508 1.35559E-04 4.17207E-04-2.90972E-05
 -1     27509 1.67567E-04 4.04543E-04-3.05691E-05
 -1     27510 1.34477E-04 4.13877E-04-3.05691E-05
 -1     27515 1.35559E-04 4.17207E-04-3.20409E-05
 -1     27516 1.67567E-04 4.04543E-04-3.35128E-05
 -1     27517 1.34477E-04 4.13877E-04-3.35128E-05
 -1     27522 1.35559E-04 4.17207E-04-3.49847E-05
 -1     27523 1.67567E-04 4.04543E-04-3.64565E-05
 -1     27524 1.34477E-04 4.13877E-04-3.64565E-05
 -1     27529 1.35559E-04 4.17207E-04-3.79284E-05
 -1     27533 6.86242E-05 4.33276E-04-8.49116E-06
 -1     27534 1.02220E-04 4.25776E-04-9.96302E-06
 -1     27535 6.80766E-05 4.29819E-04-9.96302E-06
 -1     27540 6.86242E-05 4.33276E-04-1.14349E-05
 -1     27541 1.02220E-04 4.25776E-04-1.29067E-05
 -1     27542 6.80766E-05 4.29819E-04-1.29067E-05
 -1     27547 6.86242E-05 4.33276E-04-1.43786E-05
 -1     27548 1.02220E-04 4.25776E-04-1.58505E-05
 -1     27549 6.80766E-05 4.29819E-04-1.58505E-05
 -1     27554 6.86242E-05 4.33276E-04-1.73223E-05
 -1     27555 1.02220E-04 4.25776E-04-1.87942E-05
 -1     27556 6.80766E-05 4.29819E-04-1.87942E-05
 -1     27561 6.86242E-05 4.33276E-04-2.02661E-05
 -1     27562 1.02220E-04 4.25776E-04-2.17379E-05
 -1     27563 6.80766E-05 4.29819E-04-2.17379E-05
 -1     27568 6.86242E-05 4.33276E-04-2.32098E-05
 -1     27569 1.02220E-04 4.25776E-04-2.46816E-05
 -1     27570 6.80766E-05 4.29819E-04-2.46816E-05
 -1     27575 6.86242E-05 4.33276E-04-2.61535E-05
 -1     27576 1.02220E-04 4.25776E-04-2.76254E-05
 -1     27577 6.80766E-05 4.29819E-04-2.76254E-05
 -1     27582 6.86242E-05 4.33276E-04-2.90972E-05
 -1     27583 1.02220E-04 4.25776E-04-3.05691E-05
 -1     27584 6.80766E-05 4.29819E-04-3.05691E-05
 -1     27589 6.86242E-05 4.33276E-04-3.20409E-05
 -1     27590 1.02220E-04 4.25776E-04-3.35128E-05
 -1     27591 6.80766E-05 4.29819E-04-3.35128E-05
 -1     27596 6.86242E-05 4.33276E-04-3.49847E-05
 -1     27597 1.02220E-04 4.25776E-04-3.64565E-05
 -1     27598 6.80766E-05 4.29819E-04-3.64565E-05
 -1     27603 6.86242E-05 4.33276E-04-3.79284E-05
 -1     27607 3.43552E-05 4.36524E-04-9.96302E-06
 -1     27611 3.43552E-05 4.36524E-04-1.29067E-05
 -1     27615 3.43552E-05 4.36524E-04-1.58505E-05
 -1     27619 3.43552E-05 4.36524E-04-1.87942E-05
 -1     27623 3.43552E-05 4.36524E-04-2.17379E-05
 -1     27627 3.43552E-05 4.36524E-04-2.46816E-05
 -1     27631 3.43552E-05 4.36524E-04-2.76254E-05
 -1     27635 3.43552E-05 4.36524E-04-3.05691E-05
 -1     27639 3.43552E-05 4.36524E-04-3.35128E-05
 -1     27643 3.43552E-05 4.36524E-04-3.64565E-05
 -1     27649 4.40279E-04 6.97334E-05-8.49117E-06
 -1     27650 4.43565E-04 3.49094E-05-9.96303E-06
 -1     27651 4.36762E-04 6.91763E-05-9.96303E-06
 -1     27656 4.40279E-04 6.97334E-05-1.14349E-05
 -1     27657 4.43565E-04 3.49094E-05-1.29067E-05
 -1     27658 4.36762E-04 6.91763E-05-1.29067E-05
 -1     27663 4.40279E-04 6.97334E-05-1.43786E-05
 -1     27664 4.43565E-04 3.49094E-05-1.58505E-05
 -1     27665 4.36762E-04 6.91763E-05-1.58505E-05
 -1     27670 4.40279E-04 6.97334E-05-1.73223E-05
 -1     27671 4.43565E-04 3.49094E-05-1.87942E-05
 -1     27672 4.36762E-04 6.91763E-05-1.87942E-05
 -1     27677 4.40279E-04 6.97334E-05-2.02661E-05
 -1     27678 4.43565E-04 3.49094E-05-2.17379E-05
 -1     27679 4.36762E-04 6.91763E-05-2.17379E-05
 -1     27684 4.40279E-04 6.97334E-05-2.32098E-05
 -1     27685 4.43565E-04 3.49094E-05-2.46816E-05
 -1     27686 4.36762E-04 6.91763E-05-2.46816E-05
 -1     27691 4.40279E-04 6.97334E-05-2.61535E-05
 -1     27692 4.43565E-04 3.49094E-05-2.76254E-05
 -1     27693 4.36762E-04 6.91763E-05-2.76254E-05
 -1     27698 4.40279E-04 6.97334E-05-2.90972E-05
 -1     27699 4.43565E-04 3.49094E-05-3.05691E-05
 -1     27700 4.36762E-04 6.91763E-05-3.05691E-05
 -1     27705 4.40279E-04 6.97334E-05-3.20409E-05
 -1     27706 4.43565E-04 3.49094E-05-3.35128E-05
 -1     27707 4.36762E-04 6.91763E-05-3.35128E-05
 -1     27712 4.40279E-04 6.97334E-05-3.49847E-05
 -1     27713 4.43565E-04 3.49094E-05-3.64565E-05
 -1     27714 4.36762E-04 6.91763E-05-3.64565E-05
 -1     27719 4.40279E-04 6.97334E-05-3.79284E-05
 -1     27723 4.23950E-04 1.37750E-04-8.49117E-06
 -1     27724 4.32643E-04 1.03868E-04-9.96303E-06
 -1     27725 4.20563E-04 1.36649E-04-9.96303E-06
 -1     27730 4.23950E-04 1.37750E-04-1.14349E-05
 -1     27731 4.32643E-04 1.03868E-04-1.29067E-05
 -1     27732 4.20563E-04 1.36649E-04-1.29067E-05
 -1     27737 4.23950E-04 1.37750E-04-1.43786E-05
 -1     27738 4.32643E-04 1.03868E-04-1.58505E-05
 -1     27739 4.20563E-04 1.36649E-04-1.58505E-05
 -1     27744 4.23950E-04 1.37750E-04-1.73223E-05
 -1     27745 4.32643E-04 1.03868E-04-1.87942E-05
 -1     27746 4.20563E-04 1.36649E-04-1.87942E-05
 -1     27751 4.23950E-04 1.37750E-04-2.02661E-05
 -1     27752 4.32643E-04 1.03868E-04-2.17379E-05
 -1     27753 4.20563E-04 1.36649E-04-2.17379E-05
 -1     27758 4.23950E-04 1.37750E-04-2.32098E-05
 -1     27759 4.32643E-04 1.03868E-04-2.46816E-05
 -1     27760 4.20563E-04 1.36649E-04-2.46816E-05
 -1     27765 4.23950E-04 1.37750E-04-2.61535E-05
 -1     27766 4.32643E-04 1.03868E-04-2.76254E-05
 -1     27767 4.20563E-04 1.36649E-04-2.76254E-05
 -1     27772 4.23950E-04 1.37750E-04-2.90972E-05
 -1     27773 4.32643E-04 1.03868E-04-3.05691E-05
 -1     27774 4.20563E-04 1.36649E-04-3.05691E-05
 -1     27779 4.23950E-04 1.37750E-04-3.20409E-05
 -1     27780 4.32643E-04 1.03868E-04-3.35128E-05
 -1     27781 4.20563E-04 1.36649E-04-3.35128E-05
 -1     27786 4.23950E-04 1.37750E-04-3.49847E-05
 -1     27787 4.32643E-04 1.03868E-04-3.64565E-05
 -1     27788 4.20563E-04 1.36649E-04-3.64565E-05
 -1     27793 4.23950E-04 1.37750E-04-3.79284E-05
 -1     27797 3.97181E-04 2.02374E-04-8.49116E-06
 -1     27798 4.11068E-04 1.70270E-04-9.96303E-06
 -1     27799 3.94009E-04 2.00758E-04-9.96303E-06
 -1     27804 3.97181E-04 2.02374E-04-1.14349E-05
 -1     27805 4.11068E-04 1.70270E-04-1.29067E-05
 -1     27806 3.94009E-04 2.00758E-04-1.29067E-05
 -1     27811 3.97181E-04 2.02374E-04-1.43786E-05
 -1     27812 4.11068E-04 1.70270E-04-1.58505E-05
 -1     27813 3.94009E-04 2.00758E-04-1.58505E-05
 -1     27818 3.97181E-04 2.02374E-04-1.73223E-05
 -1     27819 4.11068E-04 1.70270E-04-1.87942E-05
 -1     27820 3.94009E-04 2.00758E-04-1.87942E-05
 -1     27825 3.97181E-04 2.02374E-04-2.02661E-05
 -1     27826 4.11068E-04 1.70270E-04-2.17379E-05
 -1     27827 3.94009E-04 2.00758E-04-2.17379E-05
 -1     27832 3.97181E-04 2.02374E-04-2.32098E-05
 -1     27833 4.11068E-04 1.70270E-04-2.46816E-05
 -1     27834 3.94009E-04 2.00758E-04-2.46816E-05
 -1     27839 3.97181E-04 2.02374E-04-2.61535E-05
 -1     27840 4.11068E-04 1.70270E-04-2.76254E-05
 -1     27841 3.94009E-04 2.00758E-04-2.76254E-05
 -1     27846 3.97181E-04 2.02374E-04-2.90972E-05
 -1     27847 4.11068E-04 1.70270E-04-3.05691E-05
 -1     27848 3.94009E-04 2.00758E-04-3.05691E-05
 -1     27853 3.97181E-04 2.02374E-04-3.20409E-05
 -1     27854 4.11068E-04 1.70270E-04-3.35128E-05
 -1     27855 3.94009E-04 2.00758E-04-3.35128E-05
 -1     27860 3.97181E-04 2.02374E-04-3.49847E-05
 -1     27861 4.11068E-04 1.70270E-04-3.64565E-05
 -1     27862 3.94009E-04 2.00758E-04-3.64565E-05
 -1     27867 3.97181E-04 2.02374E-04-3.79284E-05
 -1     27871 3.60633E-04 2.62015E-04-8.49116E-06
 -1     27872 3.79371E-04 2.32479E-04-9.96303E-06
 -1     27873 3.57753E-04 2.59922E-04-9.96303E-06
 -1     27878 3.60633E-04 2.62015E-04-1.14349E-05
 -1     27879 3.79371E-04 2.32479E-04-1.29067E-05
 -1     27880 3.57753E-04 2.59922E-04-1.29067E-05
 -1     27885 3.60633E-04 2.62015E-04-1.43786E-05
 -1     27886 3.79371E-04 2.32479E-04-1.58505E-05
 -1     27887 3.57753E-04 2.59922E-04-1.58505E-05
 -1     27892 3.60633E-04 2.62015E-04-1.73223E-05
 -1     27893 3.79371E-04 2.32479E-04-1.87942E-05
 -1     27894 3.57753E-04 2.59922E-04-1.87942E-05
 -1     27899 3.60633E-04 2.62015E-04-2.02661E-05
 -1     27900 3.79371E-04 2.32479E-04-2.17379E-05
 -1     27901 3.57753E-04 2.59922E-04-2.17379E-05
 -1     27906 3.60633E-04 2.62015E-04-2.32098E-05
 -1     27907 3.79371E-04 2.32479E-04-2.46816E-05
 -1     27908 3.57753E-04 2.59922E-04-2.46816E-05
 -1     27913 3.60633E-04 2.62015E-04-2.61535E-05
 -1     27914 3.79371E-04 2.32479E-04-2.76254E-05
 -1     27915 3.57753E-04 2.59922E-04-2.76254E-05
 -1     27920 3.60633E-04 2.62015E-04-2.90972E-05
 -1     27921 3.79371E-04 2.32479E-04-3.05691E-05
 -1     27922 3.57753E-04 2.59922E-04-3.05691E-05
 -1     27927 3.60633E-04 2.62015E-04-3.20409E-05
 -1     27928 3.79371E-04 2.32479E-04-3.35128E-05
 -1     27929 3.57753E-04 2.59922E-04-3.35128E-05
 -1     27934 3.60633E-04 2.62015E-04-3.49847E-05
 -1     27935 3.79371E-04 2.32479E-04-3.64565E-05
 -1     27936 3.57753E-04 2.59922E-04-3.64565E-05
 -1     27941 3.60633E-04 2.62015E-04-3.79284E-05
 -1     27945 3.15205E-04 3.15205E-04-8.49116E-06
 -1     27946 3.38333E-04 2.88963E-04-9.96303E-06
 -1     27947 3.12687E-04 3.12687E-04-9.96303E-06
 -1     27952 3.15205E-04 3.15205E-04-1.14349E-05
 -1     27953 3.38333E-04 2.88963E-04-1.29067E-05
 -1     27954 3.12687E-04 3.12687E-04-1.29067E-05
 -1     27959 3.15205E-04 3.15205E-04-1.43786E-05
 -1     27960 3.38333E-04 2.88963E-04-1.58505E-05
 -1     27961 3.12687E-04 3.12687E-04-1.58505E-05
 -1     27966 3.15205E-04 3.15205E-04-1.73223E-05
 -1     27967 3.38333E-04 2.88963E-04-1.87942E-05
 -1     27968 3.12687E-04 3.12687E-04-1.87942E-05
 -1     27973 3.15205E-04 3.15205E-04-2.02661E-05
 -1     27974 3.38333E-04 2.88963E-04-2.17379E-05
 -1     27975 3.12687E-04 3.12687E-04-2.17379E-05
 -1     27980 3.15205E-04 3.15205E-04-2.32098E-05
 -1     27981 3.38333E-04 2.88963E-04-2.46816E-05
 -1     27982 3.12687E-04 3.12687E-04-2.46816E-05
 -1     27987 3.15205E-04 3.15205E-04-2.61535E-05
 -1     27988 3.38333E-04 2.88963E-04-2.76254E-05
 -1     27989 3.12687E-04 3.12687E-04-2.76254E-05
 -1     27994 3.15205E-04 3.15205E-04-2.90972E-05
 -1     27995 3.38333E-04 2.88963E-04-3.05691E-05
 -1     27996 3.12687E-04 3.12687E-04-3.05691E-05
 -1     28001 3.15205E-04 3.15205E-04-3.20409E-05
 -1     28002 3.38333E-04 2.88963E-04-3.35128E-05
 -1     28003 3.12687E-04 3.12687E-04-3.35128E-05
 -1     28008 3.15205E-04 3.15205E-04-3.49847E-05
 -1     28009 3.38333E-04 2.88963E-04-3.64565E-05
 -1     28010 3.12687E-04 3.12687E-04-3.64565E-05
 -1     28015 3.15205E-04 3.15205E-04-3.79284E-05
 -1     28019 2.62015E-04 3.60633E-04-8.49116E-06
 -1     28020 2.88963E-04 3.38333E-04-9.96303E-06
 -1     28021 2.59922E-04 3.57753E-04-9.96303E-06
 -1     28026 2.62015E-04 3.60633E-04-1.14349E-05
 -1     28027 2.88963E-04 3.38333E-04-1.29067E-05
 -1     28028 2.59922E-04 3.57753E-04-1.29067E-05
 -1     28033 2.62015E-04 3.60633E-04-1.43786E-05
 -1     28034 2.88963E-04 3.38333E-04-1.58505E-05
 -1     28035 2.59922E-04 3.57753E-04-1.58505E-05
 -1     28040 2.62015E-04 3.60633E-04-1.73223E-05
 -1     28041 2.88963E-04 3.38333E-04-1.87942E-05
 -1     28042 2.59922E-04 3.57753E-04-1.87942E-05
 -1     28047 2.62015E-04 3.60633E-04-2.02661E-05
 -1     28048 2.88963E-04 3.38333E-04-2.17379E-05
 -1     28049 2.59922E-04 3.57753E-04-2.17379E-05
 -1     28054 2.62015E-04 3.60633E-04-2.32098E-05
 -1     28055 2.88963E-04 3.38333E-04-2.46816E-05
 -1     28056 2.59922E-04 3.57753E-04-2.46816E-05
 -1     28061 2.62015E-04 3.60633E-04-2.61535E-05
 -1     28062 2.88963E-04 3.38333E-04-2.76254E-05
 -1     28063 2.59922E-04 3.57753E-04-2.76254E-05
 -1     28068 2.62015E-04 3.60633E-04-2.90972E-05
 -1     28069 2.88963E-04 3.38333E-04-3.05691E-05
 -1     28070 2.59922E-04 3.57753E-04-3.05691E-05
 -1     28075 2.62015E-04 3.60633E-04-3.20409E-05
 -1     28076 2.88963E-04 3.38333E-04-3.35128E-05
 -1     28077 2.59922E-04 3.57753E-04-3.35128E-05
 -1     28082 2.62015E-04 3.60633E-04-3.49847E-05
 -1     28083 2.88963E-04 3.38333E-04-3.64565E-05
 -1     28084 2.59922E-04 3.57753E-04-3.64565E-05
 -1     28089 2.62015E-04 3.60633E-04-3.79284E-05
 -1     28093 2.02374E-04 3.97181E-04-8.49116E-06
 -1     28094 2.32479E-04 3.79371E-04-9.96303E-06
 -1     28095 2.00758E-04 3.94009E-04-9.96303E-06
 -1     28100 2.02374E-04 3.97181E-04-1.14349E-05
 -1     28101 2.32479E-04 3.79371E-04-1.29067E-05
 -1     28102 2.00758E-04 3.94009E-04-1.29067E-05
 -1     28107 2.02374E-04 3.97181E-04-1.43786E-05
 -1     28108 2.32479E-04 3.79371E-04-1.58505E-05
 -1     28109 2.00758E-04 3.94009E-04-1.58505E-05
 -1     28114 2.02374E-04 3.97181E-04-1.73223E-05
 -1     28115 2.32479E-04 3.79371E-04-1.87942E-05
 -1     28116 2.00758E-04 3.94009E-04-1.87942E-05
 -1     28121 2.02374E-04 3.97181E-04-2.02661E-05
 -1     28122 2.32479E-04 3.79371E-04-2.17379E-05
 -1     28123 2.00758E-04 3.94009E-04-2.17379E-05
 -1     28128 2.02374E-04 3.97181E-04-2.32098E-05
 -1     28129 2.32479E-04 3.79371E-04-2.46816E-05
 -1     28130 2.00758E-04 3.94009E-04-2.46816E-05
 -1     28135 2.02374E-04 3.97181E-04-2.61535E-05
 -1     28136 2.32479E-04 3.79371E-04-2.76254E-05
 -1     28137 2.00758E-04 3.94009E-04-2.76254E-05
 -1     28142 2.02374E-04 3.97181E-04-2.90972E-05
 -1     28143 2.32479E-04 3.79371E-04-3.05691E-05
 -1     28144 2.00758E-04 3.94009E-04-3.05691E-05
 -1     28149 2.02374E-04 3.97181E-04-3.20409E-05
 -1     28150 2.32479E-04 3.79371E-04-3.35128E-05
 -1     28151 2.00758E-04 3.94009E-04-3.35128E-05
 -1     28156 2.02374E-04 3.97181E-04-3.49847E-05
 -1     28157 2.32479E-04 3.79371E-04-3.64565E-05
 -1     28158 2.00758E-04 3.94009E-04-3.64565E-05
 -1     28163 2.02374E-04 3.97181E-04-3.79284E-05
 -1     28167 1.37750E-04 4.23950E-04-8.49116E-06
 -1     28168 1.70270E-04 4.11068E-04-9.96303E-06
 -1     28169 1.36649E-04 4.20563E-04-9.96303E-06
 -1     28174 1.37750E-04 4.23950E-04-1.14349E-05
 -1     28175 1.70270E-04 4.11068E-04-1.29067E-05
 -1     28176 1.36649E-04 4.20563E-04-1.29067E-05
 -1     28181 1.37750E-04 4.23950E-04-1.43786E-05
 -1     28182 1.70270E-04 4.11068E-04-1.58505E-05
 -1     28183 1.36649E-04 4.20563E-04-1.58505E-05
 -1     28188 1.37750E-04 4.23950E-04-1.73223E-05
 -1     28189 1.70270E-04 4.11068E-04-1.87942E-05
 -1     28190 1.36649E-04 4.20563E-04-1.87942E-05
 -1     28195 1.37750E-04 4.23950E-04-2.02661E-05
 -1     28196 1.70270E-04 4.11068E-04-2.17379E-05
 -1     28197 1.36649E-04 4.20563E-04-2.17379E-05
 -1     28202 1.37750E-04 4.23950E-04-2.32098E-05
 -1     28203 1.70270E-04 4.11068E-04-2.46816E-05
 -1     28204 1.36649E-04 4.20563E-04-2.46816E-05
 -1     28209 1.37750E-04 4.23950E-04-2.61535E-05
 -1     28210 1.70270E-04 4.11068E-04-2.76254E-05
 -1     28211 1.36649E-04 4.20563E-04-2.76254E-05
 -1     28216 1.37750E-04 4.23950E-04-2.90972E-05
 -1     28217 1.70270E-04 4.11068E-04-3.05691E-05
 -1     28218 1.36649E-04 4.20563E-04-3.05691E-05
 -1     28223 1.37750E-04 4.23950E-04-3.20409E-05
 -1     28224 1.70270E-04 4.11068E-04-3.35128E-05
 -1     28225 1.36649E-04 4.20563E-04-3.35128E-05
 -1     28230 1.37750E-04 4.23950E-04-3.49847E-05
 -1     28231 1.70270E-04 4.11068E-04-3.64565E-05
 -1     28232 1.36649E-04 4.20563E-04-3.64565E-05
 -1     28237 1.37750E-04 4.23950E-04-3.79284E-05
 -1     28241 6.97334E-05 4.40279E-04-8.49116E-06
 -1     28242 1.03868E-04 4.32643E-04-9.96303E-06
 -1     28243 6.91763E-05 4.36762E-04-9.96303E-06
 -1     28248 6.97334E-05 4.40279E-04-1.14349E-05
 -1     28249 1.03868E-04 4.32643E-04-1.29067E-05
 -1     28250 6.91763E-05 4.36762E-04-1.29067E-05
 -1     28255 6.97334E-05 4.40279E-04-1.43786E-05
 -1     28256 1.03868E-04 4.32643E-04-1.58505E-05
 -1     28257 6.91763E-05 4.36762E-04-1.58505E-05
 -1     28262 6.97334E-05 4.40279E-04-1.73223E-05
 -1     28263 1.03868E-04 4.32643E-04-1.87942E-05
 -1     28264 6.91763E-05 4.36762E-04-1.87942E-05
 -1     28269 6.97334E-05 4.40279E-04-2.02661E-05
 -1     28270 1.03868E-04 4.32643E-04-2.17379E-05
 -1     28271 6.91763E-05 4.36762E-04-2.17379E-05
 -1     28276 6.97334E-05 4.40279E-04-2.32098E-05
 -1     28277 1.03868E-04 4.32643E-04-2.46816E-05
 -1     28278 6.91763E-05 4.36762E-04-2.46816E-05
 -1     28283 6.97334E-05 4.40279E-04-2.61535E-05
 -1     28284 1.03868E-04 4.32643E-04-2.76254E-05
 -1     28285 6.91763E-05 4.36762E-04-2.76254E-05
 -1     28290 6.97334E-05 4.40279E-04-2.90972E-05
 -1     28291 1.03868E-04 4.32643E-04-3.05691E-05
 -1     28292 6.91763E-05 4.36762E-04-3.05691E-05
 -1     28297 6.97334E-05 4.40279E-04-3.20409E-05
 -1     28298 1.03868E-04 4.32643E-04-3.35128E-05
 -1     28299 6.91763E-05 4.36762E-04-3.35128E-05
 -1     28304 6.97334E-05 4.40279E-04-3.49847E-05
 -1     28305 1.03868E-04 4.32643E-04-3.64565E-05
 -1     28306 6.91763E-05 4.36762E-04-3.64565E-05
 -1     28311 6.97334E-05 4.40279E-04-3.79284E-05
 -1     28315 3.49094E-05 4.43565E-04-9.96303E-06
 -1     28319 3.49094E-05 4.43565E-04-1.29067E-05
 -1     28323 3.49094E-05 4.43565E-04-1.58505E-05
 -1     28327 3.49094E-05 4.43565E-04-1.87942E-05
 -1     28331 3.49094E-05 4.43565E-04-2.17379E-05
 -1     28335 3.49094E-05 4.43565E-04-2.46816E-05
 -1     28339 3.49094E-05 4.43565E-04-2.76254E-05
 -1     28343 3.49094E-05 4.43565E-04-3.05691E-05
 -1     28347 3.49094E-05 4.43565E-04-3.35128E-05
 -1     28351 3.49094E-05 4.43565E-04-3.64565E-05
 -1     28357 4.47432E-04 7.08663E-05-8.49115E-06
 -1     28358 4.50711E-04 3.54718E-05-9.96302E-06
 -1     28359 4.43841E-04 7.02975E-05-9.96301E-06
 -1     28364 4.47432E-04 7.08663E-05-1.14349E-05
 -1     28365 4.50711E-04 3.54718E-05-1.29067E-05
 -1     28366 4.43841E-04 7.02975E-05-1.29067E-05
 -1     28371 4.47432E-04 7.08663E-05-1.43786E-05
 -1     28372 4.50711E-04 3.54718E-05-1.58505E-05
 -1     28373 4.43841E-04 7.02975E-05-1.58505E-05
 -1     28378 4.47432E-04 7.08663E-05-1.73223E-05
 -1     28379 4.50711E-04 3.54718E-05-1.87942E-05
 -1     28380 4.43841E-04 7.02975E-05-1.87942E-05
 -1     28385 4.47432E-04 7.08663E-05-2.02661E-05
 -1     28386 4.50711E-04 3.54718E-05-2.17379E-05
 -1     28387 4.43841E-04 7.02975E-05-2.17379E-05
 -1     28392 4.47432E-04 7.08663E-05-2.32098E-05
 -1     28393 4.50711E-04 3.54718E-05-2.46816E-05
 -1     28394 4.43841E-04 7.02975E-05-2.46816E-05
 -1     28399 4.47432E-04 7.08663E-05-2.61535E-05
 -1     28400 4.50711E-04 3.54718E-05-2.76254E-05
 -1     28401 4.43841E-04 7.02975E-05-2.76254E-05
 -1     28406 4.47432E-04 7.08663E-05-2.90972E-05
 -1     28407 4.50711E-04 3.54718E-05-3.05691E-05
 -1     28408 4.43841E-04 7.02975E-05-3.05691E-05
 -1     28413 4.47432E-04 7.08663E-05-3.20409E-05
 -1     28414 4.50711E-04 3.54718E-05-3.35128E-05
 -1     28415 4.43841E-04 7.02975E-05-3.35128E-05
 -1     28420 4.47432E-04 7.08663E-05-3.49847E-05
 -1     28421 4.50711E-04 3.54718E-05-3.64565E-05
 -1     28422 4.43841E-04 7.02975E-05-3.64565E-05
 -1     28427 4.47432E-04 7.08663E-05-3.79284E-05
 -1     28431 4.30837E-04 1.39988E-04-8.49115E-06
 -1     28432 4.39613E-04 1.05542E-04-9.96302E-06
 -1     28433 4.27380E-04 1.38864E-04-9.96301E-06
 -1     28438 4.30837E-04 1.39988E-04-1.14349E-05
 -1     28439 4.39613E-04 1.05542E-04-1.29067E-05
 -1     28440 4.27380E-04 1.38864E-04-1.29067E-05
 -1     28445 4.30837E-04 1.39988E-04-1.43786E-05
 -1     28446 4.39613E-04 1.05542E-04-1.58505E-05
 -1     28447 4.27380E-04 1.38864E-04-1.58505E-05
 -1     28452 4.30837E-04 1.39988E-04-1.73223E-05
 -1     28453 4.39613E-04 1.05542E-04-1.87942E-05
 -1     28454 4.27380E-04 1.38864E-04-1.87942E-05
 -1     28459 4.30837E-04 1.39988E-04-2.02661E-05
 -1     28460 4.39613E-04 1.05542E-04-2.17379E-05
 -1     28461 4.27380E-04 1.38864E-04-2.17379E-05
 -1     28466 4.30837E-04 1.39988E-04-2.32098E-05
 -1     28467 4.39613E-04 1.05542E-04-2.46816E-05
 -1     28468 4.27380E-04 1.38864E-04-2.46816E-05
 -1     28473 4.30837E-04 1.39988E-04-2.61535E-05
 -1     28474 4.39613E-04 1.05542E-04-2.76254E-05
 -1     28475 4.27380E-04 1.38864E-04-2.76254E-05
 -1     28480 4.30837E-04 1.39988E-04-2.90972E-05
 -1     28481 4.39613E-04 1.05542E-04-3.05691E-05
 -1     28482 4.27380E-04 1.38864E-04-3.05691E-05
 -1     28487 4.30837E-04 1.39988E-04-3.20409E-05
 -1     28488 4.39613E-04 1.05542E-04-3.35128E-05
 -1     28489 4.27380E-04 1.38864E-04-3.35128E-05
 -1     28494 4.30837E-04 1.39988E-04-3.49847E-05
 -1     28495 4.39613E-04 1.05542E-04-3.64565E-05
 -1     28496 4.27380E-04 1.38864E-04-3.64565E-05
 -1     28501 4.30837E-04 1.39988E-04-3.79284E-05
 -1     28505 4.03634E-04 2.05662E-04-8.49115E-06
 -1     28506 4.17691E-04 1.73013E-04-9.96302E-06
 -1     28507 4.00395E-04 2.04011E-04-9.96301E-06
 -1     28512 4.03634E-04 2.05662E-04-1.14349E-05
 -1     28513 4.17691E-04 1.73013E-04-1.29067E-05
 -1     28514 4.00395E-04 2.04011E-04-1.29067E-05
 -1     28519 4.03634E-04 2.05662E-04-1.43786E-05
 -1     28520 4.17691E-04 1.73013E-04-1.58505E-05
 -1     28521 4.00395E-04 2.04011E-04-1.58505E-05
 -1     28526 4.03634E-04 2.05662E-04-1.73223E-05
 -1     28527 4.17691E-04 1.73013E-04-1.87942E-05
 -1     28528 4.00395E-04 2.04011E-04-1.87942E-05
 -1     28533 4.03634E-04 2.05662E-04-2.02661E-05
 -1     28534 4.17691E-04 1.73013E-04-2.17379E-05
 -1     28535 4.00395E-04 2.04011E-04-2.17379E-05
 -1     28540 4.03634E-04 2.05662E-04-2.32098E-05
 -1     28541 4.17691E-04 1.73013E-04-2.46816E-05
 -1     28542 4.00395E-04 2.04011E-04-2.46816E-05
 -1     28547 4.03634E-04 2.05662E-04-2.61535E-05
 -1     28548 4.17691E-04 1.73013E-04-2.76254E-05
 -1     28549 4.00395E-04 2.04011E-04-2.76254E-05
 -1     28554 4.03634E-04 2.05662E-04-2.90972E-05
 -1     28555 4.17691E-04 1.73013E-04-3.05691E-05
 -1     28556 4.00395E-04 2.04011E-04-3.05691E-05
 -1     28561 4.03634E-04 2.05662E-04-3.20409E-05
 -1     28562 4.17691E-04 1.73013E-04-3.35128E-05
 -1     28563 4.00395E-04 2.04011E-04-3.35128E-05
 -1     28568 4.03634E-04 2.05662E-04-3.49847E-05
 -1     28569 4.17691E-04 1.73013E-04-3.64565E-05
 -1     28570 4.00395E-04 2.04011E-04-3.64565E-05
 -1     28575 4.03634E-04 2.05662E-04-3.79284E-05
 -1     28579 3.66492E-04 2.66272E-04-8.49115E-06
 -1     28580 3.85483E-04 2.36224E-04-9.96302E-06
 -1     28581 3.63551E-04 2.64135E-04-9.96301E-06
 -1     28586 3.66492E-04 2.66272E-04-1.14349E-05
 -1     28587 3.85483E-04 2.36224E-04-1.29067E-05
 -1     28588 3.63551E-04 2.64135E-04-1.29067E-05
 -1     28593 3.66492E-04 2.66272E-04-1.43786E-05
 -1     28594 3.85483E-04 2.36224E-04-1.58505E-05
 -1     28595 3.63551E-04 2.64135E-04-1.58505E-05
 -1     28600 3.66492E-04 2.66272E-04-1.73223E-05
 -1     28601 3.85483E-04 2.36224E-04-1.87942E-05
 -1     28602 3.63551E-04 2.64135E-04-1.87942E-05
 -1     28607 3.66492E-04 2.66272E-04-2.02661E-05
 -1     28608 3.85483E-04 2.36224E-04-2.17379E-05
 -1     28609 3.63551E-04 2.64135E-04-2.17379E-05
 -1     28614 3.66492E-04 2.66272E-04-2.32098E-05
 -1     28615 3.85483E-04 2.36224E-04-2.46816E-05
 -1     28616 3.63551E-04 2.64135E-04-2.46816E-05
 -1     28621 3.66492E-04 2.66272E-04-2.61535E-05
 -1     28622 3.85483E-04 2.36224E-04-2.76254E-05
 -1     28623 3.63551E-04 2.64135E-04-2.76254E-05
 -1     28628 3.66492E-04 2.66272E-04-2.90972E-05
 -1     28629 3.85483E-04 2.36224E-04-3.05691E-05
 -1     28630 3.63551E-04 2.64135E-04-3.05691E-05
 -1     28635 3.66492E-04 2.66272E-04-3.20409E-05
 -1     28636 3.85483E-04 2.36224E-04-3.35128E-05
 -1     28637 3.63551E-04 2.64135E-04-3.35128E-05
 -1     28642 3.66492E-04 2.66272E-04-3.49847E-05
 -1     28643 3.85483E-04 2.36224E-04-3.64565E-05
 -1     28644 3.63551E-04 2.64135E-04-3.64565E-05
 -1     28649 3.66492E-04 2.66272E-04-3.79284E-05
 -1     28653 3.20326E-04 3.20326E-04-8.49115E-06
 -1     28654 3.43783E-04 2.93619E-04-9.96302E-06
 -1     28655 3.17755E-04 3.17755E-04-9.96301E-06
 -1     28660 3.20326E-04 3.20326E-04-1.14349E-05
 -1     28661 3.43783E-04 2.93619E-04-1.29067E-05
 -1     28662 3.17755E-04 3.17755E-04-1.29067E-05
 -1     28667 3.20326E-04 3.20326E-04-1.43786E-05
 -1     28668 3.43783E-04 2.93619E-04-1.58505E-05
 -1     28669 3.17755E-04 3.17755E-04-1.58505E-05
 -1     28674 3.20326E-04 3.20326E-04-1.73223E-05
 -1     28675 3.43783E-04 2.93619E-04-1.87942E-05
 -1     28676 3.17755E-04 3.17755E-04-1.87942E-05
 -1     28681 3.20326E-04 3.20326E-04-2.02661E-05
 -1     28682 3.43783E-04 2.93619E-04-2.17379E-05
 -1     28683 3.17755E-04 3.17755E-04-2.17379E-05
 -1     28688 3.20326E-04 3.20326E-04-2.32098E-05
 -1     28689 3.43783E-04 2.93619E-04-2.46816E-05
 -1     28690 3.17755E-04 3.17755E-04-2.46816E-05
 -1     28695 3.20326E-04 3.20326E-04-2.61535E-05
 -1     28696 3.43783E-04 2.93619E-04-2.76254E-05
 -1     28697 3.17755E-04 3.17755E-04-2.76254E-05
 -1     28702 3.20326E-04 3.20326E-04-2.90972E-05
 -1     28703 3.43783E-04 2.93619E-04-3.05691E-05
 -1     28704 3.17755E-04 3.17755E-04-3.05691E-05
 -1     28709 3.20326E-04 3.20326E-04-3.20409E-05
 -1     28710 3.43783E-04 2.93619E-04-3.35128E-05
 -1     28711 3.17755E-04 3.17755E-04-3.35128E-05
 -1     28716 3.20326E-04 3.20326E-04-3.49847E-05
 -1     28717 3.43783E-04 2.93619E-04-3.64565E-05
 -1     28718 3.17755E-04 3.17755E-04-3.64565E-05
 -1     28723 3.20326E-04 3.20326E-04-3.79284E-05
 -1     28727 2.66272E-04 3.66492E-04-8.49115E-06
 -1     28728 2.93619E-04 3.43783E-04-9.96302E-06
 -1     28729 2.64135E-04 3.63551E-04-9.96301E-06
 -1     28734 2.66272E-04 3.66492E-04-1.14349E-05
 -1     28735 2.93619E-04 3.43783E-04-1.29067E-05
 -1     28736 2.64135E-04 3.63551E-04-1.29067E-05
 -1     28741 2.66272E-04 3.66492E-04-1.43786E-05
 -1     28742 2.93619E-04 3.43783E-04-1.58505E-05
 -1     28743 2.64135E-04 3.63551E-04-1.58505E-05
 -1     28748 2.66272E-04 3.66492E-04-1.73223E-05
 -1     28749 2.93619E-04 3.43783E-04-1.87942E-05
 -1     28750 2.64135E-04 3.63551E-04-1.87942E-05
 -1     28755 2.66272E-04 3.66492E-04-2.02661E-05
 -1     28756 2.93619E-04 3.43783E-04-2.17379E-05
 -1     28757 2.64135E-04 3.63551E-04-2.17379E-05
 -1     28762 2.66272E-04 3.66492E-04-2.32098E-05
 -1     28763 2.93619E-04 3.43783E-04-2.46816E-05
 -1     28764 2.64135E-04 3.63551E-04-2.46816E-05
 -1     28769 2.66272E-04 3.66492E-04-2.61535E-05
 -1     28770 2.93619E-04 3.43783E-04-2.76254E-05
 -1     28771 2.64135E-04 3.63551E-04-2.76254E-05
 -1     28776 2.66272E-04 3.66492E-04-2.90972E-05
 -1     28777 2.93619E-04 3.43783E-04-3.05691E-05
 -1     28778 2.64135E-04 3.63551E-04-3.05691E-05
 -1     28783 2.66272E-04 3.66492E-04-3.20410E-05
 -1     28784 2.93619E-04 3.43783E-04-3.35128E-05
 -1     28785 2.64135E-04 3.63551E-04-3.35128E-05
 -1     28790 2.66272E-04 3.66492E-04-3.49847E-05
 -1     28791 2.93619E-04 3.43783E-04-3.64565E-05
 -1     28792 2.64135E-04 3.63551E-04-3.64565E-05
 -1     28797 2.66272E-04 3.66492E-04-3.79284E-05
 -1     28801 2.05662E-04 4.03634E-04-8.49115E-06
 -1     28802 2.36224E-04 3.85483E-04-9.96302E-06
 -1     28803 2.04011E-04 4.00395E-04-9.96301E-06
 -1     28808 2.05662E-04 4.03634E-04-1.14349E-05
 -1     28809 2.36224E-04 3.85483E-04-1.29067E-05
 -1     28810 2.04011E-04 4.00395E-04-1.29067E-05
 -1     28815 2.05662E-04 4.03634E-04-1.43786E-05
 -1     28816 2.36224E-04 3.85483E-04-1.58505E-05
 -1     28817 2.04011E-04 4.00395E-04-1.58505E-05
 -1     28822 2.05662E-04 4.03634E-04-1.73223E-05
 -1     28823 2.36224E-04 3.85483E-04-1.87942E-05
 -1     28824 2.04011E-04 4.00395E-04-1.87942E-05
 -1     28829 2.05662E-04 4.03634E-04-2.02661E-05
 -1     28830 2.36224E-04 3.85483E-04-2.17379E-05
 -1     28831 2.04011E-04 4.00395E-04-2.17379E-05
 -1     28836 2.05662E-04 4.03634E-04-2.32098E-05
 -1     28837 2.36224E-04 3.85483E-04-2.46816E-05
 -1     28838 2.04011E-04 4.00395E-04-2.46816E-05
 -1     28843 2.05662E-04 4.03634E-04-2.61535E-05
 -1     28844 2.36224E-04 3.85483E-04-2.76254E-05
 -1     28845 2.04011E-04 4.00395E-04-2.76254E-05
 -1     28850 2.05662E-04 4.03634E-04-2.90972E-05
 -1     28851 2.36224E-04 3.85483E-04-3.05691E-05
 -1     28852 2.04011E-04 4.00395E-04-3.05691E-05
 -1     28857 2.05662E-04 4.03634E-04-3.20409E-05
 -1     28858 2.36224E-04 3.85483E-04-3.35128E-05
 -1     28859 2.04011E-04 4.00395E-04-3.35128E-05
 -1     28864 2.05662E-04 4.03634E-04-3.49847E-05
 -1     28865 2.36224E-04 3.85483E-04-3.64565E-05
 -1     28866 2.04011E-04 4.00395E-04-3.64565E-05
 -1     28871 2.05662E-04 4.03634E-04-3.79284E-05
 -1     28875 1.39988E-04 4.30837E-04-8.49116E-06
 -1     28876 1.73013E-04 4.17691E-04-9.96301E-06
 -1     28877 1.38864E-04 4.27380E-04-9.96302E-06
 -1     28882 1.39988E-04 4.30837E-04-1.14349E-05
 -1     28883 1.73013E-04 4.17691E-04-1.29067E-05
 -1     28884 1.38864E-04 4.27380E-04-1.29067E-05
 -1     28889 1.39988E-04 4.30837E-04-1.43786E-05
 -1     28890 1.73013E-04 4.17691E-04-1.58505E-05
 -1     28891 1.38864E-04 4.27380E-04-1.58505E-05
 -1     28896 1.39988E-04 4.30837E-04-1.73223E-05
 -1     28897 1.73013E-04 4.17691E-04-1.87942E-05
 -1     28898 1.38864E-04 4.27380E-04-1.87942E-05
 -1     28903 1.39988E-04 4.30837E-04-2.02661E-05
 -1     28904 1.73013E-04 4.17691E-04-2.17379E-05
 -1     28905 1.38864E-04 4.27380E-04-2.17379E-05
 -1     28910 1.39988E-04 4.30837E-04-2.32098E-05
 -1     28911 1.73013E-04 4.17691E-04-2.46816E-05
 -1     28912 1.38864E-04 4.27380E-04-2.46816E-05
 -1     28917 1.39988E-04 4.30837E-04-2.61535E-05
 -1     28918 1.73013E-04 4.17691E-04-2.76254E-05
 -1     28919 1.38864E-04 4.27380E-04-2.76254E-05
 -1     28924 1.39988E-04 4.30837E-04-2.90972E-05
 -1     28925 1.73013E-04 4.17691E-04-3.05691E-05
 -1     28926 1.38864E-04 4.27380E-04-3.05691E-05
 -1     28931 1.39988E-04 4.30837E-04-3.20409E-05
 -1     28932 1.73013E-04 4.17691E-04-3.35128E-05
 -1     28933 1.38864E-04 4.27380E-04-3.35128E-05
 -1     28938 1.39988E-04 4.30837E-04-3.49847E-05
 -1     28939 1.73013E-04 4.17691E-04-3.64565E-05
 -1     28940 1.38864E-04 4.27380E-04-3.64565E-05
 -1     28945 1.39988E-04 4.30837E-04-3.79284E-05
 -1     28949 7.08663E-05 4.47432E-04-8.49116E-06
 -1     28950 1.05542E-04 4.39613E-04-9.96301E-06
 -1     28951 7.02975E-05 4.43841E-04-9.96301E-06
 -1     28956 7.08663E-05 4.47432E-04-1.14349E-05
 -1     28957 1.05542E-04 4.39613E-04-1.29067E-05
 -1     28958 7.02975E-05 4.43841E-04-1.29067E-05
 -1     28963 7.08663E-05 4.47432E-04-1.43786E-05
 -1     28964 1.05542E-04 4.39613E-04-1.58505E-05
 -1     28965 7.02975E-05 4.43841E-04-1.58505E-05
 -1     28970 7.08662E-05 4.47432E-04-1.73223E-05
 -1     28971 1.05542E-04 4.39613E-04-1.87942E-05
 -1     28972 7.02975E-05 4.43841E-04-1.87942E-05
 -1     28977 7.08662E-05 4.47432E-04-2.02661E-05
 -1     28978 1.05542E-04 4.39613E-04-2.17379E-05
 -1     28979 7.02975E-05 4.43841E-04-2.17379E-05
 -1     28984 7.08662E-05 4.47432E-04-2.32098E-05
 -1     28985 1.05542E-04 4.39613E-04-2.46816E-05
 -1     28986 7.02975E-05 4.43841E-04-2.46816E-05
 -1     28991 7.08662E-05 4.47432E-04-2.61535E-05
 -1     28992 1.05542E-04 4.39613E-04-2.76254E-05
 -1     28993 7.02975E-05 4.43841E-04-2.76254E-05
 -1     28998 7.08662E-05 4.47432E-04-2.90972E-05
 -1     28999 1.05542E-04 4.39613E-04-3.05691E-05
 -1     29000 7.02975E-05 4.43841E-04-3.05691E-05
 -1     29005 7.08663E-05 4.47432E-04-3.20409E-05
 -1     29006 1.05542E-04 4.39613E-04-3.35128E-05
 -1     29007 7.02975E-05 4.43841E-04-3.35128E-05
 -1     29012 7.08663E-05 4.47432E-04-3.49847E-05
 -1     29013 1.05542E-04 4.39613E-04-3.64565E-05
 -1     29014 7.02975E-05 4.43841E-04-3.64565E-05
 -1     29019 7.08663E-05 4.47432E-04-3.79284E-05
 -1     29023 3.54718E-05 4.50711E-04-9.96301E-06
 -1     29027 3.54718E-05 4.50711E-04-1.29067E-05
 -1     29031 3.54718E-05 4.50711E-04-1.58505E-05
 -1     29035 3.54718E-05 4.50711E-04-1.87942E-05
 -1     29039 3.54718E-05 4.50711E-04-2.17379E-05
 -1     29043 3.54718E-05 4.50711E-04-2.46816E-05
 -1     29047 3.54718E-05 4.50711E-04-2.76254E-05
 -1     29051 3.54718E-05 4.50711E-04-3.05691E-05
 -1     29055 3.54718E-05 4.50711E-04-3.35128E-05
 -1     29059 3.54718E-05 4.50711E-04-3.64565E-05
 -1     29065 4.51036E-04 7.14370E-05-9.96303E-06
 -1     29069 4.51036E-04 7.14370E-05-1.29067E-05
 -1     29073 4.51036E-04 7.14370E-05-1.58505E-05
 -1     29077 4.51036E-04 7.14370E-05-1.87942E-05
 -1     29081 4.51036E-04 7.14370E-05-2.17379E-05
 -1     29085 4.51036E-04 7.14370E-05-2.46816E-05
 -1     29089 4.51036E-04 7.14370E-05-2.76254E-05
 -1     29093 4.51036E-04 7.14370E-05-3.05691E-05
 -1     29097 4.51036E-04 7.14370E-05-3.35128E-05
 -1     29101 4.51036E-04 7.14370E-05-3.64565E-05
 -1     29107 4.34307E-04 1.41115E-04-9.96303E-06
 -1     29111 4.34307E-04 1.41115E-04-1.29067E-05
 -1     29115 4.34307E-04 1.41115E-04-1.58505E-05
 -1     29119 4.34307E-04 1.41115E-04-1.87942E-05
 -1     29123 4.34307E-04 1.41115E-04-2.17379E-05
 -1     29127 4.34307E-04 1.41115E-04-2.46816E-05
 -1     29131 4.34307E-04 1.41115E-04-2.76254E-05
 -1     29135 4.34307E-04 1.41115E-04-3.05691E-05
 -1     29139 4.34307E-04 1.41115E-04-3.35128E-05
 -1     29143 4.34307E-04 1.41115E-04-3.64565E-05
 -1     29149 4.06885E-04 2.07318E-04-9.96304E-06
 -1     29153 4.06885E-04 2.07318E-04-1.29068E-05
 -1     29157 4.06885E-04 2.07318E-04-1.58505E-05
 -1     29161 4.06885E-04 2.07318E-04-1.87942E-05
 -1     29165 4.06885E-04 2.07318E-04-2.17379E-05
 -1     29169 4.06885E-04 2.07318E-04-2.46816E-05
 -1     29173 4.06885E-04 2.07318E-04-2.76254E-05
 -1     29177 4.06885E-04 2.07318E-04-3.05691E-05
 -1     29181 4.06885E-04 2.07318E-04-3.35128E-05
 -1     29185 4.06885E-04 2.07318E-04-3.64565E-05
 -1     29191 3.69444E-04 2.68417E-04-9.96305E-06
 -1     29195 3.69444E-04 2.68417E-04-1.29068E-05
 -1     29199 3.69444E-04 2.68417E-04-1.58505E-05
 -1     29203 3.69444E-04 2.68417E-04-1.87942E-05
 -1     29207 3.69444E-04 2.68417E-04-2.17379E-05
 -1     29211 3.69444E-04 2.68417E-04-2.46816E-05
 -1     29215 3.69444E-04 2.68417E-04-2.76254E-05
 -1     29219 3.69444E-04 2.68417E-04-3.05691E-05
 -1     29223 3.69444E-04 2.68417E-04-3.35128E-05
 -1     29227 3.69444E-04 2.68417E-04-3.64565E-05
 -1     29233 3.22906E-04 3.22906E-04-9.96304E-06
 -1     29237 3.22906E-04 3.22906E-04-1.29068E-05
 -1     29241 3.22906E-04 3.22906E-04-1.58505E-05
 -1     29245 3.22906E-04 3.22906E-04-1.87942E-05
 -1     29249 3.22906E-04 3.22906E-04-2.17379E-05
 -1     29253 3.22906E-04 3.22906E-04-2.46816E-05
 -1     29257 3.22906E-04 3.22906E-04-2.76254E-05
 -1     29261 3.22906E-04 3.22906E-04-3.05691E-05
 -1     29265 3.22906E-04 3.22906E-04-3.35128E-05
 -1     29269 3.22906E-04 3.22906E-04-3.64565E-05
 -1     29275 2.68417E-04 3.69444E-04-9.96301E-06
 -1     29279 2.68417E-04 3.69444E-04-1.29067E-05
 -1     29283 2.68417E-04 3.69444E-04-1.58505E-05
 -1     29287 2.68417E-04 3.69444E-04-1.87942E-05
 -1     29291 2.68417E-04 3.69444E-04-2.17379E-05
 -1     29295 2.68417E-04 3.69444E-04-2.46816E-05
 -1     29299 2.68417E-04 3.69444E-04-2.76254E-05
 -1     29303 2.68417E-04 3.69444E-04-3.05691E-05
 -1     29307 2.68417E-04 3.69444E-04-3.35128E-05
 -1     29311 2.68417E-04 3.69444E-04-3.64565E-05
 -1     29317 2.07318E-04 4.06885E-04-9.96303E-06
 -1     29321 2.07318E-04 4.06885E-04-1.29068E-05
 -1     29325 2.07318E-04 4.06885E-04-1.58505E-05
 -1     29329 2.07318E-04 4.06885E-04-1.87942E-05
 -1     29333 2.07318E-04 4.06885E-04-2.17379E-05
 -1     29337 2.07318E-04 4.06885E-04-2.46816E-05
 -1     29341 2.07318E-04 4.06885E-04-2.76254E-05
 -1     29345 2.07318E-04 4.06885E-04-3.05691E-05
 -1     29349 2.07318E-04 4.06885E-04-3.35128E-05
 -1     29353 2.07318E-04 4.06885E-04-3.64565E-05
 -1     29359 1.41115E-04 4.34307E-04-9.96306E-06
 -1     29363 1.41115E-04 4.34307E-04-1.29068E-05
 -1     29367 1.41115E-04 4.34307E-04-1.58505E-05
 -1     29371 1.41115E-04 4.34307E-04-1.87942E-05
 -1     29375 1.41115E-04 4.34307E-04-2.17379E-05
 -1     29379 1.41115E-04 4.34307E-04-2.46816E-05
 -1     29383 1.41115E-04 4.34307E-04-2.76253E-05
 -1     29387 1.41115E-04 4.34307E-04-3.05691E-05
 -1     29391 1.41115E-04 4.34307E-04-3.35128E-05
 -1     29395 1.41115E-04 4.34307E-04-3.64565E-05
 -1     29401 7.14370E-05 4.51036E-04-9.96301E-06
 -1     29405 7.14370E-05 4.51036E-04-1.29067E-05
 -1     29409 7.14370E-05 4.51036E-04-1.58505E-05
 -1     29413 7.14370E-05 4.51036E-04-1.87942E-05
 -1     29417 7.14370E-05 4.51036E-04-2.17379E-05
 -1     29421 7.14370E-05 4.51036E-04-2.46816E-05
 -1     29425 7.14370E-05 4.51036E-04-2.76254E-05
 -1     29429 7.14370E-05 4.51036E-04-3.05691E-05
 -1     29433 7.14370E-05 4.51036E-04-3.35128E-05
 -1     29437 7.14370E-05 4.51036E-04-3.64565E-05
 -3
    1PSTEP                         2           1           1          
  100CL  101 1.000000000       15523                     0    1           1
 -4  STRESS      6    1
 -5  SXX         1    4    1    1
 -5  SYY         1    4    2    2
 -5  SZZ         1    4    3    3
 -5  SXY         1    4    1    2
 -5  SYZ         1    4    2    3
 -5  SZX         1    4    3    1
 -1         1-1.00949E+00 3.27601E+00-2.43008E-06 7.43829E-03 6.43665E-08 4.69300E-06
 -1         2 9.99068E-01 1.26751E+00 4.31773E-07-1.48972E-03 4.37157E-07 8.99167E-07
 -1         3 1.26751E+00 9.99070E-01-1.97374E-06-1.49143E-03 2.02353E-06-2.16205E-06
 -1         4 3.27601E+00-1.00949E+00-2.42968E-06 7.43830E-03 4.69127E-06 6.51965E-08
 -1         5-1.00949E+00 3.27601E+00-2.43008E-06 7.43829E-03-6.43666E-08-4.69300E-06
 -1         6 9.99068E-01 1.26751E+00 4.31773E-07-1.48972E-03-4.37156E-07-8.99167E-07
 -1         7 1.26751E+00 9.99070E-01-1.97374E-06-1.49143E-03-2.02353E-06 2.16205E-06
 -1         8 3.27601E+00-1.00949E+00-2.42968E-06 7.43830E-03-4.69127E-06-6.51965E-08
 -1         9-6.44451E-01 2.91103E+00-1.10813E-06 6.73918E-04-1.18782E-07-3.63473E-06
 -1        10-3.61024E-01 2.62761E+00 2.13822E-06-1.96816E-03 1.40848E-08 6.40366E-07
 -1        11-1.40720E-01 2.40729E+00 2.66299E-07-1.07273E-03 1.03433E-07 7.85896E-07
 -1        12 3.43430E-02 2.23223E+00-4.12826E-08-1.08191E-03-4.16417E-08-2.30002E-07
 -1        13 1.75659E-01 2.09092E+00 4.39499E-08-9.02464E-04 1.83268E-08 1.16561E-07
 -1        14 2.91393E-01 1.97518E+00-2.21965E-08-8.03906E-04-5.62143E-09-3.01629E-08
 -1        15 3.87357E-01 1.87922E+00 5.38579E-10-7.09598E-04 2.03293E-09 1.21284E-08
 -1        16 4.67810E-01 1.79877E+00-7.59217E-09-6.33779E-04-5.99849E-10-3.29485E-09
 -1        17 5.35921E-01 1.73065E+00-3.70201E-09-5.68739E-04 1.64638E-10 7.36363E-10
 -1        18 5.94091E-01 1.67248E+00-3.88043E-09-5.13407E-04-8.07868E-11-6.25677E-10
 -1        19 6.44163E-01 1.62241E+00-2.87019E-09-4.65719E-04-7.83733E-12-2.23361E-10
 -1        20 6.87573E-01 1.57900E+00-2.42284E-09-4.24388E-04-2.50107E-11-2.84179E-10
 -1        21 7.25452E-01 1.54112E+00-1.95644E-09-3.88319E-04-1.52721E-11-2.04925E-10
 -1        22 7.58701E-01 1.50787E+00-1.62279E-09-3.56659E-04-1.34991E-11-1.71624E-10
 -1        23 7.88045E-01 1.47853E+00-1.34821E-09-3.28718E-04-1.04076E-11-1.33967E-10
 -1        24 8.14072E-01 1.45250E+00-1.13175E-09-3.03935E-04-8.30190E-12-1.06700E-10
 -1        25 8.37264E-01 1.42931E+00-9.62957E-10-2.81851E-04-5.55185E-12-7.76012E-11
 -1        26 8.58018E-01 1.40856E+00-8.17312E-10-2.62089E-04-5.84802E-12-6.30256E-11
 -1        27 8.76663E-01 1.38991E+00-7.52232E-10-2.44336E-04 4.87057E-12 1.07301E-11
 -1        28 8.93477E-01 1.37310E+00-5.86849E-10-2.28322E-04-1.72483E-11-7.06107E-11
 -1        29 9.08691E-01 1.35788E+00-9.17408E-10-2.13849E-04 7.81009E-11 4.96813E-10
 -1        30 9.22502E-01 1.34407E+00-8.44061E-11-2.00647E-04-1.81532E-10-8.00384E-10
 -1        31 9.35078E-01 1.33150E+00-3.27674E-09-1.88871E-04 7.18751E-10 4.65838E-09
 -1        32 9.46561E-01 1.32002E+00 3.11457E-09-1.77175E-04-1.73834E-09-9.66962E-09
 -1        33 9.57075E-01 1.30950E+00-1.95415E-08-1.70101E-04 5.58207E-09 4.02450E-08
 -1        34 9.66723E-01 1.29985E+00 1.17913E-08-1.49558E-04-1.11735E-08-8.06464E-08
 -1        35 9.75607E-01 1.29097E+00-1.12975E-07-1.85166E-04 2.39615E-08 2.76449E-07
 -1        36 9.83773E-01 1.28280E+00-4.58344E-07-5.78530E-06 2.74885E-08-3.66445E-09
 -1        37 9.91496E-01 1.27508E+00 3.63367E-07-1.18524E-03-1.61102E-07-6.44601E-07
 -1        38-8.26594E-01 3.09318E+00 1.34135E-06 4.28180E-03-2.95165E-08-9.09353E-07
 -1        39-5.02777E-01 2.76933E+00-5.95660E-07-9.03067E-04 1.56521E-07 2.36609E-06
 -1        40-2.50988E-01 2.51757E+00-9.58895E-07-1.48409E-03-1.71575E-07-1.87842E-06
 -1        41-5.32553E-02 2.31983E+00 3.27670E-07-1.08741E-03 6.83704E-08 6.02150E-07
 -1        42 1.04956E-01 2.16162E+00-1.47281E-07-9.89676E-04-2.67854E-08-2.28640E-07
 -1        43 2.33496E-01 2.03308E+00 5.23939E-08-8.53797E-04 8.49409E-09 6.62192E-08
 -1        44 3.39354E-01 1.92722E+00-1.42103E-08-7.56446E-04-2.88263E-09-2.24371E-08
 -1        45 4.27569E-01 1.83901E+00 8.42948E-09-6.71589E-04 8.53696E-10 6.28414E-09
 -1        46 5.01855E-01 1.76472E+00 6.75869E-10-6.01096E-04-2.54821E-10-1.79084E-09
 -1        47 5.64999E-01 1.70158E+00 2.55616E-09-5.40932E-04 9.05022E-11 7.19210E-10
 -1        48 6.19121E-01 1.64745E+00 1.46279E-09-4.89428E-04-9.80742E-12 9.17877E-12
 -1        49 6.65864E-01 1.60071E+00 1.37478E-09-4.44932E-04 1.77518E-11 1.88281E-10
 -1        50 7.06509E-01 1.56007E+00 1.06565E-09-4.06244E-04 7.37796E-12 1.05306E-10
 -1        51 7.42074E-01 1.52450E+00 8.93070E-10-3.72392E-04 8.05316E-12 9.81741E-11
 -1        52 7.73371E-01 1.49320E+00 7.34988E-10-3.42602E-04 5.92431E-12 7.46752E-11
 -1        53 8.01057E-01 1.46552E+00 6.16578E-10-3.16249E-04 4.78958E-12 5.96963E-11
 -1        54 8.25667E-01 1.44091E+00 5.17906E-10-2.92824E-04 4.04675E-12 4.76933E-11
 -1        55 8.47640E-01 1.41894E+00 4.48543E-10-2.71909E-04 2.10427E-12 2.99054E-11
 -1        56 8.67340E-01 1.39924E+00 3.68602E-10-2.53158E-04 4.39528E-12 3.58620E-11
 -1        57 8.85070E-01 1.38151E+00 3.97818E-10-2.36280E-04-8.51901E-12-5.11846E-11
 -1        58 9.01084E-01 1.36549E+00 1.59424E-10-2.21044E-04 2.65763E-11 1.46416E-10
 -1        59 9.15596E-01 1.35098E+00 8.89401E-10-2.07202E-04-1.02873E-10-7.06902E-10
 -1        60 9.28790E-01 1.33779E+00-1.18702E-09-1.94749E-04 2.81102E-10 1.75530E-09
 -1        61 9.40819E-01 1.32576E+00 5.78555E-09-1.82889E-04-9.79476E-10-7.19620E-09
 -1        62 9.51818E-01 1.31476E+00-1.28830E-08-1.74017E-04 2.64469E-09 1.93984E-08
 -1        63 9.61899E-01 1.30468E+00 4.46886E-08-1.58178E-04-7.96219E-09-6.84534E-08
 -1        64 9.71166E-01 1.29541E+00-8.87974E-08-1.73848E-04 1.85081E-08 1.74844E-07
 -1        65 9.79687E-01 1.28689E+00 2.82047E-07-6.93103E-05-4.31910E-08-5.45141E-07
 -1        66 9.87611E-01 1.27897E+00 5.66560E-08-4.42706E-04 2.02276E-08 7.69425E-07
 -1        67 9.95306E-01 1.27127E+00-2.80538E-07-1.51095E-03 1.12804E-07-3.11386E-07
 -1        68 1.00564E+00 1.26094E+00 4.36047E-07-4.14766E-02 1.57871E-07 8.87781E-07
 -1        69 1.02470E+00 1.24188E+00 4.35750E-07-7.88933E-02 3.13437E-07 8.36325E-07
 -1        70 1.05440E+00 1.21218E+00 4.91433E-07-1.08587E-01 4.74182E-07 7.86369E-07
 -1        71 1.09181E+00 1.17477E+00 9.91117E-07-1.27652E-01 4.26440E-07 6.18976E-07
 -1        72 1.13329E+00 1.13329E+00 9.41644E-07-1.34222E-01 2.89311E-07 5.50074E-07
 -1        73 1.17477E+00 1.09181E+00-4.45983E-07-1.27652E-01 1.08255E-06 8.83611E-07
 -1        74 1.21218E+00 1.05440E+00 5.47111E-07-1.08588E-01 8.62975E-07 3.32743E-07
 -1        75 1.24188E+00 1.02470E+00 1.95397E-06-7.88936E-02 2.18322E-07 2.83995E-07
 -1        76 1.26094E+00 1.00564E+00 2.12197E-07-4.14760E-02 8.42094E-07 6.01730E-07
 -1        77 1.00212E+00 1.26446E+00 5.04280E-07-2.07748E-02 6.65993E-08 9.05994E-07
 -1        78 1.01496E+00 1.25162E+00 5.00073E-07-6.02908E-02 1.98058E-07 8.84250E-07
 -1        79 1.03938E+00 1.22719E+00 5.04615E-07-9.39051E-02 3.25725E-07 8.57918E-07
 -1        80 1.07300E+00 1.19358E+00 4.44636E-07-1.18327E-01 4.22438E-07 7.76043E-07
 -1        81 1.11251E+00 1.15406E+00 2.94602E-07-1.31167E-01 5.28669E-07 5.37258E-07
 -1        82 1.15406E+00 1.11251E+00 5.55375E-07-1.31167E-01 8.39265E-07 5.04639E-07
 -1        83 1.19358E+00 1.07300E+00 6.85392E-07-1.18327E-01 8.96438E-07 6.27218E-07
 -1        84 1.22719E+00 1.03938E+00 2.03857E-07-9.39050E-02 6.25787E-07 3.33812E-07
 -1        85 1.25162E+00 1.01496E+00 1.88069E-07-6.02912E-02 7.24349E-07-1.15310E-07
 -1        86 1.26446E+00 1.00212E+00 9.11405E-07-2.07752E-02 1.27019E-06-1.61659E-07
 -1        87 1.27508E+00 9.91498E-01 7.49893E-07-1.18576E-03-7.58682E-07 5.28541E-07
 -1        88 1.28280E+00 9.83774E-01-1.42131E-07-5.92974E-06-1.88738E-07-7.17016E-08
 -1        89 1.29097E+00 9.75607E-01-1.15842E-07-1.85219E-04 2.65188E-07 4.86200E-08
 -1        90 1.29985E+00 9.66723E-01 3.70805E-08-1.49569E-04-9.57029E-08-1.54574E-08
 -1        91 1.30950E+00 9.57075E-01-2.00361E-08-1.70108E-04 3.83595E-08 6.16325E-09
 -1        92 1.32002E+00 9.46561E-01 5.77492E-09-1.77178E-04-1.13728E-08-2.02408E-09
 -1        93 1.33150E+00 9.35078E-01-3.07857E-09-1.88873E-04 4.19620E-09 6.93457E-10
 -1        94 1.34407E+00 9.22503E-01 2.74082E-10-2.00648E-04-1.07587E-09-2.05963E-10
 -1        95 1.35788E+00 9.08691E-01-8.43886E-10-2.13850E-04 3.85697E-10 7.05322E-11
 -1        96 1.37310E+00 8.93477E-01-5.32185E-10-2.28323E-04-1.27510E-10-2.10092E-11
 -1        97 1.38991E+00 8.76663E-01-7.36367E-10-2.44337E-04-1.59794E-11 3.61808E-12
 -1        98 1.40856E+00 8.58018E-01-8.09384E-10-2.62090E-04-7.64704E-11-6.29471E-12
 -1        99 1.42931E+00 8.37264E-01-9.60971E-10-2.81852E-04-8.44163E-11-5.42138E-12
 -1       100 1.45250E+00 8.14072E-01-1.13150E-09-3.03935E-04-1.10316E-10-8.09274E-12
 -1       101 1.47853E+00 7.88045E-01-1.34895E-09-3.28718E-04-1.36030E-10-9.91392E-12
 -1       102 1.50787E+00 7.58701E-01-1.62373E-09-3.56660E-04-1.72707E-10-1.32290E-11
 -1       103 1.54112E+00 7.25452E-01-1.95726E-09-3.88319E-04-2.05545E-10-1.48771E-11
 -1       104 1.57900E+00 6.87573E-01-2.42379E-09-4.24388E-04-2.84491E-10-2.46474E-11
 -1       105 1.62241E+00 6.44163E-01-2.87090E-09-4.65719E-04-2.23720E-10-7.41023E-12
 -1       106 1.67248E+00 5.94091E-01-3.88093E-09-5.13407E-04-6.25786E-10-8.04053E-11
 -1       107 1.73065E+00 5.35921E-01-3.70250E-09-5.68739E-04 7.36293E-10 1.65078E-10
 -1       108 1.79877E+00 4.67810E-01-7.59262E-09-6.33779E-04-3.29494E-09-5.99492E-10
 -1       109 1.87922E+00 3.87357E-01 5.38329E-10-7.09598E-04 1.21288E-08 2.03338E-09
 -1       110 1.97518E+00 2.91393E-01-2.21974E-08-8.03906E-04-3.01629E-08-5.62161E-09
 -1       111 2.09092E+00 1.75659E-01 4.39498E-08-9.02464E-04 1.16563E-07 1.83278E-08
 -1       112 2.23223E+00 3.43430E-02-4.12680E-08-1.08191E-03-2.30005E-07-4.16319E-08
 -1       113 2.40729E+00-1.40720E-01 2.66275E-07-1.07273E-03 7.85921E-07 1.03370E-07
 -1       114 2.62761E+00-3.61024E-01 2.13828E-06-1.96816E-03 6.40389E-07 1.43426E-08
 -1       115 2.91103E+00-6.44451E-01-1.10832E-06 6.73917E-04-3.63458E-06-1.19551E-07
 -1       116 1.27127E+00 9.95309E-01-5.31635E-07-1.51207E-03-1.78871E-07-8.53332E-07
 -1       117 1.27897E+00 9.87612E-01-1.59143E-07-4.43047E-04 8.62972E-07 3.20393E-07
 -1       118 1.28689E+00 9.79687E-01 3.04252E-07-6.93922E-05-5.54680E-07-7.62424E-08
 -1       119 1.29541E+00 9.71166E-01-1.18705E-07-1.73878E-04 1.88507E-07 2.99567E-08
 -1       120 1.30468E+00 9.61899E-01 4.79479E-08-1.58185E-04-6.87254E-08-9.24929E-09
 -1       121 1.31476E+00 9.51818E-01-1.60013E-08-1.74022E-04 2.10658E-08 3.00009E-09
 -1       122 1.32576E+00 9.40819E-01 5.93103E-09-1.82891E-04-6.95582E-09-1.03702E-09
 -1       123 1.33779E+00 9.28790E-01-1.52619E-09-1.94751E-04 1.97810E-09 2.94988E-10
 -1       124 1.35098E+00 9.15596E-01 8.68904E-10-2.07204E-04-6.45647E-10-1.00915E-10
 -1       125 1.36549E+00 9.01084E-01 1.15865E-10-2.21045E-04 1.80274E-10 2.85873E-11
 -1       126 1.38151E+00 8.85070E-01 3.89930E-10-2.36281E-04-3.91649E-11-7.45368E-12
 -1       127 1.39924E+00 8.67340E-01 3.62845E-10-2.53159E-04 4.10800E-11 5.14782E-12
 -1       128 1.41894E+00 8.47640E-01 4.47454E-10-2.71909E-04 3.17075E-11 2.68468E-12
 -1       129 1.44091E+00 8.25667E-01 5.17746E-10-2.92824E-04 4.82363E-11 4.57001E-12
 -1       130 1.46552E+00 8.01057E-01 6.16916E-10-3.16249E-04 5.97332E-11 5.30558E-12
 -1       131 1.49320E+00 7.73371E-01 7.35632E-10-3.42602E-04 7.44923E-11 6.38191E-12
 -1       132 1.52450E+00 7.42074E-01 8.93607E-10-3.72392E-04 9.80341E-11 8.42262E-12
 -1       133 1.56007E+00 7.06509E-01 1.06610E-09-4.06244E-04 1.05192E-10 7.76115E-12
 -1       134 1.60071E+00 6.65864E-01 1.37519E-09-4.44932E-04 1.88143E-10 1.81602E-11
 -1       135 1.64745E+00 6.19121E-01 1.46306E-09-4.89429E-04 9.07439E-12-9.40870E-12
 -1       136 1.70158E+00 5.64999E-01 2.55639E-09-5.40933E-04 7.19188E-10 9.09091E-11
 -1       137 1.76472E+00 5.01855E-01 6.76042E-10-6.01096E-04-1.79093E-09-2.54435E-10
 -1       138 1.83901E+00 4.27569E-01 8.42972E-09-6.71589E-04 6.28420E-09 8.54094E-10
 -1       139 1.92722E+00 3.39354E-01-1.42106E-08-7.56446E-04-2.24371E-08-2.88257E-09
 -1       140 2.03308E+00 2.33496E-01 5.23949E-08-8.53797E-04 6.62195E-08 8.49447E-09
 -1       141 2.16162E+00 1.04956E-01-1.47282E-07-9.89676E-04-2.28641E-07-2.67808E-08
 -1       142 2.31983E+00-5.32553E-02 3.27658E-07-1.08741E-03 6.02153E-07 6.83469E-08
 -1       143 2.51757E+00-2.50988E-01-9.58872E-07-1.48409E-03-1.87845E-06-1.71497E-07
 -1       144 2.76933E+00-5.02777E-01-5.95741E-07-9.03068E-04 2.36608E-06 1.56259E-07
 -1       145 3.09318E+00-8.26594E-01 1.34148E-06 4.28180E-03-9.09984E-07-2.94625E-08
 -1       146 3.17114E+00-9.04615E-01-2.42939E-06-6.62146E-01 4.63370E-06 7.32594E-07
 -1       147 2.86678E+00-6.00260E-01-2.43110E-06-1.25948E+00 4.45940E-06 1.44909E-06
 -1       148 2.39274E+00-1.26216E-01-2.42919E-06-1.73352E+00 4.18485E-06 2.13246E-06
 -1       149 1.79541E+00 4.71115E-01-2.43089E-06-2.03788E+00 3.79868E-06 2.75822E-06
 -1       150 1.13326E+00 1.13326E+00-2.43033E-06-2.14275E+00 3.31901E-06 3.31905E-06
 -1       151 4.71115E-01 1.79541E+00-2.43005E-06-2.03788E+00 2.75866E-06 3.79688E-06
 -1       152-1.26216E-01 2.39274E+00-2.43007E-06-1.73352E+00 2.13060E-06 4.18161E-06
 -1       153-6.00260E-01 2.86678E+00-2.43008E-06-1.25948E+00 1.45021E-06 4.46337E-06
 -1       154-9.04615E-01 3.17114E+00-2.43009E-06-6.62146E-01 7.34156E-07 4.63524E-06
 -1       155 3.22243E+00-9.55903E-01-2.43024E-06-3.30891E-01 4.67007E-06 3.67233E-07
 -1       156 3.01792E+00-7.51401E-01-2.43112E-06-9.60284E-01 4.55433E-06 1.09559E-06
 -1       157 2.62894E+00-3.62415E-01-2.43009E-06-1.49568E+00 4.32806E-06 1.78999E-06
 -1       158 2.09355E+00 1.72978E-01-2.42905E-06-1.88466E+00 3.99186E-06 2.44868E-06
 -1       159 1.46415E+00 8.02371E-01-2.42999E-06-2.08916E+00 3.56093E-06 3.04111E-06
 -1       160 8.02371E-01 1.46415E+00-2.43009E-06-2.08916E+00 3.04158E-06 3.56140E-06
 -1       161 1.72978E-01 2.09355E+00-2.43013E-06-1.88466E+00 2.44710E-06 3.99330E-06
 -1       162-3.62415E-01 2.62894E+00-2.43013E-06-1.49568E+00 1.79234E-06 4.32702E-06
 -1       163-7.51401E-01 3.01792E+00-2.43011E-06-9.60284E-01 1.09335E-06 4.55415E-06
 -1       164-9.55903E-01 3.22243E+00-2.43012E-06-3.30891E-01 3.67465E-07 4.66913E-06
 -1       165-6.44451E-01 2.91103E+00-1.10813E-06 6.73918E-04 1.18782E-07 3.63473E-06
 -1       166-3.61024E-01 2.62761E+00 2.13822E-06-1.96816E-03-1.40848E-08-6.40366E-07
 -1       167-1.40720E-01 2.40729E+00 2.66300E-07-1.07273E-03-1.03433E-07-7.85896E-07
 -1       168 3.43430E-02 2.23223E+00-4.12826E-08-1.08191E-03 4.16416E-08 2.30002E-07
 -1       169 1.75659E-01 2.09092E+00 4.39499E-08-9.02464E-04-1.83267E-08-1.16561E-07
 -1       170 2.91393E-01 1.97518E+00-2.21965E-08-8.03906E-04 5.62142E-09 3.01628E-08
 -1       171 3.87357E-01 1.87922E+00 5.38604E-10-7.09598E-04-2.03303E-09-1.21287E-08
 -1       172 4.67810E-01 1.79877E+00-7.59224E-09-6.33779E-04 5.99899E-10 3.29493E-09
 -1       173 5.35921E-01 1.73065E+00-3.70199E-09-5.68739E-04-1.64766E-10-7.36310E-10
 -1       174 5.94091E-01 1.67248E+00-3.88037E-09-5.13407E-04 8.07826E-11 6.25638E-10
 -1       175 6.44163E-01 1.62241E+00-2.87020E-09-4.65719E-04 7.80379E-12 2.23144E-10
 -1       176 6.87573E-01 1.57900E+00-2.42295E-09-4.24388E-04 2.50774E-11 2.84214E-10
 -1       177 7.25452E-01 1.54112E+00-1.95638E-09-3.88319E-04 1.50858E-11 2.04853E-10
 -1       178 7.58701E-01 1.50787E+00-1.62274E-09-3.56659E-04 1.36125E-11 1.71583E-10
 -1       179 7.88045E-01 1.47853E+00-1.34827E-09-3.28718E-04 1.04120E-11 1.34116E-10
 -1       180 8.14072E-01 1.45250E+00-1.13170E-09-3.03935E-04 8.31857E-12 1.06670E-10
 -1       181 8.37264E-01 1.42931E+00-9.62984E-10-2.81851E-04 5.48265E-12 7.75706E-11
 -1       182 8.58018E-01 1.40856E+00-8.17371E-10-2.62089E-04 5.81671E-12 6.30488E-11
 -1       183 8.76663E-01 1.38991E+00-7.52080E-10-2.44336E-04-4.88972E-12-1.07267E-11
 -1       184 8.93477E-01 1.37310E+00-5.86836E-10-2.28322E-04 1.71607E-11 7.05810E-11
 -1       185 9.08691E-01 1.35788E+00-9.17419E-10-2.13849E-04-7.80566E-11-4.96834E-10
 -1       186 9.22502E-01 1.34407E+00-8.43556E-11-2.00647E-04 1.81647E-10 8.00405E-10
 -1       187 9.35078E-01 1.33150E+00-3.27690E-09-1.88871E-04-7.18974E-10-4.65852E-09
 -1       188 9.46561E-01 1.32002E+00 3.11459E-09-1.77175E-04 1.73842E-09 9.66974E-09
 -1       189 9.57075E-01 1.30950E+00-1.95416E-08-1.70101E-04-5.58227E-09-4.02450E-08
 -1       190 9.66723E-01 1.29985E+00 1.17913E-08-1.49558E-04 1.11735E-08 8.06465E-08
 -1       191 9.75607E-01 1.29097E+00-1.12975E-07-1.85166E-04-2.39618E-08-2.76449E-07
 -1       192 9.83773E-01 1.28280E+00-4.58344E-07-5.78530E-06-2.74882E-08 3.66456E-09
 -1       193 9.91496E-01 1.27508E+00 3.63367E-07-1.18524E-03 1.61102E-07 6.44601E-07
 -1       194-8.26594E-01 3.09318E+00 1.34135E-06 4.28180E-03 2.95164E-08 9.09353E-07
 -1       195-5.02777E-01 2.76933E+00-5.95660E-07-9.03067E-04-1.56521E-07-2.36609E-06
 -1       196-2.50988E-01 2.51757E+00-9.58895E-07-1.48409E-03 1.71575E-07 1.87842E-06
 -1       197-5.32553E-02 2.31983E+00 3.27670E-07-1.08741E-03-6.83704E-08-6.02150E-07
 -1       198 1.04956E-01 2.16162E+00-1.47281E-07-9.89676E-04 2.67854E-08 2.28640E-07
 -1       199 2.33496E-01 2.03308E+00 5.23940E-08-8.53797E-04-8.49408E-09-6.62193E-08
 -1       200 3.39354E-01 1.92722E+00-1.42104E-08-7.56446E-04 2.88257E-09 2.24369E-08
 -1       201 4.27569E-01 1.83901E+00 8.42954E-09-6.71589E-04-8.53723E-10-6.28421E-09
 -1       202 5.01855E-01 1.76472E+00 6.75877E-10-6.01096E-04 2.54785E-10 1.79095E-09
 -1       203 5.64999E-01 1.70158E+00 2.55619E-09-5.40932E-04-9.05665E-11-7.19227E-10
 -1       204 6.19121E-01 1.64745E+00 1.46269E-09-4.89428E-04 9.79098E-12-9.30334E-12
 -1       205 6.65864E-01 1.60071E+00 1.37482E-09-4.44932E-04-1.77360E-11-1.88354E-10
 -1       206 7.06509E-01 1.56007E+00 1.06570E-09-4.06244E-04-7.44153E-12-1.05310E-10
 -1       207 7.42074E-01 1.52450E+00 8.93033E-10-3.72392E-04-8.08371E-12-9.81988E-11
 -1       208 7.73371E-01 1.49320E+00 7.35005E-10-3.42602E-04-5.86559E-12-7.46109E-11
 -1       209 8.01057E-01 1.46552E+00 6.16485E-10-3.16249E-04-4.78140E-12-5.96772E-11
 -1       210 8.25667E-01 1.44091E+00 5.17973E-10-2.92824E-04-4.07650E-12-4.77541E-11
 -1       211 8.47640E-01 1.41894E+00 4.48489E-10-2.71909E-04-2.15121E-12-2.99389E-11
 -1       212 8.67340E-01 1.39924E+00 3.68672E-10-2.53158E-04-4.42096E-12-3.58233E-11
 -1       213 8.85070E-01 1.38151E+00 3.97825E-10-2.36280E-04 8.46345E-12 5.11402E-11
 -1       214 9.01084E-01 1.36549E+00 1.59437E-10-2.21044E-04-2.66002E-11-1.46445E-10
 -1       215 9.15596E-01 1.35098E+00 8.89485E-10-2.07202E-04 1.02960E-10 7.06933E-10
 -1       216 9.28790E-01 1.33779E+00-1.18712E-09-1.94749E-04-2.81161E-10-1.75532E-09
 -1       217 9.40819E-01 1.32576E+00 5.78558E-09-1.82889E-04 9.79405E-10 7.19614E-09
 -1       218 9.51818E-01 1.31476E+00-1.28830E-08-1.74017E-04-2.64475E-09-1.93984E-08
 -1       219 9.61899E-01 1.30468E+00 4.46887E-08-1.58178E-04 7.96211E-09 6.84535E-08
 -1       220 9.71166E-01 1.29541E+00-8.87976E-08-1.73848E-04-1.85083E-08-1.74844E-07
 -1       221 9.79687E-01 1.28689E+00 2.82047E-07-6.93103E-05 4.31910E-08 5.45141E-07
 -1       222 9.87611E-01 1.27897E+00 5.66560E-08-4.42706E-04-2.02275E-08-7.69424E-07
 -1       223 9.95306E-01 1.27127E+00-2.80538E-07-1.51095E-03-1.12804E-07 3.11386E-07
 -1       224 1.00564E+00 1.26094E+00 4.36047E-07-4.14766E-02-1.57871E-07-8.87781E-07
 -1       225 1.02470E+00 1.24188E+00 4.35750E-07-7.88933E-02-3.13437E-07-8.36325E-07
 -1       226 1.05440E+00 1.21218E+00 4.91433E-07-1.08587E-01-4.74182E-07-7.86369E-07
 -1       227 1.09181E+00 1.17477E+00 9.91117E-07-1.27652E-01-4.26440E-07-6.18976E-07
 -1       228 1.13329E+00 1.13329E+00 9.41644E-07-1.34222E-01-2.89310E-07-5.50073E-07
 -1       229 1.17477E+00 1.09181E+00-4.45983E-07-1.27652E-01-1.08255E-06-8.83611E-07
 -1       230 1.21218E+00 1.05440E+00 5.47111E-07-1.08588E-01-8.62975E-07-3.32743E-07
 -1       231 1.24188E+00 1.02470E+00 1.95397E-06-7.88936E-02-2.18322E-07-2.83995E-07
 -1       232 1.26094E+00 1.00564E+00 2.12198E-07-4.14760E-02-8.42094E-07-6.01730E-07
 -1       233 1.00212E+00 1.26446E+00 5.04280E-07-2.07748E-02-6.65993E-08-9.05994E-07
 -1       234 1.01496E+00 1.25162E+00 5.00073E-07-6.02908E-02-1.98058E-07-8.84250E-07
 -1       235 1.03938E+00 1.22719E+00 5.04615E-07-9.39051E-02-3.25725E-07-8.57918E-07
 -1       236 1.07300E+00 1.19358E+00 4.44636E-07-1.18327E-01-4.22438E-07-7.76043E-07
 -1       237 1.11251E+00 1.15406E+00 2.94602E-07-1.31167E-01-5.28669E-07-5.37258E-07
 -1       238 1.15406E+00 1.11251E+00 5.55375E-07-1.31167E-01-8.39265E-07-5.04638E-07
 -1       239 1.19358E+00 1.07300E+00 6.85392E-07-1.18327E-01-8.96438E-07-6.27218E-07
 -1       240 1.22719E+00 1.03938E+00 2.03857E-07-9.39050E-02-6.25787E-07-3.33812E-07
 -1       241 1.25162E+00 1.01496E+00 1.88069E-07-6.02912E-02-7.24349E-07 1.15310E-07
 -1       242 1.26446E+00 1.00212E+00 9.11405E-07-2.07752E-02-1.27019E-06 1.61659E-07
 -1       243 1.27508E+00 9.91498E-01 7.49893E-07-1.18576E-03 7.58682E-07-5.28541E-07
 -1       244 1.28280E+00 9.83774E-01-1.42131E-07-5.92974E-06 1.88738E-07 7.17017E-08
 -1       245 1.29097E+00 9.75607E-01-1.15842E-07-1.85219E-04-2.65188E-07-4.86202E-08
 -1       246 1.29985E+00 9.66723E-01 3.70804E-08-1.49569E-04 9.57030E-08 1.54575E-08
 -1       247 1.30950E+00 9.57075E-01-2.00360E-08-1.70108E-04-3.83593E-08-6.16350E-09
 -1       248 1.32002E+00 9.46561E-01 5.77491E-09-1.77178E-04 1.13726E-08 2.02416E-09
 -1       249 1.33150E+00 9.35078E-01-3.07853E-09-1.88873E-04-4.19602E-09-6.93875E-10
 -1       250 1.34407E+00 9.22503E-01 2.74024E-10-2.00648E-04 1.07591E-09 2.06001E-10
 -1       251 1.35788E+00 9.08691E-01-8.43899E-10-2.13850E-04-3.85855E-10-7.04604E-11
 -1       252 1.37310E+00 8.93477E-01-5.32201E-10-2.28323E-04 1.27597E-10 2.10112E-11
 -1       253 1.38991E+00 8.76663E-01-7.36434E-10-2.44337E-04 1.58640E-11-3.64465E-12
 -1       254 1.40856E+00 8.58018E-01-8.09405E-10-2.62090E-04 7.64144E-11 6.24172E-12
 -1       255 1.42931E+00 8.37264E-01-9.61063E-10-2.81852E-04 8.44407E-11 5.59596E-12
 -1       256 1.45250E+00 8.14072E-01-1.13152E-09-3.03935E-04 1.10403E-10 7.91369E-12
 -1       257 1.47853E+00 7.88045E-01-1.34890E-09-3.28718E-04 1.36036E-10 9.86359E-12
 -1       258 1.50787E+00 7.58701E-01-1.62374E-09-3.56660E-04 1.72740E-10 1.33381E-11
 -1       259 1.54112E+00 7.25452E-01-1.95731E-09-3.88319E-04 2.05520E-10 1.47420E-11
 -1       260 1.57900E+00 6.87573E-01-2.42366E-09-4.24388E-04 2.84543E-10 2.47228E-11
 -1       261 1.62241E+00 6.44163E-01-2.87095E-09-4.65719E-04 2.23678E-10 7.39179E-12
 -1       262 1.67248E+00 5.94091E-01-3.88102E-09-5.13407E-04 6.25787E-10 8.05340E-11
 -1       263 1.73065E+00 5.35921E-01-3.70242E-09-5.68739E-04-7.36296E-10-1.65069E-10
 -1       264 1.79877E+00 4.67810E-01-7.59259E-09-6.33779E-04 3.29496E-09 5.99559E-10
 -1       265 1.87922E+00 3.87357E-01 5.38345E-10-7.09598E-04-1.21288E-08-2.03357E-09
 -1       266 1.97518E+00 2.91393E-01-2.21974E-08-8.03906E-04 3.01629E-08 5.62160E-09
 -1       267 2.09092E+00 1.75659E-01 4.39498E-08-9.02464E-04-1.16563E-07-1.83277E-08
 -1       268 2.23223E+00 3.43430E-02-4.12680E-08-1.08191E-03 2.30005E-07 4.16320E-08
 -1       269 2.40729E+00-1.40720E-01 2.66275E-07-1.07273E-03-7.85921E-07-1.03370E-07
 -1       270 2.62761E+00-3.61024E-01 2.13828E-06-1.96816E-03-6.40390E-07-1.43426E-08
 -1       271 2.91103E+00-6.44451E-01-1.10832E-06 6.73917E-04 3.63458E-06 1.19551E-07
 -1       272 1.27127E+00 9.95309E-01-5.31635E-07-1.51207E-03 1.78872E-07 8.53332E-07
 -1       273 1.27897E+00 9.87612E-01-1.59143E-07-4.43047E-04-8.62972E-07-3.20393E-07
 -1       274 1.28689E+00 9.79687E-01 3.04252E-07-6.93922E-05 5.54680E-07 7.62423E-08
 -1       275 1.29541E+00 9.71166E-01-1.18705E-07-1.73878E-04-1.88506E-07-2.99569E-08
 -1       276 1.30468E+00 9.61899E-01 4.79479E-08-1.58185E-04 6.87255E-08 9.24919E-09
 -1       277 1.31476E+00 9.51818E-01-1.60013E-08-1.74022E-04-2.10658E-08-3.00018E-09
 -1       278 1.32576E+00 9.40819E-01 5.93107E-09-1.82891E-04 6.95584E-09 1.03685E-09
 -1       279 1.33779E+00 9.28790E-01-1.52617E-09-1.94751E-04-1.97798E-09-2.95175E-10
 -1       280 1.35098E+00 9.15596E-01 8.68881E-10-2.07204E-04 6.45536E-10 1.00963E-10
 -1       281 1.36549E+00 9.01084E-01 1.15837E-10-2.21045E-04-1.80381E-10-2.85491E-11
 -1       282 1.38151E+00 8.85070E-01 3.89936E-10-2.36281E-04 3.91550E-11 7.44028E-12
 -1       283 1.39924E+00 8.67340E-01 3.62778E-10-2.53159E-04-4.11435E-11-5.18603E-12
 -1       284 1.41894E+00 8.47640E-01 4.47357E-10-2.71909E-04-3.16652E-11-2.62056E-12
 -1       285 1.44091E+00 8.25667E-01 5.17744E-10-2.92824E-04-4.81783E-11-4.57304E-12
 -1       286 1.46552E+00 8.01057E-01 6.16988E-10-3.16249E-04-5.96845E-11-5.42155E-12
 -1       287 1.49320E+00 7.73371E-01 7.35535E-10-3.42602E-04-7.44534E-11-6.34759E-12
 -1       288 1.52450E+00 7.42074E-01 8.93633E-10-3.72392E-04-9.80518E-11-8.43717E-12
 -1       289 1.56007E+00 7.06509E-01 1.06609E-09-4.06244E-04-1.05188E-10-7.79461E-12
 -1       290 1.60071E+00 6.65864E-01 1.37515E-09-4.44932E-04-1.88161E-10-1.81295E-11
 -1       291 1.64745E+00 6.19121E-01 1.46311E-09-4.89429E-04-9.10077E-12 9.45755E-12
 -1       292 1.70158E+00 5.64999E-01 2.55639E-09-5.40933E-04-7.19208E-10-9.08363E-11
 -1       293 1.76472E+00 5.01855E-01 6.76025E-10-6.01096E-04 1.79097E-09 2.54474E-10
 -1       294 1.83901E+00 4.27569E-01 8.42970E-09-6.71589E-04-6.28416E-09-8.54147E-10
 -1       295 1.92722E+00 3.39354E-01-1.42105E-08-7.56446E-04 2.24371E-08 2.88247E-09
 -1       296 2.03308E+00 2.33496E-01 5.23949E-08-8.53797E-04-6.62196E-08-8.49443E-09
 -1       297 2.16162E+00 1.04956E-01-1.47282E-07-9.89676E-04 2.28641E-07 2.67808E-08
 -1       298 2.31983E+00-5.32553E-02 3.27658E-07-1.08741E-03-6.02153E-07-6.83469E-08
 -1       299 2.51757E+00-2.50988E-01-9.58872E-07-1.48409E-03 1.87845E-06 1.71497E-07
 -1       300 2.76933E+00-5.02777E-01-5.95741E-07-9.03068E-04-2.36608E-06-1.56259E-07
 -1       301 3.09318E+00-8.26594E-01 1.34148E-06 4.28180E-03 9.09984E-07 2.94625E-08
 -1       302 3.17114E+00-9.04615E-01-2.42939E-06-6.62146E-01-4.63370E-06-7.32594E-07
 -1       303 2.86678E+00-6.00260E-01-2.43110E-06-1.25948E+00-4.45940E-06-1.44909E-06
 -1       304 2.39274E+00-1.26216E-01-2.42919E-06-1.73352E+00-4.18485E-06-2.13246E-06
 -1       305 1.79541E+00 4.71115E-01-2.43089E-06-2.03788E+00-3.79868E-06-2.75822E-06
 -1       306 1.13326E+00 1.13326E+00-2.43033E-06-2.14275E+00-3.31901E-06-3.31905E-06
 -1       307 4.71115E-01 1.79541E+00-2.43005E-06-2.03788E+00-2.75866E-06-3.79688E-06
 -1       308-1.26216E-01 2.39274E+00-2.43007E-06-1.73352E+00-2.13060E-06-4.18161E-06
 -1       309-6.00260E-01 2.86678E+00-2.43008E-06-1.25948E+00-1.45021E-06-4.46337E-06
 -1       310-9.04615E-01 3.17114E+00-2.43009E-06-6.62146E-01-7.34156E-07-4.63524E-06
 -1       311 3.22243E+00-9.55903E-01-2.43024E-06-3.30891E-01-4.67007E-06-3.67233E-07
 -1       312 3.01792E+00-7.51401E-01-2.43112E-06-9.60284E-01-4.55433E-06-1.09559E-06
 -1       313 2.62894E+00-3.62415E-01-2.43009E-06-1.49568E+00-4.32806E-06-1.78999E-06
 -1       314 2.09355E+00 1.72978E-01-2.42905E-06-1.88466E+00-3.99186E-06-2.44868E-06
 -1       315 1.46415E+00 8.02371E-01-2.42999E-06-2.08916E+00-3.56093E-06-3.04111E-06
 -1       316 8.02371E-01 1.46415E+00-2.43009E-06-2.08916E+00-3.04158E-06-3.56140E-06
 -1       317 1.72978E-01 2.09355E+00-2.43013E-06-1.88466E+00-2.44710E-06-3.99330E-06
 -1       318-3.62415E-01 2.62894E+00-2.43013E-06-1.49568E+00-1.79234E-06-4.32702E-06
 -1       319-7.51401E-01 3.01792E+00-2.43011E-06-9.60284E-01-1.09335E-06-4.55415E-06
 -1       320-9.55903E-01 3.22243E+00-2.43012E-06-3.30891E-01-3.67465E-07-4.66913E-06
 -1       321-1.00947E+00 3.27602E+00-8.23520E-06 7.43818E-03-7.51737E-08 5.64105E-06
 -1       322-1.00948E+00 3.27601E+00-1.20101E-05 7.43826E-03-3.58583E-08 1.22976E-06
 -1       323-1.00948E+00 3.27601E+00-1.34354E-05 7.43828E-03-4.27628E-09 1.23307E-07
 -1       324-1.00948E+00 3.27601E+00-1.35188E-05 7.43829E-03-1.77938E-10-6.39717E-08
 -1       325-1.00948E+00 3.27601E+00-1.34122E-05 7.43829E-03 4.95074E-10-3.29241E-08
 -1       326-1.00948E+00 3.27601E+00-1.34122E-05 7.43829E-03-4.94980E-10 3.29241E-08
 -1       327-1.00948E+00 3.27601E+00-1.35188E-05 7.43829E-03 1.77893E-10 6.39718E-08
 -1       328-1.00948E+00 3.27601E+00-1.34354E-05 7.43828E-03 4.27622E-09-1.23307E-07
 -1       329-1.00948E+00 3.27601E+00-1.20101E-05 7.43826E-03 3.58584E-08-1.22976E-06
 -1       330-1.00947E+00 3.27602E+00-8.23520E-06 7.43818E-03 7.51736E-08-5.64105E-06
 -1       331-1.00948E+00 3.27601E+00-3.77437E-06 7.43824E-03-9.54385E-09 5.65122E-06
 -1       332-1.00948E+00 3.27601E+00-1.09317E-05 7.43822E-03-5.04117E-08 2.97876E-06
 -1       333-1.00948E+00 3.27601E+00-1.33107E-05 7.43827E-03-2.09170E-08 6.09421E-07
 -1       334-1.00948E+00 3.27601E+00-1.36094E-05 7.43828E-03-2.30366E-09 5.17758E-08
 -1       335-1.00948E+00 3.27601E+00-1.34909E-05 7.43829E-03 1.38095E-10-3.71405E-08
 -1       336-1.00948E+00 3.27601E+00-1.34195E-05 7.43829E-03 6.11453E-14 2.78031E-15
 -1       337-1.00948E+00 3.27601E+00-1.34909E-05 7.43829E-03-1.38089E-10 3.71406E-08
 -1       338-1.00948E+00 3.27601E+00-1.36094E-05 7.43828E-03 2.30362E-09-5.17758E-08
 -1       339-1.00948E+00 3.27601E+00-1.33107E-05 7.43827E-03 2.09170E-08-6.09421E-07
 -1       340-1.00948E+00 3.27601E+00-1.09317E-05 7.43822E-03 5.04117E-08-2.97876E-06
 -1       341-1.00948E+00 3.27601E+00-3.77437E-06 7.43824E-03 9.54381E-09-5.65122E-06
 -1       342 9.99065E-01 1.26751E+00 8.94403E-07-1.48961E-03 1.72767E-07 5.79252E-07
 -1       343 9.99066E-01 1.26751E+00 8.81941E-07-1.48966E-03-1.11351E-07-4.25981E-08
 -1       344 9.99066E-01 1.26751E+00 7.34088E-07-1.48963E-03-9.57467E-08-1.16414E-07
 -1       345 9.99066E-01 1.26751E+00 5.39797E-07-1.48962E-03-4.07504E-08-7.67345E-08
 -1       346 9.99066E-01 1.26751E+00 4.32251E-07-1.48962E-03-9.46220E-09-2.49790E-08
 -1       347 9.99066E-01 1.26751E+00 4.32251E-07-1.48962E-03 9.46208E-09 2.49792E-08
 -1       348 9.99066E-01 1.26751E+00 5.39797E-07-1.48962E-03 4.07504E-08 7.67343E-08
 -1       349 9.99066E-01 1.26751E+00 7.34088E-07-1.48963E-03 9.57467E-08 1.16414E-07
 -1       350 9.99066E-01 1.26751E+00 8.81941E-07-1.48966E-03 1.11350E-07 4.25981E-08
 -1       351 9.99065E-01 1.26751E+00 8.94402E-07-1.48961E-03-1.72767E-07-5.79252E-07
 -1       352 9.99066E-01 1.26751E+00 4.40265E-07-1.48966E-03 3.29920E-07 7.65931E-07
 -1       353 9.99066E-01 1.26751E+00 9.89947E-07-1.48963E-03 1.50224E-08 2.41003E-07
 -1       354 9.99066E-01 1.26751E+00 8.97763E-07-1.48964E-03-1.11375E-07-8.49744E-08
 -1       355 9.99066E-01 1.26751E+00 6.59275E-07-1.48962E-03-7.29362E-08-9.13853E-08
 -1       356 9.99066E-01 1.26751E+00 4.93009E-07-1.48962E-03-2.47435E-08-4.90077E-08
 -1       357 9.99066E-01 1.26751E+00 4.36212E-07-1.48962E-03-3.76657E-14 4.26324E-14
 -1       358 9.99066E-01 1.26751E+00 4.93009E-07-1.48962E-03 2.47434E-08 4.90077E-08
 -1       359 9.99066E-01 1.26751E+00 6.59275E-07-1.48962E-03 7.29362E-08 9.13852E-08
 -1       360 9.99066E-01 1.26751E+00 8.97763E-07-1.48964E-03 1.11375E-07 8.49743E-08
 -1       361 9.99066E-01 1.26751E+00 9.89947E-07-1.48963E-03-1.50226E-08-2.41003E-07
 -1       362 9.99066E-01 1.26751E+00 4.40264E-07-1.48966E-03-3.29920E-07-7.65931E-07
 -1       363 1.26751E+00 9.99064E-01-4.85309E-06-1.49056E-03 2.36232E-06-2.10412E-06
 -1       364 1.26751E+00 9.99065E-01-4.03659E-06-1.48997E-03 7.34863E-07-1.66712E-06
 -1       365 1.26751E+00 9.99066E-01-2.71459E-06-1.48992E-03 2.94981E-07-1.13012E-06
 -1       366 1.26751E+00 9.99066E-01-2.09484E-06-1.48995E-03 1.20572E-07-6.22455E-07
 -1       367 1.26751E+00 9.99066E-01-1.85036E-06-1.48997E-03 3.46014E-08-1.97407E-07
 -1       368 1.26751E+00 9.99066E-01-1.85036E-06-1.48997E-03-3.46013E-08 1.97407E-07
 -1       369 1.26751E+00 9.99066E-01-2.09484E-06-1.48995E-03-1.20572E-07 6.22455E-07
 -1       370 1.26751E+00 9.99066E-01-2.71459E-06-1.48992E-03-2.94981E-07 1.13012E-06
 -1       371 1.26751E+00 9.99065E-01-4.03659E-06-1.48997E-03-7.34863E-07 1.66712E-06
 -1       372 1.26751E+00 9.99064E-01-4.85309E-06-1.49056E-03-2.36232E-06 2.10412E-06
 -1       373 1.26751E+00 9.99067E-01-3.35111E-06-1.49100E-03 2.17232E-06-1.70155E-06
 -1       374 1.26751E+00 9.99065E-01-4.96123E-06-1.49027E-03 1.53959E-06-2.15176E-06
 -1       375 1.26751E+00 9.99066E-01-3.12652E-06-1.48994E-03 5.13686E-07-1.55325E-06
 -1       376 1.26751E+00 9.99066E-01-2.29139E-06-1.48993E-03 2.24103E-07-9.03805E-07
 -1       377 1.26751E+00 9.99066E-01-1.90807E-06-1.48996E-03 8.50516E-08-4.15101E-07
 -1       378 1.26751E+00 9.99066E-01-1.79606E-06-1.48997E-03-2.89496E-15-1.90477E-13
 -1       379 1.26751E+00 9.99066E-01-1.90807E-06-1.48996E-03-8.50515E-08 4.15101E-07
 -1       380 1.26751E+00 9.99066E-01-2.29139E-06-1.48993E-03-2.24103E-07 9.03805E-07
 -1       381 1.26751E+00 9.99066E-01-3.12652E-06-1.48994E-03-5.13686E-07 1.55325E-06
 -1       382 1.26751E+00 9.99065E-01-4.96123E-06-1.49027E-03-1.53959E-06 2.15176E-06
 -1       383 1.26751E+00 9.99067E-01-3.35111E-06-1.49100E-03-2.17232E-06 1.70155E-06
 -1       384 3.27602E+00-1.00947E+00-8.23531E-06 7.43817E-03 5.64026E-06-7.46651E-08
 -1       385 3.27601E+00-1.00948E+00-1.20096E-05 7.43826E-03 1.22985E-06-3.64518E-08
 -1       386 3.27601E+00-1.00948E+00-1.34349E-05 7.43828E-03 1.23355E-07-4.46080E-09
 -1       387 3.27601E+00-1.00948E+00-1.35183E-05 7.43829E-03-6.39615E-08-2.19034E-10
 -1       388 3.27601E+00-1.00948E+00-1.34116E-05 7.43829E-03-3.29217E-08 5.04743E-10
 -1       389 3.27601E+00-1.00948E+00-1.34116E-05 7.43829E-03 3.29218E-08-5.04849E-10
 -1       390 3.27601E+00-1.00948E+00-1.35183E-05 7.43829E-03 6.39614E-08 2.18924E-10
 -1       391 3.27601E+00-1.00948E+00-1.34349E-05 7.43828E-03-1.23355E-07 4.46075E-09
 -1       392 3.27601E+00-1.00948E+00-1.20096E-05 7.43826E-03-1.22985E-06 3.64518E-08
 -1       393 3.27602E+00-1.00947E+00-8.23531E-06 7.43817E-03-5.64026E-06 7.46650E-08
 -1       394 3.27601E+00-1.00948E+00-3.77413E-06 7.43824E-03 5.64964E-06-9.44038E-09
 -1       395 3.27601E+00-1.00948E+00-1.09315E-05 7.43822E-03 2.97875E-06-4.96768E-08
 -1       396 3.27601E+00-1.00948E+00-1.33103E-05 7.43827E-03 6.09502E-07-2.15432E-08
 -1       397 3.27601E+00-1.00948E+00-1.36089E-05 7.43828E-03 5.17844E-08-2.40688E-09
 -1       398 3.27601E+00-1.00948E+00-1.34903E-05 7.43829E-03-3.71343E-08 1.35987E-10
 -1       399 3.27601E+00-1.00948E+00-1.34189E-05 7.43829E-03-8.71668E-15-4.31345E-14
 -1       400 3.27601E+00-1.00948E+00-1.34903E-05 7.43829E-03 3.71344E-08-1.36104E-10
 -1       401 3.27601E+00-1.00948E+00-1.36089E-05 7.43828E-03-5.17844E-08 2.40680E-09
 -1       402 3.27601E+00-1.00948E+00-1.33103E-05 7.43827E-03-6.09502E-07 2.15432E-08
 -1       403 3.27601E+00-1.00948E+00-1.09315E-05 7.43822E-03-2.97875E-06 4.96768E-08
 -1       404 3.27601E+00-1.00948E+00-3.77413E-06 7.43824E-03-5.64964E-06 9.44030E-09
 -1       405-5.57442E-01 2.82402E+00-1.10813E-06-5.49353E-01-5.68594E-07-3.58998E-06
 -1       406-3.04932E-01 2.57152E+00-1.10814E-06-1.04493E+00-1.12319E-06-3.45684E-06
 -1       407 8.83606E-02 2.17822E+00-1.10814E-06-1.43822E+00-1.65012E-06-3.23859E-06
 -1       408 5.83939E-01 1.68264E+00-1.10818E-06-1.69073E+00-2.13643E-06-2.94058E-06
 -1       409 1.13329E+00 1.13329E+00-1.10803E-06-1.77774E+00-2.57009E-06-2.57028E-06
 -1       410 1.68264E+00 5.83939E-01-1.10806E-06-1.69073E+00-2.94061E-06-2.13623E-06
 -1       411 2.17822E+00 8.83606E-02-1.10836E-06-1.43822E+00-3.23883E-06-1.65027E-06
 -1       412 2.57152E+00-3.04932E-01-1.10789E-06-1.04493E+00-3.45650E-06-1.12307E-06
 -1       413 2.82402E+00-5.57442E-01-1.10815E-06-5.49353E-01-3.59005E-06-5.68385E-07
 -1       414-2.87887E-01 2.55448E+00 2.13822E-06-4.61770E-01 1.00174E-07 6.32481E-07
 -1       415-7.56342E-02 2.34222E+00 2.13823E-06-8.78339E-01 1.97880E-07 6.09024E-07
 -1       416 2.54957E-01 2.01163E+00 2.13823E-06-1.20893E+00 2.90718E-07 5.70577E-07
 -1       417 6.71525E-01 1.59507E+00 2.13824E-06-1.42118E+00 3.76388E-07 5.18085E-07
 -1       418 1.13330E+00 1.13330E+00 2.13819E-06-1.49432E+00 4.52814E-07 4.52775E-07
 -1       419 1.59507E+00 6.71525E-01 2.13821E-06-1.42118E+00 5.18131E-07 3.76517E-07
 -1       420 2.01163E+00 2.54957E-01 2.13781E-06-1.20893E+00 5.70061E-07 2.90375E-07
 -1       421 2.34222E+00-7.56342E-02 2.13862E-06-8.78339E-01 6.09608E-07 1.97992E-07
 -1       422 2.55448E+00-2.87887E-01 2.13821E-06-4.61770E-01 6.32325E-07 1.00192E-07
 -1       423-7.83652E-02 2.34494E+00 2.66299E-07-3.93690E-01 1.22942E-07 7.76220E-07
 -1       424 1.02594E-01 2.16398E+00 2.66298E-07-7.48842E-01 2.42856E-07 7.47431E-07
 -1       425 3.84445E-01 1.88213E+00 2.66299E-07-1.03069E+00 3.56790E-07 7.00236E-07
 -1       426 7.39597E-01 1.52698E+00 2.66304E-07-1.21165E+00 4.61942E-07 6.35802E-07
 -1       427 1.13329E+00 1.13329E+00 2.66314E-07-1.27401E+00 5.55698E-07 5.55714E-07
 -1       428 1.52698E+00 7.39597E-01 2.66330E-07-1.21165E+00 6.35825E-07 4.61951E-07
 -1       429 1.88213E+00 3.84445E-01 2.66220E-07-1.03069E+00 7.00239E-07 3.56797E-07
 -1       430 2.16398E+00 1.02594E-01 2.66384E-07-7.48842E-01 7.47433E-07 2.42863E-07
 -1       431 2.34494E+00-7.83652E-02 2.66267E-07-3.93690E-01 7.76200E-07 1.22940E-07
 -1       432 8.81292E-02 2.17845E+00-4.12825E-08-3.39593E-01-3.59805E-08-2.27170E-07
 -1       433 2.44223E-01 2.02235E+00-4.12829E-08-6.45944E-01-7.10751E-08-2.18745E-07
 -1       434 4.87344E-01 1.77923E+00-4.12833E-08-8.89065E-01-1.04419E-07-2.04933E-07
 -1       435 7.93696E-01 1.47288E+00-4.12863E-08-1.04516E+00-1.35192E-07-1.86076E-07
 -1       436 1.13329E+00 1.13329E+00-4.12907E-08-1.09895E+00-1.62632E-07-1.62640E-07
 -1       437 1.47288E+00 7.93696E-01-4.12764E-08-1.04516E+00-1.86079E-07-1.35194E-07
 -1       438 1.77923E+00 4.87344E-01-4.12876E-08-8.89065E-01-2.04954E-07-1.04430E-07
 -1       439 2.02235E+00 2.44223E-01-4.12782E-08-6.45944E-01-2.18725E-07-7.10681E-08
 -1       440 2.17845E+00 8.81292E-02-4.12870E-08-3.39593E-01-2.27169E-07-3.59797E-08
 -1       441 2.22529E-01 2.04405E+00 4.39500E-08-2.95924E-01 1.82343E-08 1.15127E-07
 -1       442 3.58550E-01 1.90803E+00 4.39501E-08-5.62880E-01 3.60195E-08 1.10857E-07
 -1       443 5.70408E-01 1.69617E+00 4.39507E-08-7.74738E-01 5.29177E-08 1.03857E-07
 -1       444 8.37364E-01 1.42921E+00 4.39513E-08-9.10759E-01 6.85131E-08 9.43008E-08
 -1       445 1.13329E+00 1.13329E+00 4.39501E-08-9.57629E-01 8.24199E-08 8.24223E-08
 -1       446 1.42921E+00 8.37364E-01 4.39506E-08-9.10759E-01 9.43032E-08 6.85145E-08
 -1       447 1.69617E+00 5.70408E-01 4.39425E-08-7.74738E-01 1.03854E-07 5.29162E-08
 -1       448 1.90803E+00 3.58550E-01 4.39569E-08-5.62880E-01 1.10861E-07 3.60207E-08
 -1       449 2.04405E+00 2.22529E-01 4.39482E-08-2.95924E-01 1.15124E-07 1.82328E-08
 -1       450 3.32598E-01 1.93398E+00-2.21965E-08-2.60160E-01-4.71852E-09-2.97915E-08
 -1       451 4.52180E-01 1.81440E+00-2.21966E-08-4.94854E-01-9.32084E-09-2.86866E-08
 -1       452 6.38434E-01 1.62814E+00-2.21966E-08-6.81108E-01-1.36936E-08-2.68754E-08
 -1       453 8.73128E-01 1.39345E+00-2.21969E-08-8.00690E-01-1.77291E-08-2.44023E-08
 -1       454 1.13329E+00 1.13329E+00-2.21961E-08-8.41895E-01-2.13282E-08-2.13287E-08
 -1       455 1.39345E+00 8.73128E-01-2.21960E-08-8.00690E-01-2.44024E-08-1.77292E-08
 -1       456 1.62814E+00 6.38434E-01-2.21987E-08-6.81108E-01-2.68771E-08-1.36947E-08
 -1       457 1.81440E+00 4.52180E-01-2.21939E-08-4.94854E-01-2.86848E-08-9.32024E-09
 -1       458 1.93398E+00 3.32598E-01-2.21968E-08-2.60160E-01-2.97915E-08-4.71820E-09
 -1       459 4.23865E-01 1.84271E+00 5.38545E-10-2.30505E-01 1.89733E-09 1.19794E-08
 -1       460 5.29817E-01 1.73676E+00 5.38550E-10-4.38447E-01 3.74793E-09 1.15350E-08
 -1       461 6.94841E-01 1.57174E+00 5.38607E-10-6.03471E-01 5.50626E-09 1.08066E-08
 -1       462 9.02783E-01 1.36379E+00 5.38445E-10-7.09423E-01 7.12898E-09 9.81226E-09
 -1       463 1.13329E+00 1.13329E+00 5.38519E-10-7.45931E-01 8.57610E-09 8.57638E-09
 -1       464 1.36379E+00 9.02783E-01 5.38720E-10-7.09423E-01 9.81260E-09 7.12912E-09
 -1       465 1.57174E+00 6.94841E-01 5.37551E-10-6.03471E-01 1.08059E-08 5.50589E-09
 -1       466 1.73676E+00 5.29817E-01 5.39461E-10-4.38447E-01 1.15359E-08 3.74815E-09
 -1       467 1.84271E+00 4.23865E-01 5.38256E-10-2.30505E-01 1.19790E-08 1.89720E-09
 -1       468 5.00381E-01 1.76620E+00-7.59217E-09-2.05644E-01-5.15447E-10-3.25442E-09
 -1       469 5.94905E-01 1.67167E+00-7.59223E-09-3.91158E-01-1.01818E-09-3.13353E-09
 -1       470 7.42130E-01 1.52445E+00-7.59213E-09-5.38383E-01-1.49589E-09-2.93577E-09
 -1       471 9.27644E-01 1.33893E+00-7.59208E-09-6.32907E-01-1.93666E-09-2.66568E-09
 -1       472 1.13329E+00 1.13329E+00-7.59205E-09-6.65478E-01-2.32983E-09-2.32989E-09
 -1       473 1.33893E+00 9.27644E-01-7.59225E-09-6.32907E-01-2.66568E-09-1.93666E-09
 -1       474 1.52445E+00 7.42130E-01-7.59261E-09-5.38383E-01-2.93606E-09-1.49605E-09
 -1       475 1.67167E+00 5.94905E-01-7.59149E-09-3.91158E-01-3.13330E-09-1.01811E-09
 -1       476 1.76620E+00 5.00381E-01-7.59221E-09-2.05644E-01-3.25438E-09-5.15478E-10
 -1       477 5.65158E-01 1.70142E+00-3.70196E-09-1.84596E-01 1.15200E-10 7.27335E-10
 -1       478 6.50008E-01 1.61657E+00-3.70200E-09-3.51123E-01 2.27498E-10 7.00382E-10
 -1       479 7.82165E-01 1.48441E+00-3.70210E-09-4.83280E-01 3.34353E-10 6.56202E-10
 -1       480 9.48691E-01 1.31788E+00-3.70193E-09-5.68130E-01 4.32895E-10 5.95848E-10
 -1       481 1.13329E+00 1.13329E+00-3.70187E-09-5.97367E-01 5.20821E-10 5.20891E-10
 -1       482 1.31788E+00 9.48691E-01-3.70217E-09-5.68130E-01 5.95784E-10 4.32794E-10
 -1       483 1.48441E+00 7.82165E-01-3.70224E-09-4.83280E-01 6.56064E-10 3.34241E-10
 -1       484 1.61657E+00 6.50008E-01-3.70152E-09-3.51123E-01 7.00624E-10 2.27521E-10
 -1       485 1.70142E+00 5.65158E-01-3.70204E-09-1.84596E-01 7.27296E-10 1.15169E-10
 -1       486 6.20481E-01 1.64609E+00-3.88040E-09-1.66621E-01-9.78867E-11-6.17936E-10
 -1       487 6.97068E-01 1.56951E+00-3.88047E-09-3.16932E-01-1.93336E-10-5.94967E-10
 -1       488 8.16356E-01 1.45022E+00-3.88052E-09-4.36220E-01-2.84053E-10-5.57430E-10
 -1       489 9.66667E-01 1.29991E+00-3.88029E-09-5.12807E-01-3.67703E-10-5.06143E-10
 -1       490 1.13329E+00 1.13329E+00-3.88022E-09-5.39197E-01-4.42324E-10-4.42441E-10
 -1       491 1.29991E+00 9.66667E-01-3.88071E-09-5.12807E-01-5.06165E-10-3.67710E-10
 -1       492 1.45022E+00 8.16356E-01-3.88063E-09-4.36220E-01-5.57361E-10-2.84148E-10
 -1       493 1.56951E+00 6.97068E-01-3.87992E-09-3.16932E-01-5.94887E-10-1.93317E-10
 -1       494 1.64609E+00 6.20481E-01-3.88048E-09-1.66621E-01-6.17903E-10-9.79188E-11
 -1       495 6.68102E-01 1.59847E+00-2.87014E-09-1.51148E-01-3.49550E-11-2.20652E-10
 -1       496 7.37577E-01 1.52900E+00-2.87014E-09-2.87500E-01-6.90872E-11-2.12471E-10
 -1       497 8.45788E-01 1.42079E+00-2.87027E-09-3.95710E-01-1.01440E-10-1.99036E-10
 -1       498 9.82140E-01 1.28444E+00-2.87000E-09-4.65186E-01-1.31282E-10-1.80780E-10
 -1       499 1.13329E+00 1.13329E+00-2.86996E-09-4.89125E-01-1.57952E-10-1.57946E-10
 -1       500 1.28444E+00 9.82140E-01-2.87049E-09-4.65186E-01-1.80919E-10-1.31362E-10
 -1       501 1.42079E+00 8.45788E-01-2.87037E-09-3.95710E-01-1.99004E-10-1.01454E-10
 -1       502 1.52900E+00 7.37577E-01-2.86946E-09-2.87500E-01-2.12319E-10-6.90470E-11
 -1       503 1.59847E+00 6.68102E-01-2.87009E-09-1.51148E-01-2.20639E-10-3.50283E-11
 -1       504 7.09388E-01 1.55719E+00-2.42287E-09-1.37734E-01-4.44755E-11-2.80697E-10
 -1       505 7.72697E-01 1.49388E+00-2.42292E-09-2.61985E-01-8.78175E-11-2.70298E-10
 -1       506 8.71303E-01 1.39527E+00-2.42312E-09-3.60591E-01-1.29059E-10-2.53099E-10
 -1       507 9.95554E-01 1.27102E+00-2.42275E-09-4.23900E-01-1.66890E-10-2.29792E-10
 -1       508 1.13329E+00 1.13329E+00-2.42255E-09-4.45715E-01-2.00962E-10-2.00874E-10
 -1       509 1.27102E+00 9.95554E-01-2.42334E-09-4.23900E-01-2.30064E-10-1.67099E-10
 -1       510 1.39527E+00 8.71303E-01-2.42322E-09-3.60591E-01-2.53151E-10-1.29099E-10
 -1       511 1.49388E+00 7.72697E-01-2.42218E-09-2.61985E-01-2.69942E-10-8.78260E-11
 -1       512 1.55719E+00 7.09388E-01-2.42277E-09-1.37734E-01-2.80747E-10-4.45102E-11
 -1       513 7.45413E-01 1.52116E+00-1.95634E-09-1.26028E-01-3.20564E-11-2.02275E-10
 -1       514 8.03342E-01 1.46323E+00-1.95632E-09-2.39720E-01-6.33900E-11-1.94841E-10
 -1       515 8.93568E-01 1.37301E+00-1.95664E-09-3.29946E-01-9.30485E-11-1.82628E-10
 -1       516 1.00726E+00 1.25932E+00-1.95624E-09-3.87875E-01-1.20351E-10-1.65714E-10
 -1       517 1.13329E+00 1.13329E+00-1.95590E-09-4.07836E-01-1.44780E-10-1.44720E-10
 -1       518 1.25932E+00 1.00726E+00-1.95686E-09-3.87875E-01-1.66033E-10-1.20635E-10
 -1       519 1.37301E+00 8.93568E-01-1.95683E-09-3.29946E-01-1.82675E-10-9.30240E-11
 -1       520 1.46323E+00 8.03342E-01-1.95554E-09-2.39720E-01-1.94291E-10-6.32858E-11
 -1       521 1.52116E+00 7.45413E-01-1.95630E-09-1.26028E-01-2.02415E-10-3.21560E-11
 -1       522 7.77035E-01 1.48954E+00-1.62270E-09-1.15754E-01-2.68763E-11-1.69456E-10
 -1       523 8.30241E-01 1.43633E+00-1.62269E-09-2.20177E-01-5.31156E-11-1.63187E-10
 -1       524 9.13111E-01 1.35346E+00-1.62313E-09-3.03047E-01-7.79731E-11-1.52805E-10
 -1       525 1.01753E+00 1.24904E+00-1.62265E-09-3.56253E-01-1.00675E-10-1.38631E-10
 -1       526 1.13329E+00 1.13329E+00-1.62215E-09-3.74587E-01-1.21065E-10-1.21110E-10
 -1       527 1.24904E+00 1.01753E+00-1.62330E-09-3.56253E-01-1.39410E-10-1.01077E-10
 -1       528 1.35346E+00 9.13111E-01-1.62324E-09-3.03047E-01-1.52804E-10-7.79854E-11
 -1       529 1.43633E+00 8.30241E-01-1.62190E-09-2.20177E-01-1.62502E-10-5.29497E-11
 -1       530 1.48954E+00 7.77035E-01-1.62256E-09-1.15754E-01-1.69315E-10-2.69401E-11
 -1       531 8.04943E-01 1.46163E+00-1.34810E-09-1.06686E-01-2.09746E-11-1.32429E-10
 -1       532 8.53981E-01 1.41260E+00-1.34788E-09-2.02929E-01-4.15607E-11-1.27449E-10
 -1       533 9.30359E-01 1.33622E+00-1.34859E-09-2.79307E-01-6.09416E-11-1.19637E-10
 -1       534 1.02660E+00 1.23997E+00-1.34821E-09-3.28345E-01-7.83497E-11-1.08347E-10
 -1       535 1.13329E+00 1.13329E+00-1.34752E-09-3.45243E-01-9.45815E-11-9.43853E-11
 -1       536 1.23997E+00 1.02660E+00-1.34848E-09-3.28345E-01-1.09460E-10-7.92326E-11
 -1       537 1.33622E+00 9.30359E-01-1.34883E-09-2.79307E-01-1.19432E-10-6.09490E-11
 -1       538 1.41260E+00 8.53981E-01-1.34727E-09-2.02929E-01-1.26088E-10-4.12391E-11
 -1       539 1.46163E+00 8.04943E-01-1.34790E-09-1.06686E-01-1.32523E-10-2.10860E-11
 -1       540 8.29696E-01 1.43688E+00-1.13159E-09-9.86431E-02-1.67177E-11-1.05497E-10
 -1       541 8.75037E-01 1.39154E+00-1.13132E-09-1.87630E-01-3.31330E-11-1.01488E-10
 -1       542 9.45658E-01 1.32092E+00-1.13211E-09-2.58251E-01-4.86522E-11-9.52427E-11
 -1       543 1.03464E+00 1.23193E+00-1.13183E-09-3.03592E-01-6.23319E-11-8.59837E-11
 -1       544 1.13329E+00 1.13329E+00-1.13102E-09-3.19216E-01-7.47316E-11-7.47051E-11
 -1       545 1.23193E+00 1.03464E+00-1.13159E-09-3.03592E-01-8.78986E-11-6.35786E-11
 -1       546 1.32092E+00 9.45658E-01-1.13244E-09-2.58251E-01-9.52636E-11-4.86711E-11
 -1       547 1.39154E+00 8.75037E-01-1.13124E-09-1.87630E-01-9.90876E-11-3.25540E-11
 -1       548 1.43688E+00 8.29696E-01-1.13138E-09-9.86431E-02-1.05233E-10-1.67732E-11
 -1       549 8.51752E-01 1.41482E+00-9.62726E-10-9.14764E-02-1.21242E-11-7.66444E-11
 -1       550 8.93800E-01 1.37278E+00-9.62384E-10-1.73999E-01-2.40926E-11-7.37670E-11
 -1       551 9.59289E-01 1.30729E+00-9.63328E-10-2.39488E-01-3.55466E-11-6.94634E-11
 -1       552 1.04181E+00 1.22476E+00-9.63284E-10-2.81536E-01-4.48532E-11-6.22460E-11
 -1       553 1.13329E+00 1.13329E+00-9.62567E-10-2.96024E-01-5.34385E-11-5.34211E-11
 -1       554 1.22476E+00 1.04181E+00-9.61989E-10-2.81536E-01-6.57032E-11-4.72709E-11
 -1       555 1.30729E+00 9.59289E-01-9.63675E-10-2.39488E-01-6.95484E-11-3.55412E-11
 -1       556 1.37278E+00 8.93800E-01-9.63362E-10-1.73999E-01-6.96382E-11-2.30276E-11
 -1       557 1.41482E+00 8.51752E-01-9.62497E-10-9.14764E-02-7.64720E-11-1.21854E-11
 -1       558 8.71490E-01 1.39509E+00-8.17069E-10-8.50632E-02-9.84633E-12-6.23450E-11
 -1       559 9.10590E-01 1.35599E+00-8.16706E-10-1.61800E-01-1.96657E-11-5.96845E-11
 -1       560 9.71488E-01 1.29509E+00-8.17550E-10-2.22698E-01-2.91564E-11-5.67660E-11
 -1       561 1.04822E+00 1.21835E+00-8.18391E-10-2.61798E-01-3.56903E-11-4.99611E-11
 -1       562 1.13329E+00 1.13329E+00-8.18575E-10-2.75270E-01-4.17879E-11-4.16474E-11
 -1       563 1.21835E+00 1.04822E+00-8.13502E-10-2.61798E-01-5.66121E-11-4.03861E-11
 -1       564 1.29509E+00 9.71488E-01-8.17987E-10-2.22698E-01-5.67054E-11-2.92342E-11
 -1       565 1.35599E+00 9.10590E-01-8.21011E-10-1.61800E-01-5.19975E-11-1.74136E-11
 -1       566 1.39509E+00 8.71490E-01-8.16914E-10-8.50632E-02-6.17322E-11-9.74736E-12
 -1       567 8.89223E-01 1.37735E+00-7.51782E-10-7.93014E-02 1.74578E-12 1.05887E-11
 -1       568 9.25674E-01 1.34090E+00-7.51658E-10-1.50840E-01 3.16592E-12 1.07279E-11
 -1       569 9.82448E-01 1.28413E+00-7.52064E-10-2.07614E-01 4.06144E-12 8.53580E-12
 -1       570 1.05399E+00 1.21259E+00-7.53997E-10-2.44065E-01 8.64564E-12 1.07877E-11
 -1       571 1.13329E+00 1.13329E+00-7.55832E-10-2.56625E-01 1.36085E-11 1.35475E-11
 -1       572 1.21259E+00 1.05399E+00-7.44685E-10-2.44065E-01-2.12086E-12-5.80845E-13
 -1       573 1.28413E+00 9.82448E-01-7.52544E-10-2.07614E-01 8.33435E-12 4.01447E-12
 -1       574 1.34090E+00 9.25674E-01-7.60252E-10-1.50840E-01 2.55368E-11 7.53460E-12
 -1       575 1.37735E+00 8.89223E-01-7.51919E-10-7.93014E-02 1.16429E-11 1.94348E-12
 -1       576 9.05214E-01 1.36136E+00-5.86238E-10-7.41056E-02-1.09645E-11-6.96688E-11
 -1       577 9.39277E-01 1.32730E+00-5.87199E-10-1.40957E-01-2.18946E-11-6.66122E-11
 -1       578 9.92331E-01 1.27425E+00-5.85108E-10-1.94011E-01-3.36361E-11-6.48432E-11
 -1       579 1.05918E+00 1.20739E+00-5.92358E-10-2.28074E-01-3.69268E-11-5.25641E-11
 -1       580 1.13329E+00 1.13329E+00-6.03031E-10-2.39811E-01-3.75738E-11-3.70022E-11
 -1       581 1.20739E+00 1.05918E+00-5.61061E-10-2.28074E-01-7.98866E-11-5.63948E-11
 -1       582 1.27425E+00 9.92331E-01-5.85292E-10-1.94011E-01-6.45567E-11-3.38207E-11
 -1       583 1.32730E+00 9.39277E-01-6.17024E-10-1.40957E-01-3.54559E-11-1.24689E-11
 -1       584 1.36136E+00 9.05214E-01-5.88012E-10-7.41056E-02-6.75690E-11-9.71429E-12
 -1       585 9.19684E-01 1.34689E+00-9.17216E-10-6.94042E-02 7.78877E-11 4.90667E-10
 -1       586 9.51585E-01 1.31499E+00-9.19824E-10-1.32015E-01 1.53769E-10 4.73425E-10
 -1       587 1.00127E+00 1.26530E+00-9.14608E-10-1.81703E-01 2.22760E-10 4.39231E-10
 -1       588 1.06388E+00 1.20269E+00-9.24946E-10-2.13604E-01 3.00252E-10 4.10525E-10
 -1       589 1.13329E+00 1.13329E+00-9.42457E-10-2.24597E-01 3.76252E-10 3.75807E-10
 -1       590 1.20269E+00 1.06388E+00-8.83571E-10-2.13604E-01 3.58242E-10 2.61706E-10
 -1       591 1.26530E+00 1.00127E+00-9.14342E-10-1.81703E-01 4.39267E-10 2.23229E-10
 -1       592 1.31499E+00 9.51585E-01-9.60855E-10-1.32015E-01 5.32950E-10 1.71652E-10
 -1       593 1.34689E+00 9.19684E-01-9.20888E-10-6.94042E-02 4.95437E-10 7.83023E-11
 -1       594 9.32819E-01 1.33376E+00-8.51623E-11-6.51363E-02-1.25074E-10-7.91229E-10
 -1       595 9.62759E-01 1.30382E+00-9.28304E-11-1.23897E-01-2.47118E-10-7.59276E-10
 -1       596 1.00939E+00 1.25718E+00-6.92846E-11-1.70529E-01-3.69702E-10-7.19905E-10
 -1       597 1.06815E+00 1.19842E+00-1.20373E-10-2.00469E-01-4.50155E-10-6.25592E-10
 -1       598 1.13329E+00 1.13329E+00-2.02073E-10-2.10785E-01-5.06504E-10-5.02297E-10
 -1       599 1.19842E+00 1.06815E+00 8.49978E-11-2.00469E-01-7.56381E-10-5.43232E-10
 -1       600 1.25718E+00 1.00939E+00-6.69856E-11-1.70529E-01-7.17463E-10-3.70001E-10
 -1       601 1.30382E+00 9.62759E-01-2.89569E-10-1.23897E-01-6.12857E-10-2.00807E-10
 -1       602 1.33376E+00 9.32819E-01-9.98135E-11-6.51363E-02-7.80349E-10-1.15962E-10
 -1       603 9.44779E-01 1.32180E+00-3.28348E-09-6.12502E-02 7.30269E-10 4.59889E-09
 -1       604 9.72933E-01 1.29364E+00-3.29374E-09-1.16505E-01 1.44176E-09 4.43169E-09
 -1       605 1.01678E+00 1.24979E+00-3.26675E-09-1.60355E-01 2.10513E-09 4.13629E-09
 -1       606 1.07204E+00 1.19454E+00-3.30476E-09-1.88509E-01 2.76991E-09 3.79945E-09
 -1       607 1.13329E+00 1.13329E+00-3.36622E-09-1.98210E-01 3.39867E-09 3.38967E-09
 -1       608 1.19454E+00 1.07204E+00-3.19248E-09-1.88509E-01 3.58679E-09 2.60692E-09
 -1       609 1.24979E+00 1.01678E+00-3.26597E-09-1.60355E-01 4.13618E-09 2.10719E-09
 -1       610 1.29364E+00 9.72933E-01-3.41613E-09-1.16505E-01 4.67170E-09 1.51074E-09
 -1       611 1.32180E+00 9.44779E-01-3.30005E-09-6.12503E-02 4.61902E-09 7.24743E-10
 -1       612 9.55700E-01 1.31088E+00 3.10832E-09-5.77018E-02-1.51700E-09-9.55496E-09
 -1       613 9.82223E-01 1.28435E+00 3.08079E-09-1.09755E-01-2.99422E-09-9.17770E-09
 -1       614 1.02353E+00 1.24304E+00 3.25071E-09-1.51065E-01-4.42656E-09-8.64734E-09
 -1       615 1.07559E+00 1.19099E+00 2.86087E-09-1.77588E-01-5.55867E-09-7.67889E-09
 -1       616 1.13329E+00 1.13329E+00 2.26558E-09-1.86727E-01-6.48162E-09-6.41602E-09
 -1       617 1.19099E+00 1.07559E+00 4.40595E-09-1.77588E-01-8.49423E-09-6.11605E-09
 -1       618 1.24304E+00 1.02353E+00 3.27120E-09-1.51065E-01-8.61226E-09-4.44231E-09
 -1       619 1.28435E+00 9.82223E-01 1.62382E-09-1.09755E-01-8.26761E-09-2.69199E-09
 -1       620 1.31088E+00 9.55700E-01 3.00505E-09-5.77018E-02-9.48470E-09-1.40909E-09
 -1       621 9.65699E-01 1.30088E+00-1.95870E-08-5.44529E-02 6.31613E-09 3.97413E-08
 -1       622 9.90728E-01 1.27585E+00-1.95684E-08-1.03576E-01 1.24881E-08 3.82731E-08
 -1       623 1.02971E+00 1.23686E+00-1.95116E-08-1.42560E-01 1.82841E-08 3.57639E-08
 -1       624 1.07884E+00 1.18774E+00-1.96507E-08-1.67589E-01 2.37892E-08 3.26514E-08
 -1       625 1.13329E+00 1.13329E+00-1.95669E-08-1.76213E-01 2.89058E-08 2.87722E-08
 -1       626 1.18774E+00 1.07884E+00-1.98382E-08-1.67589E-01 3.18697E-08 2.30551E-08
 -1       627 1.23686E+00 1.02971E+00-1.95361E-08-1.42560E-01 3.57496E-08 1.82073E-08
 -1       628 1.27585E+00 9.90728E-01-1.95873E-08-1.03576E-01 3.91621E-08 1.26913E-08
 -1       629 1.30088E+00 9.65699E-01-1.96439E-08-5.44529E-02 3.97564E-08 6.21023E-09
 -1       630 9.74875E-01 1.29170E+00 1.18306E-08-5.14713E-02-1.27128E-08-7.96775E-08
 -1       631 9.98534E-01 1.26804E+00 1.17613E-08-9.79042E-02-2.50134E-08-7.65163E-08
 -1       632 1.03538E+00 1.23119E+00 1.31452E-08-1.34754E-01-3.70320E-08-7.21846E-08
 -1       633 1.08182E+00 1.18476E+00 9.16816E-09-1.58412E-01-4.65534E-08-6.38058E-08
 -1       634 1.13329E+00 1.13329E+00 3.93359E-09-1.66565E-01-5.39471E-08-5.31379E-08
 -1       635 1.18476E+00 1.08182E+00 2.43257E-08-1.58412E-01-7.12840E-08-5.12575E-08
 -1       636 1.23119E+00 1.03538E+00 1.34154E-08-1.34754E-01-7.19620E-08-3.68628E-08
 -1       637 1.26804E+00 9.98534E-01-2.48369E-09-9.79042E-02-6.82734E-08-2.20043E-08
 -1       638 1.29170E+00 9.74875E-01 1.07933E-08-5.14713E-02-7.88602E-08-1.17283E-08
 -1       639 9.83324E-01 1.28325E+00-1.12988E-07-4.87263E-02 4.34288E-08 2.73070E-07
 -1       640 1.00572E+00 1.26086E+00-1.12001E-07-9.26829E-02 8.60946E-08 2.62941E-07
 -1       641 1.04061E+00 1.22597E+00-1.12096E-07-1.27567E-01 1.26146E-07 2.46060E-07
 -1       642 1.08456E+00 1.18201E+00-1.13921E-07-1.49964E-01 1.63797E-07 2.24720E-07
 -1       643 1.13329E+00 1.13329E+00-1.09817E-07-1.57682E-01 1.98483E-07 1.96016E-07
 -1       644 1.18201E+00 1.08456E+00-1.13184E-07-1.49964E-01 2.21478E-07 1.58143E-07
 -1       645 1.22597E+00 1.04061E+00-1.11815E-07-1.27567E-01 2.46340E-07 1.24672E-07
 -1       646 1.26086E+00 1.00572E+00-1.14147E-07-9.26829E-02 2.67941E-07 8.63641E-08
 -1       647 1.28325E+00 9.83324E-01-1.12267E-07-4.87262E-02 2.71798E-07 4.15402E-08
 -1       648 9.91091E-01 1.27548E+00-4.56942E-07-4.62019E-02-1.51104E-10-4.07236E-09
 -1       649 1.01233E+00 1.25424E+00-4.58221E-07-8.78811E-02 6.44811E-10-7.00608E-10
 -1       650 1.04540E+00 1.22117E+00-4.45354E-07-1.20958E-01-4.68787E-09-7.91314E-09
 -1       651 1.08708E+00 1.17949E+00-4.93343E-07-1.42195E-01 5.47528E-09 1.33164E-08
 -1       652 1.13329E+00 1.13329E+00-5.52900E-07-1.49512E-01 3.95056E-08 4.80870E-08
 -1       653 1.17949E+00 1.08708E+00-3.03605E-07-1.42195E-01-7.70467E-08-4.88179E-08
 -1       654 1.22117E+00 1.04540E+00-4.51543E-07-1.20958E-01-9.16207E-09 2.10869E-09
 -1       655 1.25424E+00 1.01233E+00-6.50342E-07-8.78813E-02 9.13388E-08 3.97563E-08
 -1       656 1.27548E+00 9.91091E-01-4.75722E-07-4.62018E-02 7.28884E-09 1.06492E-08
 -1       657 9.98436E-01 1.26814E+00 3.60947E-07-4.38168E-02-1.03274E-07-6.36928E-07
 -1       658 1.01858E+00 1.24800E+00 3.60871E-07-8.33445E-02-2.02260E-07-6.10268E-07
 -1       659 1.04995E+00 1.21663E+00 3.49239E-07-1.14714E-01-3.06252E-07-5.82996E-07
 -1       660 1.08947E+00 1.17711E+00 2.62825E-07-1.34854E-01-3.85212E-07-5.30246E-07
 -1       661 1.13329E+00 1.13329E+00 2.88685E-07-1.41794E-01-3.94352E-07-4.58648E-07
 -1       662 1.17711E+00 1.08947E+00 4.90783E-07-1.34854E-01-5.61093E-07-4.42498E-07
 -1       663 1.21663E+00 1.04995E+00 3.48446E-07-1.14714E-01-6.10838E-07-2.83829E-07
 -1       664 1.24800E+00 1.01857E+00 1.29649E-07-8.33449E-02-5.76409E-07-2.25330E-07
 -1       665 1.26814E+00 9.98435E-01 4.20940E-07-4.38164E-02-6.16218E-07-2.02065E-07
 -1       666-6.00842E-01 2.86742E+00-1.10813E-06-2.74660E-01-2.85029E-07-3.62163E-06
 -1       667-7.30670E-01 2.99726E+00 1.34135E-06-6.05638E-01-1.42250E-07-8.98148E-07
 -1       669-4.31093E-01 2.69768E+00-1.10813E-06-7.97094E-01-8.48071E-07-3.53246E-06
 -1       670-4.52289E-01 2.71887E+00 1.34135E-06-1.15199E+00-2.81004E-07-8.64824E-07
 -1       672-1.08211E-01 2.37479E+00-1.10812E-06-1.24150E+00-1.39023E-06-3.35630E-06
 -1       673-1.86998E-02 2.28528E+00 1.34137E-06-1.58558E+00-4.12812E-07-8.10193E-07
 -1       675 3.36198E-01 1.93039E+00-1.10813E-06-1.56438E+00-1.89816E-06-3.09748E-06
 -1       676 5.27654E-01 1.73893E+00 1.34135E-06-1.86396E+00-5.34404E-07-7.35594E-07
 -1       678 8.58632E-01 1.40795E+00-1.10810E-06-1.73413E+00-2.35934E-06-2.76244E-06
 -1       679 1.13329E+00 1.13329E+00 1.34127E-06-1.95989E+00-6.42710E-07-6.42882E-07
 -1       681 1.40795E+00 8.58632E-01-1.10823E-06-1.73413E+00-2.76246E-06-2.35918E-06
 -1       682 1.73893E+00 5.27654E-01 1.34104E-06-1.86396E+00-7.34648E-07-5.34161E-07
 -1       684 1.93039E+00 3.36198E-01-1.10823E-06-1.56438E+00-3.09751E-06-1.89872E-06
 -1       685 2.28528E+00-1.86998E-02 1.34053E-06-1.58558E+00-8.09704E-07-4.12735E-07
 -1       687 2.37479E+00-1.08211E-01-1.10814E-06-1.24150E+00-3.35650E-06-1.38977E-06
 -1       688 2.71887E+00-4.52289E-01 1.34211E-06-1.15199E+00-8.65385E-07-2.81338E-07
 -1       690 2.69768E+00-4.31093E-01-1.10804E-06-7.97094E-01-3.53207E-06-8.48496E-07
 -1       691 2.99726E+00-7.30670E-01 1.34162E-06-6.05638E-01-8.99294E-07-1.42736E-07
 -1       693 2.86742E+00-6.00842E-01-1.10806E-06-2.74660E-01-3.62173E-06-2.84882E-07
 -1       695-3.24759E-01 2.59135E+00 2.13822E-06-2.30933E-01 5.01744E-08 6.37521E-07
 -1       696-4.22703E-01 2.68926E+00-5.95663E-07-5.05569E-01 3.70140E-07 2.33696E-06
 -1       698-1.82035E-01 2.44863E+00 2.13822E-06-6.70194E-01 1.49288E-07 6.21822E-07
 -1       699-1.90318E-01 2.45688E+00-5.95664E-07-9.61649E-01 7.31162E-07 2.25028E-06
 -1       701 8.94434E-02 2.17715E+00 2.13822E-06-1.04385E+00 2.44723E-07 5.90812E-07
 -1       702 1.71629E-01 2.09493E+00-5.95666E-07-1.32360E+00 1.07418E-06 2.10819E-06
 -1       704 4.63101E-01 1.80349E+00 2.13822E-06-1.31533E+00 3.34135E-07 5.45254E-07
 -1       705 6.27709E-01 1.63885E+00-5.95671E-07-1.55598E+00 1.39075E-06 1.91419E-06
 -1       707 9.02362E-01 1.36423E+00 2.13820E-06-1.45805E+00 4.15328E-07 4.86254E-07
 -1       708 1.13328E+00 1.13328E+00-5.95615E-07-1.63606E+00 1.67309E-06 1.67308E-06
 -1       710 1.36423E+00 9.02362E-01 2.13829E-06-1.45805E+00 4.86233E-07 4.15379E-07
 -1       711 1.63885E+00 6.27709E-01-5.95607E-07-1.55598E+00 1.91424E-06 1.39061E-06
 -1       713 1.80349E+00 4.63101E-01 2.13807E-06-1.31533E+00 5.45329E-07 3.33905E-07
 -1       714 2.09493E+00 1.71629E-01-5.95211E-07-1.32360E+00 2.10850E-06 1.07456E-06
 -1       716 2.17715E+00 8.94435E-02 2.13822E-06-1.04385E+00 5.90670E-07 2.45081E-07
 -1       717 2.45688E+00-1.90318E-01-5.96091E-07-9.61649E-01 2.24983E-06 7.31230E-07
 -1       719 2.44863E+00-1.82035E-01 2.13838E-06-6.70194E-01 6.21939E-07 1.49074E-07
 -1       720 2.68926E+00-4.22703E-01-5.95689E-07-5.05569E-01 2.33706E-06 3.70030E-07
 -1       722 2.59135E+00-3.24759E-01 2.13818E-06-2.30933E-01 6.37516E-07 5.02710E-08
 -1       724-1.09708E-01 2.37628E+00 2.66301E-07-1.96871E-01 6.21073E-08 7.89150E-07
 -1       725-1.83236E-01 2.44982E+00-9.58895E-07-4.27765E-01-2.93851E-07-1.85530E-06
 -1       727 1.19649E-02 2.25461E+00 2.66301E-07-5.71342E-01 1.84793E-07 7.69719E-07
 -1       728 1.33859E-02 2.25319E+00-9.58895E-07-8.13658E-01-5.80465E-07-1.78649E-06
 -1       730 2.43401E-01 2.02317E+00 2.66302E-07-8.89886E-01 3.02928E-07 7.31334E-07
 -1       731 3.19632E-01 1.94695E+00-9.58895E-07-1.11990E+00-8.52785E-07-1.67368E-06
 -1       733 5.61945E-01 1.70463E+00 2.66301E-07-1.12132E+00 4.13605E-07 6.74943E-07
 -1       734 7.05524E-01 1.56105E+00-9.58906E-07-1.31653E+00-1.10412E-06-1.51967E-06
 -1       736 9.36416E-01 1.33016E+00 2.66300E-07-1.24299E+00 5.14091E-07 6.01930E-07
 -1       737 1.13329E+00 1.13329E+00-9.58910E-07-1.38428E+00-1.32823E-06-1.32825E-06
 -1       739 1.33016E+00 9.36416E-01 2.66281E-07-1.24299E+00 6.01950E-07 5.14090E-07
 -1       740 1.56105E+00 7.05524E-01-9.58936E-07-1.31653E+00-1.51973E-06-1.10410E-06
 -1       742 1.70463E+00 5.61945E-01 2.66334E-07-1.12132E+00 6.74890E-07 4.13613E-07
 -1       743 1.94695E+00 3.19632E-01-9.58825E-07-1.11990E+00-1.67366E-06-8.52832E-07
 -1       745 2.02317E+00 2.43401E-01 2.66299E-07-8.89886E-01 7.31349E-07 3.02890E-07
 -1       746 2.25319E+00 1.33859E-02-9.58972E-07-8.13658E-01-1.78648E-06-5.80520E-07
 -1       748 2.25461E+00 1.19649E-02 2.66265E-07-5.71342E-01 7.69745E-07 1.84835E-07
 -1       749 2.44982E+00-1.83236E-01-9.58850E-07-4.27765E-01-1.85527E-06-2.93810E-07
 -1       751 2.37628E+00-1.09708E-01 2.66319E-07-1.96871E-01 7.89142E-07 6.20843E-08
 -1       753 6.10689E-02 2.20551E+00-4.12832E-08-1.69823E-01-1.82465E-08-2.31844E-07
 -1       754 4.81826E-03 2.26176E+00 3.27670E-07-3.66662E-01 9.41970E-08 5.94736E-07
 -1       756 1.66025E-01 2.10055E+00-4.12835E-08-4.92845E-01-5.42901E-08-2.26135E-07
 -1       757 1.73354E-01 2.09322E+00 3.27671E-07-6.97432E-01 1.86075E-07 5.72678E-07
 -1       759 3.65664E-01 1.90091E+00-4.12830E-08-7.67624E-01-8.89969E-08-2.14858E-07
 -1       760 4.35855E-01 1.83072E+00 3.27671E-07-9.59933E-01 2.73370E-07 5.36518E-07
 -1       762 6.40443E-01 1.62613E+00-4.12830E-08-9.67263E-01-1.21513E-07-1.98291E-07
 -1       763 7.66626E-01 1.49995E+00 3.27675E-07-1.12847E+00 3.53937E-07 4.87149E-07
 -1       765 9.63465E-01 1.30311E+00-4.12815E-08-1.07222E+00-1.51036E-07-1.76841E-07
 -1       766 1.13329E+00 1.13329E+00 3.27677E-07-1.18654E+00 4.25781E-07 4.25787E-07
 -1       768 1.30311E+00 9.63465E-01-4.12753E-08-1.07222E+00-1.76843E-07-1.51032E-07
 -1       769 1.49995E+00 7.66626E-01 3.27668E-07-1.12847E+00 4.87157E-07 3.53937E-07
 -1       771 1.62613E+00 6.40443E-01-4.13121E-08-9.67263E-01-1.98287E-07-1.21521E-07
 -1       772 1.83072E+00 4.35855E-01 3.27673E-07-9.59933E-01 5.36528E-07 2.73383E-07
 -1       774 1.90091E+00 3.65664E-01-4.12830E-08-7.67624E-01-2.14861E-07-8.89898E-08
 -1       775 2.09322E+00 1.73354E-01 3.27667E-07-6.97432E-01 5.72667E-07 1.86078E-07
 -1       777 2.10055E+00 1.66025E-01-4.12537E-08-4.92845E-01-2.26131E-07-5.42991E-08
 -1       778 2.26176E+00 4.81826E-03 3.27668E-07-3.66662E-01 5.94730E-07 9.41949E-08
 -1       780 2.20551E+00 6.10689E-02-4.12920E-08-1.69823E-01-2.31845E-07-1.82412E-08
 -1       782 1.98954E-01 2.06762E+00 4.39501E-08-1.47984E-01 9.22993E-09 1.17278E-07
 -1       783 1.55286E-01 2.11129E+00-1.47281E-07-3.17772E-01-3.57672E-08-2.25825E-07
 -1       785 2.90413E-01 1.97616E+00 4.39501E-08-4.29466E-01 2.74625E-08 1.14390E-07
 -1       786 3.01350E-01 1.96523E+00-1.47282E-07-6.04438E-01-7.06538E-08-2.17450E-07
 -1       788 4.64379E-01 1.80220E+00 4.39501E-08-6.68909E-01 4.50189E-08 1.08685E-07
 -1       789 5.28850E-01 1.73773E+00-1.47282E-07-8.31938E-01-1.03800E-07-2.03720E-07
 -1       791 7.03822E-01 1.56275E+00 4.39495E-08-8.42875E-01 6.14670E-08 1.00305E-07
 -1       792 8.15516E-01 1.45106E+00-1.47283E-07-9.78002E-01-1.34392E-07-1.84974E-07
 -1       794 9.85304E-01 1.28127E+00 4.39498E-08-9.34334E-01 7.64010E-08 8.94539E-08
 -1       795 1.13329E+00 1.13329E+00-1.47281E-07-1.02833E+00-1.61672E-07-1.61674E-07
 -1       797 1.28127E+00 9.85304E-01 4.39500E-08-9.34334E-01 8.94554E-08 7.64009E-08
 -1       798 1.45106E+00 8.15516E-01-1.47282E-07-9.78002E-01-1.84977E-07-1.34393E-07
 -1       800 1.56275E+00 7.03822E-01 4.39532E-08-8.42875E-01 1.00301E-07 6.14667E-08
 -1       801 1.73773E+00 5.28850E-01-1.47275E-07-8.31938E-01-2.03715E-07-1.03800E-07
 -1       803 1.80220E+00 4.64379E-01 4.39500E-08-6.68909E-01 1.08686E-07 4.50185E-08
 -1       804 1.96523E+00 3.01350E-01-1.47288E-07-6.04438E-01-2.17454E-07-7.06564E-08
 -1       806 1.97616E+00 2.90413E-01 4.39473E-08-4.29466E-01 1.14392E-07 2.74653E-08
 -1       807 2.11129E+00 1.55286E-01-1.47279E-07-3.17772E-01-2.25822E-07-3.57662E-08
 -1       809 2.06762E+00 1.98954E-01 4.39502E-08-1.47984E-01 1.17277E-07 9.22916E-09
 -1       811 3.11871E-01 1.95470E+00-2.21965E-08-1.30100E-01-2.39386E-09-3.04169E-08
 -1       812 2.77535E-01 1.98904E+00 5.23940E-08-2.78051E-01 1.03590E-08 6.54041E-08
 -1       814 3.92277E-01 1.87430E+00-2.21965E-08-3.77564E-01-7.12262E-09-2.96680E-08
 -1       815 4.05341E-01 1.86123E+00 5.23941E-08-5.28884E-01 2.04629E-08 6.29783E-08
 -1       817 5.45218E-01 1.72136E+00-2.21964E-08-5.88070E-01-1.16760E-08-2.81884E-08
 -1       818 6.04404E-01 1.66217E+00 5.23941E-08-7.27947E-01 3.00629E-08 5.90019E-08
 -1       820 7.55724E-01 1.51085E+00-2.21965E-08-7.41011E-01-1.59420E-08-2.60148E-08
 -1       821 8.55237E-01 1.41134E+00 5.23944E-08-8.55753E-01 3.89229E-08 5.35729E-08
 -1       823 1.00319E+00 1.26339E+00-2.21964E-08-8.21417E-01-1.98153E-08-2.32006E-08
 -1       824 1.13329E+00 1.13329E+00 5.23935E-08-8.99792E-01 4.68237E-08 4.68246E-08
 -1       826 1.26339E+00 1.00319E+00-2.21969E-08-8.21417E-01-2.32006E-08-1.98150E-08
 -1       827 1.41134E+00 8.55237E-01 5.23938E-08-8.55753E-01 5.35729E-08 3.89228E-08
 -1       829 1.51085E+00 7.55724E-01-2.21979E-08-7.41011E-01-2.60152E-08-1.59428E-08
 -1       830 1.66217E+00 6.04404E-01 5.23956E-08-7.27947E-01 5.90030E-08 3.00636E-08
 -1       832 1.72136E+00 5.45218E-01-2.21966E-08-5.88070E-01-2.81886E-08-1.16758E-08
 -1       833 1.86123E+00 4.05341E-01 5.23918E-08-5.28884E-01 6.29773E-08 2.04625E-08
 -1       835 1.87430E+00 3.92277E-01-2.21950E-08-3.77564E-01-2.96670E-08-7.12314E-09
 -1       836 1.98904E+00 2.77535E-01 5.23936E-08-2.78051E-01 6.54037E-08 1.03587E-08
 -1       838 1.95470E+00 3.11871E-01-2.21961E-08-1.30100E-01-3.04172E-08-2.39375E-09
 -1       840 4.05502E-01 1.86107E+00 5.38526E-10-1.15270E-01 9.61194E-10 1.22130E-08
 -1       841 3.78212E-01 1.88836E+00-1.42104E-08-2.45339E-01-3.50992E-09-2.21606E-08
 -1       843 4.76742E-01 1.78983E+00 5.38488E-10-3.34527E-01 2.85988E-09 1.19123E-08
 -1       844 4.90982E-01 1.77559E+00-1.42103E-08-4.66663E-01-6.93340E-09-2.13388E-08
 -1       846 6.12250E-01 1.65433E+00 5.38524E-10-5.21038E-01 4.68817E-09 1.13181E-08
 -1       847 6.66625E-01 1.59995E+00-1.42103E-08-6.42306E-01-1.01861E-08-1.99915E-08
 -1       849 7.98761E-01 1.46781E+00 5.38438E-10-6.56546E-01 6.40103E-09 1.04454E-08
 -1       850 8.87949E-01 1.37863E+00-1.42103E-08-7.55076E-01-1.31881E-08-1.81519E-08
 -1       852 1.01802E+00 1.24856E+00 5.38627E-10-7.27786E-01 7.95618E-09 9.31552E-09
 -1       853 1.13329E+00 1.13329E+00-1.42102E-08-7.93934E-01-1.58652E-08-1.58653E-08
 -1       855 1.24856E+00 1.01802E+00 5.38410E-10-7.27786E-01 9.31562E-09 7.95632E-09
 -1       856 1.37863E+00 8.87949E-01-1.42105E-08-7.55076E-01-1.81521E-08-1.31882E-08
 -1       858 1.46781E+00 7.98761E-01 5.38689E-10-6.56546E-01 1.04451E-08 6.40087E-09
 -1       859 1.59995E+00 6.66625E-01-1.42096E-08-6.42306E-01-1.99908E-08-1.01859E-08
 -1       861 1.65433E+00 6.12250E-01 5.38443E-10-5.21038E-01 1.13182E-08 4.68822E-09
 -1       862 1.77559E+00 4.90982E-01-1.42110E-08-4.66663E-01-2.13394E-08-6.93368E-09
 -1       864 1.78983E+00 4.76742E-01 5.38363E-10-3.34527E-01 1.19126E-08 2.86010E-09
 -1       865 1.88836E+00 3.78212E-01-1.42101E-08-2.45339E-01-2.21604E-08-3.50971E-09
 -1       867 1.86107E+00 4.05502E-01 5.38601E-10-1.15270E-01 1.22130E-08 9.61162E-10
 -1       869 4.83997E-01 1.78258E+00-7.59217E-09-1.02838E-01-2.61418E-10-3.32153E-09
 -1       870 4.62109E-01 1.80447E+00 8.42957E-09-2.18079E-01 9.83054E-10 6.20683E-09
 -1       872 5.47555E-01 1.71902E+00-7.59221E-09-2.98446E-01-7.77795E-10-3.23977E-09
 -1       873 5.62349E-01 1.70423E+00 8.42956E-09-4.14811E-01 1.94191E-09 5.97667E-09
 -1       875 6.68447E-01 1.59813E+00-7.59212E-09-4.64841E-01-1.27504E-09-3.07814E-09
 -1       876 7.18477E-01 1.54810E+00 8.42954E-09-5.70939E-01 2.85293E-09 5.59924E-09
 -1       878 8.34842E-01 1.43173E+00-7.59217E-09-5.85733E-01-1.74085E-09-2.84083E-09
 -1       879 9.15209E-01 1.35137E+00 8.42946E-09-6.71179E-01 3.69375E-09 5.08398E-09
 -1       881 1.03045E+00 1.23613E+00-7.59215E-09-6.49291E-01-2.16384E-09-2.53356E-09
 -1       882 1.13329E+00 1.13329E+00 8.42950E-09-7.05719E-01 4.44355E-09 4.44366E-09
 -1       884 1.23613E+00 1.03045E+00-7.59224E-09-6.49291E-01-2.53351E-09-2.16383E-09
 -1       885 1.35137E+00 9.15209E-01 8.42958E-09-6.71179E-01 5.08404E-09 3.69376E-09
 -1       887 1.43173E+00 8.34842E-01-7.59212E-09-5.85733E-01-2.84096E-09-1.74095E-09
 -1       888 1.54810E+00 7.18477E-01 8.42985E-09-5.70939E-01 5.59944E-09 2.85300E-09
 -1       890 1.59813E+00 6.68447E-01-7.59230E-09-4.64841E-01-3.07821E-09-1.27499E-09
 -1       891 1.70423E+00 5.62349E-01 8.42903E-09-4.14811E-01 5.97643E-09 1.94181E-09
 -1       893 1.71902E+00 5.47555E-01-7.59216E-09-2.98446E-01-3.23968E-09-7.77765E-10
 -1       894 1.80447E+00 4.62109E-01 8.42948E-09-2.18079E-01 6.20685E-09 9.83020E-10
 -1       896 1.78258E+00 4.83997E-01-7.59198E-09-1.02838E-01-3.32151E-09-2.61395E-10
 -1       898 5.50452E-01 1.71612E+00-3.70202E-09-9.23122E-02 5.86286E-11 7.44742E-10
 -1       899 5.32760E-01 1.73382E+00 6.75849E-10-1.95123E-01-2.80163E-10-1.76888E-09
 -1       901 6.07504E-01 1.65907E+00-3.70200E-09-2.67900E-01 1.74391E-10 7.26469E-10
 -1       902 6.22448E-01 1.64413E+00 6.75998E-10-3.71147E-01-5.53431E-10-1.70313E-09
 -1       904 7.16023E-01 1.55055E+00-3.70197E-09-4.17265E-01 2.85913E-10 6.90210E-10
 -1       905 7.62141E-01 1.50443E+00 6.75871E-10-5.10840E-01-8.13042E-10-1.59565E-09
 -1       907 8.65388E-01 1.40119E+00-3.70203E-09-5.25784E-01 3.90341E-10 6.36977E-10
 -1       908 9.38165E-01 1.32841E+00 6.75863E-10-6.00528E-01-1.05262E-09-1.44883E-09
 -1       910 1.04098E+00 1.22560E+00-3.70207E-09-5.82836E-01 4.85233E-10 5.68152E-10
 -1       911 1.13329E+00 1.13329E+00 6.75862E-10-6.31433E-01-1.26629E-09-1.26626E-09
 -1       913 1.22560E+00 1.04098E+00-3.70206E-09-5.82836E-01 5.68130E-10 4.85240E-10
 -1       914 1.32841E+00 9.38165E-01 6.75952E-10-6.00528E-01-1.44890E-09-1.05268E-09
 -1       916 1.40119E+00 8.65388E-01-3.70179E-09-5.25784E-01 6.36929E-10 3.90313E-10
 -1       917 1.50443E+00 7.62141E-01 6.76020E-10-5.10840E-01-1.59554E-09-8.13032E-10
 -1       919 1.55055E+00 7.16023E-01-3.70217E-09-4.17265E-01 6.90175E-10 2.85936E-10
 -1       920 1.64413E+00 6.22448E-01 6.75564E-10-3.71147E-01-1.70329E-09-5.53506E-10
 -1       922 1.65907E+00 6.07504E-01-3.70222E-09-2.67900E-01 7.26496E-10 1.74442E-10
 -1       923 1.73382E+00 5.32760E-01 6.75883E-10-1.95123E-01-1.76878E-09-2.80172E-10
 -1       925 1.71612E+00 5.50452E-01-3.70176E-09-9.23122E-02 7.44762E-10 5.86220E-11
 -1       927 6.07207E-01 1.65937E+00-3.88044E-09-8.33231E-02-4.94367E-11-6.28086E-10
 -1       928 5.92813E-01 1.67376E+00 2.55618E-09-1.75611E-01 1.12514E-10 7.10398E-10
 -1       930 6.58703E-01 1.60787E+00-3.88043E-09-2.41813E-01-1.47069E-10-6.12666E-10
 -1       931 6.73532E-01 1.59304E+00 2.55613E-09-3.34032E-01 2.22226E-10 6.84077E-10
 -1       933 7.56655E-01 1.50992E+00-3.88038E-09-3.76633E-01-2.41100E-10-5.82057E-10
 -1       934 7.99256E-01 1.46732E+00 2.55626E-09-4.59756E-01 3.26531E-10 6.40923E-10
 -1       936 8.91475E-01 1.37510E+00-3.88041E-09-4.74585E-01-3.29203E-10-5.37193E-10
 -1       937 9.57677E-01 1.30890E+00 2.55613E-09-5.40475E-01 4.22819E-10 5.81936E-10
 -1       939 1.04996E+00 1.21661E+00-3.88059E-09-5.26081E-01-4.09144E-10-4.79139E-10
 -1       940 1.13329E+00 1.13329E+00 2.55617E-09-5.68289E-01 5.08663E-10 5.08615E-10
 -1       942 1.21661E+00 1.04996E+00-3.88046E-09-5.26081E-01-4.79032E-10-4.09173E-10
 -1       943 1.30890E+00 9.57677E-01 2.55633E-09-5.40475E-01 5.81907E-10 4.22758E-10
 -1       945 1.37510E+00 8.91475E-01-3.88015E-09-4.74585E-01-5.37152E-10-3.29190E-10
 -1       946 1.46732E+00 7.99256E-01 2.55628E-09-4.59756E-01 6.40989E-10 3.26517E-10
 -1       948 1.50992E+00 7.56655E-01-3.88055E-09-3.76633E-01-5.82115E-10-2.41097E-10
 -1       949 1.59304E+00 6.73532E-01 2.55591E-09-3.34032E-01 6.84076E-10 2.22185E-10
 -1       951 1.60787E+00 6.58703E-01-3.88076E-09-2.41813E-01-6.12618E-10-1.47044E-10
 -1       952 1.67376E+00 5.92813E-01 2.55610E-09-1.75611E-01 7.10412E-10 1.12490E-10
 -1       954 1.65937E+00 6.07207E-01-3.88013E-09-8.33231E-02-6.28033E-10-4.94078E-11
 -1       956 6.56061E-01 1.61052E+00-2.87015E-09-7.55854E-02-1.75098E-11-2.22670E-10
 -1       957 6.44286E-01 1.62229E+00 1.46275E-09-1.58886E-01 1.42410E-12 9.09363E-12
 -1       959 7.02775E-01 1.56380E+00-2.87023E-09-2.19357E-01-5.21255E-11-2.17133E-10
 -1       960 7.17318E-01 1.54926E+00 1.46291E-09-3.02220E-01 2.81803E-12 8.77230E-12
 -1       962 7.91631E-01 1.47494E+00-2.87007E-09-3.41657E-01-8.54609E-11-2.06348E-10
 -1       963 8.31068E-01 1.43551E+00 1.46283E-09-4.15970E-01 4.17254E-12 8.20633E-12
 -1       965 9.13931E-01 1.35265E+00-2.87005E-09-4.30513E-01-1.16713E-10-1.90462E-10
 -1       966 9.74402E-01 1.29217E+00 1.46278E-09-4.89002E-01 5.43671E-12 7.41188E-12
 -1       968 1.05770E+00 1.20887E+00-2.87036E-09-4.77227E-01-1.45105E-10-1.69859E-10
 -1       969 1.13329E+00 1.13329E+00 1.46271E-09-5.14167E-01 6.53783E-12 6.49403E-12
 -1       971 1.20887E+00 1.05770E+00-2.87019E-09-4.77227E-01-1.69825E-10-1.45016E-10
 -1       972 1.29217E+00 9.74402E-01 1.46305E-09-4.89002E-01 7.36524E-12 5.42610E-12
 -1       974 1.35265E+00 9.13931E-01-2.86976E-09-4.30513E-01-1.90407E-10-1.16639E-10
 -1       975 1.43551E+00 8.31068E-01 1.46289E-09-4.15970E-01 8.35809E-12 4.12833E-12
 -1       977 1.47494E+00 7.91631E-01-2.87035E-09-3.41657E-01-2.06425E-10-8.54321E-11
 -1       978 1.54926E+00 7.17318E-01 1.46249E-09-3.02220E-01 8.77008E-12 2.78461E-12
 -1       980 1.56380E+00 7.02775E-01-2.87055E-09-2.19357E-01-2.17199E-10-5.20910E-11
 -1       981 1.62229E+00 6.44286E-01 1.46282E-09-1.58886E-01 9.11567E-12 1.39142E-12
 -1       983 1.61052E+00 6.56061E-01-2.86975E-09-7.55854E-02-2.22606E-10-1.75107E-11
 -1       985 6.98415E-01 1.56816E+00-2.42290E-09-6.88771E-02-2.23818E-11-2.84400E-10
 -1       986 6.88741E-01 1.57783E+00 1.37478E-09-1.44442E-01 2.94409E-11 1.85956E-10
 -1       988 7.40983E-01 1.52559E+00-2.42294E-09-1.99889E-01-6.65440E-11-2.77407E-10
 -1       989 7.55134E-01 1.51144E+00 1.37473E-09-2.74745E-01 5.81431E-11 1.79064E-10
 -1       991 8.21953E-01 1.44462E+00-2.42288E-09-3.11335E-01-1.09131E-10-2.63506E-10
 -1       992 8.58543E-01 1.40803E+00 1.37486E-09-3.78154E-01 8.54611E-11 1.67828E-10
 -1       994 9.33399E-01 1.33318E+00-2.42277E-09-3.92305E-01-1.49049E-10-2.43153E-10
 -1       995 9.88846E-01 1.27773E+00 1.37466E-09-4.44547E-01 1.10721E-10 1.52323E-10
 -1       997 1.06441E+00 1.20217E+00-2.42325E-09-4.34873E-01-1.85318E-10-2.16905E-10
 -1       998 1.13329E+00 1.13329E+00 1.37465E-09-4.67424E-01 1.33093E-10 1.33175E-10
 -1      1000 1.20217E+00 1.06441E+00-2.42294E-09-4.34873E-01-2.16865E-10-1.85252E-10
 -1      1001 1.27773E+00 9.88846E-01 1.37500E-09-4.44547E-01 1.52220E-10 1.10650E-10
 -1      1003 1.33318E+00 9.33399E-01-2.42235E-09-3.92305E-01-2.43125E-10-1.49049E-10
 -1      1004 1.40803E+00 8.58543E-01 1.37490E-09-3.78154E-01 1.67863E-10 8.54337E-11
 -1      1006 1.44462E+00 8.21953E-01-2.42319E-09-3.11335E-01-2.63622E-10-1.09139E-10
 -1      1007 1.51144E+00 7.55134E-01 1.37442E-09-2.74745E-01 1.79108E-10 5.81141E-11
 -1      1009 1.52559E+00 7.40983E-01-2.42344E-09-1.99889E-01-2.77512E-10-6.65468E-11
 -1      1010 1.57783E+00 6.88741E-01 1.37465E-09-1.44442E-01 1.85959E-10 2.93967E-11
 -1      1012 1.56816E+00 6.98415E-01-2.42239E-09-6.88771E-02-2.84312E-10-2.23491E-11
 -1      1014 7.35373E-01 1.53120E+00-1.95635E-09-6.30236E-02-1.61122E-11-2.04820E-10
 -1      1015 7.27397E-01 1.53918E+00 1.06556E-09-1.31882E-01 1.64584E-11 1.04044E-10
 -1      1017 7.74323E-01 1.49225E+00-1.95648E-09-1.82902E-01-4.79704E-11-1.99762E-10
 -1      1018 7.88017E-01 1.47856E+00 1.06567E-09-2.50854E-01 3.25036E-11 1.00148E-10
 -1      1020 8.48412E-01 1.41816E+00-1.95634E-09-2.84876E-01-7.85910E-11-1.89798E-10
 -1      1021 8.82434E-01 1.38414E+00 1.06577E-09-3.45271E-01 4.77731E-11 9.38694E-11
 -1      1023 9.50386E-01 1.31619E+00-1.95614E-09-3.58965E-01-1.07351E-10-1.75195E-10
 -1      1024 1.00141E+00 1.26517E+00 1.06560E-09-4.05891E-01 6.19851E-11 8.52039E-11
 -1      1026 1.07026E+00 1.19631E+00-1.95686E-09-3.97915E-01-1.33490E-10-1.56243E-10
 -1      1027 1.13329E+00 1.13329E+00 1.06546E-09-4.26779E-01 7.44395E-11 7.44726E-11
 -1      1029 1.19631E+00 1.07026E+00-1.95644E-09-3.97915E-01-1.56223E-10-1.33444E-10
 -1      1030 1.26517E+00 1.00141E+00 1.06590E-09-4.05891E-01 8.51292E-11 6.18752E-11
 -1      1032 1.31619E+00 9.50386E-01-1.95566E-09-3.58965E-01-1.75163E-10-1.07335E-10
 -1      1033 1.38414E+00 8.82434E-01 1.06578E-09-3.45271E-01 9.38316E-11 4.77596E-11
 -1      1035 1.41816E+00 8.48412E-01-1.95670E-09-2.84876E-01-1.89902E-10-7.85763E-11
 -1      1036 1.47856E+00 7.88017E-01 1.06513E-09-2.50854E-01 1.00360E-10 3.24743E-11
 -1      1038 1.49225E+00 7.74323E-01-1.95712E-09-1.82902E-01-1.99860E-10-4.79148E-11
 -1      1039 1.53918E+00 7.27397E-01 1.06555E-09-1.31882E-01 1.03929E-10 1.64100E-11
 -1      1041 1.53120E+00 7.35373E-01-1.95572E-09-6.30236E-02-2.04785E-10-1.60897E-11
 -1      1043 7.67813E-01 1.49876E+00-1.62273E-09-5.78856E-02-1.35084E-11-1.71566E-10
 -1      1044 7.61222E-01 1.50535E+00 8.93081E-10-1.20892E-01 1.53424E-11 9.70014E-11
 -1      1046 8.03588E-01 1.46299E+00-1.62285E-09-1.67990E-01-4.01592E-11-1.67343E-10
 -1      1047 8.16789E-01 1.44979E+00 8.93007E-10-2.29950E-01 3.02641E-11 9.33771E-11
 -1      1049 8.71637E-01 1.39494E+00-1.62279E-09-2.61651E-01-6.57975E-11-1.59001E-10
 -1      1050 9.03338E-01 1.36324E+00 8.93187E-10-3.16499E-01 4.45378E-11 8.75341E-11
 -1      1052 9.65298E-01 1.30128E+00-1.62236E-09-3.29700E-01-8.99146E-11-1.46717E-10
 -1      1053 1.01240E+00 1.25418E+00 8.92937E-10-3.72066E-01 5.78116E-11 7.94410E-11
 -1      1055 1.07540E+00 1.19117E+00-1.62340E-09-3.65475E-01-1.11877E-10-1.30852E-10
 -1      1056 1.13329E+00 1.13329E+00 8.92849E-10-3.91214E-01 6.94082E-11 6.95019E-11
 -1      1058 1.19117E+00 1.07540E+00-1.62285E-09-3.65475E-01-1.30846E-10-1.11780E-10
 -1      1059 1.25418E+00 1.01240E+00 8.93395E-10-3.72066E-01 7.92884E-11 5.77233E-11
 -1      1061 1.30128E+00 9.65298E-01-1.62181E-09-3.29700E-01-1.46591E-10-8.99307E-11
 -1      1062 1.36324E+00 9.03338E-01 8.93272E-10-3.16499E-01 8.75400E-11 4.45490E-11
 -1      1064 1.39494E+00 8.71637E-01-1.62317E-09-2.61651E-01-1.59120E-10-6.58184E-11
 -1      1065 1.44979E+00 8.16789E-01 8.92490E-10-2.29950E-01 9.35776E-11 3.02461E-11
 -1      1067 1.46299E+00 8.03588E-01-1.62378E-09-1.67990E-01-1.67518E-10-4.00926E-11
 -1      1068 1.50535E+00 7.61222E-01 8.92910E-10-1.20892E-01 9.69846E-11 1.52737E-11
 -1      1070 1.49876E+00 7.67813E-01-1.62185E-09-5.78856E-02-1.71507E-10-1.34668E-11
 -1      1072 7.96443E-01 1.47013E+00-1.34811E-09-5.33510E-02-1.05451E-11-1.34080E-10
 -1      1073 7.90987E-01 1.47559E+00 7.34964E-10-1.11220E-01 1.16542E-11 7.36879E-11
 -1      1075 8.29416E-01 1.43716E+00-1.34820E-09-1.54831E-01-3.13949E-11-1.30754E-10
 -1      1076 8.42109E-01 1.42447E+00 7.34985E-10-2.11554E-01 2.29395E-11 7.10043E-11
 -1      1078 8.92134E-01 1.37444E+00-1.34824E-09-2.41154E-01-5.13847E-11-1.24255E-10
 -1      1079 9.21734E-01 1.34484E+00 7.35222E-10-2.91179E-01 3.38579E-11 6.65079E-11
 -1      1081 9.78457E-01 1.28812E+00-1.34765E-09-3.03872E-01-7.02241E-11-1.14590E-10
 -1      1082 1.02207E+00 1.24451E+00 7.34949E-10-3.42301E-01 4.40672E-11 6.03862E-11
 -1      1084 1.07994E+00 1.18664E+00-1.34900E-09-3.36845E-01-8.73997E-11-1.02235E-10
 -1      1085 1.13329E+00 1.13329E+00 7.34742E-10-3.59917E-01 5.26936E-11 5.27571E-11
 -1      1087 1.18664E+00 1.07994E+00-1.34827E-09-3.36845E-01-1.02282E-10-8.74124E-11
 -1      1088 1.24451E+00 1.02207E+00 7.35427E-10-3.42301E-01 6.01245E-11 4.39397E-11
 -1      1090 1.28812E+00 9.78457E-01-1.34688E-09-3.03872E-01-1.14610E-10-7.02233E-11
 -1      1091 1.34484E+00 9.21734E-01 7.35243E-10-2.91179E-01 6.66633E-11 3.38294E-11
 -1      1093 1.37444E+00 8.92134E-01-1.34870E-09-2.41154E-01-1.24172E-10-5.13377E-11
 -1      1094 1.42447E+00 8.42109E-01 7.34365E-10-2.11554E-01 7.11535E-11 2.28996E-11
 -1      1096 1.43716E+00 8.29416E-01-1.34946E-09-1.54831E-01-1.30922E-10-3.12729E-11
 -1      1097 1.47559E+00 7.90987E-01 7.34850E-10-1.11220E-01 7.36911E-11 1.15811E-11
 -1      1099 1.47013E+00 7.96443E-01-1.34686E-09-5.33510E-02-1.34196E-10-1.05344E-11
 -1      1101 8.21837E-01 1.44474E+00-1.13156E-09-4.93290E-02-8.41505E-12-1.06746E-10
 -1      1102 8.17318E-01 1.44926E+00 6.16522E-10-1.02665E-01 9.32188E-12 5.89269E-11
 -1      1104 8.52324E-01 1.41425E+00-1.13173E-09-1.43158E-01-2.49823E-11-1.04170E-10
 -1      1105 8.64508E-01 1.40207E+00 6.16459E-10-1.95280E-01 1.82862E-11 5.67233E-11
 -1      1107 9.10314E-01 1.35626E+00-1.13181E-09-2.22974E-01-4.08801E-11-9.89096E-11
 -1      1108 9.38008E-01 1.32857E+00 6.16754E-10-2.68780E-01 2.70132E-11 5.31664E-11
 -1      1110 9.90130E-01 1.27645E+00-1.13084E-09-2.80964E-01-5.58607E-11-9.10946E-11
 -1      1111 1.03062E+00 1.23595E+00 6.16485E-10-3.15970E-01 3.52902E-11 4.82352E-11
 -1      1113 1.08396E+00 1.18262E+00-1.13295E-09-3.11451E-01-6.95295E-11-8.11905E-11
 -1      1114 1.13329E+00 1.13329E+00 6.16228E-10-3.32231E-01 4.20637E-11 4.21336E-11
 -1      1116 1.18262E+00 1.08396E+00-1.13175E-09-3.11451E-01-8.13885E-11-6.97287E-11
 -1      1117 1.23595E+00 1.03062E+00 6.16863E-10-3.15970E-01 4.80714E-11 3.52804E-11
 -1      1119 1.27645E+00 9.90130E-01-1.12990E-09-2.80964E-01-9.12703E-11-5.60735E-11
 -1      1120 1.32857E+00 9.38008E-01 6.16905E-10-2.68780E-01 5.32788E-11 2.70241E-11
 -1      1122 1.35626E+00 9.10314E-01-1.13247E-09-2.22974E-01-9.86982E-11-4.07839E-11
 -1      1123 1.40207E+00 8.64508E-01 6.15834E-10-1.95280E-01 5.70361E-11 1.81945E-11
 -1      1125 1.41425E+00 8.52324E-01-1.13350E-09-1.43158E-01-1.04019E-10-2.47796E-11
 -1      1126 1.44926E+00 8.17318E-01 6.16314E-10-1.02665E-01 5.88630E-11 9.25334E-12
 -1      1128 1.44474E+00 8.21837E-01-1.12964E-09-4.93290E-02-1.07314E-10-8.41377E-12
 -1      1130 8.44465E-01 1.42211E+00-9.62675E-10-4.57451E-02-6.11390E-12-7.76192E-11
 -1      1131 8.40723E-01 1.42585E+00 5.17810E-10-9.50601E-02 7.45834E-12 4.70605E-11
 -1      1133 8.72737E-01 1.39384E+00-9.62872E-10-1.32758E-01-1.81501E-11-7.57235E-11
 -1      1134 8.84417E-01 1.38216E+00 5.17844E-10-1.80815E-01 1.45599E-11 4.52905E-11
 -1      1136 9.26513E-01 1.34006E+00-9.63037E-10-2.06775E-01-2.96487E-11-7.19589E-11
 -1      1137 9.52473E-01 1.31410E+00 5.18172E-10-2.48871E-01 2.15137E-11 4.25289E-11
 -1      1139 1.00053E+00 1.26605E+00-9.61884E-10-2.60551E-01-4.04932E-11-6.59842E-11
 -1      1140 1.03823E+00 1.22835E+00 5.17970E-10-2.92565E-01 2.82528E-11 3.84834E-11
 -1      1142 1.08754E+00 1.17903E+00-9.64654E-10-2.88823E-01-5.03329E-11-5.85583E-11
 -1      1143 1.13329E+00 1.13329E+00 5.17750E-10-3.07621E-01 3.34966E-11 3.35198E-11
 -1      1145 1.17903E+00 1.08754E+00-9.62833E-10-2.88823E-01-5.93416E-11-5.08682E-11
 -1      1146 1.22835E+00 1.03823E+00 5.17998E-10-2.92565E-01 3.85389E-11 2.83711E-11
 -1      1148 1.26605E+00 1.00053E+00-9.60349E-10-2.60551E-01-6.67255E-11-4.10624E-11
 -1      1149 1.31410E+00 9.52473E-01 5.18290E-10-2.48871E-01 4.24537E-11 2.15052E-11
 -1      1151 1.34006E+00 9.26513E-01-9.64213E-10-2.06775E-01-7.11188E-11-2.93399E-11
 -1      1152 1.38216E+00 8.84417E-01 5.17534E-10-1.80815E-01 4.54256E-11 1.43909E-11
 -1      1154 1.39384E+00 8.72737E-01-9.65485E-10-1.32758E-01-7.51751E-11-1.77594E-11
 -1      1155 1.42585E+00 8.40723E-01 5.17705E-10-9.50601E-02 4.70881E-11 7.36086E-12
 -1      1157 1.42211E+00 8.44465E-01-9.59776E-10-4.57451E-02-7.93011E-11-6.20422E-12
 -1      1159 8.64713E-01 1.40186E+00-8.17028E-10-4.25380E-02-4.99385E-12-6.31339E-11
 -1      1160 8.61620E-01 1.40496E+00 4.48426E-10-8.82701E-02 4.69244E-12 2.94383E-11
 -1      1162 8.91003E-01 1.37557E+00-8.17309E-10-1.23450E-01-1.47880E-11-6.16034E-11
 -1      1163 9.02194E-01 1.36438E+00 4.48258E-10-1.67900E-01 9.01649E-12 2.84374E-11
 -1      1165 9.41010E-01 1.32557E+00-8.17310E-10-1.92278E-01-2.41050E-11-5.86331E-11
 -1      1166 9.65388E-01 1.30119E+00 4.48790E-10-2.31094E-01 1.33505E-11 2.65960E-11
 -1      1168 1.00984E+00 1.25674E+00-8.16400E-10-2.42285E-01-3.26324E-11-5.33199E-11
 -1      1169 1.04502E+00 1.22156E+00 4.48657E-10-2.71668E-01 1.78350E-11 2.38675E-11
 -1      1171 1.09075E+00 1.17583E+00-8.20298E-10-2.68574E-01-4.04284E-11-4.68310E-11
 -1      1172 1.13329E+00 1.13329E+00 4.48477E-10-2.85648E-01 2.05984E-11 2.06528E-11
 -1      1174 1.17583E+00 1.09075E+00-8.16770E-10-2.68574E-01-4.86757E-11-4.18517E-11
 -1      1175 1.22156E+00 1.04502E+00 4.48156E-10-2.71668E-01 2.44608E-11 1.83995E-11
 -1      1177 1.25674E+00 1.00984E+00-8.13038E-10-2.42285E-01-5.52076E-11-3.40899E-11
 -1      1178 1.30119E+00 9.65388E-01 4.48942E-10-2.31094E-01 2.66034E-11 1.33593E-11
 -1      1180 1.32557E+00 9.41010E-01-8.20153E-10-1.92278E-01-5.63782E-11-2.32995E-11
 -1      1181 1.36438E+00 9.02194E-01 4.48503E-10-1.67900E-01 2.79236E-11 8.57532E-12
 -1      1183 1.37557E+00 8.91003E-01-8.21695E-10-1.23450E-01-5.97766E-11-1.38725E-11
 -1      1184 1.40496E+00 8.61620E-01 4.48181E-10-8.82701E-02 2.94256E-11 4.59701E-12
 -1      1186 1.40186E+00 8.64713E-01-8.11053E-10-4.25380E-02-6.73673E-11-5.21059E-12
 -1      1188 8.82906E-01 1.38367E+00-7.51678E-10-3.96567E-02 8.29842E-13 1.10250E-11
 -1      1189 8.80356E-01 1.38622E+00 3.68535E-10-8.21825E-02 5.65919E-12 3.54187E-11
 -1      1191 9.07415E-01 1.35916E+00-7.52187E-10-1.15088E-01 2.54670E-12 1.08223E-11
 -1      1192 9.18131E-01 1.34844E+00 3.68445E-10-1.56320E-01 1.08437E-11 3.42181E-11
 -1      1194 9.54034E-01 1.31254E+00-7.51782E-10-1.79254E-01 4.38272E-12 9.96407E-12
 -1      1195 9.76968E-01 1.28961E+00 3.68812E-10-2.15157E-01 1.59947E-11 3.19641E-11
 -1      1197 1.01820E+00 1.24838E+00-7.51706E-10-2.25873E-01 6.68162E-12 1.07212E-11
 -1      1198 1.05111E+00 1.21547E+00 3.69285E-10-2.52932E-01 2.12929E-11 2.83344E-11
 -1      1200 1.09363E+00 1.17294E+00-7.56478E-10-2.50382E-01 9.26825E-12 1.16526E-11
 -1      1201 1.13329E+00 1.13329E+00 3.70071E-10-2.65948E-01 2.41661E-11 2.41170E-11
 -1      1203 1.17294E+00 1.09363E+00-7.50998E-10-2.50382E-01 7.26901E-12 5.73297E-12
 -1      1204 1.21547E+00 1.05111E+00 3.65993E-10-2.52932E-01 3.04689E-11 2.29601E-11
 -1      1206 1.24838E+00 1.01820E+00-7.46235E-10-2.25873E-01 6.02349E-12 3.52279E-12
 -1      1207 1.28961E+00 9.76968E-01 3.69002E-10-2.15157E-01 3.18075E-11 1.60504E-11
 -1      1209 1.31254E+00 9.54034E-01-7.56856E-10-1.79254E-01 1.52156E-11 6.31749E-12
 -1      1210 1.34844E+00 9.18131E-01 3.71220E-10-1.56320E-01 3.20419E-11 9.72798E-12
 -1      1212 1.35916E+00 9.07415E-01-7.58508E-10-1.15088E-01 1.55254E-11 4.38760E-12
 -1      1213 1.38622E+00 8.80356E-01 3.68533E-10-8.21825E-02 3.53098E-11 5.46236E-12
 -1      1215 1.38367E+00 8.82906E-01-7.42605E-10-3.96567E-02 1.32354E-12 1.27320E-13
 -1      1217 8.99310E-01 1.36727E+00-5.86578E-10-3.70584E-02-5.64616E-12-7.15350E-11
 -1      1218 8.97218E-01 1.36936E+00 3.97640E-10-7.67037E-02-7.91363E-12-5.03521E-11
 -1      1220 9.22214E-01 1.34436E+00-5.87234E-10-1.07548E-01-1.68036E-11-6.97821E-11
 -1      1221 9.32475E-01 1.33410E+00 3.97855E-10-1.45899E-01-1.60537E-11-4.85233E-11
 -1      1223 9.65779E-01 1.30080E+00-5.85574E-10-1.67509E-01-2.74519E-11-6.68571E-11
 -1      1224 9.87389E-01 1.27919E+00 3.97946E-10-2.00813E-01-2.36505E-11-4.54419E-11
 -1      1226 1.02574E+00 1.24084E+00-5.89286E-10-2.11074E-01-3.56062E-11-5.88352E-11
 -1      1227 1.05658E+00 1.20999E+00 3.98614E-10-2.36070E-01-3.01581E-11-4.27027E-11
 -1      1229 1.09623E+00 1.17035E+00-5.98199E-10-2.33978E-01-4.13772E-11-4.69563E-11
 -1      1230 1.13329E+00 1.13329E+00 4.00248E-10-2.48218E-01-3.86953E-11-3.86943E-11
 -1      1232 1.17035E+00 1.09623E+00-5.82080E-10-2.33978E-01-5.77301E-11-4.94686E-11
 -1      1233 1.20999E+00 1.05658E+00 3.94265E-10-2.36070E-01-3.75705E-11-2.61277E-11
 -1      1235 1.24084E+00 1.02574E+00-5.72561E-10-2.11074E-01-6.98040E-11-4.32389E-11
 -1      1236 1.27919E+00 9.87389E-01 3.98068E-10-2.00813E-01-4.57743E-11-2.34888E-11
 -1      1238 1.30080E+00 9.65779E-01-6.01315E-10-1.67509E-01-5.42509E-11-2.31619E-11
 -1      1239 1.33410E+00 9.32475E-01 4.01699E-10-1.45899E-01-5.38993E-11-1.83409E-11
 -1      1241 1.34436E+00 9.22214E-01-6.02814E-10-1.07548E-01-5.77908E-11-1.22243E-11
 -1      1242 1.36936E+00 8.97218E-01 3.97856E-10-7.67037E-02-5.06467E-11-8.06318E-12
 -1      1244 1.36727E+00 8.99310E-01-5.59198E-10-3.70584E-02-9.43822E-11-6.83996E-12
 -1      1246 9.14155E-01 1.35242E+00-9.17419E-10-3.47073E-02 3.93761E-11 4.99842E-10
 -1      1247 9.12449E-01 1.35413E+00 1.59038E-10-7.17551E-02 2.30933E-11 1.44928E-10
 -1      1249 9.35605E-01 1.33097E+00-9.17535E-10-1.00725E-01 1.16844E-10 4.87513E-10
 -1      1250 9.45431E-01 1.32115E+00 1.60036E-10-1.36486E-01 4.51220E-11 1.39211E-10
 -1      1252 9.76406E-01 1.29017E+00-9.14959E-10-1.56882E-01 1.91726E-10 4.62355E-10
 -1      1253 9.96802E-01 1.26977E+00 1.58174E-10-1.87857E-01 6.58698E-11 1.30934E-10
 -1      1255 1.03256E+00 1.23401E+00-9.23939E-10-1.97683E-01 2.65352E-10 4.31700E-10
 -1      1256 1.06153E+00 1.20504E+00 1.63550E-10-2.20839E-01 8.47611E-11 1.14928E-10
 -1      1258 1.09858E+00 1.16800E+00-9.29082E-10-2.19133E-01 3.37270E-10 3.97313E-10
 -1      1259 1.13329E+00 1.13329E+00 1.73166E-10-2.32204E-01 9.68515E-11 9.60273E-11
 -1      1261 1.16800E+00 1.09858E+00-9.11577E-10-2.19133E-01 3.75807E-10 3.18867E-10
 -1      1262 1.20504E+00 1.06153E+00 1.39045E-10-2.20839E-01 1.30515E-10 9.58725E-11
 -1      1264 1.23401E+00 1.03256E+00-9.05506E-10-1.97683E-01 4.08217E-10 2.50294E-10
 -1      1265 1.26977E+00 9.96802E-01 1.58214E-10-1.87857E-01 1.30004E-10 6.65575E-11
 -1      1267 1.29017E+00 9.76406E-01-9.35680E-10-1.56882E-01 4.88003E-10 2.01233E-10
 -1      1268 1.32115E+00 9.45431E-01 1.83017E-10-1.36486E-01 1.22781E-10 3.86808E-11
 -1      1270 1.33097E+00 9.35605E-01-9.34553E-10-1.00725E-01 5.13778E-10 1.24607E-10
 -1      1271 1.35413E+00 9.12449E-01 1.60681E-10-7.17551E-02 1.44315E-10 2.17098E-11
 -1      1273 1.35242E+00 9.14155E-01-8.89104E-10-3.47073E-02 4.52344E-10 3.44914E-11
 -1      1275 9.27630E-01 1.33895E+00-8.79221E-11-3.25731E-02-6.34523E-11-8.09833E-10
 -1      1276 9.26251E-01 1.34032E+00 8.89513E-10-6.72704E-02-1.10359E-10-6.97574E-10
 -1      1278 9.47761E-01 1.31881E+00-8.68225E-11-9.45307E-02-1.89725E-10-7.89492E-10
 -1      1279 9.57172E-01 1.30940E+00 8.91435E-10-1.27956E-01-2.18713E-10-6.72241E-10
 -1      1281 9.86053E-01 1.28052E+00-7.94289E-11-1.47235E-01-3.11096E-10-7.52761E-10
 -1      1282 1.00533E+00 1.26124E+00 8.88964E-10-1.76116E-01-3.22528E-10-6.28443E-10
 -1      1284 1.03876E+00 1.22782E+00-1.11076E-10-1.85527E-01-4.16105E-10-6.84964E-10
 -1      1285 1.06602E+00 1.20056E+00 8.90797E-10-2.07037E-01-4.18135E-10-5.77824E-10
 -1      1287 1.10071E+00 1.16586E+00-1.50548E-10-2.05658E-01-4.96267E-10-5.75283E-10
 -1      1288 1.13329E+00 1.13329E+00 8.98621E-10-2.17692E-01-5.12040E-10-5.11829E-10
 -1      1290 1.16586E+00 1.10071E+00-5.24313E-11-2.05658E-01-6.34922E-10-5.39997E-10
 -1      1291 1.20056E+00 1.06602E+00 8.80635E-10-2.07037E-01-5.50668E-10-3.97089E-10
 -1      1293 1.22782E+00 1.03876E+00-9.97328E-12-1.85527E-01-7.44650E-10-4.57654E-10
 -1      1294 1.26124E+00 1.00533E+00 8.88896E-10-1.76116E-01-6.30279E-10-3.20375E-10
 -1      1296 1.28052E+00 9.86053E-01-1.75017E-10-1.47235E-01-6.85291E-10-2.89099E-10
 -1      1297 1.30940E+00 9.57172E-01 9.01838E-10-1.27956E-01-7.01764E-10-2.29108E-10
 -1      1299 1.31881E+00 9.47761E-01-1.73054E-10-9.45307E-02-7.19705E-10-1.63633E-10
 -1      1300 1.34032E+00 9.26251E-01 8.91765E-10-6.72704E-02-6.98073E-10-1.10677E-10
 -1      1302 1.33895E+00 9.27630E-01 8.00182E-11-3.25731E-02-9.33091E-10-6.87588E-11
 -1      1304 9.39899E-01 1.32668E+00-3.28308E-09-3.06297E-02 3.68305E-10 4.68343E-09
 -1      1305 9.38799E-01 1.32778E+00-1.18684E-09-6.31934E-02 2.75932E-10 1.73451E-09
 -1      1307 9.58830E-01 1.30775E+00-3.27616E-09-8.88910E-02 1.09437E-09 4.57027E-09
 -1      1308 9.67846E-01 1.29873E+00-1.17994E-09-1.20201E-01 5.43038E-10 1.66695E-09
 -1      1310 9.94837E-01 1.27174E+00-3.27528E-09-1.38451E-01 1.79555E-09 4.33803E-09
 -1      1311 1.01309E+00 1.25349E+00-1.19986E-09-1.65442E-01 7.96804E-10 1.56826E-09
 -1      1313 1.04440E+00 1.22218E+00-3.30837E-09-1.74458E-01 2.46313E-09 4.02160E-09
 -1      1314 1.07009E+00 1.19648E+00-1.15369E-09-1.94489E-01 1.01968E-09 1.39686E-09
 -1      1316 1.10266E+00 1.16392E+00-3.28593E-09-1.93389E-01 3.10754E-09 3.65047E-09
 -1      1317 1.13329E+00 1.13329E+00-1.07653E-09-2.04498E-01 1.19701E-09 1.18792E-09
 -1      1319 1.16392E+00 1.10266E+00-3.26804E-09-1.93389E-01 3.55675E-09 3.01606E-09
 -1      1320 1.19648E+00 1.07009E+00-1.34702E-09-1.94489E-01 1.50262E-09 1.09111E-09
 -1      1322 1.22218E+00 1.04440E+00-3.29325E-09-1.74458E-01 3.90819E-09 2.40332E-09
 -1      1323 1.25349E+00 1.01309E+00-1.20074E-09-1.65442E-01 1.56304E-09 8.00526E-10
 -1      1325 1.27174E+00 9.94837E-01-3.31555E-09-1.38451E-01 4.45216E-09 1.84825E-09
 -1      1326 1.29873E+00 9.67846E-01-9.96262E-10-1.20201E-01 1.55213E-09 4.99886E-10
 -1      1328 1.30775E+00 9.58830E-01-3.29587E-09-8.88910E-02 4.70197E-09 1.11972E-09
 -1      1329 1.32778E+00 9.38799E-01-1.17292E-09-6.31934E-02 1.72896E-09 2.63669E-10
 -1      1331 1.32668E+00 9.39899E-01-3.26570E-09-3.06298E-02 4.46894E-09 3.30358E-10
 -1      1333 9.51103E-01 1.31547E+00 3.11329E-09-2.88553E-02-7.63393E-10-9.74345E-09
 -1      1334 9.50239E-01 1.31634E+00 5.79144E-09-5.94761E-02-1.12737E-09-7.10619E-09
 -1      1336 9.68937E-01 1.29764E+00 3.12106E-09-8.37412E-02-2.27459E-09-9.49960E-09
 -1      1337 9.77577E-01 1.28900E+00 5.79696E-09-1.13130E-01-2.22935E-09-6.84297E-09
 -1      1339 1.00286E+00 1.26372E+00 3.14259E-09-1.30430E-01-3.73671E-09-9.04991E-09
 -1      1340 1.02016E+00 1.24642E+00 5.79083E-09-1.55711E-01-3.27432E-09-6.39898E-09
 -1      1342 1.04955E+00 1.21703E+00 2.95597E-09-1.64351E-01-5.05280E-09-8.29616E-09
 -1      1343 1.07381E+00 1.19276E+00 5.77640E-09-1.83049E-01-4.24285E-09-5.84070E-09
 -1      1345 1.10443E+00 1.16214E+00 2.61467E-09-1.82185E-01-6.12482E-09-7.16034E-09
 -1      1346 1.13329E+00 1.13329E+00 5.76334E-09-1.92469E-01-5.14134E-09-5.12260E-09
 -1      1348 1.16214E+00 1.10443E+00 3.36192E-09-1.82185E-01-7.55693E-09-6.41265E-09
 -1      1349 1.19276E+00 1.07381E+00 5.86569E-09-1.83049E-01-5.74180E-09-4.14877E-09
 -1      1351 1.21703E+00 1.04955E+00 3.70915E-09-1.64351E-01-8.68292E-09-5.34876E-09
 -1      1352 1.24642E+00 1.02016E+00 5.78937E-09-1.55711E-01-6.39925E-09-3.26140E-09
 -1      1354 1.26372E+00 1.00286E+00 2.44507E-09-1.30430E-01-8.60531E-09-3.60605E-09
 -1      1355 1.28900E+00 9.77577E-01 5.72135E-09-1.13130E-01-6.95589E-09-2.25978E-09
 -1      1357 1.29764E+00 9.68937E-01 2.45051E-09-8.37412E-02-9.03591E-09-2.09691E-09
 -1      1358 1.31634E+00 9.50239E-01 5.79096E-09-5.94761E-02-7.10182E-09-1.10882E-09
 -1      1360 1.31547E+00 9.51103E-01 4.40281E-09-2.88553E-02-1.05591E-08-7.67370E-10
 -1      1362 9.61361E-01 1.30522E+00-1.96053E-08-2.72306E-02 3.17484E-09 4.04266E-08
 -1      1363 9.60699E-01 1.30588E+00-1.28867E-08-5.60774E-02 3.04482E-09 1.91652E-08
 -1      1365 9.78190E-01 1.28839E+00-1.95581E-08-7.90264E-02 9.44068E-09 3.94415E-08
 -1      1366 9.86475E-01 1.28010E+00-1.28634E-08-1.06666E-01 6.01531E-09 1.84325E-08
 -1      1368 1.01020E+00 1.25637E+00-1.96326E-08-1.23086E-01 1.54657E-08 3.74646E-08
 -1      1369 1.02662E+00 1.23995E+00-1.30344E-08-1.46813E-01 8.84848E-09 1.73135E-08
 -1      1371 1.05426E+00 1.21231E+00-1.96094E-08-1.55098E-01 2.11785E-08 3.46765E-08
 -1      1372 1.07721E+00 1.18937E+00-1.25889E-08-1.72589E-01 1.12960E-08 1.55208E-08
 -1      1374 1.10606E+00 1.16052E+00-1.90289E-08-1.71927E-01 2.65749E-08 3.11449E-08
 -1      1375 1.13329E+00 1.13329E+00-1.19244E-08-1.81470E-01 1.33869E-08 1.32796E-08
 -1      1377 1.16052E+00 1.10606E+00-1.97214E-08-1.71927E-01 3.07754E-08 2.61905E-08
 -1      1378 1.18937E+00 1.07721E+00-1.44042E-08-1.72589E-01 1.63626E-08 1.18114E-08
 -1      1380 1.21231E+00 1.05426E+00-2.03364E-08-1.55098E-01 3.41576E-08 2.10375E-08
 -1      1381 1.23995E+00 1.02662E+00-1.30419E-08-1.46813E-01 1.72753E-08 8.83282E-09
 -1      1383 1.25637E+00 1.01020E+00-1.90850E-08-1.23086E-01 3.79172E-08 1.57824E-08
 -1      1384 1.28010E+00 9.86475E-01-1.11456E-08-1.06666E-01 1.75019E-08 5.66251E-09
 -1      1386 1.28839E+00 9.78190E-01-1.88915E-08-7.90264E-02 4.00224E-08 9.45859E-09
 -1      1387 1.30588E+00 9.60699E-01-1.27666E-08-5.60775E-02 1.90787E-08 2.90955E-09
 -1      1389 1.30522E+00 9.61361E-01-2.08100E-08-2.72306E-02 3.95847E-08 2.94695E-09
 -1      1391 9.70776E-01 1.29580E+00 1.19967E-08-2.57393E-02-6.34542E-09-8.10947E-08
 -1      1392 9.70287E-01 1.29629E+00 4.47249E-08-5.29623E-02-1.07454E-08-6.75876E-08
 -1      1394 9.86684E-01 1.27989E+00 1.19485E-08-7.46984E-02-1.89002E-08-7.90698E-08
 -1      1395 9.94631E-01 1.27194E+00 4.46894E-08-1.00740E-01-2.11833E-08-6.50578E-08
 -1      1397 1.01694E+00 1.24963E+00 1.20585E-08-1.16345E-01-3.11357E-08-7.53286E-08
 -1      1398 1.03255E+00 1.23403E+00 4.49113E-08-1.38657E-01-3.12024E-08-6.10032E-08
 -1      1400 1.05859E+00 1.20799E+00 1.05931E-08-1.46604E-01-4.18030E-08-6.89785E-08
 -1      1401 1.08033E+00 1.18625E+00 4.46492E-08-1.63001E-01-4.03697E-08-5.52330E-08
 -1      1403 1.10755E+00 1.15903E+00 7.28069E-09-1.62512E-01-5.04769E-08-5.94854E-08
 -1      1404 1.13329E+00 1.13329E+00 4.38074E-08-1.71389E-01-4.83218E-08-4.80899E-08
 -1      1406 1.15903E+00 1.10755E+00 1.40239E-08-1.62512E-01-6.33606E-08-5.30774E-08
 -1      1407 1.18625E+00 1.08033E+00 4.64795E-08-1.63001E-01-5.55982E-08-4.02362E-08
 -1      1409 1.20799E+00 1.05859E+00 1.72755E-08-1.46604E-01-7.23873E-08-4.50804E-08
 -1      1410 1.23403E+00 1.03255E+00 4.49431E-08-1.38657E-01-6.10391E-08-3.08718E-08
 -1      1412 1.24963E+00 1.01694E+00 5.61388E-09-1.16345E-01-7.09002E-08-3.03450E-08
 -1      1413 1.27194E+00 9.94631E-01 4.30899E-08-1.00740E-01-6.46699E-08-2.08262E-08
 -1      1415 1.27989E+00 9.86684E-01 5.68489E-09-7.46984E-02-7.48078E-08-1.70632E-08
 -1      1416 1.29629E+00 9.70287E-01 4.45262E-08-5.29623E-02-6.73184E-08-1.06205E-08
 -1      1418 1.29580E+00 9.70776E-01 2.38499E-08-2.57393E-02-8.89594E-08-5.70391E-09
 -1      1420 9.79437E-01 1.28714E+00-1.12218E-07-2.43677E-02 2.17864E-08 2.77286E-07
 -1      1421 9.79101E-01 1.28748E+00-8.90365E-08-5.00985E-02 2.74287E-08 1.72862E-07
 -1      1423 9.94497E-01 1.27208E+00-1.12194E-07-7.07177E-02 6.47279E-08 2.70447E-07
 -1      1424 1.00213E+00 1.26445E+00-8.90054E-08-9.52931E-02 5.43426E-08 1.66236E-07
 -1      1426 1.02314E+00 1.24343E+00-1.13222E-07-1.10145E-01 1.05908E-07 2.56976E-07
 -1      1427 1.03799E+00 1.22858E+00-9.05381E-08-1.31160E-01 7.97614E-08 1.56165E-07
 -1      1429 1.06257E+00 1.20401E+00-1.11994E-07-1.38791E-01 1.45339E-07 2.37366E-07
 -1      1430 1.08319E+00 1.18339E+00-8.66521E-08-1.54187E-01 1.01983E-07 1.40814E-07
 -1      1432 1.10892E+00 1.15766E+00-1.05350E-07-1.53851E-01 1.81132E-07 2.12201E-07
 -1      1433 1.13329E+00 1.13329E+00-8.00696E-08-1.62122E-01 1.21702E-07 1.19318E-07
 -1      1435 1.15766E+00 1.10892E+00-1.15572E-07-1.53851E-01 2.10020E-07 1.81597E-07
 -1      1436 1.18339E+00 1.08319E+00-1.04436E-07-1.54187E-01 1.48171E-07 1.05582E-07
 -1      1438 1.20401E+00 1.06257E+00-1.22423E-07-1.38791E-01 2.35984E-07 1.44961E-07
 -1      1439 1.22858E+00 1.03799E+00-9.08201E-08-1.31160E-01 1.55245E-07 8.00798E-08
 -1      1441 1.24343E+00 1.02314E+00-1.03996E-07-1.10145E-01 2.58246E-07 1.06438E-07
 -1      1442 1.26445E+00 1.00213E+00-7.27920E-08-9.52931E-02 1.58489E-07 5.11167E-08
 -1      1444 1.27208E+00 9.94497E-01-1.01535E-07-7.07177E-02 2.71669E-07 6.59040E-08
 -1      1445 1.28748E+00 9.79101E-01-8.74362E-08-5.00985E-02 1.71576E-07 2.42447E-08
 -1      1447 1.28714E+00 9.79437E-01-1.28142E-07-2.43677E-02 2.75270E-07 2.28838E-08
 -1      1449 9.87431E-01 1.27914E+00-4.59388E-07-2.31011E-02-3.02610E-10-2.97610E-09
 -1      1450 9.87205E-01 1.27937E+00 2.82080E-07-4.74653E-02-8.48330E-08-5.38599E-07
 -1      1452 1.00171E+00 1.26486E+00-4.60798E-07-6.70419E-02-7.05265E-10-2.54545E-09
 -1      1453 1.00902E+00 1.25755E+00 2.81284E-07-9.02843E-02-1.67811E-07-5.19328E-07
 -1      1455 1.02887E+00 1.23771E+00-4.58012E-07-1.04420E-01-2.94591E-09-5.92423E-09
 -1      1456 1.04300E+00 1.22357E+00 2.86085E-07-1.24266E-01-2.49638E-07-4.88911E-07
 -1      1458 1.06624E+00 1.20033E+00-4.73602E-07-1.31577E-01 6.29621E-09 3.65750E-09
 -1      1459 1.08582E+00 1.18075E+00 2.85768E-07-1.46083E-01-3.23673E-07-4.40691E-07
 -1      1461 1.11018E+00 1.15639E+00-5.20509E-07-1.45854E-01 3.44321E-08 3.41766E-08
 -1      1462 1.13329E+00 1.13329E+00 2.70232E-07-1.53601E-01-3.82631E-07-3.80795E-07
 -1      1464 1.15639E+00 1.11018E+00-4.37560E-07-1.45854E-01-2.45483E-08-9.45332E-09
 -1      1465 1.18075E+00 1.08582E+00 2.97539E-07-1.46083E-01-4.50368E-07-3.24462E-07
 -1      1467 1.20033E+00 1.06624E+00-3.90275E-07-1.31577E-01-5.14040E-08-4.20688E-08
 -1      1468 1.22357E+00 1.04300E+00 2.88403E-07-1.24266E-01-4.92210E-07-2.42638E-07
 -1      1470 1.23771E+00 1.02887E+00-5.34155E-07-1.04420E-01 6.48242E-08 1.33117E-08
 -1      1471 1.25755E+00 1.00902E+00 2.74903E-07-9.02844E-02-5.11444E-07-1.59818E-07
 -1      1473 1.26486E+00 1.00171E+00-5.38570E-07-6.70419E-02 6.98282E-08 2.25442E-08
 -1      1474 1.27937E+00 9.87205E-01 2.76602E-07-4.74652E-02-5.32074E-07-8.39779E-08
 -1      1476 1.27914E+00 9.87431E-01-3.15339E-07-2.31011E-02-1.22894E-07 4.00853E-09
 -1      1478 9.94783E-01 1.27180E+00 3.53216E-07-2.19374E-02-5.11683E-08-6.58945E-07
 -1      1479 9.94741E-01 1.27184E+00 5.45787E-08-4.50172E-02 1.18356E-07 7.61687E-07
 -1      1481 1.00834E+00 1.25824E+00 3.55587E-07-6.36649E-02-1.52028E-07-6.42475E-07
 -1      1482 1.01543E+00 1.25115E+00 6.26175E-08-8.56279E-02 2.32626E-07 7.29468E-07
 -1      1484 1.03413E+00 1.23245E+00 3.53272E-07-9.91604E-02-2.51555E-07-6.13669E-07
 -1      1485 1.04766E+00 1.21892E+00 4.41247E-08-1.17857E-01 3.45619E-07 6.99107E-07
 -1      1487 1.06963E+00 1.19695E+00 3.67121E-07-1.24949E-01-3.30455E-07-5.52800E-07
 -1      1488 1.08827E+00 1.17831E+00 4.98295E-08-1.38549E-01 4.59411E-07 6.35140E-07
 -1      1490 1.11135E+00 1.15523E+00 4.18400E-07-1.38507E-01-3.91000E-07-4.47946E-07
 -1      1491 1.13329E+00 1.13329E+00 1.48720E-07-1.45679E-01 5.29896E-07 4.80906E-07
 -1      1493 1.15523E+00 1.11135E+00 3.37737E-07-1.38507E-01-5.47186E-07-4.11189E-07
 -1      1494 1.17831E+00 1.08827E+00-6.11579E-08-1.38549E-01 6.82897E-07 4.73815E-07
 -1      1496 1.19695E+00 1.06963E+00 2.88879E-07-1.24949E-01-6.14266E-07-3.90990E-07
 -1      1497 1.21892E+00 1.04766E+00 4.10675E-08-1.17857E-01 6.83499E-07 3.76662E-07
 -1      1499 1.23245E+00 1.03413E+00 4.33869E-07-9.91602E-02-5.17758E-07-2.30504E-07
 -1      1500 1.25115E+00 1.01543E+00 1.45351E-07-8.56281E-02 7.04915E-07 2.00158E-07
 -1      1502 1.25824E+00 1.00834E+00 4.41614E-07-6.36650E-02-5.57046E-07-7.80550E-08
 -1      1503 1.27184E+00 9.94741E-01 8.65827E-08-4.50170E-02 7.42143E-07 3.15668E-08
 -1      1505 1.27180E+00 9.94783E-01 2.19318E-07-2.19376E-02-8.03337E-07-4.26635E-09
 -1      1507 1.00206E+00 1.26451E+00-2.77205E-07-4.26382E-02-4.05047E-08-3.10209E-07
 -1      1509 1.02166E+00 1.24492E+00-2.85095E-07-8.11027E-02-7.49065E-08-2.96576E-07
 -1      1511 1.05218E+00 1.21439E+00-2.39250E-07-1.11628E-01-1.19287E-07-3.09659E-07
 -1      1513 1.09065E+00 1.17592E+00-1.39743E-07-1.31227E-01-2.33131E-07-3.08090E-07
 -1      1515 1.13329E+00 1.13329E+00-2.89832E-07-1.37981E-01-2.69157E-07-1.46817E-07
 -1      1517 1.17593E+00 1.09065E+00-3.05813E-07-1.31227E-01-2.56448E-07-1.46174E-07
 -1      1519 1.21439E+00 1.05218E+00-2.16845E-07-1.11629E-01-2.80011E-07-2.00880E-07
 -1      1521 1.24491E+00 1.02166E+00-6.04222E-08-8.11031E-02-4.38889E-07-4.18594E-08
 -1      1523 1.26451E+00 1.00206E+00-3.76493E-07-4.26377E-02-2.87185E-07 1.81662E-07
 -1      1526-6.44451E-01 2.91103E+00 1.99398E-07 6.73916E-04-2.34351E-08-5.74836E-06
 -1      1527-6.44450E-01 2.91103E+00 1.59830E-06 6.73910E-04 7.94973E-09-1.79942E-06
 -1      1528-6.44451E-01 2.91103E+00 2.37169E-06 6.73896E-04 4.14186E-09-5.72089E-07
 -1      1529-6.44451E-01 2.91103E+00 2.53087E-06 6.73894E-04 1.40800E-09-2.23995E-07
 -1      1530-6.44451E-01 2.91103E+00 2.50512E-06 6.73893E-04 3.14373E-10-6.45998E-08
 -1      1531-6.44451E-01 2.91103E+00 2.50512E-06 6.73893E-04-3.14381E-10 6.45997E-08
 -1      1532-6.44451E-01 2.91103E+00 2.53087E-06 6.73894E-04-1.40791E-09 2.23995E-07
 -1      1533-6.44451E-01 2.91103E+00 2.37169E-06 6.73896E-04-4.14174E-09 5.72089E-07
 -1      1534-6.44450E-01 2.91103E+00 1.59830E-06 6.73910E-04-7.94982E-09 1.79942E-06
 -1      1535-6.44451E-01 2.91103E+00 1.99398E-07 6.73916E-04 2.34352E-08 5.74836E-06
 -1      1536-3.61021E-01 2.62762E+00 5.11741E-06-1.96807E-03 5.46115E-08 4.07122E-06
 -1      1537-3.61022E-01 2.62762E+00 5.96734E-06-1.96811E-03 1.82728E-08 1.81368E-06
 -1      1538-3.61023E-01 2.62762E+00 5.94144E-06-1.96811E-03-3.27353E-11 6.85505E-07
 -1      1539-3.61023E-01 2.62762E+00 5.73002E-06-1.96811E-03-1.36311E-09 2.77632E-07
 -1      1540-3.61023E-01 2.62762E+00 5.63314E-06-1.96811E-03-5.78363E-10 7.86196E-08
 -1      1541-3.61023E-01 2.62762E+00 5.63314E-06-1.96811E-03 5.78323E-10-7.86196E-08
 -1      1542-3.61023E-01 2.62762E+00 5.73002E-06-1.96811E-03 1.36305E-09-2.77632E-07
 -1      1543-3.61023E-01 2.62762E+00 5.94144E-06-1.96811E-03 3.27016E-11-6.85505E-07
 -1      1544-3.61022E-01 2.62762E+00 5.96734E-06-1.96811E-03-1.82728E-08-1.81368E-06
 -1      1545-3.61021E-01 2.62762E+00 5.11741E-06-1.96807E-03-5.46115E-08-4.07122E-06
 -1      1546-1.40721E-01 2.40729E+00-1.33994E-06-1.07279E-03 2.12792E-08-1.32999E-06
 -1      1547-1.40721E-01 2.40729E+00-1.73162E-06-1.07278E-03-8.61901E-09-7.88507E-07
 -1      1548-1.40720E-01 2.40729E+00-1.70840E-06-1.07277E-03-3.52807E-09-2.53473E-07
 -1      1549-1.40720E-01 2.40729E+00-1.57896E-06-1.07276E-03-4.05246E-10-3.68291E-08
 -1      1550-1.40720E-01 2.40729E+00-1.48464E-06-1.07276E-03 4.99030E-11 1.86970E-09
 -1      1551-1.40720E-01 2.40729E+00-1.48464E-06-1.07276E-03-4.99347E-11-1.86974E-09
 -1      1552-1.40720E-01 2.40729E+00-1.57896E-06-1.07276E-03 4.05281E-10 3.68290E-08
 -1      1553-1.40720E-01 2.40729E+00-1.70840E-06-1.07277E-03 3.52807E-09 2.53473E-07
 -1      1554-1.40721E-01 2.40729E+00-1.73162E-06-1.07278E-03 8.61903E-09 7.88507E-07
 -1      1555-1.40721E-01 2.40729E+00-1.33994E-06-1.07279E-03-2.12792E-08 1.32999E-06
 -1      1556 3.43434E-02 2.23223E+00 3.70093E-07-1.08189E-03-1.97948E-08 3.45979E-07
 -1      1557 3.43433E-02 2.23223E+00 4.57384E-07-1.08189E-03-2.00454E-09 1.87829E-07
 -1      1558 3.43432E-02 2.23223E+00 3.96504E-07-1.08189E-03 2.50629E-09 6.87494E-08
 -1      1559 3.43432E-02 2.23223E+00 3.55241E-07-1.08189E-03 1.25275E-09 6.81038E-10
 -1      1560 3.43432E-02 2.23223E+00 3.29673E-07-1.08189E-03 2.39434E-10-6.59568E-09
 -1      1561 3.43432E-02 2.23223E+00 3.29673E-07-1.08189E-03-2.39501E-10 6.59562E-09
 -1      1562 3.43432E-02 2.23223E+00 3.55241E-07-1.08189E-03-1.25279E-09-6.80931E-10
 -1      1563 3.43432E-02 2.23223E+00 3.96504E-07-1.08189E-03-2.50642E-09-6.87494E-08
 -1      1564 3.43433E-02 2.23223E+00 4.57384E-07-1.08189E-03 2.00445E-09-1.87829E-07
 -1      1565 3.43434E-02 2.23223E+00 3.70093E-07-1.08189E-03 1.97949E-08-3.45978E-07
 -1      1566 1.75659E-01 2.09092E+00-1.22126E-07-9.02470E-04 6.37482E-09-1.21756E-07
 -1      1567 1.75659E-01 2.09092E+00-1.53547E-07-9.02470E-04 1.44371E-09-5.22311E-08
 -1      1568 1.75659E-01 2.09092E+00-1.27727E-07-9.02470E-04-4.40404E-10-1.64140E-08
 -1      1569 1.75659E-01 2.09092E+00-1.12684E-07-9.02469E-04-7.65736E-10-4.29628E-09
 -1      1570 1.75659E-01 2.09092E+00-1.08396E-07-9.02468E-04-2.33623E-10 3.36165E-11
 -1      1571 1.75659E-01 2.09092E+00-1.08396E-07-9.02468E-04 2.33596E-10-3.36494E-11
 -1      1572 1.75659E-01 2.09092E+00-1.12684E-07-9.02469E-04 7.65789E-10 4.29629E-09
 -1      1573 1.75659E-01 2.09092E+00-1.27727E-07-9.02470E-04 4.40358E-10 1.64142E-08
 -1      1574 1.75659E-01 2.09092E+00-1.53547E-07-9.02470E-04-1.44370E-09 5.22312E-08
 -1      1575 1.75659E-01 2.09092E+00-1.22126E-07-9.02470E-04-6.37493E-09 1.21756E-07
 -1      1576 2.91393E-01 1.97518E+00 2.12853E-08-8.03904E-04-2.85023E-09 2.74973E-08
 -1      1577 2.91393E-01 1.97518E+00 2.77153E-08-8.03904E-04-3.38717E-10 1.70476E-08
 -1      1578 2.91393E-01 1.97518E+00 1.82079E-08-8.03904E-04 1.54116E-10 4.75473E-09
 -1      1579 2.91393E-01 1.97518E+00 1.36405E-08-8.03904E-04 2.05797E-10 1.78131E-10
 -1      1580 2.91393E-01 1.97518E+00 1.17547E-08-8.03904E-04 9.91996E-11 3.82108E-11
 -1      1581 2.91393E-01 1.97518E+00 1.17547E-08-8.03904E-04-9.92514E-11-3.82411E-11
 -1      1582 2.91393E-01 1.97518E+00 1.36405E-08-8.03904E-04-2.05845E-10-1.78043E-10
 -1      1583 2.91393E-01 1.97518E+00 1.82079E-08-8.03904E-04-1.54095E-10-4.75467E-09
 -1      1584 2.91393E-01 1.97518E+00 2.77152E-08-8.03904E-04 3.38756E-10-1.70476E-08
 -1      1585 2.91393E-01 1.97518E+00 2.12853E-08-8.03904E-04 2.85030E-09-2.74973E-08
 -1      1586 3.87357E-01 1.87922E+00-1.66291E-08-7.09599E-04 6.86601E-10-1.05777E-08
 -1      1587 3.87357E-01 1.87922E+00-1.89891E-08-7.09599E-04 2.48318E-10-2.91523E-09
 -1      1588 3.87357E-01 1.87922E+00-1.54031E-08-7.09599E-04-6.15994E-11-1.36501E-09
 -1      1589 3.87357E-01 1.87922E+00-1.39440E-08-7.09599E-04-8.23234E-11-1.62815E-10
 -1      1590 3.87357E-01 1.87922E+00-1.36311E-08-7.09599E-04-1.93395E-11 1.81437E-10
 -1      1591 3.87357E-01 1.87922E+00-1.36311E-08-7.09599E-04 1.93562E-11-1.81429E-10
 -1      1592 3.87357E-01 1.87922E+00-1.39440E-08-7.09599E-04 8.23075E-11 1.62729E-10
 -1      1593 3.87357E-01 1.87922E+00-1.54030E-08-7.09599E-04 6.15057E-11 1.36510E-09
 -1      1594 3.87357E-01 1.87922E+00-1.89889E-08-7.09599E-04-2.48388E-10 2.91522E-09
 -1      1595 3.87357E-01 1.87922E+00-1.66292E-08-7.09599E-04-6.86739E-10 1.05777E-08
 -1      1596 4.67810E-01 1.79877E+00-3.39095E-09-6.33779E-04-2.94207E-10 1.97690E-09
 -1      1597 4.67810E-01 1.79877E+00-2.95987E-09-6.33779E-04-1.76531E-11 1.67941E-09
 -1      1598 4.67810E-01 1.79877E+00-3.97797E-09-6.33779E-04-6.45506E-12 2.24462E-10
 -1      1599 4.67810E-01 1.79877E+00-4.38976E-09-6.33779E-04 2.51490E-11 1.31884E-10
 -1      1600 4.67810E-01 1.79877E+00-4.49445E-09-6.33779E-04 1.27732E-11 6.87451E-11
 -1      1601 4.67810E-01 1.79877E+00-4.49443E-09-6.33779E-04-1.27134E-11-6.88171E-11
 -1      1602 4.67810E-01 1.79877E+00-4.38966E-09-6.33779E-04-2.50897E-11-1.31815E-10
 -1      1603 4.67810E-01 1.79877E+00-3.97794E-09-6.33779E-04 6.52290E-12-2.24606E-10
 -1      1604 4.67810E-01 1.79877E+00-2.95980E-09-6.33779E-04 1.76910E-11-1.67929E-09
 -1      1605 4.67810E-01 1.79877E+00-3.39090E-09-6.33779E-04 2.94104E-10-1.97699E-09
 -1      1606 5.35921E-01 1.73065E+00-5.38625E-09-5.68739E-04 6.08302E-11-8.69072E-10
 -1      1607 5.35921E-01 1.73065E+00-5.52968E-09-5.68739E-04 3.20068E-11-7.24402E-11
 -1      1608 5.35921E-01 1.73065E+00-5.13875E-09-5.68739E-04-1.06348E-11-1.80243E-10
 -1      1609 5.35921E-01 1.73065E+00-5.01695E-09-5.68739E-04-4.31304E-12 3.21617E-11
 -1      1610 5.35921E-01 1.73065E+00-4.98489E-09-5.68739E-04-1.97860E-12 1.78175E-11
 -1      1611 5.35921E-01 1.73065E+00-4.98491E-09-5.68739E-04 1.94036E-12-1.79138E-11
 -1      1612 5.35921E-01 1.73065E+00-5.01694E-09-5.68739E-04 4.26823E-12-3.23297E-11
 -1      1613 5.35921E-01 1.73065E+00-5.13865E-09-5.68739E-04 1.05343E-11 1.80441E-10
 -1      1614 5.35921E-01 1.73065E+00-5.52968E-09-5.68739E-04-3.20827E-11 7.23578E-11
 -1      1615 5.35921E-01 1.73065E+00-5.38620E-09-5.68739E-04-6.07870E-11 8.69161E-10
 -1      1616 5.94091E-01 1.67248E+00-3.46135E-09-5.13407E-04-2.21091E-11 1.81827E-10
 -1      1617 5.94091E-01 1.67248E+00-3.42573E-09-5.13407E-04 1.09789E-12 1.68304E-10
 -1      1618 5.94091E-01 1.67248E+00-3.51868E-09-5.13407E-04-4.16086E-12-2.43991E-11
 -1      1619 5.94091E-01 1.67248E+00-3.55604E-09-5.13407E-04 3.74196E-12 3.40390E-11
 -1      1620 5.94091E-01 1.67248E+00-3.55898E-09-5.13407E-04 4.73236E-13 9.03362E-14
 -1      1621 5.94091E-01 1.67248E+00-3.55889E-09-5.13407E-04-5.03557E-13-2.14913E-13
 -1      1622 5.94091E-01 1.67248E+00-3.55599E-09-5.13407E-04-3.64227E-12-3.42410E-11
 -1      1623 5.94091E-01 1.67248E+00-3.51862E-09-5.13407E-04 4.23874E-12 2.44572E-11
 -1      1624 5.94091E-01 1.67248E+00-3.42567E-09-5.13407E-04-1.14853E-12-1.68169E-10
 -1      1625 5.94091E-01 1.67248E+00-3.46143E-09-5.13407E-04 2.19651E-11-1.81873E-10
 -1      1626 6.44163E-01 1.62241E+00-2.99425E-09-4.65719E-04 9.50040E-12-1.30882E-11
 -1      1627 6.44163E-01 1.62241E+00-2.98850E-09-4.65719E-04 3.20704E-12 1.75514E-12
 -1      1628 6.44163E-01 1.62241E+00-2.95056E-09-4.65719E-04-2.00649E-12-3.24783E-11
 -1      1629 6.44163E-01 1.62241E+00-2.94409E-09-4.65719E-04 5.58170E-13 1.28437E-11
 -1      1630 6.44163E-01 1.62241E+00-2.94023E-09-4.65719E-04-6.47274E-13-5.30769E-12
 -1      1631 6.44163E-01 1.62241E+00-2.94025E-09-4.65719E-04 7.59267E-13 5.21750E-12
 -1      1632 6.44163E-01 1.62241E+00-2.94417E-09-4.65719E-04-5.97600E-13-1.28342E-11
 -1      1633 6.44163E-01 1.62241E+00-2.95048E-09-4.65719E-04 2.02172E-12 3.24206E-11
 -1      1634 6.44163E-01 1.62241E+00-2.98863E-09-4.65719E-04-3.10235E-12-1.72958E-12
 -1      1635 6.44163E-01 1.62241E+00-2.99415E-09-4.65719E-04-9.27688E-12 1.30593E-11
 -1      1636 6.87573E-01 1.57900E+00-2.35172E-09-4.24388E-04 2.73597E-12 6.83198E-11
 -1      1637 6.87573E-01 1.57900E+00-2.33899E-09-4.24388E-04-3.75803E-13 6.14620E-12
 -1      1638 6.87573E-01 1.57900E+00-2.34681E-09-4.24388E-04-7.63713E-13-8.65724E-12
 -1      1639 6.87573E-01 1.57900E+00-2.35149E-09-4.24388E-04 6.92946E-13 7.89224E-12
 -1      1640 6.87573E-01 1.57900E+00-2.35079E-09-4.24388E-04-3.08214E-13-4.37282E-12
 -1      1641 6.87573E-01 1.57900E+00-2.35083E-09-4.24388E-04 2.61359E-13 4.35110E-12
 -1      1642 6.87573E-01 1.57900E+00-2.35151E-09-4.24388E-04-7.24760E-13-7.99942E-12
 -1      1643 6.87573E-01 1.57900E+00-2.34677E-09-4.24388E-04 8.76532E-13 8.75825E-12
 -1      1644 6.87573E-01 1.57900E+00-2.33891E-09-4.24388E-04 4.56831E-13-6.21706E-12
 -1      1645 6.87573E-01 1.57900E+00-2.35167E-09-4.24388E-04-2.83472E-12-6.84861E-11
 -1      1646 7.25452E-01 1.54112E+00-1.93896E-09-3.88319E-04 4.64086E-12 4.79052E-11
 -1      1647 7.25452E-01 1.54112E+00-1.92867E-09-3.88319E-04-5.44251E-13-9.46991E-12
 -1      1648 7.25452E-01 1.54112E+00-1.92527E-09-3.88319E-04-2.33547E-13-3.95142E-12
 -1      1649 7.25452E-01 1.54112E+00-1.92589E-09-3.88319E-04 2.78860E-13 3.36177E-12
 -1      1650 7.25452E-01 1.54112E+00-1.92529E-09-3.88319E-04-2.87585E-13-3.10846E-12
 -1      1651 7.25452E-01 1.54112E+00-1.92517E-09-3.88319E-04 2.56252E-13 3.00792E-12
 -1      1652 7.25452E-01 1.54112E+00-1.92587E-09-3.88319E-04-3.20190E-13-3.42287E-12
 -1      1653 7.25452E-01 1.54112E+00-1.92528E-09-3.88319E-04 7.87529E-14 3.85962E-12
 -1      1654 7.25452E-01 1.54112E+00-1.92870E-09-3.88319E-04 4.21375E-13 9.44082E-12
 -1      1655 7.25452E-01 1.54112E+00-1.93894E-09-3.88319E-04-4.59225E-12-4.79961E-11
 -1      1656 7.58701E-01 1.50787E+00-1.59284E-09-3.56659E-04 3.52192E-12 4.57061E-11
 -1      1657 7.58701E-01 1.50787E+00-1.58441E-09-3.56659E-04-6.74588E-13-9.04886E-12
 -1      1658 7.58701E-01 1.50787E+00-1.58495E-09-3.56659E-04-1.51367E-13-2.61332E-13
 -1      1659 7.58701E-01 1.50787E+00-1.58612E-09-3.56659E-04 1.23980E-13 1.91129E-12
 -1      1660 7.58701E-01 1.50787E+00-1.58570E-09-3.56659E-04-2.11835E-13-1.94968E-12
 -1      1661 7.58701E-01 1.50787E+00-1.58572E-09-3.56659E-04 1.83461E-13 1.87821E-12
 -1      1662 7.58701E-01 1.50787E+00-1.58607E-09-3.56659E-04-1.24654E-13-1.99506E-12
 -1      1663 7.58701E-01 1.50787E+00-1.58498E-09-3.56659E-04 1.66105E-14 2.06470E-13
 -1      1664 7.58701E-01 1.50787E+00-1.58427E-09-3.56659E-04 7.79687E-13 8.79494E-12
 -1      1665 7.58701E-01 1.50787E+00-1.59270E-09-3.56659E-04-3.54934E-12-4.57444E-11
 -1      1666 7.88045E-01 1.47853E+00-1.32656E-09-3.28718E-04 2.97497E-12 3.57946E-11
 -1      1667 7.88045E-01 1.47853E+00-1.31957E-09-3.28718E-04-6.41680E-13-8.41862E-12
 -1      1668 7.88045E-01 1.47853E+00-1.31950E-09-3.28718E-04 1.69288E-13 3.68701E-13
 -1      1669 7.88045E-01 1.47853E+00-1.31999E-09-3.28718E-04 1.99366E-13 1.18329E-12
 -1      1670 7.88045E-01 1.47853E+00-1.31970E-09-3.28718E-04-1.01470E-13-1.39159E-12
 -1      1671 7.88045E-01 1.47853E+00-1.31960E-09-3.28718E-04 1.38764E-13 1.29829E-12
 -1      1672 7.88045E-01 1.47853E+00-1.31997E-09-3.28718E-04-8.61036E-14-1.22147E-12
 -1      1673 7.88045E-01 1.47853E+00-1.31941E-09-3.28718E-04 8.82751E-14-4.64033E-13
 -1      1674 7.88045E-01 1.47853E+00-1.31969E-09-3.28718E-04 7.14851E-13 8.26753E-12
 -1      1675 7.88045E-01 1.47853E+00-1.32660E-09-3.28718E-04-2.95685E-12-3.56850E-11
 -1      1676 8.14072E-01 1.45250E+00-1.11294E-09-3.03935E-04 2.11715E-12 2.76642E-11
 -1      1677 8.14072E-01 1.45250E+00-1.10753E-09-3.03935E-04-4.94393E-13-4.96446E-12
 -1      1678 8.14072E-01 1.45250E+00-1.10749E-09-3.03935E-04-1.52819E-13-4.23483E-13
 -1      1679 8.14072E-01 1.45250E+00-1.10780E-09-3.03935E-04 6.48816E-14 1.72286E-12
 -1      1680 8.14072E-01 1.45250E+00-1.10760E-09-3.03935E-04-1.41486E-13-1.56967E-12
 -1      1681 8.14072E-01 1.45250E+00-1.10763E-09-3.03935E-04 1.28591E-13 1.54122E-12
 -1      1682 8.14072E-01 1.45250E+00-1.10785E-09-3.03935E-04-8.90754E-14-1.73732E-12
 -1      1683 8.14072E-01 1.45250E+00-1.10751E-09-3.03935E-04-6.82068E-14 3.94404E-13
 -1      1684 8.14072E-01 1.45250E+00-1.10755E-09-3.03935E-04 4.34977E-13 4.95809E-12
 -1      1685 8.14072E-01 1.45250E+00-1.11294E-09-3.03935E-04-2.08942E-12-2.77210E-11
 -1      1686 8.37264E-01 1.42931E+00-9.39910E-10-2.81851E-04 1.68868E-12 1.62492E-11
 -1      1687 8.37264E-01 1.42931E+00-9.33958E-10-2.81851E-04 9.42464E-14-6.78030E-13
 -1      1688 8.37264E-01 1.42931E+00-9.35643E-10-2.81851E-04-1.90302E-13-2.62826E-12
 -1      1689 8.37264E-01 1.42931E+00-9.36420E-10-2.81851E-04 1.42867E-13 2.97454E-12
 -1      1690 8.37264E-01 1.42931E+00-9.36521E-10-2.81851E-04-1.87190E-13-1.91826E-12
 -1      1691 8.37264E-01 1.42931E+00-9.36535E-10-2.81851E-04 1.79340E-13 1.85796E-12
 -1      1692 8.37264E-01 1.42931E+00-9.36332E-10-2.81851E-04-1.94920E-13-2.95616E-12
 -1      1693 8.37264E-01 1.42931E+00-9.35726E-10-2.81851E-04 3.63302E-13 2.67253E-12
 -1      1694 8.37264E-01 1.42931E+00-9.33961E-10-2.81851E-04-8.78416E-14 5.46938E-13
 -1      1695 8.37264E-01 1.42931E+00-9.39996E-10-2.81851E-04-1.76380E-12-1.60915E-11
 -1      1696 8.58018E-01 1.40856E+00-8.06410E-10-2.62089E-04-3.14305E-13 9.25095E-12
 -1      1697 8.58018E-01 1.40856E+00-8.05143E-10-2.62089E-04 2.57884E-13 1.16483E-11
 -1      1698 8.58018E-01 1.40856E+00-8.02916E-10-2.62089E-04-8.00372E-13-4.82446E-12
 -1      1699 8.58018E-01 1.40856E+00-8.02594E-10-2.62089E-04 3.15503E-13 6.53609E-12
 -1      1700 8.58018E-01 1.40856E+00-8.02700E-10-2.62089E-04-3.09646E-13-2.15800E-12
 -1      1701 8.58018E-01 1.40856E+00-8.02781E-10-2.62089E-04 1.39987E-13 2.16331E-12
 -1      1702 8.58018E-01 1.40856E+00-8.02580E-10-2.62089E-04-3.27246E-13-6.49431E-12
 -1      1703 8.58018E-01 1.40856E+00-8.02865E-10-2.62089E-04 7.19613E-13 4.87367E-12
 -1      1704 8.58018E-01 1.40856E+00-8.05135E-10-2.62089E-04-2.85972E-13-1.15925E-11
 -1      1705 8.58018E-01 1.40856E+00-8.06449E-10-2.62089E-04 3.40735E-13-9.28811E-12
 -1      1706 8.76663E-01 1.38991E+00-6.76510E-10-2.44336E-04 1.37984E-12-3.15791E-11
 -1      1707 8.76663E-01 1.38991E+00-6.57771E-10-2.44336E-04 2.55553E-12 2.02822E-11
 -1      1708 8.76663E-01 1.38991E+00-6.72881E-10-2.44336E-04-9.57061E-13-1.34670E-11
 -1      1709 8.76663E-01 1.38991E+00-6.77902E-10-2.44336E-04 6.04326E-13 1.08121E-11
 -1      1710 8.76663E-01 1.38991E+00-6.79296E-10-2.44336E-04-1.92960E-13-2.44751E-12
 -1      1711 8.76663E-01 1.38991E+00-6.79209E-10-2.44336E-04 2.83424E-13 2.50383E-12
 -1      1712 8.76663E-01 1.38991E+00-6.77928E-10-2.44336E-04-4.10454E-13-1.11053E-11
 -1      1713 8.76663E-01 1.38991E+00-6.72831E-10-2.44336E-04 8.86710E-13 1.36078E-11
 -1      1714 8.76663E-01 1.38991E+00-6.57766E-10-2.44336E-04-2.52244E-12-2.03837E-11
 -1      1715 8.76663E-01 1.38991E+00-6.76514E-10-2.44336E-04-1.49207E-12 3.15885E-11
 -1      1716 8.93477E-01 1.37310E+00-6.47876E-10-2.28322E-04-1.38460E-11 4.00705E-12
 -1      1717 8.93477E-01 1.37310E+00-6.82289E-10-2.28322E-04 9.49493E-13 8.96533E-11
 -1      1718 8.93477E-01 1.37310E+00-6.49577E-10-2.28322E-04-3.34382E-12-1.06522E-11
 -1      1719 8.93477E-01 1.37310E+00-6.37347E-10-2.28322E-04 1.03208E-12 2.29132E-11
 -1      1720 8.93477E-01 1.37310E+00-6.34709E-10-2.28322E-04-2.52483E-13-7.80350E-14
 -1      1721 8.93477E-01 1.37310E+00-6.34634E-10-2.28322E-04 1.86440E-13-1.59533E-14
 -1      1722 8.93477E-01 1.37310E+00-6.37390E-10-2.28322E-04-1.11500E-12-2.28950E-11
 -1      1723 8.93477E-01 1.37310E+00-6.49523E-10-2.28322E-04 3.45255E-12 1.06138E-11
 -1      1724 8.93477E-01 1.37310E+00-6.82258E-10-2.28322E-04-8.70055E-13-8.96984E-11
 -1      1725 8.93477E-01 1.37310E+00-6.47783E-10-2.28322E-04 1.39979E-11-3.85903E-12
 -1      1726 9.08691E-01 1.35788E+00-3.64923E-10-2.13849E-04 2.04859E-11-3.42489E-10
 -1      1727 9.08691E-01 1.35788E+00-1.77260E-10-2.13849E-04 1.81132E-11 1.94002E-11
 -1      1728 9.08691E-01 1.35788E+00-2.94648E-10-2.13849E-04-2.01873E-12-8.45404E-11
 -1      1729 9.08691E-01 1.35788E+00-3.33620E-10-2.13849E-04 5.69640E-13 9.20865E-12
 -1      1730 9.08691E-01 1.35788E+00-3.37386E-10-2.13849E-04-4.31626E-13-6.68827E-13
 -1      1731 9.08691E-01 1.35788E+00-3.37390E-10-2.13849E-04 4.34071E-13 6.34982E-13
 -1      1732 9.08691E-01 1.35788E+00-3.33578E-10-2.13849E-04-7.68673E-13-9.33004E-12
 -1      1733 9.08691E-01 1.35788E+00-2.94483E-10-2.13849E-04 1.97640E-12 8.45655E-11
 -1      1734 9.08691E-01 1.35788E+00-1.77247E-10-2.13849E-04-1.81722E-11-1.92504E-11
 -1      1735 9.08691E-01 1.35788E+00-3.64968E-10-2.13849E-04-2.05665E-11 3.42421E-10
 -1      1736 9.22502E-01 1.34407E+00-1.05799E-09-2.00647E-04-1.29162E-10 3.58765E-10
 -1      1737 9.22502E-01 1.34407E+00-1.51679E-09-2.00647E-04-1.73442E-11 5.36822E-10
 -1      1738 9.22502E-01 1.34407E+00-1.14832E-09-2.00647E-04-1.44752E-11-9.29040E-12
 -1      1739 9.22502E-01 1.34407E+00-9.65451E-10-2.00647E-04 3.47714E-12 1.02999E-11
 -1      1740 9.22502E-01 1.34407E+00-8.97258E-10-2.00647E-04 2.57962E-12 3.08034E-12
 -1      1741 9.22502E-01 1.34407E+00-8.97239E-10-2.00647E-04-2.52077E-12-3.18318E-12
 -1      1742 9.22502E-01 1.34407E+00-9.65433E-10-2.00647E-04-3.30564E-12-1.03673E-11
 -1      1743 9.22502E-01 1.34407E+00-1.14835E-09-2.00647E-04 1.43274E-11 9.43206E-12
 -1      1744 9.22502E-01 1.34407E+00-1.51675E-09-2.00647E-04 1.73481E-11-5.36794E-10
 -1      1745 9.22502E-01 1.34407E+00-1.05799E-09-2.00647E-04 1.29195E-10-3.58912E-10
 -1      1746 9.35078E-01 1.33150E+00 1.62427E-09-1.88871E-04 2.68139E-10-3.36182E-09
 -1      1747 9.35078E-01 1.33150E+00 3.74271E-09-1.88871E-04 1.37604E-10-1.12808E-09
 -1      1748 9.35078E-01 1.33150E+00 2.88798E-09-1.88871E-04 8.31406E-12-8.69406E-10
 -1      1749 9.35078E-01 1.33150E+00 2.52095E-09-1.88871E-04-1.25533E-11-3.49804E-10
 -1      1750 9.35078E-01 1.33150E+00 2.49586E-09-1.88871E-04-4.30839E-12-6.17180E-11
 -1      1751 9.35078E-01 1.33150E+00 2.49599E-09-1.88871E-04 4.20838E-12 6.16528E-11
 -1      1752 9.35078E-01 1.33150E+00 2.52094E-09-1.88871E-04 1.21684E-11 3.50024E-10
 -1      1753 9.35078E-01 1.33150E+00 2.88795E-09-1.88871E-04-7.99442E-12 8.69271E-10
 -1      1754 9.35078E-01 1.33150E+00 3.74274E-09-1.88871E-04-1.37353E-10 1.12826E-09
 -1      1755 9.35078E-01 1.33150E+00 1.62432E-09-1.88871E-04-2.67981E-10 3.36186E-09
 -1      1756 9.46561E-01 1.32002E+00-7.86911E-09-1.77175E-04-1.08590E-09 6.13613E-09
 -1      1757 9.46561E-01 1.32002E+00-1.34282E-08-1.77175E-04-2.63222E-10 4.39332E-09
 -1      1758 9.46561E-01 1.32002E+00-1.06051E-08-1.77175E-04-5.41076E-11 7.03886E-10
 -1      1759 9.46561E-01 1.32002E+00-8.90017E-09-1.77175E-04 2.89558E-11-4.33190E-10
 -1      1760 9.46561E-01 1.32002E+00-8.12300E-09-1.77175E-04 2.50929E-11-1.80083E-10
 -1      1761 9.46561E-01 1.32002E+00-8.12313E-09-1.77175E-04-2.50277E-11 1.80207E-10
 -1      1762 9.46561E-01 1.32002E+00-8.90029E-09-1.77175E-04-2.86830E-11 4.33443E-10
 -1      1763 9.46561E-01 1.32002E+00-1.06050E-08-1.77175E-04 5.40208E-11-7.03738E-10
 -1      1764 9.46561E-01 1.32002E+00-1.34282E-08-1.77175E-04 2.63169E-10-4.39340E-09
 -1      1765 9.46561E-01 1.32002E+00-7.86920E-09-1.77175E-04 1.08585E-09-6.13609E-09
 -1      1766 9.57075E-01 1.30950E+00 2.64515E-08-1.70103E-04 2.26400E-09-3.40495E-08
 -1      1767 9.57075E-01 1.30950E+00 4.85255E-08-1.70103E-04 9.53581E-10-1.80209E-08
 -1      1768 9.57075E-01 1.30950E+00 4.37448E-08-1.70102E-04 2.00213E-10-8.29578E-09
 -1      1769 9.57075E-01 1.30950E+00 3.97990E-08-1.70103E-04-9.82813E-11-3.60096E-09
 -1      1770 9.57075E-01 1.30950E+00 3.86936E-08-1.70103E-04-4.75547E-11-8.15177E-10
 -1      1771 9.57075E-01 1.30950E+00 3.86937E-08-1.70103E-04 4.76636E-11 8.15250E-10
 -1      1772 9.57075E-01 1.30950E+00 3.97990E-08-1.70103E-04 9.81807E-11 3.60097E-09
 -1      1773 9.57075E-01 1.30950E+00 4.37449E-08-1.70102E-04-2.00163E-10 8.29580E-09
 -1      1774 9.57075E-01 1.30950E+00 4.85256E-08-1.70103E-04-9.53534E-10 1.80209E-08
 -1      1775 9.57075E-01 1.30950E+00 2.64515E-08-1.70103E-04-2.26387E-09 3.40494E-08
 -1      1776 9.66723E-01 1.29985E+00-1.01565E-07-1.49554E-04-6.12968E-09 8.25209E-08
 -1      1777 9.66723E-01 1.29985E+00-1.65747E-07-1.49554E-04-1.76164E-09 5.38931E-08
 -1      1778 9.66723E-01 1.29985E+00-1.58307E-07-1.49554E-04-1.67097E-10 2.27010E-08
 -1      1779 9.66723E-01 1.29985E+00-1.49296E-07-1.49554E-04 2.68567E-11 2.33691E-09
 -1      1780 9.66723E-01 1.29985E+00-1.43027E-07-1.49554E-04 2.48162E-13-1.25991E-09
 -1      1781 9.66723E-01 1.29985E+00-1.43027E-07-1.49554E-04-4.20795E-14 1.25985E-09
 -1      1782 9.66723E-01 1.29985E+00-1.49296E-07-1.49554E-04-2.68230E-11-2.33687E-09
 -1      1783 9.66723E-01 1.29985E+00-1.58307E-07-1.49554E-04 1.67046E-10-2.27010E-08
 -1      1784 9.66723E-01 1.29985E+00-1.65747E-07-1.49554E-04 1.76164E-09-5.38932E-08
 -1      1785 9.66723E-01 1.29985E+00-1.01565E-07-1.49554E-04 6.12972E-09-8.25208E-08
 -1      1786 9.75608E-01 1.29097E+00 3.59708E-07-1.85170E-04 3.47691E-09-3.26005E-07
 -1      1787 9.75608E-01 1.29097E+00 5.78682E-07-1.85176E-04-1.22842E-09-2.29828E-07
 -1      1788 9.75607E-01 1.29097E+00 6.08245E-07-1.85177E-04 1.29537E-10-8.67766E-08
 -1      1789 9.75607E-01 1.29097E+00 5.80207E-07-1.85178E-04 2.17162E-10-1.68611E-08
 -1      1790 9.75607E-01 1.29097E+00 5.52845E-07-1.85178E-04 7.47273E-11-5.34247E-10
 -1      1791 9.75607E-01 1.29097E+00 5.52845E-07-1.85178E-04-7.47029E-11 5.33984E-10
 -1      1792 9.75607E-01 1.29097E+00 5.80207E-07-1.85178E-04-2.17194E-10 1.68612E-08
 -1      1793 9.75607E-01 1.29097E+00 6.08245E-07-1.85177E-04-1.29509E-10 8.67766E-08
 -1      1794 9.75608E-01 1.29097E+00 5.78682E-07-1.85176E-04 1.22851E-09 2.29828E-07
 -1      1795 9.75608E-01 1.29097E+00 3.59708E-07-1.85170E-04-3.47697E-09 3.26005E-07
 -1      1796 9.83771E-01 1.28280E+00-1.51637E-06-5.78525E-06 3.06869E-08 9.89690E-07
 -1      1797 9.83772E-01 1.28280E+00-2.11124E-06-5.77151E-06 5.21663E-09 6.05517E-07
 -1      1798 9.83772E-01 1.28280E+00-2.31738E-06-5.77329E-06-1.54879E-09 3.23532E-07
 -1      1799 9.83772E-01 1.28280E+00-2.35536E-06-5.77340E-06-5.18488E-10 1.63614E-07
 -1      1800 9.83772E-01 1.28280E+00-2.36049E-06-5.77400E-06-1.41762E-10 5.03924E-08
 -1      1801 9.83772E-01 1.28280E+00-2.36049E-06-5.77400E-06 1.41840E-10-5.03924E-08
 -1      1802 9.83772E-01 1.28280E+00-2.35536E-06-5.77340E-06 5.18543E-10-1.63614E-07
 -1      1803 9.83772E-01 1.28280E+00-2.31738E-06-5.77329E-06 1.54896E-09-3.23532E-07
 -1      1804 9.83772E-01 1.28280E+00-2.11124E-06-5.77151E-06-5.21667E-09-6.05517E-07
 -1      1805 9.83771E-01 1.28280E+00-1.51637E-06-5.78525E-06-3.06867E-08-9.89690E-07
 -1      1806 9.91498E-01 1.27508E+00 8.34010E-07-1.18519E-03-8.69235E-08-9.78683E-07
 -1      1807 9.91498E-01 1.27508E+00 1.28235E-06-1.18518E-03-2.14610E-09-3.62513E-07
 -1      1808 9.91498E-01 1.27509E+00 1.54680E-06-1.18518E-03 2.67673E-09-1.69735E-07
 -1      1809 9.91498E-01 1.27509E+00 1.71479E-06-1.18519E-03-3.41276E-09-9.33711E-08
 -1      1810 9.91498E-01 1.27509E+00 1.80020E-06-1.18520E-03-1.86575E-09-3.08887E-08
 -1      1811 9.91498E-01 1.27509E+00 1.80020E-06-1.18520E-03 1.86569E-09 3.08887E-08
 -1      1812 9.91498E-01 1.27509E+00 1.71479E-06-1.18519E-03 3.41264E-09 9.33711E-08
 -1      1813 9.91498E-01 1.27509E+00 1.54680E-06-1.18518E-03-2.67697E-09 1.69735E-07
 -1      1814 9.91498E-01 1.27508E+00 1.28235E-06-1.18518E-03 2.14601E-09 3.62512E-07
 -1      1815 9.91498E-01 1.27508E+00 8.34010E-07-1.18519E-03 8.69233E-08 9.78683E-07
 -1      1816-6.44451E-01 2.91103E+00-7.89883E-07 6.73921E-04-7.19231E-08-5.08863E-06
 -1      1817-8.26580E-01 3.09318E+00 4.01063E-06 4.28186E-03 3.06087E-08 7.57476E-07
 -1      1819-6.44451E-01 2.91103E+00 9.43211E-07 6.73909E-04-7.46728E-09-3.39998E-06
 -1      1820-8.26583E-01 3.09318E+00 5.52108E-06 4.28183E-03 1.46209E-08 2.57179E-08
 -1      1822-6.44451E-01 2.91103E+00 2.16350E-06 6.73903E-04 6.61377E-09-1.13779E-06
 -1      1823-8.26584E-01 3.09318E+00 6.26471E-06 4.28182E-03 3.24885E-09-1.50447E-07
 -1      1825-6.44451E-01 2.91103E+00 2.53748E-06 6.73895E-04 2.85493E-09-4.10344E-07
 -1      1826-8.26584E-01 3.09318E+00 6.48296E-06 4.28181E-03 1.17318E-10-1.40041E-07
 -1      1828-6.44451E-01 2.91103E+00 2.53990E-06 6.73893E-04 8.00705E-10-1.51931E-07
 -1      1829-8.26584E-01 3.09318E+00 6.54639E-06 4.28181E-03-2.76986E-11-5.33785E-08
 -1      1831-6.44451E-01 2.91103E+00 2.51419E-06 6.73893E-04-5.67551E-15-5.32023E-14
 -1      1832-8.26584E-01 3.09318E+00 6.54639E-06 4.28181E-03 2.77400E-11 5.33784E-08
 -1      1834-6.44451E-01 2.91103E+00 2.53990E-06 6.73893E-04-8.00668E-10 1.51931E-07
 -1      1835-8.26584E-01 3.09318E+00 6.48296E-06 4.28181E-03-1.17297E-10 1.40041E-07
 -1      1837-6.44451E-01 2.91103E+00 2.53748E-06 6.73895E-04-2.85482E-09 4.10344E-07
 -1      1838-8.26584E-01 3.09318E+00 6.26471E-06 4.28182E-03-3.24882E-09 1.50447E-07
 -1      1840-6.44451E-01 2.91103E+00 2.16350E-06 6.73903E-04-6.61375E-09 1.13779E-06
 -1      1841-8.26583E-01 3.09318E+00 5.52108E-06 4.28183E-03-1.46209E-08-2.57178E-08
 -1      1843-6.44451E-01 2.91103E+00 9.43211E-07 6.73909E-04 7.46728E-09 3.39998E-06
 -1      1844-8.26580E-01 3.09318E+00 4.01063E-06 4.28186E-03-3.06087E-08-7.57476E-07
 -1      1846-6.44451E-01 2.91103E+00-7.89883E-07 6.73921E-04 7.19231E-08 5.08863E-06
 -1      1848-3.61023E-01 2.62761E+00 3.08325E-06-1.96811E-03 3.47139E-08 2.64229E-06
 -1      1849-5.02784E-01 2.76933E+00-4.45671E-06-9.03198E-04-3.08575E-09-8.54194E-07
 -1      1851-3.61021E-01 2.62762E+00 5.82964E-06-1.96809E-03 3.63864E-08 2.65480E-06
 -1      1852-5.02783E-01 2.76933E+00-6.49856E-06-9.03150E-04-2.24702E-08-2.49132E-07
 -1      1854-3.61022E-01 2.62762E+00 6.20115E-06-1.96811E-03 8.94014E-09 1.24013E-06
 -1      1855-5.02783E-01 2.76933E+00-7.70149E-06-9.03125E-04-6.69988E-09-7.93940E-08
 -1      1857-3.61023E-01 2.62762E+00 5.85651E-06-1.96811E-03-8.90215E-10 4.85723E-07
 -1      1858-5.02783E-01 2.76933E+00-8.16589E-06-9.03119E-04-1.04567E-09-5.70085E-09
 -1      1860-3.61023E-01 2.62762E+00 5.67414E-06-1.96811E-03-9.40623E-10 1.80927E-07
 -1      1861-5.02783E-01 2.76933E+00-8.30741E-06-9.03118E-04-7.31041E-11 4.43186E-09
 -1      1863-3.61023E-01 2.62762E+00 5.62755E-06-1.96811E-03-2.11205E-14 1.12048E-13
 -1      1864-5.02783E-01 2.76933E+00-8.30741E-06-9.03118E-04 7.30767E-11-4.43186E-09
 -1      1866-3.61023E-01 2.62762E+00 5.67414E-06-1.96811E-03 9.40580E-10-1.80927E-07
 -1      1867-5.02783E-01 2.76933E+00-8.16589E-06-9.03119E-04 1.04569E-09 5.70072E-09
 -1      1869-3.61023E-01 2.62762E+00 5.85651E-06-1.96811E-03 8.90161E-10-4.85723E-07
 -1      1870-5.02783E-01 2.76933E+00-7.70149E-06-9.03125E-04 6.69992E-09 7.93940E-08
 -1      1872-3.61022E-01 2.62762E+00 6.20115E-06-1.96811E-03-8.94015E-09-1.24013E-06
 -1      1873-5.02783E-01 2.76933E+00-6.49856E-06-9.03150E-04 2.24701E-08 2.49132E-07
 -1      1875-3.61021E-01 2.62762E+00 5.82964E-06-1.96809E-03-3.63864E-08-2.65480E-06
 -1      1876-5.02784E-01 2.76933E+00-4.45671E-06-9.03198E-04 3.08579E-09 8.54194E-07
 -1      1878-3.61023E-01 2.62761E+00 3.08325E-06-1.96811E-03-3.47139E-08-2.64229E-06
 -1      1880-1.40720E-01 2.40729E+00-5.00514E-07-1.07276E-03 6.21317E-08-4.65625E-07
 -1      1881-2.50984E-01 2.51757E+00 6.63530E-07-1.48402E-03-5.14999E-08 2.40078E-07
 -1      1883-1.40721E-01 2.40729E+00-1.37674E-06-1.07278E-03 6.34785E-09-8.53642E-07
 -1      1884-2.50984E-01 2.51757E+00 1.36915E-06-1.48402E-03 4.54171E-09 2.91847E-07
 -1      1886-1.40721E-01 2.40729E+00-1.83505E-06-1.07277E-03-5.99717E-09-5.20859E-07
 -1      1887-2.50985E-01 2.51757E+00 1.91468E-06-1.48404E-03 6.77218E-09 2.94381E-07
 -1      1889-1.40720E-01 2.40729E+00-1.71149E-06-1.07276E-03-1.78331E-09-1.52483E-07
 -1      1890-2.50985E-01 2.51757E+00 2.23796E-06-1.48405E-03 2.55414E-09 1.75645E-07
 -1      1892-1.40720E-01 2.40729E+00-1.54308E-06-1.07276E-03-1.75855E-10-1.96294E-08
 -1      1893-2.50985E-01 2.51757E+00 2.34285E-06-1.48405E-03 5.91318E-10 5.60731E-08
 -1      1895-1.40720E-01 2.40729E+00-1.48707E-06-1.07276E-03 1.00410E-14-1.28549E-13
 -1      1896-2.50985E-01 2.51757E+00 2.34285E-06-1.48405E-03-5.91348E-10-5.60731E-08
 -1      1898-1.40720E-01 2.40729E+00-1.54308E-06-1.07276E-03 1.75817E-10 1.96295E-08
 -1      1899-2.50985E-01 2.51757E+00 2.23796E-06-1.48405E-03-2.55415E-09-1.75645E-07
 -1      1901-1.40720E-01 2.40729E+00-1.71149E-06-1.07276E-03 1.78336E-09 1.52483E-07
 -1      1902-2.50985E-01 2.51757E+00 1.91468E-06-1.48404E-03-6.77220E-09-2.94381E-07
 -1      1904-1.40721E-01 2.40729E+00-1.83505E-06-1.07277E-03 5.99716E-09 5.20859E-07
 -1      1905-2.50984E-01 2.51757E+00 1.36915E-06-1.48402E-03-4.54171E-09-2.91847E-07
 -1      1907-1.40721E-01 2.40729E+00-1.37674E-06-1.07278E-03-6.34783E-09 8.53642E-07
 -1      1908-2.50984E-01 2.51757E+00 6.63529E-07-1.48402E-03 5.14999E-08-2.40078E-07
 -1      1910-1.40720E-01 2.40729E+00-5.00514E-07-1.07276E-03-6.21316E-08 4.65625E-07
 -1      1912 3.43432E-02 2.23223E+00 2.17973E-07-1.08190E-03-3.06130E-08 1.54735E-07
 -1      1913-5.32561E-02 2.31983E+00-2.14672E-07-1.08743E-03 3.02493E-08-1.43074E-07
 -1      1915 3.43433E-02 2.23223E+00 3.29008E-07-1.08189E-03-1.09585E-08 1.69643E-07
 -1      1916-5.32561E-02 2.31983E+00-4.17382E-07-1.08743E-03 4.06844E-09-9.32809E-08
 -1      1918 3.43432E-02 2.23223E+00 4.08086E-07-1.08189E-03 2.63891E-10 1.19142E-07
 -1      1919-5.32560E-02 2.31983E+00-4.88447E-07-1.08743E-03-3.31894E-09-9.73893E-08
 -1      1921 3.43432E-02 2.23223E+00 4.06402E-07-1.08189E-03 1.80090E-09 4.05761E-08
 -1      1922-5.32559E-02 2.31983E+00-5.65868E-07-1.08742E-03-2.27859E-09-5.54539E-08
 -1      1924 3.43432E-02 2.23223E+00 3.58587E-07-1.08189E-03 7.43448E-10-3.78914E-10
 -1      1925-5.32559E-02 2.31983E+00-5.97333E-07-1.08742E-03-6.19539E-10-1.57923E-08
 -1      1927 3.43432E-02 2.23223E+00 3.36395E-07-1.08189E-03-5.22069E-14-3.16918E-14
 -1      1928-5.32559E-02 2.31983E+00-5.97333E-07-1.08742E-03 6.19486E-10 1.57922E-08
 -1      1930 3.43432E-02 2.23223E+00 3.58587E-07-1.08189E-03-7.43466E-10 3.78936E-10
 -1      1931-5.32559E-02 2.31983E+00-5.65868E-07-1.08742E-03 2.27859E-09 5.54539E-08
 -1      1933 3.43432E-02 2.23223E+00 4.06402E-07-1.08189E-03-1.80101E-09-4.05760E-08
 -1      1934-5.32560E-02 2.31983E+00-4.88447E-07-1.08743E-03 3.31888E-09 9.73894E-08
 -1      1936 3.43432E-02 2.23223E+00 4.08086E-07-1.08189E-03-2.63986E-10-1.19142E-07
 -1      1937-5.32561E-02 2.31983E+00-4.17382E-07-1.08743E-03-4.06848E-09 9.32809E-08
 -1      1939 3.43433E-02 2.23223E+00 3.29007E-07-1.08189E-03 1.09585E-08-1.69643E-07
 -1      1940-5.32561E-02 2.31983E+00-2.14672E-07-1.08743E-03-3.02493E-08 1.43075E-07
 -1      1942 3.43432E-02 2.23223E+00 2.17973E-07-1.08190E-03 3.06130E-08-1.54735E-07
 -1      1944 1.75659E-01 2.09092E+00-5.26231E-08-9.02467E-04 1.22956E-08-3.75720E-08
 -1      1945 1.04956E-01 2.16162E+00 6.18186E-08-9.89669E-04-1.03773E-08 6.68497E-08
 -1      1947 1.75659E-01 2.09092E+00-1.18941E-07-9.02470E-04 3.96090E-09-5.42926E-08
 -1      1948 1.04956E-01 2.16162E+00 1.34142E-07-9.89669E-04-2.08465E-09 2.64007E-08
 -1      1950 1.75659E-01 2.09092E+00-1.31673E-07-9.02470E-04 4.84938E-10-2.84390E-08
 -1      1951 1.04956E-01 2.16162E+00 1.35635E-07-9.89670E-04 7.41664E-10 1.45684E-08
 -1      1953 1.75659E-01 2.09092E+00-1.23878E-07-9.02469E-04-5.78142E-10-1.18440E-08
 -1      1954 1.04956E-01 2.16162E+00 1.44013E-07-9.89671E-04 1.07234E-09 8.93188E-09
 -1      1956 1.75659E-01 2.09092E+00-1.18132E-07-9.02468E-04-4.98564E-10-3.68483E-09
 -1      1957 1.04956E-01 2.16162E+00 1.52045E-07-9.89672E-04 3.71384E-10 2.67211E-09
 -1      1959 1.75659E-01 2.09092E+00-1.14517E-07-9.02468E-04-9.35104E-15 2.39865E-14
 -1      1960 1.04956E-01 2.16162E+00 1.52045E-07-9.89672E-04-3.71427E-10-2.67213E-09
 -1      1962 1.75659E-01 2.09092E+00-1.18132E-07-9.02468E-04 4.98571E-10 3.68472E-09
 -1      1963 1.04956E-01 2.16162E+00 1.44013E-07-9.89671E-04-1.07233E-09-8.93185E-09
 -1      1965 1.75659E-01 2.09092E+00-1.23878E-07-9.02469E-04 5.78148E-10 1.18441E-08
 -1      1966 1.04956E-01 2.16162E+00 1.35635E-07-9.89670E-04-7.41753E-10-1.45683E-08
 -1      1968 1.75659E-01 2.09092E+00-1.31673E-07-9.02470E-04-4.84955E-10 2.84392E-08
 -1      1969 1.04956E-01 2.16162E+00 1.34142E-07-9.89669E-04 2.08462E-09-2.64006E-08
 -1      1971 1.75659E-01 2.09092E+00-1.18941E-07-9.02470E-04-3.96095E-09 5.42926E-08
 -1      1972 1.04956E-01 2.16162E+00 6.18186E-08-9.89669E-04 1.03773E-08-6.68497E-08
 -1      1974 1.75659E-01 2.09092E+00-5.26231E-08-9.02467E-04-1.22956E-08 3.75720E-08
 -1      1976 2.91393E-01 1.97518E+00 1.08552E-08-8.03905E-04-4.21158E-09 1.08533E-08
 -1      1977 2.33496E-01 2.03308E+00-1.09867E-08-8.53799E-04 3.95224E-09-1.79335E-08
 -1      1979 2.91393E-01 1.97518E+00 1.09854E-08-8.03904E-04-1.61932E-09 1.10152E-08
 -1      1980 2.33496E-01 2.03308E+00-3.02400E-08-8.53800E-04 6.39332E-10-1.10120E-08
 -1      1982 2.91393E-01 1.97518E+00 1.97186E-08-8.03904E-04-8.50538E-11 8.90491E-09
 -1      1983 2.33496E-01 2.03308E+00-2.87686E-08-8.53799E-04-2.47571E-10-6.12391E-09
 -1      1985 2.91393E-01 1.97518E+00 1.81058E-08-8.03904E-04 1.71507E-10 2.77735E-09
 -1      1986 2.33496E-01 2.03308E+00-3.12398E-08-8.53799E-04-3.17527E-10-2.69295E-09
 -1      1988 2.91393E-01 1.97518E+00 1.47440E-08-8.03904E-04 1.52414E-10 5.38546E-10
 -1      1989 2.33496E-01 2.03308E+00-3.29634E-08-8.53799E-04-1.35957E-10-9.52723E-10
 -1      1991 2.91393E-01 1.97518E+00 1.41931E-08-8.03904E-04-2.97384E-14-1.40249E-14
 -1      1992 2.33496E-01 2.03308E+00-3.29635E-08-8.53799E-04 1.35914E-10 9.52667E-10
 -1      1994 2.91393E-01 1.97518E+00 1.47439E-08-8.03904E-04-1.52460E-10-5.38459E-10
 -1      1995 2.33496E-01 2.03308E+00-3.12399E-08-8.53799E-04 3.17522E-10 2.69303E-09
 -1      1997 2.91393E-01 1.97518E+00 1.81058E-08-8.03904E-04-1.71513E-10-2.77736E-09
 -1      1998 2.33496E-01 2.03308E+00-2.87686E-08-8.53799E-04 2.47558E-10 6.12400E-09
 -1      2000 2.91393E-01 1.97518E+00 1.97186E-08-8.03904E-04 8.50538E-11-8.90480E-09
 -1      2001 2.33496E-01 2.03308E+00-3.02400E-08-8.53800E-04-6.39305E-10 1.10120E-08
 -1      2003 2.91393E-01 1.97518E+00 1.09854E-08-8.03904E-04 1.61942E-09-1.10153E-08
 -1      2004 2.33496E-01 2.03308E+00-1.09867E-08-8.53799E-04-3.95226E-09 1.79335E-08
 -1      2006 2.91393E-01 1.97518E+00 1.08552E-08-8.03905E-04 4.21159E-09-1.08534E-08
 -1      2008 3.87357E-01 1.87922E+00-1.00702E-08-7.09599E-04 1.34948E-09-3.12666E-09
 -1      2009 3.39354E-01 1.92722E+00 8.93631E-09-7.56445E-04-1.08380E-09 8.06554E-09
 -1      2011 3.87357E-01 1.87922E+00-1.62989E-08-7.09599E-04 4.79065E-10-3.36316E-09
 -1      2012 3.39354E-01 1.92722E+00 1.54899E-08-7.56445E-04-3.00808E-10 2.49108E-09
 -1      2014 3.87357E-01 1.87922E+00-1.48916E-08-7.09599E-04 9.00692E-11-1.26229E-09
 -1      2015 3.39354E-01 1.92722E+00 1.33760E-08-7.56446E-04 7.41669E-11 1.61919E-09
 -1      2017 3.87357E-01 1.87922E+00-1.51653E-08-7.09599E-04-6.94012E-11-8.58708E-10
 -1      2018 3.39354E-01 1.92722E+00 1.34347E-08-7.56446E-04 1.14458E-10 7.79198E-10
 -1      2020 3.87357E-01 1.87922E+00-1.47773E-08-7.09599E-04-5.08074E-11-1.21897E-10
 -1      2021 3.39354E-01 1.92722E+00 1.39741E-08-7.56446E-04 3.56176E-11 1.30640E-10
 -1      2023 3.87357E-01 1.87922E+00-1.42474E-08-7.09599E-04 5.53350E-15-2.37868E-14
 -1      2024 3.39354E-01 1.92722E+00 1.39741E-08-7.56446E-04-3.56348E-11-1.30621E-10
 -1      2026 3.87357E-01 1.87922E+00-1.47773E-08-7.09599E-04 5.08135E-11 1.21851E-10
 -1      2027 3.39354E-01 1.92722E+00 1.34347E-08-7.56446E-04-1.14481E-10-7.79189E-10
 -1      2029 3.87357E-01 1.87922E+00-1.51653E-08-7.09599E-04 6.93409E-11 8.58682E-10
 -1      2030 3.39354E-01 1.92722E+00 1.33760E-08-7.56446E-04-7.41996E-11-1.61910E-09
 -1      2032 3.87357E-01 1.87922E+00-1.48915E-08-7.09599E-04-9.01491E-11 1.26244E-09
 -1      2033 3.39354E-01 1.92722E+00 1.54899E-08-7.56445E-04 3.00794E-10-2.49107E-09
 -1      2035 3.87357E-01 1.87922E+00-1.62988E-08-7.09599E-04-4.79210E-10 3.36301E-09
 -1      2036 3.39354E-01 1.92722E+00 8.93625E-09-7.56445E-04 1.08377E-09-8.06552E-09
 -1      2038 3.87357E-01 1.87922E+00-1.00702E-08-7.09599E-04-1.34956E-09 3.12653E-09
 -1      2040 4.67810E-01 1.79877E+00-3.97523E-09-6.33779E-04-4.43096E-10 5.67751E-10
 -1      2041 4.27569E-01 1.83901E+00 1.99294E-09-6.71589E-04 3.90004E-10-1.53811E-09
 -1      2043 4.67810E-01 1.79877E+00-4.94365E-09-6.33779E-04-1.60435E-10 7.69203E-10
 -1      2044 4.27569E-01 1.83901E+00 4.62161E-10-6.71589E-04 5.20987E-11-1.08350E-09
 -1      2046 4.67810E-01 1.79877E+00-3.62261E-09-6.33779E-04-1.09380E-11 7.08273E-10
 -1      2047 4.27569E-01 1.83901E+00 1.10419E-09-6.71589E-04-4.92874E-12-1.77554E-10
 -1      2049 4.67810E-01 1.79877E+00-4.16095E-09-6.33779E-04 8.64857E-12 1.59875E-10
 -1      2050 4.27569E-01 1.83901E+00 1.20968E-09-6.71589E-04-3.29376E-11-7.18528E-11
 -1      2052 4.67810E-01 1.79877E+00-4.22681E-09-6.33779E-04 1.89819E-11 1.43581E-10
 -1      2053 4.27569E-01 1.83901E+00 1.11938E-09-6.71589E-04-1.57934E-11-4.87722E-11
 -1      2055 4.67810E-01 1.79877E+00-4.15963E-09-6.33779E-04 3.83097E-14-4.02006E-14
 -1      2056 4.27569E-01 1.83901E+00 1.11939E-09-6.71589E-04 1.58339E-11 4.86944E-11
 -1      2058 4.67810E-01 1.79877E+00-4.22675E-09-6.33779E-04-1.89321E-11-1.43633E-10
 -1      2059 4.27569E-01 1.83901E+00 1.20973E-09-6.71589E-04 3.29556E-11 7.18411E-11
 -1      2061 4.67810E-01 1.79877E+00-4.16092E-09-6.33779E-04-8.57143E-12-1.59794E-10
 -1      2062 4.27569E-01 1.83901E+00 1.10429E-09-6.71589E-04 4.90947E-12 1.77475E-10
 -1      2064 4.67810E-01 1.79877E+00-3.62255E-09-6.33779E-04 1.09677E-11-7.08411E-10
 -1      2065 4.27569E-01 1.83901E+00 4.62195E-10-6.71589E-04-5.21178E-11 1.08348E-09
 -1      2067 4.67810E-01 1.79877E+00-4.94357E-09-6.33779E-04 1.60421E-10-7.69109E-10
 -1      2068 4.27569E-01 1.83901E+00 1.99302E-09-6.71589E-04-3.90126E-10 1.53797E-09
 -1      2070 4.67810E-01 1.79877E+00-3.97526E-09-6.33779E-04 4.43062E-10-5.67771E-10
 -1      2072 5.35921E-01 1.73065E+00-4.73534E-09-5.68739E-04 1.11211E-10-4.40366E-10
 -1      2073 5.01855E-01 1.76472E+00 3.03725E-09-6.01096E-04-9.35368E-11 7.97968E-10
 -1      2075 5.35921E-01 1.73065E+00-5.42687E-09-5.68739E-04 4.82251E-11-1.68855E-10
 -1      2076 5.01855E-01 1.76472E+00 3.58176E-09-6.01096E-04-3.44246E-11 1.84605E-10
 -1      2078 5.35921E-01 1.73065E+00-4.95930E-09-5.68739E-04 1.02400E-11-2.57667E-11
 -1      2079 5.01855E-01 1.76472E+00 3.27814E-09-6.01096E-04 8.95737E-12 2.27744E-10
 -1      2081 5.35921E-01 1.73065E+00-5.18637E-09-5.68739E-04-7.23402E-12-7.77004E-11
 -1      2082 5.01855E-01 1.76472E+00 3.27994E-09-6.01096E-04 7.97458E-12 6.50143E-11
 -1      2084 5.35921E-01 1.73065E+00-5.07948E-09-5.68739E-04-3.15845E-12 2.02218E-11
 -1      2085 5.01855E-01 1.76472E+00 3.30977E-09-6.01096E-04 3.09530E-12 1.27137E-11
 -1      2087 5.35921E-01 1.73065E+00-5.04038E-09-5.68739E-04-4.10219E-14 2.35294E-14
 -1      2088 5.01855E-01 1.76472E+00 3.30979E-09-6.01096E-04-3.09031E-12-1.27860E-11
 -1      2090 5.35921E-01 1.73065E+00-5.07943E-09-5.68739E-04 3.14206E-12-2.04563E-11
 -1      2091 5.01855E-01 1.76472E+00 3.27995E-09-6.01096E-04-7.96356E-12-6.50552E-11
 -1      2093 5.35921E-01 1.73065E+00-5.18633E-09-5.68739E-04 7.16133E-12 7.76753E-11
 -1      2094 5.01855E-01 1.76472E+00 3.27818E-09-6.01096E-04-8.97438E-12-2.27686E-10
 -1      2096 5.35921E-01 1.73065E+00-4.95924E-09-5.68739E-04-1.03319E-11 2.59494E-11
 -1      2097 5.01855E-01 1.76472E+00 3.58190E-09-6.01096E-04 3.44064E-11-1.84566E-10
 -1      2099 5.35921E-01 1.73065E+00-5.42683E-09-5.68739E-04-4.82629E-11 1.68829E-10
 -1      2100 5.01855E-01 1.76472E+00 3.03726E-09-6.01096E-04 9.35081E-11-7.97962E-10
 -1      2102 5.35921E-01 1.73065E+00-4.73532E-09-5.68739E-04-1.11232E-10 4.40412E-10
 -1      2104 5.94091E-01 1.67248E+00-3.50565E-09-5.13407E-04-5.09287E-11-1.11176E-10
 -1      2105 5.64999E-01 1.70158E+00 1.94027E-09-5.40933E-04 3.20177E-11-1.43426E-10
 -1      2107 5.94091E-01 1.67248E+00-3.65386E-09-5.13407E-04-1.11259E-11 8.53780E-11
 -1      2108 5.64999E-01 1.70158E+00 1.82474E-09-5.40933E-04 2.21529E-12-1.16219E-10
 -1      2110 5.94091E-01 1.67248E+00-3.43635E-09-5.13407E-04-1.39780E-12 4.78243E-11
 -1      2111 5.64999E-01 1.70158E+00 1.90583E-09-5.40933E-04 2.49233E-12 2.22930E-11
 -1      2113 5.94091E-01 1.67248E+00-3.57412E-09-5.13407E-04-2.57294E-13-2.33426E-12
 -1      2114 5.64999E-01 1.70158E+00 1.93969E-09-5.40933E-04-3.72185E-12-8.75598E-12
 -1      2116 5.94091E-01 1.67248E+00-3.52481E-09-5.13407E-04 2.10660E-12 2.12042E-11
 -1      2117 5.64999E-01 1.70158E+00 1.93338E-09-5.40933E-04-1.06590E-12 1.71922E-12
 -1      2119 5.94091E-01 1.67248E+00-3.53235E-09-5.13407E-04-2.47722E-15-2.96270E-14
 -1      2120 5.64999E-01 1.70158E+00 1.93339E-09-5.40933E-04 1.03579E-12-1.81202E-12
 -1      2122 5.94091E-01 1.67248E+00-3.52478E-09-5.13407E-04-2.09262E-12-2.13592E-11
 -1      2123 5.64999E-01 1.70158E+00 1.93973E-09-5.40933E-04 3.74788E-12 8.57293E-12
 -1      2125 5.94091E-01 1.67248E+00-3.57406E-09-5.13407E-04 3.66647E-13 2.27933E-12
 -1      2126 5.64999E-01 1.70158E+00 1.90589E-09-5.40933E-04-2.50072E-12-2.21545E-11
 -1      2128 5.94091E-01 1.67248E+00-3.43630E-09-5.13407E-04 1.38858E-12-4.78083E-11
 -1      2129 5.64999E-01 1.70158E+00 1.82473E-09-5.40933E-04-2.28014E-12 1.16261E-10
 -1      2131 5.94091E-01 1.67248E+00-3.65385E-09-5.13407E-04 1.10563E-11-8.53188E-11
 -1      2132 5.64999E-01 1.70158E+00 1.94029E-09-5.40933E-04-3.20679E-11 1.43462E-10
 -1      2134 5.94091E-01 1.67248E+00-3.50565E-09-5.13407E-04 5.08371E-11 1.11142E-10
 -1      2136 6.44163E-01 1.62241E+00-2.95825E-09-4.65719E-04 6.26926E-13-1.51780E-10
 -1      2137 6.19121E-01 1.64745E+00 1.67640E-09-4.89428E-04-9.58352E-12 3.86961E-11
 -1      2139 6.44163E-01 1.62241E+00-2.99269E-09-4.65719E-04 6.60027E-12 1.98403E-11
 -1      2140 6.19121E-01 1.64745E+00 1.70854E-09-4.89428E-04-3.38084E-12 7.83427E-12
 -1      2142 6.44163E-01 1.62241E+00-2.91318E-09-4.65719E-04 5.53231E-13-5.26553E-12
 -1      2143 6.19121E-01 1.64745E+00 1.67395E-09-4.89428E-04 1.41395E-12 2.89910E-11
 -1      2145 6.44163E-01 1.62241E+00-2.97374E-09-4.65719E-04-7.14493E-13-1.00458E-11
 -1      2146 6.19121E-01 1.64745E+00 1.67753E-09-4.89428E-04-1.05164E-14-2.21409E-12
 -1      2148 6.44163E-01 1.62241E+00-2.93954E-09-4.65719E-04-4.14717E-14 4.42255E-12
 -1      2149 6.19121E-01 1.64745E+00 1.67701E-09-4.89428E-04 5.15125E-13 3.74472E-12
 -1      2151 6.44163E-01 1.62241E+00-2.95064E-09-4.65719E-04 4.15157E-14-8.91021E-14
 -1      2152 6.19121E-01 1.64745E+00 1.67701E-09-4.89428E-04-4.74287E-13-3.88271E-12
 -1      2154 6.44163E-01 1.62241E+00-2.93963E-09-4.65719E-04 1.05127E-13-4.43667E-12
 -1      2155 6.19121E-01 1.64745E+00 1.67756E-09-4.89428E-04 3.69657E-14 2.05557E-12
 -1      2157 6.44163E-01 1.62241E+00-2.97375E-09-4.65719E-04 6.73796E-13 1.00015E-11
 -1      2158 6.19121E-01 1.64745E+00 1.67396E-09-4.89428E-04-1.36763E-12-2.90068E-11
 -1      2160 6.44163E-01 1.62241E+00-2.91318E-09-4.65719E-04-4.78121E-13 5.25483E-12
 -1      2161 6.19121E-01 1.64745E+00 1.70849E-09-4.89428E-04 3.40849E-12-7.77090E-12
 -1      2163 6.44163E-01 1.62241E+00-2.99270E-09-4.65719E-04-6.43067E-12-1.97680E-11
 -1      2164 6.19121E-01 1.64745E+00 1.67642E-09-4.89428E-04 9.62597E-12-3.87399E-11
 -1      2166 6.44163E-01 1.62241E+00-2.95820E-09-4.65719E-04-5.36873E-13 1.51615E-10
 -1      2168 6.87573E-01 1.57900E+00-2.38284E-09-4.24388E-04-1.10867E-11-9.87142E-11
 -1      2169 6.65864E-01 1.60071E+00 1.30484E-09-4.44932E-04 2.87441E-13-4.19832E-11
 -1      2171 6.87573E-01 1.57900E+00-2.35579E-09-4.24388E-04 1.12070E-12 3.04327E-11
 -1      2172 6.65864E-01 1.60071E+00 1.28917E-09-4.44932E-04 3.65881E-13-9.19902E-12
 -1      2174 6.87573E-01 1.57900E+00-2.33270E-09-4.24388E-04-5.60305E-13-3.58292E-12
 -1      2175 6.65864E-01 1.60071E+00 1.29632E-09-4.44932E-04 6.10355E-13 4.75520E-12
 -1      2177 6.87573E-01 1.57900E+00-2.36046E-09-4.24388E-04-4.72398E-14-1.47199E-12
 -1      2178 6.65864E-01 1.60071E+00 1.30141E-09-4.44932E-04-6.04357E-13-4.87275E-12
 -1      2180 6.87573E-01 1.57900E+00-2.34315E-09-4.24388E-04 2.08019E-13 2.26819E-12
 -1      2181 6.65864E-01 1.60071E+00 1.29989E-09-4.44932E-04 1.16642E-13 2.06592E-12
 -1      2183 6.87573E-01 1.57900E+00-2.35259E-09-4.24388E-04-3.54888E-14-5.86144E-14
 -1      2184 6.65864E-01 1.60071E+00 1.29986E-09-4.44932E-04-8.51067E-14-2.11619E-12
 -1      2186 6.87573E-01 1.57900E+00-2.34316E-09-4.24388E-04-2.29729E-13-2.30943E-12
 -1      2187 6.65864E-01 1.60071E+00 1.30132E-09-4.44932E-04 5.71886E-13 4.84983E-12
 -1      2189 6.87573E-01 1.57900E+00-2.36045E-09-4.24388E-04 8.55203E-14 1.50522E-12
 -1      2190 6.65864E-01 1.60071E+00 1.29644E-09-4.44932E-04-5.42609E-13-4.73040E-12
 -1      2192 6.87573E-01 1.57900E+00-2.33265E-09-4.24388E-04 6.38046E-13 3.58942E-12
 -1      2193 6.65864E-01 1.60071E+00 1.28922E-09-4.44932E-04-2.69350E-13 9.20031E-12
 -1      2195 6.87573E-01 1.57900E+00-2.35573E-09-4.24388E-04-1.11052E-12-3.05552E-11
 -1      2196 6.65864E-01 1.60071E+00 1.30490E-09-4.44932E-04-2.26806E-13 4.18972E-11
 -1      2198 6.87573E-01 1.57900E+00-2.38287E-09-4.24388E-04 1.10675E-11 9.86494E-11
 -1      2200 7.25452E-01 1.54112E+00-1.96155E-09-3.88319E-04-5.35332E-12-8.15126E-11
 -1      2201 7.06509E-01 1.56007E+00 1.07230E-09-4.06244E-04-2.75045E-12-2.41099E-11
 -1      2203 7.25452E-01 1.54112E+00-1.92161E-09-3.88319E-04 2.07531E-12 2.15115E-11
 -1      2204 7.06509E-01 1.56007E+00 1.06752E-09-4.06244E-04 8.94253E-14 4.50338E-12
 -1      2206 7.25452E-01 1.54112E+00-1.92136E-09-3.88319E-04-3.65273E-13-5.88120E-12
 -1      2207 7.06509E-01 1.56007E+00 1.06392E-09-4.06244E-04 1.83063E-13 2.63916E-12
 -1      2209 7.25452E-01 1.54112E+00-1.93097E-09-3.88319E-04-9.20317E-15-3.63881E-13
 -1      2210 7.06509E-01 1.56007E+00 1.06497E-09-4.06244E-04-1.60961E-13-2.37879E-12
 -1      2212 7.25452E-01 1.54112E+00-1.92256E-09-3.88319E-04 2.66015E-14 2.76287E-13
 -1      2213 7.06509E-01 1.56007E+00 1.06416E-09-4.06244E-04 1.32584E-13 1.49083E-12
 -1      2215 7.25452E-01 1.54112E+00-1.92841E-09-3.88319E-04-3.41663E-14 3.47706E-14
 -1      2216 7.06509E-01 1.56007E+00 1.06418E-09-4.06244E-04-1.72316E-13-1.51241E-12
 -1      2218 7.25452E-01 1.54112E+00-1.92254E-09-3.88319E-04-3.73859E-14-3.37325E-13
 -1      2219 7.06509E-01 1.56007E+00 1.06503E-09-4.06244E-04 1.19461E-13 2.32080E-12
 -1      2221 7.25452E-01 1.54112E+00-1.93093E-09-3.88319E-04-1.02532E-13 1.53987E-13
 -1      2222 7.06509E-01 1.56007E+00 1.06394E-09-4.06244E-04-2.09100E-13-2.64578E-12
 -1      2224 7.25452E-01 1.54112E+00-1.92140E-09-3.88319E-04 2.41892E-13 5.88251E-12
 -1      2225 7.06509E-01 1.56007E+00 1.06754E-09-4.06244E-04-1.13678E-13-4.58918E-12
 -1      2227 7.25452E-01 1.54112E+00-1.92157E-09-3.88319E-04-2.11199E-12-2.16501E-11
 -1      2228 7.06509E-01 1.56007E+00 1.07231E-09-4.06244E-04 2.72380E-12 2.39356E-11
 -1      2230 7.25452E-01 1.54112E+00-1.96155E-09-3.88319E-04 5.27519E-12 8.14770E-11
 -1      2232 7.58701E-01 1.50787E+00-1.61781E-09-3.56659E-04-4.98559E-12-6.23086E-11
 -1      2233 7.42074E-01 1.52450E+00 8.75762E-10-3.72392E-04-1.67142E-12-2.58877E-11
 -1      2235 7.58701E-01 1.50787E+00-1.57699E-09-3.56659E-04 1.41374E-12 1.79978E-11
 -1      2236 7.42074E-01 1.52450E+00 8.69317E-10-3.72392E-04 4.51202E-13 3.92188E-12
 -1      2238 7.58701E-01 1.50787E+00-1.58580E-09-3.56659E-04-4.00270E-13-4.90950E-12
 -1      2239 7.42074E-01 1.52450E+00 8.70013E-10-3.72392E-04-5.08688E-14-1.99212E-13
 -1      2241 7.58701E-01 1.50787E+00-1.58715E-09-3.56659E-04-2.26538E-14 6.54971E-13
 -1      2242 7.42074E-01 1.52450E+00 8.70793E-10-3.72392E-04-1.16010E-13-1.37217E-12
 -1      2244 7.58701E-01 1.50787E+00-1.58420E-09-3.56659E-04-6.85540E-14 5.19505E-14
 -1      2245 7.42074E-01 1.52450E+00 8.70362E-10-3.72392E-04 2.84639E-14 8.70988E-13
 -1      2247 7.58701E-01 1.50787E+00-1.58691E-09-3.56659E-04 6.28486E-15-8.24343E-14
 -1      2248 7.42074E-01 1.52450E+00 8.70354E-10-3.72392E-04-5.81568E-14-9.79610E-13
 -1      2250 7.58701E-01 1.50787E+00-1.58418E-09-3.56659E-04 1.93547E-14-8.85083E-14
 -1      2251 7.42074E-01 1.52450E+00 8.70791E-10-3.72392E-04 9.67936E-14 1.27357E-12
 -1      2253 7.58701E-01 1.50787E+00-1.58714E-09-3.56659E-04-2.83529E-14-7.33632E-13
 -1      2254 7.42074E-01 1.52450E+00 8.70054E-10-3.72392E-04-9.66828E-14 1.14158E-13
 -1      2256 7.58701E-01 1.50787E+00-1.58574E-09-3.56659E-04 3.94180E-13 4.80271E-12
 -1      2257 7.42074E-01 1.52450E+00 8.69299E-10-3.72392E-04-4.62775E-13-4.09908E-12
 -1      2259 7.58701E-01 1.50787E+00-1.57683E-09-3.56659E-04-1.41969E-12-1.81500E-11
 -1      2260 7.42074E-01 1.52450E+00 8.75824E-10-3.72392E-04 1.68036E-12 2.58244E-11
 -1      2262 7.58701E-01 1.50787E+00-1.61774E-09-3.56659E-04 5.06213E-12 6.22422E-11
 -1      2264 7.88045E-01 1.47853E+00-1.34767E-09-3.28718E-04-3.78328E-12-4.95202E-11
 -1      2265 7.73371E-01 1.49320E+00 7.26476E-10-3.42602E-04-1.52956E-12-2.00814E-11
 -1      2267 7.88045E-01 1.47853E+00-1.31016E-09-3.28718E-04 1.23798E-12 1.41052E-11
 -1      2268 7.73371E-01 1.49320E+00 7.21801E-10-3.42602E-04 3.95354E-13 4.46735E-12
 -1      2270 7.88045E-01 1.47853E+00-1.32258E-09-3.28718E-04-2.25082E-13-4.08958E-12
 -1      2271 7.73371E-01 1.49320E+00 7.21618E-10-3.42602E-04-3.37408E-14-3.65361E-13
 -1      2273 7.88045E-01 1.47853E+00-1.31931E-09-3.28718E-04 1.27657E-13 8.78100E-13
 -1      2274 7.73371E-01 1.49320E+00 7.22025E-10-3.42602E-04-1.06943E-14-6.47942E-13
 -1      2276 7.88045E-01 1.47853E+00-1.31967E-09-3.28718E-04 1.13881E-13-1.37402E-13
 -1      2277 7.73371E-01 1.49320E+00 7.21724E-10-3.42602E-04 3.24387E-14 6.65988E-13
 -1      2279 7.88045E-01 1.47853E+00-1.32000E-09-3.28718E-04-2.55534E-14 3.09805E-14
 -1      2280 7.73371E-01 1.49320E+00 7.21863E-10-3.42602E-04-2.96359E-14-7.77655E-13
 -1      2282 7.88045E-01 1.47853E+00-1.31962E-09-3.28718E-04 4.74451E-14-5.21540E-14
 -1      2283 7.73371E-01 1.49320E+00 7.21992E-10-3.42602E-04 6.67539E-14 5.56405E-13
 -1      2285 7.88045E-01 1.47853E+00-1.31921E-09-3.28718E-04-2.49977E-14-8.61432E-13
 -1      2286 7.73371E-01 1.49320E+00 7.21694E-10-3.42602E-04 9.98721E-14 3.06949E-13
 -1      2288 7.88045E-01 1.47853E+00-1.32265E-09-3.28718E-04 4.17591E-13 3.83190E-12
 -1      2289 7.73371E-01 1.49320E+00 7.21770E-10-3.42602E-04-3.06320E-13-4.60777E-12
 -1      2291 7.88045E-01 1.47853E+00-1.31028E-09-3.28718E-04-1.12106E-12-1.40318E-11
 -1      2292 7.73371E-01 1.49320E+00 7.26571E-10-3.42602E-04 1.52226E-12 2.00664E-11
 -1      2294 7.88045E-01 1.47853E+00-1.34767E-09-3.28718E-04 3.73701E-12 4.96524E-11
 -1      2296 8.14072E-01 1.45250E+00-1.13230E-09-3.03935E-04-3.10155E-12-3.92515E-11
 -1      2297 8.01057E-01 1.46552E+00 6.06580E-10-3.16249E-04-1.19996E-12-1.58740E-11
 -1      2299 8.14072E-01 1.45250E+00-1.09688E-09-3.03935E-04 8.22203E-13 1.13110E-11
 -1      2300 8.01057E-01 1.46552E+00 6.02460E-10-3.16249E-04 2.40609E-13 3.42555E-12
 -1      2302 8.14072E-01 1.45250E+00-1.11235E-09-3.03935E-04-3.43109E-13-2.88612E-12
 -1      2303 8.01057E-01 1.46552E+00 6.02888E-10-3.16249E-04-6.73761E-15-1.38222E-13
 -1      2305 8.14072E-01 1.45250E+00-1.10553E-09-3.03935E-04-1.93634E-14 5.64023E-13
 -1      2306 8.01057E-01 1.46552E+00 6.02978E-10-3.16249E-04-1.86989E-14-4.59082E-13
 -1      2308 8.14072E-01 1.45250E+00-1.10867E-09-3.03935E-04-7.21103E-14 1.76014E-13
 -1      2309 8.01057E-01 1.46552E+00 6.02938E-10-3.16249E-04 4.56394E-14 6.02681E-13
 -1      2311 8.14072E-01 1.45250E+00-1.10703E-09-3.03935E-04 1.94132E-14-1.37759E-13
 -1      2312 8.01057E-01 1.46552E+00 6.02883E-10-3.16249E-04-3.13732E-14-6.20785E-13
 -1      2314 8.14072E-01 1.45250E+00-1.10869E-09-3.03935E-04 7.08300E-16-6.58144E-14
 -1      2315 8.01057E-01 1.46552E+00 6.03023E-10-3.16249E-04 6.54485E-14 4.88643E-13
 -1      2317 8.14072E-01 1.45250E+00-1.10558E-09-3.03935E-04-6.36604E-14-6.45348E-13
 -1      2318 8.01057E-01 1.46552E+00 6.02861E-10-3.16249E-04 2.25652E-14 8.09781E-14
 -1      2320 8.14072E-01 1.45250E+00-1.11237E-09-3.03935E-04 1.96082E-13 2.88087E-12
 -1      2321 8.01057E-01 1.46552E+00 6.02455E-10-3.16249E-04-2.29962E-13-3.48453E-12
 -1      2323 8.14072E-01 1.45250E+00-1.09690E-09-3.03935E-04-8.78543E-13-1.12760E-11
 -1      2324 8.01057E-01 1.46552E+00 6.06565E-10-3.16249E-04 1.22645E-12 1.59397E-11
 -1      2326 8.14072E-01 1.45250E+00-1.13226E-09-3.03935E-04 3.15846E-12 3.91804E-11
 -1      2328 8.37264E-01 1.42931E+00-9.60547E-10-2.81851E-04-1.95035E-12-3.18027E-11
 -1      2329 8.25667E-01 1.44091E+00 5.11195E-10-2.92824E-04-7.47957E-13-1.15842E-11
 -1      2331 8.37264E-01 1.42931E+00-9.22142E-10-2.81851E-04 8.87588E-13 8.52463E-12
 -1      2332 8.25667E-01 1.44091E+00 5.08189E-10-2.92824E-04 1.75423E-13 1.81162E-12
 -1      2334 8.37264E-01 1.42931E+00-9.43440E-10-2.81851E-04-2.16047E-14-1.28711E-12
 -1      2335 8.25667E-01 1.44091E+00 5.08055E-10-2.92824E-04 6.18541E-15 7.68538E-13
 -1      2337 8.37264E-01 1.42931E+00-9.31921E-10-2.81851E-04-5.39005E-14 2.28579E-13
 -1      2338 8.25667E-01 1.44091E+00 5.07759E-10-2.92824E-04-1.27918E-13-5.66448E-13
 -1      2340 8.37264E-01 1.42931E+00-9.38423E-10-2.81851E-04 2.32326E-15 6.32064E-13
 -1      2341 8.25667E-01 1.44091E+00 5.07687E-10-2.92824E-04 3.29769E-14 6.96768E-13
 -1      2343 8.37264E-01 1.42931E+00-9.34913E-10-2.81851E-04-3.65953E-14-5.07318E-14
 -1      2344 8.25667E-01 1.44091E+00 5.07737E-10-2.92824E-04-4.29043E-14-7.83415E-13
 -1      2346 8.37264E-01 1.42931E+00-9.38404E-10-2.81851E-04 2.07274E-14-6.61549E-13
 -1      2347 8.25667E-01 1.44091E+00 5.07732E-10-2.92824E-04 8.84379E-14 5.61529E-13
 -1      2349 8.37264E-01 1.42931E+00-9.31911E-10-2.81851E-04 9.41428E-14-1.00470E-13
 -1      2350 8.25667E-01 1.44091E+00 5.08044E-10-2.92824E-04-2.96667E-14-7.68986E-13
 -1      2352 8.37264E-01 1.42931E+00-9.43484E-10-2.81851E-04 1.11537E-13 1.21333E-12
 -1      2353 8.25667E-01 1.44091E+00 5.08114E-10-2.92824E-04-2.04031E-13-1.92831E-12
 -1      2355 8.37264E-01 1.42931E+00-9.22183E-10-2.81851E-04-9.21370E-13-8.56804E-12
 -1      2356 8.25667E-01 1.44091E+00 5.11138E-10-2.92824E-04 7.23414E-13 1.16349E-11
 -1      2358 8.37264E-01 1.42931E+00-9.60606E-10-2.81851E-04 1.87728E-12 3.18857E-11
 -1      2360 8.58018E-01 1.40856E+00-8.30476E-10-2.62089E-04-3.12025E-12-2.35235E-11
 -1      2361 8.47640E-01 1.41894E+00 4.33656E-10-2.71909E-04-6.76214E-13-4.14942E-12
 -1      2363 8.58018E-01 1.40856E+00-7.80389E-10-2.62089E-04 1.80081E-14 8.07438E-12
 -1      2364 8.47640E-01 1.41894E+00 4.27935E-10-2.71909E-04-1.81577E-13 7.43538E-13
 -1      2366 8.58018E-01 1.40856E+00-8.15017E-10-2.62089E-04-2.93562E-13 2.68083E-12
 -1      2367 8.47640E-01 1.41894E+00 4.29480E-10-2.71909E-04 6.14534E-14 3.48282E-12
 -1      2369 8.58018E-01 1.40856E+00-7.95258E-10-2.62089E-04-2.43892E-13 2.41006E-13
 -1      2370 8.47640E-01 1.41894E+00 4.28838E-10-2.71909E-04-1.93836E-13-5.06661E-13
 -1      2372 8.58018E-01 1.40856E+00-8.06684E-10-2.62089E-04 3.25349E-15 2.30112E-12
 -1      2373 8.47640E-01 1.41894E+00 4.28764E-10-2.71909E-04 2.87559E-14 1.37698E-12
 -1      2375 8.58018E-01 1.40856E+00-8.01243E-10-2.62089E-04-8.29520E-14 8.19991E-14
 -1      2376 8.47640E-01 1.41894E+00 4.28832E-10-2.71909E-04-1.20179E-13-1.39335E-12
 -1      2378 8.58018E-01 1.40856E+00-8.06712E-10-2.62089E-04-6.44818E-14-2.39822E-12
 -1      2379 8.47640E-01 1.41894E+00 4.28819E-10-2.71909E-04 1.62188E-13 5.37725E-13
 -1      2381 8.58018E-01 1.40856E+00-7.95219E-10-2.62089E-04 1.55807E-13-1.45608E-13
 -1      2382 8.47640E-01 1.41894E+00 4.29482E-10-2.71909E-04-1.51685E-14-3.42789E-12
 -1      2384 8.58018E-01 1.40856E+00-8.14976E-10-2.62089E-04 2.24185E-13-2.62155E-12
 -1      2385 8.47640E-01 1.41894E+00 4.27973E-10-2.71909E-04 1.70812E-13-7.73879E-13
 -1      2387 8.58018E-01 1.40856E+00-7.80409E-10-2.62089E-04 4.00072E-14-8.07562E-12
 -1      2388 8.47640E-01 1.41894E+00 4.33661E-10-2.71909E-04 6.53538E-13 4.22569E-12
 -1      2390 8.58018E-01 1.40856E+00-8.30531E-10-2.62089E-04 3.08441E-12 2.35117E-11
 -1      2392 8.76663E-01 1.38991E+00-7.23360E-10-2.44336E-04 3.09898E-12-2.22172E-11
 -1      2393 8.67340E-01 1.39924E+00 3.71540E-10-2.53158E-04 1.32387E-12-2.85341E-13
 -1      2395 8.76663E-01 1.38991E+00-6.36930E-10-2.44336E-04 1.97380E-12 2.34629E-12
 -1      2396 8.67340E-01 1.39924E+00 3.72845E-10-2.53158E-04-1.81516E-13-4.25252E-12
 -1      2398 8.76663E-01 1.38991E+00-6.98045E-10-2.44336E-04 8.48066E-13 7.49358E-12
 -1      2399 8.67340E-01 1.39924E+00 3.69388E-10-2.53158E-04 4.42201E-13 7.40543E-12
 -1      2401 8.76663E-01 1.38991E+00-6.63064E-10-2.44336E-04-2.39196E-13-1.13352E-12
 -1      2402 8.67340E-01 1.39924E+00 3.66502E-10-2.53158E-04-2.69096E-13-3.89929E-13
 -1      2404 8.76663E-01 1.38991E+00-6.81691E-10-2.44336E-04 2.36913E-13 4.64974E-12
 -1      2405 8.67340E-01 1.39924E+00 3.66328E-10-2.53158E-04 1.35359E-13 2.29060E-12
 -1      2407 8.76663E-01 1.38991E+00-6.74716E-10-2.44336E-04 3.53967E-15 8.46908E-14
 -1      2408 8.67340E-01 1.39924E+00 3.66361E-10-2.53158E-04-1.71446E-13-2.25744E-12
 -1      2410 8.76663E-01 1.38991E+00-6.81685E-10-2.44336E-04-3.88023E-14-4.81646E-12
 -1      2411 8.67340E-01 1.39924E+00 3.66489E-10-2.53158E-04 3.61357E-13 2.66784E-13
 -1      2413 8.76663E-01 1.38991E+00-6.63030E-10-2.44336E-04 2.60711E-13 1.08778E-12
 -1      2414 8.67340E-01 1.39924E+00 3.69422E-10-2.53158E-04-5.15362E-13-7.27555E-12
 -1      2416 8.76663E-01 1.38991E+00-6.98012E-10-2.44336E-04-8.04591E-13-7.60951E-12
 -1      2417 8.67340E-01 1.39924E+00 3.72817E-10-2.53158E-04 1.83426E-13 4.24695E-12
 -1      2419 8.76663E-01 1.38991E+00-6.36922E-10-2.44336E-04-2.06519E-12-2.23412E-12
 -1      2420 8.67340E-01 1.39924E+00 3.71527E-10-2.53158E-04-1.36886E-12 3.01282E-13
 -1      2422 8.76663E-01 1.38991E+00-7.23307E-10-2.44336E-04-3.14896E-12 2.21622E-11
 -1      2424 8.93477E-01 1.37310E+00-7.07900E-10-2.28322E-04-1.54396E-11 5.14930E-12
 -1      2425 8.85070E-01 1.38151E+00 3.20439E-10-2.36280E-04-2.59282E-12 3.56486E-11
 -1      2427 8.93477E-01 1.37310E+00-5.61795E-10-2.28322E-04-6.62319E-12 1.81627E-11
 -1      2428 8.85070E-01 1.38151E+00 2.88529E-10-2.36280E-04-2.46590E-12-4.07150E-13
 -1      2430 8.93477E-01 1.37310E+00-6.85312E-10-2.28322E-04-1.19116E-12 3.05720E-11
 -1      2431 8.85070E-01 1.38151E+00 3.02465E-10-2.36280E-04 3.26706E-13 1.94295E-11
 -1      2433 8.93477E-01 1.37310E+00-6.20946E-10-2.28322E-04-1.07851E-12 2.15732E-12
 -1      2434 8.85070E-01 1.38151E+00 3.02063E-10-2.36280E-04-4.40594E-13 1.35617E-12
 -1      2436 8.93477E-01 1.37310E+00-6.48179E-10-2.28322E-04 3.42289E-13 1.24181E-11
 -1      2437 8.85070E-01 1.38151E+00 3.02677E-10-2.36280E-04 2.03379E-13 3.51702E-12
 -1      2439 8.93477E-01 1.37310E+00-6.42123E-10-2.28322E-04-2.97922E-15-1.13633E-13
 -1      2440 8.85070E-01 1.38151E+00 3.02673E-10-2.36280E-04-1.93128E-13-3.49911E-12
 -1      2442 8.93477E-01 1.37310E+00-6.48195E-10-2.28322E-04-4.66858E-13-1.24005E-11
 -1      2443 8.85070E-01 1.38151E+00 3.02093E-10-2.36280E-04 4.95471E-13-1.50758E-12
 -1      2445 8.93477E-01 1.37310E+00-6.20949E-10-2.28322E-04 1.14940E-12-2.11407E-12
 -1      2446 8.85070E-01 1.38151E+00 3.02492E-10-2.36280E-04-3.05985E-13-1.94110E-11
 -1      2448 8.93477E-01 1.37310E+00-6.85242E-10-2.28322E-04 1.23252E-12-3.06634E-11
 -1      2449 8.85070E-01 1.38151E+00 2.88574E-10-2.36280E-04 2.52466E-12 3.17570E-13
 -1      2451 8.93477E-01 1.37310E+00-5.61717E-10-2.28322E-04 6.72376E-12-1.81385E-11
 -1      2452 8.85070E-01 1.38151E+00 3.20428E-10-2.36280E-04 2.61782E-12-3.55837E-11
 -1      2454 8.93477E-01 1.37310E+00-7.07871E-10-2.28322E-04 1.55016E-11-5.05522E-12
 -1      2456 9.08691E-01 1.35788E+00-5.90401E-10-2.13849E-04 4.86584E-11-4.85162E-11
 -1      2457 9.01084E-01 1.36549E+00 2.81728E-10-2.21044E-04 1.68392E-11 2.14709E-12
 -1      2459 9.08691E-01 1.35788E+00-2.09668E-10-2.13849E-04 2.02492E-11-6.92821E-11
 -1      2460 9.01084E-01 1.36549E+00 3.48072E-10-2.21044E-04 1.45468E-12-4.50407E-11
 -1      2462 9.08691E-01 1.35788E+00-4.07283E-10-2.13849E-04 7.85930E-12 5.60324E-12
 -1      2463 9.01084E-01 1.36549E+00 3.22578E-10-2.21044E-04 2.47768E-12 1.58435E-11
 -1      2465 9.08691E-01 1.35788E+00-2.84106E-10-2.13849E-04-9.96777E-13-3.51340E-11
 -1      2466 9.01084E-01 1.36549E+00 3.11624E-10-2.21044E-04-9.22219E-13-5.09946E-12
 -1      2468 9.08691E-01 1.35788E+00-3.16029E-10-2.13849E-04 1.32743E-13 4.59197E-12
 -1      2469 9.01084E-01 1.36549E+00 3.14805E-10-2.21044E-04-1.03587E-13 1.46691E-12
 -1      2471 9.08691E-01 1.35788E+00-3.18123E-10-2.13849E-04-5.27253E-14-8.23676E-14
 -1      2472 9.01084E-01 1.36549E+00 3.14814E-10-2.21044E-04 7.31363E-14-1.57032E-12
 -1      2474 9.08691E-01 1.35788E+00-3.16013E-10-2.13849E-04-1.26002E-13-4.58856E-12
 -1      2475 9.01084E-01 1.36549E+00 3.11641E-10-2.21044E-04 7.80816E-13 5.04916E-12
 -1      2477 9.08691E-01 1.35788E+00-2.84007E-10-2.13849E-04 8.08458E-13 3.50750E-11
 -1      2478 9.01084E-01 1.36549E+00 3.22655E-10-2.21044E-04-2.44606E-12-1.58430E-11
 -1      2480 9.08691E-01 1.35788E+00-4.07164E-10-2.13849E-04-7.92086E-12-5.53781E-12
 -1      2481 9.01084E-01 1.36549E+00 3.48104E-10-2.21044E-04-1.44739E-12 4.51058E-11
 -1      2483 9.08691E-01 1.35788E+00-2.09685E-10-2.13849E-04-2.02664E-11 6.93444E-11
 -1      2484 9.01084E-01 1.36549E+00 2.81728E-10-2.21044E-04-1.68070E-11-2.11194E-12
 -1      2486 9.08691E-01 1.35788E+00-5.90438E-10-2.13849E-04-4.87018E-11 4.84672E-11
 -1      2488 9.22502E-01 1.34407E+00-1.19762E-09-2.00647E-04-1.52797E-10 1.85529E-10
 -1      2489 9.15596E-01 1.35098E+00 2.69110E-10-2.07202E-04-3.72682E-11 2.56548E-10
 -1      2491 9.22502E-01 1.34407E+00-6.99500E-10-2.00647E-04-7.70624E-11 1.24385E-10
 -1      2492 9.15596E-01 1.35098E+00-1.48935E-11-2.07202E-04-2.03641E-11-7.90395E-12
 -1      2494 9.22502E-01 1.34407E+00-1.22743E-09-2.00647E-04-1.53326E-11 1.71196E-10
 -1      2495 9.15596E-01 1.35098E+00 1.30248E-10-2.07202E-04-9.65088E-13 3.90261E-11
 -1      2497 9.22502E-01 1.34407E+00-1.00850E-09-2.00647E-04-4.48906E-12-1.83882E-11
 -1      2498 9.15596E-01 1.35098E+00 1.72436E-10-2.07202E-04-1.61091E-13-1.64297E-11
 -1      2500 9.22502E-01 1.34407E+00-9.92948E-10-2.00647E-04 2.86312E-12 1.55434E-11
 -1      2501 9.15596E-01 1.35098E+00 1.85090E-10-2.07202E-04 5.63548E-13-7.52244E-12
 -1      2503 9.22502E-01 1.34407E+00-1.00399E-09-2.00647E-04 5.71936E-14-1.84958E-14
 -1      2504 9.15596E-01 1.35098E+00 1.85097E-10-2.07202E-04-5.31633E-13 7.48034E-12
 -1      2506 9.22502E-01 1.34407E+00-9.92956E-10-2.00647E-04-2.79167E-12-1.56598E-11
 -1      2507 9.15596E-01 1.35098E+00 1.72516E-10-2.07202E-04 1.46080E-13 1.63471E-11
 -1      2509 9.22502E-01 1.34407E+00-1.00852E-09-2.00647E-04 4.48190E-12 1.83059E-11
 -1      2510 9.15596E-01 1.35098E+00 1.30318E-10-2.07202E-04 8.66277E-13-3.89644E-11
 -1      2512 9.22502E-01 1.34407E+00-1.22739E-09-2.00647E-04 1.53526E-11-1.70938E-10
 -1      2513 9.15596E-01 1.35098E+00-1.47717E-11-2.07202E-04 2.03387E-11 8.05475E-12
 -1      2515 9.22502E-01 1.34407E+00-6.99474E-10-2.00647E-04 7.70108E-11-1.24466E-10
 -1      2516 9.15596E-01 1.35098E+00 2.69148E-10-2.07202E-04 3.72458E-11-2.56666E-10
 -1      2518 9.22502E-01 1.34407E+00-1.19763E-09-2.00647E-04 1.52884E-10-1.85627E-10
 -1      2520 9.35078E-01 1.33150E+00 3.57743E-12-1.88871E-04 4.82522E-10-6.10216E-10
 -1      2521 9.28790E-01 1.33779E+00 2.45308E-10-1.94749E-04 1.64488E-10-3.69597E-10
 -1      2523 9.35078E-01 1.33150E+00 2.48742E-09-1.88871E-04 2.17499E-10-1.23888E-09
 -1      2524 9.28790E-01 1.33779E+00 1.13680E-09-1.94749E-04 3.72379E-11-5.15349E-10
 -1      2526 9.35078E-01 1.33150E+00 2.28356E-09-1.88871E-04 7.20033E-11-6.72076E-10
 -1      2527 9.28790E-01 1.33779E+00 1.00012E-09-1.94749E-04 1.33543E-11-2.30001E-10
 -1      2529 9.35078E-01 1.33150E+00 2.72155E-09-1.88871E-04-6.05836E-12-6.03207E-10
 -1      2530 9.28790E-01 1.33779E+00 1.00425E-09-1.94749E-04-5.25983E-12-1.72411E-10
 -1      2532 9.35078E-01 1.33150E+00 2.78605E-09-1.88871E-04-8.16057E-12-2.34525E-10
 -1      2533 9.28790E-01 1.33779E+00 1.06051E-09-1.94749E-04-3.84295E-12-6.83096E-11
 -1      2535 9.35078E-01 1.33150E+00 2.70253E-09-1.88871E-04-1.17838E-13-2.90145E-14
 -1      2536 9.28790E-01 1.33779E+00 1.06052E-09-1.94749E-04 3.81621E-12 6.81913E-11
 -1      2538 9.35078E-01 1.33150E+00 2.78616E-09-1.88871E-04 8.02115E-12 2.34651E-10
 -1      2539 9.28790E-01 1.33779E+00 1.00429E-09-1.94749E-04 5.14986E-12 1.72479E-10
 -1      2541 9.35078E-01 1.33150E+00 2.72149E-09-1.88871E-04 6.01621E-12 6.03280E-10
 -1      2542 9.28790E-01 1.33779E+00 1.00013E-09-1.94749E-04-1.32680E-11 2.29997E-10
 -1      2544 9.35078E-01 1.33150E+00 2.28356E-09-1.88871E-04-7.17891E-11 6.71989E-10
 -1      2545 9.28790E-01 1.33779E+00 1.13675E-09-1.94749E-04-3.71103E-11 5.15397E-10
 -1      2547 9.35078E-01 1.33150E+00 2.48743E-09-1.88871E-04-2.17252E-10 1.23897E-09
 -1      2548 9.28790E-01 1.33779E+00 2.45262E-10-1.94749E-04-1.64398E-10 3.69478E-10
 -1      2550 9.35078E-01 1.33150E+00 3.57072E-12-1.88871E-04-4.82552E-10 6.10213E-10
 -1      2552 9.46561E-01 1.32002E+00-6.80659E-09-1.77175E-04-1.37067E-09 2.09526E-09
 -1      2553 9.40819E-01 1.32576E+00 4.74111E-10-1.82889E-04-4.21026E-10 1.66227E-09
 -1      2555 9.46561E-01 1.32002E+00-6.87583E-09-1.77175E-04-7.26102E-10 1.95227E-09
 -1      2556 9.40819E-01 1.32576E+00-2.39349E-09-1.82889E-04-1.75773E-10-1.07935E-10
 -1      2558 9.46561E-01 1.32002E+00-1.02172E-08-1.77175E-04-1.59217E-10 1.76924E-09
 -1      2559 9.40819E-01 1.32576E+00-1.37529E-09-1.82889E-04-2.10341E-11-1.99120E-10
 -1      2561 9.46561E-01 1.32002E+00-9.95681E-09-1.77175E-04 1.37873E-12 1.28145E-10
 -1      2562 9.40819E-01 1.32576E+00-1.01560E-09-1.82889E-04 1.84118E-11-2.62121E-10
 -1      2564 9.46561E-01 1.32002E+00-9.06441E-09-1.77175E-04 2.79016E-11-2.06934E-10
 -1      2565 9.40819E-01 1.32576E+00-1.00049E-09-1.82889E-04 8.53724E-12-1.35789E-10
 -1      2567 9.46561E-01 1.32002E+00-8.89486E-09-1.77175E-04 6.29270E-14 3.43548E-14
 -1      2568 9.40819E-01 1.32576E+00-1.00048E-09-1.82889E-04-8.54953E-12 1.35838E-10
 -1      2570 9.46561E-01 1.32002E+00-9.06452E-09-1.77175E-04-2.77933E-11 2.07100E-10
 -1      2571 9.40819E-01 1.32576E+00-1.01570E-09-1.82889E-04-1.84575E-11 2.62402E-10
 -1      2573 9.46561E-01 1.32002E+00-9.95687E-09-1.77175E-04-1.24263E-12-1.27983E-10
 -1      2574 9.40819E-01 1.32576E+00-1.37537E-09-1.82889E-04 2.11509E-11 1.99136E-10
 -1      2576 9.46561E-01 1.32002E+00-1.02172E-08-1.77175E-04 1.59122E-10-1.76914E-09
 -1      2577 9.40819E-01 1.32576E+00-2.39342E-09-1.82889E-04 1.75872E-10 1.07965E-10
 -1      2579 9.46561E-01 1.32002E+00-6.87590E-09-1.77175E-04 7.26070E-10-1.95221E-09
 -1      2580 9.40819E-01 1.32576E+00 4.74101E-10-1.82889E-04 4.21078E-10-1.66223E-09
 -1      2582 9.46561E-01 1.32002E+00-6.80663E-09-1.77175E-04 1.37068E-09-2.09523E-09
 -1      2584 9.57075E-01 1.30950E+00 9.99417E-09-1.70102E-04 3.76752E-09-7.70531E-09
 -1      2585 9.51818E-01 1.31476E+00 5.52489E-10-1.74018E-04 1.45885E-09-4.33774E-09
 -1      2587 9.57075E-01 1.30950E+00 3.32208E-08-1.70103E-04 1.77854E-09-1.66424E-08
 -1      2588 9.51818E-01 1.31476E+00 9.59429E-09-1.74018E-04 4.46924E-10-4.20236E-09
 -1      2590 9.57075E-01 1.30950E+00 4.09747E-08-1.70103E-04 5.97683E-10-1.09066E-08
 -1      2591 9.51818E-01 1.31476E+00 9.27898E-09-1.74018E-04 9.81363E-11-3.08676E-09
 -1      2593 9.57075E-01 1.30950E+00 4.15931E-08-1.70103E-04 1.33727E-11-6.12743E-09
 -1      2594 9.51818E-01 1.31476E+00 9.88507E-09-1.74018E-04-2.49137E-11-1.79477E-09
 -1      2596 9.57075E-01 1.30950E+00 4.13051E-08-1.70103E-04-7.66237E-11-2.61144E-09
 -1      2597 9.51818E-01 1.31476E+00 1.03799E-08-1.74018E-04-2.44965E-11-6.40956E-10
 -1      2599 9.57075E-01 1.30950E+00 4.07114E-08-1.70103E-04 1.25326E-15 9.23308E-14
 -1      2600 9.51818E-01 1.31476E+00 1.03799E-08-1.74018E-04 2.45819E-11 6.41061E-10
 -1      2602 9.57075E-01 1.30950E+00 4.13052E-08-1.70103E-04 7.66981E-11 2.61148E-09
 -1      2603 9.51818E-01 1.31476E+00 9.88505E-09-1.74018E-04 2.49948E-11 1.79489E-09
 -1      2605 9.57075E-01 1.30950E+00 4.15932E-08-1.70103E-04-1.34084E-11 6.12750E-09
 -1      2606 9.51818E-01 1.31476E+00 9.27902E-09-1.74018E-04-9.81558E-11 3.08685E-09
 -1      2608 9.57075E-01 1.30950E+00 4.09748E-08-1.70103E-04-5.97621E-10 1.09066E-08
 -1      2609 9.51818E-01 1.31476E+00 9.59429E-09-1.74018E-04-4.46930E-10 4.20235E-09
 -1      2611 9.57075E-01 1.30950E+00 3.32209E-08-1.70103E-04-1.77850E-09 1.66423E-08
 -1      2612 9.51818E-01 1.31476E+00 5.52406E-10-1.74018E-04-1.45881E-09 4.33777E-09
 -1      2614 9.57075E-01 1.30950E+00 9.99413E-09-1.70102E-04-3.76753E-09 7.70527E-09
 -1      2616 9.66723E-01 1.29985E+00-6.78975E-08-1.49556E-04-8.15998E-09 3.00662E-08
 -1      2617 9.61898E-01 1.30468E+00 6.05419E-10-1.58176E-04-3.48985E-09 1.05908E-08
 -1      2619 9.66723E-01 1.29985E+00-1.11944E-07-1.49554E-04-4.42311E-09 4.08199E-08
 -1      2620 9.61898E-01 1.30468E+00-2.81113E-08-1.58176E-04-1.28705E-09 2.44229E-09
 -1      2622 9.66723E-01 1.29985E+00-1.49762E-07-1.49554E-04-1.06768E-09 3.41540E-08
 -1      2623 9.61898E-01 1.30468E+00-2.81012E-08-1.58176E-04-2.40192E-10 1.41127E-09
 -1      2625 9.66723E-01 1.29985E+00-1.59177E-07-1.49554E-04 2.22764E-11 1.36170E-08
 -1      2626 9.61898E-01 1.30468E+00-2.97417E-08-1.58176E-04 1.33103E-10 1.19050E-09
 -1      2628 9.66723E-01 1.29985E+00-1.50531E-07-1.49554E-04 2.50842E-11 1.21745E-09
 -1      2629 9.61898E-01 1.30468E+00-3.19701E-08-1.58176E-04 7.02813E-11 3.77261E-10
 -1      2631 9.66723E-01 1.29985E+00-1.45471E-07-1.49554E-04 9.69408E-14-1.10054E-13
 -1      2632 9.61898E-01 1.30468E+00-3.19700E-08-1.58176E-04-7.01227E-11-3.77296E-10
 -1      2634 9.66723E-01 1.29985E+00-1.50531E-07-1.49554E-04-2.49620E-11-1.21743E-09
 -1      2635 9.61898E-01 1.30468E+00-2.97416E-08-1.58176E-04-1.33138E-10-1.19051E-09
 -1      2637 9.66723E-01 1.29985E+00-1.59177E-07-1.49554E-04-2.23000E-11-1.36170E-08
 -1      2638 9.61898E-01 1.30468E+00-2.81012E-08-1.58176E-04 2.40191E-10-1.41129E-09
 -1      2640 9.66723E-01 1.29985E+00-1.49761E-07-1.49554E-04 1.06770E-09-3.41540E-08
 -1      2641 9.61898E-01 1.30468E+00-2.81112E-08-1.58176E-04 1.28707E-09-2.44233E-09
 -1      2643 9.66723E-01 1.29985E+00-1.11944E-07-1.49554E-04 4.42313E-09-4.08199E-08
 -1      2644 9.61898E-01 1.30468E+00 6.05500E-10-1.58176E-04 3.48994E-09-1.05907E-08
 -1      2646 9.66723E-01 1.29985E+00-6.78974E-08-1.49556E-04 8.16000E-09-3.00660E-08
 -1      2648 9.75607E-01 1.29097E+00 1.32730E-07-1.85168E-04 1.24334E-08-8.11772E-08
 -1      2649 9.71166E-01 1.29541E+00 1.51873E-08-1.73853E-04 9.08320E-09-1.38667E-08
 -1      2651 9.75608E-01 1.29097E+00 4.25647E-07-1.85173E-04 2.28016E-09-2.21721E-07
 -1      2652 9.71166E-01 1.29541E+00 8.68363E-08-1.73852E-04 2.57947E-09-1.31961E-08
 -1      2654 9.75607E-01 1.29097E+00 6.10313E-07-1.85177E-04-2.16979E-10-1.55426E-07
 -1      2655 9.71166E-01 1.29541E+00 1.01715E-07-1.73852E-04-5.11070E-11-2.14021E-08
 -1      2657 9.75607E-01 1.29097E+00 6.08466E-07-1.85178E-04-3.61289E-11-5.28372E-08
 -1      2658 9.71166E-01 1.29541E+00 1.19060E-07-1.73853E-04-4.12725E-10-1.31252E-08
 -1      2660 9.75607E-01 1.29097E+00 5.69215E-07-1.85178E-04 1.06123E-10-9.02487E-09
 -1      2661 9.71166E-01 1.29541E+00 1.26357E-07-1.73853E-04-1.41634E-10-3.71349E-09
 -1      2663 9.75607E-01 1.29097E+00 5.53656E-07-1.85178E-04 3.37310E-15-1.67027E-13
 -1      2664 9.71166E-01 1.29541E+00 1.26357E-07-1.73853E-04 1.41748E-10 3.71334E-09
 -1      2666 9.75607E-01 1.29097E+00 5.69215E-07-1.85178E-04-1.06102E-10 9.02487E-09
 -1      2667 9.71166E-01 1.29541E+00 1.19060E-07-1.73853E-04 4.12725E-10 1.31253E-08
 -1      2669 9.75607E-01 1.29097E+00 6.08466E-07-1.85178E-04 3.60635E-11 5.28372E-08
 -1      2670 9.71166E-01 1.29541E+00 1.01715E-07-1.73852E-04 5.10932E-11 2.14021E-08
 -1      2672 9.75607E-01 1.29097E+00 6.10313E-07-1.85177E-04 2.17123E-10 1.55426E-07
 -1      2673 9.71166E-01 1.29541E+00 8.68363E-08-1.73852E-04-2.57943E-09 1.31960E-08
 -1      2675 9.75608E-01 1.29097E+00 4.25647E-07-1.85173E-04-2.28022E-09 2.21721E-07
 -1      2676 9.71166E-01 1.29541E+00 1.51874E-08-1.73853E-04-9.08321E-09 1.38667E-08
 -1      2678 9.75607E-01 1.29097E+00 1.32730E-07-1.85168E-04-1.24335E-08 8.11771E-08
 -1      2680 9.83772E-01 1.28280E+00-8.66377E-07-5.78490E-06 3.19840E-08 5.60103E-07
 -1      2681 9.79686E-01 1.28689E+00-3.50924E-08-6.93155E-05-1.49243E-08-2.21596E-08
 -1      2683 9.83772E-01 1.28280E+00-1.87618E-06-5.77878E-06 1.54232E-08 7.32524E-07
 -1      2684 9.79686E-01 1.28689E+00-2.63549E-07-6.93178E-05-3.52858E-09 5.89236E-08
 -1      2686 9.83772E-01 1.28280E+00-2.27238E-06-5.77239E-06 8.08788E-10 4.61734E-07
 -1      2687 9.79686E-01 1.28689E+00-4.33039E-07-6.93176E-05-7.54709E-10 9.96733E-08
 -1      2689 9.83772E-01 1.28280E+00-2.34102E-06-5.77333E-06-6.91733E-10 2.43181E-07
 -1      2690 9.79686E-01 1.28689E+00-5.46045E-07-6.93164E-05-2.52282E-11 7.22697E-08
 -1      2692 9.83772E-01 1.28280E+00-2.35501E-06-5.77370E-06-1.97449E-10 1.06914E-07
 -1      2693 9.79686E-01 1.28689E+00-5.90430E-07-6.93161E-05 1.19809E-11 2.52287E-08
 -1      2695 9.83772E-01 1.28280E+00-2.35811E-06-5.77401E-06 6.75748E-14-2.52080E-14
 -1      2696 9.79686E-01 1.28689E+00-5.90430E-07-6.93161E-05-1.19316E-11-2.52288E-08
 -1      2698 9.83772E-01 1.28280E+00-2.35501E-06-5.77370E-06 1.97469E-10-1.06914E-07
 -1      2699 9.79686E-01 1.28689E+00-5.46044E-07-6.93164E-05 2.52412E-11-7.22697E-08
 -1      2701 9.83772E-01 1.28280E+00-2.34102E-06-5.77333E-06 6.91869E-10-2.43181E-07
 -1      2702 9.79686E-01 1.28689E+00-4.33039E-07-6.93176E-05 7.54807E-10-9.96733E-08
 -1      2704 9.83772E-01 1.28280E+00-2.27238E-06-5.77239E-06-8.08773E-10-4.61734E-07
 -1      2705 9.79686E-01 1.28689E+00-2.63549E-07-6.93178E-05 3.52861E-09-5.89236E-08
 -1      2707 9.83772E-01 1.28280E+00-1.87618E-06-5.77878E-06-1.54230E-08-7.32524E-07
 -1      2708 9.79686E-01 1.28689E+00-3.50924E-08-6.93155E-05 1.49244E-08 2.21595E-08
 -1      2710 9.83772E-01 1.28280E+00-8.66377E-07-5.78490E-06-3.19838E-08-5.60104E-07
 -1      2712 9.91497E-01 1.27508E+00 5.94935E-07-1.18521E-03-1.27565E-07-8.60502E-07
 -1      2713 9.87613E-01 1.27897E+00 7.71062E-07-4.42661E-04-6.51192E-09 2.30102E-07
 -1      2715 9.91498E-01 1.27508E+00 1.08935E-06-1.18518E-03-4.15489E-08-6.23939E-07
 -1      2716 9.87613E-01 1.27897E+00 1.21599E-06-4.42664E-04 5.44657E-09 2.28187E-07
 -1      2718 9.91498E-01 1.27509E+00 1.40599E-06-1.18518E-03 1.98962E-09-2.61203E-07
 -1      2719 9.87613E-01 1.27897E+00 1.51113E-06-4.42668E-04 3.64658E-09 1.31134E-07
 -1      2721 9.91498E-01 1.27509E+00 1.61796E-06-1.18519E-03-1.17938E-09-1.33187E-07
 -1      2722 9.87613E-01 1.27897E+00 1.65538E-06-4.42672E-04-2.17722E-10 6.53294E-08
 -1      2724 9.91498E-01 1.27509E+00 1.75281E-06-1.18520E-03-3.44375E-09-6.28905E-08
 -1      2725 9.87613E-01 1.27897E+00 1.71194E-06-4.42674E-04-4.78354E-10 1.95926E-08
 -1      2727 9.91498E-01 1.27509E+00 1.79756E-06-1.18520E-03-4.98352E-14 3.21796E-14
 -1      2728 9.87613E-01 1.27897E+00 1.71194E-06-4.42674E-04 4.78369E-10-1.95925E-08
 -1      2730 9.91498E-01 1.27509E+00 1.75281E-06-1.18520E-03 3.44366E-09 6.28905E-08
 -1      2731 9.87613E-01 1.27897E+00 1.65538E-06-4.42672E-04 2.17692E-10-6.53294E-08
 -1      2733 9.91498E-01 1.27509E+00 1.61796E-06-1.18519E-03 1.17921E-09 1.33187E-07
 -1      2734 9.87613E-01 1.27897E+00 1.51113E-06-4.42668E-04-3.64662E-09-1.31134E-07
 -1      2736 9.91498E-01 1.27509E+00 1.40599E-06-1.18518E-03-1.98971E-09 2.61203E-07
 -1      2737 9.87613E-01 1.27897E+00 1.21599E-06-4.42664E-04-5.44663E-09-2.28187E-07
 -1      2739 9.91498E-01 1.27508E+00 1.08935E-06-1.18518E-03 4.15487E-08 6.23939E-07
 -1      2740 9.87613E-01 1.27897E+00 7.71062E-07-4.42661E-04 6.51196E-09-2.30102E-07
 -1      2742 9.91497E-01 1.27508E+00 5.94935E-07-1.18521E-03 1.27565E-07 8.60502E-07
 -1      2744 9.95305E-01 1.27127E+00-7.03966E-07-1.51088E-03 4.34637E-08-1.76271E-07
 -1      2746 9.95305E-01 1.27127E+00-9.49833E-07-1.51089E-03-5.82532E-08-2.39704E-07
 -1      2748 9.95306E-01 1.27127E+00-1.07222E-06-1.51087E-03-4.93459E-08-1.84486E-07
 -1      2750 9.95306E-01 1.27127E+00-1.10879E-06-1.51087E-03-2.36009E-08-1.10373E-07
 -1      2752 9.95306E-01 1.27127E+00-1.12149E-06-1.51088E-03-6.13297E-09-3.64883E-08
 -1      2754 9.95306E-01 1.27127E+00-1.12149E-06-1.51088E-03 6.13288E-09 3.64883E-08
 -1      2756 9.95306E-01 1.27127E+00-1.10879E-06-1.51087E-03 2.36009E-08 1.10373E-07
 -1      2758 9.95306E-01 1.27127E+00-1.07222E-06-1.51087E-03 4.93458E-08 1.84486E-07
 -1      2760 9.95305E-01 1.27127E+00-9.49833E-07-1.51089E-03 5.82531E-08 2.39704E-07
 -1      2762 9.95305E-01 1.27127E+00-7.03966E-07-1.51088E-03-4.34639E-08 1.76271E-07
 -1      2765 1.00563E+00 1.26094E+00 8.82981E-07-4.14770E-02 1.09742E-07 5.73063E-07
 -1      2766 1.00564E+00 1.26094E+00 8.74493E-07-4.14769E-02 5.43166E-09-4.29321E-08
 -1      2767 1.00564E+00 1.26094E+00 7.28096E-07-4.14769E-02-1.61587E-08-1.14607E-07
 -1      2768 1.00564E+00 1.26094E+00 5.35337E-07-4.14769E-02-1.41306E-08-7.49549E-08
 -1      2769 1.00564E+00 1.26094E+00 4.28994E-07-4.14769E-02-5.15865E-09-2.42823E-08
 -1      2770 1.00564E+00 1.26094E+00 4.28994E-07-4.14769E-02 5.15857E-09 2.42822E-08
 -1      2771 1.00564E+00 1.26094E+00 5.35337E-07-4.14769E-02 1.41305E-08 7.49549E-08
 -1      2772 1.00564E+00 1.26094E+00 7.28096E-07-4.14769E-02 1.61586E-08 1.14607E-07
 -1      2773 1.00564E+00 1.26094E+00 8.74493E-07-4.14769E-02-5.43174E-09 4.29321E-08
 -1      2774 1.00563E+00 1.26094E+00 8.82981E-07-4.14770E-02-1.09742E-07-5.73063E-07
 -1      2775 1.02470E+00 1.24188E+00 8.80845E-07-7.88939E-02 2.18286E-07 5.25920E-07
 -1      2776 1.02470E+00 1.24188E+00 8.53622E-07-7.88938E-02 2.30632E-08-5.43364E-08
 -1      2777 1.02470E+00 1.24188E+00 6.99563E-07-7.88938E-02-1.80168E-08-1.14904E-07
 -1      2778 1.02470E+00 1.24188E+00 5.06149E-07-7.88938E-02-1.81320E-08-7.24161E-08
 -1      2779 1.02470E+00 1.24188E+00 4.01488E-07-7.88937E-02-6.76685E-09-2.30488E-08
 -1      2780 1.02470E+00 1.24188E+00 4.01488E-07-7.88937E-02 6.76668E-09 2.30489E-08
 -1      2781 1.02470E+00 1.24188E+00 5.06149E-07-7.88938E-02 1.81319E-08 7.24161E-08
 -1      2782 1.02470E+00 1.24188E+00 6.99563E-07-7.88938E-02 1.80167E-08 1.14904E-07
 -1      2783 1.02470E+00 1.24188E+00 8.53622E-07-7.88938E-02-2.30632E-08 5.43365E-08
 -1      2784 1.02470E+00 1.24188E+00 8.80845E-07-7.88939E-02-2.18286E-07-5.25920E-07
 -1      2785 1.05439E+00 1.21218E+00 7.66990E-07-1.08588E-01 3.53431E-07 5.06092E-07
 -1      2786 1.05439E+00 1.21218E+00 7.66504E-07-1.08588E-01 6.83226E-08-7.70368E-08
 -1      2787 1.05439E+00 1.21218E+00 6.07027E-07-1.08588E-01 1.00794E-08-1.32556E-07
 -1      2788 1.05439E+00 1.21218E+00 4.06725E-07-1.08588E-01-1.97164E-10-8.28976E-08
 -1      2789 1.05439E+00 1.21218E+00 2.99421E-07-1.08588E-01-4.43223E-10-2.64211E-08
 -1      2790 1.05439E+00 1.21218E+00 2.99421E-07-1.08588E-01 4.43301E-10 2.64211E-08
 -1      2791 1.05439E+00 1.21218E+00 4.06725E-07-1.08588E-01 1.97175E-10 8.28976E-08
 -1      2792 1.05439E+00 1.21218E+00 6.07027E-07-1.08588E-01-1.00794E-08 1.32556E-07
 -1      2793 1.05439E+00 1.21218E+00 7.66504E-07-1.08588E-01-6.83225E-08 7.70368E-08
 -1      2794 1.05439E+00 1.21218E+00 7.66990E-07-1.08588E-01-3.53431E-07-5.06092E-07
 -1      2795 1.09181E+00 1.17476E+00 1.79187E-06-1.27653E-01 2.17144E-07 2.68184E-07
 -1      2796 1.09181E+00 1.17476E+00 1.70806E-06-1.27653E-01-6.67987E-08-1.65687E-07
 -1      2797 1.09181E+00 1.17476E+00 1.29025E-06-1.27653E-01-8.28275E-08-1.77808E-07
 -1      2798 1.09181E+00 1.17476E+00 9.35590E-07-1.27653E-01-4.86942E-08-1.06546E-07
 -1      2799 1.09181E+00 1.17476E+00 7.58525E-07-1.27653E-01-1.52135E-08-3.40041E-08
 -1      2800 1.09181E+00 1.17476E+00 7.58525E-07-1.27653E-01 1.52136E-08 3.40041E-08
 -1      2801 1.09181E+00 1.17476E+00 9.35590E-07-1.27653E-01 4.86944E-08 1.06546E-07
 -1      2802 1.09181E+00 1.17476E+00 1.29025E-06-1.27653E-01 8.28276E-08 1.77808E-07
 -1      2803 1.09181E+00 1.17476E+00 1.70806E-06-1.27653E-01 6.67988E-08 1.65687E-07
 -1      2804 1.09181E+00 1.17476E+00 1.79187E-06-1.27653E-01-2.17144E-07-2.68184E-07
 -1      2805 1.13329E+00 1.13329E+00 2.39748E-06-1.34222E-01-9.35272E-08 1.98191E-07
 -1      2806 1.13329E+00 1.13329E+00 2.11361E-06-1.34222E-01-3.07656E-07-3.71871E-08
 -1      2807 1.13329E+00 1.13329E+00 1.60235E-06-1.34222E-01-2.59350E-07-4.58075E-08
 -1      2808 1.13329E+00 1.13329E+00 1.21378E-06-1.34222E-01-1.50997E-07-2.04498E-08
 -1      2809 1.13329E+00 1.13329E+00 1.02625E-06-1.34222E-01-4.85216E-08-5.02133E-09
 -1      2810 1.13329E+00 1.13329E+00 1.02625E-06-1.34222E-01 4.85222E-08 5.02106E-09
 -1      2811 1.13329E+00 1.13329E+00 1.21378E-06-1.34222E-01 1.50997E-07 2.04500E-08
 -1      2812 1.13329E+00 1.13329E+00 1.60235E-06-1.34222E-01 2.59350E-07 4.58073E-08
 -1      2813 1.13329E+00 1.13329E+00 2.11361E-06-1.34222E-01 3.07657E-07 3.71871E-08
 -1      2814 1.13329E+00 1.13329E+00 2.39748E-06-1.34222E-01 9.35272E-08-1.98191E-07
 -1      2815 1.17476E+00 1.09181E+00-1.68786E-06-1.27653E-01 1.07212E-06 8.65106E-07
 -1      2816 1.17476E+00 1.09181E+00-1.32166E-06-1.27653E-01 2.17072E-07 1.90679E-07
 -1      2817 1.17476E+00 1.09181E+00-8.77573E-07-1.27653E-01 3.95770E-08 4.49746E-08
 -1      2818 1.17476E+00 1.09181E+00-7.41502E-07-1.27653E-01 2.84715E-09 1.18372E-08
 -1      2819 1.17476E+00 1.09181E+00-7.00774E-07-1.27653E-01-3.98270E-10 3.28964E-09
 -1      2820 1.17476E+00 1.09181E+00-7.00774E-07-1.27653E-01 3.98341E-10-3.28991E-09
 -1      2821 1.17476E+00 1.09181E+00-7.41502E-07-1.27653E-01-2.84688E-09-1.18375E-08
 -1      2822 1.17476E+00 1.09181E+00-8.77573E-07-1.27653E-01-3.95769E-08-4.49747E-08
 -1      2823 1.17476E+00 1.09181E+00-1.32166E-06-1.27653E-01-2.17072E-07-1.90679E-07
 -1      2824 1.17476E+00 1.09181E+00-1.68786E-06-1.27653E-01-1.07212E-06-8.65106E-07
 -1      2825 1.21218E+00 1.05439E+00 8.57129E-07-1.08588E-01 6.30969E-07 9.46691E-08
 -1      2826 1.21218E+00 1.05439E+00 8.52903E-07-1.08588E-01 8.94693E-08-2.88246E-07
 -1      2827 1.21218E+00 1.05439E+00 6.62747E-07-1.08588E-01 1.01276E-08-2.95573E-07
 -1      2828 1.21218E+00 1.05439E+00 4.30667E-07-1.08588E-01 5.71974E-09-1.90035E-07
 -1      2829 1.21218E+00 1.05439E+00 3.05791E-07-1.08588E-01 3.12194E-09-6.35004E-08
 -1      2830 1.21218E+00 1.05439E+00 3.05791E-07-1.08588E-01-3.12161E-09 6.35002E-08
 -1      2831 1.21218E+00 1.05439E+00 4.30667E-07-1.08588E-01-5.71961E-09 1.90034E-07
 -1      2832 1.21218E+00 1.05439E+00 6.62747E-07-1.08588E-01-1.01274E-08 2.95572E-07
 -1      2833 1.21218E+00 1.05439E+00 8.52903E-07-1.08588E-01-8.94692E-08 2.88246E-07
 -1      2834 1.21218E+00 1.05439E+00 8.57129E-07-1.08588E-01-6.30969E-07-9.46692E-08
 -1      2835 1.24188E+00 1.02470E+00 4.44201E-06-7.88940E-02-4.51226E-07 4.23593E-08
 -1      2836 1.24188E+00 1.02470E+00 4.01510E-06-7.88939E-02-5.24296E-07-4.78167E-08
 -1      2837 1.24188E+00 1.02470E+00 2.98089E-06-7.88938E-02-3.81560E-07-6.27581E-08
 -1      2838 1.24188E+00 1.02470E+00 2.25467E-06-7.88937E-02-2.07781E-07-4.52115E-08
 -1      2839 1.24188E+00 1.02470E+00 1.90488E-06-7.88937E-02-6.48124E-08-1.59784E-08
 -1      2840 1.24188E+00 1.02470E+00 1.90488E-06-7.88937E-02 6.48123E-08 1.59782E-08
 -1      2841 1.24188E+00 1.02470E+00 2.25467E-06-7.88937E-02 2.07781E-07 4.52113E-08
 -1      2842 1.24188E+00 1.02470E+00 2.98089E-06-7.88938E-02 3.81560E-07 6.27580E-08
 -1      2843 1.24188E+00 1.02470E+00 4.01510E-06-7.88939E-02 5.24296E-07 4.78166E-08
 -1      2844 1.24188E+00 1.02470E+00 4.44201E-06-7.88940E-02 4.51226E-07-4.23594E-08
 -1      2845 1.26094E+00 1.00563E+00 8.81223E-07-4.14770E-02 4.90710E-07 6.53715E-07
 -1      2846 1.26094E+00 1.00564E+00 8.45370E-07-4.14772E-02-1.15258E-07 5.64588E-07
 -1      2847 1.26094E+00 1.00564E+00 7.61872E-07-4.14772E-02-1.75753E-07 4.21529E-07
 -1      2848 1.26094E+00 1.00564E+00 5.90836E-07-4.14772E-02-1.13876E-07 2.46380E-07
 -1      2849 1.26094E+00 1.00564E+00 4.87950E-07-4.14772E-02-3.73778E-08 8.00405E-08
 -1      2850 1.26094E+00 1.00564E+00 4.87949E-07-4.14772E-02 3.73778E-08-8.00406E-08
 -1      2851 1.26094E+00 1.00564E+00 5.90836E-07-4.14772E-02 1.13876E-07-2.46381E-07
 -1      2852 1.26094E+00 1.00564E+00 7.61872E-07-4.14772E-02 1.75753E-07-4.21530E-07
 -1      2853 1.26094E+00 1.00564E+00 8.45370E-07-4.14772E-02 1.15258E-07-5.64588E-07
 -1      2854 1.26094E+00 1.00563E+00 8.81223E-07-4.14770E-02-4.90710E-07-6.53715E-07
 -1      2855 1.00564E+00 1.26094E+00 4.36060E-07-4.14768E-02 1.34448E-07 7.58106E-07
 -1      2856 1.00212E+00 1.26446E+00 9.39898E-07-2.07750E-02 4.06697E-08 5.76587E-07
 -1      2858 1.00563E+00 1.26094E+00 9.82244E-07-4.14770E-02 5.65574E-08 2.37051E-07
 -1      2859 1.00212E+00 1.26446E+00 9.30148E-07-2.07749E-02-6.84174E-09-5.31025E-08
 -1      2861 1.00564E+00 1.26094E+00 8.90279E-07-4.14769E-02-5.21527E-09-8.46183E-08
 -1      2862 1.00212E+00 1.26446E+00 7.52803E-07-2.07749E-02-9.77354E-09-1.23751E-07
 -1      2864 1.00564E+00 1.26094E+00 6.53461E-07-4.14769E-02-1.46111E-08-8.96152E-08
 -1      2865 1.00212E+00 1.26446E+00 5.32560E-07-2.07749E-02-5.41969E-09-8.03694E-08
 -1      2867 1.00564E+00 1.26094E+00 4.89236E-07-4.14769E-02-9.66670E-09-4.76916E-08
 -1      2868 1.00212E+00 1.26446E+00 4.13366E-07-2.07749E-02-1.59246E-09-2.59105E-08
 -1      2870 1.00564E+00 1.26094E+00 4.33289E-07-4.14769E-02-3.72742E-14-1.80087E-13
 -1      2871 1.00212E+00 1.26446E+00 4.13366E-07-2.07749E-02 1.59230E-09 2.59106E-08
 -1      2873 1.00564E+00 1.26094E+00 4.89236E-07-4.14769E-02 9.66662E-09 4.76917E-08
 -1      2874 1.00212E+00 1.26446E+00 5.32560E-07-2.07749E-02 5.41953E-09 8.03694E-08
 -1      2876 1.00564E+00 1.26094E+00 6.53461E-07-4.14769E-02 1.46109E-08 8.96153E-08
 -1      2877 1.00212E+00 1.26446E+00 7.52803E-07-2.07749E-02 9.77338E-09 1.23751E-07
 -1      2879 1.00564E+00 1.26094E+00 8.90279E-07-4.14769E-02 5.21517E-09 8.46182E-08
 -1      2880 1.00212E+00 1.26446E+00 9.30148E-07-2.07749E-02 6.84162E-09 5.31025E-08
 -1      2882 1.00563E+00 1.26094E+00 9.82244E-07-4.14770E-02-5.65575E-08-2.37051E-07
 -1      2883 1.00212E+00 1.26446E+00 9.39898E-07-2.07750E-02-4.06698E-08-5.76587E-07
 -1      2885 1.00564E+00 1.26094E+00 4.36060E-07-4.14768E-02-1.34448E-07-7.58106E-07
 -1      2887 1.02470E+00 1.24188E+00 4.39455E-07-7.88936E-02 2.63248E-07 7.08813E-07
 -1      2888 1.01496E+00 1.25162E+00 9.51951E-07-6.02913E-02 1.17250E-07 5.61835E-07
 -1      2890 1.02470E+00 1.24188E+00 9.70706E-07-7.88939E-02 1.20174E-07 2.07480E-07
 -1      2891 1.01496E+00 1.25162E+00 9.38823E-07-6.02912E-02-2.47062E-08-5.06043E-08
 -1      2893 1.02470E+00 1.24188E+00 8.62108E-07-7.88938E-02 4.28445E-09-9.11455E-08
 -1      2894 1.01496E+00 1.25162E+00 7.60325E-07-6.02911E-02-3.27635E-08-1.20798E-07
 -1      2896 1.02470E+00 1.24188E+00 6.22684E-07-7.88938E-02-1.61329E-08-8.85742E-08
 -1      2897 1.01496E+00 1.25162E+00 5.38608E-07-6.02911E-02-1.85108E-08-7.90237E-08
 -1      2899 1.02470E+00 1.24188E+00 4.61174E-07-7.88938E-02-1.20951E-08-4.56098E-08
 -1      2900 1.01496E+00 1.25162E+00 4.18194E-07-6.02911E-02-5.54062E-09-2.55885E-08
 -1      2902 1.02470E+00 1.24188E+00 4.06829E-07-7.88937E-02-1.18041E-13 7.35907E-14
 -1      2903 1.01496E+00 1.25162E+00 4.18194E-07-6.02911E-02 5.54062E-09 2.55885E-08
 -1      2905 1.02470E+00 1.24188E+00 4.61174E-07-7.88938E-02 1.20950E-08 4.56098E-08
 -1      2906 1.01496E+00 1.25162E+00 5.38608E-07-6.02911E-02 1.85108E-08 7.90237E-08
 -1      2908 1.02470E+00 1.24188E+00 6.22684E-07-7.88938E-02 1.61327E-08 8.85742E-08
 -1      2909 1.01496E+00 1.25162E+00 7.60325E-07-6.02911E-02 3.27635E-08 1.20798E-07
 -1      2911 1.02470E+00 1.24188E+00 8.62108E-07-7.88938E-02-4.28451E-09 9.11456E-08
 -1      2912 1.01496E+00 1.25162E+00 9.38823E-07-6.02912E-02 2.47062E-08 5.06043E-08
 -1      2914 1.02470E+00 1.24188E+00 9.70706E-07-7.88939E-02-1.20174E-07-2.07479E-07
 -1      2915 1.01496E+00 1.25162E+00 9.51951E-07-6.02913E-02-1.17250E-07-5.61835E-07
 -1      2917 1.02470E+00 1.24188E+00 4.39455E-07-7.88936E-02-2.63248E-07-7.08813E-07
 -1      2919 1.05439E+00 1.21218E+00 3.97813E-07-1.08588E-01 4.08448E-07 6.88811E-07
 -1      2920 1.03938E+00 1.22719E+00 9.43374E-07-9.39059E-02 1.96468E-07 5.60201E-07
 -1      2922 1.05439E+00 1.21218E+00 8.93728E-07-1.08588E-01 2.07650E-07 1.78422E-07
 -1      2923 1.03938E+00 1.22719E+00 9.54558E-07-9.39057E-02-4.97224E-08-3.52603E-08
 -1      2925 1.05439E+00 1.21218E+00 7.72492E-07-1.08588E-01 4.29536E-08-1.16981E-07
 -1      2926 1.03938E+00 1.22719E+00 7.86695E-07-9.39056E-02-6.63310E-08-1.08790E-07
 -1      2928 1.05439E+00 1.21218E+00 5.21465E-07-1.08588E-01 9.43225E-09-1.04829E-07
 -1      2929 1.03938E+00 1.22719E+00 5.68115E-07-9.39056E-02-3.97122E-08-7.31326E-08
 -1      2931 1.05439E+00 1.21218E+00 3.56223E-07-1.08588E-01 1.10483E-09-5.30546E-08
 -1      2932 1.03938E+00 1.22719E+00 4.47643E-07-9.39056E-02-1.24309E-08-2.39264E-08
 -1      2934 1.05439E+00 1.21218E+00 3.01325E-07-1.08588E-01 3.27008E-14 9.46977E-14
 -1      2935 1.03938E+00 1.22719E+00 4.47643E-07-9.39056E-02 1.24309E-08 2.39264E-08
 -1      2937 1.05439E+00 1.21218E+00 3.56223E-07-1.08588E-01-1.10478E-09 5.30545E-08
 -1      2938 1.03938E+00 1.22719E+00 5.68115E-07-9.39056E-02 3.97122E-08 7.31327E-08
 -1      2940 1.05439E+00 1.21218E+00 5.21465E-07-1.08588E-01-9.43221E-09 1.04829E-07
 -1      2941 1.03938E+00 1.22719E+00 7.86695E-07-9.39056E-02 6.63309E-08 1.08790E-07
 -1      2943 1.05439E+00 1.21218E+00 7.72492E-07-1.08588E-01-4.29536E-08 1.16981E-07
 -1      2944 1.03938E+00 1.22719E+00 9.54558E-07-9.39057E-02 4.97223E-08 3.52603E-08
 -1      2946 1.05439E+00 1.21218E+00 8.93728E-07-1.08588E-01-2.07650E-07-1.78422E-07
 -1      2947 1.03938E+00 1.22719E+00 9.43373E-07-9.39059E-02-1.96468E-07-5.60201E-07
 -1      2949 1.05439E+00 1.21218E+00 3.97813E-07-1.08588E-01-4.08448E-07-6.88811E-07
 -1      2951 1.09181E+00 1.17477E+00 1.08427E-06-1.27653E-01 3.50854E-07 4.87245E-07
 -1      2952 1.07300E+00 1.19358E+00 1.06944E-06-1.18328E-01 2.25407E-07 4.81724E-07
 -1      2954 1.09181E+00 1.17477E+00 2.01245E-06-1.27653E-01 5.02553E-08 1.97116E-08
 -1      2955 1.07300E+00 1.19358E+00 1.03489E-06-1.18328E-01-9.47513E-08-1.80299E-08
 -1      2957 1.09181E+00 1.17476E+00 1.56295E-06-1.27653E-01-8.06256E-08-1.82297E-07
 -1      2958 1.07300E+00 1.19358E+00 8.66082E-07-1.18328E-01-1.14482E-07-8.10966E-08
 -1      2960 1.09181E+00 1.17476E+00 1.10975E-06-1.27653E-01-6.38821E-08-1.42254E-07
 -1      2961 1.07300E+00 1.19358E+00 6.53883E-07-1.18328E-01-7.09502E-08-5.40335E-08
 -1      2963 1.09181E+00 1.17476E+00 8.36466E-07-1.27653E-01-3.12822E-08-7.00705E-08
 -1      2964 1.07300E+00 1.19358E+00 5.37345E-07-1.18328E-01-2.29813E-08-1.74667E-08
 -1      2966 1.09181E+00 1.17476E+00 7.47946E-07-1.27653E-01 1.60760E-14-3.69980E-14
 -1      2967 1.07300E+00 1.19358E+00 5.37345E-07-1.18328E-01 2.29815E-08 1.74666E-08
 -1      2969 1.09181E+00 1.17476E+00 8.36466E-07-1.27653E-01 3.12823E-08 7.00704E-08
 -1      2970 1.07300E+00 1.19358E+00 6.53883E-07-1.18328E-01 7.09503E-08 5.40334E-08
 -1      2972 1.09181E+00 1.17476E+00 1.10975E-06-1.27653E-01 6.38822E-08 1.42254E-07
 -1      2973 1.07300E+00 1.19358E+00 8.66082E-07-1.18328E-01 1.14482E-07 8.10965E-08
 -1      2975 1.09181E+00 1.17476E+00 1.56295E-06-1.27653E-01 8.06257E-08 1.82297E-07
 -1      2976 1.07300E+00 1.19358E+00 1.03489E-06-1.18328E-01 9.47514E-08 1.80298E-08
 -1      2978 1.09181E+00 1.17477E+00 2.01245E-06-1.27653E-01-5.02553E-08-1.97117E-08
 -1      2979 1.07300E+00 1.19358E+00 1.06944E-06-1.18328E-01-2.25407E-07-4.81724E-07
 -1      2981 1.09181E+00 1.17477E+00 1.08427E-06-1.27653E-01-3.50854E-07-4.87245E-07
 -1      2983 1.13329E+00 1.13329E+00 1.40004E-06-1.34222E-01 1.44201E-07 3.52724E-07
 -1      2984 1.11251E+00 1.15406E+00 1.37917E-06-1.31168E-01 2.25380E-07 2.12484E-07
 -1      2986 1.13329E+00 1.13329E+00 2.48007E-06-1.34222E-01-2.30511E-07 8.56778E-08
 -1      2987 1.11251E+00 1.15406E+00 1.12950E-06-1.31168E-01-5.26511E-08-9.87114E-08
 -1      2989 1.13329E+00 1.13329E+00 1.90584E-06-1.34222E-01-2.97557E-07-3.00202E-08
 -1      2990 1.11251E+00 1.15406E+00 9.01786E-07-1.31168E-01-7.31823E-08-1.15139E-07
 -1      2992 1.13329E+00 1.13329E+00 1.40843E-06-1.34222E-01-2.06845E-07-2.71823E-08
 -1      2993 1.11251E+00 1.15406E+00 6.77164E-07-1.31168E-01-4.29730E-08-6.75884E-08
 -1      2995 1.13329E+00 1.13329E+00 1.11764E-06-1.34222E-01-1.00314E-07-1.07917E-08
 -1      2996 1.11251E+00 1.15406E+00 5.60435E-07-1.31168E-01-1.33519E-08-2.13076E-08
 -1      2998 1.13329E+00 1.13329E+00 1.02455E-06-1.34222E-01 3.92282E-13-6.00148E-14
 -1      2999 1.11251E+00 1.15406E+00 5.60435E-07-1.31168E-01 1.33521E-08 2.13075E-08
 -1      3001 1.13329E+00 1.13329E+00 1.11764E-06-1.34222E-01 1.00314E-07 1.07915E-08
 -1      3002 1.11251E+00 1.15406E+00 6.77164E-07-1.31168E-01 4.29730E-08 6.75883E-08
 -1      3004 1.13329E+00 1.13329E+00 1.40843E-06-1.34222E-01 2.06846E-07 2.71824E-08
 -1      3005 1.11251E+00 1.15406E+00 9.01786E-07-1.31168E-01 7.31825E-08 1.15139E-07
 -1      3007 1.13329E+00 1.13329E+00 1.90584E-06-1.34222E-01 2.97557E-07 3.00201E-08
 -1      3008 1.11251E+00 1.15406E+00 1.12950E-06-1.31168E-01 5.26512E-08 9.87114E-08
 -1      3010 1.13329E+00 1.13329E+00 2.48007E-06-1.34222E-01 2.30511E-07-8.56778E-08
 -1      3011 1.11251E+00 1.15406E+00 1.37917E-06-1.31168E-01-2.25380E-07-2.12484E-07
 -1      3013 1.13329E+00 1.13329E+00 1.40004E-06-1.34222E-01-1.44201E-07-3.52724E-07
 -1      3015 1.17477E+00 1.09181E+00-1.18986E-06-1.27652E-01 1.10187E-06 8.82047E-07
 -1      3016 1.15406E+00 1.11251E+00 7.73596E-07-1.31168E-01 6.46316E-07 2.95079E-07
 -1      3018 1.17476E+00 1.09181E+00-1.61170E-06-1.27653E-01 6.15296E-07 5.13729E-07
 -1      3019 1.15406E+00 1.11251E+00 8.55786E-07-1.31168E-01 9.73121E-08-1.60631E-07
 -1      3021 1.17476E+00 1.09181E+00-9.52682E-07-1.27653E-01 1.18678E-07 1.13549E-07
 -1      3022 1.15406E+00 1.11251E+00 7.06123E-07-1.31168E-01-2.30121E-10-1.85283E-07
 -1      3024 1.17476E+00 1.09181E+00-7.62778E-07-1.27653E-01 2.88481E-08 3.30666E-08
 -1      3025 1.15406E+00 1.11251E+00 4.89855E-07-1.31168E-01-7.12072E-09-1.18491E-07
 -1      3027 1.17476E+00 1.09181E+00-6.96073E-07-1.27653E-01 5.03919E-09 1.01163E-08
 -1      3028 1.15406E+00 1.11251E+00 3.67767E-07-1.31168E-01-2.05060E-09-3.92222E-08
 -1      3030 1.17476E+00 1.09181E+00-6.78533E-07-1.27653E-01 3.95924E-14-1.15220E-13
 -1      3031 1.15406E+00 1.11251E+00 3.67767E-07-1.31168E-01 2.05083E-09 3.92218E-08
 -1      3033 1.17476E+00 1.09181E+00-6.96073E-07-1.27653E-01-5.03902E-09-1.01166E-08
 -1      3034 1.15406E+00 1.11251E+00 4.89855E-07-1.31168E-01 7.12088E-09 1.18490E-07
 -1      3036 1.17476E+00 1.09181E+00-7.62778E-07-1.27653E-01-2.88480E-08-3.30668E-08
 -1      3037 1.15406E+00 1.11251E+00 7.06123E-07-1.31168E-01 2.30350E-10 1.85283E-07
 -1      3039 1.17476E+00 1.09181E+00-9.52682E-07-1.27653E-01-1.18678E-07-1.13549E-07
 -1      3040 1.15406E+00 1.11251E+00 8.55786E-07-1.31168E-01-9.73120E-08 1.60631E-07
 -1      3042 1.17476E+00 1.09181E+00-1.61170E-06-1.27653E-01-6.15296E-07-5.13729E-07
 -1      3043 1.15406E+00 1.11251E+00 7.73596E-07-1.31168E-01-6.46316E-07-2.95079E-07
 -1      3045 1.17477E+00 1.09181E+00-1.18986E-06-1.27652E-01-1.10187E-06-8.82047E-07
 -1      3047 1.21218E+00 1.05439E+00 4.54321E-07-1.08588E-01 7.51974E-07 2.78339E-07
 -1      3048 1.19358E+00 1.07300E+00 4.49424E-07-1.18328E-01 7.08816E-07 5.67886E-07
 -1      3050 1.21218E+00 1.05439E+00 1.00227E-06-1.08588E-01 3.41923E-07-1.26874E-07
 -1      3051 1.19358E+00 1.07300E+00 7.41916E-07-1.18328E-01-6.56085E-08 1.40020E-07
 -1      3053 1.21218E+00 1.05439E+00 8.52160E-07-1.08588E-01 5.27148E-08-3.17434E-07
 -1      3054 1.19358E+00 1.07300E+00 6.58416E-07-1.18328E-01-1.62521E-07 5.17588E-08
 -1      3056 1.21218E+00 1.05439E+00 5.57889E-07-1.08588E-01 1.59325E-08-2.52549E-07
 -1      3057 1.19358E+00 1.07300E+00 4.62954E-07-1.18328E-01-1.13789E-07 2.40717E-08
 -1      3059 1.21218E+00 1.05439E+00 3.65232E-07-1.08588E-01 7.61840E-09-1.29949E-07
 -1      3060 1.19358E+00 1.07300E+00 3.45672E-07-1.18328E-01-3.81975E-08 7.77451E-09
 -1      3062 1.21218E+00 1.05439E+00 3.01841E-07-1.08588E-01 1.42964E-13-6.02921E-14
 -1      3063 1.19358E+00 1.07300E+00 3.45672E-07-1.18328E-01 3.81977E-08-7.77469E-09
 -1      3065 1.21218E+00 1.05439E+00 3.65232E-07-1.08588E-01-7.61810E-09 1.29949E-07
 -1      3066 1.19358E+00 1.07300E+00 4.62954E-07-1.18328E-01 1.13789E-07-2.40719E-08
 -1      3068 1.21218E+00 1.05439E+00 5.57889E-07-1.08588E-01-1.59324E-08 2.52548E-07
 -1      3069 1.19358E+00 1.07300E+00 6.58416E-07-1.18328E-01 1.62521E-07-5.17589E-08
 -1      3071 1.21218E+00 1.05439E+00 8.52160E-07-1.08588E-01-5.27147E-08 3.17434E-07
 -1      3072 1.19358E+00 1.07300E+00 7.41916E-07-1.18328E-01 6.56087E-08-1.40020E-07
 -1      3074 1.21218E+00 1.05439E+00 1.00227E-06-1.08588E-01-3.41923E-07 1.26874E-07
 -1      3075 1.19358E+00 1.07300E+00 4.49424E-07-1.18328E-01-7.08816E-07-5.67886E-07
 -1      3077 1.21218E+00 1.05439E+00 4.54321E-07-1.08588E-01-7.51974E-07-2.78339E-07
 -1      3079 1.24188E+00 1.02470E+00 2.75829E-06-7.88939E-02-5.27177E-08 1.39458E-07
 -1      3080 1.22719E+00 1.03938E+00 1.46387E-06-9.39059E-02 1.72300E-07 1.95325E-07
 -1      3082 1.24188E+00 1.02470E+00 4.73423E-06-7.88939E-02-5.25346E-07 1.76329E-08
 -1      3083 1.22719E+00 1.03938E+00 1.15054E-06-9.39058E-02-1.70799E-07 1.08603E-07
 -1      3085 1.24188E+00 1.02470E+00 3.52270E-06-7.88938E-02-4.64139E-07-4.43106E-08
 -1      3086 1.22719E+00 1.03938E+00 9.30858E-07-9.39058E-02-1.77282E-07 8.66534E-08
 -1      3088 1.24188E+00 1.02470E+00 2.58484E-06-7.88938E-02-3.00755E-07-5.54822E-08
 -1      3089 1.22719E+00 1.03938E+00 7.29688E-07-9.39057E-02-1.05267E-07 6.01007E-08
 -1      3091 1.24188E+00 1.02470E+00 2.04108E-06-7.88937E-02-1.39223E-07-3.22840E-08
 -1      3092 1.22719E+00 1.03938E+00 6.28512E-07-9.39057E-02-3.37682E-08 2.13340E-08
 -1      3094 1.24188E+00 1.02470E+00 1.86680E-06-7.88937E-02-9.96872E-15-7.09490E-14
 -1      3095 1.22719E+00 1.03938E+00 6.28512E-07-9.39057E-02 3.37683E-08-2.13343E-08
 -1      3097 1.24188E+00 1.02470E+00 2.04108E-06-7.88937E-02 1.39223E-07 3.22838E-08
 -1      3098 1.22719E+00 1.03938E+00 7.29688E-07-9.39057E-02 1.05267E-07-6.01009E-08
 -1      3100 1.24188E+00 1.02470E+00 2.58484E-06-7.88938E-02 3.00755E-07 5.54821E-08
 -1      3101 1.22719E+00 1.03938E+00 9.30858E-07-9.39058E-02 1.77282E-07-8.66535E-08
 -1      3103 1.24188E+00 1.02470E+00 3.52270E-06-7.88938E-02 4.64139E-07 4.43104E-08
 -1      3104 1.22719E+00 1.03938E+00 1.15054E-06-9.39058E-02 1.70799E-07-1.08603E-07
 -1      3106 1.24188E+00 1.02470E+00 4.73423E-06-7.88939E-02 5.25346E-07-1.76330E-08
 -1      3107 1.22719E+00 1.03938E+00 1.46387E-06-9.39059E-02-1.72300E-07-1.95325E-07
 -1      3109 1.24188E+00 1.02470E+00 2.75829E-06-7.88939E-02 5.27178E-08-1.39458E-07
 -1      3111 1.26094E+00 1.00564E+00 3.51369E-07-4.14765E-02 6.83845E-07 4.91528E-07
 -1      3112 1.25162E+00 1.01496E+00 1.44676E-06-6.02915E-02 2.60508E-07-2.55968E-07
 -1      3114 1.26094E+00 1.00563E+00 8.96332E-07-4.14771E-02 1.72682E-07 6.79165E-07
 -1      3115 1.25162E+00 1.01496E+00 1.06903E-06-6.02914E-02-4.69288E-08-3.19498E-07
 -1      3117 1.26094E+00 1.00564E+00 9.15920E-07-4.14772E-02-1.50743E-07 5.45421E-07
 -1      3118 1.25162E+00 1.01496E+00 8.23136E-07-6.02913E-02-7.09736E-08-2.44024E-07
 -1      3120 1.26094E+00 1.00564E+00 7.10923E-07-4.14772E-02-1.42504E-07 3.50769E-07
 -1      3121 1.25162E+00 1.01496E+00 6.15205E-07-6.02913E-02-3.73347E-08-1.38945E-07
 -1      3123 1.26094E+00 1.00564E+00 5.51126E-07-4.14772E-02-7.48333E-08 1.67833E-07
 -1      3124 1.25162E+00 1.01496E+00 5.14607E-07-6.02913E-02-1.07734E-08-4.44141E-08
 -1      3126 1.26094E+00 1.00564E+00 4.95357E-07-4.14772E-02-1.44198E-13-6.41402E-14
 -1      3127 1.25162E+00 1.01496E+00 5.14607E-07-6.02913E-02 1.07735E-08 4.44139E-08
 -1      3129 1.26094E+00 1.00564E+00 5.51126E-07-4.14772E-02 7.48334E-08-1.67833E-07
 -1      3130 1.25162E+00 1.01496E+00 6.15205E-07-6.02913E-02 3.73348E-08 1.38945E-07
 -1      3132 1.26094E+00 1.00564E+00 7.10924E-07-4.14772E-02 1.42504E-07-3.50769E-07
 -1      3133 1.25162E+00 1.01496E+00 8.23136E-07-6.02913E-02 7.09736E-08 2.44024E-07
 -1      3135 1.26094E+00 1.00564E+00 9.15920E-07-4.14772E-02 1.50744E-07-5.45421E-07
 -1      3136 1.25162E+00 1.01496E+00 1.06903E-06-6.02914E-02 4.69288E-08 3.19498E-07
 -1      3138 1.26094E+00 1.00563E+00 8.96332E-07-4.14771E-02-1.72682E-07-6.79165E-07
 -1      3139 1.25162E+00 1.01496E+00 1.44676E-06-6.02915E-02-2.60508E-07 2.55968E-07
 -1      3141 1.26094E+00 1.00564E+00 3.51369E-07-4.14765E-02-6.83845E-07-4.91528E-07
 -1      3143 1.26445E+00 1.00212E+00-1.84163E-07-2.07752E-02 1.22207E-06-2.30285E-07
 -1      3145 1.26446E+00 1.00212E+00 3.25476E-07-2.07750E-02 1.15803E-07-3.25619E-07
 -1      3147 1.26446E+00 1.00212E+00 2.78747E-07-2.07750E-02-6.67260E-08-2.60305E-07
 -1      3149 1.26446E+00 1.00212E+00 8.67049E-08-2.07750E-02-6.42526E-08-1.56476E-07
 -1      3151 1.26446E+00 1.00212E+00-3.00687E-08-2.07750E-02-2.23139E-08-5.13918E-08
 -1      3153 1.26446E+00 1.00212E+00-3.00687E-08-2.07750E-02 2.23139E-08 5.13918E-08
 -1      3155 1.26446E+00 1.00212E+00 8.67048E-08-2.07750E-02 6.42526E-08 1.56476E-07
 -1      3157 1.26446E+00 1.00212E+00 2.78747E-07-2.07750E-02 6.67261E-08 2.60305E-07
 -1      3159 1.26446E+00 1.00212E+00 3.25476E-07-2.07750E-02-1.15803E-07 3.25619E-07
 -1      3161 1.26445E+00 1.00212E+00-1.84163E-07-2.07752E-02-1.22207E-06 2.30285E-07
 -1      3164 1.27509E+00 9.91498E-01 2.05278E-06-1.18509E-03-1.52118E-06 4.54383E-07
 -1      3165 1.27509E+00 9.91497E-01 1.84491E-06-1.18483E-03-2.86000E-07 1.93875E-07
 -1      3166 1.27509E+00 9.91497E-01 1.40991E-06-1.18481E-03 1.20934E-07 2.28566E-08
 -1      3167 1.27509E+00 9.91497E-01 1.21245E-06-1.18484E-03 1.22624E-07-3.61036E-08
 -1      3168 1.27509E+00 9.91497E-01 1.15382E-06-1.18485E-03 4.63819E-08-1.94761E-08
 -1      3169 1.27509E+00 9.91497E-01 1.15382E-06-1.18485E-03-4.63820E-08 1.94764E-08
 -1      3170 1.27509E+00 9.91497E-01 1.21245E-06-1.18484E-03-1.22625E-07 3.61037E-08
 -1      3171 1.27509E+00 9.91497E-01 1.40991E-06-1.18481E-03-1.20934E-07-2.28567E-08
 -1      3172 1.27509E+00 9.91497E-01 1.84491E-06-1.18483E-03 2.86001E-07-1.93875E-07
 -1      3173 1.27509E+00 9.91498E-01 2.05278E-06-1.18509E-03 1.52118E-06-4.54383E-07
 -1      3174 1.28280E+00 9.83772E-01-1.63086E-06-5.95344E-06 9.46383E-07 2.02851E-08
 -1      3175 1.28280E+00 9.83772E-01-2.09034E-06-5.83478E-06 5.00461E-07 8.28572E-08
 -1      3176 1.28280E+00 9.83772E-01-2.24016E-06-5.73567E-06 1.66890E-07 6.68247E-08
 -1      3177 1.28280E+00 9.83772E-01-2.27694E-06-5.69008E-06 6.57637E-08 4.06174E-08
 -1      3178 1.28280E+00 9.83772E-01-2.29209E-06-5.67316E-06 1.95261E-08 1.31485E-08
 -1      3179 1.28280E+00 9.83772E-01-2.29209E-06-5.67316E-06-1.95261E-08-1.31487E-08
 -1      3180 1.28280E+00 9.83772E-01-2.27694E-06-5.69008E-06-6.57638E-08-4.06175E-08
 -1      3181 1.28280E+00 9.83772E-01-2.24016E-06-5.73567E-06-1.66890E-07-6.68246E-08
 -1      3182 1.28280E+00 9.83772E-01-2.09034E-06-5.83478E-06-5.00461E-07-8.28574E-08
 -1      3183 1.28280E+00 9.83772E-01-1.63086E-06-5.95344E-06-9.46383E-07-2.02850E-08
 -1      3184 1.29097E+00 9.75608E-01 4.22271E-07-1.85196E-04-3.76491E-07 2.29974E-08
 -1      3185 1.29097E+00 9.75608E-01 6.10585E-07-1.85196E-04-2.99415E-07 1.35607E-08
 -1      3186 1.29097E+00 9.75607E-01 6.47434E-07-1.85187E-04-1.70169E-07 1.77449E-08
 -1      3187 1.29097E+00 9.75607E-01 6.47022E-07-1.85171E-04-7.09803E-08 1.45531E-08
 -1      3188 1.29097E+00 9.75607E-01 6.34290E-07-1.85162E-04-1.92479E-08 5.41188E-09
 -1      3189 1.29097E+00 9.75607E-01 6.34290E-07-1.85162E-04 1.92478E-08-5.41184E-09
 -1      3190 1.29097E+00 9.75607E-01 6.47022E-07-1.85171E-04 7.09803E-08-1.45532E-08
 -1      3191 1.29097E+00 9.75607E-01 6.47434E-07-1.85187E-04 1.70169E-07-1.77451E-08
 -1      3192 1.29097E+00 9.75608E-01 6.10585E-07-1.85196E-04 2.99414E-07-1.35606E-08
 -1      3193 1.29097E+00 9.75608E-01 4.22271E-07-1.85196E-04 3.76491E-07-2.29975E-08
 -1      3194 1.29985E+00 9.66723E-01-1.07525E-07-1.49571E-04 7.67815E-08-6.08388E-09
 -1      3195 1.29985E+00 9.66723E-01-1.53108E-07-1.49566E-04 3.07658E-08 1.94380E-10
 -1      3196 1.29985E+00 9.66723E-01-1.34507E-07-1.49563E-04-4.71797E-09 1.73321E-09
 -1      3197 1.29985E+00 9.66723E-01-1.17534E-07-1.49561E-04-1.48369E-08 2.06545E-09
 -1      3198 1.29985E+00 9.66723E-01-1.07617E-07-1.49560E-04-8.01700E-09 8.00900E-10
 -1      3199 1.29985E+00 9.66723E-01-1.07617E-07-1.49560E-04 8.01693E-09-8.00837E-10
 -1      3200 1.29985E+00 9.66723E-01-1.17534E-07-1.49561E-04 1.48369E-08-2.06536E-09
 -1      3201 1.29985E+00 9.66723E-01-1.34507E-07-1.49563E-04 4.71793E-09-1.73311E-09
 -1      3202 1.29985E+00 9.66723E-01-1.53108E-07-1.49566E-04-3.07658E-08-1.94293E-10
 -1      3203 1.29985E+00 9.66723E-01-1.07525E-07-1.49571E-04-7.67818E-08 6.08391E-09
 -1      3204 1.30950E+00 9.57075E-01 3.14361E-08-1.70108E-04-3.52624E-08 2.73547E-09
 -1      3205 1.30950E+00 9.57075E-01 5.23890E-08-1.70108E-04-2.40591E-08 1.09788E-09
 -1      3206 1.30950E+00 9.57075E-01 5.08213E-08-1.70108E-04-1.49782E-08 2.92718E-10
 -1      3207 1.30950E+00 9.57075E-01 5.01427E-08-1.70108E-04-7.61016E-09-1.03630E-10
 -1      3208 1.30950E+00 9.57075E-01 5.04583E-08-1.70108E-04-2.73243E-09-9.34204E-11
 -1      3209 1.30950E+00 9.57075E-01 5.04583E-08-1.70108E-04 2.73233E-09 9.34716E-11
 -1      3210 1.30950E+00 9.57075E-01 5.01427E-08-1.70108E-04 7.61025E-09 1.03313E-10
 -1      3211 1.30950E+00 9.57075E-01 5.08211E-08-1.70108E-04 1.49782E-08-2.92850E-10
 -1      3212 1.30950E+00 9.57075E-01 5.23889E-08-1.70108E-04 2.40592E-08-1.09800E-09
 -1      3213 1.30950E+00 9.57075E-01 3.14361E-08-1.70108E-04 3.52624E-08-2.73544E-09
 -1      3214 1.32002E+00 9.46561E-01-8.40674E-09-1.77178E-04 7.30188E-09-1.10431E-09
 -1      3215 1.32002E+00 9.46561E-01-1.26849E-08-1.77178E-04 3.55082E-09-3.86063E-10
 -1      3216 1.32002E+00 9.46561E-01-8.92479E-09-1.77178E-04-1.25853E-10-1.17638E-10
 -1      3217 1.32002E+00 9.46561E-01-6.37153E-09-1.77178E-04-8.53160E-10 2.00391E-11
 -1      3218 1.32002E+00 9.46561E-01-5.20634E-09-1.77178E-04-6.23302E-10 7.97153E-13
 -1      3219 1.32002E+00 9.46561E-01-5.20640E-09-1.77178E-04 6.23311E-10-8.11859E-13
 -1      3220 1.32002E+00 9.46561E-01-6.37152E-09-1.77178E-04 8.53081E-10-1.98533E-11
 -1      3221 1.32002E+00 9.46561E-01-8.92470E-09-1.77178E-04 1.25807E-10 1.17544E-10
 -1      3222 1.32002E+00 9.46561E-01-1.26848E-08-1.77178E-04-3.55078E-09 3.86060E-10
 -1      3223 1.32002E+00 9.46561E-01-8.40676E-09-1.77178E-04-7.30179E-09 1.10431E-09
 -1      3224 1.33150E+00 9.35078E-01 1.98508E-09-1.88873E-04-2.63957E-09 2.95143E-10
 -1      3225 1.33150E+00 9.35078E-01 3.77532E-09-1.88873E-04-1.04678E-09 1.18355E-10
 -1      3226 1.33150E+00 9.35078E-01 3.01006E-09-1.88873E-04-6.13297E-10-4.91396E-12
 -1      3227 1.33150E+00 9.35078E-01 2.75023E-09-1.88873E-04-1.25526E-10-1.98910E-11
 -1      3228 1.33150E+00 9.35078E-01 2.77708E-09-1.88873E-04-1.18625E-10-1.26980E-11
 -1      3229 1.33150E+00 9.35078E-01 2.77720E-09-1.88873E-04 1.18530E-10 1.28514E-11
 -1      3230 1.33150E+00 9.35078E-01 2.75036E-09-1.88873E-04 1.25525E-10 1.96956E-11
 -1      3231 1.33150E+00 9.35078E-01 3.01011E-09-1.88873E-04 6.13437E-10 5.16321E-12
 -1      3232 1.33150E+00 9.35078E-01 3.77535E-09-1.88873E-04 1.04679E-09-1.18404E-10
 -1      3233 1.33150E+00 9.35078E-01 1.98515E-09-1.88873E-04 2.63951E-09-2.95171E-10
 -1      3234 1.34407E+00 9.22503E-01-1.12725E-09-2.00648E-04 7.53905E-10-1.09015E-10
 -1      3235 1.34407E+00 9.22503E-01-1.59266E-09-2.00648E-04 6.56782E-10-2.08444E-11
 -1      3236 1.34407E+00 9.22503E-01-1.25816E-09-2.00648E-04 2.45192E-10-7.86296E-12
 -1      3237 1.34407E+00 9.22503E-01-1.10490E-09-2.00648E-04 1.93438E-10 6.21364E-12
 -1      3238 1.34407E+00 9.22503E-01-1.06319E-09-2.00648E-04 1.04417E-11-8.06406E-13
 -1      3239 1.34407E+00 9.22503E-01-1.06318E-09-2.00648E-04-1.04297E-11 7.89493E-13
 -1      3240 1.34407E+00 9.22503E-01-1.10487E-09-2.00648E-04-1.93539E-10-6.04104E-12
 -1      3241 1.34407E+00 9.22503E-01-1.25817E-09-2.00648E-04-2.45214E-10 7.87965E-12
 -1      3242 1.34407E+00 9.22503E-01-1.59278E-09-2.00648E-04-6.56789E-10 2.09259E-11
 -1      3243 1.34407E+00 9.22503E-01-1.12721E-09-2.00648E-04-7.53995E-10 1.08772E-10
 -1      3244 1.35788E+00 9.08691E-01-3.42013E-10-2.13850E-04-1.80450E-10 3.31484E-11
 -1      3245 1.35788E+00 9.08691E-01-2.28729E-10-2.13850E-04 5.78223E-11 2.23404E-11
 -1      3246 1.35788E+00 9.08691E-01-3.80576E-10-2.13850E-04 3.72996E-11 4.93904E-12
 -1      3247 1.35788E+00 9.08691E-01-4.50740E-10-2.13850E-04 8.93356E-11 4.27351E-12
 -1      3248 1.35788E+00 9.08691E-01-4.72197E-10-2.13850E-04 5.15001E-12-3.98732E-13
 -1      3249 1.35788E+00 9.08691E-01-4.72163E-10-2.13850E-04-5.25053E-12 4.80463E-13
 -1      3250 1.35788E+00 9.08691E-01-4.50725E-10-2.13850E-04-8.92628E-11-4.40800E-12
 -1      3251 1.35788E+00 9.08691E-01-3.80640E-10-2.13850E-04-3.72841E-11-4.87230E-12
 -1      3252 1.35788E+00 9.08691E-01-2.28708E-10-2.13850E-04-5.76536E-11-2.23316E-11
 -1      3253 1.35788E+00 9.08691E-01-3.41969E-10-2.13850E-04 1.80417E-10-3.30797E-11
 -1      3254 1.37310E+00 8.93477E-01-6.57139E-10-2.28323E-04 6.69399E-11-6.01062E-12
 -1      3255 1.37310E+00 8.93477E-01-7.05687E-10-2.28323E-04 8.89525E-11 4.62656E-12
 -1      3256 1.37310E+00 8.93477E-01-6.88534E-10-2.28323E-04 3.42895E-11 2.12864E-12
 -1      3257 1.37310E+00 8.93477E-01-6.91391E-10-2.28323E-04 4.75399E-11 3.76591E-12
 -1      3258 1.37310E+00 8.93477E-01-6.97733E-10-2.28323E-04 9.56307E-13 2.75185E-13
 -1      3259 1.37310E+00 8.93477E-01-6.97686E-10-2.28323E-04-9.52162E-13-2.22360E-13
 -1      3260 1.37310E+00 8.93477E-01-6.91358E-10-2.28323E-04-4.76491E-11-3.72191E-12
 -1      3261 1.37310E+00 8.93477E-01-6.88493E-10-2.28323E-04-3.43091E-11-2.15719E-12
 -1      3262 1.37310E+00 8.93477E-01-7.05701E-10-2.28323E-04-8.89071E-11-4.66100E-12
 -1      3263 1.37310E+00 8.93477E-01-6.57180E-10-2.28323E-04-6.69875E-11 6.14154E-12
 -1      3264 1.38991E+00 8.76663E-01-6.77000E-10-2.44337E-04-8.91482E-12 6.60584E-12
 -1      3265 1.38991E+00 8.76663E-01-6.68449E-10-2.44337E-04 9.90730E-12 5.88303E-12
 -1      3266 1.38991E+00 8.76663E-01-6.88814E-10-2.44337E-04-2.65451E-13 2.62268E-12
 -1      3267 1.38991E+00 8.76663E-01-6.99217E-10-2.44337E-04 1.47660E-11 2.38981E-12
 -1      3268 1.38991E+00 8.76663E-01-7.03571E-10-2.44337E-04-3.18135E-12 2.22676E-13
 -1      3269 1.38991E+00 8.76663E-01-7.03584E-10-2.44337E-04 3.26181E-12-2.37770E-13
 -1      3270 1.38991E+00 8.76663E-01-6.99142E-10-2.44337E-04-1.48414E-11-2.35060E-12
 -1      3271 1.38991E+00 8.76663E-01-6.88703E-10-2.44337E-04 2.46517E-13-2.73192E-12
 -1      3272 1.38991E+00 8.76663E-01-6.68504E-10-2.44337E-04-9.94237E-12-5.79976E-12
 -1      3273 1.38991E+00 8.76663E-01-6.77002E-10-2.44337E-04 8.92786E-12-6.53725E-12
 -1      3274 1.40856E+00 8.58018E-01-8.09636E-10-2.62090E-04 1.76678E-11 2.98905E-12
 -1      3275 1.40856E+00 8.58018E-01-8.10548E-10-2.62090E-04 2.84507E-12 2.81898E-12
 -1      3276 1.40856E+00 8.58018E-01-8.09794E-10-2.62090E-04-1.65102E-12 1.82327E-12
 -1      3277 1.40856E+00 8.58018E-01-8.11366E-10-2.62090E-04 5.08690E-12 1.57527E-12
 -1      3278 1.40856E+00 8.58018E-01-8.12388E-10-2.62090E-04-2.94727E-12 1.60163E-13
 -1      3279 1.40856E+00 8.58018E-01-8.12403E-10-2.62090E-04 2.95014E-12-2.52196E-13
 -1      3280 1.40856E+00 8.58018E-01-8.11400E-10-2.62090E-04-5.10889E-12-1.56705E-12
 -1      3281 1.40856E+00 8.58018E-01-8.09920E-10-2.62090E-04 1.72571E-12-1.76361E-12
 -1      3282 1.40856E+00 8.58018E-01-8.10481E-10-2.62090E-04-2.84376E-12-2.71599E-12
 -1      3283 1.40856E+00 8.58018E-01-8.09639E-10-2.62090E-04-1.76143E-11-2.97971E-12
 -1      3284 1.42931E+00 8.37264E-01-9.42290E-10-2.81852E-04 1.93053E-11 3.90718E-12
 -1      3285 1.42931E+00 8.37264E-01-9.37749E-10-2.81852E-04-5.98758E-12 1.78177E-12
 -1      3286 1.42931E+00 8.37264E-01-9.39964E-10-2.81852E-04-2.20178E-12 1.39101E-12
 -1      3287 1.42931E+00 8.37264E-01-9.41220E-10-2.81852E-04 1.14159E-12 9.85392E-13
 -1      3288 1.42931E+00 8.37264E-01-9.41458E-10-2.81852E-04-2.27099E-12 1.01281E-13
 -1      3289 1.42931E+00 8.37264E-01-9.41474E-10-2.81852E-04 2.17601E-12-1.83750E-14
 -1      3290 1.42931E+00 8.37264E-01-9.41199E-10-2.81852E-04-1.03565E-12-9.70478E-13
 -1      3291 1.42931E+00 8.37264E-01-9.39896E-10-2.81852E-04 2.20568E-12-1.26480E-12
 -1      3292 1.42931E+00 8.37264E-01-9.37860E-10-2.81852E-04 6.09899E-12-1.93535E-12
 -1      3293 1.42931E+00 8.37264E-01-9.42346E-10-2.81852E-04-1.93088E-11-3.89732E-12
 -1      3294 1.45250E+00 8.14072E-01-1.11533E-09-3.03935E-04 2.89223E-11 3.63271E-12
 -1      3295 1.45250E+00 8.14072E-01-1.11052E-09-3.03935E-04-8.04721E-12 8.68807E-13
 -1      3296 1.45250E+00 8.14072E-01-1.11058E-09-3.03935E-04-4.45284E-13 9.50323E-13
 -1      3297 1.45250E+00 8.14072E-01-1.11119E-09-3.03935E-04 3.67591E-13 6.18271E-13
 -1      3298 1.45250E+00 8.14072E-01-1.11111E-09-3.03935E-04-1.48859E-12 7.67094E-14
 -1      3299 1.45250E+00 8.14072E-01-1.11113E-09-3.03935E-04 1.57102E-12-2.98716E-14
 -1      3300 1.45250E+00 8.14072E-01-1.11121E-09-3.03935E-04-3.21084E-13-6.31463E-13
 -1      3301 1.45250E+00 8.14072E-01-1.11056E-09-3.03935E-04 3.86613E-13-1.12014E-12
 -1      3302 1.45250E+00 8.14072E-01-1.11041E-09-3.03935E-04 8.00535E-12-7.93739E-13
 -1      3303 1.45250E+00 8.14072E-01-1.11534E-09-3.03935E-04-2.88451E-11-3.66465E-12
 -1      3304 1.47853E+00 7.88045E-01-1.32859E-09-3.28718E-04 3.58894E-11 4.09423E-12
 -1      3305 1.47853E+00 7.88045E-01-1.32195E-09-3.28718E-04-9.84316E-12 2.77360E-13
 -1      3306 1.47853E+00 7.88045E-01-1.32192E-09-3.28718E-04 2.22432E-13 8.52038E-13
 -1      3307 1.47853E+00 7.88045E-01-1.32266E-09-3.28718E-04 3.04979E-13 5.53322E-13
 -1      3308 1.47853E+00 7.88045E-01-1.32239E-09-3.28718E-04-1.46085E-12 1.35289E-13
 -1      3309 1.47853E+00 7.88045E-01-1.32244E-09-3.28718E-04 1.48117E-12 6.90341E-14
 -1      3310 1.47853E+00 7.88045E-01-1.32261E-09-3.28718E-04-4.04081E-13-4.39090E-13
 -1      3311 1.47853E+00 7.88045E-01-1.32201E-09-3.28718E-04-2.59219E-14-7.97327E-13
 -1      3312 1.47853E+00 7.88045E-01-1.32190E-09-3.28718E-04 9.74826E-12-3.54927E-13
 -1      3313 1.47853E+00 7.88045E-01-1.32846E-09-3.28718E-04-3.61393E-11-4.07278E-12
 -1      3314 1.50787E+00 7.58701E-01-1.59445E-09-3.56660E-04 4.58792E-11 4.21301E-12
 -1      3315 1.50787E+00 7.58701E-01-1.58620E-09-3.56660E-04-9.80142E-12-5.43732E-14
 -1      3316 1.50787E+00 7.58701E-01-1.58709E-09-3.56660E-04-2.99378E-13 3.29474E-13
 -1      3317 1.50787E+00 7.58701E-01-1.58826E-09-3.56660E-04 1.43353E-12 3.43250E-13
 -1      3318 1.50787E+00 7.58701E-01-1.58791E-09-3.56660E-04-1.90728E-12-1.31192E-13
 -1      3319 1.50787E+00 7.58701E-01-1.58791E-09-3.56660E-04 1.99790E-12 4.57519E-14
 -1      3320 1.50787E+00 7.58701E-01-1.58831E-09-3.56660E-04-1.30517E-12-4.03093E-13
 -1      3321 1.50787E+00 7.58701E-01-1.58711E-09-3.56660E-04 1.45874E-13-4.22460E-13
 -1      3322 1.50787E+00 7.58701E-01-1.58636E-09-3.56660E-04 9.96577E-12 1.90833E-13
 -1      3323 1.50787E+00 7.58701E-01-1.59450E-09-3.56660E-04-4.59484E-11-4.21942E-12
 -1      3324 1.54112E+00 7.25452E-01-1.94032E-09-3.88319E-04 4.79914E-11 5.23609E-12
 -1      3325 1.54112E+00 7.25452E-01-1.93024E-09-3.88319E-04-9.91775E-12-1.59146E-13
 -1      3326 1.54112E+00 7.25452E-01-1.92693E-09-3.88319E-04-4.06598E-12 1.38125E-13
 -1      3327 1.54112E+00 7.25452E-01-1.92769E-09-3.88319E-04 3.20954E-12 4.54478E-13
 -1      3328 1.54112E+00 7.25452E-01-1.92690E-09-3.88319E-04-3.08626E-12-1.53618E-13
 -1      3329 1.54112E+00 7.25452E-01-1.92703E-09-3.88319E-04 3.10006E-12 3.09907E-13
 -1      3330 1.54112E+00 7.25452E-01-1.92775E-09-3.88319E-04-3.22442E-12-3.57109E-13
 -1      3331 1.54112E+00 7.25452E-01-1.92697E-09-3.88319E-04 4.11808E-12-2.39842E-14
 -1      3332 1.54112E+00 7.25452E-01-1.93025E-09-3.88319E-04 9.96079E-12 1.91172E-14
 -1      3333 1.54112E+00 7.25452E-01-1.94024E-09-3.88319E-04-4.80397E-11-5.09731E-12
 -1      3334 1.57900E+00 6.87573E-01-2.35279E-09-4.24388E-04 6.83948E-11 3.03443E-12
 -1      3335 1.57900E+00 6.87573E-01-2.34025E-09-4.24388E-04 5.91972E-12-1.12204E-13
 -1      3336 1.57900E+00 6.87573E-01-2.34811E-09-4.24388E-04-8.85768E-12-6.43698E-13
 -1      3337 1.57900E+00 6.87573E-01-2.35285E-09-4.24388E-04 7.75969E-12 7.57567E-13
 -1      3338 1.57900E+00 6.87573E-01-2.35227E-09-4.24388E-04-4.31316E-12-2.16326E-13
 -1      3339 1.57900E+00 6.87573E-01-2.35217E-09-4.24388E-04 4.25390E-12 2.55595E-13
 -1      3340 1.57900E+00 6.87573E-01-2.35287E-09-4.24388E-04-7.81567E-12-7.89118E-13
 -1      3341 1.57900E+00 6.87573E-01-2.34811E-09-4.24388E-04 8.77210E-12 5.86779E-13
 -1      3342 1.57900E+00 6.87573E-01-2.34027E-09-4.24388E-04-5.79809E-12 1.62025E-13
 -1      3343 1.57900E+00 6.87573E-01-2.35284E-09-4.24388E-04-6.84345E-11-2.97634E-12
 -1      3344 1.62241E+00 6.44163E-01-2.99515E-09-4.65719E-04-1.30652E-11 9.63606E-12
 -1      3345 1.62241E+00 6.44163E-01-2.98957E-09-4.65719E-04 1.56816E-12 3.28613E-12
 -1      3346 1.62241E+00 6.44163E-01-2.95169E-09-4.65719E-04-3.25240E-11-1.83676E-12
 -1      3347 1.62241E+00 6.44163E-01-2.94526E-09-4.65719E-04 1.27166E-11 6.46113E-13
 -1      3348 1.62241E+00 6.44163E-01-2.94122E-09-4.65719E-04-5.20171E-12-7.33701E-13
 -1      3349 1.62241E+00 6.44163E-01-2.94128E-09-4.65719E-04 5.30168E-12 6.35168E-13
 -1      3350 1.62241E+00 6.44163E-01-2.94526E-09-4.65719E-04-1.27668E-11-7.58121E-13
 -1      3351 1.62241E+00 6.44163E-01-2.95161E-09-4.65719E-04 3.25236E-11 1.90460E-12
 -1      3352 1.62241E+00 6.44163E-01-2.98948E-09-4.65719E-04-1.65600E-12-3.36615E-12
 -1      3353 1.62241E+00 6.44163E-01-2.99508E-09-4.65719E-04 1.32825E-11-9.61316E-12
 -1      3354 1.67248E+00 5.94091E-01-3.46204E-09-5.13407E-04 1.81725E-10-2.19260E-11
 -1      3355 1.67248E+00 5.94091E-01-3.42650E-09-5.13407E-04 1.68191E-10 1.21210E-12
 -1      3356 1.67248E+00 5.94091E-01-3.51945E-09-5.13407E-04-2.45315E-11-4.13777E-12
 -1      3357 1.67248E+00 5.94091E-01-3.55683E-09-5.13407E-04 3.40951E-11 3.73197E-12
 -1      3358 1.67248E+00 5.94091E-01-3.55976E-09-5.13407E-04 5.40358E-14 4.67806E-13
 -1      3359 1.67248E+00 5.94091E-01-3.55977E-09-5.13407E-04-9.97076E-14-5.12440E-13
 -1      3360 1.67248E+00 5.94091E-01-3.55683E-09-5.13407E-04-3.40939E-11-3.69335E-12
 -1      3361 1.67248E+00 5.94091E-01-3.51942E-09-5.13407E-04 2.44171E-11 4.12248E-12
 -1      3362 1.67248E+00 5.94091E-01-3.42645E-09-5.13407E-04-1.68021E-10-1.21055E-12
 -1      3363 1.67248E+00 5.94091E-01-3.46206E-09-5.13407E-04-1.81764E-10 2.18713E-11
 -1      3364 1.73065E+00 5.35921E-01-5.38683E-09-5.68739E-04-8.69253E-10 6.09455E-11
 -1      3365 1.73065E+00 5.35921E-01-5.53021E-09-5.68739E-04-7.25248E-11 3.20893E-11
 -1      3366 1.73065E+00 5.35921E-01-5.13930E-09-5.68739E-04-1.80479E-10-1.05816E-11
 -1      3367 1.73065E+00 5.35921E-01-5.01755E-09-5.68739E-04 3.22114E-11-4.31617E-12
 -1      3368 1.73065E+00 5.35921E-01-4.98554E-09-5.68739E-04 1.78449E-11-1.97736E-12
 -1      3369 1.73065E+00 5.35921E-01-4.98560E-09-5.68739E-04-1.78633E-11 2.02588E-12
 -1      3370 1.73065E+00 5.35921E-01-5.01758E-09-5.68739E-04-3.22822E-11 4.29773E-12
 -1      3371 1.73065E+00 5.35921E-01-5.13928E-09-5.68739E-04 1.80442E-10 1.05186E-11
 -1      3372 1.73065E+00 5.35921E-01-5.53026E-09-5.68739E-04 7.25353E-11-3.21695E-11
 -1      3373 1.73065E+00 5.35921E-01-5.38682E-09-5.68739E-04 8.69204E-10-6.09285E-11
 -1      3374 1.79877E+00 4.67810E-01-3.39132E-09-6.33779E-04 1.97694E-09-2.94146E-10
 -1      3375 1.79877E+00 4.67810E-01-2.96021E-09-6.33779E-04 1.67917E-09-1.76285E-11
 -1      3376 1.79877E+00 4.67810E-01-3.97844E-09-6.33779E-04 2.24338E-10-6.48364E-12
 -1      3377 1.79877E+00 4.67810E-01-4.39026E-09-6.33779E-04 1.31803E-10 2.51645E-11
 -1      3378 1.79877E+00 4.67810E-01-4.49509E-09-6.33779E-04 6.87671E-11 1.26810E-11
 -1      3379 1.79877E+00 4.67810E-01-4.49517E-09-6.33779E-04-6.88650E-11-1.27828E-11
 -1      3380 1.79877E+00 4.67810E-01-4.39035E-09-6.33779E-04-1.31739E-10-2.51476E-11
 -1      3381 1.79877E+00 4.67810E-01-3.97844E-09-6.33779E-04-2.24351E-10 6.45504E-12
 -1      3382 1.79877E+00 4.67810E-01-2.96037E-09-6.33779E-04-1.67924E-09 1.76153E-11
 -1      3383 1.79877E+00 4.67810E-01-3.39135E-09-6.33779E-04-1.97696E-09 2.94142E-10
 -1      3384 1.87922E+00 3.87357E-01-1.66297E-08-7.09599E-04-1.05777E-08 6.86700E-10
 -1      3385 1.87922E+00 3.87357E-01-1.89896E-08-7.09599E-04-2.91557E-09 2.48349E-10
 -1      3386 1.87922E+00 3.87357E-01-1.54035E-08-7.09599E-04-1.36518E-09-6.15656E-11
 -1      3387 1.87922E+00 3.87357E-01-1.39445E-08-7.09599E-04-1.62972E-10-8.24187E-11
 -1      3388 1.87922E+00 3.87357E-01-1.36318E-08-7.09599E-04 1.81264E-10-1.94357E-11
 -1      3389 1.87922E+00 3.87357E-01-1.36317E-08-7.09599E-04-1.81293E-10 1.94093E-11
 -1      3390 1.87922E+00 3.87357E-01-1.39443E-08-7.09599E-04 1.63040E-10 8.24209E-11
 -1      3391 1.87922E+00 3.87357E-01-1.54035E-08-7.09599E-04 1.36508E-09 6.15061E-11
 -1      3392 1.87922E+00 3.87357E-01-1.89896E-08-7.09599E-04 2.91549E-09-2.48443E-10
 -1      3393 1.87922E+00 3.87357E-01-1.66298E-08-7.09599E-04 1.05779E-08-6.86779E-10
 -1      3394 1.97518E+00 2.91393E-01 2.12850E-08-8.03904E-04 2.74975E-08-2.85075E-09
 -1      3395 1.97518E+00 2.91393E-01 2.77149E-08-8.03904E-04 1.70478E-08-3.38917E-10
 -1      3396 1.97518E+00 2.91393E-01 1.82074E-08-8.03904E-04 4.75491E-09 1.54091E-10
 -1      3397 1.97518E+00 2.91393E-01 1.36402E-08-8.03904E-04 1.77890E-10 2.05853E-10
 -1      3398 1.97518E+00 2.91393E-01 1.17545E-08-8.03905E-04 3.82803E-11 9.93504E-11
 -1      3399 1.97518E+00 2.91393E-01 1.17545E-08-8.03905E-04-3.83381E-11-9.92721E-11
 -1      3400 1.97518E+00 2.91393E-01 1.36401E-08-8.03904E-04-1.77923E-10-2.05802E-10
 -1      3401 1.97518E+00 2.91393E-01 1.82075E-08-8.03904E-04-4.75487E-09-1.54062E-10
 -1      3402 1.97518E+00 2.91393E-01 2.77150E-08-8.03904E-04-1.70478E-08 3.38977E-10
 -1      3403 1.97518E+00 2.91393E-01 2.12850E-08-8.03904E-04-2.74975E-08 2.85077E-09
 -1      3404 2.09092E+00 1.75659E-01-1.22129E-07-9.02470E-04-1.21757E-07 6.37555E-09
 -1      3405 2.09092E+00 1.75659E-01-1.53551E-07-9.02470E-04-5.22313E-08 1.44447E-09
 -1      3406 2.09092E+00 1.75659E-01-1.27730E-07-9.02470E-04-1.64136E-08-4.39974E-10
 -1      3407 2.09092E+00 1.75659E-01-1.12686E-07-9.02469E-04-4.29586E-09-7.65595E-10
 -1      3408 2.09092E+00 1.75659E-01-1.08398E-07-9.02468E-04 3.37891E-11-2.33577E-10
 -1      3409 2.09092E+00 1.75659E-01-1.08398E-07-9.02468E-04-3.38535E-11 2.33648E-10
 -1      3410 2.09092E+00 1.75659E-01-1.12686E-07-9.02469E-04 4.29596E-09 7.65629E-10
 -1      3411 2.09092E+00 1.75659E-01-1.27730E-07-9.02470E-04 1.64135E-08 4.39910E-10
 -1      3412 2.09092E+00 1.75659E-01-1.53551E-07-9.02470E-04 5.22313E-08-1.44449E-09
 -1      3413 2.09092E+00 1.75659E-01-1.22129E-07-9.02470E-04 1.21757E-07-6.37561E-09
 -1      3414 2.23223E+00 3.43434E-02 3.70113E-07-1.08189E-03 3.45983E-07-1.97888E-08
 -1      3415 2.23223E+00 3.43433E-02 4.57408E-07-1.08189E-03 1.87833E-07-2.00248E-09
 -1      3416 2.23223E+00 3.43432E-02 3.96526E-07-1.08189E-03 6.87540E-08 2.50718E-09
 -1      3417 2.23223E+00 3.43432E-02 3.55263E-07-1.08189E-03 6.82872E-10 1.25276E-09
 -1      3418 2.23223E+00 3.43432E-02 3.29695E-07-1.08189E-03-6.59501E-09 2.39418E-10
 -1      3419 2.23223E+00 3.43432E-02 3.29695E-07-1.08189E-03 6.59500E-09-2.39416E-10
 -1      3420 2.23223E+00 3.43432E-02 3.55263E-07-1.08189E-03-6.82971E-10-1.25272E-09
 -1      3421 2.23223E+00 3.43432E-02 3.96526E-07-1.08189E-03-6.87539E-08-2.50724E-09
 -1      3422 2.23223E+00 3.43433E-02 4.57407E-07-1.08189E-03-1.87833E-07 2.00255E-09
 -1      3423 2.23223E+00 3.43434E-02 3.70113E-07-1.08189E-03-3.45983E-07 1.97890E-08
 -1      3424 2.40729E+00-1.40721E-01-1.33998E-06-1.07279E-03-1.33001E-06 2.12335E-08
 -1      3425 2.40729E+00-1.40721E-01-1.73167E-06-1.07277E-03-7.88516E-07-8.63809E-09
 -1      3426 2.40729E+00-1.40720E-01-1.70845E-06-1.07277E-03-2.53475E-07-3.53515E-09
 -1      3427 2.40729E+00-1.40720E-01-1.57900E-06-1.07276E-03-3.68298E-08-4.06857E-10
 -1      3428 2.40729E+00-1.40720E-01-1.48467E-06-1.07276E-03 1.86918E-09 4.98152E-11
 -1      3429 2.40729E+00-1.40720E-01-1.48467E-06-1.07276E-03-1.86930E-09-4.97758E-11
 -1      3430 2.40729E+00-1.40720E-01-1.57900E-06-1.07276E-03 3.68299E-08 4.06815E-10
 -1      3431 2.40729E+00-1.40720E-01-1.70845E-06-1.07277E-03 2.53475E-07 3.53519E-09
 -1      3432 2.40729E+00-1.40721E-01-1.73167E-06-1.07277E-03 7.88516E-07 8.63816E-09
 -1      3433 2.40729E+00-1.40721E-01-1.33998E-06-1.07279E-03 1.33001E-06-2.12335E-08
 -1      3434 2.62762E+00-3.61021E-01 5.11738E-06-1.96807E-03 4.07127E-06 5.47763E-08
 -1      3435 2.62762E+00-3.61022E-01 5.96731E-06-1.96811E-03 1.81367E-06 1.83210E-08
 -1      3436 2.62762E+00-3.61023E-01 5.94137E-06-1.96811E-03 6.85512E-07-1.65289E-12
 -1      3437 2.62762E+00-3.61023E-01 5.72995E-06-1.96812E-03 2.77637E-07-1.34606E-09
 -1      3438 2.62762E+00-3.61023E-01 5.63306E-06-1.96811E-03 7.86209E-08-5.73452E-10
 -1      3439 2.62762E+00-3.61023E-01 5.63306E-06-1.96811E-03-7.86209E-08 5.73443E-10
 -1      3440 2.62762E+00-3.61023E-01 5.72995E-06-1.96812E-03-2.77637E-07 1.34605E-09
 -1      3441 2.62762E+00-3.61023E-01 5.94137E-06-1.96811E-03-6.85512E-07 1.61301E-12
 -1      3442 2.62762E+00-3.61022E-01 5.96731E-06-1.96811E-03-1.81367E-06-1.83210E-08
 -1      3443 2.62762E+00-3.61021E-01 5.11738E-06-1.96807E-03-4.07127E-06-5.47763E-08
 -1      3444 2.91103E+00-6.44451E-01 1.99562E-07 6.73918E-04-5.74823E-06-2.38259E-08
 -1      3445 2.91103E+00-6.44450E-01 1.59825E-06 6.73911E-04-1.79933E-06 8.03671E-09
 -1      3446 2.91103E+00-6.44451E-01 2.37160E-06 6.73898E-04-5.72049E-07 4.20945E-09
 -1      3447 2.91103E+00-6.44451E-01 2.53072E-06 6.73895E-04-2.23976E-07 1.44570E-09
 -1      3448 2.91103E+00-6.44451E-01 2.50494E-06 6.73895E-04-6.45944E-08 3.28139E-10
 -1      3449 2.91103E+00-6.44451E-01 2.50494E-06 6.73895E-04 6.45942E-08-3.28111E-10
 -1      3450 2.91103E+00-6.44451E-01 2.53072E-06 6.73895E-04 2.23976E-07-1.44569E-09
 -1      3451 2.91103E+00-6.44451E-01 2.37160E-06 6.73898E-04 5.72049E-07-4.20945E-09
 -1      3452 2.91103E+00-6.44450E-01 1.59825E-06 6.73911E-04 1.79933E-06-8.03681E-09
 -1      3453 2.91103E+00-6.44451E-01 1.99562E-07 6.73918E-04 5.74823E-06 2.38259E-08
 -1      3454 1.27508E+00 9.91498E-01 1.37203E-06-1.18543E-03-1.28604E-06 4.49246E-07
 -1      3455 1.27127E+00 9.95304E-01-2.51880E-06-1.51122E-03 5.48924E-07-8.08243E-07
 -1      3457 1.27509E+00 9.91498E-01 2.09387E-06-1.18496E-03-7.97667E-07 3.97072E-07
 -1      3458 1.27127E+00 9.95305E-01-2.86795E-06-1.51078E-03 4.66224E-07-7.17628E-07
 -1      3460 1.27509E+00 9.91497E-01 1.58503E-06-1.18482E-03-4.62363E-08 1.12837E-07
 -1      3461 1.27127E+00 9.95305E-01-2.83233E-06-1.51080E-03 2.79191E-07-5.51462E-07
 -1      3463 1.27509E+00 9.91497E-01 1.26396E-06-1.18483E-03 1.25192E-07-2.27745E-08
 -1      3464 1.27127E+00 9.95305E-01-2.70666E-06-1.51085E-03 1.52079E-07-3.29082E-07
 -1      3466 1.27509E+00 9.91497E-01 1.16269E-06-1.18485E-03 8.52210E-08-3.59099E-08
 -1      3467 1.27127E+00 9.95305E-01-2.62410E-06-1.51088E-03 4.66464E-08-1.08591E-07
 -1      3469 1.27509E+00 9.91497E-01 1.14249E-06-1.18485E-03-1.73030E-14 1.70375E-13
 -1      3470 1.27127E+00 9.95305E-01-2.62410E-06-1.51088E-03-4.66464E-08 1.08591E-07
 -1      3472 1.27509E+00 9.91497E-01 1.16269E-06-1.18485E-03-8.52212E-08 3.59101E-08
 -1      3473 1.27127E+00 9.95305E-01-2.70666E-06-1.51085E-03-1.52080E-07 3.29082E-07
 -1      3475 1.27509E+00 9.91497E-01 1.26396E-06-1.18483E-03-1.25192E-07 2.27745E-08
 -1      3476 1.27127E+00 9.95305E-01-2.83233E-06-1.51080E-03-2.79191E-07 5.51462E-07
 -1      3478 1.27509E+00 9.91497E-01 1.58503E-06-1.18482E-03 4.62364E-08-1.12837E-07
 -1      3479 1.27127E+00 9.95305E-01-2.86795E-06-1.51078E-03-4.66224E-07 7.17628E-07
 -1      3481 1.27509E+00 9.91498E-01 2.09387E-06-1.18496E-03 7.97667E-07-3.97072E-07
 -1      3482 1.27127E+00 9.95304E-01-2.51880E-06-1.51122E-03-5.48924E-07 8.08242E-07
 -1      3484 1.27508E+00 9.91498E-01 1.37203E-06-1.18543E-03 1.28604E-06-4.49246E-07
 -1      3486 1.28280E+00 9.83773E-01-8.07595E-07-5.94073E-06 4.88664E-07-3.02779E-08
 -1      3487 1.27897E+00 9.87613E-01 9.14847E-07-4.42794E-04-1.10957E-07 2.47655E-07
 -1      3489 1.28280E+00 9.83772E-01-1.83217E-06-5.89492E-06 6.10704E-07 5.22664E-08
 -1      3490 1.27897E+00 9.87613E-01 1.24168E-06-4.42575E-04-6.83923E-09 1.25290E-07
 -1      3492 1.28280E+00 9.83772E-01-2.24600E-06-5.78541E-06 3.25963E-07 8.04014E-08
 -1      3493 1.27897E+00 9.87613E-01 1.42767E-06-4.42464E-04 7.23091E-08 4.27133E-08
 -1      3495 1.28280E+00 9.83772E-01-2.27977E-06-5.71278E-06 1.21762E-07 5.80056E-08
 -1      3496 1.27897E+00 9.87613E-01 1.47533E-06-4.42421E-04 7.04877E-08 3.37683E-09
 -1      3498 1.28280E+00 9.83772E-01-2.28781E-06-5.68158E-06 4.43818E-08 2.76564E-08
 -1      3499 1.27897E+00 9.87613E-01 1.47216E-06-4.42409E-04 2.85836E-08-2.61411E-09
 -1      3501 1.28280E+00 9.83772E-01-2.29621E-06-5.67314E-06-8.75616E-14-6.66694E-15
 -1      3502 1.27897E+00 9.87613E-01 1.47216E-06-4.42409E-04-2.85837E-08 2.61423E-09
 -1      3504 1.28280E+00 9.83772E-01-2.28781E-06-5.68158E-06-4.43819E-08-2.76566E-08
 -1      3505 1.27897E+00 9.87613E-01 1.47533E-06-4.42421E-04-7.04878E-08-3.37687E-09
 -1      3507 1.28280E+00 9.83772E-01-2.27977E-06-5.71278E-06-1.21762E-07-5.80056E-08
 -1      3508 1.27897E+00 9.87613E-01 1.42767E-06-4.42464E-04-7.23091E-08-4.27134E-08
 -1      3510 1.28280E+00 9.83772E-01-2.24600E-06-5.78541E-06-3.25964E-07-8.04015E-08
 -1      3511 1.27897E+00 9.87613E-01 1.24168E-06-4.42575E-04 6.83939E-09-1.25290E-07
 -1      3513 1.28280E+00 9.83772E-01-1.83217E-06-5.89492E-06-6.10704E-07-5.22665E-08
 -1      3514 1.27897E+00 9.87613E-01 9.14846E-07-4.42794E-04 1.10957E-07-2.47655E-07
 -1      3516 1.28280E+00 9.83773E-01-8.07595E-07-5.94073E-06-4.88663E-07 3.02779E-08
 -1      3518 1.29097E+00 9.75608E-01 1.84965E-07-1.85208E-04-1.24376E-07 3.31499E-08
 -1      3519 1.28689E+00 9.79686E-01-8.42887E-08-6.94105E-05-1.02288E-07-1.35958E-08
 -1      3521 1.29097E+00 9.75608E-01 4.47040E-07-1.85195E-04-2.66726E-07 2.03959E-08
 -1      3522 1.28689E+00 9.79686E-01-2.28850E-07-6.93839E-05-8.43279E-08 3.91028E-08
 -1      3524 1.29097E+00 9.75608E-01 6.31622E-07-1.85191E-04-2.31580E-07 1.67793E-08
 -1      3525 1.28689E+00 9.79686E-01-3.56149E-07-6.93384E-05-1.78179E-08 4.19924E-08
 -1      3527 1.29097E+00 9.75607E-01 6.73895E-07-1.85179E-04-1.25501E-07 1.65991E-08
 -1      3528 1.28689E+00 9.79686E-01-4.73408E-07-6.93054E-05-1.81863E-09 2.70432E-08
 -1      3530 1.29097E+00 9.75607E-01 6.48393E-07-1.85167E-04-4.64301E-08 1.05137E-08
 -1      3531 1.28689E+00 9.79686E-01-5.25944E-07-6.92901E-05 3.07745E-11 8.99407E-09
 -1      3533 1.29097E+00 9.75607E-01 6.35530E-07-1.85162E-04-1.18546E-13 5.98933E-14
 -1      3534 1.28689E+00 9.79686E-01-5.25944E-07-6.92901E-05-3.08066E-11-8.99411E-09
 -1      3536 1.29097E+00 9.75607E-01 6.48393E-07-1.85167E-04 4.64301E-08-1.05138E-08
 -1      3537 1.28689E+00 9.79686E-01-4.73408E-07-6.93054E-05 1.81863E-09-2.70433E-08
 -1      3539 1.29097E+00 9.75607E-01 6.73895E-07-1.85179E-04 1.25501E-07-1.65993E-08
 -1      3540 1.28689E+00 9.79686E-01-3.56148E-07-6.93384E-05 1.78179E-08-4.19925E-08
 -1      3542 1.29097E+00 9.75608E-01 6.31622E-07-1.85191E-04 2.31580E-07-1.67794E-08
 -1      3543 1.28689E+00 9.79686E-01-2.28850E-07-6.93839E-05 8.43280E-08-3.91029E-08
 -1      3545 1.29097E+00 9.75608E-01 4.47040E-07-1.85195E-04 2.66726E-07-2.03959E-08
 -1      3546 1.28689E+00 9.79686E-01-8.42886E-08-6.94105E-05 1.02288E-07 1.35958E-08
 -1      3548 1.29097E+00 9.75608E-01 1.84965E-07-1.85208E-04 1.24376E-07-3.31500E-08
 -1      3550 1.29985E+00 9.66723E-01-5.94631E-08-1.49569E-04 2.24660E-08-1.03639E-08
 -1      3551 1.29541E+00 9.71166E-01 2.89044E-08-1.73872E-04-5.48956E-08 1.79310E-08
 -1      3553 1.29985E+00 9.66723E-01-1.04697E-07-1.49569E-04 2.36014E-08-3.50913E-09
 -1      3554 1.29541E+00 9.71166E-01 1.07437E-07-1.73868E-04-6.37438E-08 1.08198E-08
 -1      3556 1.29985E+00 9.66723E-01-1.33500E-07-1.49565E-04 8.36010E-09 9.62557E-10
 -1      3557 1.29541E+00 9.71166E-01 1.36351E-07-1.73863E-04-6.89272E-08 1.00219E-08
 -1      3559 1.29985E+00 9.66723E-01-1.30676E-07-1.49562E-04-8.38617E-09 2.22174E-09
 -1      3560 1.29541E+00 9.71166E-01 1.66969E-07-1.73858E-04-5.04741E-08 7.46541E-09
 -1      3562 1.29985E+00 9.66723E-01-1.18156E-07-1.49561E-04-1.05412E-08 1.54539E-09
 -1      3563 1.29541E+00 9.71166E-01 1.83756E-07-1.73854E-04-1.73753E-08 2.83174E-09
 -1      3565 1.29985E+00 9.66723E-01-1.10521E-07-1.49560E-04-5.58116E-15 1.65476E-14
 -1      3566 1.29541E+00 9.71166E-01 1.83756E-07-1.73854E-04 1.73752E-08-2.83170E-09
 -1      3568 1.29985E+00 9.66723E-01-1.18156E-07-1.49561E-04 1.05411E-08-1.54528E-09
 -1      3569 1.29541E+00 9.71166E-01 1.66969E-07-1.73858E-04 5.04740E-08-7.46539E-09
 -1      3571 1.29985E+00 9.66723E-01-1.30676E-07-1.49562E-04 8.38610E-09-2.22168E-09
 -1      3572 1.29541E+00 9.71166E-01 1.36351E-07-1.73863E-04 6.89271E-08-1.00219E-08
 -1      3574 1.29985E+00 9.66723E-01-1.33500E-07-1.49565E-04-8.36010E-09-9.62380E-10
 -1      3575 1.29541E+00 9.71166E-01 1.07437E-07-1.73868E-04 6.37438E-08-1.08198E-08
 -1      3577 1.29985E+00 9.66723E-01-1.04697E-07-1.49569E-04-2.36016E-08 3.50913E-09
 -1      3578 1.29541E+00 9.71166E-01 2.89044E-08-1.73872E-04 5.48954E-08-1.79310E-08
 -1      3580 1.29985E+00 9.66723E-01-5.94632E-08-1.49569E-04-2.24660E-08 1.03640E-08
 -1      3582 1.30950E+00 9.57075E-01 1.48996E-08-1.70108E-04-1.01005E-08 4.22601E-09
 -1      3583 1.30468E+00 9.61899E-01-1.95741E-09-1.58185E-04 1.11801E-09-3.58806E-09
 -1      3585 1.30950E+00 9.57075E-01 3.40673E-08-1.70108E-04-1.93079E-08 2.18688E-09
 -1      3586 1.30468E+00 9.61899E-01-2.05065E-08-1.58185E-04-1.15646E-08-1.66873E-10
 -1      3588 1.30950E+00 9.57075E-01 4.62879E-08-1.70108E-04-1.72968E-08 7.24704E-10
 -1      3589 1.30468E+00 9.61899E-01-1.32788E-08-1.58184E-04-1.31054E-08 8.93848E-10
 -1      3591 1.30950E+00 9.57075E-01 5.15337E-08-1.70108E-04-1.15358E-08 2.35478E-11
 -1      3592 1.30468E+00 9.61899E-01-9.35237E-09-1.58183E-04-1.04834E-08 1.08145E-09
 -1      3594 1.30950E+00 9.57075E-01 5.20766E-08-1.70108E-04-5.54770E-09-1.00705E-10
 -1      3595 1.30468E+00 9.61898E-01-7.93120E-09-1.58183E-04-3.75987E-09 4.78053E-10
 -1      3597 1.30950E+00 9.57075E-01 5.27286E-08-1.70108E-04 4.31807E-15-4.32012E-14
 -1      3598 1.30468E+00 9.61898E-01-7.93120E-09-1.58183E-04 3.75976E-09-4.77995E-10
 -1      3600 1.30950E+00 9.57075E-01 5.20766E-08-1.70108E-04 5.54765E-09 1.00701E-10
 -1      3601 1.30468E+00 9.61899E-01-9.35240E-09-1.58183E-04 1.04833E-08-1.08157E-09
 -1      3603 1.30950E+00 9.57075E-01 5.15336E-08-1.70108E-04 1.15358E-08-2.38664E-11
 -1      3604 1.30468E+00 9.61899E-01-1.32789E-08-1.58184E-04 1.31053E-08-8.93871E-10
 -1      3606 1.30950E+00 9.57075E-01 4.62878E-08-1.70108E-04 1.72968E-08-7.24757E-10
 -1      3607 1.30468E+00 9.61899E-01-2.05066E-08-1.58185E-04 1.15645E-08 1.66856E-10
 -1      3609 1.30950E+00 9.57075E-01 3.40672E-08-1.70108E-04 1.93079E-08-2.18702E-09
 -1      3610 1.30468E+00 9.61899E-01-1.95746E-09-1.58185E-04-1.11812E-09 3.58809E-09
 -1      3612 1.30950E+00 9.57075E-01 1.48997E-08-1.70108E-04 1.01005E-08-4.22607E-09
 -1      3614 1.32002E+00 9.46561E-01-5.47873E-09-1.77178E-04 2.02317E-09-1.47239E-09
 -1      3615 1.31476E+00 9.51818E-01 1.89611E-09-1.74022E-04-6.92198E-09 1.53020E-09
 -1      3617 1.32002E+00 9.46561E-01-7.04235E-09-1.77178E-04 1.96951E-09-8.40668E-10
 -1      3618 1.31476E+00 9.51818E-01 1.19926E-08-1.74022E-04-7.15061E-09 5.21248E-10
 -1      3620 1.32002E+00 9.46561E-01-8.93285E-09-1.77178E-04 8.54528E-10-2.53743E-10
 -1      3621 1.31476E+00 9.51818E-01 1.34606E-08-1.74022E-04-6.40672E-09 1.44184E-10
 -1      3623 1.32002E+00 9.46561E-01-7.69514E-09-1.77178E-04-4.85393E-10-2.84932E-11
 -1      3624 1.31476E+00 9.51818E-01 1.58881E-08-1.74022E-04-4.59143E-09-6.09043E-11
 -1      3626 1.32002E+00 9.46561E-01-6.63462E-09-1.77178E-04-6.23681E-10 5.98930E-12
 -1      3627 1.31476E+00 9.51818E-01 1.76305E-08-1.74022E-04-1.53146E-09-3.32121E-11
 -1      3629 1.32002E+00 9.46561E-01-5.84641E-09-1.77178E-04-1.26380E-15 4.31770E-14
 -1      3630 1.31476E+00 9.51818E-01 1.76305E-08-1.74022E-04 1.53147E-09 3.32330E-11
 -1      3632 1.32002E+00 9.46561E-01-6.63461E-09-1.77178E-04 6.23611E-10-6.02279E-12
 -1      3633 1.31476E+00 9.51818E-01 1.58881E-08-1.74022E-04 4.59146E-09 6.08381E-11
 -1      3635 1.32002E+00 9.46561E-01-7.69506E-09-1.77178E-04 4.85381E-10 2.86570E-11
 -1      3636 1.31476E+00 9.51818E-01 1.34606E-08-1.74022E-04 6.40661E-09-1.44296E-10
 -1      3638 1.32002E+00 9.46561E-01-8.93280E-09-1.77178E-04-8.54575E-10 2.53623E-10
 -1      3639 1.31476E+00 9.51818E-01 1.19927E-08-1.74022E-04 7.15064E-09-5.21310E-10
 -1      3641 1.32002E+00 9.46561E-01-7.04232E-09-1.77178E-04-1.96937E-09 8.40700E-10
 -1      3642 1.31476E+00 9.51818E-01 1.89610E-09-1.74022E-04 6.92202E-09-1.53019E-09
 -1      3644 1.32002E+00 9.46561E-01-5.47874E-09-1.77178E-04-2.02326E-09 1.47241E-09
 -1      3646 1.33150E+00 9.35078E-01 6.53360E-10-1.88873E-04-5.39141E-10 4.81361E-10
 -1      3647 1.32576E+00 9.40819E-01 1.16899E-10-1.82891E-04 1.47968E-09-4.78951E-10
 -1      3649 1.33150E+00 9.35078E-01 2.15389E-09-1.88873E-04-7.71473E-10 2.35113E-10
 -1      3650 1.32576E+00 9.40819E-01-1.98664E-09-1.82891E-04-8.33796E-11-2.10668E-10
 -1      3652 1.33150E+00 9.35078E-01 2.48635E-09-1.88873E-04-5.07713E-10 5.31444E-11
 -1      3653 1.32576E+00 9.40819E-01-5.33207E-10-1.82891E-04-5.06041E-10-5.66080E-11
 -1      3655 1.33150E+00 9.35078E-01 2.96801E-09-1.88873E-04-3.52400E-10-1.88024E-11
 -1      3656 1.32576E+00 9.40819E-01 2.74607E-10-1.82891E-04-6.47522E-10-8.58466E-13
 -1      3658 1.33150E+00 9.35078E-01 2.94057E-09-1.88873E-04-1.56198E-10-1.47086E-11
 -1      3659 1.32576E+00 9.40819E-01 5.70556E-10-1.82891E-04-2.09894E-10 7.20800E-12
 -1      3661 1.33150E+00 9.35078E-01 3.11265E-09-1.88873E-04-1.64869E-13-1.06359E-14
 -1      3662 1.32576E+00 9.40819E-01 5.70642E-10-1.82891E-04 2.09904E-10-7.13895E-12
 -1      3664 1.33150E+00 9.35078E-01 2.94075E-09-1.88873E-04 1.56218E-10 1.47801E-11
 -1      3665 1.32576E+00 9.40819E-01 2.74737E-10-1.82891E-04 6.47472E-10 8.57090E-13
 -1      3667 1.33150E+00 9.35078E-01 2.96806E-09-1.88873E-04 3.52532E-10 1.88562E-11
 -1      3668 1.32576E+00 9.40819E-01-5.33153E-10-1.82891E-04 5.06137E-10 5.66856E-11
 -1      3670 1.33150E+00 9.35078E-01 2.48638E-09-1.88873E-04 5.07856E-10-5.30811E-11
 -1      3671 1.32576E+00 9.40819E-01-1.98668E-09-1.82891E-04 8.34177E-11 2.10643E-10
 -1      3673 1.33150E+00 9.35078E-01 2.15397E-09-1.88873E-04 7.71332E-10-2.35182E-10
 -1      3674 1.32576E+00 9.40819E-01 1.17006E-10-1.82891E-04-1.47967E-09 4.78932E-10
 -1      3676 1.33150E+00 9.35078E-01 6.53413E-10-1.88873E-04 5.39239E-10-4.81549E-10
 -1      3678 1.34407E+00 9.22503E-01-9.61074E-10-2.00648E-04 2.62657E-10-1.47310E-10
 -1      3679 1.33779E+00 9.28790E-01 2.94555E-10-1.94751E-04-3.18046E-10 1.57630E-10
 -1      3681 1.34407E+00 9.22503E-01-9.13813E-10-2.00648E-04 3.75199E-10-7.16285E-11
 -1      3682 1.33779E+00 9.28790E-01 1.13658E-09-1.94751E-04-2.04937E-10 4.41106E-11
 -1      3684 1.34407E+00 9.22503E-01-1.24892E-09-2.00648E-04 3.46052E-10-1.26476E-11
 -1      3685 1.33779E+00 9.28790E-01 9.82703E-10-1.94751E-04-3.67690E-11 7.81217E-12
 -1      3687 1.34407E+00 9.22503E-01-1.12827E-09-2.00648E-04 2.03994E-10 5.26684E-13
 -1      3688 1.33779E+00 9.28790E-01 1.03262E-09-1.94751E-04-6.65770E-11-1.11792E-11
 -1      3690 1.34407E+00 9.22503E-01-1.19736E-09-2.00648E-04 1.10578E-10 2.08439E-12
 -1      3691 1.33779E+00 9.28790E-01 1.12521E-09-1.94751E-04 3.54047E-12-2.58095E-12
 -1      3693 1.34407E+00 9.22503E-01-1.11935E-09-2.00648E-04 4.04484E-14 1.27384E-14
 -1      3694 1.33779E+00 9.28790E-01 1.12516E-09-1.94751E-04-3.61008E-12 2.64916E-12
 -1      3696 1.34407E+00 9.22503E-01-1.19734E-09-2.00648E-04-1.10624E-10-2.03380E-12
 -1      3697 1.33779E+00 9.28790E-01 1.03266E-09-1.94751E-04 6.65355E-11 1.11675E-11
 -1      3699 1.34407E+00 9.22503E-01-1.12825E-09-2.00648E-04-2.04101E-10-4.47853E-13
 -1      3700 1.33779E+00 9.28790E-01 9.82674E-10-1.94751E-04 3.68225E-11-7.67585E-12
 -1      3702 1.34407E+00 9.22503E-01-1.24900E-09-2.00648E-04-3.46034E-10 1.27622E-11
 -1      3703 1.33779E+00 9.28790E-01 1.13658E-09-1.94751E-04 2.04949E-10-4.40946E-11
 -1      3705 1.34407E+00 9.22503E-01-9.13867E-10-2.00648E-04-3.75279E-10 7.14879E-11
 -1      3706 1.33779E+00 9.28790E-01 2.94576E-10-1.94751E-04 3.17961E-10-1.57761E-10
 -1      3708 1.34407E+00 9.22503E-01-9.61080E-10-2.00648E-04-2.62672E-10 1.47224E-10
 -1      3710 1.35788E+00 9.08691E-01-4.79681E-10-2.13850E-04-2.53862E-11 5.24467E-11
 -1      3711 1.35098E+00 9.15596E-01 2.07016E-10-2.07203E-04 3.10719E-10-3.42572E-11
 -1      3713 1.35788E+00 9.08691E-01-3.21580E-10-2.13850E-04 3.59125E-11 3.13131E-11
 -1      3714 1.35098E+00 9.15596E-01-6.65309E-11-2.07203E-04 1.93134E-10-1.11202E-11
 -1      3716 1.35788E+00 9.08691E-01-4.32615E-10-2.13850E-04 8.38180E-11 1.36451E-11
 -1      3717 1.35098E+00 9.15596E-01 2.76495E-11-2.07203E-04 1.81379E-10 3.21963E-12
 -1      3719 1.35788E+00 9.08691E-01-3.89291E-10-2.13850E-04 6.87183E-11 4.50300E-12
 -1      3720 1.35098E+00 9.15596E-01 4.63578E-11-2.07203E-04 8.39889E-11 2.05863E-12
 -1      3722 1.35788E+00 9.08691E-01-4.59563E-10-2.13850E-04 4.60471E-11 2.11762E-12
 -1      3723 1.35098E+00 9.15596E-01 4.24729E-11-2.07203E-04 4.42666E-11 1.97835E-12
 -1      3725 1.35788E+00 9.08691E-01-4.26939E-10-2.13850E-04-6.94862E-14 4.90629E-15
 -1      3726 1.35098E+00 9.15596E-01 4.25086E-11-2.07203E-04-4.43354E-11-1.94870E-12
 -1      3728 1.35788E+00 9.08691E-01-4.59534E-10-2.13850E-04-4.60760E-11-2.08555E-12
 -1      3729 1.35098E+00 9.15596E-01 4.63763E-11-2.07203E-04-8.39347E-11-2.03584E-12
 -1      3731 1.35788E+00 9.08691E-01-3.89313E-10-2.13850E-04-6.86361E-11-4.56046E-12
 -1      3732 1.35098E+00 9.15596E-01 2.76379E-11-2.07203E-04-1.81363E-10-3.17948E-12
 -1      3734 1.35788E+00 9.08691E-01-4.32621E-10-2.13850E-04-8.37773E-11-1.36287E-11
 -1      3735 1.35098E+00 9.15596E-01-6.65417E-11-2.07203E-04-1.93051E-10 1.11637E-11
 -1      3737 1.35788E+00 9.08691E-01-3.21557E-10-2.13850E-04-3.57244E-11-3.12187E-11
 -1      3738 1.35098E+00 9.15596E-01 2.06947E-10-2.07203E-04-3.10751E-10 3.41655E-11
 -1      3740 1.35788E+00 9.08691E-01-4.79659E-10-2.13850E-04 2.52186E-11-5.24096E-11
 -1      3742 1.37310E+00 8.93477E-01-6.62407E-10-2.28323E-04 1.08672E-11-1.15646E-11
 -1      3743 1.36549E+00 9.01084E-01 2.76175E-10-2.21045E-04 1.33553E-11 2.06636E-11
 -1      3745 1.37310E+00 8.93477E-01-6.15922E-10-2.28323E-04 4.91291E-11-3.70926E-13
 -1      3746 1.36549E+00 9.01084E-01 3.18399E-10-2.21045E-04 3.68672E-11 9.74141E-12
 -1      3748 1.37310E+00 8.93477E-01-6.94453E-10-2.28323E-04 5.07704E-11 3.84372E-12
 -1      3749 1.36549E+00 9.01084E-01 2.60542E-10-2.21045E-04 7.36113E-11 6.98795E-12
 -1      3751 1.37310E+00 8.93477E-01-6.72583E-10-2.28323E-04 3.79613E-11 3.17927E-12
 -1      3752 1.36549E+00 9.01084E-01 2.30833E-10-2.21045E-04 4.09221E-11 2.14444E-12
 -1      3754 1.37310E+00 8.93477E-01-7.13508E-10-2.28323E-04 2.45895E-11 2.06244E-12
 -1      3755 1.36549E+00 9.01084E-01 2.20884E-10-2.21045E-04 2.41666E-11 1.35818E-12
 -1      3757 1.37310E+00 8.93477E-01-6.95374E-10-2.28323E-04 6.86811E-14 8.73532E-15
 -1      3758 1.36549E+00 9.01084E-01 2.20874E-10-2.21045E-04-2.41967E-11-1.28925E-12
 -1      3760 1.37310E+00 8.93477E-01-7.13465E-10-2.28323E-04-2.47329E-11-1.99883E-12
 -1      3761 1.36549E+00 9.01084E-01 2.30868E-10-2.21045E-04-4.09605E-11-2.19187E-12
 -1      3763 1.37310E+00 8.93477E-01-6.72553E-10-2.28323E-04-3.79408E-11-3.13881E-12
 -1      3764 1.36549E+00 9.01084E-01 2.60574E-10-2.21045E-04-7.36501E-11-6.96965E-12
 -1      3766 1.37310E+00 8.93477E-01-6.94428E-10-2.28323E-04-5.07191E-11-3.90774E-12
 -1      3767 1.36549E+00 9.01084E-01 3.18385E-10-2.21045E-04-3.67740E-11-9.75607E-12
 -1      3769 1.37310E+00 8.93477E-01-6.15956E-10-2.28323E-04-4.92309E-11 3.88437E-13
 -1      3770 1.36549E+00 9.01084E-01 2.76216E-10-2.21045E-04-1.34045E-11-2.05626E-11
 -1      3772 1.37310E+00 8.93477E-01-6.62445E-10-2.28323E-04-1.08457E-11 1.16640E-11
 -1      3774 1.38991E+00 8.76663E-01-7.03423E-10-2.44337E-04-2.33080E-11 5.99368E-12
 -1      3775 1.38151E+00 8.85070E-01 3.12430E-10-2.36281E-04 3.24848E-11 9.92636E-13
 -1      3777 1.38991E+00 8.76663E-01-6.62722E-10-2.44337E-04 8.75799E-12 7.08109E-12
 -1      3778 1.38151E+00 8.85070E-01 2.77356E-10-2.36281E-04 2.68767E-11 3.11527E-12
 -1      3780 1.38991E+00 8.76663E-01-6.99665E-10-2.44337E-04 8.37396E-12 4.53279E-12
 -1      3781 1.38151E+00 8.85070E-01 2.77186E-10-2.36281E-04 3.44928E-11 3.84070E-12
 -1      3783 1.38991E+00 8.76663E-01-6.85428E-10-2.44337E-04 8.03426E-12 2.53221E-12
 -1      3784 1.38151E+00 8.85070E-01 2.68624E-10-2.36281E-04 1.61407E-11 1.91351E-12
 -1      3786 1.38991E+00 8.76663E-01-7.06329E-10-2.44337E-04 5.99717E-12 1.36870E-12
 -1      3787 1.38151E+00 8.85070E-01 2.62900E-10-2.36281E-04 1.09434E-11 1.07852E-12
 -1      3789 1.38991E+00 8.76663E-01-6.95364E-10-2.44337E-04-9.39112E-14-3.29174E-14
 -1      3790 1.38151E+00 8.85070E-01 2.62999E-10-2.36281E-04-1.09384E-11-1.06210E-12
 -1      3792 1.38991E+00 8.76663E-01-7.06271E-10-2.44337E-04-5.88570E-12-1.30544E-12
 -1      3793 1.38151E+00 8.85070E-01 2.68625E-10-2.36281E-04-1.62506E-11-1.87399E-12
 -1      3795 1.38991E+00 8.76663E-01-6.85325E-10-2.44337E-04-7.99848E-12-2.64431E-12
 -1      3796 1.38151E+00 8.85070E-01 2.77200E-10-2.36281E-04-3.45269E-11-3.90939E-12
 -1      3798 1.38991E+00 8.76663E-01-6.99645E-10-2.44337E-04-8.44472E-12-4.46299E-12
 -1      3799 1.38151E+00 8.85070E-01 2.77340E-10-2.36281E-04-2.68610E-11-3.08706E-12
 -1      3801 1.38991E+00 8.76663E-01-6.62814E-10-2.44337E-04-8.70903E-12-7.01081E-12
 -1      3802 1.38151E+00 8.85070E-01 3.12367E-10-2.36281E-04-3.25453E-11-8.88523E-13
 -1      3804 1.38991E+00 8.76663E-01-7.03401E-10-2.44337E-04 2.31829E-11-5.99857E-12
 -1      3806 1.40856E+00 8.58018E-01-8.22816E-10-2.62090E-04-2.51127E-11-9.77036E-13
 -1      3807 1.39924E+00 8.67340E-01 3.70781E-10-2.53159E-04-5.95281E-12 4.18620E-12
 -1      3809 1.40856E+00 8.58018E-01-7.93676E-10-2.62090E-04 7.88481E-12 3.43372E-12
 -1      3810 1.39924E+00 8.67340E-01 3.69539E-10-2.53159E-04 2.50655E-12 3.77169E-12
 -1      3812 1.40856E+00 8.58018E-01-8.15342E-10-2.62090E-04-4.42243E-13 2.46159E-12
 -1      3813 1.39924E+00 8.67340E-01 3.60993E-10-2.53159E-04 8.13338E-12 2.98538E-12
 -1      3815 1.40856E+00 8.58018E-01-8.05477E-10-2.62090E-04 1.26747E-12 1.78986E-12
 -1      3816 1.39924E+00 8.67340E-01 3.55420E-10-2.53159E-04 2.62688E-12 1.37572E-12
 -1      3818 1.40856E+00 8.58018E-01-8.16201E-10-2.62090E-04 1.03631E-12 9.05581E-13
 -1      3819 1.39924E+00 8.67340E-01 3.52975E-10-2.53159E-04 3.89140E-12 6.79325E-13
 -1      3821 1.40856E+00 8.58018E-01-8.09809E-10-2.62090E-04 1.10787E-14-7.68090E-14
 -1      3822 1.39924E+00 8.67340E-01 3.52904E-10-2.53159E-04-3.89793E-12-7.34170E-13
 -1      3824 1.40856E+00 8.58018E-01-8.16256E-10-2.62090E-04-1.04119E-12-9.24503E-13
 -1      3825 1.39924E+00 8.67340E-01 3.55473E-10-2.53159E-04-2.70104E-12-1.35067E-12
 -1      3827 1.40856E+00 8.58018E-01-8.05583E-10-2.62090E-04-1.28726E-12-1.71743E-12
 -1      3828 1.39924E+00 8.67340E-01 3.61025E-10-2.53159E-04-8.11206E-12-3.00908E-12
 -1      3830 1.40856E+00 8.58018E-01-8.15364E-10-2.62090E-04 5.27963E-13-2.45130E-12
 -1      3831 1.39924E+00 8.67340E-01 3.69517E-10-2.53159E-04-2.49359E-12-3.67634E-12
 -1      3833 1.40856E+00 8.58018E-01-7.93597E-10-2.62090E-04-7.84431E-12-3.30683E-12
 -1      3834 1.39924E+00 8.67340E-01 3.70797E-10-2.53159E-04 5.97893E-12-4.14959E-12
 -1      3836 1.40856E+00 8.58018E-01-8.22850E-10-2.62090E-04 2.50824E-11 9.24844E-13
 -1      3838 1.42931E+00 8.37264E-01-9.58108E-10-2.81852E-04-3.30641E-11-2.87463E-13
 -1      3839 1.41894E+00 8.47640E-01 4.33241E-10-2.71909E-04-8.26142E-12 1.42462E-12
 -1      3841 1.42931E+00 8.37264E-01-9.29645E-10-2.81852E-04 7.36810E-12 3.19135E-12
 -1      3842 1.41894E+00 8.47640E-01 4.27392E-10-2.71909E-04 1.89184E-12 2.43327E-12
 -1      3844 1.42931E+00 8.37264E-01-9.44476E-10-2.81852E-04-3.89112E-12 1.73938E-12
 -1      3845 1.41894E+00 8.47640E-01 4.27063E-10-2.71909E-04 1.29352E-12 1.86746E-12
 -1      3847 1.42931E+00 8.37264E-01-9.37928E-10-2.81852E-04-4.25868E-13 1.21362E-12
 -1      3848 1.41894E+00 8.47640E-01 4.25669E-10-2.71909E-04-6.03001E-13 9.56040E-13
 -1      3850 1.42931E+00 8.37264E-01-9.43200E-10-2.81852E-04-5.14152E-13 5.45626E-13
 -1      3851 1.41894E+00 8.47640E-01 4.24860E-10-2.71909E-04 1.31434E-12 4.18031E-13
 -1      3853 1.42931E+00 8.37264E-01-9.39649E-10-2.81852E-04-2.15509E-14 6.46472E-14
 -1      3854 1.41894E+00 8.47640E-01 4.24856E-10-2.71909E-04-1.30817E-12-4.18502E-13
 -1      3856 1.42931E+00 8.37264E-01-9.43154E-10-2.81852E-04 5.46506E-13-5.28709E-13
 -1      3857 1.41894E+00 8.47640E-01 4.25685E-10-2.71909E-04 6.80890E-13-9.43314E-13
 -1      3859 1.42931E+00 8.37264E-01-9.37888E-10-2.81852E-04 4.74005E-13-1.12593E-12
 -1      3860 1.41894E+00 8.47640E-01 4.27030E-10-2.71909E-04-1.24518E-12-1.77398E-12
 -1      3862 1.42931E+00 8.37264E-01-9.44495E-10-2.81852E-04 3.90442E-12-1.74191E-12
 -1      3863 1.41894E+00 8.47640E-01 4.27353E-10-2.71909E-04-1.79840E-12-2.45773E-12
 -1      3865 1.42931E+00 8.37264E-01-9.29740E-10-2.81852E-04-7.37968E-12-3.29187E-12
 -1      3866 1.41894E+00 8.47640E-01 4.33233E-10-2.71909E-04 8.32747E-12-1.41310E-12
 -1      3868 1.42931E+00 8.37264E-01-9.58188E-10-2.81852E-04 3.31383E-11 3.88852E-13
 -1      3870 1.45250E+00 8.14072E-01-1.13213E-09-3.03935E-04-3.99730E-11-1.92901E-12
 -1      3871 1.44091E+00 8.25667E-01 5.11446E-10-2.92824E-04-1.40257E-11 8.09569E-13
 -1      3873 1.45250E+00 8.14072E-01-1.10161E-09-3.03935E-04 1.02805E-11 2.54164E-12
 -1      3874 1.44091E+00 8.25667E-01 5.08211E-10-2.92824E-04 1.66235E-12 1.93355E-12
 -1      3876 1.45250E+00 8.14072E-01-1.11393E-09-3.03935E-04-4.46732E-12 9.85779E-13
 -1      3877 1.44091E+00 8.25667E-01 5.07382E-10-2.92824E-04-1.10195E-12 1.19174E-12
 -1      3879 1.45250E+00 8.14072E-01-1.10961E-09-3.03935E-04-1.13745E-13 8.10553E-13
 -1      3880 1.44091E+00 8.25667E-01 5.06904E-10-2.92824E-04-1.06314E-12 6.36816E-13
 -1      3882 1.45250E+00 8.14072E-01-1.11186E-09-3.03935E-04-5.13193E-13 3.43534E-13
 -1      3883 1.44091E+00 8.25667E-01 5.06551E-10-2.92824E-04 5.30404E-13 2.66155E-13
 -1      3885 1.45250E+00 8.14072E-01-1.11067E-09-3.03935E-04 3.74938E-14 5.06556E-14
 -1      3886 1.44091E+00 8.25667E-01 5.06517E-10-2.92824E-04-5.46181E-13-2.06318E-13
 -1      3888 1.45250E+00 8.14072E-01-1.11193E-09-3.03935E-04 5.95531E-13-3.58205E-13
 -1      3889 1.44091E+00 8.25667E-01 5.06824E-10-2.92824E-04 1.13113E-12-6.37260E-13
 -1      3891 1.45250E+00 8.14072E-01-1.10957E-09-3.03935E-04 5.68421E-14-9.05086E-13
 -1      3892 1.44091E+00 8.25667E-01 5.07418E-10-2.92824E-04 1.08346E-12-1.21553E-12
 -1      3894 1.45250E+00 8.14072E-01-1.11388E-09-3.03935E-04 4.47802E-12-1.02410E-12
 -1      3895 1.44091E+00 8.25667E-01 5.08186E-10-2.92824E-04-1.67004E-12-1.97721E-12
 -1      3897 1.45250E+00 8.14072E-01-1.10154E-09-3.03935E-04-1.02708E-11-2.52386E-12
 -1      3898 1.44091E+00 8.25667E-01 5.11426E-10-2.92824E-04 1.39924E-11-8.21657E-13
 -1      3900 1.45250E+00 8.14072E-01-1.13217E-09-3.03935E-04 4.00387E-11 1.82553E-12
 -1      3902 1.47853E+00 7.88045E-01-1.34844E-09-3.28718E-04-5.02437E-11-2.70977E-12
 -1      3903 1.46552E+00 8.01057E-01 6.06861E-10-3.16249E-04-1.72921E-11-3.41260E-14
 -1      3905 1.47853E+00 7.88045E-01-1.31334E-09-3.28718E-04 1.34122E-11 2.39456E-12
 -1      3906 1.46552E+00 8.01057E-01 6.02588E-10-3.16249E-04 3.23054E-12 1.50128E-12
 -1      3908 1.47853E+00 7.88045E-01-1.32433E-09-3.28718E-04-4.84465E-12 6.12287E-13
 -1      3909 1.46552E+00 8.01057E-01 6.02662E-10-3.16249E-04-1.27322E-12 8.07530E-13
 -1      3911 1.47853E+00 7.88045E-01-1.32226E-09-3.28718E-04 2.52930E-13 7.11639E-13
 -1      3912 1.46552E+00 8.01057E-01 6.02660E-10-3.16249E-04-9.02069E-13 4.72494E-13
 -1      3914 1.47853E+00 7.88045E-01-1.32218E-09-3.28718E-04-4.25975E-13 3.71120E-13
 -1      3915 1.46552E+00 8.01057E-01 6.02403E-10-3.16249E-04 4.03657E-13 2.53532E-13
 -1      3917 1.47853E+00 7.88045E-01-1.32292E-09-3.28718E-04 9.25317E-15 7.39920E-14
 -1      3918 1.46552E+00 8.01057E-01 6.02361E-10-3.16249E-04-3.27553E-13-1.23914E-13
 -1      3920 1.47853E+00 7.88045E-01-1.32215E-09-3.28718E-04 4.78806E-13-1.59482E-13
 -1      3921 1.46552E+00 8.01057E-01 6.02706E-10-3.16249E-04 8.81485E-13-4.23590E-13
 -1      3923 1.47853E+00 7.88045E-01-1.32232E-09-3.28718E-04-2.21190E-13-6.41094E-13
 -1      3924 1.46552E+00 8.01057E-01 6.02633E-10-3.16249E-04 1.34649E-12-8.61453E-13
 -1      3926 1.47853E+00 7.88045E-01-1.32431E-09-3.28718E-04 4.73871E-12-6.16475E-13
 -1      3927 1.46552E+00 8.01057E-01 6.02689E-10-3.16249E-04-3.33868E-12-1.50142E-12
 -1      3929 1.47853E+00 7.88045E-01-1.31328E-09-3.28718E-04-1.34960E-11-2.45155E-12
 -1      3930 1.46552E+00 8.01057E-01 6.06940E-10-3.16249E-04 1.72323E-11 2.19651E-14
 -1      3932 1.47853E+00 7.88045E-01-1.34833E-09-3.28718E-04 5.01153E-11 2.70675E-12
 -1      3934 1.50787E+00 7.58701E-01-1.61878E-09-3.56660E-04-6.25648E-11-4.36557E-12
 -1      3935 1.49320E+00 7.73371E-01 7.26919E-10-3.42602E-04-2.08938E-11-6.97652E-13
 -1      3937 1.50787E+00 7.58701E-01-1.57919E-09-3.56660E-04 1.76911E-11 2.22866E-12
 -1      3938 1.49320E+00 7.73371E-01 7.22067E-10-3.42602E-04 4.41129E-12 1.21851E-12
 -1      3940 1.50787E+00 7.58701E-01-1.58736E-09-3.56660E-04-5.37229E-12 1.60861E-13
 -1      3941 1.49320E+00 7.73371E-01 7.21701E-10-3.42602E-04-1.00827E-12 5.03892E-13
 -1      3943 1.50787E+00 7.58701E-01-1.58957E-09-3.56660E-04 4.85418E-13 3.50394E-13
 -1      3944 1.49320E+00 7.73371E-01 7.21829E-10-3.42602E-04-9.56015E-13 2.99655E-13
 -1      3946 1.50787E+00 7.58701E-01-1.58626E-09-3.56660E-04-2.25705E-13 1.04264E-13
 -1      3947 1.49320E+00 7.73371E-01 7.21643E-10-3.42602E-04 4.89070E-13 1.78486E-13
 -1      3949 1.50787E+00 7.58701E-01-1.58919E-09-3.56660E-04 2.14624E-14-4.16767E-14
 -1      3950 1.49320E+00 7.73371E-01 7.21616E-10-3.42602E-04-4.48626E-13-1.19386E-13
 -1      3952 1.50787E+00 7.58701E-01-1.58631E-09-3.56660E-04 2.71052E-13-1.89196E-13
 -1      3953 1.49320E+00 7.73371E-01 7.21857E-10-3.42602E-04 9.28889E-13-2.71633E-13
 -1      3955 1.50787E+00 7.58701E-01-1.58960E-09-3.56660E-04-4.38685E-13-4.06527E-13
 -1      3956 1.49320E+00 7.73371E-01 7.21673E-10-3.42602E-04 1.05877E-12-5.23153E-13
 -1      3958 1.50787E+00 7.58701E-01-1.58748E-09-3.56660E-04 5.44654E-12-1.56959E-13
 -1      3959 1.49320E+00 7.73371E-01 7.22003E-10-3.42602E-04-4.34291E-12-1.18852E-12
 -1      3961 1.50787E+00 7.58701E-01-1.57928E-09-3.56660E-04-1.76744E-11-2.16810E-12
 -1      3962 1.49320E+00 7.73371E-01 7.26899E-10-3.42602E-04 2.07815E-11 7.11665E-13
 -1      3964 1.50787E+00 7.58701E-01-1.61880E-09-3.56660E-04 6.25373E-11 4.43017E-12
 -1      3966 1.54112E+00 7.25452E-01-1.96251E-09-3.88319E-04-8.16737E-11-4.74770E-12
 -1      3967 1.52450E+00 7.42074E-01 8.76077E-10-3.72392E-04-2.62055E-11-1.06066E-12
 -1      3969 1.54112E+00 7.25452E-01-1.92326E-09-3.88319E-04 2.14038E-11 2.64213E-12
 -1      3970 1.52450E+00 7.42074E-01 8.69467E-10-3.72392E-04 3.84507E-12 9.78678E-13
 -1      3972 1.54112E+00 7.25452E-01-1.92282E-09-3.88319E-04-6.24520E-12 4.62051E-14
 -1      3973 1.52450E+00 7.42074E-01 8.70013E-10-3.72392E-04-5.29623E-13 3.51777E-13
 -1      3975 1.54112E+00 7.25452E-01-1.93282E-09-3.88319E-04-5.10252E-13 2.78640E-13
 -1      3976 1.52450E+00 7.42074E-01 8.70745E-10-3.72392E-04-1.40155E-12 9.43818E-14
 -1      3978 1.54112E+00 7.25452E-01-1.92423E-09-3.88319E-04 2.83722E-13 1.59103E-13
 -1      3979 1.52450E+00 7.42074E-01 8.70238E-10-3.72392E-04 8.35214E-13 1.25687E-13
 -1      3981 1.54112E+00 7.25452E-01-1.93021E-09-3.88319E-04-2.68468E-14 6.02735E-14
 -1      3982 1.52450E+00 7.42074E-01 8.70254E-10-3.72392E-04-7.41733E-13-9.10520E-14
 -1      3984 1.54112E+00 7.25452E-01-1.92431E-09-3.88319E-04-1.94046E-13-7.44706E-15
 -1      3985 1.52450E+00 7.42074E-01 8.70669E-10-3.72392E-04 1.49731E-12-7.58682E-14
 -1      3987 1.54112E+00 7.25452E-01-1.93289E-09-3.88319E-04 4.48754E-13-1.77661E-13
 -1      3988 1.52450E+00 7.42074E-01 8.70002E-10-3.72392E-04 4.77674E-13-3.44471E-13
 -1      3990 1.54112E+00 7.25452E-01-1.92279E-09-3.88319E-04 6.25884E-12-5.86764E-14
 -1      3991 1.52450E+00 7.42074E-01 8.69455E-10-3.72392E-04-3.75161E-12-9.81211E-13
 -1      3993 1.54112E+00 7.25452E-01-1.92327E-09-3.88319E-04-2.13345E-11-2.64164E-12
 -1      3994 1.52450E+00 7.42074E-01 8.76110E-10-3.72392E-04 2.61406E-11 1.12476E-12
 -1      3996 1.54112E+00 7.25452E-01-1.96249E-09-3.88319E-04 8.16227E-11 4.74580E-12
 -1      3998 1.57900E+00 6.87573E-01-2.38377E-09-4.24388E-04-9.88023E-11-1.06928E-11
 -1      3999 1.56007E+00 7.06509E-01 1.07263E-09-4.06244E-04-2.41489E-11-2.32407E-12
 -1      4001 1.57900E+00 6.87573E-01-2.35707E-09-4.24388E-04 3.03111E-11 1.47158E-12
 -1      4002 1.56007E+00 7.06509E-01 1.06772E-09-4.06244E-04 4.47378E-12 4.30982E-13
 -1      4004 1.57900E+00 6.87573E-01-2.33388E-09-4.24388E-04-3.69294E-12-3.53929E-13
 -1      4005 1.56007E+00 7.06509E-01 1.06396E-09-4.06244E-04 2.35350E-12 4.19899E-13
 -1      4007 1.57900E+00 6.87573E-01-2.36188E-09-4.24388E-04-1.68430E-12 4.85404E-14
 -1      4008 1.56007E+00 7.06509E-01 1.06495E-09-4.06244E-04-2.36643E-12-2.84119E-14
 -1      4010 1.57900E+00 6.87573E-01-2.34451E-09-4.24388E-04 2.19874E-12 2.68632E-13
 -1      4011 1.56007E+00 7.06509E-01 1.06417E-09-4.06244E-04 1.43452E-12 2.40277E-13
 -1      4013 1.57900E+00 6.87573E-01-2.35405E-09-4.24388E-04-6.70713E-14 3.35533E-14
 -1      4014 1.56007E+00 7.06509E-01 1.06415E-09-4.06244E-04-1.46546E-12-1.41553E-13
 -1      4016 1.57900E+00 6.87573E-01-2.34449E-09-4.24388E-04-2.20001E-12-2.76349E-13
 -1      4017 1.56007E+00 7.06509E-01 1.06487E-09-4.06244E-04 2.32952E-12 6.54586E-14
 -1      4019 1.57900E+00 6.87573E-01-2.36185E-09-4.24388E-04 1.61959E-12-9.36479E-14
 -1      4020 1.56007E+00 7.06509E-01 1.06392E-09-4.06244E-04-2.39482E-12-3.88565E-13
 -1      4022 1.57900E+00 6.87573E-01-2.33394E-09-4.24388E-04 3.73595E-12 3.41746E-13
 -1      4023 1.56007E+00 7.06509E-01 1.06763E-09-4.06244E-04-4.40476E-12-4.75639E-13
 -1      4025 1.57900E+00 6.87573E-01-2.35709E-09-4.24388E-04-3.03151E-11-1.41612E-12
 -1      4026 1.56007E+00 7.06509E-01 1.07257E-09-4.06244E-04 2.40916E-11 2.42099E-12
 -1      4028 1.57900E+00 6.87573E-01-2.38372E-09-4.24388E-04 9.88034E-11 1.07652E-11
 -1      4030 1.62241E+00 6.44163E-01-2.95900E-09-4.65719E-04-1.51823E-10 9.70143E-13
 -1      4031 1.60071E+00 6.65864E-01 1.30502E-09-4.44932E-04-4.20438E-11 4.97452E-13
 -1      4033 1.62241E+00 6.44163E-01-2.99373E-09-4.65719E-04 1.97177E-11 6.72161E-12
 -1      4034 1.60071E+00 6.65864E-01 1.28922E-09-4.44932E-04-9.25564E-12 5.38007E-13
 -1      4036 1.62241E+00 6.44163E-01-2.91424E-09-4.65719E-04-5.42020E-12 6.78770E-13
 -1      4037 1.60071E+00 6.65864E-01 1.29635E-09-4.44932E-04 4.56305E-12 7.45065E-13
 -1      4039 1.62241E+00 6.44163E-01-2.97494E-09-4.65719E-04-1.01526E-11-5.54131E-13
 -1      4040 1.60071E+00 6.65864E-01 1.30130E-09-4.44932E-04-4.91568E-12-5.25659E-13
 -1      4042 1.62241E+00 6.44163E-01-2.94062E-09-4.65719E-04 4.42216E-12-4.71088E-14
 -1      4043 1.60071E+00 6.65864E-01 1.29982E-09-4.44932E-04 2.08529E-12 1.14544E-13
 -1      4045 1.62241E+00 6.44163E-01-2.95164E-09-4.65719E-04-2.00712E-16-7.38136E-14
 -1      4046 1.60071E+00 6.65864E-01 1.29983E-09-4.44932E-04-2.09080E-12-1.48087E-13
 -1      4048 1.62241E+00 6.44163E-01-2.94068E-09-4.65719E-04-4.33405E-12-3.90002E-14
 -1      4049 1.60071E+00 6.65864E-01 1.30132E-09-4.44932E-04 4.85595E-12 4.53415E-13
 -1      4051 1.62241E+00 6.44163E-01-2.97493E-09-4.65719E-04 1.00972E-11 5.47815E-13
 -1      4052 1.60071E+00 6.65864E-01 1.29635E-09-4.44932E-04-4.58911E-12-7.40037E-13
 -1      4054 1.62241E+00 6.44163E-01-2.91410E-09-4.65719E-04 5.29622E-12-6.81524E-13
 -1      4055 1.60071E+00 6.65864E-01 1.28932E-09-4.44932E-04 9.27237E-12-5.53541E-13
 -1      4057 1.62241E+00 6.44163E-01-2.99366E-09-4.65719E-04-1.95659E-11-6.80240E-12
 -1      4058 1.60071E+00 6.65864E-01 1.30507E-09-4.44932E-04 4.21143E-11-4.53994E-13
 -1      4060 1.62241E+00 6.44163E-01-2.95900E-09-4.65719E-04 1.51921E-10-9.29406E-13
 -1      4062 1.67248E+00 5.94091E-01-3.50623E-09-5.13407E-04-1.11196E-10-5.06315E-11
 -1      4063 1.64745E+00 6.19121E-01 1.67657E-09-4.89429E-04 3.86601E-11-9.43234E-12
 -1      4065 1.67248E+00 5.94091E-01-3.65460E-09-5.13407E-04 8.51937E-11-1.09249E-11
 -1      4066 1.64745E+00 6.19121E-01 1.70863E-09-4.89429E-04 7.82407E-12-3.28376E-12
 -1      4068 1.67248E+00 5.94091E-01-3.43709E-09-5.13407E-04 4.77366E-11-1.33467E-12
 -1      4069 1.64745E+00 6.19121E-01 1.67396E-09-4.89429E-04 2.88973E-11 1.50651E-12
 -1      4071 1.67248E+00 5.94091E-01-3.57492E-09-5.13407E-04-2.37671E-12-2.51343E-13
 -1      4072 1.64745E+00 6.19121E-01 1.67755E-09-4.89429E-04-2.18995E-12 2.64794E-14
 -1      4074 1.67248E+00 5.94091E-01-3.52561E-09-5.13407E-04 2.12240E-11 2.08905E-12
 -1      4075 1.64745E+00 6.19121E-01 1.67711E-09-4.89429E-04 3.74122E-12 4.64315E-13
 -1      4077 1.67248E+00 5.94091E-01-3.53321E-09-5.13407E-04-9.52279E-15 4.05255E-15
 -1      4078 1.64745E+00 6.19121E-01 1.67706E-09-4.89429E-04-3.72137E-12-5.32517E-13
 -1      4080 1.67248E+00 5.94091E-01-3.52559E-09-5.13407E-04-2.12101E-11-2.12322E-12
 -1      4081 1.64745E+00 6.19121E-01 1.67756E-09-4.89429E-04 2.14650E-12-6.72985E-14
 -1      4083 1.67248E+00 5.94091E-01-3.57489E-09-5.13407E-04 2.26842E-12 2.67051E-13
 -1      4084 1.64745E+00 6.19121E-01 1.67404E-09-4.89429E-04-2.89460E-11-1.48265E-12
 -1      4086 1.67248E+00 5.94091E-01-3.43706E-09-5.13407E-04-4.77384E-11 1.30775E-12
 -1      4087 1.64745E+00 6.19121E-01 1.70864E-09-4.89429E-04-7.76479E-12 3.24336E-12
 -1      4089 1.67248E+00 5.94091E-01-3.65460E-09-5.13407E-04-8.51226E-11 1.09386E-11
 -1      4090 1.64745E+00 6.19121E-01 1.67663E-09-4.89429E-04-3.85438E-11 9.41518E-12
 -1      4092 1.67248E+00 5.94091E-01-3.50628E-09-5.13407E-04 1.11203E-10 5.06490E-11
 -1      4094 1.73065E+00 5.35921E-01-4.73586E-09-5.68739E-04-4.40429E-10 1.11507E-10
 -1      4095 1.70158E+00 5.64999E-01 1.94042E-09-5.40933E-04-1.43569E-10 3.21634E-11
 -1      4097 1.73065E+00 5.35921E-01-5.42742E-09-5.68739E-04-1.68999E-10 4.83282E-11
 -1      4098 1.70158E+00 5.64999E-01 1.82482E-09-5.40933E-04-1.16304E-10 2.31434E-12
 -1      4100 1.73065E+00 5.35921E-01-4.95984E-09-5.68739E-04-2.60161E-11 1.03281E-11
 -1      4101 1.70158E+00 5.64999E-01 1.90592E-09-5.40933E-04 2.20903E-11 2.52726E-12
 -1      4103 1.73065E+00 5.35921E-01-5.18697E-09-5.68739E-04-7.77517E-11-7.21861E-12
 -1      4104 1.70158E+00 5.64999E-01 1.93976E-09-5.40933E-04-8.66444E-12-3.72439E-12
 -1      4106 1.73065E+00 5.35921E-01-5.08009E-09-5.68739E-04 2.03003E-11-3.16177E-12
 -1      4107 1.70158E+00 5.64999E-01 1.93340E-09-5.40933E-04 1.65284E-12-1.07048E-12
 -1      4109 1.73065E+00 5.35921E-01-5.04106E-09-5.68739E-04-2.92605E-14 1.34568E-14
 -1      4110 1.70158E+00 5.64999E-01 1.93338E-09-5.40933E-04-1.67296E-12 1.07333E-12
 -1      4112 1.73065E+00 5.35921E-01-5.08009E-09-5.68739E-04-2.03240E-11 3.18426E-12
 -1      4113 1.70158E+00 5.64999E-01 1.93977E-09-5.40933E-04 8.66454E-12 3.73497E-12
 -1      4115 1.73065E+00 5.35921E-01-5.18698E-09-5.68739E-04 7.77047E-11 7.17362E-12
 -1      4116 1.70158E+00 5.64999E-01 1.90596E-09-5.40933E-04-2.21705E-11-2.56436E-12
 -1      4118 1.73065E+00 5.35921E-01-4.95988E-09-5.68739E-04 2.59793E-11-1.03595E-11
 -1      4119 1.70158E+00 5.64999E-01 1.82485E-09-5.40933E-04 1.16374E-10-2.34991E-12
 -1      4121 1.73065E+00 5.35921E-01-5.42743E-09-5.68739E-04 1.69004E-10-4.84331E-11
 -1      4122 1.70158E+00 5.64999E-01 1.94042E-09-5.40933E-04 1.43535E-10-3.21818E-11
 -1      4124 1.73065E+00 5.35921E-01-4.73582E-09-5.68739E-04 4.40394E-10-1.11453E-10
 -1      4126 1.79877E+00 4.67810E-01-3.97563E-09-6.33779E-04 5.67718E-10-4.42907E-10
 -1      4127 1.76472E+00 5.01855E-01 3.03740E-09-6.01096E-04 7.97933E-10-9.34512E-11
 -1      4129 1.79877E+00 4.67810E-01-4.94402E-09-6.33779E-04 7.69116E-10-1.60359E-10
 -1      4130 1.76472E+00 5.01855E-01 3.58202E-09-6.01096E-04 1.84456E-10-3.43717E-11
 -1      4132 1.79877E+00 4.67810E-01-3.62302E-09-6.33779E-04 7.08201E-10-1.09332E-11
 -1      4133 1.76472E+00 5.01855E-01 3.27825E-09-6.01096E-04 2.27579E-10 8.96754E-12
 -1      4135 1.79877E+00 4.67810E-01-4.16143E-09-6.33779E-04 1.59668E-10 8.64374E-12
 -1      4136 1.76472E+00 5.01855E-01 3.27997E-09-6.01096E-04 6.49599E-11 7.97552E-12
 -1      4138 1.79877E+00 4.67810E-01-4.22737E-09-6.33779E-04 1.43518E-10 1.89361E-11
 -1      4139 1.76472E+00 5.01855E-01 3.30978E-09-6.01096E-04 1.27065E-11 3.04867E-12
 -1      4141 1.79877E+00 4.67810E-01-4.16031E-09-6.33779E-04-4.25258E-14-4.88644E-14
 -1      4142 1.76472E+00 5.01855E-01 3.30975E-09-6.01096E-04-1.27999E-11-3.07627E-12
 -1      4144 1.79877E+00 4.67810E-01-4.22748E-09-6.33779E-04-1.43592E-10-1.89798E-11
 -1      4145 1.76472E+00 5.01855E-01 3.27995E-09-6.01096E-04-6.50080E-11-7.97766E-12
 -1      4147 1.79877E+00 4.67810E-01-4.16149E-09-6.33779E-04-1.59644E-10-8.64270E-12
 -1      4148 1.76472E+00 5.01855E-01 3.27821E-09-6.01096E-04-2.27608E-10-9.01427E-12
 -1      4150 1.79877E+00 4.67810E-01-3.62313E-09-6.33779E-04-7.08207E-10 1.08969E-11
 -1      4151 1.76472E+00 5.01855E-01 3.58191E-09-6.01096E-04-1.84454E-10 3.43238E-11
 -1      4153 1.79877E+00 4.67810E-01-4.94413E-09-6.33779E-04-7.69074E-10 1.60377E-10
 -1      4154 1.76472E+00 5.01855E-01 3.03738E-09-6.01096E-04-7.97933E-10 9.34585E-11
 -1      4156 1.79877E+00 4.67810E-01-3.97559E-09-6.33779E-04-5.67791E-10 4.42920E-10
 -1      4158 1.87922E+00 3.87357E-01-1.00706E-08-7.09599E-04-3.12654E-09 1.34978E-09
 -1      4159 1.83901E+00 4.27569E-01 1.99302E-09-6.71589E-04-1.53805E-09 3.90088E-10
 -1      4161 1.87922E+00 3.87357E-01-1.62994E-08-7.09599E-04-3.36323E-09 4.79128E-10
 -1      4162 1.83901E+00 4.27569E-01 4.62196E-10-6.71589E-04-1.08377E-09 5.21141E-11
 -1      4164 1.87922E+00 3.87357E-01-1.48921E-08-7.09599E-04-1.26272E-09 9.00802E-11
 -1      4165 1.83901E+00 4.27569E-01 1.10430E-09-6.71589E-04-1.77740E-10-4.93716E-12
 -1      4167 1.87922E+00 3.87357E-01-1.51658E-08-7.09599E-04-8.58787E-10-6.94265E-11
 -1      4168 1.83901E+00 4.27569E-01 1.20972E-09-6.71589E-04-7.19538E-11-3.29747E-11
 -1      4170 1.87922E+00 3.87357E-01-1.47779E-08-7.09599E-04-1.22016E-10-5.08918E-11
 -1      4171 1.83901E+00 4.27569E-01 1.11926E-09-6.71589E-04-4.88250E-11-1.58923E-11
 -1      4173 1.87922E+00 3.87357E-01-1.42481E-08-7.09599E-04-1.09864E-14-1.76705E-14
 -1      4174 1.83901E+00 4.27569E-01 1.11930E-09-6.71589E-04 4.88369E-11 1.58307E-11
 -1      4176 1.87922E+00 3.87357E-01-1.47778E-08-7.09599E-04 1.22052E-10 5.08818E-11
 -1      4177 1.83901E+00 4.27569E-01 1.20970E-09-6.71589E-04 7.20174E-11 3.29879E-11
 -1      4179 1.87922E+00 3.87357E-01-1.51657E-08-7.09599E-04 8.58843E-10 6.93908E-11
 -1      4180 1.83901E+00 4.27569E-01 1.10426E-09-6.71589E-04 1.77656E-10 4.89099E-12
 -1      4182 1.87922E+00 3.87357E-01-1.48921E-08-7.09599E-04 1.26250E-09-9.01281E-11
 -1      4183 1.83901E+00 4.27569E-01 4.62156E-10-6.71589E-04 1.08367E-09-5.21716E-11
 -1      4185 1.87922E+00 3.87357E-01-1.62995E-08-7.09599E-04 3.36329E-09-4.79254E-10
 -1      4186 1.83901E+00 4.27569E-01 1.99297E-09-6.71589E-04 1.53812E-09-3.90126E-10
 -1      4188 1.87922E+00 3.87357E-01-1.00707E-08-7.09599E-04 3.12666E-09-1.34990E-09
 -1      4190 1.97518E+00 2.91393E-01 1.08548E-08-8.03905E-04 1.08536E-08-4.21194E-09
 -1      4191 1.92722E+00 3.39354E-01 8.93629E-09-7.56446E-04 8.06563E-09-1.08402E-09
 -1      4193 1.97518E+00 2.91393E-01 1.09849E-08-8.03904E-04 1.10152E-08-1.61969E-09
 -1      4194 1.92722E+00 3.39354E-01 1.54900E-08-7.56445E-04 2.49093E-09-3.00916E-10
 -1      4196 1.97518E+00 2.91393E-01 1.97180E-08-8.03904E-04 8.90507E-09-8.51141E-11
 -1      4197 1.92722E+00 3.39354E-01 1.33759E-08-7.56446E-04 1.61910E-09 7.41520E-11
 -1      4199 1.97518E+00 2.91393E-01 1.81055E-08-8.03904E-04 2.77735E-09 1.71495E-10
 -1      4200 1.92722E+00 3.39354E-01 1.34347E-08-7.56446E-04 7.79089E-10 1.14441E-10
 -1      4202 1.97518E+00 2.91393E-01 1.47436E-08-8.03904E-04 5.38444E-10 1.52534E-10
 -1      4203 1.92722E+00 3.39354E-01 1.39741E-08-7.56446E-04 1.30542E-10 3.56390E-11
 -1      4205 1.97518E+00 2.91393E-01 1.41930E-08-8.03905E-04-8.83292E-14 3.91823E-14
 -1      4206 1.92722E+00 3.39354E-01 1.39741E-08-7.56446E-04-1.30611E-10-3.56112E-11
 -1      4208 1.97518E+00 2.91393E-01 1.47436E-08-8.03904E-04-5.38431E-10-1.52466E-10
 -1      4209 1.92722E+00 3.39354E-01 1.34348E-08-7.56446E-04-7.79040E-10-1.14410E-10
 -1      4211 1.97518E+00 2.91393E-01 1.81055E-08-8.03904E-04-2.77737E-09-1.71464E-10
 -1      4212 1.92722E+00 3.39354E-01 1.33760E-08-7.56446E-04-1.61910E-09-7.41604E-11
 -1      4214 1.97518E+00 2.91393E-01 1.97181E-08-8.03904E-04-8.90499E-09 8.51653E-11
 -1      4215 1.92722E+00 3.39354E-01 1.54899E-08-7.56445E-04-2.49095E-09 3.00901E-10
 -1      4217 1.97518E+00 2.91393E-01 1.09849E-08-8.03904E-04-1.10153E-08 1.61974E-09
 -1      4218 1.92722E+00 3.39354E-01 8.93622E-09-7.56446E-04-8.06556E-09 1.08399E-09
 -1      4220 1.97518E+00 2.91393E-01 1.08549E-08-8.03905E-04-1.08536E-08 4.21194E-09
 -1      4222 2.09092E+00 1.75659E-01-5.26250E-08-9.02467E-04-3.75724E-08 1.22966E-08
 -1      4223 2.03308E+00 2.33496E-01-1.09863E-08-8.53799E-04-1.79339E-08 3.95242E-09
 -1      4225 2.09092E+00 1.75659E-01-1.18944E-07-9.02470E-04-5.42930E-08 3.96161E-09
 -1      4226 2.03308E+00 2.33496E-01-3.02395E-08-8.53800E-04-1.10119E-08 6.39620E-10
 -1      4228 2.09092E+00 1.75659E-01-1.31676E-07-9.02470E-04-2.84387E-08 4.85518E-10
 -1      4229 2.03308E+00 2.33496E-01-2.87676E-08-8.53799E-04-6.12378E-09-2.47417E-10
 -1      4231 2.09092E+00 1.75659E-01-1.23880E-07-9.02469E-04-1.18436E-08-5.77818E-10
 -1      4232 2.03308E+00 2.33496E-01-3.12387E-08-8.53799E-04-2.69277E-09-3.17414E-10
 -1      4234 2.09092E+00 1.75659E-01-1.18134E-07-9.02468E-04-3.68449E-09-4.98494E-10
 -1      4235 2.03308E+00 2.33496E-01-3.29622E-08-8.53799E-04-9.52654E-10-1.35870E-10
 -1      4237 2.09092E+00 1.75659E-01-1.14519E-07-9.02468E-04-4.69310E-14 4.26212E-14
 -1      4238 2.03308E+00 2.33496E-01-3.29622E-08-8.53799E-04 9.52584E-10 1.35942E-10
 -1      4240 2.09092E+00 1.75659E-01-1.18134E-07-9.02468E-04 3.68453E-09 4.98529E-10
 -1      4241 2.03308E+00 2.33496E-01-3.12387E-08-8.53799E-04 2.69279E-09 3.17453E-10
 -1      4243 2.09092E+00 1.75659E-01-1.23880E-07-9.02469E-04 1.18436E-08 5.77827E-10
 -1      4244 2.03308E+00 2.33496E-01-2.87676E-08-8.53799E-04 6.12376E-09 2.47395E-10
 -1      4246 2.09092E+00 1.75659E-01-1.31676E-07-9.02470E-04 2.84387E-08-4.85579E-10
 -1      4247 2.03308E+00 2.33496E-01-3.02395E-08-8.53800E-04 1.10119E-08-6.39602E-10
 -1      4249 2.09092E+00 1.75659E-01-1.18944E-07-9.02470E-04 5.42930E-08-3.96165E-09
 -1      4250 2.03308E+00 2.33496E-01-1.09863E-08-8.53799E-04 1.79339E-08-3.95244E-09
 -1      4252 2.09092E+00 1.75659E-01-5.26250E-08-9.02467E-04 3.75724E-08-1.22965E-08
 -1      4254 2.23223E+00 3.43432E-02 2.17991E-07-1.08190E-03 1.54737E-07-3.06058E-08
 -1      4255 2.16162E+00 1.04956E-01 6.18198E-08-9.89669E-04 6.68527E-08-1.03741E-08
 -1      4257 2.23223E+00 3.43433E-02 3.29029E-07-1.08189E-03 1.69646E-07-1.09535E-08
 -1      4258 2.16162E+00 1.04956E-01 1.34145E-07-9.89669E-04 2.64026E-08-2.08341E-09
 -1      4260 2.23223E+00 3.43432E-02 4.08108E-07-1.08189E-03 1.19146E-07 2.65411E-10
 -1      4261 2.16162E+00 1.04956E-01 1.35636E-07-9.89670E-04 1.45697E-08 7.42071E-10
 -1      4263 2.23223E+00 3.43432E-02 4.06425E-07-1.08189E-03 4.05794E-08 1.80119E-09
 -1      4264 2.16162E+00 1.04956E-01 1.44015E-07-9.89671E-04 8.93302E-09 1.07242E-09
 -1      4266 2.23223E+00 3.43432E-02 3.58608E-07-1.08189E-03-3.77685E-10 7.43399E-10
 -1      4267 2.16162E+00 1.04956E-01 1.52048E-07-9.89672E-04 2.67251E-09 3.71402E-10
 -1      4269 2.23223E+00 3.43432E-02 3.36417E-07-1.08189E-03-7.26196E-14-1.16012E-14
 -1      4270 2.16162E+00 1.04956E-01 1.52048E-07-9.89672E-04-2.67251E-09-3.71366E-10
 -1      4272 2.23223E+00 3.43432E-02 3.58609E-07-1.08189E-03 3.77691E-10-7.43367E-10
 -1      4273 2.16162E+00 1.04956E-01 1.44015E-07-9.89671E-04-8.93304E-09-1.07239E-09
 -1      4275 2.23223E+00 3.43432E-02 4.06425E-07-1.08189E-03-4.05793E-08-1.80121E-09
 -1      4276 2.16162E+00 1.04956E-01 1.35636E-07-9.89670E-04-1.45697E-08-7.42128E-10
 -1      4278 2.23223E+00 3.43432E-02 4.08108E-07-1.08189E-03-1.19146E-07-2.65385E-10
 -1      4279 2.16162E+00 1.04956E-01 1.34145E-07-9.89669E-04-2.64026E-08 2.08344E-09
 -1      4281 2.23223E+00 3.43433E-02 3.29029E-07-1.08189E-03-1.69646E-07 1.09536E-08
 -1      4282 2.16162E+00 1.04956E-01 6.18198E-08-9.89669E-04-6.68526E-08 1.03742E-08
 -1      4284 2.23223E+00 3.43432E-02 2.17991E-07-1.08190E-03-1.54737E-07 3.06059E-08
 -1      4286 2.40729E+00-1.40720E-01-5.00546E-07-1.07276E-03-4.65618E-07 6.20809E-08
 -1      4287 2.31983E+00-5.32561E-02-2.14692E-07-1.08743E-03-1.43076E-07 3.02331E-08
 -1      4289 2.40729E+00-1.40721E-01-1.37679E-06-1.07278E-03-8.53652E-07 6.31154E-09
 -1      4290 2.31983E+00-5.32561E-02-4.17405E-07-1.08743E-03-9.32794E-08 4.06240E-09
 -1      4292 2.40729E+00-1.40721E-01-1.83510E-06-1.07277E-03-5.20866E-07-6.01053E-09
 -1      4293 2.31983E+00-5.32560E-02-4.88466E-07-1.08743E-03-9.73894E-08-3.32157E-09
 -1      4295 2.40729E+00-1.40720E-01-1.71153E-06-1.07276E-03-1.52484E-07-1.78710E-09
 -1      4296 2.31983E+00-5.32559E-02-5.65888E-07-1.08742E-03-5.54532E-08-2.27912E-09
 -1      4298 2.40729E+00-1.40720E-01-1.54311E-06-1.07276E-03-1.96298E-08-1.76424E-10
 -1      4299 2.31983E+00-5.32559E-02-5.97352E-07-1.08742E-03-1.57921E-08-6.19481E-10
 -1      4301 2.40729E+00-1.40720E-01-1.48710E-06-1.07276E-03-2.59023E-14 3.48081E-14
 -1      4302 2.31983E+00-5.32559E-02-5.97352E-07-1.08742E-03 1.57920E-08 6.19503E-10
 -1      4304 2.40729E+00-1.40720E-01-1.54311E-06-1.07276E-03 1.96298E-08 1.76413E-10
 -1      4305 2.31983E+00-5.32559E-02-5.65888E-07-1.08742E-03 5.54532E-08 2.27911E-09
 -1      4307 2.40729E+00-1.40720E-01-1.71153E-06-1.07276E-03 1.52484E-07 1.78710E-09
 -1      4308 2.31983E+00-5.32560E-02-4.88466E-07-1.08743E-03 9.73894E-08 3.32156E-09
 -1      4310 2.40729E+00-1.40721E-01-1.83510E-06-1.07277E-03 5.20866E-07 6.01059E-09
 -1      4311 2.31983E+00-5.32561E-02-4.17405E-07-1.08743E-03 9.32794E-08-4.06233E-09
 -1      4313 2.40729E+00-1.40721E-01-1.37679E-06-1.07278E-03 8.53652E-07-6.31155E-09
 -1      4314 2.31983E+00-5.32561E-02-2.14692E-07-1.08743E-03 1.43076E-07-3.02331E-08
 -1      4316 2.40729E+00-1.40720E-01-5.00546E-07-1.07276E-03 4.65619E-07-6.20810E-08
 -1      4318 2.62761E+00-3.61023E-01 3.08326E-06-1.96812E-03 2.64232E-06 3.49208E-08
 -1      4319 2.51757E+00-2.50984E-01 6.63596E-07-1.48402E-03 2.40075E-07-5.14504E-08
 -1      4321 2.62762E+00-3.61021E-01 5.82963E-06-1.96809E-03 2.65481E-06 3.64957E-08
 -1      4322 2.51757E+00-2.50984E-01 1.36924E-06-1.48402E-03 2.91853E-07 4.55782E-09
 -1      4324 2.62762E+00-3.61022E-01 6.20109E-06-1.96811E-03 1.24014E-06 8.98164E-09
 -1      4325 2.51757E+00-2.50985E-01 1.91477E-06-1.48404E-03 2.94386E-07 6.78494E-09
 -1      4327 2.62762E+00-3.61023E-01 5.85644E-06-1.96812E-03 4.85731E-07-8.65371E-10
 -1      4328 2.51757E+00-2.50985E-01 2.23806E-06-1.48405E-03 1.75647E-07 2.56209E-09
 -1      4330 2.62762E+00-3.61023E-01 5.67406E-06-1.96812E-03 1.80930E-07-9.29788E-10
 -1      4331 2.51757E+00-2.50985E-01 2.34294E-06-1.48405E-03 5.60736E-08 5.93823E-10
 -1      4333 2.62762E+00-3.61023E-01 5.62747E-06-1.96811E-03 2.70968E-14-8.52436E-16
 -1      4334 2.51757E+00-2.50985E-01 2.34294E-06-1.48405E-03-5.60736E-08-5.93812E-10
 -1      4336 2.62762E+00-3.61023E-01 5.67406E-06-1.96812E-03-1.80930E-07 9.29776E-10
 -1      4337 2.51757E+00-2.50985E-01 2.23806E-06-1.48405E-03-1.75647E-07-2.56212E-09
 -1      4339 2.62762E+00-3.61023E-01 5.85644E-06-1.96812E-03-4.85732E-07 8.65339E-10
 -1      4340 2.51757E+00-2.50985E-01 1.91477E-06-1.48404E-03-2.94386E-07-6.78495E-09
 -1      4342 2.62762E+00-3.61022E-01 6.20109E-06-1.96811E-03-1.24014E-06-8.98167E-09
 -1      4343 2.51757E+00-2.50984E-01 1.36924E-06-1.48402E-03-2.91853E-07-4.55780E-09
 -1      4345 2.62762E+00-3.61021E-01 5.82963E-06-1.96809E-03-2.65481E-06-3.64957E-08
 -1      4346 2.51757E+00-2.50984E-01 6.63596E-07-1.48402E-03-2.40075E-07 5.14504E-08
 -1      4348 2.62761E+00-3.61023E-01 3.08326E-06-1.96812E-03-2.64232E-06-3.49208E-08
 -1      4350 2.91103E+00-6.44451E-01-7.89885E-07 6.73922E-04-5.08848E-06-7.25490E-08
 -1      4351 2.76933E+00-5.02784E-01-4.45678E-06-9.03198E-04-8.54130E-07-3.20073E-09
 -1      4353 2.91103E+00-6.44451E-01 9.43218E-07 6.73911E-04-3.39986E-06-7.57651E-09
 -1      4354 2.76933E+00-5.02783E-01-6.49871E-06-9.03150E-04-2.49064E-07-2.24075E-08
 -1      4356 2.91103E+00-6.44451E-01 2.16347E-06 6.73904E-04-1.13774E-06 6.69765E-09
 -1      4357 2.76933E+00-5.02783E-01-7.70166E-06-9.03125E-04-7.93647E-08-6.65280E-09
 -1      4359 2.91103E+00-6.44451E-01 2.53736E-06 6.73897E-04-4.10320E-07 2.90421E-09
 -1      4360 2.76933E+00-5.02783E-01-8.16609E-06-9.03119E-04-5.68871E-09-1.02008E-09
 -1      4362 2.91103E+00-6.44451E-01 2.53974E-06 6.73895E-04-1.51920E-07 8.27494E-10
 -1      4363 2.76933E+00-5.02783E-01-8.30763E-06-9.03118E-04 4.43508E-09-6.43731E-11
 -1      4365 2.91103E+00-6.44451E-01 2.51402E-06 6.73895E-04-7.84560E-14 1.60961E-14
 -1      4366 2.76933E+00-5.02783E-01-8.30763E-06-9.03118E-04-4.43515E-09 6.43831E-11
 -1      4368 2.91103E+00-6.44451E-01 2.53974E-06 6.73895E-04 1.51920E-07-8.27472E-10
 -1      4369 2.76933E+00-5.02783E-01-8.16609E-06-9.03119E-04 5.68864E-09 1.02008E-09
 -1      4371 2.91103E+00-6.44451E-01 2.53736E-06 6.73897E-04 4.10320E-07-2.90422E-09
 -1      4372 2.76933E+00-5.02783E-01-7.70166E-06-9.03125E-04 7.93647E-08 6.65278E-09
 -1      4374 2.91103E+00-6.44451E-01 2.16347E-06 6.73904E-04 1.13774E-06-6.69769E-09
 -1      4375 2.76933E+00-5.02783E-01-6.49871E-06-9.03150E-04 2.49064E-07 2.24074E-08
 -1      4377 2.91103E+00-6.44451E-01 9.43218E-07 6.73911E-04 3.39986E-06 7.57647E-09
 -1      4378 2.76933E+00-5.02784E-01-4.45678E-06-9.03198E-04 8.54130E-07 3.20074E-09
 -1      4380 2.91103E+00-6.44451E-01-7.89885E-07 6.73922E-04 5.08848E-06 7.25490E-08
 -1      4382 3.09318E+00-8.26580E-01 4.01071E-06 4.28186E-03 7.57194E-07 3.06761E-08
 -1      4384 3.09318E+00-8.26583E-01 5.52133E-06 4.28183E-03 2.57672E-08 1.43687E-08
 -1      4386 3.09318E+00-8.26584E-01 6.26486E-06 4.28182E-03-1.50408E-07 3.19176E-09
 -1      4388 3.09318E+00-8.26584E-01 6.48311E-06 4.28181E-03-1.40028E-07 1.16877E-10
 -1      4390 3.09318E+00-8.26584E-01 6.54652E-06 4.28181E-03-5.33744E-08-1.55545E-11
 -1      4392 3.09318E+00-8.26584E-01 6.54652E-06 4.28181E-03 5.33744E-08 1.55171E-11
 -1      4394 3.09318E+00-8.26584E-01 6.48311E-06 4.28181E-03 1.40027E-07-1.16926E-10
 -1      4396 3.09318E+00-8.26584E-01 6.26486E-06 4.28182E-03 1.50408E-07-3.19178E-09
 -1      4398 3.09318E+00-8.26583E-01 5.52133E-06 4.28183E-03-2.57672E-08-1.43688E-08
 -1      4400 3.09318E+00-8.26580E-01 4.01071E-06 4.28186E-03-7.57194E-07-3.06762E-08
 -1      4403 3.17114E+00-9.04600E-01-8.23447E-06-6.62144E-01 5.57070E-06 8.82633E-07
 -1      4404 3.17114E+00-9.04603E-01-1.20100E-05-6.62145E-01 1.21430E-06 1.93157E-07
 -1      4405 3.17114E+00-9.04604E-01-1.34352E-05-6.62145E-01 1.21681E-07 1.96504E-08
 -1      4406 3.17114E+00-9.04604E-01-1.35185E-05-6.62145E-01-6.32272E-08-9.91199E-09
 -1      4407 3.17114E+00-9.04604E-01-1.34117E-05-6.62145E-01-3.25288E-08-5.13348E-09
 -1      4408 3.17114E+00-9.04604E-01-1.34117E-05-6.62145E-01 3.25287E-08 5.13356E-09
 -1      4409 3.17114E+00-9.04604E-01-1.35185E-05-6.62145E-01 6.32272E-08 9.91202E-09
 -1      4410 3.17114E+00-9.04604E-01-1.34352E-05-6.62145E-01-1.21681E-07-1.96504E-08
 -1      4411 3.17114E+00-9.04603E-01-1.20100E-05-6.62145E-01-1.21430E-06-1.93157E-07
 -1      4412 3.17114E+00-9.04600E-01-8.23447E-06-6.62144E-01-5.57070E-06-8.82633E-07
 -1      4413 2.86679E+00-6.00246E-01-8.24707E-06-1.25947E+00 5.36109E-06 1.74100E-06
 -1      4414 2.86679E+00-6.00249E-01-1.20200E-05-1.25947E+00 1.16906E-06 3.79157E-07
 -1      4415 2.86678E+00-6.00250E-01-1.34446E-05-1.25947E+00 1.17181E-07 3.78051E-08
 -1      4416 2.86678E+00-6.00250E-01-1.35281E-05-1.25947E+00-6.08613E-08-1.98674E-08
 -1      4417 2.86678E+00-6.00250E-01-1.34215E-05-1.25947E+00-3.13193E-08-1.01949E-08
 -1      4418 2.86678E+00-6.00250E-01-1.34215E-05-1.25947E+00 3.13193E-08 1.01951E-08
 -1      4419 2.86678E+00-6.00250E-01-1.35281E-05-1.25947E+00 6.08613E-08 1.98676E-08
 -1      4420 2.86678E+00-6.00250E-01-1.34446E-05-1.25947E+00-1.17182E-07-3.78050E-08
 -1      4421 2.86679E+00-6.00249E-01-1.20200E-05-1.25947E+00-1.16906E-06-3.79157E-07
 -1      4422 2.86679E+00-6.00246E-01-8.24707E-06-1.25947E+00-5.36109E-06-1.74100E-06
 -1      4423 2.39274E+00-1.26202E-01-8.22334E-06-1.73352E+00 5.03047E-06 2.56216E-06
 -1      4424 2.39274E+00-1.26206E-01-1.20003E-05-1.73352E+00 1.09675E-06 5.58065E-07
 -1      4425 2.39274E+00-1.26206E-01-1.34262E-05-1.73352E+00 1.10134E-07 5.58168E-08
 -1      4426 2.39274E+00-1.26206E-01-1.35095E-05-1.73352E+00-5.69123E-08-2.90950E-08
 -1      4427 2.39274E+00-1.26207E-01-1.34028E-05-1.73352E+00-2.93162E-08-1.49567E-08
 -1      4428 2.39274E+00-1.26207E-01-1.34028E-05-1.73352E+00 2.93161E-08 1.49569E-08
 -1      4429 2.39274E+00-1.26206E-01-1.35095E-05-1.73352E+00 5.69122E-08 2.90952E-08
 -1      4430 2.39274E+00-1.26206E-01-1.34262E-05-1.73352E+00-1.10134E-07-5.58165E-08
 -1      4431 2.39274E+00-1.26206E-01-1.20003E-05-1.73352E+00-1.09675E-06-5.58064E-07
 -1      4432 2.39274E+00-1.26202E-01-8.22334E-06-1.73352E+00-5.03047E-06-2.56216E-06
 -1      4433 1.79542E+00 4.71127E-01-8.23600E-06-2.03787E+00 4.56408E-06 3.31651E-06
 -1      4434 1.79541E+00 4.71124E-01-1.20104E-05-2.03787E+00 9.94608E-07 7.23679E-07
 -1      4435 1.79541E+00 4.71123E-01-1.34357E-05-2.03787E+00 9.95741E-08 7.28031E-08
 -1      4436 1.79541E+00 4.71123E-01-1.35193E-05-2.03787E+00-5.17998E-08-3.74861E-08
 -1      4437 1.79541E+00 4.71123E-01-1.34127E-05-2.03787E+00-2.66456E-08-1.93270E-08
 -1      4438 1.79541E+00 4.71123E-01-1.34127E-05-2.03787E+00 2.66455E-08 1.93272E-08
 -1      4439 1.79541E+00 4.71123E-01-1.35193E-05-2.03787E+00 5.17997E-08 3.74863E-08
 -1      4440 1.79541E+00 4.71123E-01-1.34357E-05-2.03787E+00-9.95742E-08-7.28029E-08
 -1      4441 1.79541E+00 4.71124E-01-1.20104E-05-2.03787E+00-9.94608E-07-7.23679E-07
 -1      4442 1.79542E+00 4.71127E-01-8.23600E-06-2.03787E+00-4.56408E-06-3.31651E-06
 -1      4443 1.13327E+00 1.13327E+00-8.23517E-06-2.14274E+00 3.98910E-06 3.98910E-06
 -1      4444 1.13327E+00 1.13327E+00-1.20104E-05-2.14274E+00 8.69530E-07 8.69562E-07
 -1      4445 1.13327E+00 1.13327E+00-1.34356E-05-2.14275E+00 8.71976E-08 8.71397E-08
 -1      4446 1.13327E+00 1.13327E+00-1.35191E-05-2.14275E+00-4.52366E-08-4.52367E-08
 -1      4447 1.13327E+00 1.13327E+00-1.34124E-05-2.14275E+00-2.32855E-08-2.32781E-08
 -1      4448 1.13327E+00 1.13327E+00-1.34124E-05-2.14275E+00 2.32851E-08 2.32783E-08
 -1      4449 1.13327E+00 1.13327E+00-1.35191E-05-2.14275E+00 4.52364E-08 4.52369E-08
 -1      4450 1.13327E+00 1.13327E+00-1.34356E-05-2.14275E+00-8.71977E-08-8.71396E-08
 -1      4451 1.13327E+00 1.13327E+00-1.20104E-05-2.14274E+00-8.69530E-07-8.69562E-07
 -1      4452 1.13327E+00 1.13327E+00-8.23517E-06-2.14274E+00-3.98910E-06-3.98910E-06
 -1      4453 4.71127E-01 1.79542E+00-8.23506E-06-2.03787E+00 3.31573E-06 4.56388E-06
 -1      4454 4.71124E-01 1.79541E+00-1.20100E-05-2.03787E+00 7.22794E-07 9.94880E-07
 -1      4455 4.71123E-01 1.79541E+00-1.34353E-05-2.03787E+00 7.24752E-08 9.97507E-08
 -1      4456 4.71123E-01 1.79541E+00-1.35187E-05-2.03787E+00-3.76165E-08-5.17409E-08
 -1      4457 4.71123E-01 1.79541E+00-1.34121E-05-2.03787E+00-1.93580E-08-2.66322E-08
 -1      4458 4.71123E-01 1.79541E+00-1.34121E-05-2.03787E+00 1.93578E-08 2.66324E-08
 -1      4459 4.71123E-01 1.79541E+00-1.35187E-05-2.03787E+00 3.76163E-08 5.17410E-08
 -1      4460 4.71123E-01 1.79541E+00-1.34353E-05-2.03787E+00-7.24754E-08-9.97506E-08
 -1      4461 4.71124E-01 1.79541E+00-1.20100E-05-2.03787E+00-7.22794E-07-9.94879E-07
 -1      4462 4.71127E-01 1.79542E+00-8.23506E-06-2.03787E+00-3.31573E-06-4.56388E-06
 -1      4463-1.26203E-01 2.39274E+00-8.23523E-06-1.73352E+00 2.56099E-06 5.02623E-06
 -1      4464-1.26206E-01 2.39274E+00-1.20102E-05-1.73352E+00 5.58317E-07 1.09569E-06
 -1      4465-1.26206E-01 2.39274E+00-1.34354E-05-1.73352E+00 5.59885E-08 1.09861E-07
 -1      4466-1.26207E-01 2.39274E+00-1.35188E-05-1.73352E+00-2.90451E-08-5.69966E-08
 -1      4467-1.26207E-01 2.39274E+00-1.34122E-05-1.73352E+00-1.49467E-08-2.93360E-08
 -1      4468-1.26207E-01 2.39274E+00-1.34122E-05-1.73352E+00 1.49464E-08 2.93361E-08
 -1      4469-1.26207E-01 2.39274E+00-1.35188E-05-1.73352E+00 2.90449E-08 5.69967E-08
 -1      4470-1.26206E-01 2.39274E+00-1.34354E-05-1.73352E+00-5.59887E-08-1.09861E-07
 -1      4471-1.26206E-01 2.39274E+00-1.20102E-05-1.73352E+00-5.58317E-07-1.09568E-06
 -1      4472-1.26203E-01 2.39274E+00-8.23523E-06-1.73352E+00-2.56099E-06-5.02623E-06
 -1      4473-6.00246E-01 2.86679E+00-8.23514E-06-1.25947E+00 1.74319E-06 5.36499E-06
 -1      4474-6.00249E-01 2.86679E+00-1.20101E-05-1.25947E+00 3.80040E-07 1.16956E-06
 -1      4475-6.00250E-01 2.86678E+00-1.34354E-05-1.25947E+00 3.81133E-08 1.17270E-07
 -1      4476-6.00250E-01 2.86678E+00-1.35188E-05-1.25947E+00-1.97647E-08-6.08413E-08
 -1      4477-6.00250E-01 2.86678E+00-1.34121E-05-1.25947E+00-1.01712E-08-3.13139E-08
 -1      4478-6.00250E-01 2.86678E+00-1.34121E-05-1.25947E+00 1.01710E-08 3.13139E-08
 -1      4479-6.00250E-01 2.86678E+00-1.35188E-05-1.25947E+00 1.97645E-08 6.08414E-08
 -1      4480-6.00250E-01 2.86678E+00-1.34354E-05-1.25947E+00-3.81135E-08-1.17270E-07
 -1      4481-6.00249E-01 2.86679E+00-1.20101E-05-1.25947E+00-3.80040E-07-1.16956E-06
 -1      4482-6.00246E-01 2.86679E+00-8.23514E-06-1.25947E+00-1.74319E-06-5.36499E-06
 -1      4483-9.04600E-01 3.17114E+00-8.23519E-06-6.62144E-01 8.82462E-07 5.57161E-06
 -1      4484-9.04603E-01 3.17114E+00-1.20101E-05-6.62145E-01 1.92385E-07 1.21462E-06
 -1      4485-9.04604E-01 3.17114E+00-1.34354E-05-6.62145E-01 1.92909E-08 1.21790E-07
 -1      4486-9.04604E-01 3.17114E+00-1.35188E-05-6.62145E-01-1.00058E-08-6.31841E-08
 -1      4487-9.04604E-01 3.17114E+00-1.34122E-05-6.62145E-01-5.14887E-09-3.25189E-08
 -1      4488-9.04604E-01 3.17114E+00-1.34122E-05-6.62145E-01 5.14878E-09 3.25189E-08
 -1      4489-9.04604E-01 3.17114E+00-1.35188E-05-6.62145E-01 1.00057E-08 6.31841E-08
 -1      4490-9.04604E-01 3.17114E+00-1.34354E-05-6.62145E-01-1.92910E-08-1.21790E-07
 -1      4491-9.04603E-01 3.17114E+00-1.20101E-05-6.62145E-01-1.92385E-07-1.21462E-06
 -1      4492-9.04600E-01 3.17114E+00-8.23519E-06-6.62144E-01-8.82462E-07-5.57161E-06
 -1      4493 3.17114E+00-9.04606E-01-3.77371E-06-6.62145E-01 5.58006E-06 8.82985E-07
 -1      4494 3.22243E+00-9.55887E-01-8.23535E-06-3.30890E-01 5.60096E-06 4.40947E-07
 -1      4496 3.17114E+00-9.04603E-01-1.09311E-05-6.62145E-01 2.94178E-06 4.66718E-07
 -1      4497 3.22243E+00-9.55891E-01-1.20107E-05-3.30890E-01 1.21932E-06 9.60060E-08
 -1      4499 3.17114E+00-9.04604E-01-1.33106E-05-6.62145E-01 6.01785E-07 9.60212E-08
 -1      4500 3.22243E+00-9.55891E-01-1.34359E-05-3.30890E-01 1.22167E-07 9.67792E-09
 -1      4502 3.17114E+00-9.04604E-01-1.36092E-05-6.62145E-01 5.10576E-08 8.33021E-09
 -1      4503 3.22243E+00-9.55892E-01-1.35194E-05-3.30890E-01-6.36071E-08-4.94197E-09
 -1      4505 3.17114E+00-9.04604E-01-1.34904E-05-6.62145E-01-3.67078E-08-5.75588E-09
 -1      4506 3.22243E+00-9.55892E-01-1.34128E-05-3.30890E-01-3.26875E-08-2.54936E-09
 -1      4508 3.17114E+00-9.04604E-01-1.34190E-05-6.62145E-01 1.64669E-14 3.08020E-14
 -1      4509 3.22243E+00-9.55892E-01-1.34128E-05-3.30890E-01 3.26875E-08 2.54936E-09
 -1      4511 3.17114E+00-9.04604E-01-1.34904E-05-6.62145E-01 3.67078E-08 5.75594E-09
 -1      4512 3.22243E+00-9.55892E-01-1.35194E-05-3.30890E-01 6.36071E-08 4.94197E-09
 -1      4514 3.17114E+00-9.04604E-01-1.36092E-05-6.62145E-01-5.10576E-08-8.33018E-09
 -1      4515 3.22243E+00-9.55891E-01-1.34359E-05-3.30890E-01-1.22167E-07-9.67791E-09
 -1      4517 3.17114E+00-9.04604E-01-1.33106E-05-6.62145E-01-6.01785E-07-9.60212E-08
 -1      4518 3.22243E+00-9.55891E-01-1.20107E-05-3.30890E-01-1.21932E-06-9.60060E-08
 -1      4520 3.17114E+00-9.04603E-01-1.09311E-05-6.62145E-01-2.94178E-06-4.66718E-07
 -1      4521 3.22243E+00-9.55887E-01-8.23535E-06-3.30890E-01-5.60096E-06-4.40947E-07
 -1      4523 3.17114E+00-9.04606E-01-3.77371E-06-6.62145E-01-5.58006E-06-8.82985E-07
 -1      4525 2.86679E+00-6.00251E-01-3.78102E-06-1.25948E+00 5.37008E-06 1.74478E-06
 -1      4526 3.01793E+00-7.51386E-01-8.23605E-06-9.60281E-01 5.46193E-06 1.31260E-06
 -1      4528 2.86679E+00-6.00248E-01-1.09425E-05-1.25947E+00 2.83129E-06 9.18825E-07
 -1      4529 3.01793E+00-7.51389E-01-1.20098E-05-9.60281E-01 1.18932E-06 2.85647E-07
 -1      4531 2.86678E+00-6.00250E-01-1.33199E-05-1.25947E+00 5.79437E-07 1.87774E-07
 -1      4532 3.01793E+00-7.51390E-01-1.34345E-05-9.60281E-01 1.19155E-07 2.84672E-08
 -1      4534 2.86678E+00-6.00250E-01-1.36187E-05-1.25947E+00 4.91902E-08 1.58023E-08
 -1      4535 3.01793E+00-7.51390E-01-1.35176E-05-9.60281E-01-6.20359E-08-1.49962E-08
 -1      4537 2.86678E+00-6.00250E-01-1.35002E-05-1.25947E+00-3.53370E-08-1.15366E-08
 -1      4538 3.01793E+00-7.51390E-01-1.34107E-05-9.60281E-01-3.18801E-08-7.68790E-09
 -1      4540 2.86678E+00-6.00250E-01-1.34289E-05-1.25947E+00 2.25900E-14 8.37021E-14
 -1      4541 3.01793E+00-7.51390E-01-1.34107E-05-9.60281E-01 3.18800E-08 7.68797E-09
 -1      4543 2.86678E+00-6.00250E-01-1.35002E-05-1.25947E+00 3.53370E-08 1.15368E-08
 -1      4544 3.01793E+00-7.51390E-01-1.35176E-05-9.60281E-01 6.20360E-08 1.49962E-08
 -1      4546 2.86678E+00-6.00250E-01-1.36187E-05-1.25947E+00-4.91902E-08-1.58022E-08
 -1      4547 3.01793E+00-7.51390E-01-1.34345E-05-9.60281E-01-1.19155E-07-2.84671E-08
 -1      4549 2.86678E+00-6.00250E-01-1.33199E-05-1.25947E+00-5.79437E-07-1.87773E-07
 -1      4550 3.01793E+00-7.51389E-01-1.20098E-05-9.60281E-01-1.18932E-06-2.85647E-07
 -1      4552 2.86679E+00-6.00248E-01-1.09425E-05-1.25947E+00-2.83129E-06-9.18825E-07
 -1      4553 3.01793E+00-7.51386E-01-8.23605E-06-9.60281E-01-5.46193E-06-1.31260E-06
 -1      4555 2.86679E+00-6.00251E-01-3.78102E-06-1.25948E+00-5.37008E-06-1.74478E-06
 -1      4557 2.39274E+00-1.26208E-01-3.76777E-06-1.73352E+00 5.03943E-06 2.56763E-06
 -1      4558 2.62894E+00-3.62401E-01-8.23518E-06-1.49567E+00 5.19084E-06 2.14816E-06
 -1      4560 2.39274E+00-1.26205E-01-1.09209E-05-1.73352E+00 2.65654E-06 1.35239E-06
 -1      4561 2.62894E+00-3.62404E-01-1.20101E-05-1.49567E+00 1.13015E-06 4.67806E-07
 -1      4563 2.39274E+00-1.26206E-01-1.33013E-05-1.73352E+00 5.43501E-07 2.76376E-07
 -1      4564 2.62894E+00-3.62405E-01-1.34354E-05-1.49567E+00 1.13232E-07 4.69875E-08
 -1      4566 2.39274E+00-1.26206E-01-1.36001E-05-1.73352E+00 4.63090E-08 2.33978E-08
 -1      4567 2.62894E+00-3.62405E-01-1.35188E-05-1.49567E+00-5.89642E-08-2.43347E-08
 -1      4569 2.39274E+00-1.26207E-01-1.34815E-05-1.73352E+00-3.30394E-08-1.68915E-08
 -1      4570 2.62894E+00-3.62405E-01-1.34121E-05-1.49567E+00-3.02989E-08-1.25193E-08
 -1      4572 2.39274E+00-1.26207E-01-1.34101E-05-1.73352E+00-4.35393E-14 8.84631E-14
 -1      4573 2.62894E+00-3.62405E-01-1.34121E-05-1.49567E+00 3.02988E-08 1.25195E-08
 -1      4575 2.39274E+00-1.26207E-01-1.34815E-05-1.73352E+00 3.30394E-08 1.68917E-08
 -1      4576 2.62894E+00-3.62405E-01-1.35188E-05-1.49567E+00 5.89642E-08 2.43349E-08
 -1      4578 2.39274E+00-1.26206E-01-1.36001E-05-1.73352E+00-4.63091E-08-2.33976E-08
 -1      4579 2.62894E+00-3.62405E-01-1.34354E-05-1.49567E+00-1.13232E-07-4.69873E-08
 -1      4581 2.39274E+00-1.26206E-01-1.33013E-05-1.73352E+00-5.43501E-07-2.76376E-07
 -1      4582 2.62894E+00-3.62404E-01-1.20101E-05-1.49567E+00-1.13015E-06-4.67805E-07
 -1      4584 2.39274E+00-1.26205E-01-1.09209E-05-1.73352E+00-2.65654E-06-1.35239E-06
 -1      4585 2.62894E+00-3.62401E-01-8.23518E-06-1.49567E+00-5.19084E-06-2.14816E-06
 -1      4587 2.39274E+00-1.26208E-01-3.76777E-06-1.73352E+00-5.03943E-06-2.56763E-06
 -1      4589 1.79541E+00 4.71122E-01-3.77510E-06-2.03787E+00 4.57358E-06 3.32188E-06
 -1      4590 2.09355E+00 1.72990E-01-8.23434E-06-1.88466E+00 4.78959E-06 2.93656E-06
 -1      4592 1.79541E+00 4.71124E-01-1.09324E-05-2.03787E+00 2.40958E-06 1.75177E-06
 -1      4593 2.09355E+00 1.72987E-01-1.20105E-05-1.88466E+00 1.04285E-06 6.39208E-07
 -1      4595 1.79541E+00 4.71123E-01-1.33108E-05-2.03787E+00 4.92649E-07 3.58788E-07
 -1      4596 2.09355E+00 1.72987E-01-1.34364E-05-1.88466E+00 1.04666E-07 6.39962E-08
 -1      4598 1.79541E+00 4.71123E-01-1.36097E-05-2.03787E+00 4.17754E-08 3.06597E-08
 -1      4599 2.09355E+00 1.72986E-01-1.35202E-05-1.88466E+00-5.43064E-08-3.33936E-08
 -1      4601 1.79541E+00 4.71123E-01-1.34914E-05-2.03787E+00-3.00767E-08-2.17606E-08
 -1      4602 2.09355E+00 1.72986E-01-1.34136E-05-1.88466E+00-2.79260E-08-1.71514E-08
 -1      4604 1.79541E+00 4.71123E-01-1.34201E-05-2.03787E+00-1.95527E-14 1.08816E-13
 -1      4605 2.09355E+00 1.72986E-01-1.34136E-05-1.88466E+00 2.79259E-08 1.71516E-08
 -1      4607 1.79541E+00 4.71123E-01-1.34914E-05-2.03787E+00 3.00766E-08 2.17608E-08
 -1      4608 2.09355E+00 1.72986E-01-1.35202E-05-1.88466E+00 5.43063E-08 3.33938E-08
 -1      4610 1.79541E+00 4.71123E-01-1.36097E-05-2.03787E+00-4.17755E-08-3.06595E-08
 -1      4611 2.09355E+00 1.72987E-01-1.34364E-05-1.88466E+00-1.04666E-07-6.39960E-08
 -1      4613 1.79541E+00 4.71123E-01-1.33108E-05-2.03787E+00-4.92649E-07-3.58788E-07
 -1      4614 2.09355E+00 1.72987E-01-1.20105E-05-1.88466E+00-1.04285E-06-6.39208E-07
 -1      4616 1.79541E+00 4.71124E-01-1.09324E-05-2.03787E+00-2.40958E-06-1.75177E-06
 -1      4617 2.09355E+00 1.72990E-01-8.23434E-06-1.88466E+00-4.78959E-06-2.93656E-06
 -1      4619 1.79541E+00 4.71122E-01-3.77510E-06-2.03787E+00-4.57358E-06-3.32188E-06
 -1      4621 1.13327E+00 1.13327E+00-3.77453E-06-2.14275E+00 3.99663E-06 3.99647E-06
 -1      4622 1.46416E+00 8.02381E-01-8.23500E-06-2.08916E+00 4.27131E-06 3.64826E-06
 -1      4624 1.13327E+00 1.13327E+00-1.09318E-05-2.14274E+00 2.10620E-06 2.10644E-06
 -1      4625 1.46416E+00 8.02378E-01-1.20095E-05-2.08916E+00 9.30058E-07 7.94440E-07
 -1      4627 1.13327E+00 1.13327E+00-1.33108E-05-2.14275E+00 4.30903E-07 4.30882E-07
 -1      4628 1.46416E+00 8.02377E-01-1.34348E-05-2.08916E+00 9.31642E-08 7.97250E-08
 -1      4630 1.13327E+00 1.13327E+00-1.36097E-05-2.14275E+00 3.66347E-08 3.65804E-08
 -1      4631 1.46416E+00 8.02377E-01-1.35182E-05-2.08916E+00-4.85573E-08-4.13564E-08
 -1      4633 1.13327E+00 1.13327E+00-1.34912E-05-2.14275E+00-2.62636E-08-2.62641E-08
 -1      4634 1.46416E+00 8.02377E-01-1.34115E-05-2.08916E+00-2.49467E-08-2.12672E-08
 -1      4636 1.13327E+00 1.13327E+00-1.34198E-05-2.14275E+00-1.77078E-13 1.17353E-13
 -1      4637 1.46416E+00 8.02377E-01-1.34115E-05-2.08916E+00 2.49464E-08 2.12674E-08
 -1      4639 1.13327E+00 1.13327E+00-1.34912E-05-2.14275E+00 2.62634E-08 2.62642E-08
 -1      4640 1.46416E+00 8.02377E-01-1.35182E-05-2.08916E+00 4.85572E-08 4.13566E-08
 -1      4642 1.13327E+00 1.13327E+00-1.36097E-05-2.14275E+00-3.66349E-08-3.65803E-08
 -1      4643 1.46416E+00 8.02377E-01-1.34348E-05-2.08916E+00-9.31643E-08-7.97249E-08
 -1      4645 1.13327E+00 1.13327E+00-1.33108E-05-2.14275E+00-4.30903E-07-4.30882E-07
 -1      4646 1.46416E+00 8.02378E-01-1.20095E-05-2.08916E+00-9.30058E-07-7.94440E-07
 -1      4648 1.13327E+00 1.13327E+00-1.09318E-05-2.14274E+00-2.10620E-06-2.10644E-06
 -1      4649 1.46416E+00 8.02381E-01-8.23500E-06-2.08916E+00-4.27131E-06-3.64826E-06
 -1      4651 1.13327E+00 1.13327E+00-3.77453E-06-2.14275E+00-3.99663E-06-3.99647E-06
 -1      4653 4.71122E-01 1.79541E+00-3.77431E-06-2.03787E+00 3.32188E-06 4.57215E-06
 -1      4654 8.02381E-01 1.46416E+00-8.23523E-06-2.08916E+00 3.64842E-06 4.27175E-06
 -1      4656 4.71124E-01 1.79541E+00-1.09315E-05-2.03787E+00 1.75075E-06 2.40991E-06
 -1      4657 8.02378E-01 1.46416E+00-1.20102E-05-2.08916E+00 7.94391E-07 9.30146E-07
 -1      4659 4.71123E-01 1.79541E+00-1.33106E-05-2.03787E+00 3.58210E-07 4.93014E-07
 -1      4660 8.02377E-01 1.46416E+00-1.34355E-05-2.08916E+00 7.95864E-08 9.32632E-08
 -1      4662 4.71123E-01 1.79541E+00-1.36093E-05-2.03787E+00 3.04253E-08 4.18946E-08
 -1      4663 8.02377E-01 1.46416E+00-1.35189E-05-2.08916E+00-4.14425E-08-4.84878E-08
 -1      4665 4.71123E-01 1.79541E+00-1.34908E-05-2.03787E+00-2.18435E-08-3.00373E-08
 -1      4666 8.02377E-01 1.46416E+00-1.34122E-05-2.08916E+00-2.12955E-08-2.49236E-08
 -1      4668 4.71123E-01 1.79541E+00-1.34194E-05-2.03787E+00-1.16841E-13 5.66063E-14
 -1      4669 8.02377E-01 1.46416E+00-1.34122E-05-2.08916E+00 2.12953E-08 2.49237E-08
 -1      4671 4.71123E-01 1.79541E+00-1.34908E-05-2.03787E+00 2.18434E-08 3.00374E-08
 -1      4672 8.02377E-01 1.46416E+00-1.35189E-05-2.08916E+00 4.14423E-08 4.84880E-08
 -1      4674 4.71123E-01 1.79541E+00-1.36093E-05-2.03787E+00-3.04255E-08-4.18944E-08
 -1      4675 8.02377E-01 1.46416E+00-1.34355E-05-2.08916E+00-7.95865E-08-9.32630E-08
 -1      4677 4.71123E-01 1.79541E+00-1.33106E-05-2.03787E+00-3.58210E-07-4.93014E-07
 -1      4678 8.02378E-01 1.46416E+00-1.20102E-05-2.08916E+00-7.94391E-07-9.30146E-07
 -1      4680 4.71124E-01 1.79541E+00-1.09315E-05-2.03787E+00-1.75075E-06-2.40991E-06
 -1      4681 8.02381E-01 1.46416E+00-8.23523E-06-2.08916E+00-3.64842E-06-4.27175E-06
 -1      4683 4.71122E-01 1.79541E+00-3.77431E-06-2.03787E+00-3.32188E-06-4.57215E-06
 -1      4685-1.26208E-01 2.39274E+00-3.77440E-06-1.73352E+00 2.56565E-06 5.03535E-06
 -1      4686 1.72990E-01 2.09355E+00-8.23518E-06-1.88466E+00 2.93524E-06 4.78991E-06
 -1      4688-1.26205E-01 2.39274E+00-1.09317E-05-1.73352E+00 1.35230E-06 2.65407E-06
 -1      4689 1.72987E-01 2.09355E+00-1.20101E-05-1.88466E+00 6.39085E-07 1.04294E-06
 -1      4691-1.26206E-01 2.39274E+00-1.33107E-05-1.73352E+00 2.76697E-07 5.42978E-07
 -1      4692 1.72987E-01 2.09355E+00-1.34353E-05-1.88466E+00 6.40401E-08 1.04530E-07
 -1      4694-1.26207E-01 2.39274E+00-1.36094E-05-1.73352E+00 2.35071E-08 4.61321E-08
 -1      4695 1.72986E-01 2.09355E+00-1.35187E-05-1.88466E+00-3.33316E-08-5.43902E-08
 -1      4697-1.26207E-01 2.39274E+00-1.34909E-05-1.73352E+00-1.68629E-08-3.30916E-08
 -1      4698 1.72986E-01 2.09355E+00-1.34121E-05-1.88466E+00-1.71304E-08-2.79527E-08
 -1      4700-1.26207E-01 2.39274E+00-1.34195E-05-1.73352E+00-1.20788E-13 9.44281E-14
 -1      4701 1.72986E-01 2.09355E+00-1.34121E-05-1.88466E+00 1.71302E-08 2.79528E-08
 -1      4703-1.26207E-01 2.39274E+00-1.34909E-05-1.73352E+00 1.68627E-08 3.30916E-08
 -1      4704 1.72986E-01 2.09355E+00-1.35187E-05-1.88466E+00 3.33314E-08 5.43903E-08
 -1      4706-1.26207E-01 2.39274E+00-1.36094E-05-1.73352E+00-2.35073E-08-4.61320E-08
 -1      4707 1.72987E-01 2.09355E+00-1.34353E-05-1.88466E+00-6.40403E-08-1.04530E-07
 -1      4709-1.26206E-01 2.39274E+00-1.33107E-05-1.73352E+00-2.76698E-07-5.42978E-07
 -1      4710 1.72987E-01 2.09355E+00-1.20101E-05-1.88466E+00-6.39085E-07-1.04294E-06
 -1      4712-1.26205E-01 2.39274E+00-1.09317E-05-1.73352E+00-1.35230E-06-2.65407E-06
 -1      4713 1.72990E-01 2.09355E+00-8.23518E-06-1.88466E+00-2.93524E-06-4.78991E-06
 -1      4715-1.26208E-01 2.39274E+00-3.77440E-06-1.73352E+00-2.56565E-06-5.03535E-06
 -1      4717-6.00251E-01 2.86679E+00-3.77434E-06-1.25948E+00 1.74634E-06 5.37469E-06
 -1      4718-3.62401E-01 2.62894E+00-8.23521E-06-1.49567E+00 2.14985E-06 5.19012E-06
 -1      4720-6.00248E-01 2.86679E+00-1.09316E-05-1.25947E+00 9.20490E-07 2.83297E-06
 -1      4721-3.62404E-01 2.62894E+00-1.20101E-05-1.49567E+00 4.68093E-07 1.13006E-06
 -1      4723-6.00250E-01 2.86678E+00-1.33107E-05-1.25947E+00 1.88346E-07 5.79587E-07
 -1      4724-3.62405E-01 2.62894E+00-1.34354E-05-1.49567E+00 4.69196E-08 1.13253E-07
 -1      4726-6.00250E-01 2.86678E+00-1.36094E-05-1.25947E+00 1.60043E-08 4.92410E-08
 -1      4727-3.62405E-01 2.62894E+00-1.35188E-05-1.49567E+00-2.44048E-08-5.89357E-08
 -1      4729-6.00250E-01 2.86678E+00-1.34908E-05-1.25947E+00-1.14738E-08-3.53236E-08
 -1      4730-3.62405E-01 2.62894E+00-1.34121E-05-1.49567E+00-1.25446E-08-3.02887E-08
 -1      4732-6.00250E-01 2.86678E+00-1.34195E-05-1.25947E+00-8.09913E-14 4.17636E-14
 -1      4733-3.62405E-01 2.62894E+00-1.34121E-05-1.49567E+00 1.25444E-08 3.02887E-08
 -1      4735-6.00250E-01 2.86678E+00-1.34908E-05-1.25947E+00 1.14736E-08 3.53237E-08
 -1      4736-3.62405E-01 2.62894E+00-1.35188E-05-1.49567E+00 2.44045E-08 5.89359E-08
 -1      4738-6.00250E-01 2.86678E+00-1.36094E-05-1.25947E+00-1.60045E-08-4.92410E-08
 -1      4739-3.62405E-01 2.62894E+00-1.34354E-05-1.49567E+00-4.69198E-08-1.13253E-07
 -1      4741-6.00250E-01 2.86678E+00-1.33107E-05-1.25947E+00-1.88346E-07-5.79588E-07
 -1      4742-3.62404E-01 2.62894E+00-1.20101E-05-1.49567E+00-4.68093E-07-1.13006E-06
 -1      4744-6.00248E-01 2.86679E+00-1.09316E-05-1.25947E+00-9.20490E-07-2.83297E-06
 -1      4745-3.62401E-01 2.62894E+00-8.23521E-06-1.49567E+00-2.14985E-06-5.19012E-06
 -1      4747-6.00251E-01 2.86679E+00-3.77434E-06-1.25948E+00-1.74634E-06-5.37469E-06
 -1      4749-9.04606E-01 3.17114E+00-3.77437E-06-6.62145E-01 8.84060E-07 5.58166E-06
 -1      4750-7.51386E-01 3.01793E+00-8.23518E-06-9.60281E-01 1.31144E-06 5.46255E-06
 -1      4752-9.04603E-01 3.17114E+00-1.09317E-05-6.62145E-01 4.65982E-07 2.94209E-06
 -1      4753-7.51389E-01 3.01793E+00-1.20101E-05-9.60281E-01 2.85544E-07 1.18937E-06
 -1      4755-9.04604E-01 3.17114E+00-1.33107E-05-6.62145E-01 9.53417E-08 6.01918E-07
 -1      4756-7.51390E-01 3.01793E+00-1.34354E-05-9.60281E-01 2.86248E-08 1.19199E-07
 -1      4758-9.04604E-01 3.17114E+00-1.36094E-05-6.62145E-01 8.10003E-09 5.11387E-08
 -1      4759-7.51390E-01 3.01793E+00-1.35188E-05-9.60281E-01-1.48860E-08-6.20271E-08
 -1      4761-9.04604E-01 3.17114E+00-1.34909E-05-6.62145E-01-5.80836E-09-3.66833E-08
 -1      4762-7.51390E-01 3.01793E+00-1.34121E-05-9.60281E-01-7.65208E-09-3.18782E-08
 -1      4764-9.04604E-01 3.17114E+00-1.34195E-05-6.62145E-01-4.87984E-14-4.16800E-14
 -1      4765-7.51390E-01 3.01793E+00-1.34121E-05-9.60281E-01 7.65194E-09 3.18782E-08
 -1      4767-9.04604E-01 3.17114E+00-1.34909E-05-6.62145E-01 5.80826E-09 3.66834E-08
 -1      4768-7.51390E-01 3.01793E+00-1.35188E-05-9.60281E-01 1.48859E-08 6.20272E-08
 -1      4770-9.04604E-01 3.17114E+00-1.36094E-05-6.62145E-01-8.10012E-09-5.11388E-08
 -1      4771-7.51390E-01 3.01793E+00-1.34354E-05-9.60281E-01-2.86249E-08-1.19199E-07
 -1      4773-9.04604E-01 3.17114E+00-1.33107E-05-6.62145E-01-9.53417E-08-6.01918E-07
 -1      4774-7.51389E-01 3.01793E+00-1.20101E-05-9.60281E-01-2.85544E-07-1.18937E-06
 -1      4776-9.04603E-01 3.17114E+00-1.09317E-05-6.62145E-01-4.65982E-07-2.94209E-06
 -1      4777-7.51386E-01 3.01793E+00-8.23518E-06-9.60281E-01-1.31144E-06-5.46255E-06
 -1      4779-9.04606E-01 3.17114E+00-3.77437E-06-6.62145E-01-8.84060E-07-5.58166E-06
 -1      4781-9.55887E-01 3.22243E+00-8.23521E-06-3.30890E-01 4.40764E-07 5.60045E-06
 -1      4783-9.55891E-01 3.22243E+00-1.20101E-05-3.30890E-01 9.59690E-08 1.21939E-06
 -1      4785-9.55891E-01 3.22243E+00-1.34354E-05-3.30890E-01 9.62100E-09 1.22210E-07
 -1      4787-9.55892E-01 3.22243E+00-1.35188E-05-3.30890E-01-5.00301E-09-6.35917E-08
 -1      4789-9.55892E-01 3.22243E+00-1.34122E-05-3.30890E-01-2.57178E-09-3.26826E-08
 -1      4791-9.55892E-01 3.22243E+00-1.34122E-05-3.30890E-01 2.57179E-09 3.26826E-08
 -1      4793-9.55892E-01 3.22243E+00-1.35188E-05-3.30890E-01 5.00299E-09 6.35917E-08
 -1      4795-9.55891E-01 3.22243E+00-1.34354E-05-3.30890E-01-9.62106E-09-1.22210E-07
 -1      4797-9.55891E-01 3.22243E+00-1.20101E-05-3.30890E-01-9.59690E-08-1.21939E-06
 -1      4799-9.55887E-01 3.22243E+00-8.23521E-06-3.30890E-01-4.40764E-07-5.60045E-06
 -1      4802-5.57442E-01 2.82402E+00-1.10813E-06-5.49353E-01 5.68594E-07 3.58998E-06
 -1      4803-3.04932E-01 2.57152E+00-1.10814E-06-1.04493E+00 1.12319E-06 3.45684E-06
 -1      4804 8.83606E-02 2.17822E+00-1.10814E-06-1.43822E+00 1.65012E-06 3.23859E-06
 -1      4805 5.83939E-01 1.68264E+00-1.10818E-06-1.69073E+00 2.13643E-06 2.94058E-06
 -1      4806 1.13329E+00 1.13329E+00-1.10803E-06-1.77774E+00 2.57009E-06 2.57028E-06
 -1      4807 1.68264E+00 5.83939E-01-1.10806E-06-1.69073E+00 2.94061E-06 2.13623E-06
 -1      4808 2.17822E+00 8.83606E-02-1.10836E-06-1.43822E+00 3.23883E-06 1.65027E-06
 -1      4809 2.57152E+00-3.04932E-01-1.10789E-06-1.04493E+00 3.45650E-06 1.12307E-06
 -1      4810 2.82402E+00-5.57442E-01-1.10815E-06-5.49353E-01 3.59005E-06 5.68385E-07
 -1      4811-2.87887E-01 2.55448E+00 2.13822E-06-4.61770E-01-1.00174E-07-6.32481E-07
 -1      4812-7.56342E-02 2.34222E+00 2.13823E-06-8.78339E-01-1.97880E-07-6.09023E-07
 -1      4813 2.54957E-01 2.01163E+00 2.13823E-06-1.20893E+00-2.90718E-07-5.70577E-07
 -1      4814 6.71525E-01 1.59507E+00 2.13824E-06-1.42118E+00-3.76388E-07-5.18085E-07
 -1      4815 1.13330E+00 1.13330E+00 2.13819E-06-1.49432E+00-4.52814E-07-4.52775E-07
 -1      4816 1.59507E+00 6.71525E-01 2.13821E-06-1.42118E+00-5.18131E-07-3.76517E-07
 -1      4817 2.01163E+00 2.54957E-01 2.13781E-06-1.20893E+00-5.70061E-07-2.90375E-07
 -1      4818 2.34222E+00-7.56342E-02 2.13862E-06-8.78339E-01-6.09608E-07-1.97992E-07
 -1      4819 2.55448E+00-2.87887E-01 2.13821E-06-4.61770E-01-6.32325E-07-1.00192E-07
 -1      4820-7.83652E-02 2.34494E+00 2.66299E-07-3.93690E-01-1.22942E-07-7.76220E-07
 -1      4821 1.02594E-01 2.16398E+00 2.66298E-07-7.48842E-01-2.42856E-07-7.47431E-07
 -1      4822 3.84445E-01 1.88213E+00 2.66299E-07-1.03069E+00-3.56790E-07-7.00236E-07
 -1      4823 7.39597E-01 1.52698E+00 2.66304E-07-1.21165E+00-4.61942E-07-6.35802E-07
 -1      4824 1.13329E+00 1.13329E+00 2.66314E-07-1.27401E+00-5.55697E-07-5.55714E-07
 -1      4825 1.52698E+00 7.39597E-01 2.66330E-07-1.21165E+00-6.35825E-07-4.61951E-07
 -1      4826 1.88213E+00 3.84445E-01 2.66220E-07-1.03069E+00-7.00239E-07-3.56797E-07
 -1      4827 2.16398E+00 1.02594E-01 2.66384E-07-7.48842E-01-7.47433E-07-2.42863E-07
 -1      4828 2.34494E+00-7.83652E-02 2.66267E-07-3.93690E-01-7.76199E-07-1.22940E-07
 -1      4829 8.81292E-02 2.17845E+00-4.12825E-08-3.39593E-01 3.59805E-08 2.27170E-07
 -1      4830 2.44223E-01 2.02235E+00-4.12829E-08-6.45944E-01 7.10751E-08 2.18745E-07
 -1      4831 4.87344E-01 1.77923E+00-4.12833E-08-8.89065E-01 1.04419E-07 2.04933E-07
 -1      4832 7.93696E-01 1.47288E+00-4.12863E-08-1.04516E+00 1.35192E-07 1.86076E-07
 -1      4833 1.13329E+00 1.13329E+00-4.12907E-08-1.09895E+00 1.62632E-07 1.62640E-07
 -1      4834 1.47288E+00 7.93696E-01-4.12764E-08-1.04516E+00 1.86079E-07 1.35194E-07
 -1      4835 1.77923E+00 4.87344E-01-4.12876E-08-8.89065E-01 2.04954E-07 1.04430E-07
 -1      4836 2.02235E+00 2.44223E-01-4.12782E-08-6.45944E-01 2.18725E-07 7.10681E-08
 -1      4837 2.17845E+00 8.81292E-02-4.12870E-08-3.39593E-01 2.27169E-07 3.59797E-08
 -1      4838 2.22529E-01 2.04405E+00 4.39500E-08-2.95924E-01-1.82343E-08-1.15126E-07
 -1      4839 3.58550E-01 1.90803E+00 4.39500E-08-5.62880E-01-3.60195E-08-1.10857E-07
 -1      4840 5.70408E-01 1.69617E+00 4.39508E-08-7.74738E-01-5.29177E-08-1.03857E-07
 -1      4841 8.37364E-01 1.42921E+00 4.39513E-08-9.10759E-01-6.85131E-08-9.43009E-08
 -1      4842 1.13329E+00 1.13329E+00 4.39501E-08-9.57629E-01-8.24200E-08-8.24221E-08
 -1      4843 1.42921E+00 8.37364E-01 4.39506E-08-9.10759E-01-9.43031E-08-6.85146E-08
 -1      4844 1.69617E+00 5.70408E-01 4.39425E-08-7.74738E-01-1.03854E-07-5.29161E-08
 -1      4845 1.90803E+00 3.58550E-01 4.39569E-08-5.62880E-01-1.10861E-07-3.60207E-08
 -1      4846 2.04405E+00 2.22529E-01 4.39482E-08-2.95924E-01-1.15124E-07-1.82328E-08
 -1      4847 3.32598E-01 1.93398E+00-2.21964E-08-2.60160E-01 4.71853E-09 2.97915E-08
 -1      4848 4.52180E-01 1.81440E+00-2.21966E-08-4.94854E-01 9.32081E-09 2.86866E-08
 -1      4849 6.38434E-01 1.62814E+00-2.21967E-08-6.81108E-01 1.36936E-08 2.68753E-08
 -1      4850 8.73128E-01 1.39345E+00-2.21968E-08-8.00690E-01 1.77292E-08 2.44026E-08
 -1      4851 1.13329E+00 1.13329E+00-2.21962E-08-8.41895E-01 2.13283E-08 2.13286E-08
 -1      4852 1.39345E+00 8.73128E-01-2.21959E-08-8.00690E-01 2.44024E-08 1.77292E-08
 -1      4853 1.62814E+00 6.38434E-01-2.21987E-08-6.81108E-01 2.68770E-08 1.36947E-08
 -1      4854 1.81440E+00 4.52180E-01-2.21939E-08-4.94854E-01 2.86848E-08 9.32019E-09
 -1      4855 1.93398E+00 3.32598E-01-2.21967E-08-2.60160E-01 2.97917E-08 4.71822E-09
 -1      4856 4.23865E-01 1.84271E+00 5.38533E-10-2.30505E-01-1.89731E-09-1.19793E-08
 -1      4857 5.29817E-01 1.73676E+00 5.38574E-10-4.38447E-01-3.74788E-09-1.15350E-08
 -1      4858 6.94841E-01 1.57174E+00 5.38539E-10-6.03471E-01-5.50627E-09-1.08067E-08
 -1      4859 9.02783E-01 1.36379E+00 5.38508E-10-7.09423E-01-7.12908E-09-9.81253E-09
 -1      4860 1.13329E+00 1.13329E+00 5.38495E-10-7.45931E-01-8.57613E-09-8.57622E-09
 -1      4861 1.36379E+00 9.02783E-01 5.38673E-10-7.09423E-01-9.81250E-09-7.12909E-09
 -1      4862 1.57174E+00 6.94841E-01 5.37538E-10-6.03471E-01-1.08059E-08-5.50591E-09
 -1      4863 1.73676E+00 5.29817E-01 5.39525E-10-4.38447E-01-1.15358E-08-3.74806E-09
 -1      4864 1.84271E+00 4.23865E-01 5.38282E-10-2.30505E-01-1.19790E-08-1.89718E-09
 -1      4865 5.00381E-01 1.76620E+00-7.59215E-09-2.05644E-01 5.15445E-10 3.25433E-09
 -1      4866 5.94905E-01 1.67167E+00-7.59228E-09-3.91158E-01 1.01818E-09 3.13358E-09
 -1      4867 7.42130E-01 1.52445E+00-7.59212E-09-5.38383E-01 1.49588E-09 2.93575E-09
 -1      4868 9.27644E-01 1.33893E+00-7.59212E-09-6.32907E-01 1.93667E-09 2.66568E-09
 -1      4869 1.13329E+00 1.13329E+00-7.59207E-09-6.65478E-01 2.32975E-09 2.32997E-09
 -1      4870 1.33893E+00 9.27644E-01-7.59227E-09-6.32907E-01 2.66569E-09 1.93664E-09
 -1      4871 1.52445E+00 7.42130E-01-7.59263E-09-5.38383E-01 2.93604E-09 1.49603E-09
 -1      4872 1.67167E+00 5.94905E-01-7.59142E-09-3.91158E-01 3.13328E-09 1.01812E-09
 -1      4873 1.76620E+00 5.00381E-01-7.59231E-09-2.05644E-01 3.25442E-09 5.15479E-10
 -1      4874 5.65158E-01 1.70142E+00-3.70197E-09-1.84596E-01-1.15177E-10-7.27502E-10
 -1      4875 6.50008E-01 1.61657E+00-3.70204E-09-3.51123E-01-2.27557E-10-7.00224E-10
 -1      4876 7.82165E-01 1.48441E+00-3.70207E-09-4.83280E-01-3.34328E-10-6.56248E-10
 -1      4877 9.48691E-01 1.31788E+00-3.70194E-09-5.68130E-01-4.32896E-10-5.95792E-10
 -1      4878 1.13329E+00 1.13329E+00-3.70179E-09-5.97367E-01-5.20572E-10-5.20865E-10
 -1      4879 1.31788E+00 9.48691E-01-3.70215E-09-5.68130E-01-5.95756E-10-4.32829E-10
 -1      4880 1.48441E+00 7.82165E-01-3.70224E-09-4.83280E-01-6.56111E-10-3.34254E-10
 -1      4881 1.61657E+00 6.50008E-01-3.70156E-09-3.51123E-01-7.00622E-10-2.27559E-10
 -1      4882 1.70142E+00 5.65158E-01-3.70201E-09-1.84596E-01-7.27406E-10-1.15150E-10
 -1      4883 6.20481E-01 1.64609E+00-3.88046E-09-1.66621E-01 9.78804E-11 6.18025E-10
 -1      4884 6.97068E-01 1.56951E+00-3.88045E-09-3.16932E-01 1.93387E-10 5.94900E-10
 -1      4885 8.16356E-01 1.45022E+00-3.88044E-09-4.36220E-01 2.84032E-10 5.57343E-10
 -1      4886 9.66667E-01 1.29991E+00-3.88031E-09-5.12807E-01 3.67676E-10 5.06111E-10
 -1      4887 1.13329E+00 1.13329E+00-3.88026E-09-5.39197E-01 4.42388E-10 4.42479E-10
 -1      4888 1.29991E+00 9.66667E-01-3.88062E-09-5.12807E-01 5.06189E-10 3.67707E-10
 -1      4889 1.45022E+00 8.16356E-01-3.88067E-09-4.36220E-01 5.57443E-10 2.84100E-10
 -1      4890 1.56951E+00 6.97068E-01-3.87991E-09-3.16932E-01 5.94785E-10 1.93310E-10
 -1      4891 1.64609E+00 6.20481E-01-3.88043E-09-1.66621E-01 6.17927E-10 9.79108E-11
 -1      4892 6.68102E-01 1.59847E+00-2.87008E-09-1.51148E-01 3.49656E-11 2.20740E-10
 -1      4893 7.37577E-01 1.52900E+00-2.87018E-09-2.87500E-01 6.90450E-11 2.12494E-10
 -1      4894 8.45788E-01 1.42079E+00-2.87023E-09-3.95710E-01 1.01480E-10 1.99194E-10
 -1      4895 9.82140E-01 1.28444E+00-2.87001E-09-4.65186E-01 1.31239E-10 1.80772E-10
 -1      4896 1.13329E+00 1.13329E+00-2.86992E-09-4.89125E-01 1.57988E-10 1.57835E-10
 -1      4897 1.28444E+00 9.82140E-01-2.87052E-09-4.65186E-01 1.80788E-10 1.31405E-10
 -1      4898 1.42079E+00 8.45788E-01-2.87029E-09-3.95710E-01 1.98987E-10 1.01486E-10
 -1      4899 1.52900E+00 7.37577E-01-2.86957E-09-2.87500E-01 2.12321E-10 6.90458E-11
 -1      4900 1.59847E+00 6.68102E-01-2.87012E-09-1.51148E-01 2.20570E-10 3.49982E-11
 -1      4901 7.09388E-01 1.55719E+00-2.42282E-09-1.37734E-01 4.44733E-11 2.80568E-10
 -1      4902 7.72697E-01 1.49388E+00-2.42288E-09-2.61985E-01 8.78748E-11 2.70266E-10
 -1      4903 8.71303E-01 1.39527E+00-2.42313E-09-3.60591E-01 1.28994E-10 2.53174E-10
 -1      4904 9.95554E-01 1.27102E+00-2.42275E-09-4.23900E-01 1.66982E-10 2.29881E-10
 -1      4905 1.13329E+00 1.13329E+00-2.42259E-09-4.45715E-01 2.00866E-10 2.00899E-10
 -1      4906 1.27102E+00 9.95554E-01-2.42328E-09-4.23900E-01 2.30071E-10 1.67052E-10
 -1      4907 1.39527E+00 8.71303E-01-2.42325E-09-3.60591E-01 2.53200E-10 1.29065E-10
 -1      4908 1.49388E+00 7.72697E-01-2.42220E-09-2.61985E-01 2.69828E-10 8.78165E-11
 -1      4909 1.55719E+00 7.09388E-01-2.42291E-09-1.37734E-01 2.80693E-10 4.45324E-11
 -1      4910 7.45413E-01 1.52116E+00-1.95635E-09-1.26028E-01 3.20963E-11 2.02465E-10
 -1      4911 8.03342E-01 1.46323E+00-1.95636E-09-2.39720E-01 6.33603E-11 1.94716E-10
 -1      4912 8.93568E-01 1.37301E+00-1.95659E-09-3.29946E-01 9.30596E-11 1.82617E-10
 -1      4913 1.00726E+00 1.25932E+00-1.95623E-09-3.87875E-01 1.20203E-10 1.65728E-10
 -1      4914 1.13329E+00 1.13329E+00-1.95586E-09-4.07836E-01 1.44884E-10 1.44819E-10
 -1      4915 1.25932E+00 1.00726E+00-1.95691E-09-3.87875E-01 1.66087E-10 1.20630E-10
 -1      4916 1.37301E+00 8.93568E-01-1.95676E-09-3.29946E-01 1.82587E-10 9.30618E-11
 -1      4917 1.46323E+00 8.03342E-01-1.95557E-09-2.39720E-01 1.94341E-10 6.33076E-11
 -1      4918 1.52116E+00 7.45413E-01-1.95624E-09-1.26028E-01 2.02326E-10 3.21408E-11
 -1      4919 7.77035E-01 1.48954E+00-1.62281E-09-1.15754E-01 2.68508E-11 1.69497E-10
 -1      4920 8.30241E-01 1.43633E+00-1.62259E-09-2.20177E-01 5.30929E-11 1.63187E-10
 -1      4921 9.13111E-01 1.35346E+00-1.62311E-09-3.03047E-01 7.79602E-11 1.52794E-10
 -1      4922 1.01753E+00 1.24904E+00-1.62266E-09-3.56253E-01 1.00681E-10 1.38669E-10
 -1      4923 1.13329E+00 1.13329E+00-1.62219E-09-3.74587E-01 1.21126E-10 1.21013E-10
 -1      4924 1.24904E+00 1.01753E+00-1.62327E-09-3.56253E-01 1.39289E-10 1.01030E-10
 -1      4925 1.35346E+00 9.13111E-01-1.62340E-09-3.03047E-01 1.52895E-10 7.80390E-11
 -1      4926 1.43633E+00 8.30241E-01-1.62192E-09-2.20177E-01 1.62349E-10 5.29332E-11
 -1      4927 1.48954E+00 7.77035E-01-1.62256E-09-1.15754E-01 1.69410E-10 2.69348E-11
 -1      4928 8.04943E-01 1.46163E+00-1.34814E-09-1.06686E-01 2.10212E-11 1.32591E-10
 -1      4929 8.53981E-01 1.41260E+00-1.34802E-09-2.02929E-01 4.14872E-11 1.27335E-10
 -1      4930 9.30359E-01 1.33622E+00-1.34851E-09-2.79307E-01 6.09656E-11 1.19521E-10
 -1      4931 1.02660E+00 1.23997E+00-1.34812E-09-3.28345E-01 7.85194E-11 1.08312E-10
 -1      4932 1.13329E+00 1.13329E+00-1.34739E-09-3.45243E-01 9.43366E-11 9.44511E-11
 -1      4933 1.23997E+00 1.02660E+00-1.34856E-09-3.28345E-01 1.09481E-10 7.92921E-11
 -1      4934 1.33622E+00 9.30359E-01-1.34876E-09-2.79307E-01 1.19535E-10 6.09882E-11
 -1      4935 1.41260E+00 8.53981E-01-1.34727E-09-2.02929E-01 1.26142E-10 4.12746E-11
 -1      4936 1.46163E+00 8.04943E-01-1.34788E-09-1.06686E-01 1.32353E-10 2.10678E-11
 -1      4937 8.29696E-01 1.43688E+00-1.13157E-09-9.86431E-02 1.66794E-11 1.05307E-10
 -1      4938 8.75037E-01 1.39154E+00-1.13135E-09-1.87630E-01 3.31478E-11 1.01526E-10
 -1      4939 9.45658E-01 1.32092E+00-1.13213E-09-2.58251E-01 4.85720E-11 9.51916E-11
 -1      4940 1.03464E+00 1.23193E+00-1.13186E-09-3.03592E-01 6.23458E-11 8.60404E-11
 -1      4941 1.13329E+00 1.13329E+00-1.13110E-09-3.19216E-01 7.47484E-11 7.46326E-11
 -1      4942 1.23193E+00 1.03464E+00-1.13163E-09-3.03592E-01 8.78745E-11 6.36376E-11
 -1      4943 1.32092E+00 9.45658E-01-1.13234E-09-2.58251E-01 9.52960E-11 4.86639E-11
 -1      4944 1.39154E+00 8.75037E-01-1.13126E-09-1.87630E-01 9.91516E-11 3.25469E-11
 -1      4945 1.43688E+00 8.29696E-01-1.13132E-09-9.86431E-02 1.05334E-10 1.67986E-11
 -1      4946 8.51752E-01 1.41482E+00-9.62733E-10-9.14764E-02 1.21349E-11 7.65060E-11
 -1      4947 8.93800E-01 1.37278E+00-9.62407E-10-1.73999E-01 2.41499E-11 7.38105E-11
 -1      4948 9.59289E-01 1.30729E+00-9.63358E-10-2.39488E-01 3.55552E-11 6.94367E-11
 -1      4949 1.04181E+00 1.22476E+00-9.63305E-10-2.81536E-01 4.48546E-11 6.22689E-11
 -1      4950 1.13329E+00 1.13329E+00-9.62554E-10-2.96024E-01 5.35056E-11 5.35468E-11
 -1      4951 1.22476E+00 1.04181E+00-9.61935E-10-2.81536E-01 6.56725E-11 4.72415E-11
 -1      4952 1.30729E+00 9.59289E-01-9.63740E-10-2.39488E-01 6.94396E-11 3.55330E-11
 -1      4953 1.37278E+00 8.93800E-01-9.63308E-10-1.73999E-01 6.95507E-11 2.30181E-11
 -1      4954 1.41482E+00 8.51752E-01-9.62507E-10-9.14764E-02 7.64247E-11 1.21634E-11
 -1      4955 8.71490E-01 1.39509E+00-8.17107E-10-8.50632E-02 9.82854E-12 6.22813E-11
 -1      4956 9.10590E-01 1.35599E+00-8.16702E-10-1.61800E-01 1.96669E-11 5.98400E-11
 -1      4957 9.71488E-01 1.29509E+00-8.17554E-10-2.22698E-01 2.90694E-11 5.67662E-11
 -1      4958 1.04822E+00 1.21835E+00-8.18392E-10-2.61798E-01 3.57761E-11 4.99623E-11
 -1      4959 1.13329E+00 1.13329E+00-8.18614E-10-2.75270E-01 4.15584E-11 4.15463E-11
 -1      4960 1.21835E+00 1.04822E+00-8.13558E-10-2.61798E-01 5.66112E-11 4.04585E-11
 -1      4961 1.29509E+00 9.71488E-01-8.17989E-10-2.22698E-01 5.68820E-11 2.91553E-11
 -1      4962 1.35599E+00 9.10590E-01-8.20955E-10-1.61800E-01 5.19858E-11 1.74527E-11
 -1      4963 1.39509E+00 8.71490E-01-8.16944E-10-8.50632E-02 6.17458E-11 9.74437E-12
 -1      4964 8.89223E-01 1.37735E+00-7.51723E-10-7.93014E-02-1.71608E-12-1.06118E-11
 -1      4965 9.25674E-01 1.34090E+00-7.51652E-10-1.50840E-01-3.21693E-12-1.05651E-11
 -1      4966 9.82448E-01 1.28413E+00-7.52199E-10-2.07614E-01-3.98347E-12-8.65021E-12
 -1      4967 1.05399E+00 1.21259E+00-7.53906E-10-2.44065E-01-8.66349E-12-1.08324E-11
 -1      4968 1.13329E+00 1.13329E+00-7.55796E-10-2.56625E-01-1.34721E-11-1.34918E-11
 -1      4969 1.21259E+00 1.05399E+00-7.44687E-10-2.44065E-01 2.13143E-12 5.94460E-13
 -1      4970 1.28413E+00 9.82448E-01-7.52454E-10-2.07614E-01-8.58582E-12-3.92901E-12
 -1      4971 1.34090E+00 9.25674E-01-7.60322E-10-1.50840E-01-2.55206E-11-7.54416E-12
 -1      4972 1.37735E+00 8.89223E-01-7.51941E-10-7.93014E-02-1.16206E-11-1.95242E-12
 -1      4973 9.05214E-01 1.36136E+00-5.86212E-10-7.41056E-02 1.09744E-11 6.98107E-11
 -1      4974 9.39277E-01 1.32730E+00-5.87188E-10-1.40957E-01 2.19082E-11 6.65532E-11
 -1      4975 9.92331E-01 1.27425E+00-5.85099E-10-1.94011E-01 3.35459E-11 6.48473E-11
 -1      4976 1.05918E+00 1.20739E+00-5.92428E-10-2.28074E-01 3.68990E-11 5.26613E-11
 -1      4977 1.13329E+00 1.13329E+00-6.03054E-10-2.39811E-01 3.75151E-11 3.68829E-11
 -1      4978 1.20739E+00 1.05918E+00-5.60945E-10-2.28074E-01 7.98039E-11 5.63845E-11
 -1      4979 1.27425E+00 9.92331E-01-5.85363E-10-1.94011E-01 6.46305E-11 3.37846E-11
 -1      4980 1.32730E+00 9.39277E-01-6.16990E-10-1.40957E-01 3.55740E-11 1.24513E-11
 -1      4981 1.36136E+00 9.05214E-01-5.88021E-10-7.41056E-02 6.75244E-11 9.71259E-12
 -1      4982 9.19684E-01 1.34689E+00-9.17241E-10-6.94042E-02-7.78736E-11-4.90594E-10
 -1      4983 9.51585E-01 1.31499E+00-9.19847E-10-1.32015E-01-1.53738E-10-4.73473E-10
 -1      4984 1.00127E+00 1.26530E+00-9.14606E-10-1.81703E-01-2.22706E-10-4.39194E-10
 -1      4985 1.06388E+00 1.20269E+00-9.24912E-10-2.13604E-01-3.00297E-10-4.10547E-10
 -1      4986 1.13329E+00 1.13329E+00-9.42393E-10-2.24597E-01-3.76206E-10-3.75783E-10
 -1      4987 1.20269E+00 1.06388E+00-8.83579E-10-2.13604E-01-3.58154E-10-2.61687E-10
 -1      4988 1.26530E+00 1.00127E+00-9.14360E-10-1.81703E-01-4.39366E-10-2.23231E-10
 -1      4989 1.31499E+00 9.51585E-01-9.60864E-10-1.32015E-01-5.33047E-10-1.71634E-10
 -1      4990 1.34689E+00 9.19684E-01-9.20897E-10-6.94042E-02-4.95384E-10-7.82976E-11
 -1      4991 9.32819E-01 1.33376E+00-8.51014E-11-6.51363E-02 1.25049E-10 7.91253E-10
 -1      4992 9.62759E-01 1.30382E+00-9.27606E-11-1.23897E-01 2.47102E-10 7.59253E-10
 -1      4993 1.00939E+00 1.25718E+00-6.92968E-11-1.70529E-01 3.69713E-10 7.19929E-10
 -1      4994 1.06815E+00 1.19842E+00-1.20355E-10-2.00469E-01 4.50144E-10 6.25641E-10
 -1      4995 1.13329E+00 1.13329E+00-2.02207E-10-2.10785E-01 5.06544E-10 5.02307E-10
 -1      4996 1.19842E+00 1.06815E+00 8.49818E-11-2.00469E-01 7.56356E-10 5.43154E-10
 -1      4997 1.25718E+00 1.00939E+00-6.69828E-11-1.70529E-01 7.17617E-10 3.69961E-10
 -1      4998 1.30382E+00 9.62759E-01-2.89532E-10-1.23897E-01 6.12994E-10 2.00815E-10
 -1      4999 1.33376E+00 9.32819E-01-9.97983E-11-6.51363E-02 7.80241E-10 1.15952E-10
 -1      5000 9.44779E-01 1.32180E+00-3.28347E-09-6.12502E-02-7.30248E-10-4.59902E-09
 -1      5001 9.72933E-01 1.29364E+00-3.29379E-09-1.16505E-01-1.44176E-09-4.43181E-09
 -1      5002 1.01678E+00 1.24979E+00-3.26674E-09-1.60355E-01-2.10514E-09-4.13637E-09
 -1      5003 1.07204E+00 1.19454E+00-3.30474E-09-1.88509E-01-2.76984E-09-3.79936E-09
 -1      5004 1.13329E+00 1.13329E+00-3.36607E-09-1.98210E-01-3.39882E-09-3.38965E-09
 -1      5005 1.19454E+00 1.07204E+00-3.19253E-09-1.88509E-01-3.58683E-09-2.60691E-09
 -1      5006 1.24979E+00 1.01678E+00-3.26596E-09-1.60355E-01-4.13619E-09-2.10714E-09
 -1      5007 1.29364E+00 9.72933E-01-3.41621E-09-1.16505E-01-4.67177E-09-1.51076E-09
 -1      5008 1.32180E+00 9.44779E-01-3.29990E-09-6.12503E-02-4.61911E-09-7.24684E-10
 -1      5009 9.55700E-01 1.31088E+00 3.10833E-09-5.77018E-02 1.51696E-09 9.55507E-09
 -1      5010 9.82223E-01 1.28435E+00 3.08082E-09-1.09755E-01 2.99425E-09 9.17758E-09
 -1      5011 1.02353E+00 1.24304E+00 3.25077E-09-1.51065E-01 4.42651E-09 8.64746E-09
 -1      5012 1.07559E+00 1.19099E+00 2.86078E-09-1.77588E-01 5.55866E-09 7.67896E-09
 -1      5013 1.13329E+00 1.13329E+00 2.26558E-09-1.86727E-01 6.48159E-09 6.41619E-09
 -1      5014 1.19099E+00 1.07559E+00 4.40592E-09-1.77588E-01 8.49419E-09 6.11591E-09
 -1      5015 1.24304E+00 1.02353E+00 3.27115E-09-1.51065E-01 8.61218E-09 4.44237E-09
 -1      5016 1.28435E+00 9.82223E-01 1.62392E-09-1.09755E-01 8.26762E-09 2.69206E-09
 -1      5017 1.31088E+00 9.55700E-01 3.00497E-09-5.77018E-02 9.48479E-09 1.40909E-09
 -1      5018 9.65699E-01 1.30088E+00-1.95870E-08-5.44529E-02-6.31612E-09-3.97411E-08
 -1      5019 9.90728E-01 1.27585E+00-1.95684E-08-1.03576E-01-1.24882E-08-3.82733E-08
 -1      5020 1.02971E+00 1.23686E+00-1.95115E-08-1.42560E-01-1.82840E-08-3.57639E-08
 -1      5021 1.07884E+00 1.18774E+00-1.96507E-08-1.67589E-01-2.37894E-08-3.26514E-08
 -1      5022 1.13329E+00 1.13329E+00-1.95669E-08-1.76213E-01-2.89057E-08-2.87722E-08
 -1      5023 1.18774E+00 1.07884E+00-1.98382E-08-1.67589E-01-3.18696E-08-2.30550E-08
 -1      5024 1.23686E+00 1.02971E+00-1.95361E-08-1.42560E-01-3.57495E-08-1.82073E-08
 -1      5025 1.27585E+00 9.90728E-01-1.95873E-08-1.03576E-01-3.91622E-08-1.26914E-08
 -1      5026 1.30088E+00 9.65699E-01-1.96439E-08-5.44529E-02-3.97564E-08-6.21021E-09
 -1      5027 9.74875E-01 1.29170E+00 1.18306E-08-5.14713E-02 1.27128E-08 7.96775E-08
 -1      5028 9.98534E-01 1.26804E+00 1.17613E-08-9.79042E-02 2.50133E-08 7.65164E-08
 -1      5029 1.03538E+00 1.23119E+00 1.31452E-08-1.34754E-01 3.70320E-08 7.21845E-08
 -1      5030 1.08182E+00 1.18476E+00 9.16819E-09-1.58412E-01 4.65534E-08 6.38059E-08
 -1      5031 1.13329E+00 1.13329E+00 3.93365E-09-1.66565E-01 5.39472E-08 5.31377E-08
 -1      5032 1.18476E+00 1.08182E+00 2.43258E-08-1.58412E-01 7.12840E-08 5.12575E-08
 -1      5033 1.23119E+00 1.03538E+00 1.34155E-08-1.34754E-01 7.19619E-08 3.68628E-08
 -1      5034 1.26804E+00 9.98534E-01-2.48375E-09-9.79042E-02 6.82733E-08 2.20043E-08
 -1      5035 1.29170E+00 9.74875E-01 1.07934E-08-5.14713E-02 7.88603E-08 1.17282E-08
 -1      5036 9.83324E-01 1.28325E+00-1.12988E-07-4.87263E-02-4.34289E-08-2.73070E-07
 -1      5037 1.00572E+00 1.26086E+00-1.12001E-07-9.26829E-02-8.60946E-08-2.62941E-07
 -1      5038 1.04061E+00 1.22597E+00-1.12096E-07-1.27567E-01-1.26146E-07-2.46060E-07
 -1      5039 1.08456E+00 1.18201E+00-1.13921E-07-1.49964E-01-1.63797E-07-2.24720E-07
 -1      5040 1.13329E+00 1.13329E+00-1.09817E-07-1.57682E-01-1.98483E-07-1.96015E-07
 -1      5041 1.18201E+00 1.08456E+00-1.13184E-07-1.49964E-01-2.21478E-07-1.58143E-07
 -1      5042 1.22597E+00 1.04061E+00-1.11815E-07-1.27567E-01-2.46340E-07-1.24672E-07
 -1      5043 1.26086E+00 1.00572E+00-1.14147E-07-9.26829E-02-2.67941E-07-8.63642E-08
 -1      5044 1.28325E+00 9.83324E-01-1.12267E-07-4.87262E-02-2.71798E-07-4.15402E-08
 -1      5045 9.91091E-01 1.27548E+00-4.56942E-07-4.62019E-02 1.51076E-10 4.07241E-09
 -1      5046 1.01233E+00 1.25424E+00-4.58221E-07-8.78811E-02-6.44812E-10 7.00569E-10
 -1      5047 1.04540E+00 1.22117E+00-4.45354E-07-1.20958E-01 4.68780E-09 7.91333E-09
 -1      5048 1.08708E+00 1.17949E+00-4.93342E-07-1.42195E-01-5.47537E-09-1.33165E-08
 -1      5049 1.13329E+00 1.13329E+00-5.52900E-07-1.49512E-01-3.95055E-08-4.80869E-08
 -1      5050 1.17949E+00 1.08708E+00-3.03605E-07-1.42195E-01 7.70467E-08 4.88178E-08
 -1      5051 1.22117E+00 1.04540E+00-4.51543E-07-1.20958E-01 9.16203E-09-2.10868E-09
 -1      5052 1.25424E+00 1.01233E+00-6.50342E-07-8.78813E-02-9.13389E-08-3.97562E-08
 -1      5053 1.27548E+00 9.91091E-01-4.75722E-07-4.62018E-02-7.28876E-09-1.06492E-08
 -1      5054 9.98436E-01 1.26814E+00 3.60947E-07-4.38168E-02 1.03274E-07 6.36928E-07
 -1      5055 1.01858E+00 1.24800E+00 3.60871E-07-8.33445E-02 2.02260E-07 6.10268E-07
 -1      5056 1.04995E+00 1.21663E+00 3.49239E-07-1.14714E-01 3.06252E-07 5.82996E-07
 -1      5057 1.08947E+00 1.17711E+00 2.62825E-07-1.34854E-01 3.85212E-07 5.30246E-07
 -1      5058 1.13329E+00 1.13329E+00 2.88684E-07-1.41794E-01 3.94352E-07 4.58648E-07
 -1      5059 1.17711E+00 1.08947E+00 4.90783E-07-1.34854E-01 5.61093E-07 4.42498E-07
 -1      5060 1.21663E+00 1.04995E+00 3.48446E-07-1.14714E-01 6.10838E-07 2.83829E-07
 -1      5061 1.24800E+00 1.01857E+00 1.29649E-07-8.33449E-02 5.76410E-07 2.25330E-07
 -1      5062 1.26814E+00 9.98435E-01 4.20940E-07-4.38164E-02 6.16217E-07 2.02065E-07
 -1      5063-6.00842E-01 2.86742E+00-1.10813E-06-2.74660E-01 2.85029E-07 3.62163E-06
 -1      5064-7.30670E-01 2.99726E+00 1.34135E-06-6.05638E-01 1.42250E-07 8.98148E-07
 -1      5066-4.31093E-01 2.69768E+00-1.10813E-06-7.97094E-01 8.48071E-07 3.53246E-06
 -1      5067-4.52289E-01 2.71887E+00 1.34135E-06-1.15199E+00 2.81004E-07 8.64824E-07
 -1      5069-1.08211E-01 2.37479E+00-1.10812E-06-1.24150E+00 1.39023E-06 3.35630E-06
 -1      5070-1.86998E-02 2.28528E+00 1.34137E-06-1.58558E+00 4.12812E-07 8.10193E-07
 -1      5072 3.36198E-01 1.93039E+00-1.10813E-06-1.56438E+00 1.89816E-06 3.09748E-06
 -1      5073 5.27654E-01 1.73893E+00 1.34135E-06-1.86396E+00 5.34404E-07 7.35594E-07
 -1      5075 8.58632E-01 1.40795E+00-1.10810E-06-1.73413E+00 2.35934E-06 2.76244E-06
 -1      5076 1.13329E+00 1.13329E+00 1.34127E-06-1.95989E+00 6.42710E-07 6.42882E-07
 -1      5078 1.40795E+00 8.58632E-01-1.10823E-06-1.73413E+00 2.76246E-06 2.35918E-06
 -1      5079 1.73893E+00 5.27654E-01 1.34104E-06-1.86396E+00 7.34648E-07 5.34161E-07
 -1      5081 1.93039E+00 3.36198E-01-1.10823E-06-1.56438E+00 3.09751E-06 1.89872E-06
 -1      5082 2.28528E+00-1.86998E-02 1.34053E-06-1.58558E+00 8.09704E-07 4.12735E-07
 -1      5084 2.37479E+00-1.08211E-01-1.10814E-06-1.24150E+00 3.35650E-06 1.38977E-06
 -1      5085 2.71887E+00-4.52289E-01 1.34211E-06-1.15199E+00 8.65385E-07 2.81338E-07
 -1      5087 2.69768E+00-4.31093E-01-1.10804E-06-7.97094E-01 3.53207E-06 8.48496E-07
 -1      5088 2.99726E+00-7.30670E-01 1.34162E-06-6.05638E-01 8.99294E-07 1.42736E-07
 -1      5090 2.86742E+00-6.00842E-01-1.10806E-06-2.74660E-01 3.62173E-06 2.84882E-07
 -1      5092-3.24759E-01 2.59135E+00 2.13822E-06-2.30933E-01-5.01744E-08-6.37521E-07
 -1      5093-4.22703E-01 2.68926E+00-5.95663E-07-5.05569E-01-3.70140E-07-2.33696E-06
 -1      5095-1.82035E-01 2.44863E+00 2.13822E-06-6.70194E-01-1.49288E-07-6.21822E-07
 -1      5096-1.90318E-01 2.45688E+00-5.95664E-07-9.61649E-01-7.31162E-07-2.25028E-06
 -1      5098 8.94434E-02 2.17715E+00 2.13822E-06-1.04385E+00-2.44723E-07-5.90812E-07
 -1      5099 1.71629E-01 2.09493E+00-5.95666E-07-1.32360E+00-1.07418E-06-2.10819E-06
 -1      5101 4.63101E-01 1.80349E+00 2.13822E-06-1.31533E+00-3.34135E-07-5.45254E-07
 -1      5102 6.27709E-01 1.63885E+00-5.95671E-07-1.55598E+00-1.39075E-06-1.91419E-06
 -1      5104 9.02362E-01 1.36423E+00 2.13820E-06-1.45805E+00-4.15328E-07-4.86254E-07
 -1      5105 1.13328E+00 1.13328E+00-5.95615E-07-1.63606E+00-1.67309E-06-1.67308E-06
 -1      5107 1.36423E+00 9.02362E-01 2.13829E-06-1.45805E+00-4.86233E-07-4.15379E-07
 -1      5108 1.63885E+00 6.27709E-01-5.95607E-07-1.55598E+00-1.91424E-06-1.39061E-06
 -1      5110 1.80349E+00 4.63101E-01 2.13807E-06-1.31533E+00-5.45329E-07-3.33905E-07
 -1      5111 2.09493E+00 1.71629E-01-5.95211E-07-1.32360E+00-2.10850E-06-1.07456E-06
 -1      5113 2.17715E+00 8.94435E-02 2.13822E-06-1.04385E+00-5.90670E-07-2.45081E-07
 -1      5114 2.45688E+00-1.90318E-01-5.96091E-07-9.61649E-01-2.24983E-06-7.31230E-07
 -1      5116 2.44863E+00-1.82035E-01 2.13838E-06-6.70194E-01-6.21939E-07-1.49074E-07
 -1      5117 2.68926E+00-4.22703E-01-5.95689E-07-5.05569E-01-2.33706E-06-3.70030E-07
 -1      5119 2.59135E+00-3.24759E-01 2.13818E-06-2.30933E-01-6.37516E-07-5.02710E-08
 -1      5121-1.09708E-01 2.37628E+00 2.66301E-07-1.96871E-01-6.21073E-08-7.89150E-07
 -1      5122-1.83236E-01 2.44982E+00-9.58895E-07-4.27765E-01 2.93851E-07 1.85530E-06
 -1      5124 1.19649E-02 2.25461E+00 2.66301E-07-5.71342E-01-1.84793E-07-7.69719E-07
 -1      5125 1.33859E-02 2.25319E+00-9.58895E-07-8.13658E-01 5.80465E-07 1.78649E-06
 -1      5127 2.43401E-01 2.02317E+00 2.66302E-07-8.89886E-01-3.02928E-07-7.31334E-07
 -1      5128 3.19632E-01 1.94695E+00-9.58895E-07-1.11990E+00 8.52785E-07 1.67368E-06
 -1      5130 5.61945E-01 1.70463E+00 2.66301E-07-1.12132E+00-4.13605E-07-6.74943E-07
 -1      5131 7.05524E-01 1.56105E+00-9.58906E-07-1.31653E+00 1.10412E-06 1.51967E-06
 -1      5133 9.36416E-01 1.33016E+00 2.66300E-07-1.24299E+00-5.14091E-07-6.01930E-07
 -1      5134 1.13329E+00 1.13329E+00-9.58910E-07-1.38428E+00 1.32823E-06 1.32825E-06
 -1      5136 1.33016E+00 9.36416E-01 2.66282E-07-1.24299E+00-6.01950E-07-5.14090E-07
 -1      5137 1.56105E+00 7.05524E-01-9.58936E-07-1.31653E+00 1.51973E-06 1.10410E-06
 -1      5139 1.70463E+00 5.61945E-01 2.66334E-07-1.12132E+00-6.74890E-07-4.13613E-07
 -1      5140 1.94695E+00 3.19632E-01-9.58825E-07-1.11990E+00 1.67366E-06 8.52832E-07
 -1      5142 2.02317E+00 2.43401E-01 2.66299E-07-8.89886E-01-7.31349E-07-3.02890E-07
 -1      5143 2.25319E+00 1.33859E-02-9.58972E-07-8.13658E-01 1.78648E-06 5.80520E-07
 -1      5145 2.25461E+00 1.19649E-02 2.66265E-07-5.71342E-01-7.69745E-07-1.84835E-07
 -1      5146 2.44982E+00-1.83236E-01-9.58850E-07-4.27765E-01 1.85527E-06 2.93810E-07
 -1      5148 2.37628E+00-1.09708E-01 2.66319E-07-1.96871E-01-7.89142E-07-6.20843E-08
 -1      5150 6.10689E-02 2.20551E+00-4.12832E-08-1.69823E-01 1.82465E-08 2.31844E-07
 -1      5151 4.81826E-03 2.26176E+00 3.27670E-07-3.66662E-01-9.41971E-08-5.94736E-07
 -1      5153 1.66025E-01 2.10055E+00-4.12835E-08-4.92845E-01 5.42901E-08 2.26135E-07
 -1      5154 1.73354E-01 2.09322E+00 3.27671E-07-6.97432E-01-1.86075E-07-5.72678E-07
 -1      5156 3.65664E-01 1.90091E+00-4.12830E-08-7.67624E-01 8.89969E-08 2.14858E-07
 -1      5157 4.35855E-01 1.83072E+00 3.27671E-07-9.59933E-01-2.73370E-07-5.36518E-07
 -1      5159 6.40443E-01 1.62613E+00-4.12830E-08-9.67263E-01 1.21513E-07 1.98291E-07
 -1      5160 7.66626E-01 1.49995E+00 3.27675E-07-1.12847E+00-3.53937E-07-4.87149E-07
 -1      5162 9.63465E-01 1.30311E+00-4.12815E-08-1.07222E+00 1.51036E-07 1.76841E-07
 -1      5163 1.13329E+00 1.13329E+00 3.27677E-07-1.18654E+00-4.25781E-07-4.25787E-07
 -1      5165 1.30311E+00 9.63465E-01-4.12753E-08-1.07222E+00 1.76843E-07 1.51032E-07
 -1      5166 1.49995E+00 7.66626E-01 3.27668E-07-1.12847E+00-4.87157E-07-3.53937E-07
 -1      5168 1.62613E+00 6.40443E-01-4.13121E-08-9.67263E-01 1.98287E-07 1.21521E-07
 -1      5169 1.83072E+00 4.35855E-01 3.27673E-07-9.59933E-01-5.36528E-07-2.73383E-07
 -1      5171 1.90091E+00 3.65664E-01-4.12830E-08-7.67624E-01 2.14861E-07 8.89898E-08
 -1      5172 2.09322E+00 1.73354E-01 3.27667E-07-6.97432E-01-5.72667E-07-1.86078E-07
 -1      5174 2.10055E+00 1.66025E-01-4.12537E-08-4.92845E-01 2.26131E-07 5.42991E-08
 -1      5175 2.26176E+00 4.81826E-03 3.27668E-07-3.66662E-01-5.94730E-07-9.41949E-08
 -1      5177 2.20551E+00 6.10689E-02-4.12920E-08-1.69823E-01 2.31845E-07 1.82412E-08
 -1      5179 1.98954E-01 2.06762E+00 4.39501E-08-1.47984E-01-9.22994E-09-1.17278E-07
 -1      5180 1.55286E-01 2.11129E+00-1.47281E-07-3.17772E-01 3.57672E-08 2.25825E-07
 -1      5182 2.90413E-01 1.97616E+00 4.39500E-08-4.29466E-01-2.74625E-08-1.14390E-07
 -1      5183 3.01350E-01 1.96523E+00-1.47282E-07-6.04438E-01 7.06538E-08 2.17450E-07
 -1      5185 4.64379E-01 1.80220E+00 4.39501E-08-6.68909E-01-4.50190E-08-1.08685E-07
 -1      5186 5.28850E-01 1.73773E+00-1.47282E-07-8.31938E-01 1.03800E-07 2.03720E-07
 -1      5188 7.03822E-01 1.56275E+00 4.39495E-08-8.42875E-01-6.14670E-08-1.00305E-07
 -1      5189 8.15516E-01 1.45106E+00-1.47283E-07-9.78002E-01 1.34392E-07 1.84974E-07
 -1      5191 9.85304E-01 1.28127E+00 4.39498E-08-9.34334E-01-7.64011E-08-8.94539E-08
 -1      5192 1.13329E+00 1.13329E+00-1.47281E-07-1.02833E+00 1.61672E-07 1.61674E-07
 -1      5194 1.28127E+00 9.85304E-01 4.39501E-08-9.34334E-01-8.94555E-08-7.64009E-08
 -1      5195 1.45106E+00 8.15516E-01-1.47282E-07-9.78002E-01 1.84977E-07 1.34393E-07
 -1      5197 1.56275E+00 7.03822E-01 4.39532E-08-8.42875E-01-1.00301E-07-6.14667E-08
 -1      5198 1.73773E+00 5.28850E-01-1.47275E-07-8.31938E-01 2.03715E-07 1.03800E-07
 -1      5200 1.80220E+00 4.64379E-01 4.39500E-08-6.68909E-01-1.08686E-07-4.50185E-08
 -1      5201 1.96523E+00 3.01350E-01-1.47287E-07-6.04438E-01 2.17454E-07 7.06564E-08
 -1      5203 1.97616E+00 2.90413E-01 4.39473E-08-4.29466E-01-1.14392E-07-2.74652E-08
 -1      5204 2.11129E+00 1.55286E-01-1.47279E-07-3.17772E-01 2.25822E-07 3.57662E-08
 -1      5206 2.06762E+00 1.98954E-01 4.39502E-08-1.47984E-01-1.17277E-07-9.22913E-09
 -1      5208 3.11871E-01 1.95470E+00-2.21965E-08-1.30100E-01 2.39386E-09 3.04169E-08
 -1      5209 2.77535E-01 1.98904E+00 5.23940E-08-2.78051E-01-1.03590E-08-6.54040E-08
 -1      5211 3.92277E-01 1.87430E+00-2.21964E-08-3.77564E-01 7.12263E-09 2.96679E-08
 -1      5212 4.05341E-01 1.86123E+00 5.23942E-08-5.28884E-01-2.04629E-08-6.29783E-08
 -1      5214 5.45218E-01 1.72136E+00-2.21964E-08-5.88070E-01 1.16760E-08 2.81884E-08
 -1      5215 6.04404E-01 1.66217E+00 5.23941E-08-7.27947E-01-3.00629E-08-5.90019E-08
 -1      5217 7.55724E-01 1.51085E+00-2.21965E-08-7.41011E-01 1.59420E-08 2.60149E-08
 -1      5218 8.55237E-01 1.41134E+00 5.23944E-08-8.55753E-01-3.89229E-08-5.35729E-08
 -1      5220 1.00319E+00 1.26339E+00-2.21963E-08-8.21417E-01 1.98153E-08 2.32007E-08
 -1      5221 1.13329E+00 1.13329E+00 5.23934E-08-8.99792E-01-4.68237E-08-4.68245E-08
 -1      5223 1.26339E+00 1.00319E+00-2.21969E-08-8.21417E-01 2.32006E-08 1.98150E-08
 -1      5224 1.41134E+00 8.55237E-01 5.23938E-08-8.55753E-01-5.35729E-08-3.89228E-08
 -1      5226 1.51085E+00 7.55724E-01-2.21979E-08-7.41011E-01 2.60152E-08 1.59428E-08
 -1      5227 1.66217E+00 6.04404E-01 5.23956E-08-7.27947E-01-5.90031E-08-3.00636E-08
 -1      5229 1.72136E+00 5.45218E-01-2.21966E-08-5.88070E-01 2.81886E-08 1.16758E-08
 -1      5230 1.86123E+00 4.05341E-01 5.23918E-08-5.28884E-01-6.29773E-08-2.04625E-08
 -1      5232 1.87430E+00 3.92277E-01-2.21950E-08-3.77564E-01 2.96671E-08 7.12310E-09
 -1      5233 1.98904E+00 2.77535E-01 5.23936E-08-2.78051E-01-6.54037E-08-1.03587E-08
 -1      5235 1.95470E+00 3.11871E-01-2.21962E-08-1.30100E-01 3.04172E-08 2.39374E-09
 -1      5237 4.05502E-01 1.86107E+00 5.38498E-10-1.15270E-01-9.61196E-10-1.22130E-08
 -1      5238 3.78212E-01 1.88836E+00-1.42104E-08-2.45339E-01 3.50992E-09 2.21607E-08
 -1      5240 4.76742E-01 1.78983E+00 5.38500E-10-3.34527E-01-2.85989E-09-1.19122E-08
 -1      5241 4.90982E-01 1.77559E+00-1.42104E-08-4.66663E-01 6.93341E-09 2.13388E-08
 -1      5243 6.12250E-01 1.65433E+00 5.38541E-10-5.21038E-01-4.68819E-09-1.13182E-08
 -1      5244 6.66625E-01 1.59995E+00-1.42103E-08-6.42306E-01 1.01861E-08 1.99915E-08
 -1      5246 7.98761E-01 1.46781E+00 5.38516E-10-6.56546E-01-6.40102E-09-1.04456E-08
 -1      5247 8.87949E-01 1.37863E+00-1.42104E-08-7.55076E-01 1.31881E-08 1.81519E-08
 -1      5249 1.01802E+00 1.24856E+00 5.38584E-10-7.27786E-01-7.95618E-09-9.31559E-09
 -1      5250 1.13329E+00 1.13329E+00-1.42102E-08-7.93934E-01 1.58653E-08 1.58654E-08
 -1      5252 1.24856E+00 1.01802E+00 5.38369E-10-7.27786E-01-9.31561E-09-7.95623E-09
 -1      5253 1.37863E+00 8.87949E-01-1.42105E-08-7.55076E-01 1.81521E-08 1.31882E-08
 -1      5255 1.46781E+00 7.98761E-01 5.38678E-10-6.56546E-01-1.04451E-08-6.40087E-09
 -1      5256 1.59995E+00 6.66625E-01-1.42096E-08-6.42306E-01 1.99907E-08 1.01859E-08
 -1      5258 1.65433E+00 6.12250E-01 5.38482E-10-5.21038E-01-1.13182E-08-4.68825E-09
 -1      5259 1.77559E+00 4.90982E-01-1.42110E-08-4.66663E-01 2.13394E-08 6.93372E-09
 -1      5261 1.78983E+00 4.76742E-01 5.38355E-10-3.34527E-01-1.19126E-08-2.86008E-09
 -1      5262 1.88836E+00 3.78212E-01-1.42101E-08-2.45339E-01 2.21605E-08 3.50974E-09
 -1      5264 1.86107E+00 4.05502E-01 5.38619E-10-1.15270E-01-1.22130E-08-9.61156E-10
 -1      5266 4.83997E-01 1.78258E+00-7.59220E-09-1.02838E-01 2.61417E-10 3.32156E-09
 -1      5267 4.62109E-01 1.80447E+00 8.42958E-09-2.18079E-01-9.83040E-10-6.20684E-09
 -1      5269 5.47555E-01 1.71902E+00-7.59219E-09-2.98446E-01 7.77790E-10 3.23975E-09
 -1      5270 5.62349E-01 1.70423E+00 8.42959E-09-4.14811E-01-1.94191E-09-5.97664E-09
 -1      5272 6.68447E-01 1.59813E+00-7.59215E-09-4.64841E-01 1.27502E-09 3.07814E-09
 -1      5273 7.18477E-01 1.54810E+00 8.42952E-09-5.70939E-01-2.85295E-09-5.59926E-09
 -1      5275 8.34842E-01 1.43173E+00-7.59223E-09-5.85733E-01 1.74089E-09 2.84083E-09
 -1      5276 9.15209E-01 1.35137E+00 8.42958E-09-6.71179E-01-3.69378E-09-5.08410E-09
 -1      5278 1.03045E+00 1.23613E+00-7.59222E-09-6.49291E-01 2.16380E-09 2.53359E-09
 -1      5279 1.13329E+00 1.13329E+00 8.42946E-09-7.05719E-01-4.44362E-09-4.44357E-09
 -1      5281 1.23613E+00 1.03045E+00-7.59223E-09-6.49291E-01 2.53347E-09 2.16383E-09
 -1      5282 1.35137E+00 9.15209E-01 8.42959E-09-6.71179E-01-5.08398E-09-3.69373E-09
 -1      5284 1.43173E+00 8.34842E-01-7.59213E-09-5.85733E-01 2.84092E-09 1.74094E-09
 -1      5285 1.54810E+00 7.18477E-01 8.42984E-09-5.70939E-01-5.59944E-09-2.85301E-09
 -1      5287 1.59813E+00 6.68447E-01-7.59228E-09-4.64841E-01 3.07825E-09 1.27501E-09
 -1      5288 1.70423E+00 5.62349E-01 8.42904E-09-4.14811E-01-5.97643E-09-1.94177E-09
 -1      5290 1.71902E+00 5.47555E-01-7.59217E-09-2.98446E-01 3.23965E-09 7.77778E-10
 -1      5291 1.80447E+00 4.62109E-01 8.42950E-09-2.18079E-01-6.20687E-09-9.83029E-10
 -1      5293 1.78258E+00 4.83997E-01-7.59199E-09-1.02838E-01 3.32158E-09 2.61403E-10
 -1      5295 5.50452E-01 1.71612E+00-3.70202E-09-9.23122E-02-5.86201E-11-7.44802E-10
 -1      5296 5.32760E-01 1.73382E+00 6.75822E-10-1.95123E-01 2.80169E-10 1.76874E-09
 -1      5298 6.07504E-01 1.65907E+00-3.70203E-09-2.67900E-01-1.74437E-10-7.26438E-10
 -1      5299 6.22448E-01 1.64413E+00 6.75954E-10-3.71147E-01 5.53418E-10 1.70326E-09
 -1      5301 7.16023E-01 1.55055E+00-3.70192E-09-4.17265E-01-2.85927E-10-6.90173E-10
 -1      5302 7.62141E-01 1.50443E+00 6.75890E-10-5.10840E-01 8.13066E-10 1.59561E-09
 -1      5304 8.65388E-01 1.40119E+00-3.70200E-09-5.25784E-01-3.90318E-10-6.36978E-10
 -1      5305 9.38165E-01 1.32841E+00 6.75862E-10-6.00528E-01 1.05260E-09 1.44887E-09
 -1      5307 1.04098E+00 1.22560E+00-3.70210E-09-5.82836E-01-4.85115E-10-5.68136E-10
 -1      5308 1.13329E+00 1.13329E+00 6.75865E-10-6.31433E-01 1.26639E-09 1.26631E-09
 -1      5310 1.22560E+00 1.04098E+00-3.70206E-09-5.82836E-01-5.68039E-10-4.85263E-10
 -1      5311 1.32841E+00 9.38165E-01 6.75923E-10-6.00528E-01 1.44892E-09 1.05266E-09
 -1      5313 1.40119E+00 8.65388E-01-3.70177E-09-5.25784E-01-6.36956E-10-3.90292E-10
 -1      5314 1.50443E+00 7.62141E-01 6.76020E-10-5.10840E-01 1.59549E-09 8.13001E-10
 -1      5316 1.55055E+00 7.16023E-01-3.70211E-09-4.17265E-01-6.90155E-10-2.85942E-10
 -1      5317 1.64413E+00 6.22448E-01 6.75583E-10-3.71147E-01 1.70326E-09 5.53493E-10
 -1      5319 1.65907E+00 6.07504E-01-3.70218E-09-2.67900E-01-7.26537E-10-1.74453E-10
 -1      5320 1.73382E+00 5.32760E-01 6.75879E-10-1.95123E-01 1.76877E-09 2.80185E-10
 -1      5322 1.71612E+00 5.50452E-01-3.70177E-09-9.23122E-02-7.44853E-10-5.86356E-11
 -1      5324 6.07207E-01 1.65937E+00-3.88044E-09-8.33231E-02 4.94310E-11 6.28139E-10
 -1      5325 5.92813E-01 1.67376E+00 2.55621E-09-1.75611E-01-1.12509E-10-7.10432E-10
 -1      5327 6.58703E-01 1.60787E+00-3.88049E-09-2.41813E-01 1.47076E-10 6.12644E-10
 -1      5328 6.73532E-01 1.59304E+00 2.55615E-09-3.34032E-01-2.22220E-10-6.84052E-10
 -1      5330 7.56655E-01 1.50992E+00-3.88035E-09-3.76633E-01 2.41097E-10 5.81997E-10
 -1      5331 7.99256E-01 1.46732E+00 2.55624E-09-4.59756E-01-3.26542E-10-6.40970E-10
 -1      5333 8.91475E-01 1.37510E+00-3.88040E-09-4.74585E-01 3.29188E-10 5.37153E-10
 -1      5334 9.57677E-01 1.30890E+00 2.55615E-09-5.40475E-01-4.22791E-10-5.81917E-10
 -1      5336 1.04996E+00 1.21661E+00-3.88056E-09-5.26081E-01 4.09167E-10 4.79143E-10
 -1      5337 1.13329E+00 1.13329E+00 2.55616E-09-5.68289E-01-5.08572E-10-5.08641E-10
 -1      5339 1.21661E+00 1.04996E+00-3.88041E-09-5.26081E-01 4.79047E-10 4.09181E-10
 -1      5340 1.30890E+00 9.57677E-01 2.55638E-09-5.40475E-01-5.81857E-10-4.22785E-10
 -1      5342 1.37510E+00 8.91475E-01-3.88013E-09-4.74585E-01 5.37194E-10 3.29175E-10
 -1      5343 1.46732E+00 7.99256E-01 2.55628E-09-4.59756E-01-6.40970E-10-3.26524E-10
 -1      5345 1.50992E+00 7.56655E-01-3.88063E-09-3.76633E-01 5.82119E-10 2.41094E-10
 -1      5346 1.59304E+00 6.73532E-01 2.55586E-09-3.34032E-01-6.84138E-10-2.22212E-10
 -1      5348 1.60787E+00 6.58703E-01-3.88070E-09-2.41813E-01 6.12626E-10 1.47038E-10
 -1      5349 1.67376E+00 5.92813E-01 2.55612E-09-1.75611E-01-7.10457E-10-1.12484E-10
 -1      5351 1.65937E+00 6.07207E-01-3.88013E-09-8.33231E-02 6.28047E-10 4.94080E-11
 -1      5353 6.56061E-01 1.61052E+00-2.87012E-09-7.55854E-02 1.75224E-11 2.22619E-10
 -1      5354 6.44286E-01 1.62229E+00 1.46283E-09-1.58886E-01-1.41994E-12-9.03409E-12
 -1      5356 7.02775E-01 1.56380E+00-2.87020E-09-2.19357E-01 5.21223E-11 2.17183E-10
 -1      5357 7.17318E-01 1.54926E+00 1.46288E-09-3.02220E-01-2.82255E-12-8.79781E-12
 -1      5359 7.91631E-01 1.47494E+00-2.87011E-09-3.41657E-01 8.54581E-11 2.06383E-10
 -1      5360 8.31068E-01 1.43551E+00 1.46294E-09-4.15970E-01-4.16278E-12-8.19452E-12
 -1      5362 9.13931E-01 1.35265E+00-2.87008E-09-4.30513E-01 1.16700E-10 1.90511E-10
 -1      5363 9.74402E-01 1.29217E+00 1.46275E-09-4.89002E-01-5.46718E-12-7.43584E-12
 -1      5365 1.05770E+00 1.20887E+00-2.87040E-09-4.77227E-01 1.45052E-10 1.69796E-10
 -1      5366 1.13329E+00 1.13329E+00 1.46271E-09-5.14167E-01-6.48048E-12-6.48370E-12
 -1      5368 1.20887E+00 1.05770E+00-2.87020E-09-4.77227E-01 1.69766E-10 1.45001E-10
 -1      5369 1.29217E+00 9.74402E-01 1.46298E-09-4.89002E-01-7.43250E-12-5.41824E-12
 -1      5371 1.35265E+00 9.13931E-01-2.86974E-09-4.30513E-01 1.90356E-10 1.16684E-10
 -1      5372 1.43551E+00 8.31068E-01 1.46293E-09-4.15970E-01-8.31165E-12-4.13257E-12
 -1      5374 1.47494E+00 7.91631E-01-2.87032E-09-3.41657E-01 2.06387E-10 8.54469E-11
 -1      5375 1.54926E+00 7.17318E-01 1.46248E-09-3.02220E-01-8.78506E-12-2.79930E-12
 -1      5377 1.56380E+00 7.02775E-01-2.87055E-09-2.19357E-01 2.17245E-10 5.21175E-11
 -1      5378 1.62229E+00 6.44286E-01 1.46269E-09-1.58886E-01-9.16015E-12-1.40851E-12
 -1      5380 1.61052E+00 6.56061E-01-2.86977E-09-7.55854E-02 2.22516E-10 1.74963E-11
 -1      5382 6.98415E-01 1.56816E+00-2.42293E-09-6.88771E-02 2.23730E-11 2.84391E-10
 -1      5383 6.88741E-01 1.57783E+00 1.37471E-09-1.44442E-01-2.94416E-11-1.85968E-10
 -1      5385 7.40983E-01 1.52559E+00-2.42294E-09-1.99889E-01 6.65690E-11 2.77336E-10
 -1      5386 7.55134E-01 1.51144E+00 1.37476E-09-2.74745E-01-5.81312E-11-1.79066E-10
 -1      5388 8.21953E-01 1.44462E+00-2.42286E-09-3.11335E-01 1.09127E-10 2.63518E-10
 -1      5389 8.58543E-01 1.40803E+00 1.37487E-09-3.78154E-01-8.54560E-11-1.67700E-10
 -1      5391 9.33399E-01 1.33318E+00-2.42277E-09-3.92305E-01 1.49057E-10 2.43207E-10
 -1      5392 9.88846E-01 1.27773E+00 1.37469E-09-4.44547E-01-1.10736E-10-1.52282E-10
 -1      5394 1.06441E+00 1.20217E+00-2.42328E-09-4.34873E-01 1.85282E-10 2.16949E-10
 -1      5395 1.13329E+00 1.13329E+00 1.37467E-09-4.67424E-01-1.33075E-10-1.33199E-10
 -1      5397 1.20217E+00 1.06441E+00-2.42296E-09-4.34873E-01 2.16842E-10 1.85235E-10
 -1      5398 1.27773E+00 9.88846E-01 1.37505E-09-4.44547E-01-1.52283E-10-1.10662E-10
 -1      5400 1.33318E+00 9.33399E-01-2.42237E-09-3.92305E-01 2.43170E-10 1.49034E-10
 -1      5401 1.40803E+00 8.58543E-01 1.37491E-09-3.78154E-01-1.67841E-10-8.54629E-11
 -1      5403 1.44462E+00 8.21953E-01-2.42317E-09-3.11335E-01 2.63630E-10 1.09165E-10
 -1      5404 1.51144E+00 7.55134E-01 1.37432E-09-2.74745E-01-1.79204E-10-5.81178E-11
 -1      5406 1.52559E+00 7.40983E-01-2.42345E-09-1.99889E-01 2.77421E-10 6.65246E-11
 -1      5407 1.57783E+00 6.88741E-01 1.37470E-09-1.44442E-01-1.85968E-10-2.94033E-11
 -1      5409 1.56816E+00 6.98415E-01-2.42241E-09-6.88771E-02 2.84320E-10 2.23625E-11
 -1      5411 7.35373E-01 1.53120E+00-1.95636E-09-6.30236E-02 1.61200E-11 2.04855E-10
 -1      5412 7.27397E-01 1.53918E+00 1.06559E-09-1.31882E-01-1.64396E-11-1.04018E-10
 -1      5414 7.74323E-01 1.49225E+00-1.95648E-09-1.82902E-01 4.79299E-11 1.99790E-10
 -1      5415 7.88017E-01 1.47856E+00 1.06559E-09-2.50854E-01-3.24942E-11-1.00191E-10
 -1      5417 8.48412E-01 1.41816E+00-1.95633E-09-2.84876E-01 7.85818E-11 1.89780E-10
 -1      5418 8.82434E-01 1.38414E+00 1.06580E-09-3.45271E-01-4.78162E-11-9.38560E-11
 -1      5420 9.50386E-01 1.31619E+00-1.95615E-09-3.58965E-01 1.07343E-10 1.75212E-10
 -1      5421 1.00141E+00 1.26517E+00 1.06557E-09-4.05891E-01-6.20052E-11-8.51544E-11
 -1      5423 1.07026E+00 1.19631E+00-1.95681E-09-3.97915E-01 1.33478E-10 1.56256E-10
 -1      5424 1.13329E+00 1.13329E+00 1.06548E-09-4.26779E-01-7.44172E-11-7.44352E-11
 -1      5426 1.19631E+00 1.07026E+00-1.95641E-09-3.97915E-01 1.56207E-10 1.33441E-10
 -1      5427 1.26517E+00 1.00141E+00 1.06594E-09-4.05891E-01-8.51016E-11-6.19155E-11
 -1      5429 1.31619E+00 9.50386E-01-1.95566E-09-3.58965E-01 1.75086E-10 1.07364E-10
 -1      5430 1.38414E+00 8.82434E-01 1.06583E-09-3.45271E-01-9.38974E-11-4.77634E-11
 -1      5432 1.41816E+00 8.48412E-01-1.95668E-09-2.84876E-01 1.89912E-10 7.85810E-11
 -1      5433 1.47856E+00 7.88017E-01 1.06513E-09-2.50854E-01-1.00333E-10-3.24629E-11
 -1      5435 1.49225E+00 7.74323E-01-1.95715E-09-1.82902E-01 1.99885E-10 4.79179E-11
 -1      5436 1.53918E+00 7.27397E-01 1.06554E-09-1.31882E-01-1.04039E-10-1.64056E-11
 -1      5438 1.53120E+00 7.35373E-01-1.95570E-09-6.30236E-02 2.04705E-10 1.60859E-11
 -1      5440 7.67813E-01 1.49876E+00-1.62275E-09-5.78856E-02 1.34867E-11 1.71610E-10
 -1      5441 7.61222E-01 1.50535E+00 8.93017E-10-1.20892E-01-1.53404E-11-9.69302E-11
 -1      5443 8.03588E-01 1.46299E+00-1.62285E-09-1.67990E-01 4.01602E-11 1.67371E-10
 -1      5444 8.16789E-01 1.44979E+00 8.93088E-10-2.29950E-01-3.02653E-11-9.34709E-11
 -1      5446 8.71637E-01 1.39494E+00-1.62275E-09-2.61651E-01 6.58299E-11 1.58955E-10
 -1      5447 9.03338E-01 1.36324E+00 8.93219E-10-3.16499E-01-4.45548E-11-8.75488E-11
 -1      5449 9.65298E-01 1.30128E+00-1.62238E-09-3.29700E-01 8.99099E-11 1.46655E-10
 -1      5450 1.01240E+00 1.25418E+00 8.92965E-10-3.72066E-01-5.78414E-11-7.94626E-11
 -1      5452 1.07540E+00 1.19117E+00-1.62343E-09-3.65475E-01 1.11849E-10 1.30843E-10
 -1      5453 1.13329E+00 1.13329E+00 8.92788E-10-3.91214E-01-6.93714E-11-6.94420E-11
 -1      5455 1.19117E+00 1.07540E+00-1.62285E-09-3.65475E-01 1.30781E-10 1.11807E-10
 -1      5456 1.25418E+00 1.01240E+00 8.93379E-10-3.72066E-01-7.93283E-11-5.77362E-11
 -1      5458 1.30128E+00 9.65298E-01-1.62183E-09-3.29700E-01 1.46659E-10 8.99198E-11
 -1      5459 1.36324E+00 9.03338E-01 8.93196E-10-3.16499E-01-8.75425E-11-4.45161E-11
 -1      5461 1.39494E+00 8.71637E-01-1.62322E-09-2.61651E-01 1.59108E-10 6.58221E-11
 -1      5462 1.44979E+00 8.16789E-01 8.92458E-10-2.29950E-01-9.36074E-11-3.02093E-11
 -1      5464 1.46299E+00 8.03588E-01-1.62381E-09-1.67990E-01 1.67446E-10 4.01021E-11
 -1      5465 1.50535E+00 7.61222E-01 8.92959E-10-1.20892E-01-9.69963E-11-1.52865E-11
 -1      5467 1.49876E+00 7.67813E-01-1.62187E-09-5.78856E-02 1.71601E-10 1.34733E-11
 -1      5469 7.96443E-01 1.47013E+00-1.34812E-09-5.33510E-02 1.05783E-11 1.34085E-10
 -1      5470 7.90987E-01 1.47559E+00 7.35021E-10-1.11220E-01-1.16403E-11-7.36106E-11
 -1      5472 8.29416E-01 1.43716E+00-1.34822E-09-1.54831E-01 3.13803E-11 1.30768E-10
 -1      5473 8.42109E-01 1.42447E+00 7.34852E-10-2.11554E-01-2.29908E-11-7.10417E-11
 -1      5475 8.92134E-01 1.37444E+00-1.34820E-09-2.41154E-01 5.14072E-11 1.24244E-10
 -1      5476 9.21734E-01 1.34484E+00 7.35214E-10-2.91179E-01-3.38437E-11-6.65816E-11
 -1      5478 9.78457E-01 1.28812E+00-1.34757E-09-3.03872E-01 7.02389E-11 1.14583E-10
 -1      5479 1.02207E+00 1.24451E+00 7.34910E-10-3.42301E-01-4.39636E-11-6.03203E-11
 -1      5481 1.07994E+00 1.18664E+00-1.34908E-09-3.36845E-01 8.73555E-11 1.02239E-10
 -1      5482 1.13329E+00 1.13329E+00 7.34795E-10-3.59917E-01-5.28035E-11-5.28078E-11
 -1      5484 1.18664E+00 1.07994E+00-1.34825E-09-3.36845E-01 1.02265E-10 8.74559E-11
 -1      5485 1.24451E+00 1.02207E+00 7.35379E-10-3.42301E-01-6.01855E-11-4.39486E-11
 -1      5487 1.28812E+00 9.78457E-01-1.34688E-09-3.03872E-01 1.14575E-10 7.03042E-11
 -1      5488 1.34484E+00 9.21734E-01 7.35320E-10-2.91179E-01-6.65533E-11-3.37701E-11
 -1      5490 1.37444E+00 8.92134E-01-1.34871E-09-2.41154E-01 1.24178E-10 5.13239E-11
 -1      5491 1.42447E+00 8.42109E-01 7.34342E-10-2.11554E-01-7.12297E-11-2.29041E-11
 -1      5493 1.43716E+00 8.29416E-01-1.34938E-09-1.54831E-01 1.30901E-10 3.12868E-11
 -1      5494 1.47559E+00 7.90987E-01 7.34859E-10-1.11220E-01-7.37129E-11-1.15915E-11
 -1      5496 1.47013E+00 7.96443E-01-1.34683E-09-5.33510E-02 1.34185E-10 1.05323E-11
 -1      5498 8.21837E-01 1.44474E+00-1.13150E-09-4.93290E-02 8.39780E-12 1.06740E-10
 -1      5499 8.17318E-01 1.44926E+00 6.16382E-10-1.02665E-01-9.31977E-12-5.88940E-11
 -1      5501 8.52324E-01 1.41425E+00-1.13172E-09-1.43158E-01 2.49903E-11 1.04082E-10
 -1      5502 8.64508E-01 1.40207E+00 6.16493E-10-1.95280E-01-1.83278E-11-5.67725E-11
 -1      5504 9.10314E-01 1.35626E+00-1.13183E-09-2.22974E-01 4.08842E-11 9.89235E-11
 -1      5505 9.38008E-01 1.32857E+00 6.16799E-10-2.68780E-01-2.70113E-11-5.31972E-11
 -1      5507 9.90130E-01 1.27645E+00-1.13087E-09-2.80964E-01 5.58549E-11 9.10612E-11
 -1      5508 1.03062E+00 1.23595E+00 6.16539E-10-3.15970E-01-3.52779E-11-4.82570E-11
 -1      5510 1.08396E+00 1.18262E+00-1.13294E-09-3.11451E-01 6.95953E-11 8.11301E-11
 -1      5511 1.13329E+00 1.13329E+00 6.16231E-10-3.32231E-01-4.21409E-11-4.21632E-11
 -1      5513 1.18262E+00 1.08396E+00-1.13175E-09-3.11451E-01 8.13888E-11 6.96785E-11
 -1      5514 1.23595E+00 1.03062E+00 6.16868E-10-3.15970E-01-4.80518E-11-3.51702E-11
 -1      5516 1.27645E+00 9.90130E-01-1.12984E-09-2.80964E-01 9.12491E-11 5.60747E-11
 -1      5517 1.32857E+00 9.38008E-01 6.16862E-10-2.68780E-01-5.31737E-11-2.69845E-11
 -1      5519 1.35626E+00 9.10314E-01-1.13252E-09-2.22974E-01 9.86827E-11 4.07589E-11
 -1      5520 1.40207E+00 8.64508E-01 6.15868E-10-1.95280E-01-5.70166E-11-1.82120E-11
 -1      5522 1.41425E+00 8.52324E-01-1.13355E-09-1.43158E-01 1.04091E-10 2.47749E-11
 -1      5523 1.44926E+00 8.17318E-01 6.16349E-10-1.02665E-01-5.88957E-11-9.23374E-12
 -1      5525 1.44474E+00 8.21837E-01-1.12965E-09-4.93290E-02 1.07376E-10 8.41307E-12
 -1      5527 8.44465E-01 1.42211E+00-9.62719E-10-4.57451E-02 6.12080E-12 7.74990E-11
 -1      5528 8.40723E-01 1.42585E+00 5.17847E-10-9.50601E-02-7.46899E-12-4.71832E-11
 -1      5530 8.72737E-01 1.39384E+00-9.62923E-10-1.32758E-01 1.81458E-11 7.56505E-11
 -1      5531 8.84417E-01 1.38216E+00 5.17778E-10-1.80815E-01-1.45415E-11-4.52757E-11
 -1      5533 9.26513E-01 1.34006E+00-9.63039E-10-2.06775E-01 2.96521E-11 7.20354E-11
 -1      5534 9.52473E-01 1.31410E+00 5.18145E-10-2.48871E-01-2.15524E-11-4.25587E-11
 -1      5536 1.00053E+00 1.26605E+00-9.61928E-10-2.60551E-01 4.04517E-11 6.60190E-11
 -1      5537 1.03823E+00 1.22835E+00 5.17986E-10-2.92565E-01-2.82155E-11-3.84360E-11
 -1      5539 1.08754E+00 1.17903E+00-9.64664E-10-2.88823E-01 5.03725E-11 5.86635E-11
 -1      5540 1.13329E+00 1.13329E+00 5.17780E-10-3.07621E-01-3.34365E-11-3.34921E-11
 -1      5542 1.17903E+00 1.08754E+00-9.62823E-10-2.88823E-01 5.93308E-11 5.09221E-11
 -1      5543 1.22835E+00 1.03823E+00 5.17972E-10-2.92565E-01-3.85784E-11-2.83778E-11
 -1      5545 1.26605E+00 1.00053E+00-9.60327E-10-2.60551E-01 6.66909E-11 4.10092E-11
 -1      5546 1.31410E+00 9.52473E-01 5.18319E-10-2.48871E-01-4.25242E-11-2.15237E-11
 -1      5548 1.34006E+00 9.26513E-01-9.64229E-10-2.06775E-01 7.10925E-11 2.93343E-11
 -1      5549 1.38216E+00 8.84417E-01 5.17511E-10-1.80815E-01-4.53840E-11-1.43559E-11
 -1      5551 1.39384E+00 8.72737E-01-9.65454E-10-1.32758E-01 7.51133E-11 1.77661E-11
 -1      5552 1.42585E+00 8.40723E-01 5.17657E-10-9.50601E-02-4.70529E-11-7.37785E-12
 -1      5554 1.42211E+00 8.44465E-01-9.59763E-10-4.57451E-02 7.92789E-11 6.20927E-12
 -1      5556 8.64713E-01 1.40186E+00-8.17020E-10-4.25380E-02 4.98222E-12 6.31605E-11
 -1      5557 8.61620E-01 1.40496E+00 4.48444E-10-8.82701E-02-4.69417E-12-2.95600E-11
 -1      5559 8.91003E-01 1.37557E+00-8.17373E-10-1.23450E-01 1.47874E-11 6.15805E-11
 -1      5560 9.02194E-01 1.36438E+00 4.48327E-10-1.67900E-01-8.99210E-12-2.83246E-11
 -1      5562 9.41010E-01 1.32557E+00-8.17337E-10-1.92278E-01 2.40810E-11 5.86561E-11
 -1      5563 9.65388E-01 1.30119E+00 4.48778E-10-2.31094E-01-1.34029E-11-2.66094E-11
 -1      5565 1.00984E+00 1.25674E+00-8.16319E-10-2.42285E-01 3.26431E-11 5.33475E-11
 -1      5566 1.04502E+00 1.22156E+00 4.48625E-10-2.71668E-01-1.77950E-11-2.38626E-11
 -1      5568 1.09075E+00 1.17583E+00-8.20335E-10-2.68574E-01 4.03514E-11 4.67794E-11
 -1      5569 1.13329E+00 1.13329E+00 4.48445E-10-2.85648E-01-2.06610E-11-2.05959E-11
 -1      5571 1.17583E+00 1.09075E+00-8.16847E-10-2.68574E-01 4.86206E-11 4.18396E-11
 -1      5572 1.22156E+00 1.04502E+00 4.48097E-10-2.71668E-01-2.44440E-11-1.83726E-11
 -1      5574 1.25674E+00 1.00984E+00-8.13048E-10-2.42285E-01 5.52702E-11 3.41014E-11
 -1      5575 1.30119E+00 9.65388E-01 4.48946E-10-2.31094E-01-2.65849E-11-1.34086E-11
 -1      5577 1.32557E+00 9.41010E-01-8.20145E-10-1.92278E-01 5.63849E-11 2.32742E-11
 -1      5578 1.36438E+00 9.02194E-01 4.48548E-10-1.67900E-01-2.79537E-11-8.56221E-12
 -1      5580 1.37557E+00 8.91003E-01-8.21723E-10-1.23450E-01 5.97666E-11 1.38981E-11
 -1      5581 1.40496E+00 8.61620E-01 4.48177E-10-8.82701E-02-2.94546E-11-4.61189E-12
 -1      5583 1.40186E+00 8.64713E-01-8.11055E-10-4.25380E-02 6.73522E-11 5.21500E-12
 -1      5585 8.82906E-01 1.38367E+00-7.51685E-10-3.96567E-02-8.37051E-13-1.10558E-11
 -1      5586 8.80356E-01 1.38622E+00 3.68512E-10-8.21825E-02-5.64713E-12-3.54523E-11
 -1      5588 9.07415E-01 1.35916E+00-7.52154E-10-1.15088E-01-2.59028E-12-1.07889E-11
 -1      5589 9.18131E-01 1.34844E+00 3.68451E-10-1.56320E-01-1.08377E-11-3.40561E-11
 -1      5591 9.54034E-01 1.31254E+00-7.51767E-10-1.79254E-01-4.36076E-12-9.95083E-12
 -1      5592 9.76968E-01 1.28961E+00 3.68728E-10-2.15157E-01-1.60126E-11-3.20349E-11
 -1      5594 1.01820E+00 1.24838E+00-7.51706E-10-2.25873E-01-6.68217E-12-1.07553E-11
 -1      5595 1.05111E+00 1.21547E+00 3.69306E-10-2.52932E-01-2.12716E-11-2.83436E-11
 -1      5597 1.09363E+00 1.17294E+00-7.56447E-10-2.50382E-01-9.21370E-12-1.16380E-11
 -1      5598 1.13329E+00 1.13329E+00 3.70131E-10-2.65948E-01-2.42245E-11-2.41464E-11
 -1      5600 1.17294E+00 1.09363E+00-7.50988E-10-2.50382E-01-7.29215E-12-5.72387E-12
 -1      5601 1.21547E+00 1.05111E+00 3.66112E-10-2.52932E-01-3.04752E-11-2.29260E-11
 -1      5603 1.24838E+00 1.01820E+00-7.46282E-10-2.25873E-01-6.12402E-12-3.46698E-12
 -1      5604 1.28961E+00 9.76968E-01 3.68872E-10-2.15157E-01-3.18271E-11-1.60306E-11
 -1      5606 1.31254E+00 9.54034E-01-7.56835E-10-1.79254E-01-1.52035E-11-6.27290E-12
 -1      5607 1.34844E+00 9.18131E-01 3.71254E-10-1.56320E-01-3.20459E-11-9.72961E-12
 -1      5609 1.35916E+00 9.07415E-01-7.58490E-10-1.15088E-01-1.55234E-11-4.38639E-12
 -1      5610 1.38622E+00 8.80356E-01 3.68541E-10-8.21825E-02-3.53151E-11-5.46774E-12
 -1      5612 1.38367E+00 8.82906E-01-7.42582E-10-3.96567E-02-1.33352E-12-1.29176E-13
 -1      5614 8.99310E-01 1.36727E+00-5.86610E-10-3.70584E-02 5.64834E-12 7.15343E-11
 -1      5615 8.97218E-01 1.36936E+00 3.97701E-10-7.67037E-02 7.92790E-12 5.04500E-11
 -1      5617 9.22214E-01 1.34436E+00-5.87199E-10-1.07548E-01 1.68077E-11 6.98411E-11
 -1      5618 9.32475E-01 1.33410E+00 3.97779E-10-1.45899E-01 1.60421E-11 4.85885E-11
 -1      5620 9.65779E-01 1.30080E+00-5.85564E-10-1.67509E-01 2.74385E-11 6.68319E-11
 -1      5621 9.87389E-01 1.27919E+00 3.97926E-10-2.00813E-01 2.36718E-11 4.54059E-11
 -1      5623 1.02574E+00 1.24084E+00-5.89305E-10-2.11074E-01 3.55602E-11 5.88290E-11
 -1      5624 1.05658E+00 1.20999E+00 3.98626E-10-2.36070E-01 3.01292E-11 4.26988E-11
 -1      5626 1.09623E+00 1.17035E+00-5.98203E-10-2.33978E-01 4.12946E-11 4.69786E-11
 -1      5627 1.13329E+00 1.13329E+00 4.00154E-10-2.48218E-01 3.87519E-11 3.86715E-11
 -1      5629 1.17035E+00 1.09623E+00-5.82043E-10-2.33978E-01 5.77156E-11 4.94173E-11
 -1      5630 1.20999E+00 1.05658E+00 3.94251E-10-2.36070E-01 3.75085E-11 2.61191E-11
 -1      5632 1.24084E+00 1.02574E+00-5.72524E-10-2.11074E-01 6.98326E-11 4.32431E-11
 -1      5633 1.27919E+00 9.87389E-01 3.98168E-10-2.00813E-01 4.57022E-11 2.34951E-11
 -1      5635 1.30080E+00 9.65779E-01-6.01323E-10-1.67509E-01 5.42506E-11 2.31616E-11
 -1      5636 1.33410E+00 9.32475E-01 4.01702E-10-1.45899E-01 5.39461E-11 1.83243E-11
 -1      5638 1.34436E+00 9.22214E-01-6.02854E-10-1.07548E-01 5.78261E-11 1.22151E-11
 -1      5639 1.36936E+00 8.97218E-01 3.97813E-10-7.67037E-02 5.06217E-11 8.06018E-12
 -1      5641 1.36727E+00 8.99310E-01-5.59193E-10-3.70584E-02 9.43801E-11 6.83251E-12
 -1      5643 9.14155E-01 1.35242E+00-9.17438E-10-3.47073E-02-3.93728E-11-4.99796E-10
 -1      5644 9.12449E-01 1.35413E+00 1.59093E-10-7.17551E-02-2.30746E-11-1.44836E-10
 -1      5646 9.35605E-01 1.33097E+00-9.17565E-10-1.00725E-01-1.16844E-10-4.87529E-10
 -1      5647 9.45431E-01 1.32115E+00 1.60036E-10-1.36486E-01-4.51280E-11-1.39275E-10
 -1      5649 9.76406E-01 1.29017E+00-9.14948E-10-1.56882E-01-1.91684E-10-4.62325E-10
 -1      5650 9.96802E-01 1.26977E+00 1.58186E-10-1.87857E-01-6.59043E-11-1.30976E-10
 -1      5652 1.03256E+00 1.23401E+00-9.23932E-10-1.97683E-01-2.65360E-10-4.31721E-10
 -1      5653 1.06153E+00 1.20504E+00 1.63610E-10-2.20839E-01-8.47806E-11-1.14859E-10
 -1      5655 1.09858E+00 1.16800E+00-9.29102E-10-2.19133E-01-3.37266E-10-3.97289E-10
 -1      5656 1.13329E+00 1.13329E+00 1.73182E-10-2.32204E-01-9.69258E-11-9.60958E-11
 -1      5658 1.16800E+00 1.09858E+00-9.11575E-10-2.19133E-01-3.75756E-10-3.18855E-10
 -1      5659 1.20504E+00 1.06153E+00 1.39064E-10-2.20839E-01-1.30475E-10-9.58807E-11
 -1      5661 1.23401E+00 1.03256E+00-9.05567E-10-1.97683E-01-4.08171E-10-2.50287E-10
 -1      5662 1.26977E+00 9.96802E-01 1.58165E-10-1.87857E-01-1.30018E-10-6.65669E-11
 -1      5664 1.29017E+00 9.76406E-01-9.35671E-10-1.56882E-01-4.88067E-10-2.01228E-10
 -1      5665 1.32115E+00 9.45431E-01 1.82995E-10-1.36486E-01-1.22752E-10-3.86846E-11
 -1      5667 1.33097E+00 9.35605E-01-9.34496E-10-1.00725E-01-5.13871E-10-1.24585E-10
 -1      5668 1.35413E+00 9.12449E-01 1.60727E-10-7.17551E-02-1.44297E-10-2.17103E-11
 -1      5670 1.35242E+00 9.14155E-01-8.89063E-10-3.47073E-02-4.52336E-10-3.44741E-11
 -1      5672 9.27630E-01 1.33895E+00-8.79150E-11-3.25731E-02 6.34519E-11 8.09885E-10
 -1      5673 9.26251E-01 1.34032E+00 8.89503E-10-6.72704E-02 1.10350E-10 6.97589E-10
 -1      5675 9.47761E-01 1.31881E+00-8.67936E-11-9.45307E-02 1.89722E-10 7.89501E-10
 -1      5676 9.57172E-01 1.30940E+00 8.91471E-10-1.27956E-01 2.18721E-10 6.72179E-10
 -1      5678 9.86053E-01 1.28052E+00-7.94379E-11-1.47235E-01 3.11078E-10 7.52754E-10
 -1      5679 1.00533E+00 1.26124E+00 8.88966E-10-1.76116E-01 3.22551E-10 6.28493E-10
 -1      5681 1.03876E+00 1.22782E+00-1.11096E-10-1.85527E-01 4.16104E-10 6.84951E-10
 -1      5682 1.06602E+00 1.20056E+00 8.90781E-10-2.07037E-01 4.18156E-10 5.77842E-10
 -1      5684 1.10071E+00 1.16586E+00-1.50535E-10-2.05658E-01 4.96288E-10 5.75302E-10
 -1      5685 1.13329E+00 1.13329E+00 8.98625E-10-2.17692E-01 5.12043E-10 5.11859E-10
 -1      5687 1.16586E+00 1.10071E+00-5.23784E-11-2.05658E-01 6.34937E-10 5.40002E-10
 -1      5688 1.20056E+00 1.06602E+00 8.80639E-10-2.07037E-01 5.50681E-10 3.97055E-10
 -1      5690 1.22782E+00 1.03876E+00-9.92420E-12-1.85527E-01 7.44616E-10 4.57608E-10
 -1      5691 1.26124E+00 1.00533E+00 8.88987E-10-1.76116E-01 6.30302E-10 3.20371E-10
 -1      5693 1.28052E+00 9.86053E-01-1.75037E-10-1.47235E-01 6.85410E-10 2.89104E-10
 -1      5694 1.30940E+00 9.57172E-01 9.01846E-10-1.27956E-01 7.01796E-10 2.29113E-10
 -1      5696 1.31881E+00 9.47761E-01-1.73095E-10-9.45307E-02 7.19799E-10 1.63610E-10
 -1      5697 1.34032E+00 9.26251E-01 8.91676E-10-6.72704E-02 6.98065E-10 1.10690E-10
 -1      5699 1.33895E+00 9.27630E-01 7.99943E-11-3.25731E-02 9.33131E-10 6.87543E-11
 -1      5701 9.39899E-01 1.32668E+00-3.28301E-09-3.06297E-02-3.68296E-10-4.68358E-09
 -1      5702 9.38799E-01 1.32778E+00-1.18686E-09-6.31934E-02-2.75939E-10-1.73454E-09
 -1      5704 9.58830E-01 1.30775E+00-3.27609E-09-8.88910E-02-1.09437E-09-4.57029E-09
 -1      5705 9.67846E-01 1.29873E+00-1.18002E-09-1.20201E-01-5.43048E-10-1.66704E-09
 -1      5707 9.94837E-01 1.27174E+00-3.27528E-09-1.38451E-01-1.79556E-09-4.33811E-09
 -1      5708 1.01309E+00 1.25349E+00-1.19982E-09-1.65442E-01-7.96800E-10-1.56830E-09
 -1      5710 1.04440E+00 1.22218E+00-3.30836E-09-1.74458E-01-2.46311E-09-4.02167E-09
 -1      5711 1.07009E+00 1.19648E+00-1.15370E-09-1.94489E-01-1.01971E-09-1.39679E-09
 -1      5713 1.10266E+00 1.16392E+00-3.28596E-09-1.93389E-01-3.10760E-09-3.65041E-09
 -1      5714 1.13329E+00 1.13329E+00-1.07652E-09-2.04498E-01-1.19696E-09-1.18792E-09
 -1      5716 1.16392E+00 1.10266E+00-3.26803E-09-1.93389E-01-3.55677E-09-3.01611E-09
 -1      5717 1.19648E+00 1.07009E+00-1.34705E-09-1.94489E-01-1.50271E-09-1.09108E-09
 -1      5719 1.22218E+00 1.04440E+00-3.29326E-09-1.74458E-01-3.90816E-09-2.40336E-09
 -1      5720 1.25349E+00 1.01309E+00-1.20083E-09-1.65442E-01-1.56293E-09-8.00545E-10
 -1      5722 1.27174E+00 9.94837E-01-3.31552E-09-1.38451E-01-4.45224E-09-1.84830E-09
 -1      5723 1.29873E+00 9.67846E-01-9.96188E-10-1.20201E-01-1.55216E-09-4.99881E-10
 -1      5725 1.30775E+00 9.58830E-01-3.29587E-09-8.88910E-02-4.70216E-09-1.11974E-09
 -1      5726 1.32778E+00 9.38799E-01-1.17283E-09-6.31934E-02-1.72902E-09-2.63644E-10
 -1      5728 1.32668E+00 9.39899E-01-3.26572E-09-3.06298E-02-4.46894E-09-3.30343E-10
 -1      5730 9.51103E-01 1.31547E+00 3.11326E-09-2.88553E-02 7.63391E-10 9.74350E-09
 -1      5731 9.50239E-01 1.31634E+00 5.79147E-09-5.94761E-02 1.12737E-09 7.10624E-09
 -1      5733 9.68937E-01 1.29764E+00 3.12104E-09-8.37412E-02 2.27459E-09 9.49963E-09
 -1      5734 9.77577E-01 1.28900E+00 5.79706E-09-1.13130E-01 2.22938E-09 6.84286E-09
 -1      5736 1.00286E+00 1.26372E+00 3.14259E-09-1.30430E-01 3.73669E-09 9.04994E-09
 -1      5737 1.02016E+00 1.24642E+00 5.79082E-09-1.55711E-01 3.27432E-09 6.39905E-09
 -1      5739 1.04955E+00 1.21703E+00 2.95596E-09-1.64351E-01 5.05275E-09 8.29623E-09
 -1      5740 1.07381E+00 1.19276E+00 5.77637E-09-1.83049E-01 4.24289E-09 5.84078E-09
 -1      5742 1.10443E+00 1.16214E+00 2.61467E-09-1.82185E-01 6.12479E-09 7.16046E-09
 -1      5743 1.13329E+00 1.13329E+00 5.76345E-09-1.92469E-01 5.14125E-09 5.12269E-09
 -1      5745 1.16214E+00 1.10443E+00 3.36191E-09-1.82185E-01 7.55687E-09 6.41272E-09
 -1      5746 1.19276E+00 1.07381E+00 5.86562E-09-1.83049E-01 5.74178E-09 4.14868E-09
 -1      5748 1.21703E+00 1.04955E+00 3.70909E-09-1.64351E-01 8.68284E-09 5.34875E-09
 -1      5749 1.24642E+00 1.02016E+00 5.78941E-09-1.55711E-01 6.39919E-09 3.26145E-09
 -1      5751 1.26372E+00 1.00286E+00 2.44508E-09-1.30430E-01 8.60529E-09 3.60613E-09
 -1      5752 1.28900E+00 9.77577E-01 5.72128E-09-1.13130E-01 6.95587E-09 2.25982E-09
 -1      5754 1.29764E+00 9.68937E-01 2.45058E-09-8.37412E-02 9.03601E-09 2.09693E-09
 -1      5755 1.31634E+00 9.50239E-01 5.79097E-09-5.94761E-02 7.10180E-09 1.10884E-09
 -1      5757 1.31547E+00 9.51103E-01 4.40282E-09-2.88553E-02 1.05590E-08 7.67362E-10
 -1      5759 9.61361E-01 1.30522E+00-1.96053E-08-2.72306E-02-3.17484E-09-4.04265E-08
 -1      5760 9.60699E-01 1.30588E+00-1.28867E-08-5.60774E-02-3.04483E-09-1.91651E-08
 -1      5762 9.78190E-01 1.28839E+00-1.95581E-08-7.90264E-02-9.44070E-09-3.94414E-08
 -1      5763 9.86475E-01 1.28010E+00-1.28634E-08-1.06666E-01-6.01530E-09-1.84326E-08
 -1      5765 1.01020E+00 1.25637E+00-1.96326E-08-1.23086E-01-1.54657E-08-3.74646E-08
 -1      5766 1.02662E+00 1.23995E+00-1.30344E-08-1.46813E-01-8.84850E-09-1.73135E-08
 -1      5768 1.05426E+00 1.21231E+00-1.96094E-08-1.55098E-01-2.11786E-08-3.46765E-08
 -1      5769 1.07721E+00 1.18937E+00-1.25889E-08-1.72589E-01-1.12961E-08-1.55207E-08
 -1      5771 1.10606E+00 1.16052E+00-1.90289E-08-1.71927E-01-2.65749E-08-3.11449E-08
 -1      5772 1.13329E+00 1.13329E+00-1.19244E-08-1.81470E-01-1.33869E-08-1.32795E-08
 -1      5774 1.16052E+00 1.10606E+00-1.97214E-08-1.71927E-01-3.07754E-08-2.61905E-08
 -1      5775 1.18937E+00 1.07721E+00-1.44042E-08-1.72589E-01-1.63626E-08-1.18114E-08
 -1      5777 1.21231E+00 1.05426E+00-2.03364E-08-1.55098E-01-3.41575E-08-2.10375E-08
 -1      5778 1.23995E+00 1.02662E+00-1.30419E-08-1.46813E-01-1.72753E-08-8.83276E-09
 -1      5780 1.25637E+00 1.01020E+00-1.90850E-08-1.23086E-01-3.79171E-08-1.57824E-08
 -1      5781 1.28010E+00 9.86475E-01-1.11456E-08-1.06666E-01-1.75019E-08-5.66250E-09
 -1      5783 1.28839E+00 9.78190E-01-1.88916E-08-7.90264E-02-4.00224E-08-9.45859E-09
 -1      5784 1.30588E+00 9.60699E-01-1.27665E-08-5.60775E-02-1.90786E-08-2.90953E-09
 -1      5786 1.30522E+00 9.61361E-01-2.08100E-08-2.72306E-02-3.95846E-08-2.94694E-09
 -1      5788 9.70776E-01 1.29580E+00 1.19967E-08-2.57393E-02 6.34543E-09 8.10946E-08
 -1      5789 9.70287E-01 1.29629E+00 4.47249E-08-5.29623E-02 1.07454E-08 6.75876E-08
 -1      5791 9.86684E-01 1.27989E+00 1.19485E-08-7.46984E-02 1.89002E-08 7.90698E-08
 -1      5792 9.94631E-01 1.27194E+00 4.46894E-08-1.00740E-01 2.11833E-08 6.50578E-08
 -1      5794 1.01694E+00 1.24963E+00 1.20585E-08-1.16345E-01 3.11357E-08 7.53287E-08
 -1      5795 1.03255E+00 1.23403E+00 4.49113E-08-1.38657E-01 3.12025E-08 6.10032E-08
 -1      5797 1.05859E+00 1.20799E+00 1.05931E-08-1.46604E-01 4.18030E-08 6.89785E-08
 -1      5798 1.08033E+00 1.18625E+00 4.46493E-08-1.63001E-01 4.03696E-08 5.52330E-08
 -1      5800 1.10755E+00 1.15903E+00 7.28072E-09-1.62512E-01 5.04769E-08 5.94854E-08
 -1      5801 1.13329E+00 1.13329E+00 4.38073E-08-1.71389E-01 4.83219E-08 4.80898E-08
 -1      5803 1.15903E+00 1.10755E+00 1.40239E-08-1.62512E-01 6.33605E-08 5.30774E-08
 -1      5804 1.18625E+00 1.08033E+00 4.64794E-08-1.63001E-01 5.55982E-08 4.02362E-08
 -1      5806 1.20799E+00 1.05859E+00 1.72755E-08-1.46604E-01 7.23872E-08 4.50804E-08
 -1      5807 1.23403E+00 1.03255E+00 4.49431E-08-1.38657E-01 6.10391E-08 3.08719E-08
 -1      5809 1.24963E+00 1.01694E+00 5.61388E-09-1.16345E-01 7.09002E-08 3.03450E-08
 -1      5810 1.27194E+00 9.94631E-01 4.30899E-08-1.00740E-01 6.46699E-08 2.08262E-08
 -1      5812 1.27989E+00 9.86684E-01 5.68493E-09-7.46984E-02 7.48078E-08 1.70632E-08
 -1      5813 1.29629E+00 9.70287E-01 4.45261E-08-5.29623E-02 6.73184E-08 1.06205E-08
 -1      5815 1.29580E+00 9.70776E-01 2.38499E-08-2.57393E-02 8.89595E-08 5.70390E-09
 -1      5817 9.79437E-01 1.28714E+00-1.12218E-07-2.43677E-02-2.17864E-08-2.77286E-07
 -1      5818 9.79101E-01 1.28748E+00-8.90365E-08-5.00985E-02-2.74287E-08-1.72862E-07
 -1      5820 9.94497E-01 1.27208E+00-1.12194E-07-7.07177E-02-6.47279E-08-2.70447E-07
 -1      5821 1.00213E+00 1.26445E+00-8.90055E-08-9.52931E-02-5.43427E-08-1.66236E-07
 -1      5823 1.02314E+00 1.24343E+00-1.13222E-07-1.10145E-01-1.05908E-07-2.56976E-07
 -1      5824 1.03799E+00 1.22858E+00-9.05380E-08-1.31160E-01-7.97613E-08-1.56165E-07
 -1      5826 1.06257E+00 1.20401E+00-1.11994E-07-1.38791E-01-1.45339E-07-2.37366E-07
 -1      5827 1.08319E+00 1.18339E+00-8.66521E-08-1.54187E-01-1.01983E-07-1.40814E-07
 -1      5829 1.10892E+00 1.15766E+00-1.05350E-07-1.53851E-01-1.81132E-07-2.12200E-07
 -1      5830 1.13329E+00 1.13329E+00-8.00696E-08-1.62122E-01-1.21702E-07-1.19318E-07
 -1      5832 1.15766E+00 1.10892E+00-1.15572E-07-1.53851E-01-2.10020E-07-1.81597E-07
 -1      5833 1.18339E+00 1.08319E+00-1.04436E-07-1.54187E-01-1.48171E-07-1.05582E-07
 -1      5835 1.20401E+00 1.06257E+00-1.22423E-07-1.38791E-01-2.35984E-07-1.44961E-07
 -1      5836 1.22858E+00 1.03799E+00-9.08200E-08-1.31160E-01-1.55245E-07-8.00798E-08
 -1      5838 1.24343E+00 1.02314E+00-1.03996E-07-1.10145E-01-2.58246E-07-1.06438E-07
 -1      5839 1.26445E+00 1.00213E+00-7.27920E-08-9.52931E-02-1.58489E-07-5.11167E-08
 -1      5841 1.27208E+00 9.94497E-01-1.01535E-07-7.07177E-02-2.71669E-07-6.59040E-08
 -1      5842 1.28748E+00 9.79101E-01-8.74363E-08-5.00985E-02-1.71576E-07-2.42447E-08
 -1      5844 1.28714E+00 9.79437E-01-1.28141E-07-2.43677E-02-2.75270E-07-2.28838E-08
 -1      5846 9.87431E-01 1.27914E+00-4.59388E-07-2.31011E-02 3.02605E-10 2.97627E-09
 -1      5847 9.87205E-01 1.27937E+00 2.82080E-07-4.74653E-02 8.48330E-08 5.38599E-07
 -1      5849 1.00171E+00 1.26486E+00-4.60798E-07-6.70419E-02 7.05270E-10 2.54549E-09
 -1      5850 1.00902E+00 1.25755E+00 2.81284E-07-9.02843E-02 1.67811E-07 5.19328E-07
 -1      5852 1.02887E+00 1.23771E+00-4.58012E-07-1.04420E-01 2.94589E-09 5.92423E-09
 -1      5853 1.04300E+00 1.22357E+00 2.86085E-07-1.24266E-01 2.49638E-07 4.88911E-07
 -1      5855 1.06624E+00 1.20033E+00-4.73602E-07-1.31577E-01-6.29626E-09-3.65746E-09
 -1      5856 1.08582E+00 1.18075E+00 2.85768E-07-1.46083E-01 3.23673E-07 4.40691E-07
 -1      5858 1.11018E+00 1.15639E+00-5.20509E-07-1.45854E-01-3.44322E-08-3.41765E-08
 -1      5859 1.13329E+00 1.13329E+00 2.70232E-07-1.53601E-01 3.82631E-07 3.80795E-07
 -1      5861 1.15639E+00 1.11018E+00-4.37560E-07-1.45854E-01 2.45484E-08 9.45334E-09
 -1      5862 1.18075E+00 1.08582E+00 2.97539E-07-1.46083E-01 4.50368E-07 3.24462E-07
 -1      5864 1.20033E+00 1.06624E+00-3.90275E-07-1.31577E-01 5.14041E-08 4.20688E-08
 -1      5865 1.22357E+00 1.04300E+00 2.88403E-07-1.24266E-01 4.92210E-07 2.42638E-07
 -1      5867 1.23771E+00 1.02887E+00-5.34155E-07-1.04420E-01-6.48243E-08-1.33116E-08
 -1      5868 1.25755E+00 1.00902E+00 2.74903E-07-9.02844E-02 5.11444E-07 1.59818E-07
 -1      5870 1.26486E+00 1.00171E+00-5.38571E-07-6.70419E-02-6.98283E-08-2.25442E-08
 -1      5871 1.27937E+00 9.87205E-01 2.76602E-07-4.74652E-02 5.32074E-07 8.39779E-08
 -1      5873 1.27914E+00 9.87431E-01-3.15339E-07-2.31011E-02 1.22894E-07-4.00854E-09
 -1      5875 9.94783E-01 1.27180E+00 3.53216E-07-2.19374E-02 5.11683E-08 6.58945E-07
 -1      5876 9.94741E-01 1.27184E+00 5.45787E-08-4.50172E-02-1.18356E-07-7.61687E-07
 -1      5878 1.00834E+00 1.25824E+00 3.55587E-07-6.36649E-02 1.52028E-07 6.42475E-07
 -1      5879 1.01543E+00 1.25115E+00 6.26175E-08-8.56279E-02-2.32626E-07-7.29468E-07
 -1      5881 1.03413E+00 1.23245E+00 3.53272E-07-9.91604E-02 2.51555E-07 6.13669E-07
 -1      5882 1.04766E+00 1.21892E+00 4.41247E-08-1.17857E-01-3.45619E-07-6.99107E-07
 -1      5884 1.06963E+00 1.19695E+00 3.67121E-07-1.24949E-01 3.30455E-07 5.52800E-07
 -1      5885 1.08827E+00 1.17831E+00 4.98295E-08-1.38549E-01-4.59411E-07-6.35140E-07
 -1      5887 1.11135E+00 1.15523E+00 4.18401E-07-1.38507E-01 3.91000E-07 4.47946E-07
 -1      5888 1.13329E+00 1.13329E+00 1.48720E-07-1.45679E-01-5.29896E-07-4.80906E-07
 -1      5890 1.15523E+00 1.11135E+00 3.37737E-07-1.38507E-01 5.47186E-07 4.11189E-07
 -1      5891 1.17831E+00 1.08827E+00-6.11579E-08-1.38549E-01-6.82897E-07-4.73815E-07
 -1      5893 1.19695E+00 1.06963E+00 2.88879E-07-1.24949E-01 6.14266E-07 3.90990E-07
 -1      5894 1.21892E+00 1.04766E+00 4.10676E-08-1.17857E-01-6.83499E-07-3.76662E-07
 -1      5896 1.23245E+00 1.03413E+00 4.33869E-07-9.91602E-02 5.17758E-07 2.30504E-07
 -1      5897 1.25115E+00 1.01543E+00 1.45351E-07-8.56281E-02-7.04915E-07-2.00158E-07
 -1      5899 1.25824E+00 1.00834E+00 4.41614E-07-6.36650E-02 5.57046E-07 7.80550E-08
 -1      5900 1.27184E+00 9.94741E-01 8.65827E-08-4.50170E-02-7.42143E-07-3.15668E-08
 -1      5902 1.27180E+00 9.94783E-01 2.19318E-07-2.19376E-02 8.03337E-07 4.26634E-09
 -1      5904 1.00206E+00 1.26451E+00-2.77205E-07-4.26382E-02 4.05047E-08 3.10209E-07
 -1      5906 1.02166E+00 1.24492E+00-2.85095E-07-8.11027E-02 7.49065E-08 2.96576E-07
 -1      5908 1.05218E+00 1.21439E+00-2.39250E-07-1.11628E-01 1.19287E-07 3.09659E-07
 -1      5910 1.09065E+00 1.17592E+00-1.39743E-07-1.31227E-01 2.33131E-07 3.08090E-07
 -1      5912 1.13329E+00 1.13329E+00-2.89832E-07-1.37981E-01 2.69157E-07 1.46817E-07
 -1      5914 1.17593E+00 1.09065E+00-3.05813E-07-1.31227E-01 2.56448E-07 1.46174E-07
 -1      5916 1.21439E+00 1.05218E+00-2.16845E-07-1.11629E-01 2.80011E-07 2.00880E-07
 -1      5918 1.24491E+00 1.02166E+00-6.04222E-08-8.11031E-02 4.38889E-07 4.18594E-08
 -1      5920 1.26451E+00 1.00206E+00-3.76493E-07-4.26377E-02 2.87185E-07-1.81662E-07
 -1      5923-5.57442E-01 2.82403E+00 1.99396E-07-5.49353E-01-8.99241E-07-5.67759E-06
 -1      5924-5.57441E-01 2.82403E+00 1.59830E-06-5.49353E-01-2.81490E-07-1.77726E-06
 -1      5925-5.57442E-01 2.82403E+00 2.37169E-06-5.49353E-01-8.94929E-08-5.65046E-07
 -1      5926-5.57442E-01 2.82403E+00 2.53087E-06-5.49353E-01-3.50391E-08-2.21237E-07
 -1      5927-5.57442E-01 2.82403E+00 2.50512E-06-5.49353E-01-1.01052E-08-6.38045E-08
 -1      5928-5.57442E-01 2.82403E+00 2.50512E-06-5.49353E-01 1.01051E-08 6.38047E-08
 -1      5929-5.57442E-01 2.82403E+00 2.53087E-06-5.49353E-01 3.50391E-08 2.21237E-07
 -1      5930-5.57442E-01 2.82403E+00 2.37169E-06-5.49353E-01 8.94929E-08 5.65046E-07
 -1      5931-5.57441E-01 2.82403E+00 1.59830E-06-5.49353E-01 2.81490E-07 1.77726E-06
 -1      5932-5.57442E-01 2.82403E+00 1.99395E-07-5.49353E-01 8.99241E-07 5.67759E-06
 -1      5933-3.04933E-01 2.57152E+00 1.99385E-07-1.04493E+00-1.77634E-06-5.46703E-06
 -1      5934-3.04932E-01 2.57152E+00 1.59829E-06-1.04493E+00-5.56050E-07-1.71135E-06
 -1      5935-3.04932E-01 2.57152E+00 2.37169E-06-1.04493E+00-1.76782E-07-5.44092E-07
 -1      5936-3.04932E-01 2.57152E+00 2.53087E-06-1.04493E+00-6.92154E-08-2.13034E-07
 -1      5937-3.04933E-01 2.57152E+00 2.50512E-06-1.04493E+00-1.99615E-08-6.14387E-08
 -1      5938-3.04933E-01 2.57152E+00 2.50512E-06-1.04493E+00 1.99615E-08 6.14388E-08
 -1      5939-3.04932E-01 2.57152E+00 2.53087E-06-1.04493E+00 6.92153E-08 2.13034E-07
 -1      5940-3.04932E-01 2.57152E+00 2.37169E-06-1.04493E+00 1.76782E-07 5.44092E-07
 -1      5941-3.04932E-01 2.57152E+00 1.59829E-06-1.04493E+00 5.56050E-07 1.71135E-06
 -1      5942-3.04933E-01 2.57152E+00 1.99385E-07-1.04493E+00 1.77634E-06 5.46703E-06
 -1      5943 8.83605E-02 2.17822E+00 1.99405E-07-1.43822E+00-2.60970E-06-5.12184E-06
 -1      5944 8.83614E-02 2.17822E+00 1.59830E-06-1.43822E+00-8.16928E-07-1.60330E-06
 -1      5945 8.83609E-02 2.17822E+00 2.37169E-06-1.43822E+00-2.59728E-07-5.09741E-07
 -1      5946 8.83607E-02 2.17822E+00 2.53088E-06-1.43822E+00-1.01693E-07-1.99585E-07
 -1      5947 8.83606E-02 2.17822E+00 2.50512E-06-1.43822E+00-2.93283E-08-5.75604E-08
 -1      5948 8.83606E-02 2.17822E+00 2.50512E-06-1.43822E+00 2.93282E-08 5.75605E-08
 -1      5949 8.83607E-02 2.17822E+00 2.53088E-06-1.43822E+00 1.01693E-07 1.99585E-07
 -1      5950 8.83609E-02 2.17822E+00 2.37169E-06-1.43822E+00 2.59728E-07 5.09741E-07
 -1      5951 8.83614E-02 2.17822E+00 1.59830E-06-1.43822E+00 8.16928E-07 1.60330E-06
 -1      5952 8.83605E-02 2.17822E+00 1.99405E-07-1.43822E+00 2.60970E-06 5.12184E-06
 -1      5953 5.83939E-01 1.68264E+00 1.99377E-07-1.69073E+00-3.37879E-06-4.65057E-06
 -1      5954 5.83940E-01 1.68264E+00 1.59826E-06-1.69073E+00-1.05767E-06-1.45576E-06
 -1      5955 5.83939E-01 1.68264E+00 2.37166E-06-1.69073E+00-3.36270E-07-4.62829E-07
 -1      5956 5.83939E-01 1.68264E+00 2.53085E-06-1.69073E+00-1.31662E-07-1.81215E-07
 -1      5957 5.83939E-01 1.68264E+00 2.50510E-06-1.69073E+00-3.79715E-08-5.22621E-08
 -1      5958 5.83939E-01 1.68264E+00 2.50510E-06-1.69073E+00 3.79713E-08 5.22622E-08
 -1      5959 5.83939E-01 1.68264E+00 2.53085E-06-1.69073E+00 1.31662E-07 1.81215E-07
 -1      5960 5.83939E-01 1.68264E+00 2.37166E-06-1.69073E+00 3.36270E-07 4.62829E-07
 -1      5961 5.83940E-01 1.68264E+00 1.59826E-06-1.69073E+00 1.05767E-06 1.45576E-06
 -1      5962 5.83939E-01 1.68264E+00 1.99377E-07-1.69073E+00 3.37879E-06 4.65057E-06
 -1      5963 1.13329E+00 1.13329E+00 1.99324E-07-1.77774E+00-4.06472E-06-4.06478E-06
 -1      5964 1.13329E+00 1.13329E+00 1.59832E-06-1.77774E+00-1.27241E-06-1.27241E-06
 -1      5965 1.13329E+00 1.13329E+00 2.37173E-06-1.77774E+00-4.04560E-07-4.04523E-07
 -1      5966 1.13329E+00 1.13329E+00 2.53095E-06-1.77774E+00-1.58409E-07-1.58380E-07
 -1      5967 1.13329E+00 1.13329E+00 2.50521E-06-1.77774E+00-4.56861E-08-4.56750E-08
 -1      5968 1.13329E+00 1.13329E+00 2.50521E-06-1.77774E+00 4.56862E-08 4.56751E-08
 -1      5969 1.13329E+00 1.13329E+00 2.53095E-06-1.77774E+00 1.58409E-07 1.58380E-07
 -1      5970 1.13329E+00 1.13329E+00 2.37173E-06-1.77774E+00 4.04560E-07 4.04523E-07
 -1      5971 1.13329E+00 1.13329E+00 1.59832E-06-1.77774E+00 1.27241E-06 1.27241E-06
 -1      5972 1.13329E+00 1.13329E+00 1.99324E-07-1.77774E+00 4.06472E-06 4.06478E-06
 -1      5973 1.68264E+00 5.83939E-01 1.99700E-07-1.69073E+00-4.65036E-06-3.37883E-06
 -1      5974 1.68264E+00 5.83940E-01 1.59832E-06-1.69073E+00-1.45558E-06-1.05769E-06
 -1      5975 1.68264E+00 5.83939E-01 2.37159E-06-1.69073E+00-4.62733E-07-3.36257E-07
 -1      5976 1.68264E+00 5.83939E-01 2.53071E-06-1.69073E+00-1.81154E-07-1.31650E-07
 -1      5977 1.68264E+00 5.83939E-01 2.50494E-06-1.69073E+00-5.22412E-08-3.79674E-08
 -1      5978 1.68264E+00 5.83939E-01 2.50494E-06-1.69073E+00 5.22411E-08 3.79675E-08
 -1      5979 1.68264E+00 5.83939E-01 2.53071E-06-1.69073E+00 1.81154E-07 1.31650E-07
 -1      5980 1.68264E+00 5.83939E-01 2.37159E-06-1.69073E+00 4.62733E-07 3.36257E-07
 -1      5981 1.68264E+00 5.83940E-01 1.59832E-06-1.69073E+00 1.45558E-06 1.05769E-06
 -1      5982 1.68264E+00 5.83939E-01 1.99700E-07-1.69073E+00 4.65036E-06 3.37883E-06
 -1      5983 2.17822E+00 8.83605E-02 1.97018E-07-1.43822E+00-5.12258E-06-2.60995E-06
 -1      5984 2.17822E+00 8.83614E-02 1.59728E-06-1.43822E+00-1.60344E-06-8.16884E-07
 -1      5985 2.17822E+00 8.83609E-02 2.37143E-06-1.43822E+00-5.09686E-07-2.59659E-07
 -1      5986 2.17822E+00 8.83607E-02 2.53095E-06-1.43822E+00-1.99548E-07-1.01652E-07
 -1      5987 2.17822E+00 8.83606E-02 2.50533E-06-1.43822E+00-5.75470E-08-2.93142E-08
 -1      5988 2.17822E+00 8.83606E-02 2.50533E-06-1.43822E+00 5.75471E-08 2.93143E-08
 -1      5989 2.17822E+00 8.83607E-02 2.53095E-06-1.43822E+00 1.99547E-07 1.01653E-07
 -1      5990 2.17822E+00 8.83609E-02 2.37143E-06-1.43822E+00 5.09686E-07 2.59659E-07
 -1      5991 2.17822E+00 8.83614E-02 1.59728E-06-1.43822E+00 1.60344E-06 8.16884E-07
 -1      5992 2.17822E+00 8.83605E-02 1.97018E-07-1.43822E+00 5.12258E-06 2.60995E-06
 -1      5993 2.57152E+00-3.04933E-01 2.01782E-07-1.04493E+00-5.46630E-06-1.77598E-06
 -1      5994 2.57152E+00-3.04932E-01 1.59932E-06-1.04493E+00-1.71126E-06-5.55927E-07
 -1      5995 2.57152E+00-3.04932E-01 2.37195E-06-1.04493E+00-5.44160E-07-1.76775E-07
 -1      5996 2.57152E+00-3.04932E-01 2.53079E-06-1.04493E+00-2.13076E-07-6.92133E-08
 -1      5997 2.57152E+00-3.04933E-01 2.50491E-06-1.04493E+00-6.14535E-08-1.99609E-08
 -1      5998 2.57152E+00-3.04933E-01 2.50491E-06-1.04493E+00 6.14534E-08 1.99609E-08
 -1      5999 2.57152E+00-3.04932E-01 2.53079E-06-1.04493E+00 2.13076E-07 6.92133E-08
 -1      6000 2.57152E+00-3.04932E-01 2.37195E-06-1.04493E+00 5.44160E-07 1.76775E-07
 -1      6001 2.57152E+00-3.04932E-01 1.59932E-06-1.04493E+00 1.71126E-06 5.55927E-07
 -1      6002 2.57152E+00-3.04933E-01 2.01782E-07-1.04493E+00 5.46630E-06 1.77598E-06
 -1      6003 2.82403E+00-5.57442E-01 1.99098E-07-5.49353E-01-5.67767E-06-8.99332E-07
 -1      6004 2.82403E+00-5.57441E-01 1.59831E-06-5.49353E-01-1.77737E-06-2.81628E-07
 -1      6005 2.82403E+00-5.57442E-01 2.37181E-06-5.49353E-01-5.65114E-07-8.95599E-08
 -1      6006 2.82403E+00-5.57442E-01 2.53105E-06-5.49353E-01-2.21284E-07-3.50773E-08
 -1      6007 2.82403E+00-5.57442E-01 2.50533E-06-5.49353E-01-6.38205E-08-1.01187E-08
 -1      6008 2.82403E+00-5.57442E-01 2.50533E-06-5.49353E-01 6.38204E-08 1.01186E-08
 -1      6009 2.82403E+00-5.57442E-01 2.53105E-06-5.49353E-01 2.21284E-07 3.50773E-08
 -1      6010 2.82403E+00-5.57442E-01 2.37181E-06-5.49353E-01 5.65114E-07 8.95599E-08
 -1      6011 2.82403E+00-5.57441E-01 1.59831E-06-5.49353E-01 1.77737E-06 2.81628E-07
 -1      6012 2.82403E+00-5.57442E-01 1.99098E-07-5.49353E-01 5.67767E-06 8.99332E-07
 -1      6013-2.87883E-01 2.55448E+00 5.11742E-06-4.61770E-01 6.36879E-07 4.02110E-06
 -1      6014-2.87885E-01 2.55448E+00 5.96734E-06-4.61770E-01 2.83723E-07 1.79135E-06
 -1      6015-2.87885E-01 2.55448E+00 5.94144E-06-4.61770E-01 1.07237E-07 6.77064E-07
 -1      6016-2.87885E-01 2.55448E+00 5.73002E-06-4.61770E-01 4.34317E-08 2.74214E-07
 -1      6017-2.87885E-01 2.55448E+00 5.63314E-06-4.61770E-01 1.22990E-08 7.76515E-08
 -1      6018-2.87885E-01 2.55448E+00 5.63314E-06-4.61770E-01-1.22990E-08-7.76515E-08
 -1      6019-2.87885E-01 2.55448E+00 5.73002E-06-4.61770E-01-4.34317E-08-2.74214E-07
 -1      6020-2.87885E-01 2.55448E+00 5.94144E-06-4.61770E-01-1.07237E-07-6.77064E-07
 -1      6021-2.87885E-01 2.55448E+00 5.96734E-06-4.61770E-01-2.83723E-07-1.79135E-06
 -1      6022-2.87883E-01 2.55448E+00 5.11742E-06-4.61770E-01-6.36879E-07-4.02110E-06
 -1      6023-7.56311E-02 2.34223E+00 5.11741E-06-8.78338E-01 1.25808E-06 3.87196E-06
 -1      6024-7.56329E-02 2.34223E+00 5.96734E-06-8.78339E-01 5.60458E-07 1.72491E-06
 -1      6025-7.56330E-02 2.34223E+00 5.94144E-06-8.78339E-01 2.11833E-07 6.51951E-07
 -1      6026-7.56330E-02 2.34223E+00 5.73002E-06-8.78339E-01 8.57933E-08 2.64042E-07
 -1      6027-7.56330E-02 2.34223E+00 5.63313E-06-8.78339E-01 2.42948E-08 7.47710E-08
 -1      6028-7.56330E-02 2.34223E+00 5.63313E-06-8.78339E-01-2.42948E-08-7.47710E-08
 -1      6029-7.56330E-02 2.34223E+00 5.73002E-06-8.78339E-01-8.57933E-08-2.64042E-07
 -1      6030-7.56330E-02 2.34223E+00 5.94144E-06-8.78339E-01-2.11833E-07-6.51950E-07
 -1      6031-7.56329E-02 2.34223E+00 5.96734E-06-8.78339E-01-5.60458E-07-1.72491E-06
 -1      6032-7.56311E-02 2.34223E+00 5.11741E-06-8.78338E-01-1.25808E-06-3.87196E-06
 -1      6033 2.54959E-01 2.01164E+00 5.11742E-06-1.20893E+00 1.84829E-06 3.62749E-06
 -1      6034 2.54958E-01 2.01164E+00 5.96735E-06-1.20893E+00 8.23391E-07 1.61600E-06
 -1      6035 2.54958E-01 2.01164E+00 5.94144E-06-1.20893E+00 3.11212E-07 6.10787E-07
 -1      6036 2.54958E-01 2.01164E+00 5.73003E-06-1.20893E+00 1.26042E-07 2.47370E-07
 -1      6037 2.54958E-01 2.01164E+00 5.63314E-06-1.20893E+00 3.56923E-08 7.00499E-08
 -1      6038 2.54958E-01 2.01164E+00 5.63314E-06-1.20893E+00-3.56924E-08-7.00499E-08
 -1      6039 2.54958E-01 2.01164E+00 5.73003E-06-1.20893E+00-1.26042E-07-2.47370E-07
 -1      6040 2.54958E-01 2.01164E+00 5.94144E-06-1.20893E+00-3.11212E-07-6.10787E-07
 -1      6041 2.54958E-01 2.01164E+00 5.96735E-06-1.20893E+00-8.23391E-07-1.61600E-06
 -1      6042 2.54959E-01 2.01164E+00 5.11742E-06-1.20893E+00-1.84829E-06-3.62749E-06
 -1      6043 6.71528E-01 1.59507E+00 5.11739E-06-1.42118E+00 2.39300E-06 3.29371E-06
 -1      6044 6.71527E-01 1.59507E+00 5.96732E-06-1.42118E+00 1.06605E-06 1.46729E-06
 -1      6045 6.71527E-01 1.59507E+00 5.94142E-06-1.42118E+00 4.02927E-07 5.54579E-07
 -1      6046 6.71527E-01 1.59507E+00 5.73000E-06-1.42118E+00 1.63187E-07 2.24605E-07
 -1      6047 6.71527E-01 1.59507E+00 5.63311E-06-1.42118E+00 4.62110E-08 6.36031E-08
 -1      6048 6.71527E-01 1.59507E+00 5.63311E-06-1.42118E+00-4.62110E-08-6.36031E-08
 -1      6049 6.71527E-01 1.59507E+00 5.73000E-06-1.42118E+00-1.63187E-07-2.24605E-07
 -1      6050 6.71527E-01 1.59507E+00 5.94142E-06-1.42118E+00-4.02927E-07-5.54579E-07
 -1      6051 6.71527E-01 1.59507E+00 5.96732E-06-1.42118E+00-1.06605E-06-1.46729E-06
 -1      6052 6.71528E-01 1.59507E+00 5.11739E-06-1.42118E+00-2.39300E-06-3.29371E-06
 -1      6053 1.13330E+00 1.13330E+00 5.11743E-06-1.49432E+00 2.87876E-06 2.87878E-06
 -1      6054 1.13330E+00 1.13330E+00 5.96736E-06-1.49432E+00 1.28244E-06 1.28249E-06
 -1      6055 1.13330E+00 1.13330E+00 5.94148E-06-1.49432E+00 4.84709E-07 4.84736E-07
 -1      6056 1.13330E+00 1.13330E+00 5.73006E-06-1.49432E+00 1.96306E-07 1.96322E-07
 -1      6057 1.13330E+00 1.13330E+00 5.63318E-06-1.49432E+00 5.55893E-08 5.55948E-08
 -1      6058 1.13330E+00 1.13330E+00 5.63318E-06-1.49432E+00-5.55893E-08-5.55948E-08
 -1      6059 1.13330E+00 1.13330E+00 5.73006E-06-1.49432E+00-1.96306E-07-1.96322E-07
 -1      6060 1.13330E+00 1.13330E+00 5.94148E-06-1.49432E+00-4.84710E-07-4.84736E-07
 -1      6061 1.13330E+00 1.13330E+00 5.96736E-06-1.49432E+00-1.28244E-06-1.28249E-06
 -1      6062 1.13330E+00 1.13330E+00 5.11743E-06-1.49432E+00-2.87876E-06-2.87878E-06
 -1      6063 1.59507E+00 6.71528E-01 5.11711E-06-1.42118E+00 3.29379E-06 2.39305E-06
 -1      6064 1.59507E+00 6.71527E-01 5.96700E-06-1.42118E+00 1.46735E-06 1.06598E-06
 -1      6065 1.59507E+00 6.71527E-01 5.94106E-06-1.42118E+00 5.54632E-07 4.02873E-07
 -1      6066 1.59507E+00 6.71527E-01 5.72963E-06-1.42118E+00 2.24636E-07 1.63149E-07
 -1      6067 1.59507E+00 6.71527E-01 5.63273E-06-1.42118E+00 6.36132E-08 4.61978E-08
 -1      6068 1.59507E+00 6.71527E-01 5.63273E-06-1.42118E+00-6.36131E-08-4.61977E-08
 -1      6069 1.59507E+00 6.71527E-01 5.72963E-06-1.42118E+00-2.24636E-07-1.63149E-07
 -1      6070 1.59507E+00 6.71527E-01 5.94106E-06-1.42118E+00-5.54632E-07-4.02873E-07
 -1      6071 1.59507E+00 6.71527E-01 5.96700E-06-1.42118E+00-1.46735E-06-1.06598E-06
 -1      6072 1.59507E+00 6.71528E-01 5.11711E-06-1.42118E+00-3.29379E-06-2.39305E-06
 -1      6073 2.01164E+00 2.54960E-01 5.11699E-06-1.20893E+00 3.62710E-06 1.84814E-06
 -1      6074 2.01164E+00 2.54958E-01 5.96673E-06-1.20893E+00 1.61576E-06 8.23364E-07
 -1      6075 2.01164E+00 2.54958E-01 5.94085E-06-1.20893E+00 6.10562E-07 3.11173E-07
 -1      6076 2.01164E+00 2.54958E-01 5.72947E-06-1.20893E+00 2.47242E-07 1.26024E-07
 -1      6077 2.01164E+00 2.54958E-01 5.63260E-06-1.20893E+00 7.00100E-08 3.56881E-08
 -1      6078 2.01164E+00 2.54958E-01 5.63260E-06-1.20893E+00-7.00100E-08-3.56881E-08
 -1      6079 2.01164E+00 2.54958E-01 5.72947E-06-1.20893E+00-2.47242E-07-1.26024E-07
 -1      6080 2.01164E+00 2.54958E-01 5.94085E-06-1.20893E+00-6.10563E-07-3.11173E-07
 -1      6081 2.01164E+00 2.54958E-01 5.96673E-06-1.20893E+00-1.61576E-06-8.23364E-07
 -1      6082 2.01164E+00 2.54960E-01 5.11699E-06-1.20893E+00-3.62710E-06-1.84814E-06
 -1      6083 2.34223E+00-7.56311E-02 5.11783E-06-8.78338E-01 3.87234E-06 1.25824E-06
 -1      6084 2.34223E+00-7.56329E-02 5.96795E-06-8.78339E-01 1.72510E-06 5.60606E-07
 -1      6085 2.34223E+00-7.56330E-02 5.94203E-06-8.78339E-01 6.52145E-07 2.11965E-07
 -1      6086 2.34223E+00-7.56330E-02 5.73058E-06-8.78339E-01 2.64151E-07 8.58726E-08
 -1      6087 2.34223E+00-7.56330E-02 5.63368E-06-8.78339E-01 7.48040E-08 2.43206E-08
 -1      6088 2.34223E+00-7.56330E-02 5.63368E-06-8.78339E-01-7.48041E-08-2.43206E-08
 -1      6089 2.34223E+00-7.56330E-02 5.73058E-06-8.78339E-01-2.64151E-07-8.58726E-08
 -1      6090 2.34223E+00-7.56330E-02 5.94203E-06-8.78339E-01-6.52145E-07-2.11965E-07
 -1      6091 2.34223E+00-7.56329E-02 5.96795E-06-8.78339E-01-1.72510E-06-5.60606E-07
 -1      6092 2.34223E+00-7.56311E-02 5.11783E-06-8.78338E-01-3.87234E-06-1.25824E-06
 -1      6093 2.55448E+00-2.87883E-01 5.11774E-06-4.61770E-01 4.02098E-06 6.36825E-07
 -1      6094 2.55448E+00-2.87885E-01 5.96770E-06-4.61770E-01 1.79137E-06 2.83633E-07
 -1      6095 2.55448E+00-2.87885E-01 5.94185E-06-4.61770E-01 6.77077E-07 1.07166E-07
 -1      6096 2.55448E+00-2.87885E-01 5.73045E-06-4.61770E-01 2.74226E-07 4.33868E-08
 -1      6097 2.55448E+00-2.87885E-01 5.63358E-06-4.61770E-01 7.76564E-08 1.22839E-08
 -1      6098 2.55448E+00-2.87885E-01 5.63358E-06-4.61770E-01-7.76564E-08-1.22839E-08
 -1      6099 2.55448E+00-2.87885E-01 5.73045E-06-4.61770E-01-2.74226E-07-4.33869E-08
 -1      6100 2.55448E+00-2.87885E-01 5.94185E-06-4.61770E-01-6.77077E-07-1.07166E-07
 -1      6101 2.55448E+00-2.87885E-01 5.96770E-06-4.61770E-01-1.79137E-06-2.83633E-07
 -1      6102 2.55448E+00-2.87883E-01 5.11774E-06-4.61770E-01-4.02098E-06-6.36825E-07
 -1      6103-7.83671E-02 2.34494E+00-1.33994E-06-3.93690E-01-2.08056E-07-1.31362E-06
 -1      6104-7.83663E-02 2.34494E+00-1.73162E-06-3.93690E-01-1.23350E-07-7.78799E-07
 -1      6105-7.83660E-02 2.34494E+00-1.70840E-06-3.93690E-01-3.96518E-08-2.50353E-07
 -1      6106-7.83661E-02 2.34494E+00-1.57896E-06-3.93690E-01-5.76120E-09-3.63757E-08
 -1      6107-7.83661E-02 2.34494E+00-1.48464E-06-3.93690E-01 2.92517E-10 1.84660E-09
 -1      6108-7.83661E-02 2.34494E+00-1.48464E-06-3.93690E-01-2.92505E-10-1.84659E-09
 -1      6109-7.83661E-02 2.34494E+00-1.57896E-06-3.93690E-01 5.76118E-09 3.63757E-08
 -1      6110-7.83660E-02 2.34494E+00-1.70840E-06-3.93690E-01 3.96518E-08 2.50353E-07
 -1      6111-7.83663E-02 2.34494E+00-1.73162E-06-3.93690E-01 1.23350E-07 7.78799E-07
 -1      6112-7.83671E-02 2.34494E+00-1.33994E-06-3.93690E-01 2.08056E-07 1.31362E-06
 -1      6113 1.02592E-01 2.16398E+00-1.33994E-06-7.48842E-01-4.10990E-07-1.26490E-06
 -1      6114 1.02593E-01 2.16398E+00-1.73162E-06-7.48842E-01-2.43662E-07-7.49916E-07
 -1      6115 1.02593E-01 2.16398E+00-1.70840E-06-7.48842E-01-7.83277E-08-2.41068E-07
 -1      6116 1.02593E-01 2.16398E+00-1.57896E-06-7.48842E-01-1.13809E-08-3.50271E-08
 -1      6117 1.02593E-01 2.16398E+00-1.48464E-06-7.48842E-01 5.77725E-10 1.77797E-09
 -1      6118 1.02593E-01 2.16398E+00-1.48464E-06-7.48842E-01-5.77777E-10-1.77782E-09
 -1      6119 1.02593E-01 2.16398E+00-1.57896E-06-7.48842E-01 1.13809E-08 3.50272E-08
 -1      6120 1.02593E-01 2.16398E+00-1.70840E-06-7.48842E-01 7.83277E-08 2.41068E-07
 -1      6121 1.02593E-01 2.16398E+00-1.73162E-06-7.48842E-01 2.43662E-07 7.49916E-07
 -1      6122 1.02592E-01 2.16398E+00-1.33994E-06-7.48842E-01 4.10990E-07 1.26490E-06
 -1      6123 3.84443E-01 1.88213E+00-1.33994E-06-1.03069E+00-6.03803E-07-1.18504E-06
 -1      6124 3.84444E-01 1.88213E+00-1.73162E-06-1.03069E+00-3.57974E-07-7.02567E-07
 -1      6125 3.84444E-01 1.88213E+00-1.70840E-06-1.03069E+00-1.15074E-07-2.25847E-07
 -1      6126 3.84444E-01 1.88213E+00-1.57896E-06-1.03069E+00-1.67203E-08-3.28158E-08
 -1      6127 3.84444E-01 1.88213E+00-1.48464E-06-1.03069E+00 8.48718E-10 1.66555E-09
 -1      6128 3.84444E-01 1.88213E+00-1.48464E-06-1.03069E+00-8.48740E-10-1.66566E-09
 -1      6129 3.84444E-01 1.88213E+00-1.57896E-06-1.03069E+00 1.67203E-08 3.28158E-08
 -1      6130 3.84444E-01 1.88213E+00-1.70840E-06-1.03069E+00 1.15074E-07 2.25847E-07
 -1      6131 3.84444E-01 1.88213E+00-1.73162E-06-1.03069E+00 3.57974E-07 7.02567E-07
 -1      6132 3.84443E-01 1.88213E+00-1.33994E-06-1.03069E+00 6.03803E-07 1.18504E-06
 -1      6133 7.39595E-01 1.52697E+00-1.33993E-06-1.21165E+00-7.81753E-07-1.07599E-06
 -1      6134 7.39596E-01 1.52698E+00-1.73162E-06-1.21165E+00-4.63475E-07-6.37919E-07
 -1      6135 7.39596E-01 1.52698E+00-1.70840E-06-1.21165E+00-1.48989E-07-2.05066E-07
 -1      6136 7.39596E-01 1.52698E+00-1.57895E-06-1.21165E+00-2.16485E-08-2.97965E-08
 -1      6137 7.39596E-01 1.52698E+00-1.48463E-06-1.21165E+00 1.09860E-09 1.51215E-09
 -1      6138 7.39596E-01 1.52698E+00-1.48463E-06-1.21165E+00-1.09860E-09-1.51214E-09
 -1      6139 7.39596E-01 1.52698E+00-1.57895E-06-1.21165E+00 2.16484E-08 2.97966E-08
 -1      6140 7.39596E-01 1.52698E+00-1.70840E-06-1.21165E+00 1.48989E-07 2.05066E-07
 -1      6141 7.39596E-01 1.52698E+00-1.73162E-06-1.21165E+00 4.63475E-07 6.37919E-07
 -1      6142 7.39595E-01 1.52697E+00-1.33993E-06-1.21165E+00 7.81753E-07 1.07599E-06
 -1      6143 1.13329E+00 1.13329E+00-1.33992E-06-1.27401E+00-9.40440E-07-9.40445E-07
 -1      6144 1.13329E+00 1.13329E+00-1.73160E-06-1.27401E+00-5.57551E-07-5.57560E-07
 -1      6145 1.13329E+00 1.13329E+00-1.70838E-06-1.27401E+00-1.79231E-07-1.79233E-07
 -1      6146 1.13329E+00 1.13329E+00-1.57894E-06-1.27401E+00-2.60415E-08-2.60420E-08
 -1      6147 1.13329E+00 1.13329E+00-1.48462E-06-1.27401E+00 1.32220E-09 1.32226E-09
 -1      6148 1.13329E+00 1.13329E+00-1.48462E-06-1.27401E+00-1.32210E-09-1.32223E-09
 -1      6149 1.13329E+00 1.13329E+00-1.57894E-06-1.27401E+00 2.60413E-08 2.60420E-08
 -1      6150 1.13329E+00 1.13329E+00-1.70838E-06-1.27401E+00 1.79231E-07 1.79233E-07
 -1      6151 1.13329E+00 1.13329E+00-1.73160E-06-1.27401E+00 5.57551E-07 5.57560E-07
 -1      6152 1.13329E+00 1.13329E+00-1.33992E-06-1.27401E+00 9.40440E-07 9.40445E-07
 -1      6153 1.52697E+00 7.39595E-01-1.33989E-06-1.21165E+00-1.07601E-06-7.81765E-07
 -1      6154 1.52698E+00 7.39596E-01-1.73158E-06-1.21165E+00-6.37937E-07-4.63483E-07
 -1      6155 1.52698E+00 7.39596E-01-1.70836E-06-1.21165E+00-2.05068E-07-1.49003E-07
 -1      6156 1.52698E+00 7.39596E-01-1.57891E-06-1.21165E+00-2.97974E-08-2.16610E-08
 -1      6157 1.52698E+00 7.39596E-01-1.48459E-06-1.21165E+00 1.51169E-09 1.09373E-09
 -1      6158 1.52698E+00 7.39596E-01-1.48459E-06-1.21165E+00-1.51176E-09-1.09370E-09
 -1      6159 1.52698E+00 7.39596E-01-1.57891E-06-1.21165E+00 2.97977E-08 2.16610E-08
 -1      6160 1.52698E+00 7.39596E-01-1.70836E-06-1.21165E+00 2.05068E-07 1.49003E-07
 -1      6161 1.52698E+00 7.39596E-01-1.73158E-06-1.21165E+00 6.37937E-07 4.63483E-07
 -1      6162 1.52697E+00 7.39595E-01-1.33989E-06-1.21165E+00 1.07601E-06 7.81765E-07
 -1      6163 1.88213E+00 3.84443E-01-1.33993E-06-1.03069E+00-1.18499E-06-6.03789E-07
 -1      6164 1.88213E+00 3.84444E-01-1.73157E-06-1.03069E+00-7.02580E-07-3.57981E-07
 -1      6165 1.88213E+00 3.84444E-01-1.70836E-06-1.03069E+00-2.25902E-07-1.15089E-07
 -1      6166 1.88213E+00 3.84444E-01-1.57894E-06-1.03069E+00-3.28507E-08-1.67260E-08
 -1      6167 1.88213E+00 3.84444E-01-1.48462E-06-1.03069E+00 1.65364E-09 8.47228E-10
 -1      6168 1.88213E+00 3.84444E-01-1.48462E-06-1.03069E+00-1.65350E-09-8.47211E-10
 -1      6169 1.88213E+00 3.84444E-01-1.57894E-06-1.03069E+00 3.28507E-08 1.67260E-08
 -1      6170 1.88213E+00 3.84444E-01-1.70836E-06-1.03069E+00 2.25902E-07 1.15089E-07
 -1      6171 1.88213E+00 3.84444E-01-1.73157E-06-1.03069E+00 7.02580E-07 3.57980E-07
 -1      6172 1.88213E+00 3.84443E-01-1.33993E-06-1.03069E+00 1.18499E-06 6.03789E-07
 -1      6173 2.16398E+00 1.02592E-01-1.33995E-06-7.48842E-01-1.26494E-06-4.11008E-07
 -1      6174 2.16398E+00 1.02593E-01-1.73168E-06-7.48842E-01-7.49899E-07-2.43653E-07
 -1      6175 2.16398E+00 1.02593E-01-1.70845E-06-7.48842E-01-2.41016E-07-7.82976E-08
 -1      6176 2.16398E+00 1.02593E-01-1.57898E-06-7.48842E-01-3.49962E-08-1.13592E-08
 -1      6177 2.16398E+00 1.02593E-01-1.48465E-06-7.48842E-01 1.78824E-09 5.85498E-10
 -1      6178 2.16398E+00 1.02593E-01-1.48465E-06-7.48842E-01-1.78826E-09-5.85542E-10
 -1      6179 2.16398E+00 1.02593E-01-1.57898E-06-7.48842E-01 3.49962E-08 1.13591E-08
 -1      6180 2.16398E+00 1.02593E-01-1.70845E-06-7.48842E-01 2.41016E-07 7.82976E-08
 -1      6181 2.16398E+00 1.02593E-01-1.73168E-06-7.48842E-01 7.49899E-07 2.43653E-07
 -1      6182 2.16398E+00 1.02592E-01-1.33995E-06-7.48842E-01 1.26494E-06 4.11008E-07
 -1      6183 2.34494E+00-7.83671E-02-1.33999E-06-3.93690E-01-1.31358E-06-2.08045E-07
 -1      6184 2.34494E+00-7.83663E-02-1.73167E-06-3.93690E-01-7.78773E-07-1.23341E-07
 -1      6185 2.34494E+00-7.83660E-02-1.70846E-06-3.93690E-01-2.50337E-07-3.96588E-08
 -1      6186 2.34494E+00-7.83661E-02-1.57901E-06-3.93690E-01-3.63631E-08-5.76903E-09
 -1      6187 2.34494E+00-7.83661E-02-1.48469E-06-3.93690E-01 1.85151E-09 2.89420E-10
 -1      6188 2.34494E+00-7.83661E-02-1.48469E-06-3.93690E-01-1.85155E-09-2.89487E-10
 -1      6189 2.34494E+00-7.83661E-02-1.57901E-06-3.93690E-01 3.63631E-08 5.76899E-09
 -1      6190 2.34494E+00-7.83660E-02-1.70846E-06-3.93690E-01 2.50337E-07 3.96587E-08
 -1      6191 2.34494E+00-7.83663E-02-1.73167E-06-3.93690E-01 7.78773E-07 1.23341E-07
 -1      6192 2.34494E+00-7.83671E-02-1.33999E-06-3.93690E-01 1.31358E-06 2.08045E-07
 -1      6193 8.81296E-02 2.17845E+00 3.70093E-07-3.39593E-01 5.41228E-08 3.41719E-07
 -1      6194 8.81295E-02 2.17845E+00 4.57384E-07-3.39593E-01 2.93829E-08 1.85516E-07
 -1      6195 8.81294E-02 2.17845E+00 3.96504E-07-3.39593E-01 1.07548E-08 6.79028E-08
 -1      6196 8.81294E-02 2.17845E+00 3.55241E-07-3.39593E-01 1.06588E-10 6.72631E-10
 -1      6197 8.81294E-02 2.17845E+00 3.29673E-07-3.39593E-01-1.03175E-09-6.51440E-09
 -1      6198 8.81294E-02 2.17845E+00 3.29673E-07-3.39593E-01 1.03175E-09 6.51444E-09
 -1      6199 8.81294E-02 2.17845E+00 3.55241E-07-3.39593E-01-1.06564E-10-6.72558E-10
 -1      6200 8.81294E-02 2.17845E+00 3.96504E-07-3.39593E-01-1.07548E-08-6.79028E-08
 -1      6201 8.81295E-02 2.17845E+00 4.57384E-07-3.39593E-01-2.93829E-08-1.85516E-07
 -1      6202 8.81296E-02 2.17845E+00 3.70093E-07-3.39593E-01-5.41228E-08-3.41719E-07
 -1      6203 2.44223E-01 2.02235E+00 3.70093E-07-6.45944E-01 1.06913E-07 3.29045E-07
 -1      6204 2.44223E-01 2.02235E+00 4.57383E-07-6.45944E-01 5.80420E-08 1.78635E-07
 -1      6205 2.44223E-01 2.02235E+00 3.96503E-07-6.45944E-01 2.12447E-08 6.53844E-08
 -1      6206 2.44223E-01 2.02235E+00 3.55240E-07-6.45944E-01 2.10451E-10 6.47486E-10
 -1      6207 2.44223E-01 2.02235E+00 3.29672E-07-6.45944E-01-2.03815E-09-6.27272E-09
 -1      6208 2.44223E-01 2.02235E+00 3.29672E-07-6.45944E-01 2.03819E-09 6.27297E-09
 -1      6209 2.44223E-01 2.02235E+00 3.55240E-07-6.45944E-01-2.10422E-10-6.47587E-10
 -1      6210 2.44223E-01 2.02235E+00 3.96503E-07-6.45944E-01-2.12447E-08-6.53843E-08
 -1      6211 2.44223E-01 2.02235E+00 4.57383E-07-6.45944E-01-5.80420E-08-1.78635E-07
 -1      6212 2.44223E-01 2.02235E+00 3.70093E-07-6.45944E-01-1.06913E-07-3.29045E-07
 -1      6213 4.87345E-01 1.77923E+00 3.70092E-07-8.89065E-01 1.57070E-07 3.08269E-07
 -1      6214 4.87345E-01 1.77923E+00 4.57382E-07-8.89065E-01 8.52719E-08 1.67356E-07
 -1      6215 4.87345E-01 1.77923E+00 3.96502E-07-8.89065E-01 3.12113E-08 6.12555E-08
 -1      6216 4.87345E-01 1.77923E+00 3.55239E-07-8.89065E-01 3.08991E-10 6.06366E-10
 -1      6217 4.87345E-01 1.77923E+00 3.29671E-07-8.89065E-01-2.99440E-09-5.87683E-09
 -1      6218 4.87345E-01 1.77923E+00 3.29671E-07-8.89065E-01 2.99437E-09 5.87682E-09
 -1      6219 4.87345E-01 1.77923E+00 3.55239E-07-8.89065E-01-3.09102E-10-6.06377E-10
 -1      6220 4.87345E-01 1.77923E+00 3.96502E-07-8.89065E-01-3.12113E-08-6.12555E-08
 -1      6221 4.87345E-01 1.77923E+00 4.57382E-07-8.89065E-01-8.52719E-08-1.67356E-07
 -1      6222 4.87345E-01 1.77923E+00 3.70092E-07-8.89065E-01-1.57070E-07-3.08269E-07
 -1      6223 7.93696E-01 1.47288E+00 3.70090E-07-1.04516E+00 2.03361E-07 2.79903E-07
 -1      6224 7.93696E-01 1.47288E+00 4.57380E-07-1.04516E+00 1.10402E-07 1.51957E-07
 -1      6225 7.93696E-01 1.47288E+00 3.96499E-07-1.04516E+00 4.04093E-08 5.56194E-08
 -1      6226 7.93696E-01 1.47288E+00 3.55236E-07-1.04516E+00 3.99926E-10 5.50740E-10
 -1      6227 7.93696E-01 1.47288E+00 3.29668E-07-1.04516E+00-3.87694E-09-5.33608E-09
 -1      6228 7.93696E-01 1.47288E+00 3.29668E-07-1.04516E+00 3.87696E-09 5.33608E-09
 -1      6229 7.93696E-01 1.47288E+00 3.55236E-07-1.04516E+00-3.99875E-10-5.50762E-10
 -1      6230 7.93696E-01 1.47288E+00 3.96499E-07-1.04516E+00-4.04093E-08-5.56194E-08
 -1      6231 7.93696E-01 1.47288E+00 4.57380E-07-1.04516E+00-1.10402E-07-1.51957E-07
 -1      6232 7.93696E-01 1.47288E+00 3.70090E-07-1.04516E+00-2.03361E-07-2.79903E-07
 -1      6233 1.13329E+00 1.13329E+00 3.70083E-07-1.09895E+00 2.44643E-07 2.44640E-07
 -1      6234 1.13329E+00 1.13329E+00 4.57372E-07-1.09895E+00 1.32814E-07 1.32812E-07
 -1      6235 1.13329E+00 1.13329E+00 3.96493E-07-1.09895E+00 4.86124E-08 4.86107E-08
 -1      6236 1.13329E+00 1.13329E+00 3.55230E-07-1.09895E+00 4.81465E-10 4.80349E-10
 -1      6237 1.13329E+00 1.13329E+00 3.29662E-07-1.09895E+00-4.66387E-09-4.66418E-09
 -1      6238 1.13329E+00 1.13329E+00 3.29662E-07-1.09895E+00 4.66376E-09 4.66423E-09
 -1      6239 1.13329E+00 1.13329E+00 3.55230E-07-1.09895E+00-4.81353E-10-4.80376E-10
 -1      6240 1.13329E+00 1.13329E+00 3.96493E-07-1.09895E+00-4.86123E-08-4.86107E-08
 -1      6241 1.13329E+00 1.13329E+00 4.57372E-07-1.09895E+00-1.32814E-07-1.32812E-07
 -1      6242 1.13329E+00 1.13329E+00 3.70083E-07-1.09895E+00-2.44643E-07-2.44640E-07
 -1      6243 1.47288E+00 7.93696E-01 3.70090E-07-1.04516E+00 2.79900E-07 2.03356E-07
 -1      6244 1.47288E+00 7.93696E-01 4.57378E-07-1.04516E+00 1.51953E-07 1.10395E-07
 -1      6245 1.47288E+00 7.93696E-01 3.96493E-07-1.04516E+00 5.56167E-08 4.04046E-08
 -1      6246 1.47288E+00 7.93696E-01 3.55227E-07-1.04516E+00 5.47326E-10 3.95728E-10
 -1      6247 1.47288E+00 7.93696E-01 3.29658E-07-1.04516E+00-5.33712E-09-3.87839E-09
 -1      6248 1.47288E+00 7.93696E-01 3.29658E-07-1.04516E+00 5.33722E-09 3.87839E-09
 -1      6249 1.47288E+00 7.93696E-01 3.55227E-07-1.04516E+00-5.47412E-10-3.95706E-10
 -1      6250 1.47288E+00 7.93696E-01 3.96493E-07-1.04516E+00-5.56167E-08-4.04046E-08
 -1      6251 1.47288E+00 7.93696E-01 4.57378E-07-1.04516E+00-1.51953E-07-1.10395E-07
 -1      6252 1.47288E+00 7.93696E-01 3.70090E-07-1.04516E+00-2.79900E-07-2.03356E-07
 -1      6253 1.77923E+00 4.87345E-01 3.70101E-07-8.89065E-01 3.08262E-07 1.57074E-07
 -1      6254 1.77923E+00 4.87345E-01 4.57380E-07-8.89065E-01 1.67346E-07 8.52731E-08
 -1      6255 1.77923E+00 4.87345E-01 3.96499E-07-8.89065E-01 6.12425E-08 3.12088E-08
 -1      6256 1.77923E+00 4.87345E-01 3.55231E-07-8.89065E-01 6.01539E-10 3.09297E-10
 -1      6257 1.77923E+00 4.87345E-01 3.29663E-07-8.89065E-01-5.87924E-09-2.99461E-09
 -1      6258 1.77923E+00 4.87345E-01 3.29663E-07-8.89065E-01 5.87923E-09 2.99458E-09
 -1      6259 1.77923E+00 4.87345E-01 3.55231E-07-8.89065E-01-6.01449E-10-3.09294E-10
 -1      6260 1.77923E+00 4.87345E-01 3.96499E-07-8.89065E-01-6.12425E-08-3.12089E-08
 -1      6261 1.77923E+00 4.87345E-01 4.57380E-07-8.89065E-01-1.67346E-07-8.52731E-08
 -1      6262 1.77923E+00 4.87345E-01 3.70101E-07-8.89065E-01-3.08261E-07-1.57074E-07
 -1      6263 2.02235E+00 2.44223E-01 3.70087E-07-6.45944E-01 3.29047E-07 1.06921E-07
 -1      6264 2.02235E+00 2.44223E-01 4.57389E-07-6.45944E-01 1.78643E-07 5.80502E-08
 -1      6265 2.02235E+00 2.44223E-01 3.96511E-07-6.45944E-01 6.53966E-08 2.12526E-08
 -1      6266 2.02235E+00 2.44223E-01 3.55253E-07-6.45944E-01 6.51653E-10 2.14386E-10
 -1      6267 2.02235E+00 2.44223E-01 3.29685E-07-6.45944E-01-6.27080E-09-2.03649E-09
 -1      6268 2.02235E+00 2.44223E-01 3.29686E-07-6.45944E-01 6.27084E-09 2.03648E-09
 -1      6269 2.02235E+00 2.44223E-01 3.55253E-07-6.45944E-01-6.51682E-10-2.14447E-10
 -1      6270 2.02235E+00 2.44223E-01 3.96511E-07-6.45944E-01-6.53965E-08-2.12527E-08
 -1      6271 2.02235E+00 2.44223E-01 4.57389E-07-6.45944E-01-1.78643E-07-5.80502E-08
 -1      6272 2.02235E+00 2.44223E-01 3.70087E-07-6.45944E-01-3.29047E-07-1.06921E-07
 -1      6273 2.17845E+00 8.81296E-02 3.70099E-07-3.39593E-01 3.41722E-07 5.41196E-08
 -1      6274 2.17845E+00 8.81295E-02 4.57393E-07-3.39593E-01 1.85524E-07 2.93788E-08
 -1      6275 2.17845E+00 8.81294E-02 3.96520E-07-3.39593E-01 6.79089E-08 1.07526E-08
 -1      6276 2.17845E+00 8.81294E-02 3.55259E-07-3.39593E-01 6.78818E-10 1.05652E-10
 -1      6277 2.17845E+00 8.81294E-02 3.29693E-07-3.39593E-01-6.51220E-09-1.03212E-09
 -1      6278 2.17845E+00 8.81294E-02 3.29693E-07-3.39593E-01 6.51216E-09 1.03207E-09
 -1      6279 2.17845E+00 8.81294E-02 3.55259E-07-3.39593E-01-6.78841E-10-1.05663E-10
 -1      6280 2.17845E+00 8.81294E-02 3.96520E-07-3.39593E-01-6.79090E-08-1.07526E-08
 -1      6281 2.17845E+00 8.81295E-02 4.57393E-07-3.39593E-01-1.85524E-07-2.93788E-08
 -1      6282 2.17845E+00 8.81296E-02 3.70099E-07-3.39593E-01-3.41722E-07-5.41197E-08
 -1      6283 2.22528E-01 2.04405E+00-1.22126E-07-2.95924E-01-1.90467E-08-1.20257E-07
 -1      6284 2.22529E-01 2.04405E+00-1.53547E-07-2.95924E-01-8.17070E-09-5.15882E-08
 -1      6285 2.22529E-01 2.04405E+00-1.27727E-07-2.95924E-01-2.56771E-09-1.62121E-08
 -1      6286 2.22529E-01 2.04405E+00-1.12684E-07-2.95924E-01-6.72069E-10-4.24325E-09
 -1      6287 2.22529E-01 2.04405E+00-1.08396E-07-2.95924E-01 5.27356E-12 3.32834E-11
 -1      6288 2.22529E-01 2.04405E+00-1.08396E-07-2.95924E-01-5.24877E-12-3.32895E-11
 -1      6289 2.22529E-01 2.04405E+00-1.12684E-07-2.95924E-01 6.72062E-10 4.24321E-09
 -1      6290 2.22529E-01 2.04405E+00-1.27727E-07-2.95924E-01 2.56771E-09 1.62120E-08
 -1      6291 2.22529E-01 2.04405E+00-1.53547E-07-2.95924E-01 8.17071E-09 5.15882E-08
 -1      6292 2.22528E-01 2.04405E+00-1.22126E-07-2.95924E-01 1.90467E-08 1.20257E-07
 -1      6293 3.58550E-01 1.90803E+00-1.22126E-07-5.62880E-01-3.76245E-08-1.15797E-07
 -1      6294 3.58550E-01 1.90803E+00-1.53547E-07-5.62880E-01-1.61403E-08-4.96748E-08
 -1      6295 3.58550E-01 1.90803E+00-1.27727E-07-5.62880E-01-5.07221E-09-1.56108E-08
 -1      6296 3.58550E-01 1.90803E+00-1.12684E-07-5.62880E-01-1.32759E-09-4.08592E-09
 -1      6297 3.58550E-01 1.90803E+00-1.08396E-07-5.62880E-01 1.04042E-11 3.20007E-11
 -1      6298 3.58550E-01 1.90803E+00-1.08396E-07-5.62880E-01-1.03730E-11-3.19395E-11
 -1      6299 3.58550E-01 1.90803E+00-1.12683E-07-5.62880E-01 1.32755E-09 4.08594E-09
 -1      6300 3.58550E-01 1.90803E+00-1.27727E-07-5.62880E-01 5.07223E-09 1.56108E-08
 -1      6301 3.58550E-01 1.90803E+00-1.53547E-07-5.62880E-01 1.61403E-08 4.96748E-08
 -1      6302 3.58550E-01 1.90803E+00-1.22126E-07-5.62880E-01 3.76245E-08 1.15797E-07
 -1      6303 5.70408E-01 1.69617E+00-1.22125E-07-7.74738E-01-5.52759E-08-1.08485E-07
 -1      6304 5.70408E-01 1.69617E+00-1.53546E-07-7.74738E-01-2.37124E-08-4.65386E-08
 -1      6305 5.70408E-01 1.69617E+00-1.27726E-07-7.74738E-01-7.45184E-09-1.46252E-08
 -1      6306 5.70408E-01 1.69617E+00-1.12683E-07-7.74738E-01-1.95043E-09-3.82791E-09
 -1      6307 5.70408E-01 1.69617E+00-1.08395E-07-7.74738E-01 1.52861E-11 2.99261E-11
 -1      6308 5.70408E-01 1.69617E+00-1.08395E-07-7.74738E-01-1.53565E-11-2.98842E-11
 -1      6309 5.70408E-01 1.69617E+00-1.12683E-07-7.74738E-01 1.95039E-09 3.82801E-09
 -1      6310 5.70408E-01 1.69617E+00-1.27726E-07-7.74738E-01 7.45182E-09 1.46251E-08
 -1      6311 5.70408E-01 1.69617E+00-1.53546E-07-7.74738E-01 2.37123E-08 4.65385E-08
 -1      6312 5.70408E-01 1.69617E+00-1.22125E-07-7.74738E-01 5.52759E-08 1.08485E-07
 -1      6313 8.37364E-01 1.42921E+00-1.22125E-07-9.10759E-01-7.15664E-08-9.85024E-08
 -1      6314 8.37364E-01 1.42921E+00-1.53545E-07-9.10759E-01-3.07008E-08-4.22557E-08
 -1      6315 8.37364E-01 1.42921E+00-1.27726E-07-9.10759E-01-9.64793E-09-1.32791E-08
 -1      6316 8.37364E-01 1.42921E+00-1.12682E-07-9.10759E-01-2.52529E-09-3.47568E-09
 -1      6317 8.37364E-01 1.42921E+00-1.08395E-07-9.10759E-01 1.97235E-11 2.72681E-11
 -1      6318 8.37364E-01 1.42921E+00-1.08395E-07-9.10759E-01-1.97430E-11-2.73002E-11
 -1      6319 8.37364E-01 1.42921E+00-1.12682E-07-9.10759E-01 2.52534E-09 3.47574E-09
 -1      6320 8.37364E-01 1.42921E+00-1.27726E-07-9.10759E-01 9.64797E-09 1.32792E-08
 -1      6321 8.37364E-01 1.42921E+00-1.53545E-07-9.10759E-01 3.07008E-08 4.22558E-08
 -1      6322 8.37364E-01 1.42921E+00-1.22125E-07-9.10759E-01 7.15665E-08 9.85025E-08
 -1      6323 1.13329E+00 1.13329E+00-1.22124E-07-9.57629E-01-8.60942E-08-8.60933E-08
 -1      6324 1.13329E+00 1.13329E+00-1.53545E-07-9.57629E-01-3.69330E-08-3.69329E-08
 -1      6325 1.13329E+00 1.13329E+00-1.27726E-07-9.57629E-01-1.16068E-08-1.16067E-08
 -1      6326 1.13329E+00 1.13329E+00-1.12683E-07-9.57629E-01-3.03787E-09-3.03798E-09
 -1      6327 1.13329E+00 1.13329E+00-1.08395E-07-9.57629E-01 2.37547E-11 2.36501E-11
 -1      6328 1.13329E+00 1.13329E+00-1.08395E-07-9.57629E-01-2.37470E-11-2.36408E-11
 -1      6329 1.13329E+00 1.13329E+00-1.12683E-07-9.57629E-01 3.03792E-09 3.03801E-09
 -1      6330 1.13329E+00 1.13329E+00-1.27726E-07-9.57629E-01 1.16068E-08 1.16067E-08
 -1      6331 1.13329E+00 1.13329E+00-1.53545E-07-9.57629E-01 3.69332E-08 3.69329E-08
 -1      6332 1.13329E+00 1.13329E+00-1.22124E-07-9.57629E-01 8.60942E-08 8.60933E-08
 -1      6333 1.42921E+00 8.37364E-01-1.22127E-07-9.10759E-01-9.85040E-08-7.15677E-08
 -1      6334 1.42921E+00 8.37364E-01-1.53550E-07-9.10759E-01-4.22568E-08-3.07019E-08
 -1      6335 1.42921E+00 8.37364E-01-1.27730E-07-9.10759E-01-1.32800E-08-9.64947E-09
 -1      6336 1.42921E+00 8.37364E-01-1.12687E-07-9.10759E-01-3.47680E-09-2.52658E-09
 -1      6337 1.42921E+00 8.37364E-01-1.08400E-07-9.10759E-01 2.70064E-11 1.94312E-11
 -1      6338 1.42921E+00 8.37364E-01-1.08400E-07-9.10759E-01-2.69640E-11-1.93956E-11
 -1      6339 1.42921E+00 8.37364E-01-1.12687E-07-9.10759E-01 3.47670E-09 2.52659E-09
 -1      6340 1.42921E+00 8.37364E-01-1.27730E-07-9.10759E-01 1.32800E-08 9.64951E-09
 -1      6341 1.42921E+00 8.37364E-01-1.53550E-07-9.10759E-01 4.22569E-08 3.07019E-08
 -1      6342 1.42921E+00 8.37364E-01-1.22127E-07-9.10759E-01 9.85040E-08 7.15677E-08
 -1      6343 1.69617E+00 5.70408E-01-1.22131E-07-7.74738E-01-1.08481E-07-5.52747E-08
 -1      6344 1.69617E+00 5.70408E-01-1.53548E-07-7.74738E-01-4.65411E-08-2.37136E-08
 -1      6345 1.69617E+00 5.70408E-01-1.27730E-07-7.74738E-01-1.46282E-08-7.45257E-09
 -1      6346 1.69617E+00 5.70408E-01-1.12688E-07-7.74738E-01-3.82879E-09-1.95030E-09
 -1      6347 1.69617E+00 5.70408E-01-1.08401E-07-7.74738E-01 2.91094E-11 1.49755E-11
 -1      6348 1.69617E+00 5.70408E-01-1.08401E-07-7.74738E-01-2.90330E-11-1.49918E-11
 -1      6349 1.69617E+00 5.70408E-01-1.12688E-07-7.74738E-01 3.82879E-09 1.95031E-09
 -1      6350 1.69617E+00 5.70408E-01-1.27730E-07-7.74738E-01 1.46282E-08 7.45256E-09
 -1      6351 1.69617E+00 5.70408E-01-1.53548E-07-7.74738E-01 4.65411E-08 2.37136E-08
 -1      6352 1.69617E+00 5.70408E-01-1.22131E-07-7.74738E-01 1.08481E-07 5.52747E-08
 -1      6353 1.90803E+00 3.58550E-01-1.22122E-07-5.62880E-01-1.15800E-07-3.76268E-08
 -1      6354 1.90803E+00 3.58550E-01-1.53547E-07-5.62880E-01-4.96721E-08-1.61391E-08
 -1      6355 1.90803E+00 3.58550E-01-1.27725E-07-5.62880E-01-1.56079E-08-5.07055E-09
 -1      6356 1.90803E+00 3.58550E-01-1.12680E-07-5.62880E-01-4.08543E-09-1.32689E-09
 -1      6357 1.90803E+00 3.58550E-01-1.08392E-07-5.62880E-01 3.29131E-11 1.08758E-11
 -1      6358 1.90803E+00 3.58550E-01-1.08392E-07-5.62880E-01-3.28420E-11-1.09115E-11
 -1      6359 1.90803E+00 3.58550E-01-1.12680E-07-5.62880E-01 4.08532E-09 1.32684E-09
 -1      6360 1.90803E+00 3.58550E-01-1.27725E-07-5.62880E-01 1.56080E-08 5.07053E-09
 -1      6361 1.90803E+00 3.58550E-01-1.53547E-07-5.62880E-01 4.96722E-08 1.61391E-08
 -1      6362 1.90803E+00 3.58550E-01-1.22122E-07-5.62880E-01 1.15801E-07 3.76267E-08
 -1      6363 2.04405E+00 2.22528E-01-1.22126E-07-2.95924E-01-1.20254E-07-1.90470E-08
 -1      6364 2.04405E+00 2.22529E-01-1.53546E-07-2.95924E-01-5.15868E-08-8.17109E-09
 -1      6365 2.04405E+00 2.22529E-01-1.27726E-07-2.95924E-01-1.62105E-08-2.56838E-09
 -1      6366 2.04405E+00 2.22529E-01-1.12682E-07-2.95924E-01-4.24160E-09-6.72349E-10
 -1      6367 2.04405E+00 2.22529E-01-1.08393E-07-2.95924E-01 3.37373E-11 5.13591E-12
 -1      6368 2.04405E+00 2.22529E-01-1.08393E-07-2.95924E-01-3.37299E-11-5.15542E-12
 -1      6369 2.04405E+00 2.22529E-01-1.12682E-07-2.95924E-01 4.24158E-09 6.72325E-10
 -1      6370 2.04405E+00 2.22529E-01-1.27726E-07-2.95924E-01 1.62105E-08 2.56833E-09
 -1      6371 2.04405E+00 2.22529E-01-1.53546E-07-2.95924E-01 5.15867E-08 8.17110E-09
 -1      6372 2.04405E+00 2.22528E-01-1.22126E-07-2.95924E-01 1.20254E-07 1.90470E-08
 -1      6373 3.32598E-01 1.93398E+00 2.12853E-08-2.60160E-01 4.30151E-09 2.71587E-08
 -1      6374 3.32598E-01 1.93398E+00 2.77152E-08-2.60160E-01 2.66683E-09 1.68378E-08
 -1      6375 3.32598E-01 1.93398E+00 1.82079E-08-2.60160E-01 7.43809E-10 4.69622E-09
 -1      6376 3.32598E-01 1.93398E+00 1.36405E-08-2.60160E-01 2.78569E-11 1.75681E-10
 -1      6377 3.32598E-01 1.93398E+00 1.17547E-08-2.60160E-01 5.99022E-12 3.79716E-11
 -1      6378 3.32598E-01 1.93398E+00 1.17548E-08-2.60160E-01-5.97994E-12-3.78423E-11
 -1      6379 3.32598E-01 1.93398E+00 1.36405E-08-2.60160E-01-2.78303E-11-1.75804E-10
 -1      6380 3.32598E-01 1.93398E+00 1.82079E-08-2.60160E-01-7.43794E-10-4.69620E-09
 -1      6381 3.32598E-01 1.93398E+00 2.77152E-08-2.60160E-01-2.66683E-09-1.68378E-08
 -1      6382 3.32598E-01 1.93398E+00 2.12852E-08-2.60160E-01-4.30151E-09-2.71588E-08
 -1      6383 4.52180E-01 1.81440E+00 2.12852E-08-4.94854E-01 8.49708E-09 2.61515E-08
 -1      6384 4.52180E-01 1.81440E+00 2.77151E-08-4.94854E-01 5.26802E-09 1.62132E-08
 -1      6385 4.52180E-01 1.81440E+00 1.82078E-08-4.94854E-01 1.46929E-09 4.52213E-09
 -1      6386 4.52180E-01 1.81440E+00 1.36404E-08-4.94854E-01 5.49900E-11 1.69273E-10
 -1      6387 4.52180E-01 1.81440E+00 1.17546E-08-4.94854E-01 1.18349E-11 3.64084E-11
 -1      6388 4.52180E-01 1.81440E+00 1.17546E-08-4.94854E-01-1.18374E-11-3.64259E-11
 -1      6389 4.52180E-01 1.81440E+00 1.36404E-08-4.94854E-01-5.50333E-11-1.69323E-10
 -1      6390 4.52180E-01 1.81440E+00 1.82078E-08-4.94854E-01-1.46929E-09-4.52213E-09
 -1      6391 4.52180E-01 1.81440E+00 2.77151E-08-4.94854E-01-5.26797E-09-1.62133E-08
 -1      6392 4.52180E-01 1.81440E+00 2.12852E-08-4.94854E-01-8.49711E-09-2.61515E-08
 -1      6393 6.38434E-01 1.62814E+00 2.12852E-08-6.81108E-01 1.24835E-08 2.45002E-08
 -1      6394 6.38434E-01 1.62814E+00 2.77150E-08-6.81108E-01 7.73942E-09 1.51895E-08
 -1      6395 6.38434E-01 1.62814E+00 1.82077E-08-6.81108E-01 2.15861E-09 4.23651E-09
 -1      6396 6.38434E-01 1.62814E+00 1.36403E-08-6.81108E-01 8.07912E-11 1.58638E-10
 -1      6397 6.38434E-01 1.62814E+00 1.17546E-08-6.81108E-01 1.73341E-11 3.41433E-11
 -1      6398 6.38434E-01 1.62814E+00 1.17545E-08-6.81108E-01-1.73771E-11-3.41310E-11
 -1      6399 6.38434E-01 1.62814E+00 1.36403E-08-6.81108E-01-8.08098E-11-1.58563E-10
 -1      6400 6.38434E-01 1.62814E+00 1.82077E-08-6.81108E-01-2.15863E-09-4.23646E-09
 -1      6401 6.38434E-01 1.62814E+00 2.77150E-08-6.81108E-01-7.73948E-09-1.51896E-08
 -1      6402 6.38434E-01 1.62814E+00 2.12852E-08-6.81108E-01-1.24835E-08-2.45002E-08
 -1      6403 8.73128E-01 1.39345E+00 2.12850E-08-8.00690E-01 1.61626E-08 2.22457E-08
 -1      6404 8.73128E-01 1.39345E+00 2.77149E-08-8.00690E-01 1.00205E-08 1.37918E-08
 -1      6405 8.73128E-01 1.39345E+00 1.82076E-08-8.00690E-01 2.79478E-09 3.84673E-09
 -1      6406 8.73128E-01 1.39345E+00 1.36402E-08-8.00690E-01 1.04574E-10 1.44028E-10
 -1      6407 8.73128E-01 1.39345E+00 1.17545E-08-8.00690E-01 2.25119E-11 3.09568E-11
 -1      6408 8.73128E-01 1.39345E+00 1.17545E-08-8.00690E-01-2.25134E-11-3.09355E-11
 -1      6409 8.73128E-01 1.39345E+00 1.36402E-08-8.00690E-01-1.04698E-10-1.44018E-10
 -1      6410 8.73128E-01 1.39345E+00 1.82076E-08-8.00690E-01-2.79482E-09-3.84673E-09
 -1      6411 8.73128E-01 1.39345E+00 2.77150E-08-8.00690E-01-1.00204E-08-1.37918E-08
 -1      6412 8.73128E-01 1.39345E+00 2.12851E-08-8.00690E-01-1.61626E-08-2.22457E-08
 -1      6413 1.13329E+00 1.13329E+00 2.12855E-08-8.41895E-01 1.94434E-08 1.94433E-08
 -1      6414 1.13329E+00 1.13329E+00 2.77154E-08-8.41895E-01 1.20544E-08 1.20546E-08
 -1      6415 1.13329E+00 1.13329E+00 1.82082E-08-8.41895E-01 3.36209E-09 3.36207E-09
 -1      6416 1.13329E+00 1.13329E+00 1.36408E-08-8.41895E-01 1.25942E-10 1.25940E-10
 -1      6417 1.13329E+00 1.13329E+00 1.17549E-08-8.41895E-01 2.70625E-11 2.71755E-11
 -1      6418 1.13329E+00 1.13329E+00 1.17548E-08-8.41895E-01-2.70854E-11-2.70284E-11
 -1      6419 1.13329E+00 1.13329E+00 1.36406E-08-8.41895E-01-1.25748E-10-1.25951E-10
 -1      6420 1.13329E+00 1.13329E+00 1.82081E-08-8.41895E-01-3.36196E-09-3.36211E-09
 -1      6421 1.13329E+00 1.13329E+00 2.77154E-08-8.41895E-01-1.20545E-08-1.20545E-08
 -1      6422 1.13329E+00 1.13329E+00 2.12854E-08-8.41895E-01-1.94433E-08-1.94433E-08
 -1      6423 1.39345E+00 8.73128E-01 2.12859E-08-8.00690E-01 2.22455E-08 1.61624E-08
 -1      6424 1.39345E+00 8.73128E-01 2.77158E-08-8.00690E-01 1.37919E-08 1.00203E-08
 -1      6425 1.39345E+00 8.73128E-01 1.82079E-08-8.00690E-01 3.84660E-09 2.79463E-09
 -1      6426 1.39345E+00 8.73128E-01 1.36402E-08-8.00690E-01 1.43849E-10 1.04394E-10
 -1      6427 1.39345E+00 8.73128E-01 1.17544E-08-8.00690E-01 3.09559E-11 2.24236E-11
 -1      6428 1.39345E+00 8.73128E-01 1.17544E-08-8.00690E-01-3.09523E-11-2.24480E-11
 -1      6429 1.39345E+00 8.73128E-01 1.36403E-08-8.00690E-01-1.43803E-10-1.04401E-10
 -1      6430 1.39345E+00 8.73128E-01 1.82079E-08-8.00690E-01-3.84660E-09-2.79466E-09
 -1      6431 1.39345E+00 8.73128E-01 2.77158E-08-8.00690E-01-1.37918E-08-1.00203E-08
 -1      6432 1.39345E+00 8.73128E-01 2.12859E-08-8.00690E-01-2.22455E-08-1.61624E-08
 -1      6433 1.62814E+00 6.38434E-01 2.12858E-08-6.81108E-01 2.45012E-08 1.24842E-08
 -1      6434 1.62814E+00 6.38434E-01 2.77150E-08-6.81108E-01 1.51888E-08 7.73906E-09
 -1      6435 1.62814E+00 6.38434E-01 1.82076E-08-6.81108E-01 4.23609E-09 2.15835E-09
 -1      6436 1.62814E+00 6.38434E-01 1.36400E-08-6.81108E-01 1.58641E-10 8.08233E-11
 -1      6437 1.62814E+00 6.38434E-01 1.17541E-08-6.81108E-01 3.38712E-11 1.72504E-11
 -1      6438 1.62814E+00 6.38434E-01 1.17541E-08-6.81108E-01-3.37744E-11-1.72600E-11
 -1      6439 1.62814E+00 6.38434E-01 1.36399E-08-6.81108E-01-1.58729E-10-8.08830E-11
 -1      6440 1.62814E+00 6.38434E-01 1.82076E-08-6.81108E-01-4.23607E-09-2.15833E-09
 -1      6441 1.62814E+00 6.38434E-01 2.77150E-08-6.81108E-01-1.51889E-08-7.73909E-09
 -1      6442 1.62814E+00 6.38434E-01 2.12858E-08-6.81108E-01-2.45012E-08-1.24842E-08
 -1      6443 1.81440E+00 4.52180E-01 2.12854E-08-4.94854E-01 2.61503E-08 8.49696E-09
 -1      6444 1.81440E+00 4.52180E-01 2.77163E-08-4.94854E-01 1.62142E-08 5.26826E-09
 -1      6445 1.81440E+00 4.52180E-01 1.82090E-08-4.94854E-01 4.52261E-09 1.46942E-09
 -1      6446 1.81440E+00 4.52180E-01 1.36418E-08-4.94854E-01 1.69258E-10 5.50000E-11
 -1      6447 1.81440E+00 4.52180E-01 1.17561E-08-4.94854E-01 3.66789E-11 1.18807E-11
 -1      6448 1.81440E+00 4.52180E-01 1.17561E-08-4.94854E-01-3.67706E-11-1.19711E-11
 -1      6449 1.81440E+00 4.52180E-01 1.36418E-08-4.94854E-01-1.69301E-10-5.50187E-11
 -1      6450 1.81440E+00 4.52180E-01 1.82089E-08-4.94854E-01-4.52254E-09-1.46943E-09
 -1      6451 1.81440E+00 4.52180E-01 2.77162E-08-4.94854E-01-1.62141E-08-5.26831E-09
 -1      6452 1.81440E+00 4.52180E-01 2.12854E-08-4.94854E-01-2.61502E-08-8.49694E-09
 -1      6453 1.93398E+00 3.32598E-01 2.12851E-08-2.60160E-01 2.71589E-08 4.30176E-09
 -1      6454 1.93398E+00 3.32598E-01 2.77152E-08-2.60160E-01 1.68378E-08 2.66684E-09
 -1      6455 1.93398E+00 3.32598E-01 1.82085E-08-2.60160E-01 4.69633E-09 7.43801E-10
 -1      6456 1.93398E+00 3.32598E-01 1.36413E-08-2.60160E-01 1.76234E-10 2.78398E-11
 -1      6457 1.93398E+00 3.32598E-01 1.17557E-08-2.60160E-01 3.78523E-11 5.98366E-12
 -1      6458 1.93398E+00 3.32598E-01 1.17557E-08-2.60160E-01-3.78180E-11-5.95878E-12
 -1      6459 1.93398E+00 3.32598E-01 1.36412E-08-2.60160E-01-1.76211E-10-2.78570E-11
 -1      6460 1.93398E+00 3.32598E-01 1.82085E-08-2.60160E-01-4.69629E-09-7.43804E-10
 -1      6461 1.93398E+00 3.32598E-01 2.77152E-08-2.60160E-01-1.68379E-08-2.66684E-09
 -1      6462 1.93398E+00 3.32598E-01 2.12851E-08-2.60160E-01-2.71589E-08-4.30174E-09
 -1      6463 4.23865E-01 1.84271E+00-1.66292E-08-2.30505E-01-1.65471E-09-1.04474E-08
 -1      6464 4.23865E-01 1.84271E+00-1.89891E-08-2.30505E-01-4.56049E-10-2.87964E-09
 -1      6465 4.23865E-01 1.84271E+00-1.54031E-08-2.30505E-01-2.13580E-10-1.34823E-09
 -1      6466 4.23865E-01 1.84271E+00-1.39440E-08-2.30505E-01-2.54791E-11-1.60672E-10
 -1      6467 4.23865E-01 1.84271E+00-1.36313E-08-2.30505E-01 2.83788E-11 1.79083E-10
 -1      6468 4.23865E-01 1.84271E+00-1.36312E-08-2.30505E-01-2.83582E-11-1.79112E-10
 -1      6469 4.23865E-01 1.84271E+00-1.39439E-08-2.30505E-01 2.54521E-11 1.60828E-10
 -1      6470 4.23865E-01 1.84271E+00-1.54030E-08-2.30505E-01 2.13531E-10 1.34835E-09
 -1      6471 4.23865E-01 1.84271E+00-1.89891E-08-2.30505E-01 4.56046E-10 2.87936E-09
 -1      6472 4.23865E-01 1.84271E+00-1.66291E-08-2.30505E-01 1.65473E-09 1.04474E-08
 -1      6473 5.29817E-01 1.73676E+00-1.66292E-08-4.38447E-01-3.26869E-09-1.00599E-08
 -1      6474 5.29817E-01 1.73676E+00-1.89891E-08-4.38447E-01-9.00891E-10-2.77254E-09
 -1      6475 5.29817E-01 1.73676E+00-1.54030E-08-4.38447E-01-4.21759E-10-1.29830E-09
 -1      6476 5.29817E-01 1.73676E+00-1.39440E-08-4.38447E-01-5.03128E-11-1.54849E-10
 -1      6477 5.29817E-01 1.73676E+00-1.36311E-08-4.38447E-01 5.60084E-11 1.72428E-10
 -1      6478 5.29817E-01 1.73676E+00-1.36312E-08-4.38447E-01-5.60923E-11-1.72417E-10
 -1      6479 5.29817E-01 1.73676E+00-1.39440E-08-4.38447E-01 5.02803E-11 1.54739E-10
 -1      6480 5.29817E-01 1.73676E+00-1.54031E-08-4.38447E-01 4.21824E-10 1.29828E-09
 -1      6481 5.29817E-01 1.73676E+00-1.89891E-08-4.38447E-01 9.00913E-10 2.77263E-09
 -1      6482 5.29817E-01 1.73676E+00-1.66292E-08-4.38447E-01 3.26873E-09 1.00600E-08
 -1      6483 6.94841E-01 1.57174E+00-1.66291E-08-6.03471E-01-4.80220E-09-9.42480E-09
 -1      6484 6.94841E-01 1.57174E+00-1.89890E-08-6.03471E-01-1.32358E-09-2.59745E-09
 -1      6485 6.94841E-01 1.57174E+00-1.54030E-08-6.03471E-01-6.19815E-10-1.21627E-09
 -1      6486 6.94841E-01 1.57174E+00-1.39439E-08-6.03471E-01-7.38315E-11-1.45090E-10
 -1      6487 6.94841E-01 1.57174E+00-1.36312E-08-6.03471E-01 8.23572E-11 1.61574E-10
 -1      6488 6.94841E-01 1.57174E+00-1.36311E-08-6.03471E-01-8.24037E-11-1.61508E-10
 -1      6489 6.94841E-01 1.57174E+00-1.39439E-08-6.03471E-01 7.38954E-11 1.45015E-10
 -1      6490 6.94841E-01 1.57174E+00-1.54029E-08-6.03471E-01 6.19720E-10 1.21637E-09
 -1      6491 6.94841E-01 1.57174E+00-1.89889E-08-6.03471E-01 1.32351E-09 2.59744E-09
 -1      6492 6.94841E-01 1.57174E+00-1.66292E-08-6.03471E-01 4.80220E-09 9.42478E-09
 -1      6493 9.02783E-01 1.36379E+00-1.66292E-08-7.09423E-01-6.21743E-09-8.55754E-09
 -1      6494 9.02783E-01 1.36379E+00-1.89890E-08-7.09423E-01-1.71353E-09-2.35843E-09
 -1      6495 9.02783E-01 1.36379E+00-1.54031E-08-7.09423E-01-8.02290E-10-1.10440E-09
 -1      6496 9.02783E-01 1.36379E+00-1.39440E-08-7.09423E-01-9.56955E-11-1.31573E-10
 -1      6497 9.02783E-01 1.36379E+00-1.36312E-08-7.09423E-01 1.06560E-10 1.46844E-10
 -1      6498 9.02783E-01 1.36379E+00-1.36312E-08-7.09423E-01-1.06650E-10-1.46874E-10
 -1      6499 9.02783E-01 1.36379E+00-1.39440E-08-7.09423E-01 9.56644E-11 1.31746E-10
 -1      6500 9.02783E-01 1.36379E+00-1.54031E-08-7.09423E-01 8.02273E-10 1.10429E-09
 -1      6501 9.02783E-01 1.36379E+00-1.89892E-08-7.09423E-01 1.71345E-09 2.35849E-09
 -1      6502 9.02783E-01 1.36379E+00-1.66293E-08-7.09423E-01 6.21737E-09 8.55750E-09
 -1      6503 1.13329E+00 1.13329E+00-1.66292E-08-7.45931E-01-7.47948E-09-7.47944E-09
 -1      6504 1.13329E+00 1.13329E+00-1.89891E-08-7.45931E-01-2.06128E-09-2.06140E-09
 -1      6505 1.13329E+00 1.13329E+00-1.54031E-08-7.45931E-01-9.65358E-10-9.65174E-10
 -1      6506 1.13329E+00 1.13329E+00-1.39439E-08-7.45931E-01-1.15066E-10-1.15143E-10
 -1      6507 1.13329E+00 1.13329E+00-1.36311E-08-7.45931E-01 1.28457E-10 1.28151E-10
 -1      6508 1.13329E+00 1.13329E+00-1.36310E-08-7.45931E-01-1.28302E-10-1.28149E-10
 -1      6509 1.13329E+00 1.13329E+00-1.39438E-08-7.45931E-01 1.15006E-10 1.15056E-10
 -1      6510 1.13329E+00 1.13329E+00-1.54030E-08-7.45931E-01 9.65185E-10 9.65233E-10
 -1      6511 1.13329E+00 1.13329E+00-1.89889E-08-7.45931E-01 2.06155E-09 2.06145E-09
 -1      6512 1.13329E+00 1.13329E+00-1.66290E-08-7.45931E-01 7.47953E-09 7.47952E-09
 -1      6513 1.36379E+00 9.02783E-01-1.66293E-08-7.09423E-01-8.55756E-09-6.21746E-09
 -1      6514 1.36379E+00 9.02783E-01-1.89893E-08-7.09423E-01-2.35856E-09-1.71350E-09
 -1      6515 1.36379E+00 9.02783E-01-1.54032E-08-7.09423E-01-1.10420E-09-8.02288E-10
 -1      6516 1.36379E+00 9.02783E-01-1.39441E-08-7.09423E-01-1.31731E-10-9.57108E-11
 -1      6517 1.36379E+00 9.02783E-01-1.36313E-08-7.09423E-01 1.46645E-10 1.06717E-10
 -1      6518 1.36379E+00 9.02783E-01-1.36314E-08-7.09423E-01-1.46684E-10-1.06641E-10
 -1      6519 1.36379E+00 9.02783E-01-1.39442E-08-7.09423E-01 1.31818E-10 9.57283E-11
 -1      6520 1.36379E+00 9.02783E-01-1.54033E-08-7.09423E-01 1.10434E-09 8.02277E-10
 -1      6521 1.36379E+00 9.02783E-01-1.89894E-08-7.09423E-01 2.35832E-09 1.71342E-09
 -1      6522 1.36379E+00 9.02783E-01-1.66294E-08-7.09423E-01 8.55764E-09 6.21751E-09
 -1      6523 1.57174E+00 6.94841E-01-1.66297E-08-6.03471E-01-9.42410E-09-4.80191E-09
 -1      6524 1.57174E+00 6.94841E-01-1.89891E-08-6.03471E-01-2.59759E-09-1.32368E-09
 -1      6525 1.57174E+00 6.94841E-01-1.54034E-08-6.03471E-01-1.21643E-09-6.19821E-10
 -1      6526 1.57174E+00 6.94841E-01-1.39443E-08-6.03471E-01-1.44910E-10-7.38693E-11
 -1      6527 1.57174E+00 6.94841E-01-1.36316E-08-6.03471E-01 1.61662E-10 8.22013E-11
 -1      6528 1.57174E+00 6.94841E-01-1.36316E-08-6.03471E-01-1.61514E-10-8.22952E-11
 -1      6529 1.57174E+00 6.94841E-01-1.39444E-08-6.03471E-01 1.44908E-10 7.38850E-11
 -1      6530 1.57174E+00 6.94841E-01-1.54034E-08-6.03471E-01 1.21621E-09 6.19705E-10
 -1      6531 1.57174E+00 6.94841E-01-1.89892E-08-6.03471E-01 2.59783E-09 1.32371E-09
 -1      6532 1.57174E+00 6.94841E-01-1.66298E-08-6.03471E-01 9.42396E-09 4.80194E-09
 -1      6533 1.73676E+00 5.29817E-01-1.66288E-08-4.38447E-01-1.00607E-08-3.26906E-09
 -1      6534 1.73676E+00 5.29817E-01-1.89892E-08-4.38447E-01-2.77235E-09-9.00840E-10
 -1      6535 1.73676E+00 5.29817E-01-1.54028E-08-4.38447E-01-1.29809E-09-4.21856E-10
 -1      6536 1.73676E+00 5.29817E-01-1.39437E-08-4.38447E-01-1.55006E-10-5.04169E-11
 -1      6537 1.73676E+00 5.29817E-01-1.36309E-08-4.38447E-01 1.72609E-10 5.61261E-11
 -1      6538 1.73676E+00 5.29817E-01-1.36309E-08-4.38447E-01-1.72628E-10-5.60902E-11
 -1      6539 1.73676E+00 5.29817E-01-1.39437E-08-4.38447E-01 1.54978E-10 5.03549E-11
 -1      6540 1.73676E+00 5.29817E-01-1.54028E-08-4.38447E-01 1.29825E-09 4.21844E-10
 -1      6541 1.73676E+00 5.29817E-01-1.89890E-08-4.38447E-01 2.77226E-09 9.00896E-10
 -1      6542 1.73676E+00 5.29817E-01-1.66287E-08-4.38447E-01 1.00607E-08 3.26903E-09
 -1      6543 1.84271E+00 4.23865E-01-1.66292E-08-2.30505E-01-1.04473E-08-1.65473E-09
 -1      6544 1.84271E+00 4.23865E-01-1.89891E-08-2.30505E-01-2.87955E-09-4.56057E-10
 -1      6545 1.84271E+00 4.23865E-01-1.54032E-08-2.30505E-01-1.34837E-09-2.13560E-10
 -1      6546 1.84271E+00 4.23865E-01-1.39440E-08-2.30505E-01-1.60763E-10-2.54262E-11
 -1      6547 1.84271E+00 4.23865E-01-1.36311E-08-2.30505E-01 1.79162E-10 2.83383E-11
 -1      6548 1.84271E+00 4.23865E-01-1.36312E-08-2.30505E-01-1.79056E-10-2.83740E-11
 -1      6549 1.84271E+00 4.23865E-01-1.39440E-08-2.30505E-01 1.60779E-10 2.54518E-11
 -1      6550 1.84271E+00 4.23865E-01-1.54031E-08-2.30505E-01 1.34816E-09 2.13558E-10
 -1      6551 1.84271E+00 4.23865E-01-1.89890E-08-2.30505E-01 2.87958E-09 4.56059E-10
 -1      6552 1.84271E+00 4.23865E-01-1.66292E-08-2.30505E-01 1.04473E-08 1.65475E-09
 -1      6553 5.00381E-01 1.76620E+00-3.39084E-09-2.05644E-01 3.09279E-10 1.95262E-09
 -1      6554 5.00381E-01 1.76620E+00-2.95973E-09-2.05644E-01 2.62694E-10 1.65848E-09
 -1      6555 5.00381E-01 1.76620E+00-3.97792E-09-2.05644E-01 3.51111E-11 2.21726E-10
 -1      6556 5.00381E-01 1.76620E+00-4.38967E-09-2.05644E-01 2.06110E-11 1.30280E-10
 -1      6557 5.00381E-01 1.76620E+00-4.49445E-09-2.05644E-01 1.07212E-11 6.78794E-11
 -1      6558 5.00381E-01 1.76620E+00-4.49455E-09-2.05644E-01-1.08030E-11-6.78733E-11
 -1      6559 5.00381E-01 1.76620E+00-4.38974E-09-2.05644E-01-2.06509E-11-1.30290E-10
 -1      6560 5.00381E-01 1.76620E+00-3.97786E-09-2.05644E-01-3.51210E-11-2.21750E-10
 -1      6561 5.00381E-01 1.76620E+00-2.95972E-09-2.05644E-01-2.62715E-10-1.65863E-09
 -1      6562 5.00381E-01 1.76620E+00-3.39085E-09-2.05644E-01-3.09268E-10-1.95266E-09
 -1      6563 5.94905E-01 1.67167E+00-3.39084E-09-3.91158E-01 6.10912E-10 1.88022E-09
 -1      6564 5.94905E-01 1.67167E+00-2.95973E-09-3.91158E-01 5.18926E-10 1.59711E-09
 -1      6565 5.94905E-01 1.67167E+00-3.97789E-09-3.91158E-01 6.93378E-11 2.13572E-10
 -1      6566 5.94905E-01 1.67167E+00-4.38975E-09-3.91158E-01 4.07230E-11 1.25400E-10
 -1      6567 5.94905E-01 1.67167E+00-4.49452E-09-3.91158E-01 2.12297E-11 6.53331E-11
 -1      6568 5.94905E-01 1.67167E+00-4.49448E-09-3.91158E-01-2.12580E-11-6.54512E-11
 -1      6569 5.94905E-01 1.67167E+00-4.38976E-09-3.91158E-01-4.07755E-11-1.25402E-10
 -1      6570 5.94905E-01 1.67167E+00-3.97797E-09-3.91158E-01-6.93752E-11-2.13448E-10
 -1      6571 5.94905E-01 1.67167E+00-2.95976E-09-3.91158E-01-5.18925E-10-1.59702E-09
 -1      6572 5.94905E-01 1.67167E+00-3.39094E-09-3.91158E-01-6.10926E-10-1.88020E-09
 -1      6573 7.42130E-01 1.52445E+00-3.39084E-09-5.38383E-01 8.97515E-10 1.76146E-09
 -1      6574 7.42130E-01 1.52445E+00-2.95973E-09-5.38383E-01 7.62364E-10 1.49626E-09
 -1      6575 7.42130E-01 1.52445E+00-3.97792E-09-5.38383E-01 1.01915E-10 1.99973E-10
 -1      6576 7.42130E-01 1.52445E+00-4.38968E-09-5.38383E-01 5.98998E-11 1.17482E-10
 -1      6577 7.42130E-01 1.52445E+00-4.49441E-09-5.38383E-01 3.12149E-11 6.13269E-11
 -1      6578 7.42130E-01 1.52445E+00-4.49449E-09-5.38383E-01-3.12067E-11-6.13235E-11
 -1      6579 7.42130E-01 1.52445E+00-4.38973E-09-5.38383E-01-5.98907E-11-1.17572E-10
 -1      6580 7.42130E-01 1.52445E+00-3.97789E-09-5.38383E-01-1.01909E-10-2.00063E-10
 -1      6581 7.42130E-01 1.52445E+00-2.95973E-09-5.38383E-01-7.62355E-10-1.49629E-09
 -1      6582 7.42130E-01 1.52445E+00-3.39079E-09-5.38383E-01-8.97525E-10-1.76144E-09
 -1      6583 9.27644E-01 1.33893E+00-3.39080E-09-6.32907E-01 1.16197E-09 1.59937E-09
 -1      6584 9.27644E-01 1.33893E+00-2.95966E-09-6.32907E-01 9.87094E-10 1.35855E-09
 -1      6585 9.27644E-01 1.33893E+00-3.97776E-09-6.32907E-01 1.31965E-10 1.81684E-10
 -1      6586 9.27644E-01 1.33893E+00-4.38955E-09-6.32907E-01 7.75310E-11 1.06731E-10
 -1      6587 9.27644E-01 1.33893E+00-4.49442E-09-6.32907E-01 4.04428E-11 5.56087E-11
 -1      6588 9.27644E-01 1.33893E+00-4.49431E-09-6.32907E-01-4.04915E-11-5.56270E-11
 -1      6589 9.27644E-01 1.33893E+00-4.38959E-09-6.32907E-01-7.75908E-11-1.06799E-10
 -1      6590 9.27644E-01 1.33893E+00-3.97773E-09-6.32907E-01-1.32022E-10-1.81613E-10
 -1      6591 9.27644E-01 1.33893E+00-2.95967E-09-6.32907E-01-9.87097E-10-1.35866E-09
 -1      6592 9.27644E-01 1.33893E+00-3.39073E-09-6.32907E-01-1.16209E-09-1.59945E-09
 -1      6593 1.13329E+00 1.13329E+00-3.39072E-09-6.65478E-01 1.39794E-09 1.39798E-09
 -1      6594 1.13329E+00 1.13329E+00-2.95958E-09-6.65478E-01 1.18748E-09 1.18750E-09
 -1      6595 1.13329E+00 1.13329E+00-3.97771E-09-6.65478E-01 1.58710E-10 1.58806E-10
 -1      6596 1.13329E+00 1.13329E+00-4.38955E-09-6.65478E-01 9.32966E-11 9.32289E-11
 -1      6597 1.13329E+00 1.13329E+00-4.49421E-09-6.65478E-01 4.85337E-11 4.87396E-11
 -1      6598 1.13329E+00 1.13329E+00-4.49432E-09-6.65478E-01-4.85217E-11-4.86380E-11
 -1      6599 1.13329E+00 1.13329E+00-4.38951E-09-6.65478E-01-9.33528E-11-9.32025E-11
 -1      6600 1.13329E+00 1.13329E+00-3.97771E-09-6.65478E-01-1.58706E-10-1.58726E-10
 -1      6601 1.13329E+00 1.13329E+00-2.95956E-09-6.65478E-01-1.18749E-09-1.18748E-09
 -1      6602 1.13329E+00 1.13329E+00-3.39070E-09-6.65478E-01-1.39780E-09-1.39790E-09
 -1      6603 1.33893E+00 9.27644E-01-3.39092E-09-6.32907E-01 1.59938E-09 1.16209E-09
 -1      6604 1.33893E+00 9.27644E-01-2.95980E-09-6.32907E-01 1.35870E-09 9.87118E-10
 -1      6605 1.33893E+00 9.27644E-01-3.97791E-09-6.32907E-01 1.81704E-10 1.32032E-10
 -1      6606 1.33893E+00 9.27644E-01-4.38971E-09-6.32907E-01 1.06616E-10 7.75896E-11
 -1      6607 1.33893E+00 9.27644E-01-4.49457E-09-6.32907E-01 5.57003E-11 4.04223E-11
 -1      6608 1.33893E+00 9.27644E-01-4.49458E-09-6.32907E-01-5.57085E-11-4.04141E-11
 -1      6609 1.33893E+00 9.27644E-01-4.38977E-09-6.32907E-01-1.06705E-10-7.75267E-11
 -1      6610 1.33893E+00 9.27644E-01-3.97795E-09-6.32907E-01-1.81657E-10-1.31986E-10
 -1      6611 1.33893E+00 9.27644E-01-2.95979E-09-6.32907E-01-1.35860E-09-9.87111E-10
 -1      6612 1.33893E+00 9.27644E-01-3.39098E-09-6.32907E-01-1.59940E-09-1.16202E-09
 -1      6613 1.52445E+00 7.42130E-01-3.39092E-09-5.38383E-01 1.76172E-09 8.97634E-10
 -1      6614 1.52445E+00 7.42130E-01-2.95977E-09-5.38383E-01 1.49618E-09 7.62277E-10
 -1      6615 1.52445E+00 7.42130E-01-3.97790E-09-5.38383E-01 2.00076E-10 1.01931E-10
 -1      6616 1.52445E+00 7.42130E-01-4.38974E-09-5.38383E-01 1.17567E-10 5.98631E-11
 -1      6617 1.52445E+00 7.42130E-01-4.49449E-09-5.38383E-01 6.11716E-11 3.11810E-11
 -1      6618 1.52445E+00 7.42130E-01-4.49447E-09-5.38383E-01-6.11405E-11-3.12419E-11
 -1      6619 1.52445E+00 7.42130E-01-4.38969E-09-5.38383E-01-1.17576E-10-5.99074E-11
 -1      6620 1.52445E+00 7.42130E-01-3.97797E-09-5.38383E-01-2.00137E-10-1.01921E-10
 -1      6621 1.52445E+00 7.42130E-01-2.95983E-09-5.38383E-01-1.49624E-09-7.62281E-10
 -1      6622 1.52445E+00 7.42130E-01-3.39087E-09-5.38383E-01-1.76176E-09-8.97724E-10
 -1      6623 1.67167E+00 5.94905E-01-3.39053E-09-3.91158E-01 1.87997E-09 6.10820E-10
 -1      6624 1.67167E+00 5.94905E-01-2.95943E-09-3.91158E-01 1.59726E-09 5.18959E-10
 -1      6625 1.67167E+00 5.94905E-01-3.97759E-09-3.91158E-01 2.13434E-10 6.93225E-11
 -1      6626 1.67167E+00 5.94905E-01-4.38935E-09-3.91158E-01 1.25520E-10 4.07205E-11
 -1      6627 1.67167E+00 5.94905E-01-4.49424E-09-3.91158E-01 6.55345E-11 2.12219E-11
 -1      6628 1.67167E+00 5.94905E-01-4.49427E-09-3.91158E-01-6.55047E-11-2.12618E-11
 -1      6629 1.67167E+00 5.94905E-01-4.38938E-09-3.91158E-01-1.25510E-10-4.07694E-11
 -1      6630 1.67167E+00 5.94905E-01-3.97756E-09-3.91158E-01-2.13420E-10-6.93528E-11
 -1      6631 1.67167E+00 5.94905E-01-2.95931E-09-3.91158E-01-1.59721E-09-5.18974E-10
 -1      6632 1.67167E+00 5.94905E-01-3.39053E-09-3.91158E-01-1.87999E-09-6.10769E-10
 -1      6633 1.76620E+00 5.00381E-01-3.39098E-09-2.05644E-01 1.95264E-09 3.09240E-10
 -1      6634 1.76620E+00 5.00381E-01-2.95988E-09-2.05644E-01 1.65858E-09 2.62672E-10
 -1      6635 1.76620E+00 5.00381E-01-3.97803E-09-2.05644E-01 2.21629E-10 3.51270E-11
 -1      6636 1.76620E+00 5.00381E-01-4.38990E-09-2.05644E-01 1.30205E-10 2.06294E-11
 -1      6637 1.76620E+00 5.00381E-01-4.49456E-09-2.05644E-01 6.78987E-11 1.07789E-11
 -1      6638 1.76620E+00 5.00381E-01-4.49452E-09-2.05644E-01-6.78321E-11-1.07554E-11
 -1      6639 1.76620E+00 5.00381E-01-4.38977E-09-2.05644E-01-1.30309E-10-2.06224E-11
 -1      6640 1.76620E+00 5.00381E-01-3.97800E-09-2.05644E-01-2.21708E-10-3.51055E-11
 -1      6641 1.76620E+00 5.00381E-01-2.95980E-09-2.05644E-01-1.65859E-09-2.62680E-10
 -1      6642 1.76620E+00 5.00381E-01-3.39096E-09-2.05644E-01-1.95261E-09-3.09281E-10
 -1      6643 5.65158E-01 1.70142E+00-5.38623E-09-1.84596E-01-1.35985E-10-8.58503E-10
 -1      6644 5.65158E-01 1.70142E+00-5.52964E-09-1.84596E-01-1.13341E-11-7.15337E-11
 -1      6645 5.65158E-01 1.70142E+00-5.13862E-09-1.84596E-01-2.82326E-11-1.78251E-10
 -1      6646 5.65158E-01 1.70142E+00-5.01689E-09-1.84596E-01 5.04259E-12 3.19536E-11
 -1      6647 5.65158E-01 1.70142E+00-4.98484E-09-1.84596E-01 2.78406E-12 1.76561E-11
 -1      6648 5.65158E-01 1.70142E+00-4.98479E-09-1.84596E-01-2.80063E-12-1.76236E-11
 -1      6649 5.65158E-01 1.70142E+00-5.01690E-09-1.84596E-01-5.06125E-12-3.19192E-11
 -1      6650 5.65158E-01 1.70142E+00-5.13860E-09-1.84596E-01 2.82192E-11 1.78115E-10
 -1      6651 5.65158E-01 1.70142E+00-5.52961E-09-1.84596E-01 1.13153E-11 7.15427E-11
 -1      6652 5.65158E-01 1.70142E+00-5.38618E-09-1.84596E-01 1.35975E-10 8.58353E-10
 -1      6653 6.50008E-01 1.61657E+00-5.38631E-09-3.51123E-01-2.68583E-10-8.26644E-10
 -1      6654 6.50008E-01 1.61657E+00-5.52973E-09-3.51123E-01-2.24335E-11-6.88868E-11
 -1      6655 6.50008E-01 1.61657E+00-5.13868E-09-3.51123E-01-5.57457E-11-1.71581E-10
 -1      6656 6.50008E-01 1.61657E+00-5.01689E-09-3.51123E-01 9.93936E-12 3.07896E-11
 -1      6657 6.50008E-01 1.61657E+00-4.98491E-09-3.51123E-01 5.48696E-12 1.69967E-11
 -1      6658 6.50008E-01 1.61657E+00-4.98490E-09-3.51123E-01-5.52617E-12-1.70103E-11
 -1      6659 6.50008E-01 1.61657E+00-5.01693E-09-3.51123E-01-9.99411E-12-3.06969E-11
 -1      6660 6.50008E-01 1.61657E+00-5.13869E-09-3.51123E-01 5.57233E-11 1.71601E-10
 -1      6661 6.50008E-01 1.61657E+00-5.52974E-09-3.51123E-01 2.24216E-11 6.89334E-11
 -1      6662 6.50008E-01 1.61657E+00-5.38624E-09-3.51123E-01 2.68602E-10 8.26646E-10
 -1      6663 7.82165E-01 1.48441E+00-5.38625E-09-4.83280E-01-3.94608E-10-7.74315E-10
 -1      6664 7.82165E-01 1.48441E+00-5.52968E-09-4.83280E-01-3.28670E-11-6.45407E-11
 -1      6665 7.82165E-01 1.48441E+00-5.13867E-09-4.83280E-01-8.18853E-11-1.60709E-10
 -1      6666 7.82165E-01 1.48441E+00-5.01698E-09-4.83280E-01 1.46471E-11 2.87837E-11
 -1      6667 7.82165E-01 1.48441E+00-4.98488E-09-4.83280E-01 8.12144E-12 1.59561E-11
 -1      6668 7.82165E-01 1.48441E+00-4.98489E-09-4.83280E-01-8.12119E-12-1.58930E-11
 -1      6669 7.82165E-01 1.48441E+00-5.01693E-09-4.83280E-01-1.46633E-11-2.89122E-11
 -1      6670 7.82165E-01 1.48441E+00-5.13875E-09-4.83280E-01 8.18914E-11 1.60649E-10
 -1      6671 7.82165E-01 1.48441E+00-5.52970E-09-4.83280E-01 3.28638E-11 6.46213E-11
 -1      6672 7.82165E-01 1.48441E+00-5.38632E-09-4.83280E-01 3.94543E-10 7.74369E-10
 -1      6673 9.48691E-01 1.31788E+00-5.38613E-09-5.68130E-01-5.10808E-10-7.03195E-10
 -1      6674 9.48691E-01 1.31788E+00-5.52963E-09-5.68130E-01-4.25566E-11-5.85842E-11
 -1      6675 9.48691E-01 1.31788E+00-5.13849E-09-5.68130E-01-1.05995E-10-1.45938E-10
 -1      6676 9.48691E-01 1.31788E+00-5.01677E-09-5.68130E-01 1.89805E-11 2.61788E-11
 -1      6677 9.48691E-01 1.31788E+00-4.98471E-09-5.68130E-01 1.04915E-11 1.45452E-11
 -1      6678 9.48691E-01 1.31788E+00-4.98472E-09-5.68130E-01-1.05250E-11-1.44164E-11
 -1      6679 9.48691E-01 1.31788E+00-5.01677E-09-5.68130E-01-1.89781E-11-2.61126E-11
 -1      6680 9.48691E-01 1.31788E+00-5.13854E-09-5.68130E-01 1.06020E-10 1.45893E-10
 -1      6681 9.48691E-01 1.31788E+00-5.52958E-09-5.68130E-01 4.25842E-11 5.85667E-11
 -1      6682 9.48691E-01 1.31788E+00-5.38618E-09-5.68130E-01 5.10863E-10 7.03097E-10
 -1      6683 1.13329E+00 1.13329E+00-5.38605E-09-5.97367E-01-6.14603E-10-6.14591E-10
 -1      6684 1.13329E+00 1.13329E+00-5.52941E-09-5.97367E-01-5.12566E-11-5.12088E-11
 -1      6685 1.13329E+00 1.13329E+00-5.13844E-09-5.97367E-01-1.27559E-10-1.27545E-10
 -1      6686 1.13329E+00 1.13329E+00-5.01677E-09-5.97367E-01 2.28314E-11 2.28733E-11
 -1      6687 1.13329E+00 1.13329E+00-4.98479E-09-5.97367E-01 1.26377E-11 1.26139E-11
 -1      6688 1.13329E+00 1.13329E+00-4.98470E-09-5.97367E-01-1.25942E-11-1.26076E-11
 -1      6689 1.13329E+00 1.13329E+00-5.01674E-09-5.97367E-01-2.28194E-11-2.28848E-11
 -1      6690 1.13329E+00 1.13329E+00-5.13850E-09-5.97367E-01 1.27537E-10 1.27605E-10
 -1      6691 1.13329E+00 1.13329E+00-5.52947E-09-5.97367E-01 5.12149E-11 5.11559E-11
 -1      6692 1.13329E+00 1.13329E+00-5.38599E-09-5.97367E-01 6.14538E-10 6.14611E-10
 -1      6693 1.31788E+00 9.48691E-01-5.38648E-09-5.68130E-01-7.03141E-10-5.10875E-10
 -1      6694 1.31788E+00 9.48691E-01-5.52986E-09-5.68130E-01-5.85907E-11-4.25384E-11
 -1      6695 1.31788E+00 9.48691E-01-5.13883E-09-5.68130E-01-1.45932E-10-1.06046E-10
 -1      6696 1.31788E+00 9.48691E-01-5.01712E-09-5.68130E-01 2.61584E-11 1.89853E-11
 -1      6697 1.31788E+00 9.48691E-01-4.98502E-09-5.68130E-01 1.44529E-11 1.05535E-11
 -1      6698 1.31788E+00 9.48691E-01-4.98507E-09-5.68130E-01-1.44034E-11-1.04987E-11
 -1      6699 1.31788E+00 9.48691E-01-5.01708E-09-5.68130E-01-2.61364E-11-1.90159E-11
 -1      6700 1.31788E+00 9.48691E-01-5.13876E-09-5.68130E-01 1.45936E-10 1.05994E-10
 -1      6701 1.31788E+00 9.48691E-01-5.52989E-09-5.68130E-01 5.86067E-11 4.25788E-11
 -1      6702 1.31788E+00 9.48691E-01-5.38644E-09-5.68130E-01 7.03191E-10 5.10828E-10
 -1      6703 1.48441E+00 7.82165E-01-5.38634E-09-4.83280E-01-7.74325E-10-3.94512E-10
 -1      6704 1.48441E+00 7.82165E-01-5.52976E-09-4.83280E-01-6.45734E-11-3.28675E-11
 -1      6705 1.48441E+00 7.82165E-01-5.13869E-09-4.83280E-01-1.60657E-10-8.18694E-11
 -1      6706 1.48441E+00 7.82165E-01-5.01696E-09-4.83280E-01 2.87438E-11 1.46820E-11
 -1      6707 1.48441E+00 7.82165E-01-4.98496E-09-4.83280E-01 1.59259E-11 8.08563E-12
 -1      6708 1.48441E+00 7.82165E-01-4.98486E-09-4.83280E-01-1.60403E-11-8.11805E-12
 -1      6709 1.48441E+00 7.82165E-01-5.01691E-09-4.83280E-01-2.87560E-11-1.46760E-11
 -1      6710 1.48441E+00 7.82165E-01-5.13871E-09-4.83280E-01 1.60677E-10 8.19100E-11
 -1      6711 1.48441E+00 7.82165E-01-5.52965E-09-4.83280E-01 6.45612E-11 3.29378E-11
 -1      6712 1.48441E+00 7.82165E-01-5.38638E-09-4.83280E-01 7.74216E-10 3.94547E-10
 -1      6713 1.61657E+00 6.50008E-01-5.38581E-09-3.51123E-01-8.26614E-10-2.68658E-10
 -1      6714 1.61657E+00 6.50008E-01-5.52924E-09-3.51123E-01-6.88208E-11-2.23691E-11
 -1      6715 1.61657E+00 6.50008E-01-5.13826E-09-3.51123E-01-1.71568E-10-5.57596E-11
 -1      6716 1.61657E+00 6.50008E-01-5.01649E-09-3.51123E-01 3.08377E-11 9.96653E-12
 -1      6717 1.61657E+00 6.50008E-01-4.98436E-09-3.51123E-01 1.70302E-11 5.51749E-12
 -1      6718 1.61657E+00 6.50008E-01-4.98441E-09-3.51123E-01-1.70510E-11-5.51486E-12
 -1      6719 1.61657E+00 6.50008E-01-5.01652E-09-3.51123E-01-3.08751E-11-9.97517E-12
 -1      6720 1.61657E+00 6.50008E-01-5.13820E-09-3.51123E-01 1.71569E-10 5.57397E-11
 -1      6721 1.61657E+00 6.50008E-01-5.52937E-09-3.51123E-01 6.87693E-11 2.23517E-11
 -1      6722 1.61657E+00 6.50008E-01-5.38590E-09-3.51123E-01 8.26706E-10 2.68615E-10
 -1      6723 1.70142E+00 5.65158E-01-5.38628E-09-1.84596E-01-8.58372E-10-1.35984E-10
 -1      6724 1.70142E+00 5.65158E-01-5.52973E-09-1.84596E-01-7.16341E-11-1.13388E-11
 -1      6725 1.70142E+00 5.65158E-01-5.13876E-09-1.84596E-01-1.78172E-10-2.82255E-11
 -1      6726 1.70142E+00 5.65158E-01-5.01707E-09-1.84596E-01 3.19187E-11 5.05000E-12
 -1      6727 1.70142E+00 5.65158E-01-4.98499E-09-1.84596E-01 1.75837E-11 2.78454E-12
 -1      6728 1.70142E+00 5.65158E-01-4.98501E-09-1.84596E-01-1.76268E-11-2.78325E-12
 -1      6729 1.70142E+00 5.65158E-01-5.01706E-09-1.84596E-01-3.18573E-11-5.09236E-12
 -1      6730 1.70142E+00 5.65158E-01-5.13874E-09-1.84596E-01 1.78139E-10 2.81934E-11
 -1      6731 1.70142E+00 5.65158E-01-5.52976E-09-1.84596E-01 7.16631E-11 1.13403E-11
 -1      6732 1.70142E+00 5.65158E-01-5.38628E-09-1.84596E-01 8.58431E-10 1.35998E-10
 -1      6733 6.20481E-01 1.64609E+00-3.46132E-09-1.66621E-01 2.84572E-11 1.79613E-10
 -1      6734 6.20481E-01 1.64609E+00-3.42565E-09-1.66621E-01 2.63133E-11 1.66076E-10
 -1      6735 6.20481E-01 1.64609E+00-3.51862E-09-1.66621E-01-3.85069E-12-2.41337E-11
 -1      6736 6.20481E-01 1.64609E+00-3.55597E-09-1.66621E-01 5.34580E-12 3.37623E-11
 -1      6737 6.20481E-01 1.64609E+00-3.55884E-09-1.66621E-01-1.18764E-14 4.39666E-15
 -1      6738 6.20481E-01 1.64609E+00-3.55887E-09-1.66621E-01-3.42402E-14 1.15505E-14
 -1      6739 6.20481E-01 1.64609E+00-3.55593E-09-1.66621E-01-5.38427E-12-3.37873E-11
 -1      6740 6.20481E-01 1.64609E+00-3.51860E-09-1.66621E-01 3.78712E-12 2.40932E-11
 -1      6741 6.20481E-01 1.64609E+00-3.42564E-09-1.66621E-01-2.63195E-11-1.66204E-10
 -1      6742 6.20481E-01 1.64609E+00-3.46130E-09-1.66621E-01-2.84438E-11-1.79658E-10
 -1      6743 6.97068E-01 1.56951E+00-3.46139E-09-3.16932E-01 5.61602E-11 1.72990E-10
 -1      6744 6.97068E-01 1.56951E+00-3.42571E-09-3.16932E-01 5.19681E-11 1.59904E-10
 -1      6745 6.97068E-01 1.56951E+00-3.51866E-09-3.16932E-01-7.55758E-12-2.32965E-11
 -1      6746 6.97068E-01 1.56951E+00-3.55596E-09-3.16932E-01 1.05125E-11 3.24868E-11
 -1      6747 6.97068E-01 1.56951E+00-3.55890E-09-3.16932E-01-1.12537E-14 5.39954E-14
 -1      6748 6.97068E-01 1.56951E+00-3.55891E-09-3.16932E-01-4.61751E-14-5.98993E-14
 -1      6749 6.97068E-01 1.56951E+00-3.55603E-09-3.16932E-01-1.05541E-11-3.25155E-11
 -1      6750 6.97068E-01 1.56951E+00-3.51861E-09-3.16932E-01 7.57957E-12 2.33501E-11
 -1      6751 6.97068E-01 1.56951E+00-3.42566E-09-3.16932E-01-5.19587E-11-1.59901E-10
 -1      6752 6.97068E-01 1.56951E+00-3.46139E-09-3.16932E-01-5.61721E-11-1.72935E-10
 -1      6753 8.16356E-01 1.45022E+00-3.46141E-09-4.36220E-01 8.25905E-11 1.62033E-10
 -1      6754 8.16356E-01 1.45022E+00-3.42572E-09-4.36220E-01 7.63567E-11 1.49915E-10
 -1      6755 8.16356E-01 1.45022E+00-3.51868E-09-4.36220E-01-1.11073E-11-2.16692E-11
 -1      6756 8.16356E-01 1.45022E+00-3.55604E-09-4.36220E-01 1.54845E-11 3.04676E-11
 -1      6757 8.16356E-01 1.45022E+00-3.55892E-09-4.36220E-01 5.94285E-14 1.64345E-14
 -1      6758 8.16356E-01 1.45022E+00-3.55897E-09-4.36220E-01-3.71628E-14-5.47771E-14
 -1      6759 8.16356E-01 1.45022E+00-3.55601E-09-4.36220E-01-1.55364E-11-3.05527E-11
 -1      6760 8.16356E-01 1.45022E+00-3.51875E-09-4.36220E-01 1.10640E-11 2.18092E-11
 -1      6761 8.16356E-01 1.45022E+00-3.42575E-09-4.36220E-01-7.63603E-11-1.49866E-10
 -1      6762 8.16356E-01 1.45022E+00-3.46138E-09-4.36220E-01-8.25707E-11-1.61967E-10
 -1      6763 9.66667E-01 1.29991E+00-3.46119E-09-5.12807E-01 1.06882E-10 1.47121E-10
 -1      6764 9.66667E-01 1.29991E+00-3.42547E-09-5.12807E-01 9.89038E-11 1.36118E-10
 -1      6765 9.66667E-01 1.29991E+00-3.51845E-09-5.12807E-01-1.43626E-11-1.98004E-11
 -1      6766 9.66667E-01 1.29991E+00-3.55574E-09-5.12807E-01 2.01447E-11 2.77167E-11
 -1      6767 9.66667E-01 1.29991E+00-3.55865E-09-5.12807E-01 5.11599E-14 6.01005E-14
 -1      6768 9.66667E-01 1.29991E+00-3.55859E-09-5.12807E-01 2.89633E-14-2.79676E-14
 -1      6769 9.66667E-01 1.29991E+00-3.55571E-09-5.12807E-01-2.01331E-11-2.75434E-11
 -1      6770 9.66667E-01 1.29991E+00-3.51841E-09-5.12807E-01 1.43731E-11 1.98210E-11
 -1      6771 9.66667E-01 1.29991E+00-3.42546E-09-5.12807E-01-9.89349E-11-1.36117E-10
 -1      6772 9.66667E-01 1.29991E+00-3.46117E-09-5.12807E-01-1.06907E-10-1.47140E-10
 -1      6773 1.13329E+00 1.13329E+00-3.46114E-09-5.39197E-01 1.28563E-10 1.28570E-10
 -1      6774 1.13329E+00 1.13329E+00-3.42552E-09-5.39197E-01 1.18933E-10 1.18951E-10
 -1      6775 1.13329E+00 1.13329E+00-3.51845E-09-5.39197E-01-1.73603E-11-1.72107E-11
 -1      6776 1.13329E+00 1.13329E+00-3.55577E-09-5.39197E-01 2.41715E-11 2.41477E-11
 -1      6777 1.13329E+00 1.13329E+00-3.55866E-09-5.39197E-01 3.58823E-14 4.83960E-14
 -1      6778 1.13329E+00 1.13329E+00-3.55872E-09-5.39197E-01-8.92647E-14 2.22786E-15
 -1      6779 1.13329E+00 1.13329E+00-3.55576E-09-5.39197E-01-2.42551E-11-2.41466E-11
 -1      6780 1.13329E+00 1.13329E+00-3.51846E-09-5.39197E-01 1.72431E-11 1.72054E-11
 -1      6781 1.13329E+00 1.13329E+00-3.42542E-09-5.39197E-01-1.18943E-10-1.18927E-10
 -1      6782 1.13329E+00 1.13329E+00-3.46119E-09-5.39197E-01-1.28592E-10-1.28620E-10
 -1      6783 1.29991E+00 9.66667E-01-3.46159E-09-5.12807E-01 1.47080E-10 1.06921E-10
 -1      6784 1.29991E+00 9.66667E-01-3.42588E-09-5.12807E-01 1.35994E-10 9.88668E-11
 -1      6785 1.29991E+00 9.66667E-01-3.51893E-09-5.12807E-01-1.97224E-11-1.44350E-11
 -1      6786 1.29991E+00 9.66667E-01-3.55621E-09-5.12807E-01 2.75935E-11 2.01116E-11
 -1      6787 1.29991E+00 9.66667E-01-3.55915E-09-5.12807E-01 1.73772E-13 6.42654E-14
 -1      6788 1.29991E+00 9.66667E-01-3.55910E-09-5.12807E-01-1.07140E-13-2.32323E-14
 -1      6789 1.29991E+00 9.66667E-01-3.55625E-09-5.12807E-01-2.76043E-11-2.01055E-11
 -1      6790 1.29991E+00 9.66667E-01-3.51893E-09-5.12807E-01 1.98517E-11 1.43482E-11
 -1      6791 1.29991E+00 9.66667E-01-3.42589E-09-5.12807E-01-1.36063E-10-9.88981E-11
 -1      6792 1.29991E+00 9.66667E-01-3.46163E-09-5.12807E-01-1.47027E-10-1.06874E-10
 -1      6793 1.45022E+00 8.16356E-01-3.46147E-09-4.36220E-01 1.62093E-10 8.25598E-11
 -1      6794 1.45022E+00 8.16356E-01-3.42574E-09-4.36220E-01 1.49938E-10 7.63537E-11
 -1      6795 1.45022E+00 8.16356E-01-3.51867E-09-4.36220E-01-2.17837E-11-1.10302E-11
 -1      6796 1.45022E+00 8.16356E-01-3.55604E-09-4.36220E-01 3.04953E-11 1.55176E-11
 -1      6797 1.45022E+00 8.16356E-01-3.55887E-09-4.36220E-01-1.95957E-14 7.02692E-14
 -1      6798 1.45022E+00 8.16356E-01-3.55889E-09-4.36220E-01 2.43720E-14-2.28402E-14
 -1      6799 1.45022E+00 8.16356E-01-3.55597E-09-4.36220E-01-3.04378E-11-1.54672E-11
 -1      6800 1.45022E+00 8.16356E-01-3.51863E-09-4.36220E-01 2.17201E-11 1.11602E-11
 -1      6801 1.45022E+00 8.16356E-01-3.42566E-09-4.36220E-01-1.49767E-10-7.63294E-11
 -1      6802 1.45022E+00 8.16356E-01-3.46144E-09-4.36220E-01-1.62122E-10-8.26392E-11
 -1      6803 1.56951E+00 6.97068E-01-3.46083E-09-3.16932E-01 1.72948E-10 5.62125E-11
 -1      6804 1.56951E+00 6.97068E-01-3.42507E-09-3.16932E-01 1.60127E-10 5.20202E-11
 -1      6805 1.56951E+00 6.97068E-01-3.51801E-09-3.16932E-01-2.32137E-11-7.57051E-12
 -1      6806 1.56951E+00 6.97068E-01-3.55534E-09-3.16932E-01 3.25706E-11 1.05734E-11
 -1      6807 1.56951E+00 6.97068E-01-3.55826E-09-3.16932E-01 5.40441E-14 9.53206E-15
 -1      6808 1.56951E+00 6.97068E-01-3.55832E-09-3.16932E-01-1.87123E-13-3.74930E-14
 -1      6809 1.56951E+00 6.97068E-01-3.55537E-09-3.16932E-01-3.25711E-11-1.06234E-11
 -1      6810 1.56951E+00 6.97068E-01-3.51804E-09-3.16932E-01 2.32845E-11 7.51827E-12
 -1      6811 1.56951E+00 6.97068E-01-3.42523E-09-3.16932E-01-1.60115E-10-5.19846E-11
 -1      6812 1.56951E+00 6.97068E-01-3.46082E-09-3.16932E-01-1.72997E-10-5.61489E-11
 -1      6813 1.64609E+00 6.20481E-01-3.46141E-09-1.66621E-01 1.79628E-10 2.83870E-11
 -1      6814 1.64609E+00 6.20481E-01-3.42570E-09-1.66621E-01 1.65983E-10 2.62824E-11
 -1      6815 1.64609E+00 6.20481E-01-3.51875E-09-1.66621E-01-2.41775E-11-3.82731E-12
 -1      6816 1.64609E+00 6.20481E-01-3.55603E-09-1.66621E-01 3.37469E-11 5.34816E-12
 -1      6817 1.64609E+00 6.20481E-01-3.55900E-09-1.66621E-01 8.07708E-14 1.58599E-14
 -1      6818 1.64609E+00 6.20481E-01-3.55895E-09-1.66621E-01-5.33389E-14-2.41242E-14
 -1      6819 1.64609E+00 6.20481E-01-3.55608E-09-1.66621E-01-3.37151E-11-5.35090E-12
 -1      6820 1.64609E+00 6.20481E-01-3.51871E-09-1.66621E-01 2.41992E-11 3.83272E-12
 -1      6821 1.64609E+00 6.20481E-01-3.42570E-09-1.66621E-01-1.66180E-10-2.63205E-11
 -1      6822 1.64609E+00 6.20481E-01-3.46144E-09-1.66621E-01-1.79633E-10-2.84059E-11
 -1      6823 6.68102E-01 1.59847E+00-2.99416E-09-1.51148E-01-2.08010E-12-1.29511E-11
 -1      6824 6.68102E-01 1.59847E+00-2.98852E-09-1.51148E-01 2.24638E-13 1.73710E-12
 -1      6825 6.68102E-01 1.59847E+00-2.95055E-09-1.51148E-01-5.10434E-12-3.20869E-11
 -1      6826 6.68102E-01 1.59847E+00-2.94416E-09-1.51148E-01 1.97483E-12 1.26566E-11
 -1      6827 6.68102E-01 1.59847E+00-2.94027E-09-1.51148E-01-8.40089E-13-5.10114E-12
 -1      6828 6.68102E-01 1.59847E+00-2.94017E-09-1.51148E-01 7.74709E-13 5.14685E-12
 -1      6829 6.68102E-01 1.59847E+00-2.94418E-09-1.51148E-01-2.04518E-12-1.26902E-11
 -1      6830 6.68102E-01 1.59847E+00-2.95066E-09-1.51148E-01 5.06396E-12 3.20968E-11
 -1      6831 6.68102E-01 1.59847E+00-2.98850E-09-1.51148E-01-3.00188E-13-1.78502E-12
 -1      6832 6.68102E-01 1.59847E+00-2.99422E-09-1.51148E-01 2.03741E-12 1.28789E-11
 -1      6833 7.37577E-01 1.52900E+00-2.99415E-09-2.87500E-01-4.04680E-12-1.24938E-11
 -1      6834 7.37577E-01 1.52900E+00-2.98855E-09-2.87500E-01 5.37492E-13 1.56251E-12
 -1      6835 7.37577E-01 1.52900E+00-2.95066E-09-2.87500E-01-1.00374E-11-3.08647E-11
 -1      6836 7.37577E-01 1.52900E+00-2.94423E-09-2.87500E-01 3.93002E-12 1.21215E-11
 -1      6837 7.37577E-01 1.52900E+00-2.94026E-09-2.87500E-01-1.66293E-12-4.94462E-12
 -1      6838 7.37577E-01 1.52900E+00-2.94025E-09-2.87500E-01 1.54883E-12 4.95745E-12
 -1      6839 7.37577E-01 1.52900E+00-2.94418E-09-2.87500E-01-3.98362E-12-1.21700E-11
 -1      6840 7.37577E-01 1.52900E+00-2.95061E-09-2.87500E-01 9.99960E-12 3.09693E-11
 -1      6841 7.37577E-01 1.52900E+00-2.98865E-09-2.87500E-01-5.19772E-13-1.62730E-12
 -1      6842 7.37577E-01 1.52900E+00-2.99415E-09-2.87500E-01 4.05058E-12 1.24826E-11
 -1      6843 8.45788E-01 1.42079E+00-2.99433E-09-3.95710E-01-6.01087E-12-1.16010E-11
 -1      6844 8.45788E-01 1.42079E+00-2.98867E-09-3.95710E-01 7.78503E-13 1.63424E-12
 -1      6845 8.45788E-01 1.42079E+00-2.95059E-09-3.95710E-01-1.47049E-11-2.89755E-11
 -1      6846 8.45788E-01 1.42079E+00-2.94415E-09-3.95710E-01 5.75763E-12 1.13756E-11
 -1      6847 8.45788E-01 1.42079E+00-2.94021E-09-3.95710E-01-2.38247E-12-4.61961E-12
 -1      6848 8.45788E-01 1.42079E+00-2.94024E-09-3.95710E-01 2.47302E-12 4.72376E-12
 -1      6849 8.45788E-01 1.42079E+00-2.94423E-09-3.95710E-01-5.81006E-12-1.13752E-11
 -1      6850 8.45788E-01 1.42079E+00-2.95065E-09-3.95710E-01 1.47827E-11 2.89018E-11
 -1      6851 8.45788E-01 1.42079E+00-2.98859E-09-3.95710E-01-8.42732E-13-1.60599E-12
 -1      6852 8.45788E-01 1.42079E+00-2.99433E-09-3.95710E-01 5.92330E-12 1.16720E-11
 -1      6853 9.82140E-01 1.28444E+00-2.99401E-09-4.65186E-01-7.61747E-12-1.06361E-11
 -1      6854 9.82140E-01 1.28444E+00-2.98833E-09-4.65186E-01 1.05321E-12 1.45208E-12
 -1      6855 9.82140E-01 1.28444E+00-2.95035E-09-4.65186E-01-1.90400E-11-2.62679E-11
 -1      6856 9.82140E-01 1.28444E+00-2.94391E-09-4.65186E-01 7.60924E-12 1.03505E-11
 -1      6857 9.82140E-01 1.28444E+00-2.93994E-09-4.65186E-01-3.05795E-12-4.25888E-12
 -1      6858 9.82140E-01 1.28444E+00-2.93995E-09-4.65186E-01 2.99634E-12 4.30060E-12
 -1      6859 9.82140E-01 1.28444E+00-2.94394E-09-4.65186E-01-7.56578E-12-1.03675E-11
 -1      6860 9.82140E-01 1.28444E+00-2.95030E-09-4.65186E-01 1.90981E-11 2.62619E-11
 -1      6861 9.82140E-01 1.28444E+00-2.98827E-09-4.65186E-01-1.09902E-12-1.33221E-12
 -1      6862 9.82140E-01 1.28444E+00-2.99397E-09-4.65186E-01 7.67063E-12 1.05925E-11
 -1      6863 1.13329E+00 1.13329E+00-2.99394E-09-4.89125E-01-9.19674E-12-9.22264E-12
 -1      6864 1.13329E+00 1.13329E+00-2.98826E-09-4.89125E-01 1.29126E-12 1.21374E-12
 -1      6865 1.13329E+00 1.13329E+00-2.95031E-09-4.89125E-01-2.29526E-11-2.29900E-11
 -1      6866 1.13329E+00 1.13329E+00-2.94388E-09-4.89125E-01 8.99913E-12 9.10036E-12
 -1      6867 1.13329E+00 1.13329E+00-2.93993E-09-4.89125E-01-3.70472E-12-3.81452E-12
 -1      6868 1.13329E+00 1.13329E+00-2.94001E-09-4.89125E-01 3.61885E-12 3.66845E-12
 -1      6869 1.13329E+00 1.13329E+00-2.94385E-09-4.89125E-01-9.14296E-12-8.97557E-12
 -1      6870 1.13329E+00 1.13329E+00-2.95031E-09-4.89125E-01 2.29332E-11 2.30873E-11
 -1      6871 1.13329E+00 1.13329E+00-2.98829E-09-4.89125E-01-1.30742E-12-1.39942E-12
 -1      6872 1.13329E+00 1.13329E+00-2.99402E-09-4.89125E-01 9.24402E-12 9.31934E-12
 -1      6873 1.28444E+00 9.82140E-01-2.99453E-09-4.65186E-01-1.07185E-11-7.73775E-12
 -1      6874 1.28444E+00 9.82140E-01-2.98892E-09-4.65186E-01 1.43566E-12 1.01132E-12
 -1      6875 1.28444E+00 9.82140E-01-2.95091E-09-4.65186E-01-2.64264E-11-1.90426E-11
 -1      6876 1.28444E+00 9.82140E-01-2.94455E-09-4.65186E-01 1.03186E-11 7.54931E-12
 -1      6877 1.28444E+00 9.82140E-01-2.94060E-09-4.65186E-01-4.28482E-12-3.00241E-12
 -1      6878 1.28444E+00 9.82140E-01-2.94055E-09-4.65186E-01 4.33200E-12 3.12053E-12
 -1      6879 1.28444E+00 9.82140E-01-2.94455E-09-4.65186E-01-1.02541E-11-7.52768E-12
 -1      6880 1.28444E+00 9.82140E-01-2.95087E-09-4.65186E-01 2.62776E-11 1.90307E-11
 -1      6881 1.28444E+00 9.82140E-01-2.98895E-09-4.65186E-01-1.35041E-12-9.13381E-13
 -1      6882 1.28444E+00 9.82140E-01-2.99456E-09-4.65186E-01 1.06133E-11 7.66846E-12
 -1      6883 1.42079E+00 8.45788E-01-2.99430E-09-3.95710E-01-1.16520E-11-5.85367E-12
 -1      6884 1.42079E+00 8.45788E-01-2.98861E-09-3.95710E-01 1.56284E-12 8.17320E-13
 -1      6885 1.42079E+00 8.45788E-01-2.95056E-09-3.95710E-01-2.87982E-11-1.47434E-11
 -1      6886 1.42079E+00 8.45788E-01-2.94418E-09-3.95710E-01 1.14509E-11 5.79841E-12
 -1      6887 1.42079E+00 8.45788E-01-2.94025E-09-3.95710E-01-4.64945E-12-2.40167E-12
 -1      6888 1.42079E+00 8.45788E-01-2.94031E-09-3.95710E-01 4.68564E-12 2.50264E-12
 -1      6889 1.42079E+00 8.45788E-01-2.94417E-09-3.95710E-01-1.14816E-11-5.82253E-12
 -1      6890 1.42079E+00 8.45788E-01-2.95057E-09-3.95710E-01 2.89275E-11 1.47091E-11
 -1      6891 1.42079E+00 8.45788E-01-2.98862E-09-3.95710E-01-1.50087E-12-8.71770E-13
 -1      6892 1.42079E+00 8.45788E-01-2.99432E-09-3.95710E-01 1.16828E-11 5.94878E-12
 -1      6893 1.52900E+00 7.37577E-01-2.99349E-09-2.87500E-01-1.24188E-11-4.07741E-12
 -1      6894 1.52900E+00 7.37577E-01-2.98786E-09-2.87500E-01 1.92762E-12 5.80507E-13
 -1      6895 1.52900E+00 7.37577E-01-2.94981E-09-2.87500E-01-3.08811E-11-1.00604E-11
 -1      6896 1.52900E+00 7.37577E-01-2.94340E-09-2.87500E-01 1.23445E-11 4.00196E-12
 -1      6897 1.52900E+00 7.37577E-01-2.93939E-09-2.87500E-01-5.02340E-12-1.59694E-12
 -1      6898 1.52900E+00 7.37577E-01-2.93938E-09-2.87500E-01 4.91899E-12 1.60323E-12
 -1      6899 1.52900E+00 7.37577E-01-2.94340E-09-2.87500E-01-1.23107E-11-3.96383E-12
 -1      6900 1.52900E+00 7.37577E-01-2.94984E-09-2.87500E-01 3.08335E-11 1.00490E-11
 -1      6901 1.52900E+00 7.37577E-01-2.98781E-09-2.87500E-01-1.84129E-12-6.19412E-13
 -1      6902 1.52900E+00 7.37577E-01-2.99346E-09-2.87500E-01 1.22563E-11 4.04573E-12
 -1      6903 1.59847E+00 6.68102E-01-2.99421E-09-1.51148E-01-1.30131E-11-2.11836E-12
 -1      6904 1.59847E+00 6.68102E-01-2.98854E-09-1.51148E-01 1.68397E-12 2.14497E-13
 -1      6905 1.59847E+00 6.68102E-01-2.95057E-09-1.51148E-01-3.21000E-11-5.11891E-12
 -1      6906 1.59847E+00 6.68102E-01-2.94415E-09-1.51148E-01 1.25550E-11 1.97897E-12
 -1      6907 1.59847E+00 6.68102E-01-2.94028E-09-1.51148E-01-5.12578E-12-8.35934E-13
 -1      6908 1.59847E+00 6.68102E-01-2.94034E-09-1.51148E-01 5.24241E-12 8.39134E-13
 -1      6909 1.59847E+00 6.68102E-01-2.94423E-09-1.51148E-01-1.25631E-11-1.99427E-12
 -1      6910 1.59847E+00 6.68102E-01-2.95070E-09-1.51148E-01 3.20722E-11 5.10264E-12
 -1      6911 1.59847E+00 6.68102E-01-2.98862E-09-1.51148E-01-1.70227E-12-2.07539E-13
 -1      6912 1.59847E+00 6.68102E-01-2.99423E-09-1.51148E-01 1.29094E-11 2.12691E-12
 -1      6913 7.09388E-01 1.55719E+00-2.35166E-09-1.37734E-01 1.06935E-11 6.76924E-11
 -1      6914 7.09388E-01 1.55719E+00-2.33897E-09-1.37734E-01 9.56422E-13 6.06525E-12
 -1      6915 7.09388E-01 1.55719E+00-2.34666E-09-1.37734E-01-1.37113E-12-8.64503E-12
 -1      6916 7.09388E-01 1.55719E+00-2.35147E-09-1.37734E-01 1.22584E-12 8.00706E-12
 -1      6917 7.09388E-01 1.55719E+00-2.35079E-09-1.37734E-01-7.00162E-13-4.22190E-12
 -1      6918 7.09388E-01 1.55719E+00-2.35088E-09-1.37734E-01 6.67947E-13 4.21883E-12
 -1      6919 7.09388E-01 1.55719E+00-2.35147E-09-1.37734E-01-1.28991E-12-7.80670E-12
 -1      6920 7.09388E-01 1.55719E+00-2.34675E-09-1.37734E-01 1.32224E-12 8.55976E-12
 -1      6921 7.09388E-01 1.55719E+00-2.33899E-09-1.37734E-01-9.91950E-13-6.04804E-12
 -1      6922 7.09388E-01 1.55719E+00-2.35167E-09-1.37734E-01-1.06940E-11-6.76137E-11
 -1      6923 7.72697E-01 1.49388E+00-2.35173E-09-2.61985E-01 2.10711E-11 6.50618E-11
 -1      6924 7.72697E-01 1.49388E+00-2.33897E-09-2.61985E-01 1.86141E-12 5.88463E-12
 -1      6925 7.72697E-01 1.49388E+00-2.34681E-09-2.61985E-01-2.75636E-12-8.31048E-12
 -1      6926 7.72697E-01 1.49388E+00-2.35148E-09-2.61985E-01 2.42384E-12 7.46475E-12
 -1      6927 7.72697E-01 1.49388E+00-2.35085E-09-2.61985E-01-1.35208E-12-4.21175E-12
 -1      6928 7.72697E-01 1.49388E+00-2.35087E-09-2.61985E-01 1.31170E-12 4.18566E-12
 -1      6929 7.72697E-01 1.49388E+00-2.35148E-09-2.61985E-01-2.46888E-12-7.54778E-12
 -1      6930 7.72697E-01 1.49388E+00-2.34678E-09-2.61985E-01 2.69883E-12 8.34290E-12
 -1      6931 7.72697E-01 1.49388E+00-2.33896E-09-2.61985E-01-1.95259E-12-5.86450E-12
 -1      6932 7.72697E-01 1.49388E+00-2.35169E-09-2.61985E-01-2.11302E-11-6.50633E-11
 -1      6933 8.71303E-01 1.39527E+00-2.35181E-09-3.60591E-01 3.10915E-11 6.09804E-11
 -1      6934 8.71303E-01 1.39527E+00-2.33909E-09-3.60591E-01 2.79627E-12 5.53169E-12
 -1      6935 8.71303E-01 1.39527E+00-2.34680E-09-3.60591E-01-3.97292E-12-7.80191E-12
 -1      6936 8.71303E-01 1.39527E+00-2.35153E-09-3.60591E-01 3.63128E-12 7.12137E-12
 -1      6937 8.71303E-01 1.39527E+00-2.35094E-09-3.60591E-01-1.95000E-12-3.76697E-12
 -1      6938 8.71303E-01 1.39527E+00-2.35089E-09-3.60591E-01 1.93905E-12 3.84739E-12
 -1      6939 8.71303E-01 1.39527E+00-2.35153E-09-3.60591E-01-3.60700E-12-7.02432E-12
 -1      6940 8.71303E-01 1.39527E+00-2.34687E-09-3.60591E-01 3.94288E-12 7.76470E-12
 -1      6941 8.71303E-01 1.39527E+00-2.33915E-09-3.60591E-01-2.75127E-12-5.52724E-12
 -1      6942 8.71303E-01 1.39527E+00-2.35190E-09-3.60591E-01-3.10324E-11-6.09221E-11
 -1      6943 9.95554E-01 1.27102E+00-2.35145E-09-4.23900E-01 4.02529E-11 5.52931E-11
 -1      6944 9.95554E-01 1.27102E+00-2.33867E-09-4.23900E-01 3.70733E-12 4.94305E-12
 -1      6945 9.95554E-01 1.27102E+00-2.34641E-09-4.23900E-01-5.16470E-12-6.97617E-12
 -1      6946 9.95554E-01 1.27102E+00-2.35113E-09-4.23900E-01 4.66496E-12 6.48732E-12
 -1      6947 9.95554E-01 1.27102E+00-2.35046E-09-4.23900E-01-2.55787E-12-3.59544E-12
 -1      6948 9.95554E-01 1.27102E+00-2.35050E-09-4.23900E-01 2.65617E-12 3.53943E-12
 -1      6949 9.95554E-01 1.27102E+00-2.35109E-09-4.23900E-01-4.66188E-12-6.38786E-12
 -1      6950 9.95554E-01 1.27102E+00-2.34644E-09-4.23900E-01 5.09835E-12 7.02839E-12
 -1      6951 9.95554E-01 1.27102E+00-2.33874E-09-4.23900E-01-3.69038E-12-4.95267E-12
 -1      6952 9.95554E-01 1.27102E+00-2.35151E-09-4.23900E-01-4.02421E-11-5.54077E-11
 -1      6953 1.13329E+00 1.13329E+00-2.35127E-09-4.45715E-01 4.84176E-11 4.83726E-11
 -1      6954 1.13329E+00 1.13329E+00-2.33861E-09-4.45715E-01 4.43150E-12 4.54506E-12
 -1      6955 1.13329E+00 1.13329E+00-2.34645E-09-4.45715E-01-6.07272E-12-6.18532E-12
 -1      6956 1.13329E+00 1.13329E+00-2.35116E-09-4.45715E-01 5.70341E-12 5.49107E-12
 -1      6957 1.13329E+00 1.13329E+00-2.35052E-09-4.45715E-01-3.11058E-12-3.02651E-12
 -1      6958 1.13329E+00 1.13329E+00-2.35053E-09-4.45715E-01 2.99317E-12 2.96740E-12
 -1      6959 1.13329E+00 1.13329E+00-2.35121E-09-4.45715E-01-5.70294E-12-5.67875E-12
 -1      6960 1.13329E+00 1.13329E+00-2.34642E-09-4.45715E-01 6.22083E-12 6.18867E-12
 -1      6961 1.13329E+00 1.13329E+00-2.33860E-09-4.45715E-01-4.46719E-12-4.40870E-12
 -1      6962 1.13329E+00 1.13329E+00-2.35123E-09-4.45715E-01-4.84121E-11-4.82923E-11
 -1      6963 1.27102E+00 9.95554E-01-2.35224E-09-4.23900E-01 5.52500E-11 4.02788E-11
 -1      6964 1.27102E+00 9.95554E-01-2.33950E-09-4.23900E-01 4.79553E-12 3.52353E-12
 -1      6965 1.27102E+00 9.95554E-01-2.34729E-09-4.23900E-01-7.22238E-12-5.10645E-12
 -1      6966 1.27102E+00 9.95554E-01-2.35204E-09-4.23900E-01 6.38064E-12 4.69421E-12
 -1      6967 1.27102E+00 9.95554E-01-2.35144E-09-4.23900E-01-3.48217E-12-2.57169E-12
 -1      6968 1.27102E+00 9.95554E-01-2.35140E-09-4.23900E-01 3.43493E-12 2.49712E-12
 -1      6969 1.27102E+00 9.95554E-01-2.35199E-09-4.23900E-01-6.32666E-12-4.59684E-12
 -1      6970 1.27102E+00 9.95554E-01-2.34724E-09-4.23900E-01 7.05386E-12 5.21094E-12
 -1      6971 1.27102E+00 9.95554E-01-2.33942E-09-4.23900E-01-4.84724E-12-3.53538E-12
 -1      6972 1.27102E+00 9.95554E-01-2.35220E-09-4.23900E-01-5.53264E-11-4.02597E-11
 -1      6973 1.39527E+00 8.71303E-01-2.35188E-09-3.60591E-01 6.10223E-11 3.11227E-11
 -1      6974 1.39527E+00 8.71303E-01-2.33912E-09-3.60591E-01 5.50482E-12 2.86667E-12
 -1      6975 1.39527E+00 8.71303E-01-2.34691E-09-3.60591E-01-7.74216E-12-3.91887E-12
 -1      6976 1.39527E+00 8.71303E-01-2.35154E-09-3.60591E-01 7.15571E-12 3.63544E-12
 -1      6977 1.39527E+00 8.71303E-01-2.35092E-09-3.60591E-01-3.77196E-12-1.93201E-12
 -1      6978 1.39527E+00 8.71303E-01-2.35087E-09-3.60591E-01 3.88940E-12 1.99301E-12
 -1      6979 1.39527E+00 8.71303E-01-2.35158E-09-3.60591E-01-7.17408E-12-3.54547E-12
 -1      6980 1.39527E+00 8.71303E-01-2.34690E-09-3.60591E-01 7.85229E-12 3.92710E-12
 -1      6981 1.39527E+00 8.71303E-01-2.33909E-09-3.60591E-01-5.46525E-12-2.86486E-12
 -1      6982 1.39527E+00 8.71303E-01-2.35189E-09-3.60591E-01-6.09550E-11-3.11350E-11
 -1      6983 1.49388E+00 7.72697E-01-2.35076E-09-2.61985E-01 6.51890E-11 2.10885E-11
 -1      6984 1.49388E+00 7.72697E-01-2.33794E-09-2.61985E-01 6.13109E-12 1.94794E-12
 -1      6985 1.49388E+00 7.72697E-01-2.34575E-09-2.61985E-01-8.21526E-12-2.65138E-12
 -1      6986 1.49388E+00 7.72697E-01-2.35041E-09-2.61985E-01 7.66159E-12 2.48940E-12
 -1      6987 1.49388E+00 7.72697E-01-2.34973E-09-2.61985E-01-4.14563E-12-1.32818E-12
 -1      6988 1.49388E+00 7.72697E-01-2.34978E-09-2.61985E-01 4.18322E-12 1.38488E-12
 -1      6989 1.49388E+00 7.72697E-01-2.35038E-09-2.61985E-01-7.82588E-12-2.51914E-12
 -1      6990 1.49388E+00 7.72697E-01-2.34581E-09-2.61985E-01 8.21217E-12 2.69509E-12
 -1      6991 1.49388E+00 7.72697E-01-2.33805E-09-2.61985E-01-6.16836E-12-1.92056E-12
 -1      6992 1.49388E+00 7.72697E-01-2.35092E-09-2.61985E-01-6.52747E-11-2.11180E-11
 -1      6993 1.55719E+00 7.09388E-01-2.35175E-09-1.37734E-01 6.75804E-11 1.06004E-11
 -1      6994 1.55719E+00 7.09388E-01-2.33899E-09-1.37734E-01 6.09311E-12 8.99506E-13
 -1      6995 1.55719E+00 7.09388E-01-2.34680E-09-1.37734E-01-8.60071E-12-1.39020E-12
 -1      6996 1.55719E+00 7.09388E-01-2.35156E-09-1.37734E-01 7.82218E-12 1.25906E-12
 -1      6997 1.55719E+00 7.09388E-01-2.35092E-09-1.37734E-01-4.28819E-12-6.68153E-13
 -1      6998 1.55719E+00 7.09388E-01-2.35088E-09-1.37734E-01 4.39004E-12 6.66456E-13
 -1      6999 1.55719E+00 7.09388E-01-2.35151E-09-1.37734E-01-7.78610E-12-1.23243E-12
 -1      7000 1.55719E+00 7.09388E-01-2.34680E-09-1.37734E-01 8.57025E-12 1.41431E-12
 -1      7001 1.55719E+00 7.09388E-01-2.33903E-09-1.37734E-01-6.11944E-12-8.80547E-13
 -1      7002 1.55719E+00 7.09388E-01-2.35167E-09-1.37734E-01-6.75887E-11-1.05705E-11
 -1      7003 7.45413E-01 1.52116E+00-1.93883E-09-1.26028E-01 7.49903E-12 4.73878E-11
 -1      7004 7.45413E-01 1.52116E+00-1.92863E-09-1.26028E-01-1.48959E-12-9.39064E-12
 -1      7005 7.45413E-01 1.52116E+00-1.92523E-09-1.26028E-01-6.17360E-13-3.89071E-12
 -1      7006 7.45413E-01 1.52116E+00-1.92596E-09-1.26028E-01 5.16787E-13 3.49043E-12
 -1      7007 7.45413E-01 1.52116E+00-1.92509E-09-1.26028E-01-4.98793E-13-2.97335E-12
 -1      7008 7.45413E-01 1.52116E+00-1.92517E-09-1.26028E-01 4.49369E-13 3.05135E-12
 -1      7009 7.45413E-01 1.52116E+00-1.92598E-09-1.26028E-01-5.57975E-13-3.49311E-12
 -1      7010 7.45413E-01 1.52116E+00-1.92517E-09-1.26028E-01 5.84112E-13 4.00831E-12
 -1      7011 7.45413E-01 1.52116E+00-1.92858E-09-1.26028E-01 1.44552E-12 9.26656E-12
 -1      7012 7.45413E-01 1.52116E+00-1.93883E-09-1.26028E-01-7.50297E-12-4.73778E-11
 -1      7013 8.03342E-01 1.46323E+00-1.93883E-09-2.39720E-01 1.48116E-11 4.56063E-11
 -1      7014 8.03342E-01 1.46323E+00-1.92858E-09-2.39720E-01-2.97485E-12-9.00753E-12
 -1      7015 8.03342E-01 1.46323E+00-1.92514E-09-2.39720E-01-1.23297E-12-3.77934E-12
 -1      7016 8.03342E-01 1.46323E+00-1.92592E-09-2.39720E-01 1.04681E-12 3.20344E-12
 -1      7017 8.03342E-01 1.46323E+00-1.92525E-09-2.39720E-01-9.92946E-13-2.90992E-12
 -1      7018 8.03342E-01 1.46323E+00-1.92514E-09-2.39720E-01 9.71485E-13 2.86286E-12
 -1      7019 8.03342E-01 1.46323E+00-1.92590E-09-2.39720E-01-1.06639E-12-3.33526E-12
 -1      7020 8.03342E-01 1.46323E+00-1.92516E-09-2.39720E-01 1.23627E-12 3.80579E-12
 -1      7021 8.03342E-01 1.46323E+00-1.92860E-09-2.39720E-01 2.96276E-12 9.01813E-12
 -1      7022 8.03342E-01 1.46323E+00-1.93886E-09-2.39720E-01-1.48096E-11-4.55718E-11
 -1      7023 8.93568E-01 1.37301E+00-1.93908E-09-3.29946E-01 2.17131E-11 4.27300E-11
 -1      7024 8.93568E-01 1.37301E+00-1.92880E-09-3.29946E-01-4.34396E-12-8.48025E-12
 -1      7025 8.93568E-01 1.37301E+00-1.92538E-09-3.29946E-01-1.78652E-12-3.44451E-12
 -1      7026 8.93568E-01 1.37301E+00-1.92614E-09-3.29946E-01 1.50946E-12 2.96617E-12
 -1      7027 8.93568E-01 1.37301E+00-1.92529E-09-3.29946E-01-1.35528E-12-2.66197E-12
 -1      7028 8.93568E-01 1.37301E+00-1.92535E-09-3.29946E-01 1.39986E-12 2.74722E-12
 -1      7029 8.93568E-01 1.37301E+00-1.92612E-09-3.29946E-01-1.50142E-12-3.00753E-12
 -1      7030 8.93568E-01 1.37301E+00-1.92532E-09-3.29946E-01 1.81070E-12 3.52539E-12
 -1      7031 8.93568E-01 1.37301E+00-1.92884E-09-3.29946E-01 4.35554E-12 8.44989E-12
 -1      7032 8.93568E-01 1.37301E+00-1.93908E-09-3.29946E-01-2.17460E-11-4.27385E-11
 -1      7033 1.00726E+00 1.25932E+00-1.93862E-09-3.87875E-01 2.82101E-11 3.88154E-11
 -1      7034 1.00726E+00 1.25932E+00-1.92834E-09-3.87875E-01-5.40020E-12-7.59719E-12
 -1      7035 1.00726E+00 1.25932E+00-1.92486E-09-3.87875E-01-2.25754E-12-3.28605E-12
 -1      7036 1.00726E+00 1.25932E+00-1.92557E-09-3.87875E-01 2.11869E-12 2.79577E-12
 -1      7037 1.00726E+00 1.25932E+00-1.92478E-09-3.87875E-01-1.78941E-12-2.41760E-12
 -1      7038 1.00726E+00 1.25932E+00-1.92478E-09-3.87875E-01 1.87204E-12 2.43835E-12
 -1      7039 1.00726E+00 1.25932E+00-1.92555E-09-3.87875E-01-2.02484E-12-2.88180E-12
 -1      7040 1.00726E+00 1.25932E+00-1.92484E-09-3.87875E-01 2.32791E-12 3.25644E-12
 -1      7041 1.00726E+00 1.25932E+00-1.92831E-09-3.87875E-01 5.46374E-12 7.63661E-12
 -1      7042 1.00726E+00 1.25932E+00-1.93856E-09-3.87875E-01-2.82676E-11-3.88469E-11
 -1      7043 1.13329E+00 1.13329E+00-1.93845E-09-4.07836E-01 3.39798E-11 3.38968E-11
 -1      7044 1.13329E+00 1.13329E+00-1.92816E-09-4.07836E-01-6.54084E-12-6.67871E-12
 -1      7045 1.13329E+00 1.13329E+00-1.92475E-09-4.07836E-01-2.75452E-12-2.63524E-12
 -1      7046 1.13329E+00 1.13329E+00-1.92544E-09-4.07836E-01 2.35820E-12 2.44566E-12
 -1      7047 1.13329E+00 1.13329E+00-1.92473E-09-4.07836E-01-2.10947E-12-2.35783E-12
 -1      7048 1.13329E+00 1.13329E+00-1.92474E-09-4.07836E-01 2.01096E-12 2.21973E-12
 -1      7049 1.13329E+00 1.13329E+00-1.92557E-09-4.07836E-01-2.45910E-12-2.40668E-12
 -1      7050 1.13329E+00 1.13329E+00-1.92474E-09-4.07836E-01 2.74163E-12 2.80472E-12
 -1      7051 1.13329E+00 1.13329E+00-1.92817E-09-4.07836E-01 6.62465E-12 6.52287E-12
 -1      7052 1.13329E+00 1.13329E+00-1.93846E-09-4.07836E-01-3.39652E-11-3.37915E-11
 -1      7053 1.25932E+00 1.00726E+00-1.93947E-09-3.87875E-01 3.87825E-11 2.82045E-11
 -1      7054 1.25932E+00 1.00726E+00-1.92930E-09-3.87875E-01-8.02611E-12-5.62867E-12
 -1      7055 1.25932E+00 1.00726E+00-1.92590E-09-3.87875E-01-3.29085E-12-2.41660E-12
 -1      7056 1.25932E+00 1.00726E+00-1.92669E-09-3.87875E-01 2.72647E-12 1.94468E-12
 -1      7057 1.25932E+00 1.00726E+00-1.92590E-09-3.87875E-01-2.60299E-12-1.64427E-12
 -1      7058 1.25932E+00 1.00726E+00-1.92594E-09-3.87875E-01 2.60298E-12 1.76334E-12
 -1      7059 1.25932E+00 1.00726E+00-1.92664E-09-3.87875E-01-2.69853E-12-1.95101E-12
 -1      7060 1.25932E+00 1.00726E+00-1.92593E-09-3.87875E-01 3.19417E-12 2.29700E-12
 -1      7061 1.25932E+00 1.00726E+00-1.92929E-09-3.87875E-01 7.94436E-12 5.67687E-12
 -1      7062 1.25932E+00 1.00726E+00-1.93947E-09-3.87875E-01-3.86606E-11-2.82586E-11
 -1      7063 1.37301E+00 8.93568E-01-1.93915E-09-3.29946E-01 4.27621E-11 2.18662E-11
 -1      7064 1.37301E+00 8.93568E-01-1.92886E-09-3.29946E-01-8.40744E-12-4.21150E-12
 -1      7065 1.37301E+00 8.93568E-01-1.92537E-09-3.29946E-01-3.61328E-12-1.71142E-12
 -1      7066 1.37301E+00 8.93568E-01-1.92613E-09-3.29946E-01 2.98432E-12 1.56508E-12
 -1      7067 1.37301E+00 8.93568E-01-1.92522E-09-3.29946E-01-2.64035E-12-1.40746E-12
 -1      7068 1.37301E+00 8.93568E-01-1.92525E-09-3.29946E-01 2.73933E-12 1.34600E-12
 -1      7069 1.37301E+00 8.93568E-01-1.92607E-09-3.29946E-01-2.97491E-12-1.49139E-12
 -1      7070 1.37301E+00 8.93568E-01-1.92541E-09-3.29946E-01 3.55589E-12 1.78719E-12
 -1      7071 1.37301E+00 8.93568E-01-1.92892E-09-3.29946E-01 8.45409E-12 4.19227E-12
 -1      7072 1.37301E+00 8.93568E-01-1.93917E-09-3.29946E-01-4.26661E-11-2.18374E-11
 -1      7073 1.46323E+00 8.03342E-01-1.93780E-09-2.39720E-01 4.56101E-11 1.47693E-11
 -1      7074 1.46323E+00 8.03342E-01-1.92737E-09-2.39720E-01-8.65174E-12-2.82599E-12
 -1      7075 1.46323E+00 8.03342E-01-1.92375E-09-2.39720E-01-3.53224E-12-1.24043E-12
 -1      7076 1.46323E+00 8.03342E-01-1.92448E-09-2.39720E-01 3.53319E-12 1.20930E-12
 -1      7077 1.46323E+00 8.03342E-01-1.92381E-09-2.39720E-01-2.97639E-12-9.06409E-13
 -1      7078 1.46323E+00 8.03342E-01-1.92374E-09-2.39720E-01 2.90179E-12 9.64043E-13
 -1      7079 1.46323E+00 8.03342E-01-1.92451E-09-2.39720E-01-3.45903E-12-1.13396E-12
 -1      7080 1.46323E+00 8.03342E-01-1.92378E-09-2.39720E-01 3.68389E-12 1.17734E-12
 -1      7081 1.46323E+00 8.03342E-01-1.92737E-09-2.39720E-01 8.60702E-12 2.90489E-12
 -1      7082 1.46323E+00 8.03342E-01-1.93774E-09-2.39720E-01-4.57968E-11-1.47772E-11
 -1      7083 1.52116E+00 7.45413E-01-1.93882E-09-1.26028E-01 4.74182E-11 7.32275E-12
 -1      7084 1.52116E+00 7.45413E-01-1.92863E-09-1.26028E-01-9.28560E-12-1.58557E-12
 -1      7085 1.52116E+00 7.45413E-01-1.92527E-09-1.26028E-01-3.97796E-12-6.73878E-13
 -1      7086 1.52116E+00 7.45413E-01-1.92608E-09-1.26028E-01 3.41790E-12 5.05879E-13
 -1      7087 1.52116E+00 7.45413E-01-1.92524E-09-1.26028E-01-3.05274E-12-4.74294E-13
 -1      7088 1.52116E+00 7.45413E-01-1.92525E-09-1.26028E-01 2.96087E-12 4.89583E-13
 -1      7089 1.52116E+00 7.45413E-01-1.92600E-09-1.26028E-01-3.36148E-12-5.19828E-13
 -1      7090 1.52116E+00 7.45413E-01-1.92523E-09-1.26028E-01 3.86992E-12 7.10914E-13
 -1      7091 1.52116E+00 7.45413E-01-1.92864E-09-1.26028E-01 9.39474E-12 1.62673E-12
 -1      7092 1.52116E+00 7.45413E-01-1.93887E-09-1.26028E-01-4.73432E-11-7.31027E-12
 -1      7093 7.77035E-01 1.48954E+00-1.59260E-09-1.15754E-01 7.17119E-12 4.51501E-11
 -1      7094 7.77035E-01 1.48954E+00-1.58424E-09-1.15754E-01-1.41539E-12-8.77108E-12
 -1      7095 7.77035E-01 1.48954E+00-1.58490E-09-1.15754E-01-1.71874E-14-1.90119E-13
 -1      7096 7.77035E-01 1.48954E+00-1.58596E-09-1.15754E-01 3.15375E-13 1.94393E-12
 -1      7097 7.77035E-01 1.48954E+00-1.58561E-09-1.15754E-01-2.96932E-13-1.94130E-12
 -1      7098 7.77035E-01 1.48954E+00-1.58555E-09-1.15754E-01 2.95806E-13 1.90588E-12
 -1      7099 7.77035E-01 1.48954E+00-1.58600E-09-1.15754E-01-3.58691E-13-1.84053E-12
 -1      7100 7.77035E-01 1.48954E+00-1.58492E-09-1.15754E-01-6.41397E-15 8.04596E-14
 -1      7101 7.77035E-01 1.48954E+00-1.58428E-09-1.15754E-01 1.38145E-12 8.84959E-12
 -1      7102 7.77035E-01 1.48954E+00-1.59271E-09-1.15754E-01-7.14886E-12-4.51991E-11
 -1      7103 8.30241E-01 1.43633E+00-1.59261E-09-2.20177E-01 1.40520E-11 4.34606E-11
 -1      7104 8.30241E-01 1.43633E+00-1.58417E-09-2.20177E-01-2.77066E-12-8.60841E-12
 -1      7105 8.30241E-01 1.43633E+00-1.58477E-09-2.20177E-01-6.89121E-14-1.59249E-13
 -1      7106 8.30241E-01 1.43633E+00-1.58587E-09-2.20177E-01 5.83971E-13 1.79965E-12
 -1      7107 8.30241E-01 1.43633E+00-1.58550E-09-2.20177E-01-5.90646E-13-1.82988E-12
 -1      7108 8.30241E-01 1.43633E+00-1.58557E-09-2.20177E-01 5.82185E-13 1.79034E-12
 -1      7109 8.30241E-01 1.43633E+00-1.58591E-09-2.20177E-01-5.70457E-13-1.76125E-12
 -1      7110 8.30241E-01 1.43633E+00-1.58497E-09-2.20177E-01 8.33562E-14 3.09812E-13
 -1      7111 8.30241E-01 1.43633E+00-1.58426E-09-2.20177E-01 2.76957E-12 8.52814E-12
 -1      7112 8.30241E-01 1.43633E+00-1.59260E-09-2.20177E-01-1.41478E-11-4.35825E-11
 -1      7113 9.13111E-01 1.35346E+00-1.59300E-09-3.03047E-01 2.07102E-11 4.07981E-11
 -1      7114 9.13111E-01 1.35346E+00-1.58463E-09-3.03047E-01-4.16729E-12-8.03690E-12
 -1      7115 9.13111E-01 1.35346E+00-1.58517E-09-3.03047E-01-1.51313E-13-1.86919E-13
 -1      7116 9.13111E-01 1.35346E+00-1.58620E-09-3.03047E-01 8.30394E-13 1.64082E-12
 -1      7117 9.13111E-01 1.35346E+00-1.58580E-09-3.03047E-01-8.83930E-13-1.70354E-12
 -1      7118 9.13111E-01 1.35346E+00-1.58576E-09-3.03047E-01 9.48029E-13 1.73817E-12
 -1      7119 9.13111E-01 1.35346E+00-1.58625E-09-3.03047E-01-7.84837E-13-1.64992E-12
 -1      7120 9.13111E-01 1.35346E+00-1.58514E-09-3.03047E-01 1.77153E-13 1.71414E-13
 -1      7121 9.13111E-01 1.35346E+00-1.58458E-09-3.03047E-01 4.15831E-12 8.00029E-12
 -1      7122 9.13111E-01 1.35346E+00-1.59296E-09-3.03047E-01-2.06999E-11-4.07567E-11
 -1      7123 1.01753E+00 1.24904E+00-1.59241E-09-3.56253E-01 2.69527E-11 3.71031E-11
 -1      7124 1.01753E+00 1.24904E+00-1.58400E-09-3.56253E-01-5.12989E-12-7.22334E-12
 -1      7125 1.01753E+00 1.24904E+00-1.58455E-09-3.56253E-01-1.72396E-15-1.69808E-13
 -1      7126 1.01753E+00 1.24904E+00-1.58561E-09-3.56253E-01 1.21246E-12 1.62556E-12
 -1      7127 1.01753E+00 1.24904E+00-1.58526E-09-3.56253E-01-1.06271E-12-1.62457E-12
 -1      7128 1.01753E+00 1.24904E+00-1.58519E-09-3.56253E-01 1.11162E-12 1.59248E-12
 -1      7129 1.01753E+00 1.24904E+00-1.58554E-09-3.56253E-01-1.15712E-12-1.62195E-12
 -1      7130 1.01753E+00 1.24904E+00-1.58454E-09-3.56253E-01 8.87030E-14 1.25927E-13
 -1      7131 1.01753E+00 1.24904E+00-1.58397E-09-3.56253E-01 5.15924E-12 7.10790E-12
 -1      7132 1.01753E+00 1.24904E+00-1.59244E-09-3.56253E-01-2.69650E-11-3.70433E-11
 -1      7133 1.13329E+00 1.13329E+00-1.59207E-09-3.74587E-01 3.24420E-11 3.22128E-11
 -1      7134 1.13329E+00 1.13329E+00-1.58368E-09-3.74587E-01-6.09277E-12-6.06468E-12
 -1      7135 1.13329E+00 1.13329E+00-1.58428E-09-3.74587E-01-1.73806E-13-5.88797E-14
 -1      7136 1.13329E+00 1.13329E+00-1.58532E-09-3.74587E-01 1.38780E-12 1.22068E-12
 -1      7137 1.13329E+00 1.13329E+00-1.58497E-09-3.74587E-01-1.46322E-12-1.33001E-12
 -1      7138 1.13329E+00 1.13329E+00-1.58495E-09-3.74587E-01 1.50962E-12 1.29807E-12
 -1      7139 1.13329E+00 1.13329E+00-1.58540E-09-3.74587E-01-1.45776E-12-1.36037E-12
 -1      7140 1.13329E+00 1.13329E+00-1.58429E-09-3.74587E-01 9.87786E-14 2.27789E-13
 -1      7141 1.13329E+00 1.13329E+00-1.58367E-09-3.74587E-01 6.17683E-12 6.29254E-12
 -1      7142 1.13329E+00 1.13329E+00-1.59203E-09-3.74587E-01-3.23721E-11-3.23095E-11
 -1      7143 1.24904E+00 1.01753E+00-1.59344E-09-3.56253E-01 3.69984E-11 2.69496E-11
 -1      7144 1.24904E+00 1.01753E+00-1.58507E-09-3.56253E-01-7.69692E-12-5.53048E-12
 -1      7145 1.24904E+00 1.01753E+00-1.58583E-09-3.56253E-01-2.32967E-13-8.61736E-14
 -1      7146 1.24904E+00 1.01753E+00-1.58696E-09-3.56253E-01 1.33374E-12 1.08369E-12
 -1      7147 1.24904E+00 1.01753E+00-1.58663E-09-3.56253E-01-1.53835E-12-1.15568E-12
 -1      7148 1.24904E+00 1.01753E+00-1.58661E-09-3.56253E-01 1.49161E-12 1.17736E-12
 -1      7149 1.24904E+00 1.01753E+00-1.58695E-09-3.56253E-01-1.21893E-12-1.07291E-12
 -1      7150 1.24904E+00 1.01753E+00-1.58585E-09-3.56253E-01 2.48718E-13 5.48778E-14
 -1      7151 1.24904E+00 1.01753E+00-1.58518E-09-3.56253E-01 7.57299E-12 5.45022E-12
 -1      7152 1.24904E+00 1.01753E+00-1.59350E-09-3.56253E-01-3.69234E-11-2.69827E-11
 -1      7153 1.35346E+00 9.13111E-01-1.59312E-09-3.03047E-01 4.06954E-11 2.09536E-11
 -1      7154 1.35346E+00 9.13111E-01-1.58464E-09-3.03047E-01-8.07105E-12-3.93511E-12
 -1      7155 1.35346E+00 9.13111E-01-1.58518E-09-3.03047E-01-2.46004E-13-4.00235E-14
 -1      7156 1.35346E+00 9.13111E-01-1.58623E-09-3.03047E-01 1.61761E-12 8.59480E-13
 -1      7157 1.35346E+00 9.13111E-01-1.58574E-09-3.03047E-01-1.82755E-12-8.75918E-13
 -1      7158 1.35346E+00 9.13111E-01-1.58575E-09-3.03047E-01 1.85250E-12 8.59566E-13
 -1      7159 1.35346E+00 9.13111E-01-1.58622E-09-3.03047E-01-1.53137E-12-8.51599E-13
 -1      7160 1.35346E+00 9.13111E-01-1.58515E-09-3.03047E-01 2.77894E-13 6.18925E-14
 -1      7161 1.35346E+00 9.13111E-01-1.58471E-09-3.03047E-01 8.18931E-12 4.03696E-12
 -1      7162 1.35346E+00 9.13111E-01-1.59318E-09-3.03047E-01-4.07537E-11-2.09251E-11
 -1      7163 1.43633E+00 8.30241E-01-1.59122E-09-2.20177E-01 4.37259E-11 1.40736E-11
 -1      7164 1.43633E+00 8.30241E-01-1.58270E-09-2.20177E-01-7.86105E-12-2.57923E-12
 -1      7165 1.43633E+00 8.30241E-01-1.58327E-09-2.20177E-01-7.42494E-14 4.25095E-14
 -1      7166 1.43633E+00 8.30241E-01-1.58424E-09-2.20177E-01 2.21399E-12 6.38021E-13
 -1      7167 1.43633E+00 8.30241E-01-1.58376E-09-2.20177E-01-1.74900E-12-5.74625E-13
 -1      7168 1.43633E+00 8.30241E-01-1.58371E-09-2.20177E-01 1.74708E-12 5.99098E-13
 -1      7169 1.43633E+00 8.30241E-01-1.58409E-09-2.20177E-01-2.10963E-12-7.09872E-13
 -1      7170 1.43633E+00 8.30241E-01-1.58307E-09-2.20177E-01-6.65400E-14 1.21148E-13
 -1      7171 1.43633E+00 8.30241E-01-1.58272E-09-2.20177E-01 8.03141E-12 2.60680E-12
 -1      7172 1.43633E+00 8.30241E-01-1.59124E-09-2.20177E-01-4.35218E-11-1.40835E-11
 -1      7173 1.48954E+00 7.77035E-01-1.59266E-09-1.15754E-01 4.51996E-11 6.88170E-12
 -1      7174 1.48954E+00 7.77035E-01-1.58432E-09-1.15754E-01-8.82839E-12-1.65314E-12
 -1      7175 1.48954E+00 7.77035E-01-1.58484E-09-1.15754E-01-1.09697E-13-1.56985E-13
 -1      7176 1.48954E+00 7.77035E-01-1.58605E-09-1.15754E-01 1.83720E-12 2.78534E-13
 -1      7177 1.48954E+00 7.77035E-01-1.58568E-09-1.15754E-01-1.92987E-12-2.84009E-13
 -1      7178 1.48954E+00 7.77035E-01-1.58565E-09-1.15754E-01 1.86765E-12 3.32210E-13
 -1      7179 1.48954E+00 7.77035E-01-1.58600E-09-1.15754E-01-1.93780E-12-2.15404E-13
 -1      7180 1.48954E+00 7.77035E-01-1.58489E-09-1.15754E-01 2.67292E-13 1.05930E-13
 -1      7181 1.48954E+00 7.77035E-01-1.58424E-09-1.15754E-01 8.78380E-12 1.60644E-12
 -1      7182 1.48954E+00 7.77035E-01-1.59259E-09-1.15754E-01-4.52946E-11-6.87838E-12
 -1      7183 8.04943E-01 1.46163E+00-1.32645E-09-1.06686E-01 5.57910E-12 3.52319E-11
 -1      7184 8.04943E-01 1.46163E+00-1.31941E-09-1.06686E-01-1.24921E-12-8.07885E-12
 -1      7185 8.04943E-01 1.46163E+00-1.31928E-09-1.06686E-01 6.97656E-14 1.24004E-13
 -1      7186 8.04943E-01 1.46163E+00-1.31990E-09-1.06686E-01 1.97129E-13 1.40766E-12
 -1      7187 8.04943E-01 1.46163E+00-1.31959E-09-1.06686E-01-2.54196E-13-1.43505E-12
 -1      7188 8.04943E-01 1.46163E+00-1.31967E-09-1.06686E-01 2.26067E-13 1.60586E-12
 -1      7189 8.04943E-01 1.46163E+00-1.31989E-09-1.06686E-01-1.63187E-13-1.38866E-12
 -1      7190 8.04943E-01 1.46163E+00-1.31934E-09-1.06686E-01-7.68832E-14-2.05545E-13
 -1      7191 8.04943E-01 1.46163E+00-1.31945E-09-1.06686E-01 1.24186E-12 8.19100E-12
 -1      7192 8.04943E-01 1.46163E+00-1.32649E-09-1.06686E-01-5.67222E-12-3.52414E-11
 -1      7193 8.53981E-01 1.41260E+00-1.32627E-09-2.02929E-01 1.10643E-11 3.39934E-11
 -1      7194 8.53981E-01 1.41260E+00-1.31944E-09-2.02929E-01-2.65790E-12-7.97016E-12
 -1      7195 8.53981E-01 1.41260E+00-1.31921E-09-2.02929E-01 1.78700E-14 3.45345E-13
 -1      7196 8.53981E-01 1.41260E+00-1.31976E-09-2.02929E-01 2.94351E-13 1.15254E-12
 -1      7197 8.53981E-01 1.41260E+00-1.31953E-09-2.02929E-01-4.35755E-13-1.56980E-12
 -1      7198 8.53981E-01 1.41260E+00-1.31938E-09-2.02929E-01 5.28970E-13 1.36194E-12
 -1      7199 8.53981E-01 1.41260E+00-1.31984E-09-2.02929E-01-3.59310E-13-8.81465E-13
 -1      7200 8.53981E-01 1.41260E+00-1.31914E-09-2.02929E-01 3.32851E-14-1.41097E-13
 -1      7201 8.53981E-01 1.41260E+00-1.31926E-09-2.02929E-01 2.73167E-12 7.75263E-12
 -1      7202 8.53981E-01 1.41260E+00-1.32632E-09-2.02929E-01-1.09544E-11-3.39414E-11
 -1      7203 9.30359E-01 1.33622E+00-1.32682E-09-2.79307E-01 1.60498E-11 3.19481E-11
 -1      7204 9.30359E-01 1.33622E+00-1.31972E-09-2.79307E-01-3.86289E-12-7.45042E-12
 -1      7205 9.30359E-01 1.33622E+00-1.31965E-09-2.79307E-01 5.39814E-14 6.64729E-14
 -1      7206 9.30359E-01 1.33622E+00-1.32013E-09-2.79307E-01 5.34976E-13 1.01639E-12
 -1      7207 9.30359E-01 1.33622E+00-1.31983E-09-2.79307E-01-6.53582E-13-1.35146E-12
 -1      7208 9.30359E-01 1.33622E+00-1.31996E-09-2.79307E-01 7.24362E-13 1.41767E-12
 -1      7209 9.30359E-01 1.33622E+00-1.32023E-09-2.79307E-01-4.54495E-13-1.08333E-12
 -1      7210 9.30359E-01 1.33622E+00-1.31975E-09-2.79307E-01 1.57926E-14-3.21419E-13
 -1      7211 9.30359E-01 1.33622E+00-1.31983E-09-2.79307E-01 3.86767E-12 7.36427E-12
 -1      7212 9.30359E-01 1.33622E+00-1.32682E-09-2.79307E-01-1.61676E-11-3.20271E-11
 -1      7213 1.02660E+00 1.23997E+00-1.32621E-09-3.28345E-01 2.12223E-11 2.88083E-11
 -1      7214 1.02660E+00 1.23997E+00-1.31914E-09-3.28345E-01-4.59430E-12-6.59059E-12
 -1      7215 1.02660E+00 1.23997E+00-1.31894E-09-3.28345E-01 3.24459E-13 3.38242E-13
 -1      7216 1.02660E+00 1.23997E+00-1.31953E-09-3.28345E-01 9.39316E-13 9.90626E-13
 -1      7217 1.02660E+00 1.23997E+00-1.31925E-09-3.28345E-01-8.14145E-13-1.19190E-12
 -1      7218 1.02660E+00 1.23997E+00-1.31906E-09-3.28345E-01 8.03031E-13 1.07373E-12
 -1      7219 1.02660E+00 1.23997E+00-1.31943E-09-3.28345E-01-9.10412E-13-1.11368E-12
 -1      7220 1.02660E+00 1.23997E+00-1.31874E-09-3.28345E-01-1.55806E-13-2.60814E-13
 -1      7221 1.02660E+00 1.23997E+00-1.31905E-09-3.28345E-01 4.62083E-12 6.48350E-12
 -1      7222 1.02660E+00 1.23997E+00-1.32605E-09-3.28345E-01-2.09953E-11-2.89323E-11
 -1      7223 1.13329E+00 1.13329E+00-1.32567E-09-3.45243E-01 2.51229E-11 2.51503E-11
 -1      7224 1.13329E+00 1.13329E+00-1.31861E-09-3.45243E-01-5.36267E-12-5.59275E-12
 -1      7225 1.13329E+00 1.13329E+00-1.31857E-09-3.45243E-01 1.72149E-13-2.29519E-14
 -1      7226 1.13329E+00 1.13329E+00-1.31920E-09-3.45243E-01 1.06489E-12 9.32087E-13
 -1      7227 1.13329E+00 1.13329E+00-1.31886E-09-3.45243E-01-9.76018E-13-1.08950E-12
 -1      7228 1.13329E+00 1.13329E+00-1.31896E-09-3.45243E-01 1.11433E-12 1.01433E-12
 -1      7229 1.13329E+00 1.13329E+00-1.31916E-09-3.45243E-01-8.89369E-13-8.69776E-13
 -1      7230 1.13329E+00 1.13329E+00-1.31855E-09-3.45243E-01-1.53856E-13 6.13555E-14
 -1      7231 1.13329E+00 1.13329E+00-1.31850E-09-3.45243E-01 5.40548E-12 5.61903E-12
 -1      7232 1.13329E+00 1.13329E+00-1.32561E-09-3.45243E-01-2.53114E-11-2.50732E-11
 -1      7233 1.23997E+00 1.02660E+00-1.32735E-09-3.28345E-01 2.89602E-11 2.12228E-11
 -1      7234 1.23997E+00 1.02660E+00-1.32052E-09-3.28345E-01-7.44892E-12-5.25209E-12
 -1      7235 1.23997E+00 1.02660E+00-1.32047E-09-3.28345E-01 1.18317E-13 2.25748E-13
 -1      7236 1.23997E+00 1.02660E+00-1.32117E-09-3.28345E-01 6.09459E-13 5.19866E-13
 -1      7237 1.23997E+00 1.02660E+00-1.32082E-09-3.28345E-01-1.14855E-12-7.60345E-13
 -1      7238 1.23997E+00 1.02660E+00-1.32086E-09-3.28345E-01 1.17806E-12 7.75186E-13
 -1      7239 1.23997E+00 1.02660E+00-1.32103E-09-3.28345E-01-6.02476E-13-5.66054E-13
 -1      7240 1.23997E+00 1.02660E+00-1.32048E-09-3.28345E-01-2.48600E-13-1.66521E-13
 -1      7241 1.23997E+00 1.02660E+00-1.32065E-09-3.28345E-01 7.41878E-12 5.29475E-12
 -1      7242 1.23997E+00 1.02660E+00-1.32740E-09-3.28345E-01-2.91179E-11-2.12027E-11
 -1      7243 1.33622E+00 9.30359E-01-1.32687E-09-2.79307E-01 3.18379E-11 1.63004E-11
 -1      7244 1.33622E+00 9.30359E-01-1.31984E-09-2.79307E-01-7.66482E-12-3.58495E-12
 -1      7245 1.33622E+00 9.30359E-01-1.31959E-09-2.79307E-01 1.21367E-13 1.47627E-13
 -1      7246 1.33622E+00 9.30359E-01-1.32010E-09-2.79307E-01 9.43108E-13 5.66273E-13
 -1      7247 1.33622E+00 9.30359E-01-1.32002E-09-2.79307E-01-1.38979E-12-7.46952E-13
 -1      7248 1.33622E+00 9.30359E-01-1.32005E-09-2.79307E-01 1.36670E-12 7.89382E-13
 -1      7249 1.33622E+00 9.30359E-01-1.32022E-09-2.79307E-01-1.08912E-12-4.88162E-13
 -1      7250 1.33622E+00 9.30359E-01-1.31967E-09-2.79307E-01 2.80947E-14-1.75148E-13
 -1      7251 1.33622E+00 9.30359E-01-1.31971E-09-2.79307E-01 7.67336E-12 3.59537E-12
 -1      7252 1.33622E+00 9.30359E-01-1.32687E-09-2.79307E-01-3.14696E-11-1.63845E-11
 -1      7253 1.41260E+00 8.53981E-01-1.32477E-09-2.02929E-01 3.38740E-11 1.08944E-11
 -1      7254 1.41260E+00 8.53981E-01-1.31745E-09-2.02929E-01-6.51591E-12-2.35982E-12
 -1      7255 1.41260E+00 8.53981E-01-1.31721E-09-2.02929E-01 5.65677E-13-1.09593E-14
 -1      7256 1.41260E+00 8.53981E-01-1.31759E-09-2.02929E-01 1.60423E-12 5.16494E-13
 -1      7257 1.41260E+00 8.53981E-01-1.31726E-09-2.02929E-01-1.43770E-12-4.73077E-13
 -1      7258 1.41260E+00 8.53981E-01-1.31732E-09-2.02929E-01 1.27582E-12 4.52282E-13
 -1      7259 1.41260E+00 8.53981E-01-1.31755E-09-2.02929E-01-1.78008E-12-5.22450E-13
 -1      7260 1.41260E+00 8.53981E-01-1.31730E-09-2.02929E-01-3.06781E-13-1.42163E-13
 -1      7261 1.41260E+00 8.53981E-01-1.31743E-09-2.02929E-01 6.89603E-12 2.33552E-12
 -1      7262 1.41260E+00 8.53981E-01-1.32476E-09-2.02929E-01-3.40023E-11-1.08382E-11
 -1      7263 1.46163E+00 8.04943E-01-1.32632E-09-1.06686E-01 3.54063E-11 5.18048E-12
 -1      7264 1.46163E+00 8.04943E-01-1.31945E-09-1.06686E-01-8.14150E-12-1.53696E-12
 -1      7265 1.46163E+00 8.04943E-01-1.31936E-09-1.06686E-01 1.31296E-13-1.51497E-13
 -1      7266 1.46163E+00 8.04943E-01-1.31983E-09-1.06686E-01 1.44290E-12 6.49789E-14
 -1      7267 1.46163E+00 8.04943E-01-1.31955E-09-1.06686E-01-1.42751E-12-2.98862E-13
 -1      7268 1.46163E+00 8.04943E-01-1.31954E-09-1.06686E-01 1.48475E-12 2.62755E-13
 -1      7269 1.46163E+00 8.04943E-01-1.31984E-09-1.06686E-01-1.32728E-12-1.21954E-13
 -1      7270 1.46163E+00 8.04943E-01-1.31924E-09-1.06686E-01-3.10474E-13 1.78252E-13
 -1      7271 1.46163E+00 8.04943E-01-1.31937E-09-1.06686E-01 8.13769E-12 1.58965E-12
 -1      7272 1.46163E+00 8.04943E-01-1.32638E-09-1.06686E-01-3.52452E-11-5.22734E-12
 -1      7273 8.29696E-01 1.43688E+00-1.11283E-09-9.86431E-02 4.36326E-12 2.73674E-11
 -1      7274 8.29696E-01 1.43688E+00-1.10745E-09-9.86431E-02-7.32119E-13-4.89329E-12
 -1      7275 8.29696E-01 1.43688E+00-1.10744E-09-9.86431E-02-2.96163E-14-3.64496E-13
 -1      7276 8.29696E-01 1.43688E+00-1.10777E-09-9.86431E-02 2.75711E-13 1.61404E-12
 -1      7277 8.29696E-01 1.43688E+00-1.10763E-09-9.86431E-02-2.08317E-13-1.26517E-12
 -1      7278 8.29696E-01 1.43688E+00-1.10757E-09-9.86431E-02 2.27752E-13 1.36065E-12
 -1      7279 8.29696E-01 1.43688E+00-1.10773E-09-9.86431E-02-2.86410E-13-1.64876E-12
 -1      7280 8.29696E-01 1.43688E+00-1.10741E-09-9.86431E-02 9.88910E-15 4.79776E-13
 -1      7281 8.29696E-01 1.43688E+00-1.10749E-09-9.86431E-02 7.24088E-13 4.94099E-12
 -1      7282 8.29696E-01 1.43688E+00-1.11280E-09-9.86431E-02-4.33538E-12-2.72327E-11
 -1      7283 8.75037E-01 1.39154E+00-1.11254E-09-1.87630E-01 8.48965E-12 2.62929E-11
 -1      7284 8.75037E-01 1.39154E+00-1.10715E-09-1.87630E-01-1.53900E-12-4.67297E-12
 -1      7285 8.75037E-01 1.39154E+00-1.10711E-09-1.87630E-01-1.55245E-13-4.71905E-13
 -1      7286 8.75037E-01 1.39154E+00-1.10749E-09-1.87630E-01 5.38000E-13 1.53512E-12
 -1      7287 8.75037E-01 1.39154E+00-1.10735E-09-1.87630E-01-4.52567E-13-1.47233E-12
 -1      7288 8.75037E-01 1.39154E+00-1.10745E-09-1.87630E-01 4.84620E-13 1.40885E-12
 -1      7289 8.75037E-01 1.39154E+00-1.10745E-09-1.87630E-01-4.25573E-13-1.46877E-12
 -1      7290 8.75037E-01 1.39154E+00-1.10713E-09-1.87630E-01 2.40595E-13 5.16880E-13
 -1      7291 8.75037E-01 1.39154E+00-1.10715E-09-1.87630E-01 1.56193E-12 4.74816E-12
 -1      7292 8.75037E-01 1.39154E+00-1.11247E-09-1.87630E-01-8.52042E-12-2.62120E-11
 -1      7293 9.45658E-01 1.32092E+00-1.11328E-09-2.58251E-01 1.24859E-11 2.46181E-11
 -1      7294 9.45658E-01 1.32092E+00-1.10782E-09-2.58251E-01-2.45361E-12-4.55674E-12
 -1      7295 9.45658E-01 1.32092E+00-1.10775E-09-2.58251E-01-3.20565E-13-4.58740E-13
 -1      7296 9.45658E-01 1.32092E+00-1.10810E-09-2.58251E-01 6.74607E-13 1.36045E-12
 -1      7297 9.45658E-01 1.32092E+00-1.10795E-09-2.58251E-01-6.67732E-13-1.24870E-12
 -1      7298 9.45658E-01 1.32092E+00-1.10787E-09-2.58251E-01 7.34605E-13 1.28717E-12
 -1      7299 9.45658E-01 1.32092E+00-1.10806E-09-2.58251E-01-6.18417E-13-1.52392E-12
 -1      7300 9.45658E-01 1.32092E+00-1.10766E-09-2.58251E-01 3.06467E-13 3.34427E-13
 -1      7301 9.45658E-01 1.32092E+00-1.10774E-09-2.58251E-01 2.40822E-12 4.42474E-12
 -1      7302 9.45658E-01 1.32092E+00-1.11324E-09-2.58251E-01-1.23905E-11-2.47206E-11
 -1      7303 1.03464E+00 1.23193E+00-1.11261E-09-3.03592E-01 1.62535E-11 2.22520E-11
 -1      7304 1.03464E+00 1.23193E+00-1.10710E-09-3.03592E-01-2.48595E-12-3.64899E-12
 -1      7305 1.03464E+00 1.23193E+00-1.10696E-09-3.03592E-01-9.39977E-14-2.46184E-13
 -1      7306 1.03464E+00 1.23193E+00-1.10720E-09-3.03592E-01 1.20239E-12 1.45789E-12
 -1      7307 1.03464E+00 1.23193E+00-1.10700E-09-3.03592E-01-7.47659E-13-1.15435E-12
 -1      7308 1.03464E+00 1.23193E+00-1.10702E-09-3.03592E-01 8.49750E-13 1.12958E-12
 -1      7309 1.03464E+00 1.23193E+00-1.10719E-09-3.03592E-01-1.22164E-12-1.49878E-12
 -1      7310 1.03464E+00 1.23193E+00-1.10691E-09-3.03592E-01 6.16731E-14 2.70906E-13
 -1      7311 1.03464E+00 1.23193E+00-1.10709E-09-3.03592E-01 2.69299E-12 3.60442E-12
 -1      7312 1.03464E+00 1.23193E+00-1.11267E-09-3.03592E-01-1.62804E-11-2.22803E-11
 -1      7313 1.13329E+00 1.13329E+00-1.11172E-09-3.19216E-01 1.93436E-11 1.91817E-11
 -1      7314 1.13329E+00 1.13329E+00-1.10632E-09-3.19216E-01-2.82260E-12-3.16523E-12
 -1      7315 1.13329E+00 1.13329E+00-1.10631E-09-3.19216E-01-2.30898E-13-4.74229E-13
 -1      7316 1.13329E+00 1.13329E+00-1.10669E-09-3.19216E-01 1.41383E-12 1.30034E-12
 -1      7317 1.13329E+00 1.13329E+00-1.10659E-09-3.19216E-01-1.13009E-12-1.18799E-12
 -1      7318 1.13329E+00 1.13329E+00-1.10660E-09-3.19216E-01 1.25366E-12 1.18538E-12
 -1      7319 1.13329E+00 1.13329E+00-1.10681E-09-3.19216E-01-1.33117E-12-1.24296E-12
 -1      7320 1.13329E+00 1.13329E+00-1.10630E-09-3.19216E-01 4.39334E-13 5.55282E-13
 -1      7321 1.13329E+00 1.13329E+00-1.10625E-09-3.19216E-01 2.77059E-12 3.25324E-12
 -1      7322 1.13329E+00 1.13329E+00-1.11171E-09-3.19216E-01-1.94504E-11-1.90861E-11
 -1      7323 1.23193E+00 1.03464E+00-1.11394E-09-3.03592E-01 2.27410E-11 1.66608E-11
 -1      7324 1.23193E+00 1.03464E+00-1.10877E-09-3.03592E-01-5.24980E-12-3.57854E-12
 -1      7325 1.23193E+00 1.03464E+00-1.10884E-09-3.03592E-01-3.85795E-13-1.48981E-13
 -1      7326 1.23193E+00 1.03464E+00-1.10928E-09-3.03592E-01 7.93952E-13 6.77377E-13
 -1      7327 1.23193E+00 1.03464E+00-1.10917E-09-3.03592E-01-1.25172E-12-9.49377E-13
 -1      7328 1.23193E+00 1.03464E+00-1.10917E-09-3.03592E-01 1.14627E-12 8.77191E-13
 -1      7329 1.23193E+00 1.03464E+00-1.10927E-09-3.03592E-01-7.55356E-13-6.75351E-13
 -1      7330 1.23193E+00 1.03464E+00-1.10875E-09-3.03592E-01 3.26343E-13 2.84655E-13
 -1      7331 1.23193E+00 1.03464E+00-1.10876E-09-3.03592E-01 5.18996E-12 3.62252E-12
 -1      7332 1.23193E+00 1.03464E+00-1.11395E-09-3.03592E-01-2.27056E-11-1.66938E-11
 -1      7333 1.32092E+00 9.45658E-01-1.11333E-09-2.58251E-01 2.44666E-11 1.28090E-11
 -1      7334 1.32092E+00 9.45658E-01-1.10785E-09-2.58251E-01-4.59999E-12-2.14952E-12
 -1      7335 1.32092E+00 9.45658E-01-1.10773E-09-2.58251E-01-4.93107E-13-1.26630E-13
 -1      7336 1.32092E+00 9.45658E-01-1.10810E-09-2.58251E-01 1.35562E-12 7.68593E-13
 -1      7337 1.32092E+00 9.45658E-01-1.10791E-09-2.58251E-01-1.46706E-12-6.39675E-13
 -1      7338 1.32092E+00 9.45658E-01-1.10793E-09-2.58251E-01 1.41279E-12 6.87659E-13
 -1      7339 1.32092E+00 9.45658E-01-1.10812E-09-2.58251E-01-1.29823E-12-7.56064E-13
 -1      7340 1.32092E+00 9.45658E-01-1.10780E-09-2.58251E-01 6.02940E-13 3.84011E-14
 -1      7341 1.32092E+00 9.45658E-01-1.10791E-09-2.58251E-01 4.71649E-12 2.07172E-12
 -1      7342 1.32092E+00 9.45658E-01-1.11342E-09-2.58251E-01-2.43576E-11-1.27949E-11
 -1      7343 1.39154E+00 8.75037E-01-1.11091E-09-1.87630E-01 2.59510E-11 8.25834E-12
 -1      7344 1.39154E+00 8.75037E-01-1.10501E-09-1.87630E-01-2.93685E-12-1.05140E-12
 -1      7345 1.39154E+00 8.75037E-01-1.10455E-09-1.87630E-01-1.93184E-13-1.03281E-13
 -1      7346 1.39154E+00 8.75037E-01-1.10477E-09-1.87630E-01 2.39270E-12 7.16225E-13
 -1      7347 1.39154E+00 8.75037E-01-1.10450E-09-1.87630E-01-1.21073E-12-4.38041E-13
 -1      7348 1.39154E+00 8.75037E-01-1.10453E-09-1.87630E-01 1.17695E-12 3.66430E-13
 -1      7349 1.39154E+00 8.75037E-01-1.10482E-09-1.87630E-01-2.31155E-12-7.57707E-13
 -1      7350 1.39154E+00 8.75037E-01-1.10471E-09-1.87630E-01 2.26722E-13 1.46156E-13
 -1      7351 1.39154E+00 8.75037E-01-1.10501E-09-1.87630E-01 2.93157E-12 1.03384E-12
 -1      7352 1.39154E+00 8.75037E-01-1.11077E-09-1.87630E-01-2.59561E-11-8.28375E-12
 -1      7353 1.43688E+00 8.29696E-01-1.11254E-09-9.86431E-02 2.72711E-11 3.78941E-12
 -1      7354 1.43688E+00 8.29696E-01-1.10722E-09-9.86431E-02-4.77766E-12-1.17318E-12
 -1      7355 1.43688E+00 8.29696E-01-1.10723E-09-9.86431E-02-4.34170E-13-3.10602E-13
 -1      7356 1.43688E+00 8.29696E-01-1.10761E-09-9.86431E-02 1.61049E-12 1.54070E-13
 -1      7357 1.43688E+00 8.29696E-01-1.10742E-09-9.86431E-02-1.41555E-12-2.66035E-13
 -1      7358 1.43688E+00 8.29696E-01-1.10742E-09-9.86431E-02 1.51267E-12 2.31583E-13
 -1      7359 1.43688E+00 8.29696E-01-1.10758E-09-9.86431E-02-1.68644E-12-1.55033E-13
 -1      7360 1.43688E+00 8.29696E-01-1.10723E-09-9.86431E-02 5.20107E-13 3.09383E-13
 -1      7361 1.43688E+00 8.29696E-01-1.10721E-09-9.86431E-02 4.77934E-12 1.18530E-12
 -1      7362 1.43688E+00 8.29696E-01-1.11262E-09-9.86431E-02-2.72287E-11-3.75303E-12
 -1      7363 8.51752E-01 1.41482E+00-9.39895E-10-9.14764E-02 2.58187E-12 1.59267E-11
 -1      7364 8.51752E-01 1.41482E+00-9.33914E-10-9.14764E-02-2.28716E-14-4.89156E-13
 -1      7365 8.51752E-01 1.41482E+00-9.35661E-10-9.14764E-02-3.71498E-13-2.69703E-12
 -1      7366 8.51752E-01 1.41482E+00-9.36340E-10-9.14764E-02 5.13323E-13 2.99843E-12
 -1      7367 8.51752E-01 1.41482E+00-9.36425E-10-9.14764E-02-2.62286E-13-1.86380E-12
 -1      7368 8.51752E-01 1.41482E+00-9.36404E-10-9.14764E-02 2.84237E-13 1.93119E-12
 -1      7369 8.51752E-01 1.41482E+00-9.36418E-10-9.14764E-02-4.90839E-13-2.87912E-12
 -1      7370 8.51752E-01 1.41482E+00-9.35660E-10-9.14764E-02 3.69280E-13 2.65891E-12
 -1      7371 8.51752E-01 1.41482E+00-9.33880E-10-9.14764E-02 2.71069E-14 5.46646E-13
 -1      7372 8.51752E-01 1.41482E+00-9.39731E-10-9.14764E-02-2.56877E-12-1.59337E-11
 -1      7373 8.93800E-01 1.37278E+00-9.39490E-10-1.73999E-01 4.92320E-12 1.53823E-11
 -1      7374 8.93800E-01 1.37278E+00-9.33540E-10-1.73999E-01-2.08191E-13-5.22801E-13
 -1      7375 8.93800E-01 1.37278E+00-9.35286E-10-1.73999E-01-8.90192E-13-2.60160E-12
 -1      7376 8.93800E-01 1.37278E+00-9.36136E-10-1.73999E-01 9.28182E-13 2.72222E-12
 -1      7377 8.93800E-01 1.37278E+00-9.36247E-10-1.73999E-01-5.31959E-13-1.88238E-12
 -1      7378 8.93800E-01 1.37278E+00-9.36195E-10-1.73999E-01 6.38175E-13 1.76131E-12
 -1      7379 8.93800E-01 1.37278E+00-9.36110E-10-1.73999E-01-8.58801E-13-2.76886E-12
 -1      7380 8.93800E-01 1.37278E+00-9.35316E-10-1.73999E-01 9.03484E-13 2.75827E-12
 -1      7381 8.93800E-01 1.37278E+00-9.33529E-10-1.73999E-01 2.70463E-13 6.74673E-13
 -1      7382 8.93800E-01 1.37278E+00-9.39535E-10-1.73999E-01-4.89146E-12-1.53324E-11
 -1      7383 9.59289E-01 1.30729E+00-9.40321E-10-2.39488E-01 7.16467E-12 1.44354E-11
 -1      7384 9.59289E-01 1.30729E+00-9.34407E-10-2.39488E-01-5.06867E-13-7.06229E-13
 -1      7385 9.59289E-01 1.30729E+00-9.36099E-10-2.39488E-01-1.26378E-12-2.44406E-12
 -1      7386 9.59289E-01 1.30729E+00-9.36859E-10-2.39488E-01 1.18737E-12 2.57258E-12
 -1      7387 9.59289E-01 1.30729E+00-9.36895E-10-2.39488E-01-8.75789E-13-1.73508E-12
 -1      7388 9.59289E-01 1.30729E+00-9.36918E-10-2.39488E-01 8.84698E-13 1.63213E-12
 -1      7389 9.59289E-01 1.30729E+00-9.36771E-10-2.39488E-01-1.25899E-12-2.56467E-12
 -1      7390 9.59289E-01 1.30729E+00-9.36076E-10-2.39488E-01 1.32098E-12 2.29648E-12
 -1      7391 9.59289E-01 1.30729E+00-9.34461E-10-2.39488E-01 4.37692E-13 5.78197E-13
 -1      7392 9.59289E-01 1.30729E+00-9.40339E-10-2.39488E-01-7.17481E-12-1.45971E-11
 -1      7393 1.04181E+00 1.22476E+00-9.39644E-10-2.81536E-01 9.49563E-12 1.28289E-11
 -1      7394 1.04181E+00 1.22476E+00-9.33499E-10-2.81536E-01 2.66531E-13 9.89717E-14
 -1      7395 1.04181E+00 1.22476E+00-9.35078E-10-2.81536E-01-1.40648E-12-2.16616E-12
 -1      7396 1.04181E+00 1.22476E+00-9.35639E-10-2.81536E-01 2.00404E-12 2.60431E-12
 -1      7397 1.04181E+00 1.22476E+00-9.35697E-10-2.81536E-01-1.01926E-12-1.38033E-12
 -1      7398 1.04181E+00 1.22476E+00-9.35653E-10-2.81536E-01 1.06653E-12 1.41224E-12
 -1      7399 1.04181E+00 1.22476E+00-9.35714E-10-2.81536E-01-1.97606E-12-2.64828E-12
 -1      7400 1.04181E+00 1.22476E+00-9.35095E-10-2.81536E-01 1.54956E-12 2.17128E-12
 -1      7401 1.04181E+00 1.22476E+00-9.33477E-10-2.81536E-01-2.54560E-13-7.11786E-14
 -1      7402 1.04181E+00 1.22476E+00-9.39702E-10-2.81536E-01-9.44574E-12-1.27609E-11
 -1      7403 1.13329E+00 1.13329E+00-9.38639E-10-2.96024E-01 1.08825E-11 1.02846E-11
 -1      7404 1.13329E+00 1.13329E+00-9.32443E-10-2.96024E-01 9.02134E-13 4.09855E-13
 -1      7405 1.13329E+00 1.13329E+00-9.34250E-10-2.96024E-01-2.02650E-12-2.32544E-12
 -1      7406 1.13329E+00 1.13329E+00-9.34978E-10-2.96024E-01 2.40058E-12 2.31696E-12
 -1      7407 1.13329E+00 1.13329E+00-9.35087E-10-2.96024E-01-1.20541E-12-1.34160E-12
 -1      7408 1.13329E+00 1.13329E+00-9.35037E-10-2.96024E-01 1.23372E-12 1.38139E-12
 -1      7409 1.13329E+00 1.13329E+00-9.34871E-10-2.96024E-01-2.29729E-12-2.17043E-12
 -1      7410 1.13329E+00 1.13329E+00-9.34200E-10-2.96024E-01 2.02434E-12 2.27630E-12
 -1      7411 1.13329E+00 1.13329E+00-9.32451E-10-2.96024E-01-7.40677E-13-3.95853E-13
 -1      7412 1.13329E+00 1.13329E+00-9.38654E-10-2.96024E-01-1.08869E-11-1.03282E-11
 -1      7413 1.22476E+00 1.04181E+00-9.40928E-10-2.81536E-01 1.40897E-11 1.05801E-11
 -1      7414 1.22476E+00 1.04181E+00-9.35619E-10-2.81536E-01-2.62408E-12-1.70855E-12
 -1      7415 1.22476E+00 1.04181E+00-9.37492E-10-2.81536E-01-2.00383E-12-1.27042E-12
 -1      7416 1.22476E+00 1.04181E+00-9.38510E-10-2.81536E-01 1.74842E-12 1.18872E-12
 -1      7417 1.22476E+00 1.04181E+00-9.38742E-10-2.81536E-01-1.64356E-12-1.13591E-12
 -1      7418 1.22476E+00 1.04181E+00-9.38766E-10-2.81536E-01 1.70498E-12 1.13152E-12
 -1      7419 1.22476E+00 1.04181E+00-9.38590E-10-2.81536E-01-1.70149E-12-1.28812E-12
 -1      7420 1.22476E+00 1.04181E+00-9.37554E-10-2.81536E-01 2.05641E-12 1.38117E-12
 -1      7421 1.22476E+00 1.04181E+00-9.35580E-10-2.81536E-01 2.61696E-12 1.69050E-12
 -1      7422 1.22476E+00 1.04181E+00-9.40959E-10-2.81536E-01-1.41820E-11-1.05246E-11
 -1      7423 1.30729E+00 9.59289E-01-9.40491E-10-2.39488E-01 1.41874E-11 7.73668E-12
 -1      7424 1.30729E+00 9.59289E-01-9.34425E-10-2.39488E-01-8.30319E-13-4.78903E-16
 -1      7425 1.30729E+00 9.59289E-01-9.36016E-10-2.39488E-01-2.67425E-12-9.95456E-13
 -1      7426 1.30729E+00 9.59289E-01-9.36793E-10-2.39488E-01 2.46884E-12 1.40812E-12
 -1      7427 1.30729E+00 9.59289E-01-9.36842E-10-2.39488E-01-1.72939E-12-9.29967E-13
 -1      7428 1.30729E+00 9.59289E-01-9.36913E-10-2.39488E-01 1.78145E-12 8.54505E-13
 -1      7429 1.30729E+00 9.59289E-01-9.36753E-10-2.39488E-01-2.46402E-12-1.42862E-12
 -1      7430 1.30729E+00 9.59289E-01-9.36037E-10-2.39488E-01 2.51276E-12 9.72329E-13
 -1      7431 1.30729E+00 9.59289E-01-9.34425E-10-2.39488E-01 8.95099E-13 3.35307E-14
 -1      7432 1.30729E+00 9.59289E-01-9.40442E-10-2.39488E-01-1.40992E-11-7.70561E-12
 -1      7433 1.37278E+00 8.93800E-01-9.37698E-10-1.73999E-01 1.39230E-11 4.34958E-12
 -1      7434 1.37278E+00 8.93800E-01-9.30830E-10-1.73999E-01 2.48866E-12 7.60869E-13
 -1      7435 1.37278E+00 8.93800E-01-9.32154E-10-1.73999E-01-2.64081E-12-9.60683E-13
 -1      7436 1.37278E+00 8.93800E-01-9.32370E-10-1.73999E-01 3.84185E-12 1.23104E-12
 -1      7437 1.37278E+00 8.93800E-01-9.32310E-10-1.73999E-01-1.41770E-12-4.97455E-13
 -1      7438 1.37278E+00 8.93800E-01-9.32144E-10-1.73999E-01 1.41151E-12 5.00742E-13
 -1      7439 1.37278E+00 8.93800E-01-9.32338E-10-1.73999E-01-3.85528E-12-1.25962E-12
 -1      7440 1.37278E+00 8.93800E-01-9.32095E-10-1.73999E-01 2.71859E-12 9.15496E-13
 -1      7441 1.37278E+00 8.93800E-01-9.30785E-10-1.73999E-01-2.67587E-12-7.18280E-13
 -1      7442 1.37278E+00 8.93800E-01-9.37644E-10-1.73999E-01-1.39877E-11-4.34937E-12
 -1      7443 1.41482E+00 8.51752E-01-9.39534E-10-9.14764E-02 1.58500E-11 1.79934E-12
 -1      7444 1.41482E+00 8.51752E-01-9.33633E-10-9.14764E-02-4.02271E-13-6.09244E-13
 -1      7445 1.41482E+00 8.51752E-01-9.35387E-10-9.14764E-02-2.80673E-12-7.58325E-13
 -1      7446 1.41482E+00 8.51752E-01-9.36056E-10-9.14764E-02 2.98064E-12 3.33516E-13
 -1      7447 1.41482E+00 8.51752E-01-9.36189E-10-9.14764E-02-1.86591E-12-3.17449E-13
 -1      7448 1.41482E+00 8.51752E-01-9.36223E-10-9.14764E-02 1.97755E-12 3.09062E-13
 -1      7449 1.41482E+00 8.51752E-01-9.36149E-10-9.14764E-02-2.88737E-12-3.73170E-13
 -1      7450 1.41482E+00 8.51752E-01-9.35348E-10-9.14764E-02 2.70077E-12 7.56064E-13
 -1      7451 1.41482E+00 8.51752E-01-9.33628E-10-9.14764E-02 6.05396E-13 6.07640E-13
 -1      7452 1.41482E+00 8.51752E-01-9.39576E-10-9.14764E-02-1.58032E-11-1.82891E-12
 -1      7453 8.71490E-01 1.39509E+00-8.06250E-10-8.50632E-02 1.52772E-12 9.25042E-12
 -1      7454 8.71490E-01 1.39509E+00-8.04959E-10-8.50632E-02 1.93132E-12 1.13571E-11
 -1      7455 8.71490E-01 1.39509E+00-8.02769E-10-8.50632E-02-6.66245E-13-4.73045E-12
 -1      7456 8.71490E-01 1.39509E+00-8.02517E-10-8.50632E-02 1.08719E-12 6.40002E-12
 -1      7457 8.71490E-01 1.39509E+00-8.02752E-10-8.50632E-02-3.04199E-13-2.24094E-12
 -1      7458 8.71490E-01 1.39509E+00-8.02701E-10-8.50632E-02 3.23945E-13 2.32765E-12
 -1      7459 8.71490E-01 1.39509E+00-8.02571E-10-8.50632E-02-1.06244E-12-6.51195E-12
 -1      7460 8.71490E-01 1.39509E+00-8.02753E-10-8.50632E-02 6.85976E-13 4.81102E-12
 -1      7461 8.71490E-01 1.39509E+00-8.04986E-10-8.50632E-02-1.90132E-12-1.13878E-11
 -1      7462 8.71490E-01 1.39509E+00-8.06274E-10-8.50632E-02-1.51094E-12-9.21937E-12
 -1      7463 9.10590E-01 1.35599E+00-8.05886E-10-1.61800E-01 2.78955E-12 8.75577E-12
 -1      7464 9.10590E-01 1.35599E+00-8.04649E-10-1.61800E-01 3.51859E-12 1.10124E-11
 -1      7465 9.10590E-01 1.35599E+00-8.02512E-10-1.61800E-01-1.50249E-12-4.70759E-12
 -1      7466 9.10590E-01 1.35599E+00-8.02333E-10-1.61800E-01 1.99810E-12 6.17384E-12
 -1      7467 9.10590E-01 1.35599E+00-8.02475E-10-1.61800E-01-6.96581E-13-2.18745E-12
 -1      7468 9.10590E-01 1.35599E+00-8.02551E-10-1.61800E-01 7.48202E-13 1.98780E-12
 -1      7469 9.10590E-01 1.35599E+00-8.02357E-10-1.61800E-01-1.98350E-12-6.02809E-12
 -1      7470 9.10590E-01 1.35599E+00-8.02541E-10-1.61800E-01 1.57428E-12 4.70815E-12
 -1      7471 9.10590E-01 1.35599E+00-8.04616E-10-1.61800E-01-3.53240E-12-1.10164E-11
 -1      7472 9.10590E-01 1.35599E+00-8.05805E-10-1.61800E-01-2.76506E-12-8.66753E-12
 -1      7473 9.71488E-01 1.29509E+00-8.06812E-10-2.22698E-01 4.12880E-12 8.55742E-12
 -1      7474 9.71488E-01 1.29509E+00-8.05558E-10-2.22698E-01 4.97285E-12 1.00800E-11
 -1      7475 9.71488E-01 1.29509E+00-8.03332E-10-2.22698E-01-2.30926E-12-4.30290E-12
 -1      7476 9.71488E-01 1.29509E+00-8.03067E-10-2.22698E-01 2.90838E-12 5.73997E-12
 -1      7477 9.71488E-01 1.29509E+00-8.03228E-10-2.22698E-01-1.04125E-12-2.05497E-12
 -1      7478 9.71488E-01 1.29509E+00-8.03241E-10-2.22698E-01 1.04362E-12 2.00660E-12
 -1      7479 9.71488E-01 1.29509E+00-8.03067E-10-2.22698E-01-2.79047E-12-5.84747E-12
 -1      7480 9.71488E-01 1.29509E+00-8.03272E-10-2.22698E-01 2.28949E-12 4.31195E-12
 -1      7481 9.71488E-01 1.29509E+00-8.05457E-10-2.22698E-01-4.90111E-12-1.01591E-11
 -1      7482 9.71488E-01 1.29509E+00-8.06883E-10-2.22698E-01-4.10418E-12-8.59123E-12
 -1      7483 1.04822E+00 1.21835E+00-8.06025E-10-2.61798E-01 5.09957E-12 6.82422E-12
 -1      7484 1.04822E+00 1.21835E+00-8.04310E-10-2.61798E-01 7.47403E-12 1.02501E-11
 -1      7485 1.04822E+00 1.21835E+00-8.01641E-10-2.61798E-01-2.97348E-12-4.22003E-12
 -1      7486 1.04822E+00 1.21835E+00-8.01070E-10-2.61798E-01 3.89289E-12 5.34696E-12
 -1      7487 1.04822E+00 1.21835E+00-8.00916E-10-2.61798E-01-1.21601E-12-1.74807E-12
 -1      7488 1.04822E+00 1.21835E+00-8.00947E-10-2.61798E-01 1.23209E-12 1.76220E-12
 -1      7489 1.04822E+00 1.21835E+00-8.01010E-10-2.61798E-01-3.98989E-12-5.39113E-12
 -1      7490 1.04822E+00 1.21835E+00-8.01678E-10-2.61798E-01 3.02253E-12 4.31516E-12
 -1      7491 1.04822E+00 1.21835E+00-8.04288E-10-2.61798E-01-7.47147E-12-1.02116E-11
 -1      7492 1.04822E+00 1.21835E+00-8.05951E-10-2.61798E-01-5.07734E-12-6.88358E-12
 -1      7493 1.13329E+00 1.13329E+00-8.04805E-10-2.75270E-01 4.92634E-12 4.40667E-12
 -1      7494 1.13329E+00 1.13329E+00-8.03235E-10-2.75270E-01 1.01922E-11 9.64041E-12
 -1      7495 1.13329E+00 1.13329E+00-8.00913E-10-2.75270E-01-4.02412E-12-4.32237E-12
 -1      7496 1.13329E+00 1.13329E+00-8.00374E-10-2.75270E-01 5.04385E-12 4.77625E-12
 -1      7497 1.13329E+00 1.13329E+00-8.00481E-10-2.75270E-01-1.40794E-12-1.43279E-12
 -1      7498 1.13329E+00 1.13329E+00-8.00445E-10-2.75270E-01 1.45415E-12 1.47631E-12
 -1      7499 1.13329E+00 1.13329E+00-8.00412E-10-2.75270E-01-4.85779E-12-4.61647E-12
 -1      7500 1.13329E+00 1.13329E+00-8.00936E-10-2.75270E-01 4.05428E-12 4.47120E-12
 -1      7501 1.13329E+00 1.13329E+00-8.03258E-10-2.75270E-01-1.02206E-11-9.70376E-12
 -1      7502 1.13329E+00 1.13329E+00-8.04851E-10-2.75270E-01-4.87715E-12-4.46365E-12
 -1      7503 1.21835E+00 1.04822E+00-8.07720E-10-2.61798E-01 1.06316E-11 7.84728E-12
 -1      7504 1.21835E+00 1.04822E+00-8.07452E-10-2.61798E-01 5.88936E-12 4.54403E-12
 -1      7505 1.21835E+00 1.04822E+00-8.05923E-10-2.61798E-01-2.71807E-12-2.01498E-12
 -1      7506 1.21835E+00 1.04822E+00-8.06445E-10-2.61798E-01 4.70750E-12 3.44633E-12
 -1      7507 1.21835E+00 1.04822E+00-8.06948E-10-2.61798E-01-2.01798E-12-1.54810E-12
 -1      7508 1.21835E+00 1.04822E+00-8.06972E-10-2.61798E-01 2.08804E-12 1.52520E-12
 -1      7509 1.21835E+00 1.04822E+00-8.06516E-10-2.61798E-01-4.75758E-12-3.46059E-12
 -1      7510 1.21835E+00 1.04822E+00-8.05971E-10-2.61798E-01 2.75369E-12 1.90471E-12
 -1      7511 1.21835E+00 1.04822E+00-8.07443E-10-2.61798E-01-5.93058E-12-4.48595E-12
 -1      7512 1.21835E+00 1.04822E+00-8.07712E-10-2.61798E-01-1.06347E-11-7.83034E-12
 -1      7513 1.29509E+00 9.71488E-01-8.06938E-10-2.22698E-01 8.01407E-12 4.87456E-12
 -1      7514 1.29509E+00 9.71488E-01-8.05519E-10-2.22698E-01 9.72905E-12 5.59771E-12
 -1      7515 1.29509E+00 9.71488E-01-8.03265E-10-2.22698E-01-4.54768E-12-1.75933E-12
 -1      7516 1.29509E+00 9.71488E-01-8.03020E-10-2.22698E-01 5.57529E-12 3.18673E-12
 -1      7517 1.29509E+00 9.71488E-01-8.03181E-10-2.22698E-01-1.98795E-12-9.23308E-13
 -1      7518 1.29509E+00 9.71488E-01-8.03227E-10-2.22698E-01 2.07629E-12 1.00263E-12
 -1      7519 1.29509E+00 9.71488E-01-8.03052E-10-2.22698E-01-5.65438E-12-3.18298E-12
 -1      7520 1.29509E+00 9.71488E-01-8.03403E-10-2.22698E-01 4.66714E-12 1.73192E-12
 -1      7521 1.29509E+00 9.71488E-01-8.05706E-10-2.22698E-01-9.81843E-12-5.67431E-12
 -1      7522 1.29509E+00 9.71488E-01-8.06993E-10-2.22698E-01-7.95747E-12-4.84196E-12
 -1      7523 1.35599E+00 9.10590E-01-8.03587E-10-1.61800E-01 4.74791E-12 1.34457E-12
 -1      7524 1.35599E+00 9.10590E-01-8.00792E-10-1.61800E-01 1.59129E-11 5.06791E-12
 -1      7525 1.35599E+00 9.10590E-01-7.97485E-10-1.61800E-01-6.34603E-12-2.01812E-12
 -1      7526 1.35599E+00 9.10590E-01-7.96081E-10-1.61800E-01 6.95998E-12 2.23497E-12
 -1      7527 1.35599E+00 9.10590E-01-7.95457E-10-1.61800E-01-1.76664E-12-6.08601E-13
 -1      7528 1.35599E+00 9.10590E-01-7.95525E-10-1.61800E-01 1.74674E-12 5.34302E-13
 -1      7529 1.35599E+00 9.10590E-01-7.95886E-10-1.61800E-01-7.02353E-12-2.30725E-12
 -1      7530 1.35599E+00 9.10590E-01-7.97271E-10-1.61800E-01 6.16810E-12 2.01922E-12
 -1      7531 1.35599E+00 9.10590E-01-8.00639E-10-1.61800E-01-1.59381E-11-5.08073E-12
 -1      7532 1.35599E+00 9.10590E-01-8.03533E-10-1.61800E-01-4.74477E-12-1.37021E-12
 -1      7533 1.39509E+00 8.71490E-01-8.05981E-10-8.50632E-02 8.89906E-12 4.02278E-13
 -1      7534 1.39509E+00 8.71490E-01-8.04737E-10-8.50632E-02 1.16770E-11 1.05314E-12
 -1      7535 1.39509E+00 8.71490E-01-8.02722E-10-8.50632E-02-4.77722E-12-1.39265E-12
 -1      7536 1.39509E+00 8.71490E-01-8.02577E-10-8.50632E-02 6.46968E-12 7.49244E-13
 -1      7537 1.39509E+00 8.71490E-01-8.02823E-10-8.50632E-02-2.00989E-12-4.22614E-13
 -1      7538 1.39509E+00 8.71490E-01-8.02782E-10-8.50632E-02 2.19451E-12 4.31330E-13
 -1      7539 1.39509E+00 8.71490E-01-8.02605E-10-8.50632E-02-6.49099E-12-7.10889E-13
 -1      7540 1.39509E+00 8.71490E-01-8.02801E-10-8.50632E-02 4.82603E-12 1.36630E-12
 -1      7541 1.39509E+00 8.71490E-01-8.04862E-10-8.50632E-02-1.16125E-11-1.07504E-12
 -1      7542 1.39509E+00 8.71490E-01-8.05965E-10-8.50632E-02-8.94115E-12-3.97576E-13
 -1      7543 8.89223E-01 1.37735E+00-6.76236E-10-7.93014E-02-4.81860E-12-3.11424E-11
 -1      7544 8.89223E-01 1.37735E+00-6.57521E-10-7.93014E-02 3.33825E-12 2.01043E-11
 -1      7545 8.89223E-01 1.37735E+00-6.72744E-10-7.93014E-02-1.98040E-12-1.33672E-11
 -1      7546 8.89223E-01 1.37735E+00-6.77643E-10-7.93014E-02 1.73339E-12 1.06739E-11
 -1      7547 8.89223E-01 1.37735E+00-6.78992E-10-7.93014E-02-3.77037E-13-2.41484E-12
 -1      7548 8.89223E-01 1.37735E+00-6.79053E-10-7.93014E-02 3.70797E-13 2.33107E-12
 -1      7549 8.89223E-01 1.37735E+00-6.77671E-10-7.93014E-02-1.75416E-12-1.05693E-11
 -1      7550 8.89223E-01 1.37735E+00-6.72762E-10-7.93014E-02 2.02169E-12 1.33218E-11
 -1      7551 8.89223E-01 1.37735E+00-6.57483E-10-7.93014E-02-3.29335E-12-2.00241E-11
 -1      7552 8.89223E-01 1.37735E+00-6.76194E-10-7.93014E-02 4.84787E-12 3.11980E-11
 -1      7553 9.25674E-01 1.34090E+00-6.76066E-10-1.50840E-01-9.89850E-12-3.02741E-11
 -1      7554 9.25674E-01 1.34090E+00-6.57361E-10-1.50840E-01 6.28092E-12 1.94176E-11
 -1      7555 9.25674E-01 1.34090E+00-6.72599E-10-1.50840E-01-4.21914E-12-1.29523E-11
 -1      7556 9.25674E-01 1.34090E+00-6.77681E-10-1.50840E-01 3.46622E-12 1.02830E-11
 -1      7557 9.25674E-01 1.34090E+00-6.79163E-10-1.50840E-01-7.20979E-13-2.45968E-12
 -1      7558 9.25674E-01 1.34090E+00-6.79183E-10-1.50840E-01 7.66616E-13 2.44728E-12
 -1      7559 9.25674E-01 1.34090E+00-6.77749E-10-1.50840E-01-3.38759E-12-1.04078E-11
 -1      7560 9.25674E-01 1.34090E+00-6.72619E-10-1.50840E-01 4.20248E-12 1.29045E-11
 -1      7561 9.25674E-01 1.34090E+00-6.57451E-10-1.50840E-01-6.29525E-12-1.94566E-11
 -1      7562 9.25674E-01 1.34090E+00-6.76081E-10-1.50840E-01 9.88419E-12 3.02113E-11
 -1      7563 9.82448E-01 1.28413E+00-6.76656E-10-2.07614E-01-1.43881E-11-2.76714E-11
 -1      7564 9.82448E-01 1.28413E+00-6.57985E-10-2.07614E-01 8.76073E-12 1.76644E-11
 -1      7565 9.82448E-01 1.28413E+00-6.73061E-10-2.07614E-01-6.25548E-12-1.20761E-11
 -1      7566 9.82448E-01 1.28413E+00-6.78069E-10-2.07614E-01 4.72817E-12 9.52088E-12
 -1      7567 9.82448E-01 1.28413E+00-6.79335E-10-2.07614E-01-1.17412E-12-2.36486E-12
 -1      7568 9.82448E-01 1.28413E+00-6.79367E-10-2.07614E-01 1.27546E-12 2.29607E-12
 -1      7569 9.82448E-01 1.28413E+00-6.77997E-10-2.07614E-01-4.80179E-12-9.51056E-12
 -1      7570 9.82448E-01 1.28413E+00-6.73078E-10-2.07614E-01 6.31002E-12 1.19694E-11
 -1      7571 9.82448E-01 1.28413E+00-6.58048E-10-2.07614E-01-8.71004E-12-1.76672E-11
 -1      7572 9.82448E-01 1.28413E+00-6.76680E-10-2.07614E-01 1.43538E-11 2.76634E-11
 -1      7573 1.05399E+00 1.21259E+00-6.76124E-10-2.44065E-01-2.02555E-11-2.76558E-11
 -1      7574 1.05399E+00 1.21259E+00-6.55605E-10-2.44065E-01 1.21080E-11 1.69842E-11
 -1      7575 1.05399E+00 1.21259E+00-6.69629E-10-2.44065E-01-9.59683E-12-1.23842E-11
 -1      7576 1.05399E+00 1.21259E+00-6.73291E-10-2.44065E-01 5.61154E-12 8.29822E-12
 -1      7577 1.05399E+00 1.21259E+00-6.74034E-10-2.44065E-01-1.74007E-12-2.12834E-12
 -1      7578 1.05399E+00 1.21259E+00-6.74096E-10-2.44065E-01 1.74582E-12 1.96591E-12
 -1      7579 1.05399E+00 1.21259E+00-6.73362E-10-2.44065E-01-5.64156E-12-8.13464E-12
 -1      7580 1.05399E+00 1.21259E+00-6.69494E-10-2.44065E-01 9.37421E-12 1.24897E-11
 -1      7581 1.05399E+00 1.21259E+00-6.55631E-10-2.44065E-01-1.22112E-11-1.69683E-11
 -1      7582 1.05399E+00 1.21259E+00-6.76137E-10-2.44065E-01 2.02895E-11 2.76138E-11
 -1      7583 1.13329E+00 1.13329E+00-6.76013E-10-2.56625E-01-2.67423E-11-2.76150E-11
 -1      7584 1.13329E+00 1.13329E+00-6.54913E-10-2.56625E-01 1.76212E-11 1.64622E-11
 -1      7585 1.13329E+00 1.13329E+00-6.69449E-10-2.56625E-01-1.11671E-11-1.26548E-11
 -1      7586 1.13329E+00 1.13329E+00-6.73588E-10-2.56625E-01 7.60566E-12 6.93033E-12
 -1      7587 1.13329E+00 1.13329E+00-6.74436E-10-2.56625E-01-1.27711E-12-1.49607E-12
 -1      7588 1.13329E+00 1.13329E+00-6.74520E-10-2.56625E-01 1.23961E-12 1.64993E-12
 -1      7589 1.13329E+00 1.13329E+00-6.73566E-10-2.56625E-01-7.52233E-12-6.87449E-12
 -1      7590 1.13329E+00 1.13329E+00-6.69502E-10-2.56625E-01 1.14040E-11 1.26230E-11
 -1      7591 1.13329E+00 1.13329E+00-6.54930E-10-2.56625E-01-1.76236E-11-1.64561E-11
 -1      7592 1.13329E+00 1.13329E+00-6.76000E-10-2.56625E-01 2.65653E-11 2.77222E-11
 -1      7593 1.21259E+00 1.05399E+00-6.76501E-10-2.44065E-01-1.71347E-11-1.24820E-11
 -1      7594 1.21259E+00 1.05399E+00-6.62263E-10-2.44065E-01 1.22093E-11 8.66229E-12
 -1      7595 1.21259E+00 1.05399E+00-6.79366E-10-2.44065E-01-6.28688E-12-4.77451E-12
 -1      7596 1.21259E+00 1.05399E+00-6.86527E-10-2.44065E-01 9.99034E-12 6.89402E-12
 -1      7597 1.21259E+00 1.05399E+00-6.89174E-10-2.44065E-01-2.41267E-12-1.92587E-12
 -1      7598 1.21259E+00 1.05399E+00-6.89097E-10-2.44065E-01 2.64663E-12 1.82762E-12
 -1      7599 1.21259E+00 1.05399E+00-6.86463E-10-2.44065E-01-1.00946E-11-6.99327E-12
 -1      7600 1.21259E+00 1.05399E+00-6.79251E-10-2.44065E-01 6.30379E-12 4.93329E-12
 -1      7601 1.21259E+00 1.05399E+00-6.62195E-10-2.44065E-01-1.21654E-11-8.75019E-12
 -1      7602 1.21259E+00 1.05399E+00-6.76483E-10-2.44065E-01 1.72505E-11 1.24029E-11
 -1      7603 1.28413E+00 9.82448E-01-6.76712E-10-2.07614E-01-2.85080E-11-1.30824E-11
 -1      7604 1.28413E+00 9.82448E-01-6.58020E-10-2.07614E-01 1.69742E-11 1.03313E-11
 -1      7605 1.28413E+00 9.82448E-01-6.72946E-10-2.07614E-01-1.27009E-11-4.86996E-12
 -1      7606 1.28413E+00 9.82448E-01-6.77897E-10-2.07614E-01 9.19853E-12 5.75494E-12
 -1      7607 1.28413E+00 9.82448E-01-6.79310E-10-2.07614E-01-2.49018E-12-8.57756E-13
 -1      7608 1.28413E+00 9.82448E-01-6.79297E-10-2.07614E-01 2.50366E-12 9.28303E-13
 -1      7609 1.28413E+00 9.82448E-01-6.77905E-10-2.07614E-01-9.13733E-12-5.69845E-12
 -1      7610 1.28413E+00 9.82448E-01-6.73033E-10-2.07614E-01 1.27002E-11 4.82895E-12
 -1      7611 1.28413E+00 9.82448E-01-6.57918E-10-2.07614E-01-1.68938E-11-1.02626E-11
 -1      7612 1.28413E+00 9.82448E-01-6.76677E-10-2.07614E-01 2.84555E-11 1.30823E-11
 -1      7613 1.34090E+00 9.25674E-01-6.75053E-10-1.50840E-01-4.18966E-11-1.37030E-11
 -1      7614 1.34090E+00 9.25674E-01-6.50252E-10-1.50840E-01 2.49137E-11 8.10745E-12
 -1      7615 1.34090E+00 9.25674E-01-6.62135E-10-1.50840E-01-1.98683E-11-6.33965E-12
 -1      7616 1.34090E+00 9.25674E-01-6.63586E-10-1.50840E-01 8.05911E-12 2.74563E-12
 -1      7617 1.34090E+00 9.25674E-01-6.63175E-10-1.50840E-01-2.03893E-12-6.59854E-13
 -1      7618 1.34090E+00 9.25674E-01-6.63158E-10-1.50840E-01 1.98543E-12 5.34931E-13
 -1      7619 1.34090E+00 9.25674E-01-6.63635E-10-1.50840E-01-8.29202E-12-2.77300E-12
 -1      7620 1.34090E+00 9.25674E-01-6.62071E-10-1.50840E-01 1.98296E-11 6.26842E-12
 -1      7621 1.34090E+00 9.25674E-01-6.50208E-10-1.50840E-01-2.48197E-11-8.15777E-12
 -1      7622 1.34090E+00 9.25674E-01-6.74983E-10-1.50840E-01 4.18676E-11 1.36746E-11
 -1      7623 1.37735E+00 8.89223E-01-6.76240E-10-7.93014E-02-3.13543E-11-6.79987E-12
 -1      7624 1.37735E+00 8.89223E-01-6.57932E-10-7.93014E-02 2.16488E-11 1.34707E-12
 -1      7625 1.37735E+00 8.89223E-01-6.73813E-10-7.93014E-02-1.24261E-11-3.93299E-12
 -1      7626 1.37735E+00 8.89223E-01-6.79479E-10-7.93014E-02 1.17775E-11 5.35476E-13
 -1      7627 1.37735E+00 8.89223E-01-6.81187E-10-7.93014E-02-2.08138E-12-7.24817E-13
 -1      7628 1.37735E+00 8.89223E-01-6.81180E-10-7.93014E-02 2.20983E-12 7.68776E-13
 -1      7629 1.37735E+00 8.89223E-01-6.79388E-10-7.93014E-02-1.16918E-11-5.32976E-13
 -1      7630 1.37735E+00 8.89223E-01-6.73831E-10-7.93014E-02 1.24763E-11 3.96283E-12
 -1      7631 1.37735E+00 8.89223E-01-6.57944E-10-7.93014E-02-2.16540E-11-1.36450E-12
 -1      7632 1.37735E+00 8.89223E-01-6.76237E-10-7.93014E-02 3.13282E-11 6.79787E-12
 -1      7633 9.05214E-01 1.36136E+00-6.47596E-10-7.41056E-02 6.96329E-13 4.12143E-12
 -1      7634 9.05214E-01 1.36136E+00-6.82027E-10-7.41056E-02 1.41152E-11 8.85965E-11
 -1      7635 9.05214E-01 1.36136E+00-6.49319E-10-7.41056E-02-1.58862E-12-1.05716E-11
 -1      7636 9.05214E-01 1.36136E+00-6.37259E-10-7.41056E-02 3.64613E-12 2.28066E-11
 -1      7637 9.05214E-01 1.36136E+00-6.34659E-10-7.41056E-02-1.68166E-14-7.57022E-14
 -1      7638 9.05214E-01 1.36136E+00-6.34669E-10-7.41056E-02 1.54373E-14 1.08950E-13
 -1      7639 9.05214E-01 1.36136E+00-6.37285E-10-7.41056E-02-3.62678E-12-2.27677E-11
 -1      7640 9.05214E-01 1.36136E+00-6.49324E-10-7.41056E-02 1.59034E-12 1.04673E-11
 -1      7641 9.05214E-01 1.36136E+00-6.82091E-10-7.41056E-02-1.41021E-11-8.84544E-11
 -1      7642 9.05214E-01 1.36136E+00-6.47628E-10-7.41056E-02-7.23336E-13-4.07678E-12
 -1      7643 9.39277E-01 1.32730E+00-6.48089E-10-1.40957E-01 1.24474E-12 3.53453E-12
 -1      7644 9.39277E-01 1.32730E+00-6.82736E-10-1.40957E-01 2.79536E-11 8.54318E-11
 -1      7645 9.39277E-01 1.32730E+00-6.50218E-10-1.40957E-01-3.11815E-12-1.01382E-11
 -1      7646 9.39277E-01 1.32730E+00-6.38217E-10-1.40957E-01 7.25422E-12 2.18412E-11
 -1      7647 9.39277E-01 1.32730E+00-6.35714E-10-1.40957E-01 9.34606E-14-3.75478E-14
 -1      7648 9.39277E-01 1.32730E+00-6.35651E-10-1.40957E-01-3.43166E-14-5.57019E-15
 -1      7649 9.39277E-01 1.32730E+00-6.38250E-10-1.40957E-01-7.26167E-12-2.17968E-11
 -1      7650 9.39277E-01 1.32730E+00-6.50289E-10-1.40957E-01 3.15215E-12 1.00939E-11
 -1      7651 9.39277E-01 1.32730E+00-6.82761E-10-1.40957E-01-2.79181E-11-8.56269E-11
 -1      7652 9.39277E-01 1.32730E+00-6.48123E-10-1.40957E-01-1.17549E-12-3.51263E-12
 -1      7653 9.92331E-01 1.27425E+00-6.47773E-10-1.94011E-01 1.87038E-12 4.48720E-12
 -1      7654 9.92331E-01 1.27425E+00-6.81873E-10-1.94011E-01 3.96188E-11 7.86692E-11
 -1      7655 9.92331E-01 1.27425E+00-6.48722E-10-1.94011E-01-5.44939E-12-9.54864E-12
 -1      7656 9.92331E-01 1.27425E+00-6.36411E-10-1.94011E-01 9.91900E-12 2.01092E-11
 -1      7657 9.92331E-01 1.27425E+00-6.33528E-10-1.94011E-01-3.79661E-13-3.80890E-13
 -1      7658 9.92331E-01 1.27425E+00-6.33548E-10-1.94011E-01 3.08373E-13 3.61287E-13
 -1      7659 9.92331E-01 1.27425E+00-6.36380E-10-1.94011E-01-9.86680E-12-2.01721E-11
 -1      7660 9.92331E-01 1.27425E+00-6.48758E-10-1.94011E-01 5.37661E-12 9.68529E-12
 -1      7661 9.92331E-01 1.27425E+00-6.81832E-10-1.94011E-01-3.95871E-11-7.86468E-11
 -1      7662 9.92331E-01 1.27425E+00-6.47722E-10-1.94011E-01-1.87685E-12-4.41260E-12
 -1      7663 1.05918E+00 1.20739E+00-6.45728E-10-2.28074E-01-3.54168E-12-3.20194E-12
 -1      7664 1.05918E+00 1.20739E+00-6.76927E-10-2.28074E-01 4.97324E-11 7.08975E-11
 -1      7665 1.05918E+00 1.20739E+00-6.40369E-10-2.28074E-01-1.24196E-11-1.43936E-11
 -1      7666 1.05918E+00 1.20739E+00-6.24886E-10-2.28074E-01 9.33896E-12 1.49438E-11
 -1      7667 1.05918E+00 1.20739E+00-6.20195E-10-2.28074E-01-9.69064E-13-7.29616E-13
 -1      7668 1.05918E+00 1.20739E+00-6.20147E-10-2.28074E-01 9.79060E-13 6.26315E-13
 -1      7669 1.05918E+00 1.20739E+00-6.24887E-10-2.28074E-01-9.39235E-12-1.49551E-11
 -1      7670 1.05918E+00 1.20739E+00-6.40371E-10-2.28074E-01 1.24144E-11 1.43044E-11
 -1      7671 1.05918E+00 1.20739E+00-6.76913E-10-2.28074E-01-4.97614E-11-7.08737E-11
 -1      7672 1.05918E+00 1.20739E+00-6.45721E-10-2.28074E-01 3.49300E-12 3.17769E-12
 -1      7673 1.13329E+00 1.13329E+00-6.46246E-10-2.39811E-01-7.87371E-12-1.09507E-11
 -1      7674 1.13329E+00 1.13329E+00-6.78265E-10-2.39811E-01 6.80606E-11 6.44282E-11
 -1      7675 1.13329E+00 1.13329E+00-6.43408E-10-2.39811E-01-1.24509E-11-1.63309E-11
 -1      7676 1.13329E+00 1.13329E+00-6.28878E-10-2.39811E-01 1.46034E-11 1.14935E-11
 -1      7677 1.13329E+00 1.13329E+00-6.24781E-10-2.39811E-01 1.06549E-12 1.00965E-13
 -1      7678 1.13329E+00 1.13329E+00-6.24803E-10-2.39811E-01-9.66261E-13 1.21610E-15
 -1      7679 1.13329E+00 1.13329E+00-6.28897E-10-2.39811E-01-1.45868E-11-1.16215E-11
 -1      7680 1.13329E+00 1.13329E+00-6.43403E-10-2.39811E-01 1.24819E-11 1.64046E-11
 -1      7681 1.13329E+00 1.13329E+00-6.78236E-10-2.39811E-01-6.80026E-11-6.43330E-11
 -1      7682 1.13329E+00 1.13329E+00-6.46234E-10-2.39811E-01 7.90888E-12 1.09559E-11
 -1      7683 1.20739E+00 1.05918E+00-6.51772E-10-2.28074E-01 2.64241E-11 1.80309E-11
 -1      7684 1.20739E+00 1.05918E+00-6.91444E-10-2.28074E-01 7.05404E-11 4.96713E-11
 -1      7685 1.20739E+00 1.05918E+00-6.64429E-10-2.28074E-01 6.79214E-12 3.03077E-12
 -1      7686 1.20739E+00 1.05918E+00-6.58041E-10-2.28074E-01 2.65883E-11 1.79769E-11
 -1      7687 1.20739E+00 1.05918E+00-6.58705E-10-2.28074E-01-1.56761E-13-6.57913E-13
 -1      7688 1.20739E+00 1.05918E+00-6.58679E-10-2.28074E-01 1.86660E-13 6.13423E-13
 -1      7689 1.20739E+00 1.05918E+00-6.57937E-10-2.28074E-01-2.66027E-11-1.78578E-11
 -1      7690 1.20739E+00 1.05918E+00-6.64413E-10-2.28074E-01-6.72710E-12-3.07051E-12
 -1      7691 1.20739E+00 1.05918E+00-6.91483E-10-2.28074E-01-7.05331E-11-4.97097E-11
 -1      7692 1.20739E+00 1.05918E+00-6.51775E-10-2.28074E-01-2.64373E-11-1.80081E-11
 -1      7693 1.27425E+00 9.92331E-01-6.47626E-10-1.94011E-01 2.24375E-12 5.47018E-12
 -1      7694 1.27425E+00 9.92331E-01-6.81484E-10-1.94011E-01 7.64910E-11 4.44382E-11
 -1      7695 1.27425E+00 9.92331E-01-6.48405E-10-1.94011E-01-1.21606E-11-3.92667E-13
 -1      7696 1.27425E+00 9.92331E-01-6.36001E-10-1.94011E-01 1.83359E-11 1.35070E-11
 -1      7697 1.27425E+00 9.92331E-01-6.33119E-10-1.94011E-01-9.58193E-13 9.45478E-13
 -1      7698 1.27425E+00 9.92331E-01-6.33103E-10-1.94011E-01 9.70721E-13-9.11631E-13
 -1      7699 1.27425E+00 9.92331E-01-6.35954E-10-1.94011E-01-1.82279E-11-1.34684E-11
 -1      7700 1.27425E+00 9.92331E-01-6.48320E-10-1.94011E-01 1.21528E-11 4.56058E-13
 -1      7701 1.27425E+00 9.92331E-01-6.81533E-10-1.94011E-01-7.64468E-11-4.44899E-11
 -1      7702 1.27425E+00 9.92331E-01-6.47618E-10-1.94011E-01-2.35805E-12-5.45812E-12
 -1      7703 1.32730E+00 9.39277E-01-6.42084E-10-1.40957E-01-2.96389E-11-9.50660E-12
 -1      7704 1.32730E+00 9.39277E-01-6.67805E-10-1.40957E-01 8.53205E-11 2.81802E-11
 -1      7705 1.32730E+00 9.39277E-01-6.25687E-10-1.40957E-01-3.42704E-11-1.06566E-11
 -1      7706 1.32730E+00 9.39277E-01-6.04749E-10-1.40957E-01 8.30356E-12 3.09271E-12
 -1      7707 1.32730E+00 9.39277E-01-5.96912E-10-1.40957E-01-5.82115E-13-4.96847E-14
 -1      7708 1.32730E+00 9.39277E-01-5.96950E-10-1.40957E-01 5.04014E-13 7.38505E-14
 -1      7709 1.32730E+00 9.39277E-01-6.04839E-10-1.40957E-01-8.43436E-12-3.14923E-12
 -1      7710 1.32730E+00 9.39277E-01-6.25834E-10-1.40957E-01 3.43039E-11 1.05942E-11
 -1      7711 1.32730E+00 9.39277E-01-6.67863E-10-1.40957E-01-8.53914E-11-2.81486E-11
 -1      7712 1.32730E+00 9.39277E-01-6.42132E-10-1.40957E-01 2.97460E-11 9.45651E-12
 -1      7713 1.36136E+00 9.05214E-01-6.48609E-10-7.41056E-02 5.58401E-12-4.75294E-12
 -1      7714 1.36136E+00 9.05214E-01-6.84833E-10-7.41056E-02 9.46204E-11 7.99407E-12
 -1      7715 1.36136E+00 9.05214E-01-6.54563E-10-7.41056E-02-5.39453E-12-8.29229E-12
 -1      7716 1.36136E+00 9.05214E-01-6.44476E-10-7.41056E-02 2.68112E-11-1.09516E-12
 -1      7717 1.36136E+00 9.05214E-01-6.43040E-10-7.41056E-02 1.72198E-12-1.57083E-12
 -1      7718 1.36136E+00 9.05214E-01-6.43028E-10-7.41056E-02-1.62353E-12 1.55098E-12
 -1      7719 1.36136E+00 9.05214E-01-6.44494E-10-7.41056E-02-2.66068E-11 1.09921E-12
 -1      7720 1.36136E+00 9.05214E-01-6.54479E-10-7.41056E-02 5.53001E-12 8.31554E-12
 -1      7721 1.36136E+00 9.05214E-01-6.84768E-10-7.41056E-02-9.45960E-11-7.99901E-12
 -1      7722 1.36136E+00 9.05214E-01-6.48614E-10-7.41056E-02-5.57886E-12 4.78708E-12
 -1      7723 9.19684E-01 1.34689E+00-3.65071E-10-6.94042E-02-5.34726E-11-3.37817E-10
 -1      7724 9.19684E-01 1.34689E+00-1.77518E-10-6.94042E-02 3.03231E-12 1.88255E-11
 -1      7725 9.19684E-01 1.34689E+00-2.94886E-10-6.94042E-02-1.31356E-11-8.33691E-11
 -1      7726 9.19684E-01 1.34689E+00-3.33890E-10-6.94042E-02 1.47089E-12 9.16558E-12
 -1      7727 9.19684E-01 1.34689E+00-3.37823E-10-6.94042E-02-1.01740E-13-5.79578E-13
 -1      7728 9.19684E-01 1.34689E+00-3.37884E-10-6.94042E-02 1.18764E-13 6.75369E-13
 -1      7729 9.19684E-01 1.34689E+00-3.33918E-10-6.94042E-02-1.46231E-12-9.15146E-12
 -1      7730 9.19684E-01 1.34689E+00-2.94987E-10-6.94042E-02 1.31741E-11 8.32714E-11
 -1      7731 9.19684E-01 1.34689E+00-1.77483E-10-6.94042E-02-3.00467E-12-1.88558E-11
 -1      7732 9.19684E-01 1.34689E+00-3.64994E-10-6.94042E-02 5.35062E-11 3.37851E-10
 -1      7733 9.51585E-01 1.31499E+00-3.67328E-10-1.32015E-01-1.05652E-10-3.26381E-10
 -1      7734 9.51585E-01 1.31499E+00-1.79868E-10-1.32015E-01 6.78043E-12 1.88776E-11
 -1      7735 9.51585E-01 1.31499E+00-2.97715E-10-1.32015E-01-2.53102E-11-8.05578E-11
 -1      7736 9.51585E-01 1.31499E+00-3.37164E-10-1.32015E-01 3.46808E-12 8.73288E-12
 -1      7737 9.51585E-01 1.31499E+00-3.41291E-10-1.32015E-01 6.17937E-14-4.07342E-13
 -1      7738 9.51585E-01 1.31499E+00-3.41258E-10-1.32015E-01-6.73677E-14 5.13893E-13
 -1      7739 9.51585E-01 1.31499E+00-3.37196E-10-1.32015E-01-3.39948E-12-8.89111E-12
 -1      7740 9.51585E-01 1.31499E+00-2.97749E-10-1.32015E-01 2.53019E-11 8.04758E-11
 -1      7741 9.51585E-01 1.31499E+00-1.79851E-10-1.32015E-01-6.74053E-12-1.88915E-11
 -1      7742 9.51585E-01 1.31499E+00-3.67288E-10-1.32015E-01 1.05694E-10 3.26305E-10
 -1      7743 1.00127E+00 1.26530E+00-3.62226E-10-1.81703E-01-1.56037E-10-3.03272E-10
 -1      7744 1.00127E+00 1.26530E+00-1.75090E-10-1.81703E-01 5.06834E-12 1.43171E-11
 -1      7745 1.00127E+00 1.26530E+00-2.91148E-10-1.81703E-01-4.09429E-11-7.61495E-11
 -1      7746 1.00127E+00 1.26530E+00-3.29003E-10-1.81703E-01 2.00250E-12 7.40066E-12
 -1      7747 1.00127E+00 1.26530E+00-3.32217E-10-1.81703E-01-1.43200E-12-1.50335E-12
 -1      7748 1.00127E+00 1.26530E+00-3.32230E-10-1.81703E-01 1.35677E-12 1.33429E-12
 -1      7749 1.00127E+00 1.26530E+00-3.28979E-10-1.81703E-01-2.03808E-12-7.19182E-12
 -1      7750 1.00127E+00 1.26530E+00-2.91236E-10-1.81703E-01 4.09868E-11 7.61390E-11
 -1      7751 1.00127E+00 1.26530E+00-1.75236E-10-1.81703E-01-5.16791E-12-1.42228E-11
 -1      7752 1.00127E+00 1.26530E+00-3.62282E-10-1.81703E-01 1.56019E-10 3.03315E-10
 -1      7753 1.06388E+00 1.20269E+00-3.64309E-10-2.13604E-01-2.18220E-10-2.94769E-10
 -1      7754 1.06388E+00 1.20269E+00-1.64627E-10-2.13604E-01-1.30806E-12 6.25482E-12
 -1      7755 1.06388E+00 1.20269E+00-2.73199E-10-2.13604E-01-6.79528E-11-8.52239E-11
 -1      7756 1.06388E+00 1.20269E+00-3.04367E-10-2.13604E-01-7.34309E-12-4.17839E-12
 -1      7757 1.06388E+00 1.20269E+00-3.04077E-10-2.13604E-01-3.48585E-12-2.74386E-12
 -1      7758 1.06388E+00 1.20269E+00-3.04056E-10-2.13604E-01 3.49073E-12 2.61557E-12
 -1      7759 1.06388E+00 1.20269E+00-3.04373E-10-2.13604E-01 7.32103E-12 3.96898E-12
 -1      7760 1.06388E+00 1.20269E+00-2.73124E-10-2.13604E-01 6.78769E-11 8.52890E-11
 -1      7761 1.06388E+00 1.20269E+00-1.64487E-10-2.13604E-01 1.35336E-12-6.40651E-12
 -1      7762 1.06388E+00 1.20269E+00-3.64269E-10-2.13604E-01 2.18194E-10 2.94793E-10
 -1      7763 1.13329E+00 1.13329E+00-3.76354E-10-2.24597E-01-2.67687E-10-2.75814E-10
 -1      7764 1.13329E+00 1.13329E+00-1.71920E-10-2.24597E-01 2.07049E-11 8.17892E-12
 -1      7765 1.13329E+00 1.13329E+00-2.85060E-10-2.24597E-01-7.05217E-11-8.33278E-11
 -1      7766 1.13329E+00 1.13329E+00-3.19768E-10-2.24597E-01 6.28559E-13-8.66838E-12
 -1      7767 1.13329E+00 1.13329E+00-3.21046E-10-2.24597E-01 2.51785E-12-8.69231E-13
 -1      7768 1.13329E+00 1.13329E+00-3.21094E-10-2.24597E-01-2.32432E-12 7.86898E-13
 -1      7769 1.13329E+00 1.13329E+00-3.19772E-10-2.24597E-01-5.26715E-13 8.73857E-12
 -1      7770 1.13329E+00 1.13329E+00-2.85146E-10-2.24597E-01 7.05537E-11 8.33413E-11
 -1      7771 1.13329E+00 1.13329E+00-1.72000E-10-2.24597E-01-2.07533E-11-8.11688E-12
 -1      7772 1.13329E+00 1.13329E+00-3.76380E-10-2.24597E-01 2.67728E-10 2.75774E-10
 -1      7773 1.20269E+00 1.06388E+00-3.52728E-10-2.13604E-01-2.18964E-10-1.62604E-10
 -1      7774 1.20269E+00 1.06388E+00-1.96763E-10-2.13604E-01 2.46924E-11 1.20092E-11
 -1      7775 1.20269E+00 1.06388E+00-3.25942E-10-2.13604E-01-2.77033E-11-2.61630E-11
 -1      7776 1.20269E+00 1.06388E+00-3.75779E-10-2.13604E-01 3.36752E-11 2.00515E-11
 -1      7777 1.20269E+00 1.06388E+00-3.85968E-10-2.13604E-01 1.31863E-13-1.37104E-12
 -1      7778 1.20269E+00 1.06388E+00-3.85944E-10-2.13604E-01-2.51453E-13 1.46065E-12
 -1      7779 1.20269E+00 1.06388E+00-3.75810E-10-2.13604E-01-3.36842E-11-2.01029E-11
 -1      7780 1.20269E+00 1.06388E+00-3.26023E-10-2.13604E-01 2.77494E-11 2.62363E-11
 -1      7781 1.20269E+00 1.06388E+00-1.96845E-10-2.13604E-01-2.47203E-11-1.20437E-11
 -1      7782 1.20269E+00 1.06388E+00-3.52743E-10-2.13604E-01 2.18852E-10 1.62654E-10
 -1      7783 1.26530E+00 1.00127E+00-3.60802E-10-1.81703E-01-3.09213E-10-1.45504E-10
 -1      7784 1.26530E+00 1.00127E+00-1.73951E-10-1.81703E-01 6.56619E-12 2.11956E-11
 -1      7785 1.26530E+00 1.00127E+00-2.89881E-10-1.81703E-01-8.42329E-11-2.51028E-11
 -1      7786 1.26530E+00 1.00127E+00-3.27586E-10-1.81703E-01 1.30342E-12 1.38729E-11
 -1      7787 1.26530E+00 1.00127E+00-3.30909E-10-1.81703E-01-3.46067E-12 2.88554E-12
 -1      7788 1.26530E+00 1.00127E+00-3.30913E-10-1.81703E-01 3.47671E-12-2.82425E-12
 -1      7789 1.26530E+00 1.00127E+00-3.27520E-10-1.81703E-01-1.30512E-12-1.37789E-11
 -1      7790 1.26530E+00 1.00127E+00-2.89802E-10-1.81703E-01 8.43356E-11 2.50599E-11
 -1      7791 1.26530E+00 1.00127E+00-1.73825E-10-1.81703E-01-6.52481E-12-2.11722E-11
 -1      7792 1.26530E+00 1.00127E+00-3.60726E-10-1.81703E-01 3.09206E-10 1.45457E-10
 -1      7793 1.31499E+00 9.51585E-01-3.77834E-10-1.32015E-01-4.12147E-10-1.33006E-10
 -1      7794 1.31499E+00 9.51585E-01-1.48776E-10-1.32015E-01-2.93467E-12 5.00674E-14
 -1      7795 1.31499E+00 9.51585E-01-2.46120E-10-1.32015E-01-1.46133E-10-4.62401E-11
 -1      7796 1.31499E+00 9.51585E-01-2.66974E-10-1.32015E-01-3.45660E-11-1.03763E-11
 -1      7797 1.31499E+00 9.51585E-01-2.60986E-10-1.32015E-01-3.87066E-12-1.02012E-12
 -1      7798 1.31499E+00 9.51585E-01-2.61005E-10-1.32015E-01 3.87758E-12 9.80260E-13
 -1      7799 1.31499E+00 9.51585E-01-2.67067E-10-1.32015E-01 3.44893E-11 1.03693E-11
 -1      7800 1.31499E+00 9.51585E-01-2.46281E-10-1.32015E-01 1.46088E-10 4.62883E-11
 -1      7801 1.31499E+00 9.51585E-01-1.48785E-10-1.32015E-01 2.99849E-12-1.16922E-14
 -1      7802 1.31499E+00 9.51585E-01-3.77903E-10-1.32015E-01 4.12123E-10 1.33060E-10
 -1      7803 1.34689E+00 9.19684E-01-3.68791E-10-6.94042E-02-3.30353E-10-6.79599E-11
 -1      7804 1.34689E+00 9.19684E-01-1.85937E-10-6.94042E-02 3.82111E-11-1.77724E-11
 -1      7805 1.34689E+00 9.19684E-01-3.09863E-10-6.94042E-02-6.64795E-11-3.43041E-11
 -1      7806 1.34689E+00 9.19684E-01-3.54338E-10-6.94042E-02 2.18847E-11-1.40610E-11
 -1      7807 1.34689E+00 9.19684E-01-3.61199E-10-6.94042E-02 4.85750E-12-5.42601E-12
 -1      7808 1.34689E+00 9.19684E-01-3.61168E-10-6.94042E-02-4.77760E-12 5.40072E-12
 -1      7809 1.34689E+00 9.19684E-01-3.54272E-10-6.94042E-02-2.17842E-11 1.40633E-11
 -1      7810 1.34689E+00 9.19684E-01-3.09854E-10-6.94042E-02 6.65033E-11 3.42756E-11
 -1      7811 1.34689E+00 9.19684E-01-1.86000E-10-6.94042E-02-3.81493E-11 1.77732E-11
 -1      7812 1.34689E+00 9.19684E-01-3.68837E-10-6.94042E-02 3.30398E-10 6.79231E-11
 -1      7813 9.32819E-01 1.33376E+00-1.06002E-09-6.51363E-02 5.63697E-11 3.55218E-10
 -1      7814 9.32819E-01 1.33376E+00-1.51873E-09-6.51363E-02 8.43547E-11 5.29489E-10
 -1      7815 9.32819E-01 1.33376E+00-1.15044E-09-6.51363E-02-1.27295E-12-9.33540E-12
 -1      7816 9.32819E-01 1.33376E+00-9.67591E-10-6.51363E-02 1.75212E-12 1.02242E-11
 -1      7817 9.32819E-01 1.33376E+00-8.99416E-10-6.51363E-02 5.34679E-13 2.97351E-12
 -1      7818 9.32819E-01 1.33376E+00-8.99447E-10-6.51363E-02-5.59362E-13-2.88934E-12
 -1      7819 9.32819E-01 1.33376E+00-9.67610E-10-6.51363E-02-1.77631E-12-1.02217E-11
 -1      7820 9.32819E-01 1.33376E+00-1.15041E-09-6.51363E-02 1.23942E-12 9.31509E-12
 -1      7821 9.32819E-01 1.33376E+00-1.51873E-09-6.51363E-02-8.43635E-11-5.29573E-10
 -1      7822 9.32819E-01 1.33376E+00-1.06012E-09-6.51363E-02-5.63680E-11-3.55129E-10
 -1      7823 9.62759E-01 1.30382E+00-1.06480E-09-1.23897E-01 1.11599E-10 3.39529E-10
 -1      7824 9.62759E-01 1.30382E+00-1.52407E-09-1.23897E-01 1.68107E-10 5.10784E-10
 -1      7825 9.62759E-01 1.30382E+00-1.15654E-09-1.23897E-01-1.41607E-12-9.18229E-12
 -1      7826 9.62759E-01 1.30382E+00-9.74500E-10-1.23897E-01 4.29277E-12 9.79583E-12
 -1      7827 9.62759E-01 1.30382E+00-9.06920E-10-1.23897E-01 1.52378E-12 3.31135E-12
 -1      7828 9.62759E-01 1.30382E+00-9.06935E-10-1.23897E-01-1.50540E-12-3.36497E-12
 -1      7829 9.62759E-01 1.30382E+00-9.74454E-10-1.23897E-01-4.29907E-12-9.77723E-12
 -1      7830 9.62759E-01 1.30382E+00-1.15662E-09-1.23897E-01 1.44287E-12 9.14249E-12
 -1      7831 9.62759E-01 1.30382E+00-1.52421E-09-1.23897E-01-1.68128E-10-5.10928E-10
 -1      7832 9.62759E-01 1.30382E+00-1.06486E-09-1.23897E-01-1.11666E-10-3.39716E-10
 -1      7833 1.00939E+00 1.25718E+00-1.05635E-09-1.70529E-01 1.60123E-10 3.24227E-10
 -1      7834 1.00939E+00 1.25718E+00-1.50988E-09-1.70529E-01 2.33253E-10 4.71833E-10
 -1      7835 1.00939E+00 1.25718E+00-1.13735E-09-1.70529E-01-1.34171E-11-1.03327E-11
 -1      7836 1.00939E+00 1.25718E+00-9.51723E-10-1.70529E-01-1.73439E-12 7.80315E-12
 -1      7837 1.00939E+00 1.25718E+00-8.82324E-10-1.70529E-01-1.61298E-12 6.85379E-13
 -1      7838 1.00939E+00 1.25718E+00-8.82341E-10-1.70529E-01 1.59496E-12-6.90913E-13
 -1      7839 1.00939E+00 1.25718E+00-9.51810E-10-1.70529E-01 1.71368E-12-7.81379E-12
 -1      7840 1.00939E+00 1.25718E+00-1.13734E-09-1.70529E-01 1.33819E-11 1.04222E-11
 -1      7841 1.00939E+00 1.25718E+00-1.50985E-09-1.70529E-01-2.33225E-10-4.71829E-10
 -1      7842 1.00939E+00 1.25718E+00-1.05633E-09-1.70529E-01-1.60116E-10-3.24198E-10
 -1      7843 1.06815E+00 1.19842E+00-1.04628E-09-2.00469E-01 1.68119E-10 2.46027E-10
 -1      7844 1.06815E+00 1.19842E+00-1.49470E-09-2.00469E-01 2.82949E-10 4.07733E-10
 -1      7845 1.06815E+00 1.19842E+00-1.11296E-09-2.00469E-01-4.62985E-11-4.51197E-11
 -1      7846 1.06815E+00 1.19842E+00-9.20564E-10-2.00469E-01-2.28832E-11-1.83521E-11
 -1      7847 1.06815E+00 1.19842E+00-8.45529E-10-2.00469E-01-4.68268E-12-2.09611E-12
 -1      7848 1.06815E+00 1.19842E+00-8.45554E-10-2.00469E-01 4.60241E-12 2.00445E-12
 -1      7849 1.06815E+00 1.19842E+00-9.20521E-10-2.00469E-01 2.28346E-11 1.82505E-11
 -1      7850 1.06815E+00 1.19842E+00-1.11291E-09-2.00469E-01 4.63888E-11 4.49736E-11
 -1      7851 1.06815E+00 1.19842E+00-1.49466E-09-2.00469E-01-2.83031E-10-4.07642E-10
 -1      7852 1.06815E+00 1.19842E+00-1.04624E-09-2.00469E-01-1.68167E-10-2.46043E-10
 -1      7853 1.13329E+00 1.13329E+00-1.05298E-09-2.10785E-01 1.96296E-10 1.69936E-10
 -1      7854 1.13329E+00 1.13329E+00-1.51746E-09-2.10785E-01 3.92237E-10 3.58899E-10
 -1      7855 1.13329E+00 1.13329E+00-1.14972E-09-2.10785E-01-2.30038E-11-5.64489E-11
 -1      7856 1.13329E+00 1.13329E+00-9.66937E-10-2.10785E-01-4.52156E-12-2.85593E-11
 -1      7857 1.13329E+00 1.13329E+00-8.96309E-10-2.10785E-01 1.04688E-11 2.52632E-12
 -1      7858 1.13329E+00 1.13329E+00-8.96226E-10-2.10785E-01-1.04835E-11-2.48790E-12
 -1      7859 1.13329E+00 1.13329E+00-9.66860E-10-2.10785E-01 4.62313E-12 2.85156E-11
 -1      7860 1.13329E+00 1.13329E+00-1.14965E-09-2.10785E-01 2.29712E-11 5.65449E-11
 -1      7861 1.13329E+00 1.13329E+00-1.51738E-09-2.10785E-01-3.92073E-10-3.59083E-10
 -1      7862 1.13329E+00 1.13329E+00-1.05308E-09-2.10785E-01-1.96382E-10-1.69892E-10
 -1      7863 1.19842E+00 1.06815E+00-1.08962E-09-2.00469E-01 4.32104E-10 3.02271E-10
 -1      7864 1.19842E+00 1.06815E+00-1.54262E-09-2.00469E-01 4.64656E-10 3.24361E-10
 -1      7865 1.19842E+00 1.06815E+00-1.18139E-09-2.00469E-01 7.47315E-11 4.10148E-11
 -1      7866 1.19842E+00 1.06815E+00-1.00654E-09-2.00469E-01 6.80401E-11 3.96578E-11
 -1      7867 1.19842E+00 1.06815E+00-9.47523E-10-2.00469E-01 1.60668E-12-2.23051E-12
 -1      7868 1.19842E+00 1.06815E+00-9.47591E-10-2.00469E-01-1.67477E-12 2.25293E-12
 -1      7869 1.19842E+00 1.06815E+00-1.00663E-09-2.00469E-01-6.81307E-11-3.96415E-11
 -1      7870 1.19842E+00 1.06815E+00-1.18140E-09-2.00469E-01-7.47177E-11-4.10135E-11
 -1      7871 1.19842E+00 1.06815E+00-1.54266E-09-2.00469E-01-4.64672E-10-3.24194E-10
 -1      7872 1.19842E+00 1.06815E+00-1.08960E-09-2.00469E-01-4.32060E-10-3.02311E-10
 -1      7873 1.25718E+00 1.00939E+00-1.05446E-09-1.70529E-01 3.07132E-10 1.91629E-10
 -1      7874 1.25718E+00 1.00939E+00-1.50616E-09-1.70529E-01 4.50899E-10 2.75847E-10
 -1      7875 1.25718E+00 1.00939E+00-1.13335E-09-1.70529E-01-3.23321E-11 3.01855E-11
 -1      7876 1.25718E+00 1.00939E+00-9.48344E-10-1.70529E-01-7.52167E-12 2.87100E-11
 -1      7877 1.25718E+00 1.00939E+00-8.78914E-10-1.70529E-01-4.19966E-12 8.89518E-12
 -1      7878 1.25718E+00 1.00939E+00-8.78929E-10-1.70529E-01 4.19280E-12-8.86523E-12
 -1      7879 1.25718E+00 1.00939E+00-9.48343E-10-1.70529E-01 7.53297E-12-2.87680E-11
 -1      7880 1.25718E+00 1.00939E+00-1.13333E-09-1.70529E-01 3.22689E-11-3.01123E-11
 -1      7881 1.25718E+00 1.00939E+00-1.50615E-09-1.70529E-01-4.50875E-10-2.75843E-10
 -1      7882 1.25718E+00 1.00939E+00-1.05452E-09-1.70529E-01-3.06892E-10-1.91662E-10
 -1      7883 1.30382E+00 9.62759E-01-1.02779E-09-1.23897E-01 1.30270E-10 4.27821E-11
 -1      7884 1.30382E+00 9.62759E-01-1.47876E-09-1.23897E-01 4.44012E-10 1.45901E-10
 -1      7885 1.30382E+00 9.62759E-01-1.09015E-09-1.23897E-01-1.45678E-10-4.65759E-11
 -1      7886 1.30382E+00 9.62759E-01-8.91689E-10-1.23897E-01-8.85978E-11-2.84189E-11
 -1      7887 1.30382E+00 9.62759E-01-8.08114E-10-1.23897E-01-1.24874E-12-1.95608E-13
 -1      7888 1.30382E+00 9.62759E-01-8.08177E-10-1.23897E-01 1.29953E-12 2.19981E-13
 -1      7889 1.30382E+00 9.62759E-01-8.91743E-10-1.23897E-01 8.86610E-11 2.84195E-11
 -1      7890 1.30382E+00 9.62759E-01-1.09017E-09-1.23897E-01 1.45604E-10 4.64624E-11
 -1      7891 1.30382E+00 9.62759E-01-1.47882E-09-1.23897E-01-4.44120E-10-1.45861E-10
 -1      7892 1.30382E+00 9.62759E-01-1.02769E-09-1.23897E-01-1.30291E-10-4.27603E-11
 -1      7893 1.33376E+00 9.32819E-01-1.06870E-09-6.51363E-02 3.77919E-10 1.09163E-11
 -1      7894 1.33376E+00 9.32819E-01-1.53740E-09-6.51363E-02 5.77297E-10 3.01089E-11
 -1      7895 1.33376E+00 9.32819E-01-1.18176E-09-6.51363E-02 3.37423E-11-5.76505E-11
 -1      7896 1.33376E+00 9.32819E-01-1.00903E-09-6.51363E-02 4.05031E-11-3.82190E-11
 -1      7897 1.33376E+00 9.32819E-01-9.46251E-10-6.51363E-02 1.58383E-11-1.25299E-11
 -1      7898 1.33376E+00 9.32819E-01-9.46226E-10-6.51363E-02-1.57247E-11 1.24952E-11
 -1      7899 1.33376E+00 9.32819E-01-1.00895E-09-6.51363E-02-4.04415E-11 3.82094E-11
 -1      7900 1.33376E+00 9.32819E-01-1.18168E-09-6.51363E-02-3.36639E-11 5.76605E-11
 -1      7901 1.33376E+00 9.32819E-01-1.53728E-09-6.51363E-02-5.77201E-10-3.01309E-11
 -1      7902 1.33376E+00 9.32819E-01-1.06863E-09-6.51363E-02-3.77896E-10-1.09029E-11
 -1      7903 9.44779E-01 1.32180E+00 1.61912E-09-6.12502E-02-5.24723E-10-3.31979E-09
 -1      7904 9.44779E-01 1.32180E+00 3.73681E-09-6.12502E-02-1.76852E-10-1.11594E-09
 -1      7905 9.44779E-01 1.32180E+00 2.88267E-09-6.12502E-02-1.35426E-10-8.59567E-10
 -1      7906 9.44779E-01 1.32180E+00 2.51638E-09-6.12502E-02-5.40313E-11-3.46567E-10
 -1      7907 9.44779E-01 1.32180E+00 2.49158E-09-6.12502E-02-9.43582E-12-6.14893E-11
 -1      7908 9.44779E-01 1.32180E+00 2.49163E-09-6.12502E-02 9.49160E-12 6.15976E-11
 -1      7909 9.44779E-01 1.32180E+00 2.51632E-09-6.12502E-02 5.40597E-11 3.46485E-10
 -1      7910 9.44779E-01 1.32180E+00 2.88262E-09-6.12502E-02 1.35390E-10 8.59303E-10
 -1      7911 9.44779E-01 1.32180E+00 3.73670E-09-6.12502E-02 1.76808E-10 1.11607E-09
 -1      7912 9.44779E-01 1.32180E+00 1.61908E-09-6.12502E-02 5.24717E-10 3.31981E-09
 -1      7913 9.72933E-01 1.29364E+00 1.60790E-09-1.16505E-01-1.03749E-09-3.20069E-09
 -1      7914 9.72933E-01 1.29364E+00 3.72684E-09-1.16505E-01-3.46911E-10-1.06893E-09
 -1      7915 9.72933E-01 1.29364E+00 2.87057E-09-1.16505E-01-2.66237E-10-8.24695E-10
 -1      7916 9.72933E-01 1.29364E+00 2.50247E-09-1.16505E-01-1.06476E-10-3.31990E-10
 -1      7917 9.72933E-01 1.29364E+00 2.47769E-09-1.16505E-01-1.82417E-11-5.75507E-11
 -1      7918 9.72933E-01 1.29364E+00 2.47774E-09-1.16505E-01 1.82406E-11 5.74293E-11
 -1      7919 9.72933E-01 1.29364E+00 2.50250E-09-1.16505E-01 1.06419E-10 3.32195E-10
 -1      7920 9.72933E-01 1.29364E+00 2.87055E-09-1.16505E-01 2.66146E-10 8.24660E-10
 -1      7921 9.72933E-01 1.29364E+00 3.72688E-09-1.16505E-01 3.46891E-10 1.06899E-09
 -1      7922 9.72933E-01 1.29364E+00 1.60797E-09-1.16505E-01 1.03754E-09 3.20024E-09
 -1      7923 1.01678E+00 1.24979E+00 1.64941E-09-1.60355E-01-1.53440E-09-2.98751E-09
 -1      7924 1.01678E+00 1.24979E+00 3.76019E-09-1.60355E-01-5.37266E-10-1.01492E-09
 -1      7925 1.01678E+00 1.24979E+00 2.90996E-09-1.60355E-01-4.13444E-10-7.78818E-10
 -1      7926 1.01678E+00 1.24979E+00 2.54939E-09-1.60355E-01-1.71460E-10-3.13884E-10
 -1      7927 1.01678E+00 1.24979E+00 2.52781E-09-1.60355E-01-3.45051E-11-5.93719E-11
 -1      7928 1.01678E+00 1.24979E+00 2.52783E-09-1.60355E-01 3.44596E-11 5.94938E-11
 -1      7929 1.01678E+00 1.24979E+00 2.54936E-09-1.60355E-01 1.71600E-10 3.13753E-10
 -1      7930 1.01678E+00 1.24979E+00 2.90997E-09-1.60355E-01 4.13544E-10 7.78886E-10
 -1      7931 1.01678E+00 1.24979E+00 3.76015E-09-1.60355E-01 5.37216E-10 1.01480E-09
 -1      7932 1.01678E+00 1.24979E+00 1.64926E-09-1.60355E-01 1.53435E-09 2.98764E-09
 -1      7933 1.07204E+00 1.19454E+00 1.59635E-09-1.88509E-01-2.05491E-09-2.80719E-09
 -1      7934 1.07204E+00 1.19454E+00 3.75579E-09-1.88509E-01-7.12514E-10-9.47504E-10
 -1      7935 1.07204E+00 1.19454E+00 2.89287E-09-1.88509E-01-5.65446E-10-7.52580E-10
 -1      7936 1.07204E+00 1.19454E+00 2.52000E-09-1.88509E-01-2.46721E-10-3.21656E-10
 -1      7937 1.07204E+00 1.19454E+00 2.49120E-09-1.88509E-01-4.17316E-11-5.14885E-11
 -1      7938 1.07204E+00 1.19454E+00 2.49122E-09-1.88509E-01 4.17469E-11 5.13511E-11
 -1      7939 1.07204E+00 1.19454E+00 2.52012E-09-1.88509E-01 2.46574E-10 3.21493E-10
 -1      7940 1.07204E+00 1.19454E+00 2.89292E-09-1.88509E-01 5.65360E-10 7.52578E-10
 -1      7941 1.07204E+00 1.19454E+00 3.75583E-09-1.88509E-01 7.12491E-10 9.47515E-10
 -1      7942 1.07204E+00 1.19454E+00 1.59640E-09-1.88509E-01 2.05499E-09 2.80705E-09
 -1      7943 1.13329E+00 1.13329E+00 1.49173E-09-1.98210E-01-2.48318E-09-2.52900E-09
 -1      7944 1.13329E+00 1.13329E+00 3.69328E-09-1.98210E-01-7.38683E-10-8.09705E-10
 -1      7945 1.13329E+00 1.13329E+00 2.80083E-09-1.98210E-01-6.01056E-10-6.65603E-10
 -1      7946 1.13329E+00 1.13329E+00 2.39477E-09-1.98210E-01-2.49232E-10-2.94849E-10
 -1      7947 1.13329E+00 1.13329E+00 2.35328E-09-1.98210E-01-1.46641E-11-3.09893E-11
 -1      7948 1.13329E+00 1.13329E+00 2.35318E-09-1.98210E-01 1.44847E-11 3.11867E-11
 -1      7949 1.13329E+00 1.13329E+00 2.39467E-09-1.98210E-01 2.49318E-10 2.95128E-10
 -1      7950 1.13329E+00 1.13329E+00 2.80074E-09-1.98210E-01 6.01132E-10 6.65493E-10
 -1      7951 1.13329E+00 1.13329E+00 3.69327E-09-1.98210E-01 7.38841E-10 8.09763E-10
 -1      7952 1.13329E+00 1.13329E+00 1.49176E-09-1.98210E-01 2.48330E-09 2.52878E-09
 -1      7953 1.19454E+00 1.07204E+00 1.79968E-09-1.88509E-01-2.46765E-09-1.80589E-09
 -1      7954 1.19454E+00 1.07204E+00 3.76936E-09-1.88509E-01-9.07028E-10-6.82194E-10
 -1      7955 1.19454E+00 1.07204E+00 2.95945E-09-1.88509E-01-6.28909E-10-4.78042E-10
 -1      7956 1.19454E+00 1.07204E+00 2.64840E-09-1.88509E-01-2.14465E-10-1.69418E-10
 -1      7957 1.19454E+00 1.07204E+00 2.65110E-09-1.88509E-01-7.78894E-11-6.09007E-11
 -1      7958 1.19454E+00 1.07204E+00 2.65106E-09-1.88509E-01 7.78208E-11 6.09698E-11
 -1      7959 1.19454E+00 1.07204E+00 2.64841E-09-1.88509E-01 2.14327E-10 1.69327E-10
 -1      7960 1.19454E+00 1.07204E+00 2.95938E-09-1.88509E-01 6.29030E-10 4.77955E-10
 -1      7961 1.19454E+00 1.07204E+00 3.76931E-09-1.88509E-01 9.07092E-10 6.82115E-10
 -1      7962 1.19454E+00 1.07204E+00 1.79958E-09-1.88509E-01 2.46762E-09 1.80587E-09
 -1      7963 1.24979E+00 1.01678E+00 1.65961E-09-1.60355E-01-3.02178E-09-1.47325E-09
 -1      7964 1.24979E+00 1.01678E+00 3.76577E-09-1.60355E-01-1.05873E-09-4.43856E-10
 -1      7965 1.24979E+00 1.01678E+00 2.91292E-09-1.60355E-01-8.18781E-10-3.33197E-10
 -1      7966 1.24979E+00 1.01678E+00 2.55452E-09-1.60355E-01-3.43716E-10-1.13620E-10
 -1      7967 1.24979E+00 1.01678E+00 2.53402E-09-1.60355E-01-6.92109E-11-1.32468E-11
 -1      7968 1.24979E+00 1.01678E+00 2.53409E-09-1.60355E-01 6.91480E-11 1.32073E-11
 -1      7969 1.24979E+00 1.01678E+00 2.55452E-09-1.60355E-01 3.43711E-10 1.13549E-10
 -1      7970 1.24979E+00 1.01678E+00 2.91296E-09-1.60355E-01 8.18801E-10 3.33179E-10
 -1      7971 1.24979E+00 1.01678E+00 3.76576E-09-1.60355E-01 1.05889E-09 4.43875E-10
 -1      7972 1.24979E+00 1.01678E+00 1.65971E-09-1.60355E-01 3.02168E-09 1.47350E-09
 -1      7973 1.29364E+00 9.72933E-01 1.41682E-09-1.16505E-01-3.58709E-09-1.16477E-09
 -1      7974 1.29364E+00 9.72933E-01 3.70784E-09-1.16505E-01-1.11820E-09-3.68349E-10
 -1      7975 1.29364E+00 9.72933E-01 2.79673E-09-1.16505E-01-9.66065E-10-3.17880E-10
 -1      7976 1.29364E+00 9.72933E-01 2.37494E-09-1.16505E-01-4.56058E-10-1.49992E-10
 -1      7977 1.29364E+00 9.72933E-01 2.32135E-09-1.16505E-01-2.89414E-11-1.02692E-11
 -1      7978 1.29364E+00 9.72933E-01 2.32143E-09-1.16505E-01 2.91985E-11 1.03211E-11
 -1      7979 1.29364E+00 9.72933E-01 2.37503E-09-1.16505E-01 4.55960E-10 1.50025E-10
 -1      7980 1.29364E+00 9.72933E-01 2.79669E-09-1.16505E-01 9.65959E-10 3.17899E-10
 -1      7981 1.29364E+00 9.72933E-01 3.70775E-09-1.16505E-01 1.11820E-09 3.68366E-10
 -1      7982 1.29364E+00 9.72933E-01 1.41669E-09-1.16505E-01 3.58718E-09 1.16471E-09
 -1      7983 1.32180E+00 9.44779E-01 1.59986E-09-6.12503E-02-3.27597E-09-6.04801E-10
 -1      7984 1.32180E+00 9.44779E-01 3.70671E-09-6.12503E-02-1.02133E-09-2.96814E-10
 -1      7985 1.32180E+00 9.44779E-01 2.83816E-09-6.12503E-02-7.81890E-10-2.41642E-10
 -1      7986 1.32180E+00 9.44779E-01 2.46236E-09-6.12503E-02-2.95179E-10-1.30506E-10
 -1      7987 1.32180E+00 9.44779E-01 2.43390E-09-6.12503E-02-3.86907E-11-3.62628E-11
 -1      7988 1.32180E+00 9.44779E-01 2.43376E-09-6.12503E-02 3.86755E-11 3.62653E-11
 -1      7989 1.32180E+00 9.44779E-01 2.46230E-09-6.12503E-02 2.95239E-10 1.30488E-10
 -1      7990 1.32180E+00 9.44779E-01 2.83822E-09-6.12503E-02 7.81832E-10 2.41601E-10
 -1      7991 1.32180E+00 9.44779E-01 3.70675E-09-6.12503E-02 1.02122E-09 2.96800E-10
 -1      7992 1.32180E+00 9.44779E-01 1.60001E-09-6.12503E-02 3.27604E-09 6.04792E-10
 -1      7993 9.55700E-01 1.31088E+00-7.88813E-09-5.77018E-02 9.54476E-10 6.06610E-09
 -1      7994 9.55700E-01 1.31088E+00-1.34425E-08-5.77018E-02 6.86063E-10 4.33739E-09
 -1      7995 9.55700E-01 1.31088E+00-1.06138E-08-5.77018E-02 1.06838E-10 6.93757E-10
 -1      7996 9.55700E-01 1.31088E+00-8.90454E-09-5.77018E-02-7.16169E-11-4.27536E-10
 -1      7997 9.55700E-01 1.31088E+00-8.12514E-09-5.77018E-02-2.99031E-11-1.78630E-10
 -1      7998 9.55700E-01 1.31088E+00-8.12510E-09-5.77018E-02 2.99194E-11 1.78611E-10
 -1      7999 9.55700E-01 1.31088E+00-8.90436E-09-5.77018E-02 7.15878E-11 4.27459E-10
 -1      8000 9.55700E-01 1.31088E+00-1.06138E-08-5.77018E-02-1.06855E-10-6.93788E-10
 -1      8001 9.55700E-01 1.31088E+00-1.34425E-08-5.77018E-02-6.86062E-10-4.33741E-09
 -1      8002 9.55700E-01 1.31088E+00-7.88805E-09-5.77018E-02-9.54500E-10-6.06620E-09
 -1      8003 9.82223E-01 1.28435E+00-7.89237E-09-1.09755E-01 1.89205E-09 5.84400E-09
 -1      8004 9.82223E-01 1.28435E+00-1.34599E-08-1.09755E-01 1.36829E-09 4.19846E-09
 -1      8005 9.82223E-01 1.28435E+00-1.06400E-08-1.09755E-01 2.23699E-10 6.90009E-10
 -1      8006 9.82223E-01 1.28435E+00-8.93449E-09-1.09755E-01-1.32240E-10-3.97371E-10
 -1      8007 9.82223E-01 1.28435E+00-8.15650E-09-1.09755E-01-5.47879E-11-1.63809E-10
 -1      8008 9.82223E-01 1.28435E+00-8.15650E-09-1.09755E-01 5.47146E-11 1.63820E-10
 -1      8009 9.82223E-01 1.28435E+00-8.93454E-09-1.09755E-01 1.32233E-10 3.97275E-10
 -1      8010 9.82223E-01 1.28435E+00-1.06399E-08-1.09755E-01-2.23623E-10-6.90135E-10
 -1      8011 9.82223E-01 1.28435E+00-1.34598E-08-1.09755E-01-1.36829E-09-4.19859E-09
 -1      8012 9.82223E-01 1.28435E+00-7.89241E-09-1.09755E-01-1.89207E-09-5.84405E-09
 -1      8013 1.02353E+00 1.24304E+00-7.86320E-09-1.51065E-01 2.77572E-09 5.50148E-09
 -1      8014 1.02353E+00 1.24304E+00-1.33977E-08-1.51065E-01 1.97010E-09 3.88627E-09
 -1      8015 1.02353E+00 1.24304E+00-1.05559E-08-1.51065E-01 2.97324E-10 6.06674E-10
 -1      8016 1.02353E+00 1.24304E+00-8.84400E-09-1.51065E-01-2.07468E-10-3.90080E-10
 -1      8017 1.02353E+00 1.24304E+00-8.06937E-09-1.51065E-01-8.83999E-11-1.69212E-10
 -1      8018 1.02353E+00 1.24304E+00-8.06938E-09-1.51065E-01 8.84331E-11 1.69136E-10
 -1      8019 1.02353E+00 1.24304E+00-8.84391E-09-1.51065E-01 2.07465E-10 3.90112E-10
 -1      8020 1.02353E+00 1.24304E+00-1.05559E-08-1.51065E-01-2.97296E-10-6.06557E-10
 -1      8021 1.02353E+00 1.24304E+00-1.33977E-08-1.51065E-01-1.97015E-09-3.88623E-09
 -1      8022 1.02353E+00 1.24304E+00-7.86316E-09-1.51065E-01-2.77579E-09-5.50143E-09
 -1      8023 1.07559E+00 1.19099E+00-7.82495E-09-1.77588E-01 3.48796E-09 4.85352E-09
 -1      8024 1.07559E+00 1.19099E+00-1.35416E-08-1.77588E-01 2.59893E-09 3.60061E-09
 -1      8025 1.07559E+00 1.19099E+00-1.08226E-08-1.77588E-01 4.36726E-10 6.24244E-10
 -1      8026 1.07559E+00 1.19099E+00-9.24336E-09-1.77588E-01-2.41641E-10-3.18190E-10
 -1      8027 1.07559E+00 1.19099E+00-8.53345E-09-1.77588E-01-8.02154E-11-1.07441E-10
 -1      8028 1.07559E+00 1.19099E+00-8.53348E-09-1.77588E-01 8.00896E-11 1.07315E-10
 -1      8029 1.07559E+00 1.19099E+00-9.24338E-09-1.77588E-01 2.41508E-10 3.18150E-10
 -1      8030 1.07559E+00 1.19099E+00-1.08226E-08-1.77588E-01-4.36865E-10-6.24357E-10
 -1      8031 1.07559E+00 1.19099E+00-1.35416E-08-1.77588E-01-2.59888E-09-3.60058E-09
 -1      8032 1.07559E+00 1.19099E+00-7.82500E-09-1.77588E-01-3.48797E-09-4.85353E-09
 -1      8033 1.13329E+00 1.13329E+00-7.77755E-09-1.86727E-01 4.17884E-09 4.08662E-09
 -1      8034 1.13329E+00 1.13329E+00-1.36929E-08-1.86727E-01 3.36140E-09 3.29000E-09
 -1      8035 1.13329E+00 1.13329E+00-1.11150E-08-1.86727E-01 7.28476E-10 6.72695E-10
 -1      8036 1.13329E+00 1.13329E+00-9.61588E-09-1.86727E-01-1.88086E-10-2.24149E-10
 -1      8037 1.13329E+00 1.13329E+00-8.92261E-09-1.86727E-01-2.47627E-11-3.31114E-11
 -1      8038 1.13329E+00 1.13329E+00-8.92272E-09-1.86727E-01 2.48416E-11 3.32272E-11
 -1      8039 1.13329E+00 1.13329E+00-9.61594E-09-1.86727E-01 1.88217E-10 2.24149E-10
 -1      8040 1.13329E+00 1.13329E+00-1.11150E-08-1.86727E-01-7.28346E-10-6.72557E-10
 -1      8041 1.13329E+00 1.13329E+00-1.36930E-08-1.86727E-01-3.36124E-09-3.29001E-09
 -1      8042 1.13329E+00 1.13329E+00-7.77755E-09-1.86727E-01-4.17888E-09-4.08667E-09
 -1      8043 1.19099E+00 1.07559E+00-8.13146E-09-1.77588E-01 5.40931E-09 3.89137E-09
 -1      8044 1.19099E+00 1.07559E+00-1.31135E-08-1.77588E-01 3.22633E-09 2.31943E-09
 -1      8045 1.19099E+00 1.07559E+00-9.86124E-09-1.77588E-01 2.50365E-10 1.71794E-10
 -1      8046 1.19099E+00 1.07559E+00-7.78446E-09-1.77588E-01-5.03092E-10-3.72123E-10
 -1      8047 1.19099E+00 1.07559E+00-6.84679E-09-1.77588E-01-3.10705E-10-2.26744E-10
 -1      8048 1.19099E+00 1.07559E+00-6.84675E-09-1.77588E-01 3.10722E-10 2.26635E-10
 -1      8049 1.19099E+00 1.07559E+00-7.78451E-09-1.77588E-01 5.03028E-10 3.72143E-10
 -1      8050 1.19099E+00 1.07559E+00-9.86125E-09-1.77588E-01-2.50430E-10-1.71797E-10
 -1      8051 1.19099E+00 1.07559E+00-1.31134E-08-1.77588E-01-3.22631E-09-2.31941E-09
 -1      8052 1.19099E+00 1.07559E+00-8.13143E-09-1.77588E-01-5.40929E-09-3.89134E-09
 -1      8053 1.24304E+00 1.02353E+00-7.86398E-09-1.51065E-01 5.44443E-09 2.89075E-09
 -1      8054 1.24304E+00 1.02353E+00-1.33869E-08-1.51065E-01 3.84550E-09 2.05239E-09
 -1      8055 1.24304E+00 1.02353E+00-1.05331E-08-1.51065E-01 5.69534E-10 3.77971E-10
 -1      8056 1.24304E+00 1.02353E+00-8.83058E-09-1.51065E-01-4.11811E-10-1.56748E-10
 -1      8057 1.24304E+00 1.02353E+00-8.06276E-09-1.51065E-01-1.72013E-10-7.54758E-11
 -1      8058 1.24304E+00 1.02353E+00-8.06276E-09-1.51065E-01 1.71941E-10 7.54247E-11
 -1      8059 1.24304E+00 1.02353E+00-8.83051E-09-1.51065E-01 4.11815E-10 1.56644E-10
 -1      8060 1.24304E+00 1.02353E+00-1.05331E-08-1.51065E-01-5.69608E-10-3.78028E-10
 -1      8061 1.24304E+00 1.02353E+00-1.33870E-08-1.51065E-01-3.84551E-09-2.05237E-09
 -1      8062 1.24304E+00 1.02353E+00-7.86398E-09-1.51065E-01-5.44435E-09-2.89081E-09
 -1      8063 1.28435E+00 9.82223E-01-7.65056E-09-1.09755E-01 5.22905E-09 1.68257E-09
 -1      8064 1.28435E+00 9.82223E-01-1.38887E-08-1.09755E-01 4.60798E-09 1.49296E-09
 -1      8065 1.28435E+00 9.82223E-01-1.15433E-08-1.09755E-01 1.09744E-09 3.48835E-10
 -1      8066 1.28435E+00 9.82223E-01-1.03272E-08-1.09755E-01-1.91106E-10-7.47629E-11
 -1      8067 1.28435E+00 9.82223E-01-9.77932E-09-1.09755E-01 6.47227E-11 1.58295E-11
 -1      8068 1.28435E+00 9.82223E-01-9.77932E-09-1.09755E-01-6.46113E-11-1.57810E-11
 -1      8069 1.28435E+00 9.82223E-01-1.03273E-08-1.09755E-01 1.91089E-10 7.48738E-11
 -1      8070 1.28435E+00 9.82223E-01-1.15432E-08-1.09755E-01-1.09736E-09-3.48780E-10
 -1      8071 1.28435E+00 9.82223E-01-1.38885E-08-1.09755E-01-4.60794E-09-1.49293E-09
 -1      8072 1.28435E+00 9.82223E-01-7.65048E-09-1.09755E-01-5.22900E-09-1.68257E-09
 -1      8073 1.31088E+00 9.55700E-01-7.90847E-09-5.77018E-02 6.12231E-09 7.82447E-10
 -1      8074 1.31088E+00 9.55700E-01-1.34460E-08-5.77018E-02 4.43541E-09 5.70581E-10
 -1      8075 1.31088E+00 9.55700E-01-1.05977E-08-5.77018E-02 7.69451E-10-9.12520E-13
 -1      8076 1.31088E+00 9.55700E-01-8.86779E-09-5.77018E-02-3.94011E-10-1.48323E-10
 -1      8077 1.31088E+00 9.55700E-01-8.06773E-09-5.77018E-02-1.60182E-10-4.79922E-11
 -1      8078 1.31088E+00 9.55700E-01-8.06760E-09-5.77018E-02 1.60235E-10 4.80043E-11
 -1      8079 1.31088E+00 9.55700E-01-8.86777E-09-5.77018E-02 3.94046E-10 1.48313E-10
 -1      8080 1.31088E+00 9.55700E-01-1.05978E-08-5.77018E-02-7.69572E-10 9.08477E-13
 -1      8081 1.31088E+00 9.55700E-01-1.34460E-08-5.77018E-02-4.43536E-09-5.70561E-10
 -1      8082 1.31088E+00 9.55700E-01-7.90847E-09-5.77018E-02-6.12241E-09-7.82402E-10
 -1      8083 9.65699E-01 1.30088E+00 2.64342E-08-5.44529E-02-5.31303E-09-3.36217E-08
 -1      8084 9.65699E-01 1.30088E+00 4.85107E-08-5.44529E-02-2.84445E-09-1.77849E-08
 -1      8085 9.65699E-01 1.30088E+00 4.37363E-08-5.44529E-02-1.32950E-09-8.17474E-09
 -1      8086 9.65699E-01 1.30088E+00 3.97952E-08-5.44529E-02-5.84822E-10-3.53856E-09
 -1      8087 9.65699E-01 1.30088E+00 3.86909E-08-5.44529E-02-1.35327E-10-7.99761E-10
 -1      8088 9.65699E-01 1.30088E+00 3.86909E-08-5.44529E-02 1.35339E-10 7.99917E-10
 -1      8089 9.65699E-01 1.30088E+00 3.97951E-08-5.44529E-02 5.84813E-10 3.53859E-09
 -1      8090 9.65699E-01 1.30088E+00 4.37363E-08-5.44529E-02 1.32950E-09 8.17476E-09
 -1      8091 9.65699E-01 1.30088E+00 4.85107E-08-5.44529E-02 2.84446E-09 1.77849E-08
 -1      8092 9.65699E-01 1.30088E+00 2.64343E-08-5.44529E-02 5.31304E-09 3.36217E-08
 -1      8093 9.90728E-01 1.27585E+00 2.64113E-08-1.03576E-01-1.04585E-08-3.23642E-08
 -1      8094 9.90728E-01 1.27585E+00 4.84991E-08-1.03576E-01-5.52726E-09-1.70403E-08
 -1      8095 9.90728E-01 1.27585E+00 4.36951E-08-1.03576E-01-2.52123E-09-7.77533E-09
 -1      8096 9.90728E-01 1.27585E+00 3.96992E-08-1.03576E-01-1.07666E-09-3.34441E-09
 -1      8097 9.90728E-01 1.27585E+00 3.85593E-08-1.03576E-01-2.36602E-10-7.42535E-10
 -1      8098 9.90728E-01 1.27585E+00 3.85594E-08-1.03576E-01 2.36550E-10 7.42524E-10
 -1      8099 9.90728E-01 1.27585E+00 3.96993E-08-1.03576E-01 1.07668E-09 3.34434E-09
 -1      8100 9.90728E-01 1.27585E+00 4.36951E-08-1.03576E-01 2.52121E-09 7.77533E-09
 -1      8101 9.90728E-01 1.27585E+00 4.84991E-08-1.03576E-01 5.52729E-09 1.70402E-08
 -1      8102 9.90728E-01 1.27585E+00 2.64112E-08-1.03576E-01 1.04586E-08 3.23641E-08
 -1      8103 1.02971E+00 1.23686E+00 2.66951E-08-1.42560E-01-1.54056E-08-3.03959E-08
 -1      8104 1.02971E+00 1.23686E+00 4.86820E-08-1.42560E-01-8.19866E-09-1.61736E-08
 -1      8105 1.02971E+00 1.23686E+00 4.38503E-08-1.42560E-01-3.74977E-09-7.50296E-09
 -1      8106 1.02971E+00 1.23686E+00 3.98633E-08-1.42560E-01-1.58955E-09-3.26698E-09
 -1      8107 1.02971E+00 1.23686E+00 3.87210E-08-1.42560E-01-3.57138E-10-7.60625E-10
 -1      8108 1.02971E+00 1.23686E+00 3.87211E-08-1.42560E-01 3.57112E-10 7.60608E-10
 -1      8109 1.02971E+00 1.23686E+00 3.98633E-08-1.42560E-01 1.58955E-09 3.26705E-09
 -1      8110 1.02971E+00 1.23686E+00 4.38502E-08-1.42560E-01 3.74967E-09 7.50285E-09
 -1      8111 1.02971E+00 1.23686E+00 4.86819E-08-1.42560E-01 8.19866E-09 1.61736E-08
 -1      8112 1.02971E+00 1.23686E+00 2.66950E-08-1.42560E-01 1.54056E-08 3.03959E-08
 -1      8113 1.07884E+00 1.18774E+00 2.58587E-08-1.67589E-01-1.99233E-08-2.74396E-08
 -1      8114 1.07884E+00 1.18774E+00 4.80105E-08-1.67589E-01-1.01978E-08-1.39037E-08
 -1      8115 1.07884E+00 1.18774E+00 4.26326E-08-1.67589E-01-4.37865E-09-5.94370E-09
 -1      8116 1.07884E+00 1.18774E+00 3.81749E-08-1.67589E-01-1.79969E-09-2.42645E-09
 -1      8117 1.07884E+00 1.18774E+00 3.68543E-08-1.67589E-01-3.34193E-10-4.42356E-10
 -1      8118 1.07884E+00 1.18774E+00 3.68543E-08-1.67589E-01 3.34125E-10 4.42292E-10
 -1      8119 1.07884E+00 1.18774E+00 3.81749E-08-1.67589E-01 1.79967E-09 2.42625E-09
 -1      8120 1.07884E+00 1.18774E+00 4.26327E-08-1.67589E-01 4.37869E-09 5.94354E-09
 -1      8121 1.07884E+00 1.18774E+00 4.80105E-08-1.67589E-01 1.01977E-08 1.39038E-08
 -1      8122 1.07884E+00 1.18774E+00 2.58588E-08-1.67589E-01 1.99233E-08 2.74397E-08
 -1      8123 1.13329E+00 1.13329E+00 2.49374E-08-1.76213E-01-2.38690E-08-2.38530E-08
 -1      8124 1.13329E+00 1.13329E+00 4.74692E-08-1.76213E-01-1.14875E-08-1.14595E-08
 -1      8125 1.13329E+00 1.13329E+00 4.19136E-08-1.76213E-01-4.53837E-09-4.40256E-09
 -1      8126 1.13329E+00 1.13329E+00 3.71036E-08-1.76213E-01-1.79748E-09-1.64070E-09
 -1      8127 1.13329E+00 1.13329E+00 3.56125E-08-1.76213E-01-2.07435E-10-1.43178E-10
 -1      8128 1.13329E+00 1.13329E+00 3.56126E-08-1.76213E-01 2.07637E-10 1.43109E-10
 -1      8129 1.13329E+00 1.13329E+00 3.71036E-08-1.76213E-01 1.79748E-09 1.64087E-09
 -1      8130 1.13329E+00 1.13329E+00 4.19136E-08-1.76213E-01 4.53829E-09 4.40278E-09
 -1      8131 1.13329E+00 1.13329E+00 4.74693E-08-1.76213E-01 1.14874E-08 1.14595E-08
 -1      8132 1.13329E+00 1.13329E+00 2.49373E-08-1.76213E-01 2.38690E-08 2.38529E-08
 -1      8133 1.18774E+00 1.07884E+00 2.87995E-08-1.67589E-01-2.79404E-08-2.03308E-08
 -1      8134 1.18774E+00 1.07884E+00 5.02886E-08-1.67589E-01-1.66871E-08-1.21888E-08
 -1      8135 1.18774E+00 1.07884E+00 4.67776E-08-1.67589E-01-8.99855E-09-6.61039E-09
 -1      8136 1.18774E+00 1.07884E+00 4.41366E-08-1.67589E-01-4.23744E-09-3.12918E-09
 -1      8137 1.18774E+00 1.07884E+00 4.35696E-08-1.67589E-01-1.31467E-09-9.73219E-10
 -1      8138 1.18774E+00 1.07884E+00 4.35696E-08-1.67589E-01 1.31453E-09 9.73330E-10
 -1      8139 1.18774E+00 1.07884E+00 4.41366E-08-1.67589E-01 4.23739E-09 3.12909E-09
 -1      8140 1.18774E+00 1.07884E+00 4.67776E-08-1.67589E-01 8.99865E-09 6.61032E-09
 -1      8141 1.18774E+00 1.07884E+00 5.02885E-08-1.67589E-01 1.66872E-08 1.21888E-08
 -1      8142 1.18774E+00 1.07884E+00 2.87996E-08-1.67589E-01 2.79405E-08 2.03309E-08
 -1      8143 1.23686E+00 1.02971E+00 2.67909E-08-1.42560E-01-3.04051E-08-1.54978E-08
 -1      8144 1.23686E+00 1.02971E+00 4.87609E-08-1.42560E-01-1.61637E-08-8.19437E-09
 -1      8145 1.23686E+00 1.02971E+00 4.38349E-08-1.42560E-01-7.39154E-09-3.93626E-09
 -1      8146 1.23686E+00 1.02971E+00 3.98223E-08-1.42560E-01-3.16167E-09-1.80950E-09
 -1      8147 1.23686E+00 1.02971E+00 3.86822E-08-1.42560E-01-7.16981E-10-4.46401E-10
 -1      8148 1.23686E+00 1.02971E+00 3.86821E-08-1.42560E-01 7.16879E-10 4.46395E-10
 -1      8149 1.23686E+00 1.02971E+00 3.98223E-08-1.42560E-01 3.16172E-09 1.80952E-09
 -1      8150 1.23686E+00 1.02971E+00 4.38348E-08-1.42560E-01 7.39144E-09 3.93631E-09
 -1      8151 1.23686E+00 1.02971E+00 4.87609E-08-1.42560E-01 1.61638E-08 8.19443E-09
 -1      8152 1.23686E+00 1.02971E+00 2.67909E-08-1.42560E-01 3.04049E-08 1.54977E-08
 -1      8153 1.27585E+00 9.90728E-01 2.36754E-08-1.03576E-01-3.18501E-08-1.02838E-08
 -1      8154 1.27585E+00 9.90728E-01 4.63685E-08-1.03576E-01-1.39298E-08-4.49083E-09
 -1      8155 1.27585E+00 9.90728E-01 3.96186E-08-1.03576E-01-4.32763E-09-1.38302E-09
 -1      8156 1.27585E+00 9.90728E-01 3.38971E-08-1.03576E-01-1.32132E-09-3.87535E-10
 -1      8157 1.27585E+00 9.90728E-01 3.20867E-08-1.03576E-01 2.28082E-10 9.32502E-11
 -1      8158 1.27585E+00 9.90728E-01 3.20866E-08-1.03576E-01-2.27913E-10-9.32713E-11
 -1      8159 1.27585E+00 9.90728E-01 3.38970E-08-1.03576E-01 1.32142E-09 3.87591E-10
 -1      8160 1.27585E+00 9.90728E-01 3.96185E-08-1.03576E-01 4.32766E-09 1.38311E-09
 -1      8161 1.27585E+00 9.90728E-01 4.63684E-08-1.03576E-01 1.39299E-08 4.49090E-09
 -1      8162 1.27585E+00 9.90728E-01 2.36755E-08-1.03576E-01 3.18502E-08 1.02838E-08
 -1      8163 1.30088E+00 9.65699E-01 2.64049E-08-5.44529E-02-3.37438E-08-5.27299E-09
 -1      8164 1.30088E+00 9.65699E-01 4.86098E-08-5.44529E-02-1.77951E-08-2.88487E-09
 -1      8165 1.30088E+00 9.65699E-01 4.39724E-08-5.44529E-02-8.27368E-09-1.14613E-09
 -1      8166 1.30088E+00 9.65699E-01 4.01873E-08-5.44529E-02-3.68939E-09-3.41467E-10
 -1      8167 1.30088E+00 9.65699E-01 3.91830E-08-5.44529E-02-8.44557E-10-2.94979E-11
 -1      8168 1.30088E+00 9.65699E-01 3.91830E-08-5.44529E-02 8.44432E-10 2.94711E-11
 -1      8169 1.30088E+00 9.65699E-01 4.01874E-08-5.44529E-02 3.68948E-09 3.41454E-10
 -1      8170 1.30088E+00 9.65699E-01 4.39726E-08-5.44529E-02 8.27372E-09 1.14612E-09
 -1      8171 1.30088E+00 9.65699E-01 4.86099E-08-5.44529E-02 1.77950E-08 2.88485E-09
 -1      8172 1.30088E+00 9.65699E-01 2.64049E-08-5.44529E-02 3.37436E-08 5.27298E-09
 -1      8173 9.74875E-01 1.29170E+00-1.01619E-07-5.14713E-02 1.27658E-08 8.16001E-08
 -1      8174 9.74875E-01 1.29170E+00-1.65778E-07-5.14713E-02 8.35227E-09 5.33187E-08
 -1      8175 9.74875E-01 1.29170E+00-1.58339E-07-5.14713E-02 3.51076E-09 2.24892E-08
 -1      8176 9.74875E-01 1.29170E+00-1.49328E-07-5.14713E-02 3.42935E-10 2.36460E-09
 -1      8177 9.74875E-01 1.29170E+00-1.43063E-07-5.14713E-02-2.05052E-10-1.22545E-09
 -1      8178 9.74875E-01 1.29170E+00-1.43063E-07-5.14713E-02 2.05011E-10 1.22554E-09
 -1      8179 9.74875E-01 1.29170E+00-1.49328E-07-5.14713E-02-3.42915E-10-2.36466E-09
 -1      8180 9.74875E-01 1.29170E+00-1.58339E-07-5.14713E-02-3.51077E-09-2.24891E-08
 -1      8181 9.74875E-01 1.29170E+00-1.65779E-07-5.14713E-02-8.35224E-09-5.33187E-08
 -1      8182 9.74875E-01 1.29170E+00-1.01619E-07-5.14713E-02-1.27658E-08-8.16001E-08
 -1      8183 9.98534E-01 1.26804E+00-1.01418E-07-9.79043E-02 2.54577E-08 7.86820E-08
 -1      8184 9.98534E-01 1.26804E+00-1.65786E-07-9.79043E-02 1.68818E-08 5.15335E-08
 -1      8185 9.98534E-01 1.26804E+00-1.58581E-07-9.79042E-02 7.31258E-09 2.18486E-08
 -1      8186 9.98534E-01 1.26804E+00-1.49702E-07-9.79042E-02 9.28945E-10 2.36801E-09
 -1      8187 9.98534E-01 1.26804E+00-1.43458E-07-9.79042E-02-3.15409E-10-1.14801E-09
 -1      8188 9.98534E-01 1.26804E+00-1.43458E-07-9.79042E-02 3.15410E-10 1.14800E-09
 -1      8189 9.98534E-01 1.26804E+00-1.49702E-07-9.79042E-02-9.28992E-10-2.36821E-09
 -1      8190 9.98534E-01 1.26804E+00-1.58581E-07-9.79042E-02-7.31255E-09-2.18488E-08
 -1      8191 9.98534E-01 1.26804E+00-1.65786E-07-9.79043E-02-1.68818E-08-5.15335E-08
 -1      8192 9.98534E-01 1.26804E+00-1.01418E-07-9.79043E-02-2.54577E-08-7.86820E-08
 -1      8193 1.03538E+00 1.23119E+00-1.01525E-07-1.34754E-01 3.73797E-08 7.36089E-08
 -1      8194 1.03538E+00 1.23119E+00-1.65662E-07-1.34754E-01 2.45185E-08 4.75314E-08
 -1      8195 1.03538E+00 1.23119E+00-1.58250E-07-1.34754E-01 1.03376E-08 1.95365E-08
 -1      8196 1.03538E+00 1.23119E+00-1.49207E-07-1.34754E-01 1.08943E-09 1.65118E-09
 -1      8197 1.03538E+00 1.23119E+00-1.42925E-07-1.34754E-01-5.74800E-10-1.29210E-09
 -1      8198 1.03538E+00 1.23119E+00-1.42925E-07-1.34754E-01 5.74790E-10 1.29235E-09
 -1      8199 1.03538E+00 1.23119E+00-1.49207E-07-1.34754E-01-1.08947E-09-1.65111E-09
 -1      8200 1.03538E+00 1.23119E+00-1.58250E-07-1.34754E-01-1.03377E-08-1.95362E-08
 -1      8201 1.03538E+00 1.23119E+00-1.65662E-07-1.34754E-01-2.45185E-08-4.75314E-08
 -1      8202 1.03538E+00 1.23119E+00-1.01525E-07-1.34754E-01-3.73796E-08-7.36088E-08
 -1      8203 1.08182E+00 1.18476E+00-1.01263E-07-1.58412E-01 4.87989E-08 6.80598E-08
 -1      8204 1.08182E+00 1.18476E+00-1.68261E-07-1.58412E-01 3.33723E-08 4.66104E-08
 -1      8205 1.08182E+00 1.18476E+00-1.62234E-07-1.58412E-01 1.52866E-08 2.17124E-08
 -1      8206 1.08182E+00 1.18476E+00-1.54282E-07-1.58412E-01 2.60125E-09 4.12765E-09
 -1      8207 1.08182E+00 1.18476E+00-1.48624E-07-1.58412E-01-2.55886E-10-1.45857E-10
 -1      8208 1.08182E+00 1.18476E+00-1.48624E-07-1.58412E-01 2.55872E-10 1.45692E-10
 -1      8209 1.08182E+00 1.18476E+00-1.54282E-07-1.58412E-01-2.60137E-09-4.12764E-09
 -1      8210 1.08182E+00 1.18476E+00-1.62234E-07-1.58412E-01-1.52867E-08-2.17126E-08
 -1      8211 1.08182E+00 1.18476E+00-1.68261E-07-1.58412E-01-3.33724E-08-4.66105E-08
 -1      8212 1.08182E+00 1.18476E+00-1.01263E-07-1.58412E-01-4.87989E-08-6.80599E-08
 -1      8213 1.13329E+00 1.13329E+00-9.98651E-08-1.66565E-01 5.95286E-08 5.96315E-08
 -1      8214 1.13329E+00 1.13329E+00-1.69028E-07-1.66565E-01 4.26108E-08 4.30232E-08
 -1      8215 1.13329E+00 1.13329E+00-1.64663E-07-1.66565E-01 2.13848E-08 2.18694E-08
 -1      8216 1.13329E+00 1.13329E+00-1.57830E-07-1.66565E-01 4.95492E-09 5.15012E-09
 -1      8217 1.13329E+00 1.13329E+00-1.52414E-07-1.66565E-01 4.18569E-10 4.62956E-10
 -1      8218 1.13329E+00 1.13329E+00-1.52413E-07-1.66565E-01-4.18456E-10-4.62877E-10
 -1      8219 1.13329E+00 1.13329E+00-1.57830E-07-1.66565E-01-4.95504E-09-5.14999E-09
 -1      8220 1.13329E+00 1.13329E+00-1.64663E-07-1.66565E-01-2.13849E-08-2.18693E-08
 -1      8221 1.13329E+00 1.13329E+00-1.69028E-07-1.66565E-01-4.26108E-08-4.30232E-08
 -1      8222 1.13329E+00 1.13329E+00-9.98652E-08-1.66565E-01-5.95285E-08-5.96314E-08
 -1      8223 1.18476E+00 1.08182E+00-1.04172E-07-1.58412E-01 6.52173E-08 4.70460E-08
 -1      8224 1.18476E+00 1.08182E+00-1.60550E-07-1.58412E-01 3.58911E-08 2.54274E-08
 -1      8225 1.18476E+00 1.08182E+00-1.48542E-07-1.58412E-01 8.93287E-09 5.89789E-09
 -1      8226 1.18476E+00 1.08182E+00-1.36192E-07-1.58412E-01-3.91946E-09-3.30464E-09
 -1      8227 1.18476E+00 1.08182E+00-1.28424E-07-1.58412E-01-3.32588E-09-2.58560E-09
 -1      8228 1.18476E+00 1.08182E+00-1.28424E-07-1.58412E-01 3.32583E-09 2.58559E-09
 -1      8229 1.18476E+00 1.08182E+00-1.36193E-07-1.58412E-01 3.91952E-09 3.30465E-09
 -1      8230 1.18476E+00 1.08182E+00-1.48542E-07-1.58412E-01-8.93286E-09-5.89794E-09
 -1      8231 1.18476E+00 1.08182E+00-1.60550E-07-1.58412E-01-3.58910E-08-2.54273E-08
 -1      8232 1.18476E+00 1.08182E+00-1.04172E-07-1.58412E-01-6.52173E-08-4.70460E-08
 -1      8233 1.23119E+00 1.03538E+00-1.01594E-07-1.34754E-01 7.35410E-08 3.76939E-08
 -1      8234 1.23119E+00 1.03538E+00-1.65941E-07-1.34754E-01 4.77959E-08 2.37895E-08
 -1      8235 1.23119E+00 1.03538E+00-1.58307E-07-1.34754E-01 1.97500E-08 9.58898E-09
 -1      8236 1.23119E+00 1.03538E+00-1.49160E-07-1.34754E-01 1.68410E-09 7.54881E-10
 -1      8237 1.23119E+00 1.03538E+00-1.42854E-07-1.34754E-01-1.29303E-09-6.57946E-10
 -1      8238 1.23119E+00 1.03538E+00-1.42854E-07-1.34754E-01 1.29312E-09 6.57891E-10
 -1      8239 1.23119E+00 1.03538E+00-1.49160E-07-1.34754E-01-1.68417E-09-7.54905E-10
 -1      8240 1.23119E+00 1.03538E+00-1.58307E-07-1.34754E-01-1.97499E-08-9.58905E-09
 -1      8241 1.23119E+00 1.03538E+00-1.65941E-07-1.34754E-01-4.77959E-08-2.37895E-08
 -1      8242 1.23119E+00 1.03538E+00-1.01594E-07-1.34754E-01-7.35410E-08-3.76938E-08
 -1      8243 1.26804E+00 9.98534E-01-9.92635E-08-9.79043E-02 8.19762E-08 2.67614E-08
 -1      8244 1.26804E+00 9.98534E-01-1.74013E-07-9.79043E-02 6.36309E-08 2.11053E-08
 -1      8245 1.26804E+00 9.98534E-01-1.71861E-07-9.79042E-02 3.60919E-08 1.23674E-08
 -1      8246 1.26804E+00 9.98534E-01-1.66890E-07-9.79042E-02 1.13665E-08 4.15922E-09
 -1      8247 1.26804E+00 9.98534E-01-1.62660E-07-9.79042E-02 2.42581E-09 9.54333E-10
 -1      8248 1.26804E+00 9.98534E-01-1.62660E-07-9.79042E-02-2.42577E-09-9.54332E-10
 -1      8249 1.26804E+00 9.98534E-01-1.66890E-07-9.79042E-02-1.13664E-08-4.15924E-09
 -1      8250 1.26804E+00 9.98534E-01-1.71861E-07-9.79042E-02-3.60918E-08-1.23674E-08
 -1      8251 1.26804E+00 9.98534E-01-1.74013E-07-9.79043E-02-6.36307E-08-2.11053E-08
 -1      8252 1.26804E+00 9.98534E-01-9.92635E-08-9.79043E-02-8.19760E-08-2.67614E-08
 -1      8253 1.29170E+00 9.74875E-01-1.01781E-07-5.14713E-02 8.13893E-08 1.24809E-08
 -1      8254 1.29170E+00 9.74875E-01-1.65450E-07-5.14713E-02 5.26825E-08 9.09678E-09
 -1      8255 1.29170E+00 9.74875E-01-1.57315E-07-5.14713E-02 2.18998E-08 4.43783E-09
 -1      8256 1.29170E+00 9.74875E-01-1.47926E-07-5.14713E-02 1.86271E-09 6.97040E-10
 -1      8257 1.29170E+00 9.74875E-01-1.41400E-07-5.14713E-02-1.39215E-09-1.26307E-10
 -1      8258 1.29170E+00 9.74875E-01-1.41400E-07-5.14713E-02 1.39220E-09 1.26266E-10
 -1      8259 1.29170E+00 9.74875E-01-1.47926E-07-5.14713E-02-1.86283E-09-6.97045E-10
 -1      8260 1.29170E+00 9.74875E-01-1.57315E-07-5.14713E-02-2.18997E-08-4.43785E-09
 -1      8261 1.29170E+00 9.74875E-01-1.65450E-07-5.14713E-02-5.26826E-08-9.09678E-09
 -1      8262 1.29170E+00 9.74875E-01-1.01781E-07-5.14713E-02-8.13891E-08-1.24809E-08
 -1      8263 9.83325E-01 1.28325E+00 3.59902E-07-4.87262E-02-5.06866E-08-3.21971E-07
 -1      8264 9.83325E-01 1.28325E+00 5.78690E-07-4.87262E-02-3.57861E-08-2.26901E-07
 -1      8265 9.83325E-01 1.28325E+00 6.08213E-07-4.87263E-02-1.35173E-08-8.56390E-08
 -1      8266 9.83325E-01 1.28325E+00 5.80189E-07-4.87263E-02-2.61591E-09-1.65796E-08
 -1      8267 9.83325E-01 1.28325E+00 5.52830E-07-4.87263E-02-7.89220E-11-4.97594E-10
 -1      8268 9.83325E-01 1.28325E+00 5.52830E-07-4.87263E-02 7.89138E-11 4.97745E-10
 -1      8269 9.83325E-01 1.28325E+00 5.80189E-07-4.87263E-02 2.61592E-09 1.65797E-08
 -1      8270 9.83325E-01 1.28325E+00 6.08212E-07-4.87263E-02 1.35173E-08 8.56391E-08
 -1      8271 9.83325E-01 1.28325E+00 5.78690E-07-4.87262E-02 3.57861E-08 2.26901E-07
 -1      8272 9.83325E-01 1.28325E+00 3.59902E-07-4.87262E-02 5.06867E-08 3.21971E-07
 -1      8273 1.00572E+00 1.26086E+00 3.59853E-07-9.26828E-02-9.95864E-08-3.09990E-07
 -1      8274 1.00572E+00 1.26086E+00 5.78268E-07-9.26828E-02-6.99494E-08-2.18404E-07
 -1      8275 1.00572E+00 1.26086E+00 6.07765E-07-9.26829E-02-2.59888E-08-8.22796E-08
 -1      8276 1.00572E+00 1.26086E+00 5.79764E-07-9.26828E-02-4.68852E-09-1.58910E-08
 -1      8277 1.00572E+00 1.26086E+00 5.52403E-07-9.26828E-02 1.56327E-11-4.53941E-10
 -1      8278 1.00572E+00 1.26086E+00 5.52403E-07-9.26828E-02-1.56716E-11 4.53864E-10
 -1      8279 1.00572E+00 1.26086E+00 5.79764E-07-9.26828E-02 4.68856E-09 1.58909E-08
 -1      8280 1.00572E+00 1.26086E+00 6.07765E-07-9.26829E-02 2.59887E-08 8.22795E-08
 -1      8281 1.00572E+00 1.26086E+00 5.78268E-07-9.26828E-02 6.99494E-08 2.18405E-07
 -1      8282 1.00572E+00 1.26086E+00 3.59853E-07-9.26828E-02 9.95864E-08 3.09990E-07
 -1      8283 1.04061E+00 1.22597E+00 3.61566E-07-1.27567E-01-1.47377E-07-2.92058E-07
 -1      8284 1.04061E+00 1.22597E+00 5.79157E-07-1.27567E-01-1.04649E-07-2.06788E-07
 -1      8285 1.04061E+00 1.22597E+00 6.08688E-07-1.27567E-01-4.02114E-08-7.94563E-08
 -1      8286 1.04061E+00 1.22597E+00 5.81098E-07-1.27567E-01-8.15710E-09-1.63156E-08
 -1      8287 1.04061E+00 1.22597E+00 5.53915E-07-1.27567E-01-4.05704E-10-9.06506E-10
 -1      8288 1.04061E+00 1.22597E+00 5.53915E-07-1.27567E-01 4.05720E-10 9.06817E-10
 -1      8289 1.04061E+00 1.22597E+00 5.81097E-07-1.27567E-01 8.15715E-09 1.63158E-08
 -1      8290 1.04061E+00 1.22597E+00 6.08688E-07-1.27567E-01 4.02115E-08 7.94563E-08
 -1      8291 1.04061E+00 1.22597E+00 5.79157E-07-1.27567E-01 1.04649E-07 2.06788E-07
 -1      8292 1.04061E+00 1.22597E+00 3.61566E-07-1.27567E-01 1.47377E-07 2.92058E-07
 -1      8293 1.08456E+00 1.18202E+00 3.51619E-07-1.49964E-01-1.87512E-07-2.58081E-07
 -1      8294 1.08456E+00 1.18202E+00 5.74996E-07-1.49964E-01-1.30618E-07-1.76908E-07
 -1      8295 1.08456E+00 1.18202E+00 6.02830E-07-1.49964E-01-4.54099E-08-5.95120E-08
 -1      8296 1.08456E+00 1.18202E+00 5.70041E-07-1.49964E-01-6.09746E-09-6.38119E-09
 -1      8297 1.08456E+00 1.18202E+00 5.40131E-07-1.49964E-01 1.02534E-09 2.11294E-09
 -1      8298 1.08456E+00 1.18202E+00 5.40131E-07-1.49964E-01-1.02536E-09-2.11303E-09
 -1      8299 1.08456E+00 1.18202E+00 5.70041E-07-1.49964E-01 6.09743E-09 6.38111E-09
 -1      8300 1.08456E+00 1.18202E+00 6.02830E-07-1.49964E-01 4.54098E-08 5.95119E-08
 -1      8301 1.08456E+00 1.18202E+00 5.74996E-07-1.49964E-01 1.30618E-07 1.76908E-07
 -1      8302 1.08456E+00 1.18202E+00 3.51619E-07-1.49964E-01 1.87512E-07 2.58081E-07
 -1      8303 1.13329E+00 1.13329E+00 3.43888E-07-1.57681E-01-2.21061E-07-2.21076E-07
 -1      8304 1.13329E+00 1.13329E+00 5.70464E-07-1.57681E-01-1.48424E-07-1.49412E-07
 -1      8305 1.13329E+00 1.13329E+00 5.98119E-07-1.57681E-01-4.41145E-08-4.57629E-08
 -1      8306 1.13329E+00 1.13329E+00 5.63309E-07-1.57681E-01-9.32020E-10-2.03847E-09
 -1      8307 1.13329E+00 1.13329E+00 5.32432E-07-1.57681E-01 3.39573E-09 3.02406E-09
 -1      8308 1.13329E+00 1.13329E+00 5.32432E-07-1.57681E-01-3.39588E-09-3.02405E-09
 -1      8309 1.13329E+00 1.13329E+00 5.63309E-07-1.57681E-01 9.32196E-10 2.03855E-09
 -1      8310 1.13329E+00 1.13329E+00 5.98119E-07-1.57681E-01 4.41146E-08 4.57630E-08
 -1      8311 1.13329E+00 1.13329E+00 5.70464E-07-1.57681E-01 1.48424E-07 1.49412E-07
 -1      8312 1.13329E+00 1.13329E+00 3.43888E-07-1.57681E-01 2.21061E-07 2.21076E-07
 -1      8313 1.18202E+00 1.08456E+00 3.88613E-07-1.49964E-01-2.80615E-07-2.06045E-07
 -1      8314 1.18202E+00 1.08456E+00 5.92461E-07-1.49964E-01-2.09905E-07-1.54898E-07
 -1      8315 1.18202E+00 1.08456E+00 6.24862E-07-1.49964E-01-9.93911E-08-7.44644E-08
 -1      8316 1.18202E+00 1.08456E+00 6.08824E-07-1.49964E-01-3.23537E-08-2.50022E-08
 -1      8317 1.18202E+00 1.08456E+00 5.87710E-07-1.49964E-01-6.86559E-09-5.50861E-09
 -1      8318 1.18202E+00 1.08456E+00 5.87710E-07-1.49964E-01 6.86571E-09 5.50853E-09
 -1      8319 1.18202E+00 1.08456E+00 6.08824E-07-1.49964E-01 3.23536E-08 2.50022E-08
 -1      8320 1.18202E+00 1.08456E+00 6.24862E-07-1.49964E-01 9.93913E-08 7.44644E-08
 -1      8321 1.18202E+00 1.08456E+00 5.92461E-07-1.49964E-01 2.09905E-07 1.54898E-07
 -1      8322 1.18202E+00 1.08456E+00 3.88613E-07-1.49964E-01 2.80615E-07 2.06045E-07
 -1      8323 1.22597E+00 1.04061E+00 3.62190E-07-1.27567E-01-2.91422E-07-1.50225E-07
 -1      8324 1.22597E+00 1.04061E+00 5.80710E-07-1.27567E-01-2.07809E-07-1.03638E-07
 -1      8325 1.22597E+00 1.04061E+00 6.09735E-07-1.27567E-01-8.06269E-08-3.79807E-08
 -1      8326 1.22597E+00 1.04061E+00 5.81658E-07-1.27567E-01-1.70852E-08-6.62839E-09
 -1      8327 1.22597E+00 1.04061E+00 5.54288E-07-1.27567E-01-1.16884E-09 1.10189E-10
 -1      8328 1.22597E+00 1.04061E+00 5.54288E-07-1.27567E-01 1.16893E-09-1.10252E-10
 -1      8329 1.22597E+00 1.04061E+00 5.81658E-07-1.27567E-01 1.70853E-08 6.62837E-09
 -1      8330 1.22597E+00 1.04061E+00 6.09735E-07-1.27567E-01 8.06268E-08 3.79807E-08
 -1      8331 1.22597E+00 1.04061E+00 5.80710E-07-1.27567E-01 2.07809E-07 1.03638E-07
 -1      8332 1.22597E+00 1.04061E+00 3.62190E-07-1.27567E-01 2.91422E-07 1.50225E-07
 -1      8333 1.26086E+00 1.00572E+00 3.25231E-07-9.26828E-02-2.84501E-07-9.08498E-08
 -1      8334 1.26086E+00 1.00572E+00 5.64694E-07-9.26828E-02-1.81423E-07-5.62319E-08
 -1      8335 1.26086E+00 1.00572E+00 5.88582E-07-9.26828E-02-3.67799E-08-9.92700E-09
 -1      8336 1.26086E+00 1.00572E+00 5.43127E-07-9.26828E-02 1.39559E-08 5.81140E-09
 -1      8337 1.26086E+00 1.00572E+00 5.06741E-07-9.26828E-02 9.87246E-09 3.64615E-09
 -1      8338 1.26086E+00 1.00572E+00 5.06741E-07-9.26828E-02-9.87244E-09-3.64612E-09
 -1      8339 1.26086E+00 1.00572E+00 5.43127E-07-9.26828E-02-1.39559E-08-5.81141E-09
 -1      8340 1.26086E+00 1.00572E+00 5.88582E-07-9.26828E-02 3.67799E-08 9.92698E-09
 -1      8341 1.26086E+00 1.00572E+00 5.64694E-07-9.26828E-02 1.81423E-07 5.62319E-08
 -1      8342 1.26086E+00 1.00572E+00 3.25231E-07-9.26828E-02 2.84501E-07 9.08497E-08
 -1      8343 1.28325E+00 9.83325E-01 3.61229E-07-4.87262E-02-3.24334E-07-4.84484E-08
 -1      8344 1.28325E+00 9.83325E-01 5.81332E-07-4.87262E-02-2.27951E-07-3.67662E-08
 -1      8345 1.28325E+00 9.83325E-01 6.10803E-07-4.87262E-02-8.58417E-08-1.61378E-08
 -1      8346 1.28325E+00 9.83325E-01 5.83347E-07-4.87262E-02-1.70640E-08-4.51099E-09
 -1      8347 1.28325E+00 9.83325E-01 5.56493E-07-4.87262E-02-7.23586E-10-7.33150E-10
 -1      8348 1.28325E+00 9.83325E-01 5.56493E-07-4.87262E-02 7.23616E-10 7.33105E-10
 -1      8349 1.28325E+00 9.83325E-01 5.83347E-07-4.87262E-02 1.70641E-08 4.51098E-09
 -1      8350 1.28325E+00 9.83325E-01 6.10803E-07-4.87262E-02 8.58418E-08 1.61378E-08
 -1      8351 1.28325E+00 9.83325E-01 5.81332E-07-4.87262E-02 2.27951E-07 3.67662E-08
 -1      8352 1.28325E+00 9.83325E-01 3.61229E-07-4.87262E-02 3.24334E-07 4.84484E-08
 -1      8353 9.91089E-01 1.27548E+00-1.51634E-06-4.62020E-02 1.55127E-07 9.77860E-07
 -1      8354 9.91090E-01 1.27548E+00-2.11081E-06-4.62019E-02 9.50682E-08 5.98416E-07
 -1      8355 9.91090E-01 1.27548E+00-2.31709E-06-4.62019E-02 5.07476E-08 3.19699E-07
 -1      8356 9.91090E-01 1.27548E+00-2.35519E-06-4.62019E-02 2.56127E-08 1.61726E-07
 -1      8357 9.91090E-01 1.27548E+00-2.36036E-06-4.62019E-02 7.88021E-09 4.98253E-08
 -1      8358 9.91090E-01 1.27548E+00-2.36036E-06-4.62019E-02-7.88025E-09-4.98251E-08
 -1      8359 9.91090E-01 1.27548E+00-2.35519E-06-4.62019E-02-2.56128E-08-1.61725E-07
 -1      8360 9.91090E-01 1.27548E+00-2.31709E-06-4.62019E-02-5.07476E-08-3.19699E-07
 -1      8361 9.91090E-01 1.27548E+00-2.11081E-06-4.62019E-02-9.50682E-08-5.98416E-07
 -1      8362 9.91089E-01 1.27548E+00-1.51634E-06-4.62020E-02-1.55127E-07-9.77860E-07
 -1      8363 1.01233E+00 1.25424E+00-1.51591E-06-8.78814E-02 3.07018E-07 9.42340E-07
 -1      8364 1.01233E+00 1.25424E+00-2.11019E-06-8.78812E-02 1.88719E-07 5.76648E-07
 -1      8365 1.01233E+00 1.25424E+00-2.31654E-06-8.78812E-02 1.01667E-07 3.09182E-07
 -1      8366 1.01233E+00 1.25424E+00-2.35542E-06-8.78812E-02 5.17760E-08 1.56879E-07
 -1      8367 1.01233E+00 1.25424E+00-2.36113E-06-8.78812E-02 1.60155E-08 4.84020E-08
 -1      8368 1.01233E+00 1.25424E+00-2.36113E-06-8.78812E-02-1.60155E-08-4.84022E-08
 -1      8369 1.01233E+00 1.25424E+00-2.35542E-06-8.78812E-02-5.17760E-08-1.56879E-07
 -1      8370 1.01233E+00 1.25424E+00-2.31654E-06-8.78812E-02-1.01667E-07-3.09182E-07
 -1      8371 1.01233E+00 1.25424E+00-2.11019E-06-8.78812E-02-1.88719E-07-5.76648E-07
 -1      8372 1.01233E+00 1.25424E+00-1.51591E-06-8.78814E-02-3.07018E-07-9.42340E-07
 -1      8373 1.04540E+00 1.22117E+00-1.51759E-06-1.20958E-01 4.47466E-07 8.82484E-07
 -1      8374 1.04540E+00 1.22117E+00-2.10818E-06-1.20958E-01 2.72870E-07 5.38739E-07
 -1      8375 1.04540E+00 1.22117E+00-2.31549E-06-1.20958E-01 1.45437E-07 2.85930E-07
 -1      8376 1.04540E+00 1.22117E+00-2.35546E-06-1.20958E-01 7.40488E-08 1.44471E-07
 -1      8377 1.04540E+00 1.22117E+00-2.36194E-06-1.20958E-01 2.29767E-08 4.45427E-08
 -1      8378 1.04540E+00 1.22117E+00-2.36194E-06-1.20958E-01-2.29766E-08-4.45424E-08
 -1      8379 1.04540E+00 1.22117E+00-2.35546E-06-1.20958E-01-7.40486E-08-1.44471E-07
 -1      8380 1.04540E+00 1.22117E+00-2.31549E-06-1.20958E-01-1.45437E-07-2.85930E-07
 -1      8381 1.04540E+00 1.22117E+00-2.10818E-06-1.20958E-01-2.72870E-07-5.38739E-07
 -1      8382 1.04540E+00 1.22117E+00-1.51759E-06-1.20958E-01-4.47466E-07-8.82484E-07
 -1      8383 1.08708E+00 1.17949E+00-1.49878E-06-1.42195E-01 5.81343E-07 8.10580E-07
 -1      8384 1.08708E+00 1.17949E+00-2.11272E-06-1.42195E-01 3.62222E-07 5.06949E-07
 -1      8385 1.08708E+00 1.17949E+00-2.33082E-06-1.42195E-01 2.00452E-07 2.81457E-07
 -1      8386 1.08708E+00 1.17949E+00-2.36969E-06-1.42195E-01 1.02592E-07 1.44204E-07
 -1      8387 1.08708E+00 1.17949E+00-2.37335E-06-1.42195E-01 3.16550E-08 4.44890E-08
 -1      8388 1.08708E+00 1.17949E+00-2.37335E-06-1.42195E-01-3.16551E-08-4.44891E-08
 -1      8389 1.08708E+00 1.17949E+00-2.36969E-06-1.42195E-01-1.02593E-07-1.44204E-07
 -1      8390 1.08708E+00 1.17949E+00-2.33082E-06-1.42195E-01-2.00452E-07-2.81457E-07
 -1      8391 1.08708E+00 1.17949E+00-2.11272E-06-1.42195E-01-3.62222E-07-5.06949E-07
 -1      8392 1.08708E+00 1.17949E+00-1.49878E-06-1.42195E-01-5.81343E-07-8.10580E-07
 -1      8393 1.13328E+00 1.13328E+00-1.48842E-06-1.49513E-01 7.13435E-07 7.09046E-07
 -1      8394 1.13328E+00 1.13328E+00-2.11848E-06-1.49513E-01 4.54308E-07 4.43931E-07
 -1      8395 1.13328E+00 1.13328E+00-2.33516E-06-1.49512E-01 2.63727E-07 2.58626E-07
 -1      8396 1.13328E+00 1.13328E+00-2.37337E-06-1.49512E-01 1.36890E-07 1.35921E-07
 -1      8397 1.13328E+00 1.13328E+00-2.37625E-06-1.49512E-01 4.21807E-08 4.23059E-08
 -1      8398 1.13328E+00 1.13328E+00-2.37625E-06-1.49512E-01-4.21806E-08-4.23058E-08
 -1      8399 1.13328E+00 1.13328E+00-2.37337E-06-1.49512E-01-1.36890E-07-1.35921E-07
 -1      8400 1.13328E+00 1.13328E+00-2.33516E-06-1.49512E-01-2.63727E-07-2.58626E-07
 -1      8401 1.13328E+00 1.13328E+00-2.11848E-06-1.49513E-01-4.54308E-07-4.43930E-07
 -1      8402 1.13328E+00 1.13328E+00-1.48842E-06-1.49513E-01-7.13435E-07-7.09046E-07
 -1      8403 1.17949E+00 1.08708E+00-1.56463E-06-1.42195E-01 7.86525E-07 5.71686E-07
 -1      8404 1.17949E+00 1.08708E+00-2.09644E-06-1.42195E-01 4.56357E-07 3.26778E-07
 -1      8405 1.17949E+00 1.08708E+00-2.28200E-06-1.42195E-01 2.08455E-07 1.47481E-07
 -1      8406 1.17949E+00 1.08708E+00-2.32263E-06-1.42195E-01 9.94375E-08 7.00133E-08
 -1      8407 1.17949E+00 1.08708E+00-2.33388E-06-1.42195E-01 3.05435E-08 2.14912E-08
 -1      8408 1.17949E+00 1.08708E+00-2.33388E-06-1.42195E-01-3.05435E-08-2.14913E-08
 -1      8409 1.17949E+00 1.08708E+00-2.32263E-06-1.42195E-01-9.94374E-08-7.00133E-08
 -1      8410 1.17949E+00 1.08708E+00-2.28200E-06-1.42195E-01-2.08455E-07-1.47481E-07
 -1      8411 1.17949E+00 1.08708E+00-2.09644E-06-1.42195E-01-4.56357E-07-3.26778E-07
 -1      8412 1.17949E+00 1.08708E+00-1.56463E-06-1.42195E-01-7.86525E-07-5.71687E-07
 -1      8413 1.22117E+00 1.04540E+00-1.52017E-06-1.20958E-01 8.75326E-07 4.64726E-07
 -1      8414 1.22117E+00 1.04540E+00-2.11243E-06-1.20958E-01 5.31515E-07 2.88316E-07
 -1      8415 1.22117E+00 1.04540E+00-2.31901E-06-1.20958E-01 2.82574E-07 1.52450E-07
 -1      8416 1.22117E+00 1.04540E+00-2.35832E-06-1.20958E-01 1.43684E-07 7.55100E-08
 -1      8417 1.22117E+00 1.04540E+00-2.36454E-06-1.20958E-01 4.45568E-08 2.28887E-08
 -1      8418 1.22117E+00 1.04540E+00-2.36454E-06-1.20958E-01-4.45566E-08-2.28887E-08
 -1      8419 1.22117E+00 1.04540E+00-2.35832E-06-1.20958E-01-1.43684E-07-7.55101E-08
 -1      8420 1.22117E+00 1.04540E+00-2.31901E-06-1.20958E-01-2.82574E-07-1.52450E-07
 -1      8421 1.22117E+00 1.04540E+00-2.11243E-06-1.20958E-01-5.31515E-07-2.88316E-07
 -1      8422 1.22117E+00 1.04540E+00-1.52017E-06-1.20958E-01-8.75326E-07-4.64726E-07
 -1      8423 1.25424E+00 1.01233E+00-1.45714E-06-8.78814E-02 9.66427E-07 3.20920E-07
 -1      8424 1.25424E+00 1.01233E+00-2.13463E-06-8.78812E-02 6.35046E-07 2.09526E-07
 -1      8425 1.25424E+00 1.01233E+00-2.37173E-06-8.78812E-02 3.91152E-07 1.29899E-07
 -1      8426 1.25424E+00 1.01233E+00-2.40641E-06-8.78811E-02 2.06166E-07 6.91495E-08
 -1      8427 1.25424E+00 1.01233E+00-2.40324E-06-8.78811E-02 6.35813E-08 2.14904E-08
 -1      8428 1.25424E+00 1.01233E+00-2.40324E-06-8.78811E-02-6.35813E-08-2.14905E-08
 -1      8429 1.25424E+00 1.01233E+00-2.40641E-06-8.78811E-02-2.06166E-07-6.91496E-08
 -1      8430 1.25424E+00 1.01233E+00-2.37173E-06-8.78812E-02-3.91152E-07-1.29899E-07
 -1      8431 1.25424E+00 1.01233E+00-2.13463E-06-8.78812E-02-6.35046E-07-2.09526E-07
 -1      8432 1.25424E+00 1.01233E+00-1.45714E-06-8.78814E-02-9.66427E-07-3.20920E-07
 -1      8433 1.27548E+00 9.91089E-01-1.52484E-06-4.62019E-02 9.81925E-07 1.42084E-07
 -1      8434 1.27548E+00 9.91089E-01-2.12049E-06-4.62019E-02 5.99214E-07 7.50804E-08
 -1      8435 1.27548E+00 9.91090E-01-2.31862E-06-4.62019E-02 3.19809E-07 4.16031E-08
 -1      8436 1.27548E+00 9.91090E-01-2.35331E-06-4.62019E-02 1.60864E-07 2.40514E-08
 -1      8437 1.27548E+00 9.91090E-01-2.35725E-06-4.62019E-02 4.93003E-08 8.19013E-09
 -1      8438 1.27548E+00 9.91090E-01-2.35725E-06-4.62019E-02-4.93002E-08-8.19017E-09
 -1      8439 1.27548E+00 9.91090E-01-2.35331E-06-4.62019E-02-1.60864E-07-2.40515E-08
 -1      8440 1.27548E+00 9.91090E-01-2.31862E-06-4.62019E-02-3.19809E-07-4.16031E-08
 -1      8441 1.27548E+00 9.91089E-01-2.12049E-06-4.62019E-02-5.99214E-07-7.50804E-08
 -1      8442 1.27548E+00 9.91089E-01-1.52484E-06-4.62019E-02-9.81925E-07-1.42084E-07
 -1      8443 9.98438E-01 1.26814E+00 8.36358E-07-4.38166E-02-1.55433E-07-9.67767E-07
 -1      8444 9.98438E-01 1.26815E+00 1.28261E-06-4.38166E-02-5.82918E-08-3.56777E-07
 -1      8445 9.98438E-01 1.26815E+00 1.54619E-06-4.38166E-02-2.73579E-08-1.65972E-07
 -1      8446 9.98438E-01 1.26815E+00 1.71384E-06-4.38167E-02-1.51448E-08-9.11071E-08
 -1      8447 9.98438E-01 1.26815E+00 1.79916E-06-4.38167E-02-5.06294E-09-3.01218E-08
 -1      8448 9.98438E-01 1.26815E+00 1.79916E-06-4.38167E-02 5.06287E-09 3.01219E-08
 -1      8449 9.98438E-01 1.26815E+00 1.71384E-06-4.38167E-02 1.51448E-08 9.11071E-08
 -1      8450 9.98438E-01 1.26815E+00 1.54619E-06-4.38166E-02 2.73579E-08 1.65972E-07
 -1      8451 9.98438E-01 1.26815E+00 1.28261E-06-4.38166E-02 5.82918E-08 3.56777E-07
 -1      8452 9.98438E-01 1.26814E+00 8.36358E-07-4.38166E-02 1.55433E-07 9.67767E-07
 -1      8453 1.01858E+00 1.24800E+00 8.29083E-07-8.33442E-02-3.03162E-07-9.23595E-07
 -1      8454 1.01858E+00 1.24800E+00 1.27823E-06-8.33442E-02-1.11060E-07-3.38975E-07
 -1      8455 1.01858E+00 1.24800E+00 1.54176E-06-8.33442E-02-4.98337E-08-1.57573E-07
 -1      8456 1.01858E+00 1.24801E+00 1.70871E-06-8.33442E-02-2.66621E-08-8.65701E-08
 -1      8457 1.01858E+00 1.24801E+00 1.79342E-06-8.33442E-02-8.78921E-09-2.86394E-08
 -1      8458 1.01858E+00 1.24801E+00 1.79342E-06-8.33442E-02 8.78922E-09 2.86393E-08
 -1      8459 1.01858E+00 1.24801E+00 1.70871E-06-8.33442E-02 2.66620E-08 8.65702E-08
 -1      8460 1.01858E+00 1.24800E+00 1.54176E-06-8.33442E-02 4.98337E-08 1.57573E-07
 -1      8461 1.01858E+00 1.24800E+00 1.27823E-06-8.33442E-02 1.11060E-07 3.38975E-07
 -1      8462 1.01858E+00 1.24800E+00 8.29083E-07-8.33442E-02 3.03162E-07 9.23596E-07
 -1      8463 1.04995E+00 1.21664E+00 8.54848E-07-1.14713E-01-4.58202E-07-8.90225E-07
 -1      8464 1.04995E+00 1.21664E+00 1.27973E-06-1.14713E-01-1.62120E-07-3.21782E-07
 -1      8465 1.04995E+00 1.21664E+00 1.52789E-06-1.14713E-01-6.56149E-08-1.44895E-07
 -1      8466 1.04995E+00 1.21664E+00 1.68443E-06-1.14713E-01-3.19665E-08-7.89556E-08
 -1      8467 1.04995E+00 1.21664E+00 1.76384E-06-1.14714E-01-1.00290E-08-2.60771E-08
 -1      8468 1.04995E+00 1.21664E+00 1.76384E-06-1.14714E-01 1.00290E-08 2.60772E-08
 -1      8469 1.04995E+00 1.21664E+00 1.68443E-06-1.14713E-01 3.19666E-08 7.89557E-08
 -1      8470 1.04995E+00 1.21664E+00 1.52789E-06-1.14713E-01 6.56150E-08 1.44895E-07
 -1      8471 1.04995E+00 1.21664E+00 1.27973E-06-1.14713E-01 1.62120E-07 3.21782E-07
 -1      8472 1.04995E+00 1.21664E+00 8.54848E-07-1.14713E-01 4.58202E-07 8.90225E-07
 -1      8473 1.08947E+00 1.17711E+00 6.59136E-07-1.34854E-01-5.49371E-07-7.60621E-07
 -1      8474 1.08947E+00 1.17711E+00 1.18519E-06-1.34854E-01-2.26687E-07-3.12156E-07
 -1      8475 1.08947E+00 1.17711E+00 1.55792E-06-1.34854E-01-1.24420E-07-1.74040E-07
 -1      8476 1.08947E+00 1.17711E+00 1.78169E-06-1.34854E-01-7.13554E-08-1.02270E-07
 -1      8477 1.08947E+00 1.17711E+00 1.88837E-06-1.34854E-01-2.37777E-08-3.45626E-08
 -1      8478 1.08947E+00 1.17711E+00 1.88837E-06-1.34854E-01 2.37777E-08 3.45626E-08
 -1      8479 1.08947E+00 1.17711E+00 1.78169E-06-1.34854E-01 7.13553E-08 1.02270E-07
 -1      8480 1.08947E+00 1.17711E+00 1.55792E-06-1.34854E-01 1.24420E-07 1.74040E-07
 -1      8481 1.08947E+00 1.17711E+00 1.18519E-06-1.34854E-01 2.26687E-07 3.12155E-07
 -1      8482 1.08947E+00 1.17711E+00 6.59136E-07-1.34854E-01 5.49371E-07 7.60621E-07
 -1      8483 1.13329E+00 1.13329E+00 4.98184E-07-1.41794E-01-5.53517E-07-5.84003E-07
 -1      8484 1.13329E+00 1.13329E+00 1.13842E-06-1.41794E-01-2.64825E-07-2.55619E-07
 -1      8485 1.13329E+00 1.13329E+00 1.58639E-06-1.41794E-01-1.83234E-07-1.56353E-07
 -1      8486 1.13329E+00 1.13329E+00 1.85285E-06-1.41794E-01-1.16824E-07-9.18092E-08
 -1      8487 1.13329E+00 1.13329E+00 1.97800E-06-1.41794E-01-4.06542E-08-3.08046E-08
 -1      8488 1.13329E+00 1.13329E+00 1.97800E-06-1.41794E-01 4.06542E-08 3.08047E-08
 -1      8489 1.13329E+00 1.13329E+00 1.85285E-06-1.41794E-01 1.16824E-07 9.18090E-08
 -1      8490 1.13329E+00 1.13329E+00 1.58639E-06-1.41794E-01 1.83234E-07 1.56353E-07
 -1      8491 1.13329E+00 1.13329E+00 1.13842E-06-1.41794E-01 2.64825E-07 2.55619E-07
 -1      8492 1.13329E+00 1.13329E+00 4.98184E-07-1.41794E-01 5.53517E-07 5.84003E-07
 -1      8493 1.17711E+00 1.08948E+00 1.37484E-06-1.34854E-01-9.94828E-07-7.43643E-07
 -1      8494 1.17711E+00 1.08947E+00 1.51091E-06-1.34854E-01-2.61242E-07-1.94988E-07
 -1      8495 1.17711E+00 1.08947E+00 1.46197E-06-1.34854E-01-2.41430E-08-1.82639E-08
 -1      8496 1.17711E+00 1.08947E+00 1.46238E-06-1.34854E-01 8.54642E-09 6.38156E-09
 -1      8497 1.17711E+00 1.08947E+00 1.47978E-06-1.34854E-01 5.07587E-09 3.85044E-09
 -1      8498 1.17711E+00 1.08947E+00 1.47978E-06-1.34854E-01-5.07575E-09-3.85052E-09
 -1      8499 1.17711E+00 1.08947E+00 1.46238E-06-1.34854E-01-8.54646E-09-6.38158E-09
 -1      8500 1.17711E+00 1.08947E+00 1.46197E-06-1.34854E-01 2.41430E-08 1.82638E-08
 -1      8501 1.17711E+00 1.08947E+00 1.51091E-06-1.34854E-01 2.61242E-07 1.94988E-07
 -1      8502 1.17711E+00 1.08948E+00 1.37484E-06-1.34854E-01 9.94828E-07 7.43643E-07
 -1      8503 1.21664E+00 1.04995E+00 8.43362E-07-1.14713E-01-9.03606E-07-4.60652E-07
 -1      8504 1.21664E+00 1.04995E+00 1.27264E-06-1.14713E-01-3.22521E-07-1.85733E-07
 -1      8505 1.21664E+00 1.04995E+00 1.52597E-06-1.14713E-01-1.33205E-07-1.05588E-07
 -1      8506 1.21664E+00 1.04995E+00 1.68522E-06-1.14713E-01-6.50384E-08-6.82327E-08
 -1      8507 1.21664E+00 1.04995E+00 1.76543E-06-1.14713E-01-2.02268E-08-2.43111E-08
 -1      8508 1.21664E+00 1.04995E+00 1.76543E-06-1.14713E-01 2.02271E-08 2.43110E-08
 -1      8509 1.21664E+00 1.04995E+00 1.68522E-06-1.14713E-01 6.50385E-08 6.82326E-08
 -1      8510 1.21664E+00 1.04995E+00 1.52597E-06-1.14713E-01 1.33205E-07 1.05588E-07
 -1      8511 1.21664E+00 1.04995E+00 1.27264E-06-1.14713E-01 3.22521E-07 1.85733E-07
 -1      8512 1.21664E+00 1.04995E+00 8.43362E-07-1.14713E-01 9.03606E-07 4.60651E-07
 -1      8513 1.24800E+00 1.01858E+00 1.25084E-07-8.33443E-02-6.73564E-07-2.44109E-07
 -1      8514 1.24800E+00 1.01858E+00 9.55155E-07-8.33442E-02-4.19897E-07-1.39007E-07
 -1      8515 1.24800E+00 1.01858E+00 1.64090E-06-8.33441E-02-3.45676E-07-1.05887E-07
 -1      8516 1.24800E+00 1.01858E+00 2.03371E-06-8.33441E-02-2.22275E-07-6.62763E-08
 -1      8517 1.24800E+00 1.01858E+00 2.20920E-06-8.33442E-02-7.67462E-08-2.28263E-08
 -1      8518 1.24800E+00 1.01858E+00 2.20920E-06-8.33442E-02 7.67461E-08 2.28262E-08
 -1      8519 1.24800E+00 1.01858E+00 2.03371E-06-8.33441E-02 2.22275E-07 6.62762E-08
 -1      8520 1.24800E+00 1.01858E+00 1.64090E-06-8.33441E-02 3.45676E-07 1.05887E-07
 -1      8521 1.24800E+00 1.01858E+00 9.55155E-07-8.33442E-02 4.19897E-07 1.39007E-07
 -1      8522 1.24800E+00 1.01858E+00 1.25084E-07-8.33443E-02 6.73564E-07 2.44109E-07
 -1      8523 1.26814E+00 9.98437E-01 8.40161E-07-4.38166E-02-9.47823E-07-1.96084E-07
 -1      8524 1.26815E+00 9.98438E-01 1.30688E-06-4.38167E-02-3.63382E-07-3.92978E-08
 -1      8525 1.26815E+00 9.98438E-01 1.56401E-06-4.38168E-02-1.81413E-07 2.35641E-08
 -1      8526 1.26815E+00 9.98438E-01 1.73317E-06-4.38167E-02-1.03931E-07 3.27870E-08
 -1      8527 1.26815E+00 9.98438E-01 1.82104E-06-4.38167E-02-3.49989E-08 1.38294E-08
 -1      8528 1.26815E+00 9.98438E-01 1.82104E-06-4.38167E-02 3.49989E-08-1.38296E-08
 -1      8529 1.26815E+00 9.98438E-01 1.73317E-06-4.38167E-02 1.03931E-07-3.27870E-08
 -1      8530 1.26815E+00 9.98438E-01 1.56401E-06-4.38168E-02 1.81413E-07-2.35642E-08
 -1      8531 1.26815E+00 9.98438E-01 1.30688E-06-4.38167E-02 3.63382E-07 3.92977E-08
 -1      8532 1.26814E+00 9.98437E-01 8.40161E-07-4.38166E-02 9.47823E-07 1.96083E-07
 -1      8533-5.57442E-01 2.82402E+00-7.89885E-07-5.49353E-01-7.96035E-07-5.02598E-06
 -1      8534-6.00843E-01 2.86743E+00 1.99399E-07-2.74660E-01-4.49765E-07-5.71481E-06
 -1      8535-7.30657E-01 2.99726E+00 4.01064E-06-6.05637E-01 1.18499E-07 7.48155E-07
 -1      8540-5.57442E-01 2.82403E+00 9.43208E-07-5.49353E-01-5.31873E-07-3.35812E-06
 -1      8541-6.00842E-01 2.86743E+00 1.59830E-06-2.74660E-01-1.40695E-07-1.78772E-06
 -1      8542-7.30659E-01 2.99726E+00 5.52108E-06-6.05637E-01 4.02776E-09 2.54010E-08
 -1      8547-5.57442E-01 2.82403E+00 2.16350E-06-5.49353E-01-1.77988E-07-1.12378E-06
 -1      8548-6.00842E-01 2.86743E+00 2.37169E-06-2.74660E-01-4.47209E-08-5.68244E-07
 -1      8549-7.30660E-01 2.99726E+00 6.26471E-06-6.05637E-01-2.35337E-08-1.48595E-07
 -1      8554-5.57442E-01 2.82403E+00 2.53748E-06-5.49353E-01-6.41906E-08-4.05293E-07
 -1      8555-6.00843E-01 2.86743E+00 2.53087E-06-2.74660E-01-1.75110E-08-2.22506E-07
 -1      8556-7.30661E-01 2.99726E+00 6.48297E-06-6.05637E-01-2.19058E-08-1.38317E-07
 -1      8561-5.57442E-01 2.82403E+00 2.53990E-06-5.49353E-01-2.37664E-08-1.50061E-07
 -1      8562-6.00843E-01 2.86743E+00 2.50512E-06-2.74660E-01-5.05069E-09-6.41775E-08
 -1      8563-7.30661E-01 2.99726E+00 6.54639E-06-6.05637E-01-8.34923E-09-5.27213E-08
 -1      8568-5.57442E-01 2.82403E+00 2.51419E-06-5.49353E-01-2.81026E-14 9.44829E-14
 -1      8569-6.00843E-01 2.86743E+00 2.50512E-06-2.74660E-01 5.05066E-09 6.41776E-08
 -1      8570-7.30661E-01 2.99726E+00 6.54639E-06-6.05637E-01 8.34916E-09 5.27214E-08
 -1      8575-5.57442E-01 2.82403E+00 2.53990E-06-5.49353E-01 2.37664E-08 1.50061E-07
 -1      8576-6.00843E-01 2.86743E+00 2.53087E-06-2.74660E-01 1.75110E-08 2.22506E-07
 -1      8577-7.30661E-01 2.99726E+00 6.48297E-06-6.05637E-01 2.19058E-08 1.38317E-07
 -1      8582-5.57442E-01 2.82403E+00 2.53748E-06-5.49353E-01 6.41906E-08 4.05293E-07
 -1      8583-6.00842E-01 2.86743E+00 2.37169E-06-2.74660E-01 4.47210E-08 5.68244E-07
 -1      8584-7.30660E-01 2.99726E+00 6.26471E-06-6.05637E-01 2.35336E-08 1.48595E-07
 -1      8589-5.57442E-01 2.82403E+00 2.16350E-06-5.49353E-01 1.77988E-07 1.12378E-06
 -1      8590-6.00842E-01 2.86743E+00 1.59830E-06-2.74660E-01 1.40695E-07 1.78772E-06
 -1      8591-7.30659E-01 2.99726E+00 5.52108E-06-6.05637E-01-4.02779E-09-2.54010E-08
 -1      8596-5.57442E-01 2.82403E+00 9.43208E-07-5.49353E-01 5.31873E-07 3.35812E-06
 -1      8597-6.00843E-01 2.86743E+00 1.99399E-07-2.74660E-01 4.49765E-07 5.71481E-06
 -1      8598-7.30657E-01 2.99726E+00 4.01064E-06-6.05637E-01-1.18499E-07-7.48155E-07
 -1      8603-5.57442E-01 2.82402E+00-7.89885E-07-5.49353E-01 7.96035E-07 5.02598E-06
 -1      8607-3.04932E-01 2.57152E+00-7.89892E-07-1.04493E+00-1.57247E-06-4.83959E-06
 -1      8608-4.31094E-01 2.69768E+00 1.99394E-07-7.97094E-01-1.33822E-06-5.57410E-06
 -1      8609-4.52276E-01 2.71888E+00 4.01064E-06-1.15199E+00 2.34083E-07 7.20416E-07
 -1      8614-3.04932E-01 2.57152E+00 9.43199E-07-1.04493E+00-1.05065E-06-3.23358E-06
 -1      8615-4.31093E-01 2.69768E+00 1.59830E-06-7.97094E-01-4.18622E-07-1.74370E-06
 -1      8616-4.52279E-01 2.71888E+00 5.52108E-06-1.15199E+00 7.95982E-09 2.44534E-08
 -1      8621-3.04932E-01 2.57152E+00 2.16350E-06-1.04493E+00-3.51594E-07-1.08210E-06
 -1      8622-4.31093E-01 2.69768E+00 2.37169E-06-7.97094E-01-1.33062E-07-5.54253E-07
 -1      8623-4.52279E-01 2.71888E+00 6.26471E-06-1.15199E+00-4.64845E-08-1.43086E-07
 -1      8628-3.04932E-01 2.57152E+00 2.53748E-06-1.04493E+00-1.26801E-07-3.90263E-07
 -1      8629-4.31093E-01 2.69768E+00 2.53087E-06-7.97094E-01-5.21020E-08-2.17028E-07
 -1      8630-4.52280E-01 2.71888E+00 6.48297E-06-1.15199E+00-4.32717E-08-1.33188E-07
 -1      8635-3.04933E-01 2.57152E+00 2.53990E-06-1.04493E+00-4.69475E-08-1.44497E-07
 -1      8636-4.31094E-01 2.69768E+00 2.50512E-06-7.97094E-01-1.50277E-08-6.25975E-08
 -1      8637-4.52280E-01 2.71888E+00 6.54640E-06-1.15199E+00-1.64929E-08-5.07668E-08
 -1      8642-3.04933E-01 2.57152E+00 2.51419E-06-1.04493E+00-1.87242E-14 7.61872E-15
 -1      8643-4.31094E-01 2.69768E+00 2.50512E-06-7.97094E-01 1.50277E-08 6.25977E-08
 -1      8644-4.52280E-01 2.71888E+00 6.54640E-06-1.15199E+00 1.64928E-08 5.07668E-08
 -1      8649-3.04933E-01 2.57152E+00 2.53990E-06-1.04493E+00 4.69475E-08 1.44497E-07
 -1      8650-4.31093E-01 2.69768E+00 2.53087E-06-7.97094E-01 5.21019E-08 2.17028E-07
 -1      8651-4.52280E-01 2.71888E+00 6.48297E-06-1.15199E+00 4.32716E-08 1.33188E-07
 -1      8656-3.04932E-01 2.57152E+00 2.53748E-06-1.04493E+00 1.26801E-07 3.90263E-07
 -1      8657-4.31093E-01 2.69768E+00 2.37169E-06-7.97094E-01 1.33062E-07 5.54254E-07
 -1      8658-4.52279E-01 2.71888E+00 6.26471E-06-1.15199E+00 4.64844E-08 1.43086E-07
 -1      8663-3.04932E-01 2.57152E+00 2.16350E-06-1.04493E+00 3.51594E-07 1.08210E-06
 -1      8664-4.31093E-01 2.69768E+00 1.59830E-06-7.97094E-01 4.18622E-07 1.74370E-06
 -1      8665-4.52279E-01 2.71888E+00 5.52108E-06-1.15199E+00-7.95990E-09-2.44533E-08
 -1      8670-3.04932E-01 2.57152E+00 9.43199E-07-1.04493E+00 1.05065E-06 3.23358E-06
 -1      8671-4.31094E-01 2.69768E+00 1.99394E-07-7.97094E-01 1.33822E-06 5.57410E-06
 -1      8672-4.52276E-01 2.71888E+00 4.01064E-06-1.15199E+00-2.34083E-07-7.20415E-07
 -1      8677-3.04932E-01 2.57152E+00-7.89892E-07-1.04493E+00 1.57247E-06 4.83959E-06
 -1      8681 8.83606E-02 2.17822E+00-7.89879E-07-1.43822E+00-2.31018E-06-4.53402E-06
 -1      8682-1.08212E-01 2.37479E+00 1.99397E-07-1.24150E+00-2.19373E-06-5.29612E-06
 -1      8683-1.86880E-02 2.28529E+00 4.01063E-06-1.58558E+00 3.43893E-07 6.74917E-07
 -1      8688 8.83608E-02 2.17822E+00 9.43212E-07-1.43822E+00-1.54356E-06-3.02941E-06
 -1      8689-1.08211E-01 2.37480E+00 1.59830E-06-1.24150E+00-6.86244E-07-1.65675E-06
 -1      8690-1.86902E-02 2.28529E+00 5.52107E-06-1.58558E+00 1.16787E-08 2.28929E-08
 -1      8695 8.83612E-02 2.17822E+00 2.16351E-06-1.43822E+00-5.16551E-07-1.01378E-06
 -1      8696-1.08211E-01 2.37479E+00 2.37169E-06-1.24150E+00-2.18129E-07-5.26618E-07
 -1      8697-1.86909E-02 2.28529E+00 6.26471E-06-1.58558E+00-6.83006E-08-1.34056E-07
 -1      8702 8.83609E-02 2.17822E+00 2.53748E-06-1.43822E+00-1.86296E-07-3.65625E-07
 -1      8703-1.08211E-01 2.37479E+00 2.53087E-06-1.24150E+00-8.54119E-08-2.06208E-07
 -1      8704-1.86911E-02 2.28529E+00 6.48297E-06-1.58558E+00-6.35796E-08-1.24779E-07
 -1      8709 8.83607E-02 2.17822E+00 2.53991E-06-1.43822E+00-6.89767E-08-1.35375E-07
 -1      8710-1.08211E-01 2.37479E+00 2.50512E-06-1.24150E+00-2.46354E-08-5.94768E-08
 -1      8711-1.86912E-02 2.28529E+00 6.54640E-06-1.58558E+00-2.42334E-08-4.75615E-08
 -1      8716 8.83606E-02 2.17822E+00 2.51420E-06-1.43822E+00-8.22695E-14-2.30498E-14
 -1      8717-1.08211E-01 2.37479E+00 2.50512E-06-1.24150E+00 2.46353E-08 5.94768E-08
 -1      8718-1.86912E-02 2.28529E+00 6.54640E-06-1.58558E+00 2.42332E-08 4.75616E-08
 -1      8723 8.83607E-02 2.17822E+00 2.53991E-06-1.43822E+00 6.89766E-08 1.35375E-07
 -1      8724-1.08211E-01 2.37479E+00 2.53087E-06-1.24150E+00 8.54119E-08 2.06208E-07
 -1      8725-1.86911E-02 2.28529E+00 6.48297E-06-1.58558E+00 6.35794E-08 1.24779E-07
 -1      8730 8.83609E-02 2.17822E+00 2.53748E-06-1.43822E+00 1.86296E-07 3.65625E-07
 -1      8731-1.08211E-01 2.37479E+00 2.37169E-06-1.24150E+00 2.18129E-07 5.26618E-07
 -1      8732-1.86909E-02 2.28529E+00 6.26471E-06-1.58558E+00 6.83004E-08 1.34056E-07
 -1      8737 8.83612E-02 2.17822E+00 2.16351E-06-1.43822E+00 5.16551E-07 1.01378E-06
 -1      8738-1.08211E-01 2.37480E+00 1.59830E-06-1.24150E+00 6.86244E-07 1.65675E-06
 -1      8739-1.86902E-02 2.28529E+00 5.52107E-06-1.58558E+00-1.16788E-08-2.28928E-08
 -1      8744 8.83608E-02 2.17822E+00 9.43212E-07-1.43822E+00 1.54356E-06 3.02941E-06
 -1      8745-1.08212E-01 2.37479E+00 1.99397E-07-1.24150E+00 2.19373E-06 5.29612E-06
 -1      8746-1.86880E-02 2.28529E+00 4.01063E-06-1.58558E+00-3.43893E-07-6.74917E-07
 -1      8751 8.83606E-02 2.17822E+00-7.89879E-07-1.43822E+00 2.31018E-06 4.53402E-06
 -1      8755 5.83939E-01 1.68264E+00-7.89908E-07-1.69073E+00-2.99101E-06-4.11683E-06
 -1      8756 3.36197E-01 1.93039E+00 1.99401E-07-1.56439E+00-2.99522E-06-4.88774E-06
 -1      8757 5.27665E-01 1.73894E+00 4.01062E-06-1.86396E+00 4.45249E-07 6.12884E-07
 -1      8762 5.83939E-01 1.68264E+00 9.43165E-07-1.69073E+00-1.99845E-06-2.75066E-06
 -1      8763 3.36198E-01 1.93039E+00 1.59830E-06-1.56438E+00-9.36970E-07-1.52900E-06
 -1      8764 5.27663E-01 1.73894E+00 5.52106E-06-1.86396E+00 1.50986E-08 2.07955E-08
 -1      8769 5.83939E-01 1.68264E+00 2.16347E-06-1.69073E+00-6.68778E-07-9.20490E-07
 -1      8770 3.36198E-01 1.93039E+00 2.37169E-06-1.56439E+00-2.97828E-07-4.86011E-07
 -1      8771 5.27662E-01 1.73894E+00 6.26468E-06-1.86396E+00-8.84350E-08-1.21718E-07
 -1      8776 5.83939E-01 1.68264E+00 2.53745E-06-1.69073E+00-2.41197E-07-3.31975E-07
 -1      8777 3.36198E-01 1.93039E+00 2.53087E-06-1.56439E+00-1.16621E-07-1.90307E-07
 -1      8778 5.27662E-01 1.73894E+00 6.48293E-06-1.86396E+00-8.23223E-08-1.13289E-07
 -1      8783 5.83939E-01 1.68264E+00 2.53988E-06-1.69073E+00-8.93048E-08-1.22915E-07
 -1      8784 3.36198E-01 1.93039E+00 2.50512E-06-1.56439E+00-3.36373E-08-5.48905E-08
 -1      8785 5.27662E-01 1.73894E+00 6.54637E-06-1.86396E+00-3.13782E-08-4.31819E-08
 -1      8790 5.83939E-01 1.68264E+00 2.51417E-06-1.69073E+00-8.25011E-14 1.30466E-13
 -1      8791 3.36198E-01 1.93039E+00 2.50512E-06-1.56439E+00 3.36371E-08 5.48905E-08
 -1      8792 5.27662E-01 1.73894E+00 6.54637E-06-1.86396E+00 3.13780E-08 4.31821E-08
 -1      8797 5.83939E-01 1.68264E+00 2.53988E-06-1.69073E+00 8.93047E-08 1.22915E-07
 -1      8798 3.36198E-01 1.93039E+00 2.53087E-06-1.56439E+00 1.16621E-07 1.90307E-07
 -1      8799 5.27662E-01 1.73894E+00 6.48293E-06-1.86396E+00 8.23222E-08 1.13289E-07
 -1      8804 5.83939E-01 1.68264E+00 2.53745E-06-1.69073E+00 2.41197E-07 3.31974E-07
 -1      8805 3.36198E-01 1.93039E+00 2.37169E-06-1.56439E+00 2.97828E-07 4.86011E-07
 -1      8806 5.27662E-01 1.73894E+00 6.26468E-06-1.86396E+00 8.84349E-08 1.21718E-07
 -1      8811 5.83939E-01 1.68264E+00 2.16347E-06-1.69073E+00 6.68778E-07 9.20490E-07
 -1      8812 3.36198E-01 1.93039E+00 1.59830E-06-1.56438E+00 9.36970E-07 1.52900E-06
 -1      8813 5.27663E-01 1.73894E+00 5.52106E-06-1.86396E+00-1.50987E-08-2.07954E-08
 -1      8818 5.83939E-01 1.68264E+00 9.43165E-07-1.69073E+00 1.99845E-06 2.75066E-06
 -1      8819 3.36197E-01 1.93039E+00 1.99401E-07-1.56439E+00 2.99522E-06 4.88774E-06
 -1      8820 5.27665E-01 1.73894E+00 4.01062E-06-1.86396E+00-4.45249E-07-6.12884E-07
 -1      8825 5.83939E-01 1.68264E+00-7.89908E-07-1.69073E+00 2.99101E-06 4.11683E-06
 -1      8829 1.13329E+00 1.13329E+00-7.89874E-07-1.77774E+00-3.59820E-06-3.59830E-06
 -1      8830 8.58632E-01 1.40795E+00 1.99386E-07-1.73413E+00-3.72297E-06-4.35902E-06
 -1      8831 1.13330E+00 1.13330E+00 4.01059E-06-1.95988E+00 5.35754E-07 5.35678E-07
 -1      8836 1.13329E+00 1.13329E+00 9.43214E-07-1.77774E+00-2.40417E-06-2.40421E-06
 -1      8837 8.58632E-01 1.40795E+00 1.59834E-06-1.73413E+00-1.16463E-06-1.36360E-06
 -1      8838 1.13330E+00 1.13330E+00 5.52095E-06-1.95988E+00 1.81612E-08 1.81840E-08
 -1      8843 1.13329E+00 1.13329E+00 2.16352E-06-1.77774E+00-8.04565E-07-8.04546E-07
 -1      8844 8.58632E-01 1.40795E+00 2.37175E-06-1.73413E+00-3.70186E-07-4.33434E-07
 -1      8845 1.13330E+00 1.13330E+00 6.26464E-06-1.95988E+00-1.06394E-07-1.06404E-07
 -1      8850 1.13329E+00 1.13329E+00 2.53754E-06-1.77774E+00-2.90180E-07-2.90150E-07
 -1      8851 8.58632E-01 1.40795E+00 2.53093E-06-1.73413E+00-1.44955E-07-1.69718E-07
 -1      8852 1.13330E+00 1.13330E+00 6.48290E-06-1.95988E+00-9.90351E-08-9.90203E-08
 -1      8857 1.13329E+00 1.13329E+00 2.53998E-06-1.77774E+00-1.07445E-07-1.07426E-07
 -1      8858 8.58632E-01 1.40795E+00 2.50519E-06-1.73413E+00-4.18098E-08-4.89516E-08
 -1      8859 1.13330E+00 1.13330E+00 6.54633E-06-1.95988E+00-3.77502E-08-3.77408E-08
 -1      8864 1.13329E+00 1.13329E+00 2.51429E-06-1.77774E+00 6.86006E-15 2.08400E-14
 -1      8865 8.58632E-01 1.40795E+00 2.50519E-06-1.73413E+00 4.18096E-08 4.89517E-08
 -1      8866 1.13330E+00 1.13330E+00 6.54633E-06-1.95988E+00 3.77500E-08 3.77409E-08
 -1      8871 1.13329E+00 1.13329E+00 2.53998E-06-1.77774E+00 1.07445E-07 1.07426E-07
 -1      8872 8.58632E-01 1.40795E+00 2.53093E-06-1.73413E+00 1.44955E-07 1.69718E-07
 -1      8873 1.13330E+00 1.13330E+00 6.48290E-06-1.95988E+00 9.90349E-08 9.90204E-08
 -1      8878 1.13329E+00 1.13329E+00 2.53754E-06-1.77774E+00 2.90180E-07 2.90150E-07
 -1      8879 8.58632E-01 1.40795E+00 2.37175E-06-1.73413E+00 3.70186E-07 4.33434E-07
 -1      8880 1.13330E+00 1.13330E+00 6.26464E-06-1.95988E+00 1.06394E-07 1.06404E-07
 -1      8885 1.13329E+00 1.13329E+00 2.16352E-06-1.77774E+00 8.04565E-07 8.04547E-07
 -1      8886 8.58632E-01 1.40795E+00 1.59834E-06-1.73413E+00 1.16463E-06 1.36360E-06
 -1      8887 1.13330E+00 1.13330E+00 5.52095E-06-1.95988E+00-1.81612E-08-1.81839E-08
 -1      8892 1.13329E+00 1.13329E+00 9.43214E-07-1.77774E+00 2.40417E-06 2.40421E-06
 -1      8893 8.58632E-01 1.40795E+00 1.99386E-07-1.73413E+00 3.72297E-06 4.35902E-06
 -1      8894 1.13330E+00 1.13330E+00 4.01059E-06-1.95988E+00-5.35754E-07-5.35678E-07
 -1      8899 1.13329E+00 1.13329E+00-7.89874E-07-1.77774E+00 3.59820E-06 3.59830E-06
 -1      8903 1.68264E+00 5.83939E-01-7.89700E-07-1.69073E+00-4.11673E-06-2.99093E-06
 -1      8904 1.40795E+00 8.58632E-01 1.99469E-07-1.73413E+00-4.35901E-06-3.72285E-06
 -1      8905 1.73894E+00 5.27665E-01 4.01004E-06-1.86396E+00 6.13077E-07 4.45749E-07
 -1      8910 1.68264E+00 5.83939E-01 9.43382E-07-1.69073E+00-2.75045E-06-1.99849E-06
 -1      8911 1.40795E+00 8.58632E-01 1.59826E-06-1.73413E+00-1.36362E-06-1.16455E-06
 -1      8912 1.73894E+00 5.27663E-01 5.52049E-06-1.86396E+00 2.07397E-08 1.54975E-08
 -1      8917 1.68264E+00 5.83939E-01 2.16347E-06-1.69073E+00-9.20373E-07-6.68775E-07
 -1      8918 1.40795E+00 8.58632E-01 2.37168E-06-1.73413E+00-4.33449E-07-3.70136E-07
 -1      8919 1.73894E+00 5.27662E-01 6.26399E-06-1.86396E+00-1.21748E-07-8.82511E-08
 -1      8924 1.68264E+00 5.83939E-01 2.53734E-06-1.69073E+00-3.31898E-07-2.41182E-07
 -1      8925 1.40795E+00 8.58632E-01 2.53087E-06-1.73413E+00-1.69724E-07-1.44919E-07
 -1      8926 1.73894E+00 5.27662E-01 6.48214E-06-1.86396E+00-1.13285E-07-8.22448E-08
 -1      8931 1.68264E+00 5.83939E-01 2.53973E-06-1.69073E+00-1.22874E-07-8.92954E-08
 -1      8932 1.40795E+00 8.58632E-01 2.50512E-06-1.73413E+00-4.89532E-08-4.17969E-08
 -1      8933 1.73894E+00 5.27662E-01 6.54550E-06-1.86396E+00-4.31772E-08-3.13585E-08
 -1      8938 1.68264E+00 5.83939E-01 2.51401E-06-1.69073E+00-1.02838E-13 5.58714E-14
 -1      8939 1.40795E+00 8.58632E-01 2.50512E-06-1.73413E+00 4.89532E-08 4.17970E-08
 -1      8940 1.73894E+00 5.27662E-01 6.54550E-06-1.86396E+00 4.31770E-08 3.13586E-08
 -1      8945 1.68264E+00 5.83939E-01 2.53973E-06-1.69073E+00 1.22874E-07 8.92955E-08
 -1      8946 1.40795E+00 8.58632E-01 2.53087E-06-1.73413E+00 1.69724E-07 1.44919E-07
 -1      8947 1.73894E+00 5.27662E-01 6.48214E-06-1.86396E+00 1.13285E-07 8.22449E-08
 -1      8952 1.68264E+00 5.83939E-01 2.53734E-06-1.69073E+00 3.31898E-07 2.41182E-07
 -1      8953 1.40795E+00 8.58632E-01 2.37168E-06-1.73413E+00 4.33449E-07 3.70136E-07
 -1      8954 1.73894E+00 5.27662E-01 6.26399E-06-1.86396E+00 1.21748E-07 8.82513E-08
 -1      8959 1.68264E+00 5.83939E-01 2.16347E-06-1.69073E+00 9.20373E-07 6.68776E-07
 -1      8960 1.40795E+00 8.58632E-01 1.59826E-06-1.73413E+00 1.36362E-06 1.16455E-06
 -1      8961 1.73894E+00 5.27663E-01 5.52049E-06-1.86396E+00-2.07397E-08-1.54974E-08
 -1      8966 1.68264E+00 5.83939E-01 9.43382E-07-1.69073E+00 2.75045E-06 1.99849E-06
 -1      8967 1.40795E+00 8.58632E-01 1.99469E-07-1.73413E+00 4.35901E-06 3.72285E-06
 -1      8968 1.73894E+00 5.27665E-01 4.01004E-06-1.86396E+00-6.13077E-07-4.45749E-07
 -1      8973 1.68264E+00 5.83939E-01-7.89700E-07-1.69073E+00 4.11673E-06 2.99093E-06
 -1      8977 2.17822E+00 8.83606E-02-7.91229E-07-1.43822E+00-4.53454E-06-2.31040E-06
 -1      8978 1.93039E+00 3.36197E-01 1.98965E-07-1.56439E+00-4.88791E-06-2.99577E-06
 -1      8979 2.28529E+00-1.86880E-02 4.01332E-06-1.58558E+00 6.76510E-07 3.44149E-07
 -1      8984 2.17822E+00 8.83608E-02 9.41533E-07-1.43822E+00-3.02981E-06-1.54362E-06
 -1      8985 1.93039E+00 3.36198E-01 1.59835E-06-1.56438E+00-1.52890E-06-9.37140E-07
 -1      8986 2.28529E+00-1.86902E-02 5.52376E-06-1.58558E+00 2.35564E-08 1.16804E-08
 -1      8991 2.17822E+00 8.83612E-02 2.16288E-06-1.43822E+00-1.01382E-06-5.16510E-07
 -1      8992 1.93039E+00 3.36198E-01 2.37201E-06-1.56439E+00-4.85870E-07-2.97882E-07
 -1      8993 2.28529E+00-1.86909E-02 6.26773E-06-1.58558E+00-1.33856E-07-6.83394E-08
 -1      8998 2.17822E+00 8.83609E-02 2.53740E-06-1.43822E+00-3.65586E-07-1.86247E-07
 -1      8999 1.93039E+00 3.36198E-01 2.53134E-06-1.56439E+00-1.90220E-07-1.16645E-07
 -1      9000 2.28529E+00-1.86911E-02 6.48624E-06-1.58558E+00-1.24695E-07-6.35773E-08
 -1      9005 2.17822E+00 8.83607E-02 2.54005E-06-1.43822E+00-1.35351E-07-6.89506E-08
 -1      9006 1.93039E+00 3.36198E-01 2.50564E-06-1.56439E+00-5.48619E-08-3.36445E-08
 -1      9007 2.28529E+00-1.86911E-02 6.54975E-06-1.58558E+00-4.75403E-08-2.42305E-08
 -1      9012 2.17822E+00 8.83606E-02 2.51441E-06-1.43822E+00 3.83491E-14 6.46377E-14
 -1      9013 1.93039E+00 3.36198E-01 2.50564E-06-1.56439E+00 5.48618E-08 3.36446E-08
 -1      9014 2.28529E+00-1.86911E-02 6.54975E-06-1.58558E+00 4.75403E-08 2.42306E-08
 -1      9019 2.17822E+00 8.83607E-02 2.54005E-06-1.43822E+00 1.35351E-07 6.89507E-08
 -1      9020 1.93039E+00 3.36198E-01 2.53134E-06-1.56439E+00 1.90220E-07 1.16645E-07
 -1      9021 2.28529E+00-1.86911E-02 6.48624E-06-1.58558E+00 1.24695E-07 6.35775E-08
 -1      9026 2.17822E+00 8.83609E-02 2.53740E-06-1.43822E+00 3.65586E-07 1.86247E-07
 -1      9027 1.93039E+00 3.36198E-01 2.37201E-06-1.56439E+00 4.85870E-07 2.97882E-07
 -1      9028 2.28529E+00-1.86909E-02 6.26773E-06-1.58558E+00 1.33856E-07 6.83395E-08
 -1      9033 2.17822E+00 8.83612E-02 2.16288E-06-1.43822E+00 1.01382E-06 5.16510E-07
 -1      9034 1.93039E+00 3.36198E-01 1.59835E-06-1.56438E+00 1.52890E-06 9.37140E-07
 -1      9035 2.28529E+00-1.86902E-02 5.52376E-06-1.58558E+00-2.35564E-08-1.16803E-08
 -1      9040 2.17822E+00 8.83608E-02 9.41533E-07-1.43822E+00 3.02981E-06 1.54362E-06
 -1      9041 1.93039E+00 3.36197E-01 1.98965E-07-1.56439E+00 4.88791E-06 2.99577E-06
 -1      9042 2.28529E+00-1.86880E-02 4.01332E-06-1.58558E+00-6.76510E-07-3.44149E-07
 -1      9047 2.17822E+00 8.83606E-02-7.91229E-07-1.43822E+00 4.53454E-06 2.31040E-06
 -1      9051 2.57152E+00-3.04932E-01-7.88525E-07-1.04493E+00-4.83900E-06-1.57222E-06
 -1      9052 2.37479E+00-1.08212E-01 1.99396E-07-1.24150E+00-5.29627E-06-2.19338E-06
 -1      9053 2.71888E+00-4.52276E-01 4.00796E-06-1.15199E+00 7.19086E-07 2.33135E-07
 -1      9058 2.57152E+00-3.04932E-01 9.44903E-07-1.04493E+00-3.23323E-06-1.05040E-06
 -1      9059 2.37480E+00-1.08211E-01 1.59829E-06-1.24150E+00-1.65683E-06-6.86015E-07
 -1      9060 2.71888E+00-4.52279E-01 5.51842E-06-1.15199E+00 2.40360E-08 7.51407E-09
 -1      9065 2.57152E+00-3.04932E-01 2.16413E-06-1.04493E+00-1.08209E-06-3.51542E-07
 -1      9066 2.37479E+00-1.08211E-01 2.37169E-06-1.24150E+00-5.26673E-07-2.17971E-07
 -1      9067 2.71888E+00-4.52279E-01 6.26170E-06-1.15199E+00-1.43197E-07-4.66515E-08
 -1      9072 2.57152E+00-3.04932E-01 2.53756E-06-1.04493E+00-3.90308E-07-1.26794E-07
 -1      9073 2.37479E+00-1.08211E-01 2.53087E-06-1.24150E+00-2.06238E-07-8.53234E-08
 -1      9074 2.71888E+00-4.52280E-01 6.47971E-06-1.15199E+00-1.33240E-07-4.33331E-08
 -1      9079 2.57152E+00-3.04933E-01 2.53975E-06-1.04493E+00-1.44523E-07-4.69457E-08
 -1      9080 2.37479E+00-1.08211E-01 2.50512E-06-1.24150E+00-5.94864E-08-2.46067E-08
 -1      9081 2.71888E+00-4.52280E-01 6.54304E-06-1.15199E+00-5.07807E-08-1.65071E-08
 -1      9086 2.57152E+00-3.04933E-01 2.51399E-06-1.04493E+00-1.02628E-14-4.38603E-15
 -1      9087 2.37479E+00-1.08211E-01 2.50512E-06-1.24150E+00 5.94863E-08 2.46067E-08
 -1      9088 2.71888E+00-4.52280E-01 6.54304E-06-1.15199E+00 5.07806E-08 1.65072E-08
 -1      9093 2.57152E+00-3.04933E-01 2.53975E-06-1.04493E+00 1.44523E-07 4.69457E-08
 -1      9094 2.37479E+00-1.08211E-01 2.53087E-06-1.24150E+00 2.06238E-07 8.53234E-08
 -1      9095 2.71888E+00-4.52280E-01 6.47971E-06-1.15199E+00 1.33240E-07 4.33332E-08
 -1      9100 2.57152E+00-3.04932E-01 2.53756E-06-1.04493E+00 3.90308E-07 1.26794E-07
 -1      9101 2.37479E+00-1.08211E-01 2.37169E-06-1.24150E+00 5.26673E-07 2.17971E-07
 -1      9102 2.71888E+00-4.52279E-01 6.26170E-06-1.15199E+00 1.43197E-07 4.66516E-08
 -1      9107 2.57152E+00-3.04932E-01 2.16413E-06-1.04493E+00 1.08209E-06 3.51542E-07
 -1      9108 2.37480E+00-1.08211E-01 1.59829E-06-1.24150E+00 1.65683E-06 6.86015E-07
 -1      9109 2.71888E+00-4.52279E-01 5.51842E-06-1.15199E+00-2.40361E-08-7.51400E-09
 -1      9114 2.57152E+00-3.04932E-01 9.44903E-07-1.04493E+00 3.23323E-06 1.05040E-06
 -1      9115 2.37479E+00-1.08212E-01 1.99396E-07-1.24150E+00 5.29627E-06 2.19338E-06
 -1      9116 2.71888E+00-4.52276E-01 4.00796E-06-1.15199E+00-7.19086E-07-2.33135E-07
 -1      9121 2.57152E+00-3.04932E-01-7.88525E-07-1.04493E+00 4.83900E-06 1.57222E-06
 -1      9125 2.82402E+00-5.57442E-01-7.90044E-07-5.49353E-01-5.02605E-06-7.95975E-07
 -1      9126 2.69768E+00-4.31094E-01 1.99823E-07-7.97094E-01-5.57358E-06-1.33850E-06
 -1      9127 2.99726E+00-7.30657E-01 4.01127E-06-6.05637E-01 7.47559E-07 1.18634E-07
 -1      9132 2.82403E+00-5.57442E-01 9.43077E-07-5.49353E-01-3.35823E-06-5.32009E-07
 -1      9133 2.69768E+00-4.31093E-01 1.59825E-06-7.97094E-01-1.74364E-06-4.18810E-07
 -1      9134 2.99726E+00-7.30659E-01 5.52171E-06-6.05637E-01 2.52240E-08 4.33539E-09
 -1      9139 2.82403E+00-5.57442E-01 2.16357E-06-5.49353E-01-1.12386E-06-1.78073E-07
 -1      9140 2.69768E+00-4.31093E-01 2.37137E-06-7.97094E-01-5.54298E-07-1.33199E-07
 -1      9141 2.99726E+00-7.30660E-01 6.26547E-06-6.05637E-01-1.48697E-07-2.33856E-08
 -1      9146 2.82403E+00-5.57442E-01 2.53763E-06-5.49353E-01-4.05350E-07-6.42395E-08
 -1      9147 2.69768E+00-4.31093E-01 2.53041E-06-7.97094E-01-2.17061E-07-5.21812E-08
 -1      9148 2.99726E+00-7.30661E-01 6.48383E-06-6.05637E-01-1.38368E-07-2.18752E-08
 -1      9153 2.82403E+00-5.57442E-01 2.54009E-06-5.49353E-01-1.50093E-07-2.37921E-08
 -1      9154 2.69768E+00-4.31094E-01 2.50461E-06-7.97094E-01-6.26089E-08-1.50535E-08
 -1      9155 2.99726E+00-7.30661E-01 6.54733E-06-6.05637E-01-5.27365E-08-8.34741E-09
 -1      9160 2.82403E+00-5.57442E-01 2.51440E-06-5.49353E-01-2.42367E-14-1.41000E-14
 -1      9161 2.69768E+00-4.31094E-01 2.50461E-06-7.97094E-01 6.26088E-08 1.50535E-08
 -1      9162 2.99726E+00-7.30661E-01 6.54733E-06-6.05637E-01 5.27364E-08 8.34743E-09
 -1      9167 2.82403E+00-5.57442E-01 2.54009E-06-5.49353E-01 1.50093E-07 2.37921E-08
 -1      9168 2.69768E+00-4.31093E-01 2.53041E-06-7.97094E-01 2.17061E-07 5.21813E-08
 -1      9169 2.99726E+00-7.30661E-01 6.48383E-06-6.05637E-01 1.38368E-07 2.18752E-08
 -1      9174 2.82403E+00-5.57442E-01 2.53763E-06-5.49353E-01 4.05350E-07 6.42395E-08
 -1      9175 2.69768E+00-4.31093E-01 2.37137E-06-7.97094E-01 5.54298E-07 1.33199E-07
 -1      9176 2.99726E+00-7.30660E-01 6.26547E-06-6.05637E-01 1.48697E-07 2.33856E-08
 -1      9181 2.82403E+00-5.57442E-01 2.16357E-06-5.49353E-01 1.12386E-06 1.78073E-07
 -1      9182 2.69768E+00-4.31093E-01 1.59825E-06-7.97094E-01 1.74364E-06 4.18810E-07
 -1      9183 2.99726E+00-7.30659E-01 5.52171E-06-6.05637E-01-2.52239E-08-4.33536E-09
 -1      9188 2.82403E+00-5.57442E-01 9.43077E-07-5.49353E-01 3.35823E-06 5.32009E-07
 -1      9189 2.69768E+00-4.31094E-01 1.99823E-07-7.97094E-01 5.57358E-06 1.33850E-06
 -1      9190 2.99726E+00-7.30657E-01 4.01127E-06-6.05637E-01-7.47559E-07-1.18634E-07
 -1      9195 2.82402E+00-5.57442E-01-7.90044E-07-5.49353E-01 5.02605E-06 7.95975E-07
 -1      9199 2.86743E+00-6.00843E-01 1.99334E-07-2.74660E-01-5.71487E-06-4.49712E-07
 -1      9203 2.86743E+00-6.00842E-01 1.59829E-06-2.74660E-01-1.78774E-06-1.40626E-07
 -1      9207 2.86743E+00-6.00842E-01 2.37164E-06-2.74660E-01-5.68263E-07-4.46732E-08
 -1      9211 2.86743E+00-6.00843E-01 2.53081E-06-2.74660E-01-2.22522E-07-1.74847E-08
 -1      9215 2.86743E+00-6.00843E-01 2.50506E-06-2.74660E-01-6.41837E-08-5.04224E-09
 -1      9219 2.86743E+00-6.00843E-01 2.50506E-06-2.74660E-01 6.41836E-08 5.04223E-09
 -1      9223 2.86743E+00-6.00843E-01 2.53081E-06-2.74660E-01 2.22522E-07 1.74847E-08
 -1      9227 2.86743E+00-6.00842E-01 2.37164E-06-2.74660E-01 5.68263E-07 4.46732E-08
 -1      9231 2.86743E+00-6.00842E-01 1.59829E-06-2.74660E-01 1.78774E-06 1.40626E-07
 -1      9235 2.86743E+00-6.00843E-01 1.99334E-07-2.74660E-01 5.71487E-06 4.49712E-07
 -1      9241-2.87885E-01 2.55448E+00 3.08325E-06-4.61770E-01 4.13344E-07 2.60976E-06
 -1      9242-3.24756E-01 2.59135E+00 5.11741E-06-2.30933E-01 3.18776E-07 4.05043E-06
 -1      9243-4.22710E-01 2.68926E+00-4.45671E-06-5.05570E-01-1.33624E-07-8.43679E-07
 -1      9248-2.87884E-01 2.55448E+00 5.82964E-06-4.61770E-01 4.15302E-07 2.62211E-06
 -1      9249-3.24758E-01 2.59135E+00 5.96734E-06-2.30933E-01 1.41974E-07 1.80394E-06
 -1      9250-4.22709E-01 2.68926E+00-6.49856E-06-5.05569E-01-3.89718E-08-2.46065E-07
 -1      9255-2.87885E-01 2.55448E+00 6.20115E-06-4.61770E-01 1.94001E-07 1.22486E-06
 -1      9256-3.24758E-01 2.59135E+00 5.94144E-06-2.30933E-01 5.36184E-08 6.81282E-07
 -1      9257-4.22709E-01 2.68926E+00-7.70149E-06-5.05569E-01-1.24187E-08-7.84172E-08
 -1      9262-2.87885E-01 2.55448E+00 5.85651E-06-4.61770E-01 7.59845E-08 4.79743E-07
 -1      9263-3.24758E-01 2.59135E+00 5.73002E-06-2.30933E-01 2.17075E-08 2.75816E-07
 -1      9264-4.22709E-01 2.68926E+00-8.16589E-06-5.05569E-01-8.90876E-10-5.63111E-09
 -1      9269-2.87885E-01 2.55448E+00 5.67414E-06-4.61770E-01 2.83035E-08 1.78699E-07
 -1      9270-3.24758E-01 2.59135E+00 5.63314E-06-2.30933E-01 6.14595E-09 7.80903E-08
 -1      9271-4.22709E-01 2.68926E+00-8.30741E-06-5.05569E-01 6.93612E-10 4.37714E-09
 -1      9276-2.87885E-01 2.55448E+00 5.62755E-06-4.61770E-01 7.05168E-15-4.21944E-15
 -1      9277-3.24758E-01 2.59135E+00 5.63314E-06-2.30933E-01-6.14594E-09-7.80903E-08
 -1      9278-4.22709E-01 2.68926E+00-8.30741E-06-5.05569E-01-6.93627E-10-4.37706E-09
 -1      9283-2.87885E-01 2.55448E+00 5.67414E-06-4.61770E-01-2.83035E-08-1.78699E-07
 -1      9284-3.24758E-01 2.59135E+00 5.73002E-06-2.30933E-01-2.17075E-08-2.75816E-07
 -1      9285-4.22709E-01 2.68926E+00-8.16589E-06-5.05569E-01 8.90877E-10 5.63128E-09
 -1      9290-2.87885E-01 2.55448E+00 5.85651E-06-4.61770E-01-7.59845E-08-4.79742E-07
 -1      9291-3.24758E-01 2.59135E+00 5.94144E-06-2.30933E-01-5.36184E-08-6.81282E-07
 -1      9292-4.22709E-01 2.68926E+00-7.70149E-06-5.05569E-01 1.24187E-08 7.84172E-08
 -1      9297-2.87885E-01 2.55448E+00 6.20115E-06-4.61770E-01-1.94001E-07-1.22486E-06
 -1      9298-3.24758E-01 2.59135E+00 5.96734E-06-2.30933E-01-1.41973E-07-1.80394E-06
 -1      9299-4.22709E-01 2.68926E+00-6.49856E-06-5.05569E-01 3.89718E-08 2.46065E-07
 -1      9304-2.87884E-01 2.55448E+00 5.82964E-06-4.61770E-01-4.15302E-07-2.62211E-06
 -1      9305-3.24756E-01 2.59135E+00 5.11741E-06-2.30933E-01-3.18776E-07-4.05043E-06
 -1      9306-4.22710E-01 2.68926E+00-4.45671E-06-5.05570E-01 1.33624E-07 8.43679E-07
 -1      9311-2.87885E-01 2.55448E+00 3.08325E-06-4.61770E-01-4.13344E-07-2.60976E-06
 -1      9315-7.56330E-02 2.34223E+00 3.08325E-06-8.78339E-01 8.16511E-07 2.51297E-06
 -1      9316-1.82032E-01 2.44863E+00 5.11741E-06-6.70194E-01 9.48479E-07 3.95070E-06
 -1      9317-1.90325E-01 2.45687E+00-4.45670E-06-9.61650E-01-2.63961E-07-8.12393E-07
 -1      9322-7.56318E-02 2.34223E+00 5.82964E-06-8.78338E-01 8.20377E-07 2.52486E-06
 -1      9323-1.82033E-01 2.44863E+00 5.96734E-06-6.70194E-01 4.22424E-07 1.75952E-06
 -1      9324-1.90324E-01 2.45687E+00-6.49856E-06-9.61650E-01-7.69855E-08-2.36942E-07
 -1      9329-7.56328E-02 2.34223E+00 6.20115E-06-8.78339E-01 3.83223E-07 1.17943E-06
 -1      9330-1.82034E-01 2.44863E+00 5.94144E-06-6.70194E-01 1.59534E-07 6.64505E-07
 -1      9331-1.90324E-01 2.45687E+00-7.70148E-06-9.61650E-01-2.45325E-08-7.55114E-08
 -1      9336-7.56330E-02 2.34223E+00 5.85651E-06-8.78339E-01 1.50097E-07 4.61948E-07
 -1      9337-1.82033E-01 2.44863E+00 5.73002E-06-6.70194E-01 6.45876E-08 2.69024E-07
 -1      9338-1.90324E-01 2.45687E+00-8.16589E-06-9.61650E-01-1.76041E-09-5.42415E-09
 -1      9343-7.56330E-02 2.34223E+00 5.67414E-06-8.78339E-01 5.59095E-08 1.72070E-07
 -1      9344-1.82033E-01 2.44863E+00 5.63314E-06-6.70194E-01 1.82863E-08 7.61671E-08
 -1      9345-1.90324E-01 2.45687E+00-8.30741E-06-9.61650E-01 1.36991E-09 4.21419E-09
 -1      9350-7.56330E-02 2.34223E+00 5.62755E-06-8.78339E-01-8.57860E-15-1.18733E-14
 -1      9351-1.82033E-01 2.44863E+00 5.63314E-06-6.70194E-01-1.82864E-08-7.61671E-08
 -1      9352-1.90324E-01 2.45687E+00-8.30741E-06-9.61650E-01-1.36995E-09-4.21408E-09
 -1      9357-7.56330E-02 2.34223E+00 5.67414E-06-8.78339E-01-5.59095E-08-1.72070E-07
 -1      9358-1.82033E-01 2.44863E+00 5.73002E-06-6.70194E-01-6.45876E-08-2.69024E-07
 -1      9359-1.90324E-01 2.45687E+00-8.16589E-06-9.61650E-01 1.76034E-09 5.42406E-09
 -1      9364-7.56330E-02 2.34223E+00 5.85651E-06-8.78339E-01-1.50097E-07-4.61948E-07
 -1      9365-1.82034E-01 2.44863E+00 5.94144E-06-6.70194E-01-1.59534E-07-6.64505E-07
 -1      9366-1.90324E-01 2.45687E+00-7.70148E-06-9.61650E-01 2.45325E-08 7.55115E-08
 -1      9371-7.56328E-02 2.34223E+00 6.20115E-06-8.78339E-01-3.83223E-07-1.17943E-06
 -1      9372-1.82033E-01 2.44863E+00 5.96734E-06-6.70194E-01-4.22424E-07-1.75952E-06
 -1      9373-1.90324E-01 2.45687E+00-6.49856E-06-9.61650E-01 7.69854E-08 2.36942E-07
 -1      9378-7.56318E-02 2.34223E+00 5.82964E-06-8.78338E-01-8.20377E-07-2.52486E-06
 -1      9379-1.82032E-01 2.44863E+00 5.11741E-06-6.70194E-01-9.48479E-07-3.95070E-06
 -1      9380-1.90325E-01 2.45687E+00-4.45670E-06-9.61650E-01 2.63961E-07 8.12393E-07
 -1      9385-7.56330E-02 2.34223E+00 3.08325E-06-8.78339E-01-8.16511E-07-2.51297E-06
 -1      9389 2.54958E-01 2.01163E+00 3.08326E-06-1.20893E+00 1.19957E-06 2.35430E-06
 -1      9390 8.94465E-02 2.17715E+00 5.11742E-06-1.04385E+00 1.55482E-06 3.75368E-06
 -1      9391 1.71623E-01 2.09492E+00-4.45670E-06-1.32360E+00-3.87800E-07-7.61099E-07
 -1      9396 2.54959E-01 2.01164E+00 5.82964E-06-1.20893E+00 1.20525E-06 2.36544E-06
 -1      9397 8.94448E-02 2.17715E+00 5.96734E-06-1.04385E+00 6.92472E-07 1.67177E-06
 -1      9398 1.71624E-01 2.09492E+00-6.49856E-06-1.32360E+00-1.13107E-07-2.21982E-07
 -1      9403 2.54958E-01 2.01164E+00 6.20115E-06-1.20893E+00 5.63008E-07 1.10496E-06
 -1      9404 8.94447E-02 2.17715E+00 5.94144E-06-1.04385E+00 2.61521E-07 6.31367E-07
 -1      9405 1.71624E-01 2.09492E+00-7.70148E-06-1.32360E+00-3.60463E-08-7.07438E-08
 -1      9410 2.54958E-01 2.01164E+00 5.85652E-06-1.20893E+00 2.20513E-07 4.32780E-07
 -1      9411 8.94447E-02 2.17715E+00 5.73002E-06-1.04385E+00 1.05876E-07 2.55607E-07
 -1      9412 1.71624E-01 2.09492E+00-8.16588E-06-1.32360E+00-2.58912E-09-5.08232E-09
 -1      9417 2.54958E-01 2.01164E+00 5.67414E-06-1.20893E+00 8.21386E-08 1.61206E-07
 -1      9418 8.94447E-02 2.17715E+00 5.63314E-06-1.04385E+00 2.99761E-08 7.23686E-08
 -1      9419 1.71624E-01 2.09492E+00-8.30740E-06-1.32360E+00 2.01162E-09 3.94771E-09
 -1      9424 2.54958E-01 2.01164E+00 5.62755E-06-1.20893E+00-6.32869E-14 1.79173E-14
 -1      9425 8.94447E-02 2.17715E+00 5.63314E-06-1.04385E+00-2.99762E-08-7.23685E-08
 -1      9426 1.71624E-01 2.09492E+00-8.30740E-06-1.32360E+00-2.01174E-09-3.94770E-09
 -1      9431 2.54958E-01 2.01164E+00 5.67414E-06-1.20893E+00-8.21387E-08-1.61206E-07
 -1      9432 8.94447E-02 2.17715E+00 5.73002E-06-1.04385E+00-1.05876E-07-2.55607E-07
 -1      9433 1.71624E-01 2.09492E+00-8.16588E-06-1.32360E+00 2.58906E-09 5.08237E-09
 -1      9438 2.54958E-01 2.01164E+00 5.85652E-06-1.20893E+00-2.20513E-07-4.32780E-07
 -1      9439 8.94447E-02 2.17715E+00 5.94144E-06-1.04385E+00-2.61521E-07-6.31367E-07
 -1      9440 1.71624E-01 2.09492E+00-7.70148E-06-1.32360E+00 3.60462E-08 7.07438E-08
 -1      9445 2.54958E-01 2.01164E+00 6.20115E-06-1.20893E+00-5.63008E-07-1.10496E-06
 -1      9446 8.94448E-02 2.17715E+00 5.96734E-06-1.04385E+00-6.92472E-07-1.67177E-06
 -1      9447 1.71624E-01 2.09492E+00-6.49856E-06-1.32360E+00 1.13107E-07 2.21982E-07
 -1      9452 2.54959E-01 2.01164E+00 5.82964E-06-1.20893E+00-1.20525E-06-2.36544E-06
 -1      9453 8.94465E-02 2.17715E+00 5.11742E-06-1.04385E+00-1.55482E-06-3.75368E-06
 -1      9454 1.71623E-01 2.09492E+00-4.45670E-06-1.32360E+00 3.87800E-07 7.61099E-07
 -1      9459 2.54958E-01 2.01163E+00 3.08326E-06-1.20893E+00-1.19957E-06-2.35430E-06
 -1      9463 6.71526E-01 1.59507E+00 3.08325E-06-1.42118E+00 1.55309E-06 2.13768E-06
 -1      9464 4.63104E-01 1.80349E+00 5.11741E-06-1.31533E+00 2.12289E-06 3.46424E-06
 -1      9465 6.27704E-01 1.63884E+00-4.45665E-06-1.55598E+00-5.02082E-07-6.91083E-07
 -1      9470 6.71528E-01 1.59507E+00 5.82962E-06-1.42118E+00 1.56045E-06 2.14778E-06
 -1      9471 4.63103E-01 1.80349E+00 5.96733E-06-1.31533E+00 9.45469E-07 1.54286E-06
 -1      9472 6.27704E-01 1.63884E+00-6.49852E-06-1.55598E+00-1.46443E-07-2.01559E-07
 -1      9477 6.71527E-01 1.59507E+00 6.20113E-06-1.42118E+00 7.28929E-07 1.00329E-06
 -1      9478 4.63102E-01 1.80349E+00 5.94143E-06-1.31533E+00 3.57068E-07 5.82682E-07
 -1      9479 6.27704E-01 1.63884E+00-7.70145E-06-1.55598E+00-4.66704E-08-6.42349E-08
 -1      9484 6.71527E-01 1.59507E+00 5.85649E-06-1.42118E+00 2.85499E-07 3.92953E-07
 -1      9485 4.63102E-01 1.80349E+00 5.73001E-06-1.31533E+00 1.44558E-07 2.35897E-07
 -1      9486 6.27704E-01 1.63884E+00-8.16585E-06-1.55598E+00-3.35272E-09-4.61446E-09
 -1      9491 6.71527E-01 1.59507E+00 5.67411E-06-1.42118E+00 1.06345E-07 1.46370E-07
 -1      9492 4.63102E-01 1.80349E+00 5.63312E-06-1.31533E+00 4.09277E-08 6.67879E-08
 -1      9493 6.27704E-01 1.63884E+00-8.30737E-06-1.55598E+00 2.60425E-09 3.58458E-09
 -1      9498 6.71527E-01 1.59507E+00 5.62752E-06-1.42118E+00 7.68096E-15-3.80383E-14
 -1      9499 4.63102E-01 1.80349E+00 5.63312E-06-1.31533E+00-4.09277E-08-6.67879E-08
 -1      9500 6.27704E-01 1.63884E+00-8.30737E-06-1.55598E+00-2.60436E-09-3.58454E-09
 -1      9505 6.71527E-01 1.59507E+00 5.67411E-06-1.42118E+00-1.06345E-07-1.46370E-07
 -1      9506 4.63102E-01 1.80349E+00 5.73001E-06-1.31533E+00-1.44558E-07-2.35897E-07
 -1      9507 6.27704E-01 1.63884E+00-8.16585E-06-1.55598E+00 3.35273E-09 4.61452E-09
 -1      9512 6.71527E-01 1.59507E+00 5.85649E-06-1.42118E+00-2.85499E-07-3.92953E-07
 -1      9513 4.63102E-01 1.80349E+00 5.94143E-06-1.31533E+00-3.57068E-07-5.82682E-07
 -1      9514 6.27704E-01 1.63884E+00-7.70145E-06-1.55598E+00 4.66704E-08 6.42351E-08
 -1      9519 6.71527E-01 1.59507E+00 6.20113E-06-1.42118E+00-7.28929E-07-1.00329E-06
 -1      9520 4.63103E-01 1.80349E+00 5.96733E-06-1.31533E+00-9.45469E-07-1.54286E-06
 -1      9521 6.27704E-01 1.63884E+00-6.49852E-06-1.55598E+00 1.46442E-07 2.01559E-07
 -1      9526 6.71528E-01 1.59507E+00 5.82962E-06-1.42118E+00-1.56045E-06-2.14778E-06
 -1      9527 4.63104E-01 1.80349E+00 5.11741E-06-1.31533E+00-2.12289E-06-3.46424E-06
 -1      9528 6.27704E-01 1.63884E+00-4.45665E-06-1.55598E+00 5.02082E-07 6.91083E-07
 -1      9533 6.71526E-01 1.59507E+00 3.08325E-06-1.42118E+00-1.55309E-06-2.13768E-06
 -1      9537 1.13330E+00 1.13330E+00 3.08325E-06-1.49432E+00 1.86838E-06 1.86836E-06
 -1      9538 9.02365E-01 1.36423E+00 5.11745E-06-1.45805E+00 2.63868E-06 3.08948E-06
 -1      9539 1.13327E+00 1.13327E+00-4.45668E-06-1.63606E+00-6.04044E-07-6.04013E-07
 -1      9544 1.13330E+00 1.13330E+00 5.82964E-06-1.49432E+00 1.87720E-06 1.87724E-06
 -1      9545 9.02364E-01 1.36423E+00 5.96736E-06-1.45805E+00 1.17519E-06 1.37596E-06
 -1      9546 1.13327E+00 1.13327E+00-6.49849E-06-1.63606E+00-1.76195E-07-1.76179E-07
 -1      9551 1.13330E+00 1.13330E+00 6.20118E-06-1.49432E+00 8.76889E-07 8.76919E-07
 -1      9552 9.02363E-01 1.36423E+00 5.94146E-06-1.45805E+00 4.43823E-07 5.19649E-07
 -1      9553 1.13327E+00 1.13327E+00-7.70140E-06-1.63606E+00-5.61657E-08-5.61342E-08
 -1      9558 1.13330E+00 1.13330E+00 5.85655E-06-1.49432E+00 3.43445E-07 3.43466E-07
 -1      9559 9.02363E-01 1.36423E+00 5.73004E-06-1.45805E+00 1.79680E-07 2.10378E-07
 -1      9560 1.13327E+00 1.13327E+00-8.16579E-06-1.63606E+00-4.04642E-09-4.02372E-09
 -1      9565 1.13330E+00 1.13330E+00 5.67418E-06-1.49432E+00 1.27928E-07 1.27939E-07
 -1      9566 9.02363E-01 1.36423E+00 5.63316E-06-1.45805E+00 5.08715E-08 5.95631E-08
 -1      9567 1.13327E+00 1.13327E+00-8.30730E-06-1.63606E+00 3.12870E-09 3.13684E-09
 -1      9572 1.13330E+00 1.13330E+00 5.62759E-06-1.49432E+00 2.97500E-14 6.01510E-14
 -1      9573 9.02363E-01 1.36423E+00 5.63316E-06-1.45805E+00-5.08715E-08-5.95631E-08
 -1      9574 1.13327E+00 1.13327E+00-8.30730E-06-1.63606E+00-3.12866E-09-3.13676E-09
 -1      9579 1.13330E+00 1.13330E+00 5.67418E-06-1.49432E+00-1.27928E-07-1.27939E-07
 -1      9580 9.02363E-01 1.36423E+00 5.73004E-06-1.45805E+00-1.79680E-07-2.10378E-07
 -1      9581 1.13327E+00 1.13327E+00-8.16579E-06-1.63606E+00 4.04640E-09 4.02376E-09
 -1      9586 1.13330E+00 1.13330E+00 5.85655E-06-1.49432E+00-3.43445E-07-3.43466E-07
 -1      9587 9.02363E-01 1.36423E+00 5.94146E-06-1.45805E+00-4.43823E-07-5.19649E-07
 -1      9588 1.13327E+00 1.13327E+00-7.70140E-06-1.63606E+00 5.61656E-08 5.61342E-08
 -1      9593 1.13330E+00 1.13330E+00 6.20118E-06-1.49432E+00-8.76889E-07-8.76919E-07
 -1      9594 9.02364E-01 1.36423E+00 5.96736E-06-1.45805E+00-1.17519E-06-1.37596E-06
 -1      9595 1.13327E+00 1.13327E+00-6.49849E-06-1.63606E+00 1.76195E-07 1.76179E-07
 -1      9600 1.13330E+00 1.13330E+00 5.82964E-06-1.49432E+00-1.87720E-06-1.87724E-06
 -1      9601 9.02365E-01 1.36423E+00 5.11745E-06-1.45805E+00-2.63868E-06-3.08948E-06
 -1      9602 1.13327E+00 1.13327E+00-4.45668E-06-1.63606E+00 6.04044E-07 6.04013E-07
 -1      9607 1.13330E+00 1.13330E+00 3.08325E-06-1.49432E+00-1.86838E-06-1.86836E-06
 -1      9611 1.59507E+00 6.71526E-01 3.08310E-06-1.42118E+00 2.13772E-06 1.55321E-06
 -1      9612 1.36423E+00 9.02365E-01 5.11735E-06-1.45805E+00 3.08948E-06 2.63871E-06
 -1      9613 1.63884E+00 6.27704E-01-4.45641E-06-1.55598E+00-6.90894E-07-5.02191E-07
 -1      9618 1.59507E+00 6.71528E-01 5.82933E-06-1.42118E+00 2.14788E-06 1.56040E-06
 -1      9619 1.36423E+00 9.02364E-01 5.96728E-06-1.45805E+00 1.37596E-06 1.17518E-06
 -1      9620 1.63884E+00 6.27704E-01-6.49831E-06-1.55598E+00-2.01442E-07-1.46465E-07
 -1      9625 1.59507E+00 6.71527E-01 6.20077E-06-1.42118E+00 1.00334E-06 7.28875E-07
 -1      9626 1.36423E+00 9.02363E-01 5.94135E-06-1.45805E+00 5.19655E-07 4.43825E-07
 -1      9627 1.63884E+00 6.27704E-01-7.70130E-06-1.55598E+00-6.41630E-08-4.67027E-08
 -1      9632 1.59507E+00 6.71527E-01 5.85612E-06-1.42118E+00 3.92994E-07 2.85454E-07
 -1      9633 1.36423E+00 9.02363E-01 5.72992E-06-1.45805E+00 2.10383E-07 1.79681E-07
 -1      9634 1.63884E+00 6.27704E-01-8.16574E-06-1.55598E+00-4.56959E-09-3.37346E-09
 -1      9639 1.59507E+00 6.71527E-01 5.67374E-06-1.42118E+00 1.46391E-07 1.06320E-07
 -1      9640 1.36423E+00 9.02363E-01 5.63303E-06-1.45805E+00 5.95648E-08 5.08717E-08
 -1      9641 1.63884E+00 6.27704E-01-8.30728E-06-1.55598E+00 3.59969E-09 2.59715E-09
 -1      9646 1.59507E+00 6.71527E-01 5.62714E-06-1.42118E+00 1.82257E-14 2.85742E-15
 -1      9647 1.36423E+00 9.02363E-01 5.63303E-06-1.45805E+00-5.95647E-08-5.08718E-08
 -1      9648 1.63884E+00 6.27704E-01-8.30728E-06-1.55598E+00-3.59977E-09-2.59712E-09
 -1      9653 1.59507E+00 6.71527E-01 5.67374E-06-1.42118E+00-1.46391E-07-1.06320E-07
 -1      9654 1.36423E+00 9.02363E-01 5.72992E-06-1.45805E+00-2.10383E-07-1.79681E-07
 -1      9655 1.63884E+00 6.27704E-01-8.16574E-06-1.55598E+00 4.56955E-09 3.37346E-09
 -1      9660 1.59507E+00 6.71527E-01 5.85612E-06-1.42118E+00-3.92994E-07-2.85454E-07
 -1      9661 1.36423E+00 9.02363E-01 5.94135E-06-1.45805E+00-5.19655E-07-4.43825E-07
 -1      9662 1.63884E+00 6.27704E-01-7.70130E-06-1.55598E+00 6.41630E-08 4.67027E-08
 -1      9667 1.59507E+00 6.71527E-01 6.20077E-06-1.42118E+00-1.00334E-06-7.28875E-07
 -1      9668 1.36423E+00 9.02364E-01 5.96728E-06-1.45805E+00-1.37596E-06-1.17518E-06
 -1      9669 1.63884E+00 6.27704E-01-6.49831E-06-1.55598E+00 2.01442E-07 1.46465E-07
 -1      9674 1.59507E+00 6.71528E-01 5.82933E-06-1.42118E+00-2.14788E-06-1.56040E-06
 -1      9675 1.36423E+00 9.02365E-01 5.11735E-06-1.45805E+00-3.08948E-06-2.63871E-06
 -1      9676 1.63884E+00 6.27704E-01-4.45641E-06-1.55598E+00 6.90894E-07 5.02191E-07
 -1      9681 1.59507E+00 6.71526E-01 3.08310E-06-1.42118E+00-2.13772E-06-1.55321E-06
 -1      9685 2.01163E+00 2.54958E-01 3.08285E-06-1.20893E+00 2.35387E-06 1.19930E-06
 -1      9686 1.80349E+00 4.63104E-01 5.11785E-06-1.31533E+00 3.46427E-06 2.12279E-06
 -1      9687 2.09492E+00 1.71623E-01-4.45630E-06-1.32360E+00-7.61518E-07-3.87790E-07
 -1      9692 2.01164E+00 2.54959E-01 5.82902E-06-1.20893E+00 2.36510E-06 1.20518E-06
 -1      9693 1.80349E+00 4.63103E-01 5.96773E-06-1.31533E+00 1.54282E-06 9.45404E-07
 -1      9694 2.09492E+00 1.71624E-01-6.49785E-06-1.32360E+00-2.22325E-07-1.13179E-07
 -1      9699 2.01164E+00 2.54958E-01 6.20061E-06-1.20893E+00 1.10474E-06 5.62978E-07
 -1      9700 1.80349E+00 4.63102E-01 5.94184E-06-1.31533E+00 5.82616E-07 3.56979E-07
 -1      9701 2.09492E+00 1.71624E-01-7.70061E-06-1.32360E+00-7.09053E-08-3.60607E-08
 -1      9706 2.01164E+00 2.54958E-01 5.85596E-06-1.20893E+00 4.32611E-07 2.20487E-07
 -1      9707 1.80349E+00 4.63102E-01 5.73043E-06-1.31533E+00 2.35859E-07 1.44501E-07
 -1      9708 2.09492E+00 1.71624E-01-8.16488E-06-1.32360E+00-5.15842E-09-2.58649E-09
 -1      9713 2.01164E+00 2.54958E-01 5.67359E-06-1.20893E+00 1.61122E-07 8.21274E-08
 -1      9714 1.80349E+00 4.63102E-01 5.63355E-06-1.31533E+00 6.67767E-08 4.09091E-08
 -1      9715 2.09492E+00 1.71624E-01-8.30632E-06-1.32360E+00 3.92686E-09 2.01489E-09
 -1      9720 2.01164E+00 2.54958E-01 5.62701E-06-1.20893E+00 1.11768E-13-1.57218E-14
 -1      9721 1.80349E+00 4.63102E-01 5.63355E-06-1.31533E+00-6.67767E-08-4.09090E-08
 -1      9722 2.09492E+00 1.71624E-01-8.30632E-06-1.32360E+00-3.92683E-09-2.01487E-09
 -1      9727 2.01164E+00 2.54958E-01 5.67359E-06-1.20893E+00-1.61122E-07-8.21274E-08
 -1      9728 1.80349E+00 4.63102E-01 5.73043E-06-1.31533E+00-2.35859E-07-1.44501E-07
 -1      9729 2.09492E+00 1.71624E-01-8.16488E-06-1.32360E+00 5.15835E-09 2.58653E-09
 -1      9734 2.01164E+00 2.54958E-01 5.85596E-06-1.20893E+00-4.32611E-07-2.20487E-07
 -1      9735 1.80349E+00 4.63102E-01 5.94184E-06-1.31533E+00-5.82616E-07-3.56979E-07
 -1      9736 2.09492E+00 1.71624E-01-7.70061E-06-1.32360E+00 7.09053E-08 3.60607E-08
 -1      9741 2.01164E+00 2.54958E-01 6.20061E-06-1.20893E+00-1.10474E-06-5.62978E-07
 -1      9742 1.80349E+00 4.63103E-01 5.96773E-06-1.31533E+00-1.54282E-06-9.45404E-07
 -1      9743 2.09492E+00 1.71624E-01-6.49785E-06-1.32360E+00 2.22325E-07 1.13179E-07
 -1      9748 2.01164E+00 2.54959E-01 5.82902E-06-1.20893E+00-2.36510E-06-1.20518E-06
 -1      9749 1.80349E+00 4.63104E-01 5.11785E-06-1.31533E+00-3.46427E-06-2.12279E-06
 -1      9750 2.09492E+00 1.71623E-01-4.45630E-06-1.32360E+00 7.61518E-07 3.87790E-07
 -1      9755 2.01163E+00 2.54958E-01 3.08285E-06-1.20893E+00-2.35387E-06-1.19930E-06
 -1      9759 2.34223E+00-7.56330E-02 3.08365E-06-8.78339E-01 2.51345E-06 8.16617E-07
 -1      9760 2.17715E+00 8.94465E-02 5.11741E-06-1.04385E+00 3.75358E-06 1.55507E-06
 -1      9761 2.45687E+00-1.90325E-01-4.45713E-06-9.61650E-01-8.12081E-07-2.63655E-07
 -1      9766 2.34223E+00-7.56318E-02 5.83025E-06-8.78338E-01 2.52516E-06 8.20567E-07
 -1      9767 2.17715E+00 8.94448E-02 5.96734E-06-1.04385E+00 1.67174E-06 6.92572E-07
 -1      9768 2.45687E+00-1.90324E-01-6.49929E-06-9.61650E-01-2.36636E-07-7.67953E-08
 -1      9773 2.34223E+00-7.56328E-02 6.20168E-06-8.78339E-01 1.17962E-06 3.83359E-07
 -1      9774 2.17715E+00 8.94447E-02 5.94144E-06-1.04385E+00 6.31330E-07 2.61620E-07
 -1      9775 2.45687E+00-1.90324E-01-7.70237E-06-9.61650E-01-7.53751E-08-2.44294E-08
 -1      9780 2.34223E+00-7.56330E-02 5.85707E-06-8.78339E-01 4.62093E-07 1.50200E-07
 -1      9781 2.17715E+00 8.94447E-02 5.73003E-06-1.04385E+00 2.55582E-07 1.05944E-07
 -1      9782 2.45687E+00-1.90324E-01-8.16691E-06-9.61650E-01-5.36342E-09-1.70410E-09
 -1      9787 2.34223E+00-7.56330E-02 5.67469E-06-8.78339E-01 1.72141E-07 5.59618E-08
 -1      9788 2.17715E+00 8.94447E-02 5.63314E-06-1.04385E+00 7.23599E-08 2.99996E-08
 -1      9789 2.45687E+00-1.90324E-01-8.30851E-06-9.61650E-01 4.22975E-09 1.38735E-09
 -1      9794 2.34223E+00-7.56330E-02 5.62809E-06-8.78339E-01-1.24411E-13-3.27650E-14
 -1      9795 2.17715E+00 8.94447E-02 5.63314E-06-1.04385E+00-7.23599E-08-2.99996E-08
 -1      9796 2.45687E+00-1.90324E-01-8.30851E-06-9.61650E-01-4.22986E-09-1.38738E-09
 -1      9801 2.34223E+00-7.56330E-02 5.67469E-06-8.78339E-01-1.72141E-07-5.59618E-08
 -1      9802 2.17715E+00 8.94447E-02 5.73003E-06-1.04385E+00-2.55582E-07-1.05944E-07
 -1      9803 2.45687E+00-1.90324E-01-8.16691E-06-9.61650E-01 5.36346E-09 1.70409E-09
 -1      9808 2.34223E+00-7.56330E-02 5.85707E-06-8.78339E-01-4.62093E-07-1.50200E-07
 -1      9809 2.17715E+00 8.94447E-02 5.94144E-06-1.04385E+00-6.31330E-07-2.61620E-07
 -1      9810 2.45687E+00-1.90324E-01-7.70237E-06-9.61650E-01 7.53751E-08 2.44294E-08
 -1      9815 2.34223E+00-7.56328E-02 6.20168E-06-8.78339E-01-1.17962E-06-3.83359E-07
 -1      9816 2.17715E+00 8.94448E-02 5.96734E-06-1.04385E+00-1.67174E-06-6.92572E-07
 -1      9817 2.45687E+00-1.90324E-01-6.49929E-06-9.61650E-01 2.36636E-07 7.67953E-08
 -1      9822 2.34223E+00-7.56318E-02 5.83025E-06-8.78338E-01-2.52516E-06-8.20567E-07
 -1      9823 2.17715E+00 8.94465E-02 5.11741E-06-1.04385E+00-3.75358E-06-1.55507E-06
 -1      9824 2.45687E+00-1.90325E-01-4.45713E-06-9.61650E-01 8.12081E-07 2.63655E-07
 -1      9829 2.34223E+00-7.56330E-02 3.08365E-06-8.78339E-01-2.51345E-06-8.16617E-07
 -1      9833 2.55448E+00-2.87885E-01 3.08341E-06-4.61770E-01 2.60962E-06 4.13362E-07
 -1      9834 2.44863E+00-1.82032E-01 5.11699E-06-6.70194E-01 3.95075E-06 9.48383E-07
 -1      9835 2.68926E+00-4.22710E-01-4.45707E-06-5.05570E-01-8.43701E-07-1.33798E-07
 -1      9840 2.55448E+00-2.87884E-01 5.82997E-06-4.61770E-01 2.62208E-06 4.15191E-07
 -1      9841 2.44863E+00-1.82033E-01 5.96697E-06-6.70194E-01 1.75961E-06 4.22412E-07
 -1      9842 2.68926E+00-4.22709E-01-6.49886E-06-5.05569E-01-2.46116E-07-3.90702E-08
 -1      9847 2.55448E+00-2.87885E-01 6.20155E-06-4.61770E-01 1.22487E-06 1.93922E-07
 -1      9848 2.44863E+00-1.82034E-01 5.94106E-06-6.70194E-01 6.64624E-07 1.59520E-07
 -1      9849 2.68926E+00-4.22709E-01-7.70172E-06-5.05569E-01-7.84334E-08-1.24933E-08
 -1      9854 2.55448E+00-2.87885E-01 5.85693E-06-4.61770E-01 4.79755E-07 7.59276E-08
 -1      9855 2.44863E+00-1.82033E-01 5.72963E-06-6.70194E-01 2.69098E-07 6.45746E-08
 -1      9856 2.68926E+00-4.22709E-01-8.16608E-06-5.05569E-01-5.64131E-09-9.37237E-10
 -1      9861 2.55448E+00-2.87885E-01 5.67457E-06-4.61770E-01 1.78707E-07 2.82739E-08
 -1      9862 2.44863E+00-1.82033E-01 5.63274E-06-6.70194E-01 7.61907E-08 1.82814E-08
 -1      9863 2.68926E+00-4.22709E-01-8.30758E-06-5.05569E-01 4.37398E-09 6.77834E-10
 -1      9868 2.55448E+00-2.87885E-01 5.62799E-06-4.61770E-01-6.34956E-14-1.24038E-14
 -1      9869 2.44863E+00-1.82033E-01 5.63274E-06-6.70194E-01-7.61908E-08-1.82815E-08
 -1      9870 2.68926E+00-4.22709E-01-8.30758E-06-5.05569E-01-4.37401E-09-6.77862E-10
 -1      9875 2.55448E+00-2.87885E-01 5.67457E-06-4.61770E-01-1.78707E-07-2.82739E-08
 -1      9876 2.44863E+00-1.82033E-01 5.72963E-06-6.70194E-01-2.69098E-07-6.45746E-08
 -1      9877 2.68926E+00-4.22709E-01-8.16608E-06-5.05569E-01 5.64117E-09 9.37217E-10
 -1      9882 2.55448E+00-2.87885E-01 5.85693E-06-4.61770E-01-4.79755E-07-7.59276E-08
 -1      9883 2.44863E+00-1.82034E-01 5.94106E-06-6.70194E-01-6.64624E-07-1.59520E-07
 -1      9884 2.68926E+00-4.22709E-01-7.70172E-06-5.05569E-01 7.84334E-08 1.24933E-08
 -1      9889 2.55448E+00-2.87885E-01 6.20155E-06-4.61770E-01-1.22487E-06-1.93922E-07
 -1      9890 2.44863E+00-1.82033E-01 5.96697E-06-6.70194E-01-1.75961E-06-4.22412E-07
 -1      9891 2.68926E+00-4.22709E-01-6.49886E-06-5.05569E-01 2.46116E-07 3.90702E-08
 -1      9896 2.55448E+00-2.87884E-01 5.82997E-06-4.61770E-01-2.62208E-06-4.15191E-07
 -1      9897 2.44863E+00-1.82032E-01 5.11699E-06-6.70194E-01-3.95075E-06-9.48383E-07
 -1      9898 2.68926E+00-4.22710E-01-4.45707E-06-5.05570E-01 8.43701E-07 1.33798E-07
 -1      9903 2.55448E+00-2.87885E-01 3.08341E-06-4.61770E-01-2.60962E-06-4.13362E-07
 -1      9907 2.59135E+00-3.24756E-01 5.11745E-06-2.30933E-01 4.05044E-06 3.18815E-07
 -1      9911 2.59135E+00-3.24758E-01 5.96738E-06-2.30933E-01 1.80396E-06 1.41973E-07
 -1      9915 2.59135E+00-3.24758E-01 5.94151E-06-2.30933E-01 6.81288E-07 5.36173E-08
 -1      9919 2.59135E+00-3.24758E-01 5.73011E-06-2.30933E-01 2.75820E-07 2.17052E-08
 -1      9923 2.59135E+00-3.24758E-01 5.63323E-06-2.30933E-01 7.80916E-08 6.14483E-09
 -1      9927 2.59135E+00-3.24758E-01 5.63323E-06-2.30933E-01-7.80916E-08-6.14484E-09
 -1      9931 2.59135E+00-3.24758E-01 5.73011E-06-2.30933E-01-2.75820E-07-2.17052E-08
 -1      9935 2.59135E+00-3.24758E-01 5.94151E-06-2.30933E-01-6.81288E-07-5.36173E-08
 -1      9939 2.59135E+00-3.24758E-01 5.96738E-06-2.30933E-01-1.80396E-06-1.41973E-07
 -1      9943 2.59135E+00-3.24756E-01 5.11745E-06-2.30933E-01-4.05044E-06-3.18815E-07
 -1      9949-7.83661E-02 2.34494E+00-5.00514E-07-3.93690E-01-7.28392E-08-4.59892E-07
 -1      9950-1.09710E-01 2.37628E+00-1.33994E-06-1.96871E-01-1.03897E-07-1.32014E-06
 -1      9951-1.83233E-01 2.44982E+00 6.63529E-07-4.27765E-01 3.75565E-08 2.37122E-07
 -1      9956-7.83667E-02 2.34494E+00-1.37674E-06-3.93690E-01-1.33539E-07-8.43132E-07
 -1      9957-1.09709E-01 2.37628E+00-1.73162E-06-1.96871E-01-6.17278E-08-7.84327E-07
 -1      9958-1.83233E-01 2.44982E+00 1.36915E-06-4.27765E-01 4.56555E-08 2.88253E-07
 -1      9963-7.83662E-02 2.34494E+00-1.83505E-06-3.93690E-01-8.14801E-08-5.14446E-07
 -1      9964-1.09709E-01 2.37628E+00-1.70840E-06-1.96871E-01-1.98476E-08-2.52189E-07
 -1      9965-1.83233E-01 2.44982E+00 1.91468E-06-4.27765E-01 4.60518E-08 2.90756E-07
 -1      9970-7.83661E-02 2.34494E+00-1.71149E-06-3.93690E-01-2.38535E-08-1.50606E-07
 -1      9971-1.09709E-01 2.37628E+00-1.57896E-06-1.96871E-01-2.88309E-09-3.66341E-08
 -1      9972-1.83234E-01 2.44982E+00 2.23796E-06-4.27765E-01 2.74772E-08 1.73482E-07
 -1      9977-7.83661E-02 2.34494E+00-1.54308E-06-3.93690E-01-3.07062E-09-1.93879E-08
 -1      9978-1.09709E-01 2.37628E+00-1.48464E-06-1.96871E-01 1.46546E-10 1.86206E-09
 -1      9979-1.83234E-01 2.44982E+00 2.34284E-06-4.27765E-01 8.77185E-09 5.53826E-08
 -1      9984-7.83661E-02 2.34494E+00-1.48707E-06-3.93690E-01-1.52461E-14 1.49959E-14
 -1      9985-1.09709E-01 2.37628E+00-1.48464E-06-1.96871E-01-1.46567E-10-1.86204E-09
 -1      9986-1.83234E-01 2.44982E+00 2.34284E-06-4.27765E-01-8.77186E-09-5.53827E-08
 -1      9991-7.83661E-02 2.34494E+00-1.54308E-06-3.93690E-01 3.07065E-09 1.93879E-08
 -1      9992-1.09709E-01 2.37628E+00-1.57896E-06-1.96871E-01 2.88307E-09 3.66341E-08
 -1      9993-1.83234E-01 2.44982E+00 2.23796E-06-4.27765E-01-2.74772E-08-1.73482E-07
 -1      9998-7.83661E-02 2.34494E+00-1.71149E-06-3.93690E-01 2.38535E-08 1.50606E-07
 -1      9999-1.09709E-01 2.37628E+00-1.70840E-06-1.96871E-01 1.98476E-08 2.52189E-07
 -1     10000-1.83233E-01 2.44982E+00 1.91468E-06-4.27765E-01-4.60518E-08-2.90756E-07
 -1     10005-7.83662E-02 2.34494E+00-1.83505E-06-3.93690E-01 8.14802E-08 5.14446E-07
 -1     10006-1.09709E-01 2.37628E+00-1.73162E-06-1.96871E-01 6.17278E-08 7.84327E-07
 -1     10007-1.83233E-01 2.44982E+00 1.36915E-06-4.27765E-01-4.56555E-08-2.88253E-07
 -1     10012-7.83667E-02 2.34494E+00-1.37674E-06-3.93690E-01 1.33539E-07 8.43132E-07
 -1     10013-1.09710E-01 2.37628E+00-1.33994E-06-1.96871E-01 1.03897E-07 1.32014E-06
 -1     10014-1.83233E-01 2.44982E+00 6.63529E-07-4.27765E-01-3.75565E-08-2.37122E-07
 -1     10019-7.83661E-02 2.34494E+00-5.00514E-07-3.93690E-01 7.28392E-08 4.59892E-07
 -1     10023 1.02593E-01 2.16398E+00-5.00515E-07-7.48842E-01-1.43885E-07-4.42837E-07
 -1     10024 1.19630E-02 2.25461E+00-1.33994E-06-5.71342E-01-3.09134E-07-1.28764E-06
 -1     10025 1.33889E-02 2.25319E+00 6.63528E-07-8.13657E-01 7.41883E-08 2.28327E-07
 -1     10030 1.02593E-01 2.16398E+00-1.37674E-06-7.48842E-01-2.63789E-07-8.11863E-07
 -1     10031 1.19638E-02 2.25461E+00-1.73162E-06-5.71342E-01-1.83664E-07-7.65015E-07
 -1     10032 1.33889E-02 2.25320E+00 1.36915E-06-8.13657E-01 9.01861E-08 2.77561E-07
 -1     10037 1.02593E-01 2.16398E+00-1.83505E-06-7.48842E-01-1.60954E-07-4.95367E-07
 -1     10038 1.19641E-02 2.25461E+00-1.70840E-06-5.71342E-01-5.90542E-08-2.45980E-07
 -1     10039 1.33885E-02 2.25320E+00 1.91467E-06-8.13657E-01 9.09690E-08 2.79971E-07
 -1     10044 1.02593E-01 2.16398E+00-1.71149E-06-7.48842E-01-4.71201E-08-1.45021E-07
 -1     10045 1.19640E-02 2.25461E+00-1.57896E-06-5.71342E-01-8.57836E-09-3.57323E-08
 -1     10046 1.33884E-02 2.25320E+00 2.23796E-06-8.13657E-01 5.42773E-08 1.67047E-07
 -1     10051 1.02593E-01 2.16398E+00-1.54308E-06-7.48842E-01-6.06589E-09-1.86692E-08
 -1     10052 1.19640E-02 2.25461E+00-1.48464E-06-5.71342E-01 4.36055E-10 1.81608E-09
 -1     10053 1.33883E-02 2.25320E+00 2.34284E-06-8.13657E-01 1.73276E-08 5.33283E-08
 -1     10058 1.02593E-01 2.16398E+00-1.48707E-06-7.48842E-01-5.08686E-14 1.19436E-13
 -1     10059 1.19640E-02 2.25461E+00-1.48464E-06-5.71342E-01-4.36052E-10-1.81604E-09
 -1     10060 1.33883E-02 2.25320E+00 2.34284E-06-8.13657E-01-1.73276E-08-5.33282E-08
 -1     10065 1.02593E-01 2.16398E+00-1.54308E-06-7.48842E-01 6.06586E-09 1.86692E-08
 -1     10066 1.19640E-02 2.25461E+00-1.57896E-06-5.71342E-01 8.57837E-09 3.57324E-08
 -1     10067 1.33884E-02 2.25320E+00 2.23796E-06-8.13657E-01-5.42773E-08-1.67047E-07
 -1     10072 1.02593E-01 2.16398E+00-1.71149E-06-7.48842E-01 4.71201E-08 1.45021E-07
 -1     10073 1.19641E-02 2.25461E+00-1.70840E-06-5.71342E-01 5.90542E-08 2.45980E-07
 -1     10074 1.33885E-02 2.25320E+00 1.91467E-06-8.13657E-01-9.09690E-08-2.79971E-07
 -1     10079 1.02593E-01 2.16398E+00-1.83505E-06-7.48842E-01 1.60954E-07 4.95367E-07
 -1     10080 1.19638E-02 2.25461E+00-1.73162E-06-5.71342E-01 1.83664E-07 7.65015E-07
 -1     10081 1.33889E-02 2.25320E+00 1.36915E-06-8.13657E-01-9.01861E-08-2.77561E-07
 -1     10086 1.02593E-01 2.16398E+00-1.37674E-06-7.48842E-01 2.63789E-07 8.11863E-07
 -1     10087 1.19630E-02 2.25461E+00-1.33994E-06-5.71342E-01 3.09134E-07 1.28764E-06
 -1     10088 1.33889E-02 2.25319E+00 6.63528E-07-8.13657E-01-7.41883E-08-2.28327E-07
 -1     10093 1.02593E-01 2.16398E+00-5.00515E-07-7.48842E-01 1.43885E-07 4.42836E-07
 -1     10097 3.84444E-01 1.88213E+00-5.00513E-07-1.03069E+00-2.11388E-07-4.14877E-07
 -1     10098 2.43399E-01 2.02317E+00-1.33994E-06-8.89886E-01-5.06758E-07-1.22342E-06
 -1     10099 3.19635E-01 1.94695E+00 6.63523E-07-1.11990E+00 1.08993E-07 2.13912E-07
 -1     10104 3.84443E-01 1.88213E+00-1.37674E-06-1.03069E+00-3.87544E-07-7.60603E-07
 -1     10105 2.43400E-01 2.02317E+00-1.73162E-06-8.89886E-01-3.01077E-07-7.26865E-07
 -1     10106 3.19635E-01 1.94695E+00 1.36914E-06-1.11990E+00 1.32496E-07 2.60036E-07
 -1     10111 3.84444E-01 1.88213E+00-1.83505E-06-1.03069E+00-2.36465E-07-4.64090E-07
 -1     10112 2.43400E-01 2.02317E+00-1.70840E-06-8.89886E-01-9.68071E-08-2.33714E-07
 -1     10113 3.19634E-01 1.94695E+00 1.91467E-06-1.11990E+00 1.33646E-07 2.62293E-07
 -1     10118 3.84444E-01 1.88213E+00-1.71149E-06-1.03069E+00-6.92261E-08-1.35865E-07
 -1     10119 2.43400E-01 2.02317E+00-1.57896E-06-8.89886E-01-1.40627E-08-3.39508E-08
 -1     10120 3.19634E-01 1.94695E+00 2.23795E-06-1.11990E+00 7.97405E-08 1.56499E-07
 -1     10125 3.84444E-01 1.88213E+00-1.54308E-06-1.03069E+00-8.91178E-09-1.74905E-08
 -1     10126 2.43400E-01 2.02317E+00-1.48464E-06-8.89886E-01 7.14709E-10 1.72538E-09
 -1     10127 3.19634E-01 1.94695E+00 2.34284E-06-1.11990E+00 2.54564E-08 4.99610E-08
 -1     10132 3.84444E-01 1.88213E+00-1.48707E-06-1.03069E+00-7.09797E-15-1.05401E-13
 -1     10133 2.43400E-01 2.02317E+00-1.48464E-06-8.89886E-01-7.14773E-10-1.72536E-09
 -1     10134 3.19634E-01 1.94695E+00 2.34284E-06-1.11990E+00-2.54565E-08-4.99610E-08
 -1     10139 3.84444E-01 1.88213E+00-1.54308E-06-1.03069E+00 8.91178E-09 1.74906E-08
 -1     10140 2.43400E-01 2.02317E+00-1.57896E-06-8.89886E-01 1.40627E-08 3.39509E-08
 -1     10141 3.19634E-01 1.94695E+00 2.23795E-06-1.11990E+00-7.97406E-08-1.56499E-07
 -1     10146 3.84444E-01 1.88213E+00-1.71149E-06-1.03069E+00 6.92260E-08 1.35865E-07
 -1     10147 2.43400E-01 2.02317E+00-1.70840E-06-8.89886E-01 9.68070E-08 2.33714E-07
 -1     10148 3.19634E-01 1.94695E+00 1.91467E-06-1.11990E+00-1.33646E-07-2.62293E-07
 -1     10153 3.84444E-01 1.88213E+00-1.83505E-06-1.03069E+00 2.36465E-07 4.64090E-07
 -1     10154 2.43400E-01 2.02317E+00-1.73162E-06-8.89886E-01 3.01077E-07 7.26865E-07
 -1     10155 3.19635E-01 1.94695E+00 1.36914E-06-1.11990E+00-1.32496E-07-2.60036E-07
 -1     10160 3.84443E-01 1.88213E+00-1.37674E-06-1.03069E+00 3.87544E-07 7.60603E-07
 -1     10161 2.43399E-01 2.02317E+00-1.33994E-06-8.89886E-01 5.06759E-07 1.22342E-06
 -1     10162 3.19635E-01 1.94695E+00 6.63523E-07-1.11990E+00-1.08993E-07-2.13911E-07
 -1     10167 3.84444E-01 1.88213E+00-5.00513E-07-1.03069E+00 2.11388E-07 4.14877E-07
 -1     10171 7.39596E-01 1.52698E+00-5.00509E-07-1.21165E+00-2.73686E-07-3.76702E-07
 -1     10172 5.61943E-01 1.70463E+00-1.33994E-06-1.12132E+00-6.91906E-07-1.12909E-06
 -1     10173 7.05527E-01 1.56106E+00 6.63514E-07-1.31652E+00 1.41112E-07 1.94230E-07
 -1     10178 7.39596E-01 1.52698E+00-1.37673E-06-1.21165E+00-5.01761E-07-6.90615E-07
 -1     10179 5.61944E-01 1.70463E+00-1.73162E-06-1.12132E+00-4.11078E-07-6.70819E-07
 -1     10180 7.05527E-01 1.56106E+00 1.36913E-06-1.31653E+00 1.71544E-07 2.36109E-07
 -1     10185 7.39596E-01 1.52698E+00-1.83505E-06-1.21165E+00-3.06155E-07-4.21387E-07
 -1     10186 5.61944E-01 1.70463E+00-1.70841E-06-1.12132E+00-1.32176E-07-2.15693E-07
 -1     10187 7.05527E-01 1.56106E+00 1.91466E-06-1.31653E+00 1.73032E-07 2.38157E-07
 -1     10192 7.39596E-01 1.52698E+00-1.71149E-06-1.21165E+00-8.96284E-08-1.23363E-07
 -1     10193 5.61944E-01 1.70463E+00-1.57896E-06-1.12132E+00-1.92008E-08-3.13332E-08
 -1     10194 7.05527E-01 1.56106E+00 2.23795E-06-1.31653E+00 1.03241E-07 1.42098E-07
 -1     10199 7.39596E-01 1.52698E+00-1.54307E-06-1.21165E+00-1.15385E-08-1.58813E-08
 -1     10200 5.61944E-01 1.70463E+00-1.48464E-06-1.12132E+00 9.75772E-10 1.59221E-09
 -1     10201 7.05527E-01 1.56106E+00 2.34283E-06-1.31653E+00 3.29586E-08 4.53633E-08
 -1     10206 7.39596E-01 1.52698E+00-1.48706E-06-1.21165E+00-1.42373E-16 5.99063E-15
 -1     10207 5.61944E-01 1.70463E+00-1.48464E-06-1.12132E+00-9.75800E-10-1.59223E-09
 -1     10208 7.05527E-01 1.56106E+00 2.34283E-06-1.31653E+00-3.29586E-08-4.53633E-08
 -1     10213 7.39596E-01 1.52698E+00-1.54307E-06-1.21165E+00 1.15385E-08 1.58814E-08
 -1     10214 5.61944E-01 1.70463E+00-1.57896E-06-1.12132E+00 1.92008E-08 3.13333E-08
 -1     10215 7.05527E-01 1.56106E+00 2.23795E-06-1.31653E+00-1.03241E-07-1.42097E-07
 -1     10220 7.39596E-01 1.52698E+00-1.71149E-06-1.21165E+00 8.96284E-08 1.23363E-07
 -1     10221 5.61944E-01 1.70463E+00-1.70841E-06-1.12132E+00 1.32176E-07 2.15693E-07
 -1     10222 7.05527E-01 1.56106E+00 1.91466E-06-1.31653E+00-1.73032E-07-2.38157E-07
 -1     10227 7.39596E-01 1.52698E+00-1.83505E-06-1.21165E+00 3.06155E-07 4.21387E-07
 -1     10228 5.61944E-01 1.70463E+00-1.73162E-06-1.12132E+00 4.11078E-07 6.70819E-07
 -1     10229 7.05527E-01 1.56106E+00 1.36913E-06-1.31653E+00-1.71544E-07-2.36109E-07
 -1     10234 7.39596E-01 1.52698E+00-1.37673E-06-1.21165E+00 5.01761E-07 6.90615E-07
 -1     10235 5.61943E-01 1.70463E+00-1.33994E-06-1.12132E+00 6.91906E-07 1.12909E-06
 -1     10236 7.05527E-01 1.56106E+00 6.63513E-07-1.31652E+00-1.41112E-07-1.94230E-07
 -1     10241 7.39596E-01 1.52698E+00-5.00509E-07-1.21165E+00 2.73686E-07 3.76702E-07
 -1     10245 1.13329E+00 1.13329E+00-5.00497E-07-1.27401E+00-3.29251E-07-3.29243E-07
 -1     10246 9.36414E-01 1.33016E+00-1.33995E-06-1.24300E+00-8.60014E-07-1.00695E-06
 -1     10247 1.13329E+00 1.13329E+00 6.63498E-07-1.38428E+00 1.69759E-07 1.69763E-07
 -1     10252 1.13329E+00 1.13329E+00-1.37672E-06-1.27401E+00-6.03607E-07-6.03618E-07
 -1     10253 9.36415E-01 1.33016E+00-1.73163E-06-1.24299E+00-5.10955E-07-5.98250E-07
 -1     10254 1.13329E+00 1.13329E+00 1.36911E-06-1.38428E+00 2.06357E-07 2.06373E-07
 -1     10259 1.13329E+00 1.13329E+00-1.83503E-06-1.27401E+00-3.68298E-07-3.68303E-07
 -1     10260 9.36415E-01 1.33016E+00-1.70841E-06-1.24299E+00-1.64292E-07-1.92360E-07
 -1     10261 1.13329E+00 1.13329E+00 1.91463E-06-1.38428E+00 2.08151E-07 2.08163E-07
 -1     10266 1.13329E+00 1.13329E+00-1.71147E-06-1.27401E+00-1.07821E-07-1.07822E-07
 -1     10267 9.36415E-01 1.33016E+00-1.57896E-06-1.24299E+00-2.38667E-08-2.79438E-08
 -1     10268 1.13329E+00 1.13329E+00 2.23792E-06-1.38428E+00 1.24195E-07 1.24203E-07
 -1     10273 1.13329E+00 1.13329E+00-1.54306E-06-1.27401E+00-1.38799E-08-1.38800E-08
 -1     10274 9.36415E-01 1.33016E+00-1.48464E-06-1.24299E+00 1.21264E-09 1.41994E-09
 -1     10275 1.13329E+00 1.13329E+00 2.34280E-06-1.38428E+00 3.96482E-08 3.96509E-08
 -1     10280 1.13329E+00 1.13329E+00-1.48705E-06-1.27401E+00 3.66069E-14 3.03845E-14
 -1     10281 9.36415E-01 1.33016E+00-1.48464E-06-1.24299E+00-1.21259E-09-1.41994E-09
 -1     10282 1.13329E+00 1.13329E+00 2.34280E-06-1.38428E+00-3.96481E-08-3.96509E-08
 -1     10287 1.13329E+00 1.13329E+00-1.54306E-06-1.27401E+00 1.38798E-08 1.38801E-08
 -1     10288 9.36415E-01 1.33016E+00-1.57896E-06-1.24299E+00 2.38667E-08 2.79439E-08
 -1     10289 1.13329E+00 1.13329E+00 2.23792E-06-1.38428E+00-1.24195E-07-1.24203E-07
 -1     10294 1.13329E+00 1.13329E+00-1.71147E-06-1.27401E+00 1.07821E-07 1.07822E-07
 -1     10295 9.36415E-01 1.33016E+00-1.70841E-06-1.24299E+00 1.64292E-07 1.92360E-07
 -1     10296 1.13329E+00 1.13329E+00 1.91463E-06-1.38428E+00-2.08151E-07-2.08163E-07
 -1     10301 1.13329E+00 1.13329E+00-1.83503E-06-1.27401E+00 3.68298E-07 3.68303E-07
 -1     10302 9.36415E-01 1.33016E+00-1.73163E-06-1.24299E+00 5.10955E-07 5.98250E-07
 -1     10303 1.13329E+00 1.13329E+00 1.36911E-06-1.38428E+00-2.06357E-07-2.06373E-07
 -1     10308 1.13329E+00 1.13329E+00-1.37672E-06-1.27401E+00 6.03607E-07 6.03618E-07
 -1     10309 9.36414E-01 1.33016E+00-1.33995E-06-1.24300E+00 8.60014E-07 1.00695E-06
 -1     10310 1.13329E+00 1.13329E+00 6.63498E-07-1.38428E+00-1.69759E-07-1.69763E-07
 -1     10315 1.13329E+00 1.13329E+00-5.00497E-07-1.27401E+00 3.29251E-07 3.29243E-07
 -1     10319 1.52698E+00 7.39596E-01-5.00476E-07-1.21165E+00-3.76692E-07-2.73694E-07
 -1     10320 1.33016E+00 9.36414E-01-1.33995E-06-1.24300E+00-1.00694E-06-8.60031E-07
 -1     10321 1.56106E+00 7.05527E-01 6.63481E-07-1.31652E+00 1.94224E-07 1.41105E-07
 -1     10326 1.52698E+00 7.39596E-01-1.37669E-06-1.21165E+00-6.90642E-07-5.01760E-07
 -1     10327 1.33016E+00 9.36415E-01-1.73164E-06-1.24299E+00-5.98251E-07-5.10965E-07
 -1     10328 1.56106E+00 7.05527E-01 1.36911E-06-1.31653E+00 2.36137E-07 1.71510E-07
 -1     10333 1.52698E+00 7.39596E-01-1.83502E-06-1.21165E+00-4.21398E-07-3.06170E-07
 -1     10334 1.33016E+00 9.36415E-01-1.70842E-06-1.24299E+00-1.92356E-07-1.64296E-07
 -1     10335 1.56106E+00 7.05527E-01 1.91464E-06-1.31653E+00 2.38179E-07 1.72999E-07
 -1     10340 1.52698E+00 7.39596E-01-1.71144E-06-1.21165E+00-1.23364E-07-8.96418E-08
 -1     10341 1.33016E+00 9.36415E-01-1.57897E-06-1.24299E+00-2.79416E-08-2.38693E-08
 -1     10342 1.56106E+00 7.05527E-01 2.23792E-06-1.31653E+00 1.42110E-07 1.03217E-07
 -1     10347 1.52698E+00 7.39596E-01-1.54303E-06-1.21165E+00-1.58821E-08-1.15473E-08
 -1     10348 1.33016E+00 9.36415E-01-1.48464E-06-1.24299E+00 1.42063E-09 1.21173E-09
 -1     10349 1.56106E+00 7.05527E-01 2.34280E-06-1.31653E+00 4.53674E-08 3.29500E-08
 -1     10354 1.52698E+00 7.39596E-01-1.48703E-06-1.21165E+00 1.51143E-14 3.35629E-14
 -1     10355 1.33016E+00 9.36415E-01-1.48464E-06-1.24299E+00-1.42060E-09-1.21169E-09
 -1     10356 1.56106E+00 7.05527E-01 2.34280E-06-1.31653E+00-4.53674E-08-3.29500E-08
 -1     10361 1.52698E+00 7.39596E-01-1.54303E-06-1.21165E+00 1.58821E-08 1.15473E-08
 -1     10362 1.33016E+00 9.36415E-01-1.57897E-06-1.24299E+00 2.79417E-08 2.38692E-08
 -1     10363 1.56106E+00 7.05527E-01 2.23792E-06-1.31653E+00-1.42110E-07-1.03217E-07
 -1     10368 1.52698E+00 7.39596E-01-1.71144E-06-1.21165E+00 1.23364E-07 8.96419E-08
 -1     10369 1.33016E+00 9.36415E-01-1.70842E-06-1.24299E+00 1.92356E-07 1.64296E-07
 -1     10370 1.56106E+00 7.05527E-01 1.91464E-06-1.31653E+00-2.38179E-07-1.72999E-07
 -1     10375 1.52698E+00 7.39596E-01-1.83501E-06-1.21165E+00 4.21398E-07 3.06169E-07
 -1     10376 1.33016E+00 9.36415E-01-1.73164E-06-1.24299E+00 5.98251E-07 5.10965E-07
 -1     10377 1.56106E+00 7.05527E-01 1.36911E-06-1.31653E+00-2.36137E-07-1.71510E-07
 -1     10382 1.52698E+00 7.39596E-01-1.37669E-06-1.21165E+00 6.90642E-07 5.01760E-07
 -1     10383 1.33016E+00 9.36414E-01-1.33995E-06-1.24300E+00 1.00694E-06 8.60031E-07
 -1     10384 1.56106E+00 7.05527E-01 6.63481E-07-1.31652E+00-1.94224E-07-1.41105E-07
 -1     10389 1.52698E+00 7.39596E-01-5.00476E-07-1.21165E+00 3.76692E-07 2.73694E-07
 -1     10393 1.88213E+00 3.84444E-01-5.00564E-07-1.03069E+00-4.14860E-07-2.11373E-07
 -1     10394 1.70463E+00 5.61943E-01-1.34002E-06-1.12132E+00-1.12911E-06-6.91912E-07
 -1     10395 1.94695E+00 3.19635E-01 6.63606E-07-1.11990E+00 2.13812E-07 1.08945E-07
 -1     10400 1.88213E+00 3.84443E-01-1.37670E-06-1.03069E+00-7.60577E-07-3.87545E-07
 -1     10401 1.70463E+00 5.61944E-01-1.73168E-06-1.12132E+00-6.70838E-07-4.11099E-07
 -1     10402 1.94695E+00 3.19635E-01 1.36913E-06-1.11990E+00 2.59883E-07 1.32458E-07
 -1     10407 1.88213E+00 3.84444E-01-1.83498E-06-1.03069E+00-4.64124E-07-2.36475E-07
 -1     10408 1.70463E+00 5.61944E-01-1.70848E-06-1.12132E+00-2.15721E-07-1.32201E-07
 -1     10409 1.94695E+00 3.19634E-01 1.91462E-06-1.11990E+00 2.62180E-07 1.33629E-07
 -1     10414 1.88213E+00 3.84444E-01-1.71147E-06-1.03069E+00-1.35912E-07-6.92372E-08
 -1     10415 1.70463E+00 5.61944E-01-1.57905E-06-1.12132E+00-3.13516E-08-1.92174E-08
 -1     10416 1.94695E+00 3.19634E-01 2.23792E-06-1.11990E+00 1.56430E-07 7.97327E-08
 -1     10421 1.88213E+00 3.84444E-01-1.54306E-06-1.03069E+00-1.75140E-08-8.91531E-09
 -1     10422 1.70463E+00 5.61944E-01-1.48474E-06-1.12132E+00 1.58564E-09 9.69946E-10
 -1     10423 1.94695E+00 3.19634E-01 2.34281E-06-1.11990E+00 4.99375E-08 2.54542E-08
 -1     10428 1.88213E+00 3.84444E-01-1.48705E-06-1.03069E+00 3.60766E-14 4.26336E-14
 -1     10429 1.70463E+00 5.61944E-01-1.48474E-06-1.12132E+00-1.58562E-09-9.69924E-10
 -1     10430 1.94695E+00 3.19634E-01 2.34281E-06-1.11990E+00-4.99374E-08-2.54542E-08
 -1     10435 1.88213E+00 3.84444E-01-1.54306E-06-1.03069E+00 1.75140E-08 8.91534E-09
 -1     10436 1.70463E+00 5.61944E-01-1.57905E-06-1.12132E+00 3.13518E-08 1.92174E-08
 -1     10437 1.94695E+00 3.19634E-01 2.23792E-06-1.11990E+00-1.56430E-07-7.97326E-08
 -1     10442 1.88213E+00 3.84444E-01-1.71147E-06-1.03069E+00 1.35912E-07 6.92372E-08
 -1     10443 1.70463E+00 5.61944E-01-1.70848E-06-1.12132E+00 2.15721E-07 1.32201E-07
 -1     10444 1.94695E+00 3.19634E-01 1.91462E-06-1.11990E+00-2.62181E-07-1.33629E-07
 -1     10449 1.88213E+00 3.84444E-01-1.83498E-06-1.03069E+00 4.64124E-07 2.36475E-07
 -1     10450 1.70463E+00 5.61944E-01-1.73168E-06-1.12132E+00 6.70838E-07 4.11099E-07
 -1     10451 1.94695E+00 3.19635E-01 1.36913E-06-1.11990E+00-2.59883E-07-1.32458E-07
 -1     10456 1.88213E+00 3.84443E-01-1.37670E-06-1.03069E+00 7.60577E-07 3.87545E-07
 -1     10457 1.70463E+00 5.61943E-01-1.34002E-06-1.12132E+00 1.12911E-06 6.91913E-07
 -1     10458 1.94695E+00 3.19635E-01 6.63606E-07-1.11990E+00-2.13812E-07-1.08946E-07
 -1     10463 1.88213E+00 3.84444E-01-5.00564E-07-1.03069E+00 4.14860E-07 2.11373E-07
 -1     10467 2.16398E+00 1.02593E-01-5.00462E-07-7.48842E-01-4.42851E-07-1.43882E-07
 -1     10468 2.02317E+00 2.43399E-01-1.33994E-06-8.89886E-01-1.22342E-06-5.06771E-07
 -1     10469 2.25319E+00 1.33889E-02 6.63465E-07-8.13657E-01 2.28427E-07 7.42228E-08
 -1     10474 2.16398E+00 1.02593E-01-1.37678E-06-7.48842E-01-8.11876E-07-2.63803E-07
 -1     10475 2.02317E+00 2.43400E-01-1.73162E-06-8.89886E-01-7.26875E-07-3.01051E-07
 -1     10476 2.25320E+00 1.33889E-02 1.36918E-06-8.13657E-01 2.77700E-07 9.02686E-08
 -1     10481 2.16398E+00 1.02593E-01-1.83513E-06-7.48842E-01-4.95334E-07-1.60935E-07
 -1     10482 2.02317E+00 2.43400E-01-1.70840E-06-8.89886E-01-2.33722E-07-9.67835E-08
 -1     10483 2.25320E+00 1.33885E-02 1.91475E-06-8.13657E-01 2.80069E-07 9.10383E-08
 -1     10488 2.16398E+00 1.02593E-01-1.71152E-06-7.48842E-01-1.44977E-07-4.70931E-08
 -1     10489 2.02317E+00 2.43400E-01-1.57896E-06-8.89886E-01-3.39564E-08-1.40461E-08
 -1     10490 2.25320E+00 1.33884E-02 2.23802E-06-8.13657E-01 1.67106E-07 5.43219E-08
 -1     10495 2.16398E+00 1.02593E-01-1.54310E-06-7.48842E-01-1.86486E-08-6.05113E-09
 -1     10496 2.02317E+00 2.43400E-01-1.48464E-06-8.89886E-01 1.72338E-09 7.20682E-10
 -1     10497 2.25320E+00 1.33883E-02 2.34289E-06-8.13657E-01 5.33479E-08 1.73430E-08
 -1     10502 2.16398E+00 1.02593E-01-1.48709E-06-7.48842E-01 6.41312E-15-3.54341E-14
 -1     10503 2.02317E+00 2.43400E-01-1.48464E-06-8.89886E-01-1.72334E-09-7.20706E-10
 -1     10504 2.25320E+00 1.33883E-02 2.34289E-06-8.13657E-01-5.33479E-08-1.73430E-08
 -1     10509 2.16398E+00 1.02593E-01-1.54310E-06-7.48842E-01 1.86486E-08 6.05112E-09
 -1     10510 2.02317E+00 2.43400E-01-1.57896E-06-8.89886E-01 3.39564E-08 1.40461E-08
 -1     10511 2.25320E+00 1.33884E-02 2.23802E-06-8.13657E-01-1.67106E-07-5.43220E-08
 -1     10516 2.16398E+00 1.02593E-01-1.71152E-06-7.48842E-01 1.44977E-07 4.70931E-08
 -1     10517 2.02317E+00 2.43400E-01-1.70840E-06-8.89886E-01 2.33722E-07 9.67836E-08
 -1     10518 2.25320E+00 1.33885E-02 1.91475E-06-8.13657E-01-2.80069E-07-9.10383E-08
 -1     10523 2.16398E+00 1.02593E-01-1.83513E-06-7.48842E-01 4.95334E-07 1.60935E-07
 -1     10524 2.02317E+00 2.43400E-01-1.73162E-06-8.89886E-01 7.26875E-07 3.01051E-07
 -1     10525 2.25320E+00 1.33889E-02 1.36918E-06-8.13657E-01-2.77700E-07-9.02686E-08
 -1     10530 2.16398E+00 1.02593E-01-1.37678E-06-7.48842E-01 8.11876E-07 2.63803E-07
 -1     10531 2.02317E+00 2.43399E-01-1.33994E-06-8.89886E-01 1.22342E-06 5.06771E-07
 -1     10532 2.25319E+00 1.33889E-02 6.63465E-07-8.13657E-01-2.28427E-07-7.42228E-08
 -1     10537 2.16398E+00 1.02593E-01-5.00462E-07-7.48842E-01 4.42851E-07 1.43882E-07
 -1     10541 2.34494E+00-7.83661E-02-5.00555E-07-3.93690E-01-4.59884E-07-7.28453E-08
 -1     10542 2.25461E+00 1.19630E-02-1.33986E-06-5.71342E-01-1.28761E-06-3.09121E-07
 -1     10543 2.44982E+00-1.83233E-01 6.63600E-07-4.27765E-01 2.37127E-07 3.75479E-08
 -1     10548 2.34494E+00-7.83667E-02-1.37680E-06-3.93690E-01-8.43102E-07-1.33516E-07
 -1     10549 2.25461E+00 1.19638E-02-1.73156E-06-5.71342E-01-7.64982E-07-1.83664E-07
 -1     10550 2.44982E+00-1.83233E-01 1.36921E-06-4.27765E-01 2.88258E-07 4.56122E-08
 -1     10555 2.34494E+00-7.83662E-02-1.83510E-06-3.93690E-01-5.14422E-07-8.14807E-08
 -1     10556 2.25461E+00 1.19641E-02-1.70833E-06-5.71342E-01-2.45939E-07-5.90509E-08
 -1     10557 2.44982E+00-1.83233E-01 1.91474E-06-4.27765E-01 2.90769E-07 4.60150E-08
 -1     10562 2.34494E+00-7.83661E-02-1.71154E-06-3.93690E-01-1.50592E-07-2.38616E-08
 -1     10563 2.25461E+00 1.19640E-02-1.57887E-06-5.71342E-01-3.57052E-08-8.57631E-09
 -1     10564 2.44982E+00-1.83234E-01 2.23803E-06-4.27765E-01 1.73494E-07 2.74531E-08
 -1     10569 2.34494E+00-7.83661E-02-1.54313E-06-3.93690E-01-1.93790E-08-3.07619E-09
 -1     10570 2.25461E+00 1.19640E-02-1.48454E-06-5.71342E-01 1.82572E-09 4.36811E-10
 -1     10571 2.44982E+00-1.83234E-01 2.34292E-06-4.27765E-01 5.53874E-08 8.76347E-09
 -1     10576 2.34494E+00-7.83661E-02-1.48712E-06-3.93690E-01-1.40054E-13-3.51969E-14
 -1     10577 2.25461E+00 1.19640E-02-1.48454E-06-5.71342E-01-1.82571E-09-4.36877E-10
 -1     10578 2.44982E+00-1.83234E-01 2.34292E-06-4.27765E-01-5.53874E-08-8.76352E-09
 -1     10583 2.34494E+00-7.83661E-02-1.54313E-06-3.93690E-01 1.93791E-08 3.07613E-09
 -1     10584 2.25461E+00 1.19640E-02-1.57887E-06-5.71342E-01 3.57052E-08 8.57626E-09
 -1     10585 2.44982E+00-1.83234E-01 2.23803E-06-4.27765E-01-1.73494E-07-2.74531E-08
 -1     10590 2.34494E+00-7.83661E-02-1.71154E-06-3.93690E-01 1.50592E-07 2.38616E-08
 -1     10591 2.25461E+00 1.19641E-02-1.70833E-06-5.71342E-01 2.45939E-07 5.90509E-08
 -1     10592 2.44982E+00-1.83233E-01 1.91474E-06-4.27765E-01-2.90769E-07-4.60150E-08
 -1     10597 2.34494E+00-7.83662E-02-1.83510E-06-3.93690E-01 5.14422E-07 8.14807E-08
 -1     10598 2.25461E+00 1.19638E-02-1.73156E-06-5.71342E-01 7.64982E-07 1.83664E-07
 -1     10599 2.44982E+00-1.83233E-01 1.36921E-06-4.27765E-01-2.88258E-07-4.56122E-08
 -1     10604 2.34494E+00-7.83667E-02-1.37680E-06-3.93690E-01 8.43102E-07 1.33516E-07
 -1     10605 2.25461E+00 1.19630E-02-1.33986E-06-5.71342E-01 1.28761E-06 3.09121E-07
 -1     10606 2.44982E+00-1.83233E-01 6.63600E-07-4.27765E-01-2.37127E-07-3.75479E-08
 -1     10611 2.34494E+00-7.83661E-02-5.00555E-07-3.93690E-01 4.59885E-07 7.28454E-08
 -1     10615 2.37628E+00-1.09710E-01-1.33992E-06-1.96871E-01-1.32013E-06-1.03912E-07
 -1     10619 2.37628E+00-1.09709E-01-1.73160E-06-1.96871E-01-7.84320E-07-6.17364E-08
 -1     10623 2.37628E+00-1.09709E-01-1.70839E-06-1.96871E-01-2.52185E-07-1.98543E-08
 -1     10627 2.37628E+00-1.09709E-01-1.57895E-06-1.96871E-01-3.66306E-08-2.88686E-09
 -1     10631 2.37628E+00-1.09709E-01-1.48463E-06-1.96871E-01 1.86328E-09 1.45314E-10
 -1     10635 2.37628E+00-1.09709E-01-1.48463E-06-1.96871E-01-1.86336E-09-1.45329E-10
 -1     10639 2.37628E+00-1.09709E-01-1.57895E-06-1.96871E-01 3.66306E-08 2.88684E-09
 -1     10643 2.37628E+00-1.09709E-01-1.70839E-06-1.96871E-01 2.52185E-07 1.98542E-08
 -1     10647 2.37628E+00-1.09709E-01-1.73160E-06-1.96871E-01 7.84320E-07 6.17364E-08
 -1     10651 2.37628E+00-1.09710E-01-1.33992E-06-1.96871E-01 1.32013E-06 1.03912E-07
 -1     10657 8.81294E-02 2.17845E+00 2.17973E-07-3.39593E-01 2.42057E-08 1.52830E-07
 -1     10658 6.10693E-02 2.20551E+00 3.70093E-07-1.69823E-01 2.69396E-08 3.42300E-07
 -1     10659 4.81748E-03 2.26176E+00-2.14672E-07-3.66662E-01-2.23817E-08-1.41313E-07
 -1     10664 8.81295E-02 2.17845E+00 3.29008E-07-3.39593E-01 2.65379E-08 1.67554E-07
 -1     10665 6.10692E-02 2.20551E+00 4.57384E-07-1.69823E-01 1.46791E-08 1.86515E-07
 -1     10666 4.81744E-03 2.26176E+00-4.17382E-07-3.66662E-01-1.45923E-08-9.21327E-08
 -1     10671 8.81294E-02 2.17845E+00 4.08086E-07-3.39593E-01 1.86379E-08 1.17675E-07
 -1     10672 6.10691E-02 2.20551E+00 3.96504E-07-1.69823E-01 5.39281E-09 6.85222E-08
 -1     10673 4.81757E-03 2.26176E+00-4.88447E-07-3.66662E-01-1.52350E-08-9.61905E-08
 -1     10678 8.81294E-02 2.17845E+00 4.06402E-07-3.39593E-01 6.34756E-09 4.00764E-08
 -1     10679 6.10691E-02 2.20551E+00 3.55241E-07-1.69823E-01 6.09779E-11 7.74825E-10
 -1     10680 4.81765E-03 2.26176E+00-5.65868E-07-3.66662E-01-8.67480E-09-5.47712E-08
 -1     10685 8.81294E-02 2.17845E+00 3.58587E-07-3.39593E-01-5.92446E-11-3.74194E-10
 -1     10686 6.10691E-02 2.20551E+00 3.29673E-07-1.69823E-01-5.14419E-10-6.53630E-09
 -1     10687 4.81766E-03 2.26176E+00-5.97333E-07-3.66662E-01-2.47043E-09-1.55979E-08
 -1     10692 8.81294E-02 2.17845E+00 3.36395E-07-3.39593E-01 9.54512E-16-2.50188E-14
 -1     10693 6.10691E-02 2.20551E+00 3.29673E-07-1.69823E-01 5.14390E-10 6.53632E-09
 -1     10694 4.81766E-03 2.26176E+00-5.97333E-07-3.66662E-01 2.47043E-09 1.55979E-08
 -1     10699 8.81294E-02 2.17845E+00 3.58586E-07-3.39593E-01 5.92441E-11 3.74292E-10
 -1     10700 6.10691E-02 2.20551E+00 3.55241E-07-1.69823E-01-6.10061E-11-7.74767E-10
 -1     10701 4.81765E-03 2.26176E+00-5.65868E-07-3.66662E-01 8.67482E-09 5.47713E-08
 -1     10706 8.81294E-02 2.17845E+00 4.06402E-07-3.39593E-01-6.34753E-09-4.00764E-08
 -1     10707 6.10691E-02 2.20551E+00 3.96504E-07-1.69823E-01-5.39285E-09-6.85221E-08
 -1     10708 4.81757E-03 2.26176E+00-4.88447E-07-3.66662E-01 1.52350E-08 9.61905E-08
 -1     10713 8.81294E-02 2.17845E+00 4.08086E-07-3.39593E-01-1.86379E-08-1.17675E-07
 -1     10714 6.10692E-02 2.20551E+00 4.57383E-07-1.69823E-01-1.46791E-08-1.86515E-07
 -1     10715 4.81744E-03 2.26176E+00-4.17382E-07-3.66662E-01 1.45923E-08 9.21327E-08
 -1     10720 8.81295E-02 2.17845E+00 3.29008E-07-3.39593E-01-2.65379E-08-1.67554E-07
 -1     10721 6.10693E-02 2.20551E+00 3.70093E-07-1.69823E-01-2.69396E-08-3.42300E-07
 -1     10722 4.81748E-03 2.26176E+00-2.14672E-07-3.66662E-01 2.23817E-08 1.41313E-07
 -1     10727 8.81294E-02 2.17845E+00 2.17973E-07-3.39593E-01-2.42057E-08-1.52830E-07
 -1     10731 2.44223E-01 2.02235E+00 2.17972E-07-6.45944E-01 4.78153E-08 1.47162E-07
 -1     10732 1.66026E-01 2.10055E+00 3.70093E-07-4.92845E-01 8.01555E-08 3.33871E-07
 -1     10733 1.73353E-01 2.09322E+00-2.14672E-07-6.97433E-01-4.42126E-08-1.36073E-07
 -1     10738 2.44223E-01 2.02235E+00 3.29007E-07-6.45944E-01 5.24221E-08 1.61340E-07
 -1     10739 1.66026E-01 2.10055E+00 4.57383E-07-4.92845E-01 4.36758E-08 1.81923E-07
 -1     10740 1.73353E-01 2.09322E+00-4.17381E-07-6.97433E-01-2.88256E-08-8.87162E-08
 -1     10745 2.44223E-01 2.02235E+00 4.08086E-07-6.45944E-01 3.68167E-08 1.13310E-07
 -1     10746 1.66025E-01 2.10055E+00 3.96504E-07-4.92845E-01 1.60457E-08 6.68348E-08
 -1     10747 1.73354E-01 2.09322E+00-4.88446E-07-6.97432E-01-3.00951E-08-9.26234E-08
 -1     10752 2.44223E-01 2.02235E+00 4.06402E-07-6.45944E-01 1.25387E-08 3.85900E-08
 -1     10753 1.66025E-01 2.10055E+00 3.55240E-07-4.92845E-01 1.81446E-10 7.55625E-10
 -1     10754 1.73354E-01 2.09322E+00-5.65867E-07-6.97432E-01-1.71362E-08-5.27402E-08
 -1     10759 2.44223E-01 2.02235E+00 3.58586E-07-6.45944E-01-1.17075E-10-3.60482E-10
 -1     10760 1.66025E-01 2.10055E+00 3.29673E-07-4.92845E-01-1.53056E-09-6.37530E-09
 -1     10761 1.73354E-01 2.09322E+00-5.97332E-07-6.97432E-01-4.88008E-09-1.50194E-08
 -1     10766 2.44223E-01 2.02235E+00 3.36394E-07-6.45944E-01 3.51524E-14 1.29361E-13
 -1     10767 1.66025E-01 2.10055E+00 3.29673E-07-4.92845E-01 1.53061E-09 6.37545E-09
 -1     10768 1.73354E-01 2.09322E+00-5.97332E-07-6.97432E-01 4.88009E-09 1.50196E-08
 -1     10773 2.44223E-01 2.02235E+00 3.58586E-07-6.45944E-01 1.17126E-10 3.60579E-10
 -1     10774 1.66025E-01 2.10055E+00 3.55240E-07-4.92845E-01-1.81394E-10-7.55633E-10
 -1     10775 1.73354E-01 2.09322E+00-5.65867E-07-6.97432E-01 1.71362E-08 5.27402E-08
 -1     10780 2.44223E-01 2.02235E+00 4.06402E-07-6.45944E-01-1.25387E-08-3.85900E-08
 -1     10781 1.66025E-01 2.10055E+00 3.96504E-07-4.92845E-01-1.60456E-08-6.68348E-08
 -1     10782 1.73354E-01 2.09322E+00-4.88446E-07-6.97432E-01 3.00951E-08 9.26234E-08
 -1     10787 2.44223E-01 2.02235E+00 4.08086E-07-6.45944E-01-3.68167E-08-1.13310E-07
 -1     10788 1.66026E-01 2.10055E+00 4.57383E-07-4.92845E-01-4.36758E-08-1.81923E-07
 -1     10789 1.73353E-01 2.09322E+00-4.17381E-07-6.97433E-01 2.88256E-08 8.87162E-08
 -1     10794 2.44223E-01 2.02235E+00 3.29007E-07-6.45944E-01-5.24222E-08-1.61340E-07
 -1     10795 1.66026E-01 2.10055E+00 3.70093E-07-4.92845E-01-8.01555E-08-3.33871E-07
 -1     10796 1.73353E-01 2.09322E+00-2.14672E-07-6.97433E-01 4.42126E-08 1.36073E-07
 -1     10801 2.44223E-01 2.02235E+00 2.17972E-07-6.45944E-01-4.78153E-08-1.47162E-07
 -1     10805 4.87345E-01 1.77923E+00 2.17972E-07-8.89065E-01 7.02479E-08 1.37870E-07
 -1     10806 3.65664E-01 1.90091E+00 3.70094E-07-7.67624E-01 1.31398E-07 3.17222E-07
 -1     10807 4.35854E-01 1.83072E+00-2.14670E-07-9.59934E-01-6.49544E-08-1.27482E-07
 -1     10812 4.87345E-01 1.77923E+00 3.29006E-07-8.89065E-01 7.70156E-08 1.51153E-07
 -1     10813 3.65664E-01 1.90091E+00 4.57384E-07-7.67624E-01 7.15971E-08 1.72850E-07
 -1     10814 4.35854E-01 1.83072E+00-4.17379E-07-9.59934E-01-4.23489E-08-8.31153E-08
 -1     10819 4.87345E-01 1.77923E+00 4.08085E-07-8.89065E-01 5.40889E-08 1.06156E-07
 -1     10820 3.65664E-01 1.90091E+00 3.96504E-07-7.67624E-01 2.63033E-08 6.35017E-08
 -1     10821 4.35855E-01 1.83072E+00-4.88444E-07-9.59933E-01-4.42141E-08-8.67756E-08
 -1     10826 4.87345E-01 1.77923E+00 4.06401E-07-8.89065E-01 1.84209E-08 3.61531E-08
 -1     10827 3.65664E-01 1.90091E+00 3.55240E-07-7.67624E-01 2.97334E-10 7.17773E-10
 -1     10828 4.35855E-01 1.83072E+00-5.65866E-07-9.59933E-01-2.51758E-08-4.94105E-08
 -1     10833 4.87345E-01 1.77923E+00 3.58585E-07-8.89065E-01-1.72130E-10-3.37997E-10
 -1     10834 3.65664E-01 1.90091E+00 3.29673E-07-7.67624E-01-2.50909E-09-6.05742E-09
 -1     10835 4.35855E-01 1.83072E+00-5.97330E-07-9.59933E-01-7.16965E-09-1.40713E-08
 -1     10840 4.87345E-01 1.77923E+00 3.36393E-07-8.89065E-01-1.16318E-14 2.82392E-14
 -1     10841 3.65664E-01 1.90091E+00 3.29673E-07-7.67624E-01 2.50909E-09 6.05749E-09
 -1     10842 4.35855E-01 1.83072E+00-5.97330E-07-9.59933E-01 7.16962E-09 1.40712E-08
 -1     10847 4.87345E-01 1.77923E+00 3.58585E-07-8.89065E-01 1.72036E-10 3.37905E-10
 -1     10848 3.65664E-01 1.90091E+00 3.55240E-07-7.67624E-01-2.97389E-10-7.17804E-10
 -1     10849 4.35855E-01 1.83072E+00-5.65866E-07-9.59933E-01 2.51757E-08 4.94105E-08
 -1     10854 4.87345E-01 1.77923E+00 4.06401E-07-8.89065E-01-1.84210E-08-3.61531E-08
 -1     10855 3.65664E-01 1.90091E+00 3.96504E-07-7.67624E-01-2.63033E-08-6.35016E-08
 -1     10856 4.35855E-01 1.83072E+00-4.88444E-07-9.59933E-01 4.42140E-08 8.67756E-08
 -1     10861 4.87345E-01 1.77923E+00 4.08085E-07-8.89065E-01-5.40889E-08-1.06156E-07
 -1     10862 3.65664E-01 1.90091E+00 4.57384E-07-7.67624E-01-7.15971E-08-1.72850E-07
 -1     10863 4.35854E-01 1.83072E+00-4.17379E-07-9.59934E-01 4.23489E-08 8.31153E-08
 -1     10868 4.87345E-01 1.77923E+00 3.29006E-07-8.89065E-01-7.70156E-08-1.51153E-07
 -1     10869 3.65664E-01 1.90091E+00 3.70094E-07-7.67624E-01-1.31398E-07-3.17222E-07
 -1     10870 4.35854E-01 1.83072E+00-2.14670E-07-9.59934E-01 6.49544E-08 1.27482E-07
 -1     10875 4.87345E-01 1.77923E+00 2.17972E-07-8.89065E-01-7.02479E-08-1.37870E-07
 -1     10879 7.93696E-01 1.47288E+00 2.17970E-07-1.04516E+00 9.09507E-08 1.25184E-07
 -1     10880 6.40444E-01 1.62613E+00 3.70094E-07-9.67263E-01 1.79404E-07 2.92761E-07
 -1     10881 7.66625E-01 1.49995E+00-2.14667E-07-1.12847E+00-8.40979E-08-1.15752E-07
 -1     10886 7.93696E-01 1.47288E+00 3.29003E-07-1.04516E+00 9.97130E-08 1.37244E-07
 -1     10887 6.40443E-01 1.62613E+00 4.57384E-07-9.67263E-01 9.77551E-08 1.59522E-07
 -1     10888 7.66625E-01 1.49995E+00-4.17376E-07-1.12847E+00-5.48305E-08-7.54677E-08
 -1     10893 7.93696E-01 1.47288E+00 4.08082E-07-1.04516E+00 7.00291E-08 9.63879E-08
 -1     10894 6.40443E-01 1.62613E+00 3.96503E-07-9.67263E-01 3.59132E-08 5.86049E-08
 -1     10895 7.66625E-01 1.49995E+00-4.88441E-07-1.12847E+00-5.72452E-08-7.87911E-08
 -1     10900 7.93696E-01 1.47288E+00 4.06398E-07-1.04516E+00 2.38496E-08 3.28266E-08
 -1     10901 6.40443E-01 1.62613E+00 3.55240E-07-9.67263E-01 4.05843E-10 6.62288E-10
 -1     10902 7.66625E-01 1.49995E+00-5.65863E-07-1.12847E+00-3.25957E-08-4.48640E-08
 -1     10907 7.93696E-01 1.47288E+00 3.58582E-07-1.04516E+00-2.22972E-10-3.06701E-10
 -1     10908 6.40443E-01 1.62613E+00 3.29672E-07-9.67263E-01-3.42587E-09-5.59043E-09
 -1     10909 7.66625E-01 1.49995E+00-5.97328E-07-1.12847E+00-9.28273E-09-1.27765E-08
 -1     10914 7.93696E-01 1.47288E+00 3.36390E-07-1.04516E+00 6.52801E-17 3.67000E-15
 -1     10915 6.40443E-01 1.62613E+00 3.29672E-07-9.67263E-01 3.42583E-09 5.59045E-09
 -1     10916 7.66625E-01 1.49995E+00-5.97328E-07-1.12847E+00 9.28275E-09 1.27766E-08
 -1     10921 7.93696E-01 1.47288E+00 3.58582E-07-1.04516E+00 2.22975E-10 3.06661E-10
 -1     10922 6.40443E-01 1.62613E+00 3.55240E-07-9.67263E-01-4.05869E-10-6.62283E-10
 -1     10923 7.66625E-01 1.49995E+00-5.65863E-07-1.12847E+00 3.25957E-08 4.48640E-08
 -1     10928 7.93696E-01 1.47288E+00 4.06398E-07-1.04516E+00-2.38495E-08-3.28266E-08
 -1     10929 6.40443E-01 1.62613E+00 3.96503E-07-9.67263E-01-3.59132E-08-5.86050E-08
 -1     10930 7.66625E-01 1.49995E+00-4.88441E-07-1.12847E+00 5.72453E-08 7.87911E-08
 -1     10935 7.93696E-01 1.47288E+00 4.08082E-07-1.04516E+00-7.00290E-08-9.63879E-08
 -1     10936 6.40443E-01 1.62613E+00 4.57384E-07-9.67263E-01-9.77551E-08-1.59522E-07
 -1     10937 7.66625E-01 1.49995E+00-4.17376E-07-1.12847E+00 5.48305E-08 7.54678E-08
 -1     10942 7.93696E-01 1.47288E+00 3.29003E-07-1.04516E+00-9.97130E-08-1.37244E-07
 -1     10943 6.40444E-01 1.62613E+00 3.70094E-07-9.67263E-01-1.79404E-07-2.92761E-07
 -1     10944 7.66625E-01 1.49995E+00-2.14667E-07-1.12847E+00 8.40979E-08 1.15752E-07
 -1     10949 7.93696E-01 1.47288E+00 2.17970E-07-1.04516E+00-9.09507E-08-1.25184E-07
 -1     10953 1.13329E+00 1.13329E+00 2.17963E-07-1.09895E+00 1.09415E-07 1.09410E-07
 -1     10954 9.63466E-01 1.30311E+00 3.70096E-07-1.07222E+00 2.22992E-07 2.61092E-07
 -1     10955 1.13329E+00 1.13329E+00-2.14664E-07-1.18654E+00-1.01168E-07-1.01169E-07
 -1     10960 1.13329E+00 1.13329E+00 3.28997E-07-1.09895E+00 1.19955E-07 1.19953E-07
 -1     10961 9.63466E-01 1.30311E+00 4.57385E-07-1.07222E+00 1.21506E-07 1.42265E-07
 -1     10962 1.13329E+00 1.13329E+00-4.17372E-07-1.18654E+00-6.59587E-08-6.59619E-08
 -1     10967 1.13329E+00 1.13329E+00 4.08075E-07-1.09895E+00 8.42451E-08 8.42434E-08
 -1     10968 9.63466E-01 1.30311E+00 3.96505E-07-1.07222E+00 4.46386E-08 5.22647E-08
 -1     10969 1.13329E+00 1.13329E+00-4.88438E-07-1.18654E+00-6.88638E-08-6.88657E-08
 -1     10974 1.13329E+00 1.13329E+00 4.06391E-07-1.09895E+00 2.86912E-08 2.86899E-08
 -1     10975 9.63466E-01 1.30311E+00 3.55242E-07-1.07222E+00 5.04476E-10 5.90326E-10
 -1     10976 1.13329E+00 1.13329E+00-5.65859E-07-1.18654E+00-3.92117E-08-3.92124E-08
 -1     10981 1.13329E+00 1.13329E+00 3.58576E-07-1.09895E+00-2.67983E-10-2.68814E-10
 -1     10982 9.63466E-01 1.30311E+00 3.29674E-07-1.07222E+00-4.25823E-09-4.98581E-09
 -1     10983 1.13329E+00 1.13329E+00-5.97324E-07-1.18654E+00-1.11669E-08-1.11670E-08
 -1     10988 1.13329E+00 1.13329E+00 3.36384E-07-1.09895E+00-6.89246E-14 5.75809E-14
 -1     10989 9.63466E-01 1.30311E+00 3.29674E-07-1.07222E+00 4.25820E-09 4.98586E-09
 -1     10990 1.13329E+00 1.13329E+00-5.97324E-07-1.18654E+00 1.11669E-08 1.11670E-08
 -1     10995 1.13329E+00 1.13329E+00 3.58576E-07-1.09895E+00 2.68061E-10 2.68762E-10
 -1     10996 9.63466E-01 1.30311E+00 3.55242E-07-1.07222E+00-5.04399E-10-5.90366E-10
 -1     10997 1.13329E+00 1.13329E+00-5.65859E-07-1.18654E+00 3.92117E-08 3.92124E-08
 -1     11002 1.13329E+00 1.13329E+00 4.06391E-07-1.09895E+00-2.86911E-08-2.86899E-08
 -1     11003 9.63466E-01 1.30311E+00 3.96505E-07-1.07222E+00-4.46386E-08-5.22646E-08
 -1     11004 1.13329E+00 1.13329E+00-4.88438E-07-1.18654E+00 6.88638E-08 6.88657E-08
 -1     11009 1.13329E+00 1.13329E+00 4.08075E-07-1.09895E+00-8.42451E-08-8.42434E-08
 -1     11010 9.63466E-01 1.30311E+00 4.57385E-07-1.07222E+00-1.21506E-07-1.42265E-07
 -1     11011 1.13329E+00 1.13329E+00-4.17372E-07-1.18654E+00 6.59586E-08 6.59619E-08
 -1     11016 1.13329E+00 1.13329E+00 3.28997E-07-1.09895E+00-1.19955E-07-1.19953E-07
 -1     11017 9.63466E-01 1.30311E+00 3.70096E-07-1.07222E+00-2.22992E-07-2.61092E-07
 -1     11018 1.13329E+00 1.13329E+00-2.14664E-07-1.18654E+00 1.01168E-07 1.01169E-07
 -1     11023 1.13329E+00 1.13329E+00 2.17963E-07-1.09895E+00-1.09415E-07-1.09410E-07
 -1     11027 1.47288E+00 7.93696E-01 2.17977E-07-1.04516E+00 1.25180E-07 9.09487E-08
 -1     11028 1.30311E+00 9.63466E-01 3.70099E-07-1.07222E+00 2.61089E-07 2.22994E-07
 -1     11029 1.49995E+00 7.66625E-01-2.14678E-07-1.12847E+00-1.15752E-07-8.41024E-08
 -1     11034 1.47288E+00 7.93696E-01 3.29001E-07-1.04516E+00 1.37242E-07 9.97040E-08
 -1     11035 1.30311E+00 9.63466E-01 4.57389E-07-1.07222E+00 1.42263E-07 1.21504E-07
 -1     11036 1.49995E+00 7.66625E-01-4.17394E-07-1.12847E+00-7.54715E-08-5.48362E-08
 -1     11041 1.47288E+00 7.93696E-01 4.08076E-07-1.04516E+00 9.63852E-08 7.00242E-08
 -1     11042 1.30311E+00 9.63466E-01 3.96506E-07-1.07222E+00 5.22639E-08 4.46365E-08
 -1     11043 1.49995E+00 7.66625E-01-4.88461E-07-1.12847E+00-7.87960E-08-5.72557E-08
 -1     11048 1.47288E+00 7.93696E-01 4.06391E-07-1.04516E+00 3.28236E-08 2.38453E-08
 -1     11049 1.30311E+00 9.63466E-01 3.55241E-07-1.07222E+00 5.89386E-10 5.02304E-10
 -1     11050 1.49995E+00 7.66625E-01-5.65887E-07-1.12847E+00-4.48660E-08-3.26038E-08
 -1     11055 1.47288E+00 7.93696E-01 3.58572E-07-1.04516E+00-3.09025E-10-2.25750E-10
 -1     11056 1.30311E+00 9.63466E-01 3.29673E-07-1.07222E+00-4.98608E-09-4.25895E-09
 -1     11057 1.49995E+00 7.66625E-01-5.97354E-07-1.12847E+00-1.27771E-08-9.28576E-09
 -1     11062 1.47288E+00 7.93696E-01 3.36380E-07-1.04516E+00 6.07891E-14-1.74400E-14
 -1     11063 1.30311E+00 9.63466E-01 3.29673E-07-1.07222E+00 4.98607E-09 4.25895E-09
 -1     11064 1.49995E+00 7.66625E-01-5.97354E-07-1.12847E+00 1.27772E-08 9.28580E-09
 -1     11069 1.47288E+00 7.93696E-01 3.58572E-07-1.04516E+00 3.09008E-10 2.25813E-10
 -1     11070 1.30311E+00 9.63466E-01 3.55241E-07-1.07222E+00-5.89382E-10-5.02302E-10
 -1     11071 1.49995E+00 7.66625E-01-5.65887E-07-1.12847E+00 4.48661E-08 3.26038E-08
 -1     11076 1.47288E+00 7.93696E-01 4.06392E-07-1.04516E+00-3.28236E-08-2.38453E-08
 -1     11077 1.30311E+00 9.63466E-01 3.96506E-07-1.07222E+00-5.22639E-08-4.46365E-08
 -1     11078 1.49995E+00 7.66625E-01-4.88461E-07-1.12847E+00 7.87959E-08 5.72557E-08
 -1     11083 1.47288E+00 7.93696E-01 4.08076E-07-1.04516E+00-9.63852E-08-7.00241E-08
 -1     11084 1.30311E+00 9.63466E-01 4.57389E-07-1.07222E+00-1.42263E-07-1.21504E-07
 -1     11085 1.49995E+00 7.66625E-01-4.17394E-07-1.12847E+00 7.54715E-08 5.48362E-08
 -1     11090 1.47288E+00 7.93696E-01 3.29001E-07-1.04516E+00-1.37242E-07-9.97040E-08
 -1     11091 1.30311E+00 9.63466E-01 3.70099E-07-1.07222E+00-2.61089E-07-2.22994E-07
 -1     11092 1.49995E+00 7.66625E-01-2.14678E-07-1.12847E+00 1.15752E-07 8.41024E-08
 -1     11097 1.47288E+00 7.93696E-01 2.17977E-07-1.04516E+00-1.25180E-07-9.09487E-08
 -1     11101 1.77923E+00 4.87345E-01 2.17968E-07-8.89065E-01 1.37855E-07 7.02430E-08
 -1     11102 1.62613E+00 6.40444E-01 3.70096E-07-9.67263E-01 2.92763E-07 1.79405E-07
 -1     11103 1.83072E+00 4.35854E-01-2.14700E-07-9.59934E-01-1.27503E-07-6.49607E-08
 -1     11108 1.77923E+00 4.87345E-01 3.29015E-07-8.89065E-01 1.51145E-07 7.70206E-08
 -1     11109 1.62613E+00 6.40443E-01 4.57375E-07-9.67263E-01 1.59515E-07 9.77516E-08
 -1     11110 1.83072E+00 4.35854E-01-4.17405E-07-9.59934E-01-8.31432E-08-4.23566E-08
 -1     11115 1.77923E+00 4.87345E-01 4.08086E-07-8.89065E-01 1.06143E-07 5.40876E-08
 -1     11116 1.62613E+00 6.40443E-01 3.96495E-07-9.67263E-01 5.85971E-08 3.59072E-08
 -1     11117 1.83072E+00 4.35855E-01-4.88475E-07-9.59933E-01-8.67982E-08-4.42169E-08
 -1     11122 1.77923E+00 4.87345E-01 4.06391E-07-8.89065E-01 3.61440E-08 1.84197E-08
 -1     11123 1.62613E+00 6.40443E-01 3.55230E-07-9.67263E-01 6.58048E-10 4.02788E-10
 -1     11124 1.83072E+00 4.35855E-01-5.65898E-07-9.59933E-01-4.94304E-08-2.51787E-08
 -1     11129 1.77923E+00 4.87345E-01 3.58578E-07-8.89065E-01-3.41324E-10-1.71998E-10
 -1     11130 1.62613E+00 6.40443E-01 3.29662E-07-9.67263E-01-5.59226E-09-3.42708E-09
 -1     11131 1.83072E+00 4.35855E-01-5.97367E-07-9.59933E-01-1.40785E-08-7.17062E-09
 -1     11136 1.77923E+00 4.87345E-01 3.36386E-07-8.89065E-01 6.25960E-14-1.16453E-14
 -1     11137 1.62613E+00 6.40443E-01 3.29662E-07-9.67263E-01 5.59230E-09 3.42707E-09
 -1     11138 1.83072E+00 4.35855E-01-5.97367E-07-9.59933E-01 1.40786E-08 7.17061E-09
 -1     11143 1.77923E+00 4.87345E-01 3.58578E-07-8.89065E-01 3.41243E-10 1.71992E-10
 -1     11144 1.62613E+00 6.40443E-01 3.55230E-07-9.67263E-01-6.58019E-10-4.02766E-10
 -1     11145 1.83072E+00 4.35855E-01-5.65898E-07-9.59933E-01 4.94304E-08 2.51787E-08
 -1     11150 1.77923E+00 4.87345E-01 4.06391E-07-8.89065E-01-3.61438E-08-1.84198E-08
 -1     11151 1.62613E+00 6.40443E-01 3.96495E-07-9.67263E-01-5.85972E-08-3.59072E-08
 -1     11152 1.83072E+00 4.35855E-01-4.88475E-07-9.59933E-01 8.67981E-08 4.42169E-08
 -1     11157 1.77923E+00 4.87345E-01 4.08086E-07-8.89065E-01-1.06143E-07-5.40876E-08
 -1     11158 1.62613E+00 6.40443E-01 4.57375E-07-9.67263E-01-1.59515E-07-9.77516E-08
 -1     11159 1.83072E+00 4.35854E-01-4.17405E-07-9.59934E-01 8.31432E-08 4.23566E-08
 -1     11164 1.77923E+00 4.87345E-01 3.29015E-07-8.89065E-01-1.51145E-07-7.70206E-08
 -1     11165 1.62613E+00 6.40444E-01 3.70096E-07-9.67263E-01-2.92763E-07-1.79405E-07
 -1     11166 1.83072E+00 4.35854E-01-2.14700E-07-9.59934E-01 1.27503E-07 6.49607E-08
 -1     11171 1.77923E+00 4.87345E-01 2.17968E-07-8.89065E-01-1.37855E-07-7.02430E-08
 -1     11175 2.02235E+00 2.44223E-01 2.17978E-07-6.45944E-01 1.47174E-07 4.78218E-08
 -1     11176 1.90091E+00 3.65664E-01 3.70093E-07-7.67624E-01 3.17220E-07 1.31402E-07
 -1     11177 2.09322E+00 1.73353E-01-2.14651E-07-6.97433E-01-1.36050E-07-4.41996E-08
 -1     11182 2.02235E+00 2.44223E-01 3.29001E-07-6.45944E-01 1.61342E-07 5.24309E-08
 -1     11183 1.90091E+00 3.65664E-01 4.57383E-07-7.67624E-01 1.72850E-07 7.15980E-08
 -1     11184 2.09322E+00 1.73353E-01-4.17365E-07-6.97433E-01-8.86883E-08-2.88095E-08
 -1     11189 2.02235E+00 2.44223E-01 4.08088E-07-6.45944E-01 1.13321E-07 3.68250E-08
 -1     11190 1.90091E+00 3.65664E-01 3.96504E-07-7.67624E-01 6.35004E-08 2.63079E-08
 -1     11191 2.09322E+00 1.73354E-01-4.88425E-07-6.97432E-01-9.26033E-08-3.00800E-08
 -1     11196 2.02235E+00 2.44223E-01 4.06416E-07-6.45944E-01 3.85983E-08 1.25447E-08
 -1     11197 1.90091E+00 3.65664E-01 3.55241E-07-7.67624E-01 7.16923E-10 3.00547E-10
 -1     11198 2.09322E+00 1.73354E-01-5.65844E-07-6.97432E-01-5.27224E-08-1.71236E-08
 -1     11203 2.02235E+00 2.44223E-01 3.58598E-07-6.45944E-01-3.57649E-10-1.14405E-10
 -1     11204 1.90091E+00 3.65664E-01 3.29673E-07-7.67624E-01-6.05781E-09-2.50794E-09
 -1     11205 2.09322E+00 1.73354E-01-5.97305E-07-6.97432E-01-1.50131E-08-4.87540E-09
 -1     11210 2.02235E+00 2.44223E-01 3.36407E-07-6.45944E-01-3.13411E-14-5.27059E-15
 -1     11211 1.90091E+00 3.65664E-01 3.29673E-07-7.67624E-01 6.05784E-09 2.50792E-09
 -1     11212 2.09322E+00 1.73354E-01-5.97305E-07-6.97432E-01 1.50131E-08 4.87537E-09
 -1     11217 2.02235E+00 2.44223E-01 3.58598E-07-6.45944E-01 3.57730E-10 1.14371E-10
 -1     11218 1.90091E+00 3.65664E-01 3.55241E-07-7.67624E-01-7.16926E-10-3.00582E-10
 -1     11219 2.09322E+00 1.73354E-01-5.65844E-07-6.97432E-01 5.27225E-08 1.71236E-08
 -1     11224 2.02235E+00 2.44223E-01 4.06416E-07-6.45944E-01-3.85984E-08-1.25447E-08
 -1     11225 1.90091E+00 3.65664E-01 3.96504E-07-7.67624E-01-6.35004E-08-2.63080E-08
 -1     11226 2.09322E+00 1.73354E-01-4.88425E-07-6.97432E-01 9.26034E-08 3.00800E-08
 -1     11231 2.02235E+00 2.44223E-01 4.08088E-07-6.45944E-01-1.13321E-07-3.68250E-08
 -1     11232 1.90091E+00 3.65664E-01 4.57383E-07-7.67624E-01-1.72850E-07-7.15981E-08
 -1     11233 2.09322E+00 1.73353E-01-4.17365E-07-6.97433E-01 8.86883E-08 2.88095E-08
 -1     11238 2.02235E+00 2.44223E-01 3.29001E-07-6.45944E-01-1.61342E-07-5.24308E-08
 -1     11239 1.90091E+00 3.65664E-01 3.70093E-07-7.67624E-01-3.17220E-07-1.31402E-07
 -1     11240 2.09322E+00 1.73353E-01-2.14651E-07-6.97433E-01 1.36050E-07 4.41996E-08
 -1     11245 2.02235E+00 2.44223E-01 2.17978E-07-6.45944E-01-1.47174E-07-4.78218E-08
 -1     11249 2.17845E+00 8.81294E-02 2.17970E-07-3.39593E-01 1.52832E-07 2.42062E-08
 -1     11250 2.10055E+00 1.66026E-01 3.70090E-07-4.92845E-01 3.33870E-07 8.01542E-08
 -1     11251 2.26176E+00 4.81748E-03-2.14674E-07-3.66662E-01-1.41305E-07-2.23828E-08
 -1     11256 2.17845E+00 8.81295E-02 3.29018E-07-3.39593E-01 1.67562E-07 2.65320E-08
 -1     11257 2.10055E+00 1.66026E-01 4.57392E-07-4.92845E-01 1.81931E-07 4.36785E-08
 -1     11258 2.26176E+00 4.81744E-03-4.17378E-07-3.66662E-01-9.21218E-08-1.45930E-08
 -1     11263 2.17845E+00 8.81294E-02 4.08100E-07-3.39593E-01 1.17681E-07 1.86351E-08
 -1     11264 2.10055E+00 1.66025E-01 3.96514E-07-4.92845E-01 6.68457E-08 1.60473E-08
 -1     11265 2.26176E+00 4.81757E-03-4.88441E-07-3.66662E-01-9.61761E-08-1.52387E-08
 -1     11270 2.17845E+00 8.81294E-02 4.06418E-07-3.39593E-01 4.00824E-08 6.34612E-09
 -1     11271 2.10055E+00 1.66025E-01 3.55252E-07-4.92845E-01 7.61794E-10 1.82445E-10
 -1     11272 2.26176E+00 4.81765E-03-5.65857E-07-3.66662E-01-5.47619E-08-8.67900E-09
 -1     11277 2.17845E+00 8.81294E-02 3.58606E-07-3.39593E-01-3.70075E-10-5.98371E-11
 -1     11278 2.10055E+00 1.66025E-01 3.29685E-07-4.92845E-01-6.37289E-09-1.53012E-09
 -1     11279 2.26176E+00 4.81766E-03-5.97319E-07-3.66662E-01-1.55945E-08-2.47216E-09
 -1     11284 2.17845E+00 8.81294E-02 3.36416E-07-3.39593E-01 8.82825E-14-1.98601E-14
 -1     11285 2.10055E+00 1.66025E-01 3.29685E-07-4.92845E-01 6.37287E-09 1.53009E-09
 -1     11286 2.26176E+00 4.81766E-03-5.97319E-07-3.66662E-01 1.55945E-08 2.47210E-09
 -1     11291 2.17845E+00 8.81294E-02 3.58606E-07-3.39593E-01 3.69951E-10 5.98079E-11
 -1     11292 2.10055E+00 1.66025E-01 3.55252E-07-4.92845E-01-7.61776E-10-1.82484E-10
 -1     11293 2.26176E+00 4.81765E-03-5.65857E-07-3.66662E-01 5.47619E-08 8.67897E-09
 -1     11298 2.17845E+00 8.81294E-02 4.06418E-07-3.39593E-01-4.00825E-08-6.34613E-09
 -1     11299 2.10055E+00 1.66025E-01 3.96514E-07-4.92845E-01-6.68456E-08-1.60473E-08
 -1     11300 2.26176E+00 4.81757E-03-4.88441E-07-3.66662E-01 9.61760E-08 1.52387E-08
 -1     11305 2.17845E+00 8.81294E-02 4.08100E-07-3.39593E-01-1.17681E-07-1.86351E-08
 -1     11306 2.10055E+00 1.66026E-01 4.57392E-07-4.92845E-01-1.81931E-07-4.36786E-08
 -1     11307 2.26176E+00 4.81744E-03-4.17378E-07-3.66662E-01 9.21217E-08 1.45930E-08
 -1     11312 2.17845E+00 8.81295E-02 3.29018E-07-3.39593E-01-1.67562E-07-2.65320E-08
 -1     11313 2.10055E+00 1.66026E-01 3.70090E-07-4.92845E-01-3.33870E-07-8.01541E-08
 -1     11314 2.26176E+00 4.81748E-03-2.14674E-07-3.66662E-01 1.41305E-07 2.23828E-08
 -1     11319 2.17845E+00 8.81294E-02 2.17970E-07-3.39593E-01-1.52832E-07-2.42062E-08
 -1     11323 2.20551E+00 6.10693E-02 3.70085E-07-1.69823E-01 3.42303E-07 2.69415E-08
 -1     11327 2.20551E+00 6.10692E-02 4.57376E-07-1.69823E-01 1.86520E-07 1.46792E-08
 -1     11331 2.20551E+00 6.10691E-02 3.96501E-07-1.69823E-01 6.85267E-08 5.39267E-09
 -1     11335 2.20551E+00 6.10691E-02 3.55240E-07-1.69823E-01 7.78342E-10 6.06109E-11
 -1     11339 2.20551E+00 6.10691E-02 3.29673E-07-1.69823E-01-6.53505E-09-5.14594E-10
 -1     11343 2.20551E+00 6.10691E-02 3.29673E-07-1.69823E-01 6.53504E-09 5.14582E-10
 -1     11347 2.20551E+00 6.10691E-02 3.55240E-07-1.69823E-01-7.78417E-10-6.06093E-11
 -1     11351 2.20551E+00 6.10691E-02 3.96501E-07-1.69823E-01-6.85267E-08-5.39265E-09
 -1     11355 2.20551E+00 6.10692E-02 4.57376E-07-1.69823E-01-1.86520E-07-1.46792E-08
 -1     11359 2.20551E+00 6.10693E-02 3.70085E-07-1.69823E-01-3.42303E-07-2.69415E-08
 -1     11365 2.22529E-01 2.04405E+00-5.26230E-08-2.95924E-01-5.87750E-09-3.71095E-08
 -1     11366 1.98954E-01 2.06762E+00-1.22126E-07-1.47984E-01-9.48416E-09-1.20508E-07
 -1     11367 1.55286E-01 2.11129E+00 6.18185E-08-3.17772E-01 1.04576E-08 6.60267E-08
 -1     11372 2.22528E-01 2.04405E+00-1.18940E-07-2.95924E-01-8.49317E-09-5.36242E-08
 -1     11373 1.98954E-01 2.06762E+00-1.53547E-07-1.47984E-01-4.07649E-09-5.17967E-08
 -1     11374 1.55286E-01 2.11129E+00 1.34142E-07-3.17772E-01 4.13003E-09 2.60756E-08
 -1     11379 2.22529E-01 2.04405E+00-1.31673E-07-2.95924E-01-4.44882E-09-2.80890E-08
 -1     11380 1.98954E-01 2.06762E+00-1.27727E-07-1.47984E-01-1.28658E-09-1.63475E-08
 -1     11381 1.55286E-01 2.11129E+00 1.35635E-07-3.17772E-01 2.27905E-09 1.43889E-08
 -1     11386 2.22529E-01 2.04405E+00-1.23878E-07-2.95924E-01-1.85281E-09-1.16982E-08
 -1     11387 1.98954E-01 2.06762E+00-1.12684E-07-1.47984E-01-3.40764E-10-4.32964E-09
 -1     11388 1.55286E-01 2.11129E+00 1.44013E-07-3.17772E-01 1.39729E-09 8.82199E-09
 -1     11393 2.22529E-01 2.04405E+00-1.18132E-07-2.95924E-01-5.76392E-10-3.63931E-09
 -1     11394 1.98954E-01 2.06762E+00-1.08396E-07-1.47984E-01 1.17620E-12 1.52022E-11
 -1     11395 1.55286E-01 2.11129E+00 1.52045E-07-3.17772E-01 4.18033E-10 2.63927E-09
 -1     11400 2.22529E-01 2.04405E+00-1.14516E-07-2.95924E-01 7.80893E-15-2.79820E-14
 -1     11401 1.98954E-01 2.06762E+00-1.08396E-07-1.47984E-01-1.20785E-12-1.52042E-11
 -1     11402 1.55286E-01 2.11129E+00 1.52045E-07-3.17772E-01-4.18021E-10-2.63926E-09
 -1     11407 2.22529E-01 2.04405E+00-1.18132E-07-2.95924E-01 5.76418E-10 3.63934E-09
 -1     11408 1.98954E-01 2.06762E+00-1.12684E-07-1.47984E-01 3.40735E-10 4.32964E-09
 -1     11409 1.55286E-01 2.11129E+00 1.44013E-07-3.17772E-01-1.39729E-09-8.82197E-09
 -1     11414 2.22529E-01 2.04405E+00-1.23878E-07-2.95924E-01 1.85280E-09 1.16982E-08
 -1     11415 1.98954E-01 2.06762E+00-1.27727E-07-1.47984E-01 1.28657E-09 1.63475E-08
 -1     11416 1.55286E-01 2.11129E+00 1.35635E-07-3.17772E-01-2.27904E-09-1.43890E-08
 -1     11421 2.22529E-01 2.04405E+00-1.31673E-07-2.95924E-01 4.44881E-09 2.80889E-08
 -1     11422 1.98954E-01 2.06762E+00-1.53547E-07-1.47984E-01 4.07649E-09 5.17967E-08
 -1     11423 1.55286E-01 2.11129E+00 1.34142E-07-3.17772E-01-4.13003E-09-2.60756E-08
 -1     11428 2.22528E-01 2.04405E+00-1.18940E-07-2.95924E-01 8.49318E-09 5.36242E-08
 -1     11429 1.98954E-01 2.06762E+00-1.22126E-07-1.47984E-01 9.48416E-09 1.20508E-07
 -1     11430 1.55286E-01 2.11129E+00 6.18185E-08-3.17772E-01-1.04576E-08-6.60266E-08
 -1     11435 2.22529E-01 2.04405E+00-5.26230E-08-2.95924E-01 5.87750E-09 3.71095E-08
 -1     11439 3.58550E-01 1.90803E+00-5.26231E-08-5.62880E-01-1.16103E-08-3.57332E-08
 -1     11440 2.90413E-01 1.97616E+00-1.22126E-07-4.29466E-01-2.82189E-08-1.17540E-07
 -1     11441 3.01350E-01 1.96523E+00 6.18183E-08-6.04438E-01 2.06576E-08 6.35778E-08
 -1     11446 3.58550E-01 1.90803E+00-1.18940E-07-5.62880E-01-1.67772E-08-5.16354E-08
 -1     11447 2.90413E-01 1.97616E+00-1.53547E-07-4.29466E-01-1.21291E-08-5.05213E-08
 -1     11448 3.01350E-01 1.96523E+00 1.34142E-07-6.04438E-01 8.15821E-09 2.51085E-08
 -1     11453 3.58550E-01 1.90803E+00-1.31673E-07-5.62880E-01-8.78813E-09-2.70472E-08
 -1     11454 2.90413E-01 1.97616E+00-1.27727E-07-4.29466E-01-3.82803E-09-1.59450E-08
 -1     11455 3.01350E-01 1.96523E+00 1.35634E-07-6.04438E-01 4.50188E-09 1.38553E-08
 -1     11460 3.58550E-01 1.90803E+00-1.23877E-07-5.62880E-01-3.66000E-09-1.12644E-08
 -1     11461 2.90413E-01 1.97616E+00-1.12684E-07-4.29466E-01-1.01384E-09-4.22301E-09
 -1     11462 3.01350E-01 1.96523E+00 1.44013E-07-6.04438E-01 2.76010E-09 8.49464E-09
 -1     11467 3.58550E-01 1.90803E+00-1.18132E-07-5.62880E-01-1.13864E-09-3.50432E-09
 -1     11468 2.90413E-01 1.97616E+00-1.08396E-07-4.29466E-01 3.56427E-12 1.48052E-11
 -1     11469 3.01350E-01 1.96523E+00 1.52044E-07-6.04438E-01 8.25737E-10 2.54139E-09
 -1     11474 3.58550E-01 1.90803E+00-1.14516E-07-5.62880E-01 3.01718E-14 4.67650E-14
 -1     11475 2.90413E-01 1.97616E+00-1.08396E-07-4.29466E-01-3.54486E-12-1.47864E-11
 -1     11476 3.01350E-01 1.96523E+00 1.52044E-07-6.04438E-01-8.25719E-10-2.54127E-09
 -1     11481 3.58550E-01 1.90803E+00-1.18131E-07-5.62880E-01 1.13861E-09 3.50435E-09
 -1     11482 2.90413E-01 1.97616E+00-1.12684E-07-4.29466E-01 1.01386E-09 4.22301E-09
 -1     11483 3.01350E-01 1.96523E+00 1.44013E-07-6.04438E-01-2.76012E-09-8.49471E-09
 -1     11488 3.58550E-01 1.90803E+00-1.23877E-07-5.62880E-01 3.65998E-09 1.12643E-08
 -1     11489 2.90413E-01 1.97616E+00-1.27727E-07-4.29466E-01 3.82808E-09 1.59450E-08
 -1     11490 3.01350E-01 1.96523E+00 1.35634E-07-6.04438E-01-4.50186E-09-1.38552E-08
 -1     11495 3.58550E-01 1.90803E+00-1.31673E-07-5.62880E-01 8.78817E-09 2.70472E-08
 -1     11496 2.90413E-01 1.97616E+00-1.53547E-07-4.29466E-01 1.21292E-08 5.05213E-08
 -1     11497 3.01350E-01 1.96523E+00 1.34142E-07-6.04438E-01-8.15820E-09-2.51085E-08
 -1     11502 3.58550E-01 1.90803E+00-1.18940E-07-5.62880E-01 1.67773E-08 5.16354E-08
 -1     11503 2.90413E-01 1.97616E+00-1.22126E-07-4.29466E-01 2.82190E-08 1.17540E-07
 -1     11504 3.01350E-01 1.96523E+00 6.18183E-08-6.04438E-01-2.06576E-08-6.35779E-08
 -1     11509 3.58550E-01 1.90803E+00-5.26230E-08-5.62880E-01 1.16104E-08 3.57331E-08
 -1     11513 5.70408E-01 1.69617E+00-5.26223E-08-7.74738E-01-1.70574E-08-3.34769E-08
 -1     11514 4.64379E-01 1.80220E+00-1.22126E-07-6.68909E-01-4.62589E-08-1.11679E-07
 -1     11515 5.28850E-01 1.73773E+00 6.18176E-08-8.31938E-01 3.03489E-08 5.95634E-08
 -1     11520 5.70408E-01 1.69617E+00-1.18940E-07-7.74738E-01-2.46483E-08-4.83753E-08
 -1     11521 4.64379E-01 1.80220E+00-1.53547E-07-6.68909E-01-1.98831E-08-4.80020E-08
 -1     11522 5.28850E-01 1.73773E+00 1.34141E-07-8.31938E-01 1.19856E-08 2.35230E-08
 -1     11527 5.70408E-01 1.69617E+00-1.31672E-07-7.74738E-01-1.29110E-08-2.53396E-08
 -1     11528 4.64379E-01 1.80220E+00-1.27727E-07-6.68909E-01-6.27529E-09-1.51499E-08
 -1     11529 5.28850E-01 1.73773E+00 1.35634E-07-8.31938E-01 6.61384E-09 1.29803E-08
 -1     11534 5.70408E-01 1.69617E+00-1.23877E-07-7.74738E-01-5.37706E-09-1.05532E-08
 -1     11535 4.64379E-01 1.80220E+00-1.12684E-07-6.68909E-01-1.66201E-09-4.01242E-09
 -1     11536 5.28850E-01 1.73773E+00 1.44012E-07-8.31938E-01 4.05495E-09 7.95827E-09
 -1     11541 5.70408E-01 1.69617E+00-1.18131E-07-7.74738E-01-1.67281E-09-3.28311E-09
 -1     11542 4.64379E-01 1.80220E+00-1.08396E-07-6.68909E-01 5.82751E-12 1.40178E-11
 -1     11543 5.28850E-01 1.73773E+00 1.52044E-07-8.31938E-01 1.21312E-09 2.38084E-09
 -1     11548 5.70408E-01 1.69617E+00-1.14516E-07-7.74738E-01-5.18014E-14 2.00473E-14
 -1     11549 4.64379E-01 1.80220E+00-1.08396E-07-6.68909E-01-5.84564E-12-1.39928E-11
 -1     11550 5.28850E-01 1.73773E+00 1.52044E-07-8.31938E-01-1.21317E-09-2.38080E-09
 -1     11555 5.70408E-01 1.69617E+00-1.18131E-07-7.74738E-01 1.67279E-09 3.28322E-09
 -1     11556 4.64379E-01 1.80220E+00-1.12684E-07-6.68909E-01 1.66198E-09 4.01246E-09
 -1     11557 5.28850E-01 1.73773E+00 1.44012E-07-8.31938E-01-4.05502E-09-7.95820E-09
 -1     11562 5.70408E-01 1.69617E+00-1.23877E-07-7.74738E-01 5.37702E-09 1.05532E-08
 -1     11563 4.64379E-01 1.80220E+00-1.27727E-07-6.68909E-01 6.27525E-09 1.51499E-08
 -1     11564 5.28850E-01 1.73773E+00 1.35633E-07-8.31938E-01-6.61387E-09-1.29803E-08
 -1     11569 5.70408E-01 1.69617E+00-1.31672E-07-7.74738E-01 1.29110E-08 2.53396E-08
 -1     11570 4.64379E-01 1.80220E+00-1.53547E-07-6.68909E-01 1.98830E-08 4.80019E-08
 -1     11571 5.28850E-01 1.73773E+00 1.34141E-07-8.31938E-01-1.19856E-08-2.35230E-08
 -1     11576 5.70408E-01 1.69617E+00-1.18940E-07-7.74738E-01 2.46482E-08 4.83752E-08
 -1     11577 4.64379E-01 1.80220E+00-1.22126E-07-6.68909E-01 4.62588E-08 1.11679E-07
 -1     11578 5.28850E-01 1.73773E+00 6.18176E-08-8.31938E-01-3.03490E-08-5.95635E-08
 -1     11583 5.70408E-01 1.69617E+00-5.26223E-08-7.74738E-01 1.70573E-08 3.34769E-08
 -1     11587 8.37364E-01 1.42921E+00-5.26220E-08-9.10759E-01-2.20844E-08-3.03961E-08
 -1     11588 7.03822E-01 1.56275E+00-1.22127E-07-8.42875E-01-6.31597E-08-1.03068E-07
 -1     11589 8.15516E-01 1.45106E+00 6.18177E-08-9.78002E-01 3.92929E-08 5.40827E-08
 -1     11594 8.37364E-01 1.42921E+00-1.18939E-07-9.10759E-01-3.19125E-08-4.39234E-08
 -1     11595 7.03822E-01 1.56275E+00-1.53548E-07-8.42875E-01-2.71475E-08-4.43006E-08
 -1     11596 8.15516E-01 1.45106E+00 1.34141E-07-9.78002E-01 1.55175E-08 2.13587E-08
 -1     11601 8.37364E-01 1.42921E+00-1.31672E-07-9.10759E-01-1.67161E-08-2.30076E-08
 -1     11602 7.03822E-01 1.56275E+00-1.27728E-07-8.42875E-01-8.56800E-09-1.39816E-08
 -1     11603 8.15516E-01 1.45106E+00 1.35633E-07-9.78002E-01 8.56270E-09 1.17861E-08
 -1     11608 8.37364E-01 1.42921E+00-1.23876E-07-9.10759E-01-6.96178E-09-9.58192E-09
 -1     11609 7.03822E-01 1.56275E+00-1.12684E-07-8.42875E-01-2.26929E-09-3.70305E-09
 -1     11610 8.15516E-01 1.45106E+00 1.44012E-07-9.78002E-01 5.24981E-09 7.22596E-09
 -1     11615 8.37364E-01 1.42921E+00-1.18131E-07-9.10759E-01-2.16586E-09-2.98090E-09
 -1     11616 7.03822E-01 1.56275E+00-1.08397E-07-8.42875E-01 7.94348E-12 1.29548E-11
 -1     11617 8.15516E-01 1.45106E+00 1.52043E-07-9.78002E-01 1.57054E-09 2.16177E-09
 -1     11622 8.37364E-01 1.42921E+00-1.14515E-07-9.10759E-01-1.92697E-14-1.35450E-14
 -1     11623 7.03822E-01 1.56275E+00-1.08396E-07-8.42875E-01-7.95409E-12-1.29517E-11
 -1     11624 8.15516E-01 1.45106E+00 1.52043E-07-9.78002E-01-1.57055E-09-2.16178E-09
 -1     11629 8.37364E-01 1.42921E+00-1.18131E-07-9.10759E-01 2.16587E-09 2.98094E-09
 -1     11630 7.03822E-01 1.56275E+00-1.12684E-07-8.42875E-01 2.26929E-09 3.70313E-09
 -1     11631 8.15516E-01 1.45106E+00 1.44011E-07-9.78002E-01-5.24977E-09-7.22593E-09
 -1     11636 8.37364E-01 1.42921E+00-1.23876E-07-9.10759E-01 6.96186E-09 9.58206E-09
 -1     11637 7.03822E-01 1.56275E+00-1.27728E-07-8.42875E-01 8.56802E-09 1.39817E-08
 -1     11638 8.15516E-01 1.45106E+00 1.35633E-07-9.78002E-01-8.56265E-09-1.17859E-08
 -1     11643 8.37364E-01 1.42921E+00-1.31672E-07-9.10759E-01 1.67161E-08 2.30077E-08
 -1     11644 7.03822E-01 1.56275E+00-1.53548E-07-8.42875E-01 2.71475E-08 4.43006E-08
 -1     11645 8.15516E-01 1.45106E+00 1.34141E-07-9.78002E-01-1.55175E-08-2.13586E-08
 -1     11650 8.37364E-01 1.42921E+00-1.18939E-07-9.10759E-01 3.19126E-08 4.39235E-08
 -1     11651 7.03822E-01 1.56275E+00-1.22127E-07-8.42875E-01 6.31597E-08 1.03068E-07
 -1     11652 8.15516E-01 1.45106E+00 6.18176E-08-9.78002E-01-3.92929E-08-5.40826E-08
 -1     11657 8.37364E-01 1.42921E+00-5.26221E-08-9.10759E-01 2.20844E-08 3.03961E-08
 -1     11661 1.13329E+00 1.13329E+00-5.26221E-08-9.57629E-01-2.65680E-08-2.65662E-08
 -1     11662 9.85304E-01 1.28127E+00-1.22127E-07-9.34334E-01-7.85051E-08-9.19182E-08
 -1     11663 1.13329E+00 1.13329E+00 6.18186E-08-1.02833E+00 4.72691E-08 4.72681E-08
 -1     11668 1.13329E+00 1.13329E+00-1.18939E-07-9.57629E-01-3.83907E-08-3.83903E-08
 -1     11669 9.85304E-01 1.28127E+00-1.53547E-07-9.34334E-01-3.37431E-08-3.95084E-08
 -1     11670 1.13329E+00 1.13329E+00 1.34142E-07-1.02833E+00 1.86677E-08 1.86669E-08
 -1     11675 1.13329E+00 1.13329E+00-1.31672E-07-9.57629E-01-2.01097E-08-2.01096E-08
 -1     11676 9.85304E-01 1.28127E+00-1.27728E-07-9.34334E-01-1.06497E-08-1.24692E-08
 -1     11677 1.13329E+00 1.13329E+00 1.35635E-07-1.02833E+00 1.03013E-08 1.03006E-08
 -1     11682 1.13329E+00 1.13329E+00-1.23877E-07-9.57629E-01-8.37515E-09-8.37518E-09
 -1     11683 9.85304E-01 1.28127E+00-1.12685E-07-9.34334E-01-2.82057E-09-3.30248E-09
 -1     11684 1.13329E+00 1.13329E+00 1.44013E-07-1.02833E+00 6.31572E-09 6.31520E-09
 -1     11689 1.13329E+00 1.13329E+00-1.18131E-07-9.57629E-01-2.60547E-09-2.60556E-09
 -1     11690 9.85304E-01 1.28127E+00-1.08397E-07-9.34334E-01 9.84485E-12 1.15662E-11
 -1     11691 1.13329E+00 1.13329E+00 1.52045E-07-1.02833E+00 1.88944E-09 1.88928E-09
 -1     11696 1.13329E+00 1.13329E+00-1.14516E-07-9.57629E-01-4.41967E-14 3.43076E-14
 -1     11697 9.85304E-01 1.28127E+00-1.08397E-07-9.34334E-01-9.85612E-12-1.15242E-11
 -1     11698 1.13329E+00 1.13329E+00 1.52045E-07-1.02833E+00-1.88948E-09-1.88922E-09
 -1     11703 1.13329E+00 1.13329E+00-1.18131E-07-9.57629E-01 2.60550E-09 2.60558E-09
 -1     11704 9.85304E-01 1.28127E+00-1.12685E-07-9.34334E-01 2.82059E-09 3.30254E-09
 -1     11705 1.13329E+00 1.13329E+00 1.44013E-07-1.02833E+00-6.31565E-09-6.31517E-09
 -1     11710 1.13329E+00 1.13329E+00-1.23877E-07-9.57629E-01 8.37523E-09 8.37521E-09
 -1     11711 9.85304E-01 1.28127E+00-1.27728E-07-9.34334E-01 1.06497E-08 1.24693E-08
 -1     11712 1.13329E+00 1.13329E+00 1.35635E-07-1.02833E+00-1.03012E-08-1.03005E-08
 -1     11717 1.13329E+00 1.13329E+00-1.31672E-07-9.57629E-01 2.01097E-08 2.01095E-08
 -1     11718 9.85304E-01 1.28127E+00-1.53547E-07-9.34334E-01 3.37432E-08 3.95084E-08
 -1     11719 1.13329E+00 1.13329E+00 1.34142E-07-1.02833E+00-1.86677E-08-1.86670E-08
 -1     11724 1.13329E+00 1.13329E+00-1.18939E-07-9.57629E-01 3.83908E-08 3.83902E-08
 -1     11725 9.85304E-01 1.28127E+00-1.22127E-07-9.34334E-01 7.85050E-08 9.19182E-08
 -1     11726 1.13329E+00 1.13329E+00 6.18186E-08-1.02833E+00-4.72691E-08-4.72681E-08
 -1     11731 1.13329E+00 1.13329E+00-5.26222E-08-9.57629E-01 2.65679E-08 2.65663E-08
 -1     11735 1.42921E+00 8.37364E-01-5.26234E-08-9.10759E-01-3.03954E-08-2.20847E-08
 -1     11736 1.28127E+00 9.85304E-01-1.22127E-07-9.34334E-01-9.19183E-08-7.85067E-08
 -1     11737 1.45106E+00 8.15516E-01 6.18205E-08-9.78002E-01 5.40823E-08 3.92910E-08
 -1     11742 1.42921E+00 8.37364E-01-1.18943E-07-9.10759E-01-4.39250E-08-3.19131E-08
 -1     11743 1.28127E+00 9.85304E-01-1.53549E-07-9.34334E-01-3.95086E-08-3.37439E-08
 -1     11744 1.45106E+00 8.15516E-01 1.34144E-07-9.78002E-01 2.13569E-08 1.55134E-08
 -1     11749 1.42921E+00 8.37364E-01-1.31676E-07-9.10759E-01-2.30085E-08-1.67176E-08
 -1     11750 1.28127E+00 9.85304E-01-1.27729E-07-9.34334E-01-1.24695E-08-1.06502E-08
 -1     11751 1.45106E+00 8.15516E-01 1.35633E-07-9.78002E-01 1.17837E-08 8.55909E-09
 -1     11756 1.42921E+00 8.37364E-01-1.23880E-07-9.10759E-01-9.58302E-09-6.96324E-09
 -1     11757 1.28127E+00 9.85304E-01-1.12686E-07-9.34334E-01-3.30290E-09-2.82119E-09
 -1     11758 1.45106E+00 8.15516E-01 1.44010E-07-9.78002E-01 7.22443E-09 5.24738E-09
 -1     11763 1.42921E+00 8.37364E-01-1.18136E-07-9.10759E-01-2.98164E-09-2.16665E-09
 -1     11764 1.28127E+00 9.85304E-01-1.08399E-07-9.34334E-01 1.14774E-11 9.65843E-12
 -1     11765 1.45106E+00 8.15516E-01 1.52041E-07-9.78002E-01 2.16123E-09 1.56966E-09
 -1     11770 1.42921E+00 8.37364E-01-1.14521E-07-9.10759E-01 3.09510E-14 2.06938E-14
 -1     11771 1.28127E+00 9.85304E-01-1.08399E-07-9.34334E-01-1.14344E-11-9.65106E-12
 -1     11772 1.45106E+00 8.15516E-01 1.52041E-07-9.78002E-01-2.16116E-09-1.56965E-09
 -1     11777 1.42921E+00 8.37364E-01-1.18136E-07-9.10759E-01 2.98162E-09 2.16668E-09
 -1     11778 1.28127E+00 9.85304E-01-1.12686E-07-9.34334E-01 3.30288E-09 2.82120E-09
 -1     11779 1.45106E+00 8.15516E-01 1.44010E-07-9.78002E-01-7.22452E-09-5.24741E-09
 -1     11784 1.42921E+00 8.37364E-01-1.23880E-07-9.10759E-01 9.58294E-09 6.96320E-09
 -1     11785 1.28127E+00 9.85304E-01-1.27729E-07-9.34334E-01 1.24695E-08 1.06503E-08
 -1     11786 1.45106E+00 8.15516E-01 1.35633E-07-9.78002E-01-1.17837E-08-8.55912E-09
 -1     11791 1.42921E+00 8.37364E-01-1.31676E-07-9.10759E-01 2.30085E-08 1.67177E-08
 -1     11792 1.28127E+00 9.85304E-01-1.53549E-07-9.34334E-01 3.95087E-08 3.37439E-08
 -1     11793 1.45106E+00 8.15516E-01 1.34144E-07-9.78002E-01-2.13569E-08-1.55134E-08
 -1     11798 1.42921E+00 8.37364E-01-1.18942E-07-9.10759E-01 4.39251E-08 3.19131E-08
 -1     11799 1.28127E+00 9.85304E-01-1.22127E-07-9.34334E-01 9.19183E-08 7.85066E-08
 -1     11800 1.45106E+00 8.15516E-01 6.18205E-08-9.78002E-01-5.40823E-08-3.92910E-08
 -1     11805 1.42921E+00 8.37364E-01-5.26233E-08-9.10759E-01 3.03955E-08 2.20846E-08
 -1     11809 1.69617E+00 5.70408E-01-5.26314E-08-7.74738E-01-3.34766E-08-1.70574E-08
 -1     11810 1.56275E+00 7.03822E-01-1.22127E-07-8.42875E-01-1.03068E-07-6.31597E-08
 -1     11811 1.73773E+00 5.28850E-01 6.18266E-08-8.31938E-01 5.95558E-08 3.03478E-08
 -1     11816 1.69617E+00 5.70408E-01-1.18941E-07-7.74738E-01-4.83742E-08-2.46484E-08
 -1     11817 1.56275E+00 7.03822E-01-1.53546E-07-8.42875E-01-4.43025E-08-2.71490E-08
 -1     11818 1.73773E+00 5.28850E-01 1.34142E-07-8.31938E-01 2.35169E-08 1.19854E-08
 -1     11823 1.69617E+00 5.70408E-01-1.31675E-07-7.74738E-01-2.53423E-08-1.29119E-08
 -1     11824 1.56275E+00 7.03822E-01-1.27728E-07-8.42875E-01-1.39838E-08-8.56937E-09
 -1     11825 1.73773E+00 5.28850E-01 1.35633E-07-8.31938E-01 1.29744E-08 6.61328E-09
 -1     11830 1.69617E+00 5.70408E-01-1.23883E-07-7.74738E-01-1.05550E-08-5.37738E-09
 -1     11831 1.56275E+00 7.03822E-01-1.12686E-07-8.42875E-01-3.70423E-09-2.27000E-09
 -1     11832 1.73773E+00 5.28850E-01 1.44010E-07-8.31938E-01 7.95283E-09 4.05398E-09
 -1     11837 1.69617E+00 5.70408E-01-1.18135E-07-7.74738E-01-3.28389E-09-1.67287E-09
 -1     11838 1.56275E+00 7.03822E-01-1.08399E-07-8.42875E-01 1.23786E-11 7.50482E-12
 -1     11839 1.73773E+00 5.28850E-01 1.52040E-07-8.31938E-01 2.37912E-09 1.21287E-09
 -1     11844 1.69617E+00 5.70408E-01-1.14522E-07-7.74738E-01 2.90437E-14-3.01955E-14
 -1     11845 1.56275E+00 7.03822E-01-1.08399E-07-8.42875E-01-1.23206E-11-7.52924E-12
 -1     11846 1.73773E+00 5.28850E-01 1.52040E-07-8.31938E-01-2.37907E-09-1.21288E-09
 -1     11851 1.69617E+00 5.70408E-01-1.18136E-07-7.74738E-01 3.28393E-09 1.67288E-09
 -1     11852 1.56275E+00 7.03822E-01-1.12686E-07-8.42875E-01 3.70419E-09 2.27000E-09
 -1     11853 1.73773E+00 5.28850E-01 1.44010E-07-8.31938E-01-7.95278E-09-4.05396E-09
 -1     11858 1.69617E+00 5.70408E-01-1.23883E-07-7.74738E-01 1.05551E-08 5.37739E-09
 -1     11859 1.56275E+00 7.03822E-01-1.27728E-07-8.42875E-01 1.39838E-08 8.56939E-09
 -1     11860 1.73773E+00 5.28850E-01 1.35633E-07-8.31938E-01-1.29744E-08-6.61328E-09
 -1     11865 1.69617E+00 5.70408E-01-1.31675E-07-7.74738E-01 2.53423E-08 1.29119E-08
 -1     11866 1.56275E+00 7.03822E-01-1.53546E-07-8.42875E-01 4.43026E-08 2.71490E-08
 -1     11867 1.73773E+00 5.28850E-01 1.34142E-07-8.31938E-01-2.35169E-08-1.19854E-08
 -1     11872 1.69617E+00 5.70408E-01-1.18941E-07-7.74738E-01 4.83741E-08 2.46485E-08
 -1     11873 1.56275E+00 7.03822E-01-1.22127E-07-8.42875E-01 1.03068E-07 6.31597E-08
 -1     11874 1.73773E+00 5.28850E-01 6.18266E-08-8.31938E-01-5.95559E-08-3.03478E-08
 -1     11879 1.69617E+00 5.70408E-01-5.26314E-08-7.74738E-01 3.34766E-08 1.70574E-08
 -1     11883 1.90803E+00 3.58550E-01-5.26156E-08-5.62880E-01-3.57327E-08-1.16105E-08
 -1     11884 1.80220E+00 4.64379E-01-1.22126E-07-6.68909E-01-1.11679E-07-4.62593E-08
 -1     11885 1.96523E+00 3.01350E-01 6.18132E-08-6.04438E-01 6.35836E-08 2.06620E-08
 -1     11890 1.90803E+00 3.58550E-01-1.18941E-07-5.62880E-01-5.16358E-08-1.67781E-08
 -1     11891 1.80220E+00 4.64379E-01-1.53547E-07-6.68909E-01-4.80024E-08-1.98820E-08
 -1     11892 1.96523E+00 3.01350E-01 1.34146E-07-6.04438E-01 2.51130E-08 8.16253E-09
 -1     11897 1.90803E+00 3.58550E-01-1.31672E-07-5.62880E-01-2.70446E-08-8.78667E-09
 -1     11898 1.80220E+00 4.64379E-01-1.27727E-07-6.68909E-01-1.51500E-08-6.27465E-09
 -1     11899 1.96523E+00 3.01350E-01 1.35640E-07-6.04438E-01 1.38603E-08 4.50585E-09
 -1     11904 1.90803E+00 3.58550E-01-1.23874E-07-5.62880E-01-1.12628E-08-3.65887E-09
 -1     11905 1.80220E+00 4.64379E-01-1.12684E-07-6.68909E-01-4.01262E-09-1.66160E-09
 -1     11906 1.96523E+00 3.01350E-01 1.44020E-07-6.04438E-01 8.49954E-09 2.76341E-09
 -1     11911 1.90803E+00 3.58550E-01-1.18129E-07-5.62880E-01-3.50369E-09-1.13807E-09
 -1     11912 1.80220E+00 4.64379E-01-1.08396E-07-6.68909E-01 1.40520E-11 5.98989E-12
 -1     11913 1.96523E+00 3.01350E-01 1.52054E-07-6.04438E-01 2.54289E-09 8.26886E-10
 -1     11918 1.90803E+00 3.58550E-01-1.14513E-07-5.62880E-01 2.89732E-14-3.27461E-15
 -1     11919 1.80220E+00 4.64379E-01-1.08396E-07-6.68909E-01-1.39793E-11-6.01595E-12
 -1     11920 1.96523E+00 3.01350E-01 1.52054E-07-6.04438E-01-2.54279E-09-8.26907E-10
 -1     11925 1.90803E+00 3.58550E-01-1.18129E-07-5.62880E-01 3.50370E-09 1.13802E-09
 -1     11926 1.80220E+00 4.64379E-01-1.12684E-07-6.68909E-01 4.01258E-09 1.66157E-09
 -1     11927 1.96523E+00 3.01350E-01 1.44020E-07-6.04438E-01-8.49961E-09-2.76346E-09
 -1     11932 1.90803E+00 3.58550E-01-1.23874E-07-5.62880E-01 1.12627E-08 3.65881E-09
 -1     11933 1.80220E+00 4.64379E-01-1.27727E-07-6.68909E-01 1.51501E-08 6.27462E-09
 -1     11934 1.96523E+00 3.01350E-01 1.35640E-07-6.04438E-01-1.38602E-08-4.50588E-09
 -1     11939 1.90803E+00 3.58550E-01-1.31672E-07-5.62880E-01 2.70447E-08 8.78667E-09
 -1     11940 1.80220E+00 4.64379E-01-1.53547E-07-6.68909E-01 4.80024E-08 1.98820E-08
 -1     11941 1.96523E+00 3.01350E-01 1.34146E-07-6.04438E-01-2.51129E-08-8.16257E-09
 -1     11946 1.90803E+00 3.58550E-01-1.18941E-07-5.62880E-01 5.16359E-08 1.67780E-08
 -1     11947 1.80220E+00 4.64379E-01-1.22126E-07-6.68909E-01 1.11679E-07 4.62593E-08
 -1     11948 1.96523E+00 3.01350E-01 6.18132E-08-6.04438E-01-6.35835E-08-2.06620E-08
 -1     11953 1.90803E+00 3.58550E-01-5.26156E-08-5.62880E-01 3.57327E-08 1.16105E-08
 -1     11957 2.04405E+00 2.22529E-01-5.26239E-08-2.95924E-01-3.71095E-08-5.87881E-09
 -1     11958 1.97616E+00 2.90413E-01-1.22124E-07-4.29466E-01-1.17540E-07-2.82185E-08
 -1     11959 2.11129E+00 1.55286E-01 6.18191E-08-3.17772E-01 6.60278E-08 1.04557E-08
 -1     11964 2.04405E+00 2.22528E-01-1.18940E-07-2.95924E-01-5.36226E-08-8.49300E-09
 -1     11965 1.97616E+00 2.90413E-01-1.53547E-07-4.29466E-01-5.05188E-08-1.21288E-08
 -1     11966 2.11129E+00 1.55286E-01 1.34143E-07-3.17772E-01 2.60801E-08 4.12764E-09
 -1     11971 2.04405E+00 2.22529E-01-1.31672E-07-2.95924E-01-2.80874E-08-4.44950E-09
 -1     11972 1.97616E+00 2.90413E-01-1.27726E-07-4.29466E-01-1.59423E-08-3.82757E-09
 -1     11973 2.11129E+00 1.55286E-01 1.35640E-07-3.17772E-01 1.43938E-08 2.27764E-09
 -1     11978 2.04405E+00 2.22529E-01-1.23877E-07-2.95924E-01-1.16965E-08-1.85328E-09
 -1     11979 1.97616E+00 2.90413E-01-1.12681E-07-4.29466E-01-4.22162E-09-1.01357E-09
 -1     11980 2.11129E+00 1.55286E-01 1.44020E-07-3.17772E-01 8.82519E-09 1.39637E-09
 -1     11985 2.04405E+00 2.22529E-01-1.18129E-07-2.95924E-01-3.63815E-09-5.76599E-10
 -1     11986 1.97616E+00 2.90413E-01-1.08393E-07-4.29466E-01 1.55906E-11 3.70535E-12
 -1     11987 2.11129E+00 1.55286E-01 1.52053E-07-3.17772E-01 2.64053E-09 4.17708E-10
 -1     11992 2.04405E+00 2.22529E-01-1.14514E-07-2.95924E-01-6.68155E-14-1.21960E-14
 -1     11993 1.97616E+00 2.90413E-01-1.08393E-07-4.29466E-01-1.55717E-11-3.70691E-12
 -1     11994 2.11129E+00 1.55286E-01 1.52053E-07-3.17772E-01-2.64057E-09-4.17743E-10
 -1     11999 2.04405E+00 2.22529E-01-1.18129E-07-2.95924E-01 3.63814E-09 5.76576E-10
 -1     12000 1.97616E+00 2.90413E-01-1.12681E-07-4.29466E-01 4.22158E-09 1.01355E-09
 -1     12001 2.11129E+00 1.55286E-01 1.44020E-07-3.17772E-01-8.82520E-09-1.39640E-09
 -1     12006 2.04405E+00 2.22529E-01-1.23877E-07-2.95924E-01 1.16966E-08 1.85326E-09
 -1     12007 1.97616E+00 2.90413E-01-1.27726E-07-4.29466E-01 1.59424E-08 3.82753E-09
 -1     12008 2.11129E+00 1.55286E-01 1.35640E-07-3.17772E-01-1.43939E-08-2.27766E-09
 -1     12013 2.04405E+00 2.22529E-01-1.31672E-07-2.95924E-01 2.80874E-08 4.44948E-09
 -1     12014 1.97616E+00 2.90413E-01-1.53547E-07-4.29466E-01 5.05189E-08 1.21288E-08
 -1     12015 2.11129E+00 1.55286E-01 1.34143E-07-3.17772E-01-2.60801E-08-4.12765E-09
 -1     12020 2.04405E+00 2.22528E-01-1.18940E-07-2.95924E-01 5.36226E-08 8.49300E-09
 -1     12021 1.97616E+00 2.90413E-01-1.22124E-07-4.29466E-01 1.17540E-07 2.82184E-08
 -1     12022 2.11129E+00 1.55286E-01 6.18191E-08-3.17772E-01-6.60278E-08-1.04557E-08
 -1     12027 2.04405E+00 2.22529E-01-5.26239E-08-2.95924E-01 3.71094E-08 5.87880E-09
 -1     12031 2.06762E+00 1.98954E-01-1.22124E-07-1.47984E-01-1.20507E-07-9.48444E-09
 -1     12035 2.06762E+00 1.98954E-01-1.53544E-07-1.47984E-01-5.17963E-08-4.07652E-09
 -1     12039 2.06762E+00 1.98954E-01-1.27725E-07-1.47984E-01-1.63468E-08-1.28669E-09
 -1     12043 2.06762E+00 1.98954E-01-1.12681E-07-1.47984E-01-4.32882E-09-3.40841E-10
 -1     12047 2.06762E+00 1.98954E-01-1.08392E-07-1.47984E-01 1.54363E-11 1.16184E-12
 -1     12051 2.06762E+00 1.98954E-01-1.08392E-07-1.47984E-01-1.54516E-11-1.14708E-12
 -1     12055 2.06762E+00 1.98954E-01-1.12681E-07-1.47984E-01 4.32883E-09 3.40846E-10
 -1     12059 2.06762E+00 1.98954E-01-1.27725E-07-1.47984E-01 1.63467E-08 1.28667E-09
 -1     12063 2.06762E+00 1.98954E-01-1.53544E-07-1.47984E-01 5.17962E-08 4.07653E-09
 -1     12067 2.06762E+00 1.98954E-01-1.22124E-07-1.47984E-01 1.20507E-07 9.48445E-09
 -1     12073 3.32598E-01 1.93398E+00 1.08552E-08-2.60160E-01 1.69783E-09 1.07197E-08
 -1     12074 3.11871E-01 1.95470E+00 2.12854E-08-1.30100E-01 2.13321E-09 2.71051E-08
 -1     12075 2.77535E-01 1.98904E+00-1.09867E-08-2.78051E-01-2.80540E-09-1.77128E-08
 -1     12080 3.32598E-01 1.93398E+00 1.09854E-08-2.60160E-01 1.72315E-09 1.08796E-08
 -1     12081 3.11871E-01 1.95470E+00 2.77153E-08-1.30100E-01 1.33133E-09 1.69162E-08
 -1     12082 2.77535E-01 1.98904E+00-3.02400E-08-2.78051E-01-1.72264E-09-1.08765E-08
 -1     12087 3.32598E-01 1.93398E+00 1.97186E-08-2.60160E-01 1.39303E-09 8.79527E-09
 -1     12088 3.11871E-01 1.95470E+00 1.82080E-08-1.30100E-01 3.72845E-10 4.73754E-09
 -1     12089 2.77535E-01 1.98904E+00-2.87686E-08-2.78051E-01-9.57983E-10-6.04855E-09
 -1     12094 3.32598E-01 1.93398E+00 1.81058E-08-2.60160E-01 4.34486E-10 2.74311E-09
 -1     12095 3.11871E-01 1.95470E+00 1.36406E-08-1.30100E-01 1.51867E-11 1.93001E-10
 -1     12096 2.77535E-01 1.98904E+00-3.12399E-08-2.78051E-01-4.21272E-10-2.65989E-09
 -1     12101 3.32598E-01 1.93398E+00 1.47440E-08-2.60160E-01 8.42331E-11 5.31869E-10
 -1     12102 3.11871E-01 1.95470E+00 1.17548E-08-1.30100E-01 3.60641E-12 4.58364E-11
 -1     12103 2.77535E-01 1.98904E+00-3.29635E-08-2.78051E-01-1.49015E-10-9.40809E-10
 -1     12108 3.32598E-01 1.93398E+00 1.41932E-08-2.60160E-01 6.94464E-15 3.95754E-14
 -1     12109 3.11871E-01 1.95470E+00 1.17548E-08-1.30100E-01-3.58380E-12-4.57828E-11
 -1     12110 2.77535E-01 1.98904E+00-3.29635E-08-2.78051E-01 1.49042E-10 9.40905E-10
 -1     12115 3.32598E-01 1.93398E+00 1.47440E-08-2.60160E-01-8.42167E-11-5.31820E-10
 -1     12116 3.11871E-01 1.95470E+00 1.36406E-08-1.30100E-01-1.51578E-11-1.93019E-10
 -1     12117 2.77535E-01 1.98904E+00-3.12398E-08-2.78051E-01 4.21279E-10 2.65980E-09
 -1     12122 3.32598E-01 1.93398E+00 1.81058E-08-2.60160E-01-4.34467E-10-2.74318E-09
 -1     12123 3.11871E-01 1.95470E+00 1.82080E-08-1.30100E-01-3.72827E-10-4.73751E-09
 -1     12124 2.77535E-01 1.98904E+00-2.87686E-08-2.78051E-01 9.57993E-10 6.04856E-09
 -1     12129 3.32598E-01 1.93398E+00 1.97186E-08-2.60160E-01-1.39302E-09-8.79529E-09
 -1     12130 3.11871E-01 1.95470E+00 2.77153E-08-1.30100E-01-1.33132E-09-1.69162E-08
 -1     12131 2.77535E-01 1.98904E+00-3.02400E-08-2.78051E-01 1.72265E-09 1.08765E-08
 -1     12136 3.32598E-01 1.93398E+00 1.09854E-08-2.60160E-01-1.72316E-09-1.08796E-08
 -1     12137 3.11871E-01 1.95470E+00 2.12854E-08-1.30100E-01-2.13320E-09-2.71051E-08
 -1     12138 2.77535E-01 1.98904E+00-1.09867E-08-2.78051E-01 2.80541E-09 1.77128E-08
 -1     12143 3.32598E-01 1.93398E+00 1.08552E-08-2.60160E-01-1.69782E-09-1.07198E-08
 -1     12147 4.52180E-01 1.81440E+00 1.08551E-08-4.94854E-01 3.35384E-09 1.03222E-08
 -1     12148 3.92277E-01 1.87430E+00 2.12854E-08-3.77564E-01 6.34712E-09 2.64377E-08
 -1     12149 4.05341E-01 1.86123E+00-1.09866E-08-5.28884E-01-5.54176E-09-1.70559E-08
 -1     12154 4.52180E-01 1.81440E+00 1.09852E-08-4.94854E-01 3.40387E-09 1.04761E-08
 -1     12155 3.92277E-01 1.87430E+00 2.77153E-08-3.77564E-01 3.96126E-09 1.64996E-08
 -1     12156 4.05341E-01 1.86123E+00-3.02399E-08-5.28884E-01-3.40288E-09-1.04731E-08
 -1     12161 4.52180E-01 1.81440E+00 1.97185E-08-4.94854E-01 2.75176E-09 8.46911E-09
 -1     12162 3.92277E-01 1.87430E+00 1.82080E-08-3.77564E-01 1.10939E-09 4.62093E-09
 -1     12163 4.05341E-01 1.86123E+00-2.87685E-08-5.28884E-01-1.89238E-09-5.82417E-09
 -1     12168 4.52180E-01 1.81440E+00 1.81057E-08-4.94854E-01 8.58247E-10 2.64152E-09
 -1     12169 3.92277E-01 1.87430E+00 1.36406E-08-3.77564E-01 4.51930E-11 1.88203E-10
 -1     12170 4.05341E-01 1.86123E+00-3.12397E-08-5.28884E-01-8.32178E-10-2.56120E-09
 -1     12175 4.52180E-01 1.81440E+00 1.47438E-08-4.94854E-01 1.66395E-10 5.12061E-10
 -1     12176 3.92277E-01 1.87430E+00 1.17548E-08-3.77564E-01 1.07230E-11 4.47769E-11
 -1     12177 4.05341E-01 1.86123E+00-3.29634E-08-5.28884E-01-2.94378E-10-9.06015E-10
 -1     12182 4.52180E-01 1.81440E+00 1.41930E-08-4.94854E-01-8.50327E-15-2.18149E-14
 -1     12183 3.92277E-01 1.87430E+00 1.17548E-08-3.77564E-01-1.07205E-11-4.47436E-11
 -1     12184 4.05341E-01 1.86123E+00-3.29633E-08-5.28884E-01 2.94397E-10 9.06045E-10
 -1     12189 4.52180E-01 1.81440E+00 1.47439E-08-4.94854E-01-1.66409E-10-5.12129E-10
 -1     12190 3.92277E-01 1.87430E+00 1.36406E-08-3.77564E-01-4.52094E-11-1.88270E-10
 -1     12191 4.05341E-01 1.86123E+00-3.12396E-08-5.28884E-01 8.32155E-10 2.56119E-09
 -1     12196 4.52180E-01 1.81440E+00 1.81057E-08-4.94854E-01-8.58256E-10-2.64148E-09
 -1     12197 3.92277E-01 1.87430E+00 1.82080E-08-3.77564E-01-1.10939E-09-4.62088E-09
 -1     12198 4.05341E-01 1.86123E+00-2.87684E-08-5.28884E-01 1.89239E-09 5.82416E-09
 -1     12203 4.52180E-01 1.81440E+00 1.97185E-08-4.94854E-01-2.75174E-09-8.46909E-09
 -1     12204 3.92277E-01 1.87430E+00 2.77153E-08-3.77564E-01-3.96123E-09-1.64997E-08
 -1     12205 4.05341E-01 1.86123E+00-3.02398E-08-5.28884E-01 3.40291E-09 1.04730E-08
 -1     12210 4.52180E-01 1.81440E+00 1.09853E-08-4.94854E-01-3.40386E-09-1.04762E-08
 -1     12211 3.92277E-01 1.87430E+00 2.12854E-08-3.77564E-01-6.34711E-09-2.64377E-08
 -1     12212 4.05341E-01 1.86123E+00-1.09866E-08-5.28884E-01 5.54175E-09 1.70558E-08
 -1     12217 4.52180E-01 1.81440E+00 1.08551E-08-4.94854E-01-3.35388E-09-1.03221E-08
 -1     12221 6.38434E-01 1.62814E+00 1.08551E-08-6.81108E-01 4.92737E-09 9.67032E-09
 -1     12222 5.45218E-01 1.72136E+00 2.12855E-08-5.88070E-01 1.04047E-08 2.51193E-08
 -1     12223 6.04403E-01 1.66217E+00-1.09866E-08-7.27947E-01-8.14163E-09-1.59790E-08
 -1     12228 6.38434E-01 1.62814E+00 1.09851E-08-6.81108E-01 5.00076E-09 9.81456E-09
 -1     12229 5.45218E-01 1.72136E+00 2.77154E-08-5.88070E-01 6.49357E-09 1.56768E-08
 -1     12230 6.04403E-01 1.66217E+00-3.02399E-08-7.27947E-01-4.99936E-09-9.81196E-09
 -1     12235 6.38434E-01 1.62814E+00 1.97184E-08-6.81108E-01 4.04272E-09 7.93427E-09
 -1     12236 5.45218E-01 1.72136E+00 1.82081E-08-5.88070E-01 1.81858E-09 4.39049E-09
 -1     12237 6.04403E-01 1.66217E+00-2.87686E-08-7.27947E-01-2.78022E-09-5.45653E-09
 -1     12242 6.38434E-01 1.62814E+00 1.81056E-08-6.81108E-01 1.26088E-09 2.47467E-09
 -1     12243 5.45218E-01 1.72136E+00 1.36407E-08-5.88070E-01 7.40783E-11 1.78855E-10
 -1     12244 6.04403E-01 1.66217E+00-3.12398E-08-7.27947E-01-1.22260E-09-2.39945E-09
 -1     12249 6.38434E-01 1.62814E+00 1.47437E-08-6.81108E-01 2.44385E-10 4.79795E-10
 -1     12250 5.45218E-01 1.72136E+00 1.17549E-08-5.88070E-01 1.75491E-11 4.24711E-11
 -1     12251 6.04403E-01 1.66217E+00-3.29635E-08-7.27947E-01-4.32509E-10-8.48837E-10
 -1     12256 6.38434E-01 1.62814E+00 1.41930E-08-6.81108E-01-1.30058E-14 3.75564E-14
 -1     12257 5.45218E-01 1.72136E+00 1.17549E-08-5.88070E-01-1.75988E-11-4.24585E-11
 -1     12258 6.04403E-01 1.66217E+00-3.29634E-08-7.27947E-01 4.32466E-10 8.48887E-10
 -1     12263 6.38434E-01 1.62814E+00 1.47437E-08-6.81108E-01-2.44428E-10-4.79774E-10
 -1     12264 5.45218E-01 1.72136E+00 1.36407E-08-5.88070E-01-7.41172E-11-1.78851E-10
 -1     12265 6.04403E-01 1.66217E+00-3.12398E-08-7.27947E-01 1.22257E-09 2.39954E-09
 -1     12270 6.38434E-01 1.62814E+00 1.81056E-08-6.81108E-01-1.26093E-09-2.47456E-09
 -1     12271 5.45218E-01 1.72136E+00 1.82081E-08-5.88070E-01-1.81860E-09-4.39048E-09
 -1     12272 6.04403E-01 1.66217E+00-2.87686E-08-7.27947E-01 2.78020E-09 5.45655E-09
 -1     12277 6.38434E-01 1.62814E+00 1.97184E-08-6.81108E-01-4.04274E-09-7.93436E-09
 -1     12278 5.45218E-01 1.72136E+00 2.77155E-08-5.88070E-01-6.49357E-09-1.56769E-08
 -1     12279 6.04403E-01 1.66217E+00-3.02399E-08-7.27947E-01 4.99931E-09 9.81187E-09
 -1     12284 6.38434E-01 1.62814E+00 1.09852E-08-6.81108E-01-5.00082E-09-9.81462E-09
 -1     12285 5.45218E-01 1.72136E+00 2.12855E-08-5.88070E-01-1.04047E-08-2.51193E-08
 -1     12286 6.04403E-01 1.66217E+00-1.09866E-08-7.27947E-01 8.14160E-09 1.59790E-08
 -1     12291 6.38434E-01 1.62814E+00 1.08551E-08-6.81108E-01-4.92733E-09-9.67040E-09
 -1     12295 8.73128E-01 1.39345E+00 1.08549E-08-8.00690E-01 6.37953E-09 8.78049E-09
 -1     12296 7.55724E-01 1.51085E+00 2.12854E-08-7.41011E-01 1.42061E-08 2.31823E-08
 -1     12297 8.55237E-01 1.41134E+00-1.09867E-08-8.55753E-01-1.05410E-08-1.45084E-08
 -1     12302 8.73128E-01 1.39345E+00 1.09850E-08-8.00690E-01 6.47468E-09 8.91141E-09
 -1     12303 7.55724E-01 1.51085E+00 2.77154E-08-7.41011E-01 8.86601E-09 1.44680E-08
 -1     12304 8.55237E-01 1.41134E+00-3.02400E-08-8.55753E-01-6.47267E-09-8.90876E-09
 -1     12309 8.73128E-01 1.39345E+00 1.97183E-08-8.00690E-01 5.23424E-09 7.20426E-09
 -1     12310 7.55724E-01 1.51085E+00 1.82080E-08-7.41011E-01 2.48299E-09 4.05193E-09
 -1     12311 8.55237E-01 1.41134E+00-2.87687E-08-8.55753E-01-3.59956E-09-4.95428E-09
 -1     12316 8.73128E-01 1.39345E+00 1.81055E-08-8.00690E-01 1.63247E-09 2.24701E-09
 -1     12317 7.55724E-01 1.51085E+00 1.36405E-08-7.41011E-01 1.01111E-10 1.65106E-10
 -1     12318 8.55237E-01 1.41134E+00-3.12400E-08-8.55753E-01-1.58296E-09-2.17867E-09
 -1     12323 8.73128E-01 1.39345E+00 1.47436E-08-8.00690E-01 3.16520E-10 4.35620E-10
 -1     12324 7.55724E-01 1.51085E+00 1.17548E-08-7.41011E-01 2.39919E-11 3.91993E-11
 -1     12325 8.55237E-01 1.41134E+00-3.29637E-08-8.55753E-01-5.59986E-10-7.70725E-10
 -1     12330 8.73128E-01 1.39345E+00 1.41929E-08-8.00690E-01-3.03829E-14-6.10225E-15
 -1     12331 7.55724E-01 1.51085E+00 1.17548E-08-7.41011E-01-2.40118E-11-3.91767E-11
 -1     12332 8.55237E-01 1.41134E+00-3.29637E-08-8.55753E-01 5.59963E-10 7.70697E-10
 -1     12337 8.73128E-01 1.39345E+00 1.47437E-08-8.00690E-01-3.16522E-10-4.35618E-10
 -1     12338 7.55724E-01 1.51085E+00 1.36405E-08-7.41011E-01-1.01188E-10-1.65082E-10
 -1     12339 8.55237E-01 1.41134E+00-3.12400E-08-8.55753E-01 1.58291E-09 2.17871E-09
 -1     12344 8.73128E-01 1.39345E+00 1.81055E-08-8.00690E-01-1.63255E-09-2.24698E-09
 -1     12345 7.55724E-01 1.51085E+00 1.82080E-08-7.41011E-01-2.48302E-09-4.05191E-09
 -1     12346 8.55237E-01 1.41134E+00-2.87687E-08-8.55753E-01 3.59956E-09 4.95434E-09
 -1     12351 8.73128E-01 1.39345E+00 1.97183E-08-8.00690E-01-5.23422E-09-7.20426E-09
 -1     12352 7.55724E-01 1.51085E+00 2.77154E-08-7.41011E-01-8.86598E-09-1.44681E-08
 -1     12353 8.55237E-01 1.41134E+00-3.02400E-08-8.55753E-01 6.47271E-09 8.90882E-09
 -1     12358 8.73128E-01 1.39345E+00 1.09852E-08-8.00690E-01-6.47461E-09-8.91145E-09
 -1     12359 7.55724E-01 1.51085E+00 2.12855E-08-7.41011E-01-1.42061E-08-2.31824E-08
 -1     12360 8.55237E-01 1.41134E+00-1.09867E-08-8.55753E-01 1.05411E-08 1.45085E-08
 -1     12365 8.73128E-01 1.39345E+00 1.08550E-08-8.00690E-01-6.37951E-09-8.78034E-09
 -1     12369 1.13329E+00 1.13329E+00 1.08554E-08-8.41895E-01 7.67448E-09 7.67412E-09
 -1     12370 1.00319E+00 1.26339E+00 2.12857E-08-8.21417E-01 1.76576E-08 2.06746E-08
 -1     12371 1.13329E+00 1.13329E+00-1.09872E-08-8.99792E-01-1.26809E-08-1.26805E-08
 -1     12376 1.13329E+00 1.13329E+00 1.09857E-08-8.41895E-01 7.78885E-09 7.78895E-09
 -1     12377 1.00319E+00 1.26339E+00 2.77156E-08-8.21417E-01 1.10201E-08 1.29030E-08
 -1     12378 1.13329E+00 1.13329E+00-3.02407E-08-8.99792E-01-7.78673E-09-7.78660E-09
 -1     12383 1.13329E+00 1.13329E+00 1.97189E-08-8.41895E-01 6.29668E-09 6.29676E-09
 -1     12384 1.00319E+00 1.26339E+00 1.82082E-08-8.21417E-01 3.08627E-09 3.61357E-09
 -1     12385 1.13329E+00 1.13329E+00-2.87696E-08-8.99792E-01-4.33034E-09-4.33030E-09
 -1     12390 1.13329E+00 1.13329E+00 1.81060E-08-8.41895E-01 1.96386E-09 1.96389E-09
 -1     12391 1.00319E+00 1.26339E+00 1.36408E-08-8.21417E-01 1.25748E-10 1.47241E-10
 -1     12392 1.13329E+00 1.13329E+00-3.12408E-08-8.99792E-01-1.90423E-09-1.90428E-09
 -1     12397 1.13329E+00 1.13329E+00 1.47441E-08-8.41895E-01 3.80771E-10 3.80841E-10
 -1     12398 1.00319E+00 1.26339E+00 1.17550E-08-8.21417E-01 2.98222E-11 3.49836E-11
 -1     12399 1.13329E+00 1.13329E+00-3.29645E-08-8.99792E-01-6.73628E-10-6.73635E-10
 -1     12404 1.13329E+00 1.13329E+00 1.41932E-08-8.41895E-01 3.88684E-14 4.43867E-14
 -1     12405 1.00319E+00 1.26339E+00 1.17550E-08-8.21417E-01-2.98719E-11-3.49026E-11
 -1     12406 1.13329E+00 1.13329E+00-3.29646E-08-8.99792E-01 6.73623E-10 6.73684E-10
 -1     12411 1.13329E+00 1.13329E+00 1.47441E-08-8.41895E-01-3.80712E-10-3.80697E-10
 -1     12412 1.00319E+00 1.26339E+00 1.36408E-08-8.21417E-01-1.25714E-10-1.47240E-10
 -1     12413 1.13329E+00 1.13329E+00-3.12408E-08-8.99792E-01 1.90436E-09 1.90429E-09
 -1     12418 1.13329E+00 1.13329E+00 1.81059E-08-8.41895E-01-1.96379E-09-1.96398E-09
 -1     12419 1.00319E+00 1.26339E+00 1.82083E-08-8.21417E-01-3.08623E-09-3.61357E-09
 -1     12420 1.13329E+00 1.13329E+00-2.87696E-08-8.99792E-01 4.33040E-09 4.33028E-09
 -1     12425 1.13329E+00 1.13329E+00 1.97188E-08-8.41895E-01-6.29662E-09-6.29672E-09
 -1     12426 1.00319E+00 1.26339E+00 2.77156E-08-8.21417E-01-1.10201E-08-1.29030E-08
 -1     12427 1.13329E+00 1.13329E+00-3.02407E-08-8.99792E-01 7.78675E-09 7.78656E-09
 -1     12432 1.13329E+00 1.13329E+00 1.09856E-08-8.41895E-01-7.78884E-09-7.78890E-09
 -1     12433 1.00319E+00 1.26339E+00 2.12857E-08-8.21417E-01-1.76576E-08-2.06746E-08
 -1     12434 1.13329E+00 1.13329E+00-1.09873E-08-8.99792E-01 1.26810E-08 1.26805E-08
 -1     12439 1.13329E+00 1.13329E+00 1.08553E-08-8.41895E-01-7.67438E-09-7.67424E-09
 -1     12443 1.39345E+00 8.73128E-01 1.08561E-08-8.00690E-01 8.78031E-09 6.37948E-09
 -1     12444 1.26339E+00 1.00319E+00 2.12849E-08-8.21417E-01 2.06745E-08 1.76578E-08
 -1     12445 1.41134E+00 8.55237E-01-1.09878E-08-8.55753E-01-1.45088E-08-1.05415E-08
 -1     12450 1.39345E+00 8.73128E-01 1.09856E-08-8.00690E-01 8.91138E-09 6.47432E-09
 -1     12451 1.26339E+00 1.00319E+00 2.77147E-08-8.21417E-01 1.29031E-08 1.10203E-08
 -1     12452 1.41134E+00 8.55237E-01-3.02418E-08-8.55753E-01-8.90944E-09-6.47340E-09
 -1     12457 1.39345E+00 8.73128E-01 1.97188E-08-8.00690E-01 7.20422E-09 5.23412E-09
 -1     12458 1.26339E+00 1.00319E+00 1.82072E-08-8.21417E-01 3.61361E-09 3.08626E-09
 -1     12459 1.41134E+00 8.55237E-01-2.87705E-08-8.55753E-01-4.95497E-09-3.60053E-09
 -1     12464 1.39345E+00 8.73128E-01 1.81058E-08-8.00690E-01 2.24685E-09 1.63231E-09
 -1     12465 1.26339E+00 1.00319E+00 1.36397E-08-8.21417E-01 1.47222E-10 1.25704E-10
 -1     12466 1.41134E+00 8.55237E-01-3.12423E-08-8.55753E-01-2.17907E-09-1.58356E-09
 -1     12471 1.39345E+00 8.73128E-01 1.47436E-08-8.00690E-01 4.35504E-10 3.16327E-10
 -1     12472 1.26339E+00 1.00319E+00 1.17539E-08-8.21417E-01 3.49345E-11 2.98777E-11
 -1     12473 1.41134E+00 8.55237E-01-3.29663E-08-8.55753E-01-7.70900E-10-5.60220E-10
 -1     12478 1.39345E+00 8.73128E-01 1.41929E-08-8.00690E-01 2.53839E-14-1.99077E-14
 -1     12479 1.26339E+00 1.00319E+00 1.17539E-08-8.21417E-01-3.49456E-11-2.98197E-11
 -1     12480 1.41134E+00 8.55237E-01-3.29663E-08-8.55753E-01 7.70932E-10 5.60241E-10
 -1     12485 1.39345E+00 8.73128E-01 1.47436E-08-8.00690E-01-4.35508E-10-3.16341E-10
 -1     12486 1.26339E+00 1.00319E+00 1.36397E-08-8.21417E-01-1.47113E-10-1.25702E-10
 -1     12487 1.41134E+00 8.55237E-01-3.12423E-08-8.55753E-01 2.17906E-09 1.58356E-09
 -1     12492 1.39345E+00 8.73128E-01 1.81059E-08-8.00690E-01-2.24681E-09-1.63233E-09
 -1     12493 1.26339E+00 1.00319E+00 1.82072E-08-8.21417E-01-3.61355E-09-3.08630E-09
 -1     12494 1.41134E+00 8.55237E-01-2.87705E-08-8.55753E-01 4.95497E-09 3.60054E-09
 -1     12499 1.39345E+00 8.73128E-01 1.97188E-08-8.00690E-01-7.20415E-09-5.23414E-09
 -1     12500 1.26339E+00 1.00319E+00 2.77148E-08-8.21417E-01-1.29030E-08-1.10202E-08
 -1     12501 1.41134E+00 8.55237E-01-3.02417E-08-8.55753E-01 8.90951E-09 6.47341E-09
 -1     12506 1.39345E+00 8.73128E-01 1.09856E-08-8.00690E-01-8.91137E-09-6.47433E-09
 -1     12507 1.26339E+00 1.00319E+00 2.12848E-08-8.21417E-01-2.06745E-08-1.76578E-08
 -1     12508 1.41134E+00 8.55237E-01-1.09877E-08-8.55753E-01 1.45088E-08 1.05415E-08
 -1     12513 1.39345E+00 8.73128E-01 1.08561E-08-8.00690E-01-8.78033E-09-6.37946E-09
 -1     12517 1.62814E+00 6.38434E-01 1.08533E-08-6.81108E-01 9.66992E-09 4.92709E-09
 -1     12518 1.51085E+00 7.55724E-01 2.12858E-08-7.41011E-01 2.31828E-08 1.42064E-08
 -1     12519 1.66217E+00 6.04403E-01-1.09883E-08-7.27947E-01-1.59804E-08-8.14260E-09
 -1     12524 1.62814E+00 6.38434E-01 1.09868E-08-6.81108E-01 9.81484E-09 5.00102E-09
 -1     12525 1.51085E+00 7.55724E-01 2.77149E-08-7.41011E-01 1.44676E-08 8.86567E-09
 -1     12526 1.66217E+00 6.04403E-01-3.02411E-08-7.27947E-01-9.81282E-09-4.99969E-09
 -1     12531 1.62814E+00 6.38434E-01 1.97182E-08-6.81108E-01 7.93360E-09 4.04234E-09
 -1     12532 1.51085E+00 7.55724E-01 1.82076E-08-7.41011E-01 4.05164E-09 2.48270E-09
 -1     12533 1.66217E+00 6.04403E-01-2.87704E-08-7.27947E-01-5.45767E-09-2.78039E-09
 -1     12538 1.62814E+00 6.38434E-01 1.81050E-08-6.81108E-01 2.47450E-09 1.26080E-09
 -1     12539 1.51085E+00 7.55724E-01 1.36399E-08-7.41011E-01 1.64955E-10 1.01016E-10
 -1     12540 1.66217E+00 6.04403E-01-3.12420E-08-7.27947E-01-2.40077E-09-1.22293E-09
 -1     12545 1.62814E+00 6.38434E-01 1.47437E-08-6.81108E-01 4.79644E-10 2.44411E-10
 -1     12546 1.51085E+00 7.55724E-01 1.17541E-08-7.41011E-01 3.90384E-11 2.38929E-11
 -1     12547 1.66217E+00 6.04403E-01-3.29662E-08-7.27947E-01-8.49066E-10-4.32542E-10
 -1     12552 1.62814E+00 6.38434E-01 1.41922E-08-6.81108E-01 4.70802E-14-3.03348E-14
 -1     12553 1.51085E+00 7.55724E-01 1.17540E-08-7.41011E-01-3.90050E-11-2.38798E-11
 -1     12554 1.66217E+00 6.04403E-01-3.29662E-08-7.27947E-01 8.49126E-10 4.32515E-10
 -1     12559 1.62814E+00 6.38434E-01 1.47437E-08-6.81108E-01-4.79639E-10-2.44426E-10
 -1     12560 1.51085E+00 7.55724E-01 1.36399E-08-7.41011E-01-1.64969E-10-1.01063E-10
 -1     12561 1.66217E+00 6.04403E-01-3.12421E-08-7.27947E-01 2.40072E-09 1.22290E-09
 -1     12566 1.62814E+00 6.38434E-01 1.81049E-08-6.81108E-01-2.47450E-09-1.26083E-09
 -1     12567 1.51085E+00 7.55724E-01 1.82076E-08-7.41011E-01-4.05160E-09-2.48272E-09
 -1     12568 1.66217E+00 6.04403E-01-2.87704E-08-7.27947E-01 5.45771E-09 2.78039E-09
 -1     12573 1.62814E+00 6.38434E-01 1.97182E-08-6.81108E-01-7.93368E-09-4.04231E-09
 -1     12574 1.51085E+00 7.55724E-01 2.77149E-08-7.41011E-01-1.44676E-08-8.86570E-09
 -1     12575 1.66217E+00 6.04403E-01-3.02411E-08-7.27947E-01 9.81280E-09 4.99965E-09
 -1     12580 1.62814E+00 6.38434E-01 1.09868E-08-6.81108E-01-9.81483E-09-5.00104E-09
 -1     12581 1.51085E+00 7.55724E-01 2.12858E-08-7.41011E-01-2.31828E-08-1.42064E-08
 -1     12582 1.66217E+00 6.04403E-01-1.09883E-08-7.27947E-01 1.59803E-08 8.14257E-09
 -1     12587 1.62814E+00 6.38434E-01 1.08533E-08-6.81108E-01-9.66998E-09-4.92711E-09
 -1     12591 1.81440E+00 4.52180E-01 1.08576E-08-4.94854E-01 1.03225E-08 3.35408E-09
 -1     12592 1.72136E+00 5.45218E-01 2.12852E-08-5.88070E-01 2.51192E-08 1.04047E-08
 -1     12593 1.86123E+00 4.05341E-01-1.09861E-08-5.28884E-01-1.70539E-08-5.54136E-09
 -1     12598 1.81440E+00 4.52180E-01 1.09847E-08-4.94854E-01 1.04758E-08 3.40393E-09
 -1     12599 1.72136E+00 5.45218E-01 2.77151E-08-5.88070E-01 1.56769E-08 6.49348E-09
 -1     12600 1.86123E+00 4.05341E-01-3.02401E-08-5.28884E-01-1.04720E-08-3.40233E-09
 -1     12605 1.81440E+00 4.52180E-01 1.97197E-08-4.94854E-01 8.46991E-09 2.75195E-09
 -1     12606 1.72136E+00 5.45218E-01 1.82078E-08-5.88070E-01 4.39043E-09 1.81864E-09
 -1     12607 1.86123E+00 4.05341E-01-2.87680E-08-5.28884E-01-5.82310E-09-1.89166E-09
 -1     12612 1.81440E+00 4.52180E-01 1.81074E-08-4.94854E-01 2.64171E-09 8.58328E-10
 -1     12613 1.72136E+00 5.45218E-01 1.36404E-08-5.88070E-01 1.78864E-10 7.40949E-11
 -1     12614 1.86123E+00 4.05341E-01-3.12387E-08-5.28884E-01-2.56006E-09-8.31498E-10
 -1     12619 1.81440E+00 4.52180E-01 1.47449E-08-4.94854E-01 5.12185E-10 1.66406E-10
 -1     12620 1.72136E+00 5.45218E-01 1.17547E-08-5.88070E-01 4.24661E-11 1.75905E-11
 -1     12621 1.86123E+00 4.05341E-01-3.29619E-08-5.28884E-01-9.05809E-10-2.94230E-10
 -1     12626 1.81440E+00 4.52180E-01 1.41948E-08-4.94854E-01-4.42052E-15-3.88768E-14
 -1     12627 1.72136E+00 5.45218E-01 1.17547E-08-5.88070E-01-4.24444E-11-1.76303E-11
 -1     12628 1.86123E+00 4.05341E-01-3.29619E-08-5.28884E-01 9.05792E-10 2.94171E-10
 -1     12633 1.81440E+00 4.52180E-01 1.47449E-08-4.94854E-01-5.12278E-10-1.66471E-10
 -1     12634 1.72136E+00 5.45218E-01 1.36404E-08-5.88070E-01-1.78913E-10-7.41310E-11
 -1     12635 1.86123E+00 4.05341E-01-3.12387E-08-5.28884E-01 2.55996E-09 8.31451E-10
 -1     12640 1.81440E+00 4.52180E-01 1.81073E-08-4.94854E-01-2.64171E-09-8.58326E-10
 -1     12641 1.72136E+00 5.45218E-01 1.82078E-08-5.88070E-01-4.39039E-09-1.81864E-09
 -1     12642 1.86123E+00 4.05341E-01-2.87680E-08-5.28884E-01 5.82314E-09 1.89162E-09
 -1     12647 1.81440E+00 4.52180E-01 1.97197E-08-4.94854E-01-8.46982E-09-2.75200E-09
 -1     12648 1.72136E+00 5.45218E-01 2.77152E-08-5.88070E-01-1.56769E-08-6.49352E-09
 -1     12649 1.86123E+00 4.05341E-01-3.02401E-08-5.28884E-01 1.04721E-08 3.40230E-09
 -1     12654 1.81440E+00 4.52180E-01 1.09846E-08-4.94854E-01-1.04757E-08-3.40395E-09
 -1     12655 1.72136E+00 5.45218E-01 2.12851E-08-5.88070E-01-2.51192E-08-1.04047E-08
 -1     12656 1.86123E+00 4.05341E-01-1.09861E-08-5.28884E-01 1.70541E-08 5.54136E-09
 -1     12661 1.81440E+00 4.52180E-01 1.08576E-08-4.94854E-01-1.03225E-08-3.35409E-09
 -1     12665 1.93398E+00 3.32598E-01 1.08546E-08-2.60160E-01 1.07197E-08 1.69816E-09
 -1     12666 1.87430E+00 3.92277E-01 2.12847E-08-3.77564E-01 2.64371E-08 6.34689E-09
 -1     12667 1.98904E+00 2.77535E-01-1.09863E-08-2.78051E-01-1.77122E-08-2.80561E-09
 -1     12672 1.93398E+00 3.32598E-01 1.09857E-08-2.60160E-01 1.08799E-08 1.72318E-09
 -1     12673 1.87430E+00 3.92277E-01 2.77156E-08-3.77564E-01 1.65003E-08 3.96127E-09
 -1     12674 1.98904E+00 2.77535E-01-3.02391E-08-2.78051E-01-1.08756E-08-1.72280E-09
 -1     12679 1.93398E+00 3.32598E-01 1.97190E-08-2.60160E-01 8.79530E-09 1.39306E-09
 -1     12680 1.87430E+00 3.92277E-01 1.82084E-08-3.77564E-01 4.62134E-09 1.10935E-09
 -1     12681 1.98904E+00 2.77535E-01-2.87675E-08-2.78051E-01-6.04736E-09-9.58250E-10
 -1     12686 1.93398E+00 3.32598E-01 1.81063E-08-2.60160E-01 2.74344E-09 4.34473E-10
 -1     12687 1.87430E+00 3.92277E-01 1.36412E-08-3.77564E-01 1.88498E-10 4.51924E-11
 -1     12688 1.98904E+00 2.77535E-01-3.12381E-08-2.78051E-01-2.65902E-09-4.21487E-10
 -1     12693 1.93398E+00 3.32598E-01 1.47448E-08-2.60160E-01 5.32089E-10 8.42160E-11
 -1     12694 1.87430E+00 3.92277E-01 1.17556E-08-3.77564E-01 4.49040E-11 1.07240E-11
 -1     12695 1.98904E+00 2.77535E-01-3.29614E-08-2.78051E-01-9.40540E-10-1.49086E-10
 -1     12700 1.93398E+00 3.32598E-01 1.41939E-08-2.60160E-01-2.09982E-14 2.26710E-14
 -1     12701 1.87430E+00 3.92277E-01 1.17556E-08-3.77564E-01-4.48978E-11-1.07650E-11
 -1     12702 1.98904E+00 2.77535E-01-3.29613E-08-2.78051E-01 9.40565E-10 1.49085E-10
 -1     12707 1.93398E+00 3.32598E-01 1.47448E-08-2.60160E-01-5.31970E-10-8.42261E-11
 -1     12708 1.87430E+00 3.92277E-01 1.36411E-08-3.77564E-01-1.88534E-10-4.52092E-11
 -1     12709 1.98904E+00 2.77535E-01-3.12380E-08-2.78051E-01 2.65901E-09 4.21476E-10
 -1     12714 1.93398E+00 3.32598E-01 1.81063E-08-2.60160E-01-2.74340E-09-4.34481E-10
 -1     12715 1.87430E+00 3.92277E-01 1.82083E-08-3.77564E-01-4.62127E-09-1.10936E-09
 -1     12716 1.98904E+00 2.77535E-01-2.87675E-08-2.78051E-01 6.04742E-09 9.58236E-10
 -1     12721 1.93398E+00 3.32598E-01 1.97190E-08-2.60160E-01-8.79536E-09-1.39306E-09
 -1     12722 1.87430E+00 3.92277E-01 2.77156E-08-3.77564E-01-1.65003E-08-3.96131E-09
 -1     12723 1.98904E+00 2.77535E-01-3.02391E-08-2.78051E-01 1.08755E-08 1.72280E-09
 -1     12728 1.93398E+00 3.32598E-01 1.09857E-08-2.60160E-01-1.08799E-08-1.72318E-09
 -1     12729 1.87430E+00 3.92277E-01 2.12847E-08-3.77564E-01-2.64371E-08-6.34690E-09
 -1     12730 1.98904E+00 2.77535E-01-1.09863E-08-2.78051E-01 1.77122E-08 2.80561E-09
 -1     12735 1.93398E+00 3.32598E-01 1.08546E-08-2.60160E-01-1.07197E-08-1.69813E-09
 -1     12739 1.95470E+00 3.11871E-01 2.12856E-08-1.30100E-01 2.71050E-08 2.13321E-09
 -1     12743 1.95470E+00 3.11871E-01 2.77157E-08-1.30100E-01 1.69162E-08 1.33129E-09
 -1     12747 1.95470E+00 3.11871E-01 1.82086E-08-1.30100E-01 4.73762E-09 3.72860E-10
 -1     12751 1.95470E+00 3.11871E-01 1.36413E-08-1.30100E-01 1.93123E-10 1.51949E-11
 -1     12755 1.95470E+00 3.11871E-01 1.17556E-08-1.30100E-01 4.57962E-11 3.62211E-12
 -1     12759 1.95470E+00 3.11871E-01 1.17556E-08-1.30100E-01-4.58238E-11-3.59862E-12
 -1     12763 1.95470E+00 3.11871E-01 1.36412E-08-1.30100E-01-1.93133E-10-1.51739E-11
 -1     12767 1.95470E+00 3.11871E-01 1.82086E-08-1.30100E-01-4.73758E-09-3.72845E-10
 -1     12771 1.95470E+00 3.11871E-01 2.77157E-08-1.30100E-01-1.69162E-08-1.33128E-09
 -1     12775 1.95470E+00 3.11871E-01 2.12856E-08-1.30100E-01-2.71051E-08-2.13322E-09
 -1     12781 4.23865E-01 1.84271E+00-1.00703E-08-2.30505E-01-4.89105E-10-3.08802E-09
 -1     12782 4.05502E-01 1.86107E+00-1.66292E-08-1.15270E-01-8.23121E-10-1.04588E-08
 -1     12783 3.78212E-01 1.88836E+00 8.93626E-09-2.45339E-01 1.26173E-09 7.96626E-09
 -1     12788 4.23865E-01 1.84271E+00-1.62990E-08-2.30505E-01-5.26101E-10-3.32174E-09
 -1     12789 4.05502E-01 1.86107E+00-1.89891E-08-1.15270E-01-2.26484E-10-2.87799E-09
 -1     12790 3.78212E-01 1.88836E+00 1.54899E-08-2.45339E-01 3.89688E-10 2.46029E-09
 -1     12795 4.23865E-01 1.84271E+00-1.48917E-08-2.30505E-01-1.97504E-10-1.24706E-09
 -1     12796 4.05502E-01 1.86107E+00-1.54031E-08-1.15270E-01-1.07147E-10-1.36144E-09
 -1     12797 3.78212E-01 1.88836E+00 1.33760E-08-2.45339E-01 2.53279E-10 1.59927E-09
 -1     12802 4.23865E-01 1.84271E+00-1.51653E-08-2.30505E-01-1.34355E-10-8.48035E-10
 -1     12803 4.05502E-01 1.86107E+00-1.39440E-08-1.15270E-01-1.32231E-11-1.68204E-10
 -1     12804 3.78212E-01 1.88836E+00 1.34347E-08-2.45339E-01 1.21890E-10 7.69558E-10
 -1     12809 4.23865E-01 1.84271E+00-1.47774E-08-2.30505E-01-1.90698E-11-1.20381E-10
 -1     12810 4.05502E-01 1.86107E+00-1.36312E-08-1.15270E-01 1.40773E-11 1.78744E-10
 -1     12811 3.78212E-01 1.88836E+00 1.39741E-08-2.45339E-01 2.04391E-11 1.29091E-10
 -1     12816 4.23865E-01 1.84271E+00-1.42476E-08-2.30505E-01-7.85014E-16-2.59209E-14
 -1     12817 4.05502E-01 1.86107E+00-1.36312E-08-1.15270E-01-1.40700E-11-1.78738E-10
 -1     12818 3.78212E-01 1.88836E+00 1.39741E-08-2.45339E-01-2.04337E-11-1.29073E-10
 -1     12823 4.23865E-01 1.84271E+00-1.47773E-08-2.30505E-01 1.90771E-11 1.20407E-10
 -1     12824 4.05502E-01 1.86107E+00-1.39440E-08-1.15270E-01 1.32176E-11 1.68207E-10
 -1     12825 3.78212E-01 1.88836E+00 1.34347E-08-2.45339E-01-1.21893E-10-7.69578E-10
 -1     12830 4.23865E-01 1.84271E+00-1.51653E-08-2.30505E-01 1.34312E-10 8.48209E-10
 -1     12831 4.05502E-01 1.86107E+00-1.54031E-08-1.15270E-01 1.07139E-10 1.36151E-09
 -1     12832 3.78212E-01 1.88836E+00 1.33761E-08-2.45339E-01-2.53293E-10-1.59920E-09
 -1     12837 4.23865E-01 1.84271E+00-1.48916E-08-2.30505E-01 1.97490E-10 1.24699E-09
 -1     12838 4.05502E-01 1.86107E+00-1.89891E-08-1.15270E-01 2.26479E-10 2.87789E-09
 -1     12839 3.78212E-01 1.88836E+00 1.54900E-08-2.45339E-01-3.89692E-10-2.46044E-09
 -1     12844 4.23865E-01 1.84271E+00-1.62989E-08-2.30505E-01 5.26115E-10 3.32165E-09
 -1     12845 4.05502E-01 1.86107E+00-1.66292E-08-1.15270E-01 8.23111E-10 1.04589E-08
 -1     12846 3.78212E-01 1.88836E+00 8.93630E-09-2.45339E-01-1.26172E-09-7.96630E-09
 -1     12851 4.23865E-01 1.84271E+00-1.00703E-08-2.30505E-01 4.89110E-10 3.08799E-09
 -1     12855 5.29817E-01 1.73676E+00-1.00703E-08-4.38447E-01-9.66185E-10-2.97352E-09
 -1     12856 4.76742E-01 1.78983E+00-1.66293E-08-3.34527E-01-2.44913E-09-1.02013E-08
 -1     12857 4.90982E-01 1.77559E+00 8.93632E-09-4.66663E-01 2.49237E-09 7.67084E-09
 -1     12862 5.29817E-01 1.73676E+00-1.62989E-08-4.38447E-01-1.03927E-09-3.19842E-09
 -1     12863 4.76742E-01 1.78983E+00-1.89892E-08-3.34527E-01-6.73939E-10-2.80713E-09
 -1     12864 4.90982E-01 1.77559E+00 1.54900E-08-4.66663E-01 7.69786E-10 2.36918E-09
 -1     12869 5.29817E-01 1.73676E+00-1.48916E-08-4.38447E-01-3.90089E-10-1.20062E-09
 -1     12870 4.76742E-01 1.78983E+00-1.54031E-08-3.34527E-01-3.18814E-10-1.32795E-09
 -1     12871 4.90982E-01 1.77559E+00 1.33762E-08-4.66663E-01 5.00377E-10 1.53994E-09
 -1     12876 5.29817E-01 1.73676E+00-1.51653E-08-4.38447E-01-2.65299E-10-8.16688E-10
 -1     12877 4.76742E-01 1.78983E+00-1.39440E-08-3.34527E-01-3.94044E-11-1.64051E-10
 -1     12878 4.90982E-01 1.77559E+00 1.34348E-08-4.66663E-01 2.40752E-10 7.41016E-10
 -1     12883 5.29817E-01 1.73676E+00-1.47773E-08-4.38447E-01-3.76978E-11-1.16003E-10
 -1     12884 4.76742E-01 1.78983E+00-1.36312E-08-3.34527E-01 4.18413E-11 1.74275E-10
 -1     12885 4.90982E-01 1.77559E+00 1.39742E-08-4.66663E-01 4.03522E-11 1.24222E-10
 -1     12890 5.29817E-01 1.73676E+00-1.42475E-08-4.38447E-01-4.52518E-14 2.45488E-15
 -1     12891 4.76742E-01 1.78983E+00-1.36312E-08-3.34527E-01-4.18754E-11-1.74289E-10
 -1     12892 4.90982E-01 1.77559E+00 1.39742E-08-4.66663E-01-4.03880E-11-1.24199E-10
 -1     12897 5.29817E-01 1.73676E+00-1.47773E-08-4.38447E-01 3.76132E-11 1.15927E-10
 -1     12898 4.76742E-01 1.78983E+00-1.39440E-08-3.34527E-01 3.93728E-11 1.64075E-10
 -1     12899 4.90982E-01 1.77559E+00 1.34348E-08-4.66663E-01-2.40795E-10-7.41059E-10
 -1     12904 5.29817E-01 1.73676E+00-1.51654E-08-4.38447E-01 2.65355E-10 8.16576E-10
 -1     12905 4.76742E-01 1.78983E+00-1.54031E-08-3.34527E-01 3.18798E-10 1.32798E-09
 -1     12906 4.90982E-01 1.77559E+00 1.33761E-08-4.66663E-01-5.00347E-10-1.53996E-09
 -1     12911 5.29817E-01 1.73676E+00-1.48916E-08-4.38447E-01 3.90135E-10 1.20073E-09
 -1     12912 4.76742E-01 1.78983E+00-1.89891E-08-3.34527E-01 6.73914E-10 2.80700E-09
 -1     12913 4.90982E-01 1.77559E+00 1.54900E-08-4.66663E-01-7.69735E-10-2.36913E-09
 -1     12918 5.29817E-01 1.73676E+00-1.62989E-08-4.38447E-01 1.03929E-09 3.19855E-09
 -1     12919 4.76742E-01 1.78983E+00-1.66293E-08-3.34527E-01 2.44912E-09 1.02013E-08
 -1     12920 4.90982E-01 1.77559E+00 8.93634E-09-4.66663E-01-2.49236E-09-7.67076E-09
 -1     12925 5.29817E-01 1.73676E+00-1.00703E-08-4.38447E-01 9.66226E-10 2.97349E-09
 -1     12929 6.94841E-01 1.57174E+00-1.00702E-08-6.03471E-01-1.41947E-09-2.78583E-09
 -1     12930 6.12250E-01 1.65433E+00-1.66292E-08-5.21038E-01-4.01480E-09-9.69263E-09
 -1     12931 6.66625E-01 1.59995E+00 8.93633E-09-6.42306E-01 3.66165E-09 7.18635E-09
 -1     12936 6.94841E-01 1.57174E+00-1.62989E-08-6.03471E-01-1.52686E-09-2.99649E-09
 -1     12937 6.12250E-01 1.65433E+00-1.89892E-08-5.21038E-01-1.10477E-09-2.66701E-09
 -1     12938 6.66625E-01 1.59995E+00 1.54900E-08-6.42306E-01 1.13085E-09 2.21954E-09
 -1     12943 6.94841E-01 1.57174E+00-1.48916E-08-6.03471E-01-5.73221E-10-1.12477E-09
 -1     12944 6.12250E-01 1.65433E+00-1.54031E-08-5.21038E-01-5.22637E-10-1.26174E-09
 -1     12945 6.66625E-01 1.59995E+00 1.33761E-08-6.42306E-01 7.35048E-10 1.44271E-09
 -1     12950 6.94841E-01 1.57174E+00-1.51653E-08-6.03471E-01-3.89817E-10-7.65122E-10
 -1     12951 6.12250E-01 1.65433E+00-1.39440E-08-5.21038E-01-6.45532E-11-1.55903E-10
 -1     12952 6.66625E-01 1.59995E+00 1.34348E-08-6.42306E-01 3.53755E-10 6.94226E-10
 -1     12957 6.94841E-01 1.57174E+00-1.47773E-08-6.03471E-01-5.53215E-11-1.08659E-10
 -1     12958 6.12250E-01 1.65433E+00-1.36312E-08-5.21038E-01 6.86219E-11 1.65603E-10
 -1     12959 6.66625E-01 1.59995E+00 1.39741E-08-6.42306E-01 5.92945E-11 1.16403E-10
 -1     12964 6.94841E-01 1.57174E+00-1.42475E-08-6.03471E-01-1.65963E-14-1.20897E-14
 -1     12965 6.12250E-01 1.65433E+00-1.36312E-08-5.21038E-01-6.86610E-11-1.65594E-10
 -1     12966 6.66625E-01 1.59995E+00 1.39742E-08-6.42306E-01-5.93522E-11-1.16383E-10
 -1     12971 6.94841E-01 1.57174E+00-1.47773E-08-6.03471E-01 5.52699E-11 1.08691E-10
 -1     12972 6.12250E-01 1.65433E+00-1.39440E-08-5.21038E-01 6.45300E-11 1.55834E-10
 -1     12973 6.66625E-01 1.59995E+00 1.34348E-08-6.42306E-01-3.53735E-10-6.94249E-10
 -1     12978 6.94841E-01 1.57174E+00-1.51652E-08-6.03471E-01 3.89879E-10 7.65106E-10
 -1     12979 6.12250E-01 1.65433E+00-1.54031E-08-5.21038E-01 5.22596E-10 1.26181E-09
 -1     12980 6.66625E-01 1.59995E+00 1.33761E-08-6.42306E-01-7.35103E-10-1.44262E-09
 -1     12985 6.94841E-01 1.57174E+00-1.48915E-08-6.03471E-01 5.73135E-10 1.12478E-09
 -1     12986 6.12250E-01 1.65433E+00-1.89891E-08-5.21038E-01 1.10472E-09 2.66703E-09
 -1     12987 6.66625E-01 1.59995E+00 1.54900E-08-6.42306E-01-1.13093E-09-2.21958E-09
 -1     12992 6.94841E-01 1.57174E+00-1.62989E-08-6.03471E-01 1.52682E-09 2.99652E-09
 -1     12993 6.12250E-01 1.65433E+00-1.66293E-08-5.21038E-01 4.01479E-09 9.69259E-09
 -1     12994 6.66625E-01 1.59995E+00 8.93628E-09-6.42306E-01-3.66167E-09-7.18645E-09
 -1     12999 6.94841E-01 1.57174E+00-1.00703E-08-6.03471E-01 1.41945E-09 2.78584E-09
 -1     13003 9.02783E-01 1.36379E+00-1.00703E-08-7.09423E-01-1.83778E-09-2.52950E-09
 -1     13004 7.98761E-01 1.46781E+00-1.66293E-08-6.56546E-01-5.48162E-09-8.94523E-09
 -1     13005 8.87949E-01 1.37863E+00 8.93645E-09-7.55076E-01 4.74082E-09 6.52510E-09
 -1     13010 9.02783E-01 1.36379E+00-1.62990E-08-7.09423E-01-1.97676E-09-2.72073E-09
 -1     13011 7.98761E-01 1.46781E+00-1.89892E-08-6.56546E-01-1.50835E-09-2.46136E-09
 -1     13012 8.87949E-01 1.37863E+00 1.54902E-08-7.55076E-01 1.46429E-09 2.01534E-09
 -1     13017 9.02783E-01 1.36379E+00-1.48916E-08-7.09423E-01-7.41981E-10-1.02133E-09
 -1     13018 7.98761E-01 1.46781E+00-1.54032E-08-6.56546E-01-7.13560E-10-1.16447E-09
 -1     13019 8.87949E-01 1.37863E+00 1.33763E-08-7.55076E-01 9.51759E-10 1.30993E-09
 -1     13024 9.02783E-01 1.36379E+00-1.51653E-08-7.09423E-01-5.04702E-10-6.94567E-10
 -1     13025 7.98761E-01 1.46781E+00-1.39441E-08-6.56546E-01-8.81250E-11-1.43860E-10
 -1     13026 8.87949E-01 1.37863E+00 1.34350E-08-7.55076E-01 4.57948E-10 6.30443E-10
 -1     13031 9.02783E-01 1.36379E+00-1.47773E-08-7.09423E-01-7.16841E-11-9.85955E-11
 -1     13032 7.98761E-01 1.46781E+00-1.36313E-08-6.56546E-01 9.36797E-11 1.52911E-10
 -1     13033 8.87949E-01 1.37863E+00 1.39743E-08-7.55076E-01 7.67751E-11 1.05760E-10
 -1     13038 9.02783E-01 1.36379E+00-1.42475E-08-7.09423E-01-1.79108E-14 2.77068E-14
 -1     13039 7.98761E-01 1.46781E+00-1.36314E-08-6.56546E-01-9.37236E-11-1.52862E-10
 -1     13040 8.87949E-01 1.37863E+00 1.39743E-08-7.55076E-01-7.67954E-11-1.05720E-10
 -1     13045 9.02783E-01 1.36379E+00-1.47774E-08-7.09423E-01 7.16221E-11 9.85704E-11
 -1     13046 7.98761E-01 1.46781E+00-1.39441E-08-6.56546E-01 8.81823E-11 1.43890E-10
 -1     13047 8.87949E-01 1.37863E+00 1.34349E-08-7.55076E-01-4.58016E-10-6.30336E-10
 -1     13052 9.02783E-01 1.36379E+00-1.51653E-08-7.09423E-01 5.04593E-10 6.94685E-10
 -1     13053 7.98761E-01 1.46781E+00-1.54032E-08-6.56546E-01 7.13558E-10 1.16444E-09
 -1     13054 8.87949E-01 1.37863E+00 1.33762E-08-7.55076E-01-9.51782E-10-1.30997E-09
 -1     13059 9.02783E-01 1.36379E+00-1.48917E-08-7.09423E-01 7.41973E-10 1.02131E-09
 -1     13060 7.98761E-01 1.46781E+00-1.89892E-08-6.56546E-01 1.50833E-09 2.46137E-09
 -1     13061 8.87949E-01 1.37863E+00 1.54901E-08-7.55076E-01-1.46427E-09-2.01532E-09
 -1     13066 9.02783E-01 1.36379E+00-1.62991E-08-7.09423E-01 1.97669E-09 2.72075E-09
 -1     13067 7.98761E-01 1.46781E+00-1.66294E-08-6.56546E-01 5.48164E-09 8.94524E-09
 -1     13068 8.87949E-01 1.37863E+00 8.93650E-09-7.55076E-01-4.74086E-09-6.52515E-09
 -1     13073 9.02783E-01 1.36379E+00-1.00704E-08-7.09423E-01 1.83773E-09 2.52931E-09
 -1     13077 1.13329E+00 1.13329E+00-1.00703E-08-7.45931E-01-2.21087E-09-2.21067E-09
 -1     13078 1.01802E+00 1.24856E+00-1.66292E-08-7.27786E-01-6.81347E-09-7.97758E-09
 -1     13079 1.13329E+00 1.13329E+00 8.93642E-09-7.93934E-01 5.70315E-09 5.70316E-09
 -1     13084 1.13329E+00 1.13329E+00-1.62989E-08-7.45931E-01-2.37792E-09-2.37799E-09
 -1     13085 1.01802E+00 1.24856E+00-1.89890E-08-7.27786E-01-1.87479E-09-2.19509E-09
 -1     13086 1.13329E+00 1.13329E+00 1.54901E-08-7.93934E-01 1.76148E-09 1.76150E-09
 -1     13091 1.13329E+00 1.13329E+00-1.48916E-08-7.45931E-01-8.92708E-10-8.92667E-10
 -1     13092 1.01802E+00 1.24856E+00-1.54030E-08-7.27786E-01-8.87004E-10-1.03845E-09
 -1     13093 1.13329E+00 1.13329E+00 1.33763E-08-7.93934E-01 1.14488E-09 1.14495E-09
 -1     13098 1.13329E+00 1.13329E+00-1.51653E-08-7.45931E-01-6.07184E-10-6.07137E-10
 -1     13099 1.01802E+00 1.24856E+00-1.39440E-08-7.27786E-01-1.09617E-10-1.28251E-10
 -1     13100 1.13329E+00 1.13329E+00 1.34349E-08-7.93934E-01 5.50989E-10 5.50936E-10
 -1     13105 1.13329E+00 1.13329E+00-1.47772E-08-7.45931E-01-8.60857E-11-8.62641E-11
 -1     13106 1.01802E+00 1.24856E+00-1.36311E-08-7.27786E-01 1.16472E-10 1.36327E-10
 -1     13107 1.13329E+00 1.13329E+00 1.39742E-08-7.93934E-01 9.24775E-11 9.23865E-11
 -1     13112 1.13329E+00 1.13329E+00-1.42474E-08-7.45931E-01 5.33873E-14 1.63572E-15
 -1     13113 1.01802E+00 1.24856E+00-1.36311E-08-7.27786E-01-1.16494E-10-1.36351E-10
 -1     13114 1.13329E+00 1.13329E+00 1.39743E-08-7.93934E-01-9.24373E-11-9.23319E-11
 -1     13119 1.13329E+00 1.13329E+00-1.47772E-08-7.45931E-01 8.61356E-11 8.62033E-11
 -1     13120 1.01802E+00 1.24856E+00-1.39439E-08-7.27786E-01 1.09558E-10 1.28334E-10
 -1     13121 1.13329E+00 1.13329E+00 1.34349E-08-7.93934E-01-5.50931E-10-5.50998E-10
 -1     13126 1.13329E+00 1.13329E+00-1.51652E-08-7.45931E-01 6.07136E-10 6.07130E-10
 -1     13127 1.01802E+00 1.24856E+00-1.54030E-08-7.27786E-01 8.86881E-10 1.03843E-09
 -1     13128 1.13329E+00 1.13329E+00 1.33763E-08-7.93934E-01-1.14491E-09-1.14497E-09
 -1     13133 1.13329E+00 1.13329E+00-1.48915E-08-7.45931E-01 8.92713E-10 8.92705E-10
 -1     13134 1.01802E+00 1.24856E+00-1.89890E-08-7.27786E-01 1.87485E-09 2.19514E-09
 -1     13135 1.13329E+00 1.13329E+00 1.54901E-08-7.93934E-01-1.76138E-09-1.76144E-09
 -1     13140 1.13329E+00 1.13329E+00-1.62988E-08-7.45931E-01 2.37812E-09 2.37810E-09
 -1     13141 1.01802E+00 1.24856E+00-1.66291E-08-7.27786E-01 6.81348E-09 7.97758E-09
 -1     13142 1.13329E+00 1.13329E+00 8.93645E-09-7.93934E-01-5.70309E-09-5.70307E-09
 -1     13147 1.13329E+00 1.13329E+00-1.00702E-08-7.45931E-01 2.21084E-09 2.21078E-09
 -1     13151 1.36379E+00 9.02783E-01-1.00702E-08-7.09423E-01-2.52929E-09-1.83778E-09
 -1     13152 1.24856E+00 1.01802E+00-1.66294E-08-7.27786E-01-7.97757E-09-6.81350E-09
 -1     13153 1.37863E+00 8.87949E-01 8.93652E-09-7.55076E-01 6.52529E-09 4.74088E-09
 -1     13158 1.36379E+00 9.02783E-01-1.62992E-08-7.09423E-01-2.72081E-09-1.97671E-09
 -1     13159 1.24856E+00 1.01802E+00-1.89893E-08-7.27786E-01-2.19509E-09-1.87475E-09
 -1     13160 1.37863E+00 8.87949E-01 1.54902E-08-7.55076E-01 2.01523E-09 1.46411E-09
 -1     13165 1.36379E+00 9.02783E-01-1.48917E-08-7.09423E-01-1.02123E-09-7.41993E-10
 -1     13166 1.24856E+00 1.01802E+00-1.54032E-08-7.27786E-01-1.03842E-09-8.86843E-10
 -1     13167 1.37863E+00 8.87949E-01 1.33760E-08-7.55076E-01 1.30989E-09 9.51643E-10
 -1     13172 1.36379E+00 9.02783E-01-1.51654E-08-7.09423E-01-6.94619E-10-5.04708E-10
 -1     13173 1.24856E+00 1.01802E+00-1.39441E-08-7.27786E-01-1.28277E-10-1.09620E-10
 -1     13174 1.37863E+00 8.87949E-01 1.34346E-08-7.55076E-01 6.30304E-10 4.57901E-10
 -1     13179 1.36379E+00 9.02783E-01-1.47775E-08-7.09423E-01-9.87597E-11-7.16318E-11
 -1     13180 1.24856E+00 1.01802E+00-1.36313E-08-7.27786E-01 1.36421E-10 1.16445E-10
 -1     13181 1.37863E+00 8.87949E-01 1.39740E-08-7.55076E-01 1.05583E-10 7.67500E-11
 -1     13186 1.36379E+00 9.02783E-01-1.42477E-08-7.09423E-01-8.82789E-14 6.46528E-14
 -1     13187 1.24856E+00 1.01802E+00-1.36314E-08-7.27786E-01-1.36344E-10-1.16421E-10
 -1     13188 1.37863E+00 8.87949E-01 1.39739E-08-7.55076E-01-1.05586E-10-7.67250E-11
 -1     13193 1.36379E+00 9.02783E-01-1.47776E-08-7.09423E-01 9.87608E-11 7.16479E-11
 -1     13194 1.24856E+00 1.01802E+00-1.39441E-08-7.27786E-01 1.28297E-10 1.09594E-10
 -1     13195 1.37863E+00 8.87949E-01 1.34346E-08-7.55076E-01-6.30275E-10-4.57861E-10
 -1     13200 1.36379E+00 9.02783E-01-1.51655E-08-7.09423E-01 6.94800E-10 5.04747E-10
 -1     13201 1.24856E+00 1.01802E+00-1.54032E-08-7.27786E-01 1.03839E-09 8.86870E-10
 -1     13202 1.37863E+00 8.87949E-01 1.33760E-08-7.55076E-01-1.30983E-09-9.51644E-10
 -1     13207 1.36379E+00 9.02783E-01-1.48919E-08-7.09423E-01 1.02118E-09 7.41940E-10
 -1     13208 1.24856E+00 1.01802E+00-1.89893E-08-7.27786E-01 2.19508E-09 1.87475E-09
 -1     13209 1.37863E+00 8.87949E-01 1.54902E-08-7.55076E-01-2.01530E-09-1.46417E-09
 -1     13214 1.36379E+00 9.02783E-01-1.62993E-08-7.09423E-01 2.72079E-09 1.97672E-09
 -1     13215 1.24856E+00 1.01802E+00-1.66293E-08-7.27786E-01 7.97757E-09 6.81354E-09
 -1     13216 1.37863E+00 8.87949E-01 8.93652E-09-7.55076E-01-6.52527E-09-4.74088E-09
 -1     13221 1.36379E+00 9.02783E-01-1.00703E-08-7.09423E-01 2.52936E-09 1.83777E-09
 -1     13225 1.57174E+00 6.94841E-01-1.00714E-08-6.03471E-01-2.78587E-09-1.41948E-09
 -1     13226 1.46781E+00 7.98761E-01-1.66292E-08-6.56546E-01-8.94497E-09-5.48149E-09
 -1     13227 1.59995E+00 6.66625E-01 8.93701E-09-6.42306E-01 7.18583E-09 3.66142E-09
 -1     13232 1.57174E+00 6.94841E-01-1.62986E-08-6.03471E-01-2.99626E-09-1.52679E-09
 -1     13233 1.46781E+00 7.98761E-01-1.89888E-08-6.56546E-01-2.46141E-09-1.50847E-09
 -1     13234 1.59995E+00 6.66625E-01 1.54899E-08-6.42306E-01 2.21968E-09 1.13091E-09
 -1     13239 1.57174E+00 6.94841E-01-1.48920E-08-6.03471E-01-1.12492E-09-5.73253E-10
 -1     13240 1.46781E+00 7.98761E-01-1.54030E-08-6.56546E-01-1.16443E-09-7.13608E-10
 -1     13241 1.59995E+00 6.66625E-01 1.33761E-08-6.42306E-01 1.44242E-09 7.34910E-10
 -1     13246 1.57174E+00 6.94841E-01-1.51657E-08-6.03471E-01-7.65070E-10-3.89867E-10
 -1     13247 1.46781E+00 7.98761E-01-1.39439E-08-6.56546E-01-1.43834E-10-8.81898E-11
 -1     13248 1.59995E+00 6.66625E-01 1.34346E-08-6.42306E-01 6.94004E-10 3.53608E-10
 -1     13253 1.57174E+00 6.94841E-01-1.47775E-08-6.03471E-01-1.08480E-10-5.53990E-11
 -1     13254 1.46781E+00 7.98761E-01-1.36311E-08-6.56546E-01 1.52893E-10 9.36344E-11
 -1     13255 1.59995E+00 6.66625E-01 1.39739E-08-6.42306E-01 1.16561E-10 5.92945E-11
 -1     13260 1.57174E+00 6.94841E-01-1.42480E-08-6.03471E-01-9.90028E-15-2.37551E-14
 -1     13261 1.46781E+00 7.98761E-01-1.36311E-08-6.56546E-01-1.52787E-10-9.36728E-11
 -1     13262 1.59995E+00 6.66625E-01 1.39739E-08-6.42306E-01-1.16418E-10-5.93541E-11
 -1     13267 1.57174E+00 6.94841E-01-1.47776E-08-6.03471E-01 1.08674E-10 5.53179E-11
 -1     13268 1.46781E+00 7.98761E-01-1.39439E-08-6.56546E-01 1.43845E-10 8.81774E-11
 -1     13269 1.59995E+00 6.66625E-01 1.34346E-08-6.42306E-01-6.94058E-10-3.53629E-10
 -1     13274 1.57174E+00 6.94841E-01-1.51657E-08-6.03471E-01 7.64877E-10 3.89819E-10
 -1     13275 1.46781E+00 7.98761E-01-1.54030E-08-6.56546E-01 1.16438E-09 7.13544E-10
 -1     13276 1.59995E+00 6.66625E-01 1.33761E-08-6.42306E-01-1.44250E-09-7.34966E-10
 -1     13281 1.57174E+00 6.94841E-01-1.48921E-08-6.03471E-01 1.12509E-09 5.73221E-10
 -1     13282 1.46781E+00 7.98761E-01-1.89889E-08-6.56546E-01 2.46145E-09 1.50846E-09
 -1     13283 1.59995E+00 6.66625E-01 1.54899E-08-6.42306E-01-2.21957E-09-1.13089E-09
 -1     13288 1.57174E+00 6.94841E-01-1.62988E-08-6.03471E-01 2.99620E-09 1.52680E-09
 -1     13289 1.46781E+00 7.98761E-01-1.66292E-08-6.56546E-01 8.94495E-09 5.48154E-09
 -1     13290 1.59995E+00 6.66625E-01 8.93699E-09-6.42306E-01-7.18590E-09-3.66143E-09
 -1     13295 1.57174E+00 6.94841E-01-1.00715E-08-6.03471E-01 2.78578E-09 1.41950E-09
 -1     13299 1.73676E+00 5.29817E-01-1.00692E-08-4.38447E-01-2.97349E-09-9.66241E-10
 -1     13300 1.65433E+00 6.12250E-01-1.66293E-08-5.21038E-01-9.69261E-09-4.01492E-09
 -1     13301 1.77559E+00 4.90982E-01 8.93570E-09-4.66663E-01 7.67136E-09 2.49263E-09
 -1     13306 1.73676E+00 5.29817E-01-1.62994E-08-4.38447E-01-3.19869E-09-1.03941E-09
 -1     13307 1.65433E+00 6.12250E-01-1.89892E-08-5.21038E-01-2.66704E-09-1.10476E-09
 -1     13308 1.77559E+00 4.90982E-01 1.54902E-08-4.66663E-01 2.36916E-09 7.69736E-10
 -1     13313 1.73676E+00 5.29817E-01-1.48913E-08-4.38447E-01-1.20043E-09-3.90117E-10
 -1     13314 1.65433E+00 6.12250E-01-1.54032E-08-5.21038E-01-1.26175E-09-5.22701E-10
 -1     13315 1.77559E+00 4.90982E-01 1.33763E-08-4.66663E-01 1.54028E-09 5.00401E-10
 -1     13320 1.73676E+00 5.29817E-01-1.51650E-08-4.38447E-01-8.16678E-10-2.65405E-10
 -1     13321 1.65433E+00 6.12250E-01-1.39441E-08-5.21038E-01-1.55937E-10-6.46271E-11
 -1     13322 1.77559E+00 4.90982E-01 1.34351E-08-4.66663E-01 7.41248E-10 2.40834E-10
 -1     13327 1.73676E+00 5.29817E-01-1.47772E-08-4.38447E-01-1.15902E-10-3.76981E-11
 -1     13328 1.65433E+00 6.12250E-01-1.36314E-08-5.21038E-01 1.65705E-10 6.85974E-11
 -1     13329 1.77559E+00 4.90982E-01 1.39746E-08-4.66663E-01 1.24187E-10 4.03536E-11
 -1     13334 1.73676E+00 5.29817E-01-1.42470E-08-4.38447E-01-3.82690E-14 8.45543E-15
 -1     13335 1.65433E+00 6.12250E-01-1.36313E-08-5.21038E-01-1.65651E-10-6.86240E-11
 -1     13336 1.77559E+00 4.90982E-01 1.39746E-08-4.66663E-01-1.24238E-10-4.03861E-11
 -1     13341 1.73676E+00 5.29817E-01-1.47772E-08-4.38447E-01 1.15899E-10 3.76619E-11
 -1     13342 1.65433E+00 6.12250E-01-1.39441E-08-5.21038E-01 1.55919E-10 6.46105E-11
 -1     13343 1.77559E+00 4.90982E-01 1.34350E-08-4.66663E-01-7.41275E-10-2.40873E-10
 -1     13348 1.73676E+00 5.29817E-01-1.51650E-08-4.38447E-01 8.16761E-10 2.65403E-10
 -1     13349 1.65433E+00 6.12250E-01-1.54032E-08-5.21038E-01 1.26169E-09 5.22642E-10
 -1     13350 1.77559E+00 4.90982E-01 1.33763E-08-4.66663E-01-1.54017E-09-5.00404E-10
 -1     13355 1.73676E+00 5.29817E-01-1.48912E-08-4.38447E-01 1.20045E-09 3.90136E-10
 -1     13356 1.65433E+00 6.12250E-01-1.89892E-08-5.21038E-01 2.66705E-09 1.10478E-09
 -1     13357 1.77559E+00 4.90982E-01 1.54902E-08-4.66663E-01-2.36913E-09-7.69737E-10
 -1     13362 1.73676E+00 5.29817E-01-1.62992E-08-4.38447E-01 3.19866E-09 1.03945E-09
 -1     13363 1.65433E+00 6.12250E-01-1.66293E-08-5.21038E-01 9.69259E-09 4.01488E-09
 -1     13364 1.77559E+00 4.90982E-01 8.93565E-09-4.66663E-01-7.67128E-09-2.49261E-09
 -1     13369 1.73676E+00 5.29817E-01-1.00692E-08-4.38447E-01 2.97354E-09 9.66238E-10
 -1     13373 1.84271E+00 4.23865E-01-1.00704E-08-2.30505E-01-3.08813E-09-4.89212E-10
 -1     13374 1.78983E+00 4.76742E-01-1.66293E-08-3.34527E-01-1.02016E-08-2.44917E-09
 -1     13375 1.88836E+00 3.78212E-01 8.93611E-09-2.45339E-01 7.96611E-09 1.26176E-09
 -1     13380 1.84271E+00 4.23865E-01-1.62989E-08-2.30505E-01-3.32169E-09-5.26100E-10
 -1     13381 1.78983E+00 4.76742E-01-1.89894E-08-3.34527E-01-2.80703E-09-6.73927E-10
 -1     13382 1.88836E+00 3.78212E-01 1.54897E-08-2.45339E-01 2.46049E-09 3.89703E-10
 -1     13387 1.84271E+00 4.23865E-01-1.48918E-08-2.30505E-01-1.24701E-09-1.97507E-10
 -1     13388 1.78983E+00 4.76742E-01-1.54032E-08-3.34527E-01-1.32798E-09-3.18829E-10
 -1     13389 1.88836E+00 3.78212E-01 1.33762E-08-2.45339E-01 1.59935E-09 2.53295E-10
 -1     13394 1.84271E+00 4.23865E-01-1.51654E-08-2.30505E-01-8.48147E-10-1.34308E-10
 -1     13395 1.78983E+00 4.76742E-01-1.39441E-08-3.34527E-01-1.64179E-10-3.94224E-11
 -1     13396 1.88836E+00 3.78212E-01 1.34350E-08-2.45339E-01 7.69696E-10 1.21881E-10
 -1     13401 1.84271E+00 4.23865E-01-1.47773E-08-2.30505E-01-1.20405E-10-1.90659E-11
 -1     13402 1.78983E+00 4.76742E-01-1.36313E-08-3.34527E-01 1.74397E-10 4.18712E-11
 -1     13403 1.88836E+00 3.78212E-01 1.39745E-08-2.45339E-01 1.29140E-10 2.04341E-11
 -1     13408 1.84271E+00 4.23865E-01-1.42475E-08-2.30505E-01 6.45155E-14-1.84324E-14
 -1     13409 1.78983E+00 4.76742E-01-1.36313E-08-3.34527E-01-1.74364E-10-4.18568E-11
 -1     13410 1.88836E+00 3.78212E-01 1.39744E-08-2.45339E-01-1.29075E-10-2.04325E-11
 -1     13415 1.84271E+00 4.23865E-01-1.47773E-08-2.30505E-01 1.20431E-10 1.90684E-11
 -1     13416 1.78983E+00 4.76742E-01-1.39441E-08-3.34527E-01 1.64185E-10 3.94118E-11
 -1     13417 1.88836E+00 3.78212E-01 1.34350E-08-2.45339E-01-7.69701E-10-1.21881E-10
 -1     13422 1.84271E+00 4.23865E-01-1.51653E-08-2.30505E-01 8.48042E-10 1.34323E-10
 -1     13423 1.78983E+00 4.76742E-01-1.54032E-08-3.34527E-01 1.32792E-09 3.18824E-10
 -1     13424 1.88836E+00 3.78212E-01 1.33763E-08-2.45339E-01-1.59944E-09-2.53301E-10
 -1     13429 1.84271E+00 4.23865E-01-1.48916E-08-2.30505E-01 1.24698E-09 1.97511E-10
 -1     13430 1.78983E+00 4.76742E-01-1.89894E-08-3.34527E-01 2.80701E-09 6.73930E-10
 -1     13431 1.88836E+00 3.78212E-01 1.54898E-08-2.45339E-01-2.46050E-09-3.89695E-10
 -1     13436 1.84271E+00 4.23865E-01-1.62989E-08-2.30505E-01 3.32171E-09 5.26088E-10
 -1     13437 1.78983E+00 4.76742E-01-1.66293E-08-3.34527E-01 1.02017E-08 2.44914E-09
 -1     13438 1.88836E+00 3.78212E-01 8.93617E-09-2.45339E-01-7.96607E-09-1.26174E-09
 -1     13443 1.84271E+00 4.23865E-01-1.00704E-08-2.30505E-01 3.08813E-09 4.89231E-10
 -1     13447 1.86107E+00 4.05502E-01-1.66291E-08-1.15270E-01-1.04588E-08-8.23126E-10
 -1     13451 1.86107E+00 4.05502E-01-1.89890E-08-1.15270E-01-2.87810E-09-2.26477E-10
 -1     13455 1.86107E+00 4.05502E-01-1.54030E-08-1.15270E-01-1.36155E-09-1.07159E-10
 -1     13459 1.86107E+00 4.05502E-01-1.39439E-08-1.15270E-01-1.68294E-10-1.32388E-11
 -1     13463 1.86107E+00 4.05502E-01-1.36310E-08-1.15270E-01 1.78693E-10 1.40569E-11
 -1     13467 1.86107E+00 4.05502E-01-1.36310E-08-1.15270E-01-1.78686E-10-1.40614E-11
 -1     13471 1.86107E+00 4.05502E-01-1.39438E-08-1.15270E-01 1.68349E-10 1.32444E-11
 -1     13475 1.86107E+00 4.05502E-01-1.54029E-08-1.15270E-01 1.36144E-09 1.07160E-10
 -1     13479 1.86107E+00 4.05502E-01-1.89889E-08-1.15270E-01 2.87811E-09 2.26486E-10
 -1     13483 1.86107E+00 4.05502E-01-1.66291E-08-1.15270E-01 1.04589E-08 8.23136E-10
 -1     13489 5.00381E-01 1.76620E+00-3.97520E-09-2.05644E-01 8.88093E-11 5.60713E-10
 -1     13490 4.83997E-01 1.78258E+00-3.39087E-09-1.02838E-01 1.52815E-10 1.94176E-09
 -1     13491 4.62109E-01 1.80447E+00 1.99301E-09-2.18079E-01-2.40599E-10-1.51913E-09
 -1     13496 5.00381E-01 1.76620E+00-4.94349E-09-2.05644E-01 1.20335E-10 7.59629E-10
 -1     13497 4.83997E-01 1.78258E+00-2.95976E-09-1.02838E-01 1.31237E-10 1.66755E-09
 -1     13498 4.62109E-01 1.80447E+00 4.62179E-10-2.18079E-01-1.69510E-10-1.07042E-09
 -1     13503 5.00381E-01 1.76620E+00-3.62254E-09-2.05644E-01 1.10799E-10 6.99508E-10
 -1     13504 4.83997E-01 1.78258E+00-3.97789E-09-1.02838E-01 1.75228E-11 2.22589E-10
 -1     13505 4.62109E-01 1.80447E+00 1.10427E-09-2.18079E-01-2.77940E-11-1.75351E-10
 -1     13510 5.00381E-01 1.76620E+00-4.16088E-09-2.05644E-01 2.49802E-11 1.57799E-10
 -1     13511 4.83997E-01 1.78258E+00-4.38970E-09-1.02838E-01 1.04608E-11 1.33063E-10
 -1     13512 4.62109E-01 1.80447E+00 1.20970E-09-2.18079E-01-1.12592E-11-7.08847E-11
 -1     13517 5.00381E-01 1.76620E+00-4.22676E-09-2.05644E-01 2.24417E-11 1.41863E-10
 -1     13518 4.83997E-01 1.78258E+00-4.49442E-09-1.02838E-01 5.44892E-12 6.93091E-11
 -1     13519 4.62109E-01 1.80447E+00 1.11930E-09-2.18079E-01-7.64479E-12-4.81956E-11
 -1     13524 5.00381E-01 1.76620E+00-4.15970E-09-2.05644E-01-3.69477E-14-1.32927E-15
 -1     13525 4.83997E-01 1.78258E+00-4.49446E-09-1.02838E-01-5.46801E-12-6.93723E-11
 -1     13526 4.62109E-01 1.80447E+00 1.11930E-09-2.18079E-01 7.61713E-12 4.82240E-11
 -1     13531 5.00381E-01 1.76620E+00-4.22685E-09-2.05644E-01-2.25085E-11-1.41780E-10
 -1     13532 4.83997E-01 1.78258E+00-4.38969E-09-1.02838E-01-1.04681E-11-1.33006E-10
 -1     13533 4.62109E-01 1.80447E+00 1.20973E-09-2.18079E-01 1.12313E-11 7.09971E-11
 -1     13538 5.00381E-01 1.76620E+00-4.16090E-09-2.05644E-01-2.50127E-11-1.57874E-10
 -1     13539 4.83997E-01 1.78258E+00-3.97787E-09-1.02838E-01-1.75178E-11-2.22649E-10
 -1     13540 4.62109E-01 1.80447E+00 1.10428E-09-2.18079E-01 2.77721E-11 1.75414E-10
 -1     13545 5.00381E-01 1.76620E+00-3.62249E-09-2.05644E-01-1.10794E-10-6.99618E-10
 -1     13546 4.83997E-01 1.78258E+00-2.95973E-09-1.02838E-01-1.31249E-10-1.66756E-09
 -1     13547 4.62109E-01 1.80447E+00 4.62149E-10-2.18079E-01 1.69497E-10 1.07022E-09
 -1     13552 5.00381E-01 1.76620E+00-4.94348E-09-2.05644E-01-1.20337E-10-7.59729E-10
 -1     13553 4.83997E-01 1.78258E+00-3.39086E-09-1.02838E-01-1.52824E-10-1.94181E-09
 -1     13554 4.62109E-01 1.80447E+00 1.99302E-09-2.18079E-01 2.40609E-10 1.51906E-09
 -1     13559 5.00381E-01 1.76620E+00-3.97520E-09-2.05644E-01-8.88190E-11-5.60781E-10
 -1     13563 5.94905E-01 1.67167E+00-3.97523E-09-3.91158E-01 1.75455E-10 5.40025E-10
 -1     13564 5.47555E-01 1.71902E+00-3.39081E-09-2.98446E-01 4.54684E-10 1.89397E-09
 -1     13565 5.62349E-01 1.70423E+00 1.99302E-09-4.14811E-01-4.75283E-10-1.46272E-09
 -1     13570 5.94905E-01 1.67167E+00-4.94350E-09-3.91158E-01 2.37682E-10 7.31541E-10
 -1     13571 5.47555E-01 1.71902E+00-2.95972E-09-2.98446E-01 3.90462E-10 1.62648E-09
 -1     13572 5.62349E-01 1.70423E+00 4.62225E-10-4.14811E-01-3.34861E-10-1.03049E-09
 -1     13577 5.94905E-01 1.67167E+00-3.62251E-09-3.91158E-01 2.18841E-10 6.73648E-10
 -1     13578 5.47555E-01 1.71902E+00-3.97786E-09-2.98446E-01 5.20987E-11 2.17157E-10
 -1     13579 5.62349E-01 1.70423E+00 1.10431E-09-4.14811E-01-5.48627E-11-1.68857E-10
 -1     13584 5.94905E-01 1.67167E+00-4.16091E-09-3.91158E-01 4.93515E-11 1.52032E-10
 -1     13585 5.47555E-01 1.71902E+00-4.38968E-09-2.98446E-01 3.11192E-11 1.29731E-10
 -1     13586 5.62349E-01 1.70423E+00 1.20975E-09-4.14811E-01-2.22193E-11-6.83545E-11
 -1     13591 5.94905E-01 1.67167E+00-4.22683E-09-3.91158E-01 4.43565E-11 1.36516E-10
 -1     13592 5.47555E-01 1.71902E+00-4.49447E-09-2.98446E-01 1.62218E-11 6.75851E-11
 -1     13593 5.62349E-01 1.70423E+00 1.11940E-09-4.14811E-01-1.50977E-11-4.64660E-11
 -1     13598 5.94905E-01 1.67167E+00-4.15975E-09-3.91158E-01-3.25950E-14-5.98930E-14
 -1     13599 5.47555E-01 1.71902E+00-4.49448E-09-2.98446E-01-1.62654E-11-6.76089E-11
 -1     13600 5.62349E-01 1.70423E+00 1.11935E-09-4.14811E-01 1.50406E-11 4.63760E-11
 -1     13605 5.94905E-01 1.67167E+00-4.22680E-09-3.91158E-01-4.43729E-11-1.36649E-10
 -1     13606 5.47555E-01 1.71902E+00-4.38972E-09-2.98446E-01-3.11749E-11-1.29789E-10
 -1     13607 5.62349E-01 1.70423E+00 1.20967E-09-4.14811E-01 2.21599E-11 6.82837E-11
 -1     13612 5.94905E-01 1.67167E+00-4.16095E-09-3.91158E-01-4.93915E-11-1.51907E-10
 -1     13613 5.47555E-01 1.71902E+00-3.97788E-09-2.98446E-01-5.21300E-11-2.17097E-10
 -1     13614 5.62349E-01 1.70423E+00 1.10430E-09-4.14811E-01 5.48591E-11 1.68929E-10
 -1     13619 5.94905E-01 1.67167E+00-3.62256E-09-3.91158E-01-2.18882E-10-6.73567E-10
 -1     13620 5.47555E-01 1.71902E+00-2.95971E-09-2.98446E-01-3.90499E-10-1.62651E-09
 -1     13621 5.62349E-01 1.70423E+00 4.62210E-10-4.14811E-01 3.34864E-10 1.03058E-09
 -1     13626 5.94905E-01 1.67167E+00-4.94359E-09-3.91158E-01-2.37692E-10-7.31446E-10
 -1     13627 5.47555E-01 1.71902E+00-3.39086E-09-2.98446E-01-4.54723E-10-1.89401E-09
 -1     13628 5.62349E-01 1.70423E+00 1.99298E-09-4.14811E-01 4.75297E-10 1.46272E-09
 -1     13633 5.94905E-01 1.67167E+00-3.97529E-09-3.91158E-01-1.75448E-10-5.40000E-10
 -1     13637 7.42130E-01 1.52445E+00-3.97518E-09-5.38383E-01 2.57749E-10 5.05857E-10
 -1     13638 6.68447E-01 1.59813E+00-3.39077E-09-4.64841E-01 7.45396E-10 1.79951E-09
 -1     13639 7.18477E-01 1.54810E+00 1.99300E-09-5.70939E-01-6.98269E-10-1.37040E-09
 -1     13644 7.42130E-01 1.52445E+00-4.94350E-09-5.38383E-01 3.49171E-10 6.85304E-10
 -1     13645 6.68447E-01 1.59813E+00-2.95967E-09-4.64841E-01 6.40140E-10 1.54541E-09
 -1     13646 7.18477E-01 1.54810E+00 4.62182E-10-5.70939E-01-4.91959E-10-9.65430E-10
 -1     13651 7.42130E-01 1.52445E+00-3.62251E-09-5.38383E-01 3.21562E-10 6.31113E-10
 -1     13652 6.68447E-01 1.59813E+00-3.97783E-09-4.64841E-01 8.54499E-11 2.06292E-10
 -1     13653 7.18477E-01 1.54810E+00 1.10426E-09-5.70939E-01-8.06465E-11-1.58244E-10
 -1     13658 7.42130E-01 1.52445E+00-4.16092E-09-5.38383E-01 7.25364E-11 1.42297E-10
 -1     13659 6.68447E-01 1.59813E+00-4.38964E-09-4.64841E-01 5.10727E-11 1.23269E-10
 -1     13660 7.18477E-01 1.54810E+00 1.20968E-09-5.70939E-01-3.25790E-11-6.40593E-11
 -1     13665 7.42130E-01 1.52445E+00-4.22672E-09-5.38383E-01 6.51936E-11 1.28057E-10
 -1     13666 6.68447E-01 1.59813E+00-4.49441E-09-4.64841E-01 2.66063E-11 6.42633E-11
 -1     13667 7.18477E-01 1.54810E+00 1.11934E-09-5.70939E-01-2.21424E-11-4.34447E-11
 -1     13672 7.42130E-01 1.52445E+00-4.15966E-09-5.38383E-01 2.03301E-14-3.57719E-14
 -1     13673 6.68447E-01 1.59813E+00-4.49439E-09-4.64841E-01-2.66258E-11-6.43099E-11
 -1     13674 7.18477E-01 1.54810E+00 1.11932E-09-5.70939E-01 2.21201E-11 4.34816E-11
 -1     13679 7.42130E-01 1.52445E+00-4.22680E-09-5.38383E-01-6.51818E-11-1.27968E-10
 -1     13680 6.68447E-01 1.59813E+00-4.38964E-09-4.64841E-01-5.10989E-11-1.23291E-10
 -1     13681 7.18477E-01 1.54810E+00 1.20970E-09-5.70939E-01 3.26025E-11 6.39771E-11
 -1     13686 7.42130E-01 1.52445E+00-4.16092E-09-5.38383E-01-7.25489E-11-1.42518E-10
 -1     13687 6.68447E-01 1.59813E+00-3.97784E-09-4.64841E-01-8.54521E-11-2.06330E-10
 -1     13688 7.18477E-01 1.54810E+00 1.10425E-09-5.70939E-01 8.06147E-11 1.58213E-10
 -1     13693 7.42130E-01 1.52445E+00-3.62249E-09-5.38383E-01-3.21566E-10-6.31074E-10
 -1     13694 6.68447E-01 1.59813E+00-2.95966E-09-4.64841E-01-6.40123E-10-1.54540E-09
 -1     13695 7.18477E-01 1.54810E+00 4.62233E-10-5.70939E-01 4.91946E-10 9.65396E-10
 -1     13700 7.42130E-01 1.52445E+00-4.94347E-09-5.38383E-01-3.49171E-10-6.85355E-10
 -1     13701 6.68447E-01 1.59813E+00-3.39078E-09-4.64841E-01-7.45419E-10-1.79950E-09
 -1     13702 7.18477E-01 1.54810E+00 1.99300E-09-5.70939E-01 6.98275E-10 1.37042E-09
 -1     13707 7.42130E-01 1.52445E+00-3.97516E-09-5.38383E-01-2.57746E-10-5.05885E-10
 -1     13711 9.27644E-01 1.33893E+00-3.97513E-09-6.32907E-01 3.33704E-10 4.59312E-10
 -1     13712 8.34842E-01 1.43173E+00-3.39092E-09-5.85733E-01 1.01771E-09 1.66075E-09
 -1     13713 9.15209E-01 1.35137E+00 1.99300E-09-6.71179E-01-9.04079E-10-1.24434E-09
 -1     13718 9.27644E-01 1.33893E+00-4.94345E-09-6.32907E-01 4.52074E-10 6.22223E-10
 -1     13719 8.34842E-01 1.43173E+00-2.95978E-09-5.85733E-01 8.74016E-10 1.42621E-09
 -1     13720 9.15209E-01 1.35137E+00 4.62167E-10-6.71179E-01-6.36883E-10-8.76599E-10
 -1     13725 9.27644E-01 1.33893E+00-3.62240E-09-6.32907E-01 4.16366E-10 5.73063E-10
 -1     13726 8.34842E-01 1.43173E+00-3.97795E-09-5.85733E-01 1.16672E-10 1.90406E-10
 -1     13727 9.15209E-01 1.35137E+00 1.10426E-09-6.71179E-01-1.04349E-10-1.43643E-10
 -1     13732 9.27644E-01 1.33893E+00-4.16075E-09-6.32907E-01 9.39378E-11 1.29299E-10
 -1     13733 8.34842E-01 1.43173E+00-4.38974E-09-5.85733E-01 6.97363E-11 1.13786E-10
 -1     13734 9.15209E-01 1.35137E+00 1.20970E-09-6.71179E-01-4.22267E-11-5.80582E-11
 -1     13739 9.27644E-01 1.33893E+00-4.22669E-09-6.32907E-01 8.44193E-11 1.16210E-10
 -1     13740 8.34842E-01 1.43173E+00-4.49453E-09-5.85733E-01 3.63405E-11 5.92963E-11
 -1     13741 9.15209E-01 1.35137E+00 1.11934E-09-6.71179E-01-2.86900E-11-3.94349E-11
 -1     13746 9.27644E-01 1.33893E+00-4.15960E-09-6.32907E-01-6.71452E-15-2.81837E-14
 -1     13747 8.34842E-01 1.43173E+00-4.49453E-09-5.85733E-01-3.63597E-11-5.93304E-11
 -1     13748 9.15209E-01 1.35137E+00 1.11936E-09-6.71179E-01 2.85975E-11 3.93719E-11
 -1     13753 9.27644E-01 1.33893E+00-4.22661E-09-6.32907E-01-8.44759E-11-1.16246E-10
 -1     13754 8.34842E-01 1.43173E+00-4.38977E-09-5.85733E-01-6.97514E-11-1.13839E-10
 -1     13755 9.15209E-01 1.35137E+00 1.20970E-09-6.71179E-01 4.21857E-11 5.80894E-11
 -1     13760 9.27644E-01 1.33893E+00-4.16077E-09-6.32907E-01-9.40039E-11-1.29300E-10
 -1     13761 8.34842E-01 1.43173E+00-3.97794E-09-5.85733E-01-1.16682E-10-1.90389E-10
 -1     13762 9.15209E-01 1.35137E+00 1.10427E-09-6.71179E-01 1.04289E-10 1.43610E-10
 -1     13767 9.27644E-01 1.33893E+00-3.62243E-09-6.32907E-01-4.16368E-10-5.73110E-10
 -1     13768 8.34842E-01 1.43173E+00-2.95980E-09-5.85733E-01-8.73965E-10-1.42628E-09
 -1     13769 9.15209E-01 1.35137E+00 4.62124E-10-6.71179E-01 6.36833E-10 8.76557E-10
 -1     13774 9.27644E-01 1.33893E+00-4.94339E-09-6.32907E-01-4.52158E-10-6.22297E-10
 -1     13775 8.34842E-01 1.43173E+00-3.39087E-09-5.85733E-01-1.01773E-09-1.66076E-09
 -1     13776 9.15209E-01 1.35137E+00 1.99296E-09-6.71179E-01 9.04006E-10 1.24430E-09
 -1     13781 9.27644E-01 1.33893E+00-3.97510E-09-6.32907E-01-3.33766E-10-4.59329E-10
 -1     13785 1.13329E+00 1.13329E+00-3.97509E-09-6.65478E-01 4.01499E-10 4.01466E-10
 -1     13786 1.03045E+00 1.23613E+00-3.39089E-09-6.49291E-01 1.26497E-09 1.48115E-09
 -1     13787 1.13329E+00 1.13329E+00 1.99296E-09-7.05719E-01-1.08753E-09-1.08749E-09
 -1     13792 1.13329E+00 1.13329E+00-4.94335E-09-6.65478E-01 5.43888E-10 5.43915E-10
 -1     13793 1.03045E+00 1.23613E+00-2.95973E-09-6.49291E-01 1.08638E-09 1.27197E-09
 -1     13794 1.13329E+00 1.13329E+00 4.62123E-10-7.05719E-01-7.66084E-10-7.66149E-10
 -1     13799 1.13329E+00 1.13329E+00-3.62234E-09-6.65478E-01 5.00891E-10 5.00925E-10
 -1     13800 1.03045E+00 1.23613E+00-3.97787E-09-6.49291E-01 1.44992E-10 1.69851E-10
 -1     13801 1.13329E+00 1.13329E+00 1.10426E-09-7.05719E-01-1.25602E-10-1.25474E-10
 -1     13806 1.13329E+00 1.13329E+00-4.16072E-09-6.65478E-01 1.12982E-10 1.13014E-10
 -1     13807 1.03045E+00 1.23613E+00-4.38967E-09-6.49291E-01 8.66788E-11 1.01501E-10
 -1     13808 1.13329E+00 1.13329E+00 1.20973E-09-7.05719E-01-5.07706E-11-5.08170E-11
 -1     13813 1.13329E+00 1.13329E+00-4.22659E-09-6.65478E-01 1.01494E-10 1.01572E-10
 -1     13814 1.03045E+00 1.23613E+00-4.49443E-09-6.49291E-01 4.51294E-11 5.29429E-11
 -1     13815 1.13329E+00 1.13329E+00 1.11937E-09-7.05719E-01-3.44018E-11-3.44406E-11
 -1     13820 1.13329E+00 1.13329E+00-4.15948E-09-6.65478E-01 2.68633E-14 6.26848E-14
 -1     13821 1.03045E+00 1.23613E+00-4.49447E-09-6.49291E-01-4.51583E-11-5.28735E-11
 -1     13822 1.13329E+00 1.13329E+00 1.11938E-09-7.05719E-01 3.45184E-11 3.45319E-11
 -1     13827 1.13329E+00 1.13329E+00-4.22661E-09-6.65478E-01-1.01602E-10-1.01542E-10
 -1     13828 1.03045E+00 1.23613E+00-4.38969E-09-6.49291E-01-8.67323E-11-1.01506E-10
 -1     13829 1.13329E+00 1.13329E+00 1.20974E-09-7.05719E-01 5.07231E-11 5.07979E-11
 -1     13834 1.13329E+00 1.13329E+00-4.16072E-09-6.65478E-01-1.12998E-10-1.12900E-10
 -1     13835 1.03045E+00 1.23613E+00-3.97790E-09-6.49291E-01-1.45037E-10-1.69783E-10
 -1     13836 1.13329E+00 1.13329E+00 1.10430E-09-7.05719E-01 1.25523E-10 1.25538E-10
 -1     13841 1.13329E+00 1.13329E+00-3.62229E-09-6.65478E-01-5.00818E-10-5.00851E-10
 -1     13842 1.03045E+00 1.23613E+00-2.95977E-09-6.49291E-01-1.08640E-09-1.27201E-09
 -1     13843 1.13329E+00 1.13329E+00 4.62249E-10-7.05719E-01 7.66234E-10 7.66196E-10
 -1     13848 1.13329E+00 1.13329E+00-4.94333E-09-6.65478E-01-5.43832E-10-5.43916E-10
 -1     13849 1.03045E+00 1.23613E+00-3.39086E-09-6.49291E-01-1.26496E-09-1.48113E-09
 -1     13850 1.13329E+00 1.13329E+00 1.99301E-09-7.05719E-01 1.08763E-09 1.08755E-09
 -1     13855 1.13329E+00 1.13329E+00-3.97510E-09-6.65478E-01-4.01477E-10-4.01398E-10
 -1     13859 1.33893E+00 9.27644E-01-3.97522E-09-6.32907E-01 4.59312E-10 3.33789E-10
 -1     13860 1.23613E+00 1.03045E+00-3.39097E-09-6.49291E-01 1.48113E-09 1.26501E-09
 -1     13861 1.35137E+00 9.15209E-01 1.99303E-09-6.71179E-01-1.24420E-09-9.03962E-10
 -1     13866 1.33893E+00 9.27644E-01-4.94365E-09-6.32907E-01 6.22316E-10 4.52139E-10
 -1     13867 1.23613E+00 1.03045E+00-2.95984E-09-6.49291E-01 1.27204E-09 1.08638E-09
 -1     13868 1.35137E+00 9.15209E-01 4.62216E-10-6.71179E-01-8.76629E-10-6.36868E-10
 -1     13873 1.33893E+00 9.27644E-01-3.62254E-09-6.32907E-01 5.73117E-10 4.16394E-10
 -1     13874 1.23613E+00 1.03045E+00-3.97795E-09-6.49291E-01 1.69833E-10 1.45079E-10
 -1     13875 1.35137E+00 9.15209E-01 1.10435E-09-6.71179E-01-1.43516E-10-1.04281E-10
 -1     13880 1.33893E+00 9.27644E-01-4.16090E-09-6.32907E-01 1.29266E-10 9.39875E-11
 -1     13881 1.23613E+00 1.03045E+00-4.38978E-09-6.49291E-01 1.01499E-10 8.67030E-11
 -1     13882 1.35137E+00 9.15209E-01 1.20975E-09-6.71179E-01-5.81074E-11-4.21896E-11
 -1     13887 1.33893E+00 9.27644E-01-4.22684E-09-6.32907E-01 1.16170E-10 8.44694E-11
 -1     13888 1.23613E+00 1.03045E+00-4.49451E-09-6.49291E-01 5.29037E-11 4.52227E-11
 -1     13889 1.35137E+00 9.15209E-01 1.11935E-09-6.71179E-01-3.95185E-11-2.86410E-11
 -1     13894 1.33893E+00 9.27644E-01-4.15976E-09-6.32907E-01-1.84248E-14 1.61055E-14
 -1     13895 1.23613E+00 1.03045E+00-4.49458E-09-6.49291E-01-5.28849E-11-4.51875E-11
 -1     13896 1.35137E+00 9.15209E-01 1.11936E-09-6.71179E-01 3.94708E-11 2.86686E-11
 -1     13901 1.33893E+00 9.27644E-01-4.22689E-09-6.32907E-01-1.16158E-10-8.44078E-11
 -1     13902 1.23613E+00 1.03045E+00-4.38977E-09-6.49291E-01-1.01548E-10-8.66638E-11
 -1     13903 1.35137E+00 9.15209E-01 1.20972E-09-6.71179E-01 5.81410E-11 4.22115E-11
 -1     13908 1.33893E+00 9.27644E-01-4.16093E-09-6.32907E-01-1.29296E-10-9.39800E-11
 -1     13909 1.23613E+00 1.03045E+00-3.97795E-09-6.49291E-01-1.69812E-10-1.45038E-10
 -1     13910 1.35137E+00 9.15209E-01 1.10428E-09-6.71179E-01 1.43627E-10 1.04320E-10
 -1     13915 1.33893E+00 9.27644E-01-3.62255E-09-6.32907E-01-5.73105E-10-4.16398E-10
 -1     13916 1.23613E+00 1.03045E+00-2.95981E-09-6.49291E-01-1.27201E-09-1.08641E-09
 -1     13917 1.35137E+00 9.15209E-01 4.62181E-10-6.71179E-01 8.76556E-10 6.36837E-10
 -1     13922 1.33893E+00 9.27644E-01-4.94370E-09-6.32907E-01-6.22302E-10-4.52085E-10
 -1     13923 1.23613E+00 1.03045E+00-3.39097E-09-6.49291E-01-1.48111E-09-1.26499E-09
 -1     13924 1.35137E+00 9.15209E-01 1.99303E-09-6.71179E-01 1.24424E-09 9.04028E-10
 -1     13929 1.33893E+00 9.27644E-01-3.97525E-09-6.32907E-01-4.59261E-10-3.33738E-10
 -1     13933 1.52445E+00 7.42130E-01-3.97563E-09-5.38383E-01 5.05845E-10 2.57722E-10
 -1     13934 1.43173E+00 8.34842E-01-3.39065E-09-5.85733E-01 1.66089E-09 1.01780E-09
 -1     13935 1.54810E+00 7.18477E-01 1.99300E-09-5.70939E-01-1.37058E-09-6.98401E-10
 -1     13940 1.52445E+00 7.42130E-01-4.94330E-09-5.38383E-01 6.85406E-10 3.49186E-10
 -1     13941 1.43173E+00 8.34842E-01-2.95955E-09-5.85733E-01 1.42628E-09 8.73964E-10
 -1     13942 1.54810E+00 7.18477E-01 4.62260E-10-5.70939E-01-9.65239E-10-4.91910E-10
 -1     13947 1.52445E+00 7.42130E-01-3.62264E-09-5.38383E-01 6.31083E-10 3.21514E-10
 -1     13948 1.43173E+00 8.34842E-01-3.97768E-09-5.85733E-01 1.90472E-10 1.16714E-10
 -1     13949 1.54810E+00 7.18477E-01 1.10426E-09-5.70939E-01-1.58346E-10-8.06959E-11
 -1     13954 1.52445E+00 7.42130E-01-4.16092E-09-5.38383E-01 1.42444E-10 7.25783E-11
 -1     13955 1.43173E+00 8.34842E-01-4.38949E-09-5.85733E-01 1.13796E-10 6.97605E-11
 -1     13956 1.54810E+00 7.18477E-01 1.20971E-09-5.70939E-01-6.40440E-11-3.26564E-11
 -1     13961 1.52445E+00 7.42130E-01-4.22675E-09-5.38383E-01 1.27916E-10 6.51548E-11
 -1     13962 1.43173E+00 8.34842E-01-4.49428E-09-5.85733E-01 5.93035E-11 3.63265E-11
 -1     13963 1.54810E+00 7.18477E-01 1.11928E-09-5.70939E-01-4.33561E-11-2.21564E-11
 -1     13968 1.52445E+00 7.42130E-01-4.15979E-09-5.38383E-01 3.88519E-14-4.59752E-14
 -1     13969 1.43173E+00 8.34842E-01-4.49430E-09-5.85733E-01-5.92917E-11-3.63382E-11
 -1     13970 1.54810E+00 7.18477E-01 1.11931E-09-5.70939E-01 4.34350E-11 2.20976E-11
 -1     13975 1.52445E+00 7.42130E-01-4.22670E-09-5.38383E-01-1.27959E-10-6.52039E-11
 -1     13976 1.43173E+00 8.34842E-01-4.38951E-09-5.85733E-01-1.13833E-10-6.97408E-11
 -1     13977 1.54810E+00 7.18477E-01 1.20968E-09-5.70939E-01 6.40170E-11 3.26475E-11
 -1     13982 1.52445E+00 7.42130E-01-4.16093E-09-5.38383E-01-1.42448E-10-7.25674E-11
 -1     13983 1.43173E+00 8.34842E-01-3.97768E-09-5.85733E-01-1.90452E-10-1.16661E-10
 -1     13984 1.54810E+00 7.18477E-01 1.10428E-09-5.70939E-01 1.58198E-10 8.06297E-11
 -1     13989 1.52445E+00 7.42130E-01-3.62268E-09-5.38383E-01-6.31133E-10-3.21501E-10
 -1     13990 1.43173E+00 8.34842E-01-2.95955E-09-5.85733E-01-1.42624E-09-8.73936E-10
 -1     13991 1.54810E+00 7.18477E-01 4.62178E-10-5.70939E-01 9.65326E-10 4.91939E-10
 -1     13996 1.52445E+00 7.42130E-01-4.94333E-09-5.38383E-01-6.85470E-10-3.49258E-10
 -1     13997 1.43173E+00 8.34842E-01-3.39064E-09-5.85733E-01-1.66091E-09-1.01780E-09
 -1     13998 1.54810E+00 7.18477E-01 1.99296E-09-5.70939E-01 1.37053E-09 6.98370E-10
 -1     14003 1.52445E+00 7.42130E-01-3.97561E-09-5.38383E-01-5.05867E-10-2.57782E-10
 -1     14007 1.67167E+00 5.94905E-01-3.97453E-09-3.91158E-01 5.40040E-10 1.75435E-10
 -1     14008 1.59813E+00 6.68447E-01-3.39099E-09-4.64841E-01 1.79952E-09 7.45349E-10
 -1     14009 1.70423E+00 5.62349E-01 1.99281E-09-4.14811E-01-1.46258E-09-4.75289E-10
 -1     14014 1.67167E+00 5.94905E-01-4.94346E-09-3.91158E-01 7.31463E-10 2.37655E-10
 -1     14015 1.59813E+00 6.68447E-01-2.95988E-09-4.64841E-01 1.54543E-09 6.40079E-10
 -1     14016 1.70423E+00 5.62349E-01 4.61887E-10-4.14811E-01-1.03064E-09-3.34910E-10
 -1     14021 1.67167E+00 5.94905E-01-3.62211E-09-3.91158E-01 6.73682E-10 2.18855E-10
 -1     14022 1.59813E+00 6.68447E-01-3.97805E-09-4.64841E-01 2.06260E-10 8.54147E-11
 -1     14023 1.70423E+00 5.62349E-01 1.10407E-09-4.14811E-01-1.68759E-10-5.48814E-11
 -1     14028 1.67167E+00 5.94905E-01-4.16056E-09-3.91158E-01 1.51942E-10 4.93216E-11
 -1     14029 1.59813E+00 6.68447E-01-4.38987E-09-4.64841E-01 1.23360E-10 5.10180E-11
 -1     14030 1.70423E+00 5.62349E-01 1.20953E-09-4.14811E-01-6.82571E-11-2.22324E-11
 -1     14035 1.67167E+00 5.94905E-01-4.22656E-09-3.91158E-01 1.36733E-10 4.43663E-11
 -1     14036 1.59813E+00 6.68447E-01-4.49464E-09-4.64841E-01 6.42564E-11 2.65755E-11
 -1     14037 1.70423E+00 5.62349E-01 1.11919E-09-4.14811E-01-4.63800E-11-1.50814E-11
 -1     14042 1.67167E+00 5.94905E-01-4.15940E-09-3.91158E-01 4.31189E-15-3.86953E-15
 -1     14043 1.59813E+00 6.68447E-01-4.49466E-09-4.64841E-01-6.42384E-11-2.66428E-11
 -1     14044 1.70423E+00 5.62349E-01 1.11919E-09-4.14811E-01 4.63756E-11 1.50872E-11
 -1     14049 1.67167E+00 5.94905E-01-4.22659E-09-3.91158E-01-1.36665E-10-4.44069E-11
 -1     14050 1.59813E+00 6.68447E-01-4.38981E-09-4.64841E-01-1.23358E-10-5.10778E-11
 -1     14051 1.70423E+00 5.62349E-01 1.20958E-09-4.14811E-01 6.82467E-11 2.21807E-11
 -1     14056 1.67167E+00 5.94905E-01-4.16052E-09-3.91158E-01-1.51984E-10-4.93808E-11
 -1     14057 1.59813E+00 6.68447E-01-3.97804E-09-4.64841E-01-2.06302E-10-8.54313E-11
 -1     14058 1.70423E+00 5.62349E-01 1.10409E-09-4.14811E-01 1.68830E-10 5.48619E-11
 -1     14063 1.67167E+00 5.94905E-01-3.62206E-09-3.91158E-01-6.73655E-10-2.18890E-10
 -1     14064 1.59813E+00 6.68447E-01-2.95985E-09-4.64841E-01-1.54541E-09-6.40105E-10
 -1     14065 1.70423E+00 5.62349E-01 4.62039E-10-4.14811E-01 1.03060E-09 3.34927E-10
 -1     14070 1.67167E+00 5.94905E-01-4.94341E-09-3.91158E-01-7.31453E-10-2.37624E-10
 -1     14071 1.59813E+00 6.68447E-01-3.39097E-09-4.64841E-01-1.79953E-09-7.45363E-10
 -1     14072 1.70423E+00 5.62349E-01 1.99289E-09-4.14811E-01 1.46253E-09 4.75294E-10
 -1     14077 1.67167E+00 5.94905E-01-3.97447E-09-3.91158E-01-5.40025E-10-1.75408E-10
 -1     14081 1.76620E+00 5.00381E-01-3.97531E-09-2.05644E-01 5.60772E-10 8.87833E-11
 -1     14082 1.71902E+00 5.47555E-01-3.39105E-09-2.98446E-01 1.89382E-09 4.54694E-10
 -1     14083 1.80447E+00 4.62109E-01 1.99296E-09-2.18079E-01-1.51910E-09-2.40647E-10
 -1     14088 1.76620E+00 5.00381E-01-4.94359E-09-2.05644E-01 7.59702E-10 1.20288E-10
 -1     14089 1.71902E+00 5.47555E-01-2.95993E-09-2.98446E-01 1.62655E-09 3.90517E-10
 -1     14090 1.80447E+00 4.62109E-01 4.62119E-10-2.18079E-01-1.07027E-09-1.69507E-10
 -1     14095 1.76620E+00 5.00381E-01-3.62266E-09-2.05644E-01 6.99445E-10 1.10792E-10
 -1     14096 1.71902E+00 5.47555E-01-3.97807E-09-2.98446E-01 2.17031E-10 5.21321E-11
 -1     14097 1.80447E+00 4.62109E-01 1.10413E-09-2.18079E-01-1.75457E-10-2.77732E-11
 -1     14102 1.76620E+00 5.00381E-01-4.16110E-09-2.05644E-01 1.57771E-10 2.50101E-11
 -1     14103 1.71902E+00 5.47555E-01-4.38985E-09-2.98446E-01 1.29747E-10 3.11554E-11
 -1     14104 1.80447E+00 4.62109E-01 1.20961E-09-2.18079E-01-7.09976E-11-1.12300E-11
 -1     14109 1.76620E+00 5.00381E-01-4.22690E-09-2.05644E-01 1.41828E-10 2.24688E-11
 -1     14110 1.71902E+00 5.47555E-01-4.49466E-09-2.98446E-01 6.76416E-11 1.62339E-11
 -1     14111 1.80447E+00 4.62109E-01 1.11931E-09-2.18079E-01-4.81212E-11-7.62687E-12
 -1     14116 1.76620E+00 5.00381E-01-4.15978E-09-2.05644E-01 2.53542E-14 1.15665E-14
 -1     14117 1.71902E+00 5.47555E-01-4.49466E-09-2.98446E-01-6.76299E-11-1.62427E-11
 -1     14118 1.80447E+00 4.62109E-01 1.11925E-09-2.18079E-01 4.81999E-11 7.62237E-12
 -1     14123 1.76620E+00 5.00381E-01-4.22682E-09-2.05644E-01-1.41829E-10-2.24614E-11
 -1     14124 1.71902E+00 5.47555E-01-4.38987E-09-2.98446E-01-1.29789E-10-3.11784E-11
 -1     14125 1.80447E+00 4.62109E-01 1.20961E-09-2.18079E-01 7.09702E-11 1.12401E-11
 -1     14130 1.76620E+00 5.00381E-01-4.16100E-09-2.05644E-01-1.57815E-10-2.49964E-11
 -1     14131 1.71902E+00 5.47555E-01-3.97809E-09-2.98446E-01-2.17038E-10-5.21295E-11
 -1     14132 1.80447E+00 4.62109E-01 1.10420E-09-2.18079E-01 1.75315E-10 2.77828E-11
 -1     14137 1.76620E+00 5.00381E-01-3.62260E-09-2.05644E-01-6.99596E-10-1.10777E-10
 -1     14138 1.71902E+00 5.47555E-01-2.95986E-09-2.98446E-01-1.62655E-09-3.90517E-10
 -1     14139 1.80447E+00 4.62109E-01 4.62100E-10-2.18079E-01 1.07026E-09 1.69504E-10
 -1     14144 1.76620E+00 5.00381E-01-4.94354E-09-2.05644E-01-7.59652E-10-1.20312E-10
 -1     14145 1.71902E+00 5.47555E-01-3.39106E-09-2.98446E-01-1.89382E-09-4.54674E-10
 -1     14146 1.80447E+00 4.62109E-01 1.99297E-09-2.18079E-01 1.51917E-09 2.40628E-10
 -1     14151 1.76620E+00 5.00381E-01-3.97536E-09-2.05644E-01-5.60729E-10-8.88022E-11
 -1     14155 1.78258E+00 4.83997E-01-3.39061E-09-1.02838E-01 1.94177E-09 1.52831E-10
 -1     14159 1.78258E+00 4.83997E-01-2.95949E-09-1.02838E-01 1.66750E-09 1.31242E-10
 -1     14163 1.78258E+00 4.83997E-01-3.97766E-09-1.02838E-01 2.22492E-10 1.75284E-11
 -1     14167 1.78258E+00 4.83997E-01-4.38949E-09-1.02838E-01 1.32976E-10 1.04619E-11
 -1     14171 1.78258E+00 4.83997E-01-4.49428E-09-1.02838E-01 6.93655E-11 5.44962E-12
 -1     14175 1.78258E+00 4.83997E-01-4.49426E-09-1.02838E-01-6.93338E-11-5.47994E-12
 -1     14179 1.78258E+00 4.83997E-01-4.38948E-09-1.02838E-01-1.33021E-10-1.04813E-11
 -1     14183 1.78258E+00 4.83997E-01-3.97764E-09-1.02838E-01-2.22547E-10-1.75342E-11
 -1     14187 1.78258E+00 4.83997E-01-2.95950E-09-1.02838E-01-1.66755E-09-1.31248E-10
 -1     14191 1.78258E+00 4.83997E-01-3.39060E-09-1.02838E-01-1.94177E-09-1.52836E-10
 -1     14197 5.65158E-01 1.70142E+00-4.73532E-09-1.84596E-01-6.88985E-11-4.34942E-10
 -1     14198 5.50452E-01 1.71612E+00-5.38625E-09-9.23122E-02-6.76094E-11-8.59028E-10
 -1     14199 5.32760E-01 1.73382E+00 3.03728E-09-1.95123E-01 1.24828E-10 7.88113E-10
 -1     14204 5.65158E-01 1.70142E+00-5.42682E-09-1.84596E-01-2.64307E-11-1.66828E-10
 -1     14205 5.50452E-01 1.71612E+00-5.52967E-09-9.23122E-02-5.47431E-12-6.94791E-11
 -1     14206 5.32760E-01 1.73382E+00 3.58191E-09-1.95123E-01 2.88651E-11 1.82222E-10
 -1     14211 5.65158E-01 1.70142E+00-4.95920E-09-1.84596E-01-4.05694E-12-2.56996E-11
 -1     14212 5.50452E-01 1.71612E+00-5.13868E-09-9.23122E-02-1.41918E-11-1.80098E-10
 -1     14213 5.32760E-01 1.73382E+00 3.27815E-09-1.95123E-01 3.56108E-11 2.24857E-10
 -1     14218 5.65158E-01 1.70142E+00-5.18631E-09-1.84596E-01-1.21568E-11-7.66698E-11
 -1     14219 5.50452E-01 1.71612E+00-5.01690E-09-9.23122E-02 2.49659E-12 3.17358E-11
 -1     14220 5.32760E-01 1.73382E+00 3.27998E-09-1.95123E-01 1.01585E-11 6.42579E-11
 -1     14225 5.65158E-01 1.70142E+00-5.07937E-09-1.84596E-01 3.16428E-12 2.01226E-11
 -1     14226 5.50452E-01 1.71612E+00-4.98485E-09-9.23122E-02 1.38598E-12 1.75825E-11
 -1     14227 5.32760E-01 1.73382E+00 3.30979E-09-1.95123E-01 1.97412E-12 1.25794E-11
 -1     14232 5.65158E-01 1.70142E+00-5.04028E-09-1.84596E-01-3.61626E-15 1.40366E-15
 -1     14233 5.50452E-01 1.71612E+00-4.98486E-09-9.23122E-02-1.39078E-12-1.76141E-11
 -1     14234 5.32760E-01 1.73382E+00 3.30978E-09-1.95123E-01-2.02038E-12-1.25722E-11
 -1     14239 5.65158E-01 1.70142E+00-5.07940E-09-1.84596E-01-3.19167E-12-2.01265E-11
 -1     14240 5.50452E-01 1.71612E+00-5.01692E-09-9.23122E-02-2.51271E-12-3.17923E-11
 -1     14241 5.32760E-01 1.73382E+00 3.27995E-09-1.95123E-01-1.01875E-11-6.42524E-11
 -1     14246 5.65158E-01 1.70142E+00-5.18628E-09-1.84596E-01 1.21434E-11 7.67184E-11
 -1     14247 5.50452E-01 1.71612E+00-5.13862E-09-9.23122E-02 1.41681E-11 1.80094E-10
 -1     14248 5.32760E-01 1.73382E+00 3.27822E-09-1.95123E-01-3.56308E-11-2.24939E-10
 -1     14253 5.65158E-01 1.70142E+00-4.95920E-09-1.84596E-01 4.04607E-12 2.55579E-11
 -1     14254 5.50452E-01 1.71612E+00-5.52966E-09-9.23122E-02 5.45964E-12 6.94578E-11
 -1     14255 5.32760E-01 1.73382E+00 3.58188E-09-1.95123E-01-2.88864E-11-1.82297E-10
 -1     14260 5.65158E-01 1.70142E+00-5.42678E-09-1.84596E-01 2.64184E-11 1.66739E-10
 -1     14261 5.50452E-01 1.71612E+00-5.38620E-09-9.23122E-02 6.76083E-11 8.59012E-10
 -1     14262 5.32760E-01 1.73382E+00 3.03730E-09-1.95123E-01-1.24826E-10-7.88238E-10
 -1     14267 5.65158E-01 1.70142E+00-4.73530E-09-1.84596E-01 6.88996E-11 4.34833E-10
 -1     14271 6.50008E-01 1.61657E+00-4.73537E-09-3.51123E-01-1.36102E-10-4.18848E-10
 -1     14272 6.07504E-01 1.65907E+00-5.38628E-09-2.67900E-01-2.01159E-10-8.37899E-10
 -1     14273 6.22448E-01 1.64413E+00 3.03733E-09-3.71147E-01 2.46588E-10 7.58930E-10
 -1     14278 6.50008E-01 1.61657E+00-5.42691E-09-3.51123E-01-5.22107E-11-1.60583E-10
 -1     14279 6.07504E-01 1.65907E+00-5.52968E-09-2.67900E-01-1.63028E-11-6.77454E-11
 -1     14280 6.22448E-01 1.64413E+00 3.58194E-09-3.71147E-01 5.70062E-11 1.75511E-10
 -1     14285 6.50008E-01 1.61657E+00-4.95930E-09-3.51123E-01-8.03553E-12-2.46443E-11
 -1     14286 6.07504E-01 1.65907E+00-5.13865E-09-2.67900E-01-4.22022E-11-1.75718E-10
 -1     14287 6.22448E-01 1.64413E+00 3.27832E-09-3.71147E-01 7.03537E-11 2.16579E-10
 -1     14292 6.50008E-01 1.61657E+00-5.18630E-09-3.51123E-01-2.40419E-11-7.38715E-11
 -1     14293 6.07504E-01 1.65907E+00-5.01691E-09-2.67900E-01 7.40501E-12 3.10248E-11
 -1     14294 6.22448E-01 1.64413E+00 3.28006E-09-3.71147E-01 2.00633E-11 6.18641E-11
 -1     14299 6.50008E-01 1.61657E+00-5.07944E-09-3.51123E-01 6.25855E-12 1.93728E-11
 -1     14300 6.07504E-01 1.65907E+00-4.98486E-09-2.67900E-01 4.09411E-12 1.72048E-11
 -1     14301 6.22448E-01 1.64413E+00 3.30988E-09-3.71147E-01 3.90648E-12 1.20974E-11
 -1     14306 6.50008E-01 1.61657E+00-5.04036E-09-3.51123E-01-1.47253E-14 1.60727E-14
 -1     14307 6.07504E-01 1.65907E+00-4.98485E-09-2.67900E-01-4.13639E-12-1.71711E-11
 -1     14308 6.22448E-01 1.64413E+00 3.30989E-09-3.71147E-01-3.94506E-12-1.21413E-11
 -1     14313 6.50008E-01 1.61657E+00-5.07947E-09-3.51123E-01-6.30025E-12-1.93139E-11
 -1     14314 6.07504E-01 1.65907E+00-5.01693E-09-2.67900E-01-7.45847E-12-3.09915E-11
 -1     14315 6.22448E-01 1.64413E+00 3.28007E-09-3.71147E-01-2.01116E-11-6.18680E-11
 -1     14320 6.50008E-01 1.61657E+00-5.18633E-09-3.51123E-01 2.39806E-11 7.38946E-11
 -1     14321 6.07504E-01 1.65907E+00-5.13866E-09-2.67900E-01 4.21570E-11 1.75670E-10
 -1     14322 6.22448E-01 1.64413E+00 3.27827E-09-3.71147E-01-7.03696E-11-2.16522E-10
 -1     14327 6.50008E-01 1.61657E+00-4.95929E-09-3.51123E-01 8.02773E-12 2.46739E-11
 -1     14328 6.07504E-01 1.65907E+00-5.52968E-09-2.67900E-01 1.62544E-11 6.77913E-11
 -1     14329 6.22448E-01 1.64413E+00 3.58192E-09-3.71147E-01-5.70136E-11-1.75455E-10
 -1     14334 6.50008E-01 1.61657E+00-5.42687E-09-3.51123E-01 5.22173E-11 1.60666E-10
 -1     14335 6.07504E-01 1.65907E+00-5.38622E-09-2.67900E-01 2.01132E-10 8.37871E-10
 -1     14336 6.22448E-01 1.64413E+00 3.03730E-09-3.71147E-01-2.46576E-10-7.58891E-10
 -1     14341 6.50008E-01 1.61657E+00-4.73537E-09-3.51123E-01 1.36081E-10 4.18865E-10
 -1     14345 7.82165E-01 1.48441E+00-4.73539E-09-4.83280E-01-1.99908E-10-3.92263E-10
 -1     14346 7.16023E-01 1.55055E+00-5.38622E-09-4.17265E-01-3.29736E-10-7.96099E-10
 -1     14347 7.62141E-01 1.50443E+00 3.03734E-09-5.10840E-01 3.62271E-10 7.11032E-10
 -1     14352 7.82165E-01 1.48441E+00-5.42686E-09-4.83280E-01-7.67013E-11-1.50451E-10
 -1     14353 7.16023E-01 1.55055E+00-5.52961E-09-4.17265E-01-2.66859E-11-6.44207E-11
 -1     14354 7.62141E-01 1.50443E+00 3.58194E-09-5.10840E-01 8.37817E-11 1.64460E-10
 -1     14359 7.82165E-01 1.48441E+00-4.95929E-09-4.83280E-01-1.17340E-11-2.30663E-11
 -1     14360 7.16023E-01 1.55055E+00-5.13861E-09-4.17265E-01-6.91303E-11-1.66901E-10
 -1     14361 7.62141E-01 1.50443E+00 3.27827E-09-5.10840E-01 1.03370E-10 2.02881E-10
 -1     14366 7.82165E-01 1.48441E+00-5.18634E-09-4.83280E-01-3.52730E-11-6.91919E-11
 -1     14367 7.16023E-01 1.55055E+00-5.01687E-09-4.17265E-01 1.21803E-11 2.94887E-11
 -1     14368 7.62141E-01 1.50443E+00 3.28002E-09-5.10840E-01 2.95494E-11 5.79586E-11
 -1     14373 7.82165E-01 1.48441E+00-5.07945E-09-4.83280E-01 9.27650E-12 1.81489E-11
 -1     14374 7.16023E-01 1.55055E+00-4.98482E-09-4.17265E-01 6.74653E-12 1.63134E-11
 -1     14375 7.62141E-01 1.50443E+00 3.30988E-09-5.10840E-01 5.79761E-12 1.14101E-11
 -1     14380 7.82165E-01 1.48441E+00-5.04035E-09-4.83280E-01-3.53595E-14 2.49376E-14
 -1     14381 7.16023E-01 1.55055E+00-4.98484E-09-4.17265E-01-6.76427E-12-1.63061E-11
 -1     14382 7.62141E-01 1.50443E+00 3.30985E-09-5.10840E-01-5.78363E-12-1.13773E-11
 -1     14387 7.82165E-01 1.48441E+00-5.07947E-09-4.83280E-01-9.25474E-12-1.82467E-11
 -1     14388 7.16023E-01 1.55055E+00-5.01687E-09-4.17265E-01-1.22037E-11-2.94802E-11
 -1     14389 7.62141E-01 1.50443E+00 3.28002E-09-5.10840E-01-2.95411E-11-5.80463E-11
 -1     14394 7.82165E-01 1.48441E+00-5.18637E-09-4.83280E-01 3.52452E-11 6.91482E-11
 -1     14395 7.16023E-01 1.55055E+00-5.13863E-09-4.17265E-01 6.91204E-11 1.66886E-10
 -1     14396 7.62141E-01 1.50443E+00 3.27825E-09-5.10840E-01-1.03377E-10-2.02936E-10
 -1     14401 7.82165E-01 1.48441E+00-4.95931E-09-4.83280E-01 1.17988E-11 2.30899E-11
 -1     14402 7.16023E-01 1.55055E+00-5.52965E-09-4.17265E-01 2.66693E-11 6.44242E-11
 -1     14403 7.62141E-01 1.50443E+00 3.58192E-09-5.10840E-01-8.37850E-11-1.64417E-10
 -1     14408 7.82165E-01 1.48441E+00-5.42691E-09-4.83280E-01 7.66348E-11 1.50489E-10
 -1     14409 7.16023E-01 1.55055E+00-5.38622E-09-4.17265E-01 3.29739E-10 7.96084E-10
 -1     14410 7.62141E-01 1.50443E+00 3.03733E-09-5.10840E-01-3.62311E-10-7.11030E-10
 -1     14415 7.82165E-01 1.48441E+00-4.73541E-09-4.83280E-01 1.99885E-10 3.92304E-10
 -1     14419 9.48691E-01 1.31788E+00-4.73525E-09-5.68130E-01-2.58801E-10-3.56252E-10
 -1     14420 8.65388E-01 1.40119E+00-5.38628E-09-5.25784E-01-4.50227E-10-7.34709E-10
 -1     14421 9.38165E-01 1.32841E+00 3.03730E-09-6.00528E-01 4.69043E-10 6.45544E-10
 -1     14426 9.48691E-01 1.31788E+00-5.42677E-09-5.68130E-01-9.92128E-11-1.36663E-10
 -1     14427 8.65388E-01 1.40119E+00-5.52971E-09-5.25784E-01-3.64204E-11-5.94213E-11
 -1     14428 9.38165E-01 1.32841E+00 3.58188E-09-6.00528E-01 1.08483E-10 1.49288E-10
 -1     14433 9.48691E-01 1.31788E+00-4.95915E-09-5.68130E-01-1.52171E-11-2.09461E-11
 -1     14434 8.65388E-01 1.40119E+00-5.13869E-09-5.25784E-01-9.43883E-11-1.54028E-10
 -1     14435 9.38165E-01 1.32841E+00 3.27826E-09-6.00528E-01 1.33865E-10 1.84236E-10
 -1     14440 9.48691E-01 1.31788E+00-5.18615E-09-5.68130E-01-4.56585E-11-6.27954E-11
 -1     14441 8.65388E-01 1.40119E+00-5.01698E-09-5.25784E-01 1.66222E-11 2.71688E-11
 -1     14442 9.38165E-01 1.32841E+00 3.28004E-09-6.00528E-01 3.82244E-11 5.26448E-11
 -1     14447 9.48691E-01 1.31788E+00-5.07929E-09-5.68130E-01 1.20108E-11 1.65456E-11
 -1     14448 8.65388E-01 1.40119E+00-4.98491E-09-5.25784E-01 9.22293E-12 1.51042E-11
 -1     14449 9.38165E-01 1.32841E+00 3.30985E-09-6.00528E-01 7.50488E-12 1.03565E-11
 -1     14454 9.48691E-01 1.31788E+00-5.04017E-09-5.68130E-01-2.26557E-14 9.01462E-14
 -1     14455 8.65388E-01 1.40119E+00-4.98490E-09-5.25784E-01-9.22056E-12-1.50212E-11
 -1     14456 9.38165E-01 1.32841E+00 3.30988E-09-6.00528E-01-7.53777E-12-1.02835E-11
 -1     14461 9.48691E-01 1.31788E+00-5.07928E-09-5.68130E-01-1.20227E-11-1.64778E-11
 -1     14462 8.65388E-01 1.40119E+00-5.01697E-09-5.25784E-01-1.66169E-11-2.72163E-11
 -1     14463 9.38165E-01 1.32841E+00 3.28004E-09-6.00528E-01-3.82727E-11-5.26646E-11
 -1     14468 9.48691E-01 1.31788E+00-5.18617E-09-5.68130E-01 4.56889E-11 6.28503E-11
 -1     14469 8.65388E-01 1.40119E+00-5.13870E-09-5.25784E-01 9.44019E-11 1.53967E-10
 -1     14470 9.38165E-01 1.32841E+00 3.27827E-09-6.00528E-01-1.33879E-10-1.84218E-10
 -1     14475 9.48691E-01 1.31788E+00-4.95915E-09-5.68130E-01 1.52307E-11 2.09665E-11
 -1     14476 8.65388E-01 1.40119E+00-5.52971E-09-5.25784E-01 3.64315E-11 5.94622E-11
 -1     14477 9.38165E-01 1.32841E+00 3.58191E-09-6.00528E-01-1.08485E-10-1.49360E-10
 -1     14482 9.48691E-01 1.31788E+00-5.42679E-09-5.68130E-01 9.92651E-11 1.36555E-10
 -1     14483 8.65388E-01 1.40119E+00-5.38629E-09-5.25784E-01 4.50244E-10 7.34686E-10
 -1     14484 9.38165E-01 1.32841E+00 3.03730E-09-6.00528E-01-4.69077E-10-6.45617E-10
 -1     14489 9.48691E-01 1.31788E+00-4.73527E-09-5.68130E-01 2.58815E-10 3.56190E-10
 -1     14493 1.13329E+00 1.13329E+00-4.73519E-09-5.97367E-01-3.11342E-10-3.11259E-10
 -1     14494 1.04098E+00 1.22560E+00-5.38630E-09-5.82836E-01-5.59616E-10-6.55265E-10
 -1     14495 1.13329E+00 1.13329E+00 3.03734E-09-6.31433E-01 5.64252E-10 5.64272E-10
 -1     14500 1.13329E+00 1.13329E+00-5.42661E-09-5.97367E-01-1.19439E-10-1.19466E-10
 -1     14501 1.04098E+00 1.22560E+00-5.52972E-09-5.82836E-01-4.52729E-11-5.29555E-11
 -1     14502 1.13329E+00 1.13329E+00 3.58194E-09-6.31433E-01 1.30501E-10 1.30536E-10
 -1     14507 1.13329E+00 1.13329E+00-4.95902E-09-5.97367E-01-1.83293E-11-1.82765E-11
 -1     14508 1.04098E+00 1.22560E+00-5.13868E-09-5.82836E-01-1.17316E-10-1.37373E-10
 -1     14509 1.13329E+00 1.13329E+00 3.27826E-09-6.31433E-01 1.60985E-10 1.61053E-10
 -1     14514 1.13329E+00 1.13329E+00-5.18612E-09-5.97367E-01-5.49147E-11-5.49228E-11
 -1     14515 1.04098E+00 1.22560E+00-5.01697E-09-5.82836E-01 2.07149E-11 2.42675E-11
 -1     14516 1.13329E+00 1.13329E+00 3.28001E-09-6.31433E-01 4.60260E-11 4.59914E-11
 -1     14521 1.13329E+00 1.13329E+00-5.07932E-09-5.97367E-01 1.43155E-11 1.43827E-11
 -1     14522 1.04098E+00 1.22560E+00-4.98495E-09-5.82836E-01 1.14583E-11 1.34548E-11
 -1     14523 1.13329E+00 1.13329E+00 3.30983E-09-6.31433E-01 9.00200E-12 9.07147E-12
 -1     14528 1.13329E+00 1.13329E+00-5.04019E-09-5.97367E-01 7.33125E-14 4.58800E-14
 -1     14529 1.04098E+00 1.22560E+00-4.98488E-09-5.82836E-01-1.14775E-11-1.34022E-11
 -1     14530 1.13329E+00 1.13329E+00 3.30985E-09-6.31433E-01-8.96465E-12-9.02321E-12
 -1     14535 1.13329E+00 1.13329E+00-5.07929E-09-5.97367E-01-1.44091E-11-1.44029E-11
 -1     14536 1.04098E+00 1.22560E+00-5.01695E-09-5.82836E-01-2.07032E-11-2.42378E-11
 -1     14537 1.13329E+00 1.13329E+00 3.28001E-09-6.31433E-01-4.60252E-11-4.59693E-11
 -1     14542 1.13329E+00 1.13329E+00-5.18612E-09-5.97367E-01 5.49852E-11 5.48612E-11
 -1     14543 1.04098E+00 1.22560E+00-5.13869E-09-5.82836E-01 1.17322E-10 1.37380E-10
 -1     14544 1.13329E+00 1.13329E+00 3.27825E-09-6.31433E-01-1.60995E-10-1.60965E-10
 -1     14549 1.13329E+00 1.13329E+00-4.95909E-09-5.97367E-01 1.82761E-11 1.83074E-11
 -1     14550 1.04098E+00 1.22560E+00-5.52975E-09-5.82836E-01 4.53095E-11 5.29600E-11
 -1     14551 1.13329E+00 1.13329E+00 3.58192E-09-6.31433E-01-1.30538E-10-1.30538E-10
 -1     14556 1.13329E+00 1.13329E+00-5.42660E-09-5.97367E-01 1.19437E-10 1.19396E-10
 -1     14557 1.04098E+00 1.22560E+00-5.38629E-09-5.82836E-01 5.59632E-10 6.55235E-10
 -1     14558 1.13329E+00 1.13329E+00 3.03733E-09-6.31433E-01-5.64219E-10-5.64235E-10
 -1     14563 1.13329E+00 1.13329E+00-4.73513E-09-5.97367E-01 3.11398E-10 3.11368E-10
 -1     14567 1.31788E+00 9.48691E-01-4.73554E-09-5.68130E-01-3.56211E-10-2.58872E-10
 -1     14568 1.22560E+00 1.04098E+00-5.38629E-09-5.82836E-01-6.55244E-10-5.59633E-10
 -1     14569 1.32841E+00 9.38165E-01 3.03741E-09-6.00528E-01 6.45614E-10 4.69109E-10
 -1     14574 1.31788E+00 9.48691E-01-5.42708E-09-5.68130E-01-1.36632E-10-9.92322E-11
 -1     14575 1.22560E+00 1.04098E+00-5.52969E-09-5.82836E-01-5.29765E-11-4.52268E-11
 -1     14576 1.32841E+00 9.38165E-01 3.58204E-09-6.00528E-01 1.49346E-10 1.08504E-10
 -1     14581 1.31788E+00 9.48691E-01-4.95942E-09-5.68130E-01-2.10053E-11-1.52476E-11
 -1     14582 1.22560E+00 1.04098E+00-5.13867E-09-5.82836E-01-1.37356E-10-1.17306E-10
 -1     14583 1.32841E+00 9.38165E-01 3.27837E-09-6.00528E-01 1.84242E-10 1.33845E-10
 -1     14588 1.31788E+00 9.48691E-01-5.18650E-09-5.68130E-01-6.28044E-11-4.56566E-11
 -1     14589 1.22560E+00 1.04098E+00-5.01695E-09-5.82836E-01 2.42458E-11 2.07357E-11
 -1     14590 1.32841E+00 9.38165E-01 3.28014E-09-6.00528E-01 5.25993E-11 3.82816E-11
 -1     14595 1.31788E+00 9.48691E-01-5.07963E-09-5.68130E-01 1.65210E-11 1.19758E-11
 -1     14596 1.22560E+00 1.04098E+00-4.98490E-09-5.82836E-01 1.34199E-11 1.15074E-11
 -1     14597 1.32841E+00 9.38165E-01 3.30996E-09-6.00528E-01 1.03186E-11 7.49950E-12
 -1     14602 1.31788E+00 9.48691E-01-5.04049E-09-5.68130E-01 4.65630E-14 2.46415E-14
 -1     14603 1.22560E+00 1.04098E+00-4.98489E-09-5.82836E-01-1.34138E-11-1.14499E-11
 -1     14604 1.32841E+00 9.38165E-01 3.30993E-09-6.00528E-01-1.03202E-11-7.48754E-12
 -1     14609 1.31788E+00 9.48691E-01-5.07963E-09-5.68130E-01-1.65029E-11-1.19722E-11
 -1     14610 1.22560E+00 1.04098E+00-5.01691E-09-5.82836E-01-2.42500E-11-2.07328E-11
 -1     14611 1.32841E+00 9.38165E-01 3.28014E-09-6.00528E-01-5.26570E-11-3.82788E-11
 -1     14616 1.31788E+00 9.48691E-01-5.18644E-09-5.68130E-01 6.28286E-11 4.56258E-11
 -1     14617 1.22560E+00 1.04098E+00-5.13868E-09-5.82836E-01 1.37351E-10 1.17337E-10
 -1     14618 1.32841E+00 9.38165E-01 3.27838E-09-6.00528E-01-1.84228E-10-1.33881E-10
 -1     14623 1.31788E+00 9.48691E-01-4.95939E-09-5.68130E-01 2.09877E-11 1.52693E-11
 -1     14624 1.22560E+00 1.04098E+00-5.52975E-09-5.82836E-01 5.29604E-11 4.52223E-11
 -1     14625 1.32841E+00 9.38165E-01 3.58203E-09-6.00528E-01-1.49289E-10-1.08494E-10
 -1     14630 1.31788E+00 9.48691E-01-5.42707E-09-5.68130E-01 1.36682E-10 9.92455E-11
 -1     14631 1.22560E+00 1.04098E+00-5.38627E-09-5.82836E-01 6.55216E-10 5.59635E-10
 -1     14632 1.32841E+00 9.38165E-01 3.03741E-09-6.00528E-01-6.45581E-10-4.69070E-10
 -1     14637 1.31788E+00 9.48691E-01-4.73553E-09-5.68130E-01 3.56245E-10 2.58786E-10
 -1     14641 1.48441E+00 7.82165E-01-4.73559E-09-4.83280E-01-3.92346E-10-1.99922E-10
 -1     14642 1.40119E+00 8.65388E-01-5.38600E-09-5.25784E-01-7.34631E-10-4.50207E-10
 -1     14643 1.50443E+00 7.62141E-01 3.03741E-09-5.10840E-01 7.10897E-10 3.62225E-10
 -1     14648 1.48441E+00 7.82165E-01-5.42682E-09-4.83280E-01-1.50465E-10-7.66210E-11
 -1     14649 1.40119E+00 8.65388E-01-5.52945E-09-5.25784E-01-5.93914E-11-3.64258E-11
 -1     14650 1.50443E+00 7.62141E-01 3.58194E-09-5.10840E-01 1.64529E-10 8.38195E-11
 -1     14655 1.48441E+00 7.82165E-01-4.95937E-09-4.83280E-01-2.30936E-11-1.17625E-11
 -1     14656 1.40119E+00 8.65388E-01-5.13839E-09-5.25784E-01-1.53969E-10-9.44002E-11
 -1     14657 1.50443E+00 7.62141E-01 3.27834E-09-5.10840E-01 2.02900E-10 1.03369E-10
 -1     14662 1.48441E+00 7.82165E-01-5.18635E-09-4.83280E-01-6.92357E-11-3.52166E-11
 -1     14663 1.40119E+00 8.65388E-01-5.01670E-09-5.25784E-01 2.71605E-11 1.66556E-11
 -1     14664 1.50443E+00 7.62141E-01 3.28007E-09-5.10840E-01 5.79493E-11 2.95268E-11
 -1     14669 1.48441E+00 7.82165E-01-5.07947E-09-4.83280E-01 1.81949E-11 9.23252E-12
 -1     14670 1.40119E+00 8.65388E-01-4.98463E-09-5.25784E-01 1.50666E-11 9.23050E-12
 -1     14671 1.50443E+00 7.62141E-01 3.30993E-09-5.10840E-01 1.13762E-11 5.78864E-12
 -1     14676 1.48441E+00 7.82165E-01-5.04041E-09-4.83280E-01-1.07892E-14 2.34127E-14
 -1     14677 1.40119E+00 8.65388E-01-4.98464E-09-5.25784E-01-1.51066E-11-9.20824E-12
 -1     14678 1.50443E+00 7.62141E-01 3.30993E-09-5.10840E-01-1.14289E-11-5.82753E-12
 -1     14683 1.48441E+00 7.82165E-01-5.07940E-09-4.83280E-01-1.81773E-11-9.28442E-12
 -1     14684 1.40119E+00 8.65388E-01-5.01664E-09-5.25784E-01-2.71627E-11-1.66647E-11
 -1     14685 1.50443E+00 7.62141E-01 3.28011E-09-5.10840E-01-5.79356E-11-2.95322E-11
 -1     14690 1.48441E+00 7.82165E-01-5.18634E-09-4.83280E-01 6.91446E-11 3.52591E-11
 -1     14691 1.40119E+00 8.65388E-01-5.13842E-09-5.25784E-01 1.53997E-10 9.43980E-11
 -1     14692 1.50443E+00 7.62141E-01 3.27832E-09-5.10840E-01-2.02947E-10-1.03345E-10
 -1     14697 1.48441E+00 7.82165E-01-4.95934E-09-4.83280E-01 2.30957E-11 1.18056E-11
 -1     14698 1.40119E+00 8.65388E-01-5.52940E-09-5.25784E-01 5.94165E-11 3.64574E-11
 -1     14699 1.50443E+00 7.62141E-01 3.58196E-09-5.10840E-01-1.64596E-10-8.37841E-11
 -1     14704 1.48441E+00 7.82165E-01-5.42677E-09-4.83280E-01 1.50353E-10 7.66645E-11
 -1     14705 1.40119E+00 8.65388E-01-5.38604E-09-5.25784E-01 7.34632E-10 4.50193E-10
 -1     14706 1.50443E+00 7.62141E-01 3.03742E-09-5.10840E-01-7.10977E-10-3.62252E-10
 -1     14711 1.48441E+00 7.82165E-01-4.73561E-09-4.83280E-01 3.92290E-10 1.99934E-10
 -1     14715 1.61657E+00 6.50008E-01-4.73481E-09-3.51123E-01-4.18747E-10-1.36154E-10
 -1     14716 1.55055E+00 7.16023E-01-5.38639E-09-4.17265E-01-7.96102E-10-3.29770E-10
 -1     14717 1.64413E+00 6.22448E-01 3.03702E-09-3.71147E-01 7.59063E-10 2.46599E-10
 -1     14722 1.61657E+00 6.50008E-01-5.42652E-09-3.51123E-01-1.60523E-10-5.22055E-11
 -1     14723 1.55055E+00 7.16023E-01-5.52985E-09-4.17265E-01-6.44284E-11-2.66721E-11
 -1     14724 1.64413E+00 6.22448E-01 3.58173E-09-3.71147E-01 1.75444E-10 5.69798E-11
 -1     14729 1.61657E+00 6.50008E-01-4.95882E-09-3.51123E-01-2.45931E-11-8.00170E-12
 -1     14730 1.55055E+00 7.16023E-01-5.13884E-09-4.17265E-01-1.66909E-10-6.91692E-11
 -1     14731 1.64413E+00 6.22448E-01 3.27801E-09-3.71147E-01 2.16553E-10 7.03472E-11
 -1     14736 1.61657E+00 6.50008E-01-5.18590E-09-3.51123E-01-7.38366E-11-2.40216E-11
 -1     14737 1.55055E+00 7.16023E-01-5.01709E-09-4.17265E-01 2.94530E-11 1.21806E-11
 -1     14738 1.64413E+00 6.22448E-01 3.27984E-09-3.71147E-01 6.19841E-11 2.00771E-11
 -1     14743 1.61657E+00 6.50008E-01-5.07896E-09-3.51123E-01 1.94424E-11 6.29519E-12
 -1     14744 1.55055E+00 7.16023E-01-4.98507E-09-4.17265E-01 1.63102E-11 6.73855E-12
 -1     14745 1.64413E+00 6.22448E-01 3.30968E-09-3.71147E-01 1.21450E-11 3.90410E-12
 -1     14750 1.61657E+00 6.50008E-01-5.03982E-09-3.51123E-01-1.85968E-14-2.13731E-14
 -1     14751 1.55055E+00 7.16023E-01-4.98503E-09-4.17265E-01-1.63670E-11-6.74737E-12
 -1     14752 1.64413E+00 6.22448E-01 3.30965E-09-3.71147E-01-1.21382E-11-3.92727E-12
 -1     14757 1.61657E+00 6.50008E-01-5.07903E-09-3.51123E-01-1.95021E-11-6.27325E-12
 -1     14758 1.55055E+00 7.16023E-01-5.01708E-09-4.17265E-01-2.94664E-11-1.21923E-11
 -1     14759 1.64413E+00 6.22448E-01 3.27981E-09-3.71147E-01-6.19931E-11-2.01099E-11
 -1     14764 1.61657E+00 6.50008E-01-5.18590E-09-3.51123E-01 7.38630E-11 2.40112E-11
 -1     14765 1.55055E+00 7.16023E-01-5.13883E-09-4.17265E-01 1.66892E-10 6.91485E-11
 -1     14766 1.64413E+00 6.22448E-01 3.27808E-09-3.71147E-01-2.16525E-10-7.03698E-11
 -1     14771 1.61657E+00 6.50008E-01-4.95881E-09-3.51123E-01 2.45042E-11 7.98064E-12
 -1     14772 1.55055E+00 7.16023E-01-5.52983E-09-4.17265E-01 6.43716E-11 2.66886E-11
 -1     14773 1.64413E+00 6.22448E-01 3.58169E-09-3.71147E-01-1.75430E-10-5.69973E-11
 -1     14778 1.61657E+00 6.50008E-01-5.42664E-09-3.51123E-01 1.60702E-10 5.21969E-11
 -1     14779 1.55055E+00 7.16023E-01-5.38643E-09-4.17265E-01 7.96081E-10 3.29762E-10
 -1     14780 1.64413E+00 6.22448E-01 3.03703E-09-3.71147E-01-7.59032E-10-2.46596E-10
 -1     14785 1.61657E+00 6.50008E-01-4.73489E-09-3.51123E-01 4.18693E-10 1.36088E-10
 -1     14789 1.70142E+00 5.65158E-01-4.73538E-09-1.84596E-01-4.34924E-10-6.89199E-11
 -1     14790 1.65907E+00 6.07504E-01-5.38644E-09-2.67900E-01-8.37913E-10-2.01140E-10
 -1     14791 1.73382E+00 5.32760E-01 3.03718E-09-1.95123E-01 7.88142E-10 1.24800E-10
 -1     14796 1.70142E+00 5.65158E-01-5.42690E-09-1.84596E-01-1.66817E-10-2.64341E-11
 -1     14797 1.65907E+00 6.07504E-01-5.52989E-09-2.67900E-01-6.78345E-11-1.62479E-11
 -1     14798 1.73382E+00 5.32760E-01 3.58174E-09-1.95123E-01 1.82226E-10 2.88614E-11
 -1     14803 1.70142E+00 5.65158E-01-4.95933E-09-1.84596E-01-2.56389E-11-4.06634E-12
 -1     14804 1.65907E+00 6.07504E-01-5.13889E-09-2.67900E-01-1.75727E-10-4.21735E-11
 -1     14805 1.73382E+00 5.32760E-01 3.27807E-09-1.95123E-01 2.24857E-10 3.56209E-11
 -1     14810 1.70142E+00 5.65158E-01-5.18646E-09-1.84596E-01-7.67144E-11-1.21634E-11
 -1     14811 1.65907E+00 6.07504E-01-5.01717E-09-2.67900E-01 3.10071E-11 7.42914E-12
 -1     14812 1.73382E+00 5.32760E-01 3.27978E-09-1.95123E-01 6.42144E-11 1.01714E-11
 -1     14817 1.70142E+00 5.65158E-01-5.07956E-09-1.84596E-01 2.01124E-11 3.18591E-12
 -1     14818 1.65907E+00 6.07504E-01-4.98509E-09-2.67900E-01 1.71728E-11 4.11526E-12
 -1     14819 1.73382E+00 5.32760E-01 3.30970E-09-1.95123E-01 1.25768E-11 2.00164E-12
 -1     14824 1.70142E+00 5.65158E-01-5.04047E-09-1.84596E-01-2.56353E-14-4.56795E-15
 -1     14825 1.65907E+00 6.07504E-01-4.98510E-09-2.67900E-01-1.71625E-11-4.10469E-12
 -1     14826 1.73382E+00 5.32760E-01 3.30968E-09-1.95123E-01-1.25714E-11-1.99681E-12
 -1     14831 1.70142E+00 5.65158E-01-5.07958E-09-1.84596E-01-2.00722E-11-3.20305E-12
 -1     14832 1.65907E+00 6.07504E-01-5.01717E-09-2.67900E-01-3.10253E-11-7.46153E-12
 -1     14833 1.73382E+00 5.32760E-01 3.27986E-09-1.95123E-01-6.42190E-11-1.01842E-11
 -1     14838 1.70142E+00 5.65158E-01-5.18641E-09-1.84596E-01 7.67085E-11 1.21189E-11
 -1     14839 1.65907E+00 6.07504E-01-5.13886E-09-2.67900E-01 1.75693E-10 4.21537E-11
 -1     14840 1.73382E+00 5.32760E-01 3.27811E-09-1.95123E-01-2.24904E-10-3.56307E-11
 -1     14845 1.70142E+00 5.65158E-01-4.95933E-09-1.84596E-01 2.56476E-11 4.04589E-12
 -1     14846 1.65907E+00 6.07504E-01-5.52992E-09-2.67900E-01 6.78017E-11 1.62305E-11
 -1     14847 1.73382E+00 5.32760E-01 3.58181E-09-1.95123E-01-1.82228E-10-2.88669E-11
 -1     14852 1.70142E+00 5.65158E-01-5.42691E-09-1.84596E-01 1.66788E-10 2.64606E-11
 -1     14853 1.65907E+00 6.07504E-01-5.38648E-09-2.67900E-01 8.37960E-10 2.01128E-10
 -1     14854 1.73382E+00 5.32760E-01 3.03719E-09-1.95123E-01-7.88123E-10-1.24811E-10
 -1     14859 1.70142E+00 5.65158E-01-4.73537E-09-1.84596E-01 4.34954E-10 6.89318E-11
 -1     14863 1.71612E+00 5.50452E-01-5.38596E-09-9.23122E-02-8.59012E-10-6.75915E-11
 -1     14867 1.71612E+00 5.50452E-01-5.52936E-09-9.23122E-02-6.95388E-11-5.44890E-12
 -1     14871 1.71612E+00 5.50452E-01-5.13836E-09-9.23122E-02-1.80114E-10-1.41692E-11
 -1     14875 1.71612E+00 5.50452E-01-5.01663E-09-9.23122E-02 3.17634E-11 2.49892E-12
 -1     14879 1.71612E+00 5.50452E-01-4.98459E-09-9.23122E-02 1.75702E-11 1.37801E-12
 -1     14883 1.71612E+00 5.50452E-01-4.98462E-09-9.23122E-02-1.76105E-11-1.38478E-12
 -1     14887 1.71612E+00 5.50452E-01-5.01665E-09-9.23122E-02-3.17486E-11-2.53177E-12
 -1     14891 1.71612E+00 5.50452E-01-5.13837E-09-9.23122E-02 1.80097E-10 1.41464E-11
 -1     14895 1.71612E+00 5.50452E-01-5.52938E-09-9.23122E-02 6.95519E-11 5.42854E-12
 -1     14899 1.71612E+00 5.50452E-01-5.38599E-09-9.23122E-02 8.59030E-10 6.75725E-11
 -1     14905 6.20481E-01 1.64609E+00-3.50562E-09-1.66621E-01-1.73857E-11-1.09754E-10
 -1     14906 6.07207E-01 1.65937E+00-3.46134E-09-8.33231E-02 1.40776E-11 1.78998E-10
 -1     14907 5.92813E-01 1.67376E+00 1.94032E-09-1.75611E-01-2.24481E-11-1.41724E-10
 -1     14912 6.20481E-01 1.64609E+00-3.65380E-09-1.66621E-01 1.33545E-11 8.42277E-11
 -1     14913 6.07207E-01 1.65937E+00-3.42568E-09-8.33231E-02 1.31529E-11 1.67258E-10
 -1     14914 5.92813E-01 1.67376E+00 1.82474E-09-1.75611E-01-1.81929E-11-1.14895E-10
 -1     14919 6.20481E-01 1.64609E+00-3.43629E-09-1.66621E-01 7.45430E-12 4.71898E-11
 -1     14920 6.07207E-01 1.65937E+00-3.51863E-09-8.33231E-02-1.94941E-12-2.45798E-11
 -1     14921 5.92813E-01 1.67376E+00 1.90591E-09-1.75611E-01 3.44764E-12 2.18839E-11
 -1     14926 6.20481E-01 1.64609E+00-3.57403E-09-1.66621E-01-3.63768E-13-2.27956E-12
 -1     14927 6.07207E-01 1.65937E+00-3.55597E-09-8.33231E-02 2.69321E-12 3.42126E-11
 -1     14928 5.92813E-01 1.67376E+00 1.93977E-09-1.75611E-01-1.35009E-12-8.48668E-12
 -1     14933 6.20481E-01 1.64609E+00-3.52472E-09-1.66621E-01 3.31534E-12 2.09983E-11
 -1     14934 6.07207E-01 1.65937E+00-3.55890E-09-8.33231E-02-9.24892E-15 8.91911E-14
 -1     14935 5.92813E-01 1.67376E+00 1.93338E-09-1.75611E-01 2.43866E-13 1.61860E-12
 -1     14940 6.20481E-01 1.64609E+00-3.53229E-09-1.66621E-01-2.15962E-14 4.26660E-14
 -1     14941 6.07207E-01 1.65937E+00-3.55888E-09-8.33231E-02-1.46687E-14-1.35652E-13
 -1     14942 5.92813E-01 1.67376E+00 1.93347E-09-1.75611E-01-2.81706E-13-1.62449E-12
 -1     14947 6.20481E-01 1.64609E+00-3.52470E-09-1.66621E-01-3.36391E-12-2.09841E-11
 -1     14948 6.07207E-01 1.65937E+00-3.55594E-09-8.33231E-02-2.70124E-12-3.42802E-11
 -1     14949 5.92813E-01 1.67376E+00 1.93979E-09-1.75611E-01 1.32338E-12 8.47073E-12
 -1     14954 6.20481E-01 1.64609E+00-3.57402E-09-1.66621E-01 3.26030E-13 2.13844E-12
 -1     14955 6.07207E-01 1.65937E+00-3.51859E-09-8.33231E-02 1.93649E-12 2.46028E-11
 -1     14956 5.92813E-01 1.67376E+00 1.90592E-09-1.75611E-01-3.48538E-12-2.19734E-11
 -1     14961 6.20481E-01 1.64609E+00-3.43624E-09-1.66621E-01-7.51464E-12-4.72439E-11
 -1     14962 6.07207E-01 1.65937E+00-3.42564E-09-8.33231E-02-1.31587E-11-1.67259E-10
 -1     14963 5.92813E-01 1.67376E+00 1.82478E-09-1.75611E-01 1.81862E-11 1.14821E-10
 -1     14968 6.20481E-01 1.64609E+00-3.65381E-09-1.66621E-01-1.33296E-11-8.42494E-11
 -1     14969 6.07207E-01 1.65937E+00-3.46135E-09-8.33231E-02-1.40875E-11-1.79054E-10
 -1     14970 5.92813E-01 1.67376E+00 1.94034E-09-1.75611E-01 2.24463E-11 1.41634E-10
 -1     14975 6.20481E-01 1.64609E+00-3.50563E-09-1.66621E-01 1.73850E-11 1.09736E-10
 -1     14979 6.97068E-01 1.56951E+00-3.50569E-09-3.16932E-01-3.43596E-11-1.05579E-10
 -1     14980 6.58703E-01 1.60787E+00-3.46136E-09-2.41813E-01 4.19097E-11 1.74607E-10
 -1     14981 6.73532E-01 1.59304E+00 1.94035E-09-3.34032E-01-4.43509E-11-1.36450E-10
 -1     14986 6.97068E-01 1.56951E+00-3.65388E-09-3.16932E-01 2.63083E-11 8.10230E-11
 -1     14987 6.58703E-01 1.60787E+00-3.42569E-09-2.41813E-01 3.91606E-11 1.63101E-10
 -1     14988 6.73532E-01 1.59304E+00 1.82477E-09-3.34032E-01-3.59647E-11-1.10622E-10
 -1     14993 6.97068E-01 1.56951E+00-3.43632E-09-3.16932E-01 1.47825E-11 4.53619E-11
 -1     14994 6.58703E-01 1.60787E+00-3.51864E-09-2.41813E-01-5.77767E-12-2.40056E-11
 -1     14995 6.73532E-01 1.59304E+00 1.90592E-09-3.34032E-01 6.85960E-12 2.10686E-11
 -1     15000 6.97068E-01 1.56951E+00-3.57407E-09-3.16932E-01-7.19793E-13-2.14004E-12
 -1     15001 6.58703E-01 1.60787E+00-3.55597E-09-2.41813E-01 8.00511E-12 3.34095E-11
 -1     15002 6.73532E-01 1.59304E+00 1.93982E-09-3.34032E-01-2.69781E-12-8.16302E-12
 -1     15007 6.97068E-01 1.56951E+00-3.52474E-09-3.16932E-01 6.52511E-12 2.02222E-11
 -1     15008 6.58703E-01 1.60787E+00-3.55885E-09-2.41813E-01-9.89904E-15 4.69003E-14
 -1     15009 6.73532E-01 1.59304E+00 1.93345E-09-3.34032E-01 4.96731E-13 1.61881E-12
 -1     15014 6.97068E-01 1.56951E+00-3.53233E-09-3.16932E-01-1.32899E-14-3.75415E-14
 -1     15015 6.58703E-01 1.60787E+00-3.55888E-09-2.41813E-01-5.20662E-14-9.61432E-14
 -1     15016 6.73532E-01 1.59304E+00 1.93344E-09-3.34032E-01-5.40274E-13-1.61815E-12
 -1     15021 6.97068E-01 1.56951E+00-3.52482E-09-3.16932E-01-6.58610E-12-2.02438E-11
 -1     15022 6.58703E-01 1.60787E+00-3.55595E-09-2.41813E-01-8.03463E-12-3.34353E-11
 -1     15023 6.73532E-01 1.59304E+00 1.93975E-09-3.34032E-01 2.65327E-12 8.19626E-12
 -1     15028 6.97068E-01 1.56951E+00-3.57405E-09-3.16932E-01 7.01676E-13 2.18283E-12
 -1     15029 6.58703E-01 1.60787E+00-3.51862E-09-2.41813E-01 5.74294E-12 2.40445E-11
 -1     15030 6.73532E-01 1.59304E+00 1.90591E-09-3.34032E-01-6.85793E-12-2.10387E-11
 -1     15035 6.97068E-01 1.56951E+00-3.43626E-09-3.16932E-01-1.47245E-11-4.53260E-11
 -1     15036 6.58703E-01 1.60787E+00-3.42566E-09-2.41813E-01-3.91831E-11-1.63164E-10
 -1     15037 6.73532E-01 1.59304E+00 1.82480E-09-3.34032E-01 3.59638E-11 1.10644E-10
 -1     15042 6.97068E-01 1.56951E+00-3.65385E-09-3.16932E-01-2.63423E-11-8.10727E-11
 -1     15043 6.58703E-01 1.60787E+00-3.46135E-09-2.41813E-01-4.19289E-11-1.74616E-10
 -1     15044 6.73532E-01 1.59304E+00 1.94035E-09-3.34032E-01 4.43556E-11 1.36471E-10
 -1     15049 6.97068E-01 1.56951E+00-3.50568E-09-3.16932E-01 3.43742E-11 1.05653E-10
 -1     15053 8.16356E-01 1.45022E+00-3.50572E-09-4.36220E-01-5.04380E-11-9.90207E-11
 -1     15054 7.56655E-01 1.50992E+00-3.46129E-09-3.76633E-01 6.87239E-11 1.65914E-10
 -1     15055 7.99256E-01 1.46732E+00 1.94037E-09-4.59756E-01-6.51469E-11-1.27784E-10
 -1     15060 8.16356E-01 1.45022E+00-3.65388E-09-4.36220E-01 3.87270E-11 7.60342E-11
 -1     15061 7.56655E-01 1.50992E+00-3.42562E-09-3.76633E-01 6.42088E-11 1.55004E-10
 -1     15062 7.99256E-01 1.46732E+00 1.82482E-09-4.59756E-01-5.27947E-11-1.03604E-10
 -1     15067 8.16356E-01 1.45022E+00-3.43633E-09-4.36220E-01 2.16782E-11 4.26764E-11
 -1     15068 7.56655E-01 1.50992E+00-3.51858E-09-3.76633E-01-9.44444E-12-2.27996E-11
 -1     15069 7.99256E-01 1.46732E+00 1.90597E-09-4.59756E-01 1.00821E-11 1.98403E-11
 -1     15074 8.16356E-01 1.45022E+00-3.57411E-09-4.36220E-01-1.04850E-12-1.98056E-12
 -1     15075 7.56655E-01 1.50992E+00-3.55590E-09-3.76633E-01 1.31159E-11 3.17517E-11
 -1     15076 7.99256E-01 1.46732E+00 1.93981E-09-4.59756E-01-3.92916E-12-7.65476E-12
 -1     15081 8.16356E-01 1.45022E+00-3.52483E-09-4.36220E-01 9.65849E-12 1.89542E-11
 -1     15082 7.56655E-01 1.50992E+00-3.55880E-09-3.76633E-01 4.61771E-14 9.36430E-14
 -1     15083 7.99256E-01 1.46732E+00 1.93347E-09-4.59756E-01 7.80052E-13 1.49597E-12
 -1     15088 8.16356E-01 1.45022E+00-3.53236E-09-4.36220E-01-8.43302E-15-3.66766E-14
 -1     15089 7.56655E-01 1.50992E+00-3.55884E-09-3.76633E-01-4.14452E-14-5.89150E-14
 -1     15090 7.99256E-01 1.46732E+00 1.93346E-09-4.59756E-01-7.89758E-13-1.52050E-12
 -1     15095 8.16356E-01 1.45022E+00-3.52478E-09-4.36220E-01-9.66081E-12-1.89784E-11
 -1     15096 7.56655E-01 1.50992E+00-3.55591E-09-3.76633E-01-1.31496E-11-3.17874E-11
 -1     15097 7.99256E-01 1.46732E+00 1.93983E-09-4.59756E-01 3.90349E-12 7.56844E-12
 -1     15102 8.16356E-01 1.45022E+00-3.57415E-09-4.36220E-01 1.01898E-12 2.00369E-12
 -1     15103 7.56655E-01 1.50992E+00-3.51858E-09-3.76633E-01 9.42628E-12 2.28545E-11
 -1     15104 7.99256E-01 1.46732E+00 1.90592E-09-4.59756E-01-1.00889E-11-1.98070E-11
 -1     15109 8.16356E-01 1.45022E+00-3.43639E-09-4.36220E-01-2.17290E-11-4.25531E-11
 -1     15110 7.56655E-01 1.50992E+00-3.42562E-09-3.76633E-01-6.42375E-11-1.54977E-10
 -1     15111 7.99256E-01 1.46732E+00 1.82481E-09-4.59756E-01 5.27898E-11 1.03662E-10
 -1     15116 8.16356E-01 1.45022E+00-3.65388E-09-4.36220E-01-3.86995E-11-7.59828E-11
 -1     15117 7.56655E-01 1.50992E+00-3.46129E-09-3.76633E-01-6.87464E-11-1.65841E-10
 -1     15118 7.99256E-01 1.46732E+00 1.94038E-09-4.59756E-01 6.51027E-11 1.27842E-10
 -1     15123 8.16356E-01 1.45022E+00-3.50567E-09-4.36220E-01 5.04342E-11 9.89721E-11
 -1     15127 9.66667E-01 1.29991E+00-3.50551E-09-5.12807E-01-6.53076E-11-8.98725E-11
 -1     15128 8.91475E-01 1.37510E+00-3.46135E-09-4.74585E-01 9.38456E-11 1.53078E-10
 -1     15129 9.57677E-01 1.30890E+00 1.94031E-09-5.40475E-01-8.42977E-11-1.16094E-10
 -1     15134 9.66667E-01 1.29991E+00-3.65365E-09-5.12807E-01 5.01489E-11 6.89985E-11
 -1     15135 8.91475E-01 1.37510E+00-3.42565E-09-4.74585E-01 8.76672E-11 1.43064E-10
 -1     15136 9.57677E-01 1.30890E+00 1.82475E-09-5.40475E-01-6.83173E-11-9.40541E-11
 -1     15141 9.66667E-01 1.29991E+00-3.43609E-09-5.12807E-01 2.81160E-11 3.86504E-11
 -1     15142 8.91475E-01 1.37510E+00-3.51865E-09-4.74585E-01-1.29209E-11-2.10411E-11
 -1     15143 9.57677E-01 1.30890E+00 1.90593E-09-5.40475E-01 1.30685E-11 1.79516E-11
 -1     15148 9.66667E-01 1.29991E+00-3.57385E-09-5.12807E-01-1.28435E-12-1.81949E-12
 -1     15149 8.91475E-01 1.37510E+00-3.55598E-09-4.74585E-01 1.79714E-11 2.93351E-11
 -1     15150 9.57677E-01 1.30890E+00 1.93983E-09-5.40475E-01-5.03087E-12-6.90309E-12
 -1     15155 9.66667E-01 1.29991E+00-3.52451E-09-5.12807E-01 1.24978E-11 1.72345E-11
 -1     15156 8.91475E-01 1.37510E+00-3.55888E-09-4.74585E-01 7.56351E-14 6.46362E-14
 -1     15157 9.57677E-01 1.30890E+00 1.93347E-09-5.40475E-01 9.95564E-13 1.43080E-12
 -1     15162 9.66667E-01 1.29991E+00-3.53202E-09-5.12807E-01 4.37884E-14 9.55894E-15
 -1     15163 8.91475E-01 1.37510E+00-3.55887E-09-4.74585E-01-3.07392E-14-7.16210E-14
 -1     15164 9.57677E-01 1.30890E+00 1.93347E-09-5.40475E-01-9.64155E-13-1.34025E-12
 -1     15169 9.66667E-01 1.29991E+00-3.52447E-09-5.12807E-01-1.24383E-11-1.71304E-11
 -1     15170 8.91475E-01 1.37510E+00-3.55594E-09-4.74585E-01-1.79732E-11-2.93115E-11
 -1     15171 9.57677E-01 1.30890E+00 1.93983E-09-5.40475E-01 5.04707E-12 7.02895E-12
 -1     15176 9.66667E-01 1.29991E+00-3.57382E-09-5.12807E-01 1.25386E-12 1.88461E-12
 -1     15177 8.91475E-01 1.37510E+00-3.51865E-09-4.74585E-01 1.29026E-11 2.10925E-11
 -1     15178 9.57677E-01 1.30890E+00 1.90591E-09-5.40475E-01-1.30394E-11-1.79486E-11
 -1     15183 9.66667E-01 1.29991E+00-3.43607E-09-5.12807E-01-2.80996E-11-3.86382E-11
 -1     15184 8.91475E-01 1.37510E+00-3.42565E-09-4.74585E-01-8.76864E-11-1.43065E-10
 -1     15185 9.57677E-01 1.30890E+00 1.82476E-09-5.40475E-01 6.83172E-11 9.40628E-11
 -1     15190 9.66667E-01 1.29991E+00-3.65362E-09-5.12807E-01-5.01789E-11-6.90041E-11
 -1     15191 8.91475E-01 1.37510E+00-3.46134E-09-4.74585E-01-9.38323E-11-1.53069E-10
 -1     15192 9.57677E-01 1.30890E+00 1.94031E-09-5.40475E-01 8.43242E-11 1.16031E-10
 -1     15197 9.66667E-01 1.29991E+00-3.50551E-09-5.12807E-01 6.52818E-11 8.98789E-11
 -1     15201 1.13329E+00 1.13329E+00-3.50544E-09-5.39197E-01-7.85275E-11-7.85905E-11
 -1     15202 1.04996E+00 1.21661E+00-3.46147E-09-5.26081E-01 1.16580E-10 1.36532E-10
 -1     15203 1.13329E+00 1.13329E+00 1.94028E-09-5.68289E-01-1.01484E-10-1.01459E-10
 -1     15208 1.13329E+00 1.13329E+00-3.65364E-09-5.39197E-01 6.03081E-11 6.02695E-11
 -1     15209 1.04996E+00 1.21661E+00-3.42581E-09-5.26081E-01 1.08960E-10 1.27610E-10
 -1     15210 1.13329E+00 1.13329E+00 1.82477E-09-5.68289E-01-8.22699E-11-8.22261E-11
 -1     15215 1.13329E+00 1.13329E+00-3.43613E-09-5.39197E-01 3.37144E-11 3.38211E-11
 -1     15216 1.04996E+00 1.21661E+00-3.51876E-09-5.26081E-01-1.60849E-11-1.87566E-11
 -1     15217 1.13329E+00 1.13329E+00 1.90590E-09-5.68289E-01 1.56603E-11 1.57340E-11
 -1     15222 1.13329E+00 1.13329E+00-3.57387E-09-5.39197E-01-1.63363E-12-1.52707E-12
 -1     15223 1.04996E+00 1.21661E+00-3.55609E-09-5.26081E-01 2.23399E-11 2.61525E-11
 -1     15224 1.13329E+00 1.13329E+00 1.93976E-09-5.68289E-01-6.10238E-12-6.08594E-12
 -1     15229 1.13329E+00 1.13329E+00-3.52452E-09-5.39197E-01 1.50514E-11 1.50421E-11
 -1     15230 1.04996E+00 1.21661E+00-3.55900E-09-5.26081E-01 7.05949E-14 9.12587E-14
 -1     15231 1.13329E+00 1.13329E+00 1.93344E-09-5.68289E-01 1.19088E-12 1.19993E-12
 -1     15236 1.13329E+00 1.13329E+00-3.53213E-09-5.39197E-01-8.27732E-14-8.39999E-14
 -1     15237 1.04996E+00 1.21661E+00-3.55898E-09-5.26081E-01-7.47075E-14-7.37151E-14
 -1     15238 1.13329E+00 1.13329E+00 1.93340E-09-5.68289E-01-1.21427E-12-1.16431E-12
 -1     15243 1.13329E+00 1.13329E+00-3.52455E-09-5.39197E-01-1.50518E-11-1.49186E-11
 -1     15244 1.04996E+00 1.21661E+00-3.55609E-09-5.26081E-01-2.23624E-11-2.61042E-11
 -1     15245 1.13329E+00 1.13329E+00 1.93980E-09-5.68289E-01 6.06883E-12 6.08530E-12
 -1     15250 1.13329E+00 1.13329E+00-3.57387E-09-5.39197E-01 1.54047E-12 1.55972E-12
 -1     15251 1.04996E+00 1.21661E+00-3.51877E-09-5.26081E-01 1.60589E-11 1.87747E-11
 -1     15252 1.13329E+00 1.13329E+00 1.90588E-09-5.68289E-01-1.57385E-11-1.57314E-11
 -1     15257 1.13329E+00 1.13329E+00-3.43608E-09-5.39197E-01-3.38006E-11-3.38461E-11
 -1     15258 1.04996E+00 1.21661E+00-3.42577E-09-5.26081E-01-1.08961E-10-1.27575E-10
 -1     15259 1.13329E+00 1.13329E+00 1.82478E-09-5.68289E-01 8.22268E-11 8.21860E-11
 -1     15264 1.13329E+00 1.13329E+00-3.65360E-09-5.39197E-01-6.03783E-11-6.02716E-11
 -1     15265 1.04996E+00 1.21661E+00-3.46151E-09-5.26081E-01-1.16601E-10-1.36559E-10
 -1     15266 1.13329E+00 1.13329E+00 1.94033E-09-5.68289E-01 1.01406E-10 1.01428E-10
 -1     15271 1.13329E+00 1.13329E+00-3.50550E-09-5.39197E-01 7.85996E-11 7.85856E-11
 -1     15275 1.29991E+00 9.66667E-01-3.50589E-09-5.12807E-01-8.99280E-11-6.52780E-11
 -1     15276 1.21661E+00 1.04996E+00-3.46137E-09-5.26081E-01 1.36518E-10 1.16640E-10
 -1     15277 1.30890E+00 9.57677E-01 1.94048E-09-5.40475E-01-1.16053E-10-8.43026E-11
 -1     15282 1.29991E+00 9.66667E-01-3.65408E-09-5.12807E-01 6.89480E-11 5.01719E-11
 -1     15283 1.21661E+00 1.04996E+00-3.42571E-09-5.26081E-01 1.27555E-10 1.08995E-10
 -1     15284 1.30890E+00 9.57677E-01 1.82495E-09-5.40475E-01-9.41077E-11-6.83299E-11
 -1     15289 1.29991E+00 9.66667E-01-3.43652E-09-5.12807E-01 3.86376E-11 2.80471E-11
 -1     15290 1.21661E+00 1.04996E+00-3.51865E-09-5.26081E-01-1.87652E-11-1.60145E-11
 -1     15291 1.30890E+00 9.57677E-01 1.90605E-09-5.40475E-01 1.79926E-11 1.30150E-11
 -1     15296 1.29991E+00 9.66667E-01-3.57432E-09-5.12807E-01-1.83607E-12-1.37026E-12
 -1     15297 1.21661E+00 1.04996E+00-3.55595E-09-5.26081E-01 2.60820E-11 2.23219E-11
 -1     15298 1.30890E+00 9.57677E-01 1.93992E-09-5.40475E-01-6.95603E-12-5.04004E-12
 -1     15303 1.29991E+00 9.66667E-01-3.52500E-09-5.12807E-01 1.72131E-11 1.25414E-11
 -1     15304 1.21661E+00 1.04996E+00-3.55887E-09-5.26081E-01 1.19418E-13 7.83851E-14
 -1     15305 1.30890E+00 9.57677E-01 1.93361E-09-5.40475E-01 1.42060E-12 1.02619E-12
 -1     15310 1.29991E+00 9.66667E-01-3.53255E-09-5.12807E-01 2.72154E-14 4.69170E-14
 -1     15311 1.21661E+00 1.04996E+00-3.55887E-09-5.26081E-01-1.26301E-13-3.51796E-14
 -1     15312 1.30890E+00 9.57677E-01 1.93358E-09-5.40475E-01-1.35953E-12-9.73228E-13
 -1     15317 1.29991E+00 9.66667E-01-3.52499E-09-5.12807E-01-1.71392E-11-1.25385E-11
 -1     15318 1.21661E+00 1.04996E+00-3.55596E-09-5.26081E-01-2.61662E-11-2.23179E-11
 -1     15319 1.30890E+00 9.57677E-01 1.93991E-09-5.40475E-01 6.97808E-12 5.03847E-12
 -1     15324 1.29991E+00 9.66667E-01-3.57434E-09-5.12807E-01 1.89337E-12 1.32312E-12
 -1     15325 1.21661E+00 1.04996E+00-3.51862E-09-5.26081E-01 1.87860E-11 1.60040E-11
 -1     15326 1.30890E+00 9.57677E-01 1.90608E-09-5.40475E-01-1.78990E-11-1.30593E-11
 -1     15331 1.29991E+00 9.66667E-01-3.43655E-09-5.12807E-01-3.86439E-11-2.81417E-11
 -1     15332 1.21661E+00 1.04996E+00-3.42562E-09-5.26081E-01-1.27569E-10-1.08977E-10
 -1     15333 1.30890E+00 9.57677E-01 1.82491E-09-5.40475E-01 9.40939E-11 6.83520E-11
 -1     15338 1.29991E+00 9.66667E-01-3.65410E-09-5.12807E-01-6.89418E-11-5.01358E-11
 -1     15339 1.21661E+00 1.04996E+00-3.46137E-09-5.26081E-01-1.36511E-10-1.16654E-10
 -1     15340 1.30890E+00 9.57677E-01 1.94046E-09-5.40475E-01 1.16125E-10 8.43106E-11
 -1     15345 1.29991E+00 9.66667E-01-3.50587E-09-5.12807E-01 8.99504E-11 6.53077E-11
 -1     15349 1.45022E+00 8.16356E-01-3.50584E-09-4.36220E-01-9.89485E-11-5.04744E-11
 -1     15350 1.37510E+00 8.91475E-01-3.46106E-09-4.74585E-01 1.53104E-10 9.38176E-11
 -1     15351 1.46732E+00 7.99256E-01 1.94041E-09-4.59756E-01-1.27878E-10-6.51549E-11
 -1     15356 1.45022E+00 8.16356E-01-3.65390E-09-4.36220E-01 7.60710E-11 3.86934E-11
 -1     15357 1.37510E+00 8.91475E-01-3.42535E-09-4.74585E-01 1.43069E-10 8.76375E-11
 -1     15358 1.46732E+00 7.99256E-01 1.82490E-09-4.59756E-01-1.03517E-10-5.27663E-11
 -1     15363 1.45022E+00 8.16356E-01-3.43636E-09-4.36220E-01 4.26021E-11 2.17428E-11
 -1     15364 1.37510E+00 8.91475E-01-3.51834E-09-4.74585E-01-2.09976E-11-1.28990E-11
 -1     15365 1.46732E+00 7.99256E-01 1.90610E-09-4.59756E-01 1.97693E-11 1.01011E-11
 -1     15370 1.45022E+00 8.16356E-01-3.57409E-09-4.36220E-01-1.99915E-12-1.00815E-12
 -1     15371 1.37510E+00 8.91475E-01-3.55564E-09-4.74585E-01 2.93275E-11 1.79700E-11
 -1     15372 1.46732E+00 7.99256E-01 1.93995E-09-4.59756E-01-7.67569E-12-3.90875E-12
 -1     15377 1.45022E+00 8.16356E-01-3.52477E-09-4.36220E-01 1.89937E-11 9.67000E-12
 -1     15378 1.37510E+00 8.91475E-01-3.55856E-09-4.74585E-01 1.20735E-13 9.79435E-14
 -1     15379 1.46732E+00 7.99256E-01 1.93357E-09-4.59756E-01 1.48750E-12 7.79221E-13
 -1     15384 1.45022E+00 8.16356E-01-3.53232E-09-4.36220E-01-3.27600E-14 6.49203E-15
 -1     15385 1.37510E+00 8.91475E-01-3.55854E-09-4.74585E-01-8.00130E-14-1.62211E-14
 -1     15386 1.46732E+00 7.99256E-01 1.93360E-09-4.59756E-01-1.54801E-12-7.78477E-13
 -1     15391 1.45022E+00 8.16356E-01-3.52473E-09-4.36220E-01-1.89778E-11-9.59060E-12
 -1     15392 1.37510E+00 8.91475E-01-3.55570E-09-4.74585E-01-2.93068E-11-1.79287E-11
 -1     15393 1.46732E+00 7.99256E-01 1.93998E-09-4.59756E-01 7.69944E-12 3.92933E-12
 -1     15398 1.45022E+00 8.16356E-01-3.57403E-09-4.36220E-01 2.04842E-12 1.05760E-12
 -1     15399 1.37510E+00 8.91475E-01-3.51834E-09-4.74585E-01 2.10385E-11 1.29229E-11
 -1     15400 1.46732E+00 7.99256E-01 1.90610E-09-4.59756E-01-1.97920E-11-1.00246E-11
 -1     15405 1.45022E+00 8.16356E-01-3.43630E-09-4.36220E-01-4.26105E-11-2.16396E-11
 -1     15406 1.37510E+00 8.91475E-01-3.42535E-09-4.74585E-01-1.43024E-10-8.76329E-11
 -1     15407 1.46732E+00 7.99256E-01 1.82494E-09-4.59756E-01 1.03607E-10 5.27914E-11
 -1     15412 1.45022E+00 8.16356E-01-3.65383E-09-4.36220E-01-7.59799E-11-3.87271E-11
 -1     15413 1.37510E+00 8.91475E-01-3.46108E-09-4.74585E-01-1.53151E-10-9.38326E-11
 -1     15414 1.46732E+00 7.99256E-01 1.94044E-09-4.59756E-01 1.27814E-10 6.51416E-11
 -1     15419 1.45022E+00 8.16356E-01-3.50585E-09-4.36220E-01 9.90153E-11 5.04178E-11
 -1     15423 1.56951E+00 6.97068E-01-3.50511E-09-3.16932E-01-1.05637E-10-3.43178E-11
 -1     15424 1.50992E+00 7.56655E-01-3.46155E-09-3.76633E-01 1.65866E-10 6.87111E-11
 -1     15425 1.59304E+00 6.73532E-01 1.94015E-09-3.34032E-01-1.36315E-10-4.43270E-11
 -1     15430 1.56951E+00 6.97068E-01-3.65332E-09-3.16932E-01 8.11275E-11 2.63718E-11
 -1     15431 1.50992E+00 7.56655E-01-3.42584E-09-3.76633E-01 1.55040E-10 6.41921E-11
 -1     15432 1.59304E+00 6.73532E-01 1.82462E-09-3.34032E-01-1.10618E-10-3.59481E-11
 -1     15437 1.56951E+00 6.97068E-01-3.43566E-09-3.16932E-01 4.55907E-11 1.47771E-11
 -1     15438 1.50992E+00 7.56655E-01-3.51882E-09-3.76633E-01-2.28438E-11-9.45738E-12
 -1     15439 1.59304E+00 6.73532E-01 1.90576E-09-3.34032E-01 2.11799E-11 6.86206E-12
 -1     15444 1.56951E+00 6.97068E-01-3.57343E-09-3.16932E-01-2.08959E-12-6.95343E-13
 -1     15445 1.50992E+00 7.56655E-01-3.55618E-09-3.76633E-01 3.17895E-11 1.31448E-11
 -1     15446 1.59304E+00 6.73532E-01 1.93964E-09-3.34032E-01-8.09951E-12-2.66131E-12
 -1     15451 1.56951E+00 6.97068E-01-3.52412E-09-3.16932E-01 2.02168E-11 6.57990E-12
 -1     15452 1.50992E+00 7.56655E-01-3.55906E-09-3.76633E-01 6.07749E-14 5.20040E-14
 -1     15453 1.59304E+00 6.73532E-01 1.93330E-09-3.34032E-01 1.61787E-12 5.14020E-13
 -1     15458 1.56951E+00 6.97068E-01-3.53169E-09-3.16932E-01-1.52714E-15-1.16675E-14
 -1     15459 1.50992E+00 7.56655E-01-3.55911E-09-3.76633E-01-9.93807E-14-3.36671E-14
 -1     15460 1.59304E+00 6.73532E-01 1.93330E-09-3.34032E-01-1.68499E-12-5.24073E-13
 -1     15465 1.56951E+00 6.97068E-01-3.52418E-09-3.16932E-01-2.03207E-11-6.63623E-12
 -1     15466 1.50992E+00 7.56655E-01-3.55616E-09-3.76633E-01-3.17293E-11-1.31187E-11
 -1     15467 1.59304E+00 6.73532E-01 1.93960E-09-3.34032E-01 8.09112E-12 2.63520E-12
 -1     15472 1.56951E+00 6.97068E-01-3.57346E-09-3.16932E-01 2.06372E-12 6.63591E-13
 -1     15473 1.50992E+00 7.56655E-01-3.51880E-09-3.76633E-01 2.28242E-11 9.49789E-12
 -1     15474 1.59304E+00 6.73532E-01 1.90572E-09-3.34032E-01-2.11319E-11-6.88861E-12
 -1     15479 1.56951E+00 6.97068E-01-3.43575E-09-3.16932E-01-4.54569E-11-1.47884E-11
 -1     15480 1.50992E+00 7.56655E-01-3.42586E-09-3.76633E-01-1.55000E-10-6.41543E-11
 -1     15481 1.59304E+00 6.73532E-01 1.82453E-09-3.34032E-01 1.10580E-10 3.59527E-11
 -1     15486 1.56951E+00 6.97068E-01-3.65342E-09-3.16932E-01-8.11968E-11-2.63323E-11
 -1     15487 1.50992E+00 7.56655E-01-3.46151E-09-3.76633E-01-1.65921E-10-6.86805E-11
 -1     15488 1.59304E+00 6.73532E-01 1.94005E-09-3.34032E-01 1.36341E-10 4.43403E-11
 -1     15493 1.56951E+00 6.97068E-01-3.50508E-09-3.16932E-01 1.05552E-10 3.43546E-11
 -1     15497 1.64609E+00 6.20481E-01-3.50571E-09-1.66621E-01-1.09727E-10-1.74520E-11
 -1     15498 1.60787E+00 6.58703E-01-3.46167E-09-2.41813E-01 1.74575E-10 4.19501E-11
 -1     15499 1.67376E+00 5.92813E-01 1.94020E-09-1.75611E-01-1.41691E-10-2.24818E-11
 -1     15504 1.64609E+00 6.20481E-01-3.65386E-09-1.66621E-01 8.41730E-11 1.32850E-11
 -1     15505 1.60787E+00 6.58703E-01-3.42594E-09-2.41813E-01 1.63113E-10 3.92043E-11
 -1     15506 1.67376E+00 5.92813E-01 1.82463E-09-1.75611E-01-1.14945E-10-1.82039E-11
 -1     15511 1.64609E+00 6.20481E-01-3.43636E-09-1.66621E-01 4.71016E-11 7.45741E-12
 -1     15512 1.60787E+00 6.58703E-01-3.51895E-09-2.41813E-01-2.40585E-11-5.75545E-12
 -1     15513 1.67376E+00 5.92813E-01 1.90572E-09-1.75611E-01 2.18963E-11 3.47221E-12
 -1     15518 1.64609E+00 6.20481E-01-3.57415E-09-1.66621E-01-2.23131E-12-3.57715E-13
 -1     15519 1.60787E+00 6.58703E-01-3.55627E-09-2.41813E-01 3.34107E-11 8.02698E-12
 -1     15520 1.67376E+00 5.92813E-01 1.93957E-09-1.75611E-01-8.48829E-12-1.34262E-12
 -1     15525 1.64609E+00 6.20481E-01-3.52484E-09-1.66621E-01 2.09964E-11 3.32825E-12
 -1     15526 1.60787E+00 6.58703E-01-3.55920E-09-2.41813E-01 9.38949E-14 8.53724E-15
 -1     15527 1.67376E+00 5.92813E-01 1.93326E-09-1.75611E-01 1.67221E-12 2.62791E-13
 -1     15532 1.64609E+00 6.20481E-01-3.53241E-09-1.66621E-01-3.95132E-14 2.12914E-15
 -1     15533 1.60787E+00 6.58703E-01-3.55920E-09-2.41813E-01-1.52674E-13-4.29577E-14
 -1     15534 1.67376E+00 5.92813E-01 1.93326E-09-1.75611E-01-1.68707E-12-2.71391E-13
 -1     15539 1.64609E+00 6.20481E-01-3.52484E-09-1.66621E-01-2.09210E-11-3.33714E-12
 -1     15540 1.60787E+00 6.58703E-01-3.55627E-09-2.41813E-01-3.33971E-11-8.05103E-12
 -1     15541 1.67376E+00 5.92813E-01 1.93959E-09-1.75611E-01 8.54504E-12 1.32399E-12
 -1     15546 1.64609E+00 6.20481E-01-3.57414E-09-1.66621E-01 2.30258E-12 3.58928E-13
 -1     15547 1.60787E+00 6.58703E-01-3.51893E-09-2.41813E-01 2.41002E-11 5.73875E-12
 -1     15548 1.67376E+00 5.92813E-01 1.90575E-09-1.75611E-01-2.19076E-11-3.48167E-12
 -1     15553 1.64609E+00 6.20481E-01-3.43635E-09-1.66621E-01-4.72152E-11-7.47206E-12
 -1     15554 1.60787E+00 6.58703E-01-3.42602E-09-2.41813E-01-1.63170E-10-3.92087E-11
 -1     15555 1.67376E+00 5.92813E-01 1.82461E-09-1.75611E-01 1.14880E-10 1.81793E-11
 -1     15560 1.64609E+00 6.20481E-01-3.65386E-09-1.66621E-01-8.42712E-11-1.33108E-11
 -1     15561 1.60787E+00 6.58703E-01-3.46167E-09-2.41813E-01-1.74548E-10-4.19470E-11
 -1     15562 1.67376E+00 5.92813E-01 1.94021E-09-1.75611E-01 1.41714E-10 2.24771E-11
 -1     15567 1.64609E+00 6.20481E-01-3.50570E-09-1.66621E-01 1.09723E-10 1.74314E-11
 -1     15571 1.65937E+00 6.07207E-01-3.46099E-09-8.33231E-02 1.79010E-10 1.41104E-11
 -1     15575 1.65937E+00 6.07207E-01-3.42529E-09-8.33231E-02 1.67235E-10 1.31787E-11
 -1     15579 1.65937E+00 6.07207E-01-3.51825E-09-8.33231E-02-2.46395E-11-1.93287E-12
 -1     15583 1.65937E+00 6.07207E-01-3.55556E-09-8.33231E-02 3.42485E-11 2.69212E-12
 -1     15587 1.65937E+00 6.07207E-01-3.55851E-09-8.33231E-02 1.07886E-13-1.78454E-16
 -1     15591 1.65937E+00 6.07207E-01-3.55850E-09-8.33231E-02-1.30747E-13-3.61606E-14
 -1     15595 1.65937E+00 6.07207E-01-3.55560E-09-8.33231E-02-3.42387E-11-2.72471E-12
 -1     15599 1.65937E+00 6.07207E-01-3.51824E-09-8.33231E-02 2.46142E-11 1.89568E-12
 -1     15603 1.65937E+00 6.07207E-01-3.42528E-09-8.33231E-02-1.67236E-10-1.32253E-11
 -1     15607 1.65937E+00 6.07207E-01-3.46102E-09-8.33231E-02-1.79038E-10-1.41352E-11
 -1     15613 6.68102E-01 1.59847E+00-2.95818E-09-1.51148E-01-2.37492E-11-1.49858E-10
 -1     15614 6.56061E-01 1.61052E+00-2.99417E-09-7.55854E-02-9.59142E-13-1.22983E-11
 -1     15615 6.44286E-01 1.62229E+00 1.67641E-09-1.58886E-01 6.04155E-12 3.82173E-11
 -1     15620 6.68102E-01 1.59847E+00-2.99267E-09-1.51148E-01 3.04021E-12 1.94817E-11
 -1     15621 6.56061E-01 1.61052E+00-2.98849E-09-7.55854E-02 1.59152E-13 1.99142E-12
 -1     15622 6.44286E-01 1.62229E+00 1.70852E-09-1.58886E-01 1.19619E-12 7.69890E-12
 -1     15627 6.68102E-01 1.59847E+00-2.91316E-09-1.51148E-01-8.49856E-13-5.18479E-12
 -1     15628 6.56061E-01 1.61052E+00-2.95051E-09-7.55854E-02-2.55393E-12-3.24237E-11
 -1     15629 6.44286E-01 1.62229E+00 1.67392E-09-1.58886E-01 4.50758E-12 2.86177E-11
 -1     15634 6.68102E-01 1.59847E+00-2.97376E-09-1.51148E-01-1.59877E-12-9.90272E-12
 -1     15635 6.56061E-01 1.61052E+00-2.94409E-09-7.55854E-02 9.87782E-13 1.27834E-11
 -1     15636 6.44286E-01 1.62229E+00 1.67754E-09-1.58886E-01-3.52243E-13-2.06915E-12
 -1     15641 6.68102E-01 1.59847E+00-2.93965E-09-1.51148E-01 6.71438E-13 4.27550E-12
 -1     15642 6.56061E-01 1.61052E+00-2.94017E-09-7.55854E-02-4.22385E-13-5.27139E-12
 -1     15643 6.44286E-01 1.62229E+00 1.67702E-09-1.58886E-01 5.71331E-13 3.76298E-12
 -1     15648 6.68102E-01 1.59847E+00-2.95059E-09-1.51148E-01-3.98355E-14 8.85469E-14
 -1     15649 6.56061E-01 1.61052E+00-2.94018E-09-7.55854E-02 4.11857E-13 5.24957E-12
 -1     15650 6.44286E-01 1.62229E+00 1.67706E-09-1.58886E-01-6.20562E-13-3.70013E-12
 -1     15655 6.68102E-01 1.59847E+00-2.93960E-09-1.51148E-01-7.34932E-13-4.37692E-12
 -1     15656 6.56061E-01 1.61052E+00-2.94414E-09-7.55854E-02-1.00037E-12-1.27960E-11
 -1     15657 6.44286E-01 1.62229E+00 1.67749E-09-1.58886E-01 2.91701E-13 2.07518E-12
 -1     15662 6.68102E-01 1.59847E+00-2.97381E-09-1.51148E-01 1.53870E-12 9.92486E-12
 -1     15663 6.56061E-01 1.61052E+00-2.95054E-09-7.55854E-02 2.56423E-12 3.24210E-11
 -1     15664 6.44286E-01 1.62229E+00 1.67395E-09-1.58886E-01-4.56257E-12-2.86438E-11
 -1     15669 6.68102E-01 1.59847E+00-2.91322E-09-1.51148E-01 8.05782E-13 5.13322E-12
 -1     15670 6.56061E-01 1.61052E+00-2.98855E-09-7.55854E-02-1.56793E-13-1.99969E-12
 -1     15671 6.44286E-01 1.62229E+00 1.70853E-09-1.58886E-01-1.24351E-12-7.79108E-12
 -1     15676 6.68102E-01 1.59847E+00-2.99268E-09-1.51148E-01-3.10867E-12-1.95248E-11
 -1     15677 6.56061E-01 1.61052E+00-2.99418E-09-7.55854E-02 9.73105E-13 1.22650E-11
 -1     15678 6.44286E-01 1.62229E+00 1.67640E-09-1.58886E-01-6.05830E-12-3.82847E-11
 -1     15683 6.68102E-01 1.59847E+00-2.95819E-09-1.51148E-01 2.37361E-11 1.49890E-10
 -1     15687 7.37577E-01 1.52900E+00-2.95817E-09-2.87500E-01-4.69143E-11-1.44395E-10
 -1     15688 7.02775E-01 1.56380E+00-2.99421E-09-2.19357E-01-2.86623E-12-1.19809E-11
 -1     15689 7.17318E-01 1.54926E+00 1.67646E-09-3.02220E-01 1.19520E-11 3.68309E-11
 -1     15694 7.37577E-01 1.52900E+00-2.99266E-09-2.87500E-01 6.10399E-12 1.87711E-11
 -1     15695 7.02775E-01 1.56380E+00-2.98855E-09-2.19357E-01 4.63319E-13 1.91539E-12
 -1     15696 7.17318E-01 1.54926E+00 1.70857E-09-3.02220E-01 2.40405E-12 7.36780E-12
 -1     15701 7.37577E-01 1.52900E+00-2.91325E-09-2.87500E-01-1.63525E-12-4.99856E-12
 -1     15702 7.02775E-01 1.56380E+00-2.95060E-09-2.19357E-01-7.61398E-12-3.16399E-11
 -1     15703 7.17318E-01 1.54926E+00 1.67401E-09-3.02220E-01 8.94622E-12 2.75691E-11
 -1     15708 7.37577E-01 1.52900E+00-2.97388E-09-2.87500E-01-3.11195E-12-9.57964E-12
 -1     15709 7.02775E-01 1.56380E+00-2.94418E-09-2.19357E-01 2.95098E-12 1.24362E-11
 -1     15710 7.17318E-01 1.54926E+00 1.67760E-09-3.02220E-01-6.97000E-13-2.05945E-12
 -1     15715 7.37577E-01 1.52900E+00-2.93965E-09-2.87500E-01 1.30186E-12 4.13023E-12
 -1     15716 7.02775E-01 1.56380E+00-2.94025E-09-2.19357E-01-1.25639E-12-5.06479E-12
 -1     15717 7.17318E-01 1.54926E+00 1.67710E-09-3.02220E-01 1.13178E-12 3.61247E-12
 -1     15722 7.37577E-01 1.52900E+00-2.95066E-09-2.87500E-01-5.26289E-14 7.22920E-15
 -1     15723 7.02775E-01 1.56380E+00-2.94022E-09-2.19357E-01 1.18777E-12 5.09774E-12
 -1     15724 7.17318E-01 1.54926E+00 1.67710E-09-3.02220E-01-1.21808E-12-3.60765E-12
 -1     15729 7.37577E-01 1.52900E+00-2.93963E-09-2.87500E-01-1.38212E-12-4.18694E-12
 -1     15730 7.02775E-01 1.56380E+00-2.94418E-09-2.19357E-01-3.01282E-12-1.25049E-11
 -1     15731 7.17318E-01 1.54926E+00 1.67759E-09-3.02220E-01 6.48308E-13 2.03018E-12
 -1     15736 7.37577E-01 1.52900E+00-2.97380E-09-2.87500E-01 3.06402E-12 9.62302E-12
 -1     15737 7.02775E-01 1.56380E+00-2.95061E-09-2.19357E-01 7.57436E-12 3.16652E-11
 -1     15738 7.17318E-01 1.54926E+00 1.67404E-09-3.02220E-01-8.96199E-12-2.74581E-11
 -1     15743 7.37577E-01 1.52900E+00-2.91324E-09-2.87500E-01 1.60595E-12 5.05702E-12
 -1     15744 7.02775E-01 1.56380E+00-2.98859E-09-2.19357E-01-4.85186E-13-1.94477E-12
 -1     15745 7.17318E-01 1.54926E+00 1.70859E-09-3.02220E-01-2.39921E-12-7.38291E-12
 -1     15750 7.37577E-01 1.52900E+00-2.99272E-09-2.87500E-01-6.09405E-12-1.88240E-11
 -1     15751 7.02775E-01 1.56380E+00-2.99421E-09-2.19357E-01 2.85975E-12 1.19777E-11
 -1     15752 7.17318E-01 1.54926E+00 1.67649E-09-3.02220E-01-1.19627E-11-3.68149E-11
 -1     15757 7.37577E-01 1.52900E+00-2.95820E-09-2.87500E-01 4.69094E-11 1.44399E-10
 -1     15761 8.45788E-01 1.42079E+00-2.95834E-09-3.95710E-01-6.89314E-11-1.35188E-10
 -1     15762 7.91631E-01 1.47494E+00-2.99414E-09-3.41657E-01-4.72773E-12-1.13512E-11
 -1     15763 8.31068E-01 1.43551E+00 1.67654E-09-4.15970E-01 1.75612E-11 3.45220E-11
 -1     15768 8.45788E-01 1.42079E+00-2.99281E-09-3.95710E-01 8.89640E-12 1.76442E-11
 -1     15769 7.91631E-01 1.47494E+00-2.98851E-09-3.41657E-01 7.56369E-13 1.84271E-12
 -1     15770 8.31068E-01 1.43551E+00 1.70864E-09-4.15970E-01 3.55177E-12 7.03681E-12
 -1     15775 8.45788E-01 1.42079E+00-2.91326E-09-3.95710E-01-2.32774E-12-4.61232E-12
 -1     15776 7.91631E-01 1.47494E+00-2.95048E-09-3.41657E-01-1.24551E-11-3.00428E-11
 -1     15777 8.31068E-01 1.43551E+00 1.67411E-09-4.15970E-01 1.31697E-11 2.58428E-11
 -1     15782 8.45788E-01 1.42079E+00-2.97380E-09-3.95710E-01-4.59458E-12-8.95548E-12
 -1     15783 7.91631E-01 1.47494E+00-2.94410E-09-3.41657E-01 4.84856E-12 1.18094E-11
 -1     15784 8.31068E-01 1.43551E+00 1.67771E-09-4.15970E-01-1.02095E-12-1.89554E-12
 -1     15789 8.45788E-01 1.42079E+00-2.93958E-09-3.95710E-01 1.98858E-12 3.85810E-12
 -1     15790 7.91631E-01 1.47494E+00-2.94012E-09-3.41657E-01-2.05217E-12-4.83453E-12
 -1     15791 8.31068E-01 1.43551E+00 1.67719E-09-4.15970E-01 1.72341E-12 3.36248E-12
 -1     15796 8.45788E-01 1.42079E+00-2.95062E-09-3.95710E-01 4.45262E-14 1.28244E-13
 -1     15797 7.91631E-01 1.47494E+00-2.94014E-09-3.41657E-01 2.00641E-12 4.87910E-12
 -1     15798 8.31068E-01 1.43551E+00 1.67724E-09-4.15970E-01-1.67300E-12-3.33691E-12
 -1     15803 8.45788E-01 1.42079E+00-2.93963E-09-3.95710E-01-1.97634E-12-3.88880E-12
 -1     15804 7.91631E-01 1.47494E+00-2.94412E-09-3.41657E-01-4.92151E-12-1.18277E-11
 -1     15805 8.31068E-01 1.43551E+00 1.67767E-09-4.15970E-01 9.53256E-13 1.84917E-12
 -1     15810 8.45788E-01 1.42079E+00-2.97386E-09-3.95710E-01 4.61173E-12 8.96433E-12
 -1     15811 7.91631E-01 1.47494E+00-2.95052E-09-3.41657E-01 1.24431E-11 3.00829E-11
 -1     15812 8.31068E-01 1.43551E+00 1.67409E-09-4.15970E-01-1.31542E-11-2.58120E-11
 -1     15817 8.45788E-01 1.42079E+00-2.91326E-09-3.95710E-01 2.36195E-12 4.60200E-12
 -1     15818 7.91631E-01 1.47494E+00-2.98850E-09-3.41657E-01-7.82490E-13-1.82951E-12
 -1     15819 8.31068E-01 1.43551E+00 1.70863E-09-4.15970E-01-3.56979E-12-6.98953E-12
 -1     15824 8.45788E-01 1.42079E+00-2.99277E-09-3.95710E-01-9.00701E-12-1.76028E-11
 -1     15825 7.91631E-01 1.47494E+00-2.99414E-09-3.41657E-01 4.67744E-12 1.13993E-11
 -1     15826 8.31068E-01 1.43551E+00 1.67653E-09-4.15970E-01-1.75859E-11-3.44437E-11
 -1     15831 8.45788E-01 1.42079E+00-2.95830E-09-3.95710E-01 6.89179E-11 1.35259E-10
 -1     15835 9.82140E-01 1.28444E+00-2.95805E-09-4.65186E-01-8.91508E-11-1.22825E-10
 -1     15836 9.13931E-01 1.35265E+00-2.99416E-09-4.30513E-01-6.42280E-12-1.05173E-11
 -1     15837 9.74402E-01 1.29217E+00 1.67644E-09-4.89002E-01 2.27843E-11 3.13125E-11
 -1     15842 9.82140E-01 1.28444E+00-2.99249E-09-4.65186E-01 1.16736E-11 1.59795E-11
 -1     15843 9.13931E-01 1.35265E+00-2.98849E-09-4.30513E-01 1.05574E-12 1.69576E-12
 -1     15844 9.74402E-01 1.29217E+00 1.70856E-09-4.89002E-01 4.61377E-12 6.33463E-12
 -1     15849 9.82140E-01 1.28444E+00-2.91296E-09-4.65186E-01-3.04702E-12-4.15389E-12
 -1     15850 9.13931E-01 1.35265E+00-2.95050E-09-4.30513E-01-1.69487E-11-2.77749E-11
 -1     15851 9.74402E-01 1.29217E+00 1.67402E-09-4.89002E-01 1.70659E-11 2.34221E-11
 -1     15856 9.82140E-01 1.28444E+00-2.97353E-09-4.65186E-01-5.83885E-12-8.18126E-12
 -1     15857 9.13931E-01 1.35265E+00-2.94410E-09-4.30513E-01 6.71643E-12 1.09082E-11
 -1     15858 9.74402E-01 1.29217E+00 1.67762E-09-4.89002E-01-1.17926E-12-1.70869E-12
 -1     15863 9.82140E-01 1.28444E+00-2.93936E-09-4.65186E-01 2.63056E-12 3.52889E-12
 -1     15864 9.13931E-01 1.35265E+00-2.94014E-09-4.30513E-01-2.74632E-12-4.49674E-12
 -1     15865 9.74402E-01 1.29217E+00 1.67716E-09-4.89002E-01 2.23527E-12 3.03707E-12
 -1     15870 9.82140E-01 1.28444E+00-2.95034E-09-4.65186E-01-5.62145E-14 1.24008E-14
 -1     15871 9.13931E-01 1.35265E+00-2.94013E-09-4.30513E-01 2.77115E-12 4.54195E-12
 -1     15872 9.74402E-01 1.29217E+00 1.67715E-09-4.89002E-01-2.22915E-12-3.02797E-12
 -1     15877 9.82140E-01 1.28444E+00-2.93934E-09-4.65186E-01-2.62182E-12-3.52155E-12
 -1     15878 9.13931E-01 1.35265E+00-2.94416E-09-4.30513E-01-6.73168E-12-1.08968E-11
 -1     15879 9.74402E-01 1.29217E+00 1.67760E-09-4.89002E-01 1.22188E-12 1.77159E-12
 -1     15884 9.82140E-01 1.28444E+00-2.97352E-09-4.65186E-01 5.91696E-12 8.12259E-12
 -1     15885 9.13931E-01 1.35265E+00-2.95051E-09-4.30513E-01 1.70244E-11 2.77314E-11
 -1     15886 9.74402E-01 1.29217E+00 1.67403E-09-4.89002E-01-1.70267E-11-2.34440E-11
 -1     15891 9.82140E-01 1.28444E+00-2.91294E-09-4.65186E-01 3.03335E-12 4.25942E-12
 -1     15892 9.13931E-01 1.35265E+00-2.98845E-09-4.30513E-01-1.06793E-12-1.68602E-12
 -1     15893 9.74402E-01 1.29217E+00 1.70858E-09-4.89002E-01-4.64826E-12-6.30527E-12
 -1     15898 9.82140E-01 1.28444E+00-2.99241E-09-4.65186E-01-1.17174E-11-1.59414E-11
 -1     15899 9.13931E-01 1.35265E+00-2.99414E-09-4.30513E-01 6.43517E-12 1.04839E-11
 -1     15900 9.74402E-01 1.29217E+00 1.67643E-09-4.89002E-01-2.27771E-11-3.13245E-11
 -1     15905 9.82140E-01 1.28444E+00-2.95803E-09-4.65186E-01 8.92035E-11 1.22812E-10
 -1     15909 1.13329E+00 1.13329E+00-2.95800E-09-4.89125E-01-1.07314E-10-1.07310E-10
 -1     15910 1.05770E+00 1.20887E+00-2.99443E-09-4.77227E-01-7.97383E-12-9.38308E-12
 -1     15911 1.13329E+00 1.13329E+00 1.67635E-09-5.14167E-01 2.73911E-11 2.73936E-11
 -1     15916 1.13329E+00 1.13329E+00-2.99239E-09-4.89125E-01 1.40486E-11 1.40048E-11
 -1     15917 1.05770E+00 1.20887E+00-2.98874E-09-4.77227E-01 1.28316E-12 1.52221E-12
 -1     15918 1.13329E+00 1.13329E+00 1.70847E-09-5.14167E-01 5.51893E-12 5.50894E-12
 -1     15923 1.13329E+00 1.13329E+00-2.91291E-09-4.89125E-01-3.64367E-12-3.77463E-12
 -1     15924 1.05770E+00 1.20887E+00-2.95077E-09-4.77227E-01-2.11263E-11-2.47392E-11
 -1     15925 1.13329E+00 1.13329E+00 1.67391E-09-5.14167E-01 2.04706E-11 2.05247E-11
 -1     15930 1.13329E+00 1.13329E+00-2.97352E-09-4.89125E-01-7.10145E-12-7.05020E-12
 -1     15931 1.05770E+00 1.20887E+00-2.94434E-09-4.77227E-01 8.31316E-12 9.75961E-12
 -1     15932 1.13329E+00 1.13329E+00 1.67751E-09-5.14167E-01-1.53387E-12-1.50006E-12
 -1     15937 1.13329E+00 1.13329E+00-2.93932E-09-4.89125E-01 3.03928E-12 3.04649E-12
 -1     15938 1.05770E+00 1.20887E+00-2.94039E-09-4.77227E-01-3.38352E-12-4.04664E-12
 -1     15939 1.13329E+00 1.13329E+00 1.67699E-09-5.14167E-01 2.67424E-12 2.62858E-12
 -1     15944 1.13329E+00 1.13329E+00-2.95036E-09-4.89125E-01 1.73806E-16-2.76576E-14
 -1     15945 1.05770E+00 1.20887E+00-2.94040E-09-4.77227E-01 3.38953E-12 4.05982E-12
 -1     15946 1.13329E+00 1.13329E+00 1.67698E-09-5.14167E-01-2.73972E-12-2.68012E-12
 -1     15951 1.13329E+00 1.13329E+00-2.93934E-09-4.89125E-01-3.24606E-12-3.10158E-12
 -1     15952 1.05770E+00 1.20887E+00-2.94433E-09-4.77227E-01-8.35771E-12-9.73017E-12
 -1     15953 1.13329E+00 1.13329E+00 1.67745E-09-5.14167E-01 1.43200E-12 1.57854E-12
 -1     15958 1.13329E+00 1.13329E+00-2.97348E-09-4.89125E-01 7.08386E-12 7.21592E-12
 -1     15959 1.05770E+00 1.20887E+00-2.95077E-09-4.77227E-01 2.11453E-11 2.47542E-11
 -1     15960 1.13329E+00 1.13329E+00 1.67393E-09-5.14167E-01-2.05272E-11-2.04652E-11
 -1     15965 1.13329E+00 1.13329E+00-2.91295E-09-4.89125E-01 3.61060E-12 3.65321E-12
 -1     15966 1.05770E+00 1.20887E+00-2.98875E-09-4.77227E-01-1.31344E-12-1.57691E-12
 -1     15967 1.13329E+00 1.13329E+00 1.70847E-09-5.14167E-01-5.52034E-12-5.57239E-12
 -1     15972 1.13329E+00 1.13329E+00-2.99247E-09-4.89125E-01-1.39575E-11-1.40427E-11
 -1     15973 1.05770E+00 1.20887E+00-2.99440E-09-4.77227E-01 8.01587E-12 9.40137E-12
 -1     15974 1.13329E+00 1.13329E+00 1.67633E-09-5.14167E-01-2.73835E-11-2.73566E-11
 -1     15979 1.13329E+00 1.13329E+00-2.95801E-09-4.89125E-01 1.07281E-10 1.07317E-10
 -1     15983 1.28444E+00 9.82140E-01-2.95854E-09-4.65186E-01-1.22857E-10-8.92615E-11
 -1     15984 1.20887E+00 1.05770E+00-2.99419E-09-4.77227E-01-9.38518E-12-7.98132E-12
 -1     15985 1.29217E+00 9.74402E-01 1.67663E-09-4.89002E-01 3.12487E-11 2.27441E-11
 -1     15990 1.28444E+00 9.82140E-01-2.99305E-09-4.65186E-01 1.59339E-11 1.15909E-11
 -1     15991 1.20887E+00 1.05770E+00-2.98852E-09-4.77227E-01 1.54806E-12 1.30894E-12
 -1     15992 1.29217E+00 9.74402E-01 1.70875E-09-4.89002E-01 6.33643E-12 4.62383E-12
 -1     15997 1.28444E+00 9.82140E-01-2.91352E-09-4.65186E-01-4.30225E-12-3.05109E-12
 -1     15998 1.20887E+00 1.05770E+00-2.95057E-09-4.77227E-01-2.47912E-11-2.10918E-11
 -1     15999 1.29217E+00 9.74402E-01 1.67418E-09-4.89002E-01 2.33861E-11 1.70291E-11
 -1     16004 1.28444E+00 9.82140E-01-2.97418E-09-4.65186E-01-8.28999E-12-5.87679E-12
 -1     16005 1.20887E+00 1.05770E+00-2.94413E-09-4.77227E-01 9.72968E-12 8.36051E-12
 -1     16006 1.29217E+00 9.74402E-01 1.67771E-09-4.89002E-01-1.75224E-12-1.21641E-12
 -1     16011 1.28444E+00 9.82140E-01-2.93998E-09-4.65186E-01 3.53066E-12 2.63540E-12
 -1     16012 1.20887E+00 1.05770E+00-2.94017E-09-4.77227E-01-4.04738E-12-3.42800E-12
 -1     16013 1.29217E+00 9.74402E-01 1.67725E-09-4.89002E-01 3.08468E-12 2.25862E-12
 -1     16018 1.28444E+00 9.82140E-01-2.95097E-09-4.65186E-01 3.75498E-14 1.74272E-14
 -1     16019 1.20887E+00 1.05770E+00-2.94019E-09-4.77227E-01 3.98506E-12 3.42182E-12
 -1     16020 1.29217E+00 9.74402E-01 1.67729E-09-4.89002E-01-3.01891E-12-2.18373E-12
 -1     16025 1.28444E+00 9.82140E-01-2.93993E-09-4.65186E-01-3.45914E-12-2.52469E-12
 -1     16026 1.20887E+00 1.05770E+00-2.94411E-09-4.77227E-01-9.75796E-12-8.31182E-12
 -1     16027 1.29217E+00 9.74402E-01 1.67778E-09-4.89002E-01 1.76570E-12 1.22435E-12
 -1     16032 1.28444E+00 9.82140E-01-2.97415E-09-4.65186E-01 8.13987E-12 5.89982E-12
 -1     16033 1.20887E+00 1.05770E+00-2.95055E-09-4.77227E-01 2.46950E-11 2.11338E-11
 -1     16034 1.29217E+00 9.74402E-01 1.67419E-09-4.89002E-01-2.34104E-11-1.70758E-11
 -1     16039 1.28444E+00 9.82140E-01-2.91350E-09-4.65186E-01 4.26965E-12 3.11337E-12
 -1     16040 1.20887E+00 1.05770E+00-2.98855E-09-4.77227E-01-1.53198E-12-1.34524E-12
 -1     16041 1.29217E+00 9.74402E-01 1.70874E-09-4.89002E-01-6.32431E-12-4.59295E-12
 -1     16046 1.28444E+00 9.82140E-01-2.99313E-09-4.65186E-01-1.59314E-11-1.15851E-11
 -1     16047 1.20887E+00 1.05770E+00-2.99421E-09-4.77227E-01 9.34467E-12 7.99282E-12
 -1     16048 1.29217E+00 9.74402E-01 1.67662E-09-4.89002E-01-3.12820E-11-2.27805E-11
 -1     16053 1.28444E+00 9.82140E-01-2.95855E-09-4.65186E-01 1.22806E-10 8.92203E-11
 -1     16057 1.42079E+00 8.45788E-01-2.95837E-09-3.95710E-01-1.35228E-10-6.88538E-11
 -1     16058 1.35265E+00 9.13931E-01-2.99379E-09-4.30513E-01-1.04520E-11-6.44043E-12
 -1     16059 1.43551E+00 8.31068E-01 1.67661E-09-4.15970E-01 3.44797E-11 1.75984E-11
 -1     16064 1.42079E+00 8.45788E-01-2.99275E-09-3.95710E-01 1.76098E-11 9.02389E-12
 -1     16065 1.35265E+00 9.13931E-01-2.98818E-09-4.30513E-01 1.78223E-12 9.94951E-13
 -1     16066 1.43551E+00 8.31068E-01 1.70868E-09-4.15970E-01 7.04534E-12 3.57987E-12
 -1     16071 1.42079E+00 8.45788E-01-2.91324E-09-3.95710E-01-4.57252E-12-2.32561E-12
 -1     16072 1.35265E+00 9.13931E-01-2.95019E-09-4.30513E-01-2.76738E-11-1.70165E-11
 -1     16073 1.43551E+00 8.31068E-01 1.67421E-09-4.15970E-01 2.58861E-11 1.31833E-11
 -1     16078 1.42079E+00 8.45788E-01-2.97378E-09-3.95710E-01-8.88918E-12-4.60357E-12
 -1     16079 1.35265E+00 9.13931E-01-2.94376E-09-4.30513E-01 1.09522E-11 6.67023E-12
 -1     16080 1.43551E+00 8.31068E-01 1.67775E-09-4.15970E-01-1.82988E-12-9.76619E-13
 -1     16085 1.42079E+00 8.45788E-01-2.93961E-09-3.95710E-01 3.98020E-12 2.00958E-12
 -1     16086 1.35265E+00 9.13931E-01-2.93987E-09-4.30513E-01-4.50421E-12-2.77053E-12
 -1     16087 1.43551E+00 8.31068E-01 1.67733E-09-4.15970E-01 3.35340E-12 1.72371E-12
 -1     16092 1.42079E+00 8.45788E-01-2.95066E-09-3.95710E-01-2.68968E-14 5.08004E-14
 -1     16093 1.35265E+00 9.13931E-01-2.93986E-09-4.30513E-01 4.51757E-12 2.82899E-12
 -1     16094 1.43551E+00 8.31068E-01 1.67730E-09-4.15970E-01-3.32034E-12-1.65163E-12
 -1     16099 1.42079E+00 8.45788E-01-2.93966E-09-3.95710E-01-3.91189E-12-1.94193E-12
 -1     16100 1.35265E+00 9.13931E-01-2.94375E-09-4.30513E-01-1.09482E-11-6.67454E-12
 -1     16101 1.43551E+00 8.31068E-01 1.67780E-09-4.15970E-01 1.86309E-12 9.95401E-13
 -1     16106 1.42079E+00 8.45788E-01-2.97379E-09-3.95710E-01 8.91976E-12 4.52364E-12
 -1     16107 1.35265E+00 9.13931E-01-2.95015E-09-4.30513E-01 2.77019E-11 1.69996E-11
 -1     16108 1.43551E+00 8.31068E-01 1.67418E-09-4.15970E-01-2.58345E-11-1.31327E-11
 -1     16113 1.42079E+00 8.45788E-01-2.91322E-09-3.95710E-01 4.71718E-12 2.31380E-12
 -1     16114 1.35265E+00 9.13931E-01-2.98818E-09-4.30513E-01-1.68616E-12-9.89788E-13
 -1     16115 1.43551E+00 8.31068E-01 1.70876E-09-4.15970E-01-6.90489E-12-3.56876E-12
 -1     16120 1.42079E+00 8.45788E-01-2.99276E-09-3.95710E-01-1.75847E-11-9.03341E-12
 -1     16121 1.35265E+00 9.13931E-01-2.99379E-09-4.30513E-01 1.04621E-11 6.44939E-12
 -1     16122 1.43551E+00 8.31068E-01 1.67660E-09-4.15970E-01-3.44875E-11-1.75701E-11
 -1     16127 1.42079E+00 8.45788E-01-2.95836E-09-3.95710E-01 1.35206E-10 6.89356E-11
 -1     16131 1.52900E+00 7.37577E-01-2.95751E-09-2.87500E-01-1.44201E-10-4.69262E-11
 -1     16132 1.47494E+00 7.91631E-01-2.99440E-09-3.41657E-01-1.14078E-11-4.72874E-12
 -1     16133 1.54926E+00 7.17318E-01 1.67619E-09-3.02220E-01 3.68891E-11 1.19694E-11
 -1     16138 1.52900E+00 7.37577E-01-2.99200E-09-2.87500E-01 1.88752E-11 6.10709E-12
 -1     16139 1.47494E+00 7.91631E-01-2.98880E-09-3.41657E-01 1.92071E-12 7.34804E-13
 -1     16140 1.54926E+00 7.17318E-01 1.70835E-09-3.02220E-01 7.54603E-12 2.41917E-12
 -1     16145 1.52900E+00 7.37577E-01-2.91247E-09-2.87500E-01-4.85096E-12-1.59809E-12
 -1     16146 1.47494E+00 7.91631E-01-2.95078E-09-3.41657E-01-3.00706E-11-1.24922E-11
 -1     16147 1.54926E+00 7.17318E-01 1.67383E-09-3.02220E-01 2.76105E-11 8.93808E-12
 -1     16152 1.52900E+00 7.37577E-01-2.97299E-09-2.87500E-01-9.45297E-12-3.11207E-12
 -1     16153 1.47494E+00 7.91631E-01-2.94439E-09-3.41657E-01 1.18682E-11 4.90562E-12
 -1     16154 1.54926E+00 7.17318E-01 1.67741E-09-3.02220E-01-1.94632E-12-6.36398E-13
 -1     16159 1.52900E+00 7.37577E-01-2.93884E-09-2.87500E-01 4.23280E-12 1.39184E-12
 -1     16160 1.47494E+00 7.91631E-01-2.94046E-09-3.41657E-01-4.87389E-12-2.02030E-12
 -1     16161 1.54926E+00 7.17318E-01 1.67695E-09-3.02220E-01 3.56756E-12 1.17507E-12
 -1     16166 1.52900E+00 7.37577E-01-2.94975E-09-2.87500E-01-3.28257E-14 1.58884E-14
 -1     16167 1.47494E+00 7.91631E-01-2.94047E-09-3.41657E-01 4.90183E-12 2.10348E-12
 -1     16168 1.54926E+00 7.17318E-01 1.67691E-09-3.02220E-01-3.69024E-12-1.17566E-12
 -1     16173 1.52900E+00 7.37577E-01-2.93879E-09-2.87500E-01-4.29308E-12-1.37815E-12
 -1     16174 1.47494E+00 7.91631E-01-2.94441E-09-3.41657E-01-1.19038E-11-4.86692E-12
 -1     16175 1.54926E+00 7.17318E-01 1.67738E-09-3.02220E-01 1.95859E-12 6.29179E-13
 -1     16180 1.52900E+00 7.37577E-01-2.97302E-09-2.87500E-01 9.41641E-12 3.10237E-12
 -1     16181 1.47494E+00 7.91631E-01-2.95082E-09-3.41657E-01 3.00554E-11 1.25265E-11
 -1     16182 1.54926E+00 7.17318E-01 1.67378E-09-3.02220E-01-2.75972E-11-8.96967E-12
 -1     16187 1.52900E+00 7.37577E-01-2.91247E-09-2.87500E-01 4.88632E-12 1.58239E-12
 -1     16188 1.47494E+00 7.91631E-01-2.98879E-09-3.41657E-01-1.89218E-12-7.62379E-13
 -1     16189 1.54926E+00 7.17318E-01 1.70828E-09-3.02220E-01-7.49933E-12-2.42738E-12
 -1     16194 1.52900E+00 7.37577E-01-2.99194E-09-2.87500E-01-1.89858E-11-6.13373E-12
 -1     16195 1.47494E+00 7.91631E-01-2.99444E-09-3.41657E-01 1.13606E-11 4.76650E-12
 -1     16196 1.54926E+00 7.17318E-01 1.67619E-09-3.02220E-01-3.69878E-11-1.19614E-11
 -1     16201 1.52900E+00 7.37577E-01-2.95756E-09-2.87500E-01 1.44213E-10 4.69104E-11
 -1     16205 1.59847E+00 6.68102E-01-2.95817E-09-1.51148E-01-1.49973E-10-2.38384E-11
 -1     16206 1.56380E+00 7.02775E-01-2.99459E-09-2.19357E-01-1.20838E-11-2.81376E-12
 -1     16207 1.62229E+00 6.44286E-01 1.67631E-09-1.58886E-01 3.81691E-11 5.99534E-12
 -1     16212 1.59847E+00 6.68102E-01-2.99270E-09-1.51148E-01 1.95371E-11 3.01648E-12
 -1     16213 1.56380E+00 7.02775E-01-2.98896E-09-2.19357E-01 1.98133E-12 5.42833E-13
 -1     16214 1.62229E+00 6.44286E-01 1.70845E-09-1.58886E-01 7.61946E-12 1.18685E-12
 -1     16219 1.59847E+00 6.68102E-01-2.91319E-09-1.51148E-01-5.18525E-12-8.70770E-13
 -1     16220 1.56380E+00 7.02775E-01-2.95096E-09-2.19357E-01-3.16917E-11-7.56281E-12
 -1     16221 1.62229E+00 6.44286E-01 1.67387E-09-1.58886E-01 2.85940E-11 4.51598E-12
 -1     16226 1.59847E+00 6.68102E-01-2.97377E-09-1.51148E-01-9.98402E-12-1.60451E-12
 -1     16227 1.56380E+00 7.02775E-01-2.94456E-09-2.19357E-01 1.24894E-11 3.03239E-12
 -1     16228 1.62229E+00 6.44286E-01 1.67744E-09-1.58886E-01-2.14720E-12-3.41622E-13
 -1     16233 1.59847E+00 6.68102E-01-2.93961E-09-1.51148E-01 4.30545E-12 6.69593E-13
 -1     16234 1.56380E+00 7.02775E-01-2.94061E-09-2.19357E-01-5.15367E-12-1.23668E-12
 -1     16235 1.62229E+00 6.44286E-01 1.67691E-09-1.58886E-01 3.78525E-12 5.91949E-13
 -1     16240 1.59847E+00 6.68102E-01-2.95071E-09-1.51148E-01 6.56163E-14-1.84715E-15
 -1     16241 1.56380E+00 7.02775E-01-2.94065E-09-2.19357E-01 5.16699E-12 1.21213E-12
 -1     16242 1.62229E+00 6.44286E-01 1.67694E-09-1.58886E-01-3.69570E-12-5.96211E-13
 -1     16247 1.59847E+00 6.68102E-01-2.93969E-09-1.51148E-01-4.31252E-12-6.70189E-13
 -1     16248 1.56380E+00 7.02775E-01-2.94459E-09-2.19357E-01-1.24366E-11-3.03147E-12
 -1     16249 1.62229E+00 6.44286E-01 1.67738E-09-1.58886E-01 2.16121E-12 3.32069E-13
 -1     16254 1.59847E+00 6.68102E-01-2.97386E-09-1.51148E-01 9.99855E-12 1.58695E-12
 -1     16255 1.56380E+00 7.02775E-01-2.95100E-09-2.19357E-01 3.16628E-11 7.55586E-12
 -1     16256 1.62229E+00 6.44286E-01 1.67380E-09-1.58886E-01-2.85954E-11-4.52699E-12
 -1     16261 1.59847E+00 6.68102E-01-2.91331E-09-1.51148E-01 5.15246E-12 8.60382E-13
 -1     16262 1.56380E+00 7.02775E-01-2.98894E-09-2.19357E-01-1.92986E-12-5.56383E-13
 -1     16263 1.62229E+00 6.44286E-01 1.70842E-09-1.58886E-01-7.74547E-12-1.20016E-12
 -1     16268 1.59847E+00 6.68102E-01-2.99275E-09-1.51148E-01-1.95400E-11-2.99469E-12
 -1     16269 1.56380E+00 7.02775E-01-2.99461E-09-2.19357E-01 1.20055E-11 2.81752E-12
 -1     16270 1.62229E+00 6.44286E-01 1.67631E-09-1.58886E-01-3.82671E-11-6.00022E-12
 -1     16275 1.59847E+00 6.68102E-01-2.95818E-09-1.51148E-01 1.49860E-10 2.38191E-11
 -1     16279 1.61052E+00 6.56061E-01-2.99375E-09-7.55854E-02-1.22584E-11-9.22808E-13
 -1     16283 1.61052E+00 6.56061E-01-2.98807E-09-7.55854E-02 1.93272E-12 1.94919E-13
 -1     16287 1.61052E+00 6.56061E-01-2.95007E-09-7.55854E-02-3.23849E-11-2.52410E-12
 -1     16291 1.61052E+00 6.56061E-01-2.94363E-09-7.55854E-02 1.27208E-11 1.01261E-12
 -1     16295 1.61052E+00 6.56061E-01-2.93967E-09-7.55854E-02-5.21616E-12-4.26830E-13
 -1     16299 1.61052E+00 6.56061E-01-2.93972E-09-7.55854E-02 5.28309E-12 3.94372E-13
 -1     16303 1.61052E+00 6.56061E-01-2.94364E-09-7.55854E-02-1.27687E-11-1.04268E-12
 -1     16307 1.61052E+00 6.56061E-01-2.95008E-09-7.55854E-02 3.23946E-11 2.50061E-12
 -1     16311 1.61052E+00 6.56061E-01-2.98806E-09-7.55854E-02-1.99715E-12-2.19208E-13
 -1     16315 1.61052E+00 6.56061E-01-2.99374E-09-7.55854E-02 1.22563E-11 9.04843E-13
 -1     16321 7.09388E-01 1.55719E+00-2.38282E-09-1.37734E-01-1.54481E-11-9.74715E-11
 -1     16322 6.98415E-01 1.56816E+00-2.35166E-09-6.88771E-02 5.36623E-12 6.82520E-11
 -1     16323 6.88741E-01 1.57783E+00 1.30478E-09-1.44442E-01-6.59279E-12-4.14326E-11
 -1     16328 7.09388E-01 1.55719E+00-2.35575E-09-1.37734E-01 4.75605E-12 3.01478E-11
 -1     16329 6.98415E-01 1.56816E+00-2.33893E-09-6.88771E-02 4.77195E-13 6.09364E-12
 -1     16330 6.88741E-01 1.57783E+00 1.28914E-09-1.44442E-01-1.47306E-12-9.12567E-12
 -1     16335 7.09388E-01 1.55719E+00-2.33264E-09-1.37734E-01-5.62100E-13-3.47948E-12
 -1     16336 6.98415E-01 1.56816E+00-2.34670E-09-6.88771E-02-6.87813E-13-8.73788E-12
 -1     16337 6.88741E-01 1.57783E+00 1.29636E-09-1.44442E-01 7.21647E-13 4.62712E-12
 -1     16342 7.09388E-01 1.55719E+00-2.36037E-09-1.37734E-01-2.49285E-13-1.52119E-12
 -1     16343 6.98415E-01 1.56816E+00-2.35141E-09-6.88771E-02 6.20776E-13 7.95798E-12
 -1     16344 6.88741E-01 1.57783E+00 1.30122E-09-1.44442E-01-7.86001E-13-4.74776E-12
 -1     16349 7.09388E-01 1.55719E+00-2.34312E-09-1.37734E-01 3.25883E-13 2.42811E-12
 -1     16350 6.98415E-01 1.56816E+00-2.35078E-09-6.88771E-02-3.54231E-13-4.32876E-12
 -1     16351 6.88741E-01 1.57783E+00 1.29982E-09-1.44442E-01 3.12962E-13 2.15794E-12
 -1     16356 7.09388E-01 1.55719E+00-2.35263E-09-1.37734E-01-1.16151E-14-1.03067E-13
 -1     16357 6.98415E-01 1.56816E+00-2.35078E-09-6.88771E-02 3.24692E-13 4.30516E-12
 -1     16358 6.88741E-01 1.57783E+00 1.29972E-09-1.44442E-01-3.61650E-13-2.10802E-12
 -1     16363 7.09388E-01 1.55719E+00-2.34314E-09-1.37734E-01-3.81673E-13-2.22829E-12
 -1     16364 6.98415E-01 1.56816E+00-2.35142E-09-6.88771E-02-6.50403E-13-7.96129E-12
 -1     16365 6.88741E-01 1.57783E+00 1.30129E-09-1.44442E-01 7.18969E-13 4.83142E-12
 -1     16370 7.09388E-01 1.55719E+00-2.36045E-09-1.37734E-01 1.97762E-13 1.58127E-12
 -1     16371 6.98415E-01 1.56816E+00-2.34671E-09-6.88771E-02 6.78209E-13 8.71212E-12
 -1     16372 6.88741E-01 1.57783E+00 1.29624E-09-1.44442E-01-7.64644E-13-4.65157E-12
 -1     16377 7.09388E-01 1.55719E+00-2.33268E-09-1.37734E-01 5.16938E-13 3.50232E-12
 -1     16378 6.98415E-01 1.56816E+00-2.33892E-09-6.88771E-02-4.84797E-13-6.10049E-12
 -1     16379 6.88741E-01 1.57783E+00 1.28912E-09-1.44442E-01 1.41012E-12 9.08613E-12
 -1     16384 7.09388E-01 1.55719E+00-2.35576E-09-1.37734E-01-4.77538E-12-3.01240E-11
 -1     16385 6.98415E-01 1.56816E+00-2.35164E-09-6.88771E-02-5.37185E-12-6.82433E-11
 -1     16386 6.88741E-01 1.57783E+00 1.30478E-09-1.44442E-01 6.56688E-12 4.14277E-11
 -1     16391 7.09388E-01 1.55719E+00-2.38281E-09-1.37734E-01 1.54492E-11 9.74113E-11
 -1     16395 7.72697E-01 1.49388E+00-2.38289E-09-2.61985E-01-3.05372E-11-9.38343E-11
 -1     16396 7.40983E-01 1.52559E+00-2.35171E-09-1.99889E-01 1.59599E-11 6.65675E-11
 -1     16397 7.55134E-01 1.51144E+00 1.30488E-09-2.74745E-01-1.30106E-11-3.99603E-11
 -1     16402 7.72697E-01 1.49388E+00-2.35577E-09-2.61985E-01 9.36186E-12 2.90064E-11
 -1     16403 7.40983E-01 1.52559E+00-2.33899E-09-1.99889E-01 1.41660E-12 5.94525E-12
 -1     16404 7.55134E-01 1.51144E+00 1.28920E-09-2.74745E-01-2.86845E-12-8.81521E-12
 -1     16409 7.72697E-01 1.49388E+00-2.33270E-09-2.61985E-01-1.14003E-12-3.39310E-12
 -1     16410 7.40983E-01 1.52559E+00-2.34676E-09-1.99889E-01-2.07089E-12-8.50864E-12
 -1     16411 7.55134E-01 1.51144E+00 1.29631E-09-2.74745E-01 1.42636E-12 4.47433E-12
 -1     16416 7.72697E-01 1.49388E+00-2.36046E-09-2.61985E-01-5.19107E-13-1.52237E-12
 -1     16417 7.40983E-01 1.52559E+00-2.35148E-09-1.99889E-01 1.83070E-12 7.79980E-12
 -1     16418 7.55134E-01 1.51144E+00 1.30132E-09-2.74745E-01-1.54167E-12-4.70580E-12
 -1     16423 7.72697E-01 1.49388E+00-2.34316E-09-2.61985E-01 6.85667E-13 2.06845E-12
 -1     16424 7.40983E-01 1.52559E+00-2.35085E-09-1.99889E-01-1.04949E-12-4.22692E-12
 -1     16425 7.55134E-01 1.51144E+00 1.29981E-09-2.74745E-01 6.15687E-13 1.97286E-12
 -1     16430 7.72697E-01 1.49388E+00-2.35264E-09-2.61985E-01-2.09339E-14 8.20674E-15
 -1     16431 7.40983E-01 1.52559E+00-2.35086E-09-1.99889E-01 9.91827E-13 4.25995E-12
 -1     16432 7.55134E-01 1.51144E+00 1.29981E-09-2.74745E-01-7.00271E-13-2.02297E-12
 -1     16437 7.72697E-01 1.49388E+00-2.34317E-09-2.61985E-01-7.35158E-13-2.13383E-12
 -1     16438 7.40983E-01 1.52559E+00-2.35148E-09-1.99889E-01-1.89436E-12-7.72347E-12
 -1     16439 7.55134E-01 1.51144E+00 1.30132E-09-2.74745E-01 1.49232E-12 4.65628E-12
 -1     16444 7.72697E-01 1.49388E+00-2.36045E-09-2.61985E-01 4.67899E-13 1.42701E-12
 -1     16445 7.40983E-01 1.52559E+00-2.34681E-09-1.99889E-01 2.02456E-12 8.49234E-12
 -1     16446 7.55134E-01 1.51144E+00 1.29635E-09-2.74745E-01-1.47507E-12-4.43850E-12
 -1     16451 7.72697E-01 1.49388E+00-2.33268E-09-2.61985E-01 1.10269E-12 3.38859E-12
 -1     16452 7.40983E-01 1.52559E+00-2.33900E-09-1.99889E-01-1.46283E-12-5.94209E-12
 -1     16453 7.55134E-01 1.51144E+00 1.28910E-09-2.74745E-01 2.83172E-12 8.77599E-12
 -1     16458 7.72697E-01 1.49388E+00-2.35574E-09-2.61985E-01-9.44309E-12-2.89694E-11
 -1     16459 7.40983E-01 1.52559E+00-2.35173E-09-1.99889E-01-1.59828E-11-6.65612E-11
 -1     16460 7.55134E-01 1.51144E+00 1.30489E-09-2.74745E-01 1.29913E-11 3.99490E-11
 -1     16465 7.72697E-01 1.49388E+00-2.38285E-09-2.61985E-01 3.05128E-11 9.38804E-11
 -1     16469 8.71303E-01 1.39527E+00-2.38303E-09-3.60591E-01-4.48126E-11-8.78898E-11
 -1     16470 8.21953E-01 1.44462E+00-2.35165E-09-3.11335E-01 2.61966E-11 6.31928E-11
 -1     16471 8.58543E-01 1.40803E+00 1.30497E-09-3.78154E-01-1.90643E-11-3.73398E-11
 -1     16476 8.71303E-01 1.39527E+00-2.35589E-09-3.60591E-01 1.38600E-11 2.72437E-11
 -1     16477 8.21953E-01 1.44462E+00-2.33891E-09-3.11335E-01 2.35264E-12 5.68807E-12
 -1     16478 8.58543E-01 1.40803E+00 1.28933E-09-3.78154E-01-4.18728E-12-8.13555E-12
 -1     16483 8.71303E-01 1.39527E+00-2.33273E-09-3.60591E-01-1.63558E-12-3.19393E-12
 -1     16484 8.21953E-01 1.44462E+00-2.34672E-09-3.11335E-01-3.35552E-12-8.07808E-12
 -1     16485 8.58543E-01 1.40803E+00 1.29654E-09-3.78154E-01 2.14819E-12 4.18292E-12
 -1     16490 8.71303E-01 1.39527E+00-2.36046E-09-3.60591E-01-7.19385E-13-1.36763E-12
 -1     16491 8.21953E-01 1.44462E+00-2.35136E-09-3.11335E-01 3.06745E-12 7.37435E-12
 -1     16492 8.58543E-01 1.40803E+00 1.30152E-09-3.78154E-01-2.21750E-12-4.34622E-12
 -1     16497 8.71303E-01 1.39527E+00-2.34324E-09-3.60591E-01 1.02770E-12 2.05427E-12
 -1     16498 8.21953E-01 1.44462E+00-2.35079E-09-3.11335E-01-1.65863E-12-4.02064E-12
 -1     16499 8.58543E-01 1.40803E+00 1.30004E-09-3.78154E-01 9.68481E-13 1.97724E-12
 -1     16504 8.71303E-01 1.39527E+00-2.35271E-09-3.60591E-01 1.08755E-14 1.55373E-14
 -1     16505 8.21953E-01 1.44462E+00-2.35076E-09-3.11335E-01 1.64636E-12 4.00254E-12
 -1     16506 8.58543E-01 1.40803E+00 1.30000E-09-3.78154E-01-9.19067E-13-1.84735E-12
 -1     16511 8.71303E-01 1.39527E+00-2.34320E-09-3.60591E-01-1.01052E-12-1.97197E-12
 -1     16512 8.21953E-01 1.44462E+00-2.35140E-09-3.11335E-01-3.05272E-12-7.35206E-12
 -1     16513 8.58543E-01 1.40803E+00 1.30151E-09-3.78154E-01 2.22469E-12 4.39186E-12
 -1     16518 8.71303E-01 1.39527E+00-2.36051E-09-3.60591E-01 6.88690E-13 1.47249E-12
 -1     16519 8.21953E-01 1.44462E+00-2.34673E-09-3.11335E-01 3.35846E-12 8.10594E-12
 -1     16520 8.58543E-01 1.40803E+00 1.29649E-09-3.78154E-01-2.12302E-12-4.21202E-12
 -1     16525 8.71303E-01 1.39527E+00-2.33281E-09-3.60591E-01 1.61662E-12 3.08758E-12
 -1     16526 8.21953E-01 1.44462E+00-2.33891E-09-3.11335E-01-2.34662E-12-5.65506E-12
 -1     16527 8.58543E-01 1.40803E+00 1.28929E-09-3.78154E-01 4.16395E-12 8.15365E-12
 -1     16532 8.71303E-01 1.39527E+00-2.35597E-09-3.60591E-01-1.37972E-11-2.71667E-11
 -1     16533 8.21953E-01 1.44462E+00-2.35167E-09-3.11335E-01-2.62027E-11-6.32195E-11
 -1     16534 8.58543E-01 1.40803E+00 1.30491E-09-3.78154E-01 1.90559E-11 3.74092E-11
 -1     16539 8.71303E-01 1.39527E+00-2.38308E-09-3.60591E-01 4.48260E-11 8.79569E-11
 -1     16543 9.95554E-01 1.27102E+00-2.38268E-09-4.23900E-01-5.79355E-11-7.97943E-11
 -1     16544 9.33399E-01 1.33318E+00-2.35156E-09-3.92305E-01 3.57807E-11 5.83007E-11
 -1     16545 9.88846E-01 1.27773E+00 1.30485E-09-4.44547E-01-2.46150E-11-3.40162E-11
 -1     16550 9.95554E-01 1.27102E+00-2.35546E-09-4.23900E-01 1.79750E-11 2.45839E-11
 -1     16551 9.33399E-01 1.33318E+00-2.33884E-09-3.92305E-01 3.23794E-12 5.19309E-12
 -1     16552 9.88846E-01 1.27773E+00 1.28918E-09-4.44547E-01-5.35714E-12-7.46959E-12
 -1     16557 9.95554E-01 1.27102E+00-2.33236E-09-4.23900E-01-2.06258E-12-2.81780E-12
 -1     16558 9.33399E-01 1.33318E+00-2.34664E-09-3.92305E-01-4.58714E-12-7.48631E-12
 -1     16559 9.88846E-01 1.27773E+00 1.29639E-09-4.44547E-01 2.79401E-12 3.87095E-12
 -1     16564 9.95554E-01 1.27102E+00-2.36012E-09-4.23900E-01-9.13294E-13-1.25529E-12
 -1     16565 9.33399E-01 1.33318E+00-2.35133E-09-3.92305E-01 4.17894E-12 6.81972E-12
 -1     16566 9.88846E-01 1.27773E+00 1.30139E-09-4.44547E-01-2.85508E-12-3.93332E-12
 -1     16571 9.95554E-01 1.27102E+00-2.34275E-09-4.23900E-01 1.33474E-12 1.87877E-12
 -1     16572 9.33399E-01 1.33318E+00-2.35074E-09-3.92305E-01-2.28269E-12-3.71077E-12
 -1     16573 9.88846E-01 1.27773E+00 1.29994E-09-4.44547E-01 1.24449E-12 1.66238E-12
 -1     16578 9.95554E-01 1.27102E+00-2.35225E-09-4.23900E-01 4.25527E-14-3.65618E-14
 -1     16579 9.33399E-01 1.33318E+00-2.35072E-09-3.92305E-01 2.28494E-12 3.71298E-12
 -1     16580 9.88846E-01 1.27773E+00 1.29993E-09-4.44547E-01-1.22777E-12-1.65864E-12
 -1     16585 9.95554E-01 1.27102E+00-2.34280E-09-4.23900E-01-1.29317E-12-1.77482E-12
 -1     16586 9.33399E-01 1.33318E+00-2.35133E-09-3.92305E-01-4.15633E-12-6.77038E-12
 -1     16587 9.88846E-01 1.27773E+00 1.30145E-09-4.44547E-01 2.85892E-12 3.96808E-12
 -1     16592 9.95554E-01 1.27102E+00-2.36006E-09-4.23900E-01 8.81382E-13 1.17544E-12
 -1     16593 9.33399E-01 1.33318E+00-2.34664E-09-3.92305E-01 4.56898E-12 7.49773E-12
 -1     16594 9.88846E-01 1.27773E+00 1.29641E-09-4.44547E-01-2.78520E-12-3.81854E-12
 -1     16599 9.95554E-01 1.27102E+00-2.33239E-09-4.23900E-01 2.07170E-12 2.92444E-12
 -1     16600 9.33399E-01 1.33318E+00-2.33887E-09-3.92305E-01-3.21032E-12-5.19200E-12
 -1     16601 9.88846E-01 1.27773E+00 1.28921E-09-4.44547E-01 5.38417E-12 7.54987E-12
 -1     16606 9.95554E-01 1.27102E+00-2.35557E-09-4.23900E-01-1.79561E-11-2.46778E-11
 -1     16607 9.33399E-01 1.33318E+00-2.35160E-09-3.92305E-01-3.57749E-11-5.83129E-11
 -1     16608 9.88846E-01 1.27773E+00 1.30484E-09-4.44547E-01 2.46536E-11 3.39477E-11
 -1     16613 9.95554E-01 1.27102E+00-2.38271E-09-4.23900E-01 5.79641E-11 7.98101E-11
 -1     16617 1.13329E+00 1.13329E+00-2.38250E-09-4.45715E-01-6.97443E-11-6.97873E-11
 -1     16618 1.06441E+00 1.20217E+00-2.35199E-09-4.34873E-01 4.44098E-11 5.19788E-11
 -1     16619 1.13329E+00 1.13329E+00 1.30473E-09-4.67424E-01-2.96014E-11-2.96391E-11
 -1     16624 1.13329E+00 1.13329E+00-2.35533E-09-4.45715E-01 2.16080E-11 2.16620E-11
 -1     16625 1.06441E+00 1.20217E+00-2.33926E-09-4.34873E-01 3.98212E-12 4.67350E-12
 -1     16626 1.13329E+00 1.13329E+00 1.28905E-09-4.67424E-01-6.45507E-12-6.45521E-12
 -1     16631 1.13329E+00 1.13329E+00-2.33235E-09-4.45715E-01-2.43006E-12-2.41362E-12
 -1     16632 1.06441E+00 1.20217E+00-2.34707E-09-4.34873E-01-5.70170E-12-6.65047E-12
 -1     16633 1.13329E+00 1.13329E+00 1.29624E-09-4.67424E-01 3.38964E-12 3.34773E-12
 -1     16638 1.13329E+00 1.13329E+00-2.36010E-09-4.45715E-01-1.01213E-12-1.19180E-12
 -1     16639 1.06441E+00 1.20217E+00-2.35178E-09-4.34873E-01 5.19818E-12 6.05789E-12
 -1     16640 1.13329E+00 1.13329E+00 1.30118E-09-4.67424E-01-3.45524E-12-3.51996E-12
 -1     16645 1.13329E+00 1.13329E+00-2.34288E-09-4.45715E-01 1.56998E-12 1.53289E-12
 -1     16646 1.06441E+00 1.20217E+00-2.35112E-09-4.34873E-01-2.84311E-12-3.30335E-12
 -1     16647 1.13329E+00 1.13329E+00 1.29971E-09-4.67424E-01 1.47688E-12 1.44207E-12
 -1     16652 1.13329E+00 1.13329E+00-2.35231E-09-4.45715E-01-3.62304E-14-9.00897E-14
 -1     16653 1.06441E+00 1.20217E+00-2.35114E-09-4.34873E-01 2.83713E-12 3.28451E-12
 -1     16654 1.13329E+00 1.13329E+00 1.29968E-09-4.67424E-01-1.59605E-12-1.57125E-12
 -1     16659 1.13329E+00 1.13329E+00-2.34284E-09-4.45715E-01-1.65766E-12-1.63384E-12
 -1     16660 1.06441E+00 1.20217E+00-2.35177E-09-4.34873E-01-5.21835E-12-6.06325E-12
 -1     16661 1.13329E+00 1.13329E+00 1.30118E-09-4.67424E-01 3.38298E-12 3.46627E-12
 -1     16666 1.13329E+00 1.13329E+00-2.36013E-09-4.45715E-01 1.12134E-12 1.13492E-12
 -1     16667 1.06441E+00 1.20217E+00-2.34704E-09-4.34873E-01 5.72913E-12 6.66555E-12
 -1     16668 1.13329E+00 1.13329E+00 1.29620E-09-4.67424E-01-3.33607E-12-3.29421E-12
 -1     16673 1.13329E+00 1.13329E+00-2.33234E-09-4.45715E-01 2.42630E-12 2.46391E-12
 -1     16674 1.06441E+00 1.20217E+00-2.33927E-09-4.34873E-01-3.99080E-12-4.66439E-12
 -1     16675 1.13329E+00 1.13329E+00 1.28905E-09-4.67424E-01 6.43349E-12 6.43506E-12
 -1     16680 1.13329E+00 1.13329E+00-2.35530E-09-4.45715E-01-2.16386E-11-2.15217E-11
 -1     16681 1.06441E+00 1.20217E+00-2.35199E-09-4.34873E-01-4.44343E-11-5.20164E-11
 -1     16682 1.13329E+00 1.13329E+00 1.30470E-09-4.67424E-01 2.96480E-11 2.97237E-11
 -1     16687 1.13329E+00 1.13329E+00-2.38249E-09-4.45715E-01 6.97462E-11 6.98300E-11
 -1     16691 1.27102E+00 9.95554E-01-2.38332E-09-4.23900E-01-7.99684E-11-5.79917E-11
 -1     16692 1.20217E+00 1.06441E+00-2.35171E-09-4.34873E-01 5.20361E-11 4.45039E-11
 -1     16693 1.27773E+00 9.88846E-01 1.30509E-09-4.44547E-01-3.41004E-11-2.46818E-11
 -1     16698 1.27102E+00 9.95554E-01-2.35637E-09-4.23900E-01 2.45206E-11 1.78880E-11
 -1     16699 1.20217E+00 1.06441E+00-2.33897E-09-4.34873E-01 4.59646E-12 4.07642E-12
 -1     16700 1.27773E+00 9.88846E-01 1.28940E-09-4.44547E-01-7.47332E-12-5.42686E-12
 -1     16705 1.27102E+00 9.95554E-01-2.33314E-09-4.23900E-01-3.05405E-12-2.12072E-12
 -1     16706 1.20217E+00 1.06441E+00-2.34673E-09-4.34873E-01-6.70000E-12-5.61148E-12
 -1     16707 1.27773E+00 9.88846E-01 1.29655E-09-4.44547E-01 3.64446E-12 2.78087E-12
 -1     16712 1.27102E+00 9.95554E-01-2.36101E-09-4.23900E-01-1.34153E-12-8.85588E-13
 -1     16713 1.20217E+00 1.06441E+00-2.35144E-09-4.34873E-01 6.08182E-12 5.17825E-12
 -1     16714 1.27773E+00 9.88846E-01 1.30154E-09-4.44547E-01-3.96348E-12-2.82432E-12
 -1     16719 1.27102E+00 9.95554E-01-2.34370E-09-4.23900E-01 1.86002E-12 1.34068E-12
 -1     16720 1.20217E+00 1.06441E+00-2.35077E-09-4.34873E-01-3.30220E-12-2.77241E-12
 -1     16721 1.27773E+00 9.88846E-01 1.30001E-09-4.44547E-01 1.68012E-12 1.26849E-12
 -1     16726 1.27102E+00 9.95554E-01-2.35325E-09-4.23900E-01-2.04229E-14 2.10275E-14
 -1     16727 1.20217E+00 1.06441E+00-2.35079E-09-4.34873E-01 3.25352E-12 2.76579E-12
 -1     16728 1.27773E+00 9.88846E-01 1.30006E-09-4.44547E-01-1.66394E-12-1.23300E-12
 -1     16733 1.27102E+00 9.95554E-01-2.34367E-09-4.23900E-01-1.83613E-12-1.34573E-12
 -1     16734 1.20217E+00 1.06441E+00-2.35143E-09-4.34873E-01-6.10488E-12-5.18979E-12
 -1     16735 1.27773E+00 9.88846E-01 1.30153E-09-4.44547E-01 4.00086E-12 2.86975E-12
 -1     16740 1.27102E+00 9.95554E-01-2.36098E-09-4.23900E-01 1.26840E-12 9.64211E-13
 -1     16741 1.20217E+00 1.06441E+00-2.34671E-09-4.34873E-01 6.65983E-12 5.69261E-12
 -1     16742 1.27773E+00 9.88846E-01 1.29659E-09-4.44547E-01-3.79628E-12-2.76172E-12
 -1     16747 1.27102E+00 9.95554E-01-2.33308E-09-4.23900E-01 2.99108E-12 2.18048E-12
 -1     16748 1.20217E+00 1.06441E+00-2.33896E-09-4.34873E-01-4.65565E-12-3.98226E-12
 -1     16749 1.27773E+00 9.88846E-01 1.28945E-09-4.44547E-01 7.48175E-12 5.45462E-12
 -1     16754 1.27102E+00 9.95554E-01-2.35629E-09-4.23900E-01-2.46140E-11-1.79233E-11
 -1     16755 1.20217E+00 1.06441E+00-2.35169E-09-4.34873E-01-5.20610E-11-4.44416E-11
 -1     16756 1.27773E+00 9.88846E-01 1.30508E-09-4.44547E-01 3.40077E-11 2.46439E-11
 -1     16761 1.27102E+00 9.95554E-01-2.38328E-09-4.23900E-01 7.99078E-11 5.79836E-11
 -1     16765 1.39527E+00 8.71303E-01-2.38313E-09-3.60591E-01-8.78888E-11-4.47808E-11
 -1     16766 1.33318E+00 9.33399E-01-2.35117E-09-3.92305E-01 5.84214E-11 3.57529E-11
 -1     16767 1.40803E+00 8.58543E-01 1.30508E-09-3.78154E-01-3.73650E-11-1.89979E-11
 -1     16772 1.39527E+00 8.71303E-01-2.35593E-09-3.60591E-01 2.72525E-11 1.39305E-11
 -1     16773 1.33318E+00 9.33399E-01-2.33845E-09-3.92305E-01 5.24866E-12 3.13528E-12
 -1     16774 1.40803E+00 8.58543E-01 1.28945E-09-3.78154E-01-8.16970E-12-4.13019E-12
 -1     16779 1.39527E+00 8.71303E-01-2.33283E-09-3.60591E-01-3.21560E-12-1.58775E-12
 -1     16780 1.33318E+00 9.33399E-01-2.34621E-09-3.92305E-01-7.43711E-12-4.59046E-12
 -1     16781 1.40803E+00 8.58543E-01 1.29662E-09-3.78154E-01 4.30299E-12 2.16288E-12
 -1     16786 1.39527E+00 8.71303E-01-2.36051E-09-3.60591E-01-1.32336E-12-6.44856E-13
 -1     16787 1.33318E+00 9.33399E-01-2.35096E-09-3.92305E-01 6.84033E-12 4.15016E-12
 -1     16788 1.40803E+00 8.58543E-01 1.30164E-09-3.78154E-01-4.29169E-12-2.19368E-12
 -1     16793 1.39527E+00 8.71303E-01-2.34322E-09-3.60591E-01 2.08889E-12 1.03700E-12
 -1     16794 1.33318E+00 9.33399E-01-2.35034E-09-3.92305E-01-3.64138E-12-2.30201E-12
 -1     16795 1.40803E+00 8.58543E-01 1.30014E-09-3.78154E-01 1.93035E-12 9.62554E-13
 -1     16800 1.39527E+00 8.71303E-01-2.35267E-09-3.60591E-01 5.67564E-14 3.90445E-14
 -1     16801 1.33318E+00 9.33399E-01-2.35031E-09-3.92305E-01 3.69604E-12 2.24368E-12
 -1     16802 1.40803E+00 8.58543E-01 1.30017E-09-3.78154E-01-1.84493E-12-8.91880E-13
 -1     16807 1.39527E+00 8.71303E-01-2.34321E-09-3.60591E-01-2.05298E-12-9.61809E-13
 -1     16808 1.33318E+00 9.33399E-01-2.35095E-09-3.92305E-01-6.80875E-12-4.09142E-12
 -1     16809 1.40803E+00 8.58543E-01 1.30163E-09-3.78154E-01 4.27857E-12 2.24281E-12
 -1     16814 1.39527E+00 8.71303E-01-2.36056E-09-3.60591E-01 1.36155E-12 6.93566E-13
 -1     16815 1.33318E+00 9.33399E-01-2.34622E-09-3.92305E-01 7.41045E-12 4.61620E-12
 -1     16816 1.40803E+00 8.58543E-01 1.29664E-09-3.78154E-01-4.16204E-12-2.14734E-12
 -1     16821 1.39527E+00 8.71303E-01-2.33282E-09-3.60591E-01 3.22156E-12 1.55027E-12
 -1     16822 1.33318E+00 9.33399E-01-2.33844E-09-3.92305E-01-5.28224E-12-3.12512E-12
 -1     16823 1.40803E+00 8.58543E-01 1.28947E-09-3.78154E-01 8.20072E-12 4.09408E-12
 -1     16828 1.39527E+00 8.71303E-01-2.35590E-09-3.60591E-01-2.71071E-11-1.39020E-11
 -1     16829 1.33318E+00 9.33399E-01-2.35119E-09-3.92305E-01-5.84337E-11-3.57195E-11
 -1     16830 1.40803E+00 8.58543E-01 1.30506E-09-3.78154E-01 3.74146E-11 1.90181E-11
 -1     16835 1.39527E+00 8.71303E-01-2.38316E-09-3.60591E-01 8.79472E-11 4.47585E-11
 -1     16839 1.49388E+00 7.72697E-01-2.38207E-09-2.61985E-01-9.37737E-11-3.05459E-11
 -1     16840 1.44462E+00 8.21953E-01-2.35197E-09-3.11335E-01 6.32032E-11 2.61303E-11
 -1     16841 1.51144E+00 7.55134E-01 1.30452E-09-2.74745E-01-3.98092E-11-1.29979E-11
 -1     16846 1.49388E+00 7.72697E-01-2.35475E-09-2.61985E-01 2.92491E-11 9.40397E-12
 -1     16847 1.44462E+00 8.21953E-01-2.33927E-09-3.11335E-01 5.69635E-12 2.31227E-12
 -1     16848 1.51144E+00 7.55134E-01 1.28898E-09-2.74745E-01-8.61121E-12-2.83683E-12
 -1     16853 1.49388E+00 7.72697E-01-2.33168E-09-2.61985E-01-3.18232E-12-1.05458E-12
 -1     16854 1.44462E+00 8.21953E-01-2.34711E-09-3.11335E-01-8.10819E-12-3.39476E-12
 -1     16855 1.51144E+00 7.55134E-01 1.29616E-09-2.74745E-01 4.53941E-12 1.47428E-12
 -1     16860 1.49388E+00 7.72697E-01-2.35933E-09-2.61985E-01-1.32634E-12-4.33445E-13
 -1     16861 1.44462E+00 8.21953E-01-2.35182E-09-3.11335E-01 7.39727E-12 3.04595E-12
 -1     16862 1.51144E+00 7.55134E-01 1.30121E-09-2.74745E-01-4.57623E-12-1.49467E-12
 -1     16867 1.49388E+00 7.72697E-01-2.34208E-09-2.61985E-01 2.14476E-12 7.27974E-13
 -1     16868 1.44462E+00 8.21953E-01-2.35117E-09-3.11335E-01-4.01191E-12-1.63919E-12
 -1     16869 1.51144E+00 7.55134E-01 1.29972E-09-2.74745E-01 1.99766E-12 6.73609E-13
 -1     16874 1.49388E+00 7.72697E-01-2.35156E-09-2.61985E-01-2.87195E-15 2.54158E-14
 -1     16875 1.44462E+00 8.21953E-01-2.35120E-09-3.11335E-01 4.07217E-12 1.69880E-12
 -1     16876 1.51144E+00 7.55134E-01 1.29969E-09-2.74745E-01-2.06561E-12-6.48510E-13
 -1     16881 1.49388E+00 7.72697E-01-2.34209E-09-2.61985E-01-2.27624E-12-7.12206E-13
 -1     16882 1.44462E+00 8.21953E-01-2.35181E-09-3.11335E-01-7.48129E-12-2.98919E-12
 -1     16883 1.51144E+00 7.55134E-01 1.30121E-09-2.74745E-01 4.48690E-12 1.48746E-12
 -1     16888 1.49388E+00 7.72697E-01-2.35935E-09-2.61985E-01 1.36182E-12 4.63333E-13
 -1     16889 1.44462E+00 8.21953E-01-2.34714E-09-3.11335E-01 8.15914E-12 3.42778E-12
 -1     16890 1.51144E+00 7.55134E-01 1.29614E-09-2.74745E-01-4.58764E-12-1.45867E-12
 -1     16895 1.49388E+00 7.72697E-01-2.33174E-09-2.61985E-01 3.14827E-12 1.08252E-12
 -1     16896 1.44462E+00 8.21953E-01-2.33929E-09-3.11335E-01-5.69408E-12-2.27787E-12
 -1     16897 1.51144E+00 7.55134E-01 1.28889E-09-2.74745E-01 8.64405E-12 2.84562E-12
 -1     16902 1.49388E+00 7.72697E-01-2.35491E-09-2.61985E-01-2.92700E-11-9.42087E-12
 -1     16903 1.44462E+00 8.21953E-01-2.35202E-09-3.11335E-01-6.32240E-11-2.61156E-11
 -1     16904 1.51144E+00 7.55134E-01 1.30451E-09-2.74745E-01 3.96588E-11 1.29717E-11
 -1     16909 1.49388E+00 7.72697E-01-2.38215E-09-2.61985E-01 9.36181E-11 3.05276E-11
 -1     16913 1.55719E+00 7.09388E-01-2.38282E-09-1.37734E-01-9.74146E-11-1.55436E-11
 -1     16914 1.52559E+00 7.40983E-01-2.35226E-09-1.99889E-01 6.64475E-11 1.60288E-11
 -1     16915 1.57783E+00 6.88741E-01 1.30474E-09-1.44442E-01-4.14942E-11-6.64139E-12
 -1     16920 1.55719E+00 7.09388E-01-2.35579E-09-1.37734E-01 3.00408E-11 4.65875E-12
 -1     16921 1.52559E+00 7.40983E-01-2.33951E-09-1.99889E-01 5.95312E-12 1.52547E-12
 -1     16922 1.57783E+00 6.88741E-01 1.28898E-09-1.44442E-01-9.10990E-12-1.49295E-12
 -1     16927 1.55719E+00 7.09388E-01-2.33272E-09-1.37734E-01-3.52196E-12-6.21507E-13
 -1     16928 1.52559E+00 7.40983E-01-2.34732E-09-1.99889E-01-8.56332E-12-1.97686E-12
 -1     16929 1.57783E+00 6.88741E-01 1.29617E-09-1.44442E-01 4.65492E-12 7.13029E-13
 -1     16934 1.55719E+00 7.09388E-01-2.36049E-09-1.37734E-01-1.52303E-12-2.40898E-13
 -1     16935 1.52559E+00 7.40983E-01-2.35208E-09-1.99889E-01 7.76687E-12 1.90765E-12
 -1     16936 1.57783E+00 6.88741E-01 1.30118E-09-1.44442E-01-4.91360E-12-7.68921E-13
 -1     16941 1.55719E+00 7.09388E-01-2.34324E-09-1.37734E-01 2.19750E-12 3.74548E-13
 -1     16942 1.52559E+00 7.40983E-01-2.35142E-09-1.99889E-01-4.21650E-12-9.99531E-13
 -1     16943 1.57783E+00 6.88741E-01 1.29961E-09-1.44442E-01 2.11854E-12 3.34517E-13
 -1     16948 1.55719E+00 7.09388E-01-2.35266E-09-1.37734E-01 6.04365E-14-8.69724E-15
 -1     16949 1.52559E+00 7.40983E-01-2.35143E-09-1.99889E-01 4.30881E-12 1.00710E-12
 -1     16950 1.57783E+00 6.88741E-01 1.29961E-09-1.44442E-01-1.98608E-12-3.22891E-13
 -1     16955 1.55719E+00 7.09388E-01-2.34319E-09-1.37734E-01-2.13847E-12-3.46876E-13
 -1     16956 1.52559E+00 7.40983E-01-2.35204E-09-1.99889E-01-7.81139E-12-1.93094E-12
 -1     16957 1.57783E+00 6.88741E-01 1.30115E-09-1.44442E-01 4.91484E-12 7.73228E-13
 -1     16962 1.55719E+00 7.09388E-01-2.36049E-09-1.37734E-01 1.51362E-12 2.65368E-13
 -1     16963 1.52559E+00 7.40983E-01-2.34735E-09-1.99889E-01 8.54602E-12 1.97071E-12
 -1     16964 1.57783E+00 6.88741E-01 1.29614E-09-1.44442E-01-4.68234E-12-7.08126E-13
 -1     16969 1.55719E+00 7.09388E-01-2.33274E-09-1.37734E-01 3.51155E-12 6.33376E-13
 -1     16970 1.52559E+00 7.40983E-01-2.33954E-09-1.99889E-01-5.94622E-12-1.53011E-12
 -1     16971 1.57783E+00 6.88741E-01 1.28899E-09-1.44442E-01 9.09860E-12 1.50677E-12
 -1     16976 1.55719E+00 7.09388E-01-2.35577E-09-1.37734E-01-3.01326E-11-4.62646E-12
 -1     16977 1.52559E+00 7.40983E-01-2.35226E-09-1.99889E-01-6.64656E-11-1.60468E-11
 -1     16978 1.57783E+00 6.88741E-01 1.30468E-09-1.44442E-01 4.14649E-11 6.65616E-12
 -1     16983 1.55719E+00 7.09388E-01-2.38283E-09-1.37734E-01 9.74530E-11 1.55650E-11
 -1     16987 1.56816E+00 6.98415E-01-2.35112E-09-6.88771E-02 6.83123E-11 5.46019E-12
 -1     16991 1.56816E+00 6.98415E-01-2.33835E-09-6.88771E-02 6.08834E-12 5.81353E-13
 -1     16995 1.56816E+00 6.98415E-01-2.34611E-09-6.88771E-02-8.71737E-12-6.01358E-13
 -1     16999 1.56816E+00 6.98415E-01-2.35081E-09-6.88771E-02 7.91343E-12 6.82836E-13
 -1     17003 1.56816E+00 6.98415E-01-2.35015E-09-6.88771E-02-4.30921E-12-3.13617E-13
 -1     17007 1.56816E+00 6.98415E-01-2.35012E-09-6.88771E-02 4.30778E-12 3.22991E-13
 -1     17011 1.56816E+00 6.98415E-01-2.35080E-09-6.88771E-02-7.93506E-12-6.61772E-13
 -1     17015 1.56816E+00 6.98415E-01-2.34612E-09-6.88771E-02 8.66123E-12 6.23393E-13
 -1     17019 1.56816E+00 6.98415E-01-2.33842E-09-6.88771E-02-6.05076E-12-5.60626E-13
 -1     17023 1.56816E+00 6.98415E-01-2.35113E-09-6.88771E-02-6.83393E-11-5.43681E-12
 -1     17029 7.45413E-01 1.52116E+00-1.96147E-09-1.26028E-01-1.27418E-11-8.04025E-11
 -1     17030 7.35373E-01 1.53120E+00-1.93883E-09-6.30236E-02 3.78180E-12 4.80143E-11
 -1     17031 7.27397E-01 1.53918E+00 1.07232E-09-1.31882E-01-3.75343E-12-2.35923E-11
 -1     17036 7.45413E-01 1.52116E+00-1.92150E-09-1.26028E-01 3.35741E-12 2.12682E-11
 -1     17037 7.35373E-01 1.53120E+00-1.92855E-09-6.30236E-02-7.39681E-13-9.45710E-12
 -1     17038 7.27397E-01 1.53918E+00 1.06746E-09-1.31882E-01 7.02479E-13 4.45506E-12
 -1     17043 7.45413E-01 1.52116E+00-1.92131E-09-1.26028E-01-9.29178E-13-5.86373E-12
 -1     17044 7.35373E-01 1.53120E+00-1.92513E-09-6.30236E-02-3.05036E-13-3.94414E-12
 -1     17045 7.27397E-01 1.53918E+00 1.06390E-09-1.31882E-01 4.06013E-13 2.59580E-12
 -1     17050 7.45413E-01 1.52116E+00-1.93096E-09-1.26028E-01-4.02247E-14-1.33760E-13
 -1     17051 7.35373E-01 1.53120E+00-1.92586E-09-6.30236E-02 2.67085E-13 3.45845E-12
 -1     17052 7.27397E-01 1.53918E+00 1.06493E-09-1.31882E-01-3.76486E-13-2.15306E-12
 -1     17057 7.45413E-01 1.52116E+00-1.92251E-09-1.26028E-01 2.85166E-14 4.03868E-13
 -1     17058 7.35373E-01 1.53120E+00-1.92506E-09-6.30236E-02-2.48341E-13-3.07175E-12
 -1     17059 7.27397E-01 1.53918E+00 1.06416E-09-1.31882E-01 2.16215E-13 1.53823E-12
 -1     17064 7.45413E-01 1.52116E+00-1.92833E-09-1.26028E-01-1.43101E-14 7.44085E-14
 -1     17065 7.35373E-01 1.53120E+00-1.92511E-09-6.30236E-02 2.33969E-13 3.02057E-12
 -1     17066 7.27397E-01 1.53918E+00 1.06416E-09-1.31882E-01-2.52965E-13-1.50210E-12
 -1     17071 7.45413E-01 1.52116E+00-1.92258E-09-1.26028E-01-9.11100E-14-4.39784E-13
 -1     17072 7.35373E-01 1.53120E+00-1.92583E-09-6.30236E-02-2.69764E-13-3.47775E-12
 -1     17073 7.27397E-01 1.53918E+00 1.06487E-09-1.31882E-01 3.31413E-13 2.26122E-12
 -1     17078 7.45413E-01 1.52116E+00-1.93091E-09-1.26028E-01 1.24200E-14 2.53424E-13
 -1     17079 7.35373E-01 1.53120E+00-1.92512E-09-6.30236E-02 2.96352E-13 3.94052E-12
 -1     17080 7.27397E-01 1.53918E+00 1.06384E-09-1.31882E-01-4.38437E-13-2.53246E-12
 -1     17085 7.45413E-01 1.52116E+00-1.92127E-09-1.26028E-01 8.92178E-13 5.86625E-12
 -1     17086 7.35373E-01 1.53120E+00-1.92855E-09-6.30236E-02 7.37337E-13 9.39408E-12
 -1     17087 7.27397E-01 1.53918E+00 1.06745E-09-1.31882E-01-7.38383E-13-4.47172E-12
 -1     17092 7.45413E-01 1.52116E+00-1.92150E-09-1.26028E-01-3.39164E-12-2.13476E-11
 -1     17093 7.35373E-01 1.53120E+00-1.93883E-09-6.30236E-02-3.77818E-12-4.80383E-11
 -1     17094 7.27397E-01 1.53918E+00 1.07229E-09-1.31882E-01 3.75432E-12 2.36513E-11
 -1     17099 7.45413E-01 1.52116E+00-1.96145E-09-1.26028E-01 1.27659E-11 8.04954E-11
 -1     17103 8.03342E-01 1.46323E+00-1.96146E-09-2.39720E-01-2.52047E-11-7.75193E-11
 -1     17104 7.74323E-01 1.49225E+00-1.93893E-09-1.82902E-01 1.12235E-11 4.68369E-11
 -1     17105 7.88017E-01 1.47856E+00 1.07231E-09-2.50854E-01-7.44938E-12-2.28040E-11
 -1     17110 8.03342E-01 1.46323E+00-1.92148E-09-2.39720E-01 6.63351E-12 2.04976E-11
 -1     17111 7.74323E-01 1.49225E+00-1.92868E-09-1.82902E-01-2.26487E-12-9.21110E-12
 -1     17112 7.88017E-01 1.47856E+00 1.06751E-09-2.50854E-01 1.35855E-12 4.31830E-12
 -1     17117 8.03342E-01 1.46323E+00-1.92124E-09-2.39720E-01-1.85202E-12-5.59170E-12
 -1     17118 7.74323E-01 1.49225E+00-1.92523E-09-1.82902E-01-9.53634E-13-3.84376E-12
 -1     17119 7.88017E-01 1.47856E+00 1.06395E-09-2.50854E-01 7.72312E-13 2.46197E-12
 -1     17124 8.03342E-01 1.46323E+00-1.93091E-09-2.39720E-01-1.09805E-13-3.17525E-13
 -1     17125 7.74323E-01 1.49225E+00-1.92598E-09-1.82902E-01 7.69511E-13 3.37421E-12
 -1     17126 7.88017E-01 1.47856E+00 1.06496E-09-2.50854E-01-7.37128E-13-2.30018E-12
 -1     17131 8.03342E-01 1.46323E+00-1.92258E-09-2.39720E-01 7.93499E-14 3.46656E-13
 -1     17132 7.74323E-01 1.49225E+00-1.92516E-09-1.82902E-01-7.68455E-13-2.94278E-12
 -1     17133 7.88017E-01 1.47856E+00 1.06417E-09-2.50854E-01 4.39442E-13 1.36209E-12
 -1     17138 8.03342E-01 1.46323E+00-1.92837E-09-2.39720E-01-3.22682E-14-5.55133E-14
 -1     17139 7.74323E-01 1.49225E+00-1.92521E-09-1.82902E-01 6.90620E-13 3.01260E-12
 -1     17140 7.88017E-01 1.47856E+00 1.06419E-09-2.50854E-01-4.72658E-13-1.43191E-12
 -1     17145 8.03342E-01 1.46323E+00-1.92252E-09-2.39720E-01-5.07328E-14-3.80480E-13
 -1     17146 7.74323E-01 1.49225E+00-1.92596E-09-1.82902E-01-8.28242E-13-3.42009E-12
 -1     17147 7.88017E-01 1.47856E+00 1.06496E-09-2.50854E-01 7.11524E-13 2.19713E-12
 -1     17152 8.03342E-01 1.46323E+00-1.93091E-09-2.39720E-01 7.50169E-14 2.73097E-13
 -1     17153 7.74323E-01 1.49225E+00-1.92520E-09-1.82902E-01 8.85735E-13 3.89185E-12
 -1     17154 7.88017E-01 1.47856E+00 1.06393E-09-2.50854E-01-7.94139E-13-2.44419E-12
 -1     17159 8.03342E-01 1.46323E+00-1.92126E-09-2.39720E-01 1.83108E-12 5.64090E-12
 -1     17160 7.74323E-01 1.49225E+00-1.92865E-09-1.82902E-01 2.18046E-12 9.16723E-12
 -1     17161 7.88017E-01 1.47856E+00 1.06755E-09-2.50854E-01-1.39994E-12-4.30061E-12
 -1     17166 8.03342E-01 1.46323E+00-1.92153E-09-2.39720E-01-6.63462E-12-2.04841E-11
 -1     17167 7.74323E-01 1.49225E+00-1.93892E-09-1.82902E-01-1.12749E-11-4.68032E-11
 -1     17168 7.88017E-01 1.47856E+00 1.07231E-09-2.50854E-01 7.42329E-12 2.28283E-11
 -1     17173 8.03342E-01 1.46323E+00-1.96147E-09-2.39720E-01 2.52025E-11 7.74205E-11
 -1     17177 8.93568E-01 1.37301E+00-1.96174E-09-3.29946E-01-3.70333E-11-7.26466E-11
 -1     17178 8.48412E-01 1.41816E+00-1.93885E-09-2.84876E-01 1.84684E-11 4.45152E-11
 -1     17179 8.82434E-01 1.38414E+00 1.07252E-09-3.45271E-01-1.08889E-11-2.13457E-11
 -1     17184 8.93568E-01 1.37301E+00-1.92173E-09-3.29946E-01 9.73436E-12 1.92206E-11
 -1     17185 8.48412E-01 1.41816E+00-1.92859E-09-2.84876E-01-3.61672E-12-8.79669E-12
 -1     17186 8.82434E-01 1.38414E+00 1.06775E-09-3.45271E-01 2.04427E-12 4.05037E-12
 -1     17191 8.93568E-01 1.37301E+00-1.92146E-09-3.29946E-01-2.70324E-12-5.26112E-12
 -1     17192 8.48412E-01 1.41816E+00-1.92515E-09-2.84876E-01-1.47724E-12-3.62011E-12
 -1     17193 8.82434E-01 1.38414E+00 1.06420E-09-3.45271E-01 1.19478E-12 2.34613E-12
 -1     17198 8.93568E-01 1.37301E+00-1.93114E-09-3.29946E-01-1.43329E-13-2.53107E-13
 -1     17199 8.48412E-01 1.41816E+00-1.92592E-09-2.84876E-01 1.30531E-12 3.12015E-12
 -1     17200 8.82434E-01 1.38414E+00 1.06521E-09-3.45271E-01-1.06218E-12-2.10276E-12
 -1     17205 8.93568E-01 1.37301E+00-1.92271E-09-3.29946E-01 1.60436E-13 3.24898E-13
 -1     17206 8.48412E-01 1.41816E+00-1.92512E-09-2.84876E-01-1.18197E-12-2.80412E-12
 -1     17207 8.82434E-01 1.38414E+00 1.06446E-09-3.45271E-01 7.20328E-13 1.41941E-12
 -1     17212 8.93568E-01 1.37301E+00-1.92849E-09-3.29946E-01 3.32377E-14 4.22273E-14
 -1     17213 8.48412E-01 1.41816E+00-1.92510E-09-2.84876E-01 1.20194E-12 2.81620E-12
 -1     17214 8.82434E-01 1.38414E+00 1.06446E-09-3.45271E-01-6.82917E-13-1.31747E-12
 -1     17219 8.93568E-01 1.37301E+00-1.92272E-09-3.29946E-01-1.74615E-13-2.49453E-13
 -1     17220 8.48412E-01 1.41816E+00-1.92589E-09-2.84876E-01-1.28689E-12-3.20015E-12
 -1     17221 8.82434E-01 1.38414E+00 1.06524E-09-3.45271E-01 1.06630E-12 2.10189E-12
 -1     17226 8.93568E-01 1.37301E+00-1.93111E-09-3.29946E-01 1.78889E-13 2.39211E-13
 -1     17227 8.48412E-01 1.41816E+00-1.92511E-09-2.84876E-01 1.50789E-12 3.68915E-12
 -1     17228 8.82434E-01 1.38414E+00 1.06417E-09-3.45271E-01-1.19793E-12-2.33712E-12
 -1     17233 8.93568E-01 1.37301E+00-1.92144E-09-3.29946E-01 2.72256E-12 5.25846E-12
 -1     17234 8.48412E-01 1.41816E+00-1.92861E-09-2.84876E-01 3.62866E-12 8.74236E-12
 -1     17235 8.82434E-01 1.38414E+00 1.06774E-09-3.45271E-01-2.00887E-12-4.06393E-12
 -1     17240 8.93568E-01 1.37301E+00-1.92174E-09-3.29946E-01-9.74089E-12-1.91851E-11
 -1     17241 8.48412E-01 1.41816E+00-1.93885E-09-2.84876E-01-1.84606E-11-4.44728E-11
 -1     17242 8.82434E-01 1.38414E+00 1.07254E-09-3.45271E-01 1.09147E-11 2.13806E-11
 -1     17247 8.93568E-01 1.37301E+00-1.96173E-09-3.29946E-01 3.70269E-11 7.25905E-11
 -1     17251 1.00726E+00 1.25932E+00-1.96134E-09-3.87875E-01-4.78892E-11-6.59014E-11
 -1     17252 9.50386E-01 1.31619E+00-1.93865E-09-3.58965E-01 2.51830E-11 4.10599E-11
 -1     17253 1.00141E+00 1.26517E+00 1.07231E-09-4.05891E-01-1.40616E-11-1.94271E-11
 -1     17258 1.00726E+00 1.25932E+00-1.92124E-09-3.87875E-01 1.27708E-11 1.74677E-11
 -1     17259 9.50386E-01 1.31619E+00-1.92843E-09-3.58965E-01-4.88496E-12-8.10493E-12
 -1     17260 1.00141E+00 1.26517E+00 1.06758E-09-4.05891E-01 2.74485E-12 3.61908E-12
 -1     17265 1.00726E+00 1.25932E+00-1.92100E-09-3.87875E-01-3.34337E-12-4.79394E-12
 -1     17266 9.50386E-01 1.31619E+00-1.92500E-09-3.58965E-01-2.03954E-12-3.39327E-12
 -1     17267 1.00141E+00 1.26517E+00 1.06400E-09-4.05891E-01 1.53765E-12 2.10590E-12
 -1     17272 1.00726E+00 1.25932E+00-1.93055E-09-3.87875E-01-3.82489E-14-1.90681E-13
 -1     17273 9.50386E-01 1.31619E+00-1.92580E-09-3.58965E-01 1.82089E-12 2.87717E-12
 -1     17274 1.00141E+00 1.26517E+00 1.06509E-09-4.05891E-01-1.32492E-12-1.84907E-12
 -1     17279 1.00726E+00 1.25932E+00-1.92220E-09-3.87875E-01 2.13340E-13 2.89445E-13
 -1     17280 9.50386E-01 1.31619E+00-1.92498E-09-3.58965E-01-1.57574E-12-2.59826E-12
 -1     17281 1.00141E+00 1.26517E+00 1.06430E-09-4.05891E-01 8.98439E-13 1.19530E-12
 -1     17286 1.00726E+00 1.25932E+00-1.92793E-09-3.87875E-01 2.50751E-14 3.36693E-14
 -1     17287 9.50386E-01 1.31619E+00-1.92503E-09-3.58965E-01 1.64392E-12 2.59809E-12
 -1     17288 1.00141E+00 1.26517E+00 1.06434E-09-4.05891E-01-8.13319E-13-1.22398E-12
 -1     17293 1.00726E+00 1.25932E+00-1.92217E-09-3.87875E-01-1.37657E-13-3.70623E-13
 -1     17294 9.50386E-01 1.31619E+00-1.92578E-09-3.58965E-01-1.79046E-12-2.94719E-12
 -1     17295 1.00141E+00 1.26517E+00 1.06508E-09-4.05891E-01 1.36304E-12 1.86539E-12
 -1     17300 1.00726E+00 1.25932E+00-1.93056E-09-3.87875E-01 1.92487E-13 1.90434E-13
 -1     17301 9.50386E-01 1.31619E+00-1.92501E-09-3.58965E-01 2.04951E-12 3.41113E-12
 -1     17302 1.00141E+00 1.26517E+00 1.06407E-09-4.05891E-01-1.54750E-12-2.09209E-12
 -1     17307 1.00726E+00 1.25932E+00-1.92099E-09-3.87875E-01 3.38142E-12 4.80597E-12
 -1     17308 9.50386E-01 1.31619E+00-1.92847E-09-3.58965E-01 4.91485E-12 8.11287E-12
 -1     17309 1.00141E+00 1.26517E+00 1.06759E-09-4.05891E-01-2.72988E-12-3.62782E-12
 -1     17314 1.00726E+00 1.25932E+00-1.92115E-09-3.87875E-01-1.27655E-11-1.75098E-11
 -1     17315 9.50386E-01 1.31619E+00-1.93865E-09-3.58965E-01-2.51838E-11-4.10706E-11
 -1     17316 1.00141E+00 1.26517E+00 1.07234E-09-4.05891E-01 1.40246E-11 1.93364E-11
 -1     17321 1.00726E+00 1.25932E+00-1.96130E-09-3.87875E-01 4.77699E-11 6.58995E-11
 -1     17325 1.13329E+00 1.13329E+00-1.96110E-09-4.07836E-01-5.75180E-11-5.76023E-11
 -1     17326 1.07026E+00 1.19631E+00-1.93930E-09-3.97915E-01 3.12191E-11 3.66396E-11
 -1     17327 1.13329E+00 1.13329E+00 1.07212E-09-4.26779E-01-1.68652E-11-1.69319E-11
 -1     17332 1.13329E+00 1.13329E+00-1.92098E-09-4.07836E-01 1.53675E-11 1.53207E-11
 -1     17333 1.07026E+00 1.19631E+00-1.92905E-09-3.97915E-01-6.12290E-12-7.18193E-12
 -1     17334 1.13329E+00 1.13329E+00 1.06730E-09-4.26779E-01 3.25225E-12 3.24235E-12
 -1     17339 1.13329E+00 1.13329E+00-1.92092E-09-4.07836E-01-4.07731E-12-4.10193E-12
 -1     17340 1.07026E+00 1.19631E+00-1.92560E-09-3.97915E-01-2.62015E-12-2.99510E-12
 -1     17341 1.13329E+00 1.13329E+00 1.06368E-09-4.26779E-01 1.93367E-12 1.93806E-12
 -1     17346 1.13329E+00 1.13329E+00-1.93044E-09-4.07836E-01-2.16132E-13-1.29465E-13
 -1     17347 1.07026E+00 1.19631E+00-1.92635E-09-3.97915E-01 2.22578E-12 2.63330E-12
 -1     17348 1.13329E+00 1.13329E+00 1.06474E-09-4.26779E-01-1.67120E-12-1.71476E-12
 -1     17353 1.13329E+00 1.13329E+00-1.92210E-09-4.07836E-01 2.57814E-13 1.04517E-13
 -1     17354 1.07026E+00 1.19631E+00-1.92558E-09-3.97915E-01-1.96708E-12-2.38972E-12
 -1     17355 1.13329E+00 1.13329E+00 1.06395E-09-4.26779E-01 1.08237E-12 1.00164E-12
 -1     17360 1.13329E+00 1.13329E+00-1.92788E-09-4.07836E-01-6.33860E-14-5.08109E-14
 -1     17361 1.07026E+00 1.19631E+00-1.92557E-09-3.97915E-01 1.96777E-12 2.32500E-12
 -1     17362 1.13329E+00 1.13329E+00 1.06393E-09-4.26779E-01-1.17767E-12-1.09246E-12
 -1     17367 1.13329E+00 1.13329E+00-1.92218E-09-4.07836E-01-3.44891E-13-1.80578E-13
 -1     17368 1.07026E+00 1.19631E+00-1.92638E-09-3.97915E-01-2.23142E-12-2.70083E-12
 -1     17369 1.13329E+00 1.13329E+00 1.06471E-09-4.26779E-01 1.62726E-12 1.66154E-12
 -1     17374 1.13329E+00 1.13329E+00-1.93048E-09-4.07836E-01 1.24235E-13 1.90521E-13
 -1     17375 1.07026E+00 1.19631E+00-1.92564E-09-3.97915E-01 2.59508E-12 3.05555E-12
 -1     17376 1.13329E+00 1.13329E+00 1.06370E-09-4.26779E-01-1.86620E-12-1.84559E-12
 -1     17381 1.13329E+00 1.13329E+00-1.92093E-09-4.07836E-01 4.15079E-12 4.07043E-12
 -1     17382 1.07026E+00 1.19631E+00-1.92906E-09-3.97915E-01 6.16899E-12 7.11643E-12
 -1     17383 1.13329E+00 1.13329E+00 1.06734E-09-4.26779E-01-3.23588E-12-3.25292E-12
 -1     17388 1.13329E+00 1.13329E+00-1.92100E-09-4.07836E-01-1.53631E-11-1.52534E-11
 -1     17389 1.07026E+00 1.19631E+00-1.93932E-09-3.97915E-01-3.12340E-11-3.65958E-11
 -1     17390 1.13329E+00 1.13329E+00 1.07212E-09-4.26779E-01 1.68812E-11 1.70093E-11
 -1     17395 1.13329E+00 1.13329E+00-1.96108E-09-4.07836E-01 5.76206E-11 5.77018E-11
 -1     17399 1.25932E+00 1.00726E+00-1.96198E-09-3.87875E-01-6.59861E-11-4.79687E-11
 -1     17400 1.19631E+00 1.07026E+00-1.93891E-09-3.97915E-01 3.66586E-11 3.13456E-11
 -1     17401 1.26517E+00 1.00141E+00 1.07264E-09-4.05891E-01-1.95107E-11-1.40803E-11
 -1     17406 1.25932E+00 1.00726E+00-1.92228E-09-3.87875E-01 1.72305E-11 1.26408E-11
 -1     17407 1.19631E+00 1.07026E+00-1.92863E-09-3.97915E-01-7.25691E-12-6.10712E-12
 -1     17408 1.26517E+00 1.00141E+00 1.06781E-09-4.05891E-01 3.48601E-12 2.66438E-12
 -1     17413 1.25932E+00 1.00726E+00-1.92189E-09-3.87875E-01-5.01232E-12-3.55529E-12
 -1     17414 1.19631E+00 1.07026E+00-1.92518E-09-3.97915E-01-3.02079E-12-2.44531E-12
 -1     17415 1.26517E+00 1.00141E+00 1.06417E-09-4.05891E-01 1.93799E-12 1.47390E-12
 -1     17420 1.25932E+00 1.00726E+00-1.93172E-09-3.87875E-01-2.85627E-13-2.01199E-13
 -1     17421 1.19631E+00 1.07026E+00-1.92587E-09-3.97915E-01 2.57150E-12 2.27536E-12
 -1     17422 1.26517E+00 1.00141E+00 1.06519E-09-4.05891E-01-1.87192E-12-1.34524E-12
 -1     17427 1.25932E+00 1.00726E+00-1.92328E-09-3.87875E-01 2.33813E-13 2.47996E-13
 -1     17428 1.19631E+00 1.07026E+00-1.92513E-09-3.97915E-01-2.34704E-12-1.95455E-12
 -1     17429 1.26517E+00 1.00141E+00 1.06439E-09-4.05891E-01 1.14220E-12 9.37016E-13
 -1     17434 1.25932E+00 1.00726E+00-1.92911E-09-3.87875E-01-2.64395E-14 3.35785E-14
 -1     17435 1.19631E+00 1.07026E+00-1.92511E-09-3.97915E-01 2.30724E-12 2.00172E-12
 -1     17436 1.26517E+00 1.00141E+00 1.06439E-09-4.05891E-01-1.17618E-12-9.16524E-13
 -1     17441 1.25932E+00 1.00726E+00-1.92326E-09-3.87875E-01-1.56222E-13-1.77773E-13
 -1     17442 1.19631E+00 1.07026E+00-1.92591E-09-3.97915E-01-2.61600E-12-2.24519E-12
 -1     17443 1.26517E+00 1.00141E+00 1.06524E-09-4.05891E-01 1.92071E-12 1.38533E-12
 -1     17448 1.25932E+00 1.00726E+00-1.93172E-09-3.87875E-01 2.53773E-13 1.50536E-13
 -1     17449 1.19631E+00 1.07026E+00-1.92519E-09-3.97915E-01 2.95649E-12 2.53004E-12
 -1     17450 1.26517E+00 1.00141E+00 1.06421E-09-4.05891E-01-2.07506E-12-1.49228E-12
 -1     17455 1.25932E+00 1.00726E+00-1.92191E-09-3.87875E-01 4.86439E-12 3.53968E-12
 -1     17456 1.19631E+00 1.07026E+00-1.92864E-09-3.97915E-01 7.26696E-12 6.06971E-12
 -1     17457 1.26517E+00 1.00141E+00 1.06779E-09-4.05891E-01-3.55343E-12-2.63520E-12
 -1     17462 1.25932E+00 1.00726E+00-1.92224E-09-3.87875E-01-1.71830E-11-1.26679E-11
 -1     17463 1.19631E+00 1.07026E+00-1.93892E-09-3.97915E-01-3.66304E-11-3.13280E-11
 -1     17464 1.26517E+00 1.00141E+00 1.07262E-09-4.05891E-01 1.95372E-11 1.40755E-11
 -1     17469 1.25932E+00 1.00726E+00-1.96202E-09-3.87875E-01 6.60655E-11 4.79428E-11
 -1     17473 1.37301E+00 8.93568E-01-1.96187E-09-3.29946E-01-7.26752E-11-3.69170E-11
 -1     17474 1.31619E+00 9.50386E-01-1.93821E-09-3.58965E-01 4.12146E-11 2.51534E-11
 -1     17475 1.38414E+00 8.82434E-01 1.07258E-09-3.45271E-01-2.13122E-11-1.08313E-11
 -1     17480 1.37301E+00 8.93568E-01-1.92182E-09-3.29946E-01 1.92191E-11 9.92401E-12
 -1     17481 1.31619E+00 9.50386E-01-1.92797E-09-3.58965E-01-8.09250E-12-5.02843E-12
 -1     17482 1.38414E+00 8.82434E-01 1.06783E-09-3.45271E-01 4.09893E-12 2.13278E-12
 -1     17487 1.37301E+00 8.93568E-01-1.92147E-09-3.29946E-01-5.21829E-12-2.60922E-12
 -1     17488 1.31619E+00 9.50386E-01-1.92452E-09-3.58965E-01-3.31152E-12-2.10593E-12
 -1     17489 1.38414E+00 8.82434E-01 1.06431E-09-3.45271E-01 2.28198E-12 1.22785E-12
 -1     17494 1.37301E+00 8.93568E-01-1.93113E-09-3.29946E-01-3.77256E-13-8.94028E-14
 -1     17495 1.31619E+00 9.50386E-01-1.92525E-09-3.58965E-01 2.95252E-12 1.71576E-12
 -1     17496 1.38414E+00 8.82434E-01 1.06533E-09-3.45271E-01-2.06161E-12-1.04386E-12
 -1     17501 1.37301E+00 8.93568E-01-1.92266E-09-3.29946E-01 4.03561E-13 1.90397E-13
 -1     17502 1.31619E+00 9.50386E-01-1.92445E-09-3.58965E-01-2.64720E-12-1.56288E-12
 -1     17503 1.38414E+00 8.82434E-01 1.06464E-09-3.45271E-01 1.43116E-12 6.93190E-13
 -1     17508 1.37301E+00 8.93568E-01-1.92845E-09-3.29946E-01 1.24232E-13-3.96798E-14
 -1     17509 1.31619E+00 9.50386E-01-1.92444E-09-3.58965E-01 2.65132E-12 1.58818E-12
 -1     17510 1.38414E+00 8.82434E-01 1.06465E-09-3.45271E-01-1.32264E-12-6.89016E-13
 -1     17515 1.37301E+00 8.93568E-01-1.92263E-09-3.29946E-01-3.72673E-13-1.85037E-13
 -1     17516 1.31619E+00 9.50386E-01-1.92521E-09-3.58965E-01-2.91143E-12-1.69680E-12
 -1     17517 1.38414E+00 8.82434E-01 1.06537E-09-3.45271E-01 2.04191E-12 1.11411E-12
 -1     17522 1.37301E+00 8.93568E-01-1.93112E-09-3.29946E-01 2.70553E-13 1.70427E-13
 -1     17523 1.31619E+00 9.50386E-01-1.92453E-09-3.58965E-01 3.30895E-12 2.08506E-12
 -1     17524 1.38414E+00 8.82434E-01 1.06428E-09-3.45271E-01-2.25290E-12-1.19518E-12
 -1     17529 1.37301E+00 8.93568E-01-1.92152E-09-3.29946E-01 5.29600E-12 2.61636E-12
 -1     17530 1.31619E+00 9.50386E-01-1.92795E-09-3.58965E-01 8.09498E-12 5.02518E-12
 -1     17531 1.38414E+00 8.82434E-01 1.06782E-09-3.45271E-01-4.02814E-12-2.14863E-12
 -1     17536 1.37301E+00 8.93568E-01-1.92182E-09-3.29946E-01-1.91952E-11-9.88680E-12
 -1     17537 1.31619E+00 9.50386E-01-1.93820E-09-3.58965E-01-4.11591E-11-2.51809E-11
 -1     17538 1.38414E+00 8.82434E-01 1.07257E-09-3.45271E-01 2.13899E-11 1.08275E-11
 -1     17543 1.37301E+00 8.93568E-01-1.96187E-09-3.29946E-01 7.26745E-11 3.69424E-11
 -1     17547 1.46323E+00 8.03342E-01-1.96062E-09-2.39720E-01-7.73535E-11-2.51936E-11
 -1     17548 1.41816E+00 8.48412E-01-1.93925E-09-2.84876E-01 4.44410E-11 1.83444E-11
 -1     17549 1.47856E+00 7.88017E-01 1.07199E-09-2.50854E-01-2.26492E-11-7.43142E-12
 -1     17554 1.46323E+00 8.03342E-01-1.92024E-09-2.39720E-01 2.07568E-11 6.67275E-12
 -1     17555 1.41816E+00 8.48412E-01-1.92902E-09-2.84876E-01-8.69725E-12-3.67985E-12
 -1     17556 1.47856E+00 7.88017E-01 1.06726E-09-2.50854E-01 4.44394E-12 1.41368E-12
 -1     17561 1.46323E+00 8.03342E-01-1.92007E-09-2.39720E-01-5.35156E-12-1.77315E-12
 -1     17562 1.41816E+00 8.48412E-01-1.92563E-09-2.84876E-01-3.65999E-12-1.60859E-12
 -1     17563 1.47856E+00 7.88017E-01 1.06381E-09-2.50854E-01 2.70443E-12 8.39047E-13
 -1     17568 1.46323E+00 8.03342E-01-1.92941E-09-2.39720E-01-4.36088E-14-1.75000E-14
 -1     17569 1.41816E+00 8.48412E-01-1.92638E-09-2.84876E-01 3.25078E-12 1.30650E-12
 -1     17570 1.47856E+00 7.88017E-01 1.06484E-09-2.50854E-01-2.11257E-12-6.53371E-13
 -1     17575 1.46323E+00 8.03342E-01-1.92117E-09-2.39720E-01 4.57351E-13 1.92700E-13
 -1     17576 1.41816E+00 8.48412E-01-1.92567E-09-2.84876E-01-2.87182E-12-1.20206E-12
 -1     17577 1.47856E+00 7.88017E-01 1.06406E-09-2.50854E-01 1.42276E-12 4.98251E-13
 -1     17582 1.46323E+00 8.03342E-01-1.92690E-09-2.39720E-01-8.16213E-16 4.63718E-14
 -1     17583 1.41816E+00 8.48412E-01-1.92563E-09-2.84876E-01 2.84106E-12 1.21629E-12
 -1     17584 1.47856E+00 7.88017E-01 1.06408E-09-2.50854E-01-1.44292E-12-4.43546E-13
 -1     17589 1.46323E+00 8.03342E-01-1.92117E-09-2.39720E-01-4.54610E-13-1.38620E-13
 -1     17590 1.41816E+00 8.48412E-01-1.92643E-09-2.84876E-01-3.18848E-12-1.23117E-12
 -1     17591 1.47856E+00 7.88017E-01 1.06485E-09-2.50854E-01 2.05675E-12 6.77268E-13
 -1     17596 1.46323E+00 8.03342E-01-1.92940E-09-2.39720E-01 1.04842E-13 4.51064E-15
 -1     17597 1.41816E+00 8.48412E-01-1.92562E-09-2.84876E-01 3.71352E-12 1.62703E-12
 -1     17598 1.47856E+00 7.88017E-01 1.06378E-09-2.50854E-01-2.61970E-12-8.48478E-13
 -1     17603 1.46323E+00 8.03342E-01-1.92008E-09-2.39720E-01 5.36035E-12 1.80395E-12
 -1     17604 1.41816E+00 8.48412E-01-1.92904E-09-2.84876E-01 8.69650E-12 3.69922E-12
 -1     17605 1.47856E+00 7.88017E-01 1.06726E-09-2.50854E-01-4.47723E-12-1.35303E-12
 -1     17610 1.46323E+00 8.03342E-01-1.92024E-09-2.39720E-01-2.07843E-11-6.63949E-12
 -1     17611 1.41816E+00 8.48412E-01-1.93923E-09-2.84876E-01-4.44226E-11-1.83274E-11
 -1     17612 1.47856E+00 7.88017E-01 1.07196E-09-2.50854E-01 2.25236E-11 7.41801E-12
 -1     17617 1.46323E+00 8.03342E-01-1.96060E-09-2.39720E-01 7.72541E-11 2.51938E-11
 -1     17621 1.52116E+00 7.45413E-01-1.96144E-09-1.26028E-01-8.04567E-11-1.29264E-11
 -1     17622 1.49225E+00 7.74323E-01-1.93960E-09-1.82902E-01 4.66928E-11 1.13413E-11
 -1     17623 1.53918E+00 7.27397E-01 1.07213E-09-1.31882E-01-2.36751E-11-3.87353E-12
 -1     17628 1.52116E+00 7.45413E-01-1.92148E-09-1.26028E-01 2.12952E-11 3.18816E-12
 -1     17629 1.49225E+00 7.74323E-01-1.92934E-09-1.82902E-01-9.17834E-12-2.06248E-12
 -1     17630 1.53918E+00 7.27397E-01 1.06734E-09-1.31882E-01 4.48649E-12 6.29154E-13
 -1     17635 1.52116E+00 7.45413E-01-1.92135E-09-1.26028E-01-5.82099E-12-1.01094E-12
 -1     17636 1.49225E+00 7.74323E-01-1.92594E-09-1.82902E-01-3.93701E-12-8.56942E-13
 -1     17637 1.53918E+00 7.27397E-01 1.06367E-09-1.31882E-01 2.55154E-12 3.79830E-13
 -1     17642 1.52116E+00 7.45413E-01-1.93105E-09-1.26028E-01-2.15791E-13-9.28314E-14
 -1     17643 1.49225E+00 7.74323E-01-1.92670E-09-1.82902E-01 3.39512E-12 9.15396E-13
 -1     17644 1.53918E+00 7.27397E-01 1.06470E-09-1.31882E-01-2.30077E-12-3.70149E-13
 -1     17649 1.52116E+00 7.45413E-01-1.92267E-09-1.26028E-01 3.37357E-13 4.53014E-14
 -1     17650 1.49225E+00 7.74323E-01-1.92598E-09-1.82902E-01-3.04112E-12-6.70582E-13
 -1     17651 1.53918E+00 7.27397E-01 1.06396E-09-1.31882E-01 1.46192E-12 2.43685E-13
 -1     17656 1.52116E+00 7.45413E-01-1.92842E-09-1.26028E-01-3.72390E-14 6.11874E-15
 -1     17657 1.49225E+00 7.74323E-01-1.92593E-09-1.82902E-01 3.00294E-12 7.27181E-13
 -1     17658 1.53918E+00 7.27397E-01 1.06395E-09-1.31882E-01-1.46692E-12-2.40712E-13
 -1     17663 1.52116E+00 7.45413E-01-1.92262E-09-1.26028E-01-3.86451E-13-4.33283E-14
 -1     17664 1.49225E+00 7.74323E-01-1.92669E-09-1.82902E-01-3.36009E-12-8.65354E-13
 -1     17665 1.53918E+00 7.27397E-01 1.06471E-09-1.31882E-01 2.34202E-12 3.72777E-13
 -1     17670 1.52116E+00 7.45413E-01-1.93101E-09-1.26028E-01 2.89063E-13 9.60427E-14
 -1     17671 1.49225E+00 7.74323E-01-1.92591E-09-1.82902E-01 3.91494E-12 8.44225E-13
 -1     17672 1.53918E+00 7.27397E-01 1.06371E-09-1.31882E-01-2.62809E-12-3.50825E-13
 -1     17677 1.52116E+00 7.45413E-01-1.92129E-09-1.26028E-01 5.84769E-12 1.06206E-12
 -1     17678 1.49225E+00 7.74323E-01-1.92936E-09-1.82902E-01 9.21072E-12 2.07858E-12
 -1     17679 1.53918E+00 7.27397E-01 1.06732E-09-1.31882E-01-4.42688E-12-5.99686E-13
 -1     17684 1.52116E+00 7.45413E-01-1.92152E-09-1.26028E-01-2.13485E-11-3.16819E-12
 -1     17685 1.49225E+00 7.74323E-01-1.93961E-09-1.82902E-01-4.67387E-11-1.13449E-11
 -1     17686 1.53918E+00 7.27397E-01 1.07214E-09-1.31882E-01 2.37206E-11 3.89579E-12
 -1     17691 1.52116E+00 7.45413E-01-1.96144E-09-1.26028E-01 8.04926E-11 1.29285E-11
 -1     17695 1.53120E+00 7.35373E-01-1.93814E-09-6.30236E-02 4.82200E-11 3.91895E-12
 -1     17699 1.53120E+00 7.35373E-01-1.92786E-09-6.30236E-02-9.49720E-12-5.90951E-13
 -1     17703 1.53120E+00 7.35373E-01-1.92438E-09-6.30236E-02-3.88809E-12-1.71688E-13
 -1     17707 1.53120E+00 7.35373E-01-1.92509E-09-6.30236E-02 3.39753E-12 3.58224E-13
 -1     17711 1.53120E+00 7.35373E-01-1.92428E-09-6.30236E-02-3.05653E-12-1.87447E-13
 -1     17715 1.53120E+00 7.35373E-01-1.92433E-09-6.30236E-02 3.04607E-12 2.35556E-13
 -1     17719 1.53120E+00 7.35373E-01-1.92507E-09-6.30236E-02-3.39321E-12-3.26036E-13
 -1     17723 1.53120E+00 7.35373E-01-1.92437E-09-6.30236E-02 3.87446E-12 2.16361E-13
 -1     17727 1.53120E+00 7.35373E-01-1.92787E-09-6.30236E-02 9.54405E-12 6.19154E-13
 -1     17731 1.53120E+00 7.35373E-01-1.93811E-09-6.30236E-02-4.81918E-11-3.89503E-12
 -1     17737 7.77035E-01 1.48954E+00-1.61764E-09-1.15754E-01-9.75380E-12-6.15627E-11
 -1     17738 7.67813E-01 1.49876E+00-1.59264E-09-5.78856E-02 3.59597E-12 4.57080E-11
 -1     17739 7.61222E-01 1.50535E+00 8.75734E-10-1.20892E-01-4.03747E-12-2.55496E-11
 -1     17744 7.77035E-01 1.48954E+00-1.57681E-09-1.15754E-01 2.83950E-12 1.79811E-11
 -1     17745 7.67813E-01 1.49876E+00-1.58423E-09-5.78856E-02-7.26782E-13-8.96299E-12
 -1     17746 7.61222E-01 1.50535E+00 8.69268E-10-1.20892E-01 6.12336E-13 3.92775E-12
 -1     17751 7.77035E-01 1.48954E+00-1.58568E-09-1.15754E-01-7.67711E-13-4.87315E-12
 -1     17752 7.67813E-01 1.49876E+00-1.58479E-09-5.78856E-02-2.15748E-14-2.05662E-13
 -1     17753 7.61222E-01 1.50535E+00 8.69974E-10-1.20892E-01-1.47152E-14-1.35447E-13
 -1     17758 7.77035E-01 1.48954E+00-1.58704E-09-1.15754E-01 1.29635E-13 7.65418E-13
 -1     17759 7.67813E-01 1.49876E+00-1.58590E-09-5.78856E-02 1.47282E-13 1.93010E-12
 -1     17760 7.61222E-01 1.50535E+00 8.70729E-10-1.20892E-01-2.09075E-13-1.22731E-12
 -1     17765 7.77035E-01 1.48954E+00-1.58409E-09-1.15754E-01 2.07731E-14 9.27977E-14
 -1     17766 7.67813E-01 1.49876E+00-1.58552E-09-5.78856E-02-1.43617E-13-1.98263E-12
 -1     17767 7.61222E-01 1.50535E+00 8.70336E-10-1.20892E-01 1.28987E-13 9.10166E-13
 -1     17772 7.77035E-01 1.48954E+00-1.58677E-09-1.15754E-01-2.04522E-15-6.53577E-14
 -1     17773 7.67813E-01 1.49876E+00-1.58549E-09-5.78856E-02 1.71512E-13 1.91012E-12
 -1     17774 7.61222E-01 1.50535E+00 8.70258E-10-1.20892E-01-1.66419E-13-9.23565E-13
 -1     17779 7.77035E-01 1.48954E+00-1.58407E-09-1.15754E-01-4.56295E-14 3.33563E-16
 -1     17780 7.67813E-01 1.49876E+00-1.58591E-09-5.78856E-02-1.44018E-13-1.94023E-12
 -1     17781 7.61222E-01 1.50535E+00 8.70737E-10-1.20892E-01 1.68143E-13 1.26693E-12
 -1     17786 7.77035E-01 1.48954E+00-1.58708E-09-1.15754E-01-1.65716E-13-7.85680E-13
 -1     17787 7.67813E-01 1.49876E+00-1.58484E-09-5.78856E-02 3.01693E-14 1.48471E-13
 -1     17788 7.61222E-01 1.50535E+00 8.69933E-10-1.20892E-01-1.54882E-14 1.19337E-13
 -1     17793 7.77035E-01 1.48954E+00-1.58571E-09-1.15754E-01 7.36985E-13 4.80494E-12
 -1     17794 7.67813E-01 1.49876E+00-1.58420E-09-5.78856E-02 7.08784E-13 8.90816E-12
 -1     17795 7.61222E-01 1.50535E+00 8.69298E-10-1.20892E-01-6.46866E-13-3.96651E-12
 -1     17800 7.77035E-01 1.48954E+00-1.57686E-09-1.15754E-01-2.82605E-12-1.78588E-11
 -1     17801 7.67813E-01 1.49876E+00-1.59263E-09-5.78856E-02-3.60641E-12-4.57544E-11
 -1     17802 7.61222E-01 1.50535E+00 8.75737E-10-1.20892E-01 4.04878E-12 2.55315E-11
 -1     17807 7.77035E-01 1.48954E+00-1.61776E-09-1.15754E-01 9.74168E-12 6.15095E-11
 -1     17811 8.30241E-01 1.43633E+00-1.61767E-09-2.20177E-01-1.93095E-11-5.91751E-11
 -1     17812 8.03588E-01 1.46299E+00-1.59271E-09-1.67990E-01 1.06808E-11 4.45808E-11
 -1     17813 8.16789E-01 1.44979E+00 8.75793E-10-2.29950E-01-8.04013E-12-2.46331E-11
 -1     17818 8.30241E-01 1.43633E+00-1.57676E-09-2.20177E-01 5.52625E-12 1.71000E-11
 -1     17819 8.03588E-01 1.46299E+00-1.58428E-09-1.67990E-01-2.12934E-12-8.74294E-12
 -1     17820 8.16789E-01 1.44979E+00 8.69256E-10-2.29950E-01 1.18294E-12 3.69368E-12
 -1     17825 8.30241E-01 1.43633E+00-1.58556E-09-2.20177E-01-1.51858E-12-4.73293E-12
 -1     17826 8.03588E-01 1.46299E+00-1.58490E-09-1.67990E-01-9.88541E-14-1.61708E-13
 -1     17827 8.16789E-01 1.44979E+00 8.69982E-10-2.29950E-01-6.59838E-14-1.53666E-13
 -1     17832 8.30241E-01 1.43633E+00-1.58693E-09-2.20177E-01 2.28667E-13 7.12293E-13
 -1     17833 8.03588E-01 1.46299E+00-1.58597E-09-1.67990E-01 3.92511E-13 1.90048E-12
 -1     17834 8.16789E-01 1.44979E+00 8.70779E-10-2.29950E-01-4.27577E-13-1.28293E-12
 -1     17839 8.30241E-01 1.43633E+00-1.58399E-09-2.20177E-01 2.43609E-14 3.63340E-14
 -1     17840 8.03588E-01 1.46299E+00-1.58560E-09-1.67990E-01-4.93697E-13-1.87377E-12
 -1     17841 8.16789E-01 1.44979E+00 8.70269E-10-2.29950E-01 2.75218E-13 9.22155E-13
 -1     17846 8.30241E-01 1.43633E+00-1.58675E-09-2.20177E-01 8.01300E-15-7.74011E-15
 -1     17847 8.03588E-01 1.46299E+00-1.58557E-09-1.67990E-01 4.36320E-13 1.84691E-12
 -1     17848 8.16789E-01 1.44979E+00 8.70349E-10-2.29950E-01-2.80062E-13-9.23931E-13
 -1     17853 8.30241E-01 1.43633E+00-1.58403E-09-2.20177E-01-3.94218E-14-1.84180E-14
 -1     17854 8.03588E-01 1.46299E+00-1.58599E-09-1.67990E-01-4.65734E-13-1.82733E-12
 -1     17855 8.16789E-01 1.44979E+00 8.70780E-10-2.29950E-01 4.10992E-13 1.22403E-12
 -1     17860 8.30241E-01 1.43633E+00-1.58703E-09-2.20177E-01-2.07296E-13-6.47068E-13
 -1     17861 8.03588E-01 1.46299E+00-1.58496E-09-1.67990E-01 4.50229E-14 1.82461E-13
 -1     17862 8.16789E-01 1.44979E+00 8.69948E-10-2.29950E-01 6.62220E-14 2.25036E-13
 -1     17867 8.30241E-01 1.43633E+00-1.58576E-09-2.20177E-01 1.52280E-12 4.71413E-12
 -1     17868 8.03588E-01 1.46299E+00-1.58432E-09-1.67990E-01 2.07792E-12 8.72955E-12
 -1     17869 8.16789E-01 1.44979E+00 8.69261E-10-2.29950E-01-1.20236E-12-3.75910E-12
 -1     17874 8.30241E-01 1.43633E+00-1.57677E-09-2.20177E-01-5.55866E-12-1.72304E-11
 -1     17875 8.03588E-01 1.46299E+00-1.59273E-09-1.67990E-01-1.07553E-11-4.46691E-11
 -1     17876 8.16789E-01 1.44979E+00 8.75752E-10-2.29950E-01 7.98980E-12 2.45666E-11
 -1     17881 8.30241E-01 1.43633E+00-1.61761E-09-2.20177E-01 1.92346E-11 5.91964E-11
 -1     17885 9.13111E-01 1.35346E+00-1.61806E-09-3.03047E-01-2.83455E-11-5.53721E-11
 -1     17886 8.71637E-01 1.39494E+00-1.59271E-09-2.61651E-01 1.76110E-11 4.23831E-11
 -1     17887 9.03338E-01 1.36324E+00 8.76021E-10-3.16499E-01-1.18028E-11-2.30073E-11
 -1     17892 9.13111E-01 1.35346E+00-1.57722E-09-3.03047E-01 8.12604E-12 1.60489E-11
 -1     17893 8.71637E-01 1.39494E+00-1.58429E-09-2.61651E-01-3.36148E-12-8.34448E-12
 -1     17894 9.03338E-01 1.36324E+00 8.69559E-10-3.16499E-01 1.74453E-12 3.51103E-12
 -1     17899 9.13111E-01 1.35346E+00-1.58598E-09-3.03047E-01-2.29886E-12-4.41647E-12
 -1     17900 8.71637E-01 1.39494E+00-1.58486E-09-2.61651E-01-4.16116E-14-1.95618E-13
 -1     17901 9.03338E-01 1.36324E+00 8.70279E-10-3.16499E-01-8.99607E-14-8.10386E-14
 -1     17906 9.13111E-01 1.35346E+00-1.58729E-09-3.03047E-01 2.76717E-13 6.78723E-13
 -1     17907 8.71637E-01 1.39494E+00-1.58598E-09-2.61651E-01 7.61610E-13 1.74191E-12
 -1     17908 9.03338E-01 1.36324E+00 8.71084E-10-3.16499E-01-6.39138E-13-1.23115E-12
 -1     17913 9.13111E-01 1.35346E+00-1.58429E-09-3.03047E-01-1.84305E-14 2.93250E-14
 -1     17914 8.71637E-01 1.39494E+00-1.58558E-09-2.61651E-01-7.15394E-13-1.78488E-12
 -1     17915 9.03338E-01 1.36324E+00 8.70676E-10-3.16499E-01 4.32174E-13 8.54641E-13
 -1     17920 9.13111E-01 1.35346E+00-1.58698E-09-3.03047E-01 4.49184E-14-1.57810E-14
 -1     17921 8.71637E-01 1.39494E+00-1.58559E-09-2.61651E-01 7.81125E-13 1.78194E-12
 -1     17922 9.03338E-01 1.36324E+00 8.70630E-10-3.16499E-01-3.84791E-13-8.01550E-13
 -1     17927 9.13111E-01 1.35346E+00-1.58430E-09-3.03047E-01 6.86625E-14 1.90429E-14
 -1     17928 8.71637E-01 1.39494E+00-1.58599E-09-2.61651E-01-7.08769E-13-1.70884E-12
 -1     17929 9.03338E-01 1.36324E+00 8.71049E-10-3.16499E-01 6.65464E-13 1.20743E-12
 -1     17934 9.13111E-01 1.35346E+00-1.58731E-09-3.03047E-01-2.48987E-13-6.78926E-13
 -1     17935 8.71637E-01 1.39494E+00-1.58494E-09-2.61651E-01 8.09882E-14 2.08725E-13
 -1     17936 9.03338E-01 1.36324E+00 8.70280E-10-3.16499E-01 1.22713E-13 1.47476E-13
 -1     17941 9.13111E-01 1.35346E+00-1.58594E-09-3.03047E-01 2.31949E-12 4.41268E-12
 -1     17942 8.71637E-01 1.39494E+00-1.58433E-09-2.61651E-01 3.43644E-12 8.29340E-12
 -1     17943 9.03338E-01 1.36324E+00 8.69533E-10-3.16499E-01-1.74499E-12-3.54167E-12
 -1     17948 9.13111E-01 1.35346E+00-1.57721E-09-3.03047E-01-8.13653E-12-1.61382E-11
 -1     17949 8.71637E-01 1.39494E+00-1.59271E-09-2.61651E-01-1.75960E-11-4.24072E-11
 -1     17950 9.03338E-01 1.36324E+00 8.76012E-10-3.16499E-01 1.17889E-11 2.30329E-11
 -1     17955 9.13111E-01 1.35346E+00-1.61800E-09-3.03047E-01 2.83429E-11 5.54420E-11
 -1     17959 1.01753E+00 1.24904E+00-1.61758E-09-3.56253E-01-3.65528E-11-5.02506E-11
 -1     17960 9.65298E-01 1.30128E+00-1.59236E-09-3.29700E-01 2.40055E-11 3.90981E-11
 -1     17961 1.01240E+00 1.25418E+00 8.75825E-10-3.72066E-01-1.50961E-11-2.08422E-11
 -1     17966 1.01753E+00 1.24904E+00-1.57651E-09-3.56253E-01 1.07633E-11 1.47003E-11
 -1     17967 9.65298E-01 1.30128E+00-1.58399E-09-3.29700E-01-4.64392E-12-7.70812E-12
 -1     17968 1.01240E+00 1.25418E+00 8.69375E-10-3.72066E-01 2.44806E-12 3.21028E-12
 -1     17973 1.01753E+00 1.24904E+00-1.58543E-09-3.56253E-01-2.73871E-12-3.96997E-12
 -1     17974 9.65298E-01 1.30128E+00-1.58464E-09-3.29700E-01-4.48672E-14-2.40235E-13
 -1     17975 1.01240E+00 1.25418E+00 8.70170E-10-3.72066E-01 2.29483E-14-1.48527E-13
 -1     17980 1.01753E+00 1.24904E+00-1.58668E-09-3.56253E-01 4.97980E-13 6.50940E-13
 -1     17981 9.65298E-01 1.30128E+00-1.58573E-09-3.29700E-01 1.05659E-12 1.58953E-12
 -1     17982 1.01240E+00 1.25418E+00 8.70953E-10-3.72066E-01-6.69807E-13-1.03478E-12
 -1     17987 1.01753E+00 1.24904E+00-1.58373E-09-3.56253E-01 8.79074E-14 2.09139E-14
 -1     17988 9.65298E-01 1.30128E+00-1.58536E-09-3.29700E-01-9.69087E-13-1.67905E-12
 -1     17989 1.01240E+00 1.25418E+00 8.70498E-10-3.72066E-01 6.06868E-13 7.60171E-13
 -1     17994 1.01753E+00 1.24904E+00-1.58640E-09-3.56253E-01 2.90365E-14-1.55583E-14
 -1     17995 9.65298E-01 1.30128E+00-1.58533E-09-3.29700E-01 1.01477E-12 1.70078E-12
 -1     17996 1.01240E+00 1.25418E+00 8.70554E-10-3.72066E-01-5.42925E-13-7.82636E-13
 -1     18001 1.01753E+00 1.24904E+00-1.58369E-09-3.56253E-01-1.21814E-14-1.02066E-13
 -1     18002 9.65298E-01 1.30128E+00-1.58570E-09-3.29700E-01-1.01313E-12-1.63157E-12
 -1     18003 1.01240E+00 1.25418E+00 8.70965E-10-3.72066E-01 7.47934E-13 9.98957E-13
 -1     18008 1.01753E+00 1.24904E+00-1.58661E-09-3.56253E-01-4.81180E-13-5.73821E-13
 -1     18009 9.65298E-01 1.30128E+00-1.58462E-09-3.29700E-01 9.56998E-14 2.04196E-13
 -1     18010 1.01240E+00 1.25418E+00 8.70176E-10-3.72066E-01 7.04693E-14 8.69053E-14
 -1     18015 1.01753E+00 1.24904E+00-1.58539E-09-3.56253E-01 2.83542E-12 3.83700E-12
 -1     18016 9.65298E-01 1.30128E+00-1.58399E-09-3.29700E-01 4.66353E-12 7.64595E-12
 -1     18017 1.01240E+00 1.25418E+00 8.69346E-10-3.72066E-01-2.40536E-12-3.23931E-12
 -1     18022 1.01753E+00 1.24904E+00-1.57655E-09-3.56253E-01-1.07414E-11-1.47356E-11
 -1     18023 9.65298E-01 1.30128E+00-1.59234E-09-3.29700E-01-2.40009E-11-3.90919E-11
 -1     18024 1.01240E+00 1.25418E+00 8.75819E-10-3.72066E-01 1.50812E-11 2.08374E-11
 -1     18029 1.01753E+00 1.24904E+00-1.61758E-09-3.56253E-01 3.65238E-11 5.03298E-11
 -1     18033 1.13329E+00 1.13329E+00-1.61722E-09-3.74587E-01-4.38400E-11-4.40536E-11
 -1     18034 1.07540E+00 1.19117E+00-1.59327E-09-3.65475E-01 2.96812E-11 3.48390E-11
 -1     18035 1.13329E+00 1.13329E+00 8.75476E-10-3.91214E-01-1.81479E-11-1.82490E-11
 -1     18040 1.13329E+00 1.13329E+00-1.57606E-09-3.74587E-01 1.29864E-11 1.28164E-11
 -1     18041 1.07540E+00 1.19117E+00-1.58486E-09-3.65475E-01-5.84833E-12-6.72365E-12
 -1     18042 1.13329E+00 1.13329E+00 8.68994E-10-3.91214E-01 2.87719E-12 2.82956E-12
 -1     18047 1.13329E+00 1.13329E+00-1.58521E-09-3.74587E-01-3.39603E-12-3.25137E-12
 -1     18048 1.07540E+00 1.19117E+00-1.58550E-09-3.65475E-01-2.18627E-13-1.32473E-13
 -1     18049 1.13329E+00 1.13329E+00 8.69725E-10-3.91214E-01-3.75529E-14 6.88287E-14
 -1     18054 1.13329E+00 1.13329E+00-1.58634E-09-3.74587E-01 5.38205E-13 4.68369E-13
 -1     18055 1.07540E+00 1.19117E+00-1.58655E-09-3.65475E-01 1.23188E-12 1.45429E-12
 -1     18056 1.13329E+00 1.13329E+00 8.70517E-10-3.91214E-01-1.01640E-12-1.04196E-12
 -1     18061 1.13329E+00 1.13329E+00-1.58348E-09-3.74587E-01 6.76195E-14-4.11283E-14
 -1     18062 1.07540E+00 1.19117E+00-1.58619E-09-3.65475E-01-1.27569E-12-1.48978E-12
 -1     18063 1.13329E+00 1.13329E+00 8.70063E-10-3.91214E-01 6.65432E-13 6.36126E-13
 -1     18068 1.13329E+00 1.13329E+00-1.58617E-09-3.74587E-01-8.59877E-15 5.36992E-14
 -1     18069 1.07540E+00 1.19117E+00-1.58618E-09-3.65475E-01 1.37215E-12 1.45871E-12
 -1     18070 1.13329E+00 1.13329E+00 8.70043E-10-3.91214E-01-6.79443E-13-6.92938E-13
 -1     18075 1.13329E+00 1.13329E+00-1.58352E-09-3.74587E-01-7.66285E-14-3.01777E-14
 -1     18076 1.07540E+00 1.19117E+00-1.58657E-09-3.65475E-01-1.20410E-12-1.49263E-12
 -1     18077 1.13329E+00 1.13329E+00 8.70446E-10-3.91214E-01 9.07841E-13 9.79517E-13
 -1     18082 1.13329E+00 1.13329E+00-1.58635E-09-3.74587E-01-5.57330E-13-5.31521E-13
 -1     18083 1.07540E+00 1.19117E+00-1.58547E-09-3.65475E-01 2.25472E-13 1.57510E-13
 -1     18084 1.13329E+00 1.13329E+00 8.69669E-10-3.91214E-01-1.76005E-14 9.46429E-14
 -1     18089 1.13329E+00 1.13329E+00-1.58518E-09-3.74587E-01 3.35101E-12 3.49394E-12
 -1     18090 1.07540E+00 1.19117E+00-1.58491E-09-3.65475E-01 5.88435E-12 6.72066E-12
 -1     18091 1.13329E+00 1.13329E+00 8.68996E-10-3.91214E-01-2.75970E-12-2.77671E-12
 -1     18096 1.13329E+00 1.13329E+00-1.57608E-09-3.74587E-01-1.28975E-11-1.27543E-11
 -1     18097 1.07540E+00 1.19117E+00-1.59329E-09-3.65475E-01-2.96968E-11-3.48692E-11
 -1     18098 1.13329E+00 1.13329E+00 8.75499E-10-3.91214E-01 1.81859E-11 1.83016E-11
 -1     18103 1.13329E+00 1.13329E+00-1.61721E-09-3.74587E-01 4.39186E-11 4.39094E-11
 -1     18107 1.24904E+00 1.01753E+00-1.61826E-09-3.56253E-01-5.05740E-11-3.66364E-11
 -1     18108 1.19117E+00 1.07540E+00-1.59273E-09-3.65475E-01 3.49261E-11 2.98697E-11
 -1     18109 1.25418E+00 1.01240E+00 8.76137E-10-3.72066E-01-2.11051E-11-1.52587E-11
 -1     18114 1.24904E+00 1.01753E+00-1.57785E-09-3.56253E-01 1.44422E-11 1.05174E-11
 -1     18115 1.19117E+00 1.07540E+00-1.58429E-09-3.65475E-01-6.91970E-12-5.73346E-12
 -1     18116 1.25418E+00 1.01240E+00 8.69645E-10-3.72066E-01 3.01476E-12 2.32506E-12
 -1     18121 1.24904E+00 1.01753E+00-1.58639E-09-3.56253E-01-4.27544E-12-2.99212E-12
 -1     18122 1.19117E+00 1.07540E+00-1.58488E-09-3.65475E-01-2.02615E-13 2.85708E-14
 -1     18123 1.25418E+00 1.01240E+00 8.70293E-10-3.72066E-01-3.05436E-13-1.86430E-13
 -1     18128 1.24904E+00 1.01753E+00-1.58812E-09-3.56253E-01 4.36081E-13 4.14170E-13
 -1     18129 1.19117E+00 1.07540E+00-1.58589E-09-3.65475E-01 1.37288E-12 1.24561E-12
 -1     18130 1.25418E+00 1.01240E+00 8.71002E-10-3.72066E-01-1.09843E-12-7.55582E-13
 -1     18135 1.24904E+00 1.01753E+00-1.58502E-09-3.56253E-01-1.21105E-13-1.40530E-14
 -1     18136 1.19117E+00 1.07540E+00-1.58549E-09-3.65475E-01-1.53537E-12-1.21396E-12
 -1     18137 1.25418E+00 1.01240E+00 8.70538E-10-3.72066E-01 6.49033E-13 5.73666E-13
 -1     18142 1.24904E+00 1.01753E+00-1.58788E-09-3.56253E-01 3.97358E-14 4.51866E-15
 -1     18143 1.19117E+00 1.07540E+00-1.58547E-09-3.65475E-01 1.50373E-12 1.20295E-12
 -1     18144 1.25418E+00 1.01240E+00 8.70517E-10-3.72066E-01-6.97120E-13-5.13038E-13
 -1     18149 1.24904E+00 1.01753E+00-1.58502E-09-3.56253E-01 9.75496E-14 4.49755E-14
 -1     18150 1.19117E+00 1.07540E+00-1.58590E-09-3.65475E-01-1.36131E-12-1.26325E-12
 -1     18151 1.25418E+00 1.01240E+00 8.71002E-10-3.72066E-01 1.16941E-12 7.61720E-13
 -1     18156 1.24904E+00 1.01753E+00-1.58815E-09-3.56253E-01-4.10089E-13-4.50233E-13
 -1     18157 1.19117E+00 1.07540E+00-1.58486E-09-3.65475E-01 1.77047E-13 4.69944E-14
 -1     18158 1.25418E+00 1.01240E+00 8.70274E-10-3.72066E-01 2.63310E-13 1.31349E-13
 -1     18163 1.24904E+00 1.01753E+00-1.58641E-09-3.56253E-01 4.17756E-12 2.96425E-12
 -1     18164 1.19117E+00 1.07540E+00-1.58433E-09-3.65475E-01 6.90216E-12 5.80736E-12
 -1     18165 1.25418E+00 1.01240E+00 8.69619E-10-3.72066E-01-3.11967E-12-2.34003E-12
 -1     18170 1.24904E+00 1.01753E+00-1.57794E-09-3.56253E-01-1.43959E-11-1.06014E-11
 -1     18171 1.19117E+00 1.07540E+00-1.59272E-09-3.65475E-01-3.48868E-11-2.99175E-11
 -1     18172 1.25418E+00 1.01240E+00 8.76130E-10-3.72066E-01 2.11692E-11 1.52120E-11
 -1     18177 1.24904E+00 1.01753E+00-1.61828E-09-3.56253E-01 5.05579E-11 3.66134E-11
 -1     18181 1.35346E+00 9.13111E-01-1.61818E-09-3.03047E-01-5.55165E-11-2.81625E-11
 -1     18182 1.30128E+00 9.65298E-01-1.59184E-09-3.29700E-01 3.93340E-11 2.39914E-11
 -1     18183 1.36324E+00 9.03338E-01 8.76143E-10-3.16499E-01-2.30193E-11-1.16218E-11
 -1     18188 1.35346E+00 9.13111E-01-1.57726E-09-3.03047E-01 1.60606E-11 8.39708E-12
 -1     18189 1.30128E+00 9.65298E-01-1.58346E-09-3.29700E-01-7.68384E-12-4.83323E-12
 -1     18190 1.36324E+00 9.03338E-01 8.69743E-10-3.16499E-01 3.54640E-12 1.91674E-12
 -1     18195 1.35346E+00 9.13111E-01-1.58603E-09-3.03047E-01-4.47702E-12-2.11753E-12
 -1     18196 1.30128E+00 9.65298E-01-1.58407E-09-3.29700E-01-6.15679E-14-1.05796E-13
 -1     18197 1.36324E+00 9.03338E-01 8.70453E-10-3.16499E-01-1.83288E-13-6.20088E-15
 -1     18202 1.35346E+00 9.13111E-01-1.58732E-09-3.03047E-01 5.75657E-13 3.73586E-13
 -1     18203 1.30128E+00 9.65298E-01-1.58514E-09-3.29700E-01 1.61343E-12 9.71740E-13
 -1     18204 1.36324E+00 9.03338E-01 8.71286E-10-3.16499E-01-1.22180E-12-5.96990E-13
 -1     18209 1.35346E+00 9.13111E-01-1.58425E-09-3.03047E-01-6.65559E-14-1.40050E-14
 -1     18210 1.30128E+00 9.65298E-01-1.58469E-09-3.29700E-01-1.66395E-12-1.01555E-12
 -1     18211 1.36324E+00 9.03338E-01 8.70908E-10-3.16499E-01 8.37788E-13 4.19393E-13
 -1     18216 1.35346E+00 9.13111E-01-1.58695E-09-3.03047E-01-2.23122E-14 1.02479E-14
 -1     18217 1.30128E+00 9.65298E-01-1.58470E-09-3.29700E-01 1.61335E-12 1.04236E-12
 -1     18218 1.36324E+00 9.03338E-01 8.70850E-10-3.16499E-01-7.73993E-13-4.57772E-13
 -1     18223 1.35346E+00 9.13111E-01-1.58426E-09-3.03047E-01 1.51505E-13-9.00777E-15
 -1     18224 1.30128E+00 9.65298E-01-1.58509E-09-3.29700E-01-1.50754E-12-9.49100E-13
 -1     18225 1.36324E+00 9.03338E-01 8.71262E-10-3.16499E-01 1.26466E-12 6.17562E-13
 -1     18230 1.35346E+00 9.13111E-01-1.58727E-09-3.03047E-01-4.64956E-13-3.47124E-13
 -1     18231 1.30128E+00 9.65298E-01-1.58405E-09-3.29700E-01 5.57159E-14 1.35949E-13
 -1     18232 1.36324E+00 9.03338E-01 8.70470E-10-3.16499E-01 1.69258E-13 3.87314E-14
 -1     18237 1.35346E+00 9.13111E-01-1.58604E-09-3.03047E-01 4.50819E-12 2.17835E-12
 -1     18238 1.30128E+00 9.65298E-01-1.58347E-09-3.29700E-01 7.68105E-12 4.88455E-12
 -1     18239 1.36324E+00 9.03338E-01 8.69645E-10-3.16499E-01-3.48578E-12-1.88823E-12
 -1     18244 1.35346E+00 9.13111E-01-1.57737E-09-3.03047E-01-1.59769E-11-8.33706E-12
 -1     18245 1.30128E+00 9.65298E-01-1.59185E-09-3.29700E-01-3.93036E-11-2.39831E-11
 -1     18246 1.36324E+00 9.03338E-01 8.76096E-10-3.16499E-01 2.30340E-11 1.16278E-11
 -1     18251 1.35346E+00 9.13111E-01-1.61830E-09-3.03047E-01 5.54769E-11 2.81985E-11
 -1     18255 1.43633E+00 8.30241E-01-1.61673E-09-2.20177E-01-5.89029E-11-1.92692E-11
 -1     18256 1.39494E+00 8.71637E-01-1.59312E-09-2.61651E-01 4.23522E-11 1.74090E-11
 -1     18257 1.44979E+00 8.16789E-01 8.75422E-10-2.29950E-01-2.43053E-11-7.99803E-12
 -1     18262 1.43633E+00 8.30241E-01-1.57510E-09-2.20177E-01 1.75515E-11 5.66024E-12
 -1     18263 1.39494E+00 8.71637E-01-1.58479E-09-2.61651E-01-8.11578E-12-3.54480E-12
 -1     18264 1.44979E+00 8.16789E-01 8.69046E-10-2.29950E-01 3.94244E-12 1.24329E-12
 -1     18269 1.43633E+00 8.30241E-01-1.58429E-09-2.20177E-01-4.22541E-12-1.36579E-12
 -1     18270 1.39494E+00 8.71637E-01-1.58549E-09-2.61651E-01-2.27924E-13-2.22838E-13
 -1     18271 1.44979E+00 8.16789E-01 8.69919E-10-2.29950E-01 1.46429E-13 2.49158E-14
 -1     18276 1.43633E+00 8.30241E-01-1.58520E-09-2.20177E-01 9.89786E-13 2.95330E-13
 -1     18277 1.39494E+00 8.71637E-01-1.58661E-09-2.61651E-01 1.86176E-12 6.09863E-13
 -1     18278 1.44979E+00 8.16789E-01 8.70724E-10-2.29950E-01-1.04751E-12-3.48503E-13
 -1     18283 1.43633E+00 8.30241E-01-1.58235E-09-2.20177E-01 3.57563E-13 6.06586E-14
 -1     18284 1.39494E+00 8.71637E-01-1.58621E-09-2.61651E-01-1.79546E-12-7.84161E-13
 -1     18285 1.44979E+00 8.16789E-01 8.70378E-10-2.29950E-01 9.58302E-13 3.43830E-13
 -1     18290 1.43633E+00 8.30241E-01-1.58489E-09-2.20177E-01-2.77736E-14 1.26599E-15
 -1     18291 1.39494E+00 8.71637E-01-1.58618E-09-2.61651E-01 1.84569E-12 7.73600E-13
 -1     18292 1.44979E+00 8.16789E-01 8.70390E-10-2.29950E-01-9.58929E-13-2.94340E-13
 -1     18297 1.43633E+00 8.30241E-01-1.58223E-09-2.20177E-01-2.54660E-13-7.01267E-14
 -1     18298 1.39494E+00 8.71637E-01-1.58656E-09-2.61651E-01-1.80354E-12-6.85249E-13
 -1     18299 1.44979E+00 8.16789E-01 8.70815E-10-2.29950E-01 1.15697E-12 3.71553E-13
 -1     18304 1.43633E+00 8.30241E-01-1.58507E-09-2.20177E-01-9.39046E-13-2.64584E-13
 -1     18305 1.39494E+00 8.71637E-01-1.58543E-09-2.61651E-01 1.87504E-13 2.67608E-13
 -1     18306 1.44979E+00 8.16789E-01 8.69981E-10-2.29950E-01-1.49408E-13 1.69162E-14
 -1     18311 1.43633E+00 8.30241E-01-1.58421E-09-2.20177E-01 4.24029E-12 1.46743E-12
 -1     18312 1.39494E+00 8.71637E-01-1.58481E-09-2.61651E-01 8.29040E-12 3.56048E-12
 -1     18313 1.44979E+00 8.16789E-01 8.69049E-10-2.29950E-01-3.89474E-12-1.21968E-12
 -1     18318 1.43633E+00 8.30241E-01-1.57509E-09-2.20177E-01-1.75235E-11-5.62135E-12
 -1     18319 1.39494E+00 8.71637E-01-1.59317E-09-2.61651E-01-4.22585E-11-1.74346E-11
 -1     18320 1.44979E+00 8.16789E-01 8.75419E-10-2.29950E-01 2.43164E-11 7.99579E-12
 -1     18325 1.43633E+00 8.30241E-01-1.61676E-09-2.20177E-01 5.89940E-11 1.92318E-11
 -1     18329 1.48954E+00 7.77035E-01-1.61762E-09-1.15754E-01-6.14210E-11-9.99184E-12
 -1     18330 1.46299E+00 8.03588E-01-1.59363E-09-1.67990E-01 4.44220E-11 1.08604E-11
 -1     18331 1.50535E+00 7.61222E-01 8.75551E-10-1.20892E-01-2.54968E-11-4.24137E-12
 -1     18336 1.48954E+00 7.77035E-01-1.57685E-09-1.15754E-01 1.78976E-11 2.50471E-12
 -1     18337 1.46299E+00 8.03588E-01-1.58526E-09-1.67990E-01-8.68256E-12-1.85255E-12
 -1     18338 1.50535E+00 7.61222E-01 8.69016E-10-1.20892E-01 3.94131E-12 4.59534E-13
 -1     18343 1.48954E+00 7.77035E-01-1.58569E-09-1.15754E-01-4.74761E-12-9.77184E-13
 -1     18344 1.46299E+00 8.03588E-01-1.58587E-09-1.67990E-01-3.33785E-13 1.06853E-13
 -1     18345 1.50535E+00 7.61222E-01 8.69725E-10-1.20892E-01-1.35781E-13-9.06991E-14
 -1     18350 1.48954E+00 7.77035E-01-1.58706E-09-1.15754E-01 6.98024E-13 4.65205E-14
 -1     18351 1.46299E+00 8.03588E-01-1.58699E-09-1.67990E-01 1.87682E-12 5.22926E-13
 -1     18352 1.50535E+00 7.61222E-01 8.70417E-10-1.20892E-01-1.31503E-12-2.27154E-13
 -1     18357 1.48954E+00 7.77035E-01-1.58415E-09-1.15754E-01 9.73735E-16 7.16808E-16
 -1     18358 1.46299E+00 8.03588E-01-1.58665E-09-1.67990E-01-1.92408E-12-4.26489E-13
 -1     18359 1.50535E+00 7.61222E-01 8.69992E-10-1.20892E-01 8.96773E-13 1.61292E-13
 -1     18364 1.48954E+00 7.77035E-01-1.58687E-09-1.15754E-01-2.07385E-14 2.71599E-14
 -1     18365 1.46299E+00 8.03588E-01-1.58661E-09-1.67990E-01 1.88061E-12 4.28562E-13
 -1     18366 1.50535E+00 7.61222E-01 8.70012E-10-1.20892E-01-9.79724E-13-1.25130E-13
 -1     18371 1.48954E+00 7.77035E-01-1.58415E-09-1.15754E-01-5.69390E-14 4.82881E-14
 -1     18372 1.46299E+00 8.03588E-01-1.58697E-09-1.67990E-01-1.88855E-12-5.45301E-13
 -1     18373 1.50535E+00 7.61222E-01 8.70522E-10-1.20892E-01 1.29834E-12 2.54373E-13
 -1     18378 1.48954E+00 7.77035E-01-1.58704E-09-1.15754E-01-7.71697E-13-1.88489E-14
 -1     18379 1.46299E+00 8.03588E-01-1.58587E-09-1.67990E-01 3.20322E-13-3.80441E-14
 -1     18380 1.50535E+00 7.61222E-01 8.69743E-10-1.20892E-01 1.74863E-13 9.23486E-14
 -1     18385 1.48954E+00 7.77035E-01-1.58570E-09-1.15754E-01 4.84366E-12 9.06021E-13
 -1     18386 1.46299E+00 8.03588E-01-1.58527E-09-1.67990E-01 8.74475E-12 1.89502E-12
 -1     18387 1.50535E+00 7.61222E-01 8.69052E-10-1.20892E-01-3.92528E-12-4.56684E-13
 -1     18392 1.48954E+00 7.77035E-01-1.57676E-09-1.15754E-01-1.79456E-11-2.52547E-12
 -1     18393 1.46299E+00 8.03588E-01-1.59364E-09-1.67990E-01-4.43829E-11-1.08348E-11
 -1     18394 1.50535E+00 7.61222E-01 8.75571E-10-1.20892E-01 2.54922E-11 4.24724E-12
 -1     18399 1.48954E+00 7.77035E-01-1.61758E-09-1.15754E-01 6.14264E-11 9.99417E-12
 -1     18403 1.49876E+00 7.67813E-01-1.59177E-09-5.78856E-02 4.60392E-11 3.80315E-12
 -1     18407 1.49876E+00 7.67813E-01-1.58330E-09-5.78856E-02-9.15969E-12-5.07765E-13
 -1     18411 1.49876E+00 7.67813E-01-1.58380E-09-5.78856E-02-4.98058E-14 1.57330E-13
 -1     18415 1.49876E+00 7.67813E-01-1.58486E-09-5.78856E-02 1.79654E-12 2.51178E-13
 -1     18419 1.49876E+00 7.67813E-01-1.58444E-09-5.78856E-02-1.88542E-12-1.09685E-13
 -1     18423 1.49876E+00 7.67813E-01-1.58443E-09-5.78856E-02 1.87751E-12 1.09218E-13
 -1     18427 1.49876E+00 7.67813E-01-1.58484E-09-5.78856E-02-1.74481E-12-2.39379E-13
 -1     18431 1.49876E+00 7.67813E-01-1.58383E-09-5.78856E-02 3.22422E-14-1.62615E-13
 -1     18435 1.49876E+00 7.67813E-01-1.58331E-09-5.78856E-02 9.20625E-12 5.26627E-13
 -1     18439 1.49876E+00 7.67813E-01-1.59178E-09-5.78856E-02-4.60888E-11-3.78085E-12
 -1     18445 8.04943E-01 1.46163E+00-1.34755E-09-1.06686E-01-7.76058E-12-4.89771E-11
 -1     18446 7.96443E-01 1.47013E+00-1.32639E-09-5.33510E-02 2.79559E-12 3.57257E-11
 -1     18447 7.90987E-01 1.47559E+00 7.26548E-10-1.11220E-01-3.14497E-12-1.99134E-11
 -1     18452 8.04943E-01 1.46163E+00-1.31003E-09-1.06686E-01 2.21811E-12 1.39103E-11
 -1     18453 7.96443E-01 1.47013E+00-1.31938E-09-5.33510E-02-6.54516E-13-8.28716E-12
 -1     18454 7.90987E-01 1.47559E+00 7.21823E-10-1.11220E-01 7.25389E-13 4.56307E-12
 -1     18459 8.04943E-01 1.46163E+00-1.32240E-09-1.06686E-01-5.82809E-13-3.93854E-12
 -1     18460 7.96443E-01 1.47013E+00-1.31925E-09-5.33510E-02 1.87496E-16 2.45900E-13
 -1     18461 7.90987E-01 1.47559E+00 7.21698E-10-1.11220E-01-4.73822E-14-4.81803E-13
 -1     18466 8.04943E-01 1.46163E+00-1.31914E-09-1.06686E-01 1.39561E-13 7.69580E-13
 -1     18467 7.96443E-01 1.47013E+00-1.31982E-09-5.33510E-02 7.02684E-14 1.26787E-12
 -1     18468 7.90987E-01 1.47559E+00 7.21923E-10-1.11220E-01-8.87490E-14-5.10833E-13
 -1     18473 8.04943E-01 1.46163E+00-1.31961E-09-1.06686E-01-2.24207E-14 2.55571E-14
 -1     18474 7.96443E-01 1.47013E+00-1.31953E-09-5.33510E-02-1.36746E-13-1.48057E-12
 -1     18475 7.90987E-01 1.47559E+00 7.21699E-10-1.11220E-01 9.55667E-14 6.37289E-13
 -1     18480 8.04943E-01 1.46163E+00-1.31996E-09-1.06686E-01-1.83685E-14 1.17619E-13
 -1     18481 7.96443E-01 1.47013E+00-1.31954E-09-5.33510E-02 1.14540E-13 1.45938E-12
 -1     18482 7.90987E-01 1.47559E+00 7.21740E-10-1.11220E-01-1.05620E-13-5.80383E-13
 -1     18487 8.04943E-01 1.46163E+00-1.31960E-09-1.06686E-01 4.27603E-14 4.48676E-14
 -1     18488 7.96443E-01 1.47013E+00-1.31981E-09-5.33510E-02-7.04088E-14-1.24286E-12
 -1     18489 7.90987E-01 1.47559E+00 7.21940E-10-1.11220E-01 8.18879E-14 5.64717E-13
 -1     18494 8.04943E-01 1.46163E+00-1.31921E-09-1.06686E-01-1.28124E-13-7.75899E-13
 -1     18495 7.96443E-01 1.47013E+00-1.31927E-09-5.33510E-02-5.75604E-15-2.71483E-13
 -1     18496 7.90987E-01 1.47559E+00 7.21685E-10-1.11220E-01 1.79211E-14 3.54213E-13
 -1     18501 8.04943E-01 1.46163E+00-1.32244E-09-1.06686E-01 5.78933E-13 3.81214E-12
 -1     18502 7.96443E-01 1.47013E+00-1.31937E-09-5.33510E-02 6.73452E-13 8.26774E-12
 -1     18503 7.90987E-01 1.47559E+00 7.21808E-10-1.11220E-01-7.55578E-13-4.51147E-12
 -1     18508 8.04943E-01 1.46163E+00-1.31005E-09-1.06686E-01-2.30011E-12-1.37949E-11
 -1     18509 7.96443E-01 1.47013E+00-1.32639E-09-5.33510E-02-2.82176E-12-3.57847E-11
 -1     18510 7.90987E-01 1.47559E+00 7.26467E-10-1.11220E-01 3.11213E-12 1.99051E-11
 -1     18515 8.04943E-01 1.46163E+00-1.34761E-09-1.06686E-01 7.75460E-12 4.90980E-11
 -1     18519 8.53981E-01 1.41260E+00-1.34736E-09-2.02929E-01-1.53365E-11-4.71455E-11
 -1     18520 8.29416E-01 1.43716E+00-1.32646E-09-1.54831E-01 8.39012E-12 3.48752E-11
 -1     18521 8.42109E-01 1.42447E+00 7.26457E-10-2.11554E-01-6.23595E-12-1.90675E-11
 -1     18526 8.53981E-01 1.41260E+00-1.30992E-09-2.02929E-01 4.31499E-12 1.34009E-11
 -1     18527 8.29416E-01 1.43716E+00-1.31950E-09-1.54831E-01-1.98328E-12-8.06106E-12
 -1     18528 8.42109E-01 1.42447E+00 7.21731E-10-2.11554E-01 1.36154E-12 4.25684E-12
 -1     18533 8.53981E-01 1.41260E+00-1.32243E-09-2.02929E-01-1.30291E-12-3.81723E-12
 -1     18534 8.29416E-01 1.43716E+00-1.31927E-09-1.54831E-01 1.33162E-14 2.61640E-13
 -1     18535 8.42109E-01 1.42447E+00 7.21616E-10-2.11554E-01-1.50555E-13-3.21078E-13
 -1     18540 8.53981E-01 1.41260E+00-1.31907E-09-2.02929E-01 1.23662E-13 7.65401E-13
 -1     18541 8.29416E-01 1.43716E+00-1.31988E-09-1.54831E-01 2.24169E-13 1.28323E-12
 -1     18542 8.42109E-01 1.42447E+00 7.21916E-10-2.11554E-01-2.33058E-13-6.22074E-13
 -1     18547 8.53981E-01 1.41260E+00-1.31945E-09-2.02929E-01-7.41411E-14-1.49894E-13
 -1     18548 8.29416E-01 1.43716E+00-1.31956E-09-1.54831E-01-3.69234E-13-1.49654E-12
 -1     18549 8.42109E-01 1.42447E+00 7.21650E-10-2.11554E-01 2.01110E-13 5.28674E-13
 -1     18554 8.53981E-01 1.41260E+00-1.31978E-09-2.02929E-01 6.07236E-14-1.71153E-13
 -1     18555 8.29416E-01 1.43716E+00-1.31954E-09-1.54831E-01 3.54158E-13 1.49822E-12
 -1     18556 8.42109E-01 1.42447E+00 7.21658E-10-2.11554E-01-1.76092E-13-6.82962E-13
 -1     18561 8.53981E-01 1.41260E+00-1.31941E-09-2.02929E-01 9.46897E-14 2.31251E-13
 -1     18562 8.29416E-01 1.43716E+00-1.31986E-09-1.54831E-01-2.59788E-13-1.19529E-12
 -1     18563 8.42109E-01 1.42447E+00 7.21836E-10-2.11554E-01 2.21552E-13 7.77790E-13
 -1     18568 8.53981E-01 1.41260E+00-1.31910E-09-2.02929E-01-1.57362E-13-5.11615E-13
 -1     18569 8.29416E-01 1.43716E+00-1.31933E-09-1.54831E-01-1.25375E-14-2.10281E-13
 -1     18570 8.42109E-01 1.42447E+00 7.21628E-10-2.11554E-01 1.92181E-13 4.84764E-13
 -1     18575 8.53981E-01 1.41260E+00-1.32223E-09-2.02929E-01 1.35797E-12 3.88142E-12
 -1     18576 8.29416E-01 1.43716E+00-1.31944E-09-1.54831E-01 1.99846E-12 8.00619E-12
 -1     18577 8.42109E-01 1.42447E+00 7.21762E-10-2.11554E-01-1.31890E-12-4.36963E-12
 -1     18582 8.53981E-01 1.41260E+00-1.30989E-09-2.02929E-01-4.23189E-12-1.34879E-11
 -1     18583 8.29416E-01 1.43716E+00-1.32647E-09-1.54831E-01-8.38138E-12-3.48314E-11
 -1     18584 8.42109E-01 1.42447E+00 7.26460E-10-2.11554E-01 6.23202E-12 1.90625E-11
 -1     18589 8.53981E-01 1.41260E+00-1.34746E-09-2.02929E-01 1.53771E-11 4.70493E-11
 -1     18593 9.30359E-01 1.33622E+00-1.34797E-09-2.79307E-01-2.26216E-11-4.42161E-11
 -1     18594 8.92134E-01 1.37444E+00-1.32650E-09-2.41154E-01 1.37672E-11 3.31512E-11
 -1     18595 9.21734E-01 1.34484E+00 7.26822E-10-2.91179E-01-9.21702E-12-1.78363E-11
 -1     18600 9.30359E-01 1.33622E+00-1.31041E-09-2.79307E-01 6.24688E-12 1.26214E-11
 -1     18601 8.92134E-01 1.37444E+00-1.31956E-09-2.41154E-01-3.14616E-12-7.72355E-12
 -1     18602 9.21734E-01 1.34484E+00 7.22192E-10-2.91179E-01 1.99634E-12 4.05193E-12
 -1     18607 9.30359E-01 1.33622E+00-1.32272E-09-2.79307E-01-1.90272E-12-3.68826E-12
 -1     18608 8.92134E-01 1.37444E+00-1.31939E-09-2.41154E-01 1.66481E-13 2.60950E-13
 -1     18609 9.21734E-01 1.34484E+00 7.22085E-10-2.91179E-01-2.55735E-13-4.48950E-13
 -1     18614 9.30359E-01 1.33622E+00-1.31949E-09-2.79307E-01 2.94475E-13 6.26865E-13
 -1     18615 8.92134E-01 1.37444E+00-1.31990E-09-2.41154E-01 5.23233E-13 1.13058E-12
 -1     18616 9.21734E-01 1.34484E+00 7.22353E-10-2.91179E-01-3.12392E-13-6.18699E-13
 -1     18621 9.30359E-01 1.33622E+00-1.31980E-09-2.79307E-01-4.03439E-14-2.09579E-13
 -1     18622 8.92134E-01 1.37444E+00-1.31961E-09-2.41154E-01-5.06741E-13-1.41420E-12
 -1     18623 9.21734E-01 1.34484E+00 7.22133E-10-2.91179E-01 3.08186E-13 5.78553E-13
 -1     18628 9.30359E-01 1.33622E+00-1.32018E-09-2.79307E-01 5.72756E-14 8.44366E-14
 -1     18629 8.92134E-01 1.37444E+00-1.31961E-09-2.41154E-01 6.08928E-13 1.38504E-12
 -1     18630 9.21734E-01 1.34484E+00 7.22061E-10-2.91179E-01-2.25586E-13-5.03088E-13
 -1     18635 9.30359E-01 1.33622E+00-1.31995E-09-2.79307E-01 9.97644E-14 1.36211E-13
 -1     18636 8.92134E-01 1.37444E+00-1.31994E-09-2.41154E-01-4.56589E-13-1.06764E-12
 -1     18637 9.21734E-01 1.34484E+00 7.22287E-10-2.91179E-01 3.64571E-13 5.82895E-13
 -1     18642 9.30359E-01 1.33622E+00-1.31955E-09-2.79307E-01-2.33081E-13-7.60008E-13
 -1     18643 8.92134E-01 1.37444E+00-1.31936E-09-2.41154E-01-2.84033E-14-2.65468E-13
 -1     18644 9.21734E-01 1.34484E+00 7.21978E-10-2.91179E-01 2.90093E-13 3.03178E-13
 -1     18649 9.30359E-01 1.33622E+00-1.32288E-09-2.79307E-01 1.95813E-12 3.51738E-12
 -1     18650 8.92134E-01 1.37444E+00-1.31948E-09-2.41154E-01 3.22003E-12 7.65035E-12
 -1     18651 9.21734E-01 1.34484E+00 7.22130E-10-2.91179E-01-2.00144E-12-4.14760E-12
 -1     18656 9.30359E-01 1.33622E+00-1.31039E-09-2.79307E-01-6.31992E-12-1.27042E-11
 -1     18657 8.92134E-01 1.37444E+00-1.32652E-09-2.41154E-01-1.37350E-11-3.31231E-11
 -1     18658 9.21734E-01 1.34484E+00 7.26796E-10-2.91179E-01 9.17706E-12 1.78225E-11
 -1     18663 9.30359E-01 1.33622E+00-1.34796E-09-2.79307E-01 2.25811E-11 4.41132E-11
 -1     18667 1.02660E+00 1.23997E+00-1.34754E-09-3.28345E-01-2.88977E-11-4.01684E-11
 -1     18668 9.78457E-01 1.28812E+00-1.32597E-09-3.03872E-01 1.87665E-11 3.05450E-11
 -1     18669 1.02207E+00 1.24451E+00 7.26572E-10-3.42301E-01-1.16084E-11-1.61775E-11
 -1     18674 1.02660E+00 1.23997E+00-1.30970E-09-3.28345E-01 8.56183E-12 1.14548E-11
 -1     18675 9.78457E-01 1.28812E+00-1.31898E-09-3.03872E-01-4.18099E-12-7.14640E-12
 -1     18676 1.02207E+00 1.24451E+00 7.21924E-10-3.42301E-01 2.81250E-12 3.65622E-12
 -1     18681 1.02660E+00 1.23997E+00-1.32219E-09-3.28345E-01-2.20787E-12-3.11175E-12
 -1     18682 9.78457E-01 1.28812E+00-1.31894E-09-3.03872E-01 2.79734E-13 1.19663E-13
 -1     18683 1.02207E+00 1.24451E+00 7.21860E-10-3.42301E-01-6.06383E-14-2.36348E-13
 -1     18688 1.02660E+00 1.23997E+00-1.31875E-09-3.28345E-01 7.18623E-13 6.80620E-13
 -1     18689 9.78457E-01 1.28812E+00-1.31947E-09-3.03872E-01 7.61928E-13 1.00916E-12
 -1     18690 1.02207E+00 1.24451E+00 7.22132E-10-3.42301E-01-2.61325E-13-5.04344E-13
 -1     18695 1.02660E+00 1.23997E+00-1.31921E-09-3.28345E-01 1.55617E-13-1.20480E-13
 -1     18696 9.78457E-01 1.28812E+00-1.31922E-09-3.03872E-01-7.39836E-13-1.30314E-12
 -1     18697 1.02207E+00 1.24451E+00 7.21900E-10-3.42301E-01 4.46099E-13 5.17779E-13
 -1     18702 1.02660E+00 1.23997E+00-1.31952E-09-3.28345E-01-3.73527E-14 1.82620E-15
 -1     18703 9.78457E-01 1.28812E+00-1.31921E-09-3.03872E-01 7.85440E-13 1.23916E-12
 -1     18704 1.02207E+00 1.24451E+00 7.22058E-10-3.42301E-01-4.39665E-13-6.09179E-13
 -1     18709 1.02660E+00 1.23997E+00-1.31905E-09-3.28345E-01-1.40709E-13 1.80593E-14
 -1     18710 9.78457E-01 1.28812E+00-1.31951E-09-3.03872E-01-6.89670E-13-1.02146E-12
 -1     18711 1.02207E+00 1.24451E+00 7.22230E-10-3.42301E-01 2.99423E-13 4.50015E-13
 -1     18716 1.02660E+00 1.23997E+00-1.31856E-09-3.28345E-01-4.94313E-13-7.62138E-13
 -1     18717 9.78457E-01 1.28812E+00-1.31889E-09-3.03872E-01-9.56372E-14-1.83997E-13
 -1     18718 1.02207E+00 1.24451E+00 7.21978E-10-3.42301E-01 1.83409E-13 2.93443E-13
 -1     18723 1.02660E+00 1.23997E+00-1.32208E-09-3.28345E-01 2.17301E-12 3.04711E-12
 -1     18724 9.78457E-01 1.28812E+00-1.31899E-09-3.03872E-01 4.26586E-12 7.05387E-12
 -1     18725 1.02207E+00 1.24451E+00 7.21941E-10-3.42301E-01-2.77995E-12-3.73797E-12
 -1     18730 1.02660E+00 1.23997E+00-1.30954E-09-3.28345E-01-8.40858E-12-1.14551E-11
 -1     18731 9.78457E-01 1.28812E+00-1.32592E-09-3.03872E-01-1.87548E-11-3.05993E-11
 -1     18732 1.02207E+00 1.24451E+00 7.26662E-10-3.42301E-01 1.17113E-11 1.61663E-11
 -1     18737 1.02660E+00 1.23997E+00-1.34745E-09-3.28345E-01 2.91023E-11 4.00030E-11
 -1     18741 1.13329E+00 1.13329E+00-1.34706E-09-3.45243E-01-3.50376E-11-3.49361E-11
 -1     18742 1.07994E+00 1.18664E+00-1.32723E-09-3.36845E-01 2.30834E-11 2.71451E-11
 -1     18743 1.13329E+00 1.13329E+00 7.26121E-10-3.59917E-01-1.40274E-11-1.41095E-11
 -1     18748 1.13329E+00 1.13329E+00-1.30890E-09-3.45243E-01 1.01303E-11 1.00203E-11
 -1     18749 1.07994E+00 1.18664E+00-1.32017E-09-3.36845E-01-5.26970E-12-6.11869E-12
 -1     18750 1.13329E+00 1.13329E+00 7.21376E-10-3.59917E-01 3.37497E-12 3.25697E-12
 -1     18755 1.13329E+00 1.13329E+00-1.32189E-09-3.45243E-01-2.45659E-12-2.87787E-12
 -1     18756 1.07994E+00 1.18664E+00-1.32004E-09-3.36845E-01 7.20593E-14 1.43692E-13
 -1     18757 1.13329E+00 1.13329E+00 7.21233E-10-3.59917E-01-2.05900E-13-2.20691E-13
 -1     18762 1.13329E+00 1.13329E+00-1.31831E-09-3.45243E-01 6.40775E-13 4.86892E-13
 -1     18763 1.07994E+00 1.18664E+00-1.32063E-09-3.36845E-01 9.07977E-13 9.28068E-13
 -1     18764 1.13329E+00 1.13329E+00 7.21498E-10-3.59917E-01-4.15015E-13-5.62703E-13
 -1     18769 1.13329E+00 1.13329E+00-1.31893E-09-3.45243E-01-8.84968E-14-1.99836E-14
 -1     18770 1.07994E+00 1.18664E+00-1.32041E-09-3.36845E-01-9.39627E-13-1.14759E-12
 -1     18771 1.13329E+00 1.13329E+00 7.21288E-10-3.59917E-01 4.89396E-13 4.94657E-13
 -1     18776 1.13329E+00 1.13329E+00-1.31921E-09-3.45243E-01 1.03162E-13-8.89809E-14
 -1     18777 1.07994E+00 1.18664E+00-1.32036E-09-3.36845E-01 1.00465E-12 1.05409E-12
 -1     18778 1.13329E+00 1.13329E+00 7.21206E-10-3.59917E-01-4.01429E-13-5.35380E-13
 -1     18783 1.13329E+00 1.13329E+00-1.31893E-09-3.45243E-01 2.05415E-13-3.34476E-14
 -1     18784 1.07994E+00 1.18664E+00-1.32063E-09-3.36845E-01-8.13146E-13-1.00488E-12
 -1     18785 1.13329E+00 1.13329E+00 7.21482E-10-3.59917E-01 4.58448E-13 5.22285E-13
 -1     18790 1.13329E+00 1.13329E+00-1.31831E-09-3.45243E-01-6.07301E-13-3.12516E-13
 -1     18791 1.07994E+00 1.18664E+00-1.32006E-09-3.36845E-01 1.84016E-14-1.22556E-13
 -1     18792 1.13329E+00 1.13329E+00 7.21337E-10-3.59917E-01 1.58467E-13 2.82239E-13
 -1     18797 1.13329E+00 1.13329E+00-1.32179E-09-3.45243E-01 2.60629E-12 2.86562E-12
 -1     18798 1.07994E+00 1.18664E+00-1.32014E-09-3.36845E-01 5.29837E-12 6.09485E-12
 -1     18799 1.13329E+00 1.13329E+00 7.21526E-10-3.59917E-01-3.32493E-12-3.14733E-12
 -1     18804 1.13329E+00 1.13329E+00-1.30883E-09-3.45243E-01-1.02757E-11-1.00399E-11
 -1     18805 1.07994E+00 1.18664E+00-1.32717E-09-3.36845E-01-2.30780E-11-2.71311E-11
 -1     18806 1.13329E+00 1.13329E+00 7.26155E-10-3.59917E-01 1.39555E-11 1.40830E-11
 -1     18811 1.13329E+00 1.13329E+00-1.34697E-09-3.45243E-01 3.48436E-11 3.50979E-11
 -1     18815 1.23997E+00 1.02660E+00-1.34794E-09-3.28345E-01-4.03951E-11-2.92572E-11
 -1     18816 1.18664E+00 1.07994E+00-1.32652E-09-3.36845E-01 2.72583E-11 2.35075E-11
 -1     18817 1.24451E+00 1.02207E+00 7.26941E-10-3.42301E-01-1.66027E-11-1.19299E-11
 -1     18822 1.23997E+00 1.02660E+00-1.31148E-09-3.28345E-01 1.09790E-11 8.25881E-12
 -1     18823 1.18664E+00 1.07994E+00-1.31945E-09-3.36845E-01-6.44490E-12-5.27266E-12
 -1     18824 1.24451E+00 1.02207E+00 7.22198E-10-3.42301E-01 3.48376E-12 2.65828E-12
 -1     18829 1.23997E+00 1.02660E+00-1.32317E-09-3.28345E-01-3.71115E-12-2.48734E-12
 -1     18830 1.18664E+00 1.07994E+00-1.31932E-09-3.36845E-01 1.10490E-13 2.89739E-13
 -1     18831 1.24451E+00 1.02207E+00 7.21911E-10-3.42301E-01-6.08619E-13-3.17834E-13
 -1     18836 1.23997E+00 1.02660E+00-1.32063E-09-3.28345E-01 5.26341E-13 3.51850E-13
 -1     18837 1.18664E+00 1.07994E+00-1.31983E-09-3.36845E-01 8.29193E-13 8.31683E-13
 -1     18838 1.24451E+00 1.02207E+00 7.22120E-10-3.42301E-01-6.59107E-13-3.81409E-13
 -1     18843 1.23997E+00 1.02660E+00-1.32073E-09-3.28345E-01-2.86329E-13-5.97465E-14
 -1     18844 1.18664E+00 1.07994E+00-1.31949E-09-3.36845E-01-1.08319E-12-9.08030E-13
 -1     18845 1.24451E+00 1.02207E+00 7.21914E-10-3.42301E-01 4.98898E-13 3.88681E-13
 -1     18850 1.23997E+00 1.02660E+00-1.32123E-09-3.28345E-01-1.34137E-14 7.12870E-15
 -1     18851 1.18664E+00 1.07994E+00-1.31955E-09-3.36845E-01 1.11380E-12 9.07762E-13
 -1     18852 1.24451E+00 1.02207E+00 7.21916E-10-3.42301E-01-5.00753E-13-3.65110E-13
 -1     18857 1.23997E+00 1.02660E+00-1.32068E-09-3.28345E-01 2.16733E-13 5.46877E-14
 -1     18858 1.18664E+00 1.07994E+00-1.31981E-09-3.36845E-01-8.21197E-13-8.43782E-13
 -1     18859 1.24451E+00 1.02207E+00 7.22189E-10-3.42301E-01 7.31728E-13 3.65227E-13
 -1     18864 1.23997E+00 1.02660E+00-1.32055E-09-3.28345E-01-3.50644E-13-3.92317E-13
 -1     18865 1.18664E+00 1.07994E+00-1.31934E-09-3.36845E-01-1.72042E-13-2.70982E-13
 -1     18866 1.24451E+00 1.02207E+00 7.21947E-10-3.42301E-01 5.91400E-13 3.58253E-13
 -1     18871 1.23997E+00 1.02660E+00-1.32326E-09-3.28345E-01 3.56402E-12 2.58424E-12
 -1     18872 1.18664E+00 1.07994E+00-1.31948E-09-3.36845E-01 6.51374E-12 5.32774E-12
 -1     18873 1.24451E+00 1.02207E+00 7.22147E-10-3.42301E-01-3.56034E-12-2.68571E-12
 -1     18878 1.23997E+00 1.02660E+00-1.31163E-09-3.28345E-01-1.11299E-11-8.17083E-12
 -1     18879 1.18664E+00 1.07994E+00-1.32652E-09-3.36845E-01-2.73217E-11-2.34089E-11
 -1     18880 1.24451E+00 1.02207E+00 7.26900E-10-3.42301E-01 1.65311E-11 1.18908E-11
 -1     18885 1.23997E+00 1.02660E+00-1.34795E-09-3.28345E-01 4.03293E-11 2.92310E-11
 -1     18889 1.33622E+00 9.30359E-01-1.34814E-09-2.79307E-01-4.41797E-11-2.24173E-11
 -1     18890 1.28812E+00 9.78457E-01-1.32533E-09-3.03872E-01 3.09931E-11 1.87474E-11
 -1     18891 1.34484E+00 9.21734E-01 7.27044E-10-2.91179E-01-1.78979E-11-9.00287E-12
 -1     18896 1.33622E+00 9.30359E-01-1.31050E-09-2.79307E-01 1.23910E-11 6.56662E-12
 -1     18897 1.28812E+00 9.78457E-01-1.31836E-09-3.03872E-01-7.15812E-12-4.61843E-12
 -1     18898 1.34484E+00 9.21734E-01 7.22366E-10-2.91179E-01 3.93779E-12 2.23758E-12
 -1     18903 1.33622E+00 9.30359E-01-1.32272E-09-2.79307E-01-3.71694E-12-1.67997E-12
 -1     18904 1.28812E+00 9.78457E-01-1.31818E-09-3.03872E-01 4.28494E-13 6.85021E-14
 -1     18905 1.34484E+00 9.21734E-01 7.22370E-10-2.91179E-01-4.38454E-13-1.49181E-13
 -1     18910 1.33622E+00 9.30359E-01-1.31943E-09-2.79307E-01 5.65049E-13 3.09039E-13
 -1     18911 1.28812E+00 9.78457E-01-1.31874E-09-3.03872E-01 9.56499E-13 4.86952E-13
 -1     18912 1.34484E+00 9.21734E-01 7.22631E-10-2.91179E-01-6.46814E-13-2.73926E-13
 -1     18917 1.33622E+00 9.30359E-01-1.31988E-09-2.79307E-01-3.19504E-13 2.16934E-14
 -1     18918 1.28812E+00 9.78457E-01-1.31846E-09-3.03872E-01-1.20958E-12-7.75521E-13
 -1     18919 1.34484E+00 9.21734E-01 7.22342E-10-2.91179E-01 5.16017E-13 2.58799E-13
 -1     18924 1.33622E+00 9.30359E-01-1.32032E-09-2.79307E-01 2.87317E-14-1.98708E-14
 -1     18925 1.28812E+00 9.78457E-01-1.31845E-09-3.03872E-01 1.20268E-12 7.99092E-13
 -1     18926 1.34484E+00 9.21734E-01 7.22327E-10-2.91179E-01-4.80670E-13-2.38093E-13
 -1     18931 1.33622E+00 9.30359E-01-1.31998E-09-2.79307E-01 2.36372E-13 1.27898E-13
 -1     18932 1.28812E+00 9.78457E-01-1.31870E-09-3.03872E-01-1.02750E-12-4.72883E-13
 -1     18933 1.34484E+00 9.21734E-01 7.22578E-10-2.91179E-01 6.04187E-13 3.07806E-13
 -1     18938 1.33622E+00 9.30359E-01-1.31955E-09-2.79307E-01-6.30799E-13-3.26606E-13
 -1     18939 1.28812E+00 9.78457E-01-1.31818E-09-3.03872E-01-4.08077E-13-6.58143E-14
 -1     18940 1.34484E+00 9.21734E-01 7.22272E-10-2.91179E-01 4.95777E-13 1.38353E-13
 -1     18945 1.33622E+00 9.30359E-01-1.32270E-09-2.79307E-01 3.86858E-12 1.64923E-12
 -1     18946 1.28812E+00 9.78457E-01-1.31834E-09-3.03872E-01 7.19704E-12 4.57689E-12
 -1     18947 1.34484E+00 9.21734E-01 7.22390E-10-2.91179E-01-3.87203E-12-2.17155E-12
 -1     18952 1.33622E+00 9.30359E-01-1.31043E-09-2.79307E-01-1.22242E-11-6.58066E-12
 -1     18953 1.28812E+00 9.78457E-01-1.32533E-09-3.03872E-01-3.09123E-11-1.87819E-11
 -1     18954 1.34484E+00 9.21734E-01 7.27003E-10-2.91179E-01 1.80959E-11 8.99741E-12
 -1     18959 1.33622E+00 9.30359E-01-1.34809E-09-2.79307E-01 4.43900E-11 2.23890E-11
 -1     18963 1.41260E+00 8.53981E-01-1.34662E-09-2.02929E-01-4.68093E-11-1.53203E-11
 -1     18964 1.37444E+00 8.92134E-01-1.32703E-09-2.41154E-01 3.28593E-11 1.33572E-11
 -1     18965 1.42447E+00 8.42109E-01 7.26022E-10-2.11554E-01-1.85665E-11-6.16627E-12
 -1     18970 1.41260E+00 8.53981E-01-1.30768E-09-2.02929E-01 1.42267E-11 4.39866E-12
 -1     18971 1.37444E+00 8.92134E-01-1.32005E-09-2.41154E-01-7.34052E-12-3.35295E-12
 -1     18972 1.42447E+00 8.42109E-01 7.21597E-10-2.11554E-01 4.77184E-12 1.42251E-12
 -1     18977 1.41260E+00 8.53981E-01-1.32081E-09-2.02929E-01-2.99120E-12-1.21374E-12
 -1     18978 1.37444E+00 8.92134E-01-1.32004E-09-2.41154E-01 2.43672E-13-2.36624E-13
 -1     18979 1.42447E+00 8.42109E-01 7.21616E-10-2.11554E-01 1.01744E-13-3.66173E-14
 -1     18984 1.41260E+00 8.53981E-01-1.31672E-09-2.02929E-01 9.73227E-13 2.87328E-13
 -1     18985 1.37444E+00 8.92134E-01-1.32067E-09-2.41154E-01 1.27700E-12 3.76243E-13
 -1     18986 1.42447E+00 8.42109E-01 7.21979E-10-2.11554E-01-4.12805E-13-1.84237E-13
 -1     18991 1.41260E+00 8.53981E-01-1.31734E-09-2.02929E-01 2.69753E-13-1.55453E-14
 -1     18992 1.37444E+00 8.92134E-01-1.32044E-09-2.41154E-01-1.37289E-12-6.64286E-13
 -1     18993 1.42447E+00 8.42109E-01 7.21842E-10-2.11554E-01 7.45737E-13 2.31519E-13
 -1     18998 1.41260E+00 8.53981E-01-1.31753E-09-2.02929E-01-1.77978E-13 1.75584E-14
 -1     18999 1.37444E+00 8.92134E-01-1.32048E-09-2.41154E-01 1.37628E-12 6.76545E-13
 -1     19000 1.42447E+00 8.42109E-01 7.21811E-10-2.11554E-01-8.04381E-13-2.32289E-13
 -1     19005 1.41260E+00 8.53981E-01-1.31733E-09-2.02929E-01-2.89914E-13-4.75709E-14
 -1     19006 1.37444E+00 8.92134E-01-1.32065E-09-2.41154E-01-1.34731E-12-3.51626E-13
 -1     19007 1.42447E+00 8.42109E-01 7.22015E-10-2.11554E-01 4.08473E-13 1.45632E-13
 -1     19012 1.41260E+00 8.53981E-01-1.31675E-09-2.02929E-01-1.11324E-12-3.48433E-13
 -1     19013 1.37444E+00 8.92134E-01-1.32006E-09-2.41154E-01-6.14942E-14 1.17853E-13
 -1     19014 1.42447E+00 8.42109E-01 7.21543E-10-2.11554E-01-1.04130E-14 4.45758E-14
 -1     19019 1.41260E+00 8.53981E-01-1.32083E-09-2.02929E-01 3.40413E-12 1.07675E-12
 -1     19020 1.37444E+00 8.92134E-01-1.32001E-09-2.41154E-01 7.39269E-12 3.26872E-12
 -1     19021 1.42447E+00 8.42109E-01 7.21590E-10-2.11554E-01-4.50819E-12-1.40222E-12
 -1     19026 1.41260E+00 8.53981E-01-1.30767E-09-2.02929E-01-1.39679E-11-4.37041E-12
 -1     19027 1.37444E+00 8.92134E-01-1.32701E-09-2.41154E-01-3.28525E-11-1.34633E-11
 -1     19028 1.42447E+00 8.42109E-01 7.26135E-10-2.11554E-01 1.86093E-11 6.17950E-12
 -1     19033 1.41260E+00 8.53981E-01-1.34662E-09-2.02929E-01 4.66756E-11 1.54056E-11
 -1     19037 1.46163E+00 8.04943E-01-1.34738E-09-1.06686E-01-4.89332E-11-8.11381E-12
 -1     19038 1.43716E+00 8.29416E-01-1.32764E-09-1.54831E-01 3.43944E-11 8.53219E-12
 -1     19039 1.47559E+00 7.90987E-01 7.26253E-10-1.11220E-01-1.97630E-11-3.43631E-12
 -1     19044 1.46163E+00 8.04943E-01-1.30994E-09-1.06686E-01 1.40048E-11 1.79287E-12
 -1     19045 1.43716E+00 8.29416E-01-1.32067E-09-1.54831E-01-7.88549E-12-1.55853E-12
 -1     19046 1.47559E+00 7.90987E-01 7.21537E-10-1.11220E-01 4.47590E-12 4.69692E-13
 -1     19051 1.46163E+00 8.04943E-01-1.32250E-09-1.06686E-01-4.04891E-12-8.40391E-13
 -1     19052 1.43716E+00 8.29416E-01-1.32064E-09-1.54831E-01 1.54890E-15 2.32034E-13
 -1     19053 1.47559E+00 7.90987E-01 7.21355E-10-1.11220E-01-4.36219E-13-2.00397E-13
 -1     19058 1.46163E+00 8.04943E-01-1.31916E-09-1.06686E-01 9.11106E-13-6.35315E-14
 -1     19059 1.43716E+00 8.29416E-01-1.32120E-09-1.54831E-01 1.30915E-12 4.81175E-13
 -1     19060 1.47559E+00 7.90987E-01 7.21654E-10-1.11220E-01-5.70037E-13-1.67047E-13
 -1     19065 1.46163E+00 8.04943E-01-1.31956E-09-1.06686E-01-4.79898E-14-1.15130E-13
 -1     19066 1.43716E+00 8.29416E-01-1.32094E-09-1.54831E-01-1.52197E-12-2.86632E-13
 -1     19067 1.47559E+00 7.90987E-01 7.21392E-10-1.11220E-01 6.23030E-13 7.36810E-14
 -1     19072 1.46163E+00 8.04943E-01-1.31985E-09-1.06686E-01 8.05967E-14-1.42770E-14
 -1     19073 1.43716E+00 8.29416E-01-1.32097E-09-1.54831E-01 1.51388E-12 3.49042E-13
 -1     19074 1.47559E+00 7.90987E-01 7.21407E-10-1.11220E-01-6.78175E-13-8.24200E-14
 -1     19079 1.46163E+00 8.04943E-01-1.31949E-09-1.06686E-01-2.40560E-14 7.43885E-14
 -1     19080 1.43716E+00 8.29416E-01-1.32119E-09-1.54831E-01-1.33621E-12-4.19471E-13
 -1     19081 1.47559E+00 7.90987E-01 7.21632E-10-1.11220E-01 5.48329E-13 1.68085E-13
 -1     19086 1.46163E+00 8.04943E-01-1.31911E-09-1.06686E-01-7.88290E-13 1.40905E-14
 -1     19087 1.43716E+00 8.29416E-01-1.32056E-09-1.54831E-01-2.14074E-15-2.45403E-13
 -1     19088 1.47559E+00 7.90987E-01 7.21377E-10-1.11220E-01 3.91929E-13 1.89262E-13
 -1     19093 1.46163E+00 8.04943E-01-1.32242E-09-1.06686E-01 3.91611E-12 9.23880E-13
 -1     19094 1.43716E+00 8.29416E-01-1.32061E-09-1.54831E-01 7.92960E-12 1.58229E-12
 -1     19095 1.47559E+00 7.90987E-01 7.21528E-10-1.11220E-01-4.50867E-12-4.72531E-13
 -1     19100 1.46163E+00 8.04943E-01-1.30994E-09-1.06686E-01-1.39736E-11-1.80903E-12
 -1     19101 1.43716E+00 8.29416E-01-1.32766E-09-1.54831E-01-3.44190E-11-8.51808E-12
 -1     19102 1.47559E+00 7.90987E-01 7.26225E-10-1.11220E-01 1.97896E-11 3.41575E-12
 -1     19107 1.46163E+00 8.04943E-01-1.34742E-09-1.06686E-01 4.89694E-11 8.08131E-12
 -1     19111 1.47013E+00 7.96443E-01-1.32523E-09-5.33510E-02 3.62411E-11 3.08799E-12
 -1     19115 1.47013E+00 7.96443E-01-1.31822E-09-5.33510E-02-8.67689E-12-3.47777E-13
 -1     19119 1.47013E+00 7.96443E-01-1.31792E-09-5.33510E-02 4.54759E-13 2.86906E-13
 -1     19123 1.47013E+00 7.96443E-01-1.31840E-09-5.33510E-02 1.02311E-12 2.40251E-13
 -1     19127 1.47013E+00 7.96443E-01-1.31808E-09-5.33510E-02-1.43859E-12-6.85786E-14
 -1     19131 1.47013E+00 7.96443E-01-1.31810E-09-5.33510E-02 1.43770E-12 6.84654E-14
 -1     19135 1.47013E+00 7.96443E-01-1.31839E-09-5.33510E-02-9.98995E-13-2.45943E-13
 -1     19139 1.47013E+00 7.96443E-01-1.31787E-09-5.33510E-02-3.76364E-13-2.85648E-13
 -1     19143 1.47013E+00 7.96443E-01-1.31818E-09-5.33510E-02 8.73569E-12 3.53381E-13
 -1     19147 1.47013E+00 7.96443E-01-1.32523E-09-5.33510E-02-3.62077E-11-3.10528E-12
 -1     19153 8.29696E-01 1.43688E+00-1.13216E-09-9.86431E-02-6.13730E-12-3.88684E-11
 -1     19154 8.21837E-01 1.44474E+00-1.11269E-09-4.93290E-02 2.16864E-12 2.76682E-11
 -1     19155 8.17318E-01 1.44926E+00 6.06473E-10-1.02665E-01-2.48213E-12-1.57452E-11
 -1     19160 8.29696E-01 1.43688E+00-1.09680E-09-9.86431E-02 1.80254E-12 1.11727E-11
 -1     19161 8.21837E-01 1.44474E+00-1.10731E-09-4.93290E-02-4.07793E-13-4.97748E-12
 -1     19162 8.17318E-01 1.44926E+00 6.02407E-10-1.02665E-01 5.91418E-13 3.52901E-12
 -1     19167 8.29696E-01 1.43688E+00-1.11226E-09-9.86431E-02-4.06199E-13-2.79227E-12
 -1     19168 8.21837E-01 1.44474E+00-1.10725E-09-4.93290E-02-4.96144E-14-4.12716E-13
 -1     19169 8.17318E-01 1.44926E+00 6.02768E-10-1.02665E-01 2.27869E-15-2.52503E-13
 -1     19174 8.29696E-01 1.43688E+00-1.10552E-09-9.86431E-02 1.16774E-13 6.04337E-13
 -1     19175 8.21837E-01 1.44474E+00-1.10760E-09-4.93290E-02 1.18390E-13 1.65922E-12
 -1     19176 8.17318E-01 1.44926E+00 6.02892E-10-1.02665E-01-7.13388E-14-4.14735E-13
 -1     19181 8.29696E-01 1.43688E+00-1.10865E-09-9.86431E-02 3.74384E-14 1.33298E-13
 -1     19182 8.21837E-01 1.44474E+00-1.10744E-09-4.93290E-02-1.16688E-13-1.44689E-12
 -1     19183 8.17318E-01 1.44926E+00 6.02762E-10-1.02665E-01 9.36583E-14 6.95542E-13
 -1     19188 8.29696E-01 1.43688E+00-1.10703E-09-9.86431E-02 2.09764E-15 1.18187E-13
 -1     19189 8.21837E-01 1.44474E+00-1.10742E-09-4.93290E-02 1.06530E-13 1.47215E-12
 -1     19190 8.17318E-01 1.44926E+00 6.02763E-10-1.02665E-01-9.99127E-14-5.59116E-13
 -1     19195 8.29696E-01 1.43688E+00-1.10859E-09-9.86431E-02-3.38816E-14-1.71989E-13
 -1     19196 8.21837E-01 1.44474E+00-1.10760E-09-4.93290E-02-1.34996E-13-1.66989E-12
 -1     19197 8.17318E-01 1.44926E+00 6.02841E-10-1.02665E-01 7.42556E-14 3.91236E-13
 -1     19202 8.29696E-01 1.43688E+00-1.10546E-09-9.86431E-02-1.22239E-13-4.79113E-13
 -1     19203 8.21837E-01 1.44474E+00-1.10723E-09-4.93290E-02 3.27678E-14 4.61589E-13
 -1     19204 8.17318E-01 1.44926E+00 6.02753E-10-1.02665E-01-1.23293E-14 2.63506E-13
 -1     19209 8.29696E-01 1.43688E+00-1.11231E-09-9.86431E-02 3.87483E-13 2.84927E-12
 -1     19210 8.21837E-01 1.44474E+00-1.10733E-09-4.93290E-02 4.00265E-13 4.97792E-12
 -1     19211 8.17318E-01 1.44926E+00 6.02337E-10-1.02665E-01-5.94466E-13-3.43930E-12
 -1     19216 8.29696E-01 1.43688E+00-1.09676E-09-9.86431E-02-1.79073E-12-1.10404E-11
 -1     19217 8.21837E-01 1.44474E+00-1.11274E-09-4.93290E-02-2.15820E-12-2.76065E-11
 -1     19218 8.17318E-01 1.44926E+00 6.06481E-10-1.02665E-01 2.45316E-12 1.58106E-11
 -1     19223 8.29696E-01 1.43688E+00-1.13215E-09-9.86431E-02 6.13370E-12 3.87381E-11
 -1     19227 8.75037E-01 1.39154E+00-1.13191E-09-1.87630E-01-1.22094E-11-3.73307E-11
 -1     19228 8.52324E-01 1.41425E+00-1.11282E-09-1.43158E-01 6.45544E-12 2.70048E-11
 -1     19229 8.64508E-01 1.40207E+00 6.06455E-10-1.95280E-01-4.94025E-12-1.51616E-11
 -1     19234 8.75037E-01 1.39154E+00-1.09646E-09-1.87630E-01 3.44986E-12 1.07240E-11
 -1     19235 8.52324E-01 1.41425E+00-1.10741E-09-1.43158E-01-1.18455E-12-4.80735E-12
 -1     19236 8.64508E-01 1.40207E+00 6.02292E-10-1.95280E-01 1.01908E-12 3.28650E-12
 -1     19241 8.75037E-01 1.39154E+00-1.11197E-09-1.87630E-01-9.12441E-13-2.70519E-12
 -1     19242 8.52324E-01 1.41425E+00-1.10731E-09-1.43158E-01-1.40284E-13-4.01097E-13
 -1     19243 8.64508E-01 1.40207E+00 6.02747E-10-1.95280E-01-1.00942E-13-1.40065E-13
 -1     19248 8.75037E-01 1.39154E+00-1.10516E-09-1.87630E-01 1.81152E-13 4.39413E-13
 -1     19249 8.52324E-01 1.41425E+00-1.10764E-09-1.43158E-01 3.76035E-13 1.61427E-12
 -1     19250 8.64508E-01 1.40207E+00 6.02804E-10-1.95280E-01-1.81141E-13-4.84516E-13
 -1     19255 8.75037E-01 1.39154E+00-1.10842E-09-1.87630E-01 5.71708E-14 7.66127E-14
 -1     19256 8.52324E-01 1.41425E+00-1.10747E-09-1.43158E-01-3.48760E-13-1.36072E-12
 -1     19257 8.64508E-01 1.40207E+00 6.02708E-10-1.95280E-01 2.01874E-13 4.39040E-13
 -1     19262 8.75037E-01 1.39154E+00-1.10683E-09-1.87630E-01 2.40046E-14-1.10610E-13
 -1     19263 8.52324E-01 1.41425E+00-1.10749E-09-1.43158E-01 3.62986E-13 1.38698E-12
 -1     19264 8.64508E-01 1.40207E+00 6.02703E-10-1.95280E-01-1.31378E-13-5.61786E-13
 -1     19269 8.75037E-01 1.39154E+00-1.10841E-09-1.87630E-01-1.11439E-15 2.19385E-14
 -1     19270 8.52324E-01 1.41425E+00-1.10760E-09-1.43158E-01-3.65177E-13-1.59498E-12
 -1     19271 8.64508E-01 1.40207E+00 6.02798E-10-1.95280E-01 2.13235E-13 6.90343E-13
 -1     19276 8.75037E-01 1.39154E+00-1.10517E-09-1.87630E-01-6.20023E-14-3.99701E-13
 -1     19277 8.52324E-01 1.41425E+00-1.10728E-09-1.43158E-01 1.33186E-13 4.26577E-13
 -1     19278 8.64508E-01 1.40207E+00 6.02729E-10-1.95280E-01 1.77118E-13 3.15318E-13
 -1     19283 8.75037E-01 1.39154E+00-1.11197E-09-1.87630E-01 9.67093E-13 2.74309E-12
 -1     19284 8.52324E-01 1.41425E+00-1.10741E-09-1.43158E-01 1.16678E-12 4.80581E-12
 -1     19285 8.64508E-01 1.40207E+00 6.02290E-10-1.95280E-01-9.67648E-13-3.34799E-12
 -1     19290 8.75037E-01 1.39154E+00-1.09645E-09-1.87630E-01-3.44125E-12-1.06093E-11
 -1     19291 8.52324E-01 1.41425E+00-1.11283E-09-1.43158E-01-6.45698E-12-2.69332E-11
 -1     19292 8.64508E-01 1.40207E+00 6.06484E-10-1.95280E-01 4.98244E-12 1.52216E-11
 -1     19297 8.75037E-01 1.39154E+00-1.13187E-09-1.87630E-01 1.21764E-11 3.73729E-11
 -1     19301 9.45658E-01 1.32092E+00-1.13264E-09-2.58251E-01-1.79433E-11-3.50315E-11
 -1     19302 9.10314E-01 1.35626E+00-1.11297E-09-2.22974E-01 1.06782E-11 2.56174E-11
 -1     19303 9.38008E-01 1.32857E+00 6.06937E-10-2.68780E-01-7.36408E-12-1.41640E-11
 -1     19308 9.45658E-01 1.32092E+00-1.09726E-09-2.58251E-01 4.97394E-12 9.92053E-12
 -1     19309 9.10314E-01 1.35626E+00-1.10755E-09-2.22974E-01-1.87643E-12-4.62650E-12
 -1     19310 9.38008E-01 1.32857E+00 6.02821E-10-2.68780E-01 1.47369E-12 3.10170E-12
 -1     19315 9.45658E-01 1.32092E+00-1.11258E-09-2.58251E-01-1.46455E-12-2.60103E-12
 -1     19316 9.10314E-01 1.35626E+00-1.10748E-09-2.22974E-01-1.30497E-13-4.38412E-13
 -1     19317 9.38008E-01 1.32857E+00 6.03277E-10-2.68780E-01-1.80603E-13-3.05179E-13
 -1     19322 9.45658E-01 1.32092E+00-1.10582E-09-2.58251E-01 1.22280E-13 3.68973E-13
 -1     19323 9.10314E-01 1.35626E+00-1.10783E-09-2.22974E-01 6.65956E-13 1.47376E-12
 -1     19324 9.38008E-01 1.32857E+00 6.03414E-10-2.68780E-01-2.58690E-13-5.05221E-13
 -1     19329 9.45658E-01 1.32092E+00-1.10896E-09-2.58251E-01 3.49327E-14 6.92174E-14
 -1     19330 9.10314E-01 1.35626E+00-1.10765E-09-2.22974E-01-5.43884E-13-1.34551E-12
 -1     19331 9.38008E-01 1.32857E+00 6.03372E-10-2.68780E-01 2.67608E-13 5.52395E-13
 -1     19336 9.45658E-01 1.32092E+00-1.10735E-09-2.58251E-01 3.50556E-14 3.90991E-14
 -1     19337 9.10314E-01 1.35626E+00-1.10767E-09-2.22974E-01 6.05737E-13 1.36092E-12
 -1     19338 9.38008E-01 1.32857E+00 6.03362E-10-2.68780E-01-2.15963E-13-5.19082E-13
 -1     19343 9.45658E-01 1.32092E+00-1.10893E-09-2.58251E-01 4.35866E-14-1.39650E-13
 -1     19344 9.10314E-01 1.35626E+00-1.10779E-09-2.22974E-01-5.60715E-13-1.52341E-12
 -1     19345 9.38008E-01 1.32857E+00 6.03422E-10-2.68780E-01 3.25285E-13 3.54337E-13
 -1     19350 9.45658E-01 1.32092E+00-1.10574E-09-2.58251E-01-1.15667E-13-5.09576E-13
 -1     19351 9.10314E-01 1.35626E+00-1.10745E-09-2.22974E-01 1.86471E-13 4.11896E-13
 -1     19352 9.38008E-01 1.32857E+00 6.03347E-10-2.68780E-01 2.09415E-13 9.82744E-14
 -1     19357 9.45658E-01 1.32092E+00-1.11248E-09-2.58251E-01 1.41421E-12 2.47234E-12
 -1     19358 9.10314E-01 1.35626E+00-1.10751E-09-2.22974E-01 1.88319E-12 4.61635E-12
 -1     19359 9.38008E-01 1.32857E+00 6.02879E-10-2.68780E-01-1.49489E-12-3.20435E-12
 -1     19364 9.45658E-01 1.32092E+00-1.09720E-09-2.58251E-01-4.90841E-12-1.00625E-11
 -1     19365 9.10314E-01 1.35626E+00-1.11290E-09-2.22974E-01-1.06410E-11-2.56182E-11
 -1     19366 9.38008E-01 1.32857E+00 6.06988E-10-2.68780E-01 7.35978E-12 1.40729E-11
 -1     19371 9.45658E-01 1.32092E+00-1.13263E-09-2.58251E-01 1.79268E-11 3.49648E-11
 -1     19375 1.03464E+00 1.23193E+00-1.13231E-09-3.03592E-01-2.30082E-11-3.16697E-11
 -1     19376 9.90130E-01 1.27645E+00-1.11211E-09-2.80964E-01 1.45603E-11 2.35246E-11
 -1     19377 1.03062E+00 1.23595E+00 6.06671E-10-3.15970E-01-9.12061E-12-1.28268E-11
 -1     19382 1.03464E+00 1.23193E+00-1.09627E-09-3.03592E-01 6.83616E-12 9.24587E-12
 -1     19383 9.90130E-01 1.27645E+00-1.10676E-09-2.80964E-01-2.40080E-12-4.19471E-12
 -1     19384 1.03062E+00 1.23595E+00 6.02604E-10-3.15970E-01 2.29159E-12 2.86844E-12
 -1     19389 1.03464E+00 1.23193E+00-1.11203E-09-3.03592E-01-1.35543E-12-2.04622E-12
 -1     19390 9.90130E-01 1.27645E+00-1.10676E-09-2.80964E-01-1.14463E-13-4.35332E-13
 -1     19391 1.03062E+00 1.23595E+00 6.03147E-10-3.15970E-01 1.24635E-13 2.79665E-14
 -1     19396 1.03464E+00 1.23193E+00-1.10486E-09-3.03592E-01 5.30325E-13 5.67206E-13
 -1     19397 9.90130E-01 1.27645E+00-1.10717E-09-2.80964E-01 9.87671E-13 1.33317E-12
 -1     19398 1.03062E+00 1.23595E+00 6.03262E-10-3.15970E-01-1.07226E-13-4.26997E-13
 -1     19403 1.03464E+00 1.23193E+00-1.10807E-09-3.03592E-01 1.98359E-13 1.59789E-13
 -1     19404 9.90130E-01 1.27645E+00-1.10703E-09-2.80964E-01-7.09799E-13-1.26216E-12
 -1     19405 1.03062E+00 1.23595E+00 6.03217E-10-3.15970E-01 4.43329E-13 5.20892E-13
 -1     19410 1.03464E+00 1.23193E+00-1.10645E-09-3.03592E-01 3.85073E-14-5.34278E-14
 -1     19411 9.90130E-01 1.27645E+00-1.10701E-09-2.80964E-01 7.83101E-13 1.23723E-12
 -1     19412 1.03062E+00 1.23595E+00 6.03236E-10-3.15970E-01-3.81982E-13-5.70777E-13
 -1     19417 1.03464E+00 1.23193E+00-1.10810E-09-3.03592E-01-1.70841E-13-2.00218E-13
 -1     19418 9.90130E-01 1.27645E+00-1.10712E-09-2.80964E-01-9.40695E-13-1.44044E-12
 -1     19419 1.03062E+00 1.23595E+00 6.03327E-10-3.15970E-01 1.04647E-13 3.17903E-13
 -1     19424 1.03464E+00 1.23193E+00-1.10482E-09-3.03592E-01-5.39575E-13-5.61652E-13
 -1     19425 9.90130E-01 1.27645E+00-1.10673E-09-2.80964E-01 1.14456E-13 4.18359E-13
 -1     19426 1.03062E+00 1.23595E+00 6.03229E-10-3.15970E-01-6.61133E-14 9.43023E-16
 -1     19431 1.03464E+00 1.23193E+00-1.11196E-09-3.03592E-01 1.45646E-12 2.07665E-12
 -1     19432 9.90130E-01 1.27645E+00-1.10672E-09-2.80964E-01 2.43843E-12 4.16892E-12
 -1     19433 1.03062E+00 1.23595E+00 6.02676E-10-3.15970E-01-2.17339E-12-2.96097E-12
 -1     19438 1.03464E+00 1.23193E+00-1.09636E-09-3.03592E-01-6.74474E-12-9.30884E-12
 -1     19439 9.90130E-01 1.27645E+00-1.11212E-09-2.80964E-01-1.45498E-11-2.35541E-11
 -1     19440 1.03062E+00 1.23595E+00 6.06729E-10-3.15970E-01 9.17326E-12 1.27186E-11
 -1     19445 1.03464E+00 1.23193E+00-1.13234E-09-3.03592E-01 2.29966E-11 3.17051E-11
 -1     19449 1.13329E+00 1.13329E+00-1.13173E-09-3.19216E-01-2.75448E-11-2.76746E-11
 -1     19450 1.08396E+00 1.18262E+00-1.11375E-09-3.11451E-01 1.76254E-11 2.07953E-11
 -1     19451 1.13329E+00 1.13329E+00 6.06073E-10-3.32231E-01-1.10106E-11-1.10684E-11
 -1     19456 1.13329E+00 1.13329E+00-1.09496E-09-3.19216E-01 8.21523E-12 7.90474E-12
 -1     19457 1.08396E+00 1.18262E+00-1.10836E-09-3.11451E-01-3.01563E-12-3.45133E-12
 -1     19458 1.13329E+00 1.13329E+00 6.01891E-10-3.32231E-01 2.56575E-12 2.31656E-12
 -1     19463 1.13329E+00 1.13329E+00-1.11160E-09-3.19216E-01-1.60759E-12-1.94844E-12
 -1     19464 1.08396E+00 1.18262E+00-1.10831E-09-3.11451E-01-4.42999E-13-4.16738E-13
 -1     19465 1.13329E+00 1.13329E+00 6.02315E-10-3.32231E-01 9.13951E-14-1.10789E-13
 -1     19470 1.13329E+00 1.13329E+00-1.10416E-09-3.19216E-01 5.25354E-13 3.35100E-13
 -1     19471 1.08396E+00 1.18262E+00-1.10870E-09-3.11451E-01 1.14457E-12 1.37625E-12
 -1     19472 1.13329E+00 1.13329E+00 6.02353E-10-3.32231E-01-2.71129E-13-3.98652E-13
 -1     19477 1.13329E+00 1.13329E+00-1.10770E-09-3.19216E-01 2.47610E-13 1.17961E-13
 -1     19478 1.08396E+00 1.18262E+00-1.10853E-09-3.11451E-01-9.89512E-13-1.17585E-12
 -1     19479 1.13329E+00 1.13329E+00 6.02282E-10-3.32231E-01 4.26726E-13 3.30817E-13
 -1     19484 1.13329E+00 1.13329E+00-1.10598E-09-3.19216E-01-3.84413E-16-6.12186E-15
 -1     19485 1.08396E+00 1.18262E+00-1.10855E-09-3.11451E-01 1.09214E-12 1.15788E-12
 -1     19486 1.13329E+00 1.13329E+00 6.02236E-10-3.32231E-01-3.27225E-13-4.01129E-13
 -1     19491 1.13329E+00 1.13329E+00-1.10779E-09-3.19216E-01-7.06332E-14-3.17533E-14
 -1     19492 1.08396E+00 1.18262E+00-1.10873E-09-3.11451E-01-1.14615E-12-1.35520E-12
 -1     19493 1.13329E+00 1.13329E+00 6.02311E-10-3.32231E-01 4.23890E-13 4.74775E-13
 -1     19498 1.13329E+00 1.13329E+00-1.10420E-09-3.19216E-01-3.87290E-13-3.10512E-13
 -1     19499 1.08396E+00 1.18262E+00-1.10828E-09-3.11451E-01 4.65933E-13 4.45102E-13
 -1     19500 1.13329E+00 1.13329E+00 6.02257E-10-3.32231E-01 4.09723E-14 1.64221E-13
 -1     19505 1.13329E+00 1.13329E+00-1.11153E-09-3.19216E-01 1.72320E-12 1.99974E-12
 -1     19506 1.08396E+00 1.18262E+00-1.10831E-09-3.11451E-01 3.06135E-12 3.46847E-12
 -1     19507 1.13329E+00 1.13329E+00 6.01909E-10-3.32231E-01-2.59028E-12-2.26164E-12
 -1     19512 1.13329E+00 1.13329E+00-1.09495E-09-3.19216E-01-8.34427E-12-7.79085E-12
 -1     19513 1.08396E+00 1.18262E+00-1.11377E-09-3.11451E-01-1.76403E-11-2.07753E-11
 -1     19514 1.13329E+00 1.13329E+00 6.06083E-10-3.32231E-01 1.08709E-11 1.11454E-11
 -1     19519 1.13329E+00 1.13329E+00-1.13176E-09-3.19216E-01 2.75079E-11 2.76880E-11
 -1     19523 1.23193E+00 1.03464E+00-1.13218E-09-3.03592E-01-3.20711E-11-2.32371E-11
 -1     19524 1.18262E+00 1.08396E+00-1.11289E-09-3.11451E-01 2.11197E-11 1.82640E-11
 -1     19525 1.23595E+00 1.03062E+00 6.07003E-10-3.15970E-01-1.34645E-11-9.59049E-12
 -1     19530 1.23193E+00 1.03464E+00-1.09893E-09-3.03592E-01 8.56943E-12 6.45708E-12
 -1     19531 1.18262E+00 1.08396E+00-1.10743E-09-3.11451E-01-4.06835E-12-3.13826E-12
 -1     19532 1.23595E+00 1.03062E+00 6.02792E-10-3.15970E-01 2.64442E-12 2.12272E-12
 -1     19537 1.23193E+00 1.03464E+00-1.11292E-09-3.03592E-01-2.90749E-12-1.92212E-12
 -1     19538 1.18262E+00 1.08396E+00-1.10727E-09-3.11451E-01-3.85549E-13-4.23754E-14
 -1     19539 1.23595E+00 1.03062E+00 6.03103E-10-3.15970E-01-6.20587E-13-2.99266E-13
 -1     19544 1.23193E+00 1.03464E+00-1.10734E-09-3.03592E-01 1.22014E-13 2.53302E-13
 -1     19545 1.18262E+00 1.08396E+00-1.10755E-09-3.11451E-01 1.11953E-12 1.16837E-12
 -1     19546 1.23595E+00 1.03062E+00 6.03084E-10-3.15970E-01-6.00613E-13-3.50433E-13
 -1     19551 1.23193E+00 1.03464E+00-1.11010E-09-3.03592E-01-2.35633E-13-1.48731E-13
 -1     19552 1.18262E+00 1.08396E+00-1.10737E-09-3.11451E-01-1.16680E-12-9.73649E-13
 -1     19553 1.23595E+00 1.03062E+00 6.02923E-10-3.15970E-01 4.17274E-13 3.11066E-13
 -1     19558 1.23193E+00 1.03464E+00-1.10862E-09-3.03592E-01-4.96380E-14-2.40442E-14
 -1     19559 1.18262E+00 1.08396E+00-1.10735E-09-3.11451E-01 1.21308E-12 9.71176E-13
 -1     19560 1.23595E+00 1.03062E+00 6.02893E-10-3.15970E-01-4.17361E-13-3.19920E-13
 -1     19565 1.23193E+00 1.03464E+00-1.11011E-09-3.03592E-01 2.26382E-13 6.11527E-14
 -1     19566 1.18262E+00 1.08396E+00-1.10759E-09-3.11451E-01-1.04557E-12-1.14485E-12
 -1     19567 1.23595E+00 1.03062E+00 6.03112E-10-3.15970E-01 6.15657E-13 3.27317E-13
 -1     19572 1.23193E+00 1.03464E+00-1.10726E-09-3.03592E-01-1.81626E-13-1.52541E-13
 -1     19573 1.18262E+00 1.08396E+00-1.10723E-09-3.11451E-01 4.42403E-13 1.12192E-13
 -1     19574 1.23595E+00 1.03062E+00 6.03043E-10-3.15970E-01 5.23781E-13 4.14723E-13
 -1     19579 1.23193E+00 1.03464E+00-1.11291E-09-3.03592E-01 2.89412E-12 2.06061E-12
 -1     19580 1.18262E+00 1.08396E+00-1.10744E-09-3.11451E-01 4.05094E-12 3.19468E-12
 -1     19581 1.23595E+00 1.03062E+00 6.02728E-10-3.15970E-01-2.66768E-12-2.07840E-12
 -1     19586 1.23193E+00 1.03464E+00-1.09893E-09-3.03592E-01-8.69415E-12-6.50334E-12
 -1     19587 1.18262E+00 1.08396E+00-1.11286E-09-3.11451E-01-2.11318E-11-1.82459E-11
 -1     19588 1.23595E+00 1.03062E+00 6.06894E-10-3.15970E-01 1.34408E-11 9.59627E-12
 -1     19593 1.23193E+00 1.03464E+00-1.13219E-09-3.03592E-01 3.21649E-11 2.32618E-11
 -1     19597 1.32092E+00 9.45658E-01-1.13284E-09-2.58251E-01-3.51807E-11-1.76593E-11
 -1     19598 1.27645E+00 9.90130E-01-1.11142E-09-2.80964E-01 2.42426E-11 1.46105E-11
 -1     19599 1.32857E+00 9.38008E-01 6.07162E-10-2.68780E-01-1.42481E-11-7.09177E-12
 -1     19604 1.32092E+00 9.45658E-01-1.09730E-09-2.58251E-01 9.86872E-12 5.37480E-12
 -1     19605 1.27645E+00 9.90130E-01-1.10605E-09-2.80964E-01-4.45184E-12-3.08002E-12
 -1     19606 1.32857E+00 9.38008E-01 6.03151E-10-2.68780E-01 2.98023E-12 1.77229E-12
 -1     19611 1.32092E+00 9.45658E-01-1.11257E-09-2.58251E-01-2.71150E-12-1.22105E-12
 -1     19612 1.27645E+00 9.90130E-01-1.10596E-09-2.80964E-01-1.24688E-14-3.21895E-13
 -1     19613 1.32857E+00 9.38008E-01 6.03645E-10-2.68780E-01-2.69089E-13-5.58377E-14
 -1     19618 1.32092E+00 9.45658E-01-1.10580E-09-2.58251E-01 3.17369E-13 3.19327E-13
 -1     19619 1.27645E+00 9.90130E-01-1.10627E-09-2.80964E-01 1.35879E-12 6.52147E-13
 -1     19620 1.32857E+00 9.38008E-01 6.03749E-10-2.68780E-01-5.46061E-13-2.00567E-13
 -1     19625 1.32092E+00 9.45658E-01-1.10894E-09-2.58251E-01 2.81049E-14 4.55098E-14
 -1     19626 1.27645E+00 9.90130E-01-1.10609E-09-2.80964E-01-1.23586E-12-8.39824E-13
 -1     19627 1.32857E+00 9.38008E-01 6.03625E-10-2.68780E-01 3.98583E-13 2.29748E-13
 -1     19632 1.32092E+00 9.45658E-01-1.10737E-09-2.58251E-01-6.48614E-14 2.41504E-14
 -1     19633 1.27645E+00 9.90130E-01-1.10607E-09-2.80964E-01 1.23023E-12 8.02972E-13
 -1     19634 1.32857E+00 9.38008E-01 6.03579E-10-2.68780E-01-4.67631E-13-1.99945E-13
 -1     19639 1.32092E+00 9.45658E-01-1.10897E-09-2.58251E-01 4.59691E-14-2.61979E-14
 -1     19640 1.27645E+00 9.90130E-01-1.10626E-09-2.80964E-01-1.29348E-12-6.78729E-13
 -1     19641 1.32857E+00 9.38008E-01 6.03713E-10-2.68780E-01 5.10350E-13 2.52478E-13
 -1     19646 1.32092E+00 9.45658E-01-1.10583E-09-2.58251E-01-2.72872E-13-3.28434E-13
 -1     19647 1.27645E+00 9.90130E-01-1.10591E-09-2.80964E-01 2.45669E-14 3.08716E-13
 -1     19648 1.32857E+00 9.38008E-01 6.03626E-10-2.68780E-01 4.12865E-13 4.90970E-15
 -1     19653 1.32092E+00 9.45658E-01-1.11267E-09-2.58251E-01 2.81105E-12 1.09193E-12
 -1     19654 1.27645E+00 9.90130E-01-1.10602E-09-2.80964E-01 4.44956E-12 3.11071E-12
 -1     19655 1.32857E+00 9.38008E-01 6.03161E-10-2.68780E-01-2.91527E-12-1.78501E-12
 -1     19660 1.32092E+00 9.45658E-01-1.09737E-09-2.58251E-01-9.69410E-12-5.37402E-12
 -1     19661 1.27645E+00 9.90130E-01-1.11142E-09-2.80964E-01-2.42323E-11-1.45996E-11
 -1     19662 1.32857E+00 9.38008E-01 6.07137E-10-2.68780E-01 1.44718E-11 7.07076E-12
 -1     19667 1.32092E+00 9.45658E-01-1.13283E-09-2.58251E-01 3.52074E-11 1.76583E-11
 -1     19671 1.39154E+00 8.75037E-01-1.13171E-09-1.87630E-01-3.66662E-11-1.21074E-11
 -1     19672 1.35626E+00 9.10314E-01-1.11350E-09-2.22974E-01 2.52000E-11 1.01390E-11
 -1     19673 1.40207E+00 8.64508E-01 6.06224E-10-1.95280E-01-1.43196E-11-4.81535E-12
 -1     19678 1.39154E+00 8.75037E-01-1.09350E-09-1.87630E-01 1.13835E-11 3.55376E-12
 -1     19679 1.35626E+00 9.10314E-01-1.10811E-09-2.22974E-01-4.00029E-12-2.09874E-12
 -1     19680 1.40207E+00 8.64508E-01 6.02171E-10-1.95280E-01 3.77959E-12 1.04930E-12
 -1     19685 1.39154E+00 8.75037E-01-1.11044E-09-1.87630E-01-1.60267E-12-5.98569E-13
 -1     19686 1.35626E+00 9.10314E-01-1.10820E-09-2.22974E-01-4.91465E-13-5.74281E-13
 -1     19687 1.40207E+00 8.64508E-01 6.02965E-10-1.95280E-01 5.91455E-13 6.06761E-14
 -1     19692 1.39154E+00 8.75037E-01-1.10206E-09-1.87630E-01 1.01250E-12 2.59868E-13
 -1     19693 1.35626E+00 9.10314E-01-1.10867E-09-2.22974E-01 1.77325E-12 4.45776E-13
 -1     19694 1.40207E+00 8.64508E-01 6.03229E-10-1.95280E-01-2.21440E-13-1.13320E-13
 -1     19699 1.39154E+00 8.75037E-01-1.10573E-09-1.87630E-01 6.36595E-13 1.78894E-13
 -1     19700 1.35626E+00 9.10314E-01-1.10858E-09-2.22974E-01-1.36285E-12-6.64117E-13
 -1     19701 1.40207E+00 8.64508E-01 6.03235E-10-1.95280E-01 7.07915E-13 2.05588E-13
 -1     19706 1.39154E+00 8.75037E-01-1.10388E-09-1.87630E-01-1.63341E-14-4.79817E-14
 -1     19707 1.35626E+00 9.10314E-01-1.10860E-09-2.22974E-01 1.36678E-12 6.24175E-13
 -1     19708 1.40207E+00 8.64508E-01 6.03264E-10-1.95280E-01-8.35881E-13-2.58057E-13
 -1     19713 1.39154E+00 8.75037E-01-1.10576E-09-1.87630E-01-6.48757E-13-2.15691E-13
 -1     19714 1.35626E+00 9.10314E-01-1.10872E-09-2.22974E-01-1.72291E-12-4.90796E-13
 -1     19715 1.40207E+00 8.64508E-01 6.03261E-10-1.95280E-01 1.86168E-13 8.22168E-14
 -1     19720 1.39154E+00 8.75037E-01-1.10217E-09-1.87630E-01-8.87549E-13-2.83003E-13
 -1     19721 1.35626E+00 9.10314E-01-1.10828E-09-2.22974E-01 5.22539E-13 5.66697E-13
 -1     19722 1.40207E+00 8.64508E-01 6.03010E-10-1.95280E-01-4.41479E-13-1.13351E-13
 -1     19727 1.39154E+00 8.75037E-01-1.11053E-09-1.87630E-01 1.62879E-12 6.35135E-13
 -1     19728 1.35626E+00 9.10314E-01-1.10814E-09-2.22974E-01 4.03642E-12 2.09143E-12
 -1     19729 1.40207E+00 8.64508E-01 6.02194E-10-1.95280E-01-3.55511E-12-1.05582E-12
 -1     19734 1.39154E+00 8.75037E-01-1.09341E-09-1.87630E-01-1.14488E-11-3.57649E-12
 -1     19735 1.35626E+00 9.10314E-01-1.11349E-09-2.22974E-01-2.51239E-11-1.01362E-11
 -1     19736 1.40207E+00 8.64508E-01 6.06179E-10-1.95280E-01 1.42607E-11 4.82277E-12
 -1     19741 1.39154E+00 8.75037E-01-1.13165E-09-1.87630E-01 3.67114E-11 1.20847E-11
 -1     19745 1.43688E+00 8.29696E-01-1.13195E-09-9.86431E-02-3.87318E-11-6.59706E-12
 -1     19746 1.41425E+00 8.52324E-01-1.11434E-09-1.43158E-01 2.61667E-11 6.65247E-12
 -1     19747 1.44926E+00 8.17318E-01 6.06254E-10-1.02665E-01-1.56682E-11-2.88557E-12
 -1     19752 1.43688E+00 8.29696E-01-1.09646E-09-9.86431E-02 1.11800E-11 1.19075E-12
 -1     19753 1.41425E+00 8.52324E-01-1.10888E-09-1.43158E-01-4.47497E-12-6.02664E-13
 -1     19754 1.44926E+00 8.17318E-01 6.02014E-10-1.02665E-01 3.43711E-12 2.23657E-13
 -1     19759 1.43688E+00 8.29696E-01-1.11210E-09-9.86431E-02-2.72305E-12-8.07664E-13
 -1     19760 1.41425E+00 8.52324E-01-1.10890E-09-1.43158E-01-8.06095E-13 2.03450E-13
 -1     19761 1.44926E+00 8.17318E-01 6.02493E-10-1.02665E-01-2.46607E-13-2.14291E-13
 -1     19766 1.43688E+00 8.29696E-01-1.10530E-09-9.86431E-02 4.58043E-13-9.94025E-14
 -1     19767 1.41425E+00 8.52324E-01-1.10931E-09-1.43158E-01 1.67763E-12 6.63511E-13
 -1     19768 1.44926E+00 8.17318E-01 6.02521E-10-1.02665E-01-4.12863E-13-1.82888E-13
 -1     19773 1.43688E+00 8.29696E-01-1.10849E-09-9.86431E-02 1.50420E-13-5.65336E-14
 -1     19774 1.41425E+00 8.52324E-01-1.10919E-09-1.43158E-01-1.44630E-12-2.71334E-13
 -1     19775 1.44926E+00 8.17318E-01 6.02471E-10-1.02665E-01 6.54766E-13 5.30536E-14
 -1     19780 1.43688E+00 8.29696E-01-1.10687E-09-9.86431E-02 1.07073E-13-1.45904E-14
 -1     19781 1.41425E+00 8.52324E-01-1.10924E-09-1.43158E-01 1.42425E-12 2.62032E-13
 -1     19782 1.44926E+00 8.17318E-01 6.02485E-10-1.02665E-01-5.39609E-13-7.97266E-14
 -1     19787 1.43688E+00 8.29696E-01-1.10846E-09-9.86431E-02-1.32274E-13 3.18463E-14
 -1     19788 1.41425E+00 8.52324E-01-1.10935E-09-1.43158E-01-1.70557E-12-6.47112E-13
 -1     19789 1.44926E+00 8.17318E-01 6.02570E-10-1.02665E-01 4.46096E-13 1.58280E-13
 -1     19794 1.43688E+00 8.29696E-01-1.10528E-09-9.86431E-02-5.46574E-13 1.10707E-13
 -1     19795 1.41425E+00 8.52324E-01-1.10897E-09-1.43158E-01 8.51450E-13-1.76404E-13
 -1     19796 1.44926E+00 8.17318E-01 6.02504E-10-1.02665E-01 1.95685E-13 2.15417E-13
 -1     19801 1.43688E+00 8.29696E-01-1.11211E-09-9.86431E-02 2.78848E-12 8.02036E-13
 -1     19802 1.41425E+00 8.52324E-01-1.10888E-09-1.43158E-01 4.51513E-12 5.79350E-13
 -1     19803 1.44926E+00 8.17318E-01 6.02058E-10-1.02665E-01-3.46033E-12-1.94463E-13
 -1     19808 1.43688E+00 8.29696E-01-1.09650E-09-9.86431E-02-1.11049E-11-1.16337E-12
 -1     19809 1.41425E+00 8.52324E-01-1.11430E-09-1.43158E-01-2.61368E-11-6.67138E-12
 -1     19810 1.44926E+00 8.17318E-01 6.06236E-10-1.02665E-01 1.57740E-11 2.88779E-12
 -1     19815 1.43688E+00 8.29696E-01-1.13193E-09-9.86431E-02 3.87565E-11 6.62782E-12
 -1     19819 1.44474E+00 8.21837E-01-1.11134E-09-4.93290E-02 2.86684E-11 2.60197E-12
 -1     19823 1.44474E+00 8.21837E-01-1.10584E-09-4.93290E-02-5.98774E-12 3.93677E-14
 -1     19827 1.44474E+00 8.21837E-01-1.10555E-09-4.93290E-02-6.21931E-14 3.97767E-13
 -1     19831 1.44474E+00 8.21837E-01-1.10575E-09-4.93290E-02 1.25170E-12 3.68186E-13
 -1     19835 1.44474E+00 8.21837E-01-1.10554E-09-4.93290E-02-1.44601E-12-2.80963E-14
 -1     19839 1.44474E+00 8.21837E-01-1.10554E-09-4.93290E-02 1.46404E-12 1.46399E-14
 -1     19843 1.44474E+00 8.21837E-01-1.10580E-09-4.93290E-02-1.22461E-12-3.66327E-13
 -1     19847 1.44474E+00 8.21837E-01-1.10556E-09-4.93290E-02 1.19504E-13-4.01727E-13
 -1     19851 1.44474E+00 8.21837E-01-1.10584E-09-4.93290E-02 5.99328E-12-4.65324E-14
 -1     19855 1.44474E+00 8.21837E-01-1.11135E-09-4.93290E-02-2.86213E-11-2.60961E-12
 -1     19861 8.51752E-01 1.41482E+00-9.60420E-10-9.14764E-02-4.95488E-12-3.14372E-11
 -1     19862 8.44465E-01 1.42211E+00-9.39702E-10-4.57451E-02 1.27526E-12 1.61889E-11
 -1     19863 8.40723E-01 1.42585E+00 5.11062E-10-9.50601E-02-1.77482E-12-1.15008E-11
 -1     19868 8.51752E-01 1.41482E+00-9.22114E-10-9.14764E-02 1.39998E-12 8.40157E-12
 -1     19869 8.44465E-01 1.42211E+00-9.33708E-10-4.57451E-02-4.96404E-14-5.64454E-13
 -1     19870 8.40723E-01 1.42585E+00 5.07987E-10-9.50601E-02 3.55939E-13 1.89548E-12
 -1     19875 8.51752E-01 1.41482E+00-9.43382E-10-9.14764E-02-1.39685E-13-1.17652E-12
 -1     19876 8.44465E-01 1.42211E+00-9.35414E-10-4.57451E-02-2.28471E-13-2.71359E-12
 -1     19877 8.40723E-01 1.42585E+00 5.07907E-10-9.50601E-02 1.59038E-13 7.28115E-13
 -1     19882 8.51752E-01 1.41482E+00-9.31913E-10-9.14764E-02 7.20597E-14 1.07284E-13
 -1     19883 8.44465E-01 1.42211E+00-9.36163E-10-4.57451E-02 2.21629E-13 2.96588E-12
 -1     19884 8.40723E-01 1.42585E+00 5.07597E-10-9.50601E-02-5.76248E-14-5.67724E-13
 -1     19889 8.51752E-01 1.41482E+00-9.38368E-10-9.14764E-02 1.50809E-13 6.52759E-13
 -1     19890 8.44465E-01 1.42211E+00-9.36247E-10-4.57451E-02-1.47059E-13-1.94310E-12
 -1     19891 8.40723E-01 1.42585E+00 5.07543E-10-9.50601E-02 1.53874E-13 8.89998E-13
 -1     19896 8.51752E-01 1.41482E+00-9.34805E-10-9.14764E-02 6.27390E-15 1.04433E-13
 -1     19897 8.44465E-01 1.42211E+00-9.36245E-10-4.57451E-02 1.55898E-13 1.89616E-12
 -1     19898 8.40723E-01 1.42585E+00 5.07568E-10-9.50601E-02-1.27696E-13-7.72845E-13
 -1     19903 8.51752E-01 1.41482E+00-9.38387E-10-9.14764E-02-1.20324E-13-6.32752E-13
 -1     19904 8.44465E-01 1.42211E+00-9.36144E-10-4.57451E-02-2.15507E-13-2.90501E-12
 -1     19905 8.40723E-01 1.42585E+00 5.07609E-10-9.50601E-02 6.90207E-14 6.21012E-13
 -1     19910 8.51752E-01 1.41482E+00-9.31932E-10-9.14764E-02-5.84750E-14-1.18411E-13
 -1     19911 8.44465E-01 1.42211E+00-9.35435E-10-4.57451E-02 2.29767E-13 2.72580E-12
 -1     19912 8.40723E-01 1.42585E+00 5.07917E-10-9.50601E-02-1.62172E-13-6.64269E-13
 -1     19917 8.51752E-01 1.41482E+00-9.43386E-10-9.14764E-02 1.23114E-13 1.20663E-12
 -1     19918 8.44465E-01 1.42211E+00-9.33703E-10-4.57451E-02 6.26046E-14 5.88869E-13
 -1     19919 8.40723E-01 1.42585E+00 5.08024E-10-9.50601E-02-3.52139E-13-1.83002E-12
 -1     19924 8.51752E-01 1.41482E+00-9.22014E-10-9.14764E-02-1.38359E-12-8.42713E-12
 -1     19925 8.44465E-01 1.42211E+00-9.39645E-10-4.57451E-02-1.26526E-12-1.61184E-11
 -1     19926 8.40723E-01 1.42585E+00 5.11100E-10-9.50601E-02 1.78898E-12 1.15650E-11
 -1     19931 8.51752E-01 1.41482E+00-9.60337E-10-9.14764E-02 4.96960E-12 3.14491E-11
 -1     19935 8.93800E-01 1.37278E+00-9.60079E-10-1.73999E-01-9.88430E-12-3.02960E-11
 -1     19936 8.72737E-01 1.39384E+00-9.39855E-10-1.32758E-01 3.76397E-12 1.57767E-11
 -1     19937 8.84417E-01 1.38216E+00 5.10956E-10-1.80815E-01-3.67240E-12-1.10674E-11
 -1     19942 8.93800E-01 1.37278E+00-9.21712E-10-1.73999E-01 2.57655E-12 8.20749E-12
 -1     19943 8.72737E-01 1.39384E+00-9.33845E-10-1.32758E-01-1.50846E-13-5.07360E-13
 -1     19944 8.84417E-01 1.38216E+00 5.07975E-10-1.80815E-01 5.38932E-13 1.77075E-12
 -1     19949 8.93800E-01 1.37278E+00-9.43016E-10-1.73999E-01-4.31869E-13-1.24510E-12
 -1     19950 8.72737E-01 1.39384E+00-9.35540E-10-1.32758E-01-6.79402E-13-2.62700E-12
 -1     19951 8.84417E-01 1.38216E+00 5.07809E-10-1.80815E-01 1.71360E-13 6.20491E-13
 -1     19956 8.93800E-01 1.37278E+00-9.31581E-10-1.73999E-01 1.98091E-14 6.91206E-14
 -1     19957 8.72737E-01 1.39384E+00-9.36253E-10-1.32758E-01 6.70004E-13 2.90913E-12
 -1     19958 8.84417E-01 1.38216E+00 5.07413E-10-1.80815E-01-1.80040E-13-6.52672E-13
 -1     19963 8.93800E-01 1.37278E+00-9.38185E-10-1.73999E-01 2.29432E-13 5.14534E-13
 -1     19964 8.72737E-01 1.39384E+00-9.36334E-10-1.32758E-01-4.34230E-13-1.84994E-12
 -1     19965 8.84417E-01 1.38216E+00 5.07330E-10-1.80815E-01 2.61955E-13 6.83516E-13
 -1     19970 8.93800E-01 1.37278E+00-9.34589E-10-1.73999E-01 5.51998E-14-6.77763E-14
 -1     19971 8.72737E-01 1.39384E+00-9.36285E-10-1.32758E-01 4.59745E-13 1.85205E-12
 -1     19972 8.84417E-01 1.38216E+00 5.07343E-10-1.80815E-01-2.00196E-13-7.62674E-13
 -1     19977 8.93800E-01 1.37278E+00-9.38161E-10-1.73999E-01-1.30668E-13-6.30280E-13
 -1     19978 8.72737E-01 1.39384E+00-9.36234E-10-1.32758E-01-6.45047E-13-2.86631E-12
 -1     19979 8.84417E-01 1.38216E+00 5.07447E-10-1.80815E-01 2.55260E-13 6.32097E-13
 -1     19984 8.93800E-01 1.37278E+00-9.31598E-10-1.73999E-01 1.57006E-14 3.78014E-14
 -1     19985 8.72737E-01 1.39384E+00-9.35525E-10-1.32758E-01 6.80735E-13 2.67061E-12
 -1     19986 8.84417E-01 1.38216E+00 5.07757E-10-1.80815E-01-1.31468E-13-5.31529E-13
 -1     19991 8.93800E-01 1.37278E+00-9.43041E-10-1.73999E-01 4.69493E-13 1.41528E-12
 -1     19992 8.72737E-01 1.39384E+00-9.33845E-10-1.32758E-01 1.82000E-13 5.51792E-13
 -1     19993 8.84417E-01 1.38216E+00 5.07982E-10-1.80815E-01-5.04454E-13-1.64179E-12
 -1     19998 8.93800E-01 1.37278E+00-9.21670E-10-1.73999E-01-2.52613E-12-8.09859E-12
 -1     19999 8.72737E-01 1.39384E+00-9.39811E-10-1.32758E-01-3.75782E-12-1.57491E-11
 -1     20000 8.84417E-01 1.38216E+00 5.10959E-10-1.80815E-01 3.67414E-12 1.11331E-11
 -1     20005 8.93800E-01 1.37278E+00-9.60148E-10-1.73999E-01 9.91836E-12 3.03061E-11
 -1     20009 9.59289E-01 1.30729E+00-9.60903E-10-2.39488E-01-1.46437E-11-2.84315E-11
 -1     20010 9.26513E-01 1.34006E+00-9.40041E-10-2.06775E-01 6.27771E-12 1.49992E-11
 -1     20011 9.52473E-01 1.31410E+00 5.11581E-10-2.48871E-01-5.43617E-12-1.04129E-11
 -1     20016 9.59289E-01 1.30729E+00-9.22677E-10-2.39488E-01 3.62785E-12 7.53759E-12
 -1     20017 9.26513E-01 1.34006E+00-9.34093E-10-2.06775E-01-1.65651E-13-5.88646E-13
 -1     20018 9.52473E-01 1.31410E+00 5.08579E-10-2.48871E-01 7.02264E-13 1.67651E-12
 -1     20023 9.59289E-01 1.30729E+00-9.43778E-10-2.39488E-01-6.94191E-13-1.22339E-12
 -1     20024 9.26513E-01 1.34006E+00-9.35778E-10-2.06775E-01-9.59826E-13-2.48847E-12
 -1     20025 9.52473E-01 1.31410E+00 5.08471E-10-2.48871E-01 2.35260E-13 5.67376E-13
 -1     20030 9.59289E-01 1.30729E+00-9.32415E-10-2.39488E-01-4.21228E-14 4.18079E-14
 -1     20031 9.26513E-01 1.34006E+00-9.36520E-10-2.06775E-01 1.15245E-12 2.70550E-12
 -1     20032 9.52473E-01 1.31410E+00 5.08184E-10-2.48871E-01-3.68599E-13-5.73252E-13
 -1     20037 9.59289E-01 1.30729E+00-9.38834E-10-2.39488E-01 1.63621E-13 5.40515E-13
 -1     20038 9.26513E-01 1.34006E+00-9.36583E-10-2.06775E-01-6.73735E-13-1.78576E-12
 -1     20039 9.52473E-01 1.31410E+00 5.08095E-10-2.48871E-01 3.48635E-13 6.97230E-13
 -1     20044 9.59289E-01 1.30729E+00-9.35297E-10-2.39488E-01 4.04149E-14-2.12438E-14
 -1     20045 9.26513E-01 1.34006E+00-9.36559E-10-2.06775E-01 7.54281E-13 1.72515E-12
 -1     20046 9.52473E-01 1.31410E+00 5.08123E-10-2.48871E-01-3.04615E-13-7.62062E-13
 -1     20051 9.59289E-01 1.30729E+00-9.38798E-10-2.39488E-01-2.58097E-13-5.92813E-13
 -1     20052 9.26513E-01 1.34006E+00-9.36470E-10-2.06775E-01-1.10820E-12-2.70353E-12
 -1     20053 9.52473E-01 1.31410E+00 5.08172E-10-2.48871E-01 3.55807E-13 5.23652E-13
 -1     20058 9.59289E-01 1.30729E+00-9.32351E-10-2.39488E-01 4.38260E-14-1.48312E-13
 -1     20059 9.26513E-01 1.34006E+00-9.35757E-10-2.06775E-01 1.02807E-12 2.48924E-12
 -1     20060 9.52473E-01 1.31410E+00 5.08505E-10-2.48871E-01-2.07277E-13-7.08141E-13
 -1     20065 9.59289E-01 1.30729E+00-9.43811E-10-2.39488E-01 7.23994E-13 1.08820E-12
 -1     20066 9.26513E-01 1.34006E+00-9.34077E-10-2.06775E-01 2.07281E-13 5.93811E-13
 -1     20067 9.52473E-01 1.31410E+00 5.08575E-10-2.48871E-01-7.52491E-13-1.80259E-12
 -1     20072 9.59289E-01 1.30729E+00-9.22748E-10-2.39488E-01-3.70756E-12-7.68040E-12
 -1     20073 9.26513E-01 1.34006E+00-9.40050E-10-2.06775E-01-6.25309E-12-1.50421E-11
 -1     20074 9.52473E-01 1.31410E+00 5.11565E-10-2.48871E-01 5.45426E-12 1.02482E-11
 -1     20079 9.59289E-01 1.30729E+00-9.60878E-10-2.39488E-01 1.46654E-11 2.83438E-11
 -1     20083 1.04181E+00 1.22476E+00-9.60873E-10-2.81536E-01-1.84944E-11-2.56428E-11
 -1     20084 1.00053E+00 1.26605E+00-9.38941E-10-2.60551E-01 8.58445E-12 1.37133E-11
 -1     20085 1.03823E+00 1.22835E+00 5.11328E-10-2.92565E-01-6.50394E-12-9.22838E-12
 -1     20090 1.04181E+00 1.22476E+00-9.21304E-10-2.81536E-01 5.30653E-12 7.06525E-12
 -1     20091 1.00053E+00 1.26605E+00-9.33016E-10-2.60551E-01 4.19535E-14-3.95843E-13
 -1     20092 1.03823E+00 1.22835E+00 5.08384E-10-2.92565E-01 1.37140E-12 1.62528E-12
 -1     20097 1.04181E+00 1.22476E+00-9.43227E-10-2.81536E-01-3.38609E-13-6.63576E-13
 -1     20098 1.00053E+00 1.26605E+00-9.34839E-10-2.60551E-01-1.21310E-12-2.42999E-12
 -1     20099 1.03823E+00 1.22835E+00 5.08426E-10-2.92565E-01 7.31044E-13 8.07518E-13
 -1     20104 1.04181E+00 1.22476E+00-9.31114E-10-2.81536E-01 3.18252E-13 1.33343E-13
 -1     20105 1.00053E+00 1.26605E+00-9.35601E-10-2.60551E-01 1.68676E-12 2.53559E-12
 -1     20106 1.03823E+00 1.22835E+00 5.08188E-10-2.92565E-01-1.66653E-13-4.15720E-13
 -1     20111 1.04181E+00 1.22476E+00-9.37655E-10-2.81536E-01 5.61497E-13 7.12749E-13
 -1     20112 1.00053E+00 1.26605E+00-9.35725E-10-2.60551E-01-9.30488E-13-1.62878E-12
 -1     20113 1.03823E+00 1.22835E+00 5.08192E-10-2.92565E-01 5.88400E-13 7.35149E-13
 -1     20118 1.04181E+00 1.22476E+00-9.34041E-10-2.81536E-01 4.80895E-14 1.36558E-14
 -1     20119 1.00053E+00 1.26605E+00-9.35711E-10-2.60551E-01 9.45118E-13 1.59167E-12
 -1     20120 1.03823E+00 1.22835E+00 5.08207E-10-2.92565E-01-4.99291E-13-6.96822E-13
 -1     20125 1.04181E+00 1.22476E+00-9.37669E-10-2.81536E-01-5.68034E-13-7.20707E-13
 -1     20126 1.00053E+00 1.26605E+00-9.35617E-10-2.60551E-01-1.69286E-12-2.55734E-12
 -1     20127 1.03823E+00 1.22835E+00 5.08181E-10-2.92565E-01 1.81610E-13 3.96942E-13
 -1     20132 1.04181E+00 1.22476E+00-9.31155E-10-2.81536E-01-2.18082E-13-1.44476E-13
 -1     20133 1.00053E+00 1.26605E+00-9.34831E-10-2.60551E-01 1.28392E-12 2.37922E-12
 -1     20134 1.03823E+00 1.22835E+00 5.08457E-10-2.92565E-01-6.93977E-13-8.14009E-13
 -1     20139 1.04181E+00 1.22476E+00-9.43201E-10-2.81536E-01 4.25676E-13 6.91379E-13
 -1     20140 1.00053E+00 1.26605E+00-9.33050E-10-2.60551E-01-4.84682E-14 3.58566E-13
 -1     20141 1.03823E+00 1.22835E+00 5.08397E-10-2.92565E-01-1.27137E-12-1.61600E-12
 -1     20146 1.04181E+00 1.22476E+00-9.21322E-10-2.81536E-01-5.27189E-12-7.01810E-12
 -1     20147 1.00053E+00 1.26605E+00-9.38957E-10-2.60551E-01-8.54961E-12-1.37469E-11
 -1     20148 1.03823E+00 1.22835E+00 5.11279E-10-2.92565E-01 6.55179E-12 9.26241E-12
 -1     20153 1.04181E+00 1.22476E+00-9.60932E-10-2.81536E-01 1.85119E-11 2.56736E-11
 -1     20157 1.13329E+00 1.13329E+00-9.60542E-10-2.96024E-01-2.21683E-11-2.25415E-11
 -1     20158 1.08754E+00 1.17903E+00-9.41044E-10-2.88823E-01 9.80982E-12 1.16262E-11
 -1     20159 1.13329E+00 1.13329E+00 5.10469E-10-3.07621E-01-7.69690E-12-8.00355E-12
 -1     20164 1.13329E+00 1.13329E+00-9.19320E-10-2.96024E-01 6.49550E-12 5.81380E-12
 -1     20165 1.08754E+00 1.17903E+00-9.34914E-10-2.88823E-01 8.80302E-14 2.31753E-13
 -1     20166 1.13329E+00 1.13329E+00 5.07381E-10-3.07621E-01 1.40448E-12 9.91032E-13
 -1     20171 1.13329E+00 1.13329E+00-9.42864E-10-2.96024E-01-2.54298E-13-6.86572E-13
 -1     20172 1.08754E+00 1.17903E+00-9.36693E-10-2.88823E-01-2.06906E-12-2.31678E-12
 -1     20173 1.13329E+00 1.13329E+00 5.07337E-10-3.07621E-01 9.17844E-13 6.69796E-13
 -1     20178 1.13329E+00 1.13329E+00-9.30088E-10-2.96024E-01 1.28897E-13-6.39358E-15
 -1     20179 1.08754E+00 1.17903E+00-9.37391E-10-2.88823E-01 2.00884E-12 2.42634E-12
 -1     20180 1.13329E+00 1.13329E+00 5.06955E-10-3.07621E-01-3.98831E-13-4.93507E-13
 -1     20185 1.13329E+00 1.13329E+00-9.37075E-10-2.96024E-01 6.62731E-13 5.14191E-13
 -1     20186 1.08754E+00 1.17903E+00-9.37497E-10-2.88823E-01-1.16935E-12-1.39707E-12
 -1     20187 1.13329E+00 1.13329E+00 5.06867E-10-3.07621E-01 5.70074E-13 4.80434E-13
 -1     20192 1.13329E+00 1.13329E+00-9.33575E-10-2.96024E-01 1.53773E-14 5.26400E-14
 -1     20193 1.08754E+00 1.17903E+00-9.37492E-10-2.88823E-01 1.20563E-12 1.38959E-12
 -1     20194 1.13329E+00 1.13329E+00 5.06923E-10-3.07621E-01-5.22187E-13-5.07013E-13
 -1     20199 1.13329E+00 1.13329E+00-9.36934E-10-2.96024E-01-5.38637E-13-4.49431E-13
 -1     20200 1.08754E+00 1.17903E+00-9.37410E-10-2.88823E-01-1.95732E-12-2.42012E-12
 -1     20201 1.13329E+00 1.13329E+00 5.06949E-10-3.07621E-01 4.97638E-13 5.92473E-13
 -1     20206 1.13329E+00 1.13329E+00-9.30054E-10-2.96024E-01-1.17576E-13 2.74075E-14
 -1     20207 1.08754E+00 1.17903E+00-9.36699E-10-2.88823E-01 2.14236E-12 2.29409E-12
 -1     20208 1.13329E+00 1.13329E+00 5.07394E-10-3.07621E-01-7.89535E-13-5.86196E-13
 -1     20213 1.13329E+00 1.13329E+00-9.42846E-10-2.96024E-01 3.53467E-13 6.95948E-13
 -1     20214 1.08754E+00 1.17903E+00-9.34935E-10-2.88823E-01-1.93562E-14-2.44508E-13
 -1     20215 1.13329E+00 1.13329E+00 5.07422E-10-3.07621E-01-1.33689E-12-9.30654E-13
 -1     20220 1.13329E+00 1.13329E+00-9.19312E-10-2.96024E-01-6.41016E-12-5.79591E-12
 -1     20221 1.08754E+00 1.17903E+00-9.41065E-10-2.88823E-01-9.82129E-12-1.16235E-11
 -1     20222 1.13329E+00 1.13329E+00 5.10522E-10-3.07621E-01 7.64184E-12 8.02895E-12
 -1     20227 1.13329E+00 1.13329E+00-9.60563E-10-2.96024E-01 2.21531E-11 2.25463E-11
 -1     20231 1.22476E+00 1.04181E+00-9.59367E-10-2.81536E-01-2.63422E-11-1.89382E-11
 -1     20232 1.17903E+00 1.08754E+00-9.39842E-10-2.88823E-01 1.24348E-11 1.09349E-11
 -1     20233 1.22835E+00 1.03823E+00 5.11526E-10-2.92565E-01-1.04590E-11-7.31307E-12
 -1     20238 1.22476E+00 1.04181E+00-9.25537E-10-2.81536E-01 6.31685E-12 4.92904E-12
 -1     20239 1.17903E+00 1.08754E+00-9.33898E-10-2.88823E-01-9.38804E-13-2.59668E-13
 -1     20240 1.22835E+00 1.03823E+00 5.08440E-10-2.92565E-01 1.35627E-12 1.22288E-12
 -1     20245 1.22476E+00 1.04181E+00-9.43769E-10-2.81536E-01-2.01814E-12-1.33218E-12
 -1     20246 1.17903E+00 1.08754E+00-9.35492E-10-2.88823E-01-2.12715E-12-1.35801E-12
 -1     20247 1.22835E+00 1.03823E+00 5.07983E-10-2.92565E-01-1.53416E-13 7.36650E-14
 -1     20252 1.22476E+00 1.04181E+00-9.34571E-10-2.81536E-01-1.47759E-13-2.22489E-14
 -1     20253 1.17903E+00 1.08754E+00-9.36158E-10-2.88823E-01 2.06571E-12 2.02210E-12
 -1     20254 1.22835E+00 1.03823E+00 5.07535E-10-2.92565E-01-6.80002E-13-4.76040E-13
 -1     20259 1.22476E+00 1.04181E+00-9.40514E-10-2.81536E-01 1.57416E-13 6.10416E-14
 -1     20260 1.17903E+00 1.08754E+00-9.36224E-10-2.88823E-01-1.44505E-12-1.13736E-12
 -1     20261 1.22835E+00 1.03823E+00 5.07348E-10-2.92565E-01 5.22027E-13 3.95556E-13
 -1     20266 1.22476E+00 1.04181E+00-9.37061E-10-2.81536E-01-4.78333E-14-2.15580E-14
 -1     20267 1.17903E+00 1.08754E+00-9.36198E-10-2.88823E-01 1.50293E-12 1.17303E-12
 -1     20268 1.22835E+00 1.03823E+00 5.07301E-10-2.92565E-01-5.31626E-13-4.22537E-13
 -1     20273 1.22476E+00 1.04181E+00-9.40587E-10-2.81536E-01-1.55460E-14-7.93222E-14
 -1     20274 1.17903E+00 1.08754E+00-9.36161E-10-2.88823E-01-1.99038E-12-1.98957E-12
 -1     20275 1.22835E+00 1.03823E+00 5.07562E-10-2.92565E-01 7.11299E-13 4.08130E-13
 -1     20280 1.22476E+00 1.04181E+00-9.34640E-10-2.81536E-01 1.42907E-13-1.50626E-14
 -1     20281 1.17903E+00 1.08754E+00-9.35472E-10-2.88823E-01 2.19885E-12 1.41854E-12
 -1     20282 1.22835E+00 1.03823E+00 5.07995E-10-2.92565E-01 1.34475E-13 7.15222E-15
 -1     20287 1.22476E+00 1.04181E+00-9.43768E-10-2.81536E-01 2.01334E-12 1.34891E-12
 -1     20288 1.17903E+00 1.08754E+00-9.33869E-10-2.88823E-01 9.85115E-13 2.29886E-13
 -1     20289 1.22835E+00 1.03823E+00 5.08422E-10-2.92565E-01-1.41164E-12-1.22486E-12
 -1     20294 1.22476E+00 1.04181E+00-9.25510E-10-2.81536E-01-6.31751E-12-4.87596E-12
 -1     20295 1.17903E+00 1.08754E+00-9.39877E-10-2.88823E-01-1.24766E-11-1.09457E-11
 -1     20296 1.22835E+00 1.03823E+00 5.11562E-10-2.92565E-01 1.04359E-11 7.33406E-12
 -1     20301 1.22476E+00 1.04181E+00-9.59380E-10-2.81536E-01 2.63046E-11 1.89753E-11
 -1     20305 1.30729E+00 9.59289E-01-9.61169E-10-2.39488E-01-2.86539E-11-1.42284E-11
 -1     20306 1.26605E+00 1.00053E+00-9.38025E-10-2.60551E-01 1.50250E-11 8.87765E-12
 -1     20307 1.31410E+00 9.52473E-01 5.11889E-10-2.48871E-01-1.05410E-11-5.02922E-12
 -1     20312 1.30729E+00 9.59289E-01-9.22797E-10-2.39488E-01 7.26393E-12 4.29827E-12
 -1     20313 1.26605E+00 1.00053E+00-9.32270E-10-2.60551E-01-9.55057E-13-1.14219E-12
 -1     20314 1.31410E+00 9.52473E-01 5.08930E-10-2.48871E-01 1.57585E-12 1.10545E-12
 -1     20319 1.30729E+00 9.59289E-01-9.43735E-10-2.39488E-01-1.43591E-12-2.86465E-13
 -1     20320 1.26605E+00 1.00053E+00-9.33912E-10-2.60551E-01-1.74163E-12-1.37046E-12
 -1     20321 1.31410E+00 9.52473E-01 5.08897E-10-2.48871E-01 4.69857E-13 4.40770E-13
 -1     20326 1.30729E+00 9.59289E-01-9.32316E-10-2.39488E-01-5.04968E-14 2.33163E-13
 -1     20327 1.26605E+00 1.00053E+00-9.34648E-10-2.60551E-01 2.48831E-12 1.22397E-12
 -1     20328 1.31410E+00 9.52473E-01 5.08589E-10-2.48871E-01-6.22174E-13-2.10421E-13
 -1     20333 1.30729E+00 9.59289E-01-9.38776E-10-2.39488E-01 4.31725E-13 3.13300E-13
 -1     20334 1.26605E+00 1.00053E+00-9.34746E-10-2.60551E-01-1.56217E-12-1.06457E-12
 -1     20335 1.31410E+00 9.52473E-01 5.08523E-10-2.48871E-01 5.94847E-13 3.34587E-13
 -1     20340 1.30729E+00 9.59289E-01-9.35261E-10-2.39488E-01 3.65437E-14-6.23722E-14
 -1     20341 1.26605E+00 1.00053E+00-9.34768E-10-2.60551E-01 1.62944E-12 1.04799E-12
 -1     20342 1.31410E+00 9.52473E-01 5.08503E-10-2.48871E-01-6.26526E-13-3.55767E-13
 -1     20347 1.30729E+00 9.59289E-01-9.38757E-10-2.39488E-01-4.85493E-13-3.34658E-13
 -1     20348 1.26605E+00 1.00053E+00-9.34675E-10-2.60551E-01-2.49163E-12-1.26167E-12
 -1     20349 1.31410E+00 9.52473E-01 5.08577E-10-2.48871E-01 6.69579E-13 2.28428E-13
 -1     20354 1.30729E+00 9.59289E-01-9.32345E-10-2.39488E-01 9.12914E-14-2.31907E-13
 -1     20355 1.26605E+00 1.00053E+00-9.33916E-10-2.60551E-01 1.66109E-12 1.43082E-12
 -1     20356 1.31410E+00 9.52473E-01 5.08883E-10-2.48871E-01-5.06057E-13-4.91437E-13
 -1     20361 1.30729E+00 9.59289E-01-9.43757E-10-2.39488E-01 1.35625E-12 2.76535E-13
 -1     20362 1.26605E+00 1.00053E+00-9.32253E-10-2.60551E-01 9.70316E-13 1.13710E-12
 -1     20363 1.31410E+00 9.52473E-01 5.08908E-10-2.48871E-01-1.50042E-12-1.13856E-12
 -1     20368 1.30729E+00 9.59289E-01-9.22761E-10-2.39488E-01-7.17415E-12-4.25582E-12
 -1     20369 1.26605E+00 1.00053E+00-9.38032E-10-2.60551E-01-1.50540E-11-8.86076E-12
 -1     20370 1.31410E+00 9.52473E-01 5.11875E-10-2.48871E-01 1.06314E-11 5.04770E-12
 -1     20375 1.30729E+00 9.59289E-01-9.61172E-10-2.39488E-01 2.86142E-11 1.42192E-11
 -1     20379 1.37278E+00 8.93800E-01-9.61115E-10-1.73999E-01-2.93827E-11-9.73347E-12
 -1     20380 1.34006E+00 9.26513E-01-9.40737E-10-2.06775E-01 1.40136E-11 5.36322E-12
 -1     20381 1.38216E+00 8.84417E-01 5.10720E-10-1.80815E-01-9.63910E-12-3.31437E-12
 -1     20386 1.37278E+00 8.93800E-01-9.17048E-10-1.73999E-01 8.94223E-12 2.76845E-12
 -1     20387 1.34006E+00 9.26513E-01-9.34678E-10-2.06775E-01 6.45574E-13-3.77702E-13
 -1     20388 1.38216E+00 8.84417E-01 5.08021E-10-1.80815E-01 1.96073E-12 5.46627E-13
 -1     20393 1.37278E+00 8.93800E-01-9.41764E-10-1.73999E-01 2.92420E-13 4.19802E-14
 -1     20394 1.34006E+00 9.26513E-01-9.36582E-10-2.06775E-01-2.79668E-12-1.70869E-12
 -1     20395 1.38216E+00 8.84417E-01 5.08487E-10-1.80815E-01 1.78966E-12 5.11309E-13
 -1     20400 1.37278E+00 8.93800E-01-9.27335E-10-1.73999E-01 5.46539E-13 1.08485E-13
 -1     20401 1.34006E+00 9.26513E-01-9.37387E-10-2.06775E-01 3.05311E-12 8.87186E-13
 -1     20402 1.38216E+00 8.84417E-01 5.08411E-10-1.80815E-01-2.48060E-13-1.17580E-13
 -1     20407 1.37278E+00 8.93800E-01-9.34382E-10-1.73999E-01 1.38821E-12 4.27882E-13
 -1     20408 1.34006E+00 9.26513E-01-9.37538E-10-2.06775E-01-1.63682E-12-8.82045E-13
 -1     20409 1.38216E+00 8.84417E-01 5.08542E-10-1.80815E-01 1.07231E-12 3.02401E-13
 -1     20414 1.37278E+00 8.93800E-01-9.30720E-10-1.73999E-01 6.72919E-14-6.57225E-15
 -1     20415 1.34006E+00 9.26513E-01-9.37515E-10-2.06775E-01 1.64716E-12 8.30491E-13
 -1     20416 1.38216E+00 8.84417E-01 5.08582E-10-1.80815E-01-1.09941E-12-3.38060E-13
 -1     20421 1.37278E+00 8.93800E-01-9.34278E-10-1.73999E-01-1.38092E-12-4.13450E-13
 -1     20422 1.34006E+00 9.26513E-01-9.37376E-10-2.06775E-01-3.05301E-12-9.43789E-13
 -1     20423 1.38216E+00 8.84417E-01 5.08444E-10-1.80815E-01 2.46555E-13 8.57306E-14
 -1     20428 1.37278E+00 8.93800E-01-9.27278E-10-1.73999E-01-5.85529E-13-1.71858E-13
 -1     20429 1.34006E+00 9.26513E-01-9.36612E-10-2.06775E-01 2.80260E-12 1.66582E-12
 -1     20430 1.38216E+00 8.84417E-01 5.08431E-10-1.80815E-01-1.75070E-12-5.04173E-13
 -1     20435 1.37278E+00 8.93800E-01-9.41725E-10-1.73999E-01-4.05501E-13-4.19793E-14
 -1     20436 1.34006E+00 9.26513E-01-9.34678E-10-2.06775E-01-6.77856E-13 3.81738E-13
 -1     20437 1.38216E+00 8.84417E-01 5.08014E-10-1.80815E-01-2.06732E-12-5.46522E-13
 -1     20442 1.37278E+00 8.93800E-01-9.16994E-10-1.73999E-01-9.10220E-12-2.73529E-12
 -1     20443 1.34006E+00 9.26513E-01-9.40733E-10-2.06775E-01-1.39704E-11-5.37506E-12
 -1     20444 1.38216E+00 8.84417E-01 5.10761E-10-1.80815E-01 9.59969E-12 3.31501E-12
 -1     20449 1.37278E+00 8.93800E-01-9.61064E-10-1.73999E-01 2.93827E-11 9.72337E-12
 -1     20453 1.41482E+00 8.51752E-01-9.60207E-10-9.14764E-02-3.14468E-11-5.57535E-12
 -1     20454 1.39384E+00 8.72737E-01-9.41743E-10-1.32758E-01 1.41947E-11 3.95601E-12
 -1     20455 1.42585E+00 8.40723E-01 5.10732E-10-9.50601E-02-1.14822E-11-2.32898E-12
 -1     20460 1.41482E+00 8.51752E-01-9.21624E-10-9.14764E-02 8.50357E-12 5.45573E-13
 -1     20461 1.39384E+00 8.72737E-01-9.35611E-10-1.32758E-01 2.00109E-13 8.02869E-13
 -1     20462 1.42585E+00 8.40723E-01 5.07688E-10-9.50601E-02 1.87800E-12-1.78770E-13
 -1     20467 1.41482E+00 8.51752E-01-9.43252E-10-9.14764E-02-1.22939E-12-6.79718E-13
 -1     20468 1.39384E+00 8.72737E-01-9.37430E-10-1.32758E-01-3.44225E-12-2.69606E-13
 -1     20469 1.42585E+00 8.40723E-01 5.07507E-10-9.50601E-02 6.70008E-13-1.24412E-13
 -1     20474 1.41482E+00 8.51752E-01-9.31584E-10-9.14764E-02 6.94100E-14-2.24836E-13
 -1     20475 1.39384E+00 8.72737E-01-9.38173E-10-1.32758E-01 2.98190E-12 1.07294E-12
 -1     20476 1.42585E+00 8.40723E-01 5.07232E-10-9.50601E-02-6.23052E-13-2.12629E-13
 -1     20481 1.41482E+00 8.51752E-01-9.38072E-10-9.14764E-02 6.42965E-13 1.81375E-14
 -1     20482 1.39384E+00 8.72737E-01-9.38302E-10-1.32758E-01-1.83002E-12-3.12756E-13
 -1     20483 1.42585E+00 8.40723E-01 5.07162E-10-9.50601E-02 7.85999E-13 9.71498E-14
 -1     20488 1.41482E+00 8.51752E-01-9.34593E-10-9.14764E-02 7.64897E-14 6.03275E-15
 -1     20489 1.39384E+00 8.72737E-01-9.38245E-10-1.32758E-01 1.86555E-12 3.19504E-13
 -1     20490 1.42585E+00 8.40723E-01 5.07160E-10-9.50601E-02-6.76077E-13-1.17251E-13
 -1     20495 1.41482E+00 8.51752E-01-9.38201E-10-9.14764E-02-5.85074E-13-5.74480E-14
 -1     20496 1.39384E+00 8.72737E-01-9.38181E-10-1.32758E-01-2.96257E-12-1.08761E-12
 -1     20497 1.42585E+00 8.40723E-01 5.07178E-10-9.50601E-02 6.31094E-13 1.85949E-13
 -1     20502 1.41482E+00 8.51752E-01-9.31606E-10-9.14764E-02-3.21268E-14 2.19541E-13
 -1     20503 1.39384E+00 8.72737E-01-9.37441E-10-1.32758E-01 3.45106E-12 2.62904E-13
 -1     20504 1.42585E+00 8.40723E-01 5.07572E-10-9.50601E-02-6.89360E-13 1.21320E-13
 -1     20509 1.41482E+00 8.51752E-01-9.43197E-10-9.14764E-02 1.22151E-12 6.78629E-13
 -1     20510 1.39384E+00 8.72737E-01-9.35588E-10-1.32758E-01-1.96816E-13-7.73036E-13
 -1     20511 1.42585E+00 8.40723E-01 5.07654E-10-9.50601E-02-1.71397E-12 1.90838E-13
 -1     20516 1.41482E+00 8.51752E-01-9.21662E-10-9.14764E-02-8.32324E-12-5.81843E-13
 -1     20517 1.39384E+00 8.72737E-01-9.41736E-10-1.32758E-01-1.41821E-11-3.94061E-12
 -1     20518 1.42585E+00 8.40723E-01 5.10733E-10-9.50601E-02 1.15296E-11 2.33181E-12
 -1     20523 1.41482E+00 8.51752E-01-9.60227E-10-9.14764E-02 3.14279E-11 5.55883E-12
 -1     20527 1.42211E+00 8.44465E-01-9.37812E-10-4.57451E-02 1.82156E-11 1.96579E-12
 -1     20531 1.42211E+00 8.44465E-01-9.32130E-10-4.57451E-02-2.59961E-12 5.86349E-13
 -1     20535 1.42211E+00 8.44465E-01-9.33546E-10-4.57451E-02-2.02254E-12 4.44788E-13
 -1     20539 1.42211E+00 8.44465E-01-9.34208E-10-4.57451E-02 2.38675E-12 6.07217E-13
 -1     20543 1.42211E+00 8.44465E-01-9.34229E-10-4.57451E-02-1.95144E-12 8.92869E-15
 -1     20547 1.42211E+00 8.44465E-01-9.34239E-10-4.57451E-02 1.99477E-12 8.25352E-15
 -1     20551 1.42211E+00 8.44465E-01-9.34212E-10-4.57451E-02-2.28889E-12-6.09277E-13
 -1     20555 1.42211E+00 8.44465E-01-9.33503E-10-4.57451E-02 1.96221E-12-4.46875E-13
 -1     20559 1.42211E+00 8.44465E-01-9.32130E-10-4.57451E-02 2.72236E-12-5.72549E-13
 -1     20563 1.42211E+00 8.44465E-01-9.37848E-10-4.57451E-02-1.82459E-11-1.95302E-12
 -1     20569 8.71490E-01 1.39509E+00-8.30264E-10-8.50632E-02-3.65509E-12-2.32555E-11
 -1     20570 8.64713E-01 1.40186E+00-8.06063E-10-4.25380E-02 7.18387E-13 9.23297E-12
 -1     20571 8.61620E-01 1.40496E+00 4.33539E-10-8.82701E-02-5.98903E-13-4.19137E-12
 -1     20576 8.71490E-01 1.39509E+00-7.80237E-10-8.50632E-02 1.37287E-12 8.03040E-12
 -1     20577 8.64713E-01 1.40186E+00-8.04794E-10-4.25380E-02 8.95028E-13 1.15004E-11
 -1     20578 8.61620E-01 1.40496E+00 4.27849E-10-8.82701E-02 2.14951E-13 7.65902E-13
 -1     20583 8.71490E-01 1.39509E+00-8.14844E-10-8.50632E-02 5.30689E-13 2.54520E-12
 -1     20584 8.64713E-01 1.40186E+00-8.02572E-10-4.25380E-02-3.93559E-13-4.87038E-12
 -1     20585 8.61620E-01 1.40496E+00 4.29278E-10-8.82701E-02 6.02215E-13 3.33803E-12
 -1     20590 8.71490E-01 1.39509E+00-7.95162E-10-8.50632E-02 1.01192E-13 2.41779E-13
 -1     20591 8.64713E-01 1.40186E+00-8.02302E-10-4.25380E-02 5.11369E-13 6.46750E-12
 -1     20592 8.61620E-01 1.40496E+00 4.28677E-10-8.82701E-02-2.58574E-14-5.07982E-13
 -1     20597 8.71490E-01 1.39509E+00-8.06648E-10-8.50632E-02 4.06355E-13 2.22201E-12
 -1     20598 8.64713E-01 1.40186E+00-8.02470E-10-4.25380E-02-1.68913E-13-2.25379E-12
 -1     20599 8.61620E-01 1.40496E+00 4.28592E-10-8.82701E-02 2.46989E-13 1.30634E-12
 -1     20604 8.71490E-01 1.39509E+00-8.01208E-10-8.50632E-02 2.63815E-14-8.62493E-15
 -1     20605 8.64713E-01 1.40186E+00-8.02500E-10-4.25380E-02 1.77155E-13 2.26620E-12
 -1     20606 8.61620E-01 1.40496E+00 4.28596E-10-8.82701E-02-2.27063E-13-1.22719E-12
 -1     20611 8.71490E-01 1.39509E+00-8.06668E-10-8.50632E-02-4.05109E-13-2.20299E-12
 -1     20612 8.64713E-01 1.40186E+00-8.02307E-10-4.25380E-02-4.88177E-13-6.50743E-12
 -1     20613 8.61620E-01 1.40496E+00 4.28613E-10-8.82701E-02 4.99103E-14 4.97702E-13
 -1     20618 8.71490E-01 1.39509E+00-7.95203E-10-8.50632E-02-9.37699E-14-2.01821E-13
 -1     20619 8.64713E-01 1.40186E+00-8.02543E-10-4.25380E-02 4.04307E-13 4.90076E-12
 -1     20620 8.61620E-01 1.40496E+00 4.29242E-10-8.82701E-02-5.94642E-13-3.32177E-12
 -1     20625 8.71490E-01 1.39509E+00-8.14836E-10-8.50632E-02-4.88246E-13-2.52425E-12
 -1     20626 8.64713E-01 1.40186E+00-8.04807E-10-4.25380E-02-8.88126E-13-1.15060E-11
 -1     20627 8.61620E-01 1.40496E+00 4.27838E-10-8.82701E-02-2.00832E-13-7.40017E-13
 -1     20632 8.71490E-01 1.39509E+00-7.80261E-10-8.50632E-02-1.35290E-12-8.03695E-12
 -1     20633 8.64713E-01 1.40186E+00-8.06065E-10-4.25380E-02-7.12993E-13-9.21380E-12
 -1     20634 8.61620E-01 1.40496E+00 4.33565E-10-8.82701E-02 6.10740E-13 4.17764E-12
 -1     20639 8.71490E-01 1.39509E+00-8.30288E-10-8.50632E-02 3.65974E-12 2.32147E-11
 -1     20643 9.10590E-01 1.35599E+00-8.29987E-10-1.61800E-01-7.32385E-12-2.22831E-11
 -1     20644 8.91003E-01 1.37557E+00-8.06286E-10-1.23450E-01 2.14416E-12 8.95054E-12
 -1     20645 9.02194E-01 1.36438E+00 4.33354E-10-1.67900E-01-1.38025E-12-4.01627E-12
 -1     20650 9.10590E-01 1.35599E+00-7.79764E-10-1.61800E-01 2.39816E-12 7.69282E-12
 -1     20651 8.91003E-01 1.37557E+00-8.04958E-10-1.23450E-01 2.65997E-12 1.12294E-11
 -1     20652 9.02194E-01 1.36438E+00 4.27573E-10-1.67900E-01 1.63133E-13 6.51968E-13
 -1     20657 9.10590E-01 1.35599E+00-8.14595E-10-1.61800E-01 7.76459E-13 2.42555E-12
 -1     20658 8.91003E-01 1.37557E+00-8.02710E-10-1.23450E-01-1.17427E-12-4.73880E-12
 -1     20659 9.02194E-01 1.36438E+00 4.29051E-10-1.67900E-01 1.02937E-12 3.19974E-12
 -1     20664 9.10590E-01 1.35599E+00-7.94925E-10-1.61800E-01 5.39310E-14 1.31835E-13
 -1     20665 8.91003E-01 1.37557E+00-8.02444E-10-1.23450E-01 1.50237E-12 6.35068E-12
 -1     20666 9.02194E-01 1.36438E+00 4.28341E-10-1.67900E-01-1.69459E-13-6.00187E-13
 -1     20671 9.10590E-01 1.35599E+00-8.06419E-10-1.61800E-01 7.03137E-13 2.11587E-12
 -1     20672 8.91003E-01 1.37557E+00-8.02593E-10-1.23450E-01-5.21576E-13-2.19642E-12
 -1     20673 9.02194E-01 1.36438E+00 4.28284E-10-1.67900E-01 4.47894E-13 1.19392E-12
 -1     20678 9.10590E-01 1.35599E+00-8.01063E-10-1.61800E-01 1.45903E-14-1.52851E-13
 -1     20679 8.91003E-01 1.37557E+00-8.02594E-10-1.23450E-01 5.61263E-13 2.18487E-12
 -1     20680 9.02194E-01 1.36438E+00 4.28265E-10-1.67900E-01-3.47012E-13-1.30581E-12
 -1     20685 9.10590E-01 1.35599E+00-8.06475E-10-1.61800E-01-6.61535E-13-2.13829E-12
 -1     20686 8.91003E-01 1.37557E+00-8.02472E-10-1.23450E-01-1.48718E-12-6.33156E-12
 -1     20687 9.02194E-01 1.36438E+00 4.28324E-10-1.67900E-01 2.20262E-13 6.67904E-13
 -1     20692 9.10590E-01 1.35599E+00-7.94947E-10-1.61800E-01 1.40104E-14-2.66413E-14
 -1     20693 8.91003E-01 1.37557E+00-8.02721E-10-1.23450E-01 1.19749E-12 4.78169E-12
 -1     20694 9.02194E-01 1.36438E+00 4.29041E-10-1.67900E-01-9.60736E-13-3.08054E-12
 -1     20699 9.10590E-01 1.35599E+00-8.14585E-10-1.61800E-01-7.65066E-13-2.43459E-12
 -1     20700 8.91003E-01 1.37557E+00-8.04974E-10-1.23450E-01-2.67023E-12-1.12517E-11
 -1     20701 9.02194E-01 1.36438E+00 4.27607E-10-1.67900E-01-1.27681E-13-5.82761E-13
 -1     20706 9.10590E-01 1.35599E+00-7.79758E-10-1.61800E-01-2.41158E-12-7.62346E-12
 -1     20707 8.91003E-01 1.37557E+00-8.06267E-10-1.23450E-01-2.12595E-12-8.92615E-12
 -1     20708 9.02194E-01 1.36438E+00 4.33381E-10-1.67900E-01 1.40271E-12 4.06843E-12
 -1     20713 9.10590E-01 1.35599E+00-8.29912E-10-1.61800E-01 7.35102E-12 2.24014E-11
 -1     20717 9.71488E-01 1.29509E+00-8.30651E-10-2.22698E-01-1.08705E-11-2.09962E-11
 -1     20718 9.41010E-01 1.32557E+00-8.06450E-10-1.92278E-01 3.66641E-12 8.59924E-12
 -1     20719 9.65388E-01 1.30119E+00 4.34062E-10-2.31094E-01-2.12475E-12-3.73969E-12
 -1     20724 9.71488E-01 1.29509E+00-7.81085E-10-2.22698E-01 3.46909E-12 7.22599E-12
 -1     20725 9.41010E-01 1.32557E+00-8.05154E-10-1.92278E-01 4.46661E-12 1.05757E-11
 -1     20726 9.65388E-01 1.30119E+00 4.28360E-10-2.31094E-01 1.96848E-13 7.15094E-13
 -1     20731 9.71488E-01 1.29509E+00-8.15250E-10-2.22698E-01 9.53763E-13 2.25477E-12
 -1     20732 9.41010E-01 1.32557E+00-8.02929E-10-1.92278E-01-1.79631E-12-4.52281E-12
 -1     20733 9.65388E-01 1.30119E+00 4.29823E-10-2.31094E-01 1.42830E-12 2.95637E-12
 -1     20738 9.71488E-01 1.29509E+00-7.95786E-10-2.22698E-01 3.50893E-14 1.48903E-13
 -1     20739 9.41010E-01 1.32557E+00-8.02683E-10-1.92278E-01 2.53081E-12 5.99676E-12
 -1     20740 9.65388E-01 1.30119E+00 4.29209E-10-2.31094E-01-3.08795E-13-4.69466E-13
 -1     20745 9.71488E-01 1.29509E+00-8.07164E-10-2.22698E-01 9.67898E-13 1.95691E-12
 -1     20746 9.41010E-01 1.32557E+00-8.02797E-10-1.92278E-01-8.52872E-13-2.10526E-12
 -1     20747 9.65388E-01 1.30119E+00 4.29173E-10-2.31094E-01 5.87397E-13 1.15258E-12
 -1     20752 9.71488E-01 1.29509E+00-8.01663E-10-2.22698E-01-3.73425E-15-2.69305E-14
 -1     20753 9.41010E-01 1.32557E+00-8.02841E-10-1.92278E-01 8.74125E-13 1.99597E-12
 -1     20754 9.65388E-01 1.30119E+00 4.29151E-10-2.31094E-01-5.97936E-13-1.23696E-12
 -1     20759 9.71488E-01 1.29509E+00-8.07183E-10-2.22698E-01-9.24938E-13-2.03152E-12
 -1     20760 9.41010E-01 1.32557E+00-8.02662E-10-1.92278E-01-2.48488E-12-6.01476E-12
 -1     20761 9.65388E-01 1.30119E+00 4.29262E-10-2.31094E-01 3.41369E-13 4.22393E-13
 -1     20766 9.71488E-01 1.29509E+00-7.95765E-10-2.22698E-01 4.59751E-14-1.99089E-13
 -1     20767 9.41010E-01 1.32557E+00-8.02944E-10-1.92278E-01 1.81298E-12 4.51454E-12
 -1     20768 9.65388E-01 1.30119E+00 4.29903E-10-2.31094E-01-1.42668E-12-3.04030E-12
 -1     20773 9.71488E-01 1.29509E+00-8.15150E-10-2.22698E-01-9.60216E-13-2.23496E-12
 -1     20774 9.41010E-01 1.32557E+00-8.05143E-10-1.92278E-01-4.43185E-12-1.05960E-11
 -1     20775 9.65388E-01 1.30119E+00 4.28419E-10-2.31094E-01-2.03838E-13-8.34237E-13
 -1     20780 9.71488E-01 1.29509E+00-7.81058E-10-2.22698E-01-3.42042E-12-7.37787E-12
 -1     20781 9.41010E-01 1.32557E+00-8.06447E-10-1.92278E-01-3.62952E-12-8.61167E-12
 -1     20782 9.65388E-01 1.30119E+00 4.34068E-10-2.31094E-01 2.13431E-12 3.67224E-12
 -1     20787 9.71488E-01 1.29509E+00-8.30713E-10-2.22698E-01 1.08613E-11 2.10204E-11
 -1     20791 1.04822E+00 1.21835E+00-8.31384E-10-2.61798E-01-1.36094E-11-1.88461E-11
 -1     20792 1.00984E+00 1.25674E+00-8.05283E-10-2.42285E-01 4.89245E-12 7.58832E-12
 -1     20793 1.04502E+00 1.22156E+00 4.34007E-10-2.71668E-01-1.99063E-12-3.03766E-12
 -1     20798 1.04822E+00 1.21835E+00-7.78880E-10-2.61798E-01 4.96677E-12 6.65941E-12
 -1     20799 1.00984E+00 1.25674E+00-8.03991E-10-2.42285E-01 6.49360E-12 1.01200E-11
 -1     20800 1.04502E+00 1.22156E+00 4.28438E-10-2.71668E-01 5.63883E-13 6.11295E-13
 -1     20805 1.04822E+00 1.21835E+00-8.14558E-10-2.61798E-01 1.81495E-12 2.40304E-12
 -1     20806 1.00984E+00 1.25674E+00-8.01763E-10-2.42285E-01-2.41605E-12-4.37706E-12
 -1     20807 1.04502E+00 1.22156E+00 4.30283E-10-2.71668E-01 2.29186E-12 2.94557E-12
 -1     20812 1.04822E+00 1.21835E+00-7.93596E-10-2.61798E-01 7.75689E-14 6.51643E-14
 -1     20813 1.00984E+00 1.25674E+00-8.01519E-10-2.42285E-01 3.57744E-12 5.52960E-12
 -1     20814 1.04502E+00 1.22156E+00 4.29867E-10-2.71668E-01-2.53334E-13-4.37275E-13
 -1     20819 1.04822E+00 1.21835E+00-8.05000E-10-2.61798E-01 1.43131E-12 1.95747E-12
 -1     20820 1.00984E+00 1.25674E+00-8.01585E-10-2.42285E-01-1.08039E-12-1.93111E-12
 -1     20821 1.04502E+00 1.22156E+00 4.29973E-10-2.71668E-01 8.42442E-13 1.14144E-12
 -1     20826 1.04822E+00 1.21835E+00-7.99526E-10-2.61798E-01 2.80063E-15-1.94515E-14
 -1     20827 1.00984E+00 1.25674E+00-8.01640E-10-2.42285E-01 1.09020E-12 1.92175E-12
 -1     20828 1.04502E+00 1.22156E+00 4.29988E-10-2.71668E-01-8.14325E-13-1.12315E-12
 -1     20833 1.04822E+00 1.21835E+00-8.04934E-10-2.61798E-01-1.46043E-12-1.91951E-12
 -1     20834 1.00984E+00 1.25674E+00-8.01516E-10-2.42285E-01-3.56724E-12-5.55924E-12
 -1     20835 1.04502E+00 1.22156E+00 4.29843E-10-2.71668E-01 2.27782E-13 4.10324E-13
 -1     20840 1.04822E+00 1.21835E+00-7.93593E-10-2.61798E-01-6.43280E-14-7.45044E-14
 -1     20841 1.00984E+00 1.25674E+00-8.01781E-10-2.42285E-01 2.41082E-12 4.42537E-12
 -1     20842 1.04502E+00 1.22156E+00 4.30230E-10-2.71668E-01-2.20841E-12-2.89349E-12
 -1     20847 1.04822E+00 1.21835E+00-8.14610E-10-2.61798E-01-1.82970E-12-2.38641E-12
 -1     20848 1.00984E+00 1.25674E+00-8.03971E-10-2.42285E-01-6.48068E-12-1.01265E-11
 -1     20849 1.04502E+00 1.22156E+00 4.28434E-10-2.71668E-01-5.69608E-13-5.60962E-13
 -1     20854 1.04822E+00 1.21835E+00-7.78781E-10-2.61798E-01-4.93580E-12-6.63465E-12
 -1     20855 1.00984E+00 1.25674E+00-8.05298E-10-2.42285E-01-4.88603E-12-7.62368E-12
 -1     20856 1.04502E+00 1.22156E+00 4.33976E-10-2.71668E-01 2.03362E-12 3.05878E-12
 -1     20861 1.04822E+00 1.21835E+00-8.31366E-10-2.61798E-01 1.36420E-11 1.88405E-11
 -1     20865 1.13329E+00 1.13329E+00-8.31977E-10-2.75270E-01-1.61243E-11-1.64922E-11
 -1     20866 1.09075E+00 1.17583E+00-8.07503E-10-2.68574E-01 4.40955E-12 5.43127E-12
 -1     20867 1.13329E+00 1.13329E+00 4.33021E-10-2.85648E-01-2.03573E-12-2.50760E-12
 -1     20872 1.13329E+00 1.13329E+00-7.75750E-10-2.75270E-01 5.90642E-12 5.25674E-12
 -1     20873 1.09075E+00 1.17583E+00-8.05948E-10-2.68574E-01 8.19575E-12 9.85317E-12
 -1     20874 1.13329E+00 1.13329E+00 4.27040E-10-2.85648E-01 3.73170E-13-1.61525E-13
 -1     20879 1.13329E+00 1.13329E+00-8.14864E-10-2.75270E-01 2.63159E-12 2.19993E-12
 -1     20880 1.09075E+00 1.17583E+00-8.03591E-10-2.68574E-01-4.03340E-12-4.46359E-12
 -1     20881 1.13329E+00 1.13329E+00 4.28817E-10-2.85648E-01 2.85875E-12 2.57193E-12
 -1     20886 1.13329E+00 1.13329E+00-7.92469E-10-2.75270E-01 2.51909E-14-2.82399E-13
 -1     20887 1.09075E+00 1.17583E+00-8.03142E-10-2.68574E-01 4.16950E-12 4.96706E-12
 -1     20888 1.13329E+00 1.13329E+00 4.28204E-10-2.85648E-01-3.68809E-13-5.40995E-13
 -1     20893 1.13329E+00 1.13329E+00-8.04381E-10-2.75270E-01 1.95230E-12 1.79755E-12
 -1     20894 1.09075E+00 1.17583E+00-8.03167E-10-2.68574E-01-1.43516E-12-1.64324E-12
 -1     20895 1.13329E+00 1.13329E+00 4.28268E-10-2.85648E-01 9.73316E-13 9.27079E-13
 -1     20900 1.13329E+00 1.13329E+00-7.99296E-10-2.75270E-01 3.55366E-14 3.02506E-14
 -1     20901 1.09075E+00 1.17583E+00-8.03173E-10-2.68574E-01 1.44347E-12 1.67706E-12
 -1     20902 1.13329E+00 1.13329E+00 4.28303E-10-2.85648E-01-9.09047E-13-8.27261E-13
 -1     20907 1.13329E+00 1.13329E+00-8.04426E-10-2.75270E-01-1.84213E-12-1.68023E-12
 -1     20908 1.09075E+00 1.17583E+00-8.03136E-10-2.68574E-01-4.15807E-12-4.93458E-12
 -1     20909 1.13329E+00 1.13329E+00 4.28236E-10-2.85648E-01 4.97228E-13 6.86009E-13
 -1     20914 1.13329E+00 1.13329E+00-7.92426E-10-2.75270E-01 4.84825E-14 3.98889E-13
 -1     20915 1.09075E+00 1.17583E+00-8.03610E-10-2.68574E-01 4.03469E-12 4.59628E-12
 -1     20916 1.13329E+00 1.13329E+00 4.28851E-10-2.85648E-01-2.83801E-12-2.54826E-12
 -1     20921 1.13329E+00 1.13329E+00-8.14910E-10-2.75270E-01-2.63085E-12-2.09951E-12
 -1     20922 1.09075E+00 1.17583E+00-8.05941E-10-2.68574E-01-8.20053E-12-9.87436E-12
 -1     20923 1.13329E+00 1.13329E+00 4.27044E-10-2.85648E-01-3.14524E-13 1.15239E-13
 -1     20928 1.13329E+00 1.13329E+00-7.75814E-10-2.75270E-01-5.95380E-12-5.39170E-12
 -1     20929 1.09075E+00 1.17583E+00-8.07493E-10-2.68574E-01-4.36382E-12-5.44962E-12
 -1     20930 1.13329E+00 1.13329E+00 4.32962E-10-2.85648E-01 2.02572E-12 2.43704E-12
 -1     20935 1.13329E+00 1.13329E+00-8.31991E-10-2.75270E-01 1.61200E-11 1.64439E-11
 -1     20939 1.21835E+00 1.04822E+00-8.26775E-10-2.61798E-01-1.97524E-11-1.41632E-11
 -1     20940 1.17583E+00 1.09075E+00-8.06357E-10-2.68574E-01 7.44557E-12 6.78152E-12
 -1     20941 1.22156E+00 1.04502E+00 4.33702E-10-2.71668E-01-5.09049E-12-3.39533E-12
 -1     20946 1.21835E+00 1.04822E+00-7.86403E-10-2.61798E-01 6.40420E-12 4.81352E-12
 -1     20947 1.17583E+00 1.09075E+00-8.05090E-10-2.68574E-01 7.96158E-12 7.66006E-12
 -1     20948 1.22156E+00 1.04502E+00 4.27978E-10-2.71668E-01 9.18065E-13 9.03784E-13
 -1     20953 1.21835E+00 1.04822E+00-8.14899E-10-2.61798E-01 7.96136E-13 7.36063E-13
 -1     20954 1.17583E+00 1.09075E+00-8.02808E-10-2.68574E-01-3.68579E-12-2.58096E-12
 -1     20955 1.22156E+00 1.04502E+00 4.28585E-10-2.71668E-01 1.93313E-12 1.50053E-12
 -1     20960 1.21835E+00 1.04822E+00-7.99826E-10-2.61798E-01 6.17546E-13 4.11830E-13
 -1     20961 1.17583E+00 1.09075E+00-8.02561E-10-2.68574E-01 4.76454E-12 4.47189E-12
 -1     20962 1.22156E+00 1.04502E+00 4.27677E-10-2.71668E-01-4.47873E-13-3.29815E-13
 -1     20967 1.21835E+00 1.04822E+00-8.10856E-10-2.61798E-01 1.35456E-12 9.51989E-13
 -1     20968 1.17583E+00 1.09075E+00-8.02724E-10-2.68574E-01-1.77543E-12-1.38711E-12
 -1     20969 1.22156E+00 1.04502E+00 4.27244E-10-2.71668E-01 1.11803E-12 7.88149E-13
 -1     20974 1.21835E+00 1.04822E+00-8.04952E-10-2.61798E-01 5.99016E-15 1.82433E-14
 -1     20975 1.17583E+00 1.09075E+00-8.02736E-10-2.68574E-01 1.83806E-12 1.35141E-12
 -1     20976 1.22156E+00 1.04502E+00 4.27276E-10-2.71668E-01-1.04746E-12-8.22717E-13
 -1     20981 1.21835E+00 1.04822E+00-8.10929E-10-2.61798E-01-1.35611E-12-1.00040E-12
 -1     20982 1.17583E+00 1.09075E+00-8.02587E-10-2.68574E-01-4.68956E-12-4.43628E-12
 -1     20983 1.22156E+00 1.04502E+00 4.27575E-10-2.71668E-01 4.57244E-13 2.92499E-13
 -1     20988 1.21835E+00 1.04822E+00-7.99897E-10-2.61798E-01-5.41159E-13-4.59359E-13
 -1     20989 1.17583E+00 1.09075E+00-8.02847E-10-2.68574E-01 3.74461E-12 2.56731E-12
 -1     20990 1.22156E+00 1.04502E+00 4.28595E-10-2.71668E-01-1.90889E-12-1.50342E-12
 -1     20995 1.21835E+00 1.04822E+00-8.14890E-10-2.61798E-01-8.60226E-13-7.52605E-13
 -1     20996 1.17583E+00 1.09075E+00-8.05082E-10-2.68574E-01-7.92295E-12-7.63289E-12
 -1     20997 1.22156E+00 1.04502E+00 4.27955E-10-2.71668E-01-9.29441E-13-8.72073E-13
 -1     21002 1.21835E+00 1.04822E+00-7.86438E-10-2.61798E-01-6.36997E-12-4.78176E-12
 -1     21003 1.17583E+00 1.09075E+00-8.06364E-10-2.68574E-01-7.37310E-12-6.76638E-12
 -1     21004 1.22156E+00 1.04502E+00 4.33691E-10-2.71668E-01 5.05523E-12 3.44035E-12
 -1     21009 1.21835E+00 1.04822E+00-8.26767E-10-2.61798E-01 1.97123E-11 1.41895E-11
 -1     21013 1.29509E+00 9.71488E-01-8.30993E-10-2.22698E-01-2.13395E-11-1.03406E-11
 -1     21014 1.25674E+00 1.00984E+00-8.04330E-10-2.42285E-01 1.04346E-11 5.91987E-12
 -1     21015 1.30119E+00 9.65388E-01 4.34416E-10-2.31094E-01-3.96891E-12-1.51216E-12
 -1     21020 1.29509E+00 9.71488E-01-7.81080E-10-2.22698E-01 6.77231E-12 4.30674E-12
 -1     21021 1.25674E+00 1.00984E+00-8.03369E-10-2.42285E-01 8.90028E-12 4.79279E-12
 -1     21022 1.30119E+00 9.65388E-01 4.28856E-10-2.31094E-01 5.12743E-13 8.13207E-13
 -1     21027 1.29509E+00 9.71488E-01-8.15225E-10-2.22698E-01 1.94498E-12 1.66541E-12
 -1     21028 1.25674E+00 1.00984E+00-8.01271E-10-2.42285E-01-2.74193E-12-2.17803E-12
 -1     21029 1.30119E+00 9.65388E-01 4.30426E-10-2.31094E-01 2.80108E-12 1.84411E-12
 -1     21034 1.29509E+00 9.71488E-01-7.95680E-10-2.22698E-01-1.08405E-13 4.08957E-13
 -1     21035 1.25674E+00 1.00984E+00-8.01243E-10-2.42285E-01 5.71518E-12 3.25861E-12
 -1     21036 1.30119E+00 9.65388E-01 4.29753E-10-2.31094E-01-5.95820E-13-5.60191E-14
 -1     21041 1.29509E+00 9.71488E-01-8.07124E-10-2.22698E-01 1.92003E-12 1.18864E-12
 -1     21042 1.25674E+00 1.00984E+00-8.01461E-10-2.42285E-01-1.84604E-12-1.28126E-12
 -1     21043 1.30119E+00 9.65388E-01 4.29707E-10-2.31094E-01 1.18595E-12 6.36608E-13
 -1     21048 1.29509E+00 9.71488E-01-8.01656E-10-2.22698E-01 6.59265E-14 9.45226E-14
 -1     21049 1.25674E+00 1.00984E+00-8.01492E-10-2.42285E-01 1.87594E-12 1.31933E-12
 -1     21050 1.30119E+00 9.65388E-01 4.29699E-10-2.31094E-01-1.11521E-12-6.28967E-13
 -1     21055 1.29509E+00 9.71488E-01-8.07152E-10-2.22698E-01-1.92739E-12-1.20085E-12
 -1     21056 1.25674E+00 1.00984E+00-8.01234E-10-2.42285E-01-5.82071E-12-3.17343E-12
 -1     21057 1.30119E+00 9.65388E-01 4.29779E-10-2.31094E-01 5.58899E-13 5.43192E-14
 -1     21062 1.29509E+00 9.71488E-01-7.95750E-10-2.22698E-01 1.15122E-13-4.84808E-13
 -1     21063 1.25674E+00 1.00984E+00-8.01304E-10-2.42285E-01 2.79253E-12 2.18755E-12
 -1     21064 1.30119E+00 9.65388E-01 4.30349E-10-2.31094E-01-2.80932E-12-1.86363E-12
 -1     21069 1.29509E+00 9.71488E-01-8.15401E-10-2.22698E-01-1.92329E-12-1.67578E-12
 -1     21070 1.25674E+00 1.00984E+00-8.03375E-10-2.42285E-01-8.99507E-12-4.78699E-12
 -1     21071 1.30119E+00 9.65388E-01 4.28794E-10-2.31094E-01-5.24775E-13-8.32798E-13
 -1     21076 1.29509E+00 9.71488E-01-7.81180E-10-2.22698E-01-6.78497E-12-4.31094E-12
 -1     21077 1.25674E+00 1.00984E+00-8.04333E-10-2.42285E-01-1.04119E-11-5.90782E-12
 -1     21078 1.30119E+00 9.65388E-01 4.34419E-10-2.31094E-01 4.03116E-12 1.54706E-12
 -1     21083 1.29509E+00 9.71488E-01-8.31051E-10-2.22698E-01 2.14494E-11 1.03209E-11
 -1     21087 1.35599E+00 9.10590E-01-8.33837E-10-1.61800E-01-2.11724E-11-7.07185E-12
 -1     21088 1.32557E+00 9.41010E-01-8.07149E-10-1.92278E-01 6.14498E-12 2.01332E-12
 -1     21089 1.36438E+00 9.02194E-01 4.33632E-10-1.67900E-01-1.70126E-12-7.73203E-13
 -1     21094 1.35599E+00 9.10590E-01-7.71899E-10-1.61800E-01 8.11752E-12 2.44480E-12
 -1     21095 1.32557E+00 9.41010E-01-8.05610E-10-1.92278E-01 1.25669E-11 4.29830E-12
 -1     21096 1.36438E+00 9.02194E-01 4.28220E-10-1.67900E-01 2.23278E-13-2.42671E-14
 -1     21101 1.35599E+00 9.10590E-01-8.13346E-10-1.61800E-01 4.24679E-12 1.35830E-12
 -1     21102 1.32557E+00 9.41010E-01-8.03399E-10-1.92278E-01-5.63206E-12-2.97127E-12
 -1     21103 1.36438E+00 9.02194E-01 4.30948E-10-1.67900E-01 4.34159E-12 1.35749E-12
 -1     21108 1.35599E+00 9.10590E-01-7.87975E-10-1.61800E-01-3.86444E-13-1.01206E-13
 -1     21109 1.32557E+00 9.41010E-01-8.02964E-10-1.92278E-01 6.16700E-12 2.11227E-12
 -1     21110 1.36438E+00 9.02194E-01 4.30883E-10-1.67900E-01-4.85522E-13-1.96604E-13
 -1     21115 1.35599E+00 9.10590E-01-7.99580E-10-1.61800E-01 2.84830E-12 8.78487E-13
 -1     21116 1.32557E+00 9.41010E-01-8.02959E-10-1.92278E-01-1.94006E-12-9.85468E-13
 -1     21117 1.36438E+00 9.02194E-01 4.31400E-10-1.67900E-01 1.33909E-12 3.96083E-13
 -1     21122 1.35599E+00 9.10590E-01-7.94588E-10-1.61800E-01-5.84510E-14-5.22338E-14
 -1     21123 1.32557E+00 9.41010E-01-8.03017E-10-1.92278E-01 2.00534E-12 9.73867E-13
 -1     21124 1.36438E+00 9.02194E-01 4.31429E-10-1.67900E-01-1.36918E-12-4.35456E-13
 -1     21129 1.35599E+00 9.10590E-01-7.99529E-10-1.61800E-01-2.80960E-12-9.66512E-13
 -1     21130 1.32557E+00 9.41010E-01-8.02961E-10-1.92278E-01-6.20623E-12-2.14048E-12
 -1     21131 1.36438E+00 9.02194E-01 4.30969E-10-1.67900E-01 4.33142E-13 1.30310E-13
 -1     21136 1.35599E+00 9.10590E-01-7.87749E-10-1.61800E-01 2.59219E-13 9.00791E-14
 -1     21137 1.32557E+00 9.41010E-01-8.03410E-10-1.92278E-01 5.63429E-12 2.95544E-12
 -1     21138 1.36438E+00 9.02194E-01 4.31059E-10-1.67900E-01-4.39885E-12-1.39443E-12
 -1     21143 1.35599E+00 9.10590E-01-8.13147E-10-1.61800E-01-4.36314E-12-1.35563E-12
 -1     21144 1.32557E+00 9.41010E-01-8.05645E-10-1.92278E-01-1.25721E-11-4.37200E-12
 -1     21145 1.36438E+00 9.02194E-01 4.28295E-10-1.67900E-01-3.46733E-13 2.37140E-14
 -1     21150 1.35599E+00 9.10590E-01-7.71788E-10-1.61800E-01-8.16930E-12-2.47519E-12
 -1     21151 1.32557E+00 9.41010E-01-8.07165E-10-1.92278E-01-6.13372E-12-2.03445E-12
 -1     21152 1.36438E+00 9.02194E-01 4.33701E-10-1.67900E-01 1.68359E-12 7.54297E-13
 -1     21157 1.35599E+00 9.10590E-01-8.33802E-10-1.61800E-01 2.11982E-11 7.08656E-12
 -1     21161 1.39509E+00 8.71490E-01-8.30236E-10-8.50632E-02-2.30944E-11-4.46879E-12
 -1     21162 1.37557E+00 8.91003E-01-8.08327E-10-1.23450E-01 5.56577E-12 2.07821E-12
 -1     21163 1.40496E+00 8.61620E-01 4.33123E-10-8.82701E-02-4.10954E-12-1.33314E-12
 -1     21168 1.39509E+00 8.71490E-01-7.79645E-10-8.50632E-02 7.98609E-12 1.79247E-13
 -1     21169 1.37557E+00 8.91003E-01-8.06683E-10-1.23450E-01 1.25971E-11 4.05150E-12
 -1     21170 1.40496E+00 8.61620E-01 4.27286E-10-8.82701E-02 6.39040E-13-5.98410E-13
 -1     21175 1.39509E+00 8.71490E-01-8.14927E-10-8.50632E-02 2.73097E-12-3.70709E-13
 -1     21176 1.37557E+00 8.91003E-01-8.04435E-10-1.23450E-01-6.66236E-12-8.48486E-13
 -1     21177 1.40496E+00 8.61620E-01 4.28718E-10-8.82701E-02 3.39082E-12 1.29216E-13
 -1     21182 1.39509E+00 8.71490E-01-7.95093E-10-8.50632E-02 2.30898E-13-4.64841E-13
 -1     21183 1.37557E+00 8.91003E-01-8.03955E-10-1.23450E-01 6.09801E-12 1.92729E-12
 -1     21184 1.40496E+00 8.61620E-01 4.27993E-10-8.82701E-02-5.31957E-13-2.85677E-13
 -1     21189 1.39509E+00 8.71490E-01-8.06701E-10-8.50632E-02 2.36878E-12 1.79083E-13
 -1     21190 1.37557E+00 8.91003E-01-8.03963E-10-1.23450E-01-2.13461E-12-3.86016E-13
 -1     21191 1.40496E+00 8.61620E-01 4.27935E-10-8.82701E-02 1.37210E-12 1.49842E-13
 -1     21196 1.39509E+00 8.71490E-01-8.01356E-10-8.50632E-02 5.02512E-14-3.76463E-15
 -1     21197 1.37557E+00 8.91003E-01-8.03959E-10-1.23450E-01 2.17570E-12 3.35194E-13
 -1     21198 1.40496E+00 8.61620E-01 4.27910E-10-8.82701E-02-1.25034E-12-1.46780E-13
 -1     21203 1.39509E+00 8.71490E-01-8.06708E-10-8.50632E-02-2.24685E-12-1.26476E-13
 -1     21204 1.37557E+00 8.91003E-01-8.03922E-10-1.23450E-01-6.09916E-12-1.96979E-12
 -1     21205 1.40496E+00 8.61620E-01 4.28004E-10-8.82701E-02 5.79894E-13 2.90413E-13
 -1     21210 1.39509E+00 8.71490E-01-7.95134E-10-8.50632E-02-2.74564E-13 4.49963E-13
 -1     21211 1.37557E+00 8.91003E-01-8.04391E-10-1.23450E-01 6.62975E-12 8.43084E-13
 -1     21212 1.40496E+00 8.61620E-01 4.28671E-10-8.82701E-02-3.40406E-12-1.36291E-13
 -1     21217 1.39509E+00 8.71490E-01-8.15039E-10-8.50632E-02-2.62904E-12 3.38811E-13
 -1     21218 1.37557E+00 8.91003E-01-8.06676E-10-1.23450E-01-1.25928E-11-4.04051E-12
 -1     21219 1.40496E+00 8.61620E-01 4.27281E-10-8.82701E-02-5.32764E-13 5.90535E-13
 -1     21224 1.39509E+00 8.71490E-01-7.79687E-10-8.50632E-02-7.97133E-12-1.67860E-13
 -1     21225 1.37557E+00 8.91003E-01-8.08313E-10-1.23450E-01-5.59667E-12-2.07151E-12
 -1     21226 1.40496E+00 8.61620E-01 4.33090E-10-8.82701E-02 4.09554E-12 1.32014E-12
 -1     21231 1.39509E+00 8.71490E-01-8.30256E-10-8.50632E-02 2.30906E-11 4.45737E-12
 -1     21235 1.40186E+00 8.64713E-01-8.04278E-10-4.25380E-02 1.40195E-11 1.78793E-12
 -1     21239 1.40186E+00 8.64713E-01-8.03460E-10-4.25380E-02 8.11185E-12 1.75517E-12
 -1     21243 1.40186E+00 8.64713E-01-8.01438E-10-4.25380E-02-2.55454E-12 5.82363E-13
 -1     21247 1.40186E+00 8.64713E-01-8.01651E-10-4.25380E-02 6.30786E-12 1.02832E-12
 -1     21251 1.40186E+00 8.64713E-01-8.02085E-10-4.25380E-02-2.32185E-12 3.90722E-15
 -1     21255 1.40186E+00 8.64713E-01-8.02032E-10-4.25380E-02 2.41141E-12-1.60918E-14
 -1     21259 1.40186E+00 8.64713E-01-8.01672E-10-4.25380E-02-6.32743E-12-1.01994E-12
 -1     21263 1.40186E+00 8.64713E-01-8.01466E-10-4.25380E-02 2.60271E-12-5.77361E-13
 -1     21267 1.40186E+00 8.64713E-01-8.03450E-10-4.25380E-02-8.13697E-12-1.76185E-12
 -1     21271 1.40186E+00 8.64713E-01-8.04266E-10-4.25380E-02-1.40159E-11-1.79429E-12
 -1     21277 8.89223E-01 1.37735E+00-7.22970E-10-7.93014E-02-3.41194E-12-2.18640E-11
 -1     21278 8.82906E-01 1.38367E+00-6.76146E-10-3.96567E-02-2.48726E-12-3.12660E-11
 -1     21279 8.80356E-01 1.38622E+00 3.71367E-10-8.21825E-02 4.02012E-14-3.58524E-13
 -1     21284 8.89223E-01 1.37735E+00-6.36714E-10-7.93014E-02 5.15064E-13 2.17252E-12
 -1     21285 8.82906E-01 1.38367E+00-6.57354E-10-3.96567E-02 1.58351E-12 2.03982E-11
 -1     21286 8.80356E-01 1.38622E+00 3.72613E-10-8.21825E-02-5.26579E-13-4.24901E-12
 -1     21291 8.89223E-01 1.37735E+00-6.97818E-10-7.93014E-02 1.31581E-12 7.52288E-12
 -1     21292 8.82906E-01 1.38367E+00-6.72499E-10-3.96567E-02-1.07561E-12-1.35056E-11
 -1     21293 8.80356E-01 1.38622E+00 3.69168E-10-8.21825E-02 1.25967E-12 7.21333E-12
 -1     21298 8.89223E-01 1.37735E+00-6.62866E-10-7.93014E-02-7.99786E-14-1.17587E-12
 -1     21299 8.82906E-01 1.38367E+00-6.77510E-10-3.96567E-02 8.35046E-13 1.07958E-11
 -1     21300 8.80356E-01 1.38622E+00 3.66253E-10-8.21825E-02-1.44553E-14-4.65457E-13
 -1     21305 8.89223E-01 1.37735E+00-6.81441E-10-7.93014E-02 7.45354E-13 4.62788E-12
 -1     21306 8.82906E-01 1.38367E+00-6.78880E-10-3.96567E-02-1.95313E-13-2.44504E-12
 -1     21307 8.80356E-01 1.38622E+00 3.66115E-10-8.21825E-02 3.78842E-13 2.19921E-12
 -1     21312 8.89223E-01 1.37735E+00-6.74519E-10-7.93014E-02 9.55671E-15-7.28389E-14
 -1     21313 8.82906E-01 1.38367E+00-6.78880E-10-3.96567E-02 2.01850E-13 2.43430E-12
 -1     21314 8.80356E-01 1.38622E+00 3.66070E-10-8.21825E-02-3.77319E-13-2.24486E-12
 -1     21319 8.89223E-01 1.37735E+00-6.81450E-10-7.93014E-02-7.67576E-13-4.59632E-12
 -1     21320 8.82906E-01 1.38367E+00-6.77498E-10-3.96567E-02-8.36208E-13-1.08489E-11
 -1     21321 8.80356E-01 1.38622E+00 3.66221E-10-8.21825E-02 9.46014E-15 4.53579E-13
 -1     21326 8.89223E-01 1.37735E+00-6.62894E-10-7.93014E-02 9.41001E-14 1.15948E-12
 -1     21327 8.82906E-01 1.38367E+00-6.72506E-10-3.96567E-02 1.08818E-12 1.35347E-11
 -1     21328 8.80356E-01 1.38622E+00 3.69166E-10-8.21825E-02-1.23161E-12-7.22500E-12
 -1     21333 8.89223E-01 1.37735E+00-6.97803E-10-7.93014E-02-1.29014E-12-7.38183E-12
 -1     21334 8.82906E-01 1.38367E+00-6.57347E-10-3.96567E-02-1.57544E-12-2.04147E-11
 -1     21335 8.80356E-01 1.38622E+00 3.72644E-10-8.21825E-02 5.68329E-13 4.26939E-12
 -1     21340 8.89223E-01 1.37735E+00-6.36633E-10-7.93014E-02-4.64852E-13-2.20157E-12
 -1     21341 8.82906E-01 1.38367E+00-6.76127E-10-3.96567E-02 2.47773E-12 3.12594E-11
 -1     21342 8.80356E-01 1.38622E+00 3.71393E-10-8.21825E-02-1.20900E-14 3.99638E-13
 -1     21347 8.89223E-01 1.37735E+00-7.22944E-10-7.93014E-02 3.43792E-12 2.19093E-11
 -1     21351 9.25674E-01 1.34090E+00-7.22982E-10-1.50840E-01-6.93046E-12-2.09482E-11
 -1     21352 9.07415E-01 1.35916E+00-6.76464E-10-1.15088E-01-7.40409E-12-3.06151E-11
 -1     21353 9.18131E-01 1.34844E+00 3.71171E-10-1.56320E-01-1.84262E-13-3.87227E-13
 -1     21358 9.25674E-01 1.34090E+00-6.36296E-10-1.50840E-01 6.01723E-13 2.01815E-12
 -1     21359 9.07415E-01 1.35916E+00-6.57630E-10-1.15088E-01 4.73036E-12 1.99532E-11
 -1     21360 9.18131E-01 1.34844E+00 3.72390E-10-1.56320E-01-1.41869E-12-4.21825E-12
 -1     21365 9.25674E-01 1.34090E+00-6.97773E-10-1.50840E-01 2.32498E-12 7.14470E-12
 -1     21366 9.07415E-01 1.35916E+00-6.72722E-10-1.15088E-01-3.23374E-12-1.32340E-11
 -1     21367 9.18131E-01 1.34844E+00 3.68870E-10-1.56320E-01 2.24077E-12 6.88793E-12
 -1     21372 9.25674E-01 1.34090E+00-6.62766E-10-1.50840E-01-3.38784E-13-1.14657E-12
 -1     21373 9.07415E-01 1.35916E+00-6.77655E-10-1.15088E-01 2.53818E-12 1.05461E-11
 -1     21374 9.18131E-01 1.34844E+00 3.65860E-10-1.56320E-01-9.21715E-14-4.42181E-13
 -1     21379 9.25674E-01 1.34090E+00-6.81540E-10-1.50840E-01 1.55189E-12 4.35725E-12
 -1     21380 9.07415E-01 1.35916E+00-6.79000E-10-1.15088E-01-5.66711E-13-2.45703E-12
 -1     21381 9.18131E-01 1.34844E+00 3.65612E-10-1.56320E-01 6.92819E-13 2.02299E-12
 -1     21386 9.25674E-01 1.34090E+00-6.74675E-10-1.50840E-01 2.23606E-14 7.85915E-14
 -1     21387 9.07415E-01 1.35916E+00-6.79068E-10-1.15088E-01 6.13911E-13 2.41097E-12
 -1     21388 9.18131E-01 1.34844E+00 3.65637E-10-1.56320E-01-6.49727E-13-2.14181E-12
 -1     21393 9.25674E-01 1.34090E+00-6.81600E-10-1.50840E-01-1.47757E-12-4.50619E-12
 -1     21394 9.07415E-01 1.35916E+00-6.77665E-10-1.15088E-01-2.48789E-12-1.05397E-11
 -1     21395 9.18131E-01 1.34844E+00 3.65822E-10-1.56320E-01 1.43400E-13 4.38037E-13
 -1     21400 9.25674E-01 1.34090E+00-6.62792E-10-1.50840E-01 3.54647E-13 1.08355E-12
 -1     21401 9.07415E-01 1.35916E+00-6.72730E-10-1.15088E-01 3.24657E-12 1.31776E-11
 -1     21402 9.18131E-01 1.34844E+00 3.68827E-10-1.56320E-01-2.21965E-12-6.94204E-12
 -1     21407 9.25674E-01 1.34090E+00-6.97863E-10-1.50840E-01-2.34275E-12-7.26135E-12
 -1     21408 9.07415E-01 1.35916E+00-6.57620E-10-1.15088E-01-4.73147E-12-1.99282E-11
 -1     21409 9.18131E-01 1.34844E+00 3.72311E-10-1.56320E-01 1.40704E-12 4.17656E-12
 -1     21414 9.25674E-01 1.34090E+00-6.36329E-10-1.50840E-01-6.03310E-13-2.10088E-12
 -1     21415 9.07415E-01 1.35916E+00-6.76441E-10-1.15088E-01 7.37497E-12 3.06081E-11
 -1     21416 9.18131E-01 1.34844E+00 3.71195E-10-1.56320E-01 2.03723E-13 3.98108E-13
 -1     21421 9.25674E-01 1.34090E+00-7.22993E-10-1.50840E-01 6.89074E-12 2.10756E-11
 -1     21425 9.82448E-01 1.28413E+00-7.23036E-10-2.07614E-01-1.03500E-11-1.98694E-11
 -1     21426 9.54034E-01 1.31254E+00-6.76241E-10-1.79254E-01-1.18790E-11-2.88706E-11
 -1     21427 9.76968E-01 1.28961E+00 3.72034E-10-2.15157E-01-4.36861E-13-3.42489E-13
 -1     21432 9.82448E-01 1.28413E+00-6.37712E-10-2.07614E-01 7.71235E-13 2.05281E-12
 -1     21433 9.54034E-01 1.31254E+00-6.57541E-10-1.79254E-01 7.84752E-12 1.87992E-11
 -1     21434 9.76968E-01 1.28961E+00 3.73398E-10-2.15157E-01-2.08484E-12-3.63158E-12
 -1     21439 9.82448E-01 1.28413E+00-6.97872E-10-2.07614E-01 3.07155E-12 6.44993E-12
 -1     21440 9.54034E-01 1.31254E+00-6.72621E-10-1.79254E-01-5.09614E-12-1.25017E-11
 -1     21441 9.76968E-01 1.28961E+00 3.69925E-10-2.15157E-01 3.15776E-12 6.43302E-12
 -1     21446 9.82448E-01 1.28413E+00-6.63291E-10-2.07614E-01-6.91250E-13-1.06945E-12
 -1     21447 9.54034E-01 1.31254E+00-6.77571E-10-1.79254E-01 4.21225E-12 1.00326E-11
 -1     21448 9.76968E-01 1.28961E+00 3.67027E-10-2.15157E-01-2.70109E-13-3.60632E-13
 -1     21453 9.82448E-01 1.28413E+00-6.81889E-10-2.07614E-01 2.04280E-12 3.98975E-12
 -1     21454 9.54034E-01 1.31254E+00-6.78924E-10-1.79254E-01-9.29392E-13-2.44013E-12
 -1     21455 9.76968E-01 1.28961E+00 3.66923E-10-2.15157E-01 1.02018E-12 1.96440E-12
 -1     21460 9.82448E-01 1.28413E+00-6.74709E-10-2.07614E-01 3.56420E-14 1.73804E-14
 -1     21461 9.54034E-01 1.31254E+00-6.78966E-10-1.79254E-01 1.01551E-12 2.31515E-12
 -1     21462 9.76968E-01 1.28961E+00 3.66939E-10-2.15157E-01-9.71601E-13-2.01818E-12
 -1     21467 9.82448E-01 1.28413E+00-6.81833E-10-2.07614E-01-1.99382E-12-4.08047E-12
 -1     21468 9.54034E-01 1.31254E+00-6.77577E-10-1.79254E-01-4.16531E-12-1.00624E-11
 -1     21469 9.76968E-01 1.28961E+00 3.67069E-10-2.15157E-01 2.88249E-13 3.36451E-13
 -1     21474 9.82448E-01 1.28413E+00-6.63256E-10-2.07614E-01 6.53694E-13 1.05289E-12
 -1     21475 9.54034E-01 1.31254E+00-6.72591E-10-1.79254E-01 5.14801E-12 1.24635E-11
 -1     21476 9.76968E-01 1.28961E+00 3.69930E-10-2.15157E-01-3.14093E-12-6.44221E-12
 -1     21481 9.82448E-01 1.28413E+00-6.97917E-10-2.07614E-01-3.02103E-12-6.58212E-12
 -1     21482 9.54034E-01 1.31254E+00-6.57532E-10-1.79254E-01-7.82074E-12-1.87612E-11
 -1     21483 9.76968E-01 1.28961E+00 3.73346E-10-2.15157E-01 2.13200E-12 3.59202E-12
 -1     21488 9.82448E-01 1.28413E+00-6.37780E-10-2.07614E-01-7.13856E-13-1.97822E-12
 -1     21489 9.54034E-01 1.31254E+00-6.76240E-10-1.79254E-01 1.18332E-11 2.88458E-11
 -1     21490 9.76968E-01 1.28961E+00 3.71988E-10-2.15157E-01 4.19929E-13 3.05751E-13
 -1     21495 9.82448E-01 1.28413E+00-7.23111E-10-2.07614E-01 1.03328E-11 1.97837E-11
 -1     21499 1.05399E+00 1.21259E+00-7.25386E-10-2.44065E-01-1.30136E-11-1.78608E-11
 -1     21500 1.01820E+00 1.24838E+00-6.75652E-10-2.25873E-01-1.67424E-11-2.76048E-11
 -1     21501 1.05111E+00 1.21547E+00 3.72017E-10-2.52932E-01 2.02403E-13 1.28864E-13
 -1     21506 1.05399E+00 1.21259E+00-6.33485E-10-2.44065E-01 4.65347E-13 1.00685E-12
 -1     21507 1.01820E+00 1.24838E+00-6.56344E-10-2.25873E-01 1.10521E-11 1.74852E-11
 -1     21508 1.05111E+00 1.21547E+00 3.73925E-10-2.52932E-01-3.14737E-12-4.19427E-12
 -1     21513 1.05399E+00 1.21259E+00-6.96625E-10-2.44065E-01 3.77919E-12 5.70173E-12
 -1     21514 1.01820E+00 1.24838E+00-6.71133E-10-2.25873E-01-7.40108E-12-1.23500E-11
 -1     21515 1.05111E+00 1.21547E+00 3.71506E-10-2.52932E-01 3.92027E-12 5.68100E-12
 -1     21520 1.05399E+00 1.21259E+00-6.58696E-10-2.44065E-01-1.93864E-12-1.92850E-12
 -1     21521 1.01820E+00 1.24838E+00-6.75672E-10-2.25873E-01 5.55636E-12 8.90374E-12
 -1     21522 1.05111E+00 1.21547E+00 3.69307E-10-2.52932E-01-6.95222E-13-6.91578E-13
 -1     21527 1.05399E+00 1.21259E+00-6.76533E-10-2.44065E-01 2.25376E-12 3.47177E-12
 -1     21528 1.01820E+00 1.24838E+00-6.76837E-10-2.25873E-01-1.34619E-12-2.23407E-12
 -1     21529 1.05111E+00 1.21547E+00 3.69667E-10-2.52932E-01 1.06173E-12 1.58812E-12
 -1     21534 1.05399E+00 1.21259E+00-6.69943E-10-2.44065E-01-1.98397E-14-2.86547E-14
 -1     21535 1.01820E+00 1.24838E+00-6.76841E-10-2.25873E-01 1.40349E-12 2.15835E-12
 -1     21536 1.05111E+00 1.21547E+00 3.69642E-10-2.52932E-01-1.04450E-12-1.63780E-12
 -1     21541 1.05399E+00 1.21259E+00-6.76623E-10-2.44065E-01-2.27373E-12-3.54957E-12
 -1     21542 1.01820E+00 1.24838E+00-6.75688E-10-2.25873E-01-5.58034E-12-8.84114E-12
 -1     21543 1.05111E+00 1.21547E+00 3.69278E-10-2.52932E-01 6.43725E-13 7.45494E-13
 -1     21548 1.05399E+00 1.21259E+00-6.58669E-10-2.44065E-01 1.84511E-12 2.06459E-12
 -1     21549 1.01820E+00 1.24838E+00-6.71096E-10-2.25873E-01 7.34793E-12 1.23258E-11
 -1     21550 1.05111E+00 1.21547E+00 3.71565E-10-2.52932E-01-3.99996E-12-5.58893E-12
 -1     21555 1.05399E+00 1.21259E+00-6.96518E-10-2.44065E-01-3.91152E-12-5.61690E-12
 -1     21556 1.01820E+00 1.24838E+00-6.56368E-10-2.25873E-01-1.10570E-11-1.75096E-11
 -1     21557 1.05111E+00 1.21547E+00 3.73971E-10-2.52932E-01 3.13626E-12 4.23455E-12
 -1     21562 1.05399E+00 1.21259E+00-6.33541E-10-2.44065E-01-5.82301E-13-1.00279E-12
 -1     21563 1.01820E+00 1.24838E+00-6.75672E-10-2.25873E-01 1.67361E-11 2.75920E-11
 -1     21564 1.05111E+00 1.21547E+00 3.72044E-10-2.52932E-01-1.57391E-13-1.58873E-13
 -1     21569 1.05399E+00 1.21259E+00-7.25336E-10-2.44065E-01 1.30713E-11 1.78004E-11
 -1     21573 1.13329E+00 1.13329E+00-7.28707E-10-2.56625E-01-1.49925E-11-1.57040E-11
 -1     21574 1.09363E+00 1.17294E+00-6.78044E-10-2.50382E-01-2.42324E-11-2.78911E-11
 -1     21575 1.13329E+00 1.13329E+00 3.70727E-10-2.65948E-01 1.19581E-12 6.30513E-13
 -1     21580 1.13329E+00 1.13329E+00-6.28898E-10-2.56625E-01 9.79889E-13-1.27695E-13
 -1     21581 1.09363E+00 1.17294E+00-6.57390E-10-2.50382E-01 1.39827E-11 1.66368E-11
 -1     21582 1.13329E+00 1.13329E+00 3.72262E-10-2.65948E-01-4.03834E-12-4.95140E-12
 -1     21587 1.13329E+00 1.13329E+00-6.98511E-10-2.56625E-01 6.32100E-12 4.87238E-12
 -1     21588 1.09363E+00 1.17294E+00-6.71808E-10-2.50382E-01-1.12211E-11-1.29169E-11
 -1     21589 1.13329E+00 1.13329E+00 3.69682E-10-2.65948E-01 5.65277E-12 4.80574E-12
 -1     21594 1.13329E+00 1.13329E+00-6.58026E-10-2.56625E-01-1.75533E-12-2.87993E-12
 -1     21595 1.09363E+00 1.17294E+00-6.75789E-10-2.50382E-01 6.09092E-12 7.37609E-12
 -1     21596 1.13329E+00 1.13329E+00 3.67013E-10-2.65948E-01-5.12601E-13-1.00212E-12
 -1     21601 1.13329E+00 1.13329E+00-6.76600E-10-2.56625E-01 3.60131E-12 3.17824E-12
 -1     21602 1.09363E+00 1.17294E+00-6.76671E-10-2.50382E-01-1.68385E-12-1.93404E-12
 -1     21603 1.13329E+00 1.13329E+00 3.67305E-10-2.65948E-01 1.41126E-12 1.22732E-12
 -1     21608 1.13329E+00 1.13329E+00-6.71164E-10-2.56625E-01-2.54821E-14 3.92544E-14
 -1     21609 1.09363E+00 1.17294E+00-6.76671E-10-2.50382E-01 1.68586E-12 1.95214E-12
 -1     21610 1.13329E+00 1.13329E+00 3.67241E-10-2.65948E-01-1.39899E-12-1.15118E-12
 -1     21615 1.13329E+00 1.13329E+00-6.76651E-10-2.56625E-01-3.54329E-12-3.01981E-12
 -1     21616 1.09363E+00 1.17294E+00-6.75813E-10-2.50382E-01-6.10382E-12-7.28141E-12
 -1     21617 1.13329E+00 1.13329E+00 3.67011E-10-2.65948E-01 6.22699E-13 1.09623E-12
 -1     21622 1.13329E+00 1.13329E+00-6.58054E-10-2.56625E-01 1.87905E-12 2.84540E-12
 -1     21623 1.09363E+00 1.17294E+00-6.71743E-10-2.50382E-01 1.11887E-11 1.29442E-11
 -1     21624 1.13329E+00 1.13329E+00 3.69619E-10-2.65948E-01-5.52903E-12-4.75649E-12
 -1     21629 1.13329E+00 1.13329E+00-6.98565E-10-2.56625E-01-6.16522E-12-4.87636E-12
 -1     21630 1.09363E+00 1.17294E+00-6.57423E-10-2.50382E-01-1.40063E-11-1.66354E-11
 -1     21631 1.13329E+00 1.13329E+00 3.72217E-10-2.65948E-01 3.98731E-12 4.90461E-12
 -1     21636 1.13329E+00 1.13329E+00-6.28883E-10-2.56625E-01-1.12548E-12 2.19072E-13
 -1     21637 1.09363E+00 1.17294E+00-6.78036E-10-2.50382E-01 2.41905E-11 2.79112E-11
 -1     21638 1.13329E+00 1.13329E+00 3.70719E-10-2.65948E-01-1.26608E-12-6.33790E-13
 -1     21643 1.13329E+00 1.13329E+00-7.28671E-10-2.56625E-01 1.49976E-11 1.57727E-11
 -1     21647 1.21259E+00 1.05399E+00-7.13843E-10-2.44065E-01-1.84891E-11-1.33763E-11
 -1     21648 1.17294E+00 1.09363E+00-6.76095E-10-2.50382E-01-2.25071E-11-1.89347E-11
 -1     21649 1.21547E+00 1.05111E+00 3.71465E-10-2.52932E-01-2.59288E-12-1.73969E-12
 -1     21654 1.21259E+00 1.05399E+00-6.48711E-10-2.44065E-01 4.01674E-12 2.80297E-12
 -1     21655 1.17294E+00 1.09363E+00-6.57992E-10-2.50382E-01 1.48057E-11 1.33281E-11
 -1     21656 1.21547E+00 1.05111E+00 3.71682E-10-2.52932E-01-1.07714E-12-7.56286E-13
 -1     21661 1.21259E+00 1.05399E+00-6.97977E-10-2.44065E-01 6.10462E-12 4.23788E-12
 -1     21662 1.17294E+00 1.09363E+00-6.73385E-10-2.50382E-01-9.30060E-12-7.81483E-12
 -1     21663 1.21547E+00 1.05111E+00 3.66209E-10-2.52932E-01 6.01438E-12 4.28910E-12
 -1     21668 1.21259E+00 1.05399E+00-6.72353E-10-2.44065E-01 2.15670E-12 1.29203E-12
 -1     21669 1.17294E+00 1.09363E+00-6.78664E-10-2.50382E-01 8.61511E-12 7.42731E-12
 -1     21670 1.21547E+00 1.05111E+00 3.62204E-10-2.52932E-01 7.00193E-13 3.56574E-13
 -1     21675 1.21259E+00 1.05399E+00-6.91836E-10-2.44065E-01 4.15412E-12 2.72085E-12
 -1     21676 1.17294E+00 1.09363E+00-6.80247E-10-2.50382E-01-1.93648E-12-1.59824E-12
 -1     21677 1.21547E+00 1.05111E+00 3.61090E-10-2.52932E-01 2.41078E-12 1.62922E-12
 -1     21682 1.21259E+00 1.05399E+00-6.82882E-10-2.44065E-01 8.97838E-14-9.23370E-14
 -1     21683 1.17294E+00 1.09363E+00-6.80238E-10-2.50382E-01 2.01802E-12 1.59974E-12
 -1     21684 1.21547E+00 1.05111E+00 3.61095E-10-2.52932E-01-2.25304E-12-1.67946E-12
 -1     21689 1.21259E+00 1.05399E+00-6.91763E-10-2.44065E-01-4.04519E-12-2.78279E-12
 -1     21690 1.17294E+00 1.09363E+00-6.78644E-10-2.50382E-01-8.58527E-12-7.49268E-12
 -1     21691 1.21547E+00 1.05111E+00 3.62223E-10-2.52932E-01-7.57313E-13-4.06148E-13
 -1     21696 1.21259E+00 1.05399E+00-6.72232E-10-2.44065E-01-2.24285E-12-1.23721E-12
 -1     21697 1.17294E+00 1.09363E+00-6.73341E-10-2.50382E-01 9.42676E-12 7.84614E-12
 -1     21698 1.21547E+00 1.05111E+00 3.66206E-10-2.52932E-01-5.97089E-12-4.26174E-12
 -1     21703 1.21259E+00 1.05399E+00-6.97913E-10-2.44065E-01-6.09981E-12-4.22228E-12
 -1     21704 1.17294E+00 1.09363E+00-6.57995E-10-2.50382E-01-1.47792E-11-1.33980E-11
 -1     21705 1.21547E+00 1.05111E+00 3.71755E-10-2.52932E-01 1.09267E-12 7.45898E-13
 -1     21710 1.21259E+00 1.05399E+00-6.48646E-10-2.44065E-01-3.95345E-12-2.91602E-12
 -1     21711 1.17294E+00 1.09363E+00-6.76027E-10-2.50382E-01 2.24604E-11 1.89269E-11
 -1     21712 1.21547E+00 1.05111E+00 3.71451E-10-2.52932E-01 2.67059E-12 1.72634E-12
 -1     21717 1.21259E+00 1.05399E+00-7.13849E-10-2.44065E-01 1.86201E-11 1.33742E-11
 -1     21721 1.28413E+00 9.82448E-01-7.23395E-10-2.07614E-01-2.04159E-11-9.44453E-12
 -1     21722 1.24838E+00 1.01820E+00-6.73703E-10-2.25873E-01-2.09643E-11-1.32790E-11
 -1     21723 1.28961E+00 9.76968E-01 3.72413E-10-2.15157E-01-7.46788E-13 5.12789E-13
 -1     21728 1.28413E+00 9.82448E-01-6.37679E-10-2.07614E-01 1.11402E-12 2.41091E-12
 -1     21729 1.24838E+00 1.01820E+00-6.57003E-10-2.25873E-01 1.64564E-11 9.39651E-12
 -1     21730 1.28961E+00 9.76968E-01 3.73791E-10-2.15157E-01-4.25036E-12-9.17109E-13
 -1     21735 1.28413E+00 9.82448E-01-6.97889E-10-2.07614E-01 5.79810E-12 4.65513E-12
 -1     21736 1.24838E+00 1.01820E+00-6.72832E-10-2.25873E-01-7.99089E-12-5.12885E-12
 -1     21737 1.28961E+00 9.76968E-01 3.70426E-10-2.15157E-01 6.09772E-12 4.11241E-12
 -1     21742 1.28413E+00 9.82448E-01-6.63126E-10-2.07614E-01-1.57586E-12 5.95634E-13
 -1     21743 1.24838E+00 1.01820E+00-6.78651E-10-2.25873E-01 1.05804E-11 6.32373E-12
 -1     21744 1.28961E+00 9.76968E-01 3.67604E-10-2.15157E-01-5.91510E-13 3.84787E-13
 -1     21749 1.28413E+00 9.82448E-01-6.81708E-10-2.07614E-01 3.73222E-12 2.64840E-12
 -1     21750 1.24838E+00 1.01820E+00-6.80571E-10-2.25873E-01-2.18572E-12-1.35442E-12
 -1     21751 1.28961E+00 9.76968E-01 3.67390E-10-2.15157E-01 1.91565E-12 1.25524E-12
 -1     21756 1.28413E+00 9.82448E-01-6.74701E-10-2.07614E-01 6.31348E-14 3.28031E-14
 -1     21757 1.24838E+00 1.01820E+00-6.80534E-10-2.25873E-01 2.27346E-12 1.38916E-12
 -1     21758 1.28961E+00 9.76968E-01 3.67369E-10-2.15157E-01-1.87473E-12-1.18613E-12
 -1     21763 1.28413E+00 9.82448E-01-6.81718E-10-2.07614E-01-3.82706E-12-2.61164E-12
 -1     21764 1.24838E+00 1.01820E+00-6.78650E-10-2.25873E-01-1.06130E-11-6.31964E-12
 -1     21765 1.28961E+00 9.76968E-01 3.67532E-10-2.15157E-01 5.64453E-13-3.86374E-13
 -1     21770 1.28413E+00 9.82448E-01-6.63200E-10-2.07614E-01 1.75814E-12-5.67114E-13
 -1     21771 1.24838E+00 1.01820E+00-6.72849E-10-2.25873E-01 7.96209E-12 5.21057E-12
 -1     21772 1.28961E+00 9.76968E-01 3.70352E-10-2.15157E-01-6.05388E-12-4.15840E-12
 -1     21777 1.28413E+00 9.82448E-01-6.97837E-10-2.07614E-01-5.81947E-12-4.65243E-12
 -1     21778 1.24838E+00 1.01820E+00-6.56993E-10-2.25873E-01-1.64092E-11-9.36630E-12
 -1     21779 1.28961E+00 9.76968E-01 3.73709E-10-2.15157E-01 4.23873E-12 9.03583E-13
 -1     21784 1.28413E+00 9.82448E-01-6.37641E-10-2.07614E-01-1.11397E-12-2.35003E-12
 -1     21785 1.24838E+00 1.01820E+00-6.73676E-10-2.25873E-01 2.09890E-11 1.32833E-11
 -1     21786 1.28961E+00 9.76968E-01 3.72412E-10-2.15157E-01 7.51661E-13-5.06008E-13
 -1     21791 1.28413E+00 9.82448E-01-7.23321E-10-2.07614E-01 2.02628E-11 9.48026E-12
 -1     21795 1.34090E+00 9.25674E-01-7.33441E-10-1.50840E-01-2.02601E-11-6.72825E-12
 -1     21796 1.31254E+00 9.54034E-01-6.77997E-10-1.79254E-01-3.52730E-11-1.50715E-11
 -1     21797 1.34844E+00 9.18131E-01 3.71748E-10-1.56320E-01 2.73950E-12 7.06437E-13
 -1     21802 1.34090E+00 9.25674E-01-6.21271E-10-1.50840E-01-1.10455E-12-4.87500E-13
 -1     21803 1.31254E+00 9.54034E-01-6.56924E-10-1.79254E-01 2.07486E-11 7.76412E-12
 -1     21804 1.34844E+00 9.18131E-01 3.74785E-10-1.56320E-01-7.64599E-12-2.54573E-12
 -1     21809 1.34090E+00 9.25674E-01-6.95395E-10-1.50840E-01 6.73161E-12 2.26975E-12
 -1     21810 1.31254E+00 9.54034E-01-6.71158E-10-1.79254E-01-1.65779E-11-7.32629E-12
 -1     21811 1.34844E+00 9.18131E-01 3.74491E-10-1.56320E-01 6.42037E-12 2.15292E-12
 -1     21816 1.34090E+00 9.25674E-01-6.48405E-10-1.50840E-01-5.95717E-12-1.83859E-12
 -1     21817 1.31254E+00 9.54034E-01-6.74926E-10-1.79254E-01 8.50354E-12 3.28703E-12
 -1     21818 1.34844E+00 9.18131E-01 3.73419E-10-1.56320E-01-2.13214E-12-6.47520E-13
 -1     21823 1.34090E+00 9.25674E-01-6.65449E-10-1.50840E-01 3.56516E-12 1.26193E-12
 -1     21824 1.31254E+00 9.54034E-01-6.75632E-10-1.79254E-01-2.32941E-12-1.06802E-12
 -1     21825 1.34844E+00 9.18131E-01 3.74697E-10-1.56320E-01 1.19293E-12 3.68473E-13
 -1     21830 1.34090E+00 9.25674E-01-6.60738E-10-1.50840E-01-3.74853E-14-2.30006E-14
 -1     21831 1.31254E+00 9.54034E-01-6.75627E-10-1.79254E-01 2.34531E-12 1.04802E-12
 -1     21832 1.34844E+00 9.18131E-01 3.74732E-10-1.56320E-01-1.18832E-12-4.60682E-13
 -1     21837 1.34090E+00 9.25674E-01-6.65421E-10-1.50840E-01-3.76484E-12-1.34320E-12
 -1     21838 1.31254E+00 9.54034E-01-6.74922E-10-1.79254E-01-8.54047E-12-3.27458E-12
 -1     21839 1.34844E+00 9.18131E-01 3.73424E-10-1.56320E-01 2.02067E-12 6.16843E-13
 -1     21844 1.34090E+00 9.25674E-01-6.48414E-10-1.50840E-01 5.88883E-12 1.77678E-12
 -1     21845 1.31254E+00 9.54034E-01-6.71146E-10-1.79254E-01 1.65477E-11 7.25950E-12
 -1     21846 1.34844E+00 9.18131E-01 3.74589E-10-1.56320E-01-6.52908E-12-2.18457E-12
 -1     21851 1.34090E+00 9.25674E-01-6.95363E-10-1.50840E-01-6.67333E-12-2.35975E-12
 -1     21852 1.31254E+00 9.54034E-01-6.56870E-10-1.79254E-01-2.06894E-11-7.76761E-12
 -1     21853 1.34844E+00 9.18131E-01 3.74889E-10-1.56320E-01 7.70404E-12 2.52756E-12
 -1     21858 1.34090E+00 9.25674E-01-6.21211E-10-1.50840E-01 1.12928E-12 4.36919E-13
 -1     21859 1.31254E+00 9.54034E-01-6.77963E-10-1.79254E-01 3.52664E-11 1.50550E-11
 -1     21860 1.34844E+00 9.18131E-01 3.71832E-10-1.56320E-01-2.77297E-12-7.38204E-13
 -1     21865 1.34090E+00 9.25674E-01-7.33435E-10-1.50840E-01 2.02305E-11 6.72794E-12
 -1     21869 1.37735E+00 8.89223E-01-7.23457E-10-7.93014E-02-2.15093E-11-4.64841E-12
 -1     21870 1.35916E+00 9.07415E-01-6.79128E-10-1.15088E-01-3.83882E-11-8.45995E-12
 -1     21871 1.38622E+00 8.80356E-01 3.70818E-10-8.21825E-02 6.51421E-15-1.13383E-12
 -1     21876 1.37735E+00 8.89223E-01-6.36177E-10-7.93014E-02 2.91117E-12-1.85710E-12
 -1     21877 1.35916E+00 9.07415E-01-6.58062E-10-1.15088E-01 2.15358E-11 6.05458E-12
 -1     21878 1.38622E+00 8.80356E-01 3.71711E-10-8.21825E-02-3.89949E-12-2.17709E-12
 -1     21883 1.37735E+00 8.89223E-01-6.98985E-10-7.93014E-02 8.73067E-12-7.32466E-13
 -1     21884 1.35916E+00 9.07415E-01-6.72495E-10-1.15088E-01-1.80095E-11-3.92547E-12
 -1     21885 1.38622E+00 8.80356E-01 3.67854E-10-8.21825E-02 7.94493E-12 3.23494E-14
 -1     21890 1.37735E+00 8.89223E-01-6.64199E-10-7.93014E-02-1.39726E-13-1.72734E-12
 -1     21891 1.35916E+00 9.07415E-01-6.76496E-10-1.15088E-01 8.82386E-12 2.29190E-12
 -1     21892 1.38622E+00 8.80356E-01 3.64516E-10-8.21825E-02 1.11244E-13-7.89155E-13
 -1     21897 1.37735E+00 8.89223E-01-6.83396E-10-7.93014E-02 5.39072E-12-2.29665E-14
 -1     21898 1.35916E+00 9.07415E-01-6.77301E-10-1.15088E-01-2.44232E-12-5.23635E-13
 -1     21899 1.38622E+00 8.80356E-01 3.64186E-10-8.21825E-02 2.41180E-12 9.12790E-14
 -1     21904 1.37735E+00 8.89223E-01-6.76792E-10-7.93014E-02 2.28218E-14 1.47841E-14
 -1     21905 1.35916E+00 9.07415E-01-6.77318E-10-1.15088E-01 2.48335E-12 4.81065E-13
 -1     21906 1.38622E+00 8.80356E-01 3.64193E-10-8.21825E-02-2.25680E-12-6.65466E-14
 -1     21911 1.37735E+00 8.89223E-01-6.83336E-10-7.93014E-02-5.22918E-12 4.89054E-14
 -1     21912 1.35916E+00 9.07415E-01-6.76481E-10-1.15088E-01-8.88746E-12-2.29925E-12
 -1     21913 1.38622E+00 8.80356E-01 3.64546E-10-8.21825E-02-5.31558E-14 8.06995E-13
 -1     21918 1.37735E+00 8.89223E-01-6.64175E-10-7.93014E-02 2.80914E-13 1.74147E-12
 -1     21919 1.35916E+00 9.07415E-01-6.72493E-10-1.15088E-01 1.79761E-11 3.90367E-12
 -1     21920 1.38622E+00 8.80356E-01 3.67875E-10-8.21825E-02-7.89811E-12-3.16452E-14
 -1     21925 1.37735E+00 8.89223E-01-6.98987E-10-7.93014E-02-8.79201E-12 7.53761E-13
 -1     21926 1.35916E+00 9.07415E-01-6.58084E-10-1.15088E-01-2.15089E-11-6.06291E-12
 -1     21927 1.38622E+00 8.80356E-01 3.71678E-10-8.21825E-02 3.90525E-12 2.15096E-12
 -1     21932 1.37735E+00 8.89223E-01-6.36202E-10-7.93014E-02-2.97886E-12 1.83234E-12
 -1     21933 1.35916E+00 9.07415E-01-6.79157E-10-1.15088E-01 3.83523E-11 8.47870E-12
 -1     21934 1.38622E+00 8.80356E-01 3.70794E-10-8.21825E-02-6.49829E-14 1.12992E-12
 -1     21939 1.37735E+00 8.89223E-01-7.23457E-10-7.93014E-02 2.15569E-11 4.64942E-12
 -1     21943 1.38367E+00 8.82906E-01-6.72886E-10-3.96567E-02-1.88863E-11-9.19935E-13
 -1     21947 1.38367E+00 8.82906E-01-6.58723E-10-3.96567E-02 1.73440E-11 2.34760E-12
 -1     21951 1.38367E+00 8.82906E-01-6.75938E-10-3.96567E-02-5.20589E-12-7.01058E-14
 -1     21955 1.38367E+00 8.82906E-01-6.83386E-10-3.96567E-02 1.41000E-11 1.25300E-12
 -1     21959 1.38367E+00 8.82906E-01-6.86177E-10-3.96567E-02-2.38425E-12-8.98825E-14
 -1     21963 1.38367E+00 8.82906E-01-6.86206E-10-3.96567E-02 2.47572E-12 9.40291E-14
 -1     21967 1.38367E+00 8.82906E-01-6.83333E-10-3.96567E-02-1.41494E-11-1.26261E-12
 -1     21971 1.38367E+00 8.82906E-01-6.75916E-10-3.96567E-02 5.25698E-12 7.42223E-14
 -1     21975 1.38367E+00 8.82906E-01-6.58711E-10-3.96567E-02-1.73213E-11-2.35525E-12
 -1     21979 1.38367E+00 8.82906E-01-6.72891E-10-3.96567E-02 1.88797E-11 9.31751E-13
 -1     21985 9.05214E-01 1.36136E+00-7.07388E-10-7.41056E-02 8.33035E-13 5.07839E-12
 -1     21986 8.99310E-01 1.36727E+00-6.47591E-10-3.70584E-02 2.08056E-13 2.93381E-12
 -1     21987 8.97218E-01 1.36936E+00 3.20126E-10-7.67037E-02 5.63724E-12 3.50912E-11
 -1     21992 9.05214E-01 1.36136E+00-5.61610E-10-7.41056E-02 2.93078E-12 1.81936E-11
 -1     21993 8.99310E-01 1.36727E+00-6.82030E-10-3.70584E-02 7.00043E-12 8.92009E-11
 -1     21994 8.97218E-01 1.36936E+00 2.88343E-10-7.67037E-02 8.12816E-14-2.42583E-13
 -1     21999 9.05214E-01 1.36136E+00-6.84981E-10-7.41056E-02 4.87062E-12 3.01461E-11
 -1     22000 8.99310E-01 1.36727E+00-6.49348E-10-3.70584E-02-8.60050E-13-1.08180E-11
 -1     22001 8.97218E-01 1.36936E+00 3.02085E-10-7.67037E-02 3.13287E-12 1.90821E-11
 -1     22006 9.05214E-01 1.36136E+00-6.20794E-10-7.41056E-02 4.17735E-13 2.19759E-12
 -1     22007 8.99310E-01 1.36727E+00-6.37242E-10-3.70584E-02 1.80309E-12 2.29248E-11
 -1     22008 8.97218E-01 1.36936E+00 3.01730E-10-7.67037E-02 2.74438E-13 1.45715E-12
 -1     22013 9.05214E-01 1.36136E+00-6.48134E-10-7.41056E-02 1.96815E-12 1.21845E-11
 -1     22014 8.99310E-01 1.36727E+00-6.34677E-10-3.70584E-02-6.85907E-15-1.11083E-13
 -1     22015 8.97218E-01 1.36936E+00 3.02259E-10-7.67037E-02 5.56584E-13 3.52631E-12
 -1     22020 9.05214E-01 1.36136E+00-6.42097E-10-7.41056E-02-2.70982E-14 6.01796E-14
 -1     22021 8.99310E-01 1.36727E+00-6.34593E-10-3.70584E-02 2.96689E-14 8.16961E-14
 -1     22022 8.97218E-01 1.36936E+00 3.02208E-10-7.67037E-02-5.56589E-13-3.51742E-12
 -1     22027 9.05214E-01 1.36136E+00-6.48211E-10-7.41056E-02-1.93994E-12-1.21410E-11
 -1     22028 8.99310E-01 1.36727E+00-6.37313E-10-3.70584E-02-1.78862E-12-2.29238E-11
 -1     22029 8.97218E-01 1.36936E+00 3.01723E-10-7.67037E-02-2.66100E-13-1.37669E-12
 -1     22034 9.05214E-01 1.36136E+00-6.20814E-10-7.41056E-02-3.96766E-13-2.31251E-12
 -1     22035 8.99310E-01 1.36727E+00-6.49353E-10-3.70584E-02 8.70418E-13 1.07763E-11
 -1     22036 8.97218E-01 1.36936E+00 3.02112E-10-7.67037E-02-3.11454E-12-1.91517E-11
 -1     22041 9.05214E-01 1.36136E+00-6.85017E-10-7.41056E-02-4.86654E-12-3.01834E-11
 -1     22042 8.99310E-01 1.36727E+00-6.82051E-10-3.70584E-02-6.98683E-12-8.91620E-11
 -1     22043 8.97218E-01 1.36936E+00 2.88269E-10-7.67037E-02-5.43731E-14 3.69857E-13
 -1     22048 9.05214E-01 1.36136E+00-5.61654E-10-7.41056E-02-2.94027E-12-1.79583E-11
 -1     22049 8.99310E-01 1.36727E+00-6.47583E-10-3.70584E-02-2.20057E-13-2.88986E-12
 -1     22050 8.97218E-01 1.36936E+00 3.20159E-10-7.67037E-02-5.64050E-12-3.50394E-11
 -1     22055 9.05214E-01 1.36136E+00-7.07383E-10-7.41056E-02-8.39070E-13-5.03970E-12
 -1     22059 9.39277E-01 1.32730E+00-7.08349E-10-1.40957E-01 1.58869E-12 4.85402E-12
 -1     22060 9.22214E-01 1.34436E+00-6.47913E-10-1.07548E-01 5.86897E-13 2.61929E-12
 -1     22061 9.32475E-01 1.33410E+00 3.20089E-10-1.45899E-01 1.09984E-11 3.38761E-11
 -1     22066 9.39277E-01 1.32730E+00-5.61807E-10-1.40957E-01 5.74353E-12 1.72202E-11
 -1     22067 9.22214E-01 1.34436E+00-6.82306E-10-1.07548E-01 2.08118E-11 8.69695E-11
 -1     22068 9.32475E-01 1.33410E+00 2.88085E-10-1.45899E-01-8.20575E-14-4.96822E-13
 -1     22073 9.39277E-01 1.32730E+00-6.85990E-10-1.40957E-01 9.69960E-12 2.92581E-11
 -1     22074 9.22214E-01 1.34436E+00-6.49546E-10-1.07548E-01-2.63255E-12-1.07125E-11
 -1     22075 9.32475E-01 1.33410E+00 3.01838E-10-1.45899E-01 6.08572E-12 1.84871E-11
 -1     22080 9.39277E-01 1.32730E+00-6.21672E-10-1.40957E-01 8.44178E-13 2.08201E-12
 -1     22081 9.22214E-01 1.34436E+00-6.37382E-10-1.07548E-01 5.28861E-12 2.23173E-11
 -1     22082 9.32475E-01 1.33410E+00 3.01298E-10-1.45899E-01 5.69528E-13 1.30047E-12
 -1     22087 9.39277E-01 1.32730E+00-6.49115E-10-1.40957E-01 3.93612E-12 1.17356E-11
 -1     22088 9.22214E-01 1.34436E+00-6.34783E-10-1.07548E-01-4.22764E-14-1.01226E-13
 -1     22089 9.32475E-01 1.33410E+00 3.01780E-10-1.45899E-01 1.14801E-12 3.22752E-12
 -1     22094 9.39277E-01 1.32730E+00-6.43256E-10-1.40957E-01 4.28349E-14-1.34684E-14
 -1     22095 9.22214E-01 1.34436E+00-6.34724E-10-1.07548E-01 6.10481E-14 6.59336E-14
 -1     22096 9.32475E-01 1.33410E+00 3.01710E-10-1.45899E-01-1.10521E-12-3.27799E-12
 -1     22101 9.39277E-01 1.32730E+00-6.49086E-10-1.40957E-01-3.93433E-12-1.17368E-11
 -1     22102 9.22214E-01 1.34436E+00-6.37439E-10-1.07548E-01-5.28506E-12-2.22708E-11
 -1     22103 9.32475E-01 1.33410E+00 3.01326E-10-1.45899E-01-5.38282E-13-1.35565E-12
 -1     22108 9.39277E-01 1.32730E+00-6.21730E-10-1.40957E-01-8.37441E-13-2.09381E-12
 -1     22109 9.22214E-01 1.34436E+00-6.49579E-10-1.07548E-01 2.67001E-12 1.06696E-11
 -1     22110 9.32475E-01 1.33410E+00 3.01780E-10-1.45899E-01-6.08419E-12-1.85296E-11
 -1     22115 9.39277E-01 1.32730E+00-6.86049E-10-1.40957E-01-9.62814E-12-2.93059E-11
 -1     22116 9.22214E-01 1.34436E+00-6.82327E-10-1.07548E-01-2.07826E-11-8.69765E-11
 -1     22117 9.32475E-01 1.33410E+00 2.88045E-10-1.45899E-01 8.26307E-14 3.67405E-13
 -1     22122 9.39277E-01 1.32730E+00-5.61843E-10-1.40957E-01-5.71564E-12-1.73373E-11
 -1     22123 9.22214E-01 1.34436E+00-6.47928E-10-1.07548E-01-5.66819E-13-2.56924E-12
 -1     22124 9.32475E-01 1.33410E+00 3.20105E-10-1.45899E-01-1.09690E-11-3.38766E-11
 -1     22129 9.39277E-01 1.32730E+00-7.08344E-10-1.40957E-01-1.54207E-12-4.90836E-12
 -1     22133 9.92331E-01 1.27425E+00-7.06405E-10-1.94011E-01 1.89572E-12 4.35565E-12
 -1     22134 9.65779E-01 1.30080E+00-6.47081E-10-1.67509E-01 1.39028E-12 3.16774E-12
 -1     22135 9.87389E-01 1.27919E+00 3.20749E-10-2.00813E-01 1.56748E-11 3.13914E-11
 -1     22140 9.92331E-01 1.27425E+00-5.62647E-10-1.94011E-01 7.68008E-12 1.60425E-11
 -1     22141 9.65779E-01 1.30080E+00-6.81399E-10-1.67509E-01 3.41205E-11 8.23303E-11
 -1     22142 9.87389E-01 1.27919E+00 2.89245E-10-2.00813E-01-4.55406E-13-1.62360E-13
 -1     22147 9.92331E-01 1.27425E+00-6.84019E-10-1.94011E-01 1.29703E-11 2.65684E-11
 -1     22148 9.65779E-01 1.30080E+00-6.48550E-10-1.67509E-01-4.15499E-12-9.84978E-12
 -1     22149 9.87389E-01 1.27919E+00 3.03265E-10-2.00813E-01 8.29946E-12 1.69592E-11
 -1     22154 9.92331E-01 1.27425E+00-6.20175E-10-1.94011E-01 4.12048E-13 1.73048E-12
 -1     22155 9.65779E-01 1.30080E+00-6.36311E-10-1.67509E-01 8.73238E-12 2.12272E-11
 -1     22156 9.87389E-01 1.27919E+00 3.03070E-10-2.00813E-01 3.20522E-13 1.07707E-12
 -1     22161 9.92331E-01 1.27425E+00-6.47297E-10-1.94011E-01 5.17007E-12 1.06650E-11
 -1     22162 9.65779E-01 1.30080E+00-6.33603E-10-1.67509E-01-1.26921E-13-1.62179E-13
 -1     22163 9.87389E-01 1.27919E+00 3.03748E-10-2.00813E-01 1.49502E-12 3.10943E-12
 -1     22168 9.92331E-01 1.27425E+00-6.40652E-10-1.94011E-01-5.07071E-14-3.08085E-14
 -1     22169 9.65779E-01 1.30080E+00-6.33553E-10-1.67509E-01 1.05566E-13 1.41702E-13
 -1     22170 9.87389E-01 1.27919E+00 3.03717E-10-2.00813E-01-1.45859E-12-3.13393E-12
 -1     22175 9.92331E-01 1.27425E+00-6.47285E-10-1.94011E-01-5.14819E-12-1.06619E-11
 -1     22176 9.65779E-01 1.30080E+00-6.36332E-10-1.67509E-01-8.72209E-12-2.12641E-11
 -1     22177 9.87389E-01 1.27919E+00 3.03118E-10-2.00813E-01-3.15729E-13-1.09805E-12
 -1     22182 9.92331E-01 1.27425E+00-6.20193E-10-1.94011E-01-4.45122E-13-1.75784E-12
 -1     22183 9.65779E-01 1.30080E+00-6.48580E-10-1.67509E-01 4.17669E-12 9.88364E-12
 -1     22184 9.87389E-01 1.27919E+00 3.03220E-10-2.00813E-01-8.27692E-12-1.69462E-11
 -1     22189 9.92331E-01 1.27425E+00-6.84005E-10-1.94011E-01-1.30085E-11-2.64486E-11
 -1     22190 9.65779E-01 1.30080E+00-6.81414E-10-1.67509E-01-3.40637E-11-8.24255E-11
 -1     22191 9.87389E-01 1.27919E+00 2.89324E-10-2.00813E-01 5.10626E-13 1.81894E-13
 -1     22196 9.92331E-01 1.27425E+00-5.62572E-10-1.94011E-01-7.63246E-12-1.60248E-11
 -1     22197 9.65779E-01 1.30080E+00-6.47076E-10-1.67509E-01-1.35249E-12-3.06825E-12
 -1     22198 9.87389E-01 1.27919E+00 3.20750E-10-2.00813E-01-1.56629E-11-3.13416E-11
 -1     22203 9.92331E-01 1.27425E+00-7.06399E-10-1.94011E-01-1.95498E-12-4.28499E-12
 -1     22207 1.05918E+00 1.20739E+00-7.12046E-10-2.28074E-01 1.79083E-12 3.18307E-12
 -1     22208 1.02574E+00 1.24084E+00-6.47620E-10-2.11074E-01-4.34379E-13-3.62636E-13
 -1     22209 1.05658E+00 1.20999E+00 3.21856E-10-2.36070E-01 2.01005E-11 2.84246E-11
 -1     22214 1.05918E+00 1.20739E+00-5.54010E-10-2.28074E-01 6.24338E-12 1.06862E-11
 -1     22215 1.02574E+00 1.24084E+00-6.80609E-10-2.11074E-01 4.56468E-11 7.49995E-11
 -1     22216 1.05658E+00 1.20999E+00 2.91510E-10-2.36070E-01-3.76093E-12-3.71950E-12
 -1     22221 1.05918E+00 1.20739E+00-6.80359E-10-2.28074E-01 1.35338E-11 2.12653E-11
 -1     22222 1.02574E+00 1.24084E+00-6.46200E-10-2.11074E-01-8.04376E-12-1.21907E-11
 -1     22223 1.05658E+00 1.20999E+00 3.08229E-10-2.36070E-01 8.39674E-12 1.32494E-11
 -1     22228 1.05918E+00 1.20739E+00-6.09587E-10-2.28074E-01-3.94079E-12-2.99520E-12
 -1     22229 1.02574E+00 1.24084E+00-6.32557E-10-2.11074E-01 1.03248E-11 1.76493E-11
 -1     22230 1.05658E+00 1.20999E+00 3.09929E-10-2.36070E-01-1.65709E-12-9.86529E-13
 -1     22235 1.05918E+00 1.20739E+00-6.33928E-10-2.28074E-01 4.72053E-12 7.84404E-12
 -1     22236 1.02574E+00 1.24084E+00-6.28967E-10-2.11074E-01-4.81118E-13-5.20436E-13
 -1     22237 1.05658E+00 1.20999E+00 3.11824E-10-2.36070E-01 9.62287E-13 1.76316E-12
 -1     22242 1.05918E+00 1.20739E+00-6.28661E-10-2.28074E-01 2.01971E-14-6.33923E-14
 -1     22243 1.02574E+00 1.24084E+00-6.28945E-10-2.11074E-01 4.42460E-13 4.75621E-13
 -1     22244 1.05658E+00 1.20999E+00 3.11797E-10-2.36070E-01-9.66864E-13-1.92050E-12
 -1     22249 1.05918E+00 1.20739E+00-6.33940E-10-2.28074E-01-4.74751E-12-7.91419E-12
 -1     22250 1.02574E+00 1.24084E+00-6.32535E-10-2.11074E-01-1.03361E-11-1.76859E-11
 -1     22251 1.05658E+00 1.20999E+00 3.09927E-10-2.36070E-01 1.60105E-12 1.03646E-12
 -1     22256 1.05918E+00 1.20739E+00-6.09555E-10-2.28074E-01 3.89612E-12 2.95857E-12
 -1     22257 1.02574E+00 1.24084E+00-6.46200E-10-2.11074E-01 8.01320E-12 1.21925E-11
 -1     22258 1.05658E+00 1.20999E+00 3.08259E-10-2.36070E-01-8.51606E-12-1.32542E-11
 -1     22263 1.05918E+00 1.20739E+00-6.80359E-10-2.28074E-01-1.35256E-11-2.12709E-11
 -1     22264 1.02574E+00 1.24084E+00-6.80592E-10-2.11074E-01-4.56327E-11-7.49707E-11
 -1     22265 1.05658E+00 1.20999E+00 2.91481E-10-2.36070E-01 3.67340E-12 3.69641E-12
 -1     22270 1.05918E+00 1.20739E+00-5.54020E-10-2.28074E-01-6.31246E-12-1.06536E-11
 -1     22271 1.02574E+00 1.24084E+00-6.47608E-10-2.11074E-01 4.28685E-13 3.96408E-13
 -1     22272 1.05658E+00 1.20999E+00 3.21856E-10-2.36070E-01-2.01401E-11-2.84789E-11
 -1     22277 1.05918E+00 1.20739E+00-7.12070E-10-2.28074E-01-1.81873E-12-3.19560E-12
 -1     22281 1.13329E+00 1.13329E+00-7.22282E-10-2.39811E-01 3.84189E-12 2.30715E-12
 -1     22282 1.09623E+00 1.17035E+00-6.46884E-10-2.33978E-01-7.70339E-12-8.58429E-12
 -1     22283 1.13329E+00 1.13329E+00 3.21384E-10-2.48218E-01 2.74288E-11 2.57023E-11
 -1     22288 1.13329E+00 1.13329E+00-5.46995E-10-2.39811E-01 9.92440E-12 6.39226E-12
 -1     22289 1.09623E+00 1.17035E+00-6.78718E-10-2.33978E-01 5.71123E-11 6.70792E-11
 -1     22290 1.13329E+00 1.13329E+00 2.89099E-10-2.48218E-01-3.42752E-12-5.99198E-12
 -1     22295 1.13329E+00 1.13329E+00-6.87027E-10-2.39811E-01 2.20129E-11 1.81845E-11
 -1     22296 1.09623E+00 1.17035E+00-6.43133E-10-2.33978E-01-1.41345E-11-1.63754E-11
 -1     22297 1.13329E+00 1.13329E+00 3.05539E-10-2.48218E-01 1.34659E-11 1.08219E-11
 -1     22302 1.13329E+00 1.13329E+00-6.12100E-10-2.39811E-01-1.88454E-12-5.50726E-12
 -1     22303 1.09623E+00 1.17035E+00-6.28117E-10-2.33978E-01 1.09718E-11 1.27991E-11
 -1     22304 1.13329E+00 1.13329E+00 3.06149E-10-2.48218E-01 3.13511E-14-1.84743E-12
 -1     22309 1.13329E+00 1.13329E+00-6.37019E-10-2.39811E-01 8.60039E-12 6.54094E-12
 -1     22310 1.09623E+00 1.17035E+00-6.23796E-10-2.33978E-01-3.62497E-13-4.60099E-13
 -1     22311 1.13329E+00 1.13329E+00 3.07741E-10-2.48218E-01 1.68671E-12 1.04389E-12
 -1     22316 1.13329E+00 1.13329E+00-6.35344E-10-2.39811E-01 5.59985E-14 2.52735E-14
 -1     22317 1.09623E+00 1.17035E+00-6.23832E-10-2.33978E-01 3.84100E-13 5.00626E-13
 -1     22318 1.13329E+00 1.13329E+00 3.07739E-10-2.48218E-01-1.63402E-12-9.11343E-13
 -1     22323 1.13329E+00 1.13329E+00-6.37025E-10-2.39811E-01-8.54551E-12-6.49871E-12
 -1     22324 1.09623E+00 1.17035E+00-6.28099E-10-2.33978E-01-1.09774E-11-1.28166E-11
 -1     22325 1.13329E+00 1.13329E+00 3.06130E-10-2.48218E-01 4.47348E-14 1.81069E-12
 -1     22330 1.13329E+00 1.13329E+00-6.12123E-10-2.39811E-01 1.91712E-12 5.44302E-12
 -1     22331 1.09623E+00 1.17035E+00-6.43137E-10-2.33978E-01 1.41273E-11 1.63673E-11
 -1     22332 1.13329E+00 1.13329E+00 3.05506E-10-2.48218E-01-1.33104E-11-1.07719E-11
 -1     22337 1.13329E+00 1.13329E+00-6.87011E-10-2.39811E-01-2.19044E-11-1.80880E-11
 -1     22338 1.09623E+00 1.17035E+00-6.78698E-10-2.33978E-01-5.71131E-11-6.70547E-11
 -1     22339 1.13329E+00 1.13329E+00 2.89143E-10-2.48218E-01 3.49806E-12 6.07285E-12
 -1     22344 1.13329E+00 1.13329E+00-5.46984E-10-2.39811E-01-9.97189E-12-6.35859E-12
 -1     22345 1.09623E+00 1.17035E+00-6.46888E-10-2.33978E-01 7.69303E-12 8.59423E-12
 -1     22346 1.13329E+00 1.13329E+00 3.21410E-10-2.48218E-01-2.74633E-11-2.56148E-11
 -1     22351 1.13329E+00 1.13329E+00-7.22282E-10-2.39811E-01-3.83571E-12-2.35205E-12
 -1     22355 1.20739E+00 1.05918E+00-6.86270E-10-2.28074E-01 5.84667E-12 3.85218E-12
 -1     22356 1.17035E+00 1.09623E+00-6.48011E-10-2.33978E-01 7.23974E-12 4.58755E-12
 -1     22357 1.20999E+00 1.05658E+00 3.17152E-10-2.36070E-01 2.70443E-11 1.92196E-11
 -1     22362 1.20739E+00 1.05918E+00-5.86130E-10-2.28074E-01 2.52057E-11 1.70055E-11
 -1     22363 1.17035E+00 1.09623E+00-6.83396E-10-2.33978E-01 6.91262E-11 5.78255E-11
 -1     22364 1.20999E+00 1.05658E+00 2.84675E-10-2.36070E-01 9.15112E-12 5.70136E-12
 -1     22369 1.20739E+00 1.05918E+00-6.86895E-10-2.28074E-01 3.07099E-11 2.05477E-11
 -1     22370 1.17035E+00 1.09623E+00-6.51811E-10-2.33978E-01-3.82929E-12-5.48942E-12
 -1     22371 1.20999E+00 1.05658E+00 2.92885E-10-2.36070E-01 2.03569E-11 1.37894E-11
 -1     22376 1.20739E+00 1.05918E+00-6.41140E-10-2.28074E-01 1.39206E-11 8.42163E-12
 -1     22377 1.17035E+00 1.09623E+00-6.40941E-10-2.33978E-01 2.02835E-11 1.55090E-11
 -1     22378 1.20999E+00 1.05658E+00 2.89599E-10-2.36070E-01 5.92214E-12 3.47645E-12
 -1     22383 1.20739E+00 1.05918E+00-6.73714E-10-2.28074E-01 1.36518E-11 9.00068E-12
 -1     22384 1.17035E+00 1.09623E+00-6.38940E-10-2.33978E-01 4.34038E-13-1.70698E-13
 -1     22385 1.20999E+00 1.05658E+00 2.87653E-10-2.36070E-01 5.38146E-12 3.52720E-12
 -1     22390 1.20739E+00 1.05918E+00-6.61537E-10-2.28074E-01-1.15677E-14 2.06725E-14
 -1     22391 1.17035E+00 1.09623E+00-6.38971E-10-2.33978E-01-3.48969E-13 1.43791E-13
 -1     22392 1.20999E+00 1.05658E+00 2.87704E-10-2.36070E-01-5.29325E-12-3.60193E-12
 -1     22397 1.20739E+00 1.05918E+00-6.73652E-10-2.28074E-01-1.36582E-11-9.00469E-12
 -1     22398 1.17035E+00 1.09623E+00-6.40899E-10-2.33978E-01-2.03248E-11-1.55379E-11
 -1     22399 1.20999E+00 1.05658E+00 2.89669E-10-2.36070E-01-5.99019E-12-3.45406E-12
 -1     22404 1.20739E+00 1.05918E+00-6.41071E-10-2.28074E-01-1.38783E-11-8.37867E-12
 -1     22405 1.17035E+00 1.09623E+00-6.51828E-10-2.33978E-01 3.85002E-12 5.43443E-12
 -1     22406 1.20999E+00 1.05658E+00 2.92986E-10-2.36070E-01-2.03445E-11-1.37428E-11
 -1     22411 1.20739E+00 1.05918E+00-6.86910E-10-2.28074E-01-3.06193E-11-2.05950E-11
 -1     22412 1.17035E+00 1.09623E+00-6.83388E-10-2.33978E-01-6.91117E-11-5.78086E-11
 -1     22413 1.20999E+00 1.05658E+00 2.84703E-10-2.36070E-01-9.12700E-12-5.75738E-12
 -1     22418 1.20739E+00 1.05918E+00-5.86164E-10-2.28074E-01-2.51979E-11-1.70238E-11
 -1     22419 1.17035E+00 1.09623E+00-6.48028E-10-2.33978E-01-7.21169E-12-4.57426E-12
 -1     22420 1.20999E+00 1.05658E+00 3.17195E-10-2.36070E-01-2.69987E-11-1.92477E-11
 -1     22425 1.20739E+00 1.05918E+00-6.86198E-10-2.28074E-01-5.93604E-12-3.83209E-12
 -1     22429 1.27425E+00 9.92331E-01-7.06654E-10-1.94011E-01 3.30798E-12 3.89271E-12
 -1     22430 1.24084E+00 1.02574E+00-6.48346E-10-2.11074E-01 1.62659E-11 1.05170E-11
 -1     22431 1.27919E+00 9.87389E-01 3.21038E-10-2.00813E-01 3.03306E-11 1.79749E-11
 -1     22436 1.27425E+00 9.92331E-01-5.62127E-10-1.94011E-01 1.36744E-11 1.21413E-11
 -1     22437 1.24084E+00 1.02574E+00-6.84878E-10-2.11074E-01 7.64122E-11 4.74274E-11
 -1     22438 1.27919E+00 9.87389E-01 2.89621E-10-2.00813E-01-1.78225E-12 2.86255E-12
 -1     22443 1.27425E+00 9.92331E-01-6.83745E-10-1.94011E-01 2.41006E-11 1.81002E-11
 -1     22444 1.24084E+00 1.02574E+00-6.54563E-10-2.11074E-01-5.45948E-14 1.24848E-12
 -1     22445 1.27919E+00 9.87389E-01 3.03709E-10-2.00813E-01 1.54731E-11 1.15293E-11
 -1     22450 1.27425E+00 9.92331E-01-6.19796E-10-1.94011E-01-4.56042E-13 4.83060E-12
 -1     22451 1.24084E+00 1.02574E+00-6.45120E-10-2.11074E-01 2.43585E-11 1.60649E-11
 -1     22452 1.27919E+00 9.87389E-01 3.03537E-10-2.00813E-01 7.79950E-14 2.63969E-12
 -1     22457 1.27425E+00 9.92331E-01-6.46822E-10-1.94011E-01 9.44038E-12 7.64124E-12
 -1     22458 1.24084E+00 1.02574E+00-6.43875E-10-2.11074E-01 1.87829E-15 3.21911E-13
 -1     22459 1.27919E+00 9.87389E-01 3.04227E-10-2.00813E-01 2.67905E-12 2.36368E-12
 -1     22464 1.27425E+00 9.92331E-01-6.40266E-10-1.94011E-01-7.50128E-15 3.27022E-14
 -1     22465 1.24084E+00 1.02574E+00-6.43863E-10-2.11074E-01-3.13983E-15-3.10541E-13
 -1     22466 1.27919E+00 9.87389E-01 3.04168E-10-2.00813E-01-2.61531E-12-2.29415E-12
 -1     22471 1.27425E+00 9.92331E-01-6.46796E-10-1.94011E-01-9.30363E-12-7.63113E-12
 -1     22472 1.24084E+00 1.02574E+00-6.45073E-10-2.11074E-01-2.43580E-11-1.59859E-11
 -1     22473 1.27919E+00 9.87389E-01 3.03630E-10-2.00813E-01 1.56760E-14-2.57954E-12
 -1     22478 1.27425E+00 9.92331E-01-6.19718E-10-1.94011E-01 4.41735E-13-4.73598E-12
 -1     22479 1.24084E+00 1.02574E+00-6.54553E-10-2.11074E-01 8.38115E-14-1.21275E-12
 -1     22480 1.27919E+00 9.87389E-01 3.03679E-10-2.00813E-01-1.54531E-11-1.15036E-11
 -1     22485 1.27425E+00 9.92331E-01-6.83702E-10-1.94011E-01-2.40946E-11-1.81160E-11
 -1     22486 1.24084E+00 1.02574E+00-6.84938E-10-2.11074E-01-7.63813E-11-4.74144E-11
 -1     22487 1.27919E+00 9.87389E-01 2.89673E-10-2.00813E-01 1.86108E-12-2.85409E-12
 -1     22492 1.27425E+00 9.92331E-01-5.62198E-10-1.94011E-01-1.36983E-11-1.21539E-11
 -1     22493 1.24084E+00 1.02574E+00-6.48352E-10-2.11074E-01-1.62733E-11-1.04629E-11
 -1     22494 1.27919E+00 9.87389E-01 3.21020E-10-2.00813E-01-3.04262E-11-1.79856E-11
 -1     22499 1.27425E+00 9.92331E-01-7.06666E-10-1.94011E-01-3.32555E-12-3.92359E-12
 -1     22503 1.32730E+00 9.39277E-01-7.32781E-10-1.40957E-01 1.95702E-12 5.30396E-13
 -1     22504 1.30080E+00 9.65779E-01-6.47054E-10-1.67509E-01-1.48791E-11-5.37451E-12
 -1     22505 1.33410E+00 9.32475E-01 3.24781E-10-1.45899E-01 3.52541E-11 1.14324E-11
 -1     22510 1.32730E+00 9.39277E-01-5.30607E-10-1.40957E-01 7.12225E-13 5.46666E-13
 -1     22511 1.30080E+00 9.65779E-01-6.77762E-10-1.67509E-01 8.03022E-11 3.40059E-11
 -1     22512 1.33410E+00 9.32475E-01 2.95263E-10-1.45899E-01-1.51272E-11-4.69331E-12
 -1     22517 1.32730E+00 9.39277E-01-6.78351E-10-1.40957E-01 1.81747E-11 6.36270E-12
 -1     22518 1.30080E+00 9.65779E-01-6.41019E-10-1.67509E-01-2.38822E-11-8.39923E-12
 -1     22519 1.33410E+00 9.32475E-01 3.17536E-10-1.45899E-01 1.01355E-11 3.56300E-12
 -1     22524 1.32730E+00 9.39277E-01-5.89871E-10-1.40957E-01-1.72851E-11-5.16973E-12
 -1     22525 1.30080E+00 9.65779E-01-6.24882E-10-1.67509E-01 1.30267E-11 6.66524E-12
 -1     22526 1.33410E+00 9.32475E-01 3.22064E-10-1.45899E-01-6.86984E-12-1.97977E-12
 -1     22531 1.32730E+00 9.39277E-01-6.09192E-10-1.40957E-01 4.94613E-12 1.88479E-12
 -1     22532 1.30080E+00 9.65779E-01-6.19935E-10-1.67509E-01-9.29541E-13-2.30738E-14
 -1     22533 1.33410E+00 9.32475E-01 3.26275E-10-1.45899E-01-7.40724E-13-1.71582E-13
 -1     22538 1.32730E+00 9.39277E-01-6.09903E-10-1.40957E-01 4.09312E-14 6.69295E-15
 -1     22539 1.30080E+00 9.65779E-01-6.19939E-10-1.67509E-01 9.19121E-13 4.42528E-14
 -1     22540 1.33410E+00 9.32475E-01 3.26288E-10-1.45899E-01 6.36205E-13 1.12429E-13
 -1     22545 1.32730E+00 9.39277E-01-6.09264E-10-1.40957E-01-5.08250E-12-1.91089E-12
 -1     22546 1.30080E+00 9.65779E-01-6.24897E-10-1.67509E-01-1.30024E-11-6.67004E-12
 -1     22547 1.33410E+00 9.32475E-01 3.22037E-10-1.45899E-01 6.63828E-12 1.92446E-12
 -1     22552 1.32730E+00 9.39277E-01-5.89996E-10-1.40957E-01 1.71639E-11 5.10606E-12
 -1     22553 1.30080E+00 9.65779E-01-6.41011E-10-1.67509E-01 2.39434E-11 8.40926E-12
 -1     22554 1.33410E+00 9.32475E-01 3.17466E-10-1.45899E-01-1.01644E-11-3.63685E-12
 -1     22559 1.32730E+00 9.39277E-01-6.78476E-10-1.40957E-01-1.81660E-11-6.34515E-12
 -1     22560 1.30080E+00 9.65779E-01-6.77810E-10-1.67509E-01-8.02851E-11-3.40140E-11
 -1     22561 1.33410E+00 9.32475E-01 2.95225E-10-1.45899E-01 1.51012E-11 4.67646E-12
 -1     22566 1.32730E+00 9.39277E-01-5.30628E-10-1.40957E-01-6.82727E-13-5.55743E-13
 -1     22567 1.30080E+00 9.65779E-01-6.47053E-10-1.67509E-01 1.48663E-11 5.36978E-12
 -1     22568 1.33410E+00 9.32475E-01 3.24745E-10-1.45899E-01-3.52453E-11-1.14725E-11
 -1     22573 1.32730E+00 9.39277E-01-7.32793E-10-1.40957E-01-1.85885E-12-5.77778E-13
 -1     22577 1.36136E+00 9.05214E-01-7.09657E-10-7.41056E-02 6.75538E-12-1.91968E-12
 -1     22578 1.34436E+00 9.22214E-01-6.47448E-10-1.07548E-01-1.62225E-11-4.73836E-12
 -1     22579 1.36936E+00 8.97218E-01 3.19365E-10-7.67037E-02 3.72938E-11 2.63597E-12
 -1     22584 1.36136E+00 9.05214E-01-5.61976E-10-7.41056E-02 2.18999E-11-3.11353E-12
 -1     22585 1.34436E+00 9.22214E-01-6.78984E-10-1.07548E-01 8.66146E-11 1.96304E-11
 -1     22586 1.36936E+00 8.97218E-01 2.86123E-10-7.67037E-02 2.43208E-12-4.44607E-12
 -1     22591 1.36136E+00 9.05214E-01-6.89815E-10-7.41056E-02 3.59490E-11-1.78227E-12
 -1     22592 1.34436E+00 9.22214E-01-6.43340E-10-1.07548E-01-2.34261E-11-7.66895E-12
 -1     22593 1.36936E+00 8.97218E-01 2.98522E-10-7.67037E-02 2.25946E-11-1.04456E-12
 -1     22598 1.36136E+00 9.05214E-01-6.26886E-10-7.41056E-02 6.76231E-12-5.38062E-12
 -1     22599 1.34436E+00 9.22214E-01-6.28141E-10-1.07548E-01 1.54306E-11 1.95420E-12
 -1     22600 1.36936E+00 8.97218E-01 2.96741E-10-7.67037E-02 4.01161E-12-2.69109E-12
 -1     22605 1.36136E+00 9.05214E-01-6.55746E-10-7.41056E-02 1.51433E-11-1.23158E-12
 -1     22606 1.34436E+00 9.22214E-01-6.23761E-10-1.07548E-01-1.69416E-13-6.25181E-13
 -1     22607 1.36936E+00 8.97218E-01 2.96490E-10-7.67037E-02 4.31282E-12-5.46293E-13
 -1     22612 1.36136E+00 9.05214E-01-6.50902E-10-7.41056E-02 6.76080E-14-3.34788E-15
 -1     22613 1.34436E+00 9.22214E-01-6.23769E-10-1.07548E-01 1.73259E-13 6.50353E-13
 -1     22614 1.36936E+00 8.97218E-01 2.96503E-10-7.67037E-02-4.17234E-12 5.54726E-13
 -1     22619 1.36136E+00 9.05214E-01-6.55713E-10-7.41056E-02-1.50220E-11 1.21433E-12
 -1     22620 1.34436E+00 9.22214E-01-6.28152E-10-1.07548E-01-1.54014E-11-1.94315E-12
 -1     22621 1.36936E+00 8.97218E-01 2.96722E-10-7.67037E-02-3.83245E-12 2.69733E-12
 -1     22626 1.36136E+00 9.05214E-01-6.26879E-10-7.41056E-02-6.62830E-12 5.39435E-12
 -1     22627 1.34436E+00 9.22214E-01-6.43332E-10-1.07548E-01 2.35066E-11 7.65406E-12
 -1     22628 1.36936E+00 8.97218E-01 2.98539E-10-7.67037E-02-2.24861E-11 1.06785E-12
 -1     22633 1.36136E+00 9.05214E-01-6.89731E-10-7.41056E-02-3.59268E-11 1.79315E-12
 -1     22634 1.34436E+00 9.22214E-01-6.78969E-10-1.07548E-01-8.66682E-11-1.96463E-11
 -1     22635 1.36936E+00 8.97218E-01 2.86114E-10-7.67037E-02-2.40053E-12 4.43174E-12
 -1     22640 1.36136E+00 9.05214E-01-5.61927E-10-7.41056E-02-2.17782E-11 3.12949E-12
 -1     22641 1.34436E+00 9.22214E-01-6.47450E-10-1.07548E-01 1.62408E-11 4.71498E-12
 -1     22642 1.36936E+00 8.97218E-01 3.19389E-10-7.67037E-02-3.72524E-11-2.61825E-12
 -1     22647 1.36136E+00 9.05214E-01-7.09689E-10-7.41056E-02-6.77676E-12 1.93550E-12
 -1     22651 1.36727E+00 8.99310E-01-6.50082E-10-3.70584E-02 3.71044E-11 1.46468E-12
 -1     22655 1.36727E+00 8.99310E-01-6.91299E-10-3.70584E-02 9.42568E-11 5.97817E-12
 -1     22659 1.36727E+00 8.99310E-01-6.66666E-10-3.70584E-02 1.64309E-11-1.29986E-12
 -1     22663 1.36727E+00 8.99310E-01-6.62592E-10-3.70584E-02 3.88666E-11 9.04315E-13
 -1     22667 1.36727E+00 8.99310E-01-6.64536E-10-3.70584E-02 1.85294E-12-5.05105E-13
 -1     22671 1.36727E+00 8.99310E-01-6.64551E-10-3.70584E-02-1.80582E-12 5.06226E-13
 -1     22675 1.36727E+00 8.99310E-01-6.62558E-10-3.70584E-02-3.87924E-11-8.99730E-13
 -1     22679 1.36727E+00 8.99310E-01-6.66627E-10-3.70584E-02-1.63950E-11 1.30469E-12
 -1     22683 1.36727E+00 8.99310E-01-6.91273E-10-3.70584E-02-9.42019E-11-5.98898E-12
 -1     22687 1.36727E+00 8.99310E-01-6.50084E-10-3.70584E-02-3.71012E-11-1.46060E-12
 -1     22693 9.19684E-01 1.34689E+00-5.90120E-10-6.94042E-02-7.55326E-12-4.78241E-11
 -1     22694 9.14155E-01 1.35242E+00-3.65507E-10-3.47073E-02-2.66557E-11-3.38542E-10
 -1     22695 9.12449E-01 1.35413E+00 2.81512E-10-7.17551E-02 3.78753E-13 2.01449E-12
 -1     22700 9.19684E-01 1.34689E+00-2.10194E-10-6.94042E-02-1.07871E-11-6.84061E-11
 -1     22701 9.14155E-01 1.35242E+00-1.78044E-10-3.47073E-02 1.58940E-12 2.05402E-11
 -1     22702 9.12449E-01 1.35413E+00 3.47781E-10-7.17551E-02-6.98201E-12-4.44878E-11
 -1     22707 9.19684E-01 1.34689E+00-4.07343E-10-6.94042E-02 9.63238E-13 5.48225E-12
 -1     22708 9.14155E-01 1.35242E+00-2.95327E-10-3.47073E-02-6.64364E-12-8.41671E-11
 -1     22709 9.12449E-01 1.35413E+00 3.22315E-10-7.17551E-02 2.54206E-12 1.56071E-11
 -1     22714 9.19684E-01 1.34689E+00-2.84419E-10-6.94042E-02-5.41505E-12-3.45610E-11
 -1     22715 9.14155E-01 1.35242E+00-3.34316E-10-3.47073E-02 7.14360E-13 9.18515E-12
 -1     22716 9.12449E-01 1.35413E+00 3.11272E-10-7.17551E-02-7.63292E-13-4.97648E-12
 -1     22721 9.19684E-01 1.34689E+00-3.16453E-10-6.94042E-02 7.29186E-13 4.65429E-12
 -1     22722 9.14155E-01 1.35242E+00-3.38241E-10-3.47073E-02-5.73524E-14-6.44466E-13
 -1     22723 9.12449E-01 1.35413E+00 3.14383E-10-7.17551E-02 2.36449E-13 1.53320E-12
 -1     22728 9.19684E-01 1.34689E+00-3.18548E-10-6.94042E-02 1.10385E-14 9.97804E-15
 -1     22729 9.14155E-01 1.35242E+00-3.38270E-10-3.47073E-02 5.20994E-14 7.06767E-13
 -1     22730 9.12449E-01 1.35413E+00 3.14365E-10-7.17551E-02-2.27172E-13-1.47945E-12
 -1     22735 9.19684E-01 1.34689E+00-3.16513E-10-6.94042E-02-7.16619E-13-4.59159E-12
 -1     22736 9.14155E-01 1.35242E+00-3.34312E-10-3.47073E-02-7.16059E-13-9.23899E-12
 -1     22737 9.12449E-01 1.35413E+00 3.11244E-10-7.17551E-02 7.77382E-13 5.02231E-12
 -1     22742 9.19684E-01 1.34689E+00-2.84466E-10-6.94042E-02 5.44550E-12 3.45607E-11
 -1     22743 9.14155E-01 1.35242E+00-2.95325E-10-3.47073E-02 6.64756E-12 8.41512E-11
 -1     22744 9.12449E-01 1.35413E+00 3.22272E-10-7.17551E-02-2.51696E-12-1.56616E-11
 -1     22749 9.19684E-01 1.34689E+00-4.07398E-10-6.94042E-02-9.31182E-13-5.50364E-12
 -1     22750 9.14155E-01 1.35242E+00-1.78023E-10-3.47073E-02-1.59305E-12-2.04801E-11
 -1     22751 9.12449E-01 1.35413E+00 3.47783E-10-7.17551E-02 7.00268E-12 4.45589E-11
 -1     22756 9.19684E-01 1.34689E+00-2.10161E-10-6.94042E-02 1.08256E-11 6.83167E-11
 -1     22757 9.14155E-01 1.35242E+00-3.65493E-10-3.47073E-02 2.66652E-11 3.38520E-10
 -1     22758 9.12449E-01 1.35413E+00 2.81518E-10-7.17551E-02-3.69734E-13-1.97303E-12
 -1     22763 9.19684E-01 1.34689E+00-5.90068E-10-6.94042E-02 7.56122E-12 4.79145E-11
 -1     22767 9.51585E-01 1.31499E+00-5.93173E-10-1.32015E-01-1.47863E-11-4.62021E-11
 -1     22768 9.35605E-01 1.33097E+00-3.65455E-10-1.00725E-01-7.95127E-11-3.30692E-10
 -1     22769 9.45431E-01 1.32115E+00 2.81846E-10-1.36486E-01 9.57843E-13 2.20390E-12
 -1     22774 9.51585E-01 1.31499E+00-2.11502E-10-1.32015E-01-2.09649E-11-6.59827E-11
 -1     22775 9.35605E-01 1.33097E+00-1.77833E-10-1.00725E-01 4.69764E-12 2.00469E-11
 -1     22776 9.45431E-01 1.32115E+00 3.47867E-10-1.36486E-01-1.35414E-11-4.29843E-11
 -1     22781 9.51585E-01 1.31499E+00-4.10364E-10-1.32015E-01 2.60513E-12 5.50381E-12
 -1     22782 9.35605E-01 1.33097E+00-2.95090E-10-1.00725E-01-1.98985E-11-8.23110E-11
 -1     22783 9.45431E-01 1.32115E+00 3.22204E-10-1.36486E-01 5.43874E-12 1.51782E-11
 -1     22788 9.51585E-01 1.31499E+00-2.87461E-10-1.32015E-01-1.01220E-11-3.35622E-11
 -1     22789 9.35605E-01 1.33097E+00-3.34045E-10-1.00725E-01 2.03757E-12 8.83162E-12
 -1     22790 9.45431E-01 1.32115E+00 3.10839E-10-1.36486E-01-1.17983E-12-4.79516E-12
 -1     22795 9.51585E-01 1.31499E+00-3.19662E-10-1.32015E-01 1.87364E-12 4.49181E-12
 -1     22796 9.35605E-01 1.33097E+00-3.37990E-10-1.00725E-01-1.79844E-13-6.17783E-13
 -1     22797 9.45431E-01 1.32115E+00 3.13838E-10-1.36486E-01 6.12170E-13 1.41926E-12
 -1     22802 9.51585E-01 1.31499E+00-3.22241E-10-1.32015E-01 4.19308E-15 1.37533E-14
 -1     22803 9.35605E-01 1.33097E+00-3.38013E-10-1.00725E-01 1.64532E-13 6.66397E-13
 -1     22804 9.45431E-01 1.32115E+00 3.13891E-10-1.36486E-01-5.79288E-13-1.37873E-12
 -1     22809 9.51585E-01 1.31499E+00-3.19643E-10-1.32015E-01-1.85716E-12-4.46841E-12
 -1     22810 9.35605E-01 1.33097E+00-3.34060E-10-1.00725E-01-2.01916E-12-8.96807E-12
 -1     22811 9.45431E-01 1.32115E+00 3.10848E-10-1.36486E-01 1.21287E-12 4.76815E-12
 -1     22816 9.51585E-01 1.31499E+00-2.87472E-10-1.32015E-01 1.01507E-11 3.34457E-11
 -1     22817 9.35605E-01 1.33097E+00-2.95139E-10-1.00725E-01 1.98941E-11 8.22494E-11
 -1     22818 9.45431E-01 1.32115E+00 3.22133E-10-1.36486E-01-5.43665E-12-1.52613E-11
 -1     22823 9.51585E-01 1.31499E+00-4.10375E-10-1.32015E-01-2.57020E-12-5.55066E-12
 -1     22824 9.35605E-01 1.33097E+00-1.77822E-10-1.00725E-01-4.67247E-12-2.00184E-11
 -1     22825 9.45431E-01 1.32115E+00 3.47858E-10-1.36486E-01 1.35815E-11 4.28881E-11
 -1     22830 9.51585E-01 1.31499E+00-2.11451E-10-1.32015E-01 2.10036E-11 6.59475E-11
 -1     22831 9.35605E-01 1.33097E+00-3.65431E-10-1.00725E-01 7.95374E-11 3.30665E-10
 -1     22832 9.45431E-01 1.32115E+00 2.81831E-10-1.36486E-01-9.13887E-13-2.23653E-12
 -1     22837 9.51585E-01 1.31499E+00-5.93199E-10-1.32015E-01 1.48151E-11 4.61162E-11
 -1     22841 1.00127E+00 1.26530E+00-5.86006E-10-1.81703E-01-2.31719E-11-4.39264E-11
 -1     22842 9.76406E-01 1.29017E+00-3.62824E-10-1.56882E-01-1.29714E-10-3.12830E-10
 -1     22843 9.96802E-01 1.26977E+00 2.82402E-10-1.87857E-01-4.91671E-13 7.12968E-13
 -1     22848 1.00127E+00 1.26530E+00-2.10162E-10-1.81703E-01-3.37018E-11-6.20565E-11
 -1     22849 9.76406E-01 1.29017E+00-1.75508E-10-1.56882E-01 7.23639E-12 1.85235E-11
 -1     22850 9.96802E-01 1.26977E+00 3.49265E-10-1.87857E-01-2.20147E-11-4.04483E-11
 -1     22855 1.00127E+00 1.26530E+00-4.03080E-10-1.81703E-01-6.40754E-13 2.97309E-12
 -1     22856 9.76406E-01 1.29017E+00-2.92361E-10-1.56882E-01-3.26694E-11-7.77836E-11
 -1     22857 9.96802E-01 1.26977E+00 3.24511E-10-1.87857E-01 5.29247E-12 1.30664E-11
 -1     22862 1.00127E+00 1.26530E+00-2.80096E-10-1.81703E-01-1.84001E-11-3.20132E-11
 -1     22863 9.76406E-01 1.29017E+00-3.30992E-10-1.56882E-01 3.16018E-12 8.59207E-12
 -1     22864 9.96802E-01 1.26977E+00 3.14284E-10-1.87857E-01-3.71480E-12-5.25948E-12
 -1     22869 1.00127E+00 1.26530E+00-3.11583E-10-1.81703E-01 3.90227E-13 3.21594E-12
 -1     22870 9.76406E-01 1.29017E+00-3.34724E-10-1.56882E-01-5.15710E-13-8.14861E-13
 -1     22871 9.96802E-01 1.26977E+00 3.17842E-10-1.87857E-01 1.79136E-13 1.25812E-12
 -1     22876 1.00127E+00 1.26530E+00-3.12127E-10-1.81703E-01-4.55989E-14-8.15361E-14
 -1     22877 9.76406E-01 1.29017E+00-3.34724E-10-1.56882E-01 4.69122E-13 7.75597E-13
 -1     22878 9.96802E-01 1.26977E+00 3.17830E-10-1.87857E-01-2.75996E-13-1.35380E-12
 -1     22883 1.00127E+00 1.26530E+00-3.11569E-10-1.81703E-01-4.24061E-13-3.21010E-12
 -1     22884 9.76406E-01 1.29017E+00-3.30975E-10-1.56882E-01-3.18421E-12-8.57734E-12
 -1     22885 9.96802E-01 1.26977E+00 3.14293E-10-1.87857E-01 3.71200E-12 5.30445E-12
 -1     22890 1.00127E+00 1.26530E+00-2.80105E-10-1.81703E-01 1.84062E-11 3.21800E-11
 -1     22891 9.76406E-01 1.29017E+00-2.92425E-10-1.56882E-01 3.26642E-11 7.77137E-11
 -1     22892 9.96802E-01 1.26977E+00 3.24483E-10-1.87857E-01-5.32548E-12-1.30214E-11
 -1     22897 1.00127E+00 1.26530E+00-4.03230E-10-1.81703E-01 5.89367E-13-3.02106E-12
 -1     22898 9.76406E-01 1.29017E+00-1.75544E-10-1.56882E-01-7.28795E-12-1.85094E-11
 -1     22899 9.96802E-01 1.26977E+00 3.49205E-10-1.87857E-01 2.19723E-11 4.05087E-11
 -1     22904 1.00127E+00 1.26530E+00-2.10269E-10-1.81703E-01 3.36599E-11 6.21701E-11
 -1     22905 9.76406E-01 1.29017E+00-3.62823E-10-1.56882E-01 1.29701E-10 3.12819E-10
 -1     22906 9.96802E-01 1.26977E+00 2.82415E-10-1.87857E-01 4.48853E-13-6.76685E-13
 -1     22911 1.00127E+00 1.26530E+00-5.86028E-10-1.81703E-01 2.31813E-11 4.39547E-11
 -1     22915 1.06388E+00 1.20269E+00-6.00532E-10-2.13604E-01-3.33330E-11-4.33384E-11
 -1     22916 1.03256E+00 1.23401E+00-3.68435E-10-1.97683E-01-1.84545E-10-2.98132E-10
 -1     22917 1.06153E+00 1.20504E+00 2.83483E-10-2.20839E-01-3.67872E-12-1.76756E-12
 -1     22922 1.06388E+00 1.20269E+00-1.92584E-10-2.13604E-01-5.59181E-11-6.98690E-11
 -1     22923 1.03256E+00 1.23401E+00-1.75333E-10-1.97683E-01 4.26633E-12 1.13311E-11
 -1     22924 1.06153E+00 1.20504E+00 3.55270E-10-2.20839E-01-3.83978E-11-4.74095E-11
 -1     22929 1.06388E+00 1.20269E+00-3.95042E-10-2.13604E-01-1.19714E-11-8.42200E-12
 -1     22930 1.03256E+00 1.23401E+00-2.88119E-10-1.97683E-01-5.27757E-11-8.10717E-11
 -1     22931 1.06153E+00 1.20504E+00 3.36855E-10-2.20839E-01-1.24260E-12 3.73890E-12
 -1     22936 1.06388E+00 1.20269E+00-2.58284E-10-2.13604E-01-3.63879E-11-4.29221E-11
 -1     22937 1.03256E+00 1.23401E+00-3.23169E-10-1.97683E-01-1.41754E-12 1.47466E-12
 -1     22938 1.06153E+00 1.20504E+00 3.30787E-10-2.20839E-01-1.10191E-11-1.11861E-11
 -1     22943 1.06388E+00 1.20269E+00-2.82781E-10-2.13604E-01-5.13224E-12-3.05072E-12
 -1     22944 1.03256E+00 1.23401E+00-3.24785E-10-1.97683E-01-2.09808E-12-2.17127E-12
 -1     22945 1.06153E+00 1.20504E+00 3.37009E-10-2.20839E-01-2.39761E-12-1.89120E-12
 -1     22950 1.06388E+00 1.20269E+00-2.87647E-10-2.13604E-01 3.13322E-14-3.48581E-14
 -1     22951 1.03256E+00 1.23401E+00-3.24778E-10-1.97683E-01 2.10540E-12 2.06282E-12
 -1     22952 1.06153E+00 1.20504E+00 3.37011E-10-2.20839E-01 2.40659E-12 1.77291E-12
 -1     22957 1.06388E+00 1.20269E+00-2.82800E-10-2.13604E-01 5.06836E-12 2.83185E-12
 -1     22958 1.03256E+00 1.23401E+00-3.23162E-10-1.97683E-01 1.38632E-12-1.48830E-12
 -1     22959 1.06153E+00 1.20504E+00 3.30782E-10-2.20839E-01 1.09676E-11 1.10880E-11
 -1     22964 1.06388E+00 1.20269E+00-2.58236E-10-2.13604E-01 3.63641E-11 4.28555E-11
 -1     22965 1.03256E+00 1.23401E+00-2.88144E-10-1.97683E-01 5.27600E-11 8.10667E-11
 -1     22966 1.06153E+00 1.20504E+00 3.36912E-10-2.20839E-01 1.21647E-12-3.73615E-12
 -1     22971 1.06388E+00 1.20269E+00-3.94889E-10-2.13604E-01 1.19670E-11 8.43426E-12
 -1     22972 1.03256E+00 1.23401E+00-1.75333E-10-1.97683E-01-4.28620E-12-1.13800E-11
 -1     22973 1.06153E+00 1.20504E+00 3.55354E-10-2.20839E-01 3.84132E-11 4.73415E-11
 -1     22978 1.06388E+00 1.20269E+00-1.92507E-10-2.13604E-01 5.58993E-11 6.97687E-11
 -1     22979 1.03256E+00 1.23401E+00-3.68414E-10-1.97683E-01 1.84526E-10 2.98152E-10
 -1     22980 1.06153E+00 1.20504E+00 2.83494E-10-2.20839E-01 3.65906E-12 1.79274E-12
 -1     22985 1.06388E+00 1.20269E+00-6.00515E-10-2.13604E-01 3.33162E-11 4.33352E-11
 -1     22989 1.13329E+00 1.13329E+00-6.27499E-10-2.24597E-01-3.44872E-11-3.87165E-11
 -1     22990 1.09858E+00 1.16800E+00-3.68054E-10-2.19133E-01-2.44152E-10-2.85159E-10
 -1     22991 1.13329E+00 1.13329E+00 2.81986E-10-2.32204E-01 5.19536E-12 3.77605E-14
 -1     22996 1.13329E+00 1.13329E+00-1.82833E-10-2.24597E-01-5.87971E-11-6.99105E-11
 -1     22997 1.09858E+00 1.16800E+00-1.65849E-10-2.19133E-01 6.87965E-12 7.39382E-12
 -1     22998 1.13329E+00 1.13329E+00 3.51839E-10-2.32204E-01-3.97029E-11-4.80660E-11
 -1     23003 1.13329E+00 1.13329E+00-4.13055E-10-2.24597E-01 2.49908E-12-1.01793E-11
 -1     23004 1.09858E+00 1.16800E+00-2.76629E-10-2.19133E-01-7.26090E-11-8.55252E-11
 -1     23005 1.13329E+00 1.13329E+00 3.31926E-10-2.32204E-01 8.86586E-12 6.29243E-13
 -1     23010 1.13329E+00 1.13329E+00-2.71449E-10-2.24597E-01-3.36598E-11-4.48631E-11
 -1     23011 1.09858E+00 1.16800E+00-3.09816E-10-2.19133E-01-5.66826E-12-7.11850E-12
 -1     23012 1.13329E+00 1.13329E+00 3.23023E-10-2.32204E-01-6.06376E-12-1.21883E-11
 -1     23017 1.13329E+00 1.13329E+00-2.95586E-10-2.24597E-01 2.19912E-12-4.24582E-12
 -1     23018 1.09858E+00 1.16800E+00-3.09966E-10-2.19133E-01-1.42164E-12-2.05197E-12
 -1     23019 1.13329E+00 1.13329E+00 3.28141E-10-2.32204E-01-1.06667E-12-3.33207E-12
 -1     23024 1.13329E+00 1.13329E+00-3.09909E-10-2.24597E-01 1.10604E-13-1.45200E-14
 -1     23025 1.09858E+00 1.16800E+00-3.09964E-10-2.19133E-01 1.49326E-12 2.00304E-12
 -1     23026 1.13329E+00 1.13329E+00 3.28153E-10-2.32204E-01 1.19360E-12 3.38330E-12
 -1     23031 1.13329E+00 1.13329E+00-2.95608E-10-2.24597E-01-2.03825E-12 4.21350E-12
 -1     23032 1.09858E+00 1.16800E+00-3.09796E-10-2.19133E-01 5.72129E-12 7.09284E-12
 -1     23033 1.13329E+00 1.13329E+00 3.23018E-10-2.32204E-01 6.12701E-12 1.21617E-11
 -1     23038 1.13329E+00 1.13329E+00-2.71522E-10-2.24597E-01 3.36980E-11 4.49020E-11
 -1     23039 1.09858E+00 1.16800E+00-2.76632E-10-2.19133E-01 7.26117E-11 8.55891E-11
 -1     23040 1.13329E+00 1.13329E+00 3.31906E-10-2.32204E-01-8.84730E-12-5.62631E-13
 -1     23045 1.13329E+00 1.13329E+00-4.13172E-10-2.24597E-01-2.53947E-12 1.01794E-11
 -1     23046 1.09858E+00 1.16800E+00-1.65840E-10-2.19133E-01-6.87949E-12-7.41564E-12
 -1     23047 1.13329E+00 1.13329E+00 3.51729E-10-2.32204E-01 3.97034E-11 4.81378E-11
 -1     23052 1.13329E+00 1.13329E+00-1.82888E-10-2.24597E-01 5.88104E-11 6.99429E-11
 -1     23053 1.09858E+00 1.16800E+00-3.68064E-10-2.19133E-01 2.44129E-10 2.85162E-10
 -1     23054 1.13329E+00 1.13329E+00 2.81924E-10-2.32204E-01-5.18330E-12-6.80791E-14
 -1     23059 1.13329E+00 1.13329E+00-6.27446E-10-2.24597E-01 3.45474E-11 3.87273E-11
 -1     23063 1.20269E+00 1.06388E+00-5.38114E-10-2.13604E-01-3.24693E-11-2.52952E-11
 -1     23064 1.16800E+00 1.09858E+00-3.61702E-10-2.19133E-01-2.43926E-10-2.15185E-10
 -1     23065 1.20504E+00 1.06153E+00 2.80497E-10-2.20839E-01 3.67559E-12 5.42964E-13
 -1     23070 1.20269E+00 1.06388E+00-2.59263E-10-2.13604E-01-2.04365E-11-1.98873E-11
 -1     23071 1.16800E+00 1.09858E+00-1.80727E-10-2.19133E-01 2.41412E-11 1.15814E-11
 -1     23072 1.20504E+00 1.06153E+00 3.37858E-10-2.20839E-01-8.78887E-12-1.02619E-11
 -1     23077 1.20269E+00 1.06388E+00-4.12240E-10-2.13604E-01 2.85812E-11 1.48548E-11
 -1     23078 1.16800E+00 1.09858E+00-3.01186E-10-2.19133E-01-4.97432E-11-5.31134E-11
 -1     23079 1.20504E+00 1.06153E+00 3.00214E-10-2.20839E-01 3.11711E-11 1.87141E-11
 -1     23084 1.20269E+00 1.06388E+00-3.22468E-10-2.13604E-01 6.07949E-12-7.96420E-13
 -1     23085 1.16800E+00 1.09858E+00-3.42834E-10-2.19133E-01 1.70753E-11 6.61157E-12
 -1     23086 1.20504E+00 1.06153E+00 2.82880E-10-2.20839E-01 1.06293E-11 4.86405E-12
 -1     23091 1.20269E+00 1.06388E+00-3.69630E-10-2.13604E-01 1.65731E-11 9.07195E-12
 -1     23092 1.16800E+00 1.09858E+00-3.48525E-10-2.19133E-01 1.54893E-12-1.17422E-12
 -1     23093 1.20504E+00 1.06153E+00 2.81259E-10-2.20839E-01 8.86672E-12 5.39022E-12
 -1     23098 1.20269E+00 1.06388E+00-3.54478E-10-2.13604E-01-5.79313E-14 4.57377E-14
 -1     23099 1.16800E+00 1.09858E+00-3.48524E-10-2.19133E-01-1.53499E-12 1.16394E-12
 -1     23100 1.20504E+00 1.06153E+00 2.81270E-10-2.20839E-01-8.92457E-12-5.38200E-12
 -1     23105 1.20269E+00 1.06388E+00-3.69630E-10-2.13604E-01-1.66916E-11-9.09670E-12
 -1     23106 1.16800E+00 1.09858E+00-3.42831E-10-2.19133E-01-1.70495E-11-6.61233E-12
 -1     23107 1.20504E+00 1.06153E+00 2.82850E-10-2.20839E-01-1.06048E-11-4.83467E-12
 -1     23112 1.20269E+00 1.06388E+00-3.22550E-10-2.13604E-01-5.94858E-12 8.54407E-13
 -1     23113 1.16800E+00 1.09858E+00-3.01218E-10-2.19133E-01 4.97760E-11 5.31594E-11
 -1     23114 1.20504E+00 1.06153E+00 3.00169E-10-2.20839E-01-3.11210E-11-1.87049E-11
 -1     23119 1.20269E+00 1.06388E+00-4.12300E-10-2.13604E-01-2.85935E-11-1.48165E-11
 -1     23120 1.16800E+00 1.09858E+00-1.80745E-10-2.19133E-01-2.41426E-11-1.16063E-11
 -1     23121 1.20504E+00 1.06153E+00 3.37783E-10-2.20839E-01 8.74862E-12 1.02166E-11
 -1     23126 1.20269E+00 1.06388E+00-2.59332E-10-2.13604E-01 2.03544E-11 1.99120E-11
 -1     23127 1.16800E+00 1.09858E+00-3.61697E-10-2.19133E-01 2.43900E-10 2.15196E-10
 -1     23128 1.20504E+00 1.06153E+00 2.80445E-10-2.20839E-01-3.75583E-12-5.28165E-13
 -1     23133 1.20269E+00 1.06388E+00-5.38112E-10-2.13604E-01 3.24309E-11 2.52903E-11
 -1     23137 1.26530E+00 1.00127E+00-5.85467E-10-1.81703E-01-4.66645E-11-1.76704E-11
 -1     23138 1.23401E+00 1.03256E+00-3.60542E-10-1.97683E-01-2.58109E-10-1.54045E-10
 -1     23139 1.26977E+00 9.96802E-01 2.82657E-10-1.87857E-01-2.47353E-12 6.23753E-12
 -1     23144 1.26530E+00 1.00127E+00-2.08577E-10-1.81703E-01-6.93595E-11-1.94887E-11
 -1     23145 1.23401E+00 1.03256E+00-1.88942E-10-1.97683E-01 2.15578E-11 1.88183E-11
 -1     23146 1.26977E+00 9.96802E-01 3.49405E-10-1.87857E-01-4.58993E-11-1.13136E-11
 -1     23151 1.26530E+00 1.00127E+00-4.02090E-10-1.81703E-01-4.88951E-12 1.53407E-11
 -1     23152 1.23401E+00 1.03256E+00-3.11648E-10-1.97683E-01-5.11371E-11-2.47245E-11
 -1     23153 1.26977E+00 9.96802E-01 3.24724E-10-1.87857E-01 7.87260E-12 1.57146E-11
 -1     23158 1.26530E+00 1.00127E+00-2.78645E-10-1.81703E-01-3.93166E-11-4.31073E-12
 -1     23159 1.23401E+00 1.03256E+00-3.55244E-10-1.97683E-01 2.08642E-11 1.78614E-11
 -1     23160 1.26977E+00 9.96802E-01 3.14535E-10-1.87857E-01-9.09598E-12 3.95257E-12
 -1     23165 1.26530E+00 1.00127E+00-3.10047E-10-1.81703E-01-8.54733E-13 8.53793E-12
 -1     23166 1.23401E+00 1.03256E+00-3.62456E-10-1.97683E-01-6.07876E-13 1.29259E-12
 -1     23167 1.26977E+00 9.96802E-01 3.18036E-10-1.87857E-01-2.13274E-13 3.09880E-12
 -1     23172 1.26530E+00 1.00127E+00-3.10969E-10-1.81703E-01 1.23450E-14 1.93268E-14
 -1     23173 1.23401E+00 1.03256E+00-3.62477E-10-1.97683E-01 6.22709E-13-1.24015E-12
 -1     23174 1.26977E+00 9.96802E-01 3.18053E-10-1.87857E-01 1.86891E-13-3.05927E-12
 -1     23179 1.26530E+00 1.00127E+00-3.09998E-10-1.81703E-01 8.37121E-13-8.41793E-12
 -1     23180 1.23401E+00 1.03256E+00-3.55270E-10-1.97683E-01-2.08484E-11-1.78475E-11
 -1     23181 1.26977E+00 9.96802E-01 3.14561E-10-1.87857E-01 9.12582E-12-3.90014E-12
 -1     23186 1.26530E+00 1.00127E+00-2.78544E-10-1.81703E-01 3.93903E-11 4.27627E-12
 -1     23187 1.23401E+00 1.03256E+00-3.11695E-10-1.97683E-01 5.11953E-11 2.47403E-11
 -1     23188 1.26977E+00 9.96802E-01 3.24781E-10-1.87857E-01-7.83826E-12-1.57077E-11
 -1     23193 1.26530E+00 1.00127E+00-4.02028E-10-1.81703E-01 4.92627E-12-1.53114E-11
 -1     23194 1.23401E+00 1.03256E+00-1.88952E-10-1.97683E-01-2.15251E-11-1.88094E-11
 -1     23195 1.26977E+00 9.96802E-01 3.49436E-10-1.87857E-01 4.59481E-11 1.13102E-11
 -1     23200 1.26530E+00 1.00127E+00-2.08458E-10-1.81703E-01 6.94159E-11 1.94379E-11
 -1     23201 1.23401E+00 1.03256E+00-3.60517E-10-1.97683E-01 2.58075E-10 1.54062E-10
 -1     23202 1.26977E+00 9.96802E-01 2.82675E-10-1.87857E-01 2.45495E-12-6.24848E-12
 -1     23207 1.26530E+00 1.00127E+00-5.85442E-10-1.81703E-01 4.66048E-11 1.76748E-11
 -1     23211 1.31499E+00 9.51585E-01-6.52757E-10-1.32015E-01-5.88770E-11-1.87786E-11
 -1     23212 1.29017E+00 9.76406E-01-3.70783E-10-1.56882E-01-3.59476E-10-1.43803E-10
 -1     23213 1.32115E+00 9.45431E-01 2.85645E-10-1.36486E-01-4.65785E-12-1.01776E-12
 -1     23218 1.31499E+00 9.51585E-01-1.48013E-10-1.32015E-01-1.22167E-10-3.89464E-11
 -1     23219 1.29017E+00 9.76406E-01-1.63621E-10-1.56882E-01 1.50686E-12 7.58203E-12
 -1     23220 1.32115E+00 9.45431E-01 3.65857E-10-1.36486E-01-8.70189E-11-2.75289E-11
 -1     23225 1.31499E+00 9.51585E-01-3.93143E-10-1.32015E-01-3.71347E-11-1.09186E-11
 -1     23226 1.29017E+00 9.76406E-01-2.71353E-10-1.56882E-01-1.16486E-10-4.01679E-11
 -1     23227 1.32115E+00 9.45431E-01 3.59155E-10-1.36486E-01-1.64066E-11-4.47902E-12
 -1     23232 1.31499E+00 9.51585E-01-2.24340E-10-1.32015E-01-8.94389E-11-2.79678E-11
 -1     23233 1.29017E+00 9.76406E-01-3.01696E-10-1.56882E-01-1.75011E-11-1.07370E-12
 -1     23234 1.32115E+00 9.45431E-01 3.59029E-10-1.36486E-01-2.98930E-11-9.10666E-12
 -1     23239 1.31499E+00 9.51585E-01-2.34634E-10-1.32015E-01-1.80010E-11-5.32645E-12
 -1     23240 1.29017E+00 9.76406E-01-3.00023E-10-1.56882E-01-4.21500E-12 2.48824E-13
 -1     23241 1.32115E+00 9.45431E-01 3.69641E-10-1.36486E-01-1.07686E-11-3.30058E-12
 -1     23246 1.31499E+00 9.51585E-01-2.56438E-10-1.32015E-01-1.09217E-14-1.13537E-14
 -1     23247 1.29017E+00 9.76406E-01-3.00047E-10-1.56882E-01 4.25569E-12-2.72425E-13
 -1     23248 1.32115E+00 9.45431E-01 3.69626E-10-1.36486E-01 1.07686E-11 3.29736E-12
 -1     23253 1.31499E+00 9.51585E-01-2.34737E-10-1.32015E-01 1.79720E-11 5.31757E-12
 -1     23254 1.29017E+00 9.76406E-01-3.01713E-10-1.56882E-01 1.74632E-11 1.09232E-12
 -1     23255 1.32115E+00 9.45431E-01 3.58920E-10-1.36486E-01 2.98113E-11 9.07414E-12
 -1     23260 1.31499E+00 9.51585E-01-2.24477E-10-1.32015E-01 8.94175E-11 2.79843E-11
 -1     23261 1.29017E+00 9.76406E-01-2.71426E-10-1.56882E-01 1.16535E-10 4.01582E-11
 -1     23262 1.32115E+00 9.45431E-01 3.59053E-10-1.36486E-01 1.64257E-11 4.47487E-12
 -1     23267 1.31499E+00 9.51585E-01-3.93191E-10-1.32015E-01 3.71508E-11 1.09358E-11
 -1     23268 1.29017E+00 9.76406E-01-1.63593E-10-1.56882E-01-1.44337E-12-7.55405E-12
 -1     23269 1.32115E+00 9.45431E-01 3.65863E-10-1.36486E-01 8.70494E-11 2.75669E-11
 -1     23274 1.31499E+00 9.51585E-01-1.48057E-10-1.32015E-01 1.22092E-10 3.89980E-11
 -1     23275 1.29017E+00 9.76406E-01-3.70797E-10-1.56882E-01 3.59492E-10 1.43809E-10
 -1     23276 1.32115E+00 9.45431E-01 2.85628E-10-1.36486E-01 4.71101E-12 1.02402E-12
 -1     23281 1.31499E+00 9.51585E-01-6.52802E-10-1.32015E-01 5.88736E-11 1.88165E-11
 -1     23285 1.34689E+00 9.19684E-01-5.95569E-10-6.94042E-02-4.19927E-11-1.46552E-11
 -1     23286 1.33097E+00 9.35605E-01-3.70084E-10-1.00725E-01-3.74898E-10-9.57625E-11
 -1     23287 1.35413E+00 9.12449E-01 2.80165E-10-7.17551E-02 9.89576E-12-8.15287E-12
 -1     23292 1.34689E+00 9.19684E-01-2.13218E-10-6.94042E-02-5.47542E-11-3.00003E-11
 -1     23293 1.33097E+00 9.35605E-01-1.64642E-10-1.00725E-01 1.29056E-11-6.24245E-12
 -1     23294 1.35413E+00 9.12449E-01 3.42625E-10-7.17551E-02-3.40262E-11-2.13574E-11
 -1     23299 1.34689E+00 9.19684E-01-4.20548E-10-6.94042E-02 2.36803E-11-1.98680E-11
 -1     23300 1.33097E+00 9.35605E-01-2.75774E-10-1.00725E-01-1.12506E-10-3.76858E-11
 -1     23301 1.35413E+00 9.12449E-01 3.13011E-10-7.17551E-02 2.73732E-11-1.11180E-11
 -1     23306 1.34689E+00 9.19684E-01-3.02054E-10-6.94042E-02-1.98067E-11-2.40729E-11
 -1     23307 1.33097E+00 9.35605E-01-3.08964E-10-1.00725E-01-1.04656E-11-1.05906E-11
 -1     23308 1.35413E+00 9.12449E-01 2.98169E-10-7.17551E-02 3.51662E-12-1.07193E-11
 -1     23313 1.34689E+00 9.19684E-01-3.37742E-10-6.94042E-02 1.38019E-11-9.74565E-12
 -1     23314 1.33097E+00 9.35605E-01-3.08852E-10-1.00725E-01-1.01879E-12-2.99098E-12
 -1     23315 1.35413E+00 9.12449E-01 2.99329E-10-7.17551E-02 4.46151E-12-3.54213E-12
 -1     23320 1.34689E+00 9.19684E-01-3.42871E-10-6.94042E-02 3.83045E-14-2.16725E-14
 -1     23321 1.33097E+00 9.35605E-01-3.08825E-10-1.00725E-01 1.01536E-12 2.98307E-12
 -1     23322 1.35413E+00 9.12449E-01 2.99303E-10-7.17551E-02-4.35200E-12 3.52646E-12
 -1     23327 1.34689E+00 9.19684E-01-3.37679E-10-6.94042E-02-1.36642E-11 9.75026E-12
 -1     23328 1.33097E+00 9.35605E-01-3.08979E-10-1.00725E-01 1.04572E-11 1.05929E-11
 -1     23329 1.35413E+00 9.12449E-01 2.98250E-10-7.17551E-02-3.38935E-12 1.07225E-11
 -1     23334 1.34689E+00 9.19684E-01-3.02022E-10-6.94042E-02 1.97762E-11 2.40375E-11
 -1     23335 1.33097E+00 9.35605E-01-2.75808E-10-1.00725E-01 1.12487E-10 3.77029E-11
 -1     23336 1.35413E+00 9.12449E-01 3.12997E-10-7.17551E-02-2.72975E-11 1.11186E-11
 -1     23341 1.34689E+00 9.19684E-01-4.20582E-10-6.94042E-02-2.35878E-11 1.98697E-11
 -1     23342 1.33097E+00 9.35605E-01-1.64668E-10-1.00725E-01-1.28486E-11 6.26029E-12
 -1     23343 1.35413E+00 9.12449E-01 3.42664E-10-7.17551E-02 3.40514E-11 2.13590E-11
 -1     23348 1.34689E+00 9.19684E-01-2.13272E-10-6.94042E-02 5.47711E-11 2.99776E-11
 -1     23349 1.33097E+00 9.35605E-01-3.70117E-10-1.00725E-01 3.74896E-10 9.57771E-11
 -1     23350 1.35413E+00 9.12449E-01 2.80180E-10-7.17551E-02-9.87701E-12 8.14883E-12
 -1     23355 1.34689E+00 9.19684E-01-5.95592E-10-6.94042E-02 4.20748E-11 1.46437E-11
 -1     23359 1.35242E+00 9.14155E-01-3.55524E-10-3.47073E-02-2.50742E-10-2.76452E-11
 -1     23363 1.35242E+00 9.14155E-01-2.06943E-10-3.47073E-02 5.39998E-11-6.76804E-12
 -1     23367 1.35242E+00 9.14155E-01-3.43936E-10-3.47073E-02-1.03031E-11-1.36886E-11
 -1     23371 1.35242E+00 9.14155E-01-3.99971E-10-3.47073E-02 5.86779E-11-5.09321E-12
 -1     23375 1.35242E+00 9.14155E-01-4.14743E-10-3.47073E-02 6.14264E-12-2.64464E-12
 -1     23379 1.35242E+00 9.14155E-01-4.14706E-10-3.47073E-02-6.15160E-12 2.65206E-12
 -1     23383 1.35242E+00 9.14155E-01-3.99961E-10-3.47073E-02-5.86162E-11 5.10953E-12
 -1     23387 1.35242E+00 9.14155E-01-3.43950E-10-3.47073E-02 1.03457E-11 1.36924E-11
 -1     23391 1.35242E+00 9.14155E-01-2.06970E-10-3.47073E-02-5.39430E-11 6.77415E-12
 -1     23395 1.35242E+00 9.14155E-01-3.55539E-10-3.47073E-02 2.50723E-10 2.76401E-11
 -1     23401 9.32819E-01 1.33376E+00-1.19858E-09-6.51363E-02 2.89609E-11 1.83244E-10
 -1     23402 9.27630E-01 1.33895E+00-1.06106E-09-3.25731E-02 2.72341E-11 3.46600E-10
 -1     23403 9.26251E-01 1.34032E+00 2.69128E-10-6.72704E-02 4.01466E-11 2.53334E-10
 -1     23408 9.32819E-01 1.33376E+00-7.02025E-10-6.51363E-02 1.99652E-11 1.22947E-10
 -1     23409 9.27630E-01 1.33895E+00-1.51902E-09-3.25731E-02 4.17039E-11 5.31319E-10
 -1     23410 9.26251E-01 1.34032E+00-1.45868E-11-6.72704E-02-9.86396E-13-7.87696E-12
 -1     23415 9.32819E-01 1.33376E+00-1.22916E-09-6.51363E-02 2.70372E-11 1.68560E-10
 -1     23416 9.27630E-01 1.33895E+00-1.15063E-09-3.25731E-02-9.52535E-13-1.07264E-11
 -1     23417 9.26251E-01 1.34032E+00 1.30393E-10-6.72704E-02 6.24987E-12 3.84691E-11
 -1     23422 9.32819E-01 1.33376E+00-1.01061E-09-6.51363E-02-2.70095E-12-1.81272E-11
 -1     23423 9.27630E-01 1.33895E+00-9.68114E-10-3.25731E-02 7.59287E-13 1.04697E-11
 -1     23424 9.26251E-01 1.34032E+00 1.72669E-10-6.72704E-02-2.47945E-12-1.62108E-11
 -1     23429 9.32819E-01 1.33376E+00-9.95381E-10-6.51363E-02 2.57320E-12 1.53255E-11
 -1     23430 9.27630E-01 1.33895E+00-8.99983E-10-3.25731E-02 2.30054E-13 3.21087E-12
 -1     23431 9.26251E-01 1.34032E+00 1.85223E-10-6.72704E-02-1.12360E-12-7.27332E-12
 -1     23436 9.32819E-01 1.33376E+00-1.00606E-09-6.51363E-02-1.19880E-14 1.15254E-13
 -1     23437 9.27630E-01 1.33895E+00-8.99996E-10-3.25731E-02-2.31284E-13-3.19963E-12
 -1     23438 9.26251E-01 1.34032E+00 1.85300E-10-6.72704E-02 1.11662E-12 7.34473E-12
 -1     23443 9.32819E-01 1.33376E+00-9.95355E-10-6.51363E-02-2.58013E-12-1.53142E-11
 -1     23444 9.27630E-01 1.33895E+00-9.68121E-10-3.25731E-02-7.57672E-13-1.04678E-11
 -1     23445 9.26251E-01 1.34032E+00 1.72621E-10-6.72704E-02 2.46955E-12 1.62198E-11
 -1     23450 9.32819E-01 1.33376E+00-1.01064E-09-6.51363E-02 2.65604E-12 1.81007E-11
 -1     23451 9.27630E-01 1.33895E+00-1.15064E-09-3.25731E-02 9.54042E-13 1.07322E-11
 -1     23452 9.26251E-01 1.34032E+00 1.30344E-10-6.72704E-02-6.24392E-12-3.85547E-11
 -1     23457 9.32819E-01 1.33376E+00-1.22916E-09-6.51363E-02-2.70545E-11-1.68713E-10
 -1     23458 9.27630E-01 1.33895E+00-1.51902E-09-3.25731E-02-4.17003E-11-5.31401E-10
 -1     23459 9.26251E-01 1.34032E+00-1.46290E-11-6.72704E-02 9.85458E-13 7.79601E-12
 -1     23464 9.32819E-01 1.33376E+00-7.02081E-10-6.51363E-02-1.99720E-11-1.22905E-10
 -1     23465 9.27630E-01 1.33895E+00-1.06111E-09-3.25731E-02-2.72273E-11-3.46620E-10
 -1     23466 9.26251E-01 1.34032E+00 2.69126E-10-6.72704E-02-4.01293E-11-2.53284E-10
 -1     23471 9.32819E-01 1.33376E+00-1.19858E-09-6.51363E-02-2.89745E-11-1.83150E-10
 -1     23475 9.62759E-01 1.30382E+00-1.20598E-09-1.23897E-01 5.76441E-11 1.76528E-10
 -1     23476 9.47761E-01 1.31881E+00-1.05890E-09-9.45307E-02 8.08231E-11 3.37499E-10
 -1     23477 9.57172E-01 1.30940E+00 2.70745E-10-1.27956E-01 8.01603E-11 2.44482E-10
 -1     23482 9.62759E-01 1.30382E+00-7.05404E-10-1.23897E-01 4.01835E-11 1.17360E-10
 -1     23483 9.47761E-01 1.31881E+00-1.51714E-09-9.45307E-02 1.24238E-10 5.19043E-10
 -1     23484 9.57172E-01 1.30940E+00-1.39001E-11-1.27956E-01-1.16119E-12-7.98416E-12
 -1     23489 9.62759E-01 1.30382E+00-1.23577E-09-1.23897E-01 5.46154E-11 1.62722E-10
 -1     23490 9.47761E-01 1.31881E+00-1.14905E-09-9.45307E-02-2.78300E-12-1.00839E-11
 -1     23491 9.57172E-01 1.30940E+00 1.30642E-10-1.27956E-01 1.33063E-11 3.71597E-11
 -1     23496 9.62759E-01 1.30382E+00-1.01706E-09-1.23897E-01-4.42701E-12-1.76761E-11
 -1     23497 9.47761E-01 1.31881E+00-9.66721E-10-9.45307E-02 2.30765E-12 1.05077E-11
 -1     23498 9.57172E-01 1.30940E+00 1.72239E-10-1.27956E-01-4.14575E-12-1.54354E-11
 -1     23503 9.62759E-01 1.30382E+00-1.00199E-09-1.23897E-01 5.68764E-12 1.51153E-11
 -1     23504 9.47761E-01 1.31881E+00-8.98687E-10-9.45307E-02 7.64656E-13 3.37344E-12
 -1     23505 9.57172E-01 1.30940E+00 1.84532E-10-1.27956E-01-1.99257E-12-7.15393E-12
 -1     23510 9.62759E-01 1.30382E+00-1.01407E-09-1.23897E-01 1.99491E-14-9.99373E-14
 -1     23511 9.47761E-01 1.31881E+00-8.98706E-10-9.45307E-02-7.36592E-13-3.43670E-12
 -1     23512 9.57172E-01 1.30940E+00 1.84463E-10-1.27956E-01 1.99865E-12 7.18740E-12
 -1     23517 9.62759E-01 1.30382E+00-1.00198E-09-1.23897E-01-5.68715E-12-1.49587E-11
 -1     23518 9.47761E-01 1.31881E+00-9.66712E-10-9.45307E-02-2.28560E-12-1.04905E-11
 -1     23519 9.57172E-01 1.30940E+00 1.72216E-10-1.27956E-01 4.16396E-12 1.53738E-11
 -1     23524 9.62759E-01 1.30382E+00-1.01712E-09-1.23897E-01 4.44844E-12 1.76084E-11
 -1     23525 9.47761E-01 1.31881E+00-1.14905E-09-9.45307E-02 2.80453E-12 1.01092E-11
 -1     23526 9.57172E-01 1.30940E+00 1.30609E-10-1.27956E-01-1.33077E-11-3.72059E-11
 -1     23531 9.62759E-01 1.30382E+00-1.23584E-09-1.23897E-01-5.46478E-11-1.62893E-10
 -1     23532 9.47761E-01 1.31881E+00-1.51717E-09-9.45307E-02-1.24240E-10-5.19095E-10
 -1     23533 9.57172E-01 1.30940E+00-1.39637E-11-1.27956E-01 1.18836E-12 7.91941E-12
 -1     23538 9.62759E-01 1.30382E+00-7.05525E-10-1.23897E-01-4.02252E-11-1.17493E-10
 -1     23539 9.47761E-01 1.31881E+00-1.05894E-09-9.45307E-02-8.08455E-11-3.37565E-10
 -1     23540 9.57172E-01 1.30940E+00 2.70680E-10-1.27956E-01-8.01612E-11-2.44577E-10
 -1     23545 9.62759E-01 1.30382E+00-1.20598E-09-1.23897E-01-5.76691E-11-1.76630E-10
 -1     23549 1.00939E+00 1.25718E+00-1.18684E-09-1.70529E-01 8.09663E-11 1.65077E-10
 -1     23550 9.86053E-01 1.28052E+00-1.05677E-09-1.47235E-01 1.33503E-10 3.23271E-10
 -1     23551 1.00533E+00 1.26124E+00 2.67871E-10-1.76116E-01 1.11840E-10 2.25859E-10
 -1     23556 1.00939E+00 1.25718E+00-6.99677E-10-1.70529E-01 4.96575E-11 1.09359E-10
 -1     23557 9.86053E-01 1.28052E+00-1.51329E-09-1.47235E-01 2.02218E-10 4.91455E-10
 -1     23558 1.00533E+00 1.26124E+00-1.23671E-11-1.76116E-01-9.00383E-12-8.52185E-12
 -1     23563 1.00939E+00 1.25718E+00-1.21600E-09-1.70529E-01 6.72391E-11 1.47920E-10
 -1     23564 9.86053E-01 1.28052E+00-1.14383E-09-1.47235E-01-5.43998E-12-9.66891E-12
 -1     23565 1.00533E+00 1.26124E+00 1.34370E-10-1.76116E-01 1.13554E-11 3.20763E-11
 -1     23570 1.00939E+00 1.25718E+00-9.95931E-10-1.70529E-01-1.61838E-11-1.78223E-11
 -1     23571 9.86053E-01 1.28052E+00-9.60574E-10-1.47235E-01 3.04772E-12 9.88563E-12
 -1     23572 1.00533E+00 1.26124E+00 1.78575E-10-1.76116E-01-1.20479E-11-1.65712E-11
 -1     23577 1.00939E+00 1.25718E+00-9.80129E-10-1.70529E-01 2.35027E-12 1.20977E-11
 -1     23578 9.86053E-01 1.28052E+00-8.92009E-10-1.47235E-01 5.86085E-13 2.50607E-12
 -1     23579 1.00533E+00 1.26124E+00 1.92203E-10-1.76116E-01-4.84058E-12-6.95813E-12
 -1     23584 1.00939E+00 1.25718E+00-9.87376E-10-1.70529E-01-4.13187E-14-4.34113E-14
 -1     23585 9.86053E-01 1.28052E+00-8.92020E-10-1.47235E-01-6.24538E-13-2.49816E-12
 -1     23586 1.00533E+00 1.26124E+00 1.92227E-10-1.76116E-01 4.80843E-12 6.83415E-12
 -1     23591 1.00939E+00 1.25718E+00-9.80214E-10-1.70529E-01-2.33008E-12-1.21344E-11
 -1     23592 9.86053E-01 1.28052E+00-9.60586E-10-1.47235E-01-3.09882E-12-9.90312E-12
 -1     23593 1.00533E+00 1.26124E+00 1.78556E-10-1.76116E-01 1.20223E-11 1.66530E-11
 -1     23598 1.00939E+00 1.25718E+00-9.95939E-10-1.70529E-01 1.61742E-11 1.79410E-11
 -1     23599 9.86053E-01 1.28052E+00-1.14384E-09-1.47235E-01 5.39440E-12 9.68118E-12
 -1     23600 1.00533E+00 1.26124E+00 1.34354E-10-1.76116E-01-1.13378E-11-3.20423E-11
 -1     23605 1.00939E+00 1.25718E+00-1.21599E-09-1.70529E-01-6.72242E-11-1.47899E-10
 -1     23606 9.86053E-01 1.28052E+00-1.51333E-09-1.47235E-01-2.02234E-10-4.91489E-10
 -1     23607 1.00533E+00 1.26124E+00-1.24460E-11-1.76116E-01 8.97840E-12 8.56149E-12
 -1     23612 1.00939E+00 1.25718E+00-6.99649E-10-1.70529E-01-4.96803E-11-1.09347E-10
 -1     23613 9.86053E-01 1.28052E+00-1.05676E-09-1.47235E-01-1.33522E-10-3.23321E-10
 -1     23614 1.00533E+00 1.26124E+00 2.67795E-10-1.76116E-01-1.11852E-10-2.25833E-10
 -1     23619 1.00939E+00 1.25718E+00-1.18685E-09-1.70529E-01-8.09612E-11-1.65031E-10
 -1     23623 1.06815E+00 1.19842E+00-1.21942E-09-2.00469E-01 9.57225E-11 1.38491E-10
 -1     23624 1.03876E+00 1.22782E+00-1.06450E-09-1.85527E-01 1.61225E-10 2.74260E-10
 -1     23625 1.06602E+00 1.20056E+00 2.77607E-10-2.07037E-01 1.35460E-10 1.96233E-10
 -1     23630 1.06815E+00 1.19842E+00-6.67948E-10-2.00469E-01 3.59373E-11 6.53806E-11
 -1     23631 1.03876E+00 1.22782E+00-1.51608E-09-1.85527E-01 2.58793E-10 4.37420E-10
 -1     23632 1.06602E+00 1.20056E+00-7.95295E-13-2.07037E-01-3.49552E-11-3.46134E-11
 -1     23637 1.06815E+00 1.19842E+00-1.20573E-09-2.00469E-01 6.44856E-11 1.07399E-10
 -1     23638 1.03876E+00 1.22782E+00-1.13983E-09-1.85527E-01-2.82781E-11-3.06955E-11
 -1     23639 1.06602E+00 1.20056E+00 1.56371E-10-2.07037E-01-3.32206E-12 8.75399E-12
 -1     23644 1.06815E+00 1.19842E+00-9.69204E-10-2.00469E-01-4.56704E-11-4.70772E-11
 -1     23645 1.03876E+00 1.22782E+00-9.50593E-10-1.85527E-01-1.09583E-11-6.40983E-12
 -1     23646 1.06602E+00 1.20056E+00 2.06492E-10-2.07037E-01-2.81827E-11-2.94913E-11
 -1     23651 1.06815E+00 1.19842E+00-9.39113E-10-2.00469E-01-8.49191E-12-3.10597E-12
 -1     23652 1.03876E+00 1.22782E+00-8.78621E-10-1.85527E-01-2.89904E-12-7.77930E-13
 -1     23653 1.06602E+00 1.20056E+00 2.23966E-10-2.07037E-01-1.21210E-11-1.33102E-11
 -1     23658 1.06815E+00 1.19842E+00-9.57604E-10-2.00469E-01-6.29298E-14-4.04627E-15
 -1     23659 1.03876E+00 1.22782E+00-8.78634E-10-1.85527E-01 2.87537E-12 7.43345E-13
 -1     23660 1.06602E+00 1.20056E+00 2.23970E-10-2.07037E-01 1.20750E-11 1.32095E-11
 -1     23665 1.06815E+00 1.19842E+00-9.39074E-10-2.00469E-01 8.43412E-12 3.01147E-12
 -1     23666 1.03876E+00 1.22782E+00-9.50577E-10-1.85527E-01 1.09153E-11 6.34911E-12
 -1     23667 1.06602E+00 1.20056E+00 2.06537E-10-2.07037E-01 2.81517E-11 2.93557E-11
 -1     23672 1.06815E+00 1.19842E+00-9.69195E-10-2.00469E-01 4.56897E-11 4.69486E-11
 -1     23673 1.03876E+00 1.22782E+00-1.13979E-09-1.85527E-01 2.82775E-11 3.06290E-11
 -1     23674 1.06602E+00 1.20056E+00 1.56459E-10-2.07037E-01 3.33584E-12-8.76856E-12
 -1     23679 1.06815E+00 1.19842E+00-1.20570E-09-2.00469E-01-6.45165E-11-1.07461E-10
 -1     23680 1.03876E+00 1.22782E+00-1.51610E-09-1.85527E-01-2.58813E-10-4.37395E-10
 -1     23681 1.06602E+00 1.20056E+00-7.04521E-13-2.07037E-01 3.49178E-11 3.45899E-11
 -1     23686 1.06815E+00 1.19842E+00-6.67889E-10-2.00469E-01-3.59518E-11-6.53958E-11
 -1     23687 1.03876E+00 1.22782E+00-1.06450E-09-1.85527E-01-1.61221E-10-2.74262E-10
 -1     23688 1.06602E+00 1.20056E+00 2.77687E-10-2.07037E-01-1.35468E-10-1.96239E-10
 -1     23693 1.06815E+00 1.19842E+00-1.21938E-09-2.00469E-01-9.57501E-11-1.38427E-10
 -1     23697 1.13329E+00 1.13329E+00-1.28300E-09-2.10785E-01 1.28891E-10 1.16684E-10
 -1     23698 1.10071E+00 1.16586E+00-1.03811E-09-2.05658E-01 1.71145E-10 1.99915E-10
 -1     23699 1.13329E+00 1.13329E+00 2.85924E-10-2.17692E-01 1.88411E-10 1.72261E-10
 -1     23704 1.13329E+00 1.13329E+00-6.52113E-10-2.10785E-01 6.65128E-11 3.71071E-11
 -1     23705 1.10071E+00 1.16586E+00-1.49514E-09-2.05658E-01 3.29344E-10 3.83616E-10
 -1     23706 1.13329E+00 1.13329E+00-8.01828E-12-2.17692E-01-2.22736E-11-4.55597E-11
 -1     23711 1.13329E+00 1.13329E+00-1.25072E-09-2.10785E-01 1.22168E-10 8.82568E-11
 -1     23712 1.10071E+00 1.16586E+00-1.12082E-09-2.05658E-01-4.19090E-11-5.11896E-11
 -1     23713 1.13329E+00 1.13329E+00 1.44543E-10-2.17692E-01 2.35517E-11 6.65461E-13
 -1     23718 1.13329E+00 1.13329E+00-1.01149E-09-2.10785E-01-2.77860E-11-5.66870E-11
 -1     23719 1.10071E+00 1.16586E+00-9.31714E-10-2.05658E-01-1.81697E-11-2.31105E-11
 -1     23720 1.13329E+00 1.13329E+00 1.87066E-10-2.17692E-01-1.40471E-11-3.02795E-11
 -1     23725 1.13329E+00 1.13329E+00-9.77537E-10-2.10785E-01 9.34186E-12-6.53321E-12
 -1     23726 1.10071E+00 1.16586E+00-8.59543E-10-2.05658E-01 1.33800E-12 6.05567E-13
 -1     23727 1.13329E+00 1.13329E+00 2.00932E-10-2.17692E-01-9.49515E-12-1.53637E-11
 -1     23732 1.13329E+00 1.13329E+00-1.01912E-09-2.10785E-01 2.61748E-14 2.65413E-14
 -1     23733 1.10071E+00 1.16586E+00-8.59538E-10-2.05658E-01-1.35648E-12-6.69422E-13
 -1     23734 1.13329E+00 1.13329E+00 2.00910E-10-2.17692E-01 9.57740E-12 1.53332E-11
 -1     23739 1.13329E+00 1.13329E+00-9.77466E-10-2.10785E-01-9.25677E-12 6.45284E-12
 -1     23740 1.10071E+00 1.16586E+00-9.31696E-10-2.05658E-01 1.82167E-11 2.30524E-11
 -1     23741 1.13329E+00 1.13329E+00 1.87073E-10-2.17692E-01 1.41221E-11 3.03062E-11
 -1     23746 1.13329E+00 1.13329E+00-1.01138E-09-2.10785E-01 2.78113E-11 5.67762E-11
 -1     23747 1.10071E+00 1.16586E+00-1.12080E-09-2.05658E-01 4.19159E-11 5.11925E-11
 -1     23748 1.13329E+00 1.13329E+00 1.44513E-10-2.17692E-01-2.35486E-11-6.38967E-13
 -1     23753 1.13329E+00 1.13329E+00-1.25064E-09-2.10785E-01-1.22130E-10-8.82864E-11
 -1     23754 1.10071E+00 1.16586E+00-1.49510E-09-2.05658E-01-3.29290E-10-3.83632E-10
 -1     23755 1.13329E+00 1.13329E+00-7.98672E-12-2.17692E-01 2.23772E-11 4.55069E-11
 -1     23760 1.13329E+00 1.13329E+00-6.52130E-10-2.10785E-01-6.65158E-11-3.71823E-11
 -1     23761 1.10071E+00 1.16586E+00-1.03812E-09-2.05658E-01-1.71169E-10-1.99953E-10
 -1     23762 1.13329E+00 1.13329E+00 2.85866E-10-2.17692E-01-1.88443E-10-1.72227E-10
 -1     23767 1.13329E+00 1.13329E+00-1.28314E-09-2.10785E-01-1.28911E-10-1.16658E-10
 -1     23771 1.19842E+00 1.06815E+00-1.08548E-09-2.00469E-01 1.74823E-10 1.22238E-10
 -1     23772 1.16586E+00 1.10071E+00-1.06386E-09-2.05658E-01 3.04666E-10 2.34097E-10
 -1     23773 1.20056E+00 1.06602E+00 2.42495E-10-2.07037E-01 2.21941E-10 1.54106E-10
 -1     23778 1.19842E+00 1.06815E+00-7.95583E-10-2.00469E-01 1.83481E-10 1.21457E-10
 -1     23779 1.16586E+00 1.10071E+00-1.52243E-09-2.05658E-01 4.32198E-10 3.39032E-10
 -1     23780 1.20056E+00 1.06602E+00-3.05340E-11-2.07037E-01 6.00836E-11 3.38215E-11
 -1     23785 1.19842E+00 1.06815E+00-1.22281E-09-2.00469E-01 1.89730E-10 1.24758E-10
 -1     23786 1.16586E+00 1.10071E+00-1.15734E-09-2.05658E-01 2.71579E-11-7.67188E-12
 -1     23787 1.20056E+00 1.06602E+00 9.64841E-11-2.07037E-01 7.58835E-11 4.55160E-11
 -1     23792 1.19842E+00 1.06815E+00-1.04321E-09-2.00469E-01 5.76344E-11 3.02996E-11
 -1     23793 1.16586E+00 1.10071E+00-9.78501E-10-2.05658E-01 3.38305E-11 5.79175E-12
 -1     23794 1.20056E+00 1.06602E+00 1.32437E-10-2.07037E-01 1.79352E-11 6.09809E-12
 -1     23799 1.19842E+00 1.06815E+00-1.06299E-09-2.00469E-01 4.18919E-11 2.39285E-11
 -1     23800 1.16586E+00 1.10071E+00-9.12499E-10-2.05658E-01 7.69235E-12-8.16285E-13
 -1     23801 1.20056E+00 1.06602E+00 1.40023E-10-2.07037E-01 1.12091E-11 5.60001E-12
 -1     23806 1.19842E+00 1.06815E+00-1.03028E-09-2.00469E-01-6.18647E-14-8.52363E-15
 -1     23807 1.16586E+00 1.10071E+00-9.12484E-10-2.05658E-01-7.71465E-12 8.58653E-13
 -1     23808 1.20056E+00 1.06602E+00 1.40042E-10-2.07037E-01-1.12865E-11-5.53578E-12
 -1     23813 1.19842E+00 1.06815E+00-1.06306E-09-2.00469E-01-4.20040E-11-2.38637E-11
 -1     23814 1.16586E+00 1.10071E+00-9.78516E-10-2.05658E-01-3.38156E-11-5.79336E-12
 -1     23815 1.20056E+00 1.06602E+00 1.32419E-10-2.07037E-01-1.79989E-11-6.10641E-12
 -1     23820 1.19842E+00 1.06815E+00-1.04326E-09-2.00469E-01-5.76641E-11-3.02671E-11
 -1     23821 1.16586E+00 1.10071E+00-1.15729E-09-2.05658E-01-2.72145E-11 7.70501E-12
 -1     23822 1.20056E+00 1.06602E+00 9.64150E-11-2.07037E-01-7.58402E-11-4.54594E-11
 -1     23827 1.19842E+00 1.06815E+00-1.22285E-09-2.00469E-01-1.89694E-10-1.24699E-10
 -1     23828 1.16586E+00 1.10071E+00-1.52245E-09-2.05658E-01-4.32144E-10-3.39036E-10
 -1     23829 1.20056E+00 1.06602E+00-3.05491E-11-2.07037E-01-6.01186E-11-3.37535E-11
 -1     23834 1.19842E+00 1.06815E+00-7.95604E-10-2.00469E-01-1.83497E-10-1.21428E-10
 -1     23835 1.16586E+00 1.10071E+00-1.06392E-09-2.05658E-01-3.04676E-10-2.34094E-10
 -1     23836 1.20056E+00 1.06602E+00 2.42504E-10-2.07037E-01-2.21974E-10-1.54107E-10
 -1     23841 1.19842E+00 1.06815E+00-1.08546E-09-2.00469E-01-1.74767E-10-1.22285E-10
 -1     23845 1.25718E+00 1.00939E+00-1.18600E-09-1.70529E-01 1.57859E-10 9.70133E-11
 -1     23846 1.22782E+00 1.03876E+00-1.08884E-09-1.85527E-01 3.67437E-10 2.39898E-10
 -1     23847 1.26124E+00 1.00533E+00 2.67077E-10-1.76116E-01 2.15984E-10 1.32485E-10
 -1     23852 1.25718E+00 1.00939E+00-6.95431E-10-1.70529E-01 9.00780E-11 8.66120E-11
 -1     23853 1.22782E+00 1.03876E+00-1.54165E-09-1.85527E-01 4.62616E-10 3.02480E-10
 -1     23854 1.26124E+00 1.00533E+00-1.28113E-11-1.76116E-01-2.37379E-11 2.03221E-11
 -1     23859 1.25718E+00 1.00939E+00-1.21212E-09-1.70529E-01 1.26001E-10 1.11462E-10
 -1     23860 1.22782E+00 1.03876E+00-1.17458E-09-1.85527E-01 2.67314E-11 3.60812E-11
 -1     23861 1.26124E+00 1.00533E+00 1.34068E-10-1.76116E-01 1.73105E-11 4.07019E-11
 -1     23866 1.25718E+00 1.00939E+00-9.92611E-10-1.70529E-01-3.65147E-11 2.09952E-11
 -1     23867 1.22782E+00 1.03876E+00-9.95870E-10-1.85527E-01 3.45356E-11 3.59106E-11
 -1     23868 1.26124E+00 1.00533E+00 1.78140E-10-1.76116E-01-2.68651E-11 8.61878E-12
 -1     23873 1.25718E+00 1.00939E+00-9.76430E-10-1.70529E-01 2.01474E-12 2.26450E-11
 -1     23874 1.22782E+00 1.03876E+00-9.30278E-10-1.85527E-01-3.35044E-13 4.72149E-12
 -1     23875 1.26124E+00 1.00533E+00 1.91818E-10-1.76116E-01-1.07794E-11 2.63009E-12
 -1     23880 1.25718E+00 1.00939E+00-9.84255E-10-1.70529E-01-3.25795E-14 3.84237E-14
 -1     23881 1.22782E+00 1.03876E+00-9.30307E-10-1.85527E-01 3.12076E-13-4.71590E-12
 -1     23882 1.26124E+00 1.00533E+00 1.91800E-10-1.76116E-01 1.07994E-11-2.57531E-12
 -1     23887 1.25718E+00 1.00939E+00-9.76461E-10-1.70529E-01-1.95636E-12-2.27003E-11
 -1     23888 1.22782E+00 1.03876E+00-9.95908E-10-1.85527E-01-3.45362E-11-3.59383E-11
 -1     23889 1.26124E+00 1.00533E+00 1.78202E-10-1.76116E-01 2.68795E-11-8.58741E-12
 -1     23894 1.25718E+00 1.00939E+00-9.92602E-10-1.70529E-01 3.64719E-11-2.09813E-11
 -1     23895 1.22782E+00 1.03876E+00-1.17454E-09-1.85527E-01-2.67481E-11-3.60646E-11
 -1     23896 1.26124E+00 1.00533E+00 1.34131E-10-1.76116E-01-1.72930E-11-4.06867E-11
 -1     23901 1.25718E+00 1.00939E+00-1.21210E-09-1.70529E-01-1.26070E-10-1.11450E-10
 -1     23902 1.22782E+00 1.03876E+00-1.54165E-09-1.85527E-01-4.62629E-10-3.02451E-10
 -1     23903 1.26124E+00 1.00533E+00-1.27469E-11-1.76116E-01 2.37501E-11-2.03055E-11
 -1     23908 1.25718E+00 1.00939E+00-6.95430E-10-1.70529E-01-8.98719E-11-8.65893E-11
 -1     23909 1.22782E+00 1.03876E+00-1.08885E-09-1.85527E-01-3.67379E-10-2.39971E-10
 -1     23910 1.26124E+00 1.00533E+00 2.67128E-10-1.76116E-01-2.15892E-10-1.32492E-10
 -1     23915 1.25718E+00 1.00939E+00-1.18606E-09-1.70529E-01-1.57696E-10-9.70484E-11
 -1     23919 1.30382E+00 9.62759E-01-1.33676E-09-1.23897E-01 1.35275E-10 4.37038E-11
 -1     23920 1.28052E+00 9.86053E-01-1.03993E-09-1.47235E-01 2.08491E-10 1.05358E-10
 -1     23921 1.30940E+00 9.57172E-01 3.04927E-10-1.27956E-01 2.14528E-10 7.04319E-11
 -1     23926 1.30382E+00 9.62759E-01-5.85634E-10-1.23897E-01-1.73865E-11-3.98963E-12
 -1     23927 1.28052E+00 9.86053E-01-1.49301E-09-1.47235E-01 4.42366E-10 2.06954E-10
 -1     23928 1.30940E+00 9.57172E-01 1.68815E-11-1.27956E-01-1.15912E-10-3.62335E-11
 -1     23933 1.30382E+00 9.62759E-01-1.21813E-09-1.23897E-01 6.79838E-11 2.30801E-11
 -1     23934 1.28052E+00 9.86053E-01-1.11350E-09-1.47235E-01-9.31987E-11-1.40659E-11
 -1     23935 1.30940E+00 9.57172E-01 1.91212E-10-1.27956E-01-3.96630E-11-1.18283E-11
 -1     23940 1.30382E+00 9.62759E-01-9.46413E-10-1.23897E-01-1.36616E-10-4.39969E-11
 -1     23941 1.28052E+00 9.86053E-01-9.20137E-10-1.47235E-01-5.04286E-11-2.55334E-12
 -1     23942 1.30940E+00 9.57172E-01 2.46889E-10-1.27956E-01-6.97104E-11-2.20132E-11
 -1     23947 1.30382E+00 9.62759E-01-8.82841E-10-1.23897E-01-3.64843E-11-1.14924E-11
 -1     23948 1.28052E+00 9.86053E-01-8.45706E-10-1.47235E-01-3.67025E-12 4.64889E-12
 -1     23949 1.30940E+00 9.57172E-01 2.69017E-10-1.27956E-01-3.50323E-11-1.11207E-11
 -1     23954 1.30382E+00 9.62759E-01-9.43075E-10-1.23897E-01 5.72633E-14-3.84188E-15
 -1     23955 1.28052E+00 9.86053E-01-8.45708E-10-1.47235E-01 3.66429E-12-4.61317E-12
 -1     23956 1.30940E+00 9.57172E-01 2.68970E-10-1.27956E-01 3.50313E-11 1.11089E-11
 -1     23961 1.30382E+00 9.62759E-01-8.82867E-10-1.23897E-01 3.65208E-11 1.15156E-11
 -1     23962 1.28052E+00 9.86053E-01-9.20148E-10-1.47235E-01 5.04636E-11 2.57386E-12
 -1     23963 1.30940E+00 9.57172E-01 2.46837E-10-1.27956E-01 6.97017E-11 2.20102E-11
 -1     23968 1.30382E+00 9.62759E-01-9.46457E-10-1.23897E-01 1.36619E-10 4.39304E-11
 -1     23969 1.28052E+00 9.86053E-01-1.11348E-09-1.47235E-01 9.31436E-11 1.40869E-11
 -1     23970 1.30940E+00 9.57172E-01 1.91185E-10-1.27956E-01 3.95979E-11 1.17942E-11
 -1     23975 1.30382E+00 9.62759E-01-1.21817E-09-1.23897E-01-6.81036E-11-2.30812E-11
 -1     23976 1.28052E+00 9.86053E-01-1.49300E-09-1.47235E-01-4.42395E-10-2.06914E-10
 -1     23977 1.30940E+00 9.57172E-01 1.68175E-11-1.27956E-01 1.15893E-10 3.62779E-11
 -1     23982 1.30382E+00 9.62759E-01-5.85626E-10-1.23897E-01 1.73661E-11 3.99749E-12
 -1     23983 1.28052E+00 9.86053E-01-1.03992E-09-1.47235E-01-2.08435E-10-1.05377E-10
 -1     23984 1.30940E+00 9.57172E-01 3.04980E-10-1.27956E-01-2.14536E-10-7.03978E-11
 -1     23989 1.30382E+00 9.62759E-01-1.33668E-09-1.23897E-01-1.35253E-10-4.36860E-11
 -1     23993 1.33376E+00 9.32819E-01-1.21468E-09-6.51363E-02 1.99475E-10 8.36005E-12
 -1     23994 1.31881E+00 9.47761E-01-1.03228E-09-9.45307E-02 2.36774E-10 3.25863E-11
 -1     23995 1.34032E+00 9.26251E-01 2.67223E-10-6.72704E-02 2.75983E-10 1.31899E-11
 -1     24000 1.33376E+00 9.32819E-01-7.08626E-10-6.51363E-02 1.58019E-10-2.88792E-11
 -1     24001 1.31881E+00 9.47761E-01-1.49267E-09-9.45307E-02 5.01107E-10 8.93256E-11
 -1     24002 1.34032E+00 9.26251E-01-2.56582E-11-6.72704E-02 2.10569E-11-3.98128E-11
 -1     24007 1.33376E+00 9.32819E-01-1.25679E-09-6.51363E-02 2.14990E-10-2.93246E-11
 -1     24008 1.31881E+00 9.47761E-01-1.12070E-09-9.45307E-02-6.58710E-11-4.76429E-11
 -1     24009 1.34032E+00 9.26251E-01 1.11020E-10-6.72704E-02 6.91849E-11-3.18774E-11
 -1     24014 1.33376E+00 9.32819E-01-1.04763E-09-6.51363E-02 1.84875E-11-5.11510E-11
 -1     24015 1.31881E+00 9.47761E-01-9.33355E-10-9.45307E-02-2.95363E-11-3.09537E-11
 -1     24016 1.34032E+00 9.26251E-01 1.45629E-10-6.72704E-02 5.80920E-12-2.93537E-11
 -1     24021 1.33376E+00 9.32819E-01-1.03782E-09-6.51363E-02 3.69038E-11-2.36134E-11
 -1     24022 1.31881E+00 9.47761E-01-8.62318E-10-9.45307E-02 6.08086E-12-6.79917E-12
 -1     24023 1.34032E+00 9.26251E-01 1.54037E-10-6.72704E-02 1.09238E-13-1.09719E-11
 -1     24028 1.33376E+00 9.32819E-01-1.05501E-09-6.51363E-02 1.48698E-16-2.34644E-14
 -1     24029 1.31881E+00 9.47761E-01-8.62356E-10-9.45307E-02-6.02404E-12 6.80577E-12
 -1     24030 1.34032E+00 9.26251E-01 1.54084E-10-6.72704E-02 1.83492E-14 1.09454E-11
 -1     24035 1.33376E+00 9.32819E-01-1.03774E-09-6.51363E-02-3.68035E-11 2.36084E-11
 -1     24036 1.31881E+00 9.47761E-01-9.33336E-10-9.45307E-02 2.95727E-11 3.09430E-11
 -1     24037 1.34032E+00 9.26251E-01 1.45651E-10-6.72704E-02-5.74546E-12 2.93521E-11
 -1     24042 1.33376E+00 9.32819E-01-1.04757E-09-6.51363E-02-1.83426E-11 5.11505E-11
 -1     24043 1.31881E+00 9.47761E-01-1.12071E-09-9.45307E-02 6.58717E-11 4.76039E-11
 -1     24044 1.34032E+00 9.26251E-01 1.11083E-10-6.72704E-02-6.91284E-11 3.18716E-11
 -1     24049 1.33376E+00 9.32819E-01-1.25669E-09-6.51363E-02-2.14919E-10 2.92963E-11
 -1     24050 1.31881E+00 9.47761E-01-1.49263E-09-9.45307E-02-5.01134E-10-8.93119E-11
 -1     24051 1.34032E+00 9.26251E-01-2.56666E-11-6.72704E-02-2.09791E-11 3.98034E-11
 -1     24056 1.33376E+00 9.32819E-01-7.08477E-10-6.51363E-02-1.57912E-10 2.88878E-11
 -1     24057 1.31881E+00 9.47761E-01-1.03227E-09-9.45307E-02-2.36775E-10-3.26025E-11
 -1     24058 1.34032E+00 9.26251E-01 2.67245E-10-6.72704E-02-2.75924E-10-1.31949E-11
 -1     24063 1.33376E+00 9.32819E-01-1.21467E-09-6.51363E-02-1.99580E-10-8.35915E-12
 -1     24067 1.33895E+00 9.27630E-01-1.10933E-09-3.25731E-02 5.61006E-10 1.39270E-11
 -1     24071 1.33895E+00 9.27630E-01-1.57407E-09-3.25731E-02 6.22897E-10 1.22987E-11
 -1     24075 1.33895E+00 9.27630E-01-1.22662E-09-3.25731E-02 1.44957E-10-2.63578E-11
 -1     24079 1.33895E+00 9.27630E-01-1.06651E-09-3.25731E-02 1.22399E-10-1.86393E-11
 -1     24083 1.33895E+00 9.27630E-01-1.01188E-09-3.25731E-02 1.49512E-11-8.19640E-12
 -1     24087 1.33895E+00 9.27630E-01-1.01189E-09-3.25731E-02-1.48974E-11 8.20259E-12
 -1     24091 1.33895E+00 9.27630E-01-1.06647E-09-3.25731E-02-1.22379E-10 1.86435E-11
 -1     24095 1.33895E+00 9.27630E-01-1.22663E-09-3.25731E-02-1.44927E-10 2.63760E-11
 -1     24099 1.33895E+00 9.27630E-01-1.57404E-09-3.25731E-02-6.22831E-10-1.22933E-11
 -1     24103 1.33895E+00 9.27630E-01-1.10930E-09-3.25731E-02-5.60988E-10-1.39180E-11
 -1     24109 9.44779E-01 1.32180E+00-1.12325E-12-6.12502E-02-9.40992E-11-6.03944E-10
 -1     24110 9.39899E-01 1.32668E+00 1.61756E-09-3.06297E-02-2.61647E-10-3.32001E-09
 -1     24111 9.38799E-01 1.32778E+00 2.47233E-10-6.31934E-02-5.71493E-11-3.66121E-10
 -1     24116 9.44779E-01 1.32180E+00 2.48022E-09-6.12502E-02-1.93839E-10-1.22384E-09
 -1     24117 9.39899E-01 1.32668E+00 3.73389E-09-3.06297E-02-8.77632E-11-1.11077E-09
 -1     24118 9.38799E-01 1.32778E+00 1.13872E-09-6.31934E-02-8.04865E-11-5.09618E-10
 -1     24123 9.44779E-01 1.32180E+00 2.27821E-09-6.12502E-02-1.04811E-10-6.65110E-10
 -1     24124 9.39899E-01 1.32668E+00 2.87848E-09-3.06297E-02-6.82624E-11-8.63547E-10
 -1     24125 9.38799E-01 1.32778E+00 1.00226E-09-6.31934E-02-3.56872E-11-2.27955E-10
 -1     24130 9.44779E-01 1.32180E+00 2.71682E-09-6.12502E-02-9.35269E-11-5.96778E-10
 -1     24131 9.39899E-01 1.32668E+00 2.51328E-09-3.06297E-02-2.77686E-11-3.49531E-10
 -1     24132 9.38799E-01 1.32778E+00 1.00665E-09-6.31934E-02-2.66422E-11-1.71169E-10
 -1     24137 9.44779E-01 1.32180E+00 2.78135E-09-6.12502E-02-3.62047E-11-2.32636E-10
 -1     24138 9.39899E-01 1.32668E+00 2.48928E-09-3.06297E-02-4.99535E-12-6.21471E-11
 -1     24139 9.38799E-01 1.32778E+00 1.06310E-09-6.31934E-02-1.05099E-11-6.74342E-11
 -1     24144 9.44779E-01 1.32180E+00 2.69871E-09-6.12502E-02 3.21837E-14 2.83530E-14
 -1     24145 9.39899E-01 1.32668E+00 2.48935E-09-3.06297E-02 5.02905E-12 6.21454E-11
 -1     24146 9.38799E-01 1.32778E+00 1.06307E-09-6.31934E-02 1.05362E-11 6.75609E-11
 -1     24151 9.44779E-01 1.32180E+00 2.78136E-09-6.12502E-02 3.62326E-11 2.32548E-10
 -1     24152 9.39899E-01 1.32668E+00 2.51326E-09-3.06297E-02 2.77993E-11 3.49566E-10
 -1     24153 9.38799E-01 1.32778E+00 1.00659E-09-6.31934E-02 2.66421E-11 1.71151E-10
 -1     24158 9.44779E-01 1.32180E+00 2.71672E-09-6.12502E-02 9.35372E-11 5.96787E-10
 -1     24159 9.39899E-01 1.32668E+00 2.87843E-09-3.06297E-02 6.82948E-11 8.63422E-10
 -1     24160 9.38799E-01 1.32778E+00 1.00219E-09-6.31934E-02 3.56494E-11 2.27808E-10
 -1     24165 9.44779E-01 1.32180E+00 2.27815E-09-6.12502E-02 1.04771E-10 6.65062E-10
 -1     24166 9.39899E-01 1.32668E+00 3.73385E-09-3.06297E-02 8.78035E-11 1.11092E-09
 -1     24167 9.38799E-01 1.32778E+00 1.13864E-09-6.31934E-02 8.04687E-11 5.09644E-10
 -1     24172 9.44779E-01 1.32180E+00 2.48021E-09-6.12502E-02 1.93792E-10 1.22394E-09
 -1     24173 9.39899E-01 1.32668E+00 1.61754E-09-3.06297E-02 2.61674E-10 3.31996E-09
 -1     24174 9.38799E-01 1.32778E+00 2.47206E-10-6.31934E-02 5.71470E-11 3.66184E-10
 -1     24179 9.44779E-01 1.32180E+00-1.18219E-12-6.12502E-02 9.41246E-11 6.03788E-10
 -1     24183 9.72933E-01 1.29364E+00-1.59227E-11-1.16505E-01-1.86059E-10-5.81254E-10
 -1     24184 9.58830E-01 1.30775E+00 1.62362E-09-8.88910E-02-7.78300E-10-3.23852E-09
 -1     24185 9.67846E-01 1.29873E+00 2.49415E-10-1.20201E-01-1.11901E-10-3.51340E-10
 -1     24190 9.72933E-01 1.29364E+00 2.47497E-09-1.16505E-01-3.82376E-10-1.17817E-09
 -1     24191 9.58830E-01 1.30775E+00 3.73991E-09-8.88910E-02-2.59543E-10-1.08056E-09
 -1     24192 9.67846E-01 1.29873E+00 1.13923E-09-1.20201E-01-1.58017E-10-4.90330E-10
 -1     24197 9.72933E-01 1.29364E+00 2.26635E-09-1.16505E-01-2.05496E-10-6.36192E-10
 -1     24198 9.58830E-01 1.30775E+00 2.88310E-09-8.88910E-02-2.01730E-10-8.39979E-10
 -1     24199 9.67846E-01 1.29873E+00 1.00126E-09-1.20201E-01-6.93244E-11-2.18177E-10
 -1     24204 9.72933E-01 1.29364E+00 2.70278E-09-1.16505E-01-1.84224E-10-5.72567E-10
 -1     24205 9.58830E-01 1.30775E+00 2.51650E-09-8.88910E-02-8.16633E-11-3.39353E-10
 -1     24206 9.67846E-01 1.29873E+00 1.00410E-09-1.20201E-01-5.19784E-11-1.63543E-10
 -1     24211 9.72933E-01 1.29364E+00 2.76850E-09-1.16505E-01-7.13956E-11-2.22360E-10
 -1     24212 9.58830E-01 1.30775E+00 2.49172E-09-8.88910E-02-1.43540E-11-5.95201E-11
 -1     24213 9.67846E-01 1.29873E+00 1.05958E-09-1.20201E-01-2.07120E-11-6.50804E-11
 -1     24218 9.72933E-01 1.29364E+00 2.68388E-09-1.16505E-01-4.89603E-15-3.36121E-14
 -1     24219 9.58830E-01 1.30775E+00 2.49174E-09-8.88910E-02 1.43562E-11 5.95361E-11
 -1     24220 9.67846E-01 1.29873E+00 1.05968E-09-1.20201E-01 2.07071E-11 6.49649E-11
 -1     24225 9.72933E-01 1.29364E+00 2.76853E-09-1.16505E-01 7.13197E-11 2.22367E-10
 -1     24226 9.58830E-01 1.30775E+00 2.51649E-09-8.88910E-02 8.16255E-11 3.39435E-10
 -1     24227 9.67846E-01 1.29873E+00 1.00411E-09-1.20201E-01 5.19649E-11 1.63652E-10
 -1     24232 9.72933E-01 1.29364E+00 2.70282E-09-1.16505E-01 1.84195E-10 5.72613E-10
 -1     24233 9.58830E-01 1.30775E+00 2.88304E-09-8.88910E-02 2.01691E-10 8.39854E-10
 -1     24234 9.67846E-01 1.29873E+00 1.00130E-09-1.20201E-01 6.93092E-11 2.18133E-10
 -1     24239 9.72933E-01 1.29364E+00 2.26634E-09-1.16505E-01 2.05451E-10 6.36228E-10
 -1     24240 9.58830E-01 1.30775E+00 3.73987E-09-8.88910E-02 2.59551E-10 1.08069E-09
 -1     24241 9.67846E-01 1.29873E+00 1.13928E-09-1.20201E-01 1.57985E-10 4.90272E-10
 -1     24246 9.72933E-01 1.29364E+00 2.47501E-09-1.16505E-01 3.82416E-10 1.17788E-09
 -1     24247 9.58830E-01 1.30775E+00 1.62363E-09-8.88910E-02 7.78338E-10 3.23844E-09
 -1     24248 9.67846E-01 1.29873E+00 2.49438E-10-1.20201E-01 1.11878E-10 3.51005E-10
 -1     24253 9.72933E-01 1.29364E+00-1.59075E-11-1.16505E-01 1.86056E-10 5.81090E-10
 -1     24257 1.01678E+00 1.24979E+00 3.09161E-11-1.60355E-01-2.84662E-10-5.49797E-10
 -1     24258 9.94837E-01 1.27174E+00 1.63080E-09-1.38451E-01-1.27554E-09-3.07404E-09
 -1     24259 1.01309E+00 1.25349E+00 2.47669E-10-1.65442E-01-1.79415E-10-3.37550E-10
 -1     24264 1.01678E+00 1.24979E+00 2.49429E-09-1.60355E-01-5.79991E-10-1.10192E-09
 -1     24265 9.94837E-01 1.27174E+00 3.74436E-09-1.38451E-01-4.30831E-10-1.03371E-09
 -1     24266 1.01309E+00 1.25349E+00 1.13981E-09-1.65442E-01-2.48527E-10-4.61519E-10
 -1     24271 1.01678E+00 1.24979E+00 2.30691E-09-1.60355E-01-3.26528E-10-6.05407E-10
 -1     24272 9.94837E-01 1.27174E+00 2.89025E-09-1.38451E-01-3.34964E-10-8.02066E-10
 -1     24273 1.01309E+00 1.25349E+00 1.00621E-09-1.65442E-01-1.18872E-10-2.09594E-10
 -1     24278 1.01678E+00 1.24979E+00 2.74870E-09-1.60355E-01-2.89505E-10-5.40690E-10
 -1     24279 9.94837E-01 1.27174E+00 2.52665E-09-1.38451E-01-1.36537E-10-3.24562E-10
 -1     24280 1.01309E+00 1.25349E+00 1.01440E-09-1.65442E-01-8.87805E-11-1.58013E-10
 -1     24285 1.01678E+00 1.24979E+00 2.81331E-09-1.60355E-01-1.16485E-10-2.12465E-10
 -1     24286 9.94837E-01 1.27174E+00 2.50276E-09-1.38451E-01-2.52846E-11-5.90925E-11
 -1     24287 1.01309E+00 1.25349E+00 1.07290E-09-1.65442E-01-3.43516E-11-6.13898E-11
 -1     24292 1.01678E+00 1.24979E+00 2.73853E-09-1.60355E-01-1.53997E-14 4.21787E-14
 -1     24293 9.94837E-01 1.27174E+00 2.50275E-09-1.38451E-01 2.52467E-11 5.91036E-11
 -1     24294 1.01309E+00 1.25349E+00 1.07289E-09-1.65442E-01 3.43301E-11 6.14798E-11
 -1     24299 1.01678E+00 1.24979E+00 2.81331E-09-1.60355E-01 1.16514E-10 2.12429E-10
 -1     24300 9.94837E-01 1.27174E+00 2.52662E-09-1.38451E-01 1.36520E-10 3.24518E-10
 -1     24301 1.01309E+00 1.25349E+00 1.01434E-09-1.65442E-01 8.88458E-11 1.57962E-10
 -1     24306 1.01678E+00 1.24979E+00 2.74871E-09-1.60355E-01 2.89572E-10 5.40714E-10
 -1     24307 9.94837E-01 1.27174E+00 2.89018E-09-1.38451E-01 3.34939E-10 8.02032E-10
 -1     24308 1.01309E+00 1.25349E+00 1.00619E-09-1.65442E-01 1.18906E-10 2.09691E-10
 -1     24313 1.01678E+00 1.24979E+00 2.30691E-09-1.60355E-01 3.26614E-10 6.05409E-10
 -1     24314 9.94837E-01 1.27174E+00 3.74433E-09-1.38451E-01 4.30813E-10 1.03371E-09
 -1     24315 1.01309E+00 1.25349E+00 1.13983E-09-1.65442E-01 2.48514E-10 4.61495E-10
 -1     24320 1.01678E+00 1.24979E+00 2.49417E-09-1.60355E-01 5.79940E-10 1.10188E-09
 -1     24321 9.94837E-01 1.27174E+00 1.63076E-09-1.38451E-01 1.27556E-09 3.07393E-09
 -1     24322 1.01309E+00 1.25349E+00 2.47577E-10-1.65442E-01 1.79410E-10 3.37640E-10
 -1     24327 1.01678E+00 1.24979E+00 3.08544E-11-1.60355E-01 2.84641E-10 5.49839E-10
 -1     24331 1.07204E+00 1.19454E+00-6.55243E-11-1.88509E-01-3.80330E-10-5.16894E-10
 -1     24332 1.04440E+00 1.22218E+00 1.58969E-09-1.74458E-01-1.78318E-09-2.88192E-09
 -1     24333 1.07009E+00 1.19648E+00 2.44709E-10-1.94489E-01-2.44874E-10-3.21300E-10
 -1     24338 1.07204E+00 1.19454E+00 2.53986E-09-1.88509E-01-7.97759E-10-1.06753E-09
 -1     24339 1.04440E+00 1.22218E+00 3.72594E-09-1.74458E-01-6.20819E-10-9.76495E-10
 -1     24340 1.07009E+00 1.19648E+00 1.14790E-09-1.94489E-01-3.56230E-10-4.64201E-10
 -1     24345 1.07204E+00 1.19454E+00 2.27640E-09-1.88509E-01-4.44399E-10-5.85365E-10
 -1     24346 1.04440E+00 1.22218E+00 2.87446E-09-1.74458E-01-4.92369E-10-7.68585E-10
 -1     24347 1.07009E+00 1.19648E+00 1.02072E-09-1.94489E-01-1.77973E-10-2.22523E-10
 -1     24352 1.07204E+00 1.19454E+00 2.71662E-09-1.88509E-01-4.03327E-10-5.33670E-10
 -1     24353 1.04440E+00 1.22218E+00 2.50827E-09-1.74458E-01-2.11775E-10-3.20626E-10
 -1     24354 1.07009E+00 1.19648E+00 1.02543E-09-1.94489E-01-1.29105E-10-1.62765E-10
 -1     24359 1.07204E+00 1.19454E+00 2.79479E-09-1.88509E-01-1.60772E-10-2.09554E-10
 -1     24360 1.04440E+00 1.22218E+00 2.48382E-09-1.74458E-01-3.94868E-11-5.61464E-11
 -1     24361 1.07009E+00 1.19648E+00 1.08003E-09-1.94489E-01-5.21267E-11-6.63658E-11
 -1     24366 1.07204E+00 1.19454E+00 2.68333E-09-1.88509E-01 2.12600E-15-5.94343E-14
 -1     24367 1.04440E+00 1.22218E+00 2.48384E-09-1.74458E-01 3.94019E-11 5.62353E-11
 -1     24368 1.07009E+00 1.19648E+00 1.08006E-09-1.94489E-01 5.21140E-11 6.62161E-11
 -1     24373 1.07204E+00 1.19454E+00 2.79485E-09-1.88509E-01 1.60725E-10 2.09359E-10
 -1     24374 1.04440E+00 1.22218E+00 2.50823E-09-1.74458E-01 2.11726E-10 3.20505E-10
 -1     24375 1.07009E+00 1.19648E+00 1.02550E-09-1.94489E-01 1.29002E-10 1.62609E-10
 -1     24380 1.07204E+00 1.19454E+00 2.71671E-09-1.88509E-01 4.03243E-10 5.33529E-10
 -1     24381 1.04440E+00 1.22218E+00 2.87445E-09-1.74458E-01 4.92412E-10 7.68595E-10
 -1     24382 1.07009E+00 1.19648E+00 1.02073E-09-1.94489E-01 1.77969E-10 2.22430E-10
 -1     24387 1.07204E+00 1.19454E+00 2.27647E-09-1.88509E-01 4.44293E-10 5.85509E-10
 -1     24388 1.04440E+00 1.22218E+00 3.72595E-09-1.74458E-01 6.20814E-10 9.76416E-10
 -1     24389 1.07009E+00 1.19648E+00 1.14792E-09-1.94489E-01 3.56174E-10 4.64228E-10
 -1     24394 1.07204E+00 1.19454E+00 2.53993E-09-1.88509E-01 7.97770E-10 1.06746E-09
 -1     24395 1.04440E+00 1.22218E+00 1.58969E-09-1.74458E-01 1.78322E-09 2.88188E-09
 -1     24396 1.07009E+00 1.19648E+00 2.44754E-10-1.94489E-01 2.44847E-10 3.21194E-10
 -1     24401 1.07204E+00 1.19454E+00-6.54988E-11-1.88509E-01 3.80416E-10 5.16824E-10
 -1     24405 1.13329E+00 1.13329E+00-2.18467E-10-1.98210E-01-4.22015E-10-4.45944E-10
 -1     24406 1.10266E+00 1.16392E+00 1.57250E-09-1.93389E-01-2.26069E-09-2.64592E-09
 -1     24407 1.13329E+00 1.13329E+00 2.34306E-10-2.04498E-01-2.34760E-10-2.68802E-10
 -1     24412 1.13329E+00 1.13329E+00 2.55557E-09-1.98210E-01-9.09638E-10-9.74675E-10
 -1     24413 1.10266E+00 1.16392E+00 3.75193E-09-1.93389E-01-7.29091E-10-8.61365E-10
 -1     24414 1.13329E+00 1.13329E+00 1.12808E-09-2.04498E-01-3.76441E-10-4.28326E-10
 -1     24419 1.13329E+00 1.13329E+00 2.17767E-09-1.98210E-01-4.39261E-10-5.05040E-10
 -1     24420 1.10266E+00 1.16392E+00 2.87959E-09-1.93389E-01-5.91435E-10-7.00829E-10
 -1     24421 1.13329E+00 1.13329E+00 9.86619E-10-2.04498E-01-1.52659E-10-2.00692E-10
 -1     24426 1.13329E+00 1.13329E+00 2.59245E-09-1.98210E-01-4.22646E-10-4.78120E-10
 -1     24427 1.10266E+00 1.16392E+00 2.48443E-09-1.93389E-01-2.53615E-10-3.02264E-10
 -1     24428 1.13329E+00 1.13329E+00 9.70680E-10-2.04498E-01-1.09338E-10-1.42456E-10
 -1     24433 1.13329E+00 1.13329E+00 2.68277E-09-1.98210E-01-1.51305E-10-1.82795E-10
 -1     24434 1.10266E+00 1.16392E+00 2.44910E-09-1.93389E-01-3.06371E-11-3.84487E-11
 -1     24435 1.13329E+00 1.13329E+00 1.01332E-09-2.04498E-01-5.11160E-11-6.33638E-11
 -1     24440 1.13329E+00 1.13329E+00 2.52157E-09-1.98210E-01-1.28466E-13 1.20412E-13
 -1     24441 1.10266E+00 1.16392E+00 2.44909E-09-1.93389E-01 3.05893E-11 3.84217E-11
 -1     24442 1.13329E+00 1.13329E+00 1.01327E-09-2.04498E-01 5.10354E-11 6.34552E-11
 -1     24447 1.13329E+00 1.13329E+00 2.68264E-09-1.98210E-01 1.51136E-10 1.83111E-10
 -1     24448 1.10266E+00 1.16392E+00 2.48440E-09-1.93389E-01 2.53584E-10 3.02275E-10
 -1     24449 1.13329E+00 1.13329E+00 9.70676E-10-2.04498E-01 1.09418E-10 1.42541E-10
 -1     24454 1.13329E+00 1.13329E+00 2.59233E-09-1.98210E-01 4.22801E-10 4.78225E-10
 -1     24455 1.10266E+00 1.16392E+00 2.87952E-09-1.93389E-01 5.91422E-10 7.00763E-10
 -1     24456 1.13329E+00 1.13329E+00 9.86621E-10-2.04498E-01 1.52642E-10 2.00672E-10
 -1     24461 1.13329E+00 1.13329E+00 2.17761E-09-1.98210E-01 4.39512E-10 5.04843E-10
 -1     24462 1.10266E+00 1.16392E+00 3.75192E-09-1.93389E-01 7.29158E-10 8.61356E-10
 -1     24463 1.13329E+00 1.13329E+00 1.12813E-09-2.04498E-01 3.76550E-10 4.28286E-10
 -1     24468 1.13329E+00 1.13329E+00 2.55561E-09-1.98210E-01 9.09783E-10 9.74567E-10
 -1     24469 1.10266E+00 1.16392E+00 1.57251E-09-1.93389E-01 2.26079E-09 2.64576E-09
 -1     24470 1.13329E+00 1.13329E+00 2.34301E-10-2.04498E-01 2.34795E-10 2.68703E-10
 -1     24475 1.13329E+00 1.13329E+00-2.18379E-10-1.98210E-01 4.21949E-10 4.45924E-10
 -1     24479 1.19454E+00 1.07204E+00 3.05320E-10-1.88509E-01-4.81015E-10-3.56148E-10
 -1     24480 1.16392E+00 1.10266E+00 1.66055E-09-1.93389E-01-2.45736E-09-2.15060E-09
 -1     24481 1.19648E+00 1.07009E+00 2.74134E-10-1.94489E-01-2.95886E-10-2.26788E-10
 -1     24486 1.19454E+00 1.07204E+00 2.34181E-09-1.88509E-01-8.47113E-10-6.36049E-10
 -1     24487 1.16392E+00 1.10266E+00 3.74629E-09-1.93389E-01-8.00762E-10-7.50723E-10
 -1     24488 1.19648E+00 1.07009E+00 1.14741E-09-1.94489E-01-3.18229E-10-2.49480E-10
 -1     24493 1.19454E+00 1.07204E+00 2.39078E-09-1.88509E-01-5.05021E-10-3.87914E-10
 -1     24494 1.16392E+00 1.10266E+00 2.89294E-09-1.93389E-01-6.02860E-10-5.78529E-10
 -1     24495 1.19648E+00 1.07009E+00 1.00915E-09-1.94489E-01-1.30728E-10-1.12032E-10
 -1     24500 1.19454E+00 1.07204E+00 2.85401E-09-1.88509E-01-4.13318E-10-3.17275E-10
 -1     24501 1.16392E+00 1.10266E+00 2.53693E-09-1.93389E-01-2.25021E-10-2.36669E-10
 -1     24502 1.19648E+00 1.07009E+00 1.03963E-09-1.94489E-01-1.12617E-10-9.29107E-11
 -1     24507 1.19454E+00 1.07204E+00 2.88037E-09-1.88509E-01-1.72021E-10-1.33684E-10
 -1     24508 1.16392E+00 1.10266E+00 2.51572E-09-1.93389E-01-4.19969E-11-4.93870E-11
 -1     24509 1.19648E+00 1.07009E+00 1.11500E-09-1.94489E-01-3.26270E-11-2.77049E-11
 -1     24514 1.19454E+00 1.07204E+00 2.91885E-09-1.88509E-01-1.91483E-14 3.97250E-14
 -1     24515 1.16392E+00 1.10266E+00 2.51567E-09-1.93389E-01 4.19136E-11 4.94922E-11
 -1     24516 1.19648E+00 1.07009E+00 1.11499E-09-1.94489E-01 3.25431E-11 2.77493E-11
 -1     24521 1.19454E+00 1.07204E+00 2.88038E-09-1.88509E-01 1.71906E-10 1.33636E-10
 -1     24522 1.16392E+00 1.10266E+00 2.53697E-09-1.93389E-01 2.24968E-10 2.36742E-10
 -1     24523 1.19648E+00 1.07009E+00 1.03958E-09-1.94489E-01 1.12493E-10 9.28904E-11
 -1     24528 1.19454E+00 1.07204E+00 2.85399E-09-1.88509E-01 4.13325E-10 3.17194E-10
 -1     24529 1.16392E+00 1.10266E+00 2.89293E-09-1.93389E-01 6.02929E-10 5.78478E-10
 -1     24530 1.19648E+00 1.07009E+00 1.00911E-09-1.94489E-01 1.30793E-10 1.12008E-10
 -1     24535 1.19454E+00 1.07204E+00 2.39073E-09-1.88509E-01 5.05121E-10 3.87854E-10
 -1     24536 1.16392E+00 1.10266E+00 3.74631E-09-1.93389E-01 8.00860E-10 7.50758E-10
 -1     24537 1.19648E+00 1.07009E+00 1.14736E-09-1.94489E-01 3.18265E-10 2.49518E-10
 -1     24542 1.19454E+00 1.07204E+00 2.34176E-09-1.88509E-01 8.47138E-10 6.36043E-10
 -1     24543 1.16392E+00 1.10266E+00 1.66055E-09-1.93389E-01 2.45742E-09 2.15048E-09
 -1     24544 1.19648E+00 1.07009E+00 2.74120E-10-1.94489E-01 2.95914E-10 2.26803E-10
 -1     24549 1.19454E+00 1.07204E+00 3.05225E-10-1.88509E-01 4.80948E-10 3.56109E-10
 -1     24553 1.24979E+00 1.01678E+00 3.58863E-11-1.60355E-01-5.65862E-10-2.56576E-10
 -1     24554 1.22218E+00 1.04440E+00 1.68246E-09-1.74458E-01-2.72208E-09-1.63440E-09
 -1     24555 1.25349E+00 1.01309E+00 2.47020E-10-1.65442E-01-3.59131E-10-1.36031E-10
 -1     24560 1.24979E+00 1.01678E+00 2.50368E-09-1.60355E-01-1.14405E-09-4.94585E-10
 -1     24561 1.22218E+00 1.04440E+00 3.72382E-09-1.74458E-01-9.76144E-10-5.56736E-10
 -1     24562 1.25349E+00 1.01309E+00 1.13735E-09-1.65442E-01-4.94836E-10-1.81185E-10
 -1     24567 1.24979E+00 1.01678E+00 2.30909E-09-1.60355E-01-6.45098E-10-2.43456E-10
 -1     24568 1.22218E+00 1.04440E+00 2.88999E-09-1.74458E-01-7.24318E-10-4.03968E-10
 -1     24569 1.25349E+00 1.01309E+00 1.00366E-09-1.65442E-01-2.40088E-10-5.78759E-11
 -1     24574 1.24979E+00 1.01678E+00 2.75317E-09-1.60355E-01-5.76366E-10-2.20110E-10
 -1     24575 1.22218E+00 1.04440E+00 2.56224E-09-1.74458E-01-2.80073E-10-1.43590E-10
 -1     24576 1.25349E+00 1.01309E+00 1.01195E-09-1.65442E-01-1.79138E-10-4.64400E-11
 -1     24581 1.24979E+00 1.01678E+00 2.82008E-09-1.60355E-01-2.32788E-10-7.59018E-11
 -1     24582 1.22218E+00 1.04440E+00 2.55176E-09-1.74458E-01-7.44388E-11-3.69771E-11
 -1     24583 1.25349E+00 1.01309E+00 1.07029E-09-1.65442E-01-6.94036E-11-1.86727E-11
 -1     24588 1.24979E+00 1.01678E+00 2.74396E-09-1.60355E-01 1.61708E-14-4.14086E-14
 -1     24589 1.22218E+00 1.04440E+00 2.55179E-09-1.74458E-01 7.44143E-11 3.70051E-11
 -1     24590 1.25349E+00 1.01309E+00 1.07032E-09-1.65442E-01 6.94039E-11 1.86510E-11
 -1     24595 1.24979E+00 1.01678E+00 2.82007E-09-1.60355E-01 2.32728E-10 7.58509E-11
 -1     24596 1.22218E+00 1.04440E+00 2.56225E-09-1.74458E-01 2.80017E-10 1.43513E-10
 -1     24597 1.25349E+00 1.01309E+00 1.01193E-09-1.65442E-01 1.79144E-10 4.63682E-11
 -1     24602 1.24979E+00 1.01678E+00 2.75319E-09-1.60355E-01 5.76302E-10 2.20057E-10
 -1     24603 1.22218E+00 1.04440E+00 2.88998E-09-1.74458E-01 7.24399E-10 4.03921E-10
 -1     24604 1.25349E+00 1.01309E+00 1.00365E-09-1.65442E-01 2.40082E-10 5.78961E-11
 -1     24609 1.24979E+00 1.01678E+00 2.30915E-09-1.60355E-01 6.45233E-10 2.43531E-10
 -1     24610 1.22218E+00 1.04440E+00 3.72382E-09-1.74458E-01 9.76196E-10 5.56643E-10
 -1     24611 1.25349E+00 1.01309E+00 1.13738E-09-1.65442E-01 4.94959E-10 1.81205E-10
 -1     24616 1.24979E+00 1.01678E+00 2.50369E-09-1.60355E-01 1.14417E-09 4.94709E-10
 -1     24617 1.22218E+00 1.04440E+00 1.68245E-09-1.74458E-01 2.72204E-09 1.63444E-09
 -1     24618 1.25349E+00 1.01309E+00 2.47079E-10-1.65442E-01 3.59201E-10 1.36127E-10
 -1     24623 1.24979E+00 1.01678E+00 3.59323E-11-1.60355E-01 5.65717E-10 2.56694E-10
 -1     24627 1.29364E+00 9.72933E-01-3.72350E-10-1.16505E-01-6.26792E-10-2.03156E-10
 -1     24628 1.27174E+00 9.94837E-01 1.54462E-09-1.38451E-01-3.28484E-09-1.31753E-09
 -1     24629 1.29873E+00 9.67846E-01 2.27263E-10-1.20201E-01-3.83704E-10-1.23906E-10
 -1     24634 1.29364E+00 9.72933E-01 2.65957E-09-1.16505E-01-1.42772E-09-4.68537E-10
 -1     24635 1.27174E+00 9.94837E-01 3.74466E-09-1.38451E-01-1.08700E-09-3.94528E-10
 -1     24636 1.29873E+00 9.67846E-01 1.14401E-09-1.20201E-01-6.56588E-10-2.14666E-10
 -1     24641 1.29364E+00 9.72933E-01 2.14532E-09-1.16505E-01-7.28519E-10-2.41845E-10
 -1     24642 1.27174E+00 9.94837E-01 2.87042E-09-1.38451E-01-8.99104E-10-3.19548E-10
 -1     24643 1.29873E+00 9.67846E-01 1.01708E-09-1.20201E-01-3.23874E-10-1.06519E-10
 -1     24648 1.29364E+00 9.72933E-01 2.56623E-09-1.16505E-01-7.11786E-10-2.33727E-10
 -1     24649 1.27174E+00 9.94837E-01 2.46951E-09-1.38451E-01-4.03439E-10-1.30032E-10
 -1     24650 1.29873E+00 9.67846E-01 9.96531E-10-1.20201E-01-2.22495E-10-7.28909E-11
 -1     24655 1.29364E+00 9.72933E-01 2.68347E-09-1.16505E-01-2.66764E-10-8.82626E-11
 -1     24656 1.27174E+00 9.94837E-01 2.43291E-09-1.38451E-01-5.11252E-11-9.55170E-12
 -1     24657 1.29873E+00 9.67846E-01 1.03237E-09-1.20201E-01-1.03607E-10-3.39178E-11
 -1     24662 1.29364E+00 9.72933E-01 2.45476E-09-1.16505E-01 1.56645E-13 2.39097E-14
 -1     24663 1.27174E+00 9.94837E-01 2.43298E-09-1.38451E-01 5.11535E-11 9.59956E-12
 -1     24664 1.29873E+00 9.67846E-01 1.03236E-09-1.20201E-01 1.03776E-10 3.39628E-11
 -1     24669 1.29364E+00 9.72933E-01 2.68360E-09-1.16505E-01 2.66803E-10 8.83043E-11
 -1     24670 1.27174E+00 9.94837E-01 2.46958E-09-1.38451E-01 4.03417E-10 1.30033E-10
 -1     24671 1.29873E+00 9.67846E-01 9.96560E-10-1.20201E-01 2.22470E-10 7.29094E-11
 -1     24676 1.29364E+00 9.72933E-01 2.56624E-09-1.16505E-01 7.11710E-10 2.33763E-10
 -1     24677 1.27174E+00 9.94837E-01 2.87047E-09-1.38451E-01 8.99068E-10 3.19569E-10
 -1     24678 1.29873E+00 9.67846E-01 1.01703E-09-1.20201E-01 3.23790E-10 1.06478E-10
 -1     24683 1.29364E+00 9.72933E-01 2.14526E-09-1.16505E-01 7.28459E-10 2.41803E-10
 -1     24684 1.27174E+00 9.94837E-01 3.74464E-09-1.38451E-01 1.08709E-09 3.94533E-10
 -1     24685 1.29873E+00 9.67846E-01 1.14399E-09-1.20201E-01 6.56512E-10 2.14678E-10
 -1     24690 1.29364E+00 9.72933E-01 2.65946E-09-1.16505E-01 1.42758E-09 4.68539E-10
 -1     24691 1.27174E+00 9.94837E-01 1.54463E-09-1.38451E-01 3.28484E-09 1.31761E-09
 -1     24692 1.29873E+00 9.67846E-01 2.27215E-10-1.20201E-01 3.83751E-10 1.23880E-10
 -1     24697 1.29364E+00 9.72933E-01-3.72454E-10-1.16505E-01 6.26973E-10 2.03151E-10
 -1     24701 1.32180E+00 9.44779E-01-2.66783E-11-6.12503E-02-5.72080E-10-1.31277E-10
 -1     24702 1.30775E+00 9.58830E-01 1.55644E-09-8.88910E-02-3.41454E-09-8.69593E-10
 -1     24703 1.32778E+00 9.38799E-01 2.44065E-10-6.31934E-02-3.17185E-10-1.12447E-10
 -1     24708 1.32180E+00 9.44779E-01 2.46770E-09-6.12503E-02-1.15302E-09-3.06980E-10
 -1     24709 1.30775E+00 9.58830E-01 3.75430E-09-8.88910E-02-1.06145E-09-3.26329E-10
 -1     24710 1.32778E+00 9.38799E-01 1.12272E-09-6.31934E-02-4.48315E-10-1.68895E-10
 -1     24715 1.32180E+00 9.44779E-01 2.23649E-09-6.12503E-02-5.80558E-10-2.12723E-10
 -1     24716 1.30775E+00 9.58830E-01 2.86844E-09-8.88910E-02-8.74117E-10-2.79309E-10
 -1     24717 1.32778E+00 9.38799E-01 9.74622E-10-6.31934E-02-1.68250E-10-1.15572E-10
 -1     24722 1.32180E+00 9.44779E-01 2.66581E-09-6.12503E-02-5.32420E-10-1.85105E-10
 -1     24723 1.30775E+00 9.58830E-01 2.45804E-09-8.88910E-02-3.76163E-10-1.39047E-10
 -1     24724 1.32778E+00 9.38799E-01 9.69920E-10-6.31934E-02-1.28770E-10-8.14728E-11
 -1     24729 1.32180E+00 9.44779E-01 2.72925E-09-6.12503E-02-1.95002E-10-8.91432E-11
 -1     24730 1.30775E+00 9.58830E-01 2.41837E-09-8.88910E-02-3.38204E-11-2.41224E-11
 -1     24731 1.32778E+00 9.38799E-01 1.02183E-09-6.31934E-02-5.36840E-11-3.13144E-11
 -1     24736 1.32180E+00 9.44779E-01 2.63672E-09-6.12503E-02-9.51949E-15 8.06330E-16
 -1     24737 1.30775E+00 9.58830E-01 2.41836E-09-8.88910E-02 3.38750E-11 2.41303E-11
 -1     24738 1.32778E+00 9.38799E-01 1.02183E-09-6.31934E-02 5.37366E-11 3.13008E-11
 -1     24743 1.32180E+00 9.44779E-01 2.72913E-09-6.12503E-02 1.95033E-10 8.91312E-11
 -1     24744 1.30775E+00 9.58830E-01 2.45807E-09-8.88910E-02 3.76097E-10 1.39046E-10
 -1     24745 1.32778E+00 9.38799E-01 9.69939E-10-6.31934E-02 1.28829E-10 8.14570E-11
 -1     24750 1.32180E+00 9.44779E-01 2.66581E-09-6.12503E-02 5.32362E-10 1.85083E-10
 -1     24751 1.30775E+00 9.58830E-01 2.86849E-09-8.88910E-02 8.74114E-10 2.79314E-10
 -1     24752 1.32778E+00 9.38799E-01 9.74672E-10-6.31934E-02 1.68266E-10 1.15554E-10
 -1     24757 1.32180E+00 9.44779E-01 2.23656E-09-6.12503E-02 5.80446E-10 2.12709E-10
 -1     24758 1.30775E+00 9.58830E-01 3.75426E-09-8.88910E-02 1.06141E-09 3.26338E-10
 -1     24759 1.32778E+00 9.38799E-01 1.12276E-09-6.31934E-02 4.48350E-10 1.68885E-10
 -1     24764 1.32180E+00 9.44779E-01 2.46775E-09-6.12503E-02 1.15310E-09 3.06957E-10
 -1     24765 1.30775E+00 9.58830E-01 1.55646E-09-8.88910E-02 3.41454E-09 8.69550E-10
 -1     24766 1.32778E+00 9.38799E-01 2.44130E-10-6.31934E-02 3.17204E-10 1.12451E-10
 -1     24771 1.32180E+00 9.44779E-01-2.64985E-11-6.12503E-02 5.72064E-10 1.31296E-10
 -1     24775 1.32668E+00 9.39899E-01 1.76691E-09-3.06298E-02-2.93473E-09-2.93681E-10
 -1     24779 1.32668E+00 9.39899E-01 3.71650E-09-3.06298E-02-1.01870E-09-1.61854E-10
 -1     24783 1.32668E+00 9.39899E-01 2.88550E-09-3.06298E-02-6.90587E-10-1.32821E-10
 -1     24787 1.32668E+00 9.39899E-01 2.58298E-09-3.06298E-02-2.10324E-10-7.16547E-11
 -1     24791 1.32668E+00 9.39899E-01 2.58295E-09-3.06298E-02-7.86380E-11-2.33842E-11
 -1     24795 1.32668E+00 9.39899E-01 2.58296E-09-3.06298E-02 7.86558E-11 2.34047E-11
 -1     24799 1.32668E+00 9.39899E-01 2.58300E-09-3.06298E-02 2.10300E-10 7.16684E-11
 -1     24803 1.32668E+00 9.39899E-01 2.88557E-09-3.06298E-02 6.90647E-10 1.32823E-10
 -1     24807 1.32668E+00 9.39899E-01 3.71651E-09-3.06298E-02 1.01867E-09 1.61864E-10
 -1     24811 1.32668E+00 9.39899E-01 1.76699E-09-3.06298E-02 2.93475E-09 2.93682E-10
 -1     24817 9.55700E-01 1.31088E+00-6.81760E-09-5.77018E-02 3.21388E-10 2.07099E-09
 -1     24818 9.51103E-01 1.31547E+00-7.88478E-09-2.88553E-02 4.74632E-10 6.01911E-09
 -1     24819 9.50239E-01 1.31634E+00 4.77619E-10-5.94761E-02 2.56374E-10 1.64062E-09
 -1     24824 9.55700E-01 1.31088E+00-6.89416E-09-5.77018E-02 3.03864E-10 1.92935E-09
 -1     24825 9.51103E-01 1.31547E+00-1.34416E-08-2.88553E-02 3.42365E-10 4.34707E-09
 -1     24826 9.50239E-01 1.31634E+00-2.38766E-09-5.94761E-02-1.78500E-11-1.08210E-10
 -1     24831 9.55700E-01 1.31088E+00-1.02286E-08-5.77018E-02 2.74554E-10 1.74502E-09
 -1     24832 9.51103E-01 1.31547E+00-1.06062E-08-2.88553E-02 5.48923E-11 6.96654E-10
 -1     24833 9.50239E-01 1.31634E+00-1.36890E-09-5.94761E-02-3.26850E-11-1.99207E-10
 -1     24838 9.55700E-01 1.31088E+00-9.96274E-09-5.77018E-02 1.58570E-11 1.26110E-10
 -1     24839 9.51103E-01 1.31547E+00-8.89951E-09-2.88553E-02-3.31029E-11-4.24624E-10
 -1     24840 9.50239E-01 1.31634E+00-1.00876E-09-5.94761E-02-4.28229E-11-2.61303E-10
 -1     24845 9.55700E-01 1.31088E+00-9.06859E-09-5.77018E-02-3.54323E-11-2.04480E-10
 -1     24846 9.51103E-01 1.31547E+00-8.12330E-09-2.88553E-02-1.36674E-11-1.75760E-10
 -1     24847 9.50239E-01 1.31634E+00-9.93270E-10-5.94761E-02-2.19546E-11-1.34594E-10
 -1     24852 9.55700E-01 1.31088E+00-8.89638E-09-5.77018E-02 1.16346E-14-9.32239E-15
 -1     24853 9.51103E-01 1.31547E+00-8.12332E-09-2.88553E-02 1.36847E-11 1.75785E-10
 -1     24854 9.50239E-01 1.31634E+00-9.93298E-10-5.94761E-02 2.19772E-11 1.34627E-10
 -1     24859 9.55700E-01 1.31088E+00-9.06851E-09-5.77018E-02 3.54188E-11 2.04487E-10
 -1     24860 9.51103E-01 1.31547E+00-8.89946E-09-2.88553E-02 3.31182E-11 4.24697E-10
 -1     24861 9.50239E-01 1.31634E+00-1.00867E-09-5.94761E-02 4.28123E-11 2.61153E-10
 -1     24866 9.55700E-01 1.31088E+00-9.96263E-09-5.77018E-02-1.58841E-11-1.26227E-10
 -1     24867 9.51103E-01 1.31547E+00-1.06062E-08-2.88553E-02-5.48775E-11-6.96632E-10
 -1     24868 9.50239E-01 1.31634E+00-1.36885E-09-5.94761E-02 3.26523E-11 1.99070E-10
 -1     24873 9.55700E-01 1.31088E+00-1.02287E-08-5.77018E-02-2.74564E-10-1.74504E-09
 -1     24874 9.51103E-01 1.31547E+00-1.34416E-08-2.88553E-02-3.42353E-10-4.34716E-09
 -1     24875 9.50239E-01 1.31634E+00-2.38765E-09-5.94761E-02 1.78270E-11 1.08285E-10
 -1     24880 9.55700E-01 1.31088E+00-6.89413E-09-5.77018E-02-3.03873E-10-1.92942E-09
 -1     24881 9.51103E-01 1.31547E+00-7.88473E-09-2.88553E-02-4.74630E-10-6.01916E-09
 -1     24882 9.50239E-01 1.31634E+00 4.77656E-10-5.94761E-02-2.56385E-10-1.64063E-09
 -1     24887 9.55700E-01 1.31088E+00-6.81754E-09-5.77018E-02-3.21414E-10-2.07099E-09
 -1     24891 9.82223E-01 1.28435E+00-6.83621E-09-1.09755E-01 6.39752E-10 2.00595E-09
 -1     24892 9.68937E-01 1.29764E+00-7.86597E-09-8.37412E-02 1.41286E-09 5.86797E-09
 -1     24893 9.77577E-01 1.28900E+00 4.82271E-10-1.13130E-01 5.12832E-10 1.59020E-09
 -1     24898 9.82223E-01 1.28435E+00-6.89979E-09-1.09755E-01 6.09713E-10 1.87066E-09
 -1     24899 9.68937E-01 1.29764E+00-1.34282E-08-8.37412E-02 1.02182E-09 4.24438E-09
 -1     24900 9.77577E-01 1.28900E+00-2.39263E-09-1.13130E-01-2.89950E-11-9.51717E-11
 -1     24905 9.82223E-01 1.28435E+00-1.02527E-08-1.09755E-01 5.55255E-10 1.70329E-09
 -1     24906 9.68937E-01 1.29764E+00-1.05986E-08-8.37412E-02 1.66707E-10 6.82976E-10
 -1     24907 9.77577E-01 1.28900E+00-1.38034E-09-1.13130E-01-5.81123E-11-1.80986E-10
 -1     24912 9.82223E-01 1.28435E+00-9.99217E-09-1.09755E-01 4.23002E-11 1.39393E-10
 -1     24913 9.68937E-01 1.29764E+00-8.89699E-09-8.37412E-02-9.64203E-11-4.13000E-10
 -1     24914 9.77577E-01 1.28900E+00-1.02649E-09-1.13130E-01-7.96081E-11-2.42395E-10
 -1     24919 9.82223E-01 1.28435E+00-9.09657E-09-1.09755E-01-6.30240E-11-1.85644E-10
 -1     24920 9.68937E-01 1.29764E+00-8.12307E-09-8.37412E-02-3.97080E-11-1.70151E-10
 -1     24921 9.77577E-01 1.28900E+00-1.01516E-09-1.13130E-01-4.17476E-11-1.26942E-10
 -1     24926 9.82223E-01 1.28435E+00-8.93077E-09-1.09755E-01-2.46388E-14 4.79968E-14
 -1     24927 9.68937E-01 1.29764E+00-8.12307E-09-8.37412E-02 3.96587E-11 1.70176E-10
 -1     24928 9.77577E-01 1.28900E+00-1.01505E-09-1.13130E-01 4.17075E-11 1.26865E-10
 -1     24933 9.82223E-01 1.28435E+00-9.09656E-09-1.09755E-01 6.30155E-11 1.85616E-10
 -1     24934 9.68937E-01 1.29764E+00-8.89695E-09-8.37412E-02 9.63873E-11 4.12952E-10
 -1     24935 9.77577E-01 1.28900E+00-1.02653E-09-1.13130E-01 7.95848E-11 2.42443E-10
 -1     24940 9.82223E-01 1.28435E+00-9.99216E-09-1.09755E-01-4.22883E-11-1.39473E-10
 -1     24941 9.68937E-01 1.29764E+00-1.05986E-08-8.37412E-02-1.66707E-10-6.82993E-10
 -1     24942 9.77577E-01 1.28900E+00-1.38034E-09-1.13130E-01 5.81047E-11 1.80925E-10
 -1     24947 9.82223E-01 1.28435E+00-1.02526E-08-1.09755E-01-5.55217E-10-1.70351E-09
 -1     24948 9.68937E-01 1.29764E+00-1.34281E-08-8.37412E-02-1.02183E-09-4.24436E-09
 -1     24949 9.77577E-01 1.28900E+00-2.39265E-09-1.13130E-01 2.89760E-11 9.51312E-11
 -1     24954 9.82223E-01 1.28435E+00-6.89976E-09-1.09755E-01-6.09743E-10-1.87073E-09
 -1     24955 9.68937E-01 1.29764E+00-7.86596E-09-8.37412E-02-1.41288E-09-5.86803E-09
 -1     24956 9.77577E-01 1.28900E+00 4.82285E-10-1.13130E-01-5.12811E-10-1.59051E-09
 -1     24961 9.82223E-01 1.28435E+00-6.83624E-09-1.09755E-01-6.39744E-10-2.00605E-09
 -1     24965 1.02353E+00 1.24304E+00-6.72232E-09-1.51065E-01 9.29090E-10 1.87432E-09
 -1     24966 1.00286E+00 1.26372E+00-7.88826E-09-1.30430E-01 2.31163E-09 5.58232E-09
 -1     24967 1.02016E+00 1.24642E+00 4.51662E-10-1.55711E-01 7.32032E-10 1.47602E-09
 -1     24972 1.02353E+00 1.24304E+00-6.87208E-09-1.51065E-01 8.71755E-10 1.73806E-09
 -1     24973 1.00286E+00 1.26372E+00-1.34318E-08-1.30430E-01 1.65475E-09 4.01566E-09
 -1     24974 1.02016E+00 1.24642E+00-2.39183E-09-1.55711E-01-6.50194E-11-1.00743E-10
 -1     24979 1.02353E+00 1.24304E+00-1.01739E-08-1.51065E-01 7.77240E-10 1.54800E-09
 -1     24980 1.00286E+00 1.26372E+00-1.05895E-08-1.30430E-01 2.53314E-10 6.33743E-10
 -1     24981 1.02016E+00 1.24642E+00-1.36711E-09-1.55711E-01-1.08247E-10-1.88022E-10
 -1     24986 1.02353E+00 1.24304E+00-9.89740E-09-1.51065E-01 4.11779E-11 1.03654E-10
 -1     24987 1.00286E+00 1.26372E+00-8.88166E-09-1.30430E-01-1.71375E-10-4.00318E-10
 -1     24988 1.02016E+00 1.24642E+00-1.00331E-09-1.55711E-01-1.32298E-10-2.42871E-10
 -1     24993 1.02353E+00 1.24304E+00-9.01948E-09-1.51065E-01-1.01519E-10-1.89578E-10
 -1     24994 1.00286E+00 1.26372E+00-8.10559E-09-1.30430E-01-7.16683E-11-1.68048E-10
 -1     24995 1.02016E+00 1.24642E+00-9.85786E-10-1.55711E-01-6.50295E-11-1.22021E-10
 -1     25000 1.02353E+00 1.24304E+00-8.83930E-09-1.51065E-01-6.60273E-15-2.89143E-14
 -1     25001 1.00286E+00 1.26372E+00-8.10559E-09-1.30430E-01 7.17047E-11 1.67991E-10
 -1     25002 1.02016E+00 1.24642E+00-9.85803E-10-1.55711E-01 6.50119E-11 1.22048E-10
 -1     25007 1.02353E+00 1.24304E+00-9.01943E-09-1.51065E-01 1.01546E-10 1.89576E-10
 -1     25008 1.00286E+00 1.26372E+00-8.88167E-09-1.30430E-01 1.71408E-10 4.00299E-10
 -1     25009 1.02016E+00 1.24642E+00-1.00326E-09-1.55711E-01 1.32366E-10 2.42810E-10
 -1     25014 1.02353E+00 1.24304E+00-9.89735E-09-1.51065E-01-4.11498E-11-1.03656E-10
 -1     25015 1.00286E+00 1.26372E+00-1.05894E-08-1.30430E-01-2.53252E-10-6.33760E-10
 -1     25016 1.02016E+00 1.24642E+00-1.36714E-09-1.55711E-01 1.08304E-10 1.88121E-10
 -1     25021 1.02353E+00 1.24304E+00-1.01739E-08-1.51065E-01-7.77284E-10-1.54792E-09
 -1     25022 1.00286E+00 1.26372E+00-1.34318E-08-1.30430E-01-1.65477E-09-4.01578E-09
 -1     25023 1.02016E+00 1.24642E+00-2.39186E-09-1.55711E-01 6.49805E-11 1.00723E-10
 -1     25028 1.02353E+00 1.24304E+00-6.87203E-09-1.51065E-01-8.71807E-10-1.73793E-09
 -1     25029 1.00286E+00 1.26372E+00-7.88829E-09-1.30430E-01-2.31168E-09-5.58235E-09
 -1     25030 1.02016E+00 1.24642E+00 4.51640E-10-1.55711E-01-7.32071E-10-1.47591E-09
 -1     25035 1.02353E+00 1.24304E+00-6.72228E-09-1.51065E-01-9.29140E-10-1.87428E-09
 -1     25039 1.07559E+00 1.19099E+00-6.93226E-09-1.77588E-01 1.21806E-09 1.70026E-09
 -1     25040 1.04955E+00 1.21703E+00-7.90891E-09-1.64351E-01 3.09333E-09 5.09871E-09
 -1     25041 1.07381E+00 1.19276E+00 5.08900E-10-1.83049E-01 9.52289E-10 1.35016E-09
 -1     25046 1.07559E+00 1.19099E+00-6.89736E-09-1.77588E-01 1.11087E-09 1.55780E-09
 -1     25047 1.04955E+00 1.21703E+00-1.35188E-08-1.64351E-01 2.25756E-09 3.74257E-09
 -1     25048 1.07381E+00 1.19276E+00-2.43838E-09-1.83049E-01-1.03598E-10-1.14458E-10
 -1     25053 1.07559E+00 1.19099E+00-1.03829E-08-1.77588E-01 1.06037E-09 1.48416E-09
 -1     25054 1.04955E+00 1.21703E+00-1.07439E-08-1.64351E-01 3.55237E-10 6.26409E-10
 -1     25055 1.07381E+00 1.19276E+00-1.47602E-09-1.83049E-01-1.29151E-10-1.53400E-10
 -1     25060 1.07559E+00 1.19099E+00-1.02528E-08-1.77588E-01 9.35229E-11 1.47984E-10
 -1     25061 1.04955E+00 1.21703E+00-9.08634E-09-1.64351E-01-2.29768E-10-3.45095E-10
 -1     25062 1.07381E+00 1.19276E+00-1.18011E-09-1.83049E-01-1.46895E-10-1.87864E-10
 -1     25067 1.07559E+00 1.19099E+00-9.41084E-09-1.77588E-01-1.01559E-10-1.32858E-10
 -1     25068 1.04955E+00 1.21703E+00-8.33315E-09-1.64351E-01-8.74545E-11-1.33395E-10
 -1     25069 1.07381E+00 1.19276E+00-1.20447E-09-1.83049E-01-8.05441E-11-1.05894E-10
 -1     25074 1.07559E+00 1.19099E+00-9.31871E-09-1.77588E-01-7.63357E-14-1.32314E-13
 -1     25075 1.04955E+00 1.21703E+00-8.33314E-09-1.64351E-01 8.74533E-11 1.33321E-10
 -1     25076 1.07381E+00 1.19276E+00-1.20451E-09-1.83049E-01 8.04748E-11 1.05776E-10
 -1     25081 1.07559E+00 1.19099E+00-9.41089E-09-1.77588E-01 1.01437E-10 1.32818E-10
 -1     25082 1.04955E+00 1.21703E+00-9.08629E-09-1.64351E-01 2.29727E-10 3.45139E-10
 -1     25083 1.07381E+00 1.19276E+00-1.18006E-09-1.83049E-01 1.46780E-10 1.87788E-10
 -1     25088 1.07559E+00 1.19099E+00-1.02528E-08-1.77588E-01-9.36224E-11-1.47981E-10
 -1     25089 1.04955E+00 1.21703E+00-1.07439E-08-1.64351E-01-3.55277E-10-6.26375E-10
 -1     25090 1.07381E+00 1.19276E+00-1.47591E-09-1.83049E-01 1.29035E-10 1.53359E-10
 -1     25095 1.07559E+00 1.19099E+00-1.03829E-08-1.77588E-01-1.06040E-09-1.48427E-09
 -1     25096 1.04955E+00 1.21703E+00-1.35188E-08-1.64351E-01-2.25756E-09-3.74253E-09
 -1     25097 1.07381E+00 1.19276E+00-2.43834E-09-1.83049E-01 1.03622E-10 1.14463E-10
 -1     25102 1.07559E+00 1.19099E+00-6.89738E-09-1.77588E-01-1.11087E-09-1.55781E-09
 -1     25103 1.04955E+00 1.21703E+00-7.90891E-09-1.64351E-01-3.09339E-09-5.09873E-09
 -1     25104 1.07381E+00 1.19276E+00 5.08913E-10-1.83049E-01-9.52276E-10-1.35023E-09
 -1     25109 1.07559E+00 1.19099E+00-6.93234E-09-1.77588E-01-1.21807E-09-1.70020E-09
 -1     25113 1.13329E+00 1.13329E+00-7.27547E-09-1.86727E-01 1.54599E-09 1.52035E-09
 -1     25114 1.10443E+00 1.16214E+00-7.69940E-09-1.82185E-01 3.77890E-09 4.40030E-09
 -1     25115 1.13329E+00 1.13329E+00 5.88271E-10-1.92469E-01 1.28264E-09 1.22014E-09
 -1     25120 1.13329E+00 1.13329E+00-6.86426E-09-1.86727E-01 1.45031E-09 1.37959E-09
 -1     25121 1.10443E+00 1.16214E+00-1.35183E-08-1.82185E-01 2.97137E-09 3.44439E-09
 -1     25122 1.13329E+00 1.13329E+00-2.50602E-09-1.92469E-01-1.26301E-11-8.07487E-11
 -1     25127 1.13329E+00 1.13329E+00-1.06321E-08-1.86727E-01 1.51170E-09 1.44818E-09
 -1     25128 1.10443E+00 1.16214E+00-1.09243E-08-1.82185E-01 5.94755E-10 6.60586E-10
 -1     25129 1.13329E+00 1.13329E+00-1.60776E-09-1.92469E-01-2.16810E-11-7.98813E-11
 -1     25134 1.13329E+00 1.13329E+00-1.06205E-08-1.86727E-01 2.61714E-10 2.14232E-10
 -1     25135 1.10443E+00 1.16214E+00-9.38661E-09-1.82185E-01-2.02955E-10-2.63677E-10
 -1     25136 1.13329E+00 1.13329E+00-1.37192E-09-1.92469E-01-7.21980E-11-1.09181E-10
 -1     25141 1.13329E+00 1.13329E+00-9.73063E-09-1.86727E-01-4.16234E-11-6.06206E-11
 -1     25142 1.10443E+00 1.16214E+00-8.68049E-09-1.82185E-01-4.79631E-11-6.67848E-11
 -1     25143 1.13329E+00 1.13329E+00-1.43497E-09-1.92469E-01-7.05695E-11-8.30390E-11
 -1     25148 1.13329E+00 1.13329E+00-9.73646E-09-1.86727E-01 5.24545E-14 5.35976E-14
 -1     25149 1.10443E+00 1.16214E+00-8.68054E-09-1.82185E-01 4.79484E-11 6.67646E-11
 -1     25150 1.13329E+00 1.13329E+00-1.43501E-09-1.92469E-01 7.05528E-11 8.31938E-11
 -1     25155 1.13329E+00 1.13329E+00-9.73074E-09-1.86727E-01 4.17946E-11 6.06424E-11
 -1     25156 1.10443E+00 1.16214E+00-9.38659E-09-1.82185E-01 2.02945E-10 2.63616E-10
 -1     25157 1.13329E+00 1.13329E+00-1.37201E-09-1.92469E-01 7.23431E-11 1.09310E-10
 -1     25162 1.13329E+00 1.13329E+00-1.06205E-08-1.86727E-01-2.61601E-10-2.14178E-10
 -1     25163 1.10443E+00 1.16214E+00-1.09242E-08-1.82185E-01-5.94791E-10-6.60642E-10
 -1     25164 1.13329E+00 1.13329E+00-1.60781E-09-1.92469E-01 2.18257E-11 7.99261E-11
 -1     25169 1.13329E+00 1.13329E+00-1.06322E-08-1.86727E-01-1.51165E-09-1.44799E-09
 -1     25170 1.10443E+00 1.16214E+00-1.35182E-08-1.82185E-01-2.97131E-09-3.44437E-09
 -1     25171 1.13329E+00 1.13329E+00-2.50599E-09-1.92469E-01 1.27915E-11 8.07838E-11
 -1     25176 1.13329E+00 1.13329E+00-6.86430E-09-1.86727E-01-1.45028E-09-1.37967E-09
 -1     25177 1.10443E+00 1.16214E+00-7.69940E-09-1.82185E-01-3.77895E-09-4.40033E-09
 -1     25178 1.13329E+00 1.13329E+00 5.88254E-10-1.92469E-01-1.28258E-09-1.22029E-09
 -1     25183 1.13329E+00 1.13329E+00-7.27544E-09-1.86727E-01-1.54597E-09-1.52032E-09
 -1     25187 1.19099E+00 1.07559E+00-6.15661E-09-1.77588E-01 1.66214E-09 1.20649E-09
 -1     25188 1.16214E+00 1.10443E+00-7.92643E-09-1.82185E-01 4.72182E-09 3.92545E-09
 -1     25189 1.19276E+00 1.07381E+00 3.01183E-10-1.83049E-01 1.26650E-09 8.96944E-10
 -1     25194 1.19099E+00 1.07559E+00-6.99025E-09-1.77588E-01 1.58294E-09 1.12285E-09
 -1     25195 1.16214E+00 1.10443E+00-1.33731E-08-1.82185E-01 3.30370E-09 2.75235E-09
 -1     25196 1.19276E+00 1.07381E+00-2.20832E-09-1.83049E-01-9.15776E-11-9.07186E-11
 -1     25201 1.19099E+00 1.07559E+00-9.65188E-09-1.77588E-01 1.07245E-09 7.64484E-10
 -1     25202 1.16214E+00 1.10443E+00-1.04465E-08-1.82185E-01 4.97317E-10 3.92971E-10
 -1     25203 1.19276E+00 1.07381E+00-9.99458E-10-1.83049E-01-2.89485E-10-2.26694E-10
 -1     25208 1.19099E+00 1.07559E+00-8.94893E-09-1.77588E-01-1.27236E-10-1.00381E-10
 -1     25209 1.16214E+00 1.10443E+00-8.68297E-09-1.82185E-01-3.39544E-10-3.09109E-10
 -1     25210 1.19276E+00 1.07381E+00-4.47694E-10-1.83049E-01-3.63270E-10-2.73115E-10
 -1     25215 1.19099E+00 1.07559E+00-8.00748E-09-1.77588E-01-3.19848E-10-2.35025E-10
 -1     25216 1.16214E+00 1.10443E+00-7.88369E-09-1.82185E-01-1.60108E-10-1.38656E-10
 -1     25217 1.19276E+00 1.07381E+00-3.12416E-10-1.83049E-01-1.38671E-10-1.03805E-10
 -1     25222 1.19099E+00 1.07559E+00-7.55864E-09-1.77588E-01 2.17862E-14-3.02019E-14
 -1     25223 1.16214E+00 1.10443E+00-7.88371E-09-1.82185E-01 1.60052E-10 1.38672E-10
 -1     25224 1.19276E+00 1.07381E+00-3.12458E-10-1.83049E-01 1.38651E-10 1.03795E-10
 -1     25229 1.19099E+00 1.07559E+00-8.00749E-09-1.77588E-01 3.19768E-10 2.34989E-10
 -1     25230 1.16214E+00 1.10443E+00-8.68303E-09-1.82185E-01 3.39530E-10 3.09159E-10
 -1     25231 1.19276E+00 1.07381E+00-4.47669E-10-1.83049E-01 3.63161E-10 2.73042E-10
 -1     25236 1.19099E+00 1.07559E+00-8.94897E-09-1.77588E-01 1.27166E-10 1.00363E-10
 -1     25237 1.16214E+00 1.10443E+00-1.04465E-08-1.82185E-01-4.97352E-10-3.92901E-10
 -1     25238 1.19276E+00 1.07381E+00-9.99498E-10-1.83049E-01 2.89519E-10 2.26613E-10
 -1     25243 1.19099E+00 1.07559E+00-9.65185E-09-1.77588E-01-1.07242E-09-7.64500E-10
 -1     25244 1.16214E+00 1.10443E+00-1.33731E-08-1.82185E-01-3.30363E-09-2.75234E-09
 -1     25245 1.19276E+00 1.07381E+00-2.20833E-09-1.83049E-01 9.16097E-11 9.06514E-11
 -1     25250 1.19099E+00 1.07559E+00-6.99020E-09-1.77588E-01-1.58292E-09-1.12286E-09
 -1     25251 1.16214E+00 1.10443E+00-7.92642E-09-1.82185E-01-4.72182E-09-3.92538E-09
 -1     25252 1.19276E+00 1.07381E+00 3.01162E-10-1.83049E-01-1.26652E-09-8.96972E-10
 -1     25257 1.19099E+00 1.07559E+00-6.15659E-09-1.77588E-01-1.66215E-09-1.20650E-09
 -1     25261 1.24304E+00 1.02353E+00-6.71776E-09-1.51065E-01 1.85974E-09 9.90953E-10
 -1     25262 1.21703E+00 1.04955E+00-8.14181E-09-1.64351E-01 5.34616E-09 3.33570E-09
 -1     25263 1.24642E+00 1.02016E+00 4.43644E-10-1.55711E-01 1.43983E-09 8.21363E-10
 -1     25268 1.24304E+00 1.02353E+00-6.86442E-09-1.51065E-01 1.69456E-09 9.54045E-10
 -1     25269 1.21703E+00 1.04955E+00-1.33766E-08-1.64351E-01 3.49142E-09 2.19132E-09
 -1     25270 1.24642E+00 1.02016E+00-2.39593E-09-1.55711E-01-1.41789E-10 1.72024E-11
 -1     25275 1.24304E+00 1.02353E+00-1.01503E-08-1.51065E-01 1.50539E-09 8.63025E-10
 -1     25276 1.21703E+00 1.04955E+00-1.02678E-08-1.64351E-01 3.82292E-10 2.63220E-10
 -1     25277 1.24642E+00 1.02016E+00-1.37010E-09-1.55711E-01-2.23796E-10-3.15875E-11
 -1     25282 1.24304E+00 1.02353E+00-9.88199E-09-1.51065E-01 7.46265E-11 1.10267E-10
 -1     25283 1.21703E+00 1.04955E+00-8.38359E-09-1.64351E-01-4.70441E-10-2.71958E-10
 -1     25284 1.24642E+00 1.02016E+00-1.00873E-09-1.55711E-01-2.63184E-10-8.23981E-11
 -1     25289 1.24304E+00 1.02353E+00-9.00994E-09-1.51065E-01-1.98841E-10-7.37905E-11
 -1     25290 1.21703E+00 1.04955E+00-7.53611E-09-1.64351E-01-2.48297E-10-1.48635E-10
 -1     25291 1.24642E+00 1.02016E+00-9.92592E-10-1.55711E-01-1.28850E-10-4.83185E-11
 -1     25296 1.24304E+00 1.02353E+00-8.83481E-09-1.51065E-01-4.26064E-14-3.87097E-14
 -1     25297 1.21703E+00 1.04955E+00-7.53610E-09-1.64351E-01 2.48285E-10 1.48559E-10
 -1     25298 1.24642E+00 1.02016E+00-9.92575E-10-1.55711E-01 1.28748E-10 4.82828E-11
 -1     25303 1.24304E+00 1.02353E+00-9.00988E-09-1.51065E-01 1.98851E-10 7.37424E-11
 -1     25304 1.21703E+00 1.04955E+00-8.38360E-09-1.64351E-01 4.70467E-10 2.71934E-10
 -1     25305 1.24642E+00 1.02016E+00-1.00868E-09-1.55711E-01 2.63180E-10 8.23250E-11
 -1     25310 1.24304E+00 1.02353E+00-9.88196E-09-1.51065E-01-7.46963E-11-1.10357E-10
 -1     25311 1.21703E+00 1.04955E+00-1.02678E-08-1.64351E-01-3.82314E-10-2.63238E-10
 -1     25312 1.24642E+00 1.02016E+00-1.37005E-09-1.55711E-01 2.23742E-10 3.15644E-11
 -1     25317 1.24304E+00 1.02353E+00-1.01503E-08-1.51065E-01-1.50544E-09-8.63040E-10
 -1     25318 1.21703E+00 1.04955E+00-1.33766E-08-1.64351E-01-3.49139E-09-2.19129E-09
 -1     25319 1.24642E+00 1.02016E+00-2.39596E-09-1.55711E-01 1.41851E-10-1.71873E-11
 -1     25324 1.24304E+00 1.02353E+00-6.86452E-09-1.51065E-01-1.69459E-09-9.54070E-10
 -1     25325 1.21703E+00 1.04955E+00-8.14179E-09-1.64351E-01-5.34612E-09-3.33571E-09
 -1     25326 1.24642E+00 1.02016E+00 4.43615E-10-1.55711E-01-1.43987E-09-8.21296E-10
 -1     25331 1.24304E+00 1.02353E+00-6.71775E-09-1.51065E-01-1.85968E-09-9.90966E-10
 -1     25335 1.28435E+00 9.82223E-01-7.59791E-09-1.09755E-01 2.05857E-09 6.53593E-10
 -1     25336 1.26372E+00 1.00286E+00-7.71175E-09-1.30430E-01 5.25108E-09 2.25995E-09
 -1     25337 1.28900E+00 9.77577E-01 6.77955E-10-1.13130E-01 1.68355E-09 5.40247E-10
 -1     25342 1.28435E+00 9.82223E-01-6.84959E-09-1.09755E-01 1.83572E-09 5.92124E-10
 -1     25343 1.26372E+00 1.00286E+00-1.35987E-08-1.30430E-01 4.20330E-09 1.81409E-09
 -1     25344 1.28900E+00 9.77577E-01-2.60262E-09-1.13130E-01-1.29774E-10-4.63993E-11
 -1     25349 1.28435E+00 9.82223E-01-1.09367E-08-1.09755E-01 2.14733E-09 6.93355E-10
 -1     25350 1.26372E+00 1.00286E+00-1.10683E-08-1.30430E-01 8.35489E-10 3.92731E-10
 -1     25351 1.28900E+00 9.77577E-01-1.82215E-09-1.13130E-01-3.64541E-11-1.67875E-11
 -1     25356 1.28435E+00 9.82223E-01-1.12337E-08-1.09755E-01 4.45114E-10 1.31509E-10
 -1     25357 1.26372E+00 1.00286E+00-9.57284E-09-1.30430E-01-3.04513E-10-9.66897E-11
 -1     25358 1.28900E+00 9.77577E-01-1.71651E-09-1.13130E-01-4.75767E-11-2.21081E-11
 -1     25363 1.28435E+00 9.82223E-01-1.04472E-08-1.09755E-01 2.53148E-11-1.54258E-12
 -1     25364 1.26372E+00 1.00286E+00-8.88381E-09-1.30430E-01-5.74263E-11-1.59301E-11
 -1     25365 1.28900E+00 9.77577E-01-1.85907E-09-1.13130E-01-9.04313E-11-3.20436E-11
 -1     25370 1.28435E+00 9.82223E-01-1.06240E-08-1.09755E-01-4.50578E-14 2.18006E-14
 -1     25371 1.26372E+00 1.00286E+00-8.88382E-09-1.30430E-01 5.74638E-11 1.59694E-11
 -1     25372 1.28900E+00 9.77577E-01-1.85911E-09-1.13130E-01 9.06152E-11 3.20889E-11
 -1     25377 1.28435E+00 9.82223E-01-1.04472E-08-1.09755E-01-2.51704E-11 1.61859E-12
 -1     25378 1.26372E+00 1.00286E+00-9.57287E-09-1.30430E-01 3.04500E-10 9.67265E-11
 -1     25379 1.28900E+00 9.77577E-01-1.71652E-09-1.13130E-01 4.75028E-11 2.21860E-11
 -1     25384 1.28435E+00 9.82223E-01-1.12337E-08-1.09755E-01-4.45118E-10-1.31445E-10
 -1     25385 1.26372E+00 1.00286E+00-1.10683E-08-1.30430E-01-8.35514E-10-3.92735E-10
 -1     25386 1.28900E+00 9.77577E-01-1.82217E-09-1.13130E-01 3.64139E-11 1.68243E-11
 -1     25391 1.28435E+00 9.82223E-01-1.09366E-08-1.09755E-01-2.14719E-09-6.93267E-10
 -1     25392 1.26372E+00 1.00286E+00-1.35987E-08-1.30430E-01-4.20328E-09-1.81407E-09
 -1     25393 1.28900E+00 9.77577E-01-2.60261E-09-1.13130E-01 1.29774E-10 4.64353E-11
 -1     25398 1.28435E+00 9.82223E-01-6.84943E-09-1.09755E-01-1.83561E-09-5.92118E-10
 -1     25399 1.26372E+00 1.00286E+00-7.71173E-09-1.30430E-01-5.25105E-09-2.25998E-09
 -1     25400 1.28900E+00 9.77577E-01 6.77999E-10-1.13130E-01-1.68350E-09-5.40257E-10
 -1     25405 1.28435E+00 9.82223E-01-7.59784E-09-1.09755E-01-2.05865E-09-6.53576E-10
 -1     25409 1.31088E+00 9.55700E-01-6.90560E-09-5.77018E-02 2.13671E-09 2.64337E-10
 -1     25410 1.29764E+00 9.68937E-01-7.63156E-09-8.37412E-02 5.58920E-09 1.22887E-09
 -1     25411 1.31634E+00 9.50239E-01 4.86078E-10-5.94761E-02 1.72649E-09 1.43997E-10
 -1     25416 1.31088E+00 9.55700E-01-6.87447E-09-5.77018E-02 1.99894E-09 1.85750E-10
 -1     25417 1.29764E+00 9.68937E-01-1.35454E-08-8.37412E-02 4.53334E-09 9.84163E-10
 -1     25418 1.31634E+00 9.50239E-01-2.39200E-09-5.94761E-02-3.12303E-11-1.32428E-10
 -1     25423 1.31088E+00 9.55700E-01-1.02222E-08-5.77018E-02 1.83843E-09 1.60905E-10
 -1     25424 1.29764E+00 9.68937E-01-1.10266E-08-8.37412E-02 9.59205E-10 1.58705E-10
 -1     25425 1.31634E+00 9.50239E-01-1.36508E-09-5.94761E-02-1.28472E-10-1.35909E-10
 -1     25430 1.31088E+00 9.55700E-01-9.94878E-09-5.77018E-02 1.80741E-10-8.16674E-11
 -1     25431 1.29764E+00 9.68937E-01-9.53096E-09-8.37412E-02-2.77604E-10-1.11234E-10
 -1     25432 1.31634E+00 9.50239E-01-9.97043E-10-5.94761E-02-2.14339E-10-1.10734E-10
 -1     25437 1.31088E+00 9.55700E-01-9.01194E-09-5.77018E-02-1.81174E-10-7.73297E-11
 -1     25438 1.29764E+00 9.68937E-01-8.83851E-09-8.37412E-02-3.96774E-11-2.23596E-11
 -1     25439 1.31634E+00 9.50239E-01-9.76651E-10-5.94761E-02-1.21940E-10-4.57696E-11
 -1     25444 1.31088E+00 9.55700E-01-8.84438E-09-5.77018E-02 1.10457E-13 7.45946E-15
 -1     25445 1.29764E+00 9.68937E-01-8.83845E-09-8.37412E-02 3.97729E-11 2.23471E-11
 -1     25446 1.31634E+00 9.50239E-01-9.76604E-10-5.94761E-02 1.21915E-10 4.57685E-11
 -1     25451 1.31088E+00 9.55700E-01-9.01188E-09-5.77018E-02 1.81146E-10 7.73461E-11
 -1     25452 1.29764E+00 9.68937E-01-9.53094E-09-8.37412E-02 2.77641E-10 1.11237E-10
 -1     25453 1.31634E+00 9.50239E-01-9.97056E-10-5.94761E-02 2.14370E-10 1.10715E-10
 -1     25458 1.31088E+00 9.55700E-01-9.94881E-09-5.77018E-02-1.80774E-10 8.16445E-11
 -1     25459 1.29764E+00 9.68937E-01-1.10266E-08-8.37412E-02-9.59262E-10-1.58718E-10
 -1     25460 1.31634E+00 9.50239E-01-1.36507E-09-5.94761E-02 1.28375E-10 1.35892E-10
 -1     25465 1.31088E+00 9.55700E-01-1.02222E-08-5.77018E-02-1.83850E-09-1.60917E-10
 -1     25466 1.29764E+00 9.68937E-01-1.35454E-08-8.37412E-02-4.53333E-09-9.84167E-10
 -1     25467 1.31634E+00 9.50239E-01-2.39192E-09-5.94761E-02 3.11950E-11 1.32427E-10
 -1     25472 1.31088E+00 9.55700E-01-6.87445E-09-5.77018E-02-1.99899E-09-1.85709E-10
 -1     25473 1.29764E+00 9.68937E-01-7.63155E-09-8.37412E-02-5.58919E-09-1.22887E-09
 -1     25474 1.31634E+00 9.50239E-01 4.86108E-10-5.94761E-02-1.72649E-09-1.43978E-10
 -1     25479 1.31088E+00 9.55700E-01-6.90566E-09-5.77018E-02-2.13668E-09-2.64304E-10
 -1     25483 1.31547E+00 9.51103E-01-8.27972E-09-2.88553E-02 6.62252E-09 3.96371E-10
 -1     25487 1.31547E+00 9.51103E-01-1.31936E-08-2.88553E-02 3.96418E-09 2.15702E-10
 -1     25491 1.31547E+00 9.51103E-01-9.77600E-09-2.88553E-02 2.90666E-10-2.98045E-11
 -1     25495 1.31547E+00 9.51103E-01-7.66669E-09-2.88553E-02-6.27450E-10-8.01553E-11
 -1     25499 1.31547E+00 9.51103E-01-6.72061E-09-2.88553E-02-3.89380E-10-3.65090E-11
 -1     25503 1.31547E+00 9.51103E-01-6.72063E-09-2.88553E-02 3.89403E-10 3.65029E-11
 -1     25507 1.31547E+00 9.51103E-01-7.66669E-09-2.88553E-02 6.27464E-10 8.01532E-11
 -1     25511 1.31547E+00 9.51103E-01-9.77603E-09-2.88553E-02-2.90700E-10 2.98060E-11
 -1     25515 1.31547E+00 9.51103E-01-1.31935E-08-2.88553E-02-3.96410E-09-2.15710E-10
 -1     25519 1.31547E+00 9.51103E-01-8.27973E-09-2.88553E-02-6.62250E-09-3.96372E-10
 -1     25525 9.65699E-01 1.30088E+00 9.97172E-09-5.44529E-02-1.18299E-09-7.61554E-09
 -1     25526 9.61361E-01 1.30522E+00 2.64510E-08-2.72306E-02-2.64861E-09-3.36491E-08
 -1     25527 9.60699E-01 1.30588E+00 5.65683E-10-5.60774E-02-6.74487E-10-4.28910E-09
 -1     25532 9.65699E-01 1.30088E+00 3.31969E-08-5.44529E-02-2.61313E-09-1.64229E-08
 -1     25533 9.61361E-01 1.30522E+00 4.85534E-08-2.72306E-02-1.39653E-09-1.78093E-08
 -1     25534 9.60699E-01 1.30588E+00 9.60390E-09-5.60774E-02-6.70775E-10-4.14688E-09
 -1     25539 9.65699E-01 1.30088E+00 4.09635E-08-5.44529E-02-1.73751E-09-1.07536E-08
 -1     25540 9.61361E-01 1.30522E+00 4.37250E-08-2.72306E-02-6.36662E-10-8.19062E-09
 -1     25541 9.60699E-01 1.30588E+00 9.28473E-09-5.60774E-02-5.00988E-10-3.04195E-09
 -1     25546 9.65699E-01 1.30088E+00 4.15894E-08-5.44529E-02-9.85674E-10-6.03216E-09
 -1     25547 9.61361E-01 1.30522E+00 3.97534E-08-2.72306E-02-2.73972E-10-3.55883E-09
 -1     25548 9.60699E-01 1.30588E+00 9.88843E-09-5.60774E-02-2.94388E-10-1.76766E-09
 -1     25553 9.65699E-01 1.30088E+00 4.12988E-08-5.44529E-02-4.23448E-10-2.56681E-09
 -1     25554 9.61361E-01 1.30522E+00 3.86390E-08-2.72306E-02-6.11676E-11-8.05291E-10
 -1     25555 9.60699E-01 1.30588E+00 1.03825E-08-5.60774E-02-1.05166E-10-6.30594E-10
 -1     25560 9.65699E-01 1.30088E+00 4.07071E-08-5.44529E-02 7.09131E-15 8.11541E-14
 -1     25561 9.61361E-01 1.30522E+00 3.86389E-08-2.72306E-02 6.11562E-11 8.05388E-10
 -1     25562 9.60699E-01 1.30588E+00 1.03825E-08-5.60774E-02 1.05179E-10 6.30671E-10
 -1     25567 9.65699E-01 1.30088E+00 4.12987E-08-5.44529E-02 4.23450E-10 2.56676E-09
 -1     25568 9.61361E-01 1.30522E+00 3.97533E-08-2.72306E-02 2.73961E-10 3.55879E-09
 -1     25569 9.60699E-01 1.30588E+00 9.88840E-09-5.60774E-02 2.94382E-10 1.76768E-09
 -1     25574 9.65699E-01 1.30088E+00 4.15893E-08-5.44529E-02 9.85679E-10 6.03230E-09
 -1     25575 9.61361E-01 1.30522E+00 4.37250E-08-2.72306E-02 6.36654E-10 8.19060E-09
 -1     25576 9.60699E-01 1.30588E+00 9.28476E-09-5.60774E-02 5.00987E-10 3.04193E-09
 -1     25581 9.65699E-01 1.30088E+00 4.09635E-08-5.44529E-02 1.73752E-09 1.07536E-08
 -1     25582 9.61361E-01 1.30522E+00 4.85534E-08-2.72306E-02 1.39653E-09 1.78094E-08
 -1     25583 9.60699E-01 1.30588E+00 9.60394E-09-5.60774E-02 6.70781E-10 4.14683E-09
 -1     25588 9.65699E-01 1.30088E+00 3.31969E-08-5.44529E-02 2.61313E-09 1.64229E-08
 -1     25589 9.61361E-01 1.30522E+00 2.64510E-08-2.72306E-02 2.64861E-09 3.36491E-08
 -1     25590 9.60699E-01 1.30588E+00 5.65729E-10-5.60774E-02 6.74480E-10 4.28899E-09
 -1     25595 9.65699E-01 1.30088E+00 9.97176E-09-5.44529E-02 1.18300E-09 7.61558E-09
 -1     25599 9.90728E-01 1.27585E+00 9.94675E-09-1.03576E-01-2.31789E-09-7.32058E-09
 -1     25600 9.78190E-01 1.28839E+00 2.64718E-08-7.90264E-02-7.88645E-09-3.28286E-08
 -1     25601 9.86475E-01 1.28010E+00 5.48073E-10-1.06666E-01-1.30142E-09-4.09913E-09
 -1     25606 9.90728E-01 1.27585E+00 3.32135E-08-1.03576E-01-5.09722E-09-1.57731E-08
 -1     25607 9.78190E-01 1.28839E+00 4.85711E-08-7.90264E-02-4.16054E-09-1.73776E-08
 -1     25608 9.86475E-01 1.28010E+00 9.57280E-09-1.06666E-01-1.27459E-09-3.94649E-09
 -1     25613 9.90728E-01 1.27585E+00 4.09499E-08-1.03576E-01-3.33069E-09-1.02635E-08
 -1     25614 9.78190E-01 1.28839E+00 4.37345E-08-7.90264E-02-1.90202E-09-7.99844E-09
 -1     25615 9.86475E-01 1.28010E+00 9.23173E-09-1.06666E-01-9.30907E-10-2.87340E-09
 -1     25620 9.90728E-01 1.27585E+00 4.15084E-08-1.03576E-01-1.84963E-09-5.72534E-09
 -1     25621 9.78190E-01 1.28839E+00 3.97563E-08-7.90264E-02-8.22726E-10-3.48214E-09
 -1     25622 9.86475E-01 1.28010E+00 9.81240E-09-1.06666E-01-5.34156E-10-1.65446E-09
 -1     25627 9.90728E-01 1.27585E+00 4.11792E-08-1.03576E-01-7.78326E-10-2.42371E-09
 -1     25628 9.78190E-01 1.28839E+00 3.86395E-08-7.90264E-02-1.84405E-10-7.88114E-10
 -1     25629 9.86475E-01 1.28010E+00 1.02913E-08-1.06666E-01-1.90279E-10-5.90460E-10
 -1     25634 9.90728E-01 1.27585E+00 4.05642E-08-1.03576E-01-4.08120E-14 3.32602E-14
 -1     25635 9.78190E-01 1.28839E+00 3.86395E-08-7.90264E-02 1.84394E-10 7.88140E-10
 -1     25636 9.86475E-01 1.28010E+00 1.02913E-08-1.06666E-01 1.90235E-10 5.90470E-10
 -1     25641 9.90728E-01 1.27585E+00 4.11792E-08-1.03576E-01 7.78292E-10 2.42371E-09
 -1     25642 9.78190E-01 1.28839E+00 3.97563E-08-7.90264E-02 8.22729E-10 3.48213E-09
 -1     25643 9.86475E-01 1.28010E+00 9.81243E-09-1.06666E-01 5.34150E-10 1.65438E-09
 -1     25648 9.90728E-01 1.27585E+00 4.15085E-08-1.03576E-01 1.84968E-09 5.72517E-09
 -1     25649 9.78190E-01 1.28839E+00 4.37345E-08-7.90264E-02 1.90201E-09 7.99846E-09
 -1     25650 9.86475E-01 1.28010E+00 9.23173E-09-1.06666E-01 9.30925E-10 2.87333E-09
 -1     25655 9.90728E-01 1.27585E+00 4.09499E-08-1.03576E-01 3.33065E-09 1.02635E-08
 -1     25656 9.78190E-01 1.28839E+00 4.85711E-08-7.90264E-02 4.16055E-09 1.73775E-08
 -1     25657 9.86475E-01 1.28010E+00 9.57284E-09-1.06666E-01 1.27459E-09 3.94634E-09
 -1     25662 9.90728E-01 1.27585E+00 3.32135E-08-1.03576E-01 5.09730E-09 1.57730E-08
 -1     25663 9.78190E-01 1.28839E+00 2.64718E-08-7.90264E-02 7.88648E-09 3.28286E-08
 -1     25664 9.86475E-01 1.28010E+00 5.48034E-10-1.06666E-01 1.30144E-09 4.09910E-09
 -1     25669 9.90728E-01 1.27585E+00 9.94668E-09-1.03576E-01 2.31790E-09 7.32042E-09
 -1     25673 1.02971E+00 1.23686E+00 1.01855E-08-1.42560E-01-3.46373E-09-6.96808E-09
 -1     25674 1.01020E+00 1.25637E+00 2.64769E-08-1.23086E-01-1.29577E-08-3.11744E-08
 -1     25675 1.02662E+00 1.23995E+00 5.70227E-10-1.46813E-01-1.97283E-09-3.95306E-09
 -1     25680 1.02971E+00 1.23686E+00 3.33393E-08-1.42560E-01-7.54428E-09-1.48943E-08
 -1     25681 1.01020E+00 1.25637E+00 4.85445E-08-1.23086E-01-6.89048E-09-1.65367E-08
 -1     25682 1.02662E+00 1.23995E+00 9.60033E-09-1.46813E-01-1.91331E-09-3.79813E-09
 -1     25687 1.02971E+00 1.23686E+00 4.11117E-08-1.42560E-01-4.94870E-09-9.82404E-09
 -1     25688 1.01020E+00 1.25637E+00 4.37215E-08-1.23086E-01-3.19617E-09-7.62465E-09
 -1     25689 1.02662E+00 1.23995E+00 9.28290E-09-1.46813E-01-1.38920E-09-2.79228E-09
 -1     25694 1.02971E+00 1.23686E+00 4.17092E-08-1.42560E-01-2.74373E-09-5.54612E-09
 -1     25695 1.01020E+00 1.25637E+00 3.97836E-08-1.23086E-01-1.40318E-09-3.31365E-09
 -1     25696 1.02662E+00 1.23995E+00 9.89679E-09-1.46813E-01-7.97592E-10-1.63647E-09
 -1     25701 1.02971E+00 1.23686E+00 4.13382E-08-1.42560E-01-1.15348E-09-2.37347E-09
 -1     25702 1.01020E+00 1.25637E+00 3.86917E-08-1.23086E-01-3.25147E-10-7.56308E-10
 -1     25703 1.02662E+00 1.23995E+00 1.04017E-08-1.46813E-01-2.80984E-10-5.80900E-10
 -1     25708 1.02971E+00 1.23686E+00 4.07442E-08-1.42560E-01-4.19939E-14 1.04622E-13
 -1     25709 1.01020E+00 1.25637E+00 3.86917E-08-1.23086E-01 3.25129E-10 7.56326E-10
 -1     25710 1.02662E+00 1.23995E+00 1.04017E-08-1.46813E-01 2.80996E-10 5.80856E-10
 -1     25715 1.02971E+00 1.23686E+00 4.13381E-08-1.42560E-01 1.15348E-09 2.37334E-09
 -1     25716 1.01020E+00 1.25637E+00 3.97836E-08-1.23086E-01 1.40320E-09 3.31367E-09
 -1     25717 1.02662E+00 1.23995E+00 9.89674E-09-1.46813E-01 7.97572E-10 1.63652E-09
 -1     25722 1.02971E+00 1.23686E+00 4.17091E-08-1.42560E-01 2.74369E-09 5.54615E-09
 -1     25723 1.01020E+00 1.25637E+00 4.37215E-08-1.23086E-01 3.19612E-09 7.62456E-09
 -1     25724 1.02662E+00 1.23995E+00 9.28285E-09-1.46813E-01 1.38915E-09 2.79227E-09
 -1     25729 1.02971E+00 1.23686E+00 4.11116E-08-1.42560E-01 4.94864E-09 9.82409E-09
 -1     25730 1.01020E+00 1.25637E+00 4.85445E-08-1.23086E-01 6.89049E-09 1.65366E-08
 -1     25731 1.02662E+00 1.23995E+00 9.60028E-09-1.46813E-01 1.91329E-09 3.79818E-09
 -1     25736 1.02971E+00 1.23686E+00 3.33392E-08-1.42560E-01 7.54431E-09 1.48943E-08
 -1     25737 1.01020E+00 1.25637E+00 2.64769E-08-1.23086E-01 1.29578E-08 3.11744E-08
 -1     25738 1.02662E+00 1.23995E+00 5.70264E-10-1.46813E-01 1.97277E-09 3.95308E-09
 -1     25743 1.02971E+00 1.23686E+00 1.01855E-08-1.42560E-01 3.46373E-09 6.96808E-09
 -1     25747 1.07884E+00 1.18774E+00 9.30917E-09-1.67589E-01-4.34284E-09-6.07102E-09
 -1     25748 1.05426E+00 1.21231E+00 2.61530E-08-1.55098E-01-1.75730E-08-2.86676E-08
 -1     25749 1.07721E+00 1.18937E+00 4.13700E-10-1.72589E-01-2.40954E-09-3.30798E-09
 -1     25754 1.07884E+00 1.18774E+00 3.31226E-08-1.67589E-01-9.63922E-09-1.31547E-08
 -1     25755 1.05426E+00 1.21231E+00 4.81696E-08-1.55098E-01-9.08572E-09-1.48886E-08
 -1     25756 1.07721E+00 1.18937E+00 9.25526E-09-1.72589E-01-2.29765E-09-3.08593E-09
 -1     25761 1.07884E+00 1.18774E+00 4.01596E-08-1.67589E-01-5.94428E-09-8.08437E-09
 -1     25762 1.05426E+00 1.21231E+00 4.31227E-08-1.55098E-01-3.99278E-09-6.62182E-09
 -1     25763 1.07721E+00 1.18937E+00 8.63444E-09-1.72589E-01-1.58738E-09-2.12131E-09
 -1     25768 1.07884E+00 1.18774E+00 4.00751E-08-1.67589E-01-3.19227E-09-4.32437E-09
 -1     25769 1.05426E+00 1.21231E+00 3.89168E-08-1.55098E-01-1.65324E-09-2.77512E-09
 -1     25770 1.07721E+00 1.18937E+00 8.95682E-09-1.72589E-01-8.57080E-10-1.14424E-09
 -1     25775 1.07884E+00 1.18774E+00 3.96126E-08-1.67589E-01-1.31345E-09-1.76614E-09
 -1     25776 1.05426E+00 1.21231E+00 3.76704E-08-1.55098E-01-3.31779E-10-5.71505E-10
 -1     25777 1.07721E+00 1.18937E+00 9.26675E-09-1.72589E-01-3.12685E-10-4.17787E-10
 -1     25782 1.07884E+00 1.18774E+00 3.88533E-08-1.67589E-01-3.24151E-14-7.07247E-14
 -1     25783 1.05426E+00 1.21231E+00 3.76704E-08-1.55098E-01 3.31755E-10 5.71495E-10
 -1     25784 1.07721E+00 1.18937E+00 9.26669E-09-1.72589E-01 3.12576E-10 4.17710E-10
 -1     25789 1.07884E+00 1.18774E+00 3.96126E-08-1.67589E-01 1.31344E-09 1.76604E-09
 -1     25790 1.05426E+00 1.21231E+00 3.89168E-08-1.55098E-01 1.65325E-09 2.77505E-09
 -1     25791 1.07721E+00 1.18937E+00 8.95679E-09-1.72589E-01 8.56996E-10 1.14409E-09
 -1     25796 1.07884E+00 1.18774E+00 4.00750E-08-1.67589E-01 3.19222E-09 4.32420E-09
 -1     25797 1.05426E+00 1.21231E+00 4.31227E-08-1.55098E-01 3.99274E-09 6.62174E-09
 -1     25798 1.07721E+00 1.18937E+00 8.63442E-09-1.72589E-01 1.58732E-09 2.12116E-09
 -1     25803 1.07884E+00 1.18774E+00 4.01596E-08-1.67589E-01 5.94427E-09 8.08431E-09
 -1     25804 1.05426E+00 1.21231E+00 4.81696E-08-1.55098E-01 9.08568E-09 1.48887E-08
 -1     25805 1.07721E+00 1.18937E+00 9.25527E-09-1.72589E-01 2.29762E-09 3.08600E-09
 -1     25810 1.07884E+00 1.18774E+00 3.31227E-08-1.67589E-01 9.63918E-09 1.31548E-08
 -1     25811 1.05426E+00 1.21231E+00 2.61530E-08-1.55098E-01 1.75731E-08 2.86676E-08
 -1     25812 1.07721E+00 1.18937E+00 4.13697E-10-1.72589E-01 2.40958E-09 3.30802E-09
 -1     25817 1.07884E+00 1.18774E+00 9.30923E-09-1.67589E-01 4.34280E-09 6.07105E-09
 -1     25821 1.13329E+00 1.13329E+00 8.44265E-09-1.76213E-01-4.97368E-09-4.98238E-09
 -1     25822 1.10606E+00 1.16052E+00 2.57440E-08-1.71927E-01-2.17643E-08-2.55511E-08
 -1     25823 1.13329E+00 1.13329E+00 1.99615E-10-1.81470E-01-2.50202E-09-2.53613E-09
 -1     25828 1.13329E+00 1.13329E+00 3.29882E-08-1.76213E-01-1.11968E-08-1.12473E-08
 -1     25829 1.10606E+00 1.16052E+00 4.78859E-08-1.71927E-01-1.07379E-08-1.27473E-08
 -1     25830 1.13329E+00 1.13329E+00 8.97339E-09-1.81470E-01-2.35256E-09-2.36226E-09
 -1     25835 1.13329E+00 1.13329E+00 3.96017E-08-1.76213E-01-6.42617E-09-6.33143E-09
 -1     25836 1.10606E+00 1.16052E+00 4.24881E-08-1.71927E-01-4.37562E-09-5.32889E-09
 -1     25837 1.13329E+00 1.13329E+00 8.18818E-09-1.81470E-01-1.51423E-09-1.47814E-09
 -1     25842 1.13329E+00 1.13329E+00 3.89682E-08-1.76213E-01-3.28227E-09-3.12205E-09
 -1     25843 1.10606E+00 1.16052E+00 3.77433E-08-1.71927E-01-1.71374E-09-2.16054E-09
 -1     25844 1.13329E+00 1.13329E+00 8.30710E-09-1.81470E-01-7.16121E-10-6.51467E-10
 -1     25849 1.13329E+00 1.13329E+00 3.84861E-08-1.76213E-01-1.28589E-09-1.17525E-09
 -1     25850 1.10606E+00 1.16052E+00 3.61885E-08-1.71927E-01-2.34235E-10-3.33585E-10
 -1     25851 1.13329E+00 1.13329E+00 8.46160E-09-1.81470E-01-2.80949E-10-2.53158E-10
 -1     25856 1.13329E+00 1.13329E+00 3.75321E-08-1.76213E-01 1.52763E-13 3.13149E-15
 -1     25857 1.10606E+00 1.16052E+00 3.61885E-08-1.71927E-01 2.34246E-10 3.33585E-10
 -1     25858 1.13329E+00 1.13329E+00 8.46160E-09-1.81470E-01 2.81050E-10 2.53170E-10
 -1     25863 1.13329E+00 1.13329E+00 3.84861E-08-1.76213E-01 1.28595E-09 1.17531E-09
 -1     25864 1.10606E+00 1.16052E+00 3.77433E-08-1.71927E-01 1.71374E-09 2.16057E-09
 -1     25865 1.13329E+00 1.13329E+00 8.30710E-09-1.81470E-01 7.16190E-10 6.51584E-10
 -1     25870 1.13329E+00 1.13329E+00 3.89682E-08-1.76213E-01 3.28221E-09 3.12219E-09
 -1     25871 1.10606E+00 1.16052E+00 4.24881E-08-1.71927E-01 4.37561E-09 5.32893E-09
 -1     25872 1.13329E+00 1.13329E+00 8.18819E-09-1.81470E-01 1.51426E-09 1.47830E-09
 -1     25877 1.13329E+00 1.13329E+00 3.96018E-08-1.76213E-01 6.42611E-09 6.33152E-09
 -1     25878 1.10606E+00 1.16052E+00 4.78859E-08-1.71927E-01 1.07379E-08 1.27473E-08
 -1     25879 1.13329E+00 1.13329E+00 8.97341E-09-1.81470E-01 2.35263E-09 2.36220E-09
 -1     25884 1.13329E+00 1.13329E+00 3.29882E-08-1.76213E-01 1.11967E-08 1.12473E-08
 -1     25885 1.10606E+00 1.16052E+00 2.57440E-08-1.71927E-01 2.17643E-08 2.55511E-08
 -1     25886 1.13329E+00 1.13329E+00 1.99569E-10-1.81470E-01 2.50199E-09 2.53610E-09
 -1     25891 1.13329E+00 1.13329E+00 8.44261E-09-1.76213E-01 4.97374E-09 4.98239E-09
 -1     25895 1.18774E+00 1.07884E+00 1.22268E-08-1.67589E-01-7.10805E-09-5.20285E-09
 -1     25896 1.16052E+00 1.10606E+00 2.68883E-08-1.71927E-01-2.58612E-08-2.18813E-08
 -1     25897 1.18937E+00 1.07721E+00 1.17276E-09-1.72589E-01-4.46631E-09-3.28917E-09
 -1     25902 1.18774E+00 1.07884E+00 3.36506E-08-1.67589E-01-1.43550E-08-1.05048E-08
 -1     25903 1.16052E+00 1.10606E+00 4.89196E-08-1.71927E-01-1.41758E-08-1.17452E-08
 -1     25904 1.18937E+00 1.07721E+00 1.06205E-08-1.72589E-01-4.43250E-09-3.26152E-09
 -1     25909 1.18774E+00 1.07884E+00 4.33155E-08-1.67589E-01-1.10172E-08-8.07308E-09
 -1     25910 1.16052E+00 1.10606E+00 4.43017E-08-1.71927E-01-6.92298E-09-5.46853E-09
 -1     25911 1.18937E+00 1.07721E+00 1.10224E-08-1.72589E-01-3.62380E-09-2.67843E-09
 -1     25916 1.18774E+00 1.07884E+00 4.58423E-08-1.67589E-01-6.77665E-09-4.99130E-09
 -1     25917 1.16052E+00 1.10606E+00 4.06530E-08-1.71927E-01-3.17517E-09-2.37453E-09
 -1     25918 1.18937E+00 1.07721E+00 1.23806E-08-1.72589E-01-2.40506E-09-1.77621E-09
 -1     25923 1.18774E+00 1.07884E+00 4.57685E-08-1.67589E-01-3.08788E-09-2.28427E-09
 -1     25924 1.16052E+00 1.10606E+00 3.97278E-08-1.71927E-01-8.17552E-10-5.67581E-10
 -1     25925 1.18937E+00 1.07721E+00 1.34013E-08-1.72589E-01-8.14869E-10-6.02695E-10
 -1     25930 1.18774E+00 1.07884E+00 4.56983E-08-1.67589E-01-7.41765E-14 3.34436E-14
 -1     25931 1.16052E+00 1.10606E+00 3.97278E-08-1.71927E-01 8.17560E-10 5.67590E-10
 -1     25932 1.18937E+00 1.07721E+00 1.34013E-08-1.72589E-01 8.14833E-10 6.02685E-10
 -1     25937 1.18774E+00 1.07884E+00 4.57684E-08-1.67589E-01 3.08780E-09 2.28427E-09
 -1     25938 1.16052E+00 1.10606E+00 4.06530E-08-1.71927E-01 3.17513E-09 2.37449E-09
 -1     25939 1.18937E+00 1.07721E+00 1.23805E-08-1.72589E-01 2.40501E-09 1.77619E-09
 -1     25944 1.18774E+00 1.07884E+00 4.58422E-08-1.67589E-01 6.77670E-09 4.99127E-09
 -1     25945 1.16052E+00 1.10606E+00 4.43017E-08-1.71927E-01 6.92299E-09 5.46859E-09
 -1     25946 1.18937E+00 1.07721E+00 1.10224E-08-1.72589E-01 3.62382E-09 2.67840E-09
 -1     25951 1.18774E+00 1.07884E+00 4.33155E-08-1.67589E-01 1.10173E-08 8.07304E-09
 -1     25952 1.16052E+00 1.10606E+00 4.89196E-08-1.71927E-01 1.41758E-08 1.17452E-08
 -1     25953 1.18937E+00 1.07721E+00 1.06205E-08-1.72589E-01 4.43256E-09 3.26153E-09
 -1     25958 1.18774E+00 1.07884E+00 3.36506E-08-1.67589E-01 1.43551E-08 1.05047E-08
 -1     25959 1.16052E+00 1.10606E+00 2.68883E-08-1.71927E-01 2.58612E-08 2.18813E-08
 -1     25960 1.18937E+00 1.07721E+00 1.17280E-09-1.72589E-01 4.46635E-09 3.28925E-09
 -1     25965 1.18774E+00 1.07884E+00 1.22268E-08-1.67589E-01 7.10811E-09 5.20292E-09
 -1     25969 1.23686E+00 1.02971E+00 1.02060E-08-1.42560E-01-6.95473E-09-3.61259E-09
 -1     25970 1.21231E+00 1.05426E+00 2.73076E-08-1.55098E-01-2.89260E-08-1.77718E-08
 -1     25971 1.23995E+00 1.02662E+00 5.78033E-10-1.46813E-01-3.96714E-09-1.98753E-09
 -1     25976 1.23686E+00 1.02971E+00 3.34582E-08-1.42560E-01-1.49451E-08-7.48723E-09
 -1     25977 1.21231E+00 1.05426E+00 4.92052E-08-1.55098E-01-1.62903E-08-1.01364E-08
 -1     25978 1.23995E+00 1.02662E+00 9.59000E-09-1.46813E-01-3.80372E-09-1.88103E-09
 -1     25983 1.23686E+00 1.02971E+00 4.11240E-08-1.42560E-01-9.74080E-09-5.06010E-09
 -1     25984 1.21231E+00 1.05426E+00 4.49420E-08-1.55098E-01-8.14816E-09-5.18171E-09
 -1     25985 1.23995E+00 1.02662E+00 9.26229E-09-1.46813E-01-2.75444E-09-1.43263E-09
 -1     25990 1.23686E+00 1.02971E+00 4.16738E-08-1.42560E-01-5.42860E-09-2.97067E-09
 -1     25991 1.21231E+00 1.05426E+00 4.18355E-08-1.55098E-01-3.72141E-09-2.41119E-09
 -1     25992 1.23995E+00 1.02662E+00 9.88169E-09-1.46813E-01-1.58438E-09-8.82274E-10
 -1     25997 1.23686E+00 1.02971E+00 4.13063E-08-1.42560E-01-2.30130E-09-1.31079E-09
 -1     25998 1.21231E+00 1.05426E+00 4.12195E-08-1.55098E-01-1.03843E-09-6.86827E-10
 -1     25999 1.23995E+00 1.02662E+00 1.03907E-08-1.46813E-01-5.60486E-10-3.18662E-10
 -1     26004 1.23686E+00 1.02971E+00 4.07095E-08-1.42560E-01-7.89788E-14 1.59232E-14
 -1     26005 1.21231E+00 1.05426E+00 4.12196E-08-1.55098E-01 1.03843E-09 6.86854E-10
 -1     26006 1.23995E+00 1.02662E+00 1.03907E-08-1.46813E-01 5.60407E-10 3.18628E-10
 -1     26011 1.23686E+00 1.02971E+00 4.13064E-08-1.42560E-01 2.30137E-09 1.31075E-09
 -1     26012 1.21231E+00 1.05426E+00 4.18355E-08-1.55098E-01 3.72144E-09 2.41114E-09
 -1     26013 1.23995E+00 1.02662E+00 9.88172E-09-1.46813E-01 1.58441E-09 8.82230E-10
 -1     26018 1.23686E+00 1.02971E+00 4.16739E-08-1.42560E-01 5.42849E-09 2.97071E-09
 -1     26019 1.21231E+00 1.05426E+00 4.49420E-08-1.55098E-01 8.14816E-09 5.18168E-09
 -1     26020 1.23995E+00 1.02662E+00 9.26222E-09-1.46813E-01 2.75435E-09 1.43262E-09
 -1     26025 1.23686E+00 1.02971E+00 4.11239E-08-1.42560E-01 9.74078E-09 5.06014E-09
 -1     26026 1.21231E+00 1.05426E+00 4.92052E-08-1.55098E-01 1.62903E-08 1.01364E-08
 -1     26027 1.23995E+00 1.02662E+00 9.58996E-09-1.46813E-01 3.80375E-09 1.88105E-09
 -1     26032 1.23686E+00 1.02971E+00 3.34582E-08-1.42560E-01 1.49450E-08 7.48728E-09
 -1     26033 1.21231E+00 1.05426E+00 2.73076E-08-1.55098E-01 2.89259E-08 1.77718E-08
 -1     26034 1.23995E+00 1.02662E+00 5.77993E-10-1.46813E-01 3.96713E-09 1.98749E-09
 -1     26039 1.23686E+00 1.02971E+00 1.02060E-08-1.42560E-01 6.95479E-09 3.61255E-09
 -1     26043 1.27585E+00 9.90728E-01 7.10136E-09-1.03576E-01-6.19955E-09-1.98253E-09
 -1     26044 1.25637E+00 1.01020E+00 2.54123E-08-1.23086E-01-3.08904E-08-1.28862E-08
 -1     26045 1.28010E+00 9.86475E-01-1.27885E-10-1.06666E-01-2.83995E-09-8.95230E-10
 -1     26050 1.27585E+00 9.90728E-01 3.28068E-08-1.03576E-01-1.44522E-08-4.65416E-09
 -1     26051 1.25637E+00 1.01020E+00 4.75420E-08-1.23086E-01-1.49200E-08-6.38408E-09
 -1     26052 1.28010E+00 9.86475E-01 8.27359E-09-1.06666E-01-2.44981E-09-7.75156E-10
 -1     26057 1.27585E+00 9.90728E-01 3.78408E-08-1.03576E-01-6.93713E-09-2.23796E-09
 -1     26058 1.25637E+00 1.01020E+00 4.19653E-08-1.23086E-01-5.81404E-09-2.66482E-09
 -1     26059 1.28010E+00 9.86475E-01 6.92275E-09-1.06666E-01-1.18972E-09-3.74127E-10
 -1     26064 1.27585E+00 9.90728E-01 3.58802E-08-1.03576E-01-2.97471E-09-9.26326E-10
 -1     26065 1.25637E+00 1.01020E+00 3.69709E-08-1.23086E-01-2.16791E-09-1.08483E-09
 -1     26066 1.28010E+00 9.86475E-01 6.51904E-09-1.06666E-01-2.53710E-10-6.52110E-11
 -1     26071 1.27585E+00 9.90728E-01 3.52329E-08-1.03576E-01-9.59030E-10-2.75633E-10
 -1     26072 1.25637E+00 1.01020E+00 3.52672E-08-1.23086E-01-2.05081E-10-1.57690E-10
 -1     26073 1.28010E+00 9.86475E-01 6.32584E-09-1.06666E-01-1.52911E-10-4.17484E-11
 -1     26078 1.27585E+00 9.90728E-01 3.39812E-08-1.03576E-01 1.43071E-13-2.19054E-14
 -1     26079 1.25637E+00 1.01020E+00 3.52672E-08-1.23086E-01 2.05098E-10 1.57691E-10
 -1     26080 1.28010E+00 9.86475E-01 6.32586E-09-1.06666E-01 1.53035E-10 4.17602E-11
 -1     26085 1.27585E+00 9.90728E-01 3.52328E-08-1.03576E-01 9.59144E-10 2.75650E-10
 -1     26086 1.25637E+00 1.01020E+00 3.69709E-08-1.23086E-01 2.16795E-09 1.08484E-09
 -1     26087 1.28010E+00 9.86475E-01 6.51903E-09-1.06666E-01 2.53755E-10 6.52768E-11
 -1     26092 1.27585E+00 9.90728E-01 3.58802E-08-1.03576E-01 2.97472E-09 9.26452E-10
 -1     26093 1.25637E+00 1.01020E+00 4.19653E-08-1.23086E-01 5.81403E-09 2.66488E-09
 -1     26094 1.28010E+00 9.86475E-01 6.92278E-09-1.06666E-01 1.18983E-09 3.74197E-10
 -1     26099 1.27585E+00 9.90728E-01 3.78407E-08-1.03576E-01 6.93722E-09 2.23797E-09
 -1     26100 1.25637E+00 1.01020E+00 4.75420E-08-1.23086E-01 1.49201E-08 6.38410E-09
 -1     26101 1.28010E+00 9.86475E-01 8.27357E-09-1.06666E-01 2.44991E-09 7.75202E-10
 -1     26106 1.27585E+00 9.90728E-01 3.28067E-08-1.03576E-01 1.44524E-08 4.65426E-09
 -1     26107 1.25637E+00 1.01020E+00 2.54124E-08-1.23086E-01 3.08904E-08 1.28861E-08
 -1     26108 1.28010E+00 9.86475E-01-1.27873E-10-1.06666E-01 2.83999E-09 8.95215E-10
 -1     26113 1.27585E+00 9.90728E-01 7.10140E-09-1.03576E-01 6.19954E-09 1.98251E-09
 -1     26117 1.30088E+00 9.65699E-01 9.89660E-09-5.44529E-02-7.68062E-09-1.10860E-09
 -1     26118 1.28839E+00 9.78190E-01 2.55304E-08-7.90264E-02-3.26425E-08-7.77488E-09
 -1     26119 1.30588E+00 9.60699E-01 5.76014E-10-5.60775E-02-4.24572E-09-7.05677E-10
 -1     26124 1.30088E+00 9.65699E-01 3.32911E-08-5.44529E-02-1.64623E-08-2.76773E-09
 -1     26125 1.28839E+00 9.78190E-01 4.77728E-08-7.90264E-02-1.58702E-08-3.66381E-09
 -1     26126 1.30588E+00 9.60699E-01 9.67368E-09-5.60775E-02-4.13558E-09-7.33137E-10
 -1     26131 1.30088E+00 9.65699E-01 4.11150E-08-5.44529E-02-1.08202E-08-1.64363E-09
 -1     26132 1.28839E+00 9.78190E-01 4.22503E-08-7.90264E-02-6.34348E-09-1.32150E-09
 -1     26133 1.30588E+00 9.60699E-01 9.43974E-09-5.60775E-02-3.08336E-09-4.79303E-10
 -1     26138 1.30088E+00 9.65699E-01 4.18831E-08-5.44529E-02-6.16506E-09-7.43081E-10
 -1     26139 1.28839E+00 9.78190E-01 3.72503E-08-7.90264E-02-2.48359E-09-4.49255E-10
 -1     26140 1.30588E+00 9.60699E-01 1.01267E-08-5.60775E-02-1.81287E-09-2.03231E-10
 -1     26145 1.30088E+00 9.65699E-01 4.17549E-08-5.44529E-02-2.66346E-09-2.47622E-10
 -1     26146 1.28839E+00 9.78190E-01 3.55394E-08-7.90264E-02-2.80969E-10-1.14702E-11
 -1     26147 1.30588E+00 9.60699E-01 1.06654E-08-5.60775E-02-6.55319E-10-6.43029E-11
 -1     26152 1.30088E+00 9.65699E-01 4.11896E-08-5.44529E-02-8.32169E-14-2.45867E-14
 -1     26153 1.28839E+00 9.78190E-01 3.55394E-08-7.90264E-02 2.80970E-10 1.14598E-11
 -1     26154 1.30588E+00 9.60699E-01 1.06654E-08-5.60775E-02 6.55267E-10 6.42906E-11
 -1     26159 1.30088E+00 9.65699E-01 4.17549E-08-5.44529E-02 2.66345E-09 2.47604E-10
 -1     26160 1.28839E+00 9.78190E-01 3.72502E-08-7.90264E-02 2.48363E-09 4.49246E-10
 -1     26161 1.30588E+00 9.60699E-01 1.01268E-08-5.60775E-02 1.81290E-09 2.03222E-10
 -1     26166 1.30088E+00 9.65699E-01 4.18832E-08-5.44529E-02 6.16511E-09 7.43077E-10
 -1     26167 1.28839E+00 9.78190E-01 4.22503E-08-7.90264E-02 6.34350E-09 1.32151E-09
 -1     26168 1.30588E+00 9.60699E-01 9.43979E-09-5.60775E-02 3.08332E-09 4.79294E-10
 -1     26173 1.30088E+00 9.65699E-01 4.11151E-08-5.44529E-02 1.08201E-08 1.64363E-09
 -1     26174 1.28839E+00 9.78190E-01 4.77728E-08-7.90264E-02 1.58702E-08 3.66382E-09
 -1     26175 1.30588E+00 9.60699E-01 9.67375E-09-5.60775E-02 4.13555E-09 7.33136E-10
 -1     26180 1.30088E+00 9.65699E-01 3.32912E-08-5.44529E-02 1.64623E-08 2.76771E-09
 -1     26181 1.28839E+00 9.78190E-01 2.55305E-08-7.90264E-02 3.26425E-08 7.77488E-09
 -1     26182 1.30588E+00 9.60699E-01 5.76055E-10-5.60775E-02 4.24561E-09 7.05693E-10
 -1     26187 1.30088E+00 9.65699E-01 9.89661E-09-5.44529E-02 7.68054E-09 1.10860E-09
 -1     26191 1.30522E+00 9.61361E-01 2.85158E-08-2.72306E-02-3.42579E-08-2.53193E-09
 -1     26195 1.30522E+00 9.61361E-01 5.04922E-08-2.72306E-02-2.08567E-08-1.29339E-09
 -1     26199 1.30522E+00 9.61361E-01 4.70634E-08-2.72306E-02-1.15660E-08-4.75670E-10
 -1     26203 1.30522E+00 9.61361E-01 4.49874E-08-2.72306E-02-5.69731E-09-1.27012E-10
 -1     26207 1.30522E+00 9.61361E-01 4.49527E-08-2.72306E-02-1.83004E-09-2.02502E-11
 -1     26211 1.30522E+00 9.61361E-01 4.49528E-08-2.72306E-02 1.82995E-09 2.02052E-11
 -1     26215 1.30522E+00 9.61361E-01 4.49874E-08-2.72306E-02 5.69738E-09 1.26973E-10
 -1     26219 1.30522E+00 9.61361E-01 4.70634E-08-2.72306E-02 1.15660E-08 4.75642E-10
 -1     26223 1.30522E+00 9.61361E-01 5.04922E-08-2.72306E-02 2.08567E-08 1.29337E-09
 -1     26227 1.30522E+00 9.61361E-01 2.85159E-08-2.72306E-02 3.42579E-08 2.53192E-09
 -1     26233 9.74875E-01 1.29170E+00-6.78827E-08-5.14713E-02 4.57621E-09 2.97245E-08
 -1     26234 9.70776E-01 1.29580E+00-1.01583E-07-2.57393E-02 6.44848E-09 8.15599E-08
 -1     26235 9.70287E-01 1.29629E+00 5.95254E-10-5.29623E-02 1.58230E-09 1.05053E-08
 -1     26240 9.74875E-01 1.29170E+00-1.11974E-07-5.14713E-02 6.27418E-09 4.04145E-08
 -1     26241 9.70776E-01 1.29580E+00-1.65990E-07-2.57393E-02 4.24187E-09 5.34921E-08
 -1     26242 9.70287E-01 1.29629E+00-2.81206E-08-5.29623E-02 3.26979E-10 2.47710E-09
 -1     26247 9.74875E-01 1.29170E+00-1.49807E-07-5.14713E-02 5.28948E-09 3.38168E-08
 -1     26248 9.70776E-01 1.29580E+00-1.58491E-07-2.57393E-02 1.79988E-09 2.25705E-08
 -1     26249 9.70287E-01 1.29629E+00-2.81203E-08-5.29623E-02 1.83107E-10 1.45404E-09
 -1     26254 9.74875E-01 1.29170E+00-1.59212E-07-5.14713E-02 2.09890E-09 1.35176E-08
 -1     26255 9.70776E-01 1.29580E+00-1.49434E-07-2.57393E-02 1.99453E-10 2.34116E-09
 -1     26256 9.70287E-01 1.29629E+00-2.97694E-08-5.29623E-02 1.62693E-10 1.21474E-09
 -1     26261 9.74875E-01 1.29170E+00-1.50577E-07-5.14713E-02 1.75529E-10 1.24395E-09
 -1     26262 9.70776E-01 1.29580E+00-1.43153E-07-2.57393E-02-9.28139E-11-1.24588E-09
 -1     26263 9.70287E-01 1.29629E+00-3.20007E-08-5.29623E-02 5.11285E-11 3.87185E-10
 -1     26268 9.74875E-01 1.29170E+00-1.45518E-07-5.14713E-02-2.26753E-14 7.28132E-14
 -1     26269 9.70776E-01 1.29580E+00-1.43153E-07-2.57393E-02 9.28213E-11 1.24591E-09
 -1     26270 9.70287E-01 1.29629E+00-3.20007E-08-5.29623E-02-5.11442E-11-3.87089E-10
 -1     26275 9.74875E-01 1.29170E+00-1.50577E-07-5.14713E-02-1.75526E-10-1.24395E-09
 -1     26276 9.70776E-01 1.29580E+00-1.49434E-07-2.57393E-02-1.99440E-10-2.34119E-09
 -1     26277 9.70287E-01 1.29629E+00-2.97694E-08-5.29623E-02-1.62690E-10-1.21476E-09
 -1     26282 9.74875E-01 1.29170E+00-1.59212E-07-5.14713E-02-2.09892E-09-1.35175E-08
 -1     26283 9.70776E-01 1.29580E+00-1.58491E-07-2.57393E-02-1.79990E-09-2.25705E-08
 -1     26284 9.70287E-01 1.29629E+00-2.81204E-08-5.29623E-02-1.83107E-10-1.45396E-09
 -1     26289 9.74875E-01 1.29170E+00-1.49807E-07-5.14713E-02-5.28945E-09-3.38168E-08
 -1     26290 9.70776E-01 1.29580E+00-1.65990E-07-2.57393E-02-4.24188E-09-5.34922E-08
 -1     26291 9.70287E-01 1.29629E+00-2.81207E-08-5.29623E-02-3.26968E-10-2.47716E-09
 -1     26296 9.74875E-01 1.29170E+00-1.11974E-07-5.14713E-02-6.27418E-09-4.04145E-08
 -1     26297 9.70776E-01 1.29580E+00-1.01583E-07-2.57393E-02-6.44850E-09-8.15599E-08
 -1     26298 9.70287E-01 1.29629E+00 5.95232E-10-5.29623E-02-1.58231E-09-1.05054E-08
 -1     26303 9.74875E-01 1.29170E+00-6.78827E-08-5.14713E-02-4.57622E-09-2.97246E-08
 -1     26307 9.98534E-01 1.26804E+00-6.78031E-08-9.79043E-02 9.17310E-09 2.87573E-08
 -1     26308 9.86684E-01 1.27989E+00-1.01535E-07-7.46984E-02 1.91391E-08 7.95002E-08
 -1     26309 9.94631E-01 1.27194E+00 5.81765E-10-1.00740E-01 3.29437E-09 1.02444E-08
 -1     26314 9.98534E-01 1.26804E+00-1.11866E-07-9.79043E-02 1.27278E-08 3.90862E-08
 -1     26315 9.86684E-01 1.27989E+00-1.65966E-07-7.46984E-02 1.25509E-08 5.21322E-08
 -1     26316 9.94631E-01 1.27194E+00-2.82411E-08-1.00740E-01 9.00469E-10 2.55181E-09
 -1     26321 9.98534E-01 1.26804E+00-1.49940E-07-9.79043E-02 1.08535E-08 3.27691E-08
 -1     26322 9.86684E-01 1.27989E+00-1.58470E-07-7.46984E-02 5.29134E-09 2.19853E-08
 -1     26323 9.94631E-01 1.27194E+00-2.83033E-08-1.00740E-01 6.13322E-10 1.55319E-09
 -1     26328 9.98534E-01 1.26804E+00-1.59559E-07-9.79042E-02 4.47290E-09 1.31546E-08
 -1     26329 9.86684E-01 1.27989E+00-1.49413E-07-7.46984E-02 5.44140E-10 2.25266E-09
 -1     26330 9.94631E-01 1.27194E+00-2.99772E-08-1.00740E-01 4.98363E-10 1.27517E-09
 -1     26335 9.98534E-01 1.26804E+00-1.50948E-07-9.79042E-02 5.19978E-10 1.24861E-09
 -1     26336 9.86684E-01 1.27989E+00-1.43126E-07-7.46984E-02-2.93873E-10-1.22497E-09
 -1     26337 9.94631E-01 1.27194E+00-3.22177E-08-1.00740E-01 1.62887E-10 4.05927E-10
 -1     26342 9.98534E-01 1.26804E+00-1.45897E-07-9.79042E-02-1.89257E-14 4.53223E-14
 -1     26343 9.86684E-01 1.27989E+00-1.43126E-07-7.46984E-02 2.93873E-10 1.22503E-09
 -1     26344 9.94631E-01 1.27194E+00-3.22177E-08-1.00740E-01-1.62917E-10-4.05918E-10
 -1     26349 9.98534E-01 1.26804E+00-1.50948E-07-9.79042E-02-5.19975E-10-1.24882E-09
 -1     26350 9.86684E-01 1.27989E+00-1.49413E-07-7.46984E-02-5.44157E-10-2.25274E-09
 -1     26351 9.94631E-01 1.27194E+00-2.99772E-08-1.00740E-01-4.98400E-10-1.27533E-09
 -1     26356 9.98534E-01 1.26804E+00-1.59559E-07-9.79042E-02-4.47291E-09-1.31547E-08
 -1     26357 9.86684E-01 1.27989E+00-1.58470E-07-7.46984E-02-5.29134E-09-2.19853E-08
 -1     26358 9.94631E-01 1.27194E+00-2.83033E-08-1.00740E-01-6.13307E-10-1.55327E-09
 -1     26363 9.98534E-01 1.26804E+00-1.49940E-07-9.79043E-02-1.08535E-08-3.27691E-08
 -1     26364 9.86684E-01 1.27989E+00-1.65966E-07-7.46984E-02-1.25510E-08-5.21322E-08
 -1     26365 9.94631E-01 1.27194E+00-2.82410E-08-1.00740E-01-9.00478E-10-2.55188E-09
 -1     26370 9.98534E-01 1.26804E+00-1.11866E-07-9.79043E-02-1.27279E-08-3.90862E-08
 -1     26371 9.86684E-01 1.27989E+00-1.01534E-07-7.46984E-02-1.91391E-08-7.95002E-08
 -1     26372 9.94631E-01 1.27194E+00 5.81802E-10-1.00740E-01-3.29434E-09-1.02445E-08
 -1     26377 9.98534E-01 1.26804E+00-6.78030E-08-9.79043E-02-9.17312E-09-2.87573E-08
 -1     26381 1.03538E+00 1.23119E+00-6.71728E-08-1.34754E-01 1.33960E-08 2.67374E-08
 -1     26382 1.01694E+00 1.24963E+00-1.01845E-07-1.16345E-01 3.13099E-08 7.56493E-08
 -1     26383 1.03255E+00 1.23403E+00 3.90835E-10-1.38657E-01 4.71061E-09 9.32115E-09
 -1     26388 1.03538E+00 1.23119E+00-1.11831E-07-1.34754E-01 1.85195E-08 3.61333E-08
 -1     26389 1.01694E+00 1.24963E+00-1.66085E-07-1.16345E-01 2.03956E-08 4.96022E-08
 -1     26390 1.03255E+00 1.23403E+00-2.81320E-08-1.38657E-01 1.15637E-09 1.92866E-09
 -1     26395 1.03538E+00 1.23119E+00-1.49819E-07-1.34754E-01 1.55570E-08 2.97958E-08
 -1     26396 1.01694E+00 1.24963E+00-1.58420E-07-1.16345E-01 8.48256E-09 2.09361E-08
 -1     26397 1.03255E+00 1.23403E+00-2.80182E-08-1.38657E-01 7.07630E-10 9.42268E-10
 -1     26402 1.03538E+00 1.23119E+00-1.59068E-07-1.34754E-01 6.19831E-09 1.15582E-08
 -1     26403 1.01694E+00 1.24963E+00-1.49288E-07-1.16345E-01 7.87457E-10 2.22694E-09
 -1     26404 1.03255E+00 1.23403E+00-2.95858E-08-1.38657E-01 5.65382E-10 7.88077E-10
 -1     26409 1.03538E+00 1.23119E+00-1.50435E-07-1.34754E-01 5.57444E-10 7.79304E-10
 -1     26410 1.01694E+00 1.24963E+00-1.43014E-07-1.16345E-01-5.17908E-10-1.13375E-09
 -1     26411 1.03255E+00 1.23403E+00-3.17560E-08-1.38657E-01 1.79628E-10 2.38742E-10
 -1     26416 1.03538E+00 1.23119E+00-1.45340E-07-1.34754E-01-3.08339E-16 4.28664E-15
 -1     26417 1.01694E+00 1.24963E+00-1.43014E-07-1.16345E-01 5.17929E-10 1.13383E-09
 -1     26418 1.03255E+00 1.23403E+00-3.17561E-08-1.38657E-01-1.79651E-10-2.38638E-10
 -1     26423 1.03538E+00 1.23119E+00-1.50435E-07-1.34754E-01-5.57479E-10-7.78971E-10
 -1     26424 1.01694E+00 1.24963E+00-1.49288E-07-1.16345E-01-7.87501E-10-2.22698E-09
 -1     26425 1.03255E+00 1.23403E+00-2.95858E-08-1.38657E-01-5.65387E-10-7.88012E-10
 -1     26430 1.03538E+00 1.23119E+00-1.59068E-07-1.34754E-01-6.19835E-09-1.15582E-08
 -1     26431 1.01694E+00 1.24963E+00-1.58420E-07-1.16345E-01-8.48256E-09-2.09361E-08
 -1     26432 1.03255E+00 1.23403E+00-2.80183E-08-1.38657E-01-7.07699E-10-9.42196E-10
 -1     26437 1.03538E+00 1.23119E+00-1.49819E-07-1.34754E-01-1.55570E-08-2.97956E-08
 -1     26438 1.01694E+00 1.24963E+00-1.66085E-07-1.16345E-01-2.03957E-08-4.96022E-08
 -1     26439 1.03255E+00 1.23403E+00-2.81320E-08-1.38657E-01-1.15636E-09-1.92860E-09
 -1     26444 1.03538E+00 1.23119E+00-1.11832E-07-1.34754E-01-1.85194E-08-3.61332E-08
 -1     26445 1.01694E+00 1.24963E+00-1.01845E-07-1.16345E-01-3.13099E-08-7.56492E-08
 -1     26446 1.03255E+00 1.23403E+00 3.90789E-10-1.38657E-01-4.71058E-09-9.32108E-09
 -1     26451 1.03538E+00 1.23119E+00-6.71729E-08-1.34754E-01-1.33959E-08-2.67374E-08
 -1     26455 1.08182E+00 1.18476E+00-6.87251E-08-1.58412E-01 1.80354E-08 2.53776E-08
 -1     26456 1.05859E+00 1.20799E+00-1.01679E-07-1.46604E-01 4.34601E-08 7.02852E-08
 -1     26457 1.08033E+00 1.18625E+00 7.67469E-10-1.63001E-01 6.79623E-09 9.90319E-09
 -1     26462 1.08182E+00 1.18476E+00-1.13724E-07-1.58412E-01 2.52656E-08 3.55203E-08
 -1     26463 1.05859E+00 1.20799E+00-1.66915E-07-1.46604E-01 2.94612E-08 4.71139E-08
 -1     26464 1.08033E+00 1.18625E+00-2.93241E-08-1.63001E-01 2.43440E-09 3.79452E-09
 -1     26469 1.08182E+00 1.18476E+00-1.52790E-07-1.58412E-01 2.18678E-08 3.08314E-08
 -1     26470 1.05859E+00 1.20799E+00-1.60368E-07-1.46604E-01 1.34361E-08 2.08740E-08
 -1     26471 1.08033E+00 1.18625E+00-3.03868E-08-1.63001E-01 1.84970E-09 2.96727E-09
 -1     26476 1.08182E+00 1.18476E+00-1.63630E-07-1.58412E-01 9.51901E-09 1.37948E-08
 -1     26477 1.05859E+00 1.20799E+00-1.52117E-07-1.46604E-01 2.36717E-09 3.04965E-09
 -1     26478 1.08033E+00 1.18625E+00-3.29442E-08-1.63001E-01 1.52784E-09 2.40315E-09
 -1     26483 1.08182E+00 1.18476E+00-1.55690E-07-1.58412E-01 1.55121E-09 2.54701E-09
 -1     26484 1.05859E+00 1.20799E+00-1.46231E-07-1.46604E-01-2.22694E-10-6.69856E-10
 -1     26485 1.08033E+00 1.18625E+00-3.57708E-08-1.63001E-01 5.20859E-10 8.26220E-10
 -1     26490 1.08182E+00 1.18476E+00-1.51044E-07-1.58412E-01 1.36319E-15-4.55832E-14
 -1     26491 1.05859E+00 1.20799E+00-1.46231E-07-1.46604E-01 2.22665E-10 6.69882E-10
 -1     26492 1.08033E+00 1.18625E+00-3.57709E-08-1.63001E-01-5.20875E-10-8.26343E-10
 -1     26497 1.08182E+00 1.18476E+00-1.55690E-07-1.58412E-01-1.55126E-09-2.54711E-09
 -1     26498 1.05859E+00 1.20799E+00-1.52117E-07-1.46604E-01-2.36725E-09-3.04968E-09
 -1     26499 1.08033E+00 1.18625E+00-3.29442E-08-1.63001E-01-1.52792E-09-2.40323E-09
 -1     26504 1.08182E+00 1.18476E+00-1.63630E-07-1.58412E-01-9.51914E-09-1.37948E-08
 -1     26505 1.05859E+00 1.20799E+00-1.60368E-07-1.46604E-01-1.34361E-08-2.08739E-08
 -1     26506 1.08033E+00 1.18625E+00-3.03868E-08-1.63001E-01-1.84972E-09-2.96741E-09
 -1     26511 1.08182E+00 1.18476E+00-1.52790E-07-1.58412E-01-2.18680E-08-3.08315E-08
 -1     26512 1.05859E+00 1.20799E+00-1.66915E-07-1.46604E-01-2.94612E-08-4.71140E-08
 -1     26513 1.08033E+00 1.18625E+00-2.93241E-08-1.63001E-01-2.43453E-09-3.79450E-09
 -1     26518 1.08182E+00 1.18476E+00-1.13724E-07-1.58412E-01-2.52656E-08-3.55204E-08
 -1     26519 1.05859E+00 1.20799E+00-1.01679E-07-1.46604E-01-4.34600E-08-7.02852E-08
 -1     26520 1.08033E+00 1.18625E+00 7.67503E-10-1.63001E-01-6.79620E-09-9.90319E-09
 -1     26525 1.08182E+00 1.18476E+00-6.87251E-08-1.58412E-01-1.80354E-08-2.53776E-08
 -1     26529 1.13329E+00 1.13329E+00-7.06838E-08-1.66565E-01 2.28107E-08 2.32185E-08
 -1     26530 1.10755E+00 1.15903E+00-9.96879E-08-1.62512E-01 5.39922E-08 6.26858E-08
 -1     26531 1.13329E+00 1.13329E+00 1.47851E-09-1.71389E-01 9.52081E-09 9.56299E-09
 -1     26536 1.13329E+00 1.13329E+00-1.13694E-07-1.66565E-01 3.22164E-08 3.25624E-08
 -1     26537 1.10755E+00 1.15903E+00-1.67245E-07-1.62512E-01 3.78783E-08 4.35892E-08
 -1     26538 1.13329E+00 1.13329E+00-3.01370E-08-1.71389E-01 4.56105E-09 4.76734E-09
 -1     26543 1.13329E+00 1.13329E+00-1.53972E-07-1.66565E-01 2.92248E-08 2.96838E-08
 -1     26544 1.10755E+00 1.15903E+00-1.62874E-07-1.62512E-01 1.83550E-08 2.07002E-08
 -1     26545 1.13329E+00 1.13329E+00-3.20345E-08-1.71389E-01 3.87690E-09 4.16124E-09
 -1     26550 1.13329E+00 1.13329E+00-1.66983E-07-1.66565E-01 1.39514E-08 1.42106E-08
 -1     26551 1.10755E+00 1.15903E+00-1.56045E-07-1.62512E-01 3.71965E-09 3.80173E-09
 -1     26552 1.13329E+00 1.13329E+00-3.50695E-08-1.71389E-01 3.14898E-09 3.34162E-09
 -1     26557 1.13329E+00 1.13329E+00-1.59148E-07-1.66565E-01 3.13529E-09 3.21489E-09
 -1     26558 1.10755E+00 1.15903E+00-1.50495E-07-1.62512E-01 2.44575E-11-1.66099E-10
 -1     26559 1.13329E+00 1.13329E+00-3.82096E-08-1.71389E-01 1.07568E-09 1.13868E-09
 -1     26564 1.13329E+00 1.13329E+00-1.54707E-07-1.66565E-01 3.10658E-14 3.56680E-14
 -1     26565 1.10755E+00 1.15903E+00-1.50495E-07-1.62512E-01-2.44367E-11 1.66118E-10
 -1     26566 1.13329E+00 1.13329E+00-3.82095E-08-1.71389E-01-1.07555E-09-1.13866E-09
 -1     26571 1.13329E+00 1.13329E+00-1.59148E-07-1.66565E-01-3.13538E-09-3.21477E-09
 -1     26572 1.10755E+00 1.15903E+00-1.56045E-07-1.62512E-01-3.71980E-09-3.80167E-09
 -1     26573 1.13329E+00 1.13329E+00-3.50694E-08-1.71389E-01-3.14903E-09-3.34148E-09
 -1     26578 1.13329E+00 1.13329E+00-1.66983E-07-1.66565E-01-1.39514E-08-1.42104E-08
 -1     26579 1.10755E+00 1.15903E+00-1.62874E-07-1.62512E-01-1.83551E-08-2.07002E-08
 -1     26580 1.13329E+00 1.13329E+00-3.20345E-08-1.71389E-01-3.87697E-09-4.16109E-09
 -1     26585 1.13329E+00 1.13329E+00-1.53972E-07-1.66565E-01-2.92248E-08-2.96839E-08
 -1     26586 1.10755E+00 1.15903E+00-1.67245E-07-1.62512E-01-3.78784E-08-4.35892E-08
 -1     26587 1.13329E+00 1.13329E+00-3.01371E-08-1.71389E-01-4.56106E-09-4.76738E-09
 -1     26592 1.13329E+00 1.13329E+00-1.13694E-07-1.66565E-01-3.22163E-08-3.25623E-08
 -1     26593 1.10755E+00 1.15903E+00-9.96879E-08-1.62512E-01-5.39922E-08-6.26858E-08
 -1     26594 1.13329E+00 1.13329E+00 1.47849E-09-1.71389E-01-9.52079E-09-9.56298E-09
 -1     26599 1.13329E+00 1.13329E+00-7.06837E-08-1.66565E-01-2.28106E-08-2.32187E-08
 -1     26603 1.18476E+00 1.08182E+00-6.33212E-08-1.58412E-01 2.14999E-08 1.57704E-08
 -1     26604 1.15903E+00 1.10755E+00-1.02319E-07-1.62512E-01 6.11974E-08 5.35114E-08
 -1     26605 1.18625E+00 1.08033E+00-7.89370E-10-1.63001E-01 5.39176E-09 3.71736E-09
 -1     26610 1.18476E+00 1.08182E+00-1.08942E-07-1.58412E-01 2.74470E-08 1.94430E-08
 -1     26611 1.15903E+00 1.10755E+00-1.65318E-07-1.62512E-01 3.80512E-08 3.50906E-08
 -1     26612 1.18625E+00 1.08033E+00-2.50303E-08-1.63001E-01-2.62113E-09-2.29647E-09
 -1     26617 1.18476E+00 1.08182E+00-1.43327E-07-1.58412E-01 1.88752E-08 1.30443E-08
 -1     26618 1.15903E+00 1.10755E+00-1.56403E-07-1.62512E-01 1.39655E-08 1.49326E-08
 -1     26619 1.18625E+00 1.08033E+00-2.19396E-08-1.63001E-01-3.69908E-09-3.05626E-09
 -1     26624 1.18476E+00 1.08182E+00-1.47382E-07-1.58412E-01 3.51223E-09 1.97102E-09
 -1     26625 1.15903E+00 1.10755E+00-1.46361E-07-1.62512E-01-4.01990E-10 1.89001E-09
 -1     26626 1.18625E+00 1.08033E+00-2.12245E-08-1.63001E-01-3.00274E-09-2.43873E-09
 -1     26631 1.18476E+00 1.08182E+00-1.37218E-07-1.58412E-01-2.99016E-09-2.50996E-09
 -1     26632 1.15903E+00 1.10755E+00-1.39739E-07-1.62512E-01-1.77209E-09-6.85263E-10
 -1     26633 1.18625E+00 1.08033E+00-2.18844E-08-1.63001E-01-1.09722E-09-8.89932E-10
 -1     26638 1.18476E+00 1.08182E+00-1.31056E-07-1.58412E-01-3.11296E-14 1.15609E-14
 -1     26639 1.15903E+00 1.10755E+00-1.39739E-07-1.62512E-01 1.77216E-09 6.85265E-10
 -1     26640 1.18625E+00 1.08033E+00-2.18844E-08-1.63001E-01 1.09713E-09 8.89958E-10
 -1     26645 1.18476E+00 1.08182E+00-1.37218E-07-1.58412E-01 2.99017E-09 2.50995E-09
 -1     26646 1.15903E+00 1.10755E+00-1.46361E-07-1.62512E-01 4.01962E-10-1.88996E-09
 -1     26647 1.18625E+00 1.08033E+00-2.12246E-08-1.63001E-01 3.00276E-09 2.43869E-09
 -1     26652 1.18476E+00 1.08182E+00-1.47382E-07-1.58412E-01-3.51220E-09-1.97104E-09
 -1     26653 1.15903E+00 1.10755E+00-1.56403E-07-1.62512E-01-1.39656E-08-1.49325E-08
 -1     26654 1.18625E+00 1.08033E+00-2.19396E-08-1.63001E-01 3.69913E-09 3.05618E-09
 -1     26659 1.18476E+00 1.08182E+00-1.43327E-07-1.58412E-01-1.88751E-08-1.30443E-08
 -1     26660 1.15903E+00 1.10755E+00-1.65318E-07-1.62512E-01-3.80511E-08-3.50907E-08
 -1     26661 1.18625E+00 1.08033E+00-2.50304E-08-1.63001E-01 2.62122E-09 2.29647E-09
 -1     26666 1.18476E+00 1.08182E+00-1.08942E-07-1.58412E-01-2.74470E-08-1.94429E-08
 -1     26667 1.15903E+00 1.10755E+00-1.02319E-07-1.62512E-01-6.11974E-08-5.35114E-08
 -1     26668 1.18625E+00 1.08033E+00-7.89416E-10-1.63001E-01-5.39170E-09-3.71732E-09
 -1     26673 1.18476E+00 1.08182E+00-6.33213E-08-1.58412E-01-2.14999E-08-1.57704E-08
 -1     26677 1.23119E+00 1.03538E+00-6.70306E-08-1.34754E-01 2.67924E-08 1.37254E-08
 -1     26678 1.20799E+00 1.05859E+00-1.04389E-07-1.46604E-01 6.95346E-08 4.19419E-08
 -1     26679 1.23403E+00 1.03255E+00 3.08847E-10-1.38657E-01 9.32950E-09 4.97335E-09
 -1     26684 1.23119E+00 1.03538E+00-1.12138E-07-1.34754E-01 3.63257E-08 1.81809E-08
 -1     26685 1.20799E+00 1.05859E+00-1.64989E-07-1.46604E-01 4.27451E-08 2.51062E-08
 -1     26686 1.23403E+00 1.03255E+00-2.81801E-08-1.38657E-01 2.08784E-09 8.09307E-10
 -1     26691 1.23119E+00 1.03538E+00-1.49932E-07-1.34754E-01 3.00005E-08 1.47856E-08
 -1     26692 1.20799E+00 1.05859E+00-1.53891E-07-1.46604E-01 1.54963E-08 8.20368E-09
 -1     26693 1.23403E+00 1.03255E+00-2.79807E-08-1.38657E-01 1.08246E-09 2.57826E-10
 -1     26698 1.23119E+00 1.03538E+00-1.59060E-07-1.34754E-01 1.16104E-08 5.75889E-09
 -1     26699 1.20799E+00 1.05859E+00-1.42438E-07-1.46604E-01-1.42438E-11-1.01999E-09
 -1     26700 1.23403E+00 1.03255E+00-2.95177E-08-1.38657E-01 8.72363E-10 2.66668E-10
 -1     26705 1.23119E+00 1.03538E+00-1.50360E-07-1.34754E-01 7.65054E-10 4.01802E-10
 -1     26706 1.20799E+00 1.05859E+00-1.35475E-07-1.46604E-01-1.84950E-09-1.51597E-09
 -1     26707 1.23403E+00 1.03255E+00-3.16834E-08-1.38657E-01 2.63416E-10 8.06797E-11
 -1     26712 1.23119E+00 1.03538E+00-1.45253E-07-1.34754E-01 4.52850E-14-4.55769E-14
 -1     26713 1.20799E+00 1.05859E+00-1.35475E-07-1.46604E-01 1.84958E-09 1.51595E-09
 -1     26714 1.23403E+00 1.03255E+00-3.16834E-08-1.38657E-01-2.63436E-10-8.07318E-11
 -1     26719 1.23119E+00 1.03538E+00-1.50360E-07-1.34754E-01-7.65123E-10-4.01844E-10
 -1     26720 1.20799E+00 1.05859E+00-1.42438E-07-1.46604E-01 1.42555E-11 1.02002E-09
 -1     26721 1.23403E+00 1.03255E+00-2.95177E-08-1.38657E-01-8.72395E-10-2.66692E-10
 -1     26726 1.23119E+00 1.03538E+00-1.59060E-07-1.34754E-01-1.16104E-08-5.75893E-09
 -1     26727 1.20799E+00 1.05859E+00-1.53891E-07-1.46604E-01-1.54963E-08-8.20374E-09
 -1     26728 1.23403E+00 1.03255E+00-2.79806E-08-1.38657E-01-1.08248E-09-2.57841E-10
 -1     26733 1.23119E+00 1.03538E+00-1.49932E-07-1.34754E-01-3.00006E-08-1.47856E-08
 -1     26734 1.20799E+00 1.05859E+00-1.64989E-07-1.46604E-01-4.27450E-08-2.51062E-08
 -1     26735 1.23403E+00 1.03255E+00-2.81801E-08-1.38657E-01-2.08780E-09-8.09279E-10
 -1     26740 1.23119E+00 1.03538E+00-1.12138E-07-1.34754E-01-3.63256E-08-1.81809E-08
 -1     26741 1.20799E+00 1.05859E+00-1.04389E-07-1.46604E-01-6.95346E-08-4.19418E-08
 -1     26742 1.23403E+00 1.03255E+00 3.08900E-10-1.38657E-01-9.32957E-09-4.97336E-09
 -1     26747 1.23119E+00 1.03538E+00-6.70306E-08-1.34754E-01-2.67925E-08-1.37254E-08
 -1     26751 1.26804E+00 9.98534E-01-7.30087E-08-9.79043E-02 3.31045E-08 1.08288E-08
 -1     26752 1.24963E+00 1.01694E+00-9.95928E-08-1.16345E-01 7.73995E-08 3.10916E-08
 -1     26753 1.27194E+00 9.94631E-01 1.92802E-09-1.00740E-01 1.54287E-08 5.14504E-09
 -1     26758 1.26804E+00 9.98534E-01-1.17456E-07-9.79043E-02 4.83070E-08 1.59820E-08
 -1     26759 1.24963E+00 1.01694E+00-1.67990E-07-1.16345E-01 5.56572E-08 2.13302E-08
 -1     26760 1.27194E+00 9.94631E-01-3.24249E-08-1.00740E-01 9.79666E-09 3.41664E-09
 -1     26765 1.26804E+00 9.98534E-01-1.59385E-07-9.79043E-02 4.60739E-08 1.55848E-08
 -1     26766 1.24963E+00 1.01694E+00-1.64721E-07-1.16345E-01 2.82438E-08 9.68266E-09
 -1     26767 1.27194E+00 9.94631E-01-3.63583E-08-1.00740E-01 8.96499E-09 3.24993E-09
 -1     26772 1.26804E+00 9.98534E-01-1.75066E-07-9.79042E-02 2.46144E-08 8.58192E-09
 -1     26773 1.24963E+00 1.01694E+00-1.58751E-07-1.16345E-01 6.71006E-09 1.22073E-09
 -1     26774 1.27194E+00 9.94631E-01-4.12006E-08-1.00740E-01 7.30063E-09 2.62781E-09
 -1     26779 1.26804E+00 9.98534E-01-1.68537E-07-9.79042E-02 7.47252E-09 2.75557E-09
 -1     26780 1.24963E+00 1.01694E+00-1.53535E-07-1.16345E-01 5.78394E-10-3.46403E-10
 -1     26781 1.27194E+00 9.94631E-01-4.55704E-08-1.00740E-01 2.55674E-09 9.23811E-10
 -1     26786 1.26804E+00 9.98534E-01-1.64954E-07-9.79042E-02 3.73710E-14 2.73970E-14
 -1     26787 1.24963E+00 1.01694E+00-1.53535E-07-1.16345E-01-5.78353E-10 3.46409E-10
 -1     26788 1.27194E+00 9.94631E-01-4.55705E-08-1.00740E-01-2.55663E-09-9.23811E-10
 -1     26793 1.26804E+00 9.98534E-01-1.68537E-07-9.79042E-02-7.47242E-09-2.75558E-09
 -1     26794 1.24963E+00 1.01694E+00-1.58751E-07-1.16345E-01-6.71007E-09-1.22072E-09
 -1     26795 1.27194E+00 9.94631E-01-4.12006E-08-1.00740E-01-7.30051E-09-2.62779E-09
 -1     26800 1.26804E+00 9.98534E-01-1.75066E-07-9.79042E-02-2.46143E-08-8.58194E-09
 -1     26801 1.24963E+00 1.01694E+00-1.64721E-07-1.16345E-01-2.82438E-08-9.68266E-09
 -1     26802 1.27194E+00 9.94631E-01-3.63583E-08-1.00740E-01-8.96493E-09-3.24988E-09
 -1     26807 1.26804E+00 9.98534E-01-1.59385E-07-9.79043E-02-4.60738E-08-1.55848E-08
 -1     26808 1.24963E+00 1.01694E+00-1.67990E-07-1.16345E-01-5.56571E-08-2.13301E-08
 -1     26809 1.27194E+00 9.94631E-01-3.24248E-08-1.00740E-01-9.79655E-09-3.41662E-09
 -1     26814 1.26804E+00 9.98534E-01-1.17456E-07-9.79043E-02-4.83069E-08-1.59821E-08
 -1     26815 1.24963E+00 1.01694E+00-9.95928E-08-1.16345E-01-7.73994E-08-3.10916E-08
 -1     26816 1.27194E+00 9.94631E-01 1.92805E-09-1.00740E-01-1.54286E-08-5.14501E-09
 -1     26821 1.26804E+00 9.98534E-01-7.30088E-08-9.79043E-02-3.31045E-08-1.08288E-08
 -1     26825 1.29170E+00 9.74875E-01-6.86198E-08-5.14713E-02 3.00710E-08 4.79300E-09
 -1     26826 1.27989E+00 9.86684E-01-9.87496E-08-7.46984E-02 8.02961E-08 2.00313E-08
 -1     26827 1.29629E+00 9.70287E-01 7.87211E-10-5.29623E-02 1.05835E-08 1.40388E-09
 -1     26832 1.29170E+00 9.74875E-01-1.11879E-07-5.14713E-02 3.99121E-08 6.68908E-09
 -1     26833 1.27989E+00 9.86684E-01-1.67276E-07-7.46984E-02 5.68147E-08 1.51251E-08
 -1     26834 1.29629E+00 9.70287E-01-2.77949E-08-5.29623E-02 2.14793E-09 6.50280E-10
 -1     26839 1.29170E+00 9.74875E-01-1.48907E-07-5.14713E-02 3.32169E-08 6.17178E-09
 -1     26840 1.27989E+00 9.86684E-01-1.64035E-07-7.46984E-02 2.78040E-08 8.39833E-09
 -1     26841 1.29629E+00 9.70287E-01-2.74667E-08-5.29623E-02 1.06561E-09 6.82496E-10
 -1     26846 1.29170E+00 9.74875E-01-1.58109E-07-5.14713E-02 1.30166E-08 2.59249E-09
 -1     26847 1.27989E+00 9.86684E-01-1.57925E-07-7.46984E-02 5.46659E-09 2.63689E-09
 -1     26848 1.29629E+00 9.70287E-01-2.88377E-08-5.29623E-02 9.50806E-10 5.04762E-10
 -1     26853 1.29170E+00 9.74875E-01-1.49038E-07-5.14713E-02 9.15123E-10 3.16533E-10
 -1     26854 1.27989E+00 9.86684E-01-1.52496E-07-7.46984E-02 1.27808E-11 5.06342E-10
 -1     26855 1.29629E+00 9.70287E-01-3.09214E-08-5.29623E-02 2.81835E-10 1.60991E-10
 -1     26860 1.29170E+00 9.74875E-01-1.43847E-07-5.14713E-02-1.23635E-14-1.14091E-14
 -1     26861 1.27989E+00 9.86684E-01-1.52496E-07-7.46984E-02-1.27592E-11-5.06358E-10
 -1     26862 1.29629E+00 9.70287E-01-3.09213E-08-5.29623E-02-2.81860E-10-1.61026E-10
 -1     26867 1.29170E+00 9.74875E-01-1.49038E-07-5.14713E-02-9.15104E-10-3.16555E-10
 -1     26868 1.27989E+00 9.86684E-01-1.57925E-07-7.46984E-02-5.46664E-09-2.63688E-09
 -1     26869 1.29629E+00 9.70287E-01-2.88376E-08-5.29623E-02-9.50810E-10-5.04768E-10
 -1     26874 1.29170E+00 9.74875E-01-1.58109E-07-5.14713E-02-1.30166E-08-2.59251E-09
 -1     26875 1.27989E+00 9.86684E-01-1.64035E-07-7.46984E-02-2.78040E-08-8.39830E-09
 -1     26876 1.29629E+00 9.70287E-01-2.74668E-08-5.29623E-02-1.06559E-09-6.82514E-10
 -1     26881 1.29170E+00 9.74875E-01-1.48907E-07-5.14713E-02-3.32169E-08-6.17181E-09
 -1     26882 1.27989E+00 9.86684E-01-1.67276E-07-7.46984E-02-5.68147E-08-1.51251E-08
 -1     26883 1.29629E+00 9.70287E-01-2.77949E-08-5.29623E-02-2.14800E-09-6.50298E-10
 -1     26888 1.29170E+00 9.74875E-01-1.11879E-07-5.14713E-02-3.99121E-08-6.68908E-09
 -1     26889 1.27989E+00 9.86684E-01-9.87496E-08-7.46984E-02-8.02960E-08-2.00313E-08
 -1     26890 1.29629E+00 9.70287E-01 7.87194E-10-5.29623E-02-1.05836E-08-1.40390E-09
 -1     26895 1.29170E+00 9.74875E-01-6.86198E-08-5.14713E-02-3.00709E-08-4.79302E-09
 -1     26899 1.29580E+00 9.70776E-01-1.05666E-07-2.57393E-02 7.86030E-08 7.52642E-09
 -1     26903 1.29580E+00 9.70776E-01-1.62125E-07-2.57393E-02 4.24420E-08 5.89814E-09
 -1     26907 1.29580E+00 9.70776E-01-1.46828E-07-2.57393E-02 9.18981E-09 3.68200E-09
 -1     26911 1.29580E+00 9.70776E-01-1.32161E-07-2.57393E-02-5.87200E-09 1.76943E-09
 -1     26915 1.29580E+00 9.70776E-01-1.23879E-07-2.57393E-02-4.39295E-09 4.88359E-10
 -1     26919 1.29580E+00 9.70776E-01-1.23879E-07-2.57393E-02 4.39298E-09-4.88412E-10
 -1     26923 1.29580E+00 9.70776E-01-1.32161E-07-2.57393E-02 5.87200E-09-1.76947E-09
 -1     26927 1.29580E+00 9.70776E-01-1.46828E-07-2.57393E-02-9.18976E-09-3.68203E-09
 -1     26931 1.29580E+00 9.70776E-01-1.62125E-07-2.57393E-02-4.24420E-08-5.89815E-09
 -1     26935 1.29580E+00 9.70776E-01-1.05666E-07-2.57393E-02-7.86029E-08-7.52643E-09
 -1     26941 9.83325E-01 1.28325E+00 1.32953E-07-4.87262E-02-1.24542E-08-8.02083E-08
 -1     26942 9.79438E-01 1.28714E+00 3.60416E-07-2.43676E-02-2.54671E-08-3.23406E-07
 -1     26943 9.79101E-01 1.28748E+00 1.51696E-08-5.00985E-02-2.05466E-09-1.36185E-08
 -1     26948 9.83325E-01 1.28325E+00 4.25649E-07-4.87262E-02-3.44314E-08-2.18873E-07
 -1     26949 9.79438E-01 1.28714E+00 5.79652E-07-2.43677E-02-1.79967E-08-2.28485E-07
 -1     26950 9.79101E-01 1.28748E+00 8.67834E-08-5.00985E-02-1.98450E-09-1.29171E-08
 -1     26955 9.83325E-01 1.28325E+00 6.10260E-07-4.87262E-02-2.42074E-08-1.53410E-07
 -1     26956 9.79438E-01 1.28714E+00 6.08938E-07-2.43677E-02-6.78262E-09-8.61782E-08
 -1     26957 9.79101E-01 1.28748E+00 1.01650E-07-5.00985E-02-3.30467E-09-2.10153E-08
 -1     26962 9.83325E-01 1.28325E+00 6.08462E-07-4.87263E-02-8.22273E-09-5.21117E-08
 -1     26963 9.79438E-01 1.28714E+00 5.80693E-07-2.43677E-02-1.30556E-09-1.66744E-08
 -1     26964 9.79101E-01 1.28748E+00 1.18989E-07-5.00985E-02-2.03673E-09-1.28848E-08
 -1     26969 9.83325E-01 1.28325E+00 5.69194E-07-4.87263E-02-1.39823E-09-8.85695E-09
 -1     26970 9.79438E-01 1.28714E+00 5.53241E-07-2.43677E-02-3.54736E-11-5.01251E-10
 -1     26971 9.79101E-01 1.28748E+00 1.26290E-07-5.00985E-02-5.77548E-10-3.63955E-09
 -1     26976 9.83325E-01 1.28325E+00 5.53623E-07-4.87263E-02-5.41653E-15 1.25541E-13
 -1     26977 9.79438E-01 1.28714E+00 5.53241E-07-2.43677E-02 3.54765E-11 5.01248E-10
 -1     26978 9.79101E-01 1.28748E+00 1.26290E-07-5.00985E-02 5.77532E-10 3.63970E-09
 -1     26983 9.83325E-01 1.28325E+00 5.69194E-07-4.87263E-02 1.39823E-09 8.85706E-09
 -1     26984 9.79438E-01 1.28714E+00 5.80693E-07-2.43677E-02 1.30557E-09 1.66745E-08
 -1     26985 9.79101E-01 1.28748E+00 1.18989E-07-5.00985E-02 2.03674E-09 1.28849E-08
 -1     26990 9.83325E-01 1.28325E+00 6.08462E-07-4.87263E-02 8.22274E-09 5.21117E-08
 -1     26991 9.79438E-01 1.28714E+00 6.08938E-07-2.43677E-02 6.78264E-09 8.61782E-08
 -1     26992 9.79101E-01 1.28748E+00 1.01650E-07-5.00985E-02 3.30466E-09 2.10153E-08
 -1     26997 9.83325E-01 1.28325E+00 6.10260E-07-4.87262E-02 2.42073E-08 1.53410E-07
 -1     26998 9.79438E-01 1.28714E+00 5.79652E-07-2.43677E-02 1.79967E-08 2.28485E-07
 -1     26999 9.79101E-01 1.28748E+00 8.67834E-08-5.00985E-02 1.98451E-09 1.29170E-08
 -1     27004 9.83325E-01 1.28325E+00 4.25649E-07-4.87262E-02 3.44314E-08 2.18873E-07
 -1     27005 9.79438E-01 1.28714E+00 3.60416E-07-2.43676E-02 2.54671E-08 3.23406E-07
 -1     27006 9.79101E-01 1.28748E+00 1.51696E-08-5.00985E-02 2.05466E-09 1.36185E-08
 -1     27011 9.83325E-01 1.28325E+00 1.32953E-07-4.87262E-02 1.24542E-08 8.02082E-08
 -1     27015 1.00572E+00 1.26086E+00 1.33350E-07-9.26828E-02-2.42155E-08-7.70584E-08
 -1     27016 9.94498E-01 1.27208E+00 3.60191E-07-7.07176E-02-7.58981E-08-3.15409E-07
 -1     27017 1.00213E+00 1.26445E+00 1.48069E-08-9.52931E-02-3.58833E-09-1.29073E-08
 -1     27022 1.00572E+00 1.26086E+00 4.25447E-07-9.26828E-02-6.73291E-08-2.10794E-07
 -1     27023 9.94498E-01 1.27208E+00 5.79605E-07-7.07177E-02-5.37144E-08-2.22866E-07
 -1     27024 1.00213E+00 1.26445E+00 8.64624E-08-9.52931E-02-3.36062E-09-1.23260E-08
 -1     27029 1.00572E+00 1.26086E+00 6.09923E-07-9.26828E-02-4.70748E-08-1.47656E-07
 -1     27030 9.94498E-01 1.27208E+00 6.08954E-07-7.07177E-02-2.03314E-08-8.40398E-08
 -1     27031 1.00213E+00 1.26445E+00 1.01390E-07-9.52931E-02-6.05516E-09-2.02578E-08
 -1     27036 1.00572E+00 1.26086E+00 6.07985E-07-9.26828E-02-1.56353E-08-5.00895E-08
 -1     27037 9.94498E-01 1.27208E+00 5.80713E-07-7.07177E-02-3.99890E-09-1.62792E-08
 -1     27038 1.00213E+00 1.26445E+00 1.18751E-07-9.52931E-02-3.69694E-09-1.24237E-08
 -1     27043 1.00572E+00 1.26086E+00 5.68749E-07-9.26828E-02-2.42797E-09-8.49410E-09
 -1     27044 9.94498E-01 1.27208E+00 5.53263E-07-7.07177E-02-1.48172E-10-4.98163E-10
 -1     27045 1.00213E+00 1.26445E+00 1.26022E-07-9.52931E-02-1.02448E-09-3.51092E-09
 -1     27050 1.00572E+00 1.26086E+00 5.53195E-07-9.26828E-02 1.01258E-15-1.22710E-13
 -1     27051 9.94498E-01 1.27208E+00 5.53263E-07-7.07177E-02 1.48160E-10 4.98187E-10
 -1     27052 1.00213E+00 1.26445E+00 1.26022E-07-9.52931E-02 1.02447E-09 3.51091E-09
 -1     27057 1.00572E+00 1.26086E+00 5.68749E-07-9.26828E-02 2.42795E-09 8.49413E-09
 -1     27058 9.94498E-01 1.27208E+00 5.80713E-07-7.07177E-02 3.99896E-09 1.62792E-08
 -1     27059 1.00213E+00 1.26445E+00 1.18751E-07-9.52931E-02 3.69694E-09 1.24235E-08
 -1     27064 1.00572E+00 1.26086E+00 6.07985E-07-9.26828E-02 1.56353E-08 5.00893E-08
 -1     27065 9.94498E-01 1.27208E+00 6.08954E-07-7.07177E-02 2.03314E-08 8.40398E-08
 -1     27066 1.00213E+00 1.26445E+00 1.01390E-07-9.52931E-02 6.05514E-09 2.02577E-08
 -1     27071 1.00572E+00 1.26086E+00 6.09923E-07-9.26828E-02 4.70748E-08 1.47656E-07
 -1     27072 9.94498E-01 1.27208E+00 5.79605E-07-7.07177E-02 5.37144E-08 2.22866E-07
 -1     27073 1.00213E+00 1.26445E+00 8.64625E-08-9.52931E-02 3.36060E-09 1.23260E-08
 -1     27078 1.00572E+00 1.26086E+00 4.25447E-07-9.26828E-02 6.73291E-08 2.10794E-07
 -1     27079 9.94498E-01 1.27208E+00 3.60191E-07-7.07176E-02 7.58982E-08 3.15409E-07
 -1     27080 1.00213E+00 1.26445E+00 1.48069E-08-9.52931E-02 3.58835E-09 1.29072E-08
 -1     27085 1.00572E+00 1.26086E+00 1.33350E-07-9.26828E-02 2.42155E-08 7.70584E-08
 -1     27089 1.04061E+00 1.22597E+00 1.34448E-07-1.27567E-01-3.61297E-08-7.33195E-08
 -1     27090 1.02314E+00 1.24343E+00 3.60414E-07-1.10145E-01-1.24639E-07-2.99503E-07
 -1     27091 1.03800E+00 1.22858E+00 1.53563E-08-1.31160E-01-6.28806E-09-1.37102E-08
 -1     27096 1.04061E+00 1.22597E+00 4.25945E-07-1.27567E-01-1.00437E-07-1.99197E-07
 -1     27097 1.02314E+00 1.24343E+00 5.79853E-07-1.10145E-01-8.82292E-08-2.11423E-07
 -1     27098 1.03800E+00 1.22858E+00 8.71279E-08-1.31160E-01-6.34353E-09-1.34961E-08
 -1     27103 1.04061E+00 1.22597E+00 6.10626E-07-1.27567E-01-7.12844E-08-1.40628E-07
 -1     27104 1.02314E+00 1.24343E+00 6.09072E-07-1.10145E-01-3.35260E-08-7.96371E-08
 -1     27105 1.03800E+00 1.22858E+00 1.02214E-07-1.31160E-01-1.01736E-08-2.05797E-08
 -1     27110 1.04061E+00 1.22597E+00 6.09609E-07-1.27567E-01-2.47541E-08-4.89381E-08
 -1     27111 1.02314E+00 1.24343E+00 5.80749E-07-1.10145E-01-6.66015E-09-1.52368E-08
 -1     27112 1.03800E+00 1.22858E+00 1.19683E-07-1.31160E-01-6.34579E-09-1.28035E-08
 -1     27117 1.04061E+00 1.22597E+00 5.70374E-07-1.27567E-01-4.46932E-09-8.94667E-09
 -1     27118 1.02314E+00 1.24343E+00 5.53262E-07-1.10145E-01-2.78383E-10-3.86575E-10
 -1     27119 1.03800E+00 1.22858E+00 1.27078E-07-1.31160E-01-1.82806E-09-3.70344E-09
 -1     27124 1.04061E+00 1.22597E+00 5.54747E-07-1.27567E-01 4.19924E-14 2.22191E-13
 -1     27125 1.02314E+00 1.24343E+00 5.53262E-07-1.10145E-01 2.78362E-10 3.86668E-10
 -1     27126 1.03800E+00 1.22858E+00 1.27078E-07-1.31160E-01 1.82807E-09 3.70373E-09
 -1     27131 1.04061E+00 1.22597E+00 5.70374E-07-1.27567E-01 4.46931E-09 8.94689E-09
 -1     27132 1.02314E+00 1.24343E+00 5.80749E-07-1.10145E-01 6.66017E-09 1.52368E-08
 -1     27133 1.03800E+00 1.22858E+00 1.19683E-07-1.31160E-01 6.34580E-09 1.28037E-08
 -1     27138 1.04061E+00 1.22597E+00 6.09609E-07-1.27567E-01 2.47542E-08 4.89382E-08
 -1     27139 1.02314E+00 1.24343E+00 6.09072E-07-1.10145E-01 3.35259E-08 7.96371E-08
 -1     27140 1.03800E+00 1.22858E+00 1.02214E-07-1.31160E-01 1.01736E-08 2.05799E-08
 -1     27145 1.04061E+00 1.22597E+00 6.10626E-07-1.27567E-01 7.12845E-08 1.40628E-07
 -1     27146 1.02314E+00 1.24343E+00 5.79853E-07-1.10145E-01 8.82292E-08 2.11423E-07
 -1     27147 1.03800E+00 1.22858E+00 8.71279E-08-1.31160E-01 6.34356E-09 1.34962E-08
 -1     27152 1.04061E+00 1.22597E+00 4.25945E-07-1.27567E-01 1.00437E-07 1.99197E-07
 -1     27153 1.02314E+00 1.24343E+00 3.60414E-07-1.10145E-01 1.24639E-07 2.99503E-07
 -1     27154 1.03800E+00 1.22858E+00 1.53563E-08-1.31160E-01 6.28814E-09 1.37103E-08
 -1     27159 1.04061E+00 1.22597E+00 1.34448E-07-1.27567E-01 3.61297E-08 7.33196E-08
 -1     27163 1.08456E+00 1.18201E+00 1.25130E-07-1.49964E-01-4.35942E-08-6.12184E-08
 -1     27164 1.06257E+00 1.20401E+00 3.58043E-07-1.38791E-01-1.66433E-07-2.74357E-07
 -1     27165 1.08319E+00 1.18339E+00 1.37892E-08-1.54187E-01-5.37171E-09-6.63344E-09
 -1     27170 1.08456E+00 1.18202E+00 4.23147E-07-1.49964E-01-1.27635E-07-1.73572E-07
 -1     27171 1.06257E+00 1.20401E+00 5.76794E-07-1.38791E-01-1.14963E-07-1.91940E-07
 -1     27172 1.08319E+00 1.18339E+00 8.40564E-08-1.54187E-01-4.57376E-09-4.41850E-09
 -1     27177 1.08456E+00 1.18202E+00 6.07798E-07-1.49964E-01-8.64915E-08-1.15709E-07
 -1     27178 1.06257E+00 1.20401E+00 6.04556E-07-1.38791E-01-3.99132E-08-6.99642E-08
 -1     27179 1.08319E+00 1.18339E+00 9.62894E-08-1.54187E-01-9.32240E-09-1.09407E-08
 -1     27184 1.08456E+00 1.18202E+00 5.99122E-07-1.49964E-01-2.60507E-08-3.32250E-08
 -1     27185 1.06257E+00 1.20401E+00 5.74570E-07-1.38791E-01-5.04008E-09-1.18528E-08
 -1     27186 1.08319E+00 1.18339E+00 1.11197E-07-1.54187E-01-5.03434E-09-5.62366E-09
 -1     27191 1.08456E+00 1.18202E+00 5.57062E-07-1.49964E-01-2.66321E-09-2.24221E-09
 -1     27192 1.06257E+00 1.20401E+00 5.46152E-07-1.38791E-01 1.06579E-09 4.08259E-10
 -1     27193 1.08319E+00 1.18339E+00 1.16926E-07-1.54187E-01-1.18709E-09-1.16975E-09
 -1     27198 1.08456E+00 1.18202E+00 5.40791E-07-1.49964E-01-3.01672E-15 1.11125E-14
 -1     27199 1.06257E+00 1.20401E+00 5.46152E-07-1.38791E-01-1.06586E-09-4.08279E-10
 -1     27200 1.08319E+00 1.18339E+00 1.16926E-07-1.54187E-01 1.18705E-09 1.16961E-09
 -1     27205 1.08456E+00 1.18202E+00 5.57062E-07-1.49964E-01 2.66318E-09 2.24204E-09
 -1     27206 1.06257E+00 1.20401E+00 5.74570E-07-1.38791E-01 5.04006E-09 1.18528E-08
 -1     27207 1.08319E+00 1.18339E+00 1.11197E-07-1.54187E-01 5.03428E-09 5.62362E-09
 -1     27212 1.08456E+00 1.18202E+00 5.99122E-07-1.49964E-01 2.60507E-08 3.32250E-08
 -1     27213 1.06257E+00 1.20401E+00 6.04556E-07-1.38791E-01 3.99132E-08 6.99641E-08
 -1     27214 1.08319E+00 1.18339E+00 9.62893E-08-1.54187E-01 9.32228E-09 1.09406E-08
 -1     27219 1.08456E+00 1.18202E+00 6.07798E-07-1.49964E-01 8.64913E-08 1.15708E-07
 -1     27220 1.06257E+00 1.20401E+00 5.76794E-07-1.38791E-01 1.14963E-07 1.91940E-07
 -1     27221 1.08319E+00 1.18339E+00 8.40564E-08-1.54187E-01 4.57364E-09 4.41843E-09
 -1     27226 1.08456E+00 1.18202E+00 4.23147E-07-1.49964E-01 1.27635E-07 1.73572E-07
 -1     27227 1.06257E+00 1.20401E+00 3.58043E-07-1.38791E-01 1.66433E-07 2.74357E-07
 -1     27228 1.08319E+00 1.18339E+00 1.37893E-08-1.54187E-01 5.37169E-09 6.63340E-09
 -1     27233 1.08456E+00 1.18201E+00 1.25130E-07-1.49964E-01 4.35943E-08 6.12183E-08
 -1     27237 1.13329E+00 1.13329E+00 1.20518E-07-1.57681E-01-4.92075E-08-4.94802E-08
 -1     27238 1.10892E+00 1.15766E+00 3.52122E-07-1.53851E-01-2.04902E-07-2.40953E-07
 -1     27239 1.13329E+00 1.13329E+00 1.08576E-08-1.62122E-01-9.55329E-10-1.57818E-09
 -1     27244 1.13329E+00 1.13329E+00 4.20771E-07-1.57681E-01-1.47542E-07-1.48705E-07
 -1     27245 1.10892E+00 1.15766E+00 5.71410E-07-1.53851E-01-1.40406E-07-1.66401E-07
 -1     27246 1.13329E+00 1.13329E+00 8.10046E-08-1.62122E-01 1.20686E-09 8.27162E-10
 -1     27251 1.13329E+00 1.13329E+00 6.04902E-07-1.57681E-01-9.40751E-08-9.58858E-08
 -1     27252 1.10892E+00 1.15766E+00 5.98597E-07-1.53851E-01-4.64003E-08-5.63250E-08
 -1     27253 1.13329E+00 1.13329E+00 9.26747E-08-1.62122E-01-5.46728E-09-6.23236E-09
 -1     27258 1.13329E+00 1.13329E+00 5.91386E-07-1.57681E-01-2.24481E-08-2.39945E-08
 -1     27259 1.10892E+00 1.15766E+00 5.67077E-07-1.53851E-01-4.85125E-09-7.02672E-09
 -1     27260 1.13329E+00 1.13329E+00 1.07034E-07-1.62122E-01-1.77413E-09-2.36891E-09
 -1     27265 1.13329E+00 1.13329E+00 5.49148E-07-1.57681E-01 1.22611E-09 3.89836E-10
 -1     27266 1.10892E+00 1.15766E+00 5.37799E-07-1.53851E-01 1.74881E-09 1.57422E-09
 -1     27267 1.13329E+00 1.13329E+00 1.12001E-07-1.62122E-01 1.04771E-10-1.08486E-10
 -1     27272 1.13329E+00 1.13329E+00 5.33154E-07-1.57681E-01-1.20502E-13-7.58666E-14
 -1     27273 1.10892E+00 1.15766E+00 5.37799E-07-1.53851E-01-1.74893E-09-1.57415E-09
 -1     27274 1.13329E+00 1.13329E+00 1.12001E-07-1.62122E-01-1.04787E-10 1.08509E-10
 -1     27279 1.13329E+00 1.13329E+00 5.49148E-07-1.57681E-01-1.22606E-09-3.89760E-10
 -1     27280 1.10892E+00 1.15766E+00 5.67077E-07-1.53851E-01 4.85127E-09 7.02678E-09
 -1     27281 1.13329E+00 1.13329E+00 1.07035E-07-1.62122E-01 1.77414E-09 2.36900E-09
 -1     27286 1.13329E+00 1.13329E+00 5.91386E-07-1.57681E-01 2.24482E-08 2.39946E-08
 -1     27287 1.10892E+00 1.15766E+00 5.98597E-07-1.53851E-01 4.64002E-08 5.63250E-08
 -1     27288 1.13329E+00 1.13329E+00 9.26747E-08-1.62122E-01 5.46728E-09 6.23248E-09
 -1     27293 1.13329E+00 1.13329E+00 6.04902E-07-1.57681E-01 9.40752E-08 9.58860E-08
 -1     27294 1.10892E+00 1.15766E+00 5.71410E-07-1.53851E-01 1.40406E-07 1.66401E-07
 -1     27295 1.13329E+00 1.13329E+00 8.10046E-08-1.62122E-01-1.20687E-09-8.27154E-10
 -1     27300 1.13329E+00 1.13329E+00 4.20771E-07-1.57681E-01 1.47542E-07 1.48705E-07
 -1     27301 1.10892E+00 1.15766E+00 3.52122E-07-1.53851E-01 2.04902E-07 2.40953E-07
 -1     27302 1.13329E+00 1.13329E+00 1.08576E-08-1.62122E-01 9.55357E-10 1.57813E-09
 -1     27307 1.13329E+00 1.13329E+00 1.20518E-07-1.57681E-01 4.92074E-08 4.94802E-08
 -1     27311 1.18202E+00 1.08456E+00 1.57233E-07-1.49964E-01-7.97763E-08-5.98375E-08
 -1     27312 1.15766E+00 1.10892E+00 3.63403E-07-1.53851E-01-2.53738E-07-2.08118E-07
 -1     27313 1.18339E+00 1.08319E+00 2.10918E-08-1.54187E-01-2.52404E-08-2.00907E-08
 -1     27318 1.18202E+00 1.08456E+00 4.34760E-07-1.49964E-01-1.94165E-07-1.43867E-07
 -1     27319 1.15766E+00 1.10892E+00 5.83105E-07-1.53851E-01-1.83943E-07-1.45773E-07
 -1     27320 1.18339E+00 1.08319E+00 9.55976E-08-1.54187E-01-2.84262E-08-2.22555E-08
 -1     27325 1.18202E+00 1.08456E+00 6.19301E-07-1.49964E-01-1.52194E-07-1.13132E-07
 -1     27326 1.15766E+00 1.10892E+00 6.13438E-07-1.53851E-01-7.62426E-08-5.31391E-08
 -1     27327 1.18339E+00 1.08319E+00 1.16454E-07-1.54187E-01-3.38702E-08-2.61001E-08
 -1     27332 1.18202E+00 1.08456E+00 6.36970E-07-1.49964E-01-6.81410E-08-5.14782E-08
 -1     27333 1.15766E+00 1.10892E+00 5.86632E-07-1.53851E-01-1.99905E-08-8.14852E-09
 -1     27334 1.18339E+00 1.08319E+00 1.39362E-07-1.54187E-01-2.36905E-08-1.82270E-08
 -1     27339 1.18202E+00 1.08456E+00 6.03281E-07-1.49964E-01-2.02260E-08-1.57621E-08
 -1     27340 1.15766E+00 1.10892E+00 5.59996E-07-1.53851E-01-2.97996E-09 6.99980E-10
 -1     27341 1.18339E+00 1.08319E+00 1.50700E-07-1.54187E-01-7.78446E-09-6.01207E-09
 -1     27346 1.18202E+00 1.08456E+00 5.88668E-07-1.49964E-01 8.61958E-14-4.12761E-14
 -1     27347 1.15766E+00 1.10892E+00 5.59996E-07-1.53851E-01 2.98000E-09-6.99964E-10
 -1     27348 1.18339E+00 1.08319E+00 1.50700E-07-1.54187E-01 7.78449E-09 6.01205E-09
 -1     27353 1.18202E+00 1.08456E+00 6.03281E-07-1.49964E-01 2.02260E-08 1.57621E-08
 -1     27354 1.15766E+00 1.10892E+00 5.86632E-07-1.53851E-01 1.99905E-08 8.14853E-09
 -1     27355 1.18339E+00 1.08319E+00 1.39362E-07-1.54187E-01 2.36904E-08 1.82270E-08
 -1     27360 1.18202E+00 1.08456E+00 6.36970E-07-1.49964E-01 6.81410E-08 5.14781E-08
 -1     27361 1.15766E+00 1.10892E+00 6.13438E-07-1.53851E-01 7.62426E-08 5.31391E-08
 -1     27362 1.18339E+00 1.08319E+00 1.16454E-07-1.54187E-01 3.38703E-08 2.61001E-08
 -1     27367 1.18202E+00 1.08456E+00 6.19301E-07-1.49964E-01 1.52194E-07 1.13132E-07
 -1     27368 1.15766E+00 1.10892E+00 5.83105E-07-1.53851E-01 1.83943E-07 1.45773E-07
 -1     27369 1.18339E+00 1.08319E+00 9.55976E-08-1.54187E-01 2.84262E-08 2.22556E-08
 -1     27374 1.18202E+00 1.08456E+00 4.34760E-07-1.49964E-01 1.94165E-07 1.43867E-07
 -1     27375 1.15766E+00 1.10892E+00 3.63403E-07-1.53851E-01 2.53738E-07 2.08118E-07
 -1     27376 1.18339E+00 1.08319E+00 2.10919E-08-1.54187E-01 2.52404E-08 2.00907E-08
 -1     27381 1.18202E+00 1.08456E+00 1.57233E-07-1.49964E-01 7.97763E-08 5.98375E-08
 -1     27385 1.22597E+00 1.04061E+00 1.34363E-07-1.27567E-01-7.20280E-08-3.94420E-08
 -1     27386 1.20401E+00 1.06257E+00 3.69403E-07-1.38791E-01-2.82255E-07-1.76324E-07
 -1     27387 1.22858E+00 1.03800E+00 1.55536E-08-1.31160E-01-1.40459E-08-7.30867E-09
 -1     27392 1.22597E+00 1.04061E+00 4.27587E-07-1.27567E-01-2.00068E-07-1.00730E-07
 -1     27393 1.20401E+00 1.06257E+00 5.88337E-07-1.38791E-01-2.02655E-07-1.29702E-07
 -1     27394 1.22858E+00 1.03800E+00 8.74572E-08-1.31160E-01-1.42281E-08-6.20942E-09
 -1     27399 1.22597E+00 1.04061E+00 6.12012E-07-1.27567E-01-1.42070E-07-6.89420E-08
 -1     27400 1.20401E+00 1.06257E+00 6.19209E-07-1.38791E-01-8.24817E-08-5.67442E-08
 -1     27401 1.22858E+00 1.03800E+00 1.02369E-07-1.31160E-01-2.14070E-08-9.33395E-09
 -1     27406 1.22597E+00 1.04061E+00 6.10348E-07-1.27567E-01-4.99980E-08-2.26295E-08
 -1     27407 1.20401E+00 1.06257E+00 5.93974E-07-1.38791E-01-1.89998E-08-1.62857E-08
 -1     27408 1.22858E+00 1.03800E+00 1.19744E-07-1.31160E-01-1.33460E-08-5.63318E-09
 -1     27413 1.22597E+00 1.04061E+00 5.70812E-07-1.27567E-01-9.52593E-09-3.33246E-09
 -1     27414 1.20401E+00 1.06257E+00 5.68224E-07-1.38791E-01-1.99730E-09-2.91939E-09
 -1     27415 1.22858E+00 1.03800E+00 1.27091E-07-1.31160E-01-3.89083E-09-1.56357E-09
 -1     27420 1.22597E+00 1.04061E+00 5.55104E-07-1.27567E-01 1.42588E-13 4.12591E-16
 -1     27421 1.20401E+00 1.06257E+00 5.68224E-07-1.38791E-01 1.99739E-09 2.91930E-09
 -1     27422 1.22858E+00 1.03800E+00 1.27091E-07-1.31160E-01 3.89091E-09 1.56354E-09
 -1     27427 1.22597E+00 1.04061E+00 5.70812E-07-1.27567E-01 9.52596E-09 3.33240E-09
 -1     27428 1.20401E+00 1.06257E+00 5.93974E-07-1.38791E-01 1.89998E-08 1.62857E-08
 -1     27429 1.22858E+00 1.03800E+00 1.19744E-07-1.31160E-01 1.33461E-08 5.63317E-09
 -1     27434 1.22597E+00 1.04061E+00 6.10348E-07-1.27567E-01 4.99980E-08 2.26295E-08
 -1     27435 1.20401E+00 1.06257E+00 6.19209E-07-1.38791E-01 8.24817E-08 5.67442E-08
 -1     27436 1.22858E+00 1.03800E+00 1.02369E-07-1.31160E-01 2.14070E-08 9.33398E-09
 -1     27441 1.22597E+00 1.04061E+00 6.12012E-07-1.27567E-01 1.42070E-07 6.89419E-08
 -1     27442 1.20401E+00 1.06257E+00 5.88337E-07-1.38791E-01 2.02655E-07 1.29702E-07
 -1     27443 1.22858E+00 1.03800E+00 8.74573E-08-1.31160E-01 1.42281E-08 6.20939E-09
 -1     27448 1.22597E+00 1.04061E+00 4.27588E-07-1.27567E-01 2.00068E-07 1.00730E-07
 -1     27449 1.20401E+00 1.06257E+00 3.69403E-07-1.38791E-01 2.82255E-07 1.76324E-07
 -1     27450 1.22858E+00 1.03800E+00 1.55536E-08-1.31160E-01 1.40459E-08 7.30872E-09
 -1     27455 1.22597E+00 1.04061E+00 1.34363E-07-1.27567E-01 7.20280E-08 3.94420E-08
 -1     27459 1.26086E+00 1.00572E+00 1.01576E-07-9.26828E-02-5.52785E-08-1.77438E-08
 -1     27460 1.24343E+00 1.02314E+00 3.50106E-07-1.10145E-01-2.87428E-07-1.24673E-07
 -1     27461 1.26445E+00 1.00213E+00 8.52663E-09-9.52931E-02 7.59156E-09 3.40054E-09
 -1     27466 1.26086E+00 1.00572E+00 4.17443E-07-9.26828E-02-1.88075E-07-5.87000E-08
 -1     27467 1.24343E+00 1.02314E+00 5.68134E-07-1.10145E-01-1.93593E-07-8.87114E-08
 -1     27468 1.26445E+00 1.00213E+00 7.60123E-08-9.52931E-02 1.43120E-08 6.40419E-09
 -1     27473 1.26086E+00 1.00572E+00 6.01472E-07-9.26828E-02-1.06170E-07-3.20583E-08
 -1     27474 1.24343E+00 1.02314E+00 5.94020E-07-1.10145E-01-5.90227E-08-3.36399E-08
 -1     27475 1.26445E+00 1.00213E+00 8.19229E-08-9.52931E-02 5.83437E-09 3.30535E-09
 -1     27480 1.26086E+00 1.00572E+00 5.72722E-07-9.26828E-02-9.97528E-09-1.54407E-09
 -1     27481 1.24343E+00 1.02314E+00 5.61156E-07-1.10145E-01-2.12002E-09-7.67202E-09
 -1     27482 1.26445E+00 1.00213E+00 9.11425E-08-9.52931E-02 8.32535E-09 3.59748E-09
 -1     27487 1.26086E+00 1.00572E+00 5.24532E-07-9.26828E-02 1.22228E-08 4.84217E-09
 -1     27488 1.24343E+00 1.02314E+00 5.31129E-07-1.10145E-01 4.19802E-09-7.30866E-10
 -1     27489 1.26445E+00 1.00213E+00 9.28530E-08-9.52931E-02 4.10582E-09 1.64053E-09
 -1     27494 1.26086E+00 1.00572E+00 5.07115E-07-9.26828E-02-3.61416E-15 8.01045E-15
 -1     27495 1.24343E+00 1.02314E+00 5.31129E-07-1.10145E-01-4.19798E-09 7.30842E-10
 -1     27496 1.26445E+00 1.00213E+00 9.28530E-08-9.52931E-02-4.10578E-09-1.64052E-09
 -1     27501 1.26086E+00 1.00572E+00 5.24532E-07-9.26828E-02-1.22228E-08-4.84215E-09
 -1     27502 1.24343E+00 1.02314E+00 5.61156E-07-1.10145E-01 2.12007E-09 7.67201E-09
 -1     27503 1.26445E+00 1.00213E+00 9.11425E-08-9.52931E-02-8.32532E-09-3.59749E-09
 -1     27508 1.26086E+00 1.00572E+00 5.72722E-07-9.26828E-02 9.97535E-09 1.54404E-09
 -1     27509 1.24343E+00 1.02314E+00 5.94020E-07-1.10145E-01 5.90227E-08 3.36399E-08
 -1     27510 1.26445E+00 1.00213E+00 8.19229E-08-9.52931E-02-5.83431E-09-3.30535E-09
 -1     27515 1.26086E+00 1.00572E+00 6.01472E-07-9.26828E-02 1.06170E-07 3.20583E-08
 -1     27516 1.24343E+00 1.02314E+00 5.68134E-07-1.10145E-01 1.93593E-07 8.87114E-08
 -1     27517 1.26445E+00 1.00213E+00 7.60123E-08-9.52931E-02-1.43119E-08-6.40420E-09
 -1     27522 1.26086E+00 1.00572E+00 4.17443E-07-9.26828E-02 1.88076E-07 5.87000E-08
 -1     27523 1.24343E+00 1.02314E+00 3.50106E-07-1.10145E-01 2.87428E-07 1.24673E-07
 -1     27524 1.26445E+00 1.00213E+00 8.52665E-09-9.52931E-02-7.59142E-09-3.40053E-09
 -1     27529 1.26086E+00 1.00572E+00 1.01576E-07-9.26828E-02 5.52786E-08 1.77437E-08
 -1     27533 1.28325E+00 9.83325E-01 1.33716E-07-4.87262E-02-8.23383E-08-1.05095E-08
 -1     27534 1.27208E+00 9.94498E-01 3.50199E-07-7.07176E-02-3.07174E-07-6.84960E-08
 -1     27535 1.28748E+00 9.79101E-01 1.53779E-08-5.00985E-02-1.43453E-08-1.94943E-09
 -1     27540 1.28325E+00 9.83325E-01 4.28520E-07-4.87262E-02-2.20468E-07-3.49383E-08
 -1     27541 1.27208E+00 9.94498E-01 5.68534E-07-7.07177E-02-2.11018E-07-4.36764E-08
 -1     27542 1.28748E+00 9.79101E-01 8.76003E-08-5.00985E-02-1.33328E-08-2.10572E-09
 -1     27547 1.28325E+00 9.83325E-01 6.12592E-07-4.87262E-02-1.53768E-07-2.69470E-08
 -1     27548 1.27208E+00 9.94498E-01 5.95446E-07-7.07177E-02-6.96560E-08-8.79890E-09
 -1     27549 1.28748E+00 9.79101E-01 1.03059E-07-5.00985E-02-2.15689E-08-4.44200E-09
 -1     27554 1.28325E+00 9.83325E-01 6.11029E-07-4.87262E-02-5.23770E-08-1.07770E-08
 -1     27555 1.27208E+00 9.94498E-01 5.63534E-07-7.07177E-02-8.00511E-09 4.22044E-09
 -1     27556 1.28748E+00 9.79101E-01 1.21142E-07-5.00985E-02-1.32740E-08-3.00867E-09
 -1     27561 1.28325E+00 9.83325E-01 5.72552E-07-4.87262E-02-9.18935E-09-2.84471E-09
 -1     27562 1.27208E+00 9.94498E-01 5.34032E-07-7.07177E-02 2.30700E-09 2.82255E-09
 -1     27563 1.28748E+00 9.79101E-01 1.28823E-07-5.00985E-02-3.78911E-09-9.39615E-10
 -1     27568 1.28325E+00 9.83325E-01 5.57324E-07-4.87262E-02 3.91041E-14-2.56505E-14
 -1     27569 1.27208E+00 9.94498E-01 5.34032E-07-7.07177E-02-2.30697E-09-2.82255E-09
 -1     27570 1.28748E+00 9.79101E-01 1.28823E-07-5.00985E-02 3.78918E-09 9.39585E-10
 -1     27575 1.28325E+00 9.83325E-01 5.72552E-07-4.87262E-02 9.18935E-09 2.84468E-09
 -1     27576 1.27208E+00 9.94498E-01 5.63534E-07-7.07177E-02 8.00519E-09-4.22045E-09
 -1     27577 1.28748E+00 9.79101E-01 1.21142E-07-5.00985E-02 1.32740E-08 3.00867E-09
 -1     27582 1.28325E+00 9.83325E-01 6.11029E-07-4.87262E-02 5.23771E-08 1.07770E-08
 -1     27583 1.27208E+00 9.94498E-01 5.95446E-07-7.07177E-02 6.96560E-08 8.79888E-09
 -1     27584 1.28748E+00 9.79101E-01 1.03059E-07-5.00985E-02 2.15690E-08 4.44200E-09
 -1     27589 1.28325E+00 9.83325E-01 6.12592E-07-4.87262E-02 1.53768E-07 2.69470E-08
 -1     27590 1.27208E+00 9.94498E-01 5.68534E-07-7.07177E-02 2.11018E-07 4.36764E-08
 -1     27591 1.28748E+00 9.79101E-01 8.76002E-08-5.00985E-02 1.33329E-08 2.10573E-09
 -1     27596 1.28325E+00 9.83325E-01 4.28520E-07-4.87262E-02 2.20468E-07 3.49383E-08
 -1     27597 1.27208E+00 9.94498E-01 3.50199E-07-7.07176E-02 3.07174E-07 6.84960E-08
 -1     27598 1.28748E+00 9.79101E-01 1.53778E-08-5.00985E-02 1.43455E-08 1.94943E-09
 -1     27603 1.28325E+00 9.83325E-01 1.33716E-07-4.87262E-02 8.23383E-08 1.05095E-08
 -1     27607 1.28714E+00 9.79438E-01 3.80783E-07-2.43677E-02-3.45667E-07-1.90081E-08
 -1     27611 1.28714E+00 9.79438E-01 5.99982E-07-2.43677E-02-2.60319E-07-9.10331E-09
 -1     27615 1.28714E+00 9.79438E-01 6.35208E-07-2.43677E-02-1.22545E-07 2.79088E-09
 -1     27619 1.28714E+00 9.79437E-01 6.15873E-07-2.43676E-02-3.94482E-08 6.26558E-09
 -1     27623 1.28714E+00 9.79437E-01 5.93411E-07-2.43676E-02-8.40042E-09 2.76360E-09
 -1     27627 1.28714E+00 9.79437E-01 5.93411E-07-2.43676E-02 8.40046E-09-2.76362E-09
 -1     27631 1.28714E+00 9.79437E-01 6.15873E-07-2.43676E-02 3.94482E-08-6.26561E-09
 -1     27635 1.28714E+00 9.79438E-01 6.35208E-07-2.43677E-02 1.22545E-07-2.79090E-09
 -1     27639 1.28714E+00 9.79438E-01 5.99982E-07-2.43677E-02 2.60319E-07 9.10330E-09
 -1     27643 1.28714E+00 9.79438E-01 3.80783E-07-2.43677E-02 3.45667E-07 1.90081E-08
 -1     27649 9.91090E-01 1.27548E+00-8.65750E-07-4.62019E-02 8.79228E-08 5.53214E-07
 -1     27650 9.87429E-01 1.27914E+00-1.51737E-06-2.31011E-02 7.74466E-08 9.85933E-07
 -1     27651 9.87204E-01 1.27937E+00-3.53548E-08-4.74654E-02-3.09078E-09-2.19856E-08
 -1     27656 9.91089E-01 1.27548E+00-1.87549E-06-4.62019E-02 1.15039E-07 7.23763E-07
 -1     27657 9.87430E-01 1.27914E+00-2.11233E-06-2.31011E-02 4.74025E-08 6.03034E-07
 -1     27658 9.87204E-01 1.27937E+00-2.63556E-07-4.74654E-02 9.50257E-09 5.81939E-08
 -1     27663 9.91090E-01 1.27548E+00-2.27223E-06-4.62019E-02 7.25067E-08 4.56345E-07
 -1     27664 9.87430E-01 1.27914E+00-2.31881E-06-2.31011E-02 2.53471E-08 3.21987E-07
 -1     27665 9.87204E-01 1.27937E+00-4.33002E-07-4.74653E-02 1.57146E-08 9.85599E-08
 -1     27670 9.91090E-01 1.27548E+00-2.34089E-06-4.62019E-02 3.80987E-08 2.40371E-07
 -1     27671 9.87430E-01 1.27914E+00-2.35709E-06-2.31011E-02 1.28423E-08 1.62930E-07
 -1     27672 9.87204E-01 1.27937E+00-5.46053E-07-4.74653E-02 1.13424E-08 7.14886E-08
 -1     27677 9.91090E-01 1.27548E+00-2.35489E-06-4.62019E-02 1.67232E-08 1.05703E-07
 -1     27678 9.87430E-01 1.27914E+00-2.36236E-06-2.31011E-02 3.95944E-09 5.02153E-08
 -1     27679 9.87204E-01 1.27937E+00-5.90464E-07-4.74653E-02 3.95462E-09 2.49597E-08
 -1     27684 9.91090E-01 1.27548E+00-2.35801E-06-4.62019E-02-8.65252E-15 6.03905E-14
 -1     27685 9.87430E-01 1.27914E+00-2.36236E-06-2.31011E-02-3.95944E-09-5.02153E-08
 -1     27686 9.87204E-01 1.27937E+00-5.90464E-07-4.74653E-02-3.95465E-09-2.49596E-08
 -1     27691 9.91090E-01 1.27548E+00-2.35489E-06-4.62019E-02-1.67232E-08-1.05703E-07
 -1     27692 9.87430E-01 1.27914E+00-2.35709E-06-2.31011E-02-1.28423E-08-1.62930E-07
 -1     27693 9.87204E-01 1.27937E+00-5.46053E-07-4.74653E-02-1.13424E-08-7.14884E-08
 -1     27698 9.91090E-01 1.27548E+00-2.34089E-06-4.62019E-02-3.80987E-08-2.40371E-07
 -1     27699 9.87430E-01 1.27914E+00-2.31881E-06-2.31011E-02-2.53471E-08-3.21987E-07
 -1     27700 9.87204E-01 1.27937E+00-4.33002E-07-4.74653E-02-1.57146E-08-9.85599E-08
 -1     27705 9.91090E-01 1.27548E+00-2.27223E-06-4.62019E-02-7.25067E-08-4.56345E-07
 -1     27706 9.87430E-01 1.27914E+00-2.11233E-06-2.31011E-02-4.74025E-08-6.03034E-07
 -1     27707 9.87204E-01 1.27937E+00-2.63556E-07-4.74654E-02-9.50258E-09-5.81939E-08
 -1     27712 9.91089E-01 1.27548E+00-1.87549E-06-4.62019E-02-1.15039E-07-7.23763E-07
 -1     27713 9.87429E-01 1.27914E+00-1.51737E-06-2.31011E-02-7.74466E-08-9.85933E-07
 -1     27714 9.87204E-01 1.27937E+00-3.53548E-08-4.74654E-02 3.09078E-09 2.19854E-08
 -1     27719 9.91090E-01 1.27548E+00-8.65750E-07-4.62019E-02-8.79229E-08-5.53215E-07
 -1     27723 1.01233E+00 1.25424E+00-8.66790E-07-8.78813E-02 1.74484E-07 5.34766E-07
 -1     27724 1.00171E+00 1.26486E+00-1.51730E-06-6.70421E-02 2.30321E-07 9.61380E-07
 -1     27725 1.00902E+00 1.25755E+00-3.49190E-08-9.02845E-02-6.15151E-09-2.21080E-08
 -1     27730 1.01233E+00 1.25424E+00-1.87512E-06-8.78813E-02 2.27892E-07 6.97329E-07
 -1     27731 1.00171E+00 1.26486E+00-2.11259E-06-6.70420E-02 1.40775E-07 5.87961E-07
 -1     27732 1.00902E+00 1.25755E+00-2.63248E-07-9.02845E-02 1.91130E-08 5.53333E-08
 -1     27737 1.01233E+00 1.25424E+00-2.27068E-06-8.78812E-02 1.44378E-07 4.40122E-07
 -1     27738 1.00171E+00 1.26486E+00-2.31895E-06-6.70419E-02 7.52065E-08 3.14044E-07
 -1     27739 1.00902E+00 1.25755E+00-4.33161E-07-9.02844E-02 3.16482E-08 9.45681E-08
 -1     27744 1.01233E+00 1.25424E+00-2.34055E-06-8.78812E-02 7.66351E-08 2.32717E-07
 -1     27745 1.00171E+00 1.26486E+00-2.35711E-06-6.70419E-02 3.80539E-08 1.58892E-07
 -1     27746 1.00902E+00 1.25755E+00-5.46590E-07-9.02844E-02 2.29755E-08 6.87997E-08
 -1     27751 1.01233E+00 1.25424E+00-2.35561E-06-8.78812E-02 3.39120E-08 1.02610E-07
 -1     27752 1.00171E+00 1.26486E+00-2.36232E-06-6.70419E-02 1.17212E-08 4.89614E-08
 -1     27753 1.00902E+00 1.25755E+00-5.91227E-07-9.02844E-02 8.04182E-09 2.40555E-08
 -1     27758 1.01233E+00 1.25424E+00-2.35908E-06-8.78812E-02-1.06403E-14-1.52050E-13
 -1     27759 1.00171E+00 1.26486E+00-2.36232E-06-6.70419E-02-1.17212E-08-4.89615E-08
 -1     27760 1.00902E+00 1.25755E+00-5.91227E-07-9.02844E-02-8.04186E-09-2.40557E-08
 -1     27765 1.01233E+00 1.25424E+00-2.35561E-06-8.78812E-02-3.39120E-08-1.02610E-07
 -1     27766 1.00171E+00 1.26486E+00-2.35711E-06-6.70419E-02-3.80539E-08-1.58892E-07
 -1     27767 1.00902E+00 1.25755E+00-5.46590E-07-9.02844E-02-2.29755E-08-6.87997E-08
 -1     27772 1.01233E+00 1.25424E+00-2.34055E-06-8.78812E-02-7.66351E-08-2.32717E-07
 -1     27773 1.00171E+00 1.26486E+00-2.31895E-06-6.70419E-02-7.52065E-08-3.14045E-07
 -1     27774 1.00902E+00 1.25755E+00-4.33161E-07-9.02844E-02-3.16483E-08-9.45681E-08
 -1     27779 1.01233E+00 1.25424E+00-2.27068E-06-8.78812E-02-1.44378E-07-4.40122E-07
 -1     27780 1.00171E+00 1.26486E+00-2.11259E-06-6.70420E-02-1.40775E-07-5.87961E-07
 -1     27781 1.00902E+00 1.25755E+00-2.63248E-07-9.02845E-02-1.91130E-08-5.53332E-08
 -1     27786 1.01233E+00 1.25424E+00-1.87512E-06-8.78813E-02-2.27892E-07-6.97329E-07
 -1     27787 1.00171E+00 1.26486E+00-1.51730E-06-6.70421E-02-2.30321E-07-9.61380E-07
 -1     27788 1.00902E+00 1.25755E+00-3.49190E-08-9.02845E-02 6.15152E-09 2.21080E-08
 -1     27793 1.01233E+00 1.25424E+00-8.66790E-07-8.78813E-02-1.74484E-07-5.34766E-07
 -1     27797 1.04540E+00 1.22117E+00-8.62907E-07-1.20958E-01 2.52599E-07 4.97682E-07
 -1     27798 1.02886E+00 1.23770E+00-1.51766E-06-1.04421E-01 3.77887E-07 9.13276E-07
 -1     27799 1.04300E+00 1.22357E+00-3.62207E-08-1.24266E-01-1.29879E-08-2.35599E-08
 -1     27804 1.04540E+00 1.22117E+00-1.87062E-06-1.20958E-01 3.29618E-07 6.51435E-07
 -1     27805 1.02886E+00 1.23770E+00-2.11270E-06-1.04420E-01 2.30979E-07 5.58875E-07
 -1     27806 1.04300E+00 1.22357E+00-2.62625E-07-1.24266E-01 2.36246E-08 4.83202E-08
 -1     27811 1.04540E+00 1.22117E+00-2.27096E-06-1.20958E-01 2.07687E-07 4.09846E-07
 -1     27812 1.02886E+00 1.23770E+00-2.31920E-06-1.04420E-01 1.22633E-07 2.97619E-07
 -1     27813 1.04300E+00 1.22357E+00-4.32352E-07-1.24266E-01 4.32756E-08 8.58506E-08
 -1     27818 1.04540E+00 1.22117E+00-2.34073E-06-1.20958E-01 1.09531E-07 2.15079E-07
 -1     27819 1.02886E+00 1.23770E+00-2.35678E-06-1.04420E-01 6.16855E-08 1.50299E-07
 -1     27820 1.04300E+00 1.22357E+00-5.46715E-07-1.24266E-01 3.19159E-08 6.26425E-08
 -1     27825 1.04540E+00 1.22117E+00-2.35612E-06-1.20958E-01 4.85005E-08 9.45049E-08
 -1     27826 1.02886E+00 1.23770E+00-2.36154E-06-1.04420E-01 1.89360E-08 4.62842E-08
 -1     27827 1.04300E+00 1.22357E+00-5.92006E-07-1.24266E-01 1.12322E-08 2.18968E-08
 -1     27832 1.04540E+00 1.22117E+00-2.36000E-06-1.20958E-01 4.86237E-14 1.27537E-13
 -1     27833 1.02886E+00 1.23770E+00-2.36154E-06-1.04420E-01-1.89360E-08-4.62841E-08
 -1     27834 1.04300E+00 1.22357E+00-5.92006E-07-1.24266E-01-1.12321E-08-2.18964E-08
 -1     27839 1.04540E+00 1.22117E+00-2.35612E-06-1.20958E-01-4.85004E-08-9.45047E-08
 -1     27840 1.02886E+00 1.23770E+00-2.35678E-06-1.04420E-01-6.16855E-08-1.50299E-07
 -1     27841 1.04300E+00 1.22357E+00-5.46715E-07-1.24266E-01-3.19158E-08-6.26423E-08
 -1     27846 1.04540E+00 1.22117E+00-2.34073E-06-1.20958E-01-1.09531E-07-2.15079E-07
 -1     27847 1.02886E+00 1.23770E+00-2.31920E-06-1.04420E-01-1.22633E-07-2.97619E-07
 -1     27848 1.04300E+00 1.22357E+00-4.32352E-07-1.24266E-01-4.32755E-08-8.58506E-08
 -1     27853 1.04540E+00 1.22117E+00-2.27096E-06-1.20958E-01-2.07686E-07-4.09846E-07
 -1     27854 1.02886E+00 1.23770E+00-2.11270E-06-1.04420E-01-2.30979E-07-5.58875E-07
 -1     27855 1.04300E+00 1.22357E+00-2.62625E-07-1.24266E-01-2.36245E-08-4.83202E-08
 -1     27860 1.04540E+00 1.22117E+00-1.87062E-06-1.20958E-01-3.29618E-07-6.51435E-07
 -1     27861 1.02886E+00 1.23770E+00-1.51766E-06-1.04421E-01-3.77887E-07-9.13276E-07
 -1     27862 1.04300E+00 1.22357E+00-3.62206E-08-1.24266E-01 1.29879E-08 2.35600E-08
 -1     27867 1.04540E+00 1.22117E+00-8.62907E-07-1.20958E-01-2.52599E-07-4.97682E-07
 -1     27871 1.08708E+00 1.17949E+00-8.68804E-07-1.42195E-01 3.28829E-07 4.60400E-07
 -1     27872 1.06624E+00 1.20033E+00-1.51623E-06-1.31578E-01 5.23679E-07 8.44950E-07
 -1     27873 1.08582E+00 1.18075E+00-2.98129E-08-1.46083E-01-9.40436E-09-6.59425E-09
 -1     27878 1.08708E+00 1.17949E+00-1.87726E-06-1.42195E-01 4.37636E-07 6.12160E-07
 -1     27879 1.06624E+00 1.20033E+00-2.11698E-06-1.31577E-01 3.26857E-07 5.18904E-07
 -1     27880 1.08582E+00 1.18075E+00-2.70085E-07-1.46083E-01 4.48512E-08 6.73932E-08
 -1     27885 1.08708E+00 1.17949E+00-2.28026E-06-1.42195E-01 2.80415E-07 3.93217E-07
 -1     27886 1.06624E+00 1.20033E+00-2.32508E-06-1.31577E-01 1.80388E-07 2.80597E-07
 -1     27887 1.08582E+00 1.18075E+00-4.46245E-07-1.46083E-01 6.72491E-08 9.72180E-08
 -1     27892 1.08708E+00 1.17949E+00-2.35357E-06-1.42195E-01 1.50583E-07 2.12087E-07
 -1     27893 1.06624E+00 1.20033E+00-2.36445E-06-1.31577E-01 9.31975E-08 1.42858E-07
 -1     27894 1.08582E+00 1.18075E+00-5.59294E-07-1.46083E-01 4.78782E-08 6.88208E-08
 -1     27899 1.08708E+00 1.17949E+00-2.36739E-06-1.42195E-01 6.67374E-08 9.41269E-08
 -1     27900 1.06624E+00 1.20033E+00-2.37008E-06-1.31577E-01 2.89607E-08 4.41082E-08
 -1     27901 1.08582E+00 1.18075E+00-6.02757E-07-1.46083E-01 1.66551E-08 2.38890E-08
 -1     27906 1.08708E+00 1.17949E+00-2.36950E-06-1.42195E-01-6.38116E-14 1.26611E-14
 -1     27907 1.06624E+00 1.20033E+00-2.37008E-06-1.31577E-01-2.89606E-08-4.41082E-08
 -1     27908 1.08582E+00 1.18075E+00-6.02757E-07-1.46083E-01-1.66552E-08-2.38891E-08
 -1     27913 1.08708E+00 1.17949E+00-2.36739E-06-1.42195E-01-6.67375E-08-9.41270E-08
 -1     27914 1.06624E+00 1.20033E+00-2.36445E-06-1.31577E-01-9.31975E-08-1.42858E-07
 -1     27915 1.08582E+00 1.18075E+00-5.59294E-07-1.46083E-01-4.78783E-08-6.88208E-08
 -1     27920 1.08708E+00 1.17949E+00-2.35357E-06-1.42195E-01-1.50583E-07-2.12087E-07
 -1     27921 1.06624E+00 1.20033E+00-2.32508E-06-1.31577E-01-1.80388E-07-2.80597E-07
 -1     27922 1.08582E+00 1.18075E+00-4.46245E-07-1.46083E-01-6.72492E-08-9.72181E-08
 -1     27927 1.08708E+00 1.17949E+00-2.28026E-06-1.42195E-01-2.80415E-07-3.93217E-07
 -1     27928 1.06624E+00 1.20033E+00-2.11698E-06-1.31577E-01-3.26857E-07-5.18904E-07
 -1     27929 1.08582E+00 1.18075E+00-2.70085E-07-1.46083E-01-4.48512E-08-6.73932E-08
 -1     27934 1.08708E+00 1.17949E+00-1.87726E-06-1.42195E-01-4.37636E-07-6.12160E-07
 -1     27935 1.06624E+00 1.20033E+00-1.51623E-06-1.31578E-01-5.23679E-07-8.44950E-07
 -1     27936 1.08582E+00 1.18075E+00-2.98130E-08-1.46083E-01 9.40431E-09 6.59419E-09
 -1     27941 1.08708E+00 1.17949E+00-8.68804E-07-1.42195E-01-3.28829E-07-4.60400E-07
 -1     27945 1.13328E+00 1.13328E+00-8.89437E-07-1.49513E-01 4.15433E-07 4.18789E-07
 -1     27946 1.11018E+00 1.15639E+00-1.51091E-06-1.45855E-01 6.51300E-07 7.59012E-07
 -1     27947 1.13329E+00 1.13329E+00-2.12452E-08-1.53601E-01 1.43980E-09-1.99660E-09
 -1     27952 1.13328E+00 1.13328E+00-1.89316E-06-1.49513E-01 5.47375E-07 5.38962E-07
 -1     27953 1.11018E+00 1.15639E+00-2.12304E-06-1.45855E-01 4.05085E-07 4.71359E-07
 -1     27954 1.13329E+00 1.13329E+00-2.71508E-07-1.53601E-01 7.18478E-08 6.47749E-08
 -1     27959 1.13328E+00 1.13328E+00-2.27453E-06-1.49512E-01 3.58074E-07 3.49230E-07
 -1     27960 1.11018E+00 1.15639E+00-2.33084E-06-1.45854E-01 2.31829E-07 2.67647E-07
 -1     27961 1.13329E+00 1.13329E+00-4.51579E-07-1.53601E-01 9.47727E-08 9.00020E-08
 -1     27966 1.13328E+00 1.13328E+00-2.35375E-06-1.49512E-01 1.99353E-07 1.95596E-07
 -1     27967 1.11018E+00 1.15639E+00-2.37420E-06-1.45854E-01 1.22210E-07 1.39827E-07
 -1     27968 1.13329E+00 1.13329E+00-5.62970E-07-1.53601E-01 6.62132E-08 6.41432E-08
 -1     27973 1.13328E+00 1.13328E+00-2.37083E-06-1.49512E-01 8.93338E-08 8.87297E-08
 -1     27974 1.11018E+00 1.15639E+00-2.38251E-06-1.45854E-01 3.82458E-08 4.35270E-08
 -1     27975 1.13329E+00 1.13329E+00-6.04970E-07-1.53601E-01 2.29228E-08 2.24387E-08
 -1     27980 1.13328E+00 1.13328E+00-2.37285E-06-1.49512E-01 5.69000E-14 6.66174E-14
 -1     27981 1.11018E+00 1.15639E+00-2.38251E-06-1.45854E-01-3.82458E-08-4.35270E-08
 -1     27982 1.13329E+00 1.13329E+00-6.04970E-07-1.53601E-01-2.29228E-08-2.24386E-08
 -1     27987 1.13328E+00 1.13328E+00-2.37083E-06-1.49512E-01-8.93337E-08-8.87297E-08
 -1     27988 1.11018E+00 1.15639E+00-2.37420E-06-1.45854E-01-1.22210E-07-1.39827E-07
 -1     27989 1.13329E+00 1.13329E+00-5.62970E-07-1.53601E-01-6.62131E-08-6.41432E-08
 -1     27994 1.13328E+00 1.13328E+00-2.35375E-06-1.49512E-01-1.99353E-07-1.95596E-07
 -1     27995 1.11018E+00 1.15639E+00-2.33084E-06-1.45854E-01-2.31829E-07-2.67646E-07
 -1     27996 1.13329E+00 1.13329E+00-4.51579E-07-1.53601E-01-9.47727E-08-9.00019E-08
 -1     28001 1.13328E+00 1.13328E+00-2.27453E-06-1.49512E-01-3.58074E-07-3.49230E-07
 -1     28002 1.11018E+00 1.15639E+00-2.12304E-06-1.45855E-01-4.05085E-07-4.71359E-07
 -1     28003 1.13329E+00 1.13329E+00-2.71508E-07-1.53601E-01-7.18478E-08-6.47748E-08
 -1     28008 1.13328E+00 1.13328E+00-1.89316E-06-1.49513E-01-5.47375E-07-5.38962E-07
 -1     28009 1.11018E+00 1.15639E+00-1.51091E-06-1.45855E-01-6.51300E-07-7.59012E-07
 -1     28010 1.13329E+00 1.13329E+00-2.12452E-08-1.53601E-01-1.43982E-09 1.99655E-09
 -1     28015 1.13328E+00 1.13328E+00-8.89437E-07-1.49513E-01-4.15433E-07-4.18789E-07
 -1     28019 1.17949E+00 1.08708E+00-8.34059E-07-1.42195E-01 4.24351E-07 3.12117E-07
 -1     28020 1.15639E+00 1.11018E+00-1.52060E-06-1.45855E-01 7.38001E-07 6.48648E-07
 -1     28021 1.18075E+00 1.08582E+00-5.78897E-08-1.46083E-01-4.99146E-08-3.66483E-08
 -1     28026 1.17949E+00 1.08708E+00-1.84706E-06-1.42195E-01 5.50923E-07 3.98094E-07
 -1     28027 1.15639E+00 1.11018E+00-2.10905E-06-1.45855E-01 4.37262E-07 4.06158E-07
 -1     28028 1.18075E+00 1.08582E+00-2.48072E-07-1.46083E-01-4.10197E-09-6.35881E-09
 -1     28033 1.17949E+00 1.08708E+00-2.25937E-06-1.42195E-01 3.28841E-07 2.34026E-07
 -1     28034 1.15639E+00 1.11018E+00-2.31397E-06-1.45854E-01 2.18548E-07 2.19709E-07
 -1     28035 1.18075E+00 1.08582E+00-4.00392E-07-1.46083E-01 3.94120E-08 2.54507E-08
 -1     28040 1.17949E+00 1.08708E+00-2.31512E-06-1.42195E-01 1.56098E-07 1.09877E-07
 -1     28041 1.15639E+00 1.11018E+00-2.34938E-06-1.45854E-01 1.05411E-07 1.12664E-07
 -1     28042 1.18075E+00 1.08582E+00-5.17221E-07-1.46083E-01 3.28237E-08 2.18207E-08
 -1     28047 1.17949E+00 1.08708E+00-2.32839E-06-1.42195E-01 6.57288E-08 4.61045E-08
 -1     28048 1.15639E+00 1.11018E+00-2.35305E-06-1.45854E-01 3.17795E-08 3.50136E-08
 -1     28049 1.18075E+00 1.08582E+00-5.66319E-07-1.46083E-01 1.17432E-08 7.85113E-09
 -1     28054 1.17949E+00 1.08708E+00-2.33475E-06-1.42195E-01 4.61119E-14-8.74167E-14
 -1     28055 1.15639E+00 1.11018E+00-2.35305E-06-1.45854E-01-3.17795E-08-3.50136E-08
 -1     28056 1.18075E+00 1.08582E+00-5.66319E-07-1.46083E-01-1.17432E-08-7.85124E-09
 -1     28061 1.17949E+00 1.08708E+00-2.32839E-06-1.42195E-01-6.57288E-08-4.61045E-08
 -1     28062 1.15639E+00 1.11018E+00-2.34938E-06-1.45854E-01-1.05411E-07-1.12664E-07
 -1     28063 1.18075E+00 1.08582E+00-5.17221E-07-1.46083E-01-3.28237E-08-2.18207E-08
 -1     28068 1.17949E+00 1.08708E+00-2.31512E-06-1.42195E-01-1.56098E-07-1.09877E-07
 -1     28069 1.15639E+00 1.11018E+00-2.31397E-06-1.45854E-01-2.18548E-07-2.19709E-07
 -1     28070 1.18075E+00 1.08582E+00-4.00392E-07-1.46083E-01-3.94120E-08-2.54508E-08
 -1     28075 1.17949E+00 1.08708E+00-2.25937E-06-1.42195E-01-3.28840E-07-2.34026E-07
 -1     28076 1.15639E+00 1.11018E+00-2.10905E-06-1.45855E-01-4.37262E-07-4.06158E-07
 -1     28077 1.18075E+00 1.08582E+00-2.48072E-07-1.46083E-01 4.10199E-09 6.35885E-09
 -1     28082 1.17949E+00 1.08708E+00-1.84706E-06-1.42195E-01-5.50922E-07-3.98094E-07
 -1     28083 1.15639E+00 1.11018E+00-1.52060E-06-1.45855E-01-7.38001E-07-6.48648E-07
 -1     28084 1.18075E+00 1.08582E+00-5.78897E-08-1.46083E-01 4.99146E-08 3.66483E-08
 -1     28089 1.17949E+00 1.08708E+00-8.34059E-07-1.42195E-01-4.24351E-07-3.12117E-07
 -1     28093 1.22117E+00 1.04540E+00-8.66515E-07-1.20958E-01 4.93590E-07 2.62309E-07
 -1     28094 1.20033E+00 1.06624E+00-1.52595E-06-1.31578E-01 8.39151E-07 4.99990E-07
 -1     28095 1.22357E+00 1.04300E+00-3.63644E-08-1.24266E-01-2.81904E-08-2.08427E-09
 -1     28100 1.22117E+00 1.04540E+00-1.87534E-06-1.20958E-01 6.43996E-07 3.48402E-07
 -1     28101 1.20033E+00 1.06624E+00-2.10282E-06-1.31577E-01 5.10211E-07 2.93151E-07
 -1     28102 1.22357E+00 1.04300E+00-2.63646E-07-1.24266E-01 4.37794E-08 3.42508E-08
 -1     28107 1.22117E+00 1.04540E+00-2.27459E-06-1.20958E-01 4.04075E-07 2.19971E-07
 -1     28108 1.20033E+00 1.06624E+00-2.30765E-06-1.31577E-01 2.54291E-07 1.37499E-07
 -1     28109 1.22357E+00 1.04300E+00-4.33390E-07-1.24266E-01 8.28428E-08 5.00645E-08
 -1     28114 1.22117E+00 1.04540E+00-2.34382E-06-1.20958E-01 2.12480E-07 1.14584E-07
 -1     28115 1.20033E+00 1.06624E+00-2.33906E-06-1.31577E-01 1.23487E-07 6.33915E-08
 -1     28116 1.22357E+00 1.04300E+00-5.47650E-07-1.24266E-01 6.12511E-08 3.49485E-08
 -1     28121 1.22117E+00 1.04540E+00-2.35875E-06-1.20958E-01 9.39560E-08 4.94663E-08
 -1     28122 1.20033E+00 1.06624E+00-2.34011E-06-1.31577E-01 3.75217E-08 1.87840E-08
 -1     28123 1.22357E+00 1.04300E+00-5.92868E-07-1.24266E-01 2.15512E-08 1.19668E-08
 -1     28128 1.22117E+00 1.04540E+00-2.36243E-06-1.20958E-01 7.85535E-14-7.11924E-15
 -1     28129 1.20033E+00 1.06624E+00-2.34011E-06-1.31577E-01-3.75215E-08-1.87840E-08
 -1     28130 1.22357E+00 1.04300E+00-5.92868E-07-1.24266E-01-2.15511E-08-1.19669E-08
 -1     28135 1.22117E+00 1.04540E+00-2.35875E-06-1.20958E-01-9.39559E-08-4.94663E-08
 -1     28136 1.20033E+00 1.06624E+00-2.33906E-06-1.31577E-01-1.23487E-07-6.33916E-08
 -1     28137 1.22357E+00 1.04300E+00-5.47650E-07-1.24266E-01-6.12510E-08-3.49485E-08
 -1     28142 1.22117E+00 1.04540E+00-2.34382E-06-1.20958E-01-2.12480E-07-1.14584E-07
 -1     28143 1.20033E+00 1.06624E+00-2.30765E-06-1.31577E-01-2.54290E-07-1.37499E-07
 -1     28144 1.22357E+00 1.04300E+00-4.33390E-07-1.24266E-01-8.28429E-08-5.00645E-08
 -1     28149 1.22117E+00 1.04540E+00-2.27459E-06-1.20958E-01-4.04075E-07-2.19971E-07
 -1     28150 1.20033E+00 1.06624E+00-2.10282E-06-1.31577E-01-5.10211E-07-2.93151E-07
 -1     28151 1.22357E+00 1.04300E+00-2.63646E-07-1.24266E-01-4.37793E-08-3.42508E-08
 -1     28156 1.22117E+00 1.04540E+00-1.87534E-06-1.20958E-01-6.43996E-07-3.48402E-07
 -1     28157 1.20033E+00 1.06624E+00-1.52595E-06-1.31578E-01-8.39151E-07-4.99990E-07
 -1     28158 1.22357E+00 1.04300E+00-3.63644E-08-1.24266E-01 2.81903E-08 2.08423E-09
 -1     28163 1.22117E+00 1.04540E+00-8.66515E-07-1.20958E-01-4.93590E-07-2.62309E-07
 -1     28167 1.25424E+00 1.01233E+00-9.04123E-07-8.78814E-02 5.66731E-07 1.92651E-07
 -1     28168 1.23770E+00 1.02886E+00-1.50895E-06-1.04420E-01 9.36926E-07 3.69394E-07
 -1     28169 1.25755E+00 1.00902E+00-9.34758E-09-9.02845E-02 2.78343E-08 1.39781E-08
 -1     28174 1.25424E+00 1.01233E+00-1.91305E-06-8.78813E-02 7.67610E-07 2.54874E-07
 -1     28175 1.23770E+00 1.02886E+00-2.12573E-06-1.04420E-01 5.91573E-07 2.18500E-07
 -1     28176 1.25755E+00 1.00902E+00-2.87638E-07-9.02845E-02 1.40037E-07 4.80692E-08
 -1     28181 1.25424E+00 1.01233E+00-2.30096E-06-8.78812E-02 5.14051E-07 1.69901E-07
 -1     28182 1.23770E+00 1.02886E+00-2.33427E-06-1.04420E-01 3.47464E-07 1.18728E-07
 -1     28183 1.25755E+00 1.00902E+00-4.79966E-07-9.02844E-02 1.62641E-07 5.50050E-08
 -1     28188 1.25424E+00 1.01233E+00-2.38485E-06-8.78811E-02 2.94926E-07 9.83258E-08
 -1     28189 1.23770E+00 1.02886E+00-2.37971E-06-1.04420E-01 1.85652E-07 5.98496E-08
 -1     28190 1.25755E+00 1.00902E+00-5.88847E-07-9.02844E-02 1.10662E-07 3.75851E-08
 -1     28195 1.25424E+00 1.01233E+00-2.39747E-06-8.78811E-02 1.33605E-07 4.50316E-08
 -1     28196 1.23770E+00 1.02886E+00-2.38926E-06-1.04420E-01 5.83718E-08 1.82878E-08
 -1     28197 1.25755E+00 1.00902E+00-6.27406E-07-9.02843E-02 3.80715E-08 1.29872E-08
 -1     28202 1.25424E+00 1.01233E+00-2.39572E-06-8.78811E-02 6.32273E-14-7.79262E-14
 -1     28203 1.23770E+00 1.02886E+00-2.38926E-06-1.04420E-01-5.83718E-08-1.82879E-08
 -1     28204 1.25755E+00 1.00902E+00-6.27406E-07-9.02843E-02-3.80715E-08-1.29872E-08
 -1     28209 1.25424E+00 1.01233E+00-2.39747E-06-8.78811E-02-1.33605E-07-4.50316E-08
 -1     28210 1.23770E+00 1.02886E+00-2.37971E-06-1.04420E-01-1.85652E-07-5.98497E-08
 -1     28211 1.25755E+00 1.00902E+00-5.88847E-07-9.02844E-02-1.10662E-07-3.75852E-08
 -1     28216 1.25424E+00 1.01233E+00-2.38485E-06-8.78811E-02-2.94927E-07-9.83258E-08
 -1     28217 1.23770E+00 1.02886E+00-2.33427E-06-1.04420E-01-3.47464E-07-1.18728E-07
 -1     28218 1.25755E+00 1.00902E+00-4.79966E-07-9.02844E-02-1.62641E-07-5.50050E-08
 -1     28223 1.25424E+00 1.01233E+00-2.30096E-06-8.78812E-02-5.14051E-07-1.69901E-07
 -1     28224 1.23770E+00 1.02886E+00-2.12573E-06-1.04420E-01-5.91573E-07-2.18500E-07
 -1     28225 1.25755E+00 1.00902E+00-2.87638E-07-9.02845E-02-1.40037E-07-4.80692E-08
 -1     28230 1.25424E+00 1.01233E+00-1.91305E-06-8.78813E-02-7.67610E-07-2.54874E-07
 -1     28231 1.23770E+00 1.02886E+00-1.50895E-06-1.04420E-01-9.36926E-07-3.69394E-07
 -1     28232 1.25755E+00 1.00902E+00-9.34759E-09-9.02845E-02-2.78342E-08-1.39781E-08
 -1     28237 1.25424E+00 1.01233E+00-9.04123E-07-8.78814E-02-5.66731E-07-1.92651E-07
 -1     28241 1.27548E+00 9.91090E-01-8.78048E-07-4.62018E-02 5.60497E-07 8.91560E-08
 -1     28242 1.26486E+00 1.00171E+00-1.50826E-06-6.70421E-02 9.74395E-07 2.47422E-07
 -1     28243 1.27937E+00 9.87204E-01-3.51812E-08-4.74653E-02-1.74293E-08-1.12710E-08
 -1     28248 1.27548E+00 9.91089E-01-1.89079E-06-4.62019E-02 7.27317E-07 9.66582E-08
 -1     28249 1.26486E+00 1.00171E+00-2.12387E-06-6.70420E-02 6.03137E-07 1.70474E-07
 -1     28250 1.27937E+00 9.87204E-01-2.63299E-07-4.74653E-02 6.02123E-08-3.50355E-09
 -1     28255 1.27548E+00 9.91090E-01-2.27372E-06-4.62019E-02 4.56441E-07 5.60855E-08
 -1     28256 1.26486E+00 1.00171E+00-2.33069E-06-6.70419E-02 3.49630E-07 1.08715E-07
 -1     28257 1.27937E+00 9.87204E-01-4.30297E-07-4.74653E-02 9.86123E-08 6.99362E-09
 -1     28262 1.27548E+00 9.91090E-01-2.33982E-06-4.62019E-02 2.40082E-07 3.13978E-08
 -1     28263 1.26486E+00 1.00171E+00-2.37689E-06-6.70419E-02 1.85235E-07 6.06947E-08
 -1     28264 1.27937E+00 9.87204E-01-5.41413E-07-4.74653E-02 7.09881E-08 7.55755E-09
 -1     28269 1.27548E+00 9.91090E-01-2.35251E-06-4.62019E-02 1.05108E-07 1.57369E-08
 -1     28270 1.26486E+00 1.00171E+00-2.38735E-06-6.70419E-02 5.80140E-08 1.94120E-08
 -1     28271 1.27937E+00 9.87204E-01-5.84848E-07-4.74653E-02 2.46861E-08 3.08028E-09
 -1     28276 1.27548E+00 9.91090E-01-2.35496E-06-4.62019E-02 9.35331E-15-1.99281E-14
 -1     28277 1.26486E+00 1.00171E+00-2.38735E-06-6.70419E-02-5.80141E-08-1.94121E-08
 -1     28278 1.27937E+00 9.87204E-01-5.84848E-07-4.74653E-02-2.46861E-08-3.08033E-09
 -1     28283 1.27548E+00 9.91090E-01-2.35251E-06-4.62019E-02-1.05108E-07-1.57369E-08
 -1     28284 1.26486E+00 1.00171E+00-2.37689E-06-6.70419E-02-1.85235E-07-6.06948E-08
 -1     28285 1.27937E+00 9.87204E-01-5.41413E-07-4.74653E-02-7.09880E-08-7.55757E-09
 -1     28290 1.27548E+00 9.91090E-01-2.33982E-06-4.62019E-02-2.40082E-07-3.13978E-08
 -1     28291 1.26486E+00 1.00171E+00-2.33069E-06-6.70419E-02-3.49630E-07-1.08715E-07
 -1     28292 1.27937E+00 9.87204E-01-4.30297E-07-4.74653E-02-9.86122E-08-6.99365E-09
 -1     28297 1.27548E+00 9.91090E-01-2.27372E-06-4.62019E-02-4.56441E-07-5.60856E-08
 -1     28298 1.26486E+00 1.00171E+00-2.12387E-06-6.70420E-02-6.03137E-07-1.70474E-07
 -1     28299 1.27937E+00 9.87204E-01-2.63299E-07-4.74653E-02-6.02122E-08 3.50352E-09
 -1     28304 1.27548E+00 9.91089E-01-1.89079E-06-4.62019E-02-7.27317E-07-9.66582E-08
 -1     28305 1.26486E+00 1.00171E+00-1.50826E-06-6.70421E-02-9.74395E-07-2.47422E-07
 -1     28306 1.27937E+00 9.87204E-01-3.51811E-08-4.74653E-02 1.74293E-08 1.12710E-08
 -1     28311 1.27548E+00 9.91090E-01-8.78048E-07-4.62018E-02-5.60497E-07-8.91560E-08
 -1     28315 1.27914E+00 9.87429E-01-1.53419E-06-2.31012E-02 9.54020E-07 9.67096E-08
 -1     28319 1.27914E+00 9.87430E-01-2.08605E-06-2.31011E-02 5.54877E-07 8.01543E-08
 -1     28323 1.27914E+00 9.87430E-01-2.28576E-06-2.31010E-02 2.41354E-07 5.49617E-08
 -1     28327 1.27914E+00 9.87430E-01-2.31127E-06-2.31010E-02 1.05921E-07 3.26347E-08
 -1     28331 1.27914E+00 9.87430E-01-2.30965E-06-2.31010E-02 3.08720E-08 1.08022E-08
 -1     28335 1.27914E+00 9.87430E-01-2.30965E-06-2.31010E-02-3.08720E-08-1.08022E-08
 -1     28339 1.27914E+00 9.87430E-01-2.31127E-06-2.31010E-02-1.05921E-07-3.26347E-08
 -1     28343 1.27914E+00 9.87430E-01-2.28576E-06-2.31010E-02-2.41354E-07-5.49617E-08
 -1     28347 1.27914E+00 9.87430E-01-2.08605E-06-2.31011E-02-5.54877E-07-8.01544E-08
 -1     28351 1.27914E+00 9.87429E-01-1.53419E-06-2.31012E-02-9.54020E-07-9.67096E-08
 -1     28357 9.98437E-01 1.26814E+00 5.95395E-07-4.38167E-02-1.36544E-07-8.51092E-07
 -1     28358 9.94784E-01 1.27180E+00 8.27115E-07-2.19373E-02-7.69033E-08-9.87125E-07
 -1     28359 9.94743E-01 1.27184E+00 7.71053E-07-4.50171E-02 3.39757E-08 2.27723E-07
 -1     28364 9.98438E-01 1.26815E+00 1.08998E-06-4.38166E-02-9.98957E-08-6.15795E-07
 -1     28365 9.94785E-01 1.27180E+00 1.27395E-06-2.19373E-02-2.81926E-08-3.65676E-07
 -1     28366 9.94743E-01 1.27184E+00 1.21558E-06-4.50171E-02 3.44324E-08 2.25791E-07
 -1     28371 9.98438E-01 1.26815E+00 1.40593E-06-4.38166E-02-4.20585E-08-2.56398E-07
 -1     28372 9.94785E-01 1.27180E+00 1.54151E-06-2.19373E-02-1.30407E-08-1.69926E-07
 -1     28373 9.94743E-01 1.27184E+00 1.51090E-06-4.50171E-02 1.99651E-08 1.30076E-07
 -1     28378 9.98438E-01 1.26815E+00 1.61721E-06-4.38166E-02-2.14414E-08-1.30140E-07
 -1     28379 9.94785E-01 1.27180E+00 1.71115E-06-2.19373E-02-7.09614E-09-9.28683E-08
 -1     28380 9.94743E-01 1.27184E+00 1.65521E-06-4.50171E-02 9.91423E-09 6.49667E-08
 -1     28385 9.98438E-01 1.26815E+00 1.75184E-06-4.38167E-02-1.02315E-08-6.13586E-08
 -1     28386 9.94785E-01 1.27180E+00 1.79679E-06-2.19373E-02-2.32578E-09-3.06412E-08
 -1     28387 9.94743E-01 1.27184E+00 1.71175E-06-4.50171E-02 2.94154E-09 1.95213E-08
 -1     28392 9.98438E-01 1.26815E+00 1.79656E-06-4.38167E-02-3.61578E-14 1.05050E-13
 -1     28393 9.94785E-01 1.27180E+00 1.79679E-06-2.19373E-02 2.32573E-09 3.06413E-08
 -1     28394 9.94743E-01 1.27184E+00 1.71175E-06-4.50171E-02-2.94158E-09-1.95212E-08
 -1     28399 9.98438E-01 1.26815E+00 1.75184E-06-4.38167E-02 1.02314E-08 6.13586E-08
 -1     28400 9.94785E-01 1.27180E+00 1.71115E-06-2.19373E-02 7.09611E-09 9.28683E-08
 -1     28401 9.94743E-01 1.27184E+00 1.65521E-06-4.50171E-02-9.91426E-09-6.49665E-08
 -1     28406 9.98438E-01 1.26815E+00 1.61721E-06-4.38166E-02 2.14414E-08 1.30140E-07
 -1     28407 9.94785E-01 1.27180E+00 1.54151E-06-2.19373E-02 1.30407E-08 1.69926E-07
 -1     28408 9.94743E-01 1.27184E+00 1.51090E-06-4.50171E-02-1.99651E-08-1.30076E-07
 -1     28413 9.98438E-01 1.26815E+00 1.40593E-06-4.38166E-02 4.20585E-08 2.56398E-07
 -1     28414 9.94785E-01 1.27180E+00 1.27395E-06-2.19373E-02 2.81926E-08 3.65676E-07
 -1     28415 9.94743E-01 1.27184E+00 1.21558E-06-4.50171E-02-3.44323E-08-2.25791E-07
 -1     28420 9.98438E-01 1.26815E+00 1.08998E-06-4.38166E-02 9.98957E-08 6.15794E-07
 -1     28421 9.94784E-01 1.27180E+00 8.27115E-07-2.19373E-02 7.69033E-08 9.87125E-07
 -1     28422 9.94743E-01 1.27184E+00 7.71053E-07-4.50171E-02-3.39757E-08-2.27723E-07
 -1     28427 9.98437E-01 1.26814E+00 5.95395E-07-4.38167E-02 1.36544E-07 8.51092E-07
 -1     28431 1.01858E+00 1.24800E+00 5.91935E-07-8.33443E-02-2.67798E-07-8.14906E-07
 -1     28432 1.00834E+00 1.25824E+00 8.24494E-07-6.36646E-02-2.28205E-07-9.61572E-07
 -1     28433 1.01543E+00 1.25115E+00 7.71479E-07-8.56276E-02 6.82704E-08 2.20869E-07
 -1     28438 1.01858E+00 1.24800E+00 1.08554E-06-8.33442E-02-1.93469E-07-5.86646E-07
 -1     28439 1.00834E+00 1.25824E+00 1.27342E-06-6.36646E-02-8.44523E-08-3.57754E-07
 -1     28440 1.01543E+00 1.25115E+00 1.21465E-06-8.56276E-02 7.05273E-08 2.20246E-07
 -1     28445 1.01858E+00 1.24800E+00 1.40138E-06-8.33442E-02-7.84813E-08-2.43006E-07
 -1     28446 1.00834E+00 1.25824E+00 1.54223E-06-6.36646E-02-3.98991E-08-1.67302E-07
 -1     28447 1.01543E+00 1.25115E+00 1.50800E-06-8.56277E-02 4.22906E-08 1.27395E-07
 -1     28452 1.01858E+00 1.24800E+00 1.61203E-06-8.33442E-02-3.82018E-08-1.23399E-07
 -1     28453 1.00834E+00 1.25824E+00 1.71261E-06-6.36646E-02-2.20037E-08-9.16723E-08
 -1     28454 1.01543E+00 1.25115E+00 1.65114E-06-8.56277E-02 2.18328E-08 6.39245E-08
 -1     28459 1.01858E+00 1.24801E+00 1.74572E-06-8.33442E-02-1.77457E-08-5.82281E-08
 -1     28460 1.00834E+00 1.25824E+00 1.79858E-06-6.36646E-02-7.25529E-09-3.02750E-08
 -1     28461 1.01543E+00 1.25115E+00 1.70719E-06-8.56277E-02 6.65415E-09 1.92667E-08
 -1     28466 1.01858E+00 1.24801E+00 1.79010E-06-8.33442E-02 3.33896E-14-3.29678E-14
 -1     28467 1.00834E+00 1.25824E+00 1.79858E-06-6.36646E-02 7.25531E-09 3.02750E-08
 -1     28468 1.01543E+00 1.25115E+00 1.70719E-06-8.56277E-02-6.65414E-09-1.92668E-08
 -1     28473 1.01858E+00 1.24801E+00 1.74572E-06-8.33442E-02 1.77456E-08 5.82281E-08
 -1     28474 1.00834E+00 1.25824E+00 1.71261E-06-6.36646E-02 2.20037E-08 9.16723E-08
 -1     28475 1.01543E+00 1.25115E+00 1.65114E-06-8.56277E-02-2.18329E-08-6.39245E-08
 -1     28480 1.01858E+00 1.24800E+00 1.61203E-06-8.33442E-02 3.82018E-08 1.23399E-07
 -1     28481 1.00834E+00 1.25824E+00 1.54223E-06-6.36646E-02 3.98991E-08 1.67302E-07
 -1     28482 1.01543E+00 1.25115E+00 1.50800E-06-8.56277E-02-4.22907E-08-1.27395E-07
 -1     28487 1.01858E+00 1.24800E+00 1.40138E-06-8.33442E-02 7.84813E-08 2.43006E-07
 -1     28488 1.00834E+00 1.25824E+00 1.27342E-06-6.36646E-02 8.44523E-08 3.57754E-07
 -1     28489 1.01543E+00 1.25115E+00 1.21465E-06-8.56276E-02-7.05273E-08-2.20246E-07
 -1     28494 1.01858E+00 1.24800E+00 1.08554E-06-8.33442E-02 1.93469E-07 5.86646E-07
 -1     28495 1.00834E+00 1.25824E+00 8.24494E-07-6.36646E-02 2.28205E-07 9.61572E-07
 -1     28496 1.01543E+00 1.25115E+00 7.71479E-07-8.56276E-02-6.82704E-08-2.20868E-07
 -1     28501 1.01858E+00 1.24800E+00 5.91935E-07-8.33443E-02 2.67798E-07 8.14907E-07
 -1     28505 1.04995E+00 1.21663E+00 6.00555E-07-1.14714E-01-4.05593E-07-7.83155E-07
 -1     28506 1.03413E+00 1.23245E+00 8.34029E-07-9.91599E-02-3.79681E-07-9.22161E-07
 -1     28507 1.04766E+00 1.21892E+00 7.70217E-07-1.17856E-01 9.65331E-08 2.05171E-07
 -1     28512 1.04995E+00 1.21664E+00 1.09476E-06-1.14713E-01-2.90505E-07-5.61920E-07
 -1     28513 1.03413E+00 1.23245E+00 1.27801E-06-9.91599E-02-1.41885E-07-3.42481E-07
 -1     28514 1.04766E+00 1.21892E+00 1.20730E-06-1.17856E-01 1.00238E-07 2.01316E-07
 -1     28519 1.04995E+00 1.21664E+00 1.39800E-06-1.14713E-01-1.11230E-07-2.28405E-07
 -1     28520 1.03413E+00 1.23245E+00 1.54651E-06-9.91599E-02-6.81036E-08-1.59141E-07
 -1     28521 1.04766E+00 1.21892E+00 1.49887E-06-1.17856E-01 6.25452E-08 1.16430E-07
 -1     28526 1.04995E+00 1.21664E+00 1.59379E-06-1.14713E-01-4.84714E-08-1.13673E-07
 -1     28527 1.03413E+00 1.23245E+00 1.71802E-06-9.91600E-02-3.82366E-08-8.69921E-08
 -1     28528 1.04766E+00 1.21892E+00 1.63868E-06-1.17856E-01 3.40260E-08 5.84553E-08
 -1     28533 1.04995E+00 1.21664E+00 1.71837E-06-1.14714E-01-2.07407E-08-5.33792E-08
 -1     28534 1.03413E+00 1.23245E+00 1.80500E-06-9.91600E-02-1.27296E-08-2.87089E-08
 -1     28535 1.04766E+00 1.21892E+00 1.69200E-06-1.17856E-01 1.07792E-08 1.76707E-08
 -1     28540 1.04995E+00 1.21664E+00 1.75975E-06-1.14714E-01 2.13475E-14 8.93581E-14
 -1     28541 1.03413E+00 1.23245E+00 1.80500E-06-9.91600E-02 1.27295E-08 2.87090E-08
 -1     28542 1.04766E+00 1.21892E+00 1.69200E-06-1.17856E-01-1.07792E-08-1.76706E-08
 -1     28547 1.04995E+00 1.21664E+00 1.71837E-06-1.14714E-01 2.07408E-08 5.33793E-08
 -1     28548 1.03413E+00 1.23245E+00 1.71802E-06-9.91600E-02 3.82365E-08 8.69921E-08
 -1     28549 1.04766E+00 1.21892E+00 1.63868E-06-1.17856E-01-3.40260E-08-5.84552E-08
 -1     28554 1.04995E+00 1.21664E+00 1.59379E-06-1.14713E-01 4.84715E-08 1.13673E-07
 -1     28555 1.03413E+00 1.23245E+00 1.54651E-06-9.91599E-02 6.81036E-08 1.59141E-07
 -1     28556 1.04766E+00 1.21892E+00 1.49887E-06-1.17856E-01-6.25452E-08-1.16430E-07
 -1     28561 1.04995E+00 1.21664E+00 1.39800E-06-1.14713E-01 1.11230E-07 2.28405E-07
 -1     28562 1.03413E+00 1.23245E+00 1.27801E-06-9.91599E-02 1.41885E-07 3.42481E-07
 -1     28563 1.04766E+00 1.21892E+00 1.20730E-06-1.17856E-01-1.00238E-07-2.01316E-07
 -1     28568 1.04995E+00 1.21664E+00 1.09476E-06-1.14713E-01 2.90505E-07 5.61920E-07
 -1     28569 1.03413E+00 1.23245E+00 8.34029E-07-9.91599E-02 3.79681E-07 9.22162E-07
 -1     28570 1.04766E+00 1.21892E+00 7.70217E-07-1.17856E-01-9.65331E-08-2.05171E-07
 -1     28575 1.04995E+00 1.21663E+00 6.00555E-07-1.14714E-01 4.05593E-07 7.83155E-07
 -1     28579 1.08947E+00 1.17711E+00 4.66848E-07-1.34854E-01-4.85705E-07-6.72520E-07
 -1     28580 1.06963E+00 1.19696E+00 7.95864E-07-1.24949E-01-4.83164E-07-8.23053E-07
 -1     28581 1.08827E+00 1.17831E+00 7.42267E-07-1.38548E-01 1.66780E-07 2.34175E-07
 -1     28586 1.08947E+00 1.17711E+00 9.20115E-07-1.34854E-01-3.66191E-07-5.04085E-07
 -1     28587 1.06963E+00 1.19696E+00 1.26643E-06-1.24949E-01-1.75762E-07-3.12792E-07
 -1     28588 1.08827E+00 1.17831E+00 1.20124E-06-1.38548E-01 1.50280E-07 2.13651E-07
 -1     28593 1.08947E+00 1.17711E+00 1.37313E-06-1.34854E-01-1.77246E-07-2.43537E-07
 -1     28594 1.06963E+00 1.19696E+00 1.55065E-06-1.24949E-01-8.74113E-08-1.51365E-07
 -1     28595 1.08827E+00 1.17831E+00 1.51868E-06-1.38548E-01 7.98827E-08 1.12310E-07
 -1     28600 1.08947E+00 1.17711E+00 1.66564E-06-1.34854E-01-9.98386E-08-1.40635E-07
 -1     28601 1.06963E+00 1.19696E+00 1.73280E-06-1.24949E-01-5.13251E-08-8.37383E-08
 -1     28602 1.08827E+00 1.17831E+00 1.67942E-06-1.38548E-01 3.74997E-08 5.11377E-08
 -1     28607 1.08947E+00 1.17711E+00 1.83413E-06-1.34854E-01-4.82325E-08-6.95704E-08
 -1     28608 1.06963E+00 1.19696E+00 1.82514E-06-1.24949E-01-1.75252E-08-2.77293E-08
 -1     28609 1.08827E+00 1.17831E+00 1.74467E-06-1.38548E-01 1.08043E-08 1.43486E-08
 -1     28614 1.08947E+00 1.17711E+00 1.88771E-06-1.34854E-01 1.22673E-14-3.89607E-14
 -1     28615 1.06963E+00 1.19696E+00 1.82514E-06-1.24949E-01 1.75253E-08 2.77294E-08
 -1     28616 1.08827E+00 1.17831E+00 1.74467E-06-1.38548E-01-1.08044E-08-1.43486E-08
 -1     28621 1.08947E+00 1.17711E+00 1.83413E-06-1.34854E-01 4.82325E-08 6.95703E-08
 -1     28622 1.06963E+00 1.19696E+00 1.73280E-06-1.24949E-01 5.13251E-08 8.37383E-08
 -1     28623 1.08827E+00 1.17831E+00 1.67942E-06-1.38548E-01-3.74998E-08-5.11378E-08
 -1     28628 1.08947E+00 1.17711E+00 1.66564E-06-1.34854E-01 9.98387E-08 1.40635E-07
 -1     28629 1.06963E+00 1.19696E+00 1.55065E-06-1.24949E-01 8.74113E-08 1.51364E-07
 -1     28630 1.08827E+00 1.17831E+00 1.51868E-06-1.38548E-01-7.98827E-08-1.12310E-07
 -1     28635 1.08947E+00 1.17711E+00 1.37313E-06-1.34854E-01 1.77246E-07 2.43537E-07
 -1     28636 1.06963E+00 1.19696E+00 1.26643E-06-1.24949E-01 1.75762E-07 3.12792E-07
 -1     28637 1.08827E+00 1.17831E+00 1.20124E-06-1.38548E-01-1.50280E-07-2.13651E-07
 -1     28642 1.08947E+00 1.17711E+00 9.20115E-07-1.34854E-01 3.66191E-07 5.04085E-07
 -1     28643 1.06963E+00 1.19696E+00 7.95864E-07-1.24949E-01 4.83164E-07 8.23053E-07
 -1     28644 1.08827E+00 1.17831E+00 7.42267E-07-1.38548E-01-1.66780E-07-2.34175E-07
 -1     28649 1.08947E+00 1.17711E+00 4.66848E-07-1.34854E-01 4.85705E-07 6.72520E-07
 -1     28653 1.13329E+00 1.13329E+00 3.95056E-07-1.41794E-01-4.93295E-07-5.37498E-07
 -1     28654 1.11135E+00 1.15523E+00 6.74575E-07-1.38507E-01-5.38861E-07-6.33788E-07
 -1     28655 1.13329E+00 1.13329E+00 7.41435E-07-1.45678E-01 2.39992E-07 2.06891E-07
 -1     28660 1.13329E+00 1.13329E+00 8.31101E-07-1.41794E-01-3.83673E-07-4.04368E-07
 -1     28661 1.11135E+00 1.15523E+00 1.22612E-06-1.38507E-01-2.09727E-07-2.55909E-07
 -1     28662 1.13329E+00 1.13329E+00 1.21806E-06-1.45678E-01 2.13624E-07 2.06758E-07
 -1     28667 1.13329E+00 1.13329E+00 1.35650E-06-1.41794E-01-2.24515E-07-2.07007E-07
 -1     28668 1.11135E+00 1.15523E+00 1.54436E-06-1.38507E-01-1.14122E-07-1.43328E-07
 -1     28669 1.13329E+00 1.13329E+00 1.53672E-06-1.45678E-01 1.03522E-07 1.12590E-07
 -1     28674 1.13329E+00 1.13329E+00 1.71335E-06-1.41794E-01-1.52540E-07-1.24017E-07
 -1     28675 1.11135E+00 1.15523E+00 1.74253E-06-1.38507E-01-6.66909E-08-8.47290E-08
 -1     28676 1.13329E+00 1.13329E+00 1.70608E-06-1.45678E-01 4.19643E-08 5.37778E-08
 -1     28681 1.13329E+00 1.13329E+00 1.91377E-06-1.41794E-01-8.00507E-08-6.10272E-08
 -1     28682 1.11135E+00 1.15523E+00 1.84051E-06-1.38507E-01-2.25949E-08-2.87812E-08
 -1     28683 1.13329E+00 1.13329E+00 1.77942E-06-1.45678E-01 1.04850E-08 1.55368E-08
 -1     28688 1.13329E+00 1.13329E+00 1.97680E-06-1.41794E-01-6.40547E-15 1.01664E-13
 -1     28689 1.11135E+00 1.15523E+00 1.84051E-06-1.38507E-01 2.25950E-08 2.87814E-08
 -1     28690 1.13329E+00 1.13329E+00 1.77942E-06-1.45678E-01-1.04849E-08-1.55367E-08
 -1     28695 1.13329E+00 1.13329E+00 1.91377E-06-1.41794E-01 8.00510E-08 6.10272E-08
 -1     28696 1.11135E+00 1.15523E+00 1.74253E-06-1.38507E-01 6.66909E-08 8.47289E-08
 -1     28697 1.13329E+00 1.13329E+00 1.70608E-06-1.45678E-01-4.19642E-08-5.37779E-08
 -1     28702 1.13329E+00 1.13329E+00 1.71335E-06-1.41794E-01 1.52540E-07 1.24017E-07
 -1     28703 1.11135E+00 1.15523E+00 1.54436E-06-1.38507E-01 1.14122E-07 1.43328E-07
 -1     28704 1.13329E+00 1.13329E+00 1.53672E-06-1.45678E-01-1.03522E-07-1.12590E-07
 -1     28709 1.13329E+00 1.13329E+00 1.35650E-06-1.41794E-01 2.24515E-07 2.07007E-07
 -1     28710 1.11135E+00 1.15523E+00 1.22612E-06-1.38507E-01 2.09727E-07 2.55909E-07
 -1     28711 1.13329E+00 1.13329E+00 1.21806E-06-1.45678E-01-2.13624E-07-2.06758E-07
 -1     28716 1.13329E+00 1.13329E+00 8.31101E-07-1.41794E-01 3.83673E-07 4.04368E-07
 -1     28717 1.11135E+00 1.15523E+00 6.74575E-07-1.38507E-01 5.38861E-07 6.33788E-07
 -1     28718 1.13329E+00 1.13329E+00 7.41434E-07-1.45678E-01-2.39992E-07-2.06891E-07
 -1     28723 1.13329E+00 1.13329E+00 3.95056E-07-1.41794E-01 4.93295E-07 5.37498E-07
 -1     28727 1.17711E+00 1.08947E+00 9.23562E-07-1.34854E-01-8.56093E-07-6.46549E-07
 -1     28728 1.15523E+00 1.11135E+00 8.88272E-07-1.38507E-01-8.48596E-07-6.24278E-07
 -1     28729 1.17831E+00 1.08827E+00 8.28102E-07-1.38548E-01 7.73336E-08 3.97830E-08
 -1     28734 1.17711E+00 1.08947E+00 1.51189E-06-1.34854E-01-5.65840E-07-4.27887E-07
 -1     28735 1.15523E+00 1.11135E+00 1.29630E-06-1.38507E-01-3.25541E-07-2.11722E-07
 -1     28736 1.17831E+00 1.08827E+00 1.21214E-06-1.38548E-01 1.05777E-07 7.01391E-08
 -1     28741 1.17711E+00 1.08947E+00 1.46894E-06-1.34854E-01-1.26923E-07-9.61256E-08
 -1     28742 1.15523E+00 1.11135E+00 1.54358E-06-1.38507E-01-1.42177E-07-9.59794E-08
 -1     28743 1.17831E+00 1.08827E+00 1.45878E-06-1.38549E-01 8.96045E-08 6.25034E-08
 -1     28748 1.17711E+00 1.08947E+00 1.43625E-06-1.34854E-01-7.12972E-09-5.66478E-09
 -1     28749 1.15523E+00 1.11135E+00 1.70189E-06-1.38507E-01-7.17485E-08-5.58381E-08
 -1     28750 1.17831E+00 1.08827E+00 1.55748E-06-1.38549E-01 5.82329E-08 4.13693E-08
 -1     28755 1.17711E+00 1.08947E+00 1.45869E-06-1.34854E-01 6.85284E-09 5.00652E-09
 -1     28756 1.15523E+00 1.11135E+00 1.78285E-06-1.38507E-01-2.26006E-08-1.91474E-08
 -1     28757 1.17831E+00 1.08827E+00 1.58486E-06-1.38549E-01 2.04191E-08 1.46328E-08
 -1     28762 1.17711E+00 1.08947E+00 1.47188E-06-1.34854E-01 7.73553E-14-5.02789E-14
 -1     28763 1.15523E+00 1.11135E+00 1.78285E-06-1.38507E-01 2.26008E-08 1.91474E-08
 -1     28764 1.17831E+00 1.08827E+00 1.58486E-06-1.38549E-01-2.04191E-08-1.46329E-08
 -1     28769 1.17711E+00 1.08947E+00 1.45869E-06-1.34854E-01-6.85282E-09-5.00658E-09
 -1     28770 1.15523E+00 1.11135E+00 1.70189E-06-1.38507E-01 7.17487E-08 5.58380E-08
 -1     28771 1.17831E+00 1.08827E+00 1.55748E-06-1.38549E-01-5.82329E-08-4.13694E-08
 -1     28776 1.17711E+00 1.08947E+00 1.43625E-06-1.34854E-01 7.12973E-09 5.66472E-09
 -1     28777 1.15523E+00 1.11135E+00 1.54358E-06-1.38507E-01 1.42177E-07 9.59793E-08
 -1     28778 1.17831E+00 1.08827E+00 1.45878E-06-1.38549E-01-8.96045E-08-6.25035E-08
 -1     28783 1.17711E+00 1.08947E+00 1.46894E-06-1.34854E-01 1.26923E-07 9.61256E-08
 -1     28784 1.15523E+00 1.11135E+00 1.29630E-06-1.38507E-01 3.25541E-07 2.11722E-07
 -1     28785 1.17831E+00 1.08827E+00 1.21214E-06-1.38548E-01-1.05777E-07-7.01391E-08
 -1     28790 1.17711E+00 1.08947E+00 1.51189E-06-1.34854E-01 5.65840E-07 4.27887E-07
 -1     28791 1.15523E+00 1.11135E+00 8.88272E-07-1.38507E-01 8.48596E-07 6.24278E-07
 -1     28792 1.17831E+00 1.08827E+00 8.28102E-07-1.38548E-01-7.73336E-08-3.97830E-08
 -1     28797 1.17711E+00 1.08947E+00 9.23562E-07-1.34854E-01 8.56093E-07 6.46549E-07
 -1     28801 1.21663E+00 1.04995E+00 5.95196E-07-1.14714E-01-8.00253E-07-3.94819E-07
 -1     28802 1.19696E+00 1.06963E+00 1.01058E-06-1.24949E-01-9.76499E-07-6.42145E-07
 -1     28803 1.21892E+00 1.04766E+00 7.69280E-07-1.17856E-01 1.94873E-07 1.18776E-07
 -1     28808 1.21664E+00 1.04995E+00 1.08376E-06-1.14713E-01-5.75970E-07-2.95377E-07
 -1     28809 1.19696E+00 1.06963E+00 1.33867E-06-1.24949E-01-3.35701E-07-2.37217E-07
 -1     28810 1.21892E+00 1.04766E+00 1.20630E-06-1.17856E-01 1.97933E-07 1.05965E-07
 -1     28815 1.21664E+00 1.04995E+00 1.39306E-06-1.14713E-01-2.24480E-07-1.42208E-07
 -1     28816 1.19696E+00 1.06963E+00 1.55070E-06-1.24949E-01-1.33232E-07-9.02556E-08
 -1     28817 1.21892E+00 1.04766E+00 1.49842E-06-1.17856E-01 1.21062E-07 4.96729E-08
 -1     28822 1.21664E+00 1.04995E+00 1.59429E-06-1.14713E-01-9.94016E-08-8.98581E-08
 -1     28823 1.19696E+00 1.06963E+00 1.69229E-06-1.24949E-01-6.97870E-08-4.05161E-08
 -1     28824 1.21892E+00 1.04766E+00 1.63902E-06-1.17856E-01 6.53815E-08 1.72941E-08
 -1     28829 1.21664E+00 1.04995E+00 1.71996E-06-1.14713E-01-4.23911E-08-4.84480E-08
 -1     28830 1.19696E+00 1.06963E+00 1.76746E-06-1.24949E-01-2.28107E-08-1.19295E-08
 -1     28831 1.21892E+00 1.04766E+00 1.69262E-06-1.17856E-01 2.07497E-08 3.59375E-09
 -1     28836 1.21664E+00 1.04995E+00 1.76117E-06-1.14713E-01 1.67076E-13-9.40478E-14
 -1     28837 1.19696E+00 1.06963E+00 1.76746E-06-1.24949E-01 2.28109E-08 1.19294E-08
 -1     28838 1.21892E+00 1.04766E+00 1.69262E-06-1.17856E-01-2.07495E-08-3.59380E-09
 -1     28843 1.21664E+00 1.04995E+00 1.71996E-06-1.14713E-01 4.23913E-08 4.84479E-08
 -1     28844 1.19696E+00 1.06963E+00 1.69229E-06-1.24949E-01 6.97871E-08 4.05160E-08
 -1     28845 1.21892E+00 1.04766E+00 1.63902E-06-1.17856E-01-6.53814E-08-1.72942E-08
 -1     28850 1.21664E+00 1.04995E+00 1.59429E-06-1.14713E-01 9.94016E-08 8.98579E-08
 -1     28851 1.19696E+00 1.06963E+00 1.55070E-06-1.24949E-01 1.33232E-07 9.02554E-08
 -1     28852 1.21892E+00 1.04766E+00 1.49842E-06-1.17856E-01-1.21062E-07-4.96730E-08
 -1     28857 1.21664E+00 1.04995E+00 1.39306E-06-1.14713E-01 2.24480E-07 1.42208E-07
 -1     28858 1.19696E+00 1.06963E+00 1.33867E-06-1.24949E-01 3.35701E-07 2.37217E-07
 -1     28859 1.21892E+00 1.04766E+00 1.20630E-06-1.17856E-01-1.97933E-07-1.05965E-07
 -1     28864 1.21664E+00 1.04995E+00 1.08376E-06-1.14713E-01 5.75970E-07 2.95377E-07
 -1     28865 1.19696E+00 1.06963E+00 1.01058E-06-1.24949E-01 9.76499E-07 6.42145E-07
 -1     28866 1.21892E+00 1.04766E+00 7.69280E-07-1.17856E-01-1.94873E-07-1.18776E-07
 -1     28871 1.21663E+00 1.04995E+00 5.95196E-07-1.14714E-01 8.00253E-07 3.94819E-07
 -1     28875 1.24800E+00 1.01858E+00 1.41672E-07-8.33446E-02-6.08679E-07-2.27281E-07
 -1     28876 1.23245E+00 1.03413E+00 6.36860E-07-9.91598E-02-6.98986E-07-3.43469E-07
 -1     28877 1.25115E+00 1.01543E+00 6.85159E-07-8.56277E-02 4.14232E-07 1.14977E-07
 -1     28882 1.24800E+00 1.01858E+00 4.94729E-07-8.33442E-02-5.37409E-07-1.92940E-07
 -1     28883 1.23245E+00 1.03413E+00 1.21715E-06-9.91599E-02-2.72048E-07-1.54970E-07
 -1     28884 1.25115E+00 1.01543E+00 1.20376E-06-8.56276E-02 3.41526E-07 1.07988E-07
 -1     28889 1.24800E+00 1.01858E+00 1.30743E-06-8.33442E-02-3.99173E-07-1.26593E-07
 -1     28890 1.23245E+00 1.03413E+00 1.54781E-06-9.91600E-02-1.60135E-07-8.22496E-08
 -1     28891 1.25115E+00 1.01544E+00 1.57222E-06-8.56276E-02 1.46935E-07 5.15476E-08
 -1     28896 1.24800E+00 1.01858E+00 1.84827E-06-8.33441E-02-2.90103E-07-8.63978E-08
 -1     28897 1.23245E+00 1.03413E+00 1.75410E-06-9.91600E-02-9.91716E-08-4.24539E-08
 -1     28898 1.25115E+00 1.01544E+00 1.78069E-06-8.56276E-02 5.08619E-08 2.04221E-08
 -1     28903 1.24800E+00 1.01858E+00 2.12962E-06-8.33441E-02-1.51925E-07-4.47758E-08
 -1     28904 1.23245E+00 1.03413E+00 1.85633E-06-9.91600E-02-3.45193E-08-1.32694E-08
 -1     28905 1.25115E+00 1.01544E+00 1.87574E-06-8.56276E-02 1.05797E-08 4.88638E-09
 -1     28910 1.24800E+00 1.01858E+00 2.21431E-06-8.33442E-02-5.95369E-14-7.89761E-14
 -1     28911 1.23245E+00 1.03413E+00 1.85633E-06-9.91600E-02 3.45194E-08 1.32693E-08
 -1     28912 1.25115E+00 1.01544E+00 1.87574E-06-8.56276E-02-1.05797E-08-4.88651E-09
 -1     28917 1.24800E+00 1.01858E+00 2.12962E-06-8.33441E-02 1.51925E-07 4.47757E-08
 -1     28918 1.23245E+00 1.03413E+00 1.75410E-06-9.91600E-02 9.91716E-08 4.24538E-08
 -1     28919 1.25115E+00 1.01544E+00 1.78069E-06-8.56276E-02-5.08620E-08-2.04222E-08
 -1     28924 1.24800E+00 1.01858E+00 1.84827E-06-8.33441E-02 2.90103E-07 8.63977E-08
 -1     28925 1.23245E+00 1.03413E+00 1.54781E-06-9.91600E-02 1.60135E-07 8.22496E-08
 -1     28926 1.25115E+00 1.01544E+00 1.57222E-06-8.56276E-02-1.46935E-07-5.15477E-08
 -1     28931 1.24800E+00 1.01858E+00 1.30743E-06-8.33442E-02 3.99173E-07 1.26593E-07
 -1     28932 1.23245E+00 1.03413E+00 1.21715E-06-9.91599E-02 2.72048E-07 1.54970E-07
 -1     28933 1.25115E+00 1.01543E+00 1.20376E-06-8.56276E-02-3.41526E-07-1.07988E-07
 -1     28938 1.24800E+00 1.01858E+00 4.94729E-07-8.33442E-02 5.37409E-07 1.92940E-07
 -1     28939 1.23245E+00 1.03413E+00 6.36860E-07-9.91598E-02 6.98986E-07 3.43469E-07
 -1     28940 1.25115E+00 1.01543E+00 6.85159E-07-8.56277E-02-4.14232E-07-1.14977E-07
 -1     28945 1.24800E+00 1.01858E+00 1.41672E-07-8.33446E-02 6.08679E-07 2.27281E-07
 -1     28949 1.26814E+00 9.98436E-01 6.21916E-07-4.38165E-02-8.28903E-07-2.00608E-07
 -1     28950 1.25824E+00 1.00834E+00 6.20291E-07-6.36646E-02-7.58371E-07-9.72205E-08
 -1     28951 1.27184E+00 9.94743E-01 7.83637E-07-4.50170E-02 2.22470E-07-2.44286E-08
 -1     28956 1.26815E+00 9.98438E-01 1.12202E-06-4.38167E-02-6.10328E-07-1.29354E-07
 -1     28957 1.25824E+00 1.00834E+00 1.20937E-06-6.36645E-02-3.07688E-07-2.50328E-08
 -1     28958 1.27184E+00 9.94743E-01 1.23322E-06-4.50171E-02 2.24621E-07 2.07278E-08
 -1     28963 1.26815E+00 9.98438E-01 1.41699E-06-4.38167E-02-2.66357E-07-8.11801E-09
 -1     28964 1.25824E+00 1.00834E+00 1.53559E-06-6.36645E-02-1.74203E-07-3.07710E-08
 -1     28965 1.27184E+00 9.94743E-01 1.52393E-06-4.50172E-02 1.24525E-07 3.69205E-08
 -1     28970 1.26815E+00 9.98438E-01 1.63293E-06-4.38168E-02-1.44521E-07 3.32508E-08
 -1     28971 1.25824E+00 1.00834E+00 1.73496E-06-6.36645E-02-1.01620E-07-2.84724E-08
 -1     28972 1.27184E+00 9.94743E-01 1.66928E-06-4.50172E-02 5.89455E-08 3.26333E-08
 -1     28977 1.26815E+00 9.98438E-01 1.77249E-06-4.38167E-02-7.06385E-08 2.64863E-08
 -1     28978 1.25824E+00 1.00834E+00 1.83253E-06-6.36645E-02-3.43370E-08-1.13007E-08
 -1     28979 1.27184E+00 9.94743E-01 1.72784E-06-4.50172E-02 1.70023E-08 1.26663E-08
 -1     28984 1.26815E+00 9.98438E-01 1.81877E-06-4.38167E-02-1.98404E-15-7.89332E-14
 -1     28985 1.25824E+00 1.00834E+00 1.83253E-06-6.36645E-02 3.43371E-08 1.13006E-08
 -1     28986 1.27184E+00 9.94743E-01 1.72784E-06-4.50172E-02-1.70022E-08-1.26663E-08
 -1     28991 1.26815E+00 9.98438E-01 1.77249E-06-4.38167E-02 7.06387E-08-2.64863E-08
 -1     28992 1.25824E+00 1.00834E+00 1.73496E-06-6.36645E-02 1.01620E-07 2.84723E-08
 -1     28993 1.27184E+00 9.94743E-01 1.66928E-06-4.50172E-02-5.89454E-08-3.26333E-08
 -1     28998 1.26815E+00 9.98438E-01 1.63293E-06-4.38168E-02 1.44521E-07-3.32509E-08
 -1     28999 1.25824E+00 1.00834E+00 1.53559E-06-6.36645E-02 1.74203E-07 3.07709E-08
 -1     29000 1.27184E+00 9.94743E-01 1.52393E-06-4.50172E-02-1.24525E-07-3.69206E-08
 -1     29005 1.26815E+00 9.98438E-01 1.41698E-06-4.38167E-02 2.66357E-07 8.11797E-09
 -1     29006 1.25824E+00 1.00834E+00 1.20937E-06-6.36645E-02 3.07688E-07 2.50328E-08
 -1     29007 1.27184E+00 9.94743E-01 1.23322E-06-4.50171E-02-2.24621E-07-2.07278E-08
 -1     29012 1.26815E+00 9.98438E-01 1.12202E-06-4.38167E-02 6.10328E-07 1.29354E-07
 -1     29013 1.25824E+00 1.00834E+00 6.20291E-07-6.36646E-02 7.58371E-07 9.72205E-08
 -1     29014 1.27184E+00 9.94743E-01 7.83637E-07-4.50170E-02-2.22470E-07 2.44286E-08
 -1     29019 1.26814E+00 9.98436E-01 6.21916E-07-4.38165E-02 8.28903E-07 2.00608E-07
 -1     29023 1.27180E+00 9.94785E-01 1.19237E-06-2.19374E-02-1.35429E-06 1.96426E-09
 -1     29027 1.27180E+00 9.94784E-01 1.39398E-06-2.19373E-02-4.53102E-07 3.49007E-08
 -1     29031 1.27180E+00 9.94784E-01 1.52841E-06-2.19372E-02-1.40768E-07 1.18695E-08
 -1     29035 1.27180E+00 9.94784E-01 1.61927E-06-2.19372E-02-5.73650E-08-3.50964E-09
 -1     29039 1.27180E+00 9.94785E-01 1.67006E-06-2.19372E-02-1.62525E-08-3.06272E-09
 -1     29043 1.27180E+00 9.94785E-01 1.67006E-06-2.19372E-02 1.62525E-08 3.06265E-09
 -1     29047 1.27180E+00 9.94784E-01 1.61927E-06-2.19372E-02 5.73650E-08 3.50960E-09
 -1     29051 1.27180E+00 9.94784E-01 1.52841E-06-2.19372E-02 1.40768E-07-1.18695E-08
 -1     29055 1.27180E+00 9.94784E-01 1.39398E-06-2.19373E-02 4.53102E-07-3.49007E-08
 -1     29059 1.27180E+00 9.94785E-01 1.19237E-06-2.19374E-02 1.35429E-06-1.96427E-09
 -1     29065 1.00206E+00 1.26451E+00-7.06917E-07-4.26384E-02-1.82582E-08-1.74747E-07
 -1     29069 1.00206E+00 1.26451E+00-9.52454E-07-4.26383E-02-3.16580E-08-2.35953E-07
 -1     29073 1.00206E+00 1.26451E+00-1.07536E-06-4.26383E-02-2.80802E-08-1.80907E-07
 -1     29077 1.00206E+00 1.26451E+00-1.11159E-06-4.26383E-02-1.85846E-08-1.07878E-07
 -1     29081 1.00206E+00 1.26451E+00-1.12379E-06-4.26383E-02-6.45459E-09-3.56082E-08
 -1     29085 1.00206E+00 1.26451E+00-1.12379E-06-4.26383E-02 6.45451E-09 3.56081E-08
 -1     29089 1.00206E+00 1.26451E+00-1.11159E-06-4.26383E-02 1.85846E-08 1.07878E-07
 -1     29093 1.00206E+00 1.26451E+00-1.07536E-06-4.26383E-02 2.80801E-08 1.80907E-07
 -1     29097 1.00206E+00 1.26451E+00-9.52455E-07-4.26383E-02 3.16579E-08 2.35953E-07
 -1     29101 1.00206E+00 1.26451E+00-7.06917E-07-4.26384E-02 1.82582E-08 1.74747E-07
 -1     29107 1.02166E+00 1.24491E+00-7.15208E-07-8.11030E-02-3.18202E-08-1.73063E-07
 -1     29111 1.02166E+00 1.24491E+00-9.66028E-07-8.11029E-02-5.38486E-08-2.30776E-07
 -1     29115 1.02166E+00 1.24491E+00-1.09072E-06-8.11029E-02-4.59269E-08-1.74397E-07
 -1     29119 1.02166E+00 1.24491E+00-1.12735E-06-8.11029E-02-2.99411E-08-1.02921E-07
 -1     29123 1.02166E+00 1.24491E+00-1.13912E-06-8.11029E-02-1.03513E-08-3.37725E-08
 -1     29127 1.02166E+00 1.24491E+00-1.13912E-06-8.11029E-02 1.03512E-08 3.37725E-08
 -1     29131 1.02166E+00 1.24491E+00-1.12735E-06-8.11029E-02 2.99410E-08 1.02921E-07
 -1     29135 1.02166E+00 1.24491E+00-1.09072E-06-8.11029E-02 4.59269E-08 1.74397E-07
 -1     29139 1.02166E+00 1.24491E+00-9.66028E-07-8.11029E-02 5.38486E-08 2.30776E-07
 -1     29143 1.02166E+00 1.24491E+00-7.15208E-07-8.11030E-02 3.18201E-08 1.73063E-07
 -1     29149 1.05218E+00 1.21439E+00-7.43861E-07-1.11629E-01-3.89641E-08-1.75888E-07
 -1     29153 1.05218E+00 1.21439E+00-9.98861E-07-1.11629E-01-5.80742E-08-2.27115E-07
 -1     29157 1.05218E+00 1.21439E+00-1.14113E-06-1.11629E-01-4.37279E-08-1.72502E-07
 -1     29161 1.05218E+00 1.21439E+00-1.18809E-06-1.11629E-01-2.61552E-08-1.01529E-07
 -1     29165 1.05218E+00 1.21439E+00-1.20390E-06-1.11629E-01-8.72470E-09-3.32845E-08
 -1     29169 1.05218E+00 1.21439E+00-1.20390E-06-1.11629E-01 8.72475E-09 3.32846E-08
 -1     29173 1.05218E+00 1.21439E+00-1.18809E-06-1.11629E-01 2.61553E-08 1.01529E-07
 -1     29177 1.05218E+00 1.21439E+00-1.14113E-06-1.11629E-01 4.37279E-08 1.72502E-07
 -1     29181 1.05218E+00 1.21439E+00-9.98861E-07-1.11629E-01 5.80742E-08 2.27115E-07
 -1     29185 1.05218E+00 1.21439E+00-7.43861E-07-1.11629E-01 3.89642E-08 1.75888E-07
 -1     29191 1.09065E+00 1.17592E+00-3.96025E-07-1.31227E-01-1.74114E-07-2.60416E-07
 -1     29195 1.09065E+00 1.17592E+00-6.16554E-07-1.31227E-01-1.93179E-07-3.05689E-07
 -1     29199 1.09065E+00 1.17592E+00-7.93008E-07-1.31227E-01-1.37944E-07-2.24636E-07
 -1     29203 1.09065E+00 1.17592E+00-8.74054E-07-1.31227E-01-7.95937E-08-1.31842E-07
 -1     29207 1.09065E+00 1.17592E+00-9.09443E-07-1.31227E-01-2.57691E-08-4.30191E-08
 -1     29211 1.09065E+00 1.17592E+00-9.09443E-07-1.31227E-01 2.57692E-08 4.30191E-08
 -1     29215 1.09065E+00 1.17592E+00-8.74054E-07-1.31227E-01 7.95937E-08 1.31842E-07
 -1     29219 1.09065E+00 1.17592E+00-7.93007E-07-1.31227E-01 1.37944E-07 2.24636E-07
 -1     29223 1.09065E+00 1.17592E+00-6.16554E-07-1.31227E-01 1.93179E-07 3.05689E-07
 -1     29227 1.09065E+00 1.17592E+00-3.96025E-07-1.31227E-01 1.74114E-07 2.60416E-07
 -1     29233 1.13329E+00 1.13329E+00-2.56504E-07-1.37981E-01-3.19583E-07-1.71399E-07
 -1     29237 1.13329E+00 1.13329E+00-4.83530E-07-1.37980E-01-3.66886E-07-2.19286E-07
 -1     29241 1.13329E+00 1.13329E+00-6.27936E-07-1.37980E-01-2.71536E-07-1.47897E-07
 -1     29245 1.13329E+00 1.13329E+00-6.95166E-07-1.37980E-01-1.62244E-07-8.31095E-08
 -1     29249 1.13329E+00 1.13329E+00-7.26215E-07-1.37980E-01-5.33404E-08-2.63271E-08
 -1     29253 1.13329E+00 1.13329E+00-7.26215E-07-1.37980E-01 5.33407E-08 2.63271E-08
 -1     29257 1.13329E+00 1.13329E+00-6.95166E-07-1.37980E-01 1.62244E-07 8.31096E-08
 -1     29261 1.13329E+00 1.13329E+00-6.27936E-07-1.37980E-01 2.71536E-07 1.47897E-07
 -1     29265 1.13329E+00 1.13329E+00-4.83530E-07-1.37980E-01 3.66886E-07 2.19286E-07
 -1     29269 1.13329E+00 1.13329E+00-2.56504E-07-1.37981E-01 3.19583E-07 1.71399E-07
 -1     29275 1.17592E+00 1.09065E+00-1.51319E-06-1.31228E-01 8.30882E-08 9.90608E-08
 -1     29279 1.17592E+00 1.09065E+00-1.81193E-06-1.31227E-01 5.00596E-08 5.18938E-08
 -1     29283 1.17592E+00 1.09065E+00-1.90063E-06-1.31227E-01 1.67486E-08 2.03510E-08
 -1     29287 1.17592E+00 1.09065E+00-1.88470E-06-1.31227E-01 6.81503E-09 1.00345E-08
 -1     29291 1.17592E+00 1.09065E+00-1.86131E-06-1.31227E-01 1.19290E-09 2.75448E-09
 -1     29295 1.17592E+00 1.09065E+00-1.86131E-06-1.31227E-01-1.19279E-09-2.75466E-09
 -1     29299 1.17592E+00 1.09065E+00-1.88470E-06-1.31227E-01-6.81493E-09-1.00347E-08
 -1     29303 1.17592E+00 1.09065E+00-1.90063E-06-1.31227E-01-1.67486E-08-2.03510E-08
 -1     29307 1.17592E+00 1.09065E+00-1.81193E-06-1.31227E-01-5.00596E-08-5.18938E-08
 -1     29311 1.17592E+00 1.09065E+00-1.51319E-06-1.31228E-01-8.30882E-08-9.90609E-08
 -1     29317 1.21439E+00 1.05218E+00-7.11235E-07-1.11629E-01-1.18205E-07-1.88475E-07
 -1     29321 1.21439E+00 1.05218E+00-9.63871E-07-1.11629E-01-1.44089E-07-2.60364E-07
 -1     29325 1.21439E+00 1.05218E+00-1.11637E-06-1.11628E-01-9.46691E-08-2.22436E-07
 -1     29329 1.21439E+00 1.05218E+00-1.17712E-06-1.11628E-01-4.98684E-08-1.41502E-07
 -1     29333 1.21439E+00 1.05218E+00-1.20112E-06-1.11628E-01-1.54590E-08-4.79502E-08
 -1     29337 1.21439E+00 1.05218E+00-1.20112E-06-1.11628E-01 1.54593E-08 4.79500E-08
 -1     29341 1.21439E+00 1.05218E+00-1.17712E-06-1.11628E-01 4.98685E-08 1.41502E-07
 -1     29345 1.21439E+00 1.05218E+00-1.11637E-06-1.11628E-01 9.46691E-08 2.22436E-07
 -1     29349 1.21439E+00 1.05218E+00-9.63871E-07-1.11629E-01 1.44089E-07 2.60364E-07
 -1     29353 1.21439E+00 1.05218E+00-7.11235E-07-1.11629E-01 1.18206E-07 1.88475E-07
 -1     29359 1.24491E+00 1.02166E+00 4.51187E-07-8.11031E-02-6.29850E-07-1.13151E-07
 -1     29363 1.24491E+00 1.02166E+00 2.94287E-07-8.11029E-02-6.76794E-07-1.56440E-07
 -1     29367 1.24491E+00 1.02166E+00 6.92635E-08-8.11028E-02-4.73361E-07-1.19001E-07
 -1     29371 1.24491E+00 1.02166E+00-8.46122E-08-8.11028E-02-2.73247E-07-7.44383E-08
 -1     29375 1.24491E+00 1.02166E+00-1.67812E-07-8.11028E-02-8.79490E-08-2.49473E-08
 -1     29379 1.24491E+00 1.02166E+00-1.67812E-07-8.11028E-02 8.79489E-08 2.49471E-08
 -1     29383 1.24491E+00 1.02166E+00-8.46123E-08-8.11028E-02 2.73247E-07 7.44382E-08
 -1     29387 1.24491E+00 1.02166E+00 6.92635E-08-8.11028E-02 4.73361E-07 1.19001E-07
 -1     29391 1.24491E+00 1.02166E+00 2.94287E-07-8.11029E-02 6.76794E-07 1.56440E-07
 -1     29395 1.24491E+00 1.02166E+00 4.51187E-07-8.11031E-02 6.29850E-07 1.13151E-07
 -1     29401 1.26451E+00 1.00206E+00-7.24581E-07-4.26384E-02-1.93345E-07 2.68604E-07
 -1     29405 1.26451E+00 1.00206E+00-9.68496E-07-4.26385E-02-2.79645E-07 2.73165E-07
 -1     29409 1.26451E+00 1.00206E+00-1.05631E-06-4.26385E-02-2.21178E-07 2.23353E-07
 -1     29413 1.26451E+00 1.00206E+00-1.07973E-06-4.26385E-02-1.34931E-07 1.38297E-07
 -1     29417 1.26451E+00 1.00206E+00-1.08909E-06-4.26385E-02-4.48990E-08 4.62329E-08
 -1     29421 1.26451E+00 1.00206E+00-1.08909E-06-4.26385E-02 4.48990E-08-4.62331E-08
 -1     29425 1.26451E+00 1.00206E+00-1.07973E-06-4.26385E-02 1.34931E-07-1.38297E-07
 -1     29429 1.26451E+00 1.00206E+00-1.05631E-06-4.26385E-02 2.21179E-07-2.23353E-07
 -1     29433 1.26451E+00 1.00206E+00-9.68496E-07-4.26385E-02 2.79645E-07-2.73165E-07
 -1     29437 1.26451E+00 1.00206E+00-7.24581E-07-4.26384E-02 1.93345E-07-2.68604E-07
 -3
    1PSTEP                         3           1           1          
  100CL  101 1.000000000       15523                     0    1           1
 -4  ERROR       1    1
 -5  STR(%)      1    1    0    0
 -1         1 1.33229E+00
 -1         2 6.86007E-02
 -1         3 6.86174E-02
 -1         4 1.33229E+00
 -1         5 1.33229E+00
 -1         6 6.86007E-02
 -1         7 6.86174E-02
 -1         8 1.33229E+00
 -1         9 1.33229E+00
 -1        10 1.16436E+00
 -1        11 1.00092E+00
 -1        12 8.64772E-01
 -1        13 7.50790E-01
 -1        14 6.54810E-01
 -1        15 5.73592E-01
 -1        16 5.04539E-01
 -1        17 4.45565E-01
 -1        18 3.94983E-01
 -1        19 3.51419E-01
 -1        20 3.13751E-01
 -1        21 2.81054E-01
 -1        22 2.52568E-01
 -1        23 2.27662E-01
 -1        24 2.05810E-01
 -1        25 1.86575E-01
 -1        26 1.69588E-01
 -1        27 1.54540E-01
 -1        28 1.41171E-01
 -1        29 1.29260E-01
 -1        30 1.18617E-01
 -1        31 1.09083E-01
 -1        32 1.00521E-01
 -1        33 9.28113E-02
 -1        34 8.58558E-02
 -1        35 7.95587E-02
 -1        36 7.38754E-02
 -1        37 6.86100E-02
 -1        38 1.33229E+00
 -1        39 1.24833E+00
 -1        40 1.08264E+00
 -1        41 9.32848E-01
 -1        42 8.07781E-01
 -1        43 7.02800E-01
 -1        44 6.14201E-01
 -1        45 5.39066E-01
 -1        46 4.75052E-01
 -1        47 4.20274E-01
 -1        48 3.73201E-01
 -1        49 3.32585E-01
 -1        50 2.97402E-01
 -1        51 2.66811E-01
 -1        52 2.40115E-01
 -1        53 2.16736E-01
 -1        54 1.96192E-01
 -1        55 1.78081E-01
 -1        56 1.62064E-01
 -1        57 1.47856E-01
 -1        58 1.35216E-01
 -1        59 1.23938E-01
 -1        60 1.13850E-01
 -1        61 1.04802E-01
 -1        62 9.66660E-02
 -1        63 8.93335E-02
 -1        64 8.27072E-02
 -1        65 7.67170E-02
 -1        66 7.12427E-02
 -1        67 6.86053E-02
 -1        68 6.86010E-02
 -1        69 6.86021E-02
 -1        70 6.86021E-02
 -1        71 6.86003E-02
 -1        72 6.86069E-02
 -1        73 6.86105E-02
 -1        74 6.86105E-02
 -1        75 6.86062E-02
 -1        76 6.86174E-02
 -1        77 6.86009E-02
 -1        78 6.86016E-02
 -1        79 6.86021E-02
 -1        80 6.86012E-02
 -1        81 6.86036E-02
 -1        82 6.86087E-02
 -1        83 6.86105E-02
 -1        84 6.86084E-02
 -1        85 6.86118E-02
 -1        86 6.86174E-02
 -1        87 6.86174E-02
 -1        88 7.38758E-02
 -1        89 7.95588E-02
 -1        90 8.58557E-02
 -1        91 9.28113E-02
 -1        92 1.00521E-01
 -1        93 1.09083E-01
 -1        94 1.18617E-01
 -1        95 1.29260E-01
 -1        96 1.41172E-01
 -1        97 1.54540E-01
 -1        98 1.69588E-01
 -1        99 1.86575E-01
 -1       100 2.05810E-01
 -1       101 2.27662E-01
 -1       102 2.52568E-01
 -1       103 2.81054E-01
 -1       104 3.13751E-01
 -1       105 3.51419E-01
 -1       106 3.94983E-01
 -1       107 4.45565E-01
 -1       108 5.04539E-01
 -1       109 5.73592E-01
 -1       110 6.54810E-01
 -1       111 7.50790E-01
 -1       112 8.64772E-01
 -1       113 1.00092E+00
 -1       114 1.16436E+00
 -1       115 1.33229E+00
 -1       116 6.86174E-02
 -1       117 7.12466E-02
 -1       118 7.67173E-02
 -1       119 8.27072E-02
 -1       120 8.93335E-02
 -1       121 9.66659E-02
 -1       122 1.04802E-01
 -1       123 1.13850E-01
 -1       124 1.23938E-01
 -1       125 1.35216E-01
 -1       126 1.47856E-01
 -1       127 1.62064E-01
 -1       128 1.78081E-01
 -1       129 1.96192E-01
 -1       130 2.16736E-01
 -1       131 2.40115E-01
 -1       132 2.66811E-01
 -1       133 2.97402E-01
 -1       134 3.32585E-01
 -1       135 3.73201E-01
 -1       136 4.20274E-01
 -1       137 4.75052E-01
 -1       138 5.39066E-01
 -1       139 6.14201E-01
 -1       140 7.02800E-01
 -1       141 8.07781E-01
 -1       142 9.32848E-01
 -1       143 1.08264E+00
 -1       144 1.24833E+00
 -1       145 1.33229E+00
 -1       146 1.33229E+00
 -1       147 1.33229E+00
 -1       148 1.33229E+00
 -1       149 1.33229E+00
 -1       150 1.33229E+00
 -1       151 1.33229E+00
 -1       152 1.33229E+00
 -1       153 1.33229E+00
 -1       154 1.33229E+00
 -1       155 1.33229E+00
 -1       156 1.33229E+00
 -1       157 1.33229E+00
 -1       158 1.33229E+00
 -1       159 1.33229E+00
 -1       160 1.33229E+00
 -1       161 1.33229E+00
 -1       162 1.33229E+00
 -1       163 1.33229E+00
 -1       164 1.33229E+00
 -1       165 1.33229E+00
 -1       166 1.16436E+00
 -1       167 1.00092E+00
 -1       168 8.64772E-01
 -1       169 7.50790E-01
 -1       170 6.54810E-01
 -1       171 5.73592E-01
 -1       172 5.04539E-01
 -1       173 4.45565E-01
 -1       174 3.94983E-01
 -1       175 3.51419E-01
 -1       176 3.13751E-01
 -1       177 2.81054E-01
 -1       178 2.52568E-01
 -1       179 2.27662E-01
 -1       180 2.05810E-01
 -1       181 1.86575E-01
 -1       182 1.69588E-01
 -1       183 1.54540E-01
 -1       184 1.41171E-01
 -1       185 1.29260E-01
 -1       186 1.18617E-01
 -1       187 1.09083E-01
 -1       188 1.00521E-01
 -1       189 9.28113E-02
 -1       190 8.58558E-02
 -1       191 7.95587E-02
 -1       192 7.38754E-02
 -1       193 6.86100E-02
 -1       194 1.33229E+00
 -1       195 1.24833E+00
 -1       196 1.08264E+00
 -1       197 9.32848E-01
 -1       198 8.07781E-01
 -1       199 7.02800E-01
 -1       200 6.14201E-01
 -1       201 5.39066E-01
 -1       202 4.75052E-01
 -1       203 4.20274E-01
 -1       204 3.73201E-01
 -1       205 3.32585E-01
 -1       206 2.97402E-01
 -1       207 2.66811E-01
 -1       208 2.40115E-01
 -1       209 2.16736E-01
 -1       210 1.96192E-01
 -1       211 1.78081E-01
 -1       212 1.62064E-01
 -1       213 1.47856E-01
 -1       214 1.35216E-01
 -1       215 1.23938E-01
 -1       216 1.13850E-01
 -1       217 1.04802E-01
 -1       218 9.66660E-02
 -1       219 8.93335E-02
 -1       220 8.27072E-02
 -1       221 7.67170E-02
 -1       222 7.12427E-02
 -1       223 6.86053E-02
 -1       224 6.86010E-02
 -1       225 6.86021E-02
 -1       226 6.86021E-02
 -1       227 6.86003E-02
 -1       228 6.86069E-02
 -1       229 6.86105E-02
 -1       230 6.86105E-02
 -1       231 6.86062E-02
 -1       232 6.86174E-02
 -1       233 6.86009E-02
 -1       234 6.86016E-02
 -1       235 6.86021E-02
 -1       236 6.86012E-02
 -1       237 6.86036E-02
 -1       238 6.86087E-02
 -1       239 6.86105E-02
 -1       240 6.86084E-02
 -1       241 6.86118E-02
 -1       242 6.86174E-02
 -1       243 6.86174E-02
 -1       244 7.38758E-02
 -1       245 7.95588E-02
 -1       246 8.58557E-02
 -1       247 9.28113E-02
 -1       248 1.00521E-01
 -1       249 1.09083E-01
 -1       250 1.18617E-01
 -1       251 1.29260E-01
 -1       252 1.41172E-01
 -1       253 1.54540E-01
 -1       254 1.69588E-01
 -1       255 1.86575E-01
 -1       256 2.05810E-01
 -1       257 2.27662E-01
 -1       258 2.52568E-01
 -1       259 2.81054E-01
 -1       260 3.13751E-01
 -1       261 3.51419E-01
 -1       262 3.94983E-01
 -1       263 4.45565E-01
 -1       264 5.04539E-01
 -1       265 5.73592E-01
 -1       266 6.54810E-01
 -1       267 7.50790E-01
 -1       268 8.64772E-01
 -1       269 1.00092E+00
 -1       270 1.16436E+00
 -1       271 1.33229E+00
 -1       272 6.86174E-02
 -1       273 7.12466E-02
 -1       274 7.67173E-02
 -1       275 8.27072E-02
 -1       276 8.93335E-02
 -1       277 9.66659E-02
 -1       278 1.04802E-01
 -1       279 1.13850E-01
 -1       280 1.23938E-01
 -1       281 1.35216E-01
 -1       282 1.47856E-01
 -1       283 1.62064E-01
 -1       284 1.78081E-01
 -1       285 1.96192E-01
 -1       286 2.16736E-01
 -1       287 2.40115E-01
 -1       288 2.66811E-01
 -1       289 2.97402E-01
 -1       290 3.32585E-01
 -1       291 3.73201E-01
 -1       292 4.20274E-01
 -1       293 4.75052E-01
 -1       294 5.39066E-01
 -1       295 6.14201E-01
 -1       296 7.02800E-01
 -1       297 8.07781E-01
 -1       298 9.32848E-01
 -1       299 1.08264E+00
 -1       300 1.24833E+00
 -1       301 1.33229E+00
 -1       302 1.33229E+00
 -1       303 1.33229E+00
 -1       304 1.33229E+00
 -1       305 1.33229E+00
 -1       306 1.33229E+00
 -1       307 1.33229E+00
 -1       308 1.33229E+00
 -1       309 1.33229E+00
 -1       310 1.33229E+00
 -1       311 1.33229E+00
 -1       312 1.33229E+00
 -1       313 1.33229E+00
 -1       314 1.33229E+00
 -1       315 1.33229E+00
 -1       316 1.33229E+00
 -1       317 1.33229E+00
 -1       318 1.33229E+00
 -1       319 1.33229E+00
 -1       320 1.33229E+00
 -1       321 1.33229E+00
 -1       322 1.33225E+00
 -1       323 1.33224E+00
 -1       324 1.33224E+00
 -1       325 1.33224E+00
 -1       326 1.33224E+00
 -1       327 1.33224E+00
 -1       328 1.33224E+00
 -1       329 1.33225E+00
 -1       330 1.33229E+00
 -1       331 1.33229E+00
 -1       332 1.33227E+00
 -1       333 1.33225E+00
 -1       334 1.33224E+00
 -1       335 1.33224E+00
 -1       336 1.33224E+00
 -1       337 1.33224E+00
 -1       338 1.33224E+00
 -1       339 1.33225E+00
 -1       340 1.33227E+00
 -1       341 1.33229E+00
 -1       342 6.86007E-02
 -1       343 6.85941E-02
 -1       344 6.85935E-02
 -1       345 6.85941E-02
 -1       346 6.85942E-02
 -1       347 6.85942E-02
 -1       348 6.85941E-02
 -1       349 6.85935E-02
 -1       350 6.85941E-02
 -1       351 6.86007E-02
 -1       352 6.86007E-02
 -1       353 6.85974E-02
 -1       354 6.85938E-02
 -1       355 6.85938E-02
 -1       356 6.85941E-02
 -1       357 6.85942E-02
 -1       358 6.85941E-02
 -1       359 6.85938E-02
 -1       360 6.85938E-02
 -1       361 6.85974E-02
 -1       362 6.86007E-02
 -1       363 6.86174E-02
 -1       364 6.86067E-02
 -1       365 6.86060E-02
 -1       366 6.86068E-02
 -1       367 6.86068E-02
 -1       368 6.86068E-02
 -1       369 6.86068E-02
 -1       370 6.86060E-02
 -1       371 6.86067E-02
 -1       372 6.86174E-02
 -1       373 6.86174E-02
 -1       374 6.86120E-02
 -1       375 6.86064E-02
 -1       376 6.86064E-02
 -1       377 6.86068E-02
 -1       378 6.86068E-02
 -1       379 6.86068E-02
 -1       380 6.86064E-02
 -1       381 6.86064E-02
 -1       382 6.86120E-02
 -1       383 6.86174E-02
 -1       384 1.33229E+00
 -1       385 1.33225E+00
 -1       386 1.33224E+00
 -1       387 1.33224E+00
 -1       388 1.33224E+00
 -1       389 1.33224E+00
 -1       390 1.33224E+00
 -1       391 1.33224E+00
 -1       392 1.33225E+00
 -1       393 1.33229E+00
 -1       394 1.33229E+00
 -1       395 1.33227E+00
 -1       396 1.33225E+00
 -1       397 1.33224E+00
 -1       398 1.33224E+00
 -1       399 1.33224E+00
 -1       400 1.33224E+00
 -1       401 1.33224E+00
 -1       402 1.33225E+00
 -1       403 1.33227E+00
 -1       404 1.33229E+00
 -1       405 1.33229E+00
 -1       406 1.33229E+00
 -1       407 1.33229E+00
 -1       408 1.33229E+00
 -1       409 1.33229E+00
 -1       410 1.33229E+00
 -1       411 1.33229E+00
 -1       412 1.33229E+00
 -1       413 1.33229E+00
 -1       414 1.16436E+00
 -1       415 1.16436E+00
 -1       416 1.16436E+00
 -1       417 1.16436E+00
 -1       418 1.16436E+00
 -1       419 1.16436E+00
 -1       420 1.16436E+00
 -1       421 1.16436E+00
 -1       422 1.16436E+00
 -1       423 1.00092E+00
 -1       424 1.00092E+00
 -1       425 1.00092E+00
 -1       426 1.00092E+00
 -1       427 1.00092E+00
 -1       428 1.00092E+00
 -1       429 1.00092E+00
 -1       430 1.00092E+00
 -1       431 1.00092E+00
 -1       432 8.64772E-01
 -1       433 8.64772E-01
 -1       434 8.64772E-01
 -1       435 8.64772E-01
 -1       436 8.64772E-01
 -1       437 8.64772E-01
 -1       438 8.64772E-01
 -1       439 8.64772E-01
 -1       440 8.64772E-01
 -1       441 7.50790E-01
 -1       442 7.50790E-01
 -1       443 7.50790E-01
 -1       444 7.50790E-01
 -1       445 7.50790E-01
 -1       446 7.50790E-01
 -1       447 7.50790E-01
 -1       448 7.50790E-01
 -1       449 7.50790E-01
 -1       450 6.54810E-01
 -1       451 6.54810E-01
 -1       452 6.54810E-01
 -1       453 6.54810E-01
 -1       454 6.54810E-01
 -1       455 6.54810E-01
 -1       456 6.54810E-01
 -1       457 6.54810E-01
 -1       458 6.54810E-01
 -1       459 5.73592E-01
 -1       460 5.73592E-01
 -1       461 5.73592E-01
 -1       462 5.73592E-01
 -1       463 5.73592E-01
 -1       464 5.73592E-01
 -1       465 5.73592E-01
 -1       466 5.73592E-01
 -1       467 5.73592E-01
 -1       468 5.04539E-01
 -1       469 5.04539E-01
 -1       470 5.04539E-01
 -1       471 5.04539E-01
 -1       472 5.04539E-01
 -1       473 5.04539E-01
 -1       474 5.04539E-01
 -1       475 5.04539E-01
 -1       476 5.04539E-01
 -1       477 4.45565E-01
 -1       478 4.45565E-01
 -1       479 4.45565E-01
 -1       480 4.45565E-01
 -1       481 4.45565E-01
 -1       482 4.45565E-01
 -1       483 4.45565E-01
 -1       484 4.45565E-01
 -1       485 4.45565E-01
 -1       486 3.94983E-01
 -1       487 3.94983E-01
 -1       488 3.94983E-01
 -1       489 3.94983E-01
 -1       490 3.94983E-01
 -1       491 3.94983E-01
 -1       492 3.94983E-01
 -1       493 3.94983E-01
 -1       494 3.94983E-01
 -1       495 3.51419E-01
 -1       496 3.51419E-01
 -1       497 3.51419E-01
 -1       498 3.51419E-01
 -1       499 3.51419E-01
 -1       500 3.51419E-01
 -1       501 3.51419E-01
 -1       502 3.51419E-01
 -1       503 3.51419E-01
 -1       504 3.13751E-01
 -1       505 3.13751E-01
 -1       506 3.13751E-01
 -1       507 3.13751E-01
 -1       508 3.13751E-01
 -1       509 3.13751E-01
 -1       510 3.13751E-01
 -1       511 3.13751E-01
 -1       512 3.13751E-01
 -1       513 2.81054E-01
 -1       514 2.81054E-01
 -1       515 2.81054E-01
 -1       516 2.81054E-01
 -1       517 2.81054E-01
 -1       518 2.81054E-01
 -1       519 2.81054E-01
 -1       520 2.81054E-01
 -1       521 2.81054E-01
 -1       522 2.52568E-01
 -1       523 2.52568E-01
 -1       524 2.52568E-01
 -1       525 2.52568E-01
 -1       526 2.52568E-01
 -1       527 2.52568E-01
 -1       528 2.52568E-01
 -1       529 2.52568E-01
 -1       530 2.52568E-01
 -1       531 2.27662E-01
 -1       532 2.27662E-01
 -1       533 2.27662E-01
 -1       534 2.27662E-01
 -1       535 2.27662E-01
 -1       536 2.27662E-01
 -1       537 2.27662E-01
 -1       538 2.27662E-01
 -1       539 2.27662E-01
 -1       540 2.05810E-01
 -1       541 2.05810E-01
 -1       542 2.05810E-01
 -1       543 2.05810E-01
 -1       544 2.05810E-01
 -1       545 2.05810E-01
 -1       546 2.05810E-01
 -1       547 2.05810E-01
 -1       548 2.05810E-01
 -1       549 1.86575E-01
 -1       550 1.86575E-01
 -1       551 1.86575E-01
 -1       552 1.86575E-01
 -1       553 1.86575E-01
 -1       554 1.86575E-01
 -1       555 1.86575E-01
 -1       556 1.86575E-01
 -1       557 1.86575E-01
 -1       558 1.69588E-01
 -1       559 1.69588E-01
 -1       560 1.69588E-01
 -1       561 1.69588E-01
 -1       562 1.69588E-01
 -1       563 1.69588E-01
 -1       564 1.69588E-01
 -1       565 1.69588E-01
 -1       566 1.69588E-01
 -1       567 1.54540E-01
 -1       568 1.54540E-01
 -1       569 1.54540E-01
 -1       570 1.54540E-01
 -1       571 1.54540E-01
 -1       572 1.54540E-01
 -1       573 1.54540E-01
 -1       574 1.54540E-01
 -1       575 1.54540E-01
 -1       576 1.41171E-01
 -1       577 1.41171E-01
 -1       578 1.41172E-01
 -1       579 1.41172E-01
 -1       580 1.41172E-01
 -1       581 1.41172E-01
 -1       582 1.41172E-01
 -1       583 1.41172E-01
 -1       584 1.41172E-01
 -1       585 1.29260E-01
 -1       586 1.29260E-01
 -1       587 1.29260E-01
 -1       588 1.29260E-01
 -1       589 1.29260E-01
 -1       590 1.29260E-01
 -1       591 1.29260E-01
 -1       592 1.29260E-01
 -1       593 1.29260E-01
 -1       594 1.18617E-01
 -1       595 1.18617E-01
 -1       596 1.18617E-01
 -1       597 1.18617E-01
 -1       598 1.18617E-01
 -1       599 1.18617E-01
 -1       600 1.18617E-01
 -1       601 1.18617E-01
 -1       602 1.18617E-01
 -1       603 1.09083E-01
 -1       604 1.09083E-01
 -1       605 1.09083E-01
 -1       606 1.09083E-01
 -1       607 1.09083E-01
 -1       608 1.09083E-01
 -1       609 1.09083E-01
 -1       610 1.09083E-01
 -1       611 1.09083E-01
 -1       612 1.00521E-01
 -1       613 1.00521E-01
 -1       614 1.00521E-01
 -1       615 1.00521E-01
 -1       616 1.00521E-01
 -1       617 1.00521E-01
 -1       618 1.00521E-01
 -1       619 1.00521E-01
 -1       620 1.00521E-01
 -1       621 9.28113E-02
 -1       622 9.28113E-02
 -1       623 9.28113E-02
 -1       624 9.28114E-02
 -1       625 9.28114E-02
 -1       626 9.28113E-02
 -1       627 9.28113E-02
 -1       628 9.28114E-02
 -1       629 9.28114E-02
 -1       630 8.58558E-02
 -1       631 8.58558E-02
 -1       632 8.58558E-02
 -1       633 8.58559E-02
 -1       634 8.58559E-02
 -1       635 8.58558E-02
 -1       636 8.58559E-02
 -1       637 8.58560E-02
 -1       638 8.58560E-02
 -1       639 7.95587E-02
 -1       640 7.95587E-02
 -1       641 7.95587E-02
 -1       642 7.95588E-02
 -1       643 7.95588E-02
 -1       644 7.95588E-02
 -1       645 7.95589E-02
 -1       646 7.95590E-02
 -1       647 7.95590E-02
 -1       648 7.38754E-02
 -1       649 7.38754E-02
 -1       650 7.38753E-02
 -1       651 7.38757E-02
 -1       652 7.38757E-02
 -1       653 7.38756E-02
 -1       654 7.38761E-02
 -1       655 7.38761E-02
 -1       656 7.38761E-02
 -1       657 6.86101E-02
 -1       658 6.86107E-02
 -1       659 6.86107E-02
 -1       660 6.86106E-02
 -1       661 6.86120E-02
 -1       662 6.86129E-02
 -1       663 6.86129E-02
 -1       664 6.86109E-02
 -1       665 6.86174E-02
 -1       666 1.33229E+00
 -1       667 1.33229E+00
 -1       669 1.33229E+00
 -1       670 1.33229E+00
 -1       672 1.33229E+00
 -1       673 1.33229E+00
 -1       675 1.33229E+00
 -1       676 1.33229E+00
 -1       678 1.33229E+00
 -1       679 1.33229E+00
 -1       681 1.33229E+00
 -1       682 1.33229E+00
 -1       684 1.33229E+00
 -1       685 1.33229E+00
 -1       687 1.33229E+00
 -1       688 1.33229E+00
 -1       690 1.33229E+00
 -1       691 1.33229E+00
 -1       693 1.33229E+00
 -1       695 1.16436E+00
 -1       696 1.24833E+00
 -1       698 1.16436E+00
 -1       699 1.24833E+00
 -1       701 1.16436E+00
 -1       702 1.24833E+00
 -1       704 1.16436E+00
 -1       705 1.24833E+00
 -1       707 1.16436E+00
 -1       708 1.24833E+00
 -1       710 1.16436E+00
 -1       711 1.24833E+00
 -1       713 1.16436E+00
 -1       714 1.24833E+00
 -1       716 1.16436E+00
 -1       717 1.24833E+00
 -1       719 1.16436E+00
 -1       720 1.24833E+00
 -1       722 1.16436E+00
 -1       724 1.00092E+00
 -1       725 1.08264E+00
 -1       727 1.00092E+00
 -1       728 1.08264E+00
 -1       730 1.00092E+00
 -1       731 1.08264E+00
 -1       733 1.00092E+00
 -1       734 1.08264E+00
 -1       736 1.00092E+00
 -1       737 1.08264E+00
 -1       739 1.00092E+00
 -1       740 1.08264E+00
 -1       742 1.00092E+00
 -1       743 1.08264E+00
 -1       745 1.00092E+00
 -1       746 1.08264E+00
 -1       748 1.00092E+00
 -1       749 1.08264E+00
 -1       751 1.00092E+00
 -1       753 8.64772E-01
 -1       754 9.32848E-01
 -1       756 8.64772E-01
 -1       757 9.32848E-01
 -1       759 8.64772E-01
 -1       760 9.32848E-01
 -1       762 8.64772E-01
 -1       763 9.32848E-01
 -1       765 8.64772E-01
 -1       766 9.32848E-01
 -1       768 8.64772E-01
 -1       769 9.32848E-01
 -1       771 8.64772E-01
 -1       772 9.32848E-01
 -1       774 8.64772E-01
 -1       775 9.32848E-01
 -1       777 8.64772E-01
 -1       778 9.32848E-01
 -1       780 8.64772E-01
 -1       782 7.50790E-01
 -1       783 8.07781E-01
 -1       785 7.50790E-01
 -1       786 8.07781E-01
 -1       788 7.50790E-01
 -1       789 8.07781E-01
 -1       791 7.50790E-01
 -1       792 8.07781E-01
 -1       794 7.50790E-01
 -1       795 8.07781E-01
 -1       797 7.50790E-01
 -1       798 8.07781E-01
 -1       800 7.50790E-01
 -1       801 8.07781E-01
 -1       803 7.50790E-01
 -1       804 8.07781E-01
 -1       806 7.50790E-01
 -1       807 8.07781E-01
 -1       809 7.50790E-01
 -1       811 6.54810E-01
 -1       812 7.02800E-01
 -1       814 6.54810E-01
 -1       815 7.02800E-01
 -1       817 6.54810E-01
 -1       818 7.02800E-01
 -1       820 6.54810E-01
 -1       821 7.02800E-01
 -1       823 6.54810E-01
 -1       824 7.02800E-01
 -1       826 6.54810E-01
 -1       827 7.02800E-01
 -1       829 6.54810E-01
 -1       830 7.02800E-01
 -1       832 6.54810E-01
 -1       833 7.02800E-01
 -1       835 6.54810E-01
 -1       836 7.02800E-01
 -1       838 6.54810E-01
 -1       840 5.73592E-01
 -1       841 6.14201E-01
 -1       843 5.73592E-01
 -1       844 6.14201E-01
 -1       846 5.73592E-01
 -1       847 6.14201E-01
 -1       849 5.73592E-01
 -1       850 6.14201E-01
 -1       852 5.73592E-01
 -1       853 6.14201E-01
 -1       855 5.73592E-01
 -1       856 6.14201E-01
 -1       858 5.73592E-01
 -1       859 6.14201E-01
 -1       861 5.73592E-01
 -1       862 6.14201E-01
 -1       864 5.73592E-01
 -1       865 6.14201E-01
 -1       867 5.73592E-01
 -1       869 5.04539E-01
 -1       870 5.39066E-01
 -1       872 5.04539E-01
 -1       873 5.39066E-01
 -1       875 5.04539E-01
 -1       876 5.39066E-01
 -1       878 5.04539E-01
 -1       879 5.39066E-01
 -1       881 5.04539E-01
 -1       882 5.39066E-01
 -1       884 5.04539E-01
 -1       885 5.39066E-01
 -1       887 5.04539E-01
 -1       888 5.39066E-01
 -1       890 5.04539E-01
 -1       891 5.39066E-01
 -1       893 5.04539E-01
 -1       894 5.39066E-01
 -1       896 5.04539E-01
 -1       898 4.45565E-01
 -1       899 4.75052E-01
 -1       901 4.45565E-01
 -1       902 4.75052E-01
 -1       904 4.45565E-01
 -1       905 4.75052E-01
 -1       907 4.45565E-01
 -1       908 4.75052E-01
 -1       910 4.45565E-01
 -1       911 4.75052E-01
 -1       913 4.45565E-01
 -1       914 4.75052E-01
 -1       916 4.45565E-01
 -1       917 4.75052E-01
 -1       919 4.45565E-01
 -1       920 4.75052E-01
 -1       922 4.45565E-01
 -1       923 4.75052E-01
 -1       925 4.45565E-01
 -1       927 3.94983E-01
 -1       928 4.20274E-01
 -1       930 3.94983E-01
 -1       931 4.20274E-01
 -1       933 3.94983E-01
 -1       934 4.20274E-01
 -1       936 3.94983E-01
 -1       937 4.20274E-01
 -1       939 3.94983E-01
 -1       940 4.20274E-01
 -1       942 3.94983E-01
 -1       943 4.20274E-01
 -1       945 3.94983E-01
 -1       946 4.20274E-01
 -1       948 3.94983E-01
 -1       949 4.20274E-01
 -1       951 3.94983E-01
 -1       952 4.20274E-01
 -1       954 3.94983E-01
 -1       956 3.51419E-01
 -1       957 3.73201E-01
 -1       959 3.51419E-01
 -1       960 3.73201E-01
 -1       962 3.51419E-01
 -1       963 3.73201E-01
 -1       965 3.51419E-01
 -1       966 3.73201E-01
 -1       968 3.51419E-01
 -1       969 3.73201E-01
 -1       971 3.51419E-01
 -1       972 3.73201E-01
 -1       974 3.51419E-01
 -1       975 3.73201E-01
 -1       977 3.51419E-01
 -1       978 3.73201E-01
 -1       980 3.51419E-01
 -1       981 3.73201E-01
 -1       983 3.51419E-01
 -1       985 3.13751E-01
 -1       986 3.32585E-01
 -1       988 3.13751E-01
 -1       989 3.32585E-01
 -1       991 3.13751E-01
 -1       992 3.32585E-01
 -1       994 3.13751E-01
 -1       995 3.32585E-01
 -1       997 3.13751E-01
 -1       998 3.32585E-01
 -1      1000 3.13751E-01
 -1      1001 3.32585E-01
 -1      1003 3.13751E-01
 -1      1004 3.32585E-01
 -1      1006 3.13751E-01
 -1      1007 3.32585E-01
 -1      1009 3.13751E-01
 -1      1010 3.32585E-01
 -1      1012 3.13751E-01
 -1      1014 2.81054E-01
 -1      1015 2.97402E-01
 -1      1017 2.81054E-01
 -1      1018 2.97402E-01
 -1      1020 2.81054E-01
 -1      1021 2.97402E-01
 -1      1023 2.81054E-01
 -1      1024 2.97402E-01
 -1      1026 2.81054E-01
 -1      1027 2.97402E-01
 -1      1029 2.81054E-01
 -1      1030 2.97402E-01
 -1      1032 2.81054E-01
 -1      1033 2.97402E-01
 -1      1035 2.81054E-01
 -1      1036 2.97402E-01
 -1      1038 2.81054E-01
 -1      1039 2.97402E-01
 -1      1041 2.81054E-01
 -1      1043 2.52568E-01
 -1      1044 2.66811E-01
 -1      1046 2.52568E-01
 -1      1047 2.66811E-01
 -1      1049 2.52568E-01
 -1      1050 2.66811E-01
 -1      1052 2.52568E-01
 -1      1053 2.66811E-01
 -1      1055 2.52568E-01
 -1      1056 2.66811E-01
 -1      1058 2.52568E-01
 -1      1059 2.66811E-01
 -1      1061 2.52568E-01
 -1      1062 2.66811E-01
 -1      1064 2.52568E-01
 -1      1065 2.66811E-01
 -1      1067 2.52568E-01
 -1      1068 2.66811E-01
 -1      1070 2.52568E-01
 -1      1072 2.27662E-01
 -1      1073 2.40115E-01
 -1      1075 2.27662E-01
 -1      1076 2.40115E-01
 -1      1078 2.27662E-01
 -1      1079 2.40115E-01
 -1      1081 2.27662E-01
 -1      1082 2.40115E-01
 -1      1084 2.27662E-01
 -1      1085 2.40115E-01
 -1      1087 2.27662E-01
 -1      1088 2.40115E-01
 -1      1090 2.27662E-01
 -1      1091 2.40115E-01
 -1      1093 2.27662E-01
 -1      1094 2.40115E-01
 -1      1096 2.27662E-01
 -1      1097 2.40115E-01
 -1      1099 2.27662E-01
 -1      1101 2.05810E-01
 -1      1102 2.16736E-01
 -1      1104 2.05810E-01
 -1      1105 2.16736E-01
 -1      1107 2.05810E-01
 -1      1108 2.16736E-01
 -1      1110 2.05810E-01
 -1      1111 2.16736E-01
 -1      1113 2.05810E-01
 -1      1114 2.16736E-01
 -1      1116 2.05810E-01
 -1      1117 2.16736E-01
 -1      1119 2.05810E-01
 -1      1120 2.16736E-01
 -1      1122 2.05810E-01
 -1      1123 2.16736E-01
 -1      1125 2.05810E-01
 -1      1126 2.16736E-01
 -1      1128 2.05810E-01
 -1      1130 1.86575E-01
 -1      1131 1.96192E-01
 -1      1133 1.86575E-01
 -1      1134 1.96192E-01
 -1      1136 1.86575E-01
 -1      1137 1.96192E-01
 -1      1139 1.86575E-01
 -1      1140 1.96192E-01
 -1      1142 1.86575E-01
 -1      1143 1.96192E-01
 -1      1145 1.86575E-01
 -1      1146 1.96192E-01
 -1      1148 1.86575E-01
 -1      1149 1.96192E-01
 -1      1151 1.86575E-01
 -1      1152 1.96192E-01
 -1      1154 1.86575E-01
 -1      1155 1.96192E-01
 -1      1157 1.86575E-01
 -1      1159 1.69588E-01
 -1      1160 1.78081E-01
 -1      1162 1.69588E-01
 -1      1163 1.78081E-01
 -1      1165 1.69588E-01
 -1      1166 1.78081E-01
 -1      1168 1.69588E-01
 -1      1169 1.78081E-01
 -1      1171 1.69588E-01
 -1      1172 1.78081E-01
 -1      1174 1.69588E-01
 -1      1175 1.78081E-01
 -1      1177 1.69588E-01
 -1      1178 1.78081E-01
 -1      1180 1.69588E-01
 -1      1181 1.78081E-01
 -1      1183 1.69588E-01
 -1      1184 1.78081E-01
 -1      1186 1.69588E-01
 -1      1188 1.54540E-01
 -1      1189 1.62064E-01
 -1      1191 1.54540E-01
 -1      1192 1.62064E-01
 -1      1194 1.54540E-01
 -1      1195 1.62064E-01
 -1      1197 1.54540E-01
 -1      1198 1.62064E-01
 -1      1200 1.54540E-01
 -1      1201 1.62064E-01
 -1      1203 1.54540E-01
 -1      1204 1.62064E-01
 -1      1206 1.54540E-01
 -1      1207 1.62064E-01
 -1      1209 1.54540E-01
 -1      1210 1.62064E-01
 -1      1212 1.54540E-01
 -1      1213 1.62064E-01
 -1      1215 1.54540E-01
 -1      1217 1.41171E-01
 -1      1218 1.47856E-01
 -1      1220 1.41171E-01
 -1      1221 1.47856E-01
 -1      1223 1.41171E-01
 -1      1224 1.47856E-01
 -1      1226 1.41172E-01
 -1      1227 1.47856E-01
 -1      1229 1.41172E-01
 -1      1230 1.47856E-01
 -1      1232 1.41172E-01
 -1      1233 1.47856E-01
 -1      1235 1.41172E-01
 -1      1236 1.47856E-01
 -1      1238 1.41172E-01
 -1      1239 1.47856E-01
 -1      1241 1.41172E-01
 -1      1242 1.47856E-01
 -1      1244 1.41172E-01
 -1      1246 1.29260E-01
 -1      1247 1.35216E-01
 -1      1249 1.29260E-01
 -1      1250 1.35216E-01
 -1      1252 1.29260E-01
 -1      1253 1.35216E-01
 -1      1255 1.29260E-01
 -1      1256 1.35216E-01
 -1      1258 1.29260E-01
 -1      1259 1.35216E-01
 -1      1261 1.29260E-01
 -1      1262 1.35216E-01
 -1      1264 1.29260E-01
 -1      1265 1.35216E-01
 -1      1267 1.29260E-01
 -1      1268 1.35216E-01
 -1      1270 1.29260E-01
 -1      1271 1.35216E-01
 -1      1273 1.29260E-01
 -1      1275 1.18617E-01
 -1      1276 1.23938E-01
 -1      1278 1.18617E-01
 -1      1279 1.23938E-01
 -1      1281 1.18617E-01
 -1      1282 1.23938E-01
 -1      1284 1.18617E-01
 -1      1285 1.23938E-01
 -1      1287 1.18617E-01
 -1      1288 1.23938E-01
 -1      1290 1.18617E-01
 -1      1291 1.23938E-01
 -1      1293 1.18617E-01
 -1      1294 1.23938E-01
 -1      1296 1.18617E-01
 -1      1297 1.23938E-01
 -1      1299 1.18617E-01
 -1      1300 1.23938E-01
 -1      1302 1.18617E-01
 -1      1304 1.09083E-01
 -1      1305 1.13850E-01
 -1      1307 1.09083E-01
 -1      1308 1.13850E-01
 -1      1310 1.09083E-01
 -1      1311 1.13850E-01
 -1      1313 1.09083E-01
 -1      1314 1.13850E-01
 -1      1316 1.09083E-01
 -1      1317 1.13850E-01
 -1      1319 1.09083E-01
 -1      1320 1.13850E-01
 -1      1322 1.09083E-01
 -1      1323 1.13850E-01
 -1      1325 1.09083E-01
 -1      1326 1.13850E-01
 -1      1328 1.09083E-01
 -1      1329 1.13850E-01
 -1      1331 1.09083E-01
 -1      1333 1.00521E-01
 -1      1334 1.04802E-01
 -1      1336 1.00521E-01
 -1      1337 1.04802E-01
 -1      1339 1.00521E-01
 -1      1340 1.04802E-01
 -1      1342 1.00521E-01
 -1      1343 1.04802E-01
 -1      1345 1.00521E-01
 -1      1346 1.04802E-01
 -1      1348 1.00521E-01
 -1      1349 1.04802E-01
 -1      1351 1.00521E-01
 -1      1352 1.04802E-01
 -1      1354 1.00521E-01
 -1      1355 1.04802E-01
 -1      1357 1.00521E-01
 -1      1358 1.04802E-01
 -1      1360 1.00521E-01
 -1      1362 9.28113E-02
 -1      1363 9.66660E-02
 -1      1365 9.28113E-02
 -1      1366 9.66660E-02
 -1      1368 9.28113E-02
 -1      1369 9.66660E-02
 -1      1371 9.28114E-02
 -1      1372 9.66660E-02
 -1      1374 9.28114E-02
 -1      1375 9.66660E-02
 -1      1377 9.28114E-02
 -1      1378 9.66660E-02
 -1      1380 9.28113E-02
 -1      1381 9.66660E-02
 -1      1383 9.28114E-02
 -1      1384 9.66661E-02
 -1      1386 9.28114E-02
 -1      1387 9.66661E-02
 -1      1389 9.28114E-02
 -1      1391 8.58558E-02
 -1      1392 8.93335E-02
 -1      1394 8.58558E-02
 -1      1395 8.93336E-02
 -1      1397 8.58558E-02
 -1      1398 8.93336E-02
 -1      1400 8.58558E-02
 -1      1401 8.93336E-02
 -1      1403 8.58559E-02
 -1      1404 8.93336E-02
 -1      1406 8.58558E-02
 -1      1407 8.93336E-02
 -1      1409 8.58558E-02
 -1      1410 8.93336E-02
 -1      1412 8.58559E-02
 -1      1413 8.93337E-02
 -1      1415 8.58560E-02
 -1      1416 8.93337E-02
 -1      1418 8.58558E-02
 -1      1420 7.95587E-02
 -1      1421 8.27072E-02
 -1      1423 7.95587E-02
 -1      1424 8.27073E-02
 -1      1426 7.95587E-02
 -1      1427 8.27072E-02
 -1      1429 7.95587E-02
 -1      1430 8.27073E-02
 -1      1432 7.95588E-02
 -1      1433 8.27073E-02
 -1      1435 7.95588E-02
 -1      1436 8.27073E-02
 -1      1438 7.95588E-02
 -1      1439 8.27074E-02
 -1      1441 7.95590E-02
 -1      1442 8.27075E-02
 -1      1444 7.95590E-02
 -1      1445 8.27075E-02
 -1      1447 7.95589E-02
 -1      1449 7.38754E-02
 -1      1450 7.67171E-02
 -1      1452 7.38754E-02
 -1      1453 7.67171E-02
 -1      1455 7.38754E-02
 -1      1456 7.67170E-02
 -1      1458 7.38755E-02
 -1      1459 7.67172E-02
 -1      1461 7.38757E-02
 -1      1462 7.67172E-02
 -1      1464 7.38756E-02
 -1      1465 7.67172E-02
 -1      1467 7.38758E-02
 -1      1468 7.67175E-02
 -1      1470 7.38761E-02
 -1      1471 7.67176E-02
 -1      1473 7.38761E-02
 -1      1474 7.67176E-02
 -1      1476 7.38760E-02
 -1      1478 6.86101E-02
 -1      1479 7.12428E-02
 -1      1481 6.86104E-02
 -1      1482 7.12430E-02
 -1      1484 6.86107E-02
 -1      1485 7.12430E-02
 -1      1487 6.86106E-02
 -1      1488 7.12431E-02
 -1      1490 6.86113E-02
 -1      1491 7.12438E-02
 -1      1493 6.86124E-02
 -1      1494 7.12442E-02
 -1      1496 6.86129E-02
 -1      1497 7.12445E-02
 -1      1499 6.86119E-02
 -1      1500 7.12435E-02
 -1      1502 6.86141E-02
 -1      1503 7.12468E-02
 -1      1505 6.86174E-02
 -1      1507 6.86056E-02
 -1      1509 6.86064E-02
 -1      1511 6.86064E-02
 -1      1513 6.86055E-02
 -1      1515 6.86094E-02
 -1      1517 6.86117E-02
 -1      1519 6.86117E-02
 -1      1521 6.86085E-02
 -1      1523 6.86174E-02
 -1      1526 1.33229E+00
 -1      1527 1.33225E+00
 -1      1528 1.33224E+00
 -1      1529 1.33224E+00
 -1      1530 1.33224E+00
 -1      1531 1.33224E+00
 -1      1532 1.33224E+00
 -1      1533 1.33224E+00
 -1      1534 1.33225E+00
 -1      1535 1.33229E+00
 -1      1536 1.16436E+00
 -1      1537 1.16434E+00
 -1      1538 1.16434E+00
 -1      1539 1.16434E+00
 -1      1540 1.16434E+00
 -1      1541 1.16434E+00
 -1      1542 1.16434E+00
 -1      1543 1.16434E+00
 -1      1544 1.16434E+00
 -1      1545 1.16436E+00
 -1      1546 1.00093E+00
 -1      1547 1.00093E+00
 -1      1548 1.00093E+00
 -1      1549 1.00093E+00
 -1      1550 1.00093E+00
 -1      1551 1.00093E+00
 -1      1552 1.00093E+00
 -1      1553 1.00093E+00
 -1      1554 1.00093E+00
 -1      1555 1.00093E+00
 -1      1556 8.64772E-01
 -1      1557 8.64769E-01
 -1      1558 8.64769E-01
 -1      1559 8.64769E-01
 -1      1560 8.64769E-01
 -1      1561 8.64769E-01
 -1      1562 8.64769E-01
 -1      1563 8.64769E-01
 -1      1564 8.64769E-01
 -1      1565 8.64772E-01
 -1      1566 7.50790E-01
 -1      1567 7.50790E-01
 -1      1568 7.50790E-01
 -1      1569 7.50790E-01
 -1      1570 7.50790E-01
 -1      1571 7.50790E-01
 -1      1572 7.50790E-01
 -1      1573 7.50790E-01
 -1      1574 7.50790E-01
 -1      1575 7.50790E-01
 -1      1576 6.54810E-01
 -1      1577 6.54810E-01
 -1      1578 6.54810E-01
 -1      1579 6.54810E-01
 -1      1580 6.54810E-01
 -1      1581 6.54810E-01
 -1      1582 6.54810E-01
 -1      1583 6.54810E-01
 -1      1584 6.54810E-01
 -1      1585 6.54810E-01
 -1      1586 5.73593E-01
 -1      1587 5.73593E-01
 -1      1588 5.73593E-01
 -1      1589 5.73593E-01
 -1      1590 5.73592E-01
 -1      1591 5.73592E-01
 -1      1592 5.73593E-01
 -1      1593 5.73593E-01
 -1      1594 5.73593E-01
 -1      1595 5.73593E-01
 -1      1596 5.04539E-01
 -1      1597 5.04539E-01
 -1      1598 5.04539E-01
 -1      1599 5.04539E-01
 -1      1600 5.04539E-01
 -1      1601 5.04539E-01
 -1      1602 5.04539E-01
 -1      1603 5.04539E-01
 -1      1604 5.04539E-01
 -1      1605 5.04539E-01
 -1      1606 4.45565E-01
 -1      1607 4.45565E-01
 -1      1608 4.45565E-01
 -1      1609 4.45565E-01
 -1      1610 4.45565E-01
 -1      1611 4.45565E-01
 -1      1612 4.45565E-01
 -1      1613 4.45565E-01
 -1      1614 4.45565E-01
 -1      1615 4.45565E-01
 -1      1616 3.94983E-01
 -1      1617 3.94983E-01
 -1      1618 3.94983E-01
 -1      1619 3.94983E-01
 -1      1620 3.94983E-01
 -1      1621 3.94983E-01
 -1      1622 3.94983E-01
 -1      1623 3.94983E-01
 -1      1624 3.94983E-01
 -1      1625 3.94983E-01
 -1      1626 3.51419E-01
 -1      1627 3.51419E-01
 -1      1628 3.51419E-01
 -1      1629 3.51419E-01
 -1      1630 3.51419E-01
 -1      1631 3.51419E-01
 -1      1632 3.51419E-01
 -1      1633 3.51419E-01
 -1      1634 3.51419E-01
 -1      1635 3.51419E-01
 -1      1636 3.13751E-01
 -1      1637 3.13751E-01
 -1      1638 3.13751E-01
 -1      1639 3.13751E-01
 -1      1640 3.13751E-01
 -1      1641 3.13751E-01
 -1      1642 3.13751E-01
 -1      1643 3.13751E-01
 -1      1644 3.13751E-01
 -1      1645 3.13751E-01
 -1      1646 2.81054E-01
 -1      1647 2.81054E-01
 -1      1648 2.81054E-01
 -1      1649 2.81054E-01
 -1      1650 2.81054E-01
 -1      1651 2.81054E-01
 -1      1652 2.81054E-01
 -1      1653 2.81054E-01
 -1      1654 2.81054E-01
 -1      1655 2.81054E-01
 -1      1656 2.52568E-01
 -1      1657 2.52568E-01
 -1      1658 2.52568E-01
 -1      1659 2.52568E-01
 -1      1660 2.52568E-01
 -1      1661 2.52568E-01
 -1      1662 2.52568E-01
 -1      1663 2.52568E-01
 -1      1664 2.52568E-01
 -1      1665 2.52568E-01
 -1      1666 2.27662E-01
 -1      1667 2.27662E-01
 -1      1668 2.27662E-01
 -1      1669 2.27662E-01
 -1      1670 2.27662E-01
 -1      1671 2.27662E-01
 -1      1672 2.27662E-01
 -1      1673 2.27662E-01
 -1      1674 2.27662E-01
 -1      1675 2.27662E-01
 -1      1676 2.05810E-01
 -1      1677 2.05810E-01
 -1      1678 2.05810E-01
 -1      1679 2.05810E-01
 -1      1680 2.05810E-01
 -1      1681 2.05810E-01
 -1      1682 2.05810E-01
 -1      1683 2.05810E-01
 -1      1684 2.05810E-01
 -1      1685 2.05810E-01
 -1      1686 1.86575E-01
 -1      1687 1.86575E-01
 -1      1688 1.86575E-01
 -1      1689 1.86575E-01
 -1      1690 1.86575E-01
 -1      1691 1.86575E-01
 -1      1692 1.86575E-01
 -1      1693 1.86575E-01
 -1      1694 1.86575E-01
 -1      1695 1.86575E-01
 -1      1696 1.69588E-01
 -1      1697 1.69588E-01
 -1      1698 1.69588E-01
 -1      1699 1.69588E-01
 -1      1700 1.69588E-01
 -1      1701 1.69588E-01
 -1      1702 1.69588E-01
 -1      1703 1.69588E-01
 -1      1704 1.69588E-01
 -1      1705 1.69588E-01
 -1      1706 1.54540E-01
 -1      1707 1.54540E-01
 -1      1708 1.54540E-01
 -1      1709 1.54540E-01
 -1      1710 1.54540E-01
 -1      1711 1.54540E-01
 -1      1712 1.54540E-01
 -1      1713 1.54540E-01
 -1      1714 1.54540E-01
 -1      1715 1.54540E-01
 -1      1716 1.41171E-01
 -1      1717 1.41171E-01
 -1      1718 1.41171E-01
 -1      1719 1.41171E-01
 -1      1720 1.41171E-01
 -1      1721 1.41171E-01
 -1      1722 1.41171E-01
 -1      1723 1.41171E-01
 -1      1724 1.41171E-01
 -1      1725 1.41171E-01
 -1      1726 1.29260E-01
 -1      1727 1.29260E-01
 -1      1728 1.29260E-01
 -1      1729 1.29260E-01
 -1      1730 1.29260E-01
 -1      1731 1.29260E-01
 -1      1732 1.29260E-01
 -1      1733 1.29260E-01
 -1      1734 1.29260E-01
 -1      1735 1.29260E-01
 -1      1736 1.18617E-01
 -1      1737 1.18617E-01
 -1      1738 1.18617E-01
 -1      1739 1.18617E-01
 -1      1740 1.18617E-01
 -1      1741 1.18617E-01
 -1      1742 1.18617E-01
 -1      1743 1.18617E-01
 -1      1744 1.18617E-01
 -1      1745 1.18617E-01
 -1      1746 1.09083E-01
 -1      1747 1.09083E-01
 -1      1748 1.09083E-01
 -1      1749 1.09083E-01
 -1      1750 1.09083E-01
 -1      1751 1.09083E-01
 -1      1752 1.09083E-01
 -1      1753 1.09083E-01
 -1      1754 1.09083E-01
 -1      1755 1.09083E-01
 -1      1756 1.00521E-01
 -1      1757 1.00521E-01
 -1      1758 1.00521E-01
 -1      1759 1.00521E-01
 -1      1760 1.00521E-01
 -1      1761 1.00521E-01
 -1      1762 1.00521E-01
 -1      1763 1.00521E-01
 -1      1764 1.00521E-01
 -1      1765 1.00521E-01
 -1      1766 9.28113E-02
 -1      1767 9.28113E-02
 -1      1768 9.28112E-02
 -1      1769 9.28112E-02
 -1      1770 9.28112E-02
 -1      1771 9.28112E-02
 -1      1772 9.28112E-02
 -1      1773 9.28112E-02
 -1      1774 9.28113E-02
 -1      1775 9.28113E-02
 -1      1776 8.58562E-02
 -1      1777 8.58562E-02
 -1      1778 8.58561E-02
 -1      1779 8.58561E-02
 -1      1780 8.58560E-02
 -1      1781 8.58560E-02
 -1      1782 8.58561E-02
 -1      1783 8.58561E-02
 -1      1784 8.58562E-02
 -1      1785 8.58562E-02
 -1      1786 7.95587E-02
 -1      1787 7.95575E-02
 -1      1788 7.95567E-02
 -1      1789 7.95566E-02
 -1      1790 7.95566E-02
 -1      1791 7.95566E-02
 -1      1792 7.95566E-02
 -1      1793 7.95567E-02
 -1      1794 7.95575E-02
 -1      1795 7.95587E-02
 -1      1796 7.38797E-02
 -1      1797 7.38806E-02
 -1      1798 7.38806E-02
 -1      1799 7.38798E-02
 -1      1800 7.38794E-02
 -1      1801 7.38794E-02
 -1      1802 7.38798E-02
 -1      1803 7.38806E-02
 -1      1804 7.38806E-02
 -1      1805 7.38797E-02
 -1      1806 6.86100E-02
 -1      1807 6.85941E-02
 -1      1808 6.85935E-02
 -1      1809 6.85941E-02
 -1      1810 6.85942E-02
 -1      1811 6.85942E-02
 -1      1812 6.85941E-02
 -1      1813 6.85935E-02
 -1      1814 6.85941E-02
 -1      1815 6.86100E-02
 -1      1816 1.33229E+00
 -1      1817 1.33229E+00
 -1      1819 1.33227E+00
 -1      1820 1.33225E+00
 -1      1822 1.33225E+00
 -1      1823 1.33224E+00
 -1      1825 1.33224E+00
 -1      1826 1.33224E+00
 -1      1828 1.33224E+00
 -1      1829 1.33224E+00
 -1      1831 1.33224E+00
 -1      1832 1.33224E+00
 -1      1834 1.33224E+00
 -1      1835 1.33224E+00
 -1      1837 1.33224E+00
 -1      1838 1.33224E+00
 -1      1840 1.33225E+00
 -1      1841 1.33225E+00
 -1      1843 1.33227E+00
 -1      1844 1.33229E+00
 -1      1846 1.33229E+00
 -1      1848 1.16436E+00
 -1      1849 1.24833E+00
 -1      1851 1.16435E+00
 -1      1852 1.24829E+00
 -1      1854 1.16434E+00
 -1      1855 1.24829E+00
 -1      1857 1.16434E+00
 -1      1858 1.24829E+00
 -1      1860 1.16434E+00
 -1      1861 1.24829E+00
 -1      1863 1.16434E+00
 -1      1864 1.24829E+00
 -1      1866 1.16434E+00
 -1      1867 1.24829E+00
 -1      1869 1.16434E+00
 -1      1870 1.24829E+00
 -1      1872 1.16434E+00
 -1      1873 1.24829E+00
 -1      1875 1.16435E+00
 -1      1876 1.24833E+00
 -1      1878 1.16436E+00
 -1      1880 1.00093E+00
 -1      1881 1.08265E+00
 -1      1883 1.00093E+00
 -1      1884 1.08263E+00
 -1      1886 1.00093E+00
 -1      1887 1.08263E+00
 -1      1889 1.00093E+00
 -1      1890 1.08263E+00
 -1      1892 1.00093E+00
 -1      1893 1.08263E+00
 -1      1895 1.00093E+00
 -1      1896 1.08263E+00
 -1      1898 1.00093E+00
 -1      1899 1.08263E+00
 -1      1901 1.00093E+00
 -1      1902 1.08263E+00
 -1      1904 1.00093E+00
 -1      1905 1.08263E+00
 -1      1907 1.00093E+00
 -1      1908 1.08265E+00
 -1      1910 1.00093E+00
 -1      1912 8.64772E-01
 -1      1913 9.32851E-01
 -1      1915 8.64771E-01
 -1      1916 9.32850E-01
 -1      1918 8.64769E-01
 -1      1919 9.32850E-01
 -1      1921 8.64769E-01
 -1      1922 9.32848E-01
 -1      1924 8.64769E-01
 -1      1925 9.32848E-01
 -1      1927 8.64769E-01
 -1      1928 9.32848E-01
 -1      1930 8.64769E-01
 -1      1931 9.32848E-01
 -1      1933 8.64769E-01
 -1      1934 9.32850E-01
 -1      1936 8.64769E-01
 -1      1937 9.32850E-01
 -1      1939 8.64771E-01
 -1      1940 9.32851E-01
 -1      1942 8.64772E-01
 -1      1944 7.50790E-01
 -1      1945 8.07781E-01
 -1      1947 7.50790E-01
 -1      1948 8.07780E-01
 -1      1950 7.50790E-01
 -1      1951 8.07779E-01
 -1      1953 7.50790E-01
 -1      1954 8.07779E-01
 -1      1956 7.50790E-01
 -1      1957 8.07779E-01
 -1      1959 7.50790E-01
 -1      1960 8.07779E-01
 -1      1962 7.50790E-01
 -1      1963 8.07779E-01
 -1      1965 7.50790E-01
 -1      1966 8.07779E-01
 -1      1968 7.50790E-01
 -1      1969 8.07780E-01
 -1      1971 7.50790E-01
 -1      1972 8.07781E-01
 -1      1974 7.50790E-01
 -1      1976 6.54810E-01
 -1      1977 7.02800E-01
 -1      1979 6.54810E-01
 -1      1980 7.02800E-01
 -1      1982 6.54810E-01
 -1      1983 7.02800E-01
 -1      1985 6.54810E-01
 -1      1986 7.02800E-01
 -1      1988 6.54810E-01
 -1      1989 7.02800E-01
 -1      1991 6.54810E-01
 -1      1992 7.02800E-01
 -1      1994 6.54810E-01
 -1      1995 7.02800E-01
 -1      1997 6.54810E-01
 -1      1998 7.02800E-01
 -1      2000 6.54810E-01
 -1      2001 7.02800E-01
 -1      2003 6.54810E-01
 -1      2004 7.02800E-01
 -1      2006 6.54810E-01
 -1      2008 5.73593E-01
 -1      2009 6.14201E-01
 -1      2011 5.73593E-01
 -1      2012 6.14201E-01
 -1      2014 5.73593E-01
 -1      2015 6.14201E-01
 -1      2017 5.73593E-01
 -1      2018 6.14201E-01
 -1      2020 5.73592E-01
 -1      2021 6.14201E-01
 -1      2023 5.73592E-01
 -1      2024 6.14201E-01
 -1      2026 5.73592E-01
 -1      2027 6.14201E-01
 -1      2029 5.73593E-01
 -1      2030 6.14201E-01
 -1      2032 5.73593E-01
 -1      2033 6.14201E-01
 -1      2035 5.73593E-01
 -1      2036 6.14201E-01
 -1      2038 5.73593E-01
 -1      2040 5.04539E-01
 -1      2041 5.39066E-01
 -1      2043 5.04539E-01
 -1      2044 5.39066E-01
 -1      2046 5.04539E-01
 -1      2047 5.39066E-01
 -1      2049 5.04539E-01
 -1      2050 5.39066E-01
 -1      2052 5.04539E-01
 -1      2053 5.39066E-01
 -1      2055 5.04539E-01
 -1      2056 5.39066E-01
 -1      2058 5.04539E-01
 -1      2059 5.39066E-01
 -1      2061 5.04539E-01
 -1      2062 5.39066E-01
 -1      2064 5.04539E-01
 -1      2065 5.39066E-01
 -1      2067 5.04539E-01
 -1      2068 5.39066E-01
 -1      2070 5.04539E-01
 -1      2072 4.45565E-01
 -1      2073 4.75052E-01
 -1      2075 4.45565E-01
 -1      2076 4.75052E-01
 -1      2078 4.45565E-01
 -1      2079 4.75052E-01
 -1      2081 4.45565E-01
 -1      2082 4.75052E-01
 -1      2084 4.45565E-01
 -1      2085 4.75052E-01
 -1      2087 4.45565E-01
 -1      2088 4.75052E-01
 -1      2090 4.45565E-01
 -1      2091 4.75052E-01
 -1      2093 4.45565E-01
 -1      2094 4.75052E-01
 -1      2096 4.45565E-01
 -1      2097 4.75052E-01
 -1      2099 4.45565E-01
 -1      2100 4.75052E-01
 -1      2102 4.45565E-01
 -1      2104 3.94983E-01
 -1      2105 4.20274E-01
 -1      2107 3.94983E-01
 -1      2108 4.20274E-01
 -1      2110 3.94983E-01
 -1      2111 4.20274E-01
 -1      2113 3.94983E-01
 -1      2114 4.20274E-01
 -1      2116 3.94983E-01
 -1      2117 4.20274E-01
 -1      2119 3.94983E-01
 -1      2120 4.20274E-01
 -1      2122 3.94983E-01
 -1      2123 4.20274E-01
 -1      2125 3.94983E-01
 -1      2126 4.20274E-01
 -1      2128 3.94983E-01
 -1      2129 4.20274E-01
 -1      2131 3.94983E-01
 -1      2132 4.20274E-01
 -1      2134 3.94983E-01
 -1      2136 3.51419E-01
 -1      2137 3.73201E-01
 -1      2139 3.51419E-01
 -1      2140 3.73201E-01
 -1      2142 3.51419E-01
 -1      2143 3.73201E-01
 -1      2145 3.51419E-01
 -1      2146 3.73201E-01
 -1      2148 3.51419E-01
 -1      2149 3.73201E-01
 -1      2151 3.51419E-01
 -1      2152 3.73201E-01
 -1      2154 3.51419E-01
 -1      2155 3.73201E-01
 -1      2157 3.51419E-01
 -1      2158 3.73201E-01
 -1      2160 3.51419E-01
 -1      2161 3.73201E-01
 -1      2163 3.51419E-01
 -1      2164 3.73201E-01
 -1      2166 3.51419E-01
 -1      2168 3.13751E-01
 -1      2169 3.32585E-01
 -1      2171 3.13751E-01
 -1      2172 3.32585E-01
 -1      2174 3.13751E-01
 -1      2175 3.32585E-01
 -1      2177 3.13751E-01
 -1      2178 3.32585E-01
 -1      2180 3.13751E-01
 -1      2181 3.32585E-01
 -1      2183 3.13751E-01
 -1      2184 3.32585E-01
 -1      2186 3.13751E-01
 -1      2187 3.32585E-01
 -1      2189 3.13751E-01
 -1      2190 3.32585E-01
 -1      2192 3.13751E-01
 -1      2193 3.32585E-01
 -1      2195 3.13751E-01
 -1      2196 3.32585E-01
 -1      2198 3.13751E-01
 -1      2200 2.81054E-01
 -1      2201 2.97402E-01
 -1      2203 2.81054E-01
 -1      2204 2.97402E-01
 -1      2206 2.81054E-01
 -1      2207 2.97402E-01
 -1      2209 2.81054E-01
 -1      2210 2.97402E-01
 -1      2212 2.81054E-01
 -1      2213 2.97402E-01
 -1      2215 2.81054E-01
 -1      2216 2.97402E-01
 -1      2218 2.81054E-01
 -1      2219 2.97402E-01
 -1      2221 2.81054E-01
 -1      2222 2.97402E-01
 -1      2224 2.81054E-01
 -1      2225 2.97402E-01
 -1      2227 2.81054E-01
 -1      2228 2.97402E-01
 -1      2230 2.81054E-01
 -1      2232 2.52568E-01
 -1      2233 2.66811E-01
 -1      2235 2.52568E-01
 -1      2236 2.66811E-01
 -1      2238 2.52568E-01
 -1      2239 2.66811E-01
 -1      2241 2.52568E-01
 -1      2242 2.66811E-01
 -1      2244 2.52568E-01
 -1      2245 2.66811E-01
 -1      2247 2.52568E-01
 -1      2248 2.66811E-01
 -1      2250 2.52568E-01
 -1      2251 2.66811E-01
 -1      2253 2.52568E-01
 -1      2254 2.66811E-01
 -1      2256 2.52568E-01
 -1      2257 2.66811E-01
 -1      2259 2.52568E-01
 -1      2260 2.66811E-01
 -1      2262 2.52568E-01
 -1      2264 2.27662E-01
 -1      2265 2.40115E-01
 -1      2267 2.27662E-01
 -1      2268 2.40115E-01
 -1      2270 2.27662E-01
 -1      2271 2.40115E-01
 -1      2273 2.27662E-01
 -1      2274 2.40115E-01
 -1      2276 2.27662E-01
 -1      2277 2.40115E-01
 -1      2279 2.27662E-01
 -1      2280 2.40115E-01
 -1      2282 2.27662E-01
 -1      2283 2.40115E-01
 -1      2285 2.27662E-01
 -1      2286 2.40115E-01
 -1      2288 2.27662E-01
 -1      2289 2.40115E-01
 -1      2291 2.27662E-01
 -1      2292 2.40115E-01
 -1      2294 2.27662E-01
 -1      2296 2.05810E-01
 -1      2297 2.16736E-01
 -1      2299 2.05810E-01
 -1      2300 2.16736E-01
 -1      2302 2.05810E-01
 -1      2303 2.16736E-01
 -1      2305 2.05810E-01
 -1      2306 2.16736E-01
 -1      2308 2.05810E-01
 -1      2309 2.16736E-01
 -1      2311 2.05810E-01
 -1      2312 2.16736E-01
 -1      2314 2.05810E-01
 -1      2315 2.16736E-01
 -1      2317 2.05810E-01
 -1      2318 2.16736E-01
 -1      2320 2.05810E-01
 -1      2321 2.16736E-01
 -1      2323 2.05810E-01
 -1      2324 2.16736E-01
 -1      2326 2.05810E-01
 -1      2328 1.86575E-01
 -1      2329 1.96192E-01
 -1      2331 1.86575E-01
 -1      2332 1.96192E-01
 -1      2334 1.86575E-01
 -1      2335 1.96192E-01
 -1      2337 1.86575E-01
 -1      2338 1.96192E-01
 -1      2340 1.86575E-01
 -1      2341 1.96192E-01
 -1      2343 1.86575E-01
 -1      2344 1.96192E-01
 -1      2346 1.86575E-01
 -1      2347 1.96192E-01
 -1      2349 1.86575E-01
 -1      2350 1.96192E-01
 -1      2352 1.86575E-01
 -1      2353 1.96192E-01
 -1      2355 1.86575E-01
 -1      2356 1.96192E-01
 -1      2358 1.86575E-01
 -1      2360 1.69588E-01
 -1      2361 1.78081E-01
 -1      2363 1.69588E-01
 -1      2364 1.78081E-01
 -1      2366 1.69588E-01
 -1      2367 1.78081E-01
 -1      2369 1.69588E-01
 -1      2370 1.78081E-01
 -1      2372 1.69588E-01
 -1      2373 1.78081E-01
 -1      2375 1.69588E-01
 -1      2376 1.78081E-01
 -1      2378 1.69588E-01
 -1      2379 1.78081E-01
 -1      2381 1.69588E-01
 -1      2382 1.78081E-01
 -1      2384 1.69588E-01
 -1      2385 1.78081E-01
 -1      2387 1.69588E-01
 -1      2388 1.78081E-01
 -1      2390 1.69588E-01
 -1      2392 1.54540E-01
 -1      2393 1.62064E-01
 -1      2395 1.54540E-01
 -1      2396 1.62064E-01
 -1      2398 1.54540E-01
 -1      2399 1.62064E-01
 -1      2401 1.54540E-01
 -1      2402 1.62064E-01
 -1      2404 1.54540E-01
 -1      2405 1.62064E-01
 -1      2407 1.54540E-01
 -1      2408 1.62064E-01
 -1      2410 1.54540E-01
 -1      2411 1.62064E-01
 -1      2413 1.54540E-01
 -1      2414 1.62064E-01
 -1      2416 1.54540E-01
 -1      2417 1.62064E-01
 -1      2419 1.54540E-01
 -1      2420 1.62064E-01
 -1      2422 1.54540E-01
 -1      2424 1.41171E-01
 -1      2425 1.47856E-01
 -1      2427 1.41171E-01
 -1      2428 1.47856E-01
 -1      2430 1.41171E-01
 -1      2431 1.47856E-01
 -1      2433 1.41171E-01
 -1      2434 1.47856E-01
 -1      2436 1.41171E-01
 -1      2437 1.47856E-01
 -1      2439 1.41171E-01
 -1      2440 1.47856E-01
 -1      2442 1.41171E-01
 -1      2443 1.47856E-01
 -1      2445 1.41171E-01
 -1      2446 1.47856E-01
 -1      2448 1.41171E-01
 -1      2449 1.47856E-01
 -1      2451 1.41171E-01
 -1      2452 1.47856E-01
 -1      2454 1.41171E-01
 -1      2456 1.29260E-01
 -1      2457 1.35216E-01
 -1      2459 1.29260E-01
 -1      2460 1.35216E-01
 -1      2462 1.29260E-01
 -1      2463 1.35216E-01
 -1      2465 1.29260E-01
 -1      2466 1.35216E-01
 -1      2468 1.29260E-01
 -1      2469 1.35216E-01
 -1      2471 1.29260E-01
 -1      2472 1.35216E-01
 -1      2474 1.29260E-01
 -1      2475 1.35216E-01
 -1      2477 1.29260E-01
 -1      2478 1.35216E-01
 -1      2480 1.29260E-01
 -1      2481 1.35216E-01
 -1      2483 1.29260E-01
 -1      2484 1.35216E-01
 -1      2486 1.29260E-01
 -1      2488 1.18617E-01
 -1      2489 1.23938E-01
 -1      2491 1.18617E-01
 -1      2492 1.23938E-01
 -1      2494 1.18617E-01
 -1      2495 1.23938E-01
 -1      2497 1.18617E-01
 -1      2498 1.23938E-01
 -1      2500 1.18617E-01
 -1      2501 1.23938E-01
 -1      2503 1.18617E-01
 -1      2504 1.23938E-01
 -1      2506 1.18617E-01
 -1      2507 1.23938E-01
 -1      2509 1.18617E-01
 -1      2510 1.23938E-01
 -1      2512 1.18617E-01
 -1      2513 1.23938E-01
 -1      2515 1.18617E-01
 -1      2516 1.23938E-01
 -1      2518 1.18617E-01
 -1      2520 1.09083E-01
 -1      2521 1.13850E-01
 -1      2523 1.09083E-01
 -1      2524 1.13850E-01
 -1      2526 1.09083E-01
 -1      2527 1.13850E-01
 -1      2529 1.09083E-01
 -1      2530 1.13850E-01
 -1      2532 1.09083E-01
 -1      2533 1.13850E-01
 -1      2535 1.09083E-01
 -1      2536 1.13850E-01
 -1      2538 1.09083E-01
 -1      2539 1.13850E-01
 -1      2541 1.09083E-01
 -1      2542 1.13850E-01
 -1      2544 1.09083E-01
 -1      2545 1.13850E-01
 -1      2547 1.09083E-01
 -1      2548 1.13850E-01
 -1      2550 1.09083E-01
 -1      2552 1.00521E-01
 -1      2553 1.04802E-01
 -1      2555 1.00521E-01
 -1      2556 1.04802E-01
 -1      2558 1.00521E-01
 -1      2559 1.04802E-01
 -1      2561 1.00521E-01
 -1      2562 1.04802E-01
 -1      2564 1.00521E-01
 -1      2565 1.04802E-01
 -1      2567 1.00521E-01
 -1      2568 1.04802E-01
 -1      2570 1.00521E-01
 -1      2571 1.04802E-01
 -1      2573 1.00521E-01
 -1      2574 1.04802E-01
 -1      2576 1.00521E-01
 -1      2577 1.04802E-01
 -1      2579 1.00521E-01
 -1      2580 1.04802E-01
 -1      2582 1.00521E-01
 -1      2584 9.28113E-02
 -1      2585 9.66660E-02
 -1      2587 9.28113E-02
 -1      2588 9.66660E-02
 -1      2590 9.28112E-02
 -1      2591 9.66659E-02
 -1      2593 9.28112E-02
 -1      2594 9.66659E-02
 -1      2596 9.28112E-02
 -1      2597 9.66659E-02
 -1      2599 9.28112E-02
 -1      2600 9.66659E-02
 -1      2602 9.28112E-02
 -1      2603 9.66659E-02
 -1      2605 9.28112E-02
 -1      2606 9.66659E-02
 -1      2608 9.28112E-02
 -1      2609 9.66660E-02
 -1      2611 9.28113E-02
 -1      2612 9.66660E-02
 -1      2614 9.28113E-02
 -1      2616 8.58560E-02
 -1      2617 8.93338E-02
 -1      2619 8.58562E-02
 -1      2620 8.93338E-02
 -1      2622 8.58561E-02
 -1      2623 8.93336E-02
 -1      2625 8.58561E-02
 -1      2626 8.93336E-02
 -1      2628 8.58560E-02
 -1      2629 8.93336E-02
 -1      2631 8.58560E-02
 -1      2632 8.93336E-02
 -1      2634 8.58560E-02
 -1      2635 8.93336E-02
 -1      2637 8.58561E-02
 -1      2638 8.93336E-02
 -1      2640 8.58561E-02
 -1      2641 8.93338E-02
 -1      2643 8.58562E-02
 -1      2644 8.93338E-02
 -1      2646 8.58560E-02
 -1      2648 7.95587E-02
 -1      2649 8.27075E-02
 -1      2651 7.95581E-02
 -1      2652 8.27069E-02
 -1      2654 7.95571E-02
 -1      2655 8.27064E-02
 -1      2657 7.95567E-02
 -1      2658 8.27063E-02
 -1      2660 7.95566E-02
 -1      2661 8.27063E-02
 -1      2663 7.95566E-02
 -1      2664 8.27063E-02
 -1      2666 7.95566E-02
 -1      2667 8.27063E-02
 -1      2669 7.95567E-02
 -1      2670 8.27064E-02
 -1      2672 7.95571E-02
 -1      2673 8.27069E-02
 -1      2675 7.95581E-02
 -1      2676 8.27075E-02
 -1      2678 7.95587E-02
 -1      2680 7.38776E-02
 -1      2681 7.67192E-02
 -1      2683 7.38802E-02
 -1      2684 7.67191E-02
 -1      2686 7.38806E-02
 -1      2687 7.67187E-02
 -1      2689 7.38802E-02
 -1      2690 7.67182E-02
 -1      2692 7.38796E-02
 -1      2693 7.67180E-02
 -1      2695 7.38794E-02
 -1      2696 7.67180E-02
 -1      2698 7.38796E-02
 -1      2699 7.67182E-02
 -1      2701 7.38802E-02
 -1      2702 7.67187E-02
 -1      2704 7.38806E-02
 -1      2705 7.67191E-02
 -1      2707 7.38802E-02
 -1      2708 7.67192E-02
 -1      2710 7.38776E-02
 -1      2712 6.86100E-02
 -1      2713 7.12449E-02
 -1      2715 6.86020E-02
 -1      2716 7.12373E-02
 -1      2718 6.85938E-02
 -1      2719 7.12371E-02
 -1      2721 6.85938E-02
 -1      2722 7.12369E-02
 -1      2724 6.85941E-02
 -1      2725 7.12368E-02
 -1      2727 6.85942E-02
 -1      2728 7.12368E-02
 -1      2730 6.85941E-02
 -1      2731 7.12369E-02
 -1      2733 6.85938E-02
 -1      2734 7.12371E-02
 -1      2736 6.85938E-02
 -1      2737 7.12373E-02
 -1      2739 6.86020E-02
 -1      2740 7.12449E-02
 -1      2742 6.86100E-02
 -1      2744 6.86053E-02
 -1      2746 6.85941E-02
 -1      2748 6.85935E-02
 -1      2750 6.85941E-02
 -1      2752 6.85942E-02
 -1      2754 6.85942E-02
 -1      2756 6.85941E-02
 -1      2758 6.85935E-02
 -1      2760 6.85941E-02
 -1      2762 6.86053E-02
 -1      2765 6.86010E-02
 -1      2766 6.85943E-02
 -1      2767 6.85938E-02
 -1      2768 6.85943E-02
 -1      2769 6.85944E-02
 -1      2770 6.85944E-02
 -1      2771 6.85943E-02
 -1      2772 6.85938E-02
 -1      2773 6.85943E-02
 -1      2774 6.86010E-02
 -1      2775 6.86021E-02
 -1      2776 6.85943E-02
 -1      2777 6.85943E-02
 -1      2778 6.85948E-02
 -1      2779 6.85948E-02
 -1      2780 6.85948E-02
 -1      2781 6.85948E-02
 -1      2782 6.85943E-02
 -1      2783 6.85943E-02
 -1      2784 6.86021E-02
 -1      2785 6.86021E-02
 -1      2786 6.85953E-02
 -1      2787 6.85943E-02
 -1      2788 6.85948E-02
 -1      2789 6.85948E-02
 -1      2790 6.85948E-02
 -1      2791 6.85948E-02
 -1      2792 6.85943E-02
 -1      2793 6.85953E-02
 -1      2794 6.86021E-02
 -1      2795 6.86003E-02
 -1      2796 6.85953E-02
 -1      2797 6.85963E-02
 -1      2798 6.85970E-02
 -1      2799 6.85971E-02
 -1      2800 6.85971E-02
 -1      2801 6.85970E-02
 -1      2802 6.85963E-02
 -1      2803 6.85953E-02
 -1      2804 6.86003E-02
 -1      2805 6.86069E-02
 -1      2806 6.85984E-02
 -1      2807 6.85999E-02
 -1      2808 6.86011E-02
 -1      2809 6.86014E-02
 -1      2810 6.86014E-02
 -1      2811 6.86011E-02
 -1      2812 6.85999E-02
 -1      2813 6.85984E-02
 -1      2814 6.86069E-02
 -1      2815 6.86105E-02
 -1      2816 6.86022E-02
 -1      2817 6.85999E-02
 -1      2818 6.86011E-02
 -1      2819 6.86014E-02
 -1      2820 6.86014E-02
 -1      2821 6.86011E-02
 -1      2822 6.85999E-02
 -1      2823 6.86022E-02
 -1      2824 6.86105E-02
 -1      2825 6.86105E-02
 -1      2826 6.86022E-02
 -1      2827 6.85962E-02
 -1      2828 6.85968E-02
 -1      2829 6.85972E-02
 -1      2830 6.85972E-02
 -1      2831 6.85968E-02
 -1      2832 6.85962E-02
 -1      2833 6.86022E-02
 -1      2834 6.86105E-02
 -1      2835 6.86062E-02
 -1      2836 6.86027E-02
 -1      2837 6.86043E-02
 -1      2838 6.86049E-02
 -1      2839 6.86050E-02
 -1      2840 6.86050E-02
 -1      2841 6.86049E-02
 -1      2842 6.86043E-02
 -1      2843 6.86027E-02
 -1      2844 6.86062E-02
 -1      2845 6.86174E-02
 -1      2846 6.86067E-02
 -1      2847 6.86060E-02
 -1      2848 6.86068E-02
 -1      2849 6.86068E-02
 -1      2850 6.86068E-02
 -1      2851 6.86068E-02
 -1      2852 6.86060E-02
 -1      2853 6.86067E-02
 -1      2854 6.86174E-02
 -1      2855 6.86010E-02
 -1      2856 6.86009E-02
 -1      2858 6.85977E-02
 -1      2859 6.85942E-02
 -1      2861 6.85941E-02
 -1      2862 6.85937E-02
 -1      2864 6.85941E-02
 -1      2865 6.85942E-02
 -1      2867 6.85943E-02
 -1      2868 6.85943E-02
 -1      2870 6.85944E-02
 -1      2871 6.85943E-02
 -1      2873 6.85943E-02
 -1      2874 6.85942E-02
 -1      2876 6.85941E-02
 -1      2877 6.85937E-02
 -1      2879 6.85941E-02
 -1      2880 6.85942E-02
 -1      2882 6.85977E-02
 -1      2883 6.86009E-02
 -1      2885 6.86010E-02
 -1      2887 6.86021E-02
 -1      2888 6.86016E-02
 -1      2890 6.85982E-02
 -1      2891 6.85943E-02
 -1      2893 6.85943E-02
 -1      2894 6.85941E-02
 -1      2896 6.85945E-02
 -1      2897 6.85945E-02
 -1      2899 6.85948E-02
 -1      2900 6.85946E-02
 -1      2902 6.85948E-02
 -1      2903 6.85946E-02
 -1      2905 6.85948E-02
 -1      2906 6.85945E-02
 -1      2908 6.85945E-02
 -1      2909 6.85941E-02
 -1      2911 6.85943E-02
 -1      2912 6.85943E-02
 -1      2914 6.85982E-02
 -1      2915 6.86016E-02
 -1      2917 6.86021E-02
 -1      2919 6.86021E-02
 -1      2920 6.86021E-02
 -1      2922 6.85987E-02
 -1      2923 6.85948E-02
 -1      2925 6.85948E-02
 -1      2926 6.85943E-02
 -1      2928 6.85945E-02
 -1      2929 6.85948E-02
 -1      2931 6.85948E-02
 -1      2932 6.85948E-02
 -1      2934 6.85948E-02
 -1      2935 6.85948E-02
 -1      2937 6.85948E-02
 -1      2938 6.85948E-02
 -1      2940 6.85945E-02
 -1      2941 6.85943E-02
 -1      2943 6.85948E-02
 -1      2944 6.85948E-02
 -1      2946 6.85987E-02
 -1      2947 6.86021E-02
 -1      2949 6.86021E-02
 -1      2951 6.86003E-02
 -1      2952 6.86012E-02
 -1      2954 6.85978E-02
 -1      2955 6.85953E-02
 -1      2957 6.85958E-02
 -1      2958 6.85953E-02
 -1      2960 6.85966E-02
 -1      2961 6.85959E-02
 -1      2963 6.85971E-02
 -1      2964 6.85960E-02
 -1      2966 6.85971E-02
 -1      2967 6.85960E-02
 -1      2969 6.85971E-02
 -1      2970 6.85959E-02
 -1      2972 6.85966E-02
 -1      2973 6.85953E-02
 -1      2975 6.85958E-02
 -1      2976 6.85953E-02
 -1      2978 6.85978E-02
 -1      2979 6.86012E-02
 -1      2981 6.86003E-02
 -1      2983 6.86069E-02
 -1      2984 6.86036E-02
 -1      2986 6.86027E-02
 -1      2987 6.85969E-02
 -1      2989 6.85992E-02
 -1      2990 6.85981E-02
 -1      2992 6.86005E-02
 -1      2993 6.85991E-02
 -1      2995 6.86013E-02
 -1      2996 6.85993E-02
 -1      2998 6.86014E-02
 -1      2999 6.85993E-02
 -1      3001 6.86013E-02
 -1      3002 6.85991E-02
 -1      3004 6.86005E-02
 -1      3005 6.85981E-02
 -1      3007 6.85992E-02
 -1      3008 6.85969E-02
 -1      3010 6.86027E-02
 -1      3011 6.86036E-02
 -1      3013 6.86069E-02
 -1      3015 6.86105E-02
 -1      3016 6.86087E-02
 -1      3018 6.86064E-02
 -1      3019 6.86003E-02
 -1      3021 6.86011E-02
 -1      3022 6.85999E-02
 -1      3024 6.86005E-02
 -1      3025 6.86011E-02
 -1      3027 6.86013E-02
 -1      3028 6.86014E-02
 -1      3030 6.86014E-02
 -1      3031 6.86014E-02
 -1      3033 6.86013E-02
 -1      3034 6.86011E-02
 -1      3036 6.86005E-02
 -1      3037 6.85999E-02
 -1      3039 6.86011E-02
 -1      3040 6.86003E-02
 -1      3042 6.86064E-02
 -1      3043 6.86087E-02
 -1      3045 6.86105E-02
 -1      3047 6.86105E-02
 -1      3048 6.86105E-02
 -1      3050 6.86064E-02
 -1      3051 6.86022E-02
 -1      3053 6.85992E-02
 -1      3054 6.85980E-02
 -1      3056 6.85965E-02
 -1      3057 6.85990E-02
 -1      3059 6.85970E-02
 -1      3060 6.85993E-02
 -1      3062 6.85972E-02
 -1      3063 6.85993E-02
 -1      3065 6.85970E-02
 -1      3066 6.85990E-02
 -1      3068 6.85965E-02
 -1      3069 6.85980E-02
 -1      3071 6.85992E-02
 -1      3072 6.86022E-02
 -1      3074 6.86064E-02
 -1      3075 6.86105E-02
 -1      3077 6.86105E-02
 -1      3079 6.86062E-02
 -1      3080 6.86084E-02
 -1      3082 6.86044E-02
 -1      3083 6.86024E-02
 -1      3085 6.86035E-02
 -1      3086 6.86002E-02
 -1      3088 6.86046E-02
 -1      3089 6.86009E-02
 -1      3091 6.86050E-02
 -1      3092 6.86011E-02
 -1      3094 6.86050E-02
 -1      3095 6.86011E-02
 -1      3097 6.86050E-02
 -1      3098 6.86009E-02
 -1      3100 6.86046E-02
 -1      3101 6.86002E-02
 -1      3103 6.86035E-02
 -1      3104 6.86024E-02
 -1      3106 6.86044E-02
 -1      3107 6.86084E-02
 -1      3109 6.86062E-02
 -1      3111 6.86174E-02
 -1      3112 6.86118E-02
 -1      3114 6.86120E-02
 -1      3115 6.86047E-02
 -1      3117 6.86064E-02
 -1      3118 6.86052E-02
 -1      3120 6.86064E-02
 -1      3121 6.86059E-02
 -1      3123 6.86068E-02
 -1      3124 6.86059E-02
 -1      3126 6.86068E-02
 -1      3127 6.86059E-02
 -1      3129 6.86068E-02
 -1      3130 6.86059E-02
 -1      3132 6.86064E-02
 -1      3133 6.86052E-02
 -1      3135 6.86064E-02
 -1      3136 6.86047E-02
 -1      3138 6.86120E-02
 -1      3139 6.86118E-02
 -1      3141 6.86174E-02
 -1      3143 6.86174E-02
 -1      3145 6.86067E-02
 -1      3147 6.86060E-02
 -1      3149 6.86068E-02
 -1      3151 6.86068E-02
 -1      3153 6.86068E-02
 -1      3155 6.86068E-02
 -1      3157 6.86060E-02
 -1      3159 6.86067E-02
 -1      3161 6.86174E-02
 -1      3164 6.86174E-02
 -1      3165 6.86067E-02
 -1      3166 6.86060E-02
 -1      3167 6.86068E-02
 -1      3168 6.86068E-02
 -1      3169 6.86068E-02
 -1      3170 6.86068E-02
 -1      3171 6.86060E-02
 -1      3172 6.86067E-02
 -1      3173 6.86174E-02
 -1      3174 7.38798E-02
 -1      3175 7.38814E-02
 -1      3176 7.38814E-02
 -1      3177 7.38807E-02
 -1      3178 7.38806E-02
 -1      3179 7.38806E-02
 -1      3180 7.38807E-02
 -1      3181 7.38814E-02
 -1      3182 7.38814E-02
 -1      3183 7.38798E-02
 -1      3184 7.95588E-02
 -1      3185 7.95572E-02
 -1      3186 7.95569E-02
 -1      3187 7.95569E-02
 -1      3188 7.95569E-02
 -1      3189 7.95569E-02
 -1      3190 7.95569E-02
 -1      3191 7.95569E-02
 -1      3192 7.95572E-02
 -1      3193 7.95588E-02
 -1      3194 8.58562E-02
 -1      3195 8.58562E-02
 -1      3196 8.58560E-02
 -1      3197 8.58560E-02
 -1      3198 8.58560E-02
 -1      3199 8.58560E-02
 -1      3200 8.58560E-02
 -1      3201 8.58560E-02
 -1      3202 8.58562E-02
 -1      3203 8.58562E-02
 -1      3204 9.28113E-02
 -1      3205 9.28112E-02
 -1      3206 9.28111E-02
 -1      3207 9.28111E-02
 -1      3208 9.28111E-02
 -1      3209 9.28111E-02
 -1      3210 9.28111E-02
 -1      3211 9.28111E-02
 -1      3212 9.28112E-02
 -1      3213 9.28113E-02
 -1      3214 1.00521E-01
 -1      3215 1.00521E-01
 -1      3216 1.00521E-01
 -1      3217 1.00521E-01
 -1      3218 1.00521E-01
 -1      3219 1.00521E-01
 -1      3220 1.00521E-01
 -1      3221 1.00521E-01
 -1      3222 1.00521E-01
 -1      3223 1.00521E-01
 -1      3224 1.09083E-01
 -1      3225 1.09083E-01
 -1      3226 1.09083E-01
 -1      3227 1.09083E-01
 -1      3228 1.09083E-01
 -1      3229 1.09083E-01
 -1      3230 1.09083E-01
 -1      3231 1.09083E-01
 -1      3232 1.09083E-01
 -1      3233 1.09083E-01
 -1      3234 1.18617E-01
 -1      3235 1.18617E-01
 -1      3236 1.18617E-01
 -1      3237 1.18617E-01
 -1      3238 1.18617E-01
 -1      3239 1.18617E-01
 -1      3240 1.18617E-01
 -1      3241 1.18617E-01
 -1      3242 1.18617E-01
 -1      3243 1.18617E-01
 -1      3244 1.29260E-01
 -1      3245 1.29260E-01
 -1      3246 1.29260E-01
 -1      3247 1.29260E-01
 -1      3248 1.29260E-01
 -1      3249 1.29260E-01
 -1      3250 1.29260E-01
 -1      3251 1.29260E-01
 -1      3252 1.29260E-01
 -1      3253 1.29260E-01
 -1      3254 1.41172E-01
 -1      3255 1.41172E-01
 -1      3256 1.41172E-01
 -1      3257 1.41172E-01
 -1      3258 1.41172E-01
 -1      3259 1.41172E-01
 -1      3260 1.41172E-01
 -1      3261 1.41172E-01
 -1      3262 1.41172E-01
 -1      3263 1.41172E-01
 -1      3264 1.54540E-01
 -1      3265 1.54540E-01
 -1      3266 1.54540E-01
 -1      3267 1.54540E-01
 -1      3268 1.54540E-01
 -1      3269 1.54540E-01
 -1      3270 1.54540E-01
 -1      3271 1.54540E-01
 -1      3272 1.54540E-01
 -1      3273 1.54540E-01
 -1      3274 1.69588E-01
 -1      3275 1.69588E-01
 -1      3276 1.69588E-01
 -1      3277 1.69588E-01
 -1      3278 1.69588E-01
 -1      3279 1.69588E-01
 -1      3280 1.69588E-01
 -1      3281 1.69588E-01
 -1      3282 1.69588E-01
 -1      3283 1.69588E-01
 -1      3284 1.86575E-01
 -1      3285 1.86575E-01
 -1      3286 1.86575E-01
 -1      3287 1.86575E-01
 -1      3288 1.86575E-01
 -1      3289 1.86575E-01
 -1      3290 1.86575E-01
 -1      3291 1.86575E-01
 -1      3292 1.86575E-01
 -1      3293 1.86575E-01
 -1      3294 2.05810E-01
 -1      3295 2.05810E-01
 -1      3296 2.05810E-01
 -1      3297 2.05810E-01
 -1      3298 2.05810E-01
 -1      3299 2.05810E-01
 -1      3300 2.05810E-01
 -1      3301 2.05810E-01
 -1      3302 2.05810E-01
 -1      3303 2.05810E-01
 -1      3304 2.27662E-01
 -1      3305 2.27662E-01
 -1      3306 2.27662E-01
 -1      3307 2.27662E-01
 -1      3308 2.27662E-01
 -1      3309 2.27662E-01
 -1      3310 2.27662E-01
 -1      3311 2.27662E-01
 -1      3312 2.27662E-01
 -1      3313 2.27662E-01
 -1      3314 2.52568E-01
 -1      3315 2.52568E-01
 -1      3316 2.52568E-01
 -1      3317 2.52568E-01
 -1      3318 2.52568E-01
 -1      3319 2.52568E-01
 -1      3320 2.52568E-01
 -1      3321 2.52568E-01
 -1      3322 2.52568E-01
 -1      3323 2.52568E-01
 -1      3324 2.81054E-01
 -1      3325 2.81054E-01
 -1      3326 2.81054E-01
 -1      3327 2.81054E-01
 -1      3328 2.81054E-01
 -1      3329 2.81054E-01
 -1      3330 2.81054E-01
 -1      3331 2.81054E-01
 -1      3332 2.81054E-01
 -1      3333 2.81054E-01
 -1      3334 3.13751E-01
 -1      3335 3.13751E-01
 -1      3336 3.13751E-01
 -1      3337 3.13751E-01
 -1      3338 3.13751E-01
 -1      3339 3.13751E-01
 -1      3340 3.13751E-01
 -1      3341 3.13751E-01
 -1      3342 3.13751E-01
 -1      3343 3.13751E-01
 -1      3344 3.51419E-01
 -1      3345 3.51419E-01
 -1      3346 3.51419E-01
 -1      3347 3.51419E-01
 -1      3348 3.51419E-01
 -1      3349 3.51419E-01
 -1      3350 3.51419E-01
 -1      3351 3.51419E-01
 -1      3352 3.51419E-01
 -1      3353 3.51419E-01
 -1      3354 3.94983E-01
 -1      3355 3.94983E-01
 -1      3356 3.94983E-01
 -1      3357 3.94983E-01
 -1      3358 3.94983E-01
 -1      3359 3.94983E-01
 -1      3360 3.94983E-01
 -1      3361 3.94983E-01
 -1      3362 3.94983E-01
 -1      3363 3.94983E-01
 -1      3364 4.45565E-01
 -1      3365 4.45565E-01
 -1      3366 4.45565E-01
 -1      3367 4.45565E-01
 -1      3368 4.45565E-01
 -1      3369 4.45565E-01
 -1      3370 4.45565E-01
 -1      3371 4.45565E-01
 -1      3372 4.45565E-01
 -1      3373 4.45565E-01
 -1      3374 5.04539E-01
 -1      3375 5.04539E-01
 -1      3376 5.04539E-01
 -1      3377 5.04539E-01
 -1      3378 5.04539E-01
 -1      3379 5.04539E-01
 -1      3380 5.04539E-01
 -1      3381 5.04539E-01
 -1      3382 5.04539E-01
 -1      3383 5.04539E-01
 -1      3384 5.73593E-01
 -1      3385 5.73593E-01
 -1      3386 5.73593E-01
 -1      3387 5.73593E-01
 -1      3388 5.73592E-01
 -1      3389 5.73592E-01
 -1      3390 5.73593E-01
 -1      3391 5.73593E-01
 -1      3392 5.73593E-01
 -1      3393 5.73593E-01
 -1      3394 6.54810E-01
 -1      3395 6.54810E-01
 -1      3396 6.54810E-01
 -1      3397 6.54810E-01
 -1      3398 6.54810E-01
 -1      3399 6.54810E-01
 -1      3400 6.54810E-01
 -1      3401 6.54810E-01
 -1      3402 6.54810E-01
 -1      3403 6.54810E-01
 -1      3404 7.50790E-01
 -1      3405 7.50790E-01
 -1      3406 7.50790E-01
 -1      3407 7.50790E-01
 -1      3408 7.50790E-01
 -1      3409 7.50790E-01
 -1      3410 7.50790E-01
 -1      3411 7.50790E-01
 -1      3412 7.50790E-01
 -1      3413 7.50790E-01
 -1      3414 8.64772E-01
 -1      3415 8.64769E-01
 -1      3416 8.64769E-01
 -1      3417 8.64769E-01
 -1      3418 8.64769E-01
 -1      3419 8.64769E-01
 -1      3420 8.64769E-01
 -1      3421 8.64769E-01
 -1      3422 8.64769E-01
 -1      3423 8.64772E-01
 -1      3424 1.00093E+00
 -1      3425 1.00093E+00
 -1      3426 1.00093E+00
 -1      3427 1.00093E+00
 -1      3428 1.00093E+00
 -1      3429 1.00093E+00
 -1      3430 1.00093E+00
 -1      3431 1.00093E+00
 -1      3432 1.00093E+00
 -1      3433 1.00093E+00
 -1      3434 1.16436E+00
 -1      3435 1.16434E+00
 -1      3436 1.16434E+00
 -1      3437 1.16434E+00
 -1      3438 1.16434E+00
 -1      3439 1.16434E+00
 -1      3440 1.16434E+00
 -1      3441 1.16434E+00
 -1      3442 1.16434E+00
 -1      3443 1.16436E+00
 -1      3444 1.33229E+00
 -1      3445 1.33225E+00
 -1      3446 1.33224E+00
 -1      3447 1.33224E+00
 -1      3448 1.33224E+00
 -1      3449 1.33224E+00
 -1      3450 1.33224E+00
 -1      3451 1.33224E+00
 -1      3452 1.33225E+00
 -1      3453 1.33229E+00
 -1      3454 6.86174E-02
 -1      3455 6.86174E-02
 -1      3457 6.86120E-02
 -1      3458 6.86067E-02
 -1      3460 6.86064E-02
 -1      3461 6.86060E-02
 -1      3463 6.86064E-02
 -1      3464 6.86068E-02
 -1      3466 6.86068E-02
 -1      3467 6.86068E-02
 -1      3469 6.86068E-02
 -1      3470 6.86068E-02
 -1      3472 6.86068E-02
 -1      3473 6.86068E-02
 -1      3475 6.86064E-02
 -1      3476 6.86060E-02
 -1      3478 6.86064E-02
 -1      3479 6.86067E-02
 -1      3481 6.86120E-02
 -1      3482 6.86174E-02
 -1      3484 6.86174E-02
 -1      3486 7.38778E-02
 -1      3487 7.12486E-02
 -1      3489 7.38806E-02
 -1      3490 7.12440E-02
 -1      3492 7.38814E-02
 -1      3493 7.12437E-02
 -1      3495 7.38810E-02
 -1      3496 7.12438E-02
 -1      3498 7.38807E-02
 -1      3499 7.12437E-02
 -1      3501 7.38806E-02
 -1      3502 7.12437E-02
 -1      3504 7.38807E-02
 -1      3505 7.12438E-02
 -1      3507 7.38810E-02
 -1      3508 7.12437E-02
 -1      3510 7.38814E-02
 -1      3511 7.12440E-02
 -1      3513 7.38806E-02
 -1      3514 7.12486E-02
 -1      3516 7.38778E-02
 -1      3518 7.95588E-02
 -1      3519 7.67193E-02
 -1      3521 7.95580E-02
 -1      3522 7.67193E-02
 -1      3524 7.95571E-02
 -1      3525 7.67191E-02
 -1      3527 7.95569E-02
 -1      3528 7.67188E-02
 -1      3530 7.95569E-02
 -1      3531 7.67187E-02
 -1      3533 7.95569E-02
 -1      3534 7.67187E-02
 -1      3536 7.95569E-02
 -1      3537 7.67188E-02
 -1      3539 7.95569E-02
 -1      3540 7.67191E-02
 -1      3542 7.95571E-02
 -1      3543 7.67193E-02
 -1      3545 7.95580E-02
 -1      3546 7.67193E-02
 -1      3548 7.95588E-02
 -1      3550 8.58559E-02
 -1      3551 8.27075E-02
 -1      3553 8.58562E-02
 -1      3554 8.27067E-02
 -1      3556 8.58561E-02
 -1      3557 8.27065E-02
 -1      3559 8.58560E-02
 -1      3560 8.27065E-02
 -1      3562 8.58560E-02
 -1      3563 8.27065E-02
 -1      3565 8.58560E-02
 -1      3566 8.27065E-02
 -1      3568 8.58560E-02
 -1      3569 8.27065E-02
 -1      3571 8.58560E-02
 -1      3572 8.27065E-02
 -1      3574 8.58561E-02
 -1      3575 8.27067E-02
 -1      3577 8.58562E-02
 -1      3578 8.27075E-02
 -1      3580 8.58559E-02
 -1      3582 9.28113E-02
 -1      3583 8.93337E-02
 -1      3585 9.28113E-02
 -1      3586 8.93337E-02
 -1      3588 9.28112E-02
 -1      3589 8.93336E-02
 -1      3591 9.28111E-02
 -1      3592 8.93336E-02
 -1      3594 9.28111E-02
 -1      3595 8.93336E-02
 -1      3597 9.28111E-02
 -1      3598 8.93336E-02
 -1      3600 9.28111E-02
 -1      3601 8.93336E-02
 -1      3603 9.28111E-02
 -1      3604 8.93336E-02
 -1      3606 9.28112E-02
 -1      3607 8.93337E-02
 -1      3609 9.28113E-02
 -1      3610 8.93337E-02
 -1      3612 9.28113E-02
 -1      3614 1.00521E-01
 -1      3615 9.66660E-02
 -1      3617 1.00521E-01
 -1      3618 9.66659E-02
 -1      3620 1.00521E-01
 -1      3621 9.66659E-02
 -1      3623 1.00521E-01
 -1      3624 9.66659E-02
 -1      3626 1.00521E-01
 -1      3627 9.66659E-02
 -1      3629 1.00521E-01
 -1      3630 9.66659E-02
 -1      3632 1.00521E-01
 -1      3633 9.66659E-02
 -1      3635 1.00521E-01
 -1      3636 9.66659E-02
 -1      3638 1.00521E-01
 -1      3639 9.66659E-02
 -1      3641 1.00521E-01
 -1      3642 9.66660E-02
 -1      3644 1.00521E-01
 -1      3646 1.09083E-01
 -1      3647 1.04802E-01
 -1      3649 1.09083E-01
 -1      3650 1.04802E-01
 -1      3652 1.09083E-01
 -1      3653 1.04802E-01
 -1      3655 1.09083E-01
 -1      3656 1.04802E-01
 -1      3658 1.09083E-01
 -1      3659 1.04802E-01
 -1      3661 1.09083E-01
 -1      3662 1.04802E-01
 -1      3664 1.09083E-01
 -1      3665 1.04802E-01
 -1      3667 1.09083E-01
 -1      3668 1.04802E-01
 -1      3670 1.09083E-01
 -1      3671 1.04802E-01
 -1      3673 1.09083E-01
 -1      3674 1.04802E-01
 -1      3676 1.09083E-01
 -1      3678 1.18617E-01
 -1      3679 1.13850E-01
 -1      3681 1.18617E-01
 -1      3682 1.13850E-01
 -1      3684 1.18617E-01
 -1      3685 1.13850E-01
 -1      3687 1.18617E-01
 -1      3688 1.13850E-01
 -1      3690 1.18617E-01
 -1      3691 1.13850E-01
 -1      3693 1.18617E-01
 -1      3694 1.13850E-01
 -1      3696 1.18617E-01
 -1      3697 1.13850E-01
 -1      3699 1.18617E-01
 -1      3700 1.13850E-01
 -1      3702 1.18617E-01
 -1      3703 1.13850E-01
 -1      3705 1.18617E-01
 -1      3706 1.13850E-01
 -1      3708 1.18617E-01
 -1      3710 1.29260E-01
 -1      3711 1.23938E-01
 -1      3713 1.29260E-01
 -1      3714 1.23938E-01
 -1      3716 1.29260E-01
 -1      3717 1.23938E-01
 -1      3719 1.29260E-01
 -1      3720 1.23938E-01
 -1      3722 1.29260E-01
 -1      3723 1.23938E-01
 -1      3725 1.29260E-01
 -1      3726 1.23938E-01
 -1      3728 1.29260E-01
 -1      3729 1.23938E-01
 -1      3731 1.29260E-01
 -1      3732 1.23938E-01
 -1      3734 1.29260E-01
 -1      3735 1.23938E-01
 -1      3737 1.29260E-01
 -1      3738 1.23938E-01
 -1      3740 1.29260E-01
 -1      3742 1.41172E-01
 -1      3743 1.35216E-01
 -1      3745 1.41172E-01
 -1      3746 1.35216E-01
 -1      3748 1.41172E-01
 -1      3749 1.35216E-01
 -1      3751 1.41172E-01
 -1      3752 1.35216E-01
 -1      3754 1.41172E-01
 -1      3755 1.35216E-01
 -1      3757 1.41172E-01
 -1      3758 1.35216E-01
 -1      3760 1.41172E-01
 -1      3761 1.35216E-01
 -1      3763 1.41172E-01
 -1      3764 1.35216E-01
 -1      3766 1.41172E-01
 -1      3767 1.35216E-01
 -1      3769 1.41172E-01
 -1      3770 1.35216E-01
 -1      3772 1.41172E-01
 -1      3774 1.54540E-01
 -1      3775 1.47856E-01
 -1      3777 1.54540E-01
 -1      3778 1.47856E-01
 -1      3780 1.54540E-01
 -1      3781 1.47856E-01
 -1      3783 1.54540E-01
 -1      3784 1.47856E-01
 -1      3786 1.54540E-01
 -1      3787 1.47856E-01
 -1      3789 1.54540E-01
 -1      3790 1.47856E-01
 -1      3792 1.54540E-01
 -1      3793 1.47856E-01
 -1      3795 1.54540E-01
 -1      3796 1.47856E-01
 -1      3798 1.54540E-01
 -1      3799 1.47856E-01
 -1      3801 1.54540E-01
 -1      3802 1.47856E-01
 -1      3804 1.54540E-01
 -1      3806 1.69588E-01
 -1      3807 1.62064E-01
 -1      3809 1.69588E-01
 -1      3810 1.62064E-01
 -1      3812 1.69588E-01
 -1      3813 1.62064E-01
 -1      3815 1.69588E-01
 -1      3816 1.62064E-01
 -1      3818 1.69588E-01
 -1      3819 1.62064E-01
 -1      3821 1.69588E-01
 -1      3822 1.62064E-01
 -1      3824 1.69588E-01
 -1      3825 1.62064E-01
 -1      3827 1.69588E-01
 -1      3828 1.62064E-01
 -1      3830 1.69588E-01
 -1      3831 1.62064E-01
 -1      3833 1.69588E-01
 -1      3834 1.62064E-01
 -1      3836 1.69588E-01
 -1      3838 1.86575E-01
 -1      3839 1.78081E-01
 -1      3841 1.86575E-01
 -1      3842 1.78081E-01
 -1      3844 1.86575E-01
 -1      3845 1.78081E-01
 -1      3847 1.86575E-01
 -1      3848 1.78081E-01
 -1      3850 1.86575E-01
 -1      3851 1.78081E-01
 -1      3853 1.86575E-01
 -1      3854 1.78081E-01
 -1      3856 1.86575E-01
 -1      3857 1.78081E-01
 -1      3859 1.86575E-01
 -1      3860 1.78081E-01
 -1      3862 1.86575E-01
 -1      3863 1.78081E-01
 -1      3865 1.86575E-01
 -1      3866 1.78081E-01
 -1      3868 1.86575E-01
 -1      3870 2.05810E-01
 -1      3871 1.96192E-01
 -1      3873 2.05810E-01
 -1      3874 1.96192E-01
 -1      3876 2.05810E-01
 -1      3877 1.96192E-01
 -1      3879 2.05810E-01
 -1      3880 1.96192E-01
 -1      3882 2.05810E-01
 -1      3883 1.96192E-01
 -1      3885 2.05810E-01
 -1      3886 1.96192E-01
 -1      3888 2.05810E-01
 -1      3889 1.96192E-01
 -1      3891 2.05810E-01
 -1      3892 1.96192E-01
 -1      3894 2.05810E-01
 -1      3895 1.96192E-01
 -1      3897 2.05810E-01
 -1      3898 1.96192E-01
 -1      3900 2.05810E-01
 -1      3902 2.27662E-01
 -1      3903 2.16736E-01
 -1      3905 2.27662E-01
 -1      3906 2.16736E-01
 -1      3908 2.27662E-01
 -1      3909 2.16736E-01
 -1      3911 2.27662E-01
 -1      3912 2.16736E-01
 -1      3914 2.27662E-01
 -1      3915 2.16736E-01
 -1      3917 2.27662E-01
 -1      3918 2.16736E-01
 -1      3920 2.27662E-01
 -1      3921 2.16736E-01
 -1      3923 2.27662E-01
 -1      3924 2.16736E-01
 -1      3926 2.27662E-01
 -1      3927 2.16736E-01
 -1      3929 2.27662E-01
 -1      3930 2.16736E-01
 -1      3932 2.27662E-01
 -1      3934 2.52568E-01
 -1      3935 2.40115E-01
 -1      3937 2.52568E-01
 -1      3938 2.40115E-01
 -1      3940 2.52568E-01
 -1      3941 2.40115E-01
 -1      3943 2.52568E-01
 -1      3944 2.40115E-01
 -1      3946 2.52568E-01
 -1      3947 2.40115E-01
 -1      3949 2.52568E-01
 -1      3950 2.40115E-01
 -1      3952 2.52568E-01
 -1      3953 2.40115E-01
 -1      3955 2.52568E-01
 -1      3956 2.40115E-01
 -1      3958 2.52568E-01
 -1      3959 2.40115E-01
 -1      3961 2.52568E-01
 -1      3962 2.40115E-01
 -1      3964 2.52568E-01
 -1      3966 2.81054E-01
 -1      3967 2.66811E-01
 -1      3969 2.81054E-01
 -1      3970 2.66811E-01
 -1      3972 2.81054E-01
 -1      3973 2.66811E-01
 -1      3975 2.81054E-01
 -1      3976 2.66811E-01
 -1      3978 2.81054E-01
 -1      3979 2.66811E-01
 -1      3981 2.81054E-01
 -1      3982 2.66811E-01
 -1      3984 2.81054E-01
 -1      3985 2.66811E-01
 -1      3987 2.81054E-01
 -1      3988 2.66811E-01
 -1      3990 2.81054E-01
 -1      3991 2.66811E-01
 -1      3993 2.81054E-01
 -1      3994 2.66811E-01
 -1      3996 2.81054E-01
 -1      3998 3.13751E-01
 -1      3999 2.97402E-01
 -1      4001 3.13751E-01
 -1      4002 2.97402E-01
 -1      4004 3.13751E-01
 -1      4005 2.97402E-01
 -1      4007 3.13751E-01
 -1      4008 2.97402E-01
 -1      4010 3.13751E-01
 -1      4011 2.97402E-01
 -1      4013 3.13751E-01
 -1      4014 2.97402E-01
 -1      4016 3.13751E-01
 -1      4017 2.97402E-01
 -1      4019 3.13751E-01
 -1      4020 2.97402E-01
 -1      4022 3.13751E-01
 -1      4023 2.97402E-01
 -1      4025 3.13751E-01
 -1      4026 2.97402E-01
 -1      4028 3.13751E-01
 -1      4030 3.51419E-01
 -1      4031 3.32585E-01
 -1      4033 3.51419E-01
 -1      4034 3.32585E-01
 -1      4036 3.51419E-01
 -1      4037 3.32585E-01
 -1      4039 3.51419E-01
 -1      4040 3.32585E-01
 -1      4042 3.51419E-01
 -1      4043 3.32585E-01
 -1      4045 3.51419E-01
 -1      4046 3.32585E-01
 -1      4048 3.51419E-01
 -1      4049 3.32585E-01
 -1      4051 3.51419E-01
 -1      4052 3.32585E-01
 -1      4054 3.51419E-01
 -1      4055 3.32585E-01
 -1      4057 3.51419E-01
 -1      4058 3.32585E-01
 -1      4060 3.51419E-01
 -1      4062 3.94983E-01
 -1      4063 3.73201E-01
 -1      4065 3.94983E-01
 -1      4066 3.73201E-01
 -1      4068 3.94983E-01
 -1      4069 3.73201E-01
 -1      4071 3.94983E-01
 -1      4072 3.73201E-01
 -1      4074 3.94983E-01
 -1      4075 3.73201E-01
 -1      4077 3.94983E-01
 -1      4078 3.73201E-01
 -1      4080 3.94983E-01
 -1      4081 3.73201E-01
 -1      4083 3.94983E-01
 -1      4084 3.73201E-01
 -1      4086 3.94983E-01
 -1      4087 3.73201E-01
 -1      4089 3.94983E-01
 -1      4090 3.73201E-01
 -1      4092 3.94983E-01
 -1      4094 4.45565E-01
 -1      4095 4.20274E-01
 -1      4097 4.45565E-01
 -1      4098 4.20274E-01
 -1      4100 4.45565E-01
 -1      4101 4.20274E-01
 -1      4103 4.45565E-01
 -1      4104 4.20274E-01
 -1      4106 4.45565E-01
 -1      4107 4.20274E-01
 -1      4109 4.45565E-01
 -1      4110 4.20274E-01
 -1      4112 4.45565E-01
 -1      4113 4.20274E-01
 -1      4115 4.45565E-01
 -1      4116 4.20274E-01
 -1      4118 4.45565E-01
 -1      4119 4.20274E-01
 -1      4121 4.45565E-01
 -1      4122 4.20274E-01
 -1      4124 4.45565E-01
 -1      4126 5.04539E-01
 -1      4127 4.75052E-01
 -1      4129 5.04539E-01
 -1      4130 4.75052E-01
 -1      4132 5.04539E-01
 -1      4133 4.75052E-01
 -1      4135 5.04539E-01
 -1      4136 4.75052E-01
 -1      4138 5.04539E-01
 -1      4139 4.75052E-01
 -1      4141 5.04539E-01
 -1      4142 4.75052E-01
 -1      4144 5.04539E-01
 -1      4145 4.75052E-01
 -1      4147 5.04539E-01
 -1      4148 4.75052E-01
 -1      4150 5.04539E-01
 -1      4151 4.75052E-01
 -1      4153 5.04539E-01
 -1      4154 4.75052E-01
 -1      4156 5.04539E-01
 -1      4158 5.73593E-01
 -1      4159 5.39066E-01
 -1      4161 5.73593E-01
 -1      4162 5.39066E-01
 -1      4164 5.73593E-01
 -1      4165 5.39066E-01
 -1      4167 5.73593E-01
 -1      4168 5.39066E-01
 -1      4170 5.73592E-01
 -1      4171 5.39066E-01
 -1      4173 5.73592E-01
 -1      4174 5.39066E-01
 -1      4176 5.73592E-01
 -1      4177 5.39066E-01
 -1      4179 5.73593E-01
 -1      4180 5.39066E-01
 -1      4182 5.73593E-01
 -1      4183 5.39066E-01
 -1      4185 5.73593E-01
 -1      4186 5.39066E-01
 -1      4188 5.73593E-01
 -1      4190 6.54810E-01
 -1      4191 6.14201E-01
 -1      4193 6.54810E-01
 -1      4194 6.14201E-01
 -1      4196 6.54810E-01
 -1      4197 6.14201E-01
 -1      4199 6.54810E-01
 -1      4200 6.14201E-01
 -1      4202 6.54810E-01
 -1      4203 6.14201E-01
 -1      4205 6.54810E-01
 -1      4206 6.14201E-01
 -1      4208 6.54810E-01
 -1      4209 6.14201E-01
 -1      4211 6.54810E-01
 -1      4212 6.14201E-01
 -1      4214 6.54810E-01
 -1      4215 6.14201E-01
 -1      4217 6.54810E-01
 -1      4218 6.14201E-01
 -1      4220 6.54810E-01
 -1      4222 7.50790E-01
 -1      4223 7.02800E-01
 -1      4225 7.50790E-01
 -1      4226 7.02800E-01
 -1      4228 7.50790E-01
 -1      4229 7.02800E-01
 -1      4231 7.50790E-01
 -1      4232 7.02800E-01
 -1      4234 7.50790E-01
 -1      4235 7.02800E-01
 -1      4237 7.50790E-01
 -1      4238 7.02800E-01
 -1      4240 7.50790E-01
 -1      4241 7.02800E-01
 -1      4243 7.50790E-01
 -1      4244 7.02800E-01
 -1      4246 7.50790E-01
 -1      4247 7.02800E-01
 -1      4249 7.50790E-01
 -1      4250 7.02800E-01
 -1      4252 7.50790E-01
 -1      4254 8.64772E-01
 -1      4255 8.07781E-01
 -1      4257 8.64771E-01
 -1      4258 8.07780E-01
 -1      4260 8.64769E-01
 -1      4261 8.07779E-01
 -1      4263 8.64769E-01
 -1      4264 8.07779E-01
 -1      4266 8.64769E-01
 -1      4267 8.07779E-01
 -1      4269 8.64769E-01
 -1      4270 8.07779E-01
 -1      4272 8.64769E-01
 -1      4273 8.07779E-01
 -1      4275 8.64769E-01
 -1      4276 8.07779E-01
 -1      4278 8.64769E-01
 -1      4279 8.07780E-01
 -1      4281 8.64771E-01
 -1      4282 8.07781E-01
 -1      4284 8.64772E-01
 -1      4286 1.00093E+00
 -1      4287 9.32851E-01
 -1      4289 1.00093E+00
 -1      4290 9.32850E-01
 -1      4292 1.00093E+00
 -1      4293 9.32850E-01
 -1      4295 1.00093E+00
 -1      4296 9.32848E-01
 -1      4298 1.00093E+00
 -1      4299 9.32848E-01
 -1      4301 1.00093E+00
 -1      4302 9.32848E-01
 -1      4304 1.00093E+00
 -1      4305 9.32848E-01
 -1      4307 1.00093E+00
 -1      4308 9.32850E-01
 -1      4310 1.00093E+00
 -1      4311 9.32850E-01
 -1      4313 1.00093E+00
 -1      4314 9.32851E-01
 -1      4316 1.00093E+00
 -1      4318 1.16436E+00
 -1      4319 1.08265E+00
 -1      4321 1.16435E+00
 -1      4322 1.08263E+00
 -1      4324 1.16434E+00
 -1      4325 1.08263E+00
 -1      4327 1.16434E+00
 -1      4328 1.08263E+00
 -1      4330 1.16434E+00
 -1      4331 1.08263E+00
 -1      4333 1.16434E+00
 -1      4334 1.08263E+00
 -1      4336 1.16434E+00
 -1      4337 1.08263E+00
 -1      4339 1.16434E+00
 -1      4340 1.08263E+00
 -1      4342 1.16434E+00
 -1      4343 1.08263E+00
 -1      4345 1.16435E+00
 -1      4346 1.08265E+00
 -1      4348 1.16436E+00
 -1      4350 1.33229E+00
 -1      4351 1.24833E+00
 -1      4353 1.33227E+00
 -1      4354 1.24829E+00
 -1      4356 1.33225E+00
 -1      4357 1.24829E+00
 -1      4359 1.33224E+00
 -1      4360 1.24829E+00
 -1      4362 1.33224E+00
 -1      4363 1.24829E+00
 -1      4365 1.33224E+00
 -1      4366 1.24829E+00
 -1      4368 1.33224E+00
 -1      4369 1.24829E+00
 -1      4371 1.33224E+00
 -1      4372 1.24829E+00
 -1      4374 1.33225E+00
 -1      4375 1.24829E+00
 -1      4377 1.33227E+00
 -1      4378 1.24833E+00
 -1      4380 1.33229E+00
 -1      4382 1.33229E+00
 -1      4384 1.33225E+00
 -1      4386 1.33224E+00
 -1      4388 1.33224E+00
 -1      4390 1.33224E+00
 -1      4392 1.33224E+00
 -1      4394 1.33224E+00
 -1      4396 1.33224E+00
 -1      4398 1.33225E+00
 -1      4400 1.33229E+00
 -1      4403 1.33229E+00
 -1      4404 1.33225E+00
 -1      4405 1.33224E+00
 -1      4406 1.33224E+00
 -1      4407 1.33224E+00
 -1      4408 1.33224E+00
 -1      4409 1.33224E+00
 -1      4410 1.33224E+00
 -1      4411 1.33225E+00
 -1      4412 1.33229E+00
 -1      4413 1.33229E+00
 -1      4414 1.33225E+00
 -1      4415 1.33224E+00
 -1      4416 1.33224E+00
 -1      4417 1.33224E+00
 -1      4418 1.33224E+00
 -1      4419 1.33224E+00
 -1      4420 1.33224E+00
 -1      4421 1.33225E+00
 -1      4422 1.33229E+00
 -1      4423 1.33229E+00
 -1      4424 1.33225E+00
 -1      4425 1.33224E+00
 -1      4426 1.33224E+00
 -1      4427 1.33224E+00
 -1      4428 1.33224E+00
 -1      4429 1.33224E+00
 -1      4430 1.33224E+00
 -1      4431 1.33225E+00
 -1      4432 1.33229E+00
 -1      4433 1.33229E+00
 -1      4434 1.33225E+00
 -1      4435 1.33224E+00
 -1      4436 1.33224E+00
 -1      4437 1.33224E+00
 -1      4438 1.33224E+00
 -1      4439 1.33224E+00
 -1      4440 1.33224E+00
 -1      4441 1.33225E+00
 -1      4442 1.33229E+00
 -1      4443 1.33229E+00
 -1      4444 1.33225E+00
 -1      4445 1.33224E+00
 -1      4446 1.33224E+00
 -1      4447 1.33224E+00
 -1      4448 1.33224E+00
 -1      4449 1.33224E+00
 -1      4450 1.33224E+00
 -1      4451 1.33225E+00
 -1      4452 1.33229E+00
 -1      4453 1.33229E+00
 -1      4454 1.33225E+00
 -1      4455 1.33224E+00
 -1      4456 1.33224E+00
 -1      4457 1.33224E+00
 -1      4458 1.33224E+00
 -1      4459 1.33224E+00
 -1      4460 1.33224E+00
 -1      4461 1.33225E+00
 -1      4462 1.33229E+00
 -1      4463 1.33229E+00
 -1      4464 1.33225E+00
 -1      4465 1.33224E+00
 -1      4466 1.33224E+00
 -1      4467 1.33224E+00
 -1      4468 1.33224E+00
 -1      4469 1.33224E+00
 -1      4470 1.33224E+00
 -1      4471 1.33225E+00
 -1      4472 1.33229E+00
 -1      4473 1.33229E+00
 -1      4474 1.33225E+00
 -1      4475 1.33224E+00
 -1      4476 1.33224E+00
 -1      4477 1.33224E+00
 -1      4478 1.33224E+00
 -1      4479 1.33224E+00
 -1      4480 1.33224E+00
 -1      4481 1.33225E+00
 -1      4482 1.33229E+00
 -1      4483 1.33229E+00
 -1      4484 1.33225E+00
 -1      4485 1.33224E+00
 -1      4486 1.33224E+00
 -1      4487 1.33224E+00
 -1      4488 1.33224E+00
 -1      4489 1.33224E+00
 -1      4490 1.33224E+00
 -1      4491 1.33225E+00
 -1      4492 1.33229E+00
 -1      4493 1.33229E+00
 -1      4494 1.33229E+00
 -1      4496 1.33227E+00
 -1      4497 1.33225E+00
 -1      4499 1.33225E+00
 -1      4500 1.33224E+00
 -1      4502 1.33224E+00
 -1      4503 1.33224E+00
 -1      4505 1.33224E+00
 -1      4506 1.33224E+00
 -1      4508 1.33224E+00
 -1      4509 1.33224E+00
 -1      4511 1.33224E+00
 -1      4512 1.33224E+00
 -1      4514 1.33224E+00
 -1      4515 1.33224E+00
 -1      4517 1.33225E+00
 -1      4518 1.33225E+00
 -1      4520 1.33227E+00
 -1      4521 1.33229E+00
 -1      4523 1.33229E+00
 -1      4525 1.33229E+00
 -1      4526 1.33229E+00
 -1      4528 1.33227E+00
 -1      4529 1.33225E+00
 -1      4531 1.33225E+00
 -1      4532 1.33224E+00
 -1      4534 1.33224E+00
 -1      4535 1.33224E+00
 -1      4537 1.33224E+00
 -1      4538 1.33224E+00
 -1      4540 1.33224E+00
 -1      4541 1.33224E+00
 -1      4543 1.33224E+00
 -1      4544 1.33224E+00
 -1      4546 1.33224E+00
 -1      4547 1.33224E+00
 -1      4549 1.33225E+00
 -1      4550 1.33225E+00
 -1      4552 1.33227E+00
 -1      4553 1.33229E+00
 -1      4555 1.33229E+00
 -1      4557 1.33229E+00
 -1      4558 1.33229E+00
 -1      4560 1.33227E+00
 -1      4561 1.33225E+00
 -1      4563 1.33225E+00
 -1      4564 1.33224E+00
 -1      4566 1.33224E+00
 -1      4567 1.33224E+00
 -1      4569 1.33224E+00
 -1      4570 1.33224E+00
 -1      4572 1.33224E+00
 -1      4573 1.33224E+00
 -1      4575 1.33224E+00
 -1      4576 1.33224E+00
 -1      4578 1.33224E+00
 -1      4579 1.33224E+00
 -1      4581 1.33225E+00
 -1      4582 1.33225E+00
 -1      4584 1.33227E+00
 -1      4585 1.33229E+00
 -1      4587 1.33229E+00
 -1      4589 1.33229E+00
 -1      4590 1.33229E+00
 -1      4592 1.33227E+00
 -1      4593 1.33225E+00
 -1      4595 1.33225E+00
 -1      4596 1.33224E+00
 -1      4598 1.33224E+00
 -1      4599 1.33224E+00
 -1      4601 1.33224E+00
 -1      4602 1.33224E+00
 -1      4604 1.33224E+00
 -1      4605 1.33224E+00
 -1      4607 1.33224E+00
 -1      4608 1.33224E+00
 -1      4610 1.33224E+00
 -1      4611 1.33224E+00
 -1      4613 1.33225E+00
 -1      4614 1.33225E+00
 -1      4616 1.33227E+00
 -1      4617 1.33229E+00
 -1      4619 1.33229E+00
 -1      4621 1.33229E+00
 -1      4622 1.33229E+00
 -1      4624 1.33227E+00
 -1      4625 1.33225E+00
 -1      4627 1.33225E+00
 -1      4628 1.33224E+00
 -1      4630 1.33224E+00
 -1      4631 1.33224E+00
 -1      4633 1.33224E+00
 -1      4634 1.33224E+00
 -1      4636 1.33224E+00
 -1      4637 1.33224E+00
 -1      4639 1.33224E+00
 -1      4640 1.33224E+00
 -1      4642 1.33224E+00
 -1      4643 1.33224E+00
 -1      4645 1.33225E+00
 -1      4646 1.33225E+00
 -1      4648 1.33227E+00
 -1      4649 1.33229E+00
 -1      4651 1.33229E+00
 -1      4653 1.33229E+00
 -1      4654 1.33229E+00
 -1      4656 1.33227E+00
 -1      4657 1.33225E+00
 -1      4659 1.33225E+00
 -1      4660 1.33224E+00
 -1      4662 1.33224E+00
 -1      4663 1.33224E+00
 -1      4665 1.33224E+00
 -1      4666 1.33224E+00
 -1      4668 1.33224E+00
 -1      4669 1.33224E+00
 -1      4671 1.33224E+00
 -1      4672 1.33224E+00
 -1      4674 1.33224E+00
 -1      4675 1.33224E+00
 -1      4677 1.33225E+00
 -1      4678 1.33225E+00
 -1      4680 1.33227E+00
 -1      4681 1.33229E+00
 -1      4683 1.33229E+00
 -1      4685 1.33229E+00
 -1      4686 1.33229E+00
 -1      4688 1.33227E+00
 -1      4689 1.33225E+00
 -1      4691 1.33225E+00
 -1      4692 1.33224E+00
 -1      4694 1.33224E+00
 -1      4695 1.33224E+00
 -1      4697 1.33224E+00
 -1      4698 1.33224E+00
 -1      4700 1.33224E+00
 -1      4701 1.33224E+00
 -1      4703 1.33224E+00
 -1      4704 1.33224E+00
 -1      4706 1.33224E+00
 -1      4707 1.33224E+00
 -1      4709 1.33225E+00
 -1      4710 1.33225E+00
 -1      4712 1.33227E+00
 -1      4713 1.33229E+00
 -1      4715 1.33229E+00
 -1      4717 1.33229E+00
 -1      4718 1.33229E+00
 -1      4720 1.33227E+00
 -1      4721 1.33225E+00
 -1      4723 1.33225E+00
 -1      4724 1.33224E+00
 -1      4726 1.33224E+00
 -1      4727 1.33224E+00
 -1      4729 1.33224E+00
 -1      4730 1.33224E+00
 -1      4732 1.33224E+00
 -1      4733 1.33224E+00
 -1      4735 1.33224E+00
 -1      4736 1.33224E+00
 -1      4738 1.33224E+00
 -1      4739 1.33224E+00
 -1      4741 1.33225E+00
 -1      4742 1.33225E+00
 -1      4744 1.33227E+00
 -1      4745 1.33229E+00
 -1      4747 1.33229E+00
 -1      4749 1.33229E+00
 -1      4750 1.33229E+00
 -1      4752 1.33227E+00
 -1      4753 1.33225E+00
 -1      4755 1.33225E+00
 -1      4756 1.33224E+00
 -1      4758 1.33224E+00
 -1      4759 1.33224E+00
 -1      4761 1.33224E+00
 -1      4762 1.33224E+00
 -1      4764 1.33224E+00
 -1      4765 1.33224E+00
 -1      4767 1.33224E+00
 -1      4768 1.33224E+00
 -1      4770 1.33224E+00
 -1      4771 1.33224E+00
 -1      4773 1.33225E+00
 -1      4774 1.33225E+00
 -1      4776 1.33227E+00
 -1      4777 1.33229E+00
 -1      4779 1.33229E+00
 -1      4781 1.33229E+00
 -1      4783 1.33225E+00
 -1      4785 1.33224E+00
 -1      4787 1.33224E+00
 -1      4789 1.33224E+00
 -1      4791 1.33224E+00
 -1      4793 1.33224E+00
 -1      4795 1.33224E+00
 -1      4797 1.33225E+00
 -1      4799 1.33229E+00
 -1      4802 1.33229E+00
 -1      4803 1.33229E+00
 -1      4804 1.33229E+00
 -1      4805 1.33229E+00
 -1      4806 1.33229E+00
 -1      4807 1.33229E+00
 -1      4808 1.33229E+00
 -1      4809 1.33229E+00
 -1      4810 1.33229E+00
 -1      4811 1.16436E+00
 -1      4812 1.16436E+00
 -1      4813 1.16436E+00
 -1      4814 1.16436E+00
 -1      4815 1.16436E+00
 -1      4816 1.16436E+00
 -1      4817 1.16436E+00
 -1      4818 1.16436E+00
 -1      4819 1.16436E+00
 -1      4820 1.00092E+00
 -1      4821 1.00092E+00
 -1      4822 1.00092E+00
 -1      4823 1.00092E+00
 -1      4824 1.00092E+00
 -1      4825 1.00092E+00
 -1      4826 1.00092E+00
 -1      4827 1.00092E+00
 -1      4828 1.00092E+00
 -1      4829 8.64772E-01
 -1      4830 8.64772E-01
 -1      4831 8.64772E-01
 -1      4832 8.64772E-01
 -1      4833 8.64772E-01
 -1      4834 8.64772E-01
 -1      4835 8.64772E-01
 -1      4836 8.64772E-01
 -1      4837 8.64772E-01
 -1      4838 7.50790E-01
 -1      4839 7.50790E-01
 -1      4840 7.50790E-01
 -1      4841 7.50790E-01
 -1      4842 7.50790E-01
 -1      4843 7.50790E-01
 -1      4844 7.50790E-01
 -1      4845 7.50790E-01
 -1      4846 7.50790E-01
 -1      4847 6.54810E-01
 -1      4848 6.54810E-01
 -1      4849 6.54810E-01
 -1      4850 6.54810E-01
 -1      4851 6.54810E-01
 -1      4852 6.54810E-01
 -1      4853 6.54810E-01
 -1      4854 6.54810E-01
 -1      4855 6.54810E-01
 -1      4856 5.73592E-01
 -1      4857 5.73592E-01
 -1      4858 5.73592E-01
 -1      4859 5.73592E-01
 -1      4860 5.73592E-01
 -1      4861 5.73592E-01
 -1      4862 5.73592E-01
 -1      4863 5.73592E-01
 -1      4864 5.73592E-01
 -1      4865 5.04539E-01
 -1      4866 5.04539E-01
 -1      4867 5.04539E-01
 -1      4868 5.04539E-01
 -1      4869 5.04539E-01
 -1      4870 5.04539E-01
 -1      4871 5.04539E-01
 -1      4872 5.04539E-01
 -1      4873 5.04539E-01
 -1      4874 4.45565E-01
 -1      4875 4.45565E-01
 -1      4876 4.45565E-01
 -1      4877 4.45565E-01
 -1      4878 4.45565E-01
 -1      4879 4.45565E-01
 -1      4880 4.45565E-01
 -1      4881 4.45565E-01
 -1      4882 4.45565E-01
 -1      4883 3.94983E-01
 -1      4884 3.94983E-01
 -1      4885 3.94983E-01
 -1      4886 3.94983E-01
 -1      4887 3.94983E-01
 -1      4888 3.94983E-01
 -1      4889 3.94983E-01
 -1      4890 3.94983E-01
 -1      4891 3.94983E-01
 -1      4892 3.51419E-01
 -1      4893 3.51419E-01
 -1      4894 3.51419E-01
 -1      4895 3.51419E-01
 -1      4896 3.51419E-01
 -1      4897 3.51419E-01
 -1      4898 3.51419E-01
 -1      4899 3.51419E-01
 -1      4900 3.51419E-01
 -1      4901 3.13751E-01
 -1      4902 3.13751E-01
 -1      4903 3.13751E-01
 -1      4904 3.13751E-01
 -1      4905 3.13751E-01
 -1      4906 3.13751E-01
 -1      4907 3.13751E-01
 -1      4908 3.13751E-01
 -1      4909 3.13751E-01
 -1      4910 2.81054E-01
 -1      4911 2.81054E-01
 -1      4912 2.81054E-01
 -1      4913 2.81054E-01
 -1      4914 2.81054E-01
 -1      4915 2.81054E-01
 -1      4916 2.81054E-01
 -1      4917 2.81054E-01
 -1      4918 2.81054E-01
 -1      4919 2.52568E-01
 -1      4920 2.52568E-01
 -1      4921 2.52568E-01
 -1      4922 2.52568E-01
 -1      4923 2.52568E-01
 -1      4924 2.52568E-01
 -1      4925 2.52568E-01
 -1      4926 2.52568E-01
 -1      4927 2.52568E-01
 -1      4928 2.27662E-01
 -1      4929 2.27662E-01
 -1      4930 2.27662E-01
 -1      4931 2.27662E-01
 -1      4932 2.27662E-01
 -1      4933 2.27662E-01
 -1      4934 2.27662E-01
 -1      4935 2.27662E-01
 -1      4936 2.27662E-01
 -1      4937 2.05810E-01
 -1      4938 2.05810E-01
 -1      4939 2.05810E-01
 -1      4940 2.05810E-01
 -1      4941 2.05810E-01
 -1      4942 2.05810E-01
 -1      4943 2.05810E-01
 -1      4944 2.05810E-01
 -1      4945 2.05810E-01
 -1      4946 1.86575E-01
 -1      4947 1.86575E-01
 -1      4948 1.86575E-01
 -1      4949 1.86575E-01
 -1      4950 1.86575E-01
 -1      4951 1.86575E-01
 -1      4952 1.86575E-01
 -1      4953 1.86575E-01
 -1      4954 1.86575E-01
 -1      4955 1.69588E-01
 -1      4956 1.69588E-01
 -1      4957 1.69588E-01
 -1      4958 1.69588E-01
 -1      4959 1.69588E-01
 -1      4960 1.69588E-01
 -1      4961 1.69588E-01
 -1      4962 1.69588E-01
 -1      4963 1.69588E-01
 -1      4964 1.54540E-01
 -1      4965 1.54540E-01
 -1      4966 1.54540E-01
 -1      4967 1.54540E-01
 -1      4968 1.54540E-01
 -1      4969 1.54540E-01
 -1      4970 1.54540E-01
 -1      4971 1.54540E-01
 -1      4972 1.54540E-01
 -1      4973 1.41171E-01
 -1      4974 1.41171E-01
 -1      4975 1.41172E-01
 -1      4976 1.41172E-01
 -1      4977 1.41172E-01
 -1      4978 1.41172E-01
 -1      4979 1.41172E-01
 -1      4980 1.41172E-01
 -1      4981 1.41172E-01
 -1      4982 1.29260E-01
 -1      4983 1.29260E-01
 -1      4984 1.29260E-01
 -1      4985 1.29260E-01
 -1      4986 1.29260E-01
 -1      4987 1.29260E-01
 -1      4988 1.29260E-01
 -1      4989 1.29260E-01
 -1      4990 1.29260E-01
 -1      4991 1.18617E-01
 -1      4992 1.18617E-01
 -1      4993 1.18617E-01
 -1      4994 1.18617E-01
 -1      4995 1.18617E-01
 -1      4996 1.18617E-01
 -1      4997 1.18617E-01
 -1      4998 1.18617E-01
 -1      4999 1.18617E-01
 -1      5000 1.09083E-01
 -1      5001 1.09083E-01
 -1      5002 1.09083E-01
 -1      5003 1.09083E-01
 -1      5004 1.09083E-01
 -1      5005 1.09083E-01
 -1      5006 1.09083E-01
 -1      5007 1.09083E-01
 -1      5008 1.09083E-01
 -1      5009 1.00521E-01
 -1      5010 1.00521E-01
 -1      5011 1.00521E-01
 -1      5012 1.00521E-01
 -1      5013 1.00521E-01
 -1      5014 1.00521E-01
 -1      5015 1.00521E-01
 -1      5016 1.00521E-01
 -1      5017 1.00521E-01
 -1      5018 9.28113E-02
 -1      5019 9.28113E-02
 -1      5020 9.28113E-02
 -1      5021 9.28114E-02
 -1      5022 9.28114E-02
 -1      5023 9.28113E-02
 -1      5024 9.28113E-02
 -1      5025 9.28114E-02
 -1      5026 9.28114E-02
 -1      5027 8.58558E-02
 -1      5028 8.58558E-02
 -1      5029 8.58558E-02
 -1      5030 8.58559E-02
 -1      5031 8.58559E-02
 -1      5032 8.58558E-02
 -1      5033 8.58559E-02
 -1      5034 8.58560E-02
 -1      5035 8.58560E-02
 -1      5036 7.95587E-02
 -1      5037 7.95587E-02
 -1      5038 7.95587E-02
 -1      5039 7.95588E-02
 -1      5040 7.95588E-02
 -1      5041 7.95588E-02
 -1      5042 7.95589E-02
 -1      5043 7.95590E-02
 -1      5044 7.95590E-02
 -1      5045 7.38754E-02
 -1      5046 7.38754E-02
 -1      5047 7.38753E-02
 -1      5048 7.38757E-02
 -1      5049 7.38757E-02
 -1      5050 7.38756E-02
 -1      5051 7.38761E-02
 -1      5052 7.38761E-02
 -1      5053 7.38761E-02
 -1      5054 6.86101E-02
 -1      5055 6.86107E-02
 -1      5056 6.86107E-02
 -1      5057 6.86106E-02
 -1      5058 6.86120E-02
 -1      5059 6.86129E-02
 -1      5060 6.86129E-02
 -1      5061 6.86109E-02
 -1      5062 6.86174E-02
 -1      5063 1.33229E+00
 -1      5064 1.33229E+00
 -1      5066 1.33229E+00
 -1      5067 1.33229E+00
 -1      5069 1.33229E+00
 -1      5070 1.33229E+00
 -1      5072 1.33229E+00
 -1      5073 1.33229E+00
 -1      5075 1.33229E+00
 -1      5076 1.33229E+00
 -1      5078 1.33229E+00
 -1      5079 1.33229E+00
 -1      5081 1.33229E+00
 -1      5082 1.33229E+00
 -1      5084 1.33229E+00
 -1      5085 1.33229E+00
 -1      5087 1.33229E+00
 -1      5088 1.33229E+00
 -1      5090 1.33229E+00
 -1      5092 1.16436E+00
 -1      5093 1.24833E+00
 -1      5095 1.16436E+00
 -1      5096 1.24833E+00
 -1      5098 1.16436E+00
 -1      5099 1.24833E+00
 -1      5101 1.16436E+00
 -1      5102 1.24833E+00
 -1      5104 1.16436E+00
 -1      5105 1.24833E+00
 -1      5107 1.16436E+00
 -1      5108 1.24833E+00
 -1      5110 1.16436E+00
 -1      5111 1.24833E+00
 -1      5113 1.16436E+00
 -1      5114 1.24833E+00
 -1      5116 1.16436E+00
 -1      5117 1.24833E+00
 -1      5119 1.16436E+00
 -1      5121 1.00092E+00
 -1      5122 1.08264E+00
 -1      5124 1.00092E+00
 -1      5125 1.08264E+00
 -1      5127 1.00092E+00
 -1      5128 1.08264E+00
 -1      5130 1.00092E+00
 -1      5131 1.08264E+00
 -1      5133 1.00092E+00
 -1      5134 1.08264E+00
 -1      5136 1.00092E+00
 -1      5137 1.08264E+00
 -1      5139 1.00092E+00
 -1      5140 1.08264E+00
 -1      5142 1.00092E+00
 -1      5143 1.08264E+00
 -1      5145 1.00092E+00
 -1      5146 1.08264E+00
 -1      5148 1.00092E+00
 -1      5150 8.64772E-01
 -1      5151 9.32848E-01
 -1      5153 8.64772E-01
 -1      5154 9.32848E-01
 -1      5156 8.64772E-01
 -1      5157 9.32848E-01
 -1      5159 8.64772E-01
 -1      5160 9.32848E-01
 -1      5162 8.64772E-01
 -1      5163 9.32848E-01
 -1      5165 8.64772E-01
 -1      5166 9.32848E-01
 -1      5168 8.64772E-01
 -1      5169 9.32848E-01
 -1      5171 8.64772E-01
 -1      5172 9.32848E-01
 -1      5174 8.64772E-01
 -1      5175 9.32848E-01
 -1      5177 8.64772E-01
 -1      5179 7.50790E-01
 -1      5180 8.07781E-01
 -1      5182 7.50790E-01
 -1      5183 8.07781E-01
 -1      5185 7.50790E-01
 -1      5186 8.07781E-01
 -1      5188 7.50790E-01
 -1      5189 8.07781E-01
 -1      5191 7.50790E-01
 -1      5192 8.07781E-01
 -1      5194 7.50790E-01
 -1      5195 8.07781E-01
 -1      5197 7.50790E-01
 -1      5198 8.07781E-01
 -1      5200 7.50790E-01
 -1      5201 8.07781E-01
 -1      5203 7.50790E-01
 -1      5204 8.07781E-01
 -1      5206 7.50790E-01
 -1      5208 6.54810E-01
 -1      5209 7.02800E-01
 -1      5211 6.54810E-01
 -1      5212 7.02800E-01
 -1      5214 6.54810E-01
 -1      5215 7.02800E-01
 -1      5217 6.54810E-01
 -1      5218 7.02800E-01
 -1      5220 6.54810E-01
 -1      5221 7.02800E-01
 -1      5223 6.54810E-01
 -1      5224 7.02800E-01
 -1      5226 6.54810E-01
 -1      5227 7.02800E-01
 -1      5229 6.54810E-01
 -1      5230 7.02800E-01
 -1      5232 6.54810E-01
 -1      5233 7.02800E-01
 -1      5235 6.54810E-01
 -1      5237 5.73592E-01
 -1      5238 6.14201E-01
 -1      5240 5.73592E-01
 -1      5241 6.14201E-01
 -1      5243 5.73592E-01
 -1      5244 6.14201E-01
 -1      5246 5.73592E-01
 -1      5247 6.14201E-01
 -1      5249 5.73592E-01
 -1      5250 6.14201E-01
 -1      5252 5.73592E-01
 -1      5253 6.14201E-01
 -1      5255 5.73592E-01
 -1      5256 6.14201E-01
 -1      5258 5.73592E-01
 -1      5259 6.14201E-01
 -1      5261 5.73592E-01
 -1      5262 6.14201E-01
 -1      5264 5.73592E-01
 -1      5266 5.04539E-01
 -1      5267 5.39066E-01
 -1      5269 5.04539E-01
 -1      5270 5.39066E-01
 -1      5272 5.04539E-01
 -1      5273 5.39066E-01
 -1      5275 5.04539E-01
 -1      5276 5.39066E-01
 -1      5278 5.04539E-01
 -1      5279 5.39066E-01
 -1      5281 5.04539E-01
 -1      5282 5.39066E-01
 -1      5284 5.04539E-01
 -1      5285 5.39066E-01
 -1      5287 5.04539E-01
 -1      5288 5.39066E-01
 -1      5290 5.04539E-01
 -1      5291 5.39066E-01
 -1      5293 5.04539E-01
 -1      5295 4.45565E-01
 -1      5296 4.75052E-01
 -1      5298 4.45565E-01
 -1      5299 4.75052E-01
 -1      5301 4.45565E-01
 -1      5302 4.75052E-01
 -1      5304 4.45565E-01
 -1      5305 4.75052E-01
 -1      5307 4.45565E-01
 -1      5308 4.75052E-01
 -1      5310 4.45565E-01
 -1      5311 4.75052E-01
 -1      5313 4.45565E-01
 -1      5314 4.75052E-01
 -1      5316 4.45565E-01
 -1      5317 4.75052E-01
 -1      5319 4.45565E-01
 -1      5320 4.75052E-01
 -1      5322 4.45565E-01
 -1      5324 3.94983E-01
 -1      5325 4.20274E-01
 -1      5327 3.94983E-01
 -1      5328 4.20274E-01
 -1      5330 3.94983E-01
 -1      5331 4.20274E-01
 -1      5333 3.94983E-01
 -1      5334 4.20274E-01
 -1      5336 3.94983E-01
 -1      5337 4.20274E-01
 -1      5339 3.94983E-01
 -1      5340 4.20274E-01
 -1      5342 3.94983E-01
 -1      5343 4.20274E-01
 -1      5345 3.94983E-01
 -1      5346 4.20274E-01
 -1      5348 3.94983E-01
 -1      5349 4.20274E-01
 -1      5351 3.94983E-01
 -1      5353 3.51419E-01
 -1      5354 3.73201E-01
 -1      5356 3.51419E-01
 -1      5357 3.73201E-01
 -1      5359 3.51419E-01
 -1      5360 3.73201E-01
 -1      5362 3.51419E-01
 -1      5363 3.73201E-01
 -1      5365 3.51419E-01
 -1      5366 3.73201E-01
 -1      5368 3.51419E-01
 -1      5369 3.73201E-01
 -1      5371 3.51419E-01
 -1      5372 3.73201E-01
 -1      5374 3.51419E-01
 -1      5375 3.73201E-01
 -1      5377 3.51419E-01
 -1      5378 3.73201E-01
 -1      5380 3.51419E-01
 -1      5382 3.13751E-01
 -1      5383 3.32585E-01
 -1      5385 3.13751E-01
 -1      5386 3.32585E-01
 -1      5388 3.13751E-01
 -1      5389 3.32585E-01
 -1      5391 3.13751E-01
 -1      5392 3.32585E-01
 -1      5394 3.13751E-01
 -1      5395 3.32585E-01
 -1      5397 3.13751E-01
 -1      5398 3.32585E-01
 -1      5400 3.13751E-01
 -1      5401 3.32585E-01
 -1      5403 3.13751E-01
 -1      5404 3.32585E-01
 -1      5406 3.13751E-01
 -1      5407 3.32585E-01
 -1      5409 3.13751E-01
 -1      5411 2.81054E-01
 -1      5412 2.97402E-01
 -1      5414 2.81054E-01
 -1      5415 2.97402E-01
 -1      5417 2.81054E-01
 -1      5418 2.97402E-01
 -1      5420 2.81054E-01
 -1      5421 2.97402E-01
 -1      5423 2.81054E-01
 -1      5424 2.97402E-01
 -1      5426 2.81054E-01
 -1      5427 2.97402E-01
 -1      5429 2.81054E-01
 -1      5430 2.97402E-01
 -1      5432 2.81054E-01
 -1      5433 2.97402E-01
 -1      5435 2.81054E-01
 -1      5436 2.97402E-01
 -1      5438 2.81054E-01
 -1      5440 2.52568E-01
 -1      5441 2.66811E-01
 -1      5443 2.52568E-01
 -1      5444 2.66811E-01
 -1      5446 2.52568E-01
 -1      5447 2.66811E-01
 -1      5449 2.52568E-01
 -1      5450 2.66811E-01
 -1      5452 2.52568E-01
 -1      5453 2.66811E-01
 -1      5455 2.52568E-01
 -1      5456 2.66811E-01
 -1      5458 2.52568E-01
 -1      5459 2.66811E-01
 -1      5461 2.52568E-01
 -1      5462 2.66811E-01
 -1      5464 2.52568E-01
 -1      5465 2.66811E-01
 -1      5467 2.52568E-01
 -1      5469 2.27662E-01
 -1      5470 2.40115E-01
 -1      5472 2.27662E-01
 -1      5473 2.40115E-01
 -1      5475 2.27662E-01
 -1      5476 2.40115E-01
 -1      5478 2.27662E-01
 -1      5479 2.40115E-01
 -1      5481 2.27662E-01
 -1      5482 2.40115E-01
 -1      5484 2.27662E-01
 -1      5485 2.40115E-01
 -1      5487 2.27662E-01
 -1      5488 2.40115E-01
 -1      5490 2.27662E-01
 -1      5491 2.40115E-01
 -1      5493 2.27662E-01
 -1      5494 2.40115E-01
 -1      5496 2.27662E-01
 -1      5498 2.05810E-01
 -1      5499 2.16736E-01
 -1      5501 2.05810E-01
 -1      5502 2.16736E-01
 -1      5504 2.05810E-01
 -1      5505 2.16736E-01
 -1      5507 2.05810E-01
 -1      5508 2.16736E-01
 -1      5510 2.05810E-01
 -1      5511 2.16736E-01
 -1      5513 2.05810E-01
 -1      5514 2.16736E-01
 -1      5516 2.05810E-01
 -1      5517 2.16736E-01
 -1      5519 2.05810E-01
 -1      5520 2.16736E-01
 -1      5522 2.05810E-01
 -1      5523 2.16736E-01
 -1      5525 2.05810E-01
 -1      5527 1.86575E-01
 -1      5528 1.96192E-01
 -1      5530 1.86575E-01
 -1      5531 1.96192E-01
 -1      5533 1.86575E-01
 -1      5534 1.96192E-01
 -1      5536 1.86575E-01
 -1      5537 1.96192E-01
 -1      5539 1.86575E-01
 -1      5540 1.96192E-01
 -1      5542 1.86575E-01
 -1      5543 1.96192E-01
 -1      5545 1.86575E-01
 -1      5546 1.96192E-01
 -1      5548 1.86575E-01
 -1      5549 1.96192E-01
 -1      5551 1.86575E-01
 -1      5552 1.96192E-01
 -1      5554 1.86575E-01
 -1      5556 1.69588E-01
 -1      5557 1.78081E-01
 -1      5559 1.69588E-01
 -1      5560 1.78081E-01
 -1      5562 1.69588E-01
 -1      5563 1.78081E-01
 -1      5565 1.69588E-01
 -1      5566 1.78081E-01
 -1      5568 1.69588E-01
 -1      5569 1.78081E-01
 -1      5571 1.69588E-01
 -1      5572 1.78081E-01
 -1      5574 1.69588E-01
 -1      5575 1.78081E-01
 -1      5577 1.69588E-01
 -1      5578 1.78081E-01
 -1      5580 1.69588E-01
 -1      5581 1.78081E-01
 -1      5583 1.69588E-01
 -1      5585 1.54540E-01
 -1      5586 1.62064E-01
 -1      5588 1.54540E-01
 -1      5589 1.62064E-01
 -1      5591 1.54540E-01
 -1      5592 1.62064E-01
 -1      5594 1.54540E-01
 -1      5595 1.62064E-01
 -1      5597 1.54540E-01
 -1      5598 1.62064E-01
 -1      5600 1.54540E-01
 -1      5601 1.62064E-01
 -1      5603 1.54540E-01
 -1      5604 1.62064E-01
 -1      5606 1.54540E-01
 -1      5607 1.62064E-01
 -1      5609 1.54540E-01
 -1      5610 1.62064E-01
 -1      5612 1.54540E-01
 -1      5614 1.41171E-01
 -1      5615 1.47856E-01
 -1      5617 1.41171E-01
 -1      5618 1.47856E-01
 -1      5620 1.41171E-01
 -1      5621 1.47856E-01
 -1      5623 1.41172E-01
 -1      5624 1.47856E-01
 -1      5626 1.41172E-01
 -1      5627 1.47856E-01
 -1      5629 1.41172E-01
 -1      5630 1.47856E-01
 -1      5632 1.41172E-01
 -1      5633 1.47856E-01
 -1      5635 1.41172E-01
 -1      5636 1.47856E-01
 -1      5638 1.41172E-01
 -1      5639 1.47856E-01
 -1      5641 1.41172E-01
 -1      5643 1.29260E-01
 -1      5644 1.35216E-01
 -1      5646 1.29260E-01
 -1      5647 1.35216E-01
 -1      5649 1.29260E-01
 -1      5650 1.35216E-01
 -1      5652 1.29260E-01
 -1      5653 1.35216E-01
 -1      5655 1.29260E-01
 -1      5656 1.35216E-01
 -1      5658 1.29260E-01
 -1      5659 1.35216E-01
 -1      5661 1.29260E-01
 -1      5662 1.35216E-01
 -1      5664 1.29260E-01
 -1      5665 1.35216E-01
 -1      5667 1.29260E-01
 -1      5668 1.35216E-01
 -1      5670 1.29260E-01
 -1      5672 1.18617E-01
 -1      5673 1.23938E-01
 -1      5675 1.18617E-01
 -1      5676 1.23938E-01
 -1      5678 1.18617E-01
 -1      5679 1.23938E-01
 -1      5681 1.18617E-01
 -1      5682 1.23938E-01
 -1      5684 1.18617E-01
 -1      5685 1.23938E-01
 -1      5687 1.18617E-01
 -1      5688 1.23938E-01
 -1      5690 1.18617E-01
 -1      5691 1.23938E-01
 -1      5693 1.18617E-01
 -1      5694 1.23938E-01
 -1      5696 1.18617E-01
 -1      5697 1.23938E-01
 -1      5699 1.18617E-01
 -1      5701 1.09083E-01
 -1      5702 1.13850E-01
 -1      5704 1.09083E-01
 -1      5705 1.13850E-01
 -1      5707 1.09083E-01
 -1      5708 1.13850E-01
 -1      5710 1.09083E-01
 -1      5711 1.13850E-01
 -1      5713 1.09083E-01
 -1      5714 1.13850E-01
 -1      5716 1.09083E-01
 -1      5717 1.13850E-01
 -1      5719 1.09083E-01
 -1      5720 1.13850E-01
 -1      5722 1.09083E-01
 -1      5723 1.13850E-01
 -1      5725 1.09083E-01
 -1      5726 1.13850E-01
 -1      5728 1.09083E-01
 -1      5730 1.00521E-01
 -1      5731 1.04802E-01
 -1      5733 1.00521E-01
 -1      5734 1.04802E-01
 -1      5736 1.00521E-01
 -1      5737 1.04802E-01
 -1      5739 1.00521E-01
 -1      5740 1.04802E-01
 -1      5742 1.00521E-01
 -1      5743 1.04802E-01
 -1      5745 1.00521E-01
 -1      5746 1.04802E-01
 -1      5748 1.00521E-01
 -1      5749 1.04802E-01
 -1      5751 1.00521E-01
 -1      5752 1.04802E-01
 -1      5754 1.00521E-01
 -1      5755 1.04802E-01
 -1      5757 1.00521E-01
 -1      5759 9.28113E-02
 -1      5760 9.66660E-02
 -1      5762 9.28113E-02
 -1      5763 9.66660E-02
 -1      5765 9.28113E-02
 -1      5766 9.66660E-02
 -1      5768 9.28114E-02
 -1      5769 9.66660E-02
 -1      5771 9.28114E-02
 -1      5772 9.66660E-02
 -1      5774 9.28114E-02
 -1      5775 9.66660E-02
 -1      5777 9.28113E-02
 -1      5778 9.66660E-02
 -1      5780 9.28114E-02
 -1      5781 9.66661E-02
 -1      5783 9.28114E-02
 -1      5784 9.66661E-02
 -1      5786 9.28114E-02
 -1      5788 8.58558E-02
 -1      5789 8.93335E-02
 -1      5791 8.58558E-02
 -1      5792 8.93336E-02
 -1      5794 8.58558E-02
 -1      5795 8.93336E-02
 -1      5797 8.58558E-02
 -1      5798 8.93336E-02
 -1      5800 8.58559E-02
 -1      5801 8.93336E-02
 -1      5803 8.58558E-02
 -1      5804 8.93336E-02
 -1      5806 8.58558E-02
 -1      5807 8.93336E-02
 -1      5809 8.58559E-02
 -1      5810 8.93337E-02
 -1      5812 8.58560E-02
 -1      5813 8.93337E-02
 -1      5815 8.58558E-02
 -1      5817 7.95587E-02
 -1      5818 8.27072E-02
 -1      5820 7.95587E-02
 -1      5821 8.27073E-02
 -1      5823 7.95587E-02
 -1      5824 8.27072E-02
 -1      5826 7.95587E-02
 -1      5827 8.27073E-02
 -1      5829 7.95588E-02
 -1      5830 8.27073E-02
 -1      5832 7.95588E-02
 -1      5833 8.27073E-02
 -1      5835 7.95588E-02
 -1      5836 8.27074E-02
 -1      5838 7.95590E-02
 -1      5839 8.27075E-02
 -1      5841 7.95590E-02
 -1      5842 8.27075E-02
 -1      5844 7.95589E-02
 -1      5846 7.38754E-02
 -1      5847 7.67171E-02
 -1      5849 7.38754E-02
 -1      5850 7.67171E-02
 -1      5852 7.38754E-02
 -1      5853 7.67170E-02
 -1      5855 7.38755E-02
 -1      5856 7.67172E-02
 -1      5858 7.38757E-02
 -1      5859 7.67172E-02
 -1      5861 7.38756E-02
 -1      5862 7.67172E-02
 -1      5864 7.38758E-02
 -1      5865 7.67175E-02
 -1      5867 7.38761E-02
 -1      5868 7.67176E-02
 -1      5870 7.38761E-02
 -1      5871 7.67176E-02
 -1      5873 7.38760E-02
 -1      5875 6.86101E-02
 -1      5876 7.12428E-02
 -1      5878 6.86104E-02
 -1      5879 7.12430E-02
 -1      5881 6.86107E-02
 -1      5882 7.12430E-02
 -1      5884 6.86106E-02
 -1      5885 7.12431E-02
 -1      5887 6.86113E-02
 -1      5888 7.12438E-02
 -1      5890 6.86124E-02
 -1      5891 7.12442E-02
 -1      5893 6.86129E-02
 -1      5894 7.12445E-02
 -1      5896 6.86119E-02
 -1      5897 7.12435E-02
 -1      5899 6.86141E-02
 -1      5900 7.12468E-02
 -1      5902 6.86174E-02
 -1      5904 6.86056E-02
 -1      5906 6.86064E-02
 -1      5908 6.86064E-02
 -1      5910 6.86055E-02
 -1      5912 6.86094E-02
 -1      5914 6.86117E-02
 -1      5916 6.86117E-02
 -1      5918 6.86085E-02
 -1      5920 6.86174E-02
 -1      5923 1.33229E+00
 -1      5924 1.33225E+00
 -1      5925 1.33224E+00
 -1      5926 1.33224E+00
 -1      5927 1.33224E+00
 -1      5928 1.33224E+00
 -1      5929 1.33224E+00
 -1      5930 1.33224E+00
 -1      5931 1.33225E+00
 -1      5932 1.33229E+00
 -1      5933 1.33229E+00
 -1      5934 1.33225E+00
 -1      5935 1.33224E+00
 -1      5936 1.33224E+00
 -1      5937 1.33224E+00
 -1      5938 1.33224E+00
 -1      5939 1.33224E+00
 -1      5940 1.33224E+00
 -1      5941 1.33225E+00
 -1      5942 1.33229E+00
 -1      5943 1.33229E+00
 -1      5944 1.33225E+00
 -1      5945 1.33224E+00
 -1      5946 1.33224E+00
 -1      5947 1.33224E+00
 -1      5948 1.33224E+00
 -1      5949 1.33224E+00
 -1      5950 1.33224E+00
 -1      5951 1.33225E+00
 -1      5952 1.33229E+00
 -1      5953 1.33229E+00
 -1      5954 1.33225E+00
 -1      5955 1.33224E+00
 -1      5956 1.33224E+00
 -1      5957 1.33224E+00
 -1      5958 1.33224E+00
 -1      5959 1.33224E+00
 -1      5960 1.33224E+00
 -1      5961 1.33225E+00
 -1      5962 1.33229E+00
 -1      5963 1.33229E+00
 -1      5964 1.33225E+00
 -1      5965 1.33224E+00
 -1      5966 1.33224E+00
 -1      5967 1.33224E+00
 -1      5968 1.33224E+00
 -1      5969 1.33224E+00
 -1      5970 1.33224E+00
 -1      5971 1.33225E+00
 -1      5972 1.33229E+00
 -1      5973 1.33229E+00
 -1      5974 1.33225E+00
 -1      5975 1.33224E+00
 -1      5976 1.33224E+00
 -1      5977 1.33224E+00
 -1      5978 1.33224E+00
 -1      5979 1.33224E+00
 -1      5980 1.33224E+00
 -1      5981 1.33225E+00
 -1      5982 1.33229E+00
 -1      5983 1.33229E+00
 -1      5984 1.33225E+00
 -1      5985 1.33224E+00
 -1      5986 1.33224E+00
 -1      5987 1.33224E+00
 -1      5988 1.33224E+00
 -1      5989 1.33224E+00
 -1      5990 1.33224E+00
 -1      5991 1.33225E+00
 -1      5992 1.33229E+00
 -1      5993 1.33229E+00
 -1      5994 1.33225E+00
 -1      5995 1.33224E+00
 -1      5996 1.33224E+00
 -1      5997 1.33224E+00
 -1      5998 1.33224E+00
 -1      5999 1.33224E+00
 -1      6000 1.33224E+00
 -1      6001 1.33225E+00
 -1      6002 1.33229E+00
 -1      6003 1.33229E+00
 -1      6004 1.33225E+00
 -1      6005 1.33224E+00
 -1      6006 1.33224E+00
 -1      6007 1.33224E+00
 -1      6008 1.33224E+00
 -1      6009 1.33224E+00
 -1      6010 1.33224E+00
 -1      6011 1.33225E+00
 -1      6012 1.33229E+00
 -1      6013 1.16436E+00
 -1      6014 1.16434E+00
 -1      6015 1.16434E+00
 -1      6016 1.16434E+00
 -1      6017 1.16434E+00
 -1      6018 1.16434E+00
 -1      6019 1.16434E+00
 -1      6020 1.16434E+00
 -1      6021 1.16434E+00
 -1      6022 1.16436E+00
 -1      6023 1.16436E+00
 -1      6024 1.16434E+00
 -1      6025 1.16434E+00
 -1      6026 1.16434E+00
 -1      6027 1.16434E+00
 -1      6028 1.16434E+00
 -1      6029 1.16434E+00
 -1      6030 1.16434E+00
 -1      6031 1.16434E+00
 -1      6032 1.16436E+00
 -1      6033 1.16436E+00
 -1      6034 1.16434E+00
 -1      6035 1.16434E+00
 -1      6036 1.16434E+00
 -1      6037 1.16434E+00
 -1      6038 1.16434E+00
 -1      6039 1.16434E+00
 -1      6040 1.16434E+00
 -1      6041 1.16434E+00
 -1      6042 1.16436E+00
 -1      6043 1.16436E+00
 -1      6044 1.16434E+00
 -1      6045 1.16434E+00
 -1      6046 1.16434E+00
 -1      6047 1.16434E+00
 -1      6048 1.16434E+00
 -1      6049 1.16434E+00
 -1      6050 1.16434E+00
 -1      6051 1.16434E+00
 -1      6052 1.16436E+00
 -1      6053 1.16436E+00
 -1      6054 1.16434E+00
 -1      6055 1.16434E+00
 -1      6056 1.16434E+00
 -1      6057 1.16434E+00
 -1      6058 1.16434E+00
 -1      6059 1.16434E+00
 -1      6060 1.16434E+00
 -1      6061 1.16434E+00
 -1      6062 1.16436E+00
 -1      6063 1.16436E+00
 -1      6064 1.16434E+00
 -1      6065 1.16434E+00
 -1      6066 1.16434E+00
 -1      6067 1.16434E+00
 -1      6068 1.16434E+00
 -1      6069 1.16434E+00
 -1      6070 1.16434E+00
 -1      6071 1.16434E+00
 -1      6072 1.16436E+00
 -1      6073 1.16436E+00
 -1      6074 1.16434E+00
 -1      6075 1.16434E+00
 -1      6076 1.16434E+00
 -1      6077 1.16434E+00
 -1      6078 1.16434E+00
 -1      6079 1.16434E+00
 -1      6080 1.16434E+00
 -1      6081 1.16434E+00
 -1      6082 1.16436E+00
 -1      6083 1.16436E+00
 -1      6084 1.16434E+00
 -1      6085 1.16434E+00
 -1      6086 1.16434E+00
 -1      6087 1.16434E+00
 -1      6088 1.16434E+00
 -1      6089 1.16434E+00
 -1      6090 1.16434E+00
 -1      6091 1.16434E+00
 -1      6092 1.16436E+00
 -1      6093 1.16436E+00
 -1      6094 1.16434E+00
 -1      6095 1.16434E+00
 -1      6096 1.16434E+00
 -1      6097 1.16434E+00
 -1      6098 1.16434E+00
 -1      6099 1.16434E+00
 -1      6100 1.16434E+00
 -1      6101 1.16434E+00
 -1      6102 1.16436E+00
 -1      6103 1.00093E+00
 -1      6104 1.00093E+00
 -1      6105 1.00093E+00
 -1      6106 1.00093E+00
 -1      6107 1.00093E+00
 -1      6108 1.00093E+00
 -1      6109 1.00093E+00
 -1      6110 1.00093E+00
 -1      6111 1.00093E+00
 -1      6112 1.00093E+00
 -1      6113 1.00093E+00
 -1      6114 1.00093E+00
 -1      6115 1.00093E+00
 -1      6116 1.00093E+00
 -1      6117 1.00093E+00
 -1      6118 1.00093E+00
 -1      6119 1.00093E+00
 -1      6120 1.00093E+00
 -1      6121 1.00093E+00
 -1      6122 1.00093E+00
 -1      6123 1.00093E+00
 -1      6124 1.00093E+00
 -1      6125 1.00093E+00
 -1      6126 1.00093E+00
 -1      6127 1.00093E+00
 -1      6128 1.00093E+00
 -1      6129 1.00093E+00
 -1      6130 1.00093E+00
 -1      6131 1.00093E+00
 -1      6132 1.00093E+00
 -1      6133 1.00093E+00
 -1      6134 1.00093E+00
 -1      6135 1.00093E+00
 -1      6136 1.00093E+00
 -1      6137 1.00093E+00
 -1      6138 1.00093E+00
 -1      6139 1.00093E+00
 -1      6140 1.00093E+00
 -1      6141 1.00093E+00
 -1      6142 1.00093E+00
 -1      6143 1.00093E+00
 -1      6144 1.00093E+00
 -1      6145 1.00093E+00
 -1      6146 1.00093E+00
 -1      6147 1.00093E+00
 -1      6148 1.00093E+00
 -1      6149 1.00093E+00
 -1      6150 1.00093E+00
 -1      6151 1.00093E+00
 -1      6152 1.00093E+00
 -1      6153 1.00093E+00
 -1      6154 1.00093E+00
 -1      6155 1.00093E+00
 -1      6156 1.00093E+00
 -1      6157 1.00093E+00
 -1      6158 1.00093E+00
 -1      6159 1.00093E+00
 -1      6160 1.00093E+00
 -1      6161 1.00093E+00
 -1      6162 1.00093E+00
 -1      6163 1.00093E+00
 -1      6164 1.00093E+00
 -1      6165 1.00093E+00
 -1      6166 1.00093E+00
 -1      6167 1.00093E+00
 -1      6168 1.00093E+00
 -1      6169 1.00093E+00
 -1      6170 1.00093E+00
 -1      6171 1.00093E+00
 -1      6172 1.00093E+00
 -1      6173 1.00093E+00
 -1      6174 1.00093E+00
 -1      6175 1.00093E+00
 -1      6176 1.00093E+00
 -1      6177 1.00093E+00
 -1      6178 1.00093E+00
 -1      6179 1.00093E+00
 -1      6180 1.00093E+00
 -1      6181 1.00093E+00
 -1      6182 1.00093E+00
 -1      6183 1.00093E+00
 -1      6184 1.00093E+00
 -1      6185 1.00093E+00
 -1      6186 1.00093E+00
 -1      6187 1.00093E+00
 -1      6188 1.00093E+00
 -1      6189 1.00093E+00
 -1      6190 1.00093E+00
 -1      6191 1.00093E+00
 -1      6192 1.00093E+00
 -1      6193 8.64772E-01
 -1      6194 8.64769E-01
 -1      6195 8.64769E-01
 -1      6196 8.64769E-01
 -1      6197 8.64769E-01
 -1      6198 8.64769E-01
 -1      6199 8.64769E-01
 -1      6200 8.64769E-01
 -1      6201 8.64769E-01
 -1      6202 8.64772E-01
 -1      6203 8.64772E-01
 -1      6204 8.64769E-01
 -1      6205 8.64769E-01
 -1      6206 8.64769E-01
 -1      6207 8.64769E-01
 -1      6208 8.64769E-01
 -1      6209 8.64769E-01
 -1      6210 8.64769E-01
 -1      6211 8.64769E-01
 -1      6212 8.64772E-01
 -1      6213 8.64772E-01
 -1      6214 8.64769E-01
 -1      6215 8.64769E-01
 -1      6216 8.64769E-01
 -1      6217 8.64769E-01
 -1      6218 8.64769E-01
 -1      6219 8.64769E-01
 -1      6220 8.64769E-01
 -1      6221 8.64769E-01
 -1      6222 8.64772E-01
 -1      6223 8.64772E-01
 -1      6224 8.64769E-01
 -1      6225 8.64769E-01
 -1      6226 8.64769E-01
 -1      6227 8.64769E-01
 -1      6228 8.64769E-01
 -1      6229 8.64769E-01
 -1      6230 8.64769E-01
 -1      6231 8.64769E-01
 -1      6232 8.64772E-01
 -1      6233 8.64772E-01
 -1      6234 8.64769E-01
 -1      6235 8.64769E-01
 -1      6236 8.64769E-01
 -1      6237 8.64769E-01
 -1      6238 8.64769E-01
 -1      6239 8.64769E-01
 -1      6240 8.64769E-01
 -1      6241 8.64769E-01
 -1      6242 8.64772E-01
 -1      6243 8.64772E-01
 -1      6244 8.64769E-01
 -1      6245 8.64769E-01
 -1      6246 8.64769E-01
 -1      6247 8.64769E-01
 -1      6248 8.64769E-01
 -1      6249 8.64769E-01
 -1      6250 8.64769E-01
 -1      6251 8.64769E-01
 -1      6252 8.64772E-01
 -1      6253 8.64772E-01
 -1      6254 8.64769E-01
 -1      6255 8.64769E-01
 -1      6256 8.64769E-01
 -1      6257 8.64769E-01
 -1      6258 8.64769E-01
 -1      6259 8.64769E-01
 -1      6260 8.64769E-01
 -1      6261 8.64769E-01
 -1      6262 8.64772E-01
 -1      6263 8.64772E-01
 -1      6264 8.64769E-01
 -1      6265 8.64769E-01
 -1      6266 8.64769E-01
 -1      6267 8.64769E-01
 -1      6268 8.64769E-01
 -1      6269 8.64769E-01
 -1      6270 8.64769E-01
 -1      6271 8.64769E-01
 -1      6272 8.64772E-01
 -1      6273 8.64772E-01
 -1      6274 8.64769E-01
 -1      6275 8.64769E-01
 -1      6276 8.64769E-01
 -1      6277 8.64769E-01
 -1      6278 8.64769E-01
 -1      6279 8.64769E-01
 -1      6280 8.64769E-01
 -1      6281 8.64769E-01
 -1      6282 8.64772E-01
 -1      6283 7.50790E-01
 -1      6284 7.50790E-01
 -1      6285 7.50790E-01
 -1      6286 7.50790E-01
 -1      6287 7.50790E-01
 -1      6288 7.50790E-01
 -1      6289 7.50790E-01
 -1      6290 7.50790E-01
 -1      6291 7.50790E-01
 -1      6292 7.50790E-01
 -1      6293 7.50790E-01
 -1      6294 7.50790E-01
 -1      6295 7.50790E-01
 -1      6296 7.50790E-01
 -1      6297 7.50790E-01
 -1      6298 7.50790E-01
 -1      6299 7.50790E-01
 -1      6300 7.50790E-01
 -1      6301 7.50790E-01
 -1      6302 7.50790E-01
 -1      6303 7.50790E-01
 -1      6304 7.50790E-01
 -1      6305 7.50790E-01
 -1      6306 7.50790E-01
 -1      6307 7.50790E-01
 -1      6308 7.50790E-01
 -1      6309 7.50790E-01
 -1      6310 7.50790E-01
 -1      6311 7.50790E-01
 -1      6312 7.50790E-01
 -1      6313 7.50790E-01
 -1      6314 7.50790E-01
 -1      6315 7.50790E-01
 -1      6316 7.50790E-01
 -1      6317 7.50790E-01
 -1      6318 7.50790E-01
 -1      6319 7.50790E-01
 -1      6320 7.50790E-01
 -1      6321 7.50790E-01
 -1      6322 7.50790E-01
 -1      6323 7.50790E-01
 -1      6324 7.50790E-01
 -1      6325 7.50790E-01
 -1      6326 7.50790E-01
 -1      6327 7.50790E-01
 -1      6328 7.50790E-01
 -1      6329 7.50790E-01
 -1      6330 7.50790E-01
 -1      6331 7.50790E-01
 -1      6332 7.50790E-01
 -1      6333 7.50790E-01
 -1      6334 7.50790E-01
 -1      6335 7.50790E-01
 -1      6336 7.50790E-01
 -1      6337 7.50790E-01
 -1      6338 7.50790E-01
 -1      6339 7.50790E-01
 -1      6340 7.50790E-01
 -1      6341 7.50790E-01
 -1      6342 7.50790E-01
 -1      6343 7.50790E-01
 -1      6344 7.50790E-01
 -1      6345 7.50790E-01
 -1      6346 7.50790E-01
 -1      6347 7.50790E-01
 -1      6348 7.50790E-01
 -1      6349 7.50790E-01
 -1      6350 7.50790E-01
 -1      6351 7.50790E-01
 -1      6352 7.50790E-01
 -1      6353 7.50790E-01
 -1      6354 7.50790E-01
 -1      6355 7.50790E-01
 -1      6356 7.50790E-01
 -1      6357 7.50790E-01
 -1      6358 7.50790E-01
 -1      6359 7.50790E-01
 -1      6360 7.50790E-01
 -1      6361 7.50790E-01
 -1      6362 7.50790E-01
 -1      6363 7.50790E-01
 -1      6364 7.50790E-01
 -1      6365 7.50790E-01
 -1      6366 7.50790E-01
 -1      6367 7.50790E-01
 -1      6368 7.50790E-01
 -1      6369 7.50790E-01
 -1      6370 7.50790E-01
 -1      6371 7.50790E-01
 -1      6372 7.50790E-01
 -1      6373 6.54810E-01
 -1      6374 6.54810E-01
 -1      6375 6.54810E-01
 -1      6376 6.54810E-01
 -1      6377 6.54810E-01
 -1      6378 6.54810E-01
 -1      6379 6.54810E-01
 -1      6380 6.54810E-01
 -1      6381 6.54810E-01
 -1      6382 6.54810E-01
 -1      6383 6.54810E-01
 -1      6384 6.54810E-01
 -1      6385 6.54810E-01
 -1      6386 6.54810E-01
 -1      6387 6.54810E-01
 -1      6388 6.54810E-01
 -1      6389 6.54810E-01
 -1      6390 6.54810E-01
 -1      6391 6.54810E-01
 -1      6392 6.54810E-01
 -1      6393 6.54810E-01
 -1      6394 6.54810E-01
 -1      6395 6.54810E-01
 -1      6396 6.54810E-01
 -1      6397 6.54810E-01
 -1      6398 6.54810E-01
 -1      6399 6.54810E-01
 -1      6400 6.54810E-01
 -1      6401 6.54810E-01
 -1      6402 6.54810E-01
 -1      6403 6.54810E-01
 -1      6404 6.54810E-01
 -1      6405 6.54810E-01
 -1      6406 6.54810E-01
 -1      6407 6.54810E-01
 -1      6408 6.54810E-01
 -1      6409 6.54810E-01
 -1      6410 6.54810E-01
 -1      6411 6.54810E-01
 -1      6412 6.54810E-01
 -1      6413 6.54810E-01
 -1      6414 6.54810E-01
 -1      6415 6.54810E-01
 -1      6416 6.54810E-01
 -1      6417 6.54810E-01
 -1      6418 6.54810E-01
 -1      6419 6.54810E-01
 -1      6420 6.54810E-01
 -1      6421 6.54810E-01
 -1      6422 6.54810E-01
 -1      6423 6.54810E-01
 -1      6424 6.54810E-01
 -1      6425 6.54810E-01
 -1      6426 6.54810E-01
 -1      6427 6.54810E-01
 -1      6428 6.54810E-01
 -1      6429 6.54810E-01
 -1      6430 6.54810E-01
 -1      6431 6.54810E-01
 -1      6432 6.54810E-01
 -1      6433 6.54810E-01
 -1      6434 6.54810E-01
 -1      6435 6.54810E-01
 -1      6436 6.54810E-01
 -1      6437 6.54810E-01
 -1      6438 6.54810E-01
 -1      6439 6.54810E-01
 -1      6440 6.54810E-01
 -1      6441 6.54810E-01
 -1      6442 6.54810E-01
 -1      6443 6.54810E-01
 -1      6444 6.54810E-01
 -1      6445 6.54810E-01
 -1      6446 6.54810E-01
 -1      6447 6.54810E-01
 -1      6448 6.54810E-01
 -1      6449 6.54810E-01
 -1      6450 6.54810E-01
 -1      6451 6.54810E-01
 -1      6452 6.54810E-01
 -1      6453 6.54810E-01
 -1      6454 6.54810E-01
 -1      6455 6.54810E-01
 -1      6456 6.54810E-01
 -1      6457 6.54810E-01
 -1      6458 6.54810E-01
 -1      6459 6.54810E-01
 -1      6460 6.54810E-01
 -1      6461 6.54810E-01
 -1      6462 6.54810E-01
 -1      6463 5.73593E-01
 -1      6464 5.73593E-01
 -1      6465 5.73593E-01
 -1      6466 5.73593E-01
 -1      6467 5.73592E-01
 -1      6468 5.73592E-01
 -1      6469 5.73593E-01
 -1      6470 5.73593E-01
 -1      6471 5.73593E-01
 -1      6472 5.73593E-01
 -1      6473 5.73593E-01
 -1      6474 5.73593E-01
 -1      6475 5.73593E-01
 -1      6476 5.73593E-01
 -1      6477 5.73592E-01
 -1      6478 5.73592E-01
 -1      6479 5.73593E-01
 -1      6480 5.73593E-01
 -1      6481 5.73593E-01
 -1      6482 5.73593E-01
 -1      6483 5.73593E-01
 -1      6484 5.73593E-01
 -1      6485 5.73593E-01
 -1      6486 5.73593E-01
 -1      6487 5.73592E-01
 -1      6488 5.73592E-01
 -1      6489 5.73593E-01
 -1      6490 5.73593E-01
 -1      6491 5.73593E-01
 -1      6492 5.73593E-01
 -1      6493 5.73593E-01
 -1      6494 5.73593E-01
 -1      6495 5.73593E-01
 -1      6496 5.73593E-01
 -1      6497 5.73592E-01
 -1      6498 5.73592E-01
 -1      6499 5.73593E-01
 -1      6500 5.73593E-01
 -1      6501 5.73593E-01
 -1      6502 5.73593E-01
 -1      6503 5.73593E-01
 -1      6504 5.73593E-01
 -1      6505 5.73593E-01
 -1      6506 5.73593E-01
 -1      6507 5.73592E-01
 -1      6508 5.73592E-01
 -1      6509 5.73593E-01
 -1      6510 5.73593E-01
 -1      6511 5.73593E-01
 -1      6512 5.73593E-01
 -1      6513 5.73593E-01
 -1      6514 5.73593E-01
 -1      6515 5.73593E-01
 -1      6516 5.73593E-01
 -1      6517 5.73592E-01
 -1      6518 5.73592E-01
 -1      6519 5.73593E-01
 -1      6520 5.73593E-01
 -1      6521 5.73593E-01
 -1      6522 5.73593E-01
 -1      6523 5.73593E-01
 -1      6524 5.73593E-01
 -1      6525 5.73593E-01
 -1      6526 5.73593E-01
 -1      6527 5.73592E-01
 -1      6528 5.73592E-01
 -1      6529 5.73593E-01
 -1      6530 5.73593E-01
 -1      6531 5.73593E-01
 -1      6532 5.73593E-01
 -1      6533 5.73593E-01
 -1      6534 5.73593E-01
 -1      6535 5.73593E-01
 -1      6536 5.73593E-01
 -1      6537 5.73592E-01
 -1      6538 5.73592E-01
 -1      6539 5.73593E-01
 -1      6540 5.73593E-01
 -1      6541 5.73593E-01
 -1      6542 5.73593E-01
 -1      6543 5.73593E-01
 -1      6544 5.73593E-01
 -1      6545 5.73593E-01
 -1      6546 5.73593E-01
 -1      6547 5.73592E-01
 -1      6548 5.73592E-01
 -1      6549 5.73593E-01
 -1      6550 5.73593E-01
 -1      6551 5.73593E-01
 -1      6552 5.73593E-01
 -1      6553 5.04539E-01
 -1      6554 5.04539E-01
 -1      6555 5.04539E-01
 -1      6556 5.04539E-01
 -1      6557 5.04539E-01
 -1      6558 5.04539E-01
 -1      6559 5.04539E-01
 -1      6560 5.04539E-01
 -1      6561 5.04539E-01
 -1      6562 5.04539E-01
 -1      6563 5.04539E-01
 -1      6564 5.04539E-01
 -1      6565 5.04539E-01
 -1      6566 5.04539E-01
 -1      6567 5.04539E-01
 -1      6568 5.04539E-01
 -1      6569 5.04539E-01
 -1      6570 5.04539E-01
 -1      6571 5.04539E-01
 -1      6572 5.04539E-01
 -1      6573 5.04539E-01
 -1      6574 5.04539E-01
 -1      6575 5.04539E-01
 -1      6576 5.04539E-01
 -1      6577 5.04539E-01
 -1      6578 5.04539E-01
 -1      6579 5.04539E-01
 -1      6580 5.04539E-01
 -1      6581 5.04539E-01
 -1      6582 5.04539E-01
 -1      6583 5.04539E-01
 -1      6584 5.04539E-01
 -1      6585 5.04539E-01
 -1      6586 5.04539E-01
 -1      6587 5.04539E-01
 -1      6588 5.04539E-01
 -1      6589 5.04539E-01
 -1      6590 5.04539E-01
 -1      6591 5.04539E-01
 -1      6592 5.04539E-01
 -1      6593 5.04539E-01
 -1      6594 5.04539E-01
 -1      6595 5.04539E-01
 -1      6596 5.04539E-01
 -1      6597 5.04539E-01
 -1      6598 5.04539E-01
 -1      6599 5.04539E-01
 -1      6600 5.04539E-01
 -1      6601 5.04539E-01
 -1      6602 5.04539E-01
 -1      6603 5.04539E-01
 -1      6604 5.04539E-01
 -1      6605 5.04539E-01
 -1      6606 5.04539E-01
 -1      6607 5.04539E-01
 -1      6608 5.04539E-01
 -1      6609 5.04539E-01
 -1      6610 5.04539E-01
 -1      6611 5.04539E-01
 -1      6612 5.04539E-01
 -1      6613 5.04539E-01
 -1      6614 5.04539E-01
 -1      6615 5.04539E-01
 -1      6616 5.04539E-01
 -1      6617 5.04539E-01
 -1      6618 5.04539E-01
 -1      6619 5.04539E-01
 -1      6620 5.04539E-01
 -1      6621 5.04539E-01
 -1      6622 5.04539E-01
 -1      6623 5.04539E-01
 -1      6624 5.04539E-01
 -1      6625 5.04539E-01
 -1      6626 5.04539E-01
 -1      6627 5.04539E-01
 -1      6628 5.04539E-01
 -1      6629 5.04539E-01
 -1      6630 5.04539E-01
 -1      6631 5.04539E-01
 -1      6632 5.04539E-01
 -1      6633 5.04539E-01
 -1      6634 5.04539E-01
 -1      6635 5.04539E-01
 -1      6636 5.04539E-01
 -1      6637 5.04539E-01
 -1      6638 5.04539E-01
 -1      6639 5.04539E-01
 -1      6640 5.04539E-01
 -1      6641 5.04539E-01
 -1      6642 5.04539E-01
 -1      6643 4.45565E-01
 -1      6644 4.45565E-01
 -1      6645 4.45565E-01
 -1      6646 4.45565E-01
 -1      6647 4.45565E-01
 -1      6648 4.45565E-01
 -1      6649 4.45565E-01
 -1      6650 4.45565E-01
 -1      6651 4.45565E-01
 -1      6652 4.45565E-01
 -1      6653 4.45565E-01
 -1      6654 4.45565E-01
 -1      6655 4.45565E-01
 -1      6656 4.45565E-01
 -1      6657 4.45565E-01
 -1      6658 4.45565E-01
 -1      6659 4.45565E-01
 -1      6660 4.45565E-01
 -1      6661 4.45565E-01
 -1      6662 4.45565E-01
 -1      6663 4.45565E-01
 -1      6664 4.45565E-01
 -1      6665 4.45565E-01
 -1      6666 4.45565E-01
 -1      6667 4.45565E-01
 -1      6668 4.45565E-01
 -1      6669 4.45565E-01
 -1      6670 4.45565E-01
 -1      6671 4.45565E-01
 -1      6672 4.45565E-01
 -1      6673 4.45565E-01
 -1      6674 4.45565E-01
 -1      6675 4.45565E-01
 -1      6676 4.45565E-01
 -1      6677 4.45565E-01
 -1      6678 4.45565E-01
 -1      6679 4.45565E-01
 -1      6680 4.45565E-01
 -1      6681 4.45565E-01
 -1      6682 4.45565E-01
 -1      6683 4.45565E-01
 -1      6684 4.45565E-01
 -1      6685 4.45565E-01
 -1      6686 4.45565E-01
 -1      6687 4.45565E-01
 -1      6688 4.45565E-01
 -1      6689 4.45565E-01
 -1      6690 4.45565E-01
 -1      6691 4.45565E-01
 -1      6692 4.45565E-01
 -1      6693 4.45565E-01
 -1      6694 4.45565E-01
 -1      6695 4.45565E-01
 -1      6696 4.45565E-01
 -1      6697 4.45565E-01
 -1      6698 4.45565E-01
 -1      6699 4.45565E-01
 -1      6700 4.45565E-01
 -1      6701 4.45565E-01
 -1      6702 4.45565E-01
 -1      6703 4.45565E-01
 -1      6704 4.45565E-01
 -1      6705 4.45565E-01
 -1      6706 4.45565E-01
 -1      6707 4.45565E-01
 -1      6708 4.45565E-01
 -1      6709 4.45565E-01
 -1      6710 4.45565E-01
 -1      6711 4.45565E-01
 -1      6712 4.45565E-01
 -1      6713 4.45565E-01
 -1      6714 4.45565E-01
 -1      6715 4.45565E-01
 -1      6716 4.45565E-01
 -1      6717 4.45565E-01
 -1      6718 4.45565E-01
 -1      6719 4.45565E-01
 -1      6720 4.45565E-01
 -1      6721 4.45565E-01
 -1      6722 4.45565E-01
 -1      6723 4.45565E-01
 -1      6724 4.45565E-01
 -1      6725 4.45565E-01
 -1      6726 4.45565E-01
 -1      6727 4.45565E-01
 -1      6728 4.45565E-01
 -1      6729 4.45565E-01
 -1      6730 4.45565E-01
 -1      6731 4.45565E-01
 -1      6732 4.45565E-01
 -1      6733 3.94983E-01
 -1      6734 3.94983E-01
 -1      6735 3.94983E-01
 -1      6736 3.94983E-01
 -1      6737 3.94983E-01
 -1      6738 3.94983E-01
 -1      6739 3.94983E-01
 -1      6740 3.94983E-01
 -1      6741 3.94983E-01
 -1      6742 3.94983E-01
 -1      6743 3.94983E-01
 -1      6744 3.94983E-01
 -1      6745 3.94983E-01
 -1      6746 3.94983E-01
 -1      6747 3.94983E-01
 -1      6748 3.94983E-01
 -1      6749 3.94983E-01
 -1      6750 3.94983E-01
 -1      6751 3.94983E-01
 -1      6752 3.94983E-01
 -1      6753 3.94983E-01
 -1      6754 3.94983E-01
 -1      6755 3.94983E-01
 -1      6756 3.94983E-01
 -1      6757 3.94983E-01
 -1      6758 3.94983E-01
 -1      6759 3.94983E-01
 -1      6760 3.94983E-01
 -1      6761 3.94983E-01
 -1      6762 3.94983E-01
 -1      6763 3.94983E-01
 -1      6764 3.94983E-01
 -1      6765 3.94983E-01
 -1      6766 3.94983E-01
 -1      6767 3.94983E-01
 -1      6768 3.94983E-01
 -1      6769 3.94983E-01
 -1      6770 3.94983E-01
 -1      6771 3.94983E-01
 -1      6772 3.94983E-01
 -1      6773 3.94983E-01
 -1      6774 3.94983E-01
 -1      6775 3.94983E-01
 -1      6776 3.94983E-01
 -1      6777 3.94983E-01
 -1      6778 3.94983E-01
 -1      6779 3.94983E-01
 -1      6780 3.94983E-01
 -1      6781 3.94983E-01
 -1      6782 3.94983E-01
 -1      6783 3.94983E-01
 -1      6784 3.94983E-01
 -1      6785 3.94983E-01
 -1      6786 3.94983E-01
 -1      6787 3.94983E-01
 -1      6788 3.94983E-01
 -1      6789 3.94983E-01
 -1      6790 3.94983E-01
 -1      6791 3.94983E-01
 -1      6792 3.94983E-01
 -1      6793 3.94983E-01
 -1      6794 3.94983E-01
 -1      6795 3.94983E-01
 -1      6796 3.94983E-01
 -1      6797 3.94983E-01
 -1      6798 3.94983E-01
 -1      6799 3.94983E-01
 -1      6800 3.94983E-01
 -1      6801 3.94983E-01
 -1      6802 3.94983E-01
 -1      6803 3.94983E-01
 -1      6804 3.94983E-01
 -1      6805 3.94983E-01
 -1      6806 3.94983E-01
 -1      6807 3.94983E-01
 -1      6808 3.94983E-01
 -1      6809 3.94983E-01
 -1      6810 3.94983E-01
 -1      6811 3.94983E-01
 -1      6812 3.94983E-01
 -1      6813 3.94983E-01
 -1      6814 3.94983E-01
 -1      6815 3.94983E-01
 -1      6816 3.94983E-01
 -1      6817 3.94983E-01
 -1      6818 3.94983E-01
 -1      6819 3.94983E-01
 -1      6820 3.94983E-01
 -1      6821 3.94983E-01
 -1      6822 3.94983E-01
 -1      6823 3.51419E-01
 -1      6824 3.51419E-01
 -1      6825 3.51419E-01
 -1      6826 3.51419E-01
 -1      6827 3.51419E-01
 -1      6828 3.51419E-01
 -1      6829 3.51419E-01
 -1      6830 3.51419E-01
 -1      6831 3.51419E-01
 -1      6832 3.51419E-01
 -1      6833 3.51419E-01
 -1      6834 3.51419E-01
 -1      6835 3.51419E-01
 -1      6836 3.51419E-01
 -1      6837 3.51419E-01
 -1      6838 3.51419E-01
 -1      6839 3.51419E-01
 -1      6840 3.51419E-01
 -1      6841 3.51419E-01
 -1      6842 3.51419E-01
 -1      6843 3.51419E-01
 -1      6844 3.51419E-01
 -1      6845 3.51419E-01
 -1      6846 3.51419E-01
 -1      6847 3.51419E-01
 -1      6848 3.51419E-01
 -1      6849 3.51419E-01
 -1      6850 3.51419E-01
 -1      6851 3.51419E-01
 -1      6852 3.51419E-01
 -1      6853 3.51419E-01
 -1      6854 3.51419E-01
 -1      6855 3.51419E-01
 -1      6856 3.51419E-01
 -1      6857 3.51419E-01
 -1      6858 3.51419E-01
 -1      6859 3.51419E-01
 -1      6860 3.51419E-01
 -1      6861 3.51419E-01
 -1      6862 3.51419E-01
 -1      6863 3.51419E-01
 -1      6864 3.51419E-01
 -1      6865 3.51419E-01
 -1      6866 3.51419E-01
 -1      6867 3.51419E-01
 -1      6868 3.51419E-01
 -1      6869 3.51419E-01
 -1      6870 3.51419E-01
 -1      6871 3.51419E-01
 -1      6872 3.51419E-01
 -1      6873 3.51419E-01
 -1      6874 3.51419E-01
 -1      6875 3.51419E-01
 -1      6876 3.51419E-01
 -1      6877 3.51419E-01
 -1      6878 3.51419E-01
 -1      6879 3.51419E-01
 -1      6880 3.51419E-01
 -1      6881 3.51419E-01
 -1      6882 3.51419E-01
 -1      6883 3.51419E-01
 -1      6884 3.51419E-01
 -1      6885 3.51419E-01
 -1      6886 3.51419E-01
 -1      6887 3.51419E-01
 -1      6888 3.51419E-01
 -1      6889 3.51419E-01
 -1      6890 3.51419E-01
 -1      6891 3.51419E-01
 -1      6892 3.51419E-01
 -1      6893 3.51419E-01
 -1      6894 3.51419E-01
 -1      6895 3.51419E-01
 -1      6896 3.51419E-01
 -1      6897 3.51419E-01
 -1      6898 3.51419E-01
 -1      6899 3.51419E-01
 -1      6900 3.51419E-01
 -1      6901 3.51419E-01
 -1      6902 3.51419E-01
 -1      6903 3.51419E-01
 -1      6904 3.51419E-01
 -1      6905 3.51419E-01
 -1      6906 3.51419E-01
 -1      6907 3.51419E-01
 -1      6908 3.51419E-01
 -1      6909 3.51419E-01
 -1      6910 3.51419E-01
 -1      6911 3.51419E-01
 -1      6912 3.51419E-01
 -1      6913 3.13751E-01
 -1      6914 3.13751E-01
 -1      6915 3.13751E-01
 -1      6916 3.13751E-01
 -1      6917 3.13751E-01
 -1      6918 3.13751E-01
 -1      6919 3.13751E-01
 -1      6920 3.13751E-01
 -1      6921 3.13751E-01
 -1      6922 3.13751E-01
 -1      6923 3.13751E-01
 -1      6924 3.13751E-01
 -1      6925 3.13751E-01
 -1      6926 3.13751E-01
 -1      6927 3.13751E-01
 -1      6928 3.13751E-01
 -1      6929 3.13751E-01
 -1      6930 3.13751E-01
 -1      6931 3.13751E-01
 -1      6932 3.13751E-01
 -1      6933 3.13751E-01
 -1      6934 3.13751E-01
 -1      6935 3.13751E-01
 -1      6936 3.13751E-01
 -1      6937 3.13751E-01
 -1      6938 3.13751E-01
 -1      6939 3.13751E-01
 -1      6940 3.13751E-01
 -1      6941 3.13751E-01
 -1      6942 3.13751E-01
 -1      6943 3.13751E-01
 -1      6944 3.13751E-01
 -1      6945 3.13751E-01
 -1      6946 3.13751E-01
 -1      6947 3.13751E-01
 -1      6948 3.13751E-01
 -1      6949 3.13751E-01
 -1      6950 3.13751E-01
 -1      6951 3.13751E-01
 -1      6952 3.13751E-01
 -1      6953 3.13751E-01
 -1      6954 3.13751E-01
 -1      6955 3.13751E-01
 -1      6956 3.13751E-01
 -1      6957 3.13751E-01
 -1      6958 3.13751E-01
 -1      6959 3.13751E-01
 -1      6960 3.13751E-01
 -1      6961 3.13751E-01
 -1      6962 3.13751E-01
 -1      6963 3.13751E-01
 -1      6964 3.13751E-01
 -1      6965 3.13751E-01
 -1      6966 3.13751E-01
 -1      6967 3.13751E-01
 -1      6968 3.13751E-01
 -1      6969 3.13751E-01
 -1      6970 3.13751E-01
 -1      6971 3.13751E-01
 -1      6972 3.13751E-01
 -1      6973 3.13751E-01
 -1      6974 3.13751E-01
 -1      6975 3.13751E-01
 -1      6976 3.13751E-01
 -1      6977 3.13751E-01
 -1      6978 3.13751E-01
 -1      6979 3.13751E-01
 -1      6980 3.13751E-01
 -1      6981 3.13751E-01
 -1      6982 3.13751E-01
 -1      6983 3.13751E-01
 -1      6984 3.13751E-01
 -1      6985 3.13751E-01
 -1      6986 3.13751E-01
 -1      6987 3.13751E-01
 -1      6988 3.13751E-01
 -1      6989 3.13751E-01
 -1      6990 3.13751E-01
 -1      6991 3.13751E-01
 -1      6992 3.13751E-01
 -1      6993 3.13751E-01
 -1      6994 3.13751E-01
 -1      6995 3.13751E-01
 -1      6996 3.13751E-01
 -1      6997 3.13751E-01
 -1      6998 3.13751E-01
 -1      6999 3.13751E-01
 -1      7000 3.13751E-01
 -1      7001 3.13751E-01
 -1      7002 3.13751E-01
 -1      7003 2.81054E-01
 -1      7004 2.81054E-01
 -1      7005 2.81054E-01
 -1      7006 2.81054E-01
 -1      7007 2.81054E-01
 -1      7008 2.81054E-01
 -1      7009 2.81054E-01
 -1      7010 2.81054E-01
 -1      7011 2.81054E-01
 -1      7012 2.81054E-01
 -1      7013 2.81054E-01
 -1      7014 2.81054E-01
 -1      7015 2.81054E-01
 -1      7016 2.81054E-01
 -1      7017 2.81054E-01
 -1      7018 2.81054E-01
 -1      7019 2.81054E-01
 -1      7020 2.81054E-01
 -1      7021 2.81054E-01
 -1      7022 2.81054E-01
 -1      7023 2.81054E-01
 -1      7024 2.81054E-01
 -1      7025 2.81054E-01
 -1      7026 2.81054E-01
 -1      7027 2.81054E-01
 -1      7028 2.81054E-01
 -1      7029 2.81054E-01
 -1      7030 2.81054E-01
 -1      7031 2.81054E-01
 -1      7032 2.81054E-01
 -1      7033 2.81054E-01
 -1      7034 2.81054E-01
 -1      7035 2.81054E-01
 -1      7036 2.81054E-01
 -1      7037 2.81054E-01
 -1      7038 2.81054E-01
 -1      7039 2.81054E-01
 -1      7040 2.81054E-01
 -1      7041 2.81054E-01
 -1      7042 2.81054E-01
 -1      7043 2.81054E-01
 -1      7044 2.81054E-01
 -1      7045 2.81054E-01
 -1      7046 2.81054E-01
 -1      7047 2.81054E-01
 -1      7048 2.81054E-01
 -1      7049 2.81054E-01
 -1      7050 2.81054E-01
 -1      7051 2.81054E-01
 -1      7052 2.81054E-01
 -1      7053 2.81054E-01
 -1      7054 2.81054E-01
 -1      7055 2.81054E-01
 -1      7056 2.81054E-01
 -1      7057 2.81054E-01
 -1      7058 2.81054E-01
 -1      7059 2.81054E-01
 -1      7060 2.81054E-01
 -1      7061 2.81054E-01
 -1      7062 2.81054E-01
 -1      7063 2.81054E-01
 -1      7064 2.81054E-01
 -1      7065 2.81054E-01
 -1      7066 2.81054E-01
 -1      7067 2.81054E-01
 -1      7068 2.81054E-01
 -1      7069 2.81054E-01
 -1      7070 2.81054E-01
 -1      7071 2.81054E-01
 -1      7072 2.81054E-01
 -1      7073 2.81054E-01
 -1      7074 2.81054E-01
 -1      7075 2.81054E-01
 -1      7076 2.81054E-01
 -1      7077 2.81054E-01
 -1      7078 2.81054E-01
 -1      7079 2.81054E-01
 -1      7080 2.81054E-01
 -1      7081 2.81054E-01
 -1      7082 2.81054E-01
 -1      7083 2.81054E-01
 -1      7084 2.81054E-01
 -1      7085 2.81054E-01
 -1      7086 2.81054E-01
 -1      7087 2.81054E-01
 -1      7088 2.81054E-01
 -1      7089 2.81054E-01
 -1      7090 2.81054E-01
 -1      7091 2.81054E-01
 -1      7092 2.81054E-01
 -1      7093 2.52568E-01
 -1      7094 2.52568E-01
 -1      7095 2.52568E-01
 -1      7096 2.52568E-01
 -1      7097 2.52568E-01
 -1      7098 2.52568E-01
 -1      7099 2.52568E-01
 -1      7100 2.52568E-01
 -1      7101 2.52568E-01
 -1      7102 2.52568E-01
 -1      7103 2.52568E-01
 -1      7104 2.52568E-01
 -1      7105 2.52568E-01
 -1      7106 2.52568E-01
 -1      7107 2.52568E-01
 -1      7108 2.52568E-01
 -1      7109 2.52568E-01
 -1      7110 2.52568E-01
 -1      7111 2.52568E-01
 -1      7112 2.52568E-01
 -1      7113 2.52568E-01
 -1      7114 2.52568E-01
 -1      7115 2.52568E-01
 -1      7116 2.52568E-01
 -1      7117 2.52568E-01
 -1      7118 2.52568E-01
 -1      7119 2.52568E-01
 -1      7120 2.52568E-01
 -1      7121 2.52568E-01
 -1      7122 2.52568E-01
 -1      7123 2.52568E-01
 -1      7124 2.52568E-01
 -1      7125 2.52568E-01
 -1      7126 2.52568E-01
 -1      7127 2.52568E-01
 -1      7128 2.52568E-01
 -1      7129 2.52568E-01
 -1      7130 2.52568E-01
 -1      7131 2.52568E-01
 -1      7132 2.52568E-01
 -1      7133 2.52568E-01
 -1      7134 2.52568E-01
 -1      7135 2.52568E-01
 -1      7136 2.52568E-01
 -1      7137 2.52568E-01
 -1      7138 2.52568E-01
 -1      7139 2.52568E-01
 -1      7140 2.52568E-01
 -1      7141 2.52568E-01
 -1      7142 2.52568E-01
 -1      7143 2.52568E-01
 -1      7144 2.52568E-01
 -1      7145 2.52568E-01
 -1      7146 2.52568E-01
 -1      7147 2.52568E-01
 -1      7148 2.52568E-01
 -1      7149 2.52568E-01
 -1      7150 2.52568E-01
 -1      7151 2.52568E-01
 -1      7152 2.52568E-01
 -1      7153 2.52568E-01
 -1      7154 2.52568E-01
 -1      7155 2.52568E-01
 -1      7156 2.52568E-01
 -1      7157 2.52568E-01
 -1      7158 2.52568E-01
 -1      7159 2.52568E-01
 -1      7160 2.52568E-01
 -1      7161 2.52568E-01
 -1      7162 2.52568E-01
 -1      7163 2.52568E-01
 -1      7164 2.52568E-01
 -1      7165 2.52568E-01
 -1      7166 2.52568E-01
 -1      7167 2.52568E-01
 -1      7168 2.52568E-01
 -1      7169 2.52568E-01
 -1      7170 2.52568E-01
 -1      7171 2.52568E-01
 -1      7172 2.52568E-01
 -1      7173 2.52568E-01
 -1      7174 2.52568E-01
 -1      7175 2.52568E-01
 -1      7176 2.52568E-01
 -1      7177 2.52568E-01
 -1      7178 2.52568E-01
 -1      7179 2.52568E-01
 -1      7180 2.52568E-01
 -1      7181 2.52568E-01
 -1      7182 2.52568E-01
 -1      7183 2.27662E-01
 -1      7184 2.27662E-01
 -1      7185 2.27662E-01
 -1      7186 2.27662E-01
 -1      7187 2.27662E-01
 -1      7188 2.27662E-01
 -1      7189 2.27662E-01
 -1      7190 2.27662E-01
 -1      7191 2.27662E-01
 -1      7192 2.27662E-01
 -1      7193 2.27662E-01
 -1      7194 2.27662E-01
 -1      7195 2.27662E-01
 -1      7196 2.27662E-01
 -1      7197 2.27662E-01
 -1      7198 2.27662E-01
 -1      7199 2.27662E-01
 -1      7200 2.27662E-01
 -1      7201 2.27662E-01
 -1      7202 2.27662E-01
 -1      7203 2.27662E-01
 -1      7204 2.27662E-01
 -1      7205 2.27662E-01
 -1      7206 2.27662E-01
 -1      7207 2.27662E-01
 -1      7208 2.27662E-01
 -1      7209 2.27662E-01
 -1      7210 2.27662E-01
 -1      7211 2.27662E-01
 -1      7212 2.27662E-01
 -1      7213 2.27662E-01
 -1      7214 2.27662E-01
 -1      7215 2.27662E-01
 -1      7216 2.27662E-01
 -1      7217 2.27662E-01
 -1      7218 2.27662E-01
 -1      7219 2.27662E-01
 -1      7220 2.27662E-01
 -1      7221 2.27662E-01
 -1      7222 2.27662E-01
 -1      7223 2.27662E-01
 -1      7224 2.27662E-01
 -1      7225 2.27662E-01
 -1      7226 2.27662E-01
 -1      7227 2.27662E-01
 -1      7228 2.27662E-01
 -1      7229 2.27662E-01
 -1      7230 2.27662E-01
 -1      7231 2.27662E-01
 -1      7232 2.27662E-01
 -1      7233 2.27662E-01
 -1      7234 2.27662E-01
 -1      7235 2.27662E-01
 -1      7236 2.27662E-01
 -1      7237 2.27662E-01
 -1      7238 2.27662E-01
 -1      7239 2.27662E-01
 -1      7240 2.27662E-01
 -1      7241 2.27662E-01
 -1      7242 2.27662E-01
 -1      7243 2.27662E-01
 -1      7244 2.27662E-01
 -1      7245 2.27662E-01
 -1      7246 2.27662E-01
 -1      7247 2.27662E-01
 -1      7248 2.27662E-01
 -1      7249 2.27662E-01
 -1      7250 2.27662E-01
 -1      7251 2.27662E-01
 -1      7252 2.27662E-01
 -1      7253 2.27662E-01
 -1      7254 2.27662E-01
 -1      7255 2.27662E-01
 -1      7256 2.27662E-01
 -1      7257 2.27662E-01
 -1      7258 2.27662E-01
 -1      7259 2.27662E-01
 -1      7260 2.27662E-01
 -1      7261 2.27662E-01
 -1      7262 2.27662E-01
 -1      7263 2.27662E-01
 -1      7264 2.27662E-01
 -1      7265 2.27662E-01
 -1      7266 2.27662E-01
 -1      7267 2.27662E-01
 -1      7268 2.27662E-01
 -1      7269 2.27662E-01
 -1      7270 2.27662E-01
 -1      7271 2.27662E-01
 -1      7272 2.27662E-01
 -1      7273 2.05810E-01
 -1      7274 2.05810E-01
 -1      7275 2.05810E-01
 -1      7276 2.05810E-01
 -1      7277 2.05810E-01
 -1      7278 2.05810E-01
 -1      7279 2.05810E-01
 -1      7280 2.05810E-01
 -1      7281 2.05810E-01
 -1      7282 2.05810E-01
 -1      7283 2.05810E-01
 -1      7284 2.05810E-01
 -1      7285 2.05810E-01
 -1      7286 2.05810E-01
 -1      7287 2.05810E-01
 -1      7288 2.05810E-01
 -1      7289 2.05810E-01
 -1      7290 2.05810E-01
 -1      7291 2.05810E-01
 -1      7292 2.05810E-01
 -1      7293 2.05810E-01
 -1      7294 2.05810E-01
 -1      7295 2.05810E-01
 -1      7296 2.05810E-01
 -1      7297 2.05810E-01
 -1      7298 2.05810E-01
 -1      7299 2.05810E-01
 -1      7300 2.05810E-01
 -1      7301 2.05810E-01
 -1      7302 2.05810E-01
 -1      7303 2.05810E-01
 -1      7304 2.05810E-01
 -1      7305 2.05810E-01
 -1      7306 2.05810E-01
 -1      7307 2.05810E-01
 -1      7308 2.05810E-01
 -1      7309 2.05810E-01
 -1      7310 2.05810E-01
 -1      7311 2.05810E-01
 -1      7312 2.05810E-01
 -1      7313 2.05810E-01
 -1      7314 2.05810E-01
 -1      7315 2.05810E-01
 -1      7316 2.05810E-01
 -1      7317 2.05810E-01
 -1      7318 2.05810E-01
 -1      7319 2.05810E-01
 -1      7320 2.05810E-01
 -1      7321 2.05810E-01
 -1      7322 2.05810E-01
 -1      7323 2.05810E-01
 -1      7324 2.05810E-01
 -1      7325 2.05810E-01
 -1      7326 2.05810E-01
 -1      7327 2.05810E-01
 -1      7328 2.05810E-01
 -1      7329 2.05810E-01
 -1      7330 2.05810E-01
 -1      7331 2.05810E-01
 -1      7332 2.05810E-01
 -1      7333 2.05810E-01
 -1      7334 2.05810E-01
 -1      7335 2.05810E-01
 -1      7336 2.05810E-01
 -1      7337 2.05810E-01
 -1      7338 2.05810E-01
 -1      7339 2.05810E-01
 -1      7340 2.05810E-01
 -1      7341 2.05810E-01
 -1      7342 2.05810E-01
 -1      7343 2.05810E-01
 -1      7344 2.05810E-01
 -1      7345 2.05810E-01
 -1      7346 2.05810E-01
 -1      7347 2.05810E-01
 -1      7348 2.05810E-01
 -1      7349 2.05810E-01
 -1      7350 2.05810E-01
 -1      7351 2.05810E-01
 -1      7352 2.05810E-01
 -1      7353 2.05810E-01
 -1      7354 2.05810E-01
 -1      7355 2.05810E-01
 -1      7356 2.05810E-01
 -1      7357 2.05810E-01
 -1      7358 2.05810E-01
 -1      7359 2.05810E-01
 -1      7360 2.05810E-01
 -1      7361 2.05810E-01
 -1      7362 2.05810E-01
 -1      7363 1.86575E-01
 -1      7364 1.86575E-01
 -1      7365 1.86575E-01
 -1      7366 1.86575E-01
 -1      7367 1.86575E-01
 -1      7368 1.86575E-01
 -1      7369 1.86575E-01
 -1      7370 1.86575E-01
 -1      7371 1.86575E-01
 -1      7372 1.86575E-01
 -1      7373 1.86575E-01
 -1      7374 1.86575E-01
 -1      7375 1.86575E-01
 -1      7376 1.86575E-01
 -1      7377 1.86575E-01
 -1      7378 1.86575E-01
 -1      7379 1.86575E-01
 -1      7380 1.86575E-01
 -1      7381 1.86575E-01
 -1      7382 1.86575E-01
 -1      7383 1.86575E-01
 -1      7384 1.86575E-01
 -1      7385 1.86575E-01
 -1      7386 1.86575E-01
 -1      7387 1.86575E-01
 -1      7388 1.86575E-01
 -1      7389 1.86575E-01
 -1      7390 1.86575E-01
 -1      7391 1.86575E-01
 -1      7392 1.86575E-01
 -1      7393 1.86575E-01
 -1      7394 1.86575E-01
 -1      7395 1.86575E-01
 -1      7396 1.86575E-01
 -1      7397 1.86575E-01
 -1      7398 1.86575E-01
 -1      7399 1.86575E-01
 -1      7400 1.86575E-01
 -1      7401 1.86575E-01
 -1      7402 1.86575E-01
 -1      7403 1.86575E-01
 -1      7404 1.86575E-01
 -1      7405 1.86575E-01
 -1      7406 1.86575E-01
 -1      7407 1.86575E-01
 -1      7408 1.86575E-01
 -1      7409 1.86575E-01
 -1      7410 1.86575E-01
 -1      7411 1.86575E-01
 -1      7412 1.86575E-01
 -1      7413 1.86575E-01
 -1      7414 1.86575E-01
 -1      7415 1.86575E-01
 -1      7416 1.86575E-01
 -1      7417 1.86575E-01
 -1      7418 1.86575E-01
 -1      7419 1.86575E-01
 -1      7420 1.86575E-01
 -1      7421 1.86575E-01
 -1      7422 1.86575E-01
 -1      7423 1.86575E-01
 -1      7424 1.86575E-01
 -1      7425 1.86575E-01
 -1      7426 1.86575E-01
 -1      7427 1.86575E-01
 -1      7428 1.86575E-01
 -1      7429 1.86575E-01
 -1      7430 1.86575E-01
 -1      7431 1.86575E-01
 -1      7432 1.86575E-01
 -1      7433 1.86575E-01
 -1      7434 1.86575E-01
 -1      7435 1.86575E-01
 -1      7436 1.86575E-01
 -1      7437 1.86575E-01
 -1      7438 1.86575E-01
 -1      7439 1.86575E-01
 -1      7440 1.86575E-01
 -1      7441 1.86575E-01
 -1      7442 1.86575E-01
 -1      7443 1.86575E-01
 -1      7444 1.86575E-01
 -1      7445 1.86575E-01
 -1      7446 1.86575E-01
 -1      7447 1.86575E-01
 -1      7448 1.86575E-01
 -1      7449 1.86575E-01
 -1      7450 1.86575E-01
 -1      7451 1.86575E-01
 -1      7452 1.86575E-01
 -1      7453 1.69588E-01
 -1      7454 1.69588E-01
 -1      7455 1.69588E-01
 -1      7456 1.69588E-01
 -1      7457 1.69588E-01
 -1      7458 1.69588E-01
 -1      7459 1.69588E-01
 -1      7460 1.69588E-01
 -1      7461 1.69588E-01
 -1      7462 1.69588E-01
 -1      7463 1.69588E-01
 -1      7464 1.69588E-01
 -1      7465 1.69588E-01
 -1      7466 1.69588E-01
 -1      7467 1.69588E-01
 -1      7468 1.69588E-01
 -1      7469 1.69588E-01
 -1      7470 1.69588E-01
 -1      7471 1.69588E-01
 -1      7472 1.69588E-01
 -1      7473 1.69588E-01
 -1      7474 1.69588E-01
 -1      7475 1.69588E-01
 -1      7476 1.69588E-01
 -1      7477 1.69588E-01
 -1      7478 1.69588E-01
 -1      7479 1.69588E-01
 -1      7480 1.69588E-01
 -1      7481 1.69588E-01
 -1      7482 1.69588E-01
 -1      7483 1.69588E-01
 -1      7484 1.69588E-01
 -1      7485 1.69588E-01
 -1      7486 1.69588E-01
 -1      7487 1.69588E-01
 -1      7488 1.69588E-01
 -1      7489 1.69588E-01
 -1      7490 1.69588E-01
 -1      7491 1.69588E-01
 -1      7492 1.69588E-01
 -1      7493 1.69588E-01
 -1      7494 1.69588E-01
 -1      7495 1.69588E-01
 -1      7496 1.69588E-01
 -1      7497 1.69588E-01
 -1      7498 1.69588E-01
 -1      7499 1.69588E-01
 -1      7500 1.69588E-01
 -1      7501 1.69588E-01
 -1      7502 1.69588E-01
 -1      7503 1.69588E-01
 -1      7504 1.69588E-01
 -1      7505 1.69588E-01
 -1      7506 1.69588E-01
 -1      7507 1.69588E-01
 -1      7508 1.69588E-01
 -1      7509 1.69588E-01
 -1      7510 1.69588E-01
 -1      7511 1.69588E-01
 -1      7512 1.69588E-01
 -1      7513 1.69588E-01
 -1      7514 1.69588E-01
 -1      7515 1.69588E-01
 -1      7516 1.69588E-01
 -1      7517 1.69588E-01
 -1      7518 1.69588E-01
 -1      7519 1.69588E-01
 -1      7520 1.69588E-01
 -1      7521 1.69588E-01
 -1      7522 1.69588E-01
 -1      7523 1.69588E-01
 -1      7524 1.69588E-01
 -1      7525 1.69588E-01
 -1      7526 1.69588E-01
 -1      7527 1.69588E-01
 -1      7528 1.69588E-01
 -1      7529 1.69588E-01
 -1      7530 1.69588E-01
 -1      7531 1.69588E-01
 -1      7532 1.69588E-01
 -1      7533 1.69588E-01
 -1      7534 1.69588E-01
 -1      7535 1.69588E-01
 -1      7536 1.69588E-01
 -1      7537 1.69588E-01
 -1      7538 1.69588E-01
 -1      7539 1.69588E-01
 -1      7540 1.69588E-01
 -1      7541 1.69588E-01
 -1      7542 1.69588E-01
 -1      7543 1.54540E-01
 -1      7544 1.54540E-01
 -1      7545 1.54540E-01
 -1      7546 1.54540E-01
 -1      7547 1.54540E-01
 -1      7548 1.54540E-01
 -1      7549 1.54540E-01
 -1      7550 1.54540E-01
 -1      7551 1.54540E-01
 -1      7552 1.54540E-01
 -1      7553 1.54540E-01
 -1      7554 1.54540E-01
 -1      7555 1.54540E-01
 -1      7556 1.54540E-01
 -1      7557 1.54540E-01
 -1      7558 1.54540E-01
 -1      7559 1.54540E-01
 -1      7560 1.54540E-01
 -1      7561 1.54540E-01
 -1      7562 1.54540E-01
 -1      7563 1.54540E-01
 -1      7564 1.54540E-01
 -1      7565 1.54540E-01
 -1      7566 1.54540E-01
 -1      7567 1.54540E-01
 -1      7568 1.54540E-01
 -1      7569 1.54540E-01
 -1      7570 1.54540E-01
 -1      7571 1.54540E-01
 -1      7572 1.54540E-01
 -1      7573 1.54540E-01
 -1      7574 1.54540E-01
 -1      7575 1.54540E-01
 -1      7576 1.54540E-01
 -1      7577 1.54540E-01
 -1      7578 1.54540E-01
 -1      7579 1.54540E-01
 -1      7580 1.54540E-01
 -1      7581 1.54540E-01
 -1      7582 1.54540E-01
 -1      7583 1.54540E-01
 -1      7584 1.54540E-01
 -1      7585 1.54540E-01
 -1      7586 1.54540E-01
 -1      7587 1.54540E-01
 -1      7588 1.54540E-01
 -1      7589 1.54540E-01
 -1      7590 1.54540E-01
 -1      7591 1.54540E-01
 -1      7592 1.54540E-01
 -1      7593 1.54540E-01
 -1      7594 1.54540E-01
 -1      7595 1.54540E-01
 -1      7596 1.54540E-01
 -1      7597 1.54540E-01
 -1      7598 1.54540E-01
 -1      7599 1.54540E-01
 -1      7600 1.54540E-01
 -1      7601 1.54540E-01
 -1      7602 1.54540E-01
 -1      7603 1.54540E-01
 -1      7604 1.54540E-01
 -1      7605 1.54540E-01
 -1      7606 1.54540E-01
 -1      7607 1.54540E-01
 -1      7608 1.54540E-01
 -1      7609 1.54540E-01
 -1      7610 1.54540E-01
 -1      7611 1.54540E-01
 -1      7612 1.54540E-01
 -1      7613 1.54540E-01
 -1      7614 1.54540E-01
 -1      7615 1.54540E-01
 -1      7616 1.54540E-01
 -1      7617 1.54540E-01
 -1      7618 1.54540E-01
 -1      7619 1.54540E-01
 -1      7620 1.54540E-01
 -1      7621 1.54540E-01
 -1      7622 1.54540E-01
 -1      7623 1.54540E-01
 -1      7624 1.54540E-01
 -1      7625 1.54540E-01
 -1      7626 1.54540E-01
 -1      7627 1.54540E-01
 -1      7628 1.54540E-01
 -1      7629 1.54540E-01
 -1      7630 1.54540E-01
 -1      7631 1.54540E-01
 -1      7632 1.54540E-01
 -1      7633 1.41171E-01
 -1      7634 1.41171E-01
 -1      7635 1.41171E-01
 -1      7636 1.41171E-01
 -1      7637 1.41171E-01
 -1      7638 1.41171E-01
 -1      7639 1.41171E-01
 -1      7640 1.41171E-01
 -1      7641 1.41171E-01
 -1      7642 1.41171E-01
 -1      7643 1.41171E-01
 -1      7644 1.41171E-01
 -1      7645 1.41171E-01
 -1      7646 1.41171E-01
 -1      7647 1.41171E-01
 -1      7648 1.41171E-01
 -1      7649 1.41171E-01
 -1      7650 1.41171E-01
 -1      7651 1.41171E-01
 -1      7652 1.41171E-01
 -1      7653 1.41172E-01
 -1      7654 1.41172E-01
 -1      7655 1.41172E-01
 -1      7656 1.41172E-01
 -1      7657 1.41172E-01
 -1      7658 1.41172E-01
 -1      7659 1.41172E-01
 -1      7660 1.41172E-01
 -1      7661 1.41172E-01
 -1      7662 1.41172E-01
 -1      7663 1.41172E-01
 -1      7664 1.41172E-01
 -1      7665 1.41172E-01
 -1      7666 1.41172E-01
 -1      7667 1.41172E-01
 -1      7668 1.41172E-01
 -1      7669 1.41172E-01
 -1      7670 1.41172E-01
 -1      7671 1.41172E-01
 -1      7672 1.41172E-01
 -1      7673 1.41172E-01
 -1      7674 1.41172E-01
 -1      7675 1.41172E-01
 -1      7676 1.41172E-01
 -1      7677 1.41172E-01
 -1      7678 1.41172E-01
 -1      7679 1.41172E-01
 -1      7680 1.41172E-01
 -1      7681 1.41172E-01
 -1      7682 1.41172E-01
 -1      7683 1.41172E-01
 -1      7684 1.41172E-01
 -1      7685 1.41172E-01
 -1      7686 1.41172E-01
 -1      7687 1.41172E-01
 -1      7688 1.41172E-01
 -1      7689 1.41172E-01
 -1      7690 1.41172E-01
 -1      7691 1.41172E-01
 -1      7692 1.41172E-01
 -1      7693 1.41172E-01
 -1      7694 1.41172E-01
 -1      7695 1.41172E-01
 -1      7696 1.41172E-01
 -1      7697 1.41172E-01
 -1      7698 1.41172E-01
 -1      7699 1.41172E-01
 -1      7700 1.41172E-01
 -1      7701 1.41172E-01
 -1      7702 1.41172E-01
 -1      7703 1.41172E-01
 -1      7704 1.41172E-01
 -1      7705 1.41172E-01
 -1      7706 1.41172E-01
 -1      7707 1.41172E-01
 -1      7708 1.41172E-01
 -1      7709 1.41172E-01
 -1      7710 1.41172E-01
 -1      7711 1.41172E-01
 -1      7712 1.41172E-01
 -1      7713 1.41172E-01
 -1      7714 1.41172E-01
 -1      7715 1.41172E-01
 -1      7716 1.41172E-01
 -1      7717 1.41172E-01
 -1      7718 1.41172E-01
 -1      7719 1.41172E-01
 -1      7720 1.41172E-01
 -1      7721 1.41172E-01
 -1      7722 1.41172E-01
 -1      7723 1.29260E-01
 -1      7724 1.29260E-01
 -1      7725 1.29260E-01
 -1      7726 1.29260E-01
 -1      7727 1.29260E-01
 -1      7728 1.29260E-01
 -1      7729 1.29260E-01
 -1      7730 1.29260E-01
 -1      7731 1.29260E-01
 -1      7732 1.29260E-01
 -1      7733 1.29260E-01
 -1      7734 1.29260E-01
 -1      7735 1.29260E-01
 -1      7736 1.29260E-01
 -1      7737 1.29260E-01
 -1      7738 1.29260E-01
 -1      7739 1.29260E-01
 -1      7740 1.29260E-01
 -1      7741 1.29260E-01
 -1      7742 1.29260E-01
 -1      7743 1.29260E-01
 -1      7744 1.29260E-01
 -1      7745 1.29260E-01
 -1      7746 1.29260E-01
 -1      7747 1.29260E-01
 -1      7748 1.29260E-01
 -1      7749 1.29260E-01
 -1      7750 1.29260E-01
 -1      7751 1.29260E-01
 -1      7752 1.29260E-01
 -1      7753 1.29260E-01
 -1      7754 1.29260E-01
 -1      7755 1.29260E-01
 -1      7756 1.29260E-01
 -1      7757 1.29260E-01
 -1      7758 1.29260E-01
 -1      7759 1.29260E-01
 -1      7760 1.29260E-01
 -1      7761 1.29260E-01
 -1      7762 1.29260E-01
 -1      7763 1.29260E-01
 -1      7764 1.29260E-01
 -1      7765 1.29260E-01
 -1      7766 1.29260E-01
 -1      7767 1.29260E-01
 -1      7768 1.29260E-01
 -1      7769 1.29260E-01
 -1      7770 1.29260E-01
 -1      7771 1.29260E-01
 -1      7772 1.29260E-01
 -1      7773 1.29260E-01
 -1      7774 1.29260E-01
 -1      7775 1.29260E-01
 -1      7776 1.29260E-01
 -1      7777 1.29260E-01
 -1      7778 1.29260E-01
 -1      7779 1.29260E-01
 -1      7780 1.29260E-01
 -1      7781 1.29260E-01
 -1      7782 1.29260E-01
 -1      7783 1.29260E-01
 -1      7784 1.29260E-01
 -1      7785 1.29260E-01
 -1      7786 1.29260E-01
 -1      7787 1.29260E-01
 -1      7788 1.29260E-01
 -1      7789 1.29260E-01
 -1      7790 1.29260E-01
 -1      7791 1.29260E-01
 -1      7792 1.29260E-01
 -1      7793 1.29260E-01
 -1      7794 1.29260E-01
 -1      7795 1.29260E-01
 -1      7796 1.29260E-01
 -1      7797 1.29260E-01
 -1      7798 1.29260E-01
 -1      7799 1.29260E-01
 -1      7800 1.29260E-01
 -1      7801 1.29260E-01
 -1      7802 1.29260E-01
 -1      7803 1.29260E-01
 -1      7804 1.29260E-01
 -1      7805 1.29260E-01
 -1      7806 1.29260E-01
 -1      7807 1.29260E-01
 -1      7808 1.29260E-01
 -1      7809 1.29260E-01
 -1      7810 1.29260E-01
 -1      7811 1.29260E-01
 -1      7812 1.29260E-01
 -1      7813 1.18617E-01
 -1      7814 1.18617E-01
 -1      7815 1.18617E-01
 -1      7816 1.18617E-01
 -1      7817 1.18617E-01
 -1      7818 1.18617E-01
 -1      7819 1.18617E-01
 -1      7820 1.18617E-01
 -1      7821 1.18617E-01
 -1      7822 1.18617E-01
 -1      7823 1.18617E-01
 -1      7824 1.18617E-01
 -1      7825 1.18617E-01
 -1      7826 1.18617E-01
 -1      7827 1.18617E-01
 -1      7828 1.18617E-01
 -1      7829 1.18617E-01
 -1      7830 1.18617E-01
 -1      7831 1.18617E-01
 -1      7832 1.18617E-01
 -1      7833 1.18617E-01
 -1      7834 1.18617E-01
 -1      7835 1.18617E-01
 -1      7836 1.18617E-01
 -1      7837 1.18617E-01
 -1      7838 1.18617E-01
 -1      7839 1.18617E-01
 -1      7840 1.18617E-01
 -1      7841 1.18617E-01
 -1      7842 1.18617E-01
 -1      7843 1.18617E-01
 -1      7844 1.18617E-01
 -1      7845 1.18617E-01
 -1      7846 1.18617E-01
 -1      7847 1.18617E-01
 -1      7848 1.18617E-01
 -1      7849 1.18617E-01
 -1      7850 1.18617E-01
 -1      7851 1.18617E-01
 -1      7852 1.18617E-01
 -1      7853 1.18617E-01
 -1      7854 1.18617E-01
 -1      7855 1.18617E-01
 -1      7856 1.18617E-01
 -1      7857 1.18617E-01
 -1      7858 1.18617E-01
 -1      7859 1.18617E-01
 -1      7860 1.18617E-01
 -1      7861 1.18617E-01
 -1      7862 1.18617E-01
 -1      7863 1.18617E-01
 -1      7864 1.18617E-01
 -1      7865 1.18617E-01
 -1      7866 1.18617E-01
 -1      7867 1.18617E-01
 -1      7868 1.18617E-01
 -1      7869 1.18617E-01
 -1      7870 1.18617E-01
 -1      7871 1.18617E-01
 -1      7872 1.18617E-01
 -1      7873 1.18617E-01
 -1      7874 1.18617E-01
 -1      7875 1.18617E-01
 -1      7876 1.18617E-01
 -1      7877 1.18617E-01
 -1      7878 1.18617E-01
 -1      7879 1.18617E-01
 -1      7880 1.18617E-01
 -1      7881 1.18617E-01
 -1      7882 1.18617E-01
 -1      7883 1.18617E-01
 -1      7884 1.18617E-01
 -1      7885 1.18617E-01
 -1      7886 1.18617E-01
 -1      7887 1.18617E-01
 -1      7888 1.18617E-01
 -1      7889 1.18617E-01
 -1      7890 1.18617E-01
 -1      7891 1.18617E-01
 -1      7892 1.18617E-01
 -1      7893 1.18617E-01
 -1      7894 1.18617E-01
 -1      7895 1.18617E-01
 -1      7896 1.18617E-01
 -1      7897 1.18617E-01
 -1      7898 1.18617E-01
 -1      7899 1.18617E-01
 -1      7900 1.18617E-01
 -1      7901 1.18617E-01
 -1      7902 1.18617E-01
 -1      7903 1.09083E-01
 -1      7904 1.09083E-01
 -1      7905 1.09083E-01
 -1      7906 1.09083E-01
 -1      7907 1.09083E-01
 -1      7908 1.09083E-01
 -1      7909 1.09083E-01
 -1      7910 1.09083E-01
 -1      7911 1.09083E-01
 -1      7912 1.09083E-01
 -1      7913 1.09083E-01
 -1      7914 1.09083E-01
 -1      7915 1.09083E-01
 -1      7916 1.09083E-01
 -1      7917 1.09083E-01
 -1      7918 1.09083E-01
 -1      7919 1.09083E-01
 -1      7920 1.09083E-01
 -1      7921 1.09083E-01
 -1      7922 1.09083E-01
 -1      7923 1.09083E-01
 -1      7924 1.09083E-01
 -1      7925 1.09083E-01
 -1      7926 1.09083E-01
 -1      7927 1.09083E-01
 -1      7928 1.09083E-01
 -1      7929 1.09083E-01
 -1      7930 1.09083E-01
 -1      7931 1.09083E-01
 -1      7932 1.09083E-01
 -1      7933 1.09083E-01
 -1      7934 1.09083E-01
 -1      7935 1.09083E-01
 -1      7936 1.09083E-01
 -1      7937 1.09083E-01
 -1      7938 1.09083E-01
 -1      7939 1.09083E-01
 -1      7940 1.09083E-01
 -1      7941 1.09083E-01
 -1      7942 1.09083E-01
 -1      7943 1.09083E-01
 -1      7944 1.09083E-01
 -1      7945 1.09083E-01
 -1      7946 1.09083E-01
 -1      7947 1.09083E-01
 -1      7948 1.09083E-01
 -1      7949 1.09083E-01
 -1      7950 1.09083E-01
 -1      7951 1.09083E-01
 -1      7952 1.09083E-01
 -1      7953 1.09083E-01
 -1      7954 1.09083E-01
 -1      7955 1.09083E-01
 -1      7956 1.09083E-01
 -1      7957 1.09083E-01
 -1      7958 1.09083E-01
 -1      7959 1.09083E-01
 -1      7960 1.09083E-01
 -1      7961 1.09083E-01
 -1      7962 1.09083E-01
 -1      7963 1.09083E-01
 -1      7964 1.09083E-01
 -1      7965 1.09083E-01
 -1      7966 1.09083E-01
 -1      7967 1.09083E-01
 -1      7968 1.09083E-01
 -1      7969 1.09083E-01
 -1      7970 1.09083E-01
 -1      7971 1.09083E-01
 -1      7972 1.09083E-01
 -1      7973 1.09083E-01
 -1      7974 1.09083E-01
 -1      7975 1.09083E-01
 -1      7976 1.09083E-01
 -1      7977 1.09083E-01
 -1      7978 1.09083E-01
 -1      7979 1.09083E-01
 -1      7980 1.09083E-01
 -1      7981 1.09083E-01
 -1      7982 1.09083E-01
 -1      7983 1.09083E-01
 -1      7984 1.09083E-01
 -1      7985 1.09083E-01
 -1      7986 1.09083E-01
 -1      7987 1.09083E-01
 -1      7988 1.09083E-01
 -1      7989 1.09083E-01
 -1      7990 1.09083E-01
 -1      7991 1.09083E-01
 -1      7992 1.09083E-01
 -1      7993 1.00521E-01
 -1      7994 1.00521E-01
 -1      7995 1.00521E-01
 -1      7996 1.00521E-01
 -1      7997 1.00521E-01
 -1      7998 1.00521E-01
 -1      7999 1.00521E-01
 -1      8000 1.00521E-01
 -1      8001 1.00521E-01
 -1      8002 1.00521E-01
 -1      8003 1.00521E-01
 -1      8004 1.00521E-01
 -1      8005 1.00521E-01
 -1      8006 1.00521E-01
 -1      8007 1.00521E-01
 -1      8008 1.00521E-01
 -1      8009 1.00521E-01
 -1      8010 1.00521E-01
 -1      8011 1.00521E-01
 -1      8012 1.00521E-01
 -1      8013 1.00521E-01
 -1      8014 1.00521E-01
 -1      8015 1.00521E-01
 -1      8016 1.00521E-01
 -1      8017 1.00521E-01
 -1      8018 1.00521E-01
 -1      8019 1.00521E-01
 -1      8020 1.00521E-01
 -1      8021 1.00521E-01
 -1      8022 1.00521E-01
 -1      8023 1.00521E-01
 -1      8024 1.00521E-01
 -1      8025 1.00521E-01
 -1      8026 1.00521E-01
 -1      8027 1.00521E-01
 -1      8028 1.00521E-01
 -1      8029 1.00521E-01
 -1      8030 1.00521E-01
 -1      8031 1.00521E-01
 -1      8032 1.00521E-01
 -1      8033 1.00521E-01
 -1      8034 1.00521E-01
 -1      8035 1.00521E-01
 -1      8036 1.00521E-01
 -1      8037 1.00521E-01
 -1      8038 1.00521E-01
 -1      8039 1.00521E-01
 -1      8040 1.00521E-01
 -1      8041 1.00521E-01
 -1      8042 1.00521E-01
 -1      8043 1.00521E-01
 -1      8044 1.00521E-01
 -1      8045 1.00521E-01
 -1      8046 1.00521E-01
 -1      8047 1.00521E-01
 -1      8048 1.00521E-01
 -1      8049 1.00521E-01
 -1      8050 1.00521E-01
 -1      8051 1.00521E-01
 -1      8052 1.00521E-01
 -1      8053 1.00521E-01
 -1      8054 1.00521E-01
 -1      8055 1.00521E-01
 -1      8056 1.00521E-01
 -1      8057 1.00521E-01
 -1      8058 1.00521E-01
 -1      8059 1.00521E-01
 -1      8060 1.00521E-01
 -1      8061 1.00521E-01
 -1      8062 1.00521E-01
 -1      8063 1.00521E-01
 -1      8064 1.00521E-01
 -1      8065 1.00521E-01
 -1      8066 1.00521E-01
 -1      8067 1.00521E-01
 -1      8068 1.00521E-01
 -1      8069 1.00521E-01
 -1      8070 1.00521E-01
 -1      8071 1.00521E-01
 -1      8072 1.00521E-01
 -1      8073 1.00521E-01
 -1      8074 1.00521E-01
 -1      8075 1.00521E-01
 -1      8076 1.00521E-01
 -1      8077 1.00521E-01
 -1      8078 1.00521E-01
 -1      8079 1.00521E-01
 -1      8080 1.00521E-01
 -1      8081 1.00521E-01
 -1      8082 1.00521E-01
 -1      8083 9.28113E-02
 -1      8084 9.28113E-02
 -1      8085 9.28112E-02
 -1      8086 9.28112E-02
 -1      8087 9.28112E-02
 -1      8088 9.28112E-02
 -1      8089 9.28112E-02
 -1      8090 9.28112E-02
 -1      8091 9.28113E-02
 -1      8092 9.28113E-02
 -1      8093 9.28113E-02
 -1      8094 9.28113E-02
 -1      8095 9.28112E-02
 -1      8096 9.28112E-02
 -1      8097 9.28112E-02
 -1      8098 9.28112E-02
 -1      8099 9.28112E-02
 -1      8100 9.28112E-02
 -1      8101 9.28113E-02
 -1      8102 9.28113E-02
 -1      8103 9.28113E-02
 -1      8104 9.28113E-02
 -1      8105 9.28112E-02
 -1      8106 9.28112E-02
 -1      8107 9.28112E-02
 -1      8108 9.28112E-02
 -1      8109 9.28112E-02
 -1      8110 9.28112E-02
 -1      8111 9.28113E-02
 -1      8112 9.28113E-02
 -1      8113 9.28114E-02
 -1      8114 9.28114E-02
 -1      8115 9.28113E-02
 -1      8116 9.28113E-02
 -1      8117 9.28113E-02
 -1      8118 9.28113E-02
 -1      8119 9.28113E-02
 -1      8120 9.28113E-02
 -1      8121 9.28114E-02
 -1      8122 9.28114E-02
 -1      8123 9.28114E-02
 -1      8124 9.28114E-02
 -1      8125 9.28113E-02
 -1      8126 9.28113E-02
 -1      8127 9.28113E-02
 -1      8128 9.28113E-02
 -1      8129 9.28113E-02
 -1      8130 9.28113E-02
 -1      8131 9.28114E-02
 -1      8132 9.28114E-02
 -1      8133 9.28113E-02
 -1      8134 9.28113E-02
 -1      8135 9.28112E-02
 -1      8136 9.28112E-02
 -1      8137 9.28112E-02
 -1      8138 9.28112E-02
 -1      8139 9.28112E-02
 -1      8140 9.28112E-02
 -1      8141 9.28113E-02
 -1      8142 9.28113E-02
 -1      8143 9.28114E-02
 -1      8144 9.28114E-02
 -1      8145 9.28112E-02
 -1      8146 9.28112E-02
 -1      8147 9.28112E-02
 -1      8148 9.28112E-02
 -1      8149 9.28112E-02
 -1      8150 9.28112E-02
 -1      8151 9.28114E-02
 -1      8152 9.28114E-02
 -1      8153 9.28115E-02
 -1      8154 9.28115E-02
 -1      8155 9.28113E-02
 -1      8156 9.28113E-02
 -1      8157 9.28113E-02
 -1      8158 9.28113E-02
 -1      8159 9.28113E-02
 -1      8160 9.28113E-02
 -1      8161 9.28115E-02
 -1      8162 9.28115E-02
 -1      8163 9.28115E-02
 -1      8164 9.28115E-02
 -1      8165 9.28113E-02
 -1      8166 9.28113E-02
 -1      8167 9.28113E-02
 -1      8168 9.28113E-02
 -1      8169 9.28113E-02
 -1      8170 9.28113E-02
 -1      8171 9.28115E-02
 -1      8172 9.28115E-02
 -1      8173 8.58562E-02
 -1      8174 8.58562E-02
 -1      8175 8.58561E-02
 -1      8176 8.58561E-02
 -1      8177 8.58560E-02
 -1      8178 8.58560E-02
 -1      8179 8.58561E-02
 -1      8180 8.58561E-02
 -1      8181 8.58562E-02
 -1      8182 8.58562E-02
 -1      8183 8.58563E-02
 -1      8184 8.58563E-02
 -1      8185 8.58561E-02
 -1      8186 8.58561E-02
 -1      8187 8.58560E-02
 -1      8188 8.58560E-02
 -1      8189 8.58561E-02
 -1      8190 8.58561E-02
 -1      8191 8.58563E-02
 -1      8192 8.58563E-02
 -1      8193 8.58563E-02
 -1      8194 8.58563E-02
 -1      8195 8.58561E-02
 -1      8196 8.58561E-02
 -1      8197 8.58560E-02
 -1      8198 8.58560E-02
 -1      8199 8.58561E-02
 -1      8200 8.58561E-02
 -1      8201 8.58563E-02
 -1      8202 8.58563E-02
 -1      8203 8.58564E-02
 -1      8204 8.58564E-02
 -1      8205 8.58562E-02
 -1      8206 8.58562E-02
 -1      8207 8.58561E-02
 -1      8208 8.58561E-02
 -1      8209 8.58562E-02
 -1      8210 8.58562E-02
 -1      8211 8.58564E-02
 -1      8212 8.58564E-02
 -1      8213 8.58564E-02
 -1      8214 8.58564E-02
 -1      8215 8.58562E-02
 -1      8216 8.58562E-02
 -1      8217 8.58561E-02
 -1      8218 8.58561E-02
 -1      8219 8.58562E-02
 -1      8220 8.58562E-02
 -1      8221 8.58564E-02
 -1      8222 8.58564E-02
 -1      8223 8.58562E-02
 -1      8224 8.58562E-02
 -1      8225 8.58560E-02
 -1      8226 8.58560E-02
 -1      8227 8.58560E-02
 -1      8228 8.58560E-02
 -1      8229 8.58560E-02
 -1      8230 8.58560E-02
 -1      8231 8.58562E-02
 -1      8232 8.58562E-02
 -1      8233 8.58563E-02
 -1      8234 8.58563E-02
 -1      8235 8.58561E-02
 -1      8236 8.58561E-02
 -1      8237 8.58561E-02
 -1      8238 8.58561E-02
 -1      8239 8.58561E-02
 -1      8240 8.58561E-02
 -1      8241 8.58563E-02
 -1      8242 8.58563E-02
 -1      8243 8.58565E-02
 -1      8244 8.58565E-02
 -1      8245 8.58563E-02
 -1      8246 8.58563E-02
 -1      8247 8.58563E-02
 -1      8248 8.58563E-02
 -1      8249 8.58563E-02
 -1      8250 8.58563E-02
 -1      8251 8.58565E-02
 -1      8252 8.58565E-02
 -1      8253 8.58565E-02
 -1      8254 8.58565E-02
 -1      8255 8.58563E-02
 -1      8256 8.58563E-02
 -1      8257 8.58563E-02
 -1      8258 8.58563E-02
 -1      8259 8.58563E-02
 -1      8260 8.58563E-02
 -1      8261 8.58565E-02
 -1      8262 8.58565E-02
 -1      8263 7.95587E-02
 -1      8264 7.95575E-02
 -1      8265 7.95567E-02
 -1      8266 7.95566E-02
 -1      8267 7.95566E-02
 -1      8268 7.95566E-02
 -1      8269 7.95566E-02
 -1      8270 7.95567E-02
 -1      8271 7.95575E-02
 -1      8272 7.95587E-02
 -1      8273 7.95587E-02
 -1      8274 7.95575E-02
 -1      8275 7.95567E-02
 -1      8276 7.95566E-02
 -1      8277 7.95566E-02
 -1      8278 7.95566E-02
 -1      8279 7.95566E-02
 -1      8280 7.95567E-02
 -1      8281 7.95575E-02
 -1      8282 7.95587E-02
 -1      8283 7.95587E-02
 -1      8284 7.95575E-02
 -1      8285 7.95567E-02
 -1      8286 7.95567E-02
 -1      8287 7.95567E-02
 -1      8288 7.95567E-02
 -1      8289 7.95567E-02
 -1      8290 7.95567E-02
 -1      8291 7.95575E-02
 -1      8292 7.95587E-02
 -1      8293 7.95588E-02
 -1      8294 7.95577E-02
 -1      8295 7.95568E-02
 -1      8296 7.95567E-02
 -1      8297 7.95567E-02
 -1      8298 7.95567E-02
 -1      8299 7.95567E-02
 -1      8300 7.95568E-02
 -1      8301 7.95577E-02
 -1      8302 7.95588E-02
 -1      8303 7.95588E-02
 -1      8304 7.95577E-02
 -1      8305 7.95568E-02
 -1      8306 7.95568E-02
 -1      8307 7.95568E-02
 -1      8308 7.95568E-02
 -1      8309 7.95568E-02
 -1      8310 7.95568E-02
 -1      8311 7.95577E-02
 -1      8312 7.95588E-02
 -1      8313 7.95588E-02
 -1      8314 7.95575E-02
 -1      8315 7.95568E-02
 -1      8316 7.95568E-02
 -1      8317 7.95568E-02
 -1      8318 7.95568E-02
 -1      8319 7.95568E-02
 -1      8320 7.95568E-02
 -1      8321 7.95575E-02
 -1      8322 7.95588E-02
 -1      8323 7.95589E-02
 -1      8324 7.95578E-02
 -1      8325 7.95569E-02
 -1      8326 7.95569E-02
 -1      8327 7.95569E-02
 -1      8328 7.95569E-02
 -1      8329 7.95569E-02
 -1      8330 7.95569E-02
 -1      8331 7.95578E-02
 -1      8332 7.95589E-02
 -1      8333 7.95590E-02
 -1      8334 7.95579E-02
 -1      8335 7.95570E-02
 -1      8336 7.95569E-02
 -1      8337 7.95569E-02
 -1      8338 7.95569E-02
 -1      8339 7.95569E-02
 -1      8340 7.95570E-02
 -1      8341 7.95579E-02
 -1      8342 7.95590E-02
 -1      8343 7.95590E-02
 -1      8344 7.95579E-02
 -1      8345 7.95570E-02
 -1      8346 7.95569E-02
 -1      8347 7.95569E-02
 -1      8348 7.95569E-02
 -1      8349 7.95569E-02
 -1      8350 7.95570E-02
 -1      8351 7.95579E-02
 -1      8352 7.95590E-02
 -1      8353 7.38798E-02
 -1      8354 7.38807E-02
 -1      8355 7.38807E-02
 -1      8356 7.38799E-02
 -1      8357 7.38795E-02
 -1      8358 7.38795E-02
 -1      8359 7.38799E-02
 -1      8360 7.38807E-02
 -1      8361 7.38807E-02
 -1      8362 7.38798E-02
 -1      8363 7.38798E-02
 -1      8364 7.38807E-02
 -1      8365 7.38807E-02
 -1      8366 7.38799E-02
 -1      8367 7.38795E-02
 -1      8368 7.38795E-02
 -1      8369 7.38799E-02
 -1      8370 7.38807E-02
 -1      8371 7.38807E-02
 -1      8372 7.38798E-02
 -1      8373 7.38799E-02
 -1      8374 7.38809E-02
 -1      8375 7.38809E-02
 -1      8376 7.38801E-02
 -1      8377 7.38797E-02
 -1      8378 7.38797E-02
 -1      8379 7.38801E-02
 -1      8380 7.38809E-02
 -1      8381 7.38809E-02
 -1      8382 7.38799E-02
 -1      8383 7.38802E-02
 -1      8384 7.38809E-02
 -1      8385 7.38809E-02
 -1      8386 7.38801E-02
 -1      8387 7.38797E-02
 -1      8388 7.38797E-02
 -1      8389 7.38801E-02
 -1      8390 7.38809E-02
 -1      8391 7.38809E-02
 -1      8392 7.38802E-02
 -1      8393 7.38802E-02
 -1      8394 7.38809E-02
 -1      8395 7.38809E-02
 -1      8396 7.38801E-02
 -1      8397 7.38799E-02
 -1      8398 7.38799E-02
 -1      8399 7.38801E-02
 -1      8400 7.38809E-02
 -1      8401 7.38809E-02
 -1      8402 7.38802E-02
 -1      8403 7.38798E-02
 -1      8404 7.38809E-02
 -1      8405 7.38809E-02
 -1      8406 7.38803E-02
 -1      8407 7.38801E-02
 -1      8408 7.38801E-02
 -1      8409 7.38803E-02
 -1      8410 7.38809E-02
 -1      8411 7.38809E-02
 -1      8412 7.38798E-02
 -1      8413 7.38802E-02
 -1      8414 7.38809E-02
 -1      8415 7.38809E-02
 -1      8416 7.38803E-02
 -1      8417 7.38801E-02
 -1      8418 7.38801E-02
 -1      8419 7.38803E-02
 -1      8420 7.38809E-02
 -1      8421 7.38809E-02
 -1      8422 7.38802E-02
 -1      8423 7.38803E-02
 -1      8424 7.38812E-02
 -1      8425 7.38812E-02
 -1      8426 7.38802E-02
 -1      8427 7.38800E-02
 -1      8428 7.38800E-02
 -1      8429 7.38802E-02
 -1      8430 7.38812E-02
 -1      8431 7.38812E-02
 -1      8432 7.38803E-02
 -1      8433 7.38803E-02
 -1      8434 7.38814E-02
 -1      8435 7.38814E-02
 -1      8436 7.38807E-02
 -1      8437 7.38806E-02
 -1      8438 7.38806E-02
 -1      8439 7.38807E-02
 -1      8440 7.38814E-02
 -1      8441 7.38814E-02
 -1      8442 7.38803E-02
 -1      8443 6.86101E-02
 -1      8444 6.85943E-02
 -1      8445 6.85938E-02
 -1      8446 6.85943E-02
 -1      8447 6.85944E-02
 -1      8448 6.85944E-02
 -1      8449 6.85943E-02
 -1      8450 6.85938E-02
 -1      8451 6.85943E-02
 -1      8452 6.86101E-02
 -1      8453 6.86107E-02
 -1      8454 6.85943E-02
 -1      8455 6.85943E-02
 -1      8456 6.85948E-02
 -1      8457 6.85948E-02
 -1      8458 6.85948E-02
 -1      8459 6.85948E-02
 -1      8460 6.85943E-02
 -1      8461 6.85943E-02
 -1      8462 6.86107E-02
 -1      8463 6.86107E-02
 -1      8464 6.85953E-02
 -1      8465 6.85943E-02
 -1      8466 6.85948E-02
 -1      8467 6.85948E-02
 -1      8468 6.85948E-02
 -1      8469 6.85948E-02
 -1      8470 6.85943E-02
 -1      8471 6.85953E-02
 -1      8472 6.86107E-02
 -1      8473 6.86106E-02
 -1      8474 6.85953E-02
 -1      8475 6.85963E-02
 -1      8476 6.85970E-02
 -1      8477 6.85971E-02
 -1      8478 6.85971E-02
 -1      8479 6.85970E-02
 -1      8480 6.85963E-02
 -1      8481 6.85953E-02
 -1      8482 6.86106E-02
 -1      8483 6.86120E-02
 -1      8484 6.85984E-02
 -1      8485 6.85999E-02
 -1      8486 6.86011E-02
 -1      8487 6.86014E-02
 -1      8488 6.86014E-02
 -1      8489 6.86011E-02
 -1      8490 6.85999E-02
 -1      8491 6.85984E-02
 -1      8492 6.86120E-02
 -1      8493 6.86129E-02
 -1      8494 6.86022E-02
 -1      8495 6.85999E-02
 -1      8496 6.86011E-02
 -1      8497 6.86014E-02
 -1      8498 6.86014E-02
 -1      8499 6.86011E-02
 -1      8500 6.85999E-02
 -1      8501 6.86022E-02
 -1      8502 6.86129E-02
 -1      8503 6.86129E-02
 -1      8504 6.86022E-02
 -1      8505 6.85962E-02
 -1      8506 6.85968E-02
 -1      8507 6.85972E-02
 -1      8508 6.85972E-02
 -1      8509 6.85968E-02
 -1      8510 6.85962E-02
 -1      8511 6.86022E-02
 -1      8512 6.86129E-02
 -1      8513 6.86109E-02
 -1      8514 6.86027E-02
 -1      8515 6.86043E-02
 -1      8516 6.86049E-02
 -1      8517 6.86050E-02
 -1      8518 6.86050E-02
 -1      8519 6.86049E-02
 -1      8520 6.86043E-02
 -1      8521 6.86027E-02
 -1      8522 6.86109E-02
 -1      8523 6.86174E-02
 -1      8524 6.86067E-02
 -1      8525 6.86060E-02
 -1      8526 6.86068E-02
 -1      8527 6.86068E-02
 -1      8528 6.86068E-02
 -1      8529 6.86068E-02
 -1      8530 6.86060E-02
 -1      8531 6.86067E-02
 -1      8532 6.86174E-02
 -1      8533 1.33229E+00
 -1      8534 1.33229E+00
 -1      8535 1.33229E+00
 -1      8540 1.33227E+00
 -1      8541 1.33225E+00
 -1      8542 1.33225E+00
 -1      8547 1.33225E+00
 -1      8548 1.33224E+00
 -1      8549 1.33224E+00
 -1      8554 1.33224E+00
 -1      8555 1.33224E+00
 -1      8556 1.33224E+00
 -1      8561 1.33224E+00
 -1      8562 1.33224E+00
 -1      8563 1.33224E+00
 -1      8568 1.33224E+00
 -1      8569 1.33224E+00
 -1      8570 1.33224E+00
 -1      8575 1.33224E+00
 -1      8576 1.33224E+00
 -1      8577 1.33224E+00
 -1      8582 1.33224E+00
 -1      8583 1.33224E+00
 -1      8584 1.33224E+00
 -1      8589 1.33225E+00
 -1      8590 1.33225E+00
 -1      8591 1.33225E+00
 -1      8596 1.33227E+00
 -1      8597 1.33229E+00
 -1      8598 1.33229E+00
 -1      8603 1.33229E+00
 -1      8607 1.33229E+00
 -1      8608 1.33229E+00
 -1      8609 1.33229E+00
 -1      8614 1.33227E+00
 -1      8615 1.33225E+00
 -1      8616 1.33225E+00
 -1      8621 1.33225E+00
 -1      8622 1.33224E+00
 -1      8623 1.33224E+00
 -1      8628 1.33224E+00
 -1      8629 1.33224E+00
 -1      8630 1.33224E+00
 -1      8635 1.33224E+00
 -1      8636 1.33224E+00
 -1      8637 1.33224E+00
 -1      8642 1.33224E+00
 -1      8643 1.33224E+00
 -1      8644 1.33224E+00
 -1      8649 1.33224E+00
 -1      8650 1.33224E+00
 -1      8651 1.33224E+00
 -1      8656 1.33224E+00
 -1      8657 1.33224E+00
 -1      8658 1.33224E+00
 -1      8663 1.33225E+00
 -1      8664 1.33225E+00
 -1      8665 1.33225E+00
 -1      8670 1.33227E+00
 -1      8671 1.33229E+00
 -1      8672 1.33229E+00
 -1      8677 1.33229E+00
 -1      8681 1.33229E+00
 -1      8682 1.33229E+00
 -1      8683 1.33229E+00
 -1      8688 1.33227E+00
 -1      8689 1.33225E+00
 -1      8690 1.33225E+00
 -1      8695 1.33225E+00
 -1      8696 1.33224E+00
 -1      8697 1.33224E+00
 -1      8702 1.33224E+00
 -1      8703 1.33224E+00
 -1      8704 1.33224E+00
 -1      8709 1.33224E+00
 -1      8710 1.33224E+00
 -1      8711 1.33224E+00
 -1      8716 1.33224E+00
 -1      8717 1.33224E+00
 -1      8718 1.33224E+00
 -1      8723 1.33224E+00
 -1      8724 1.33224E+00
 -1      8725 1.33224E+00
 -1      8730 1.33224E+00
 -1      8731 1.33224E+00
 -1      8732 1.33224E+00
 -1      8737 1.33225E+00
 -1      8738 1.33225E+00
 -1      8739 1.33225E+00
 -1      8744 1.33227E+00
 -1      8745 1.33229E+00
 -1      8746 1.33229E+00
 -1      8751 1.33229E+00
 -1      8755 1.33229E+00
 -1      8756 1.33229E+00
 -1      8757 1.33229E+00
 -1      8762 1.33227E+00
 -1      8763 1.33225E+00
 -1      8764 1.33225E+00
 -1      8769 1.33225E+00
 -1      8770 1.33224E+00
 -1      8771 1.33224E+00
 -1      8776 1.33224E+00
 -1      8777 1.33224E+00
 -1      8778 1.33224E+00
 -1      8783 1.33224E+00
 -1      8784 1.33224E+00
 -1      8785 1.33224E+00
 -1      8790 1.33224E+00
 -1      8791 1.33224E+00
 -1      8792 1.33224E+00
 -1      8797 1.33224E+00
 -1      8798 1.33224E+00
 -1      8799 1.33224E+00
 -1      8804 1.33224E+00
 -1      8805 1.33224E+00
 -1      8806 1.33224E+00
 -1      8811 1.33225E+00
 -1      8812 1.33225E+00
 -1      8813 1.33225E+00
 -1      8818 1.33227E+00
 -1      8819 1.33229E+00
 -1      8820 1.33229E+00
 -1      8825 1.33229E+00
 -1      8829 1.33229E+00
 -1      8830 1.33229E+00
 -1      8831 1.33229E+00
 -1      8836 1.33227E+00
 -1      8837 1.33225E+00
 -1      8838 1.33225E+00
 -1      8843 1.33225E+00
 -1      8844 1.33224E+00
 -1      8845 1.33224E+00
 -1      8850 1.33224E+00
 -1      8851 1.33224E+00
 -1      8852 1.33224E+00
 -1      8857 1.33224E+00
 -1      8858 1.33224E+00
 -1      8859 1.33224E+00
 -1      8864 1.33224E+00
 -1      8865 1.33224E+00
 -1      8866 1.33224E+00
 -1      8871 1.33224E+00
 -1      8872 1.33224E+00
 -1      8873 1.33224E+00
 -1      8878 1.33224E+00
 -1      8879 1.33224E+00
 -1      8880 1.33224E+00
 -1      8885 1.33225E+00
 -1      8886 1.33225E+00
 -1      8887 1.33225E+00
 -1      8892 1.33227E+00
 -1      8893 1.33229E+00
 -1      8894 1.33229E+00
 -1      8899 1.33229E+00
 -1      8903 1.33229E+00
 -1      8904 1.33229E+00
 -1      8905 1.33229E+00
 -1      8910 1.33227E+00
 -1      8911 1.33225E+00
 -1      8912 1.33225E+00
 -1      8917 1.33225E+00
 -1      8918 1.33224E+00
 -1      8919 1.33224E+00
 -1      8924 1.33224E+00
 -1      8925 1.33224E+00
 -1      8926 1.33224E+00
 -1      8931 1.33224E+00
 -1      8932 1.33224E+00
 -1      8933 1.33224E+00
 -1      8938 1.33224E+00
 -1      8939 1.33224E+00
 -1      8940 1.33224E+00
 -1      8945 1.33224E+00
 -1      8946 1.33224E+00
 -1      8947 1.33224E+00
 -1      8952 1.33224E+00
 -1      8953 1.33224E+00
 -1      8954 1.33224E+00
 -1      8959 1.33225E+00
 -1      8960 1.33225E+00
 -1      8961 1.33225E+00
 -1      8966 1.33227E+00
 -1      8967 1.33229E+00
 -1      8968 1.33229E+00
 -1      8973 1.33229E+00
 -1      8977 1.33229E+00
 -1      8978 1.33229E+00
 -1      8979 1.33229E+00
 -1      8984 1.33227E+00
 -1      8985 1.33225E+00
 -1      8986 1.33225E+00
 -1      8991 1.33225E+00
 -1      8992 1.33224E+00
 -1      8993 1.33224E+00
 -1      8998 1.33224E+00
 -1      8999 1.33224E+00
 -1      9000 1.33224E+00
 -1      9005 1.33224E+00
 -1      9006 1.33224E+00
 -1      9007 1.33224E+00
 -1      9012 1.33224E+00
 -1      9013 1.33224E+00
 -1      9014 1.33224E+00
 -1      9019 1.33224E+00
 -1      9020 1.33224E+00
 -1      9021 1.33224E+00
 -1      9026 1.33224E+00
 -1      9027 1.33224E+00
 -1      9028 1.33224E+00
 -1      9033 1.33225E+00
 -1      9034 1.33225E+00
 -1      9035 1.33225E+00
 -1      9040 1.33227E+00
 -1      9041 1.33229E+00
 -1      9042 1.33229E+00
 -1      9047 1.33229E+00
 -1      9051 1.33229E+00
 -1      9052 1.33229E+00
 -1      9053 1.33229E+00
 -1      9058 1.33227E+00
 -1      9059 1.33225E+00
 -1      9060 1.33225E+00
 -1      9065 1.33225E+00
 -1      9066 1.33224E+00
 -1      9067 1.33224E+00
 -1      9072 1.33224E+00
 -1      9073 1.33224E+00
 -1      9074 1.33224E+00
 -1      9079 1.33224E+00
 -1      9080 1.33224E+00
 -1      9081 1.33224E+00
 -1      9086 1.33224E+00
 -1      9087 1.33224E+00
 -1      9088 1.33224E+00
 -1      9093 1.33224E+00
 -1      9094 1.33224E+00
 -1      9095 1.33224E+00
 -1      9100 1.33224E+00
 -1      9101 1.33224E+00
 -1      9102 1.33224E+00
 -1      9107 1.33225E+00
 -1      9108 1.33225E+00
 -1      9109 1.33225E+00
 -1      9114 1.33227E+00
 -1      9115 1.33229E+00
 -1      9116 1.33229E+00
 -1      9121 1.33229E+00
 -1      9125 1.33229E+00
 -1      9126 1.33229E+00
 -1      9127 1.33229E+00
 -1      9132 1.33227E+00
 -1      9133 1.33225E+00
 -1      9134 1.33225E+00
 -1      9139 1.33225E+00
 -1      9140 1.33224E+00
 -1      9141 1.33224E+00
 -1      9146 1.33224E+00
 -1      9147 1.33224E+00
 -1      9148 1.33224E+00
 -1      9153 1.33224E+00
 -1      9154 1.33224E+00
 -1      9155 1.33224E+00
 -1      9160 1.33224E+00
 -1      9161 1.33224E+00
 -1      9162 1.33224E+00
 -1      9167 1.33224E+00
 -1      9168 1.33224E+00
 -1      9169 1.33224E+00
 -1      9174 1.33224E+00
 -1      9175 1.33224E+00
 -1      9176 1.33224E+00
 -1      9181 1.33225E+00
 -1      9182 1.33225E+00
 -1      9183 1.33225E+00
 -1      9188 1.33227E+00
 -1      9189 1.33229E+00
 -1      9190 1.33229E+00
 -1      9195 1.33229E+00
 -1      9199 1.33229E+00
 -1      9203 1.33225E+00
 -1      9207 1.33224E+00
 -1      9211 1.33224E+00
 -1      9215 1.33224E+00
 -1      9219 1.33224E+00
 -1      9223 1.33224E+00
 -1      9227 1.33224E+00
 -1      9231 1.33225E+00
 -1      9235 1.33229E+00
 -1      9241 1.16436E+00
 -1      9242 1.16436E+00
 -1      9243 1.24833E+00
 -1      9248 1.16435E+00
 -1      9249 1.16434E+00
 -1      9250 1.24829E+00
 -1      9255 1.16434E+00
 -1      9256 1.16434E+00
 -1      9257 1.24829E+00
 -1      9262 1.16434E+00
 -1      9263 1.16434E+00
 -1      9264 1.24829E+00
 -1      9269 1.16434E+00
 -1      9270 1.16434E+00
 -1      9271 1.24829E+00
 -1      9276 1.16434E+00
 -1      9277 1.16434E+00
 -1      9278 1.24829E+00
 -1      9283 1.16434E+00
 -1      9284 1.16434E+00
 -1      9285 1.24829E+00
 -1      9290 1.16434E+00
 -1      9291 1.16434E+00
 -1      9292 1.24829E+00
 -1      9297 1.16434E+00
 -1      9298 1.16434E+00
 -1      9299 1.24829E+00
 -1      9304 1.16435E+00
 -1      9305 1.16436E+00
 -1      9306 1.24833E+00
 -1      9311 1.16436E+00
 -1      9315 1.16436E+00
 -1      9316 1.16436E+00
 -1      9317 1.24833E+00
 -1      9322 1.16435E+00
 -1      9323 1.16434E+00
 -1      9324 1.24829E+00
 -1      9329 1.16434E+00
 -1      9330 1.16434E+00
 -1      9331 1.24829E+00
 -1      9336 1.16434E+00
 -1      9337 1.16434E+00
 -1      9338 1.24829E+00
 -1      9343 1.16434E+00
 -1      9344 1.16434E+00
 -1      9345 1.24829E+00
 -1      9350 1.16434E+00
 -1      9351 1.16434E+00
 -1      9352 1.24829E+00
 -1      9357 1.16434E+00
 -1      9358 1.16434E+00
 -1      9359 1.24829E+00
 -1      9364 1.16434E+00
 -1      9365 1.16434E+00
 -1      9366 1.24829E+00
 -1      9371 1.16434E+00
 -1      9372 1.16434E+00
 -1      9373 1.24829E+00
 -1      9378 1.16435E+00
 -1      9379 1.16436E+00
 -1      9380 1.24833E+00
 -1      9385 1.16436E+00
 -1      9389 1.16436E+00
 -1      9390 1.16436E+00
 -1      9391 1.24833E+00
 -1      9396 1.16435E+00
 -1      9397 1.16434E+00
 -1      9398 1.24829E+00
 -1      9403 1.16434E+00
 -1      9404 1.16434E+00
 -1      9405 1.24829E+00
 -1      9410 1.16434E+00
 -1      9411 1.16434E+00
 -1      9412 1.24829E+00
 -1      9417 1.16434E+00
 -1      9418 1.16434E+00
 -1      9419 1.24829E+00
 -1      9424 1.16434E+00
 -1      9425 1.16434E+00
 -1      9426 1.24829E+00
 -1      9431 1.16434E+00
 -1      9432 1.16434E+00
 -1      9433 1.24829E+00
 -1      9438 1.16434E+00
 -1      9439 1.16434E+00
 -1      9440 1.24829E+00
 -1      9445 1.16434E+00
 -1      9446 1.16434E+00
 -1      9447 1.24829E+00
 -1      9452 1.16435E+00
 -1      9453 1.16436E+00
 -1      9454 1.24833E+00
 -1      9459 1.16436E+00
 -1      9463 1.16436E+00
 -1      9464 1.16436E+00
 -1      9465 1.24833E+00
 -1      9470 1.16435E+00
 -1      9471 1.16434E+00
 -1      9472 1.24829E+00
 -1      9477 1.16434E+00
 -1      9478 1.16434E+00
 -1      9479 1.24829E+00
 -1      9484 1.16434E+00
 -1      9485 1.16434E+00
 -1      9486 1.24829E+00
 -1      9491 1.16434E+00
 -1      9492 1.16434E+00
 -1      9493 1.24829E+00
 -1      9498 1.16434E+00
 -1      9499 1.16434E+00
 -1      9500 1.24829E+00
 -1      9505 1.16434E+00
 -1      9506 1.16434E+00
 -1      9507 1.24829E+00
 -1      9512 1.16434E+00
 -1      9513 1.16434E+00
 -1      9514 1.24829E+00
 -1      9519 1.16434E+00
 -1      9520 1.16434E+00
 -1      9521 1.24829E+00
 -1      9526 1.16435E+00
 -1      9527 1.16436E+00
 -1      9528 1.24833E+00
 -1      9533 1.16436E+00
 -1      9537 1.16436E+00
 -1      9538 1.16436E+00
 -1      9539 1.24833E+00
 -1      9544 1.16435E+00
 -1      9545 1.16434E+00
 -1      9546 1.24829E+00
 -1      9551 1.16434E+00
 -1      9552 1.16434E+00
 -1      9553 1.24829E+00
 -1      9558 1.16434E+00
 -1      9559 1.16434E+00
 -1      9560 1.24829E+00
 -1      9565 1.16434E+00
 -1      9566 1.16434E+00
 -1      9567 1.24829E+00
 -1      9572 1.16434E+00
 -1      9573 1.16434E+00
 -1      9574 1.24829E+00
 -1      9579 1.16434E+00
 -1      9580 1.16434E+00
 -1      9581 1.24829E+00
 -1      9586 1.16434E+00
 -1      9587 1.16434E+00
 -1      9588 1.24829E+00
 -1      9593 1.16434E+00
 -1      9594 1.16434E+00
 -1      9595 1.24829E+00
 -1      9600 1.16435E+00
 -1      9601 1.16436E+00
 -1      9602 1.24833E+00
 -1      9607 1.16436E+00
 -1      9611 1.16436E+00
 -1      9612 1.16436E+00
 -1      9613 1.24833E+00
 -1      9618 1.16435E+00
 -1      9619 1.16434E+00
 -1      9620 1.24829E+00
 -1      9625 1.16434E+00
 -1      9626 1.16434E+00
 -1      9627 1.24829E+00
 -1      9632 1.16434E+00
 -1      9633 1.16434E+00
 -1      9634 1.24829E+00
 -1      9639 1.16434E+00
 -1      9640 1.16434E+00
 -1      9641 1.24829E+00
 -1      9646 1.16434E+00
 -1      9647 1.16434E+00
 -1      9648 1.24829E+00
 -1      9653 1.16434E+00
 -1      9654 1.16434E+00
 -1      9655 1.24829E+00
 -1      9660 1.16434E+00
 -1      9661 1.16434E+00
 -1      9662 1.24829E+00
 -1      9667 1.16434E+00
 -1      9668 1.16434E+00
 -1      9669 1.24829E+00
 -1      9674 1.16435E+00
 -1      9675 1.16436E+00
 -1      9676 1.24833E+00
 -1      9681 1.16436E+00
 -1      9685 1.16436E+00
 -1      9686 1.16436E+00
 -1      9687 1.24833E+00
 -1      9692 1.16435E+00
 -1      9693 1.16434E+00
 -1      9694 1.24829E+00
 -1      9699 1.16434E+00
 -1      9700 1.16434E+00
 -1      9701 1.24829E+00
 -1      9706 1.16434E+00
 -1      9707 1.16434E+00
 -1      9708 1.24829E+00
 -1      9713 1.16434E+00
 -1      9714 1.16434E+00
 -1      9715 1.24829E+00
 -1      9720 1.16434E+00
 -1      9721 1.16434E+00
 -1      9722 1.24829E+00
 -1      9727 1.16434E+00
 -1      9728 1.16434E+00
 -1      9729 1.24829E+00
 -1      9734 1.16434E+00
 -1      9735 1.16434E+00
 -1      9736 1.24829E+00
 -1      9741 1.16434E+00
 -1      9742 1.16434E+00
 -1      9743 1.24829E+00
 -1      9748 1.16435E+00
 -1      9749 1.16436E+00
 -1      9750 1.24833E+00
 -1      9755 1.16436E+00
 -1      9759 1.16436E+00
 -1      9760 1.16436E+00
 -1      9761 1.24833E+00
 -1      9766 1.16435E+00
 -1      9767 1.16434E+00
 -1      9768 1.24829E+00
 -1      9773 1.16434E+00
 -1      9774 1.16434E+00
 -1      9775 1.24829E+00
 -1      9780 1.16434E+00
 -1      9781 1.16434E+00
 -1      9782 1.24829E+00
 -1      9787 1.16434E+00
 -1      9788 1.16434E+00
 -1      9789 1.24829E+00
 -1      9794 1.16434E+00
 -1      9795 1.16434E+00
 -1      9796 1.24829E+00
 -1      9801 1.16434E+00
 -1      9802 1.16434E+00
 -1      9803 1.24829E+00
 -1      9808 1.16434E+00
 -1      9809 1.16434E+00
 -1      9810 1.24829E+00
 -1      9815 1.16434E+00
 -1      9816 1.16434E+00
 -1      9817 1.24829E+00
 -1      9822 1.16435E+00
 -1      9823 1.16436E+00
 -1      9824 1.24833E+00
 -1      9829 1.16436E+00
 -1      9833 1.16436E+00
 -1      9834 1.16436E+00
 -1      9835 1.24833E+00
 -1      9840 1.16435E+00
 -1      9841 1.16434E+00
 -1      9842 1.24829E+00
 -1      9847 1.16434E+00
 -1      9848 1.16434E+00
 -1      9849 1.24829E+00
 -1      9854 1.16434E+00
 -1      9855 1.16434E+00
 -1      9856 1.24829E+00
 -1      9861 1.16434E+00
 -1      9862 1.16434E+00
 -1      9863 1.24829E+00
 -1      9868 1.16434E+00
 -1      9869 1.16434E+00
 -1      9870 1.24829E+00
 -1      9875 1.16434E+00
 -1      9876 1.16434E+00
 -1      9877 1.24829E+00
 -1      9882 1.16434E+00
 -1      9883 1.16434E+00
 -1      9884 1.24829E+00
 -1      9889 1.16434E+00
 -1      9890 1.16434E+00
 -1      9891 1.24829E+00
 -1      9896 1.16435E+00
 -1      9897 1.16436E+00
 -1      9898 1.24833E+00
 -1      9903 1.16436E+00
 -1      9907 1.16436E+00
 -1      9911 1.16434E+00
 -1      9915 1.16434E+00
 -1      9919 1.16434E+00
 -1      9923 1.16434E+00
 -1      9927 1.16434E+00
 -1      9931 1.16434E+00
 -1      9935 1.16434E+00
 -1      9939 1.16434E+00
 -1      9943 1.16436E+00
 -1      9949 1.00093E+00
 -1      9950 1.00093E+00
 -1      9951 1.08265E+00
 -1      9956 1.00093E+00
 -1      9957 1.00093E+00
 -1      9958 1.08263E+00
 -1      9963 1.00093E+00
 -1      9964 1.00093E+00
 -1      9965 1.08263E+00
 -1      9970 1.00093E+00
 -1      9971 1.00093E+00
 -1      9972 1.08263E+00
 -1      9977 1.00093E+00
 -1      9978 1.00093E+00
 -1      9979 1.08263E+00
 -1      9984 1.00093E+00
 -1      9985 1.00093E+00
 -1      9986 1.08263E+00
 -1      9991 1.00093E+00
 -1      9992 1.00093E+00
 -1      9993 1.08263E+00
 -1      9998 1.00093E+00
 -1      9999 1.00093E+00
 -1     10000 1.08263E+00
 -1     10005 1.00093E+00
 -1     10006 1.00093E+00
 -1     10007 1.08263E+00
 -1     10012 1.00093E+00
 -1     10013 1.00093E+00
 -1     10014 1.08265E+00
 -1     10019 1.00093E+00
 -1     10023 1.00093E+00
 -1     10024 1.00093E+00
 -1     10025 1.08265E+00
 -1     10030 1.00093E+00
 -1     10031 1.00093E+00
 -1     10032 1.08263E+00
 -1     10037 1.00093E+00
 -1     10038 1.00093E+00
 -1     10039 1.08263E+00
 -1     10044 1.00093E+00
 -1     10045 1.00093E+00
 -1     10046 1.08263E+00
 -1     10051 1.00093E+00
 -1     10052 1.00093E+00
 -1     10053 1.08263E+00
 -1     10058 1.00093E+00
 -1     10059 1.00093E+00
 -1     10060 1.08263E+00
 -1     10065 1.00093E+00
 -1     10066 1.00093E+00
 -1     10067 1.08263E+00
 -1     10072 1.00093E+00
 -1     10073 1.00093E+00
 -1     10074 1.08263E+00
 -1     10079 1.00093E+00
 -1     10080 1.00093E+00
 -1     10081 1.08263E+00
 -1     10086 1.00093E+00
 -1     10087 1.00093E+00
 -1     10088 1.08265E+00
 -1     10093 1.00093E+00
 -1     10097 1.00093E+00
 -1     10098 1.00093E+00
 -1     10099 1.08265E+00
 -1     10104 1.00093E+00
 -1     10105 1.00093E+00
 -1     10106 1.08263E+00
 -1     10111 1.00093E+00
 -1     10112 1.00093E+00
 -1     10113 1.08263E+00
 -1     10118 1.00093E+00
 -1     10119 1.00093E+00
 -1     10120 1.08263E+00
 -1     10125 1.00093E+00
 -1     10126 1.00093E+00
 -1     10127 1.08263E+00
 -1     10132 1.00093E+00
 -1     10133 1.00093E+00
 -1     10134 1.08263E+00
 -1     10139 1.00093E+00
 -1     10140 1.00093E+00
 -1     10141 1.08263E+00
 -1     10146 1.00093E+00
 -1     10147 1.00093E+00
 -1     10148 1.08263E+00
 -1     10153 1.00093E+00
 -1     10154 1.00093E+00
 -1     10155 1.08263E+00
 -1     10160 1.00093E+00
 -1     10161 1.00093E+00
 -1     10162 1.08265E+00
 -1     10167 1.00093E+00
 -1     10171 1.00093E+00
 -1     10172 1.00093E+00
 -1     10173 1.08265E+00
 -1     10178 1.00093E+00
 -1     10179 1.00093E+00
 -1     10180 1.08263E+00
 -1     10185 1.00093E+00
 -1     10186 1.00093E+00
 -1     10187 1.08263E+00
 -1     10192 1.00093E+00
 -1     10193 1.00093E+00
 -1     10194 1.08263E+00
 -1     10199 1.00093E+00
 -1     10200 1.00093E+00
 -1     10201 1.08263E+00
 -1     10206 1.00093E+00
 -1     10207 1.00093E+00
 -1     10208 1.08263E+00
 -1     10213 1.00093E+00
 -1     10214 1.00093E+00
 -1     10215 1.08263E+00
 -1     10220 1.00093E+00
 -1     10221 1.00093E+00
 -1     10222 1.08263E+00
 -1     10227 1.00093E+00
 -1     10228 1.00093E+00
 -1     10229 1.08263E+00
 -1     10234 1.00093E+00
 -1     10235 1.00093E+00
 -1     10236 1.08265E+00
 -1     10241 1.00093E+00
 -1     10245 1.00093E+00
 -1     10246 1.00093E+00
 -1     10247 1.08265E+00
 -1     10252 1.00093E+00
 -1     10253 1.00093E+00
 -1     10254 1.08263E+00
 -1     10259 1.00093E+00
 -1     10260 1.00093E+00
 -1     10261 1.08263E+00
 -1     10266 1.00093E+00
 -1     10267 1.00093E+00
 -1     10268 1.08263E+00
 -1     10273 1.00093E+00
 -1     10274 1.00093E+00
 -1     10275 1.08263E+00
 -1     10280 1.00093E+00
 -1     10281 1.00093E+00
 -1     10282 1.08263E+00
 -1     10287 1.00093E+00
 -1     10288 1.00093E+00
 -1     10289 1.08263E+00
 -1     10294 1.00093E+00
 -1     10295 1.00093E+00
 -1     10296 1.08263E+00
 -1     10301 1.00093E+00
 -1     10302 1.00093E+00
 -1     10303 1.08263E+00
 -1     10308 1.00093E+00
 -1     10309 1.00093E+00
 -1     10310 1.08265E+00
 -1     10315 1.00093E+00
 -1     10319 1.00093E+00
 -1     10320 1.00093E+00
 -1     10321 1.08265E+00
 -1     10326 1.00093E+00
 -1     10327 1.00093E+00
 -1     10328 1.08263E+00
 -1     10333 1.00093E+00
 -1     10334 1.00093E+00
 -1     10335 1.08263E+00
 -1     10340 1.00093E+00
 -1     10341 1.00093E+00
 -1     10342 1.08263E+00
 -1     10347 1.00093E+00
 -1     10348 1.00093E+00
 -1     10349 1.08263E+00
 -1     10354 1.00093E+00
 -1     10355 1.00093E+00
 -1     10356 1.08263E+00
 -1     10361 1.00093E+00
 -1     10362 1.00093E+00
 -1     10363 1.08263E+00
 -1     10368 1.00093E+00
 -1     10369 1.00093E+00
 -1     10370 1.08263E+00
 -1     10375 1.00093E+00
 -1     10376 1.00093E+00
 -1     10377 1.08263E+00
 -1     10382 1.00093E+00
 -1     10383 1.00093E+00
 -1     10384 1.08265E+00
 -1     10389 1.00093E+00
 -1     10393 1.00093E+00
 -1     10394 1.00093E+00
 -1     10395 1.08265E+00
 -1     10400 1.00093E+00
 -1     10401 1.00093E+00
 -1     10402 1.08263E+00
 -1     10407 1.00093E+00
 -1     10408 1.00093E+00
 -1     10409 1.08263E+00
 -1     10414 1.00093E+00
 -1     10415 1.00093E+00
 -1     10416 1.08263E+00
 -1     10421 1.00093E+00
 -1     10422 1.00093E+00
 -1     10423 1.08263E+00
 -1     10428 1.00093E+00
 -1     10429 1.00093E+00
 -1     10430 1.08263E+00
 -1     10435 1.00093E+00
 -1     10436 1.00093E+00
 -1     10437 1.08263E+00
 -1     10442 1.00093E+00
 -1     10443 1.00093E+00
 -1     10444 1.08263E+00
 -1     10449 1.00093E+00
 -1     10450 1.00093E+00
 -1     10451 1.08263E+00
 -1     10456 1.00093E+00
 -1     10457 1.00093E+00
 -1     10458 1.08265E+00
 -1     10463 1.00093E+00
 -1     10467 1.00093E+00
 -1     10468 1.00093E+00
 -1     10469 1.08265E+00
 -1     10474 1.00093E+00
 -1     10475 1.00093E+00
 -1     10476 1.08263E+00
 -1     10481 1.00093E+00
 -1     10482 1.00093E+00
 -1     10483 1.08263E+00
 -1     10488 1.00093E+00
 -1     10489 1.00093E+00
 -1     10490 1.08263E+00
 -1     10495 1.00093E+00
 -1     10496 1.00093E+00
 -1     10497 1.08263E+00
 -1     10502 1.00093E+00
 -1     10503 1.00093E+00
 -1     10504 1.08263E+00
 -1     10509 1.00093E+00
 -1     10510 1.00093E+00
 -1     10511 1.08263E+00
 -1     10516 1.00093E+00
 -1     10517 1.00093E+00
 -1     10518 1.08263E+00
 -1     10523 1.00093E+00
 -1     10524 1.00093E+00
 -1     10525 1.08263E+00
 -1     10530 1.00093E+00
 -1     10531 1.00093E+00
 -1     10532 1.08265E+00
 -1     10537 1.00093E+00
 -1     10541 1.00093E+00
 -1     10542 1.00093E+00
 -1     10543 1.08265E+00
 -1     10548 1.00093E+00
 -1     10549 1.00093E+00
 -1     10550 1.08263E+00
 -1     10555 1.00093E+00
 -1     10556 1.00093E+00
 -1     10557 1.08263E+00
 -1     10562 1.00093E+00
 -1     10563 1.00093E+00
 -1     10564 1.08263E+00
 -1     10569 1.00093E+00
 -1     10570 1.00093E+00
 -1     10571 1.08263E+00
 -1     10576 1.00093E+00
 -1     10577 1.00093E+00
 -1     10578 1.08263E+00
 -1     10583 1.00093E+00
 -1     10584 1.00093E+00
 -1     10585 1.08263E+00
 -1     10590 1.00093E+00
 -1     10591 1.00093E+00
 -1     10592 1.08263E+00
 -1     10597 1.00093E+00
 -1     10598 1.00093E+00
 -1     10599 1.08263E+00
 -1     10604 1.00093E+00
 -1     10605 1.00093E+00
 -1     10606 1.08265E+00
 -1     10611 1.00093E+00
 -1     10615 1.00093E+00
 -1     10619 1.00093E+00
 -1     10623 1.00093E+00
 -1     10627 1.00093E+00
 -1     10631 1.00093E+00
 -1     10635 1.00093E+00
 -1     10639 1.00093E+00
 -1     10643 1.00093E+00
 -1     10647 1.00093E+00
 -1     10651 1.00093E+00
 -1     10657 8.64772E-01
 -1     10658 8.64772E-01
 -1     10659 9.32851E-01
 -1     10664 8.64771E-01
 -1     10665 8.64769E-01
 -1     10666 9.32850E-01
 -1     10671 8.64769E-01
 -1     10672 8.64769E-01
 -1     10673 9.32850E-01
 -1     10678 8.64769E-01
 -1     10679 8.64769E-01
 -1     10680 9.32848E-01
 -1     10685 8.64769E-01
 -1     10686 8.64769E-01
 -1     10687 9.32848E-01
 -1     10692 8.64769E-01
 -1     10693 8.64769E-01
 -1     10694 9.32848E-01
 -1     10699 8.64769E-01
 -1     10700 8.64769E-01
 -1     10701 9.32848E-01
 -1     10706 8.64769E-01
 -1     10707 8.64769E-01
 -1     10708 9.32850E-01
 -1     10713 8.64769E-01
 -1     10714 8.64769E-01
 -1     10715 9.32850E-01
 -1     10720 8.64771E-01
 -1     10721 8.64772E-01
 -1     10722 9.32851E-01
 -1     10727 8.64772E-01
 -1     10731 8.64772E-01
 -1     10732 8.64772E-01
 -1     10733 9.32851E-01
 -1     10738 8.64771E-01
 -1     10739 8.64769E-01
 -1     10740 9.32850E-01
 -1     10745 8.64769E-01
 -1     10746 8.64769E-01
 -1     10747 9.32850E-01
 -1     10752 8.64769E-01
 -1     10753 8.64769E-01
 -1     10754 9.32848E-01
 -1     10759 8.64769E-01
 -1     10760 8.64769E-01
 -1     10761 9.32848E-01
 -1     10766 8.64769E-01
 -1     10767 8.64769E-01
 -1     10768 9.32848E-01
 -1     10773 8.64769E-01
 -1     10774 8.64769E-01
 -1     10775 9.32848E-01
 -1     10780 8.64769E-01
 -1     10781 8.64769E-01
 -1     10782 9.32850E-01
 -1     10787 8.64769E-01
 -1     10788 8.64769E-01
 -1     10789 9.32850E-01
 -1     10794 8.64771E-01
 -1     10795 8.64772E-01
 -1     10796 9.32851E-01
 -1     10801 8.64772E-01
 -1     10805 8.64772E-01
 -1     10806 8.64772E-01
 -1     10807 9.32851E-01
 -1     10812 8.64771E-01
 -1     10813 8.64769E-01
 -1     10814 9.32850E-01
 -1     10819 8.64769E-01
 -1     10820 8.64769E-01
 -1     10821 9.32850E-01
 -1     10826 8.64769E-01
 -1     10827 8.64769E-01
 -1     10828 9.32848E-01
 -1     10833 8.64769E-01
 -1     10834 8.64769E-01
 -1     10835 9.32848E-01
 -1     10840 8.64769E-01
 -1     10841 8.64769E-01
 -1     10842 9.32848E-01
 -1     10847 8.64769E-01
 -1     10848 8.64769E-01
 -1     10849 9.32848E-01
 -1     10854 8.64769E-01
 -1     10855 8.64769E-01
 -1     10856 9.32850E-01
 -1     10861 8.64769E-01
 -1     10862 8.64769E-01
 -1     10863 9.32850E-01
 -1     10868 8.64771E-01
 -1     10869 8.64772E-01
 -1     10870 9.32851E-01
 -1     10875 8.64772E-01
 -1     10879 8.64772E-01
 -1     10880 8.64772E-01
 -1     10881 9.32851E-01
 -1     10886 8.64771E-01
 -1     10887 8.64769E-01
 -1     10888 9.32850E-01
 -1     10893 8.64769E-01
 -1     10894 8.64769E-01
 -1     10895 9.32850E-01
 -1     10900 8.64769E-01
 -1     10901 8.64769E-01
 -1     10902 9.32848E-01
 -1     10907 8.64769E-01
 -1     10908 8.64769E-01
 -1     10909 9.32848E-01
 -1     10914 8.64769E-01
 -1     10915 8.64769E-01
 -1     10916 9.32848E-01
 -1     10921 8.64769E-01
 -1     10922 8.64769E-01
 -1     10923 9.32848E-01
 -1     10928 8.64769E-01
 -1     10929 8.64769E-01
 -1     10930 9.32850E-01
 -1     10935 8.64769E-01
 -1     10936 8.64769E-01
 -1     10937 9.32850E-01
 -1     10942 8.64771E-01
 -1     10943 8.64772E-01
 -1     10944 9.32851E-01
 -1     10949 8.64772E-01
 -1     10953 8.64772E-01
 -1     10954 8.64772E-01
 -1     10955 9.32851E-01
 -1     10960 8.64771E-01
 -1     10961 8.64769E-01
 -1     10962 9.32850E-01
 -1     10967 8.64769E-01
 -1     10968 8.64769E-01
 -1     10969 9.32850E-01
 -1     10974 8.64769E-01
 -1     10975 8.64769E-01
 -1     10976 9.32848E-01
 -1     10981 8.64769E-01
 -1     10982 8.64769E-01
 -1     10983 9.32848E-01
 -1     10988 8.64769E-01
 -1     10989 8.64769E-01
 -1     10990 9.32848E-01
 -1     10995 8.64769E-01
 -1     10996 8.64769E-01
 -1     10997 9.32848E-01
 -1     11002 8.64769E-01
 -1     11003 8.64769E-01
 -1     11004 9.32850E-01
 -1     11009 8.64769E-01
 -1     11010 8.64769E-01
 -1     11011 9.32850E-01
 -1     11016 8.64771E-01
 -1     11017 8.64772E-01
 -1     11018 9.32851E-01
 -1     11023 8.64772E-01
 -1     11027 8.64772E-01
 -1     11028 8.64772E-01
 -1     11029 9.32851E-01
 -1     11034 8.64771E-01
 -1     11035 8.64769E-01
 -1     11036 9.32850E-01
 -1     11041 8.64769E-01
 -1     11042 8.64769E-01
 -1     11043 9.32850E-01
 -1     11048 8.64769E-01
 -1     11049 8.64769E-01
 -1     11050 9.32848E-01
 -1     11055 8.64769E-01
 -1     11056 8.64769E-01
 -1     11057 9.32848E-01
 -1     11062 8.64769E-01
 -1     11063 8.64769E-01
 -1     11064 9.32848E-01
 -1     11069 8.64769E-01
 -1     11070 8.64769E-01
 -1     11071 9.32848E-01
 -1     11076 8.64769E-01
 -1     11077 8.64769E-01
 -1     11078 9.32850E-01
 -1     11083 8.64769E-01
 -1     11084 8.64769E-01
 -1     11085 9.32850E-01
 -1     11090 8.64771E-01
 -1     11091 8.64772E-01
 -1     11092 9.32851E-01
 -1     11097 8.64772E-01
 -1     11101 8.64772E-01
 -1     11102 8.64772E-01
 -1     11103 9.32851E-01
 -1     11108 8.64771E-01
 -1     11109 8.64769E-01
 -1     11110 9.32850E-01
 -1     11115 8.64769E-01
 -1     11116 8.64769E-01
 -1     11117 9.32850E-01
 -1     11122 8.64769E-01
 -1     11123 8.64769E-01
 -1     11124 9.32848E-01
 -1     11129 8.64769E-01
 -1     11130 8.64769E-01
 -1     11131 9.32848E-01
 -1     11136 8.64769E-01
 -1     11137 8.64769E-01
 -1     11138 9.32848E-01
 -1     11143 8.64769E-01
 -1     11144 8.64769E-01
 -1     11145 9.32848E-01
 -1     11150 8.64769E-01
 -1     11151 8.64769E-01
 -1     11152 9.32850E-01
 -1     11157 8.64769E-01
 -1     11158 8.64769E-01
 -1     11159 9.32850E-01
 -1     11164 8.64771E-01
 -1     11165 8.64772E-01
 -1     11166 9.32851E-01
 -1     11171 8.64772E-01
 -1     11175 8.64772E-01
 -1     11176 8.64772E-01
 -1     11177 9.32851E-01
 -1     11182 8.64771E-01
 -1     11183 8.64769E-01
 -1     11184 9.32850E-01
 -1     11189 8.64769E-01
 -1     11190 8.64769E-01
 -1     11191 9.32850E-01
 -1     11196 8.64769E-01
 -1     11197 8.64769E-01
 -1     11198 9.32848E-01
 -1     11203 8.64769E-01
 -1     11204 8.64769E-01
 -1     11205 9.32848E-01
 -1     11210 8.64769E-01
 -1     11211 8.64769E-01
 -1     11212 9.32848E-01
 -1     11217 8.64769E-01
 -1     11218 8.64769E-01
 -1     11219 9.32848E-01
 -1     11224 8.64769E-01
 -1     11225 8.64769E-01
 -1     11226 9.32850E-01
 -1     11231 8.64769E-01
 -1     11232 8.64769E-01
 -1     11233 9.32850E-01
 -1     11238 8.64771E-01
 -1     11239 8.64772E-01
 -1     11240 9.32851E-01
 -1     11245 8.64772E-01
 -1     11249 8.64772E-01
 -1     11250 8.64772E-01
 -1     11251 9.32851E-01
 -1     11256 8.64771E-01
 -1     11257 8.64769E-01
 -1     11258 9.32850E-01
 -1     11263 8.64769E-01
 -1     11264 8.64769E-01
 -1     11265 9.32850E-01
 -1     11270 8.64769E-01
 -1     11271 8.64769E-01
 -1     11272 9.32848E-01
 -1     11277 8.64769E-01
 -1     11278 8.64769E-01
 -1     11279 9.32848E-01
 -1     11284 8.64769E-01
 -1     11285 8.64769E-01
 -1     11286 9.32848E-01
 -1     11291 8.64769E-01
 -1     11292 8.64769E-01
 -1     11293 9.32848E-01
 -1     11298 8.64769E-01
 -1     11299 8.64769E-01
 -1     11300 9.32850E-01
 -1     11305 8.64769E-01
 -1     11306 8.64769E-01
 -1     11307 9.32850E-01
 -1     11312 8.64771E-01
 -1     11313 8.64772E-01
 -1     11314 9.32851E-01
 -1     11319 8.64772E-01
 -1     11323 8.64772E-01
 -1     11327 8.64769E-01
 -1     11331 8.64769E-01
 -1     11335 8.64769E-01
 -1     11339 8.64769E-01
 -1     11343 8.64769E-01
 -1     11347 8.64769E-01
 -1     11351 8.64769E-01
 -1     11355 8.64769E-01
 -1     11359 8.64772E-01
 -1     11365 7.50790E-01
 -1     11366 7.50790E-01
 -1     11367 8.07781E-01
 -1     11372 7.50790E-01
 -1     11373 7.50790E-01
 -1     11374 8.07780E-01
 -1     11379 7.50790E-01
 -1     11380 7.50790E-01
 -1     11381 8.07779E-01
 -1     11386 7.50790E-01
 -1     11387 7.50790E-01
 -1     11388 8.07779E-01
 -1     11393 7.50790E-01
 -1     11394 7.50790E-01
 -1     11395 8.07779E-01
 -1     11400 7.50790E-01
 -1     11401 7.50790E-01
 -1     11402 8.07779E-01
 -1     11407 7.50790E-01
 -1     11408 7.50790E-01
 -1     11409 8.07779E-01
 -1     11414 7.50790E-01
 -1     11415 7.50790E-01
 -1     11416 8.07779E-01
 -1     11421 7.50790E-01
 -1     11422 7.50790E-01
 -1     11423 8.07780E-01
 -1     11428 7.50790E-01
 -1     11429 7.50790E-01
 -1     11430 8.07781E-01
 -1     11435 7.50790E-01
 -1     11439 7.50790E-01
 -1     11440 7.50790E-01
 -1     11441 8.07781E-01
 -1     11446 7.50790E-01
 -1     11447 7.50790E-01
 -1     11448 8.07780E-01
 -1     11453 7.50790E-01
 -1     11454 7.50790E-01
 -1     11455 8.07779E-01
 -1     11460 7.50790E-01
 -1     11461 7.50790E-01
 -1     11462 8.07779E-01
 -1     11467 7.50790E-01
 -1     11468 7.50790E-01
 -1     11469 8.07779E-01
 -1     11474 7.50790E-01
 -1     11475 7.50790E-01
 -1     11476 8.07779E-01
 -1     11481 7.50790E-01
 -1     11482 7.50790E-01
 -1     11483 8.07779E-01
 -1     11488 7.50790E-01
 -1     11489 7.50790E-01
 -1     11490 8.07779E-01
 -1     11495 7.50790E-01
 -1     11496 7.50790E-01
 -1     11497 8.07780E-01
 -1     11502 7.50790E-01
 -1     11503 7.50790E-01
 -1     11504 8.07781E-01
 -1     11509 7.50790E-01
 -1     11513 7.50790E-01
 -1     11514 7.50790E-01
 -1     11515 8.07781E-01
 -1     11520 7.50790E-01
 -1     11521 7.50790E-01
 -1     11522 8.07780E-01
 -1     11527 7.50790E-01
 -1     11528 7.50790E-01
 -1     11529 8.07779E-01
 -1     11534 7.50790E-01
 -1     11535 7.50790E-01
 -1     11536 8.07779E-01
 -1     11541 7.50790E-01
 -1     11542 7.50790E-01
 -1     11543 8.07779E-01
 -1     11548 7.50790E-01
 -1     11549 7.50790E-01
 -1     11550 8.07779E-01
 -1     11555 7.50790E-01
 -1     11556 7.50790E-01
 -1     11557 8.07779E-01
 -1     11562 7.50790E-01
 -1     11563 7.50790E-01
 -1     11564 8.07779E-01
 -1     11569 7.50790E-01
 -1     11570 7.50790E-01
 -1     11571 8.07780E-01
 -1     11576 7.50790E-01
 -1     11577 7.50790E-01
 -1     11578 8.07781E-01
 -1     11583 7.50790E-01
 -1     11587 7.50790E-01
 -1     11588 7.50790E-01
 -1     11589 8.07781E-01
 -1     11594 7.50790E-01
 -1     11595 7.50790E-01
 -1     11596 8.07780E-01
 -1     11601 7.50790E-01
 -1     11602 7.50790E-01
 -1     11603 8.07779E-01
 -1     11608 7.50790E-01
 -1     11609 7.50790E-01
 -1     11610 8.07779E-01
 -1     11615 7.50790E-01
 -1     11616 7.50790E-01
 -1     11617 8.07779E-01
 -1     11622 7.50790E-01
 -1     11623 7.50790E-01
 -1     11624 8.07779E-01
 -1     11629 7.50790E-01
 -1     11630 7.50790E-01
 -1     11631 8.07779E-01
 -1     11636 7.50790E-01
 -1     11637 7.50790E-01
 -1     11638 8.07779E-01
 -1     11643 7.50790E-01
 -1     11644 7.50790E-01
 -1     11645 8.07780E-01
 -1     11650 7.50790E-01
 -1     11651 7.50790E-01
 -1     11652 8.07781E-01
 -1     11657 7.50790E-01
 -1     11661 7.50790E-01
 -1     11662 7.50790E-01
 -1     11663 8.07781E-01
 -1     11668 7.50790E-01
 -1     11669 7.50790E-01
 -1     11670 8.07780E-01
 -1     11675 7.50790E-01
 -1     11676 7.50790E-01
 -1     11677 8.07779E-01
 -1     11682 7.50790E-01
 -1     11683 7.50790E-01
 -1     11684 8.07779E-01
 -1     11689 7.50790E-01
 -1     11690 7.50790E-01
 -1     11691 8.07779E-01
 -1     11696 7.50790E-01
 -1     11697 7.50790E-01
 -1     11698 8.07779E-01
 -1     11703 7.50790E-01
 -1     11704 7.50790E-01
 -1     11705 8.07779E-01
 -1     11710 7.50790E-01
 -1     11711 7.50790E-01
 -1     11712 8.07779E-01
 -1     11717 7.50790E-01
 -1     11718 7.50790E-01
 -1     11719 8.07780E-01
 -1     11724 7.50790E-01
 -1     11725 7.50790E-01
 -1     11726 8.07781E-01
 -1     11731 7.50790E-01
 -1     11735 7.50790E-01
 -1     11736 7.50790E-01
 -1     11737 8.07781E-01
 -1     11742 7.50790E-01
 -1     11743 7.50790E-01
 -1     11744 8.07780E-01
 -1     11749 7.50790E-01
 -1     11750 7.50790E-01
 -1     11751 8.07779E-01
 -1     11756 7.50790E-01
 -1     11757 7.50790E-01
 -1     11758 8.07779E-01
 -1     11763 7.50790E-01
 -1     11764 7.50790E-01
 -1     11765 8.07779E-01
 -1     11770 7.50790E-01
 -1     11771 7.50790E-01
 -1     11772 8.07779E-01
 -1     11777 7.50790E-01
 -1     11778 7.50790E-01
 -1     11779 8.07779E-01
 -1     11784 7.50790E-01
 -1     11785 7.50790E-01
 -1     11786 8.07779E-01
 -1     11791 7.50790E-01
 -1     11792 7.50790E-01
 -1     11793 8.07780E-01
 -1     11798 7.50790E-01
 -1     11799 7.50790E-01
 -1     11800 8.07781E-01
 -1     11805 7.50790E-01
 -1     11809 7.50790E-01
 -1     11810 7.50790E-01
 -1     11811 8.07781E-01
 -1     11816 7.50790E-01
 -1     11817 7.50790E-01
 -1     11818 8.07780E-01
 -1     11823 7.50790E-01
 -1     11824 7.50790E-01
 -1     11825 8.07779E-01
 -1     11830 7.50790E-01
 -1     11831 7.50790E-01
 -1     11832 8.07779E-01
 -1     11837 7.50790E-01
 -1     11838 7.50790E-01
 -1     11839 8.07779E-01
 -1     11844 7.50790E-01
 -1     11845 7.50790E-01
 -1     11846 8.07779E-01
 -1     11851 7.50790E-01
 -1     11852 7.50790E-01
 -1     11853 8.07779E-01
 -1     11858 7.50790E-01
 -1     11859 7.50790E-01
 -1     11860 8.07779E-01
 -1     11865 7.50790E-01
 -1     11866 7.50790E-01
 -1     11867 8.07780E-01
 -1     11872 7.50790E-01
 -1     11873 7.50790E-01
 -1     11874 8.07781E-01
 -1     11879 7.50790E-01
 -1     11883 7.50790E-01
 -1     11884 7.50790E-01
 -1     11885 8.07781E-01
 -1     11890 7.50790E-01
 -1     11891 7.50790E-01
 -1     11892 8.07780E-01
 -1     11897 7.50790E-01
 -1     11898 7.50790E-01
 -1     11899 8.07779E-01
 -1     11904 7.50790E-01
 -1     11905 7.50790E-01
 -1     11906 8.07779E-01
 -1     11911 7.50790E-01
 -1     11912 7.50790E-01
 -1     11913 8.07779E-01
 -1     11918 7.50790E-01
 -1     11919 7.50790E-01
 -1     11920 8.07779E-01
 -1     11925 7.50790E-01
 -1     11926 7.50790E-01
 -1     11927 8.07779E-01
 -1     11932 7.50790E-01
 -1     11933 7.50790E-01
 -1     11934 8.07779E-01
 -1     11939 7.50790E-01
 -1     11940 7.50790E-01
 -1     11941 8.07780E-01
 -1     11946 7.50790E-01
 -1     11947 7.50790E-01
 -1     11948 8.07781E-01
 -1     11953 7.50790E-01
 -1     11957 7.50790E-01
 -1     11958 7.50790E-01
 -1     11959 8.07781E-01
 -1     11964 7.50790E-01
 -1     11965 7.50790E-01
 -1     11966 8.07780E-01
 -1     11971 7.50790E-01
 -1     11972 7.50790E-01
 -1     11973 8.07779E-01
 -1     11978 7.50790E-01
 -1     11979 7.50790E-01
 -1     11980 8.07779E-01
 -1     11985 7.50790E-01
 -1     11986 7.50790E-01
 -1     11987 8.07779E-01
 -1     11992 7.50790E-01
 -1     11993 7.50790E-01
 -1     11994 8.07779E-01
 -1     11999 7.50790E-01
 -1     12000 7.50790E-01
 -1     12001 8.07779E-01
 -1     12006 7.50790E-01
 -1     12007 7.50790E-01
 -1     12008 8.07779E-01
 -1     12013 7.50790E-01
 -1     12014 7.50790E-01
 -1     12015 8.07780E-01
 -1     12020 7.50790E-01
 -1     12021 7.50790E-01
 -1     12022 8.07781E-01
 -1     12027 7.50790E-01
 -1     12031 7.50790E-01
 -1     12035 7.50790E-01
 -1     12039 7.50790E-01
 -1     12043 7.50790E-01
 -1     12047 7.50790E-01
 -1     12051 7.50790E-01
 -1     12055 7.50790E-01
 -1     12059 7.50790E-01
 -1     12063 7.50790E-01
 -1     12067 7.50790E-01
 -1     12073 6.54810E-01
 -1     12074 6.54810E-01
 -1     12075 7.02800E-01
 -1     12080 6.54810E-01
 -1     12081 6.54810E-01
 -1     12082 7.02800E-01
 -1     12087 6.54810E-01
 -1     12088 6.54810E-01
 -1     12089 7.02800E-01
 -1     12094 6.54810E-01
 -1     12095 6.54810E-01
 -1     12096 7.02800E-01
 -1     12101 6.54810E-01
 -1     12102 6.54810E-01
 -1     12103 7.02800E-01
 -1     12108 6.54810E-01
 -1     12109 6.54810E-01
 -1     12110 7.02800E-01
 -1     12115 6.54810E-01
 -1     12116 6.54810E-01
 -1     12117 7.02800E-01
 -1     12122 6.54810E-01
 -1     12123 6.54810E-01
 -1     12124 7.02800E-01
 -1     12129 6.54810E-01
 -1     12130 6.54810E-01
 -1     12131 7.02800E-01
 -1     12136 6.54810E-01
 -1     12137 6.54810E-01
 -1     12138 7.02800E-01
 -1     12143 6.54810E-01
 -1     12147 6.54810E-01
 -1     12148 6.54810E-01
 -1     12149 7.02800E-01
 -1     12154 6.54810E-01
 -1     12155 6.54810E-01
 -1     12156 7.02800E-01
 -1     12161 6.54810E-01
 -1     12162 6.54810E-01
 -1     12163 7.02800E-01
 -1     12168 6.54810E-01
 -1     12169 6.54810E-01
 -1     12170 7.02800E-01
 -1     12175 6.54810E-01
 -1     12176 6.54810E-01
 -1     12177 7.02800E-01
 -1     12182 6.54810E-01
 -1     12183 6.54810E-01
 -1     12184 7.02800E-01
 -1     12189 6.54810E-01
 -1     12190 6.54810E-01
 -1     12191 7.02800E-01
 -1     12196 6.54810E-01
 -1     12197 6.54810E-01
 -1     12198 7.02800E-01
 -1     12203 6.54810E-01
 -1     12204 6.54810E-01
 -1     12205 7.02800E-01
 -1     12210 6.54810E-01
 -1     12211 6.54810E-01
 -1     12212 7.02800E-01
 -1     12217 6.54810E-01
 -1     12221 6.54810E-01
 -1     12222 6.54810E-01
 -1     12223 7.02800E-01
 -1     12228 6.54810E-01
 -1     12229 6.54810E-01
 -1     12230 7.02800E-01
 -1     12235 6.54810E-01
 -1     12236 6.54810E-01
 -1     12237 7.02800E-01
 -1     12242 6.54810E-01
 -1     12243 6.54810E-01
 -1     12244 7.02800E-01
 -1     12249 6.54810E-01
 -1     12250 6.54810E-01
 -1     12251 7.02800E-01
 -1     12256 6.54810E-01
 -1     12257 6.54810E-01
 -1     12258 7.02800E-01
 -1     12263 6.54810E-01
 -1     12264 6.54810E-01
 -1     12265 7.02800E-01
 -1     12270 6.54810E-01
 -1     12271 6.54810E-01
 -1     12272 7.02800E-01
 -1     12277 6.54810E-01
 -1     12278 6.54810E-01
 -1     12279 7.02800E-01
 -1     12284 6.54810E-01
 -1     12285 6.54810E-01
 -1     12286 7.02800E-01
 -1     12291 6.54810E-01
 -1     12295 6.54810E-01
 -1     12296 6.54810E-01
 -1     12297 7.02800E-01
 -1     12302 6.54810E-01
 -1     12303 6.54810E-01
 -1     12304 7.02800E-01
 -1     12309 6.54810E-01
 -1     12310 6.54810E-01
 -1     12311 7.02800E-01
 -1     12316 6.54810E-01
 -1     12317 6.54810E-01
 -1     12318 7.02800E-01
 -1     12323 6.54810E-01
 -1     12324 6.54810E-01
 -1     12325 7.02800E-01
 -1     12330 6.54810E-01
 -1     12331 6.54810E-01
 -1     12332 7.02800E-01
 -1     12337 6.54810E-01
 -1     12338 6.54810E-01
 -1     12339 7.02800E-01
 -1     12344 6.54810E-01
 -1     12345 6.54810E-01
 -1     12346 7.02800E-01
 -1     12351 6.54810E-01
 -1     12352 6.54810E-01
 -1     12353 7.02800E-01
 -1     12358 6.54810E-01
 -1     12359 6.54810E-01
 -1     12360 7.02800E-01
 -1     12365 6.54810E-01
 -1     12369 6.54810E-01
 -1     12370 6.54810E-01
 -1     12371 7.02800E-01
 -1     12376 6.54810E-01
 -1     12377 6.54810E-01
 -1     12378 7.02800E-01
 -1     12383 6.54810E-01
 -1     12384 6.54810E-01
 -1     12385 7.02800E-01
 -1     12390 6.54810E-01
 -1     12391 6.54810E-01
 -1     12392 7.02800E-01
 -1     12397 6.54810E-01
 -1     12398 6.54810E-01
 -1     12399 7.02800E-01
 -1     12404 6.54810E-01
 -1     12405 6.54810E-01
 -1     12406 7.02800E-01
 -1     12411 6.54810E-01
 -1     12412 6.54810E-01
 -1     12413 7.02800E-01
 -1     12418 6.54810E-01
 -1     12419 6.54810E-01
 -1     12420 7.02800E-01
 -1     12425 6.54810E-01
 -1     12426 6.54810E-01
 -1     12427 7.02800E-01
 -1     12432 6.54810E-01
 -1     12433 6.54810E-01
 -1     12434 7.02800E-01
 -1     12439 6.54810E-01
 -1     12443 6.54810E-01
 -1     12444 6.54810E-01
 -1     12445 7.02800E-01
 -1     12450 6.54810E-01
 -1     12451 6.54810E-01
 -1     12452 7.02800E-01
 -1     12457 6.54810E-01
 -1     12458 6.54810E-01
 -1     12459 7.02800E-01
 -1     12464 6.54810E-01
 -1     12465 6.54810E-01
 -1     12466 7.02800E-01
 -1     12471 6.54810E-01
 -1     12472 6.54810E-01
 -1     12473 7.02800E-01
 -1     12478 6.54810E-01
 -1     12479 6.54810E-01
 -1     12480 7.02800E-01
 -1     12485 6.54810E-01
 -1     12486 6.54810E-01
 -1     12487 7.02800E-01
 -1     12492 6.54810E-01
 -1     12493 6.54810E-01
 -1     12494 7.02800E-01
 -1     12499 6.54810E-01
 -1     12500 6.54810E-01
 -1     12501 7.02800E-01
 -1     12506 6.54810E-01
 -1     12507 6.54810E-01
 -1     12508 7.02800E-01
 -1     12513 6.54810E-01
 -1     12517 6.54810E-01
 -1     12518 6.54810E-01
 -1     12519 7.02800E-01
 -1     12524 6.54810E-01
 -1     12525 6.54810E-01
 -1     12526 7.02800E-01
 -1     12531 6.54810E-01
 -1     12532 6.54810E-01
 -1     12533 7.02800E-01
 -1     12538 6.54810E-01
 -1     12539 6.54810E-01
 -1     12540 7.02800E-01
 -1     12545 6.54810E-01
 -1     12546 6.54810E-01
 -1     12547 7.02800E-01
 -1     12552 6.54810E-01
 -1     12553 6.54810E-01
 -1     12554 7.02800E-01
 -1     12559 6.54810E-01
 -1     12560 6.54810E-01
 -1     12561 7.02800E-01
 -1     12566 6.54810E-01
 -1     12567 6.54810E-01
 -1     12568 7.02800E-01
 -1     12573 6.54810E-01
 -1     12574 6.54810E-01
 -1     12575 7.02800E-01
 -1     12580 6.54810E-01
 -1     12581 6.54810E-01
 -1     12582 7.02800E-01
 -1     12587 6.54810E-01
 -1     12591 6.54810E-01
 -1     12592 6.54810E-01
 -1     12593 7.02800E-01
 -1     12598 6.54810E-01
 -1     12599 6.54810E-01
 -1     12600 7.02800E-01
 -1     12605 6.54810E-01
 -1     12606 6.54810E-01
 -1     12607 7.02800E-01
 -1     12612 6.54810E-01
 -1     12613 6.54810E-01
 -1     12614 7.02800E-01
 -1     12619 6.54810E-01
 -1     12620 6.54810E-01
 -1     12621 7.02800E-01
 -1     12626 6.54810E-01
 -1     12627 6.54810E-01
 -1     12628 7.02800E-01
 -1     12633 6.54810E-01
 -1     12634 6.54810E-01
 -1     12635 7.02800E-01
 -1     12640 6.54810E-01
 -1     12641 6.54810E-01
 -1     12642 7.02800E-01
 -1     12647 6.54810E-01
 -1     12648 6.54810E-01
 -1     12649 7.02800E-01
 -1     12654 6.54810E-01
 -1     12655 6.54810E-01
 -1     12656 7.02800E-01
 -1     12661 6.54810E-01
 -1     12665 6.54810E-01
 -1     12666 6.54810E-01
 -1     12667 7.02800E-01
 -1     12672 6.54810E-01
 -1     12673 6.54810E-01
 -1     12674 7.02800E-01
 -1     12679 6.54810E-01
 -1     12680 6.54810E-01
 -1     12681 7.02800E-01
 -1     12686 6.54810E-01
 -1     12687 6.54810E-01
 -1     12688 7.02800E-01
 -1     12693 6.54810E-01
 -1     12694 6.54810E-01
 -1     12695 7.02800E-01
 -1     12700 6.54810E-01
 -1     12701 6.54810E-01
 -1     12702 7.02800E-01
 -1     12707 6.54810E-01
 -1     12708 6.54810E-01
 -1     12709 7.02800E-01
 -1     12714 6.54810E-01
 -1     12715 6.54810E-01
 -1     12716 7.02800E-01
 -1     12721 6.54810E-01
 -1     12722 6.54810E-01
 -1     12723 7.02800E-01
 -1     12728 6.54810E-01
 -1     12729 6.54810E-01
 -1     12730 7.02800E-01
 -1     12735 6.54810E-01
 -1     12739 6.54810E-01
 -1     12743 6.54810E-01
 -1     12747 6.54810E-01
 -1     12751 6.54810E-01
 -1     12755 6.54810E-01
 -1     12759 6.54810E-01
 -1     12763 6.54810E-01
 -1     12767 6.54810E-01
 -1     12771 6.54810E-01
 -1     12775 6.54810E-01
 -1     12781 5.73593E-01
 -1     12782 5.73593E-01
 -1     12783 6.14201E-01
 -1     12788 5.73593E-01
 -1     12789 5.73593E-01
 -1     12790 6.14201E-01
 -1     12795 5.73593E-01
 -1     12796 5.73593E-01
 -1     12797 6.14201E-01
 -1     12802 5.73593E-01
 -1     12803 5.73593E-01
 -1     12804 6.14201E-01
 -1     12809 5.73592E-01
 -1     12810 5.73592E-01
 -1     12811 6.14201E-01
 -1     12816 5.73592E-01
 -1     12817 5.73592E-01
 -1     12818 6.14201E-01
 -1     12823 5.73592E-01
 -1     12824 5.73593E-01
 -1     12825 6.14201E-01
 -1     12830 5.73593E-01
 -1     12831 5.73593E-01
 -1     12832 6.14201E-01
 -1     12837 5.73593E-01
 -1     12838 5.73593E-01
 -1     12839 6.14201E-01
 -1     12844 5.73593E-01
 -1     12845 5.73593E-01
 -1     12846 6.14201E-01
 -1     12851 5.73593E-01
 -1     12855 5.73593E-01
 -1     12856 5.73593E-01
 -1     12857 6.14201E-01
 -1     12862 5.73593E-01
 -1     12863 5.73593E-01
 -1     12864 6.14201E-01
 -1     12869 5.73593E-01
 -1     12870 5.73593E-01
 -1     12871 6.14201E-01
 -1     12876 5.73593E-01
 -1     12877 5.73593E-01
 -1     12878 6.14201E-01
 -1     12883 5.73592E-01
 -1     12884 5.73592E-01
 -1     12885 6.14201E-01
 -1     12890 5.73592E-01
 -1     12891 5.73592E-01
 -1     12892 6.14201E-01
 -1     12897 5.73592E-01
 -1     12898 5.73593E-01
 -1     12899 6.14201E-01
 -1     12904 5.73593E-01
 -1     12905 5.73593E-01
 -1     12906 6.14201E-01
 -1     12911 5.73593E-01
 -1     12912 5.73593E-01
 -1     12913 6.14201E-01
 -1     12918 5.73593E-01
 -1     12919 5.73593E-01
 -1     12920 6.14201E-01
 -1     12925 5.73593E-01
 -1     12929 5.73593E-01
 -1     12930 5.73593E-01
 -1     12931 6.14201E-01
 -1     12936 5.73593E-01
 -1     12937 5.73593E-01
 -1     12938 6.14201E-01
 -1     12943 5.73593E-01
 -1     12944 5.73593E-01
 -1     12945 6.14201E-01
 -1     12950 5.73593E-01
 -1     12951 5.73593E-01
 -1     12952 6.14201E-01
 -1     12957 5.73592E-01
 -1     12958 5.73592E-01
 -1     12959 6.14201E-01
 -1     12964 5.73592E-01
 -1     12965 5.73592E-01
 -1     12966 6.14201E-01
 -1     12971 5.73592E-01
 -1     12972 5.73593E-01
 -1     12973 6.14201E-01
 -1     12978 5.73593E-01
 -1     12979 5.73593E-01
 -1     12980 6.14201E-01
 -1     12985 5.73593E-01
 -1     12986 5.73593E-01
 -1     12987 6.14201E-01
 -1     12992 5.73593E-01
 -1     12993 5.73593E-01
 -1     12994 6.14201E-01
 -1     12999 5.73593E-01
 -1     13003 5.73593E-01
 -1     13004 5.73593E-01
 -1     13005 6.14201E-01
 -1     13010 5.73593E-01
 -1     13011 5.73593E-01
 -1     13012 6.14201E-01
 -1     13017 5.73593E-01
 -1     13018 5.73593E-01
 -1     13019 6.14201E-01
 -1     13024 5.73593E-01
 -1     13025 5.73593E-01
 -1     13026 6.14201E-01
 -1     13031 5.73592E-01
 -1     13032 5.73592E-01
 -1     13033 6.14201E-01
 -1     13038 5.73592E-01
 -1     13039 5.73592E-01
 -1     13040 6.14201E-01
 -1     13045 5.73592E-01
 -1     13046 5.73593E-01
 -1     13047 6.14201E-01
 -1     13052 5.73593E-01
 -1     13053 5.73593E-01
 -1     13054 6.14201E-01
 -1     13059 5.73593E-01
 -1     13060 5.73593E-01
 -1     13061 6.14201E-01
 -1     13066 5.73593E-01
 -1     13067 5.73593E-01
 -1     13068 6.14201E-01
 -1     13073 5.73593E-01
 -1     13077 5.73593E-01
 -1     13078 5.73593E-01
 -1     13079 6.14201E-01
 -1     13084 5.73593E-01
 -1     13085 5.73593E-01
 -1     13086 6.14201E-01
 -1     13091 5.73593E-01
 -1     13092 5.73593E-01
 -1     13093 6.14201E-01
 -1     13098 5.73593E-01
 -1     13099 5.73593E-01
 -1     13100 6.14201E-01
 -1     13105 5.73592E-01
 -1     13106 5.73592E-01
 -1     13107 6.14201E-01
 -1     13112 5.73592E-01
 -1     13113 5.73592E-01
 -1     13114 6.14201E-01
 -1     13119 5.73592E-01
 -1     13120 5.73593E-01
 -1     13121 6.14201E-01
 -1     13126 5.73593E-01
 -1     13127 5.73593E-01
 -1     13128 6.14201E-01
 -1     13133 5.73593E-01
 -1     13134 5.73593E-01
 -1     13135 6.14201E-01
 -1     13140 5.73593E-01
 -1     13141 5.73593E-01
 -1     13142 6.14201E-01
 -1     13147 5.73593E-01
 -1     13151 5.73593E-01
 -1     13152 5.73593E-01
 -1     13153 6.14201E-01
 -1     13158 5.73593E-01
 -1     13159 5.73593E-01
 -1     13160 6.14201E-01
 -1     13165 5.73593E-01
 -1     13166 5.73593E-01
 -1     13167 6.14201E-01
 -1     13172 5.73593E-01
 -1     13173 5.73593E-01
 -1     13174 6.14201E-01
 -1     13179 5.73592E-01
 -1     13180 5.73592E-01
 -1     13181 6.14201E-01
 -1     13186 5.73592E-01
 -1     13187 5.73592E-01
 -1     13188 6.14201E-01
 -1     13193 5.73592E-01
 -1     13194 5.73593E-01
 -1     13195 6.14201E-01
 -1     13200 5.73593E-01
 -1     13201 5.73593E-01
 -1     13202 6.14201E-01
 -1     13207 5.73593E-01
 -1     13208 5.73593E-01
 -1     13209 6.14201E-01
 -1     13214 5.73593E-01
 -1     13215 5.73593E-01
 -1     13216 6.14201E-01
 -1     13221 5.73593E-01
 -1     13225 5.73593E-01
 -1     13226 5.73593E-01
 -1     13227 6.14201E-01
 -1     13232 5.73593E-01
 -1     13233 5.73593E-01
 -1     13234 6.14201E-01
 -1     13239 5.73593E-01
 -1     13240 5.73593E-01
 -1     13241 6.14201E-01
 -1     13246 5.73593E-01
 -1     13247 5.73593E-01
 -1     13248 6.14201E-01
 -1     13253 5.73592E-01
 -1     13254 5.73592E-01
 -1     13255 6.14201E-01
 -1     13260 5.73592E-01
 -1     13261 5.73592E-01
 -1     13262 6.14201E-01
 -1     13267 5.73592E-01
 -1     13268 5.73593E-01
 -1     13269 6.14201E-01
 -1     13274 5.73593E-01
 -1     13275 5.73593E-01
 -1     13276 6.14201E-01
 -1     13281 5.73593E-01
 -1     13282 5.73593E-01
 -1     13283 6.14201E-01
 -1     13288 5.73593E-01
 -1     13289 5.73593E-01
 -1     13290 6.14201E-01
 -1     13295 5.73593E-01
 -1     13299 5.73593E-01
 -1     13300 5.73593E-01
 -1     13301 6.14201E-01
 -1     13306 5.73593E-01
 -1     13307 5.73593E-01
 -1     13308 6.14201E-01
 -1     13313 5.73593E-01
 -1     13314 5.73593E-01
 -1     13315 6.14201E-01
 -1     13320 5.73593E-01
 -1     13321 5.73593E-01
 -1     13322 6.14201E-01
 -1     13327 5.73592E-01
 -1     13328 5.73592E-01
 -1     13329 6.14201E-01
 -1     13334 5.73592E-01
 -1     13335 5.73592E-01
 -1     13336 6.14201E-01
 -1     13341 5.73592E-01
 -1     13342 5.73593E-01
 -1     13343 6.14201E-01
 -1     13348 5.73593E-01
 -1     13349 5.73593E-01
 -1     13350 6.14201E-01
 -1     13355 5.73593E-01
 -1     13356 5.73593E-01
 -1     13357 6.14201E-01
 -1     13362 5.73593E-01
 -1     13363 5.73593E-01
 -1     13364 6.14201E-01
 -1     13369 5.73593E-01
 -1     13373 5.73593E-01
 -1     13374 5.73593E-01
 -1     13375 6.14201E-01
 -1     13380 5.73593E-01
 -1     13381 5.73593E-01
 -1     13382 6.14201E-01
 -1     13387 5.73593E-01
 -1     13388 5.73593E-01
 -1     13389 6.14201E-01
 -1     13394 5.73593E-01
 -1     13395 5.73593E-01
 -1     13396 6.14201E-01
 -1     13401 5.73592E-01
 -1     13402 5.73592E-01
 -1     13403 6.14201E-01
 -1     13408 5.73592E-01
 -1     13409 5.73592E-01
 -1     13410 6.14201E-01
 -1     13415 5.73592E-01
 -1     13416 5.73593E-01
 -1     13417 6.14201E-01
 -1     13422 5.73593E-01
 -1     13423 5.73593E-01
 -1     13424 6.14201E-01
 -1     13429 5.73593E-01
 -1     13430 5.73593E-01
 -1     13431 6.14201E-01
 -1     13436 5.73593E-01
 -1     13437 5.73593E-01
 -1     13438 6.14201E-01
 -1     13443 5.73593E-01
 -1     13447 5.73593E-01
 -1     13451 5.73593E-01
 -1     13455 5.73593E-01
 -1     13459 5.73593E-01
 -1     13463 5.73592E-01
 -1     13467 5.73592E-01
 -1     13471 5.73593E-01
 -1     13475 5.73593E-01
 -1     13479 5.73593E-01
 -1     13483 5.73593E-01
 -1     13489 5.04539E-01
 -1     13490 5.04539E-01
 -1     13491 5.39066E-01
 -1     13496 5.04539E-01
 -1     13497 5.04539E-01
 -1     13498 5.39066E-01
 -1     13503 5.04539E-01
 -1     13504 5.04539E-01
 -1     13505 5.39066E-01
 -1     13510 5.04539E-01
 -1     13511 5.04539E-01
 -1     13512 5.39066E-01
 -1     13517 5.04539E-01
 -1     13518 5.04539E-01
 -1     13519 5.39066E-01
 -1     13524 5.04539E-01
 -1     13525 5.04539E-01
 -1     13526 5.39066E-01
 -1     13531 5.04539E-01
 -1     13532 5.04539E-01
 -1     13533 5.39066E-01
 -1     13538 5.04539E-01
 -1     13539 5.04539E-01
 -1     13540 5.39066E-01
 -1     13545 5.04539E-01
 -1     13546 5.04539E-01
 -1     13547 5.39066E-01
 -1     13552 5.04539E-01
 -1     13553 5.04539E-01
 -1     13554 5.39066E-01
 -1     13559 5.04539E-01
 -1     13563 5.04539E-01
 -1     13564 5.04539E-01
 -1     13565 5.39066E-01
 -1     13570 5.04539E-01
 -1     13571 5.04539E-01
 -1     13572 5.39066E-01
 -1     13577 5.04539E-01
 -1     13578 5.04539E-01
 -1     13579 5.39066E-01
 -1     13584 5.04539E-01
 -1     13585 5.04539E-01
 -1     13586 5.39066E-01
 -1     13591 5.04539E-01
 -1     13592 5.04539E-01
 -1     13593 5.39066E-01
 -1     13598 5.04539E-01
 -1     13599 5.04539E-01
 -1     13600 5.39066E-01
 -1     13605 5.04539E-01
 -1     13606 5.04539E-01
 -1     13607 5.39066E-01
 -1     13612 5.04539E-01
 -1     13613 5.04539E-01
 -1     13614 5.39066E-01
 -1     13619 5.04539E-01
 -1     13620 5.04539E-01
 -1     13621 5.39066E-01
 -1     13626 5.04539E-01
 -1     13627 5.04539E-01
 -1     13628 5.39066E-01
 -1     13633 5.04539E-01
 -1     13637 5.04539E-01
 -1     13638 5.04539E-01
 -1     13639 5.39066E-01
 -1     13644 5.04539E-01
 -1     13645 5.04539E-01
 -1     13646 5.39066E-01
 -1     13651 5.04539E-01
 -1     13652 5.04539E-01
 -1     13653 5.39066E-01
 -1     13658 5.04539E-01
 -1     13659 5.04539E-01
 -1     13660 5.39066E-01
 -1     13665 5.04539E-01
 -1     13666 5.04539E-01
 -1     13667 5.39066E-01
 -1     13672 5.04539E-01
 -1     13673 5.04539E-01
 -1     13674 5.39066E-01
 -1     13679 5.04539E-01
 -1     13680 5.04539E-01
 -1     13681 5.39066E-01
 -1     13686 5.04539E-01
 -1     13687 5.04539E-01
 -1     13688 5.39066E-01
 -1     13693 5.04539E-01
 -1     13694 5.04539E-01
 -1     13695 5.39066E-01
 -1     13700 5.04539E-01
 -1     13701 5.04539E-01
 -1     13702 5.39066E-01
 -1     13707 5.04539E-01
 -1     13711 5.04539E-01
 -1     13712 5.04539E-01
 -1     13713 5.39066E-01
 -1     13718 5.04539E-01
 -1     13719 5.04539E-01
 -1     13720 5.39066E-01
 -1     13725 5.04539E-01
 -1     13726 5.04539E-01
 -1     13727 5.39066E-01
 -1     13732 5.04539E-01
 -1     13733 5.04539E-01
 -1     13734 5.39066E-01
 -1     13739 5.04539E-01
 -1     13740 5.04539E-01
 -1     13741 5.39066E-01
 -1     13746 5.04539E-01
 -1     13747 5.04539E-01
 -1     13748 5.39066E-01
 -1     13753 5.04539E-01
 -1     13754 5.04539E-01
 -1     13755 5.39066E-01
 -1     13760 5.04539E-01
 -1     13761 5.04539E-01
 -1     13762 5.39066E-01
 -1     13767 5.04539E-01
 -1     13768 5.04539E-01
 -1     13769 5.39066E-01
 -1     13774 5.04539E-01
 -1     13775 5.04539E-01
 -1     13776 5.39066E-01
 -1     13781 5.04539E-01
 -1     13785 5.04539E-01
 -1     13786 5.04539E-01
 -1     13787 5.39066E-01
 -1     13792 5.04539E-01
 -1     13793 5.04539E-01
 -1     13794 5.39066E-01
 -1     13799 5.04539E-01
 -1     13800 5.04539E-01
 -1     13801 5.39066E-01
 -1     13806 5.04539E-01
 -1     13807 5.04539E-01
 -1     13808 5.39066E-01
 -1     13813 5.04539E-01
 -1     13814 5.04539E-01
 -1     13815 5.39066E-01
 -1     13820 5.04539E-01
 -1     13821 5.04539E-01
 -1     13822 5.39066E-01
 -1     13827 5.04539E-01
 -1     13828 5.04539E-01
 -1     13829 5.39066E-01
 -1     13834 5.04539E-01
 -1     13835 5.04539E-01
 -1     13836 5.39066E-01
 -1     13841 5.04539E-01
 -1     13842 5.04539E-01
 -1     13843 5.39066E-01
 -1     13848 5.04539E-01
 -1     13849 5.04539E-01
 -1     13850 5.39066E-01
 -1     13855 5.04539E-01
 -1     13859 5.04539E-01
 -1     13860 5.04539E-01
 -1     13861 5.39066E-01
 -1     13866 5.04539E-01
 -1     13867 5.04539E-01
 -1     13868 5.39066E-01
 -1     13873 5.04539E-01
 -1     13874 5.04539E-01
 -1     13875 5.39066E-01
 -1     13880 5.04539E-01
 -1     13881 5.04539E-01
 -1     13882 5.39066E-01
 -1     13887 5.04539E-01
 -1     13888 5.04539E-01
 -1     13889 5.39066E-01
 -1     13894 5.04539E-01
 -1     13895 5.04539E-01
 -1     13896 5.39066E-01
 -1     13901 5.04539E-01
 -1     13902 5.04539E-01
 -1     13903 5.39066E-01
 -1     13908 5.04539E-01
 -1     13909 5.04539E-01
 -1     13910 5.39066E-01
 -1     13915 5.04539E-01
 -1     13916 5.04539E-01
 -1     13917 5.39066E-01
 -1     13922 5.04539E-01
 -1     13923 5.04539E-01
 -1     13924 5.39066E-01
 -1     13929 5.04539E-01
 -1     13933 5.04539E-01
 -1     13934 5.04539E-01
 -1     13935 5.39066E-01
 -1     13940 5.04539E-01
 -1     13941 5.04539E-01
 -1     13942 5.39066E-01
 -1     13947 5.04539E-01
 -1     13948 5.04539E-01
 -1     13949 5.39066E-01
 -1     13954 5.04539E-01
 -1     13955 5.04539E-01
 -1     13956 5.39066E-01
 -1     13961 5.04539E-01
 -1     13962 5.04539E-01
 -1     13963 5.39066E-01
 -1     13968 5.04539E-01
 -1     13969 5.04539E-01
 -1     13970 5.39066E-01
 -1     13975 5.04539E-01
 -1     13976 5.04539E-01
 -1     13977 5.39066E-01
 -1     13982 5.04539E-01
 -1     13983 5.04539E-01
 -1     13984 5.39066E-01
 -1     13989 5.04539E-01
 -1     13990 5.04539E-01
 -1     13991 5.39066E-01
 -1     13996 5.04539E-01
 -1     13997 5.04539E-01
 -1     13998 5.39066E-01
 -1     14003 5.04539E-01
 -1     14007 5.04539E-01
 -1     14008 5.04539E-01
 -1     14009 5.39066E-01
 -1     14014 5.04539E-01
 -1     14015 5.04539E-01
 -1     14016 5.39066E-01
 -1     14021 5.04539E-01
 -1     14022 5.04539E-01
 -1     14023 5.39066E-01
 -1     14028 5.04539E-01
 -1     14029 5.04539E-01
 -1     14030 5.39066E-01
 -1     14035 5.04539E-01
 -1     14036 5.04539E-01
 -1     14037 5.39066E-01
 -1     14042 5.04539E-01
 -1     14043 5.04539E-01
 -1     14044 5.39066E-01
 -1     14049 5.04539E-01
 -1     14050 5.04539E-01
 -1     14051 5.39066E-01
 -1     14056 5.04539E-01
 -1     14057 5.04539E-01
 -1     14058 5.39066E-01
 -1     14063 5.04539E-01
 -1     14064 5.04539E-01
 -1     14065 5.39066E-01
 -1     14070 5.04539E-01
 -1     14071 5.04539E-01
 -1     14072 5.39066E-01
 -1     14077 5.04539E-01
 -1     14081 5.04539E-01
 -1     14082 5.04539E-01
 -1     14083 5.39066E-01
 -1     14088 5.04539E-01
 -1     14089 5.04539E-01
 -1     14090 5.39066E-01
 -1     14095 5.04539E-01
 -1     14096 5.04539E-01
 -1     14097 5.39066E-01
 -1     14102 5.04539E-01
 -1     14103 5.04539E-01
 -1     14104 5.39066E-01
 -1     14109 5.04539E-01
 -1     14110 5.04539E-01
 -1     14111 5.39066E-01
 -1     14116 5.04539E-01
 -1     14117 5.04539E-01
 -1     14118 5.39066E-01
 -1     14123 5.04539E-01
 -1     14124 5.04539E-01
 -1     14125 5.39066E-01
 -1     14130 5.04539E-01
 -1     14131 5.04539E-01
 -1     14132 5.39066E-01
 -1     14137 5.04539E-01
 -1     14138 5.04539E-01
 -1     14139 5.39066E-01
 -1     14144 5.04539E-01
 -1     14145 5.04539E-01
 -1     14146 5.39066E-01
 -1     14151 5.04539E-01
 -1     14155 5.04539E-01
 -1     14159 5.04539E-01
 -1     14163 5.04539E-01
 -1     14167 5.04539E-01
 -1     14171 5.04539E-01
 -1     14175 5.04539E-01
 -1     14179 5.04539E-01
 -1     14183 5.04539E-01
 -1     14187 5.04539E-01
 -1     14191 5.04539E-01
 -1     14197 4.45565E-01
 -1     14198 4.45565E-01
 -1     14199 4.75052E-01
 -1     14204 4.45565E-01
 -1     14205 4.45565E-01
 -1     14206 4.75052E-01
 -1     14211 4.45565E-01
 -1     14212 4.45565E-01
 -1     14213 4.75052E-01
 -1     14218 4.45565E-01
 -1     14219 4.45565E-01
 -1     14220 4.75052E-01
 -1     14225 4.45565E-01
 -1     14226 4.45565E-01
 -1     14227 4.75052E-01
 -1     14232 4.45565E-01
 -1     14233 4.45565E-01
 -1     14234 4.75052E-01
 -1     14239 4.45565E-01
 -1     14240 4.45565E-01
 -1     14241 4.75052E-01
 -1     14246 4.45565E-01
 -1     14247 4.45565E-01
 -1     14248 4.75052E-01
 -1     14253 4.45565E-01
 -1     14254 4.45565E-01
 -1     14255 4.75052E-01
 -1     14260 4.45565E-01
 -1     14261 4.45565E-01
 -1     14262 4.75052E-01
 -1     14267 4.45565E-01
 -1     14271 4.45565E-01
 -1     14272 4.45565E-01
 -1     14273 4.75052E-01
 -1     14278 4.45565E-01
 -1     14279 4.45565E-01
 -1     14280 4.75052E-01
 -1     14285 4.45565E-01
 -1     14286 4.45565E-01
 -1     14287 4.75052E-01
 -1     14292 4.45565E-01
 -1     14293 4.45565E-01
 -1     14294 4.75052E-01
 -1     14299 4.45565E-01
 -1     14300 4.45565E-01
 -1     14301 4.75052E-01
 -1     14306 4.45565E-01
 -1     14307 4.45565E-01
 -1     14308 4.75052E-01
 -1     14313 4.45565E-01
 -1     14314 4.45565E-01
 -1     14315 4.75052E-01
 -1     14320 4.45565E-01
 -1     14321 4.45565E-01
 -1     14322 4.75052E-01
 -1     14327 4.45565E-01
 -1     14328 4.45565E-01
 -1     14329 4.75052E-01
 -1     14334 4.45565E-01
 -1     14335 4.45565E-01
 -1     14336 4.75052E-01
 -1     14341 4.45565E-01
 -1     14345 4.45565E-01
 -1     14346 4.45565E-01
 -1     14347 4.75052E-01
 -1     14352 4.45565E-01
 -1     14353 4.45565E-01
 -1     14354 4.75052E-01
 -1     14359 4.45565E-01
 -1     14360 4.45565E-01
 -1     14361 4.75052E-01
 -1     14366 4.45565E-01
 -1     14367 4.45565E-01
 -1     14368 4.75052E-01
 -1     14373 4.45565E-01
 -1     14374 4.45565E-01
 -1     14375 4.75052E-01
 -1     14380 4.45565E-01
 -1     14381 4.45565E-01
 -1     14382 4.75052E-01
 -1     14387 4.45565E-01
 -1     14388 4.45565E-01
 -1     14389 4.75052E-01
 -1     14394 4.45565E-01
 -1     14395 4.45565E-01
 -1     14396 4.75052E-01
 -1     14401 4.45565E-01
 -1     14402 4.45565E-01
 -1     14403 4.75052E-01
 -1     14408 4.45565E-01
 -1     14409 4.45565E-01
 -1     14410 4.75052E-01
 -1     14415 4.45565E-01
 -1     14419 4.45565E-01
 -1     14420 4.45565E-01
 -1     14421 4.75052E-01
 -1     14426 4.45565E-01
 -1     14427 4.45565E-01
 -1     14428 4.75052E-01
 -1     14433 4.45565E-01
 -1     14434 4.45565E-01
 -1     14435 4.75052E-01
 -1     14440 4.45565E-01
 -1     14441 4.45565E-01
 -1     14442 4.75052E-01
 -1     14447 4.45565E-01
 -1     14448 4.45565E-01
 -1     14449 4.75052E-01
 -1     14454 4.45565E-01
 -1     14455 4.45565E-01
 -1     14456 4.75052E-01
 -1     14461 4.45565E-01
 -1     14462 4.45565E-01
 -1     14463 4.75052E-01
 -1     14468 4.45565E-01
 -1     14469 4.45565E-01
 -1     14470 4.75052E-01
 -1     14475 4.45565E-01
 -1     14476 4.45565E-01
 -1     14477 4.75052E-01
 -1     14482 4.45565E-01
 -1     14483 4.45565E-01
 -1     14484 4.75052E-01
 -1     14489 4.45565E-01
 -1     14493 4.45565E-01
 -1     14494 4.45565E-01
 -1     14495 4.75052E-01
 -1     14500 4.45565E-01
 -1     14501 4.45565E-01
 -1     14502 4.75052E-01
 -1     14507 4.45565E-01
 -1     14508 4.45565E-01
 -1     14509 4.75052E-01
 -1     14514 4.45565E-01
 -1     14515 4.45565E-01
 -1     14516 4.75052E-01
 -1     14521 4.45565E-01
 -1     14522 4.45565E-01
 -1     14523 4.75052E-01
 -1     14528 4.45565E-01
 -1     14529 4.45565E-01
 -1     14530 4.75052E-01
 -1     14535 4.45565E-01
 -1     14536 4.45565E-01
 -1     14537 4.75052E-01
 -1     14542 4.45565E-01
 -1     14543 4.45565E-01
 -1     14544 4.75052E-01
 -1     14549 4.45565E-01
 -1     14550 4.45565E-01
 -1     14551 4.75052E-01
 -1     14556 4.45565E-01
 -1     14557 4.45565E-01
 -1     14558 4.75052E-01
 -1     14563 4.45565E-01
 -1     14567 4.45565E-01
 -1     14568 4.45565E-01
 -1     14569 4.75052E-01
 -1     14574 4.45565E-01
 -1     14575 4.45565E-01
 -1     14576 4.75052E-01
 -1     14581 4.45565E-01
 -1     14582 4.45565E-01
 -1     14583 4.75052E-01
 -1     14588 4.45565E-01
 -1     14589 4.45565E-01
 -1     14590 4.75052E-01
 -1     14595 4.45565E-01
 -1     14596 4.45565E-01
 -1     14597 4.75052E-01
 -1     14602 4.45565E-01
 -1     14603 4.45565E-01
 -1     14604 4.75052E-01
 -1     14609 4.45565E-01
 -1     14610 4.45565E-01
 -1     14611 4.75052E-01
 -1     14616 4.45565E-01
 -1     14617 4.45565E-01
 -1     14618 4.75052E-01
 -1     14623 4.45565E-01
 -1     14624 4.45565E-01
 -1     14625 4.75052E-01
 -1     14630 4.45565E-01
 -1     14631 4.45565E-01
 -1     14632 4.75052E-01
 -1     14637 4.45565E-01
 -1     14641 4.45565E-01
 -1     14642 4.45565E-01
 -1     14643 4.75052E-01
 -1     14648 4.45565E-01
 -1     14649 4.45565E-01
 -1     14650 4.75052E-01
 -1     14655 4.45565E-01
 -1     14656 4.45565E-01
 -1     14657 4.75052E-01
 -1     14662 4.45565E-01
 -1     14663 4.45565E-01
 -1     14664 4.75052E-01
 -1     14669 4.45565E-01
 -1     14670 4.45565E-01
 -1     14671 4.75052E-01
 -1     14676 4.45565E-01
 -1     14677 4.45565E-01
 -1     14678 4.75052E-01
 -1     14683 4.45565E-01
 -1     14684 4.45565E-01
 -1     14685 4.75052E-01
 -1     14690 4.45565E-01
 -1     14691 4.45565E-01
 -1     14692 4.75052E-01
 -1     14697 4.45565E-01
 -1     14698 4.45565E-01
 -1     14699 4.75052E-01
 -1     14704 4.45565E-01
 -1     14705 4.45565E-01
 -1     14706 4.75052E-01
 -1     14711 4.45565E-01
 -1     14715 4.45565E-01
 -1     14716 4.45565E-01
 -1     14717 4.75052E-01
 -1     14722 4.45565E-01
 -1     14723 4.45565E-01
 -1     14724 4.75052E-01
 -1     14729 4.45565E-01
 -1     14730 4.45565E-01
 -1     14731 4.75052E-01
 -1     14736 4.45565E-01
 -1     14737 4.45565E-01
 -1     14738 4.75052E-01
 -1     14743 4.45565E-01
 -1     14744 4.45565E-01
 -1     14745 4.75052E-01
 -1     14750 4.45565E-01
 -1     14751 4.45565E-01
 -1     14752 4.75052E-01
 -1     14757 4.45565E-01
 -1     14758 4.45565E-01
 -1     14759 4.75052E-01
 -1     14764 4.45565E-01
 -1     14765 4.45565E-01
 -1     14766 4.75052E-01
 -1     14771 4.45565E-01
 -1     14772 4.45565E-01
 -1     14773 4.75052E-01
 -1     14778 4.45565E-01
 -1     14779 4.45565E-01
 -1     14780 4.75052E-01
 -1     14785 4.45565E-01
 -1     14789 4.45565E-01
 -1     14790 4.45565E-01
 -1     14791 4.75052E-01
 -1     14796 4.45565E-01
 -1     14797 4.45565E-01
 -1     14798 4.75052E-01
 -1     14803 4.45565E-01
 -1     14804 4.45565E-01
 -1     14805 4.75052E-01
 -1     14810 4.45565E-01
 -1     14811 4.45565E-01
 -1     14812 4.75052E-01
 -1     14817 4.45565E-01
 -1     14818 4.45565E-01
 -1     14819 4.75052E-01
 -1     14824 4.45565E-01
 -1     14825 4.45565E-01
 -1     14826 4.75052E-01
 -1     14831 4.45565E-01
 -1     14832 4.45565E-01
 -1     14833 4.75052E-01
 -1     14838 4.45565E-01
 -1     14839 4.45565E-01
 -1     14840 4.75052E-01
 -1     14845 4.45565E-01
 -1     14846 4.45565E-01
 -1     14847 4.75052E-01
 -1     14852 4.45565E-01
 -1     14853 4.45565E-01
 -1     14854 4.75052E-01
 -1     14859 4.45565E-01
 -1     14863 4.45565E-01
 -1     14867 4.45565E-01
 -1     14871 4.45565E-01
 -1     14875 4.45565E-01
 -1     14879 4.45565E-01
 -1     14883 4.45565E-01
 -1     14887 4.45565E-01
 -1     14891 4.45565E-01
 -1     14895 4.45565E-01
 -1     14899 4.45565E-01
 -1     14905 3.94983E-01
 -1     14906 3.94983E-01
 -1     14907 4.20274E-01
 -1     14912 3.94983E-01
 -1     14913 3.94983E-01
 -1     14914 4.20274E-01
 -1     14919 3.94983E-01
 -1     14920 3.94983E-01
 -1     14921 4.20274E-01
 -1     14926 3.94983E-01
 -1     14927 3.94983E-01
 -1     14928 4.20274E-01
 -1     14933 3.94983E-01
 -1     14934 3.94983E-01
 -1     14935 4.20274E-01
 -1     14940 3.94983E-01
 -1     14941 3.94983E-01
 -1     14942 4.20274E-01
 -1     14947 3.94983E-01
 -1     14948 3.94983E-01
 -1     14949 4.20274E-01
 -1     14954 3.94983E-01
 -1     14955 3.94983E-01
 -1     14956 4.20274E-01
 -1     14961 3.94983E-01
 -1     14962 3.94983E-01
 -1     14963 4.20274E-01
 -1     14968 3.94983E-01
 -1     14969 3.94983E-01
 -1     14970 4.20274E-01
 -1     14975 3.94983E-01
 -1     14979 3.94983E-01
 -1     14980 3.94983E-01
 -1     14981 4.20274E-01
 -1     14986 3.94983E-01
 -1     14987 3.94983E-01
 -1     14988 4.20274E-01
 -1     14993 3.94983E-01
 -1     14994 3.94983E-01
 -1     14995 4.20274E-01
 -1     15000 3.94983E-01
 -1     15001 3.94983E-01
 -1     15002 4.20274E-01
 -1     15007 3.94983E-01
 -1     15008 3.94983E-01
 -1     15009 4.20274E-01
 -1     15014 3.94983E-01
 -1     15015 3.94983E-01
 -1     15016 4.20274E-01
 -1     15021 3.94983E-01
 -1     15022 3.94983E-01
 -1     15023 4.20274E-01
 -1     15028 3.94983E-01
 -1     15029 3.94983E-01
 -1     15030 4.20274E-01
 -1     15035 3.94983E-01
 -1     15036 3.94983E-01
 -1     15037 4.20274E-01
 -1     15042 3.94983E-01
 -1     15043 3.94983E-01
 -1     15044 4.20274E-01
 -1     15049 3.94983E-01
 -1     15053 3.94983E-01
 -1     15054 3.94983E-01
 -1     15055 4.20274E-01
 -1     15060 3.94983E-01
 -1     15061 3.94983E-01
 -1     15062 4.20274E-01
 -1     15067 3.94983E-01
 -1     15068 3.94983E-01
 -1     15069 4.20274E-01
 -1     15074 3.94983E-01
 -1     15075 3.94983E-01
 -1     15076 4.20274E-01
 -1     15081 3.94983E-01
 -1     15082 3.94983E-01
 -1     15083 4.20274E-01
 -1     15088 3.94983E-01
 -1     15089 3.94983E-01
 -1     15090 4.20274E-01
 -1     15095 3.94983E-01
 -1     15096 3.94983E-01
 -1     15097 4.20274E-01
 -1     15102 3.94983E-01
 -1     15103 3.94983E-01
 -1     15104 4.20274E-01
 -1     15109 3.94983E-01
 -1     15110 3.94983E-01
 -1     15111 4.20274E-01
 -1     15116 3.94983E-01
 -1     15117 3.94983E-01
 -1     15118 4.20274E-01
 -1     15123 3.94983E-01
 -1     15127 3.94983E-01
 -1     15128 3.94983E-01
 -1     15129 4.20274E-01
 -1     15134 3.94983E-01
 -1     15135 3.94983E-01
 -1     15136 4.20274E-01
 -1     15141 3.94983E-01
 -1     15142 3.94983E-01
 -1     15143 4.20274E-01
 -1     15148 3.94983E-01
 -1     15149 3.94983E-01
 -1     15150 4.20274E-01
 -1     15155 3.94983E-01
 -1     15156 3.94983E-01
 -1     15157 4.20274E-01
 -1     15162 3.94983E-01
 -1     15163 3.94983E-01
 -1     15164 4.20274E-01
 -1     15169 3.94983E-01
 -1     15170 3.94983E-01
 -1     15171 4.20274E-01
 -1     15176 3.94983E-01
 -1     15177 3.94983E-01
 -1     15178 4.20274E-01
 -1     15183 3.94983E-01
 -1     15184 3.94983E-01
 -1     15185 4.20274E-01
 -1     15190 3.94983E-01
 -1     15191 3.94983E-01
 -1     15192 4.20274E-01
 -1     15197 3.94983E-01
 -1     15201 3.94983E-01
 -1     15202 3.94983E-01
 -1     15203 4.20274E-01
 -1     15208 3.94983E-01
 -1     15209 3.94983E-01
 -1     15210 4.20274E-01
 -1     15215 3.94983E-01
 -1     15216 3.94983E-01
 -1     15217 4.20274E-01
 -1     15222 3.94983E-01
 -1     15223 3.94983E-01
 -1     15224 4.20274E-01
 -1     15229 3.94983E-01
 -1     15230 3.94983E-01
 -1     15231 4.20274E-01
 -1     15236 3.94983E-01
 -1     15237 3.94983E-01
 -1     15238 4.20274E-01
 -1     15243 3.94983E-01
 -1     15244 3.94983E-01
 -1     15245 4.20274E-01
 -1     15250 3.94983E-01
 -1     15251 3.94983E-01
 -1     15252 4.20274E-01
 -1     15257 3.94983E-01
 -1     15258 3.94983E-01
 -1     15259 4.20274E-01
 -1     15264 3.94983E-01
 -1     15265 3.94983E-01
 -1     15266 4.20274E-01
 -1     15271 3.94983E-01
 -1     15275 3.94983E-01
 -1     15276 3.94983E-01
 -1     15277 4.20274E-01
 -1     15282 3.94983E-01
 -1     15283 3.94983E-01
 -1     15284 4.20274E-01
 -1     15289 3.94983E-01
 -1     15290 3.94983E-01
 -1     15291 4.20274E-01
 -1     15296 3.94983E-01
 -1     15297 3.94983E-01
 -1     15298 4.20274E-01
 -1     15303 3.94983E-01
 -1     15304 3.94983E-01
 -1     15305 4.20274E-01
 -1     15310 3.94983E-01
 -1     15311 3.94983E-01
 -1     15312 4.20274E-01
 -1     15317 3.94983E-01
 -1     15318 3.94983E-01
 -1     15319 4.20274E-01
 -1     15324 3.94983E-01
 -1     15325 3.94983E-01
 -1     15326 4.20274E-01
 -1     15331 3.94983E-01
 -1     15332 3.94983E-01
 -1     15333 4.20274E-01
 -1     15338 3.94983E-01
 -1     15339 3.94983E-01
 -1     15340 4.20274E-01
 -1     15345 3.94983E-01
 -1     15349 3.94983E-01
 -1     15350 3.94983E-01
 -1     15351 4.20274E-01
 -1     15356 3.94983E-01
 -1     15357 3.94983E-01
 -1     15358 4.20274E-01
 -1     15363 3.94983E-01
 -1     15364 3.94983E-01
 -1     15365 4.20274E-01
 -1     15370 3.94983E-01
 -1     15371 3.94983E-01
 -1     15372 4.20274E-01
 -1     15377 3.94983E-01
 -1     15378 3.94983E-01
 -1     15379 4.20274E-01
 -1     15384 3.94983E-01
 -1     15385 3.94983E-01
 -1     15386 4.20274E-01
 -1     15391 3.94983E-01
 -1     15392 3.94983E-01
 -1     15393 4.20274E-01
 -1     15398 3.94983E-01
 -1     15399 3.94983E-01
 -1     15400 4.20274E-01
 -1     15405 3.94983E-01
 -1     15406 3.94983E-01
 -1     15407 4.20274E-01
 -1     15412 3.94983E-01
 -1     15413 3.94983E-01
 -1     15414 4.20274E-01
 -1     15419 3.94983E-01
 -1     15423 3.94983E-01
 -1     15424 3.94983E-01
 -1     15425 4.20274E-01
 -1     15430 3.94983E-01
 -1     15431 3.94983E-01
 -1     15432 4.20274E-01
 -1     15437 3.94983E-01
 -1     15438 3.94983E-01
 -1     15439 4.20274E-01
 -1     15444 3.94983E-01
 -1     15445 3.94983E-01
 -1     15446 4.20274E-01
 -1     15451 3.94983E-01
 -1     15452 3.94983E-01
 -1     15453 4.20274E-01
 -1     15458 3.94983E-01
 -1     15459 3.94983E-01
 -1     15460 4.20274E-01
 -1     15465 3.94983E-01
 -1     15466 3.94983E-01
 -1     15467 4.20274E-01
 -1     15472 3.94983E-01
 -1     15473 3.94983E-01
 -1     15474 4.20274E-01
 -1     15479 3.94983E-01
 -1     15480 3.94983E-01
 -1     15481 4.20274E-01
 -1     15486 3.94983E-01
 -1     15487 3.94983E-01
 -1     15488 4.20274E-01
 -1     15493 3.94983E-01
 -1     15497 3.94983E-01
 -1     15498 3.94983E-01
 -1     15499 4.20274E-01
 -1     15504 3.94983E-01
 -1     15505 3.94983E-01
 -1     15506 4.20274E-01
 -1     15511 3.94983E-01
 -1     15512 3.94983E-01
 -1     15513 4.20274E-01
 -1     15518 3.94983E-01
 -1     15519 3.94983E-01
 -1     15520 4.20274E-01
 -1     15525 3.94983E-01
 -1     15526 3.94983E-01
 -1     15527 4.20274E-01
 -1     15532 3.94983E-01
 -1     15533 3.94983E-01
 -1     15534 4.20274E-01
 -1     15539 3.94983E-01
 -1     15540 3.94983E-01
 -1     15541 4.20274E-01
 -1     15546 3.94983E-01
 -1     15547 3.94983E-01
 -1     15548 4.20274E-01
 -1     15553 3.94983E-01
 -1     15554 3.94983E-01
 -1     15555 4.20274E-01
 -1     15560 3.94983E-01
 -1     15561 3.94983E-01
 -1     15562 4.20274E-01
 -1     15567 3.94983E-01
 -1     15571 3.94983E-01
 -1     15575 3.94983E-01
 -1     15579 3.94983E-01
 -1     15583 3.94983E-01
 -1     15587 3.94983E-01
 -1     15591 3.94983E-01
 -1     15595 3.94983E-01
 -1     15599 3.94983E-01
 -1     15603 3.94983E-01
 -1     15607 3.94983E-01
 -1     15613 3.51419E-01
 -1     15614 3.51419E-01
 -1     15615 3.73201E-01
 -1     15620 3.51419E-01
 -1     15621 3.51419E-01
 -1     15622 3.73201E-01
 -1     15627 3.51419E-01
 -1     15628 3.51419E-01
 -1     15629 3.73201E-01
 -1     15634 3.51419E-01
 -1     15635 3.51419E-01
 -1     15636 3.73201E-01
 -1     15641 3.51419E-01
 -1     15642 3.51419E-01
 -1     15643 3.73201E-01
 -1     15648 3.51419E-01
 -1     15649 3.51419E-01
 -1     15650 3.73201E-01
 -1     15655 3.51419E-01
 -1     15656 3.51419E-01
 -1     15657 3.73201E-01
 -1     15662 3.51419E-01
 -1     15663 3.51419E-01
 -1     15664 3.73201E-01
 -1     15669 3.51419E-01
 -1     15670 3.51419E-01
 -1     15671 3.73201E-01
 -1     15676 3.51419E-01
 -1     15677 3.51419E-01
 -1     15678 3.73201E-01
 -1     15683 3.51419E-01
 -1     15687 3.51419E-01
 -1     15688 3.51419E-01
 -1     15689 3.73201E-01
 -1     15694 3.51419E-01
 -1     15695 3.51419E-01
 -1     15696 3.73201E-01
 -1     15701 3.51419E-01
 -1     15702 3.51419E-01
 -1     15703 3.73201E-01
 -1     15708 3.51419E-01
 -1     15709 3.51419E-01
 -1     15710 3.73201E-01
 -1     15715 3.51419E-01
 -1     15716 3.51419E-01
 -1     15717 3.73201E-01
 -1     15722 3.51419E-01
 -1     15723 3.51419E-01
 -1     15724 3.73201E-01
 -1     15729 3.51419E-01
 -1     15730 3.51419E-01
 -1     15731 3.73201E-01
 -1     15736 3.51419E-01
 -1     15737 3.51419E-01
 -1     15738 3.73201E-01
 -1     15743 3.51419E-01
 -1     15744 3.51419E-01
 -1     15745 3.73201E-01
 -1     15750 3.51419E-01
 -1     15751 3.51419E-01
 -1     15752 3.73201E-01
 -1     15757 3.51419E-01
 -1     15761 3.51419E-01
 -1     15762 3.51419E-01
 -1     15763 3.73201E-01
 -1     15768 3.51419E-01
 -1     15769 3.51419E-01
 -1     15770 3.73201E-01
 -1     15775 3.51419E-01
 -1     15776 3.51419E-01
 -1     15777 3.73201E-01
 -1     15782 3.51419E-01
 -1     15783 3.51419E-01
 -1     15784 3.73201E-01
 -1     15789 3.51419E-01
 -1     15790 3.51419E-01
 -1     15791 3.73201E-01
 -1     15796 3.51419E-01
 -1     15797 3.51419E-01
 -1     15798 3.73201E-01
 -1     15803 3.51419E-01
 -1     15804 3.51419E-01
 -1     15805 3.73201E-01
 -1     15810 3.51419E-01
 -1     15811 3.51419E-01
 -1     15812 3.73201E-01
 -1     15817 3.51419E-01
 -1     15818 3.51419E-01
 -1     15819 3.73201E-01
 -1     15824 3.51419E-01
 -1     15825 3.51419E-01
 -1     15826 3.73201E-01
 -1     15831 3.51419E-01
 -1     15835 3.51419E-01
 -1     15836 3.51419E-01
 -1     15837 3.73201E-01
 -1     15842 3.51419E-01
 -1     15843 3.51419E-01
 -1     15844 3.73201E-01
 -1     15849 3.51419E-01
 -1     15850 3.51419E-01
 -1     15851 3.73201E-01
 -1     15856 3.51419E-01
 -1     15857 3.51419E-01
 -1     15858 3.73201E-01
 -1     15863 3.51419E-01
 -1     15864 3.51419E-01
 -1     15865 3.73201E-01
 -1     15870 3.51419E-01
 -1     15871 3.51419E-01
 -1     15872 3.73201E-01
 -1     15877 3.51419E-01
 -1     15878 3.51419E-01
 -1     15879 3.73201E-01
 -1     15884 3.51419E-01
 -1     15885 3.51419E-01
 -1     15886 3.73201E-01
 -1     15891 3.51419E-01
 -1     15892 3.51419E-01
 -1     15893 3.73201E-01
 -1     15898 3.51419E-01
 -1     15899 3.51419E-01
 -1     15900 3.73201E-01
 -1     15905 3.51419E-01
 -1     15909 3.51419E-01
 -1     15910 3.51419E-01
 -1     15911 3.73201E-01
 -1     15916 3.51419E-01
 -1     15917 3.51419E-01
 -1     15918 3.73201E-01
 -1     15923 3.51419E-01
 -1     15924 3.51419E-01
 -1     15925 3.73201E-01
 -1     15930 3.51419E-01
 -1     15931 3.51419E-01
 -1     15932 3.73201E-01
 -1     15937 3.51419E-01
 -1     15938 3.51419E-01
 -1     15939 3.73201E-01
 -1     15944 3.51419E-01
 -1     15945 3.51419E-01
 -1     15946 3.73201E-01
 -1     15951 3.51419E-01
 -1     15952 3.51419E-01
 -1     15953 3.73201E-01
 -1     15958 3.51419E-01
 -1     15959 3.51419E-01
 -1     15960 3.73201E-01
 -1     15965 3.51419E-01
 -1     15966 3.51419E-01
 -1     15967 3.73201E-01
 -1     15972 3.51419E-01
 -1     15973 3.51419E-01
 -1     15974 3.73201E-01
 -1     15979 3.51419E-01
 -1     15983 3.51419E-01
 -1     15984 3.51419E-01
 -1     15985 3.73201E-01
 -1     15990 3.51419E-01
 -1     15991 3.51419E-01
 -1     15992 3.73201E-01
 -1     15997 3.51419E-01
 -1     15998 3.51419E-01
 -1     15999 3.73201E-01
 -1     16004 3.51419E-01
 -1     16005 3.51419E-01
 -1     16006 3.73201E-01
 -1     16011 3.51419E-01
 -1     16012 3.51419E-01
 -1     16013 3.73201E-01
 -1     16018 3.51419E-01
 -1     16019 3.51419E-01
 -1     16020 3.73201E-01
 -1     16025 3.51419E-01
 -1     16026 3.51419E-01
 -1     16027 3.73201E-01
 -1     16032 3.51419E-01
 -1     16033 3.51419E-01
 -1     16034 3.73201E-01
 -1     16039 3.51419E-01
 -1     16040 3.51419E-01
 -1     16041 3.73201E-01
 -1     16046 3.51419E-01
 -1     16047 3.51419E-01
 -1     16048 3.73201E-01
 -1     16053 3.51419E-01
 -1     16057 3.51419E-01
 -1     16058 3.51419E-01
 -1     16059 3.73201E-01
 -1     16064 3.51419E-01
 -1     16065 3.51419E-01
 -1     16066 3.73201E-01
 -1     16071 3.51419E-01
 -1     16072 3.51419E-01
 -1     16073 3.73201E-01
 -1     16078 3.51419E-01
 -1     16079 3.51419E-01
 -1     16080 3.73201E-01
 -1     16085 3.51419E-01
 -1     16086 3.51419E-01
 -1     16087 3.73201E-01
 -1     16092 3.51419E-01
 -1     16093 3.51419E-01
 -1     16094 3.73201E-01
 -1     16099 3.51419E-01
 -1     16100 3.51419E-01
 -1     16101 3.73201E-01
 -1     16106 3.51419E-01
 -1     16107 3.51419E-01
 -1     16108 3.73201E-01
 -1     16113 3.51419E-01
 -1     16114 3.51419E-01
 -1     16115 3.73201E-01
 -1     16120 3.51419E-01
 -1     16121 3.51419E-01
 -1     16122 3.73201E-01
 -1     16127 3.51419E-01
 -1     16131 3.51419E-01
 -1     16132 3.51419E-01
 -1     16133 3.73201E-01
 -1     16138 3.51419E-01
 -1     16139 3.51419E-01
 -1     16140 3.73201E-01
 -1     16145 3.51419E-01
 -1     16146 3.51419E-01
 -1     16147 3.73201E-01
 -1     16152 3.51419E-01
 -1     16153 3.51419E-01
 -1     16154 3.73201E-01
 -1     16159 3.51419E-01
 -1     16160 3.51419E-01
 -1     16161 3.73201E-01
 -1     16166 3.51419E-01
 -1     16167 3.51419E-01
 -1     16168 3.73201E-01
 -1     16173 3.51419E-01
 -1     16174 3.51419E-01
 -1     16175 3.73201E-01
 -1     16180 3.51419E-01
 -1     16181 3.51419E-01
 -1     16182 3.73201E-01
 -1     16187 3.51419E-01
 -1     16188 3.51419E-01
 -1     16189 3.73201E-01
 -1     16194 3.51419E-01
 -1     16195 3.51419E-01
 -1     16196 3.73201E-01
 -1     16201 3.51419E-01
 -1     16205 3.51419E-01
 -1     16206 3.51419E-01
 -1     16207 3.73201E-01
 -1     16212 3.51419E-01
 -1     16213 3.51419E-01
 -1     16214 3.73201E-01
 -1     16219 3.51419E-01
 -1     16220 3.51419E-01
 -1     16221 3.73201E-01
 -1     16226 3.51419E-01
 -1     16227 3.51419E-01
 -1     16228 3.73201E-01
 -1     16233 3.51419E-01
 -1     16234 3.51419E-01
 -1     16235 3.73201E-01
 -1     16240 3.51419E-01
 -1     16241 3.51419E-01
 -1     16242 3.73201E-01
 -1     16247 3.51419E-01
 -1     16248 3.51419E-01
 -1     16249 3.73201E-01
 -1     16254 3.51419E-01
 -1     16255 3.51419E-01
 -1     16256 3.73201E-01
 -1     16261 3.51419E-01
 -1     16262 3.51419E-01
 -1     16263 3.73201E-01
 -1     16268 3.51419E-01
 -1     16269 3.51419E-01
 -1     16270 3.73201E-01
 -1     16275 3.51419E-01
 -1     16279 3.51419E-01
 -1     16283 3.51419E-01
 -1     16287 3.51419E-01
 -1     16291 3.51419E-01
 -1     16295 3.51419E-01
 -1     16299 3.51419E-01
 -1     16303 3.51419E-01
 -1     16307 3.51419E-01
 -1     16311 3.51419E-01
 -1     16315 3.51419E-01
 -1     16321 3.13751E-01
 -1     16322 3.13751E-01
 -1     16323 3.32585E-01
 -1     16328 3.13751E-01
 -1     16329 3.13751E-01
 -1     16330 3.32585E-01
 -1     16335 3.13751E-01
 -1     16336 3.13751E-01
 -1     16337 3.32585E-01
 -1     16342 3.13751E-01
 -1     16343 3.13751E-01
 -1     16344 3.32585E-01
 -1     16349 3.13751E-01
 -1     16350 3.13751E-01
 -1     16351 3.32585E-01
 -1     16356 3.13751E-01
 -1     16357 3.13751E-01
 -1     16358 3.32585E-01
 -1     16363 3.13751E-01
 -1     16364 3.13751E-01
 -1     16365 3.32585E-01
 -1     16370 3.13751E-01
 -1     16371 3.13751E-01
 -1     16372 3.32585E-01
 -1     16377 3.13751E-01
 -1     16378 3.13751E-01
 -1     16379 3.32585E-01
 -1     16384 3.13751E-01
 -1     16385 3.13751E-01
 -1     16386 3.32585E-01
 -1     16391 3.13751E-01
 -1     16395 3.13751E-01
 -1     16396 3.13751E-01
 -1     16397 3.32585E-01
 -1     16402 3.13751E-01
 -1     16403 3.13751E-01
 -1     16404 3.32585E-01
 -1     16409 3.13751E-01
 -1     16410 3.13751E-01
 -1     16411 3.32585E-01
 -1     16416 3.13751E-01
 -1     16417 3.13751E-01
 -1     16418 3.32585E-01
 -1     16423 3.13751E-01
 -1     16424 3.13751E-01
 -1     16425 3.32585E-01
 -1     16430 3.13751E-01
 -1     16431 3.13751E-01
 -1     16432 3.32585E-01
 -1     16437 3.13751E-01
 -1     16438 3.13751E-01
 -1     16439 3.32585E-01
 -1     16444 3.13751E-01
 -1     16445 3.13751E-01
 -1     16446 3.32585E-01
 -1     16451 3.13751E-01
 -1     16452 3.13751E-01
 -1     16453 3.32585E-01
 -1     16458 3.13751E-01
 -1     16459 3.13751E-01
 -1     16460 3.32585E-01
 -1     16465 3.13751E-01
 -1     16469 3.13751E-01
 -1     16470 3.13751E-01
 -1     16471 3.32585E-01
 -1     16476 3.13751E-01
 -1     16477 3.13751E-01
 -1     16478 3.32585E-01
 -1     16483 3.13751E-01
 -1     16484 3.13751E-01
 -1     16485 3.32585E-01
 -1     16490 3.13751E-01
 -1     16491 3.13751E-01
 -1     16492 3.32585E-01
 -1     16497 3.13751E-01
 -1     16498 3.13751E-01
 -1     16499 3.32585E-01
 -1     16504 3.13751E-01
 -1     16505 3.13751E-01
 -1     16506 3.32585E-01
 -1     16511 3.13751E-01
 -1     16512 3.13751E-01
 -1     16513 3.32585E-01
 -1     16518 3.13751E-01
 -1     16519 3.13751E-01
 -1     16520 3.32585E-01
 -1     16525 3.13751E-01
 -1     16526 3.13751E-01
 -1     16527 3.32585E-01
 -1     16532 3.13751E-01
 -1     16533 3.13751E-01
 -1     16534 3.32585E-01
 -1     16539 3.13751E-01
 -1     16543 3.13751E-01
 -1     16544 3.13751E-01
 -1     16545 3.32585E-01
 -1     16550 3.13751E-01
 -1     16551 3.13751E-01
 -1     16552 3.32585E-01
 -1     16557 3.13751E-01
 -1     16558 3.13751E-01
 -1     16559 3.32585E-01
 -1     16564 3.13751E-01
 -1     16565 3.13751E-01
 -1     16566 3.32585E-01
 -1     16571 3.13751E-01
 -1     16572 3.13751E-01
 -1     16573 3.32585E-01
 -1     16578 3.13751E-01
 -1     16579 3.13751E-01
 -1     16580 3.32585E-01
 -1     16585 3.13751E-01
 -1     16586 3.13751E-01
 -1     16587 3.32585E-01
 -1     16592 3.13751E-01
 -1     16593 3.13751E-01
 -1     16594 3.32585E-01
 -1     16599 3.13751E-01
 -1     16600 3.13751E-01
 -1     16601 3.32585E-01
 -1     16606 3.13751E-01
 -1     16607 3.13751E-01
 -1     16608 3.32585E-01
 -1     16613 3.13751E-01
 -1     16617 3.13751E-01
 -1     16618 3.13751E-01
 -1     16619 3.32585E-01
 -1     16624 3.13751E-01
 -1     16625 3.13751E-01
 -1     16626 3.32585E-01
 -1     16631 3.13751E-01
 -1     16632 3.13751E-01
 -1     16633 3.32585E-01
 -1     16638 3.13751E-01
 -1     16639 3.13751E-01
 -1     16640 3.32585E-01
 -1     16645 3.13751E-01
 -1     16646 3.13751E-01
 -1     16647 3.32585E-01
 -1     16652 3.13751E-01
 -1     16653 3.13751E-01
 -1     16654 3.32585E-01
 -1     16659 3.13751E-01
 -1     16660 3.13751E-01
 -1     16661 3.32585E-01
 -1     16666 3.13751E-01
 -1     16667 3.13751E-01
 -1     16668 3.32585E-01
 -1     16673 3.13751E-01
 -1     16674 3.13751E-01
 -1     16675 3.32585E-01
 -1     16680 3.13751E-01
 -1     16681 3.13751E-01
 -1     16682 3.32585E-01
 -1     16687 3.13751E-01
 -1     16691 3.13751E-01
 -1     16692 3.13751E-01
 -1     16693 3.32585E-01
 -1     16698 3.13751E-01
 -1     16699 3.13751E-01
 -1     16700 3.32585E-01
 -1     16705 3.13751E-01
 -1     16706 3.13751E-01
 -1     16707 3.32585E-01
 -1     16712 3.13751E-01
 -1     16713 3.13751E-01
 -1     16714 3.32585E-01
 -1     16719 3.13751E-01
 -1     16720 3.13751E-01
 -1     16721 3.32585E-01
 -1     16726 3.13751E-01
 -1     16727 3.13751E-01
 -1     16728 3.32585E-01
 -1     16733 3.13751E-01
 -1     16734 3.13751E-01
 -1     16735 3.32585E-01
 -1     16740 3.13751E-01
 -1     16741 3.13751E-01
 -1     16742 3.32585E-01
 -1     16747 3.13751E-01
 -1     16748 3.13751E-01
 -1     16749 3.32585E-01
 -1     16754 3.13751E-01
 -1     16755 3.13751E-01
 -1     16756 3.32585E-01
 -1     16761 3.13751E-01
 -1     16765 3.13751E-01
 -1     16766 3.13751E-01
 -1     16767 3.32585E-01
 -1     16772 3.13751E-01
 -1     16773 3.13751E-01
 -1     16774 3.32585E-01
 -1     16779 3.13751E-01
 -1     16780 3.13751E-01
 -1     16781 3.32585E-01
 -1     16786 3.13751E-01
 -1     16787 3.13751E-01
 -1     16788 3.32585E-01
 -1     16793 3.13751E-01
 -1     16794 3.13751E-01
 -1     16795 3.32585E-01
 -1     16800 3.13751E-01
 -1     16801 3.13751E-01
 -1     16802 3.32585E-01
 -1     16807 3.13751E-01
 -1     16808 3.13751E-01
 -1     16809 3.32585E-01
 -1     16814 3.13751E-01
 -1     16815 3.13751E-01
 -1     16816 3.32585E-01
 -1     16821 3.13751E-01
 -1     16822 3.13751E-01
 -1     16823 3.32585E-01
 -1     16828 3.13751E-01
 -1     16829 3.13751E-01
 -1     16830 3.32585E-01
 -1     16835 3.13751E-01
 -1     16839 3.13751E-01
 -1     16840 3.13751E-01
 -1     16841 3.32585E-01
 -1     16846 3.13751E-01
 -1     16847 3.13751E-01
 -1     16848 3.32585E-01
 -1     16853 3.13751E-01
 -1     16854 3.13751E-01
 -1     16855 3.32585E-01
 -1     16860 3.13751E-01
 -1     16861 3.13751E-01
 -1     16862 3.32585E-01
 -1     16867 3.13751E-01
 -1     16868 3.13751E-01
 -1     16869 3.32585E-01
 -1     16874 3.13751E-01
 -1     16875 3.13751E-01
 -1     16876 3.32585E-01
 -1     16881 3.13751E-01
 -1     16882 3.13751E-01
 -1     16883 3.32585E-01
 -1     16888 3.13751E-01
 -1     16889 3.13751E-01
 -1     16890 3.32585E-01
 -1     16895 3.13751E-01
 -1     16896 3.13751E-01
 -1     16897 3.32585E-01
 -1     16902 3.13751E-01
 -1     16903 3.13751E-01
 -1     16904 3.32585E-01
 -1     16909 3.13751E-01
 -1     16913 3.13751E-01
 -1     16914 3.13751E-01
 -1     16915 3.32585E-01
 -1     16920 3.13751E-01
 -1     16921 3.13751E-01
 -1     16922 3.32585E-01
 -1     16927 3.13751E-01
 -1     16928 3.13751E-01
 -1     16929 3.32585E-01
 -1     16934 3.13751E-01
 -1     16935 3.13751E-01
 -1     16936 3.32585E-01
 -1     16941 3.13751E-01
 -1     16942 3.13751E-01
 -1     16943 3.32585E-01
 -1     16948 3.13751E-01
 -1     16949 3.13751E-01
 -1     16950 3.32585E-01
 -1     16955 3.13751E-01
 -1     16956 3.13751E-01
 -1     16957 3.32585E-01
 -1     16962 3.13751E-01
 -1     16963 3.13751E-01
 -1     16964 3.32585E-01
 -1     16969 3.13751E-01
 -1     16970 3.13751E-01
 -1     16971 3.32585E-01
 -1     16976 3.13751E-01
 -1     16977 3.13751E-01
 -1     16978 3.32585E-01
 -1     16983 3.13751E-01
 -1     16987 3.13751E-01
 -1     16991 3.13751E-01
 -1     16995 3.13751E-01
 -1     16999 3.13751E-01
 -1     17003 3.13751E-01
 -1     17007 3.13751E-01
 -1     17011 3.13751E-01
 -1     17015 3.13751E-01
 -1     17019 3.13751E-01
 -1     17023 3.13751E-01
 -1     17029 2.81054E-01
 -1     17030 2.81054E-01
 -1     17031 2.97402E-01
 -1     17036 2.81054E-01
 -1     17037 2.81054E-01
 -1     17038 2.97402E-01
 -1     17043 2.81054E-01
 -1     17044 2.81054E-01
 -1     17045 2.97402E-01
 -1     17050 2.81054E-01
 -1     17051 2.81054E-01
 -1     17052 2.97402E-01
 -1     17057 2.81054E-01
 -1     17058 2.81054E-01
 -1     17059 2.97402E-01
 -1     17064 2.81054E-01
 -1     17065 2.81054E-01
 -1     17066 2.97402E-01
 -1     17071 2.81054E-01
 -1     17072 2.81054E-01
 -1     17073 2.97402E-01
 -1     17078 2.81054E-01
 -1     17079 2.81054E-01
 -1     17080 2.97402E-01
 -1     17085 2.81054E-01
 -1     17086 2.81054E-01
 -1     17087 2.97402E-01
 -1     17092 2.81054E-01
 -1     17093 2.81054E-01
 -1     17094 2.97402E-01
 -1     17099 2.81054E-01
 -1     17103 2.81054E-01
 -1     17104 2.81054E-01
 -1     17105 2.97402E-01
 -1     17110 2.81054E-01
 -1     17111 2.81054E-01
 -1     17112 2.97402E-01
 -1     17117 2.81054E-01
 -1     17118 2.81054E-01
 -1     17119 2.97402E-01
 -1     17124 2.81054E-01
 -1     17125 2.81054E-01
 -1     17126 2.97402E-01
 -1     17131 2.81054E-01
 -1     17132 2.81054E-01
 -1     17133 2.97402E-01
 -1     17138 2.81054E-01
 -1     17139 2.81054E-01
 -1     17140 2.97402E-01
 -1     17145 2.81054E-01
 -1     17146 2.81054E-01
 -1     17147 2.97402E-01
 -1     17152 2.81054E-01
 -1     17153 2.81054E-01
 -1     17154 2.97402E-01
 -1     17159 2.81054E-01
 -1     17160 2.81054E-01
 -1     17161 2.97402E-01
 -1     17166 2.81054E-01
 -1     17167 2.81054E-01
 -1     17168 2.97402E-01
 -1     17173 2.81054E-01
 -1     17177 2.81054E-01
 -1     17178 2.81054E-01
 -1     17179 2.97402E-01
 -1     17184 2.81054E-01
 -1     17185 2.81054E-01
 -1     17186 2.97402E-01
 -1     17191 2.81054E-01
 -1     17192 2.81054E-01
 -1     17193 2.97402E-01
 -1     17198 2.81054E-01
 -1     17199 2.81054E-01
 -1     17200 2.97402E-01
 -1     17205 2.81054E-01
 -1     17206 2.81054E-01
 -1     17207 2.97402E-01
 -1     17212 2.81054E-01
 -1     17213 2.81054E-01
 -1     17214 2.97402E-01
 -1     17219 2.81054E-01
 -1     17220 2.81054E-01
 -1     17221 2.97402E-01
 -1     17226 2.81054E-01
 -1     17227 2.81054E-01
 -1     17228 2.97402E-01
 -1     17233 2.81054E-01
 -1     17234 2.81054E-01
 -1     17235 2.97402E-01
 -1     17240 2.81054E-01
 -1     17241 2.81054E-01
 -1     17242 2.97402E-01
 -1     17247 2.81054E-01
 -1     17251 2.81054E-01
 -1     17252 2.81054E-01
 -1     17253 2.97402E-01
 -1     17258 2.81054E-01
 -1     17259 2.81054E-01
 -1     17260 2.97402E-01
 -1     17265 2.81054E-01
 -1     17266 2.81054E-01
 -1     17267 2.97402E-01
 -1     17272 2.81054E-01
 -1     17273 2.81054E-01
 -1     17274 2.97402E-01
 -1     17279 2.81054E-01
 -1     17280 2.81054E-01
 -1     17281 2.97402E-01
 -1     17286 2.81054E-01
 -1     17287 2.81054E-01
 -1     17288 2.97402E-01
 -1     17293 2.81054E-01
 -1     17294 2.81054E-01
 -1     17295 2.97402E-01
 -1     17300 2.81054E-01
 -1     17301 2.81054E-01
 -1     17302 2.97402E-01
 -1     17307 2.81054E-01
 -1     17308 2.81054E-01
 -1     17309 2.97402E-01
 -1     17314 2.81054E-01
 -1     17315 2.81054E-01
 -1     17316 2.97402E-01
 -1     17321 2.81054E-01
 -1     17325 2.81054E-01
 -1     17326 2.81054E-01
 -1     17327 2.97402E-01
 -1     17332 2.81054E-01
 -1     17333 2.81054E-01
 -1     17334 2.97402E-01
 -1     17339 2.81054E-01
 -1     17340 2.81054E-01
 -1     17341 2.97402E-01
 -1     17346 2.81054E-01
 -1     17347 2.81054E-01
 -1     17348 2.97402E-01
 -1     17353 2.81054E-01
 -1     17354 2.81054E-01
 -1     17355 2.97402E-01
 -1     17360 2.81054E-01
 -1     17361 2.81054E-01
 -1     17362 2.97402E-01
 -1     17367 2.81054E-01
 -1     17368 2.81054E-01
 -1     17369 2.97402E-01
 -1     17374 2.81054E-01
 -1     17375 2.81054E-01
 -1     17376 2.97402E-01
 -1     17381 2.81054E-01
 -1     17382 2.81054E-01
 -1     17383 2.97402E-01
 -1     17388 2.81054E-01
 -1     17389 2.81054E-01
 -1     17390 2.97402E-01
 -1     17395 2.81054E-01
 -1     17399 2.81054E-01
 -1     17400 2.81054E-01
 -1     17401 2.97402E-01
 -1     17406 2.81054E-01
 -1     17407 2.81054E-01
 -1     17408 2.97402E-01
 -1     17413 2.81054E-01
 -1     17414 2.81054E-01
 -1     17415 2.97402E-01
 -1     17420 2.81054E-01
 -1     17421 2.81054E-01
 -1     17422 2.97402E-01
 -1     17427 2.81054E-01
 -1     17428 2.81054E-01
 -1     17429 2.97402E-01
 -1     17434 2.81054E-01
 -1     17435 2.81054E-01
 -1     17436 2.97402E-01
 -1     17441 2.81054E-01
 -1     17442 2.81054E-01
 -1     17443 2.97402E-01
 -1     17448 2.81054E-01
 -1     17449 2.81054E-01
 -1     17450 2.97402E-01
 -1     17455 2.81054E-01
 -1     17456 2.81054E-01
 -1     17457 2.97402E-01
 -1     17462 2.81054E-01
 -1     17463 2.81054E-01
 -1     17464 2.97402E-01
 -1     17469 2.81054E-01
 -1     17473 2.81054E-01
 -1     17474 2.81054E-01
 -1     17475 2.97402E-01
 -1     17480 2.81054E-01
 -1     17481 2.81054E-01
 -1     17482 2.97402E-01
 -1     17487 2.81054E-01
 -1     17488 2.81054E-01
 -1     17489 2.97402E-01
 -1     17494 2.81054E-01
 -1     17495 2.81054E-01
 -1     17496 2.97402E-01
 -1     17501 2.81054E-01
 -1     17502 2.81054E-01
 -1     17503 2.97402E-01
 -1     17508 2.81054E-01
 -1     17509 2.81054E-01
 -1     17510 2.97402E-01
 -1     17515 2.81054E-01
 -1     17516 2.81054E-01
 -1     17517 2.97402E-01
 -1     17522 2.81054E-01
 -1     17523 2.81054E-01
 -1     17524 2.97402E-01
 -1     17529 2.81054E-01
 -1     17530 2.81054E-01
 -1     17531 2.97402E-01
 -1     17536 2.81054E-01
 -1     17537 2.81054E-01
 -1     17538 2.97402E-01
 -1     17543 2.81054E-01
 -1     17547 2.81054E-01
 -1     17548 2.81054E-01
 -1     17549 2.97402E-01
 -1     17554 2.81054E-01
 -1     17555 2.81054E-01
 -1     17556 2.97402E-01
 -1     17561 2.81054E-01
 -1     17562 2.81054E-01
 -1     17563 2.97402E-01
 -1     17568 2.81054E-01
 -1     17569 2.81054E-01
 -1     17570 2.97402E-01
 -1     17575 2.81054E-01
 -1     17576 2.81054E-01
 -1     17577 2.97402E-01
 -1     17582 2.81054E-01
 -1     17583 2.81054E-01
 -1     17584 2.97402E-01
 -1     17589 2.81054E-01
 -1     17590 2.81054E-01
 -1     17591 2.97402E-01
 -1     17596 2.81054E-01
 -1     17597 2.81054E-01
 -1     17598 2.97402E-01
 -1     17603 2.81054E-01
 -1     17604 2.81054E-01
 -1     17605 2.97402E-01
 -1     17610 2.81054E-01
 -1     17611 2.81054E-01
 -1     17612 2.97402E-01
 -1     17617 2.81054E-01
 -1     17621 2.81054E-01
 -1     17622 2.81054E-01
 -1     17623 2.97402E-01
 -1     17628 2.81054E-01
 -1     17629 2.81054E-01
 -1     17630 2.97402E-01
 -1     17635 2.81054E-01
 -1     17636 2.81054E-01
 -1     17637 2.97402E-01
 -1     17642 2.81054E-01
 -1     17643 2.81054E-01
 -1     17644 2.97402E-01
 -1     17649 2.81054E-01
 -1     17650 2.81054E-01
 -1     17651 2.97402E-01
 -1     17656 2.81054E-01
 -1     17657 2.81054E-01
 -1     17658 2.97402E-01
 -1     17663 2.81054E-01
 -1     17664 2.81054E-01
 -1     17665 2.97402E-01
 -1     17670 2.81054E-01
 -1     17671 2.81054E-01
 -1     17672 2.97402E-01
 -1     17677 2.81054E-01
 -1     17678 2.81054E-01
 -1     17679 2.97402E-01
 -1     17684 2.81054E-01
 -1     17685 2.81054E-01
 -1     17686 2.97402E-01
 -1     17691 2.81054E-01
 -1     17695 2.81054E-01
 -1     17699 2.81054E-01
 -1     17703 2.81054E-01
 -1     17707 2.81054E-01
 -1     17711 2.81054E-01
 -1     17715 2.81054E-01
 -1     17719 2.81054E-01
 -1     17723 2.81054E-01
 -1     17727 2.81054E-01
 -1     17731 2.81054E-01
 -1     17737 2.52568E-01
 -1     17738 2.52568E-01
 -1     17739 2.66811E-01
 -1     17744 2.52568E-01
 -1     17745 2.52568E-01
 -1     17746 2.66811E-01
 -1     17751 2.52568E-01
 -1     17752 2.52568E-01
 -1     17753 2.66811E-01
 -1     17758 2.52568E-01
 -1     17759 2.52568E-01
 -1     17760 2.66811E-01
 -1     17765 2.52568E-01
 -1     17766 2.52568E-01
 -1     17767 2.66811E-01
 -1     17772 2.52568E-01
 -1     17773 2.52568E-01
 -1     17774 2.66811E-01
 -1     17779 2.52568E-01
 -1     17780 2.52568E-01
 -1     17781 2.66811E-01
 -1     17786 2.52568E-01
 -1     17787 2.52568E-01
 -1     17788 2.66811E-01
 -1     17793 2.52568E-01
 -1     17794 2.52568E-01
 -1     17795 2.66811E-01
 -1     17800 2.52568E-01
 -1     17801 2.52568E-01
 -1     17802 2.66811E-01
 -1     17807 2.52568E-01
 -1     17811 2.52568E-01
 -1     17812 2.52568E-01
 -1     17813 2.66811E-01
 -1     17818 2.52568E-01
 -1     17819 2.52568E-01
 -1     17820 2.66811E-01
 -1     17825 2.52568E-01
 -1     17826 2.52568E-01
 -1     17827 2.66811E-01
 -1     17832 2.52568E-01
 -1     17833 2.52568E-01
 -1     17834 2.66811E-01
 -1     17839 2.52568E-01
 -1     17840 2.52568E-01
 -1     17841 2.66811E-01
 -1     17846 2.52568E-01
 -1     17847 2.52568E-01
 -1     17848 2.66811E-01
 -1     17853 2.52568E-01
 -1     17854 2.52568E-01
 -1     17855 2.66811E-01
 -1     17860 2.52568E-01
 -1     17861 2.52568E-01
 -1     17862 2.66811E-01
 -1     17867 2.52568E-01
 -1     17868 2.52568E-01
 -1     17869 2.66811E-01
 -1     17874 2.52568E-01
 -1     17875 2.52568E-01
 -1     17876 2.66811E-01
 -1     17881 2.52568E-01
 -1     17885 2.52568E-01
 -1     17886 2.52568E-01
 -1     17887 2.66811E-01
 -1     17892 2.52568E-01
 -1     17893 2.52568E-01
 -1     17894 2.66811E-01
 -1     17899 2.52568E-01
 -1     17900 2.52568E-01
 -1     17901 2.66811E-01
 -1     17906 2.52568E-01
 -1     17907 2.52568E-01
 -1     17908 2.66811E-01
 -1     17913 2.52568E-01
 -1     17914 2.52568E-01
 -1     17915 2.66811E-01
 -1     17920 2.52568E-01
 -1     17921 2.52568E-01
 -1     17922 2.66811E-01
 -1     17927 2.52568E-01
 -1     17928 2.52568E-01
 -1     17929 2.66811E-01
 -1     17934 2.52568E-01
 -1     17935 2.52568E-01
 -1     17936 2.66811E-01
 -1     17941 2.52568E-01
 -1     17942 2.52568E-01
 -1     17943 2.66811E-01
 -1     17948 2.52568E-01
 -1     17949 2.52568E-01
 -1     17950 2.66811E-01
 -1     17955 2.52568E-01
 -1     17959 2.52568E-01
 -1     17960 2.52568E-01
 -1     17961 2.66811E-01
 -1     17966 2.52568E-01
 -1     17967 2.52568E-01
 -1     17968 2.66811E-01
 -1     17973 2.52568E-01
 -1     17974 2.52568E-01
 -1     17975 2.66811E-01
 -1     17980 2.52568E-01
 -1     17981 2.52568E-01
 -1     17982 2.66811E-01
 -1     17987 2.52568E-01
 -1     17988 2.52568E-01
 -1     17989 2.66811E-01
 -1     17994 2.52568E-01
 -1     17995 2.52568E-01
 -1     17996 2.66811E-01
 -1     18001 2.52568E-01
 -1     18002 2.52568E-01
 -1     18003 2.66811E-01
 -1     18008 2.52568E-01
 -1     18009 2.52568E-01
 -1     18010 2.66811E-01
 -1     18015 2.52568E-01
 -1     18016 2.52568E-01
 -1     18017 2.66811E-01
 -1     18022 2.52568E-01
 -1     18023 2.52568E-01
 -1     18024 2.66811E-01
 -1     18029 2.52568E-01
 -1     18033 2.52568E-01
 -1     18034 2.52568E-01
 -1     18035 2.66811E-01
 -1     18040 2.52568E-01
 -1     18041 2.52568E-01
 -1     18042 2.66811E-01
 -1     18047 2.52568E-01
 -1     18048 2.52568E-01
 -1     18049 2.66811E-01
 -1     18054 2.52568E-01
 -1     18055 2.52568E-01
 -1     18056 2.66811E-01
 -1     18061 2.52568E-01
 -1     18062 2.52568E-01
 -1     18063 2.66811E-01
 -1     18068 2.52568E-01
 -1     18069 2.52568E-01
 -1     18070 2.66811E-01
 -1     18075 2.52568E-01
 -1     18076 2.52568E-01
 -1     18077 2.66811E-01
 -1     18082 2.52568E-01
 -1     18083 2.52568E-01
 -1     18084 2.66811E-01
 -1     18089 2.52568E-01
 -1     18090 2.52568E-01
 -1     18091 2.66811E-01
 -1     18096 2.52568E-01
 -1     18097 2.52568E-01
 -1     18098 2.66811E-01
 -1     18103 2.52568E-01
 -1     18107 2.52568E-01
 -1     18108 2.52568E-01
 -1     18109 2.66811E-01
 -1     18114 2.52568E-01
 -1     18115 2.52568E-01
 -1     18116 2.66811E-01
 -1     18121 2.52568E-01
 -1     18122 2.52568E-01
 -1     18123 2.66811E-01
 -1     18128 2.52568E-01
 -1     18129 2.52568E-01
 -1     18130 2.66811E-01
 -1     18135 2.52568E-01
 -1     18136 2.52568E-01
 -1     18137 2.66811E-01
 -1     18142 2.52568E-01
 -1     18143 2.52568E-01
 -1     18144 2.66811E-01
 -1     18149 2.52568E-01
 -1     18150 2.52568E-01
 -1     18151 2.66811E-01
 -1     18156 2.52568E-01
 -1     18157 2.52568E-01
 -1     18158 2.66811E-01
 -1     18163 2.52568E-01
 -1     18164 2.52568E-01
 -1     18165 2.66811E-01
 -1     18170 2.52568E-01
 -1     18171 2.52568E-01
 -1     18172 2.66811E-01
 -1     18177 2.52568E-01
 -1     18181 2.52568E-01
 -1     18182 2.52568E-01
 -1     18183 2.66811E-01
 -1     18188 2.52568E-01
 -1     18189 2.52568E-01
 -1     18190 2.66811E-01
 -1     18195 2.52568E-01
 -1     18196 2.52568E-01
 -1     18197 2.66811E-01
 -1     18202 2.52568E-01
 -1     18203 2.52568E-01
 -1     18204 2.66811E-01
 -1     18209 2.52568E-01
 -1     18210 2.52568E-01
 -1     18211 2.66811E-01
 -1     18216 2.52568E-01
 -1     18217 2.52568E-01
 -1     18218 2.66811E-01
 -1     18223 2.52568E-01
 -1     18224 2.52568E-01
 -1     18225 2.66811E-01
 -1     18230 2.52568E-01
 -1     18231 2.52568E-01
 -1     18232 2.66811E-01
 -1     18237 2.52568E-01
 -1     18238 2.52568E-01
 -1     18239 2.66811E-01
 -1     18244 2.52568E-01
 -1     18245 2.52568E-01
 -1     18246 2.66811E-01
 -1     18251 2.52568E-01
 -1     18255 2.52568E-01
 -1     18256 2.52568E-01
 -1     18257 2.66811E-01
 -1     18262 2.52568E-01
 -1     18263 2.52568E-01
 -1     18264 2.66811E-01
 -1     18269 2.52568E-01
 -1     18270 2.52568E-01
 -1     18271 2.66811E-01
 -1     18276 2.52568E-01
 -1     18277 2.52568E-01
 -1     18278 2.66811E-01
 -1     18283 2.52568E-01
 -1     18284 2.52568E-01
 -1     18285 2.66811E-01
 -1     18290 2.52568E-01
 -1     18291 2.52568E-01
 -1     18292 2.66811E-01
 -1     18297 2.52568E-01
 -1     18298 2.52568E-01
 -1     18299 2.66811E-01
 -1     18304 2.52568E-01
 -1     18305 2.52568E-01
 -1     18306 2.66811E-01
 -1     18311 2.52568E-01
 -1     18312 2.52568E-01
 -1     18313 2.66811E-01
 -1     18318 2.52568E-01
 -1     18319 2.52568E-01
 -1     18320 2.66811E-01
 -1     18325 2.52568E-01
 -1     18329 2.52568E-01
 -1     18330 2.52568E-01
 -1     18331 2.66811E-01
 -1     18336 2.52568E-01
 -1     18337 2.52568E-01
 -1     18338 2.66811E-01
 -1     18343 2.52568E-01
 -1     18344 2.52568E-01
 -1     18345 2.66811E-01
 -1     18350 2.52568E-01
 -1     18351 2.52568E-01
 -1     18352 2.66811E-01
 -1     18357 2.52568E-01
 -1     18358 2.52568E-01
 -1     18359 2.66811E-01
 -1     18364 2.52568E-01
 -1     18365 2.52568E-01
 -1     18366 2.66811E-01
 -1     18371 2.52568E-01
 -1     18372 2.52568E-01
 -1     18373 2.66811E-01
 -1     18378 2.52568E-01
 -1     18379 2.52568E-01
 -1     18380 2.66811E-01
 -1     18385 2.52568E-01
 -1     18386 2.52568E-01
 -1     18387 2.66811E-01
 -1     18392 2.52568E-01
 -1     18393 2.52568E-01
 -1     18394 2.66811E-01
 -1     18399 2.52568E-01
 -1     18403 2.52568E-01
 -1     18407 2.52568E-01
 -1     18411 2.52568E-01
 -1     18415 2.52568E-01
 -1     18419 2.52568E-01
 -1     18423 2.52568E-01
 -1     18427 2.52568E-01
 -1     18431 2.52568E-01
 -1     18435 2.52568E-01
 -1     18439 2.52568E-01
 -1     18445 2.27662E-01
 -1     18446 2.27662E-01
 -1     18447 2.40115E-01
 -1     18452 2.27662E-01
 -1     18453 2.27662E-01
 -1     18454 2.40115E-01
 -1     18459 2.27662E-01
 -1     18460 2.27662E-01
 -1     18461 2.40115E-01
 -1     18466 2.27662E-01
 -1     18467 2.27662E-01
 -1     18468 2.40115E-01
 -1     18473 2.27662E-01
 -1     18474 2.27662E-01
 -1     18475 2.40115E-01
 -1     18480 2.27662E-01
 -1     18481 2.27662E-01
 -1     18482 2.40115E-01
 -1     18487 2.27662E-01
 -1     18488 2.27662E-01
 -1     18489 2.40115E-01
 -1     18494 2.27662E-01
 -1     18495 2.27662E-01
 -1     18496 2.40115E-01
 -1     18501 2.27662E-01
 -1     18502 2.27662E-01
 -1     18503 2.40115E-01
 -1     18508 2.27662E-01
 -1     18509 2.27662E-01
 -1     18510 2.40115E-01
 -1     18515 2.27662E-01
 -1     18519 2.27662E-01
 -1     18520 2.27662E-01
 -1     18521 2.40115E-01
 -1     18526 2.27662E-01
 -1     18527 2.27662E-01
 -1     18528 2.40115E-01
 -1     18533 2.27662E-01
 -1     18534 2.27662E-01
 -1     18535 2.40115E-01
 -1     18540 2.27662E-01
 -1     18541 2.27662E-01
 -1     18542 2.40115E-01
 -1     18547 2.27662E-01
 -1     18548 2.27662E-01
 -1     18549 2.40115E-01
 -1     18554 2.27662E-01
 -1     18555 2.27662E-01
 -1     18556 2.40115E-01
 -1     18561 2.27662E-01
 -1     18562 2.27662E-01
 -1     18563 2.40115E-01
 -1     18568 2.27662E-01
 -1     18569 2.27662E-01
 -1     18570 2.40115E-01
 -1     18575 2.27662E-01
 -1     18576 2.27662E-01
 -1     18577 2.40115E-01
 -1     18582 2.27662E-01
 -1     18583 2.27662E-01
 -1     18584 2.40115E-01
 -1     18589 2.27662E-01
 -1     18593 2.27662E-01
 -1     18594 2.27662E-01
 -1     18595 2.40115E-01
 -1     18600 2.27662E-01
 -1     18601 2.27662E-01
 -1     18602 2.40115E-01
 -1     18607 2.27662E-01
 -1     18608 2.27662E-01
 -1     18609 2.40115E-01
 -1     18614 2.27662E-01
 -1     18615 2.27662E-01
 -1     18616 2.40115E-01
 -1     18621 2.27662E-01
 -1     18622 2.27662E-01
 -1     18623 2.40115E-01
 -1     18628 2.27662E-01
 -1     18629 2.27662E-01
 -1     18630 2.40115E-01
 -1     18635 2.27662E-01
 -1     18636 2.27662E-01
 -1     18637 2.40115E-01
 -1     18642 2.27662E-01
 -1     18643 2.27662E-01
 -1     18644 2.40115E-01
 -1     18649 2.27662E-01
 -1     18650 2.27662E-01
 -1     18651 2.40115E-01
 -1     18656 2.27662E-01
 -1     18657 2.27662E-01
 -1     18658 2.40115E-01
 -1     18663 2.27662E-01
 -1     18667 2.27662E-01
 -1     18668 2.27662E-01
 -1     18669 2.40115E-01
 -1     18674 2.27662E-01
 -1     18675 2.27662E-01
 -1     18676 2.40115E-01
 -1     18681 2.27662E-01
 -1     18682 2.27662E-01
 -1     18683 2.40115E-01
 -1     18688 2.27662E-01
 -1     18689 2.27662E-01
 -1     18690 2.40115E-01
 -1     18695 2.27662E-01
 -1     18696 2.27662E-01
 -1     18697 2.40115E-01
 -1     18702 2.27662E-01
 -1     18703 2.27662E-01
 -1     18704 2.40115E-01
 -1     18709 2.27662E-01
 -1     18710 2.27662E-01
 -1     18711 2.40115E-01
 -1     18716 2.27662E-01
 -1     18717 2.27662E-01
 -1     18718 2.40115E-01
 -1     18723 2.27662E-01
 -1     18724 2.27662E-01
 -1     18725 2.40115E-01
 -1     18730 2.27662E-01
 -1     18731 2.27662E-01
 -1     18732 2.40115E-01
 -1     18737 2.27662E-01
 -1     18741 2.27662E-01
 -1     18742 2.27662E-01
 -1     18743 2.40115E-01
 -1     18748 2.27662E-01
 -1     18749 2.27662E-01
 -1     18750 2.40115E-01
 -1     18755 2.27662E-01
 -1     18756 2.27662E-01
 -1     18757 2.40115E-01
 -1     18762 2.27662E-01
 -1     18763 2.27662E-01
 -1     18764 2.40115E-01
 -1     18769 2.27662E-01
 -1     18770 2.27662E-01
 -1     18771 2.40115E-01
 -1     18776 2.27662E-01
 -1     18777 2.27662E-01
 -1     18778 2.40115E-01
 -1     18783 2.27662E-01
 -1     18784 2.27662E-01
 -1     18785 2.40115E-01
 -1     18790 2.27662E-01
 -1     18791 2.27662E-01
 -1     18792 2.40115E-01
 -1     18797 2.27662E-01
 -1     18798 2.27662E-01
 -1     18799 2.40115E-01
 -1     18804 2.27662E-01
 -1     18805 2.27662E-01
 -1     18806 2.40115E-01
 -1     18811 2.27662E-01
 -1     18815 2.27662E-01
 -1     18816 2.27662E-01
 -1     18817 2.40115E-01
 -1     18822 2.27662E-01
 -1     18823 2.27662E-01
 -1     18824 2.40115E-01
 -1     18829 2.27662E-01
 -1     18830 2.27662E-01
 -1     18831 2.40115E-01
 -1     18836 2.27662E-01
 -1     18837 2.27662E-01
 -1     18838 2.40115E-01
 -1     18843 2.27662E-01
 -1     18844 2.27662E-01
 -1     18845 2.40115E-01
 -1     18850 2.27662E-01
 -1     18851 2.27662E-01
 -1     18852 2.40115E-01
 -1     18857 2.27662E-01
 -1     18858 2.27662E-01
 -1     18859 2.40115E-01
 -1     18864 2.27662E-01
 -1     18865 2.27662E-01
 -1     18866 2.40115E-01
 -1     18871 2.27662E-01
 -1     18872 2.27662E-01
 -1     18873 2.40115E-01
 -1     18878 2.27662E-01
 -1     18879 2.27662E-01
 -1     18880 2.40115E-01
 -1     18885 2.27662E-01
 -1     18889 2.27662E-01
 -1     18890 2.27662E-01
 -1     18891 2.40115E-01
 -1     18896 2.27662E-01
 -1     18897 2.27662E-01
 -1     18898 2.40115E-01
 -1     18903 2.27662E-01
 -1     18904 2.27662E-01
 -1     18905 2.40115E-01
 -1     18910 2.27662E-01
 -1     18911 2.27662E-01
 -1     18912 2.40115E-01
 -1     18917 2.27662E-01
 -1     18918 2.27662E-01
 -1     18919 2.40115E-01
 -1     18924 2.27662E-01
 -1     18925 2.27662E-01
 -1     18926 2.40115E-01
 -1     18931 2.27662E-01
 -1     18932 2.27662E-01
 -1     18933 2.40115E-01
 -1     18938 2.27662E-01
 -1     18939 2.27662E-01
 -1     18940 2.40115E-01
 -1     18945 2.27662E-01
 -1     18946 2.27662E-01
 -1     18947 2.40115E-01
 -1     18952 2.27662E-01
 -1     18953 2.27662E-01
 -1     18954 2.40115E-01
 -1     18959 2.27662E-01
 -1     18963 2.27662E-01
 -1     18964 2.27662E-01
 -1     18965 2.40115E-01
 -1     18970 2.27662E-01
 -1     18971 2.27662E-01
 -1     18972 2.40115E-01
 -1     18977 2.27662E-01
 -1     18978 2.27662E-01
 -1     18979 2.40115E-01
 -1     18984 2.27662E-01
 -1     18985 2.27662E-01
 -1     18986 2.40115E-01
 -1     18991 2.27662E-01
 -1     18992 2.27662E-01
 -1     18993 2.40115E-01
 -1     18998 2.27662E-01
 -1     18999 2.27662E-01
 -1     19000 2.40115E-01
 -1     19005 2.27662E-01
 -1     19006 2.27662E-01
 -1     19007 2.40115E-01
 -1     19012 2.27662E-01
 -1     19013 2.27662E-01
 -1     19014 2.40115E-01
 -1     19019 2.27662E-01
 -1     19020 2.27662E-01
 -1     19021 2.40115E-01
 -1     19026 2.27662E-01
 -1     19027 2.27662E-01
 -1     19028 2.40115E-01
 -1     19033 2.27662E-01
 -1     19037 2.27662E-01
 -1     19038 2.27662E-01
 -1     19039 2.40115E-01
 -1     19044 2.27662E-01
 -1     19045 2.27662E-01
 -1     19046 2.40115E-01
 -1     19051 2.27662E-01
 -1     19052 2.27662E-01
 -1     19053 2.40115E-01
 -1     19058 2.27662E-01
 -1     19059 2.27662E-01
 -1     19060 2.40115E-01
 -1     19065 2.27662E-01
 -1     19066 2.27662E-01
 -1     19067 2.40115E-01
 -1     19072 2.27662E-01
 -1     19073 2.27662E-01
 -1     19074 2.40115E-01
 -1     19079 2.27662E-01
 -1     19080 2.27662E-01
 -1     19081 2.40115E-01
 -1     19086 2.27662E-01
 -1     19087 2.27662E-01
 -1     19088 2.40115E-01
 -1     19093 2.27662E-01
 -1     19094 2.27662E-01
 -1     19095 2.40115E-01
 -1     19100 2.27662E-01
 -1     19101 2.27662E-01
 -1     19102 2.40115E-01
 -1     19107 2.27662E-01
 -1     19111 2.27662E-01
 -1     19115 2.27662E-01
 -1     19119 2.27662E-01
 -1     19123 2.27662E-01
 -1     19127 2.27662E-01
 -1     19131 2.27662E-01
 -1     19135 2.27662E-01
 -1     19139 2.27662E-01
 -1     19143 2.27662E-01
 -1     19147 2.27662E-01
 -1     19153 2.05810E-01
 -1     19154 2.05810E-01
 -1     19155 2.16736E-01
 -1     19160 2.05810E-01
 -1     19161 2.05810E-01
 -1     19162 2.16736E-01
 -1     19167 2.05810E-01
 -1     19168 2.05810E-01
 -1     19169 2.16736E-01
 -1     19174 2.05810E-01
 -1     19175 2.05810E-01
 -1     19176 2.16736E-01
 -1     19181 2.05810E-01
 -1     19182 2.05810E-01
 -1     19183 2.16736E-01
 -1     19188 2.05810E-01
 -1     19189 2.05810E-01
 -1     19190 2.16736E-01
 -1     19195 2.05810E-01
 -1     19196 2.05810E-01
 -1     19197 2.16736E-01
 -1     19202 2.05810E-01
 -1     19203 2.05810E-01
 -1     19204 2.16736E-01
 -1     19209 2.05810E-01
 -1     19210 2.05810E-01
 -1     19211 2.16736E-01
 -1     19216 2.05810E-01
 -1     19217 2.05810E-01
 -1     19218 2.16736E-01
 -1     19223 2.05810E-01
 -1     19227 2.05810E-01
 -1     19228 2.05810E-01
 -1     19229 2.16736E-01
 -1     19234 2.05810E-01
 -1     19235 2.05810E-01
 -1     19236 2.16736E-01
 -1     19241 2.05810E-01
 -1     19242 2.05810E-01
 -1     19243 2.16736E-01
 -1     19248 2.05810E-01
 -1     19249 2.05810E-01
 -1     19250 2.16736E-01
 -1     19255 2.05810E-01
 -1     19256 2.05810E-01
 -1     19257 2.16736E-01
 -1     19262 2.05810E-01
 -1     19263 2.05810E-01
 -1     19264 2.16736E-01
 -1     19269 2.05810E-01
 -1     19270 2.05810E-01
 -1     19271 2.16736E-01
 -1     19276 2.05810E-01
 -1     19277 2.05810E-01
 -1     19278 2.16736E-01
 -1     19283 2.05810E-01
 -1     19284 2.05810E-01
 -1     19285 2.16736E-01
 -1     19290 2.05810E-01
 -1     19291 2.05810E-01
 -1     19292 2.16736E-01
 -1     19297 2.05810E-01
 -1     19301 2.05810E-01
 -1     19302 2.05810E-01
 -1     19303 2.16736E-01
 -1     19308 2.05810E-01
 -1     19309 2.05810E-01
 -1     19310 2.16736E-01
 -1     19315 2.05810E-01
 -1     19316 2.05810E-01
 -1     19317 2.16736E-01
 -1     19322 2.05810E-01
 -1     19323 2.05810E-01
 -1     19324 2.16736E-01
 -1     19329 2.05810E-01
 -1     19330 2.05810E-01
 -1     19331 2.16736E-01
 -1     19336 2.05810E-01
 -1     19337 2.05810E-01
 -1     19338 2.16736E-01
 -1     19343 2.05810E-01
 -1     19344 2.05810E-01
 -1     19345 2.16736E-01
 -1     19350 2.05810E-01
 -1     19351 2.05810E-01
 -1     19352 2.16736E-01
 -1     19357 2.05810E-01
 -1     19358 2.05810E-01
 -1     19359 2.16736E-01
 -1     19364 2.05810E-01
 -1     19365 2.05810E-01
 -1     19366 2.16736E-01
 -1     19371 2.05810E-01
 -1     19375 2.05810E-01
 -1     19376 2.05810E-01
 -1     19377 2.16736E-01
 -1     19382 2.05810E-01
 -1     19383 2.05810E-01
 -1     19384 2.16736E-01
 -1     19389 2.05810E-01
 -1     19390 2.05810E-01
 -1     19391 2.16736E-01
 -1     19396 2.05810E-01
 -1     19397 2.05810E-01
 -1     19398 2.16736E-01
 -1     19403 2.05810E-01
 -1     19404 2.05810E-01
 -1     19405 2.16736E-01
 -1     19410 2.05810E-01
 -1     19411 2.05810E-01
 -1     19412 2.16736E-01
 -1     19417 2.05810E-01
 -1     19418 2.05810E-01
 -1     19419 2.16736E-01
 -1     19424 2.05810E-01
 -1     19425 2.05810E-01
 -1     19426 2.16736E-01
 -1     19431 2.05810E-01
 -1     19432 2.05810E-01
 -1     19433 2.16736E-01
 -1     19438 2.05810E-01
 -1     19439 2.05810E-01
 -1     19440 2.16736E-01
 -1     19445 2.05810E-01
 -1     19449 2.05810E-01
 -1     19450 2.05810E-01
 -1     19451 2.16736E-01
 -1     19456 2.05810E-01
 -1     19457 2.05810E-01
 -1     19458 2.16736E-01
 -1     19463 2.05810E-01
 -1     19464 2.05810E-01
 -1     19465 2.16736E-01
 -1     19470 2.05810E-01
 -1     19471 2.05810E-01
 -1     19472 2.16736E-01
 -1     19477 2.05810E-01
 -1     19478 2.05810E-01
 -1     19479 2.16736E-01
 -1     19484 2.05810E-01
 -1     19485 2.05810E-01
 -1     19486 2.16736E-01
 -1     19491 2.05810E-01
 -1     19492 2.05810E-01
 -1     19493 2.16736E-01
 -1     19498 2.05810E-01
 -1     19499 2.05810E-01
 -1     19500 2.16736E-01
 -1     19505 2.05810E-01
 -1     19506 2.05810E-01
 -1     19507 2.16736E-01
 -1     19512 2.05810E-01
 -1     19513 2.05810E-01
 -1     19514 2.16736E-01
 -1     19519 2.05810E-01
 -1     19523 2.05810E-01
 -1     19524 2.05810E-01
 -1     19525 2.16736E-01
 -1     19530 2.05810E-01
 -1     19531 2.05810E-01
 -1     19532 2.16736E-01
 -1     19537 2.05810E-01
 -1     19538 2.05810E-01
 -1     19539 2.16736E-01
 -1     19544 2.05810E-01
 -1     19545 2.05810E-01
 -1     19546 2.16736E-01
 -1     19551 2.05810E-01
 -1     19552 2.05810E-01
 -1     19553 2.16736E-01
 -1     19558 2.05810E-01
 -1     19559 2.05810E-01
 -1     19560 2.16736E-01
 -1     19565 2.05810E-01
 -1     19566 2.05810E-01
 -1     19567 2.16736E-01
 -1     19572 2.05810E-01
 -1     19573 2.05810E-01
 -1     19574 2.16736E-01
 -1     19579 2.05810E-01
 -1     19580 2.05810E-01
 -1     19581 2.16736E-01
 -1     19586 2.05810E-01
 -1     19587 2.05810E-01
 -1     19588 2.16736E-01
 -1     19593 2.05810E-01
 -1     19597 2.05810E-01
 -1     19598 2.05810E-01
 -1     19599 2.16736E-01
 -1     19604 2.05810E-01
 -1     19605 2.05810E-01
 -1     19606 2.16736E-01
 -1     19611 2.05810E-01
 -1     19612 2.05810E-01
 -1     19613 2.16736E-01
 -1     19618 2.05810E-01
 -1     19619 2.05810E-01
 -1     19620 2.16736E-01
 -1     19625 2.05810E-01
 -1     19626 2.05810E-01
 -1     19627 2.16736E-01
 -1     19632 2.05810E-01
 -1     19633 2.05810E-01
 -1     19634 2.16736E-01
 -1     19639 2.05810E-01
 -1     19640 2.05810E-01
 -1     19641 2.16736E-01
 -1     19646 2.05810E-01
 -1     19647 2.05810E-01
 -1     19648 2.16736E-01
 -1     19653 2.05810E-01
 -1     19654 2.05810E-01
 -1     19655 2.16736E-01
 -1     19660 2.05810E-01
 -1     19661 2.05810E-01
 -1     19662 2.16736E-01
 -1     19667 2.05810E-01
 -1     19671 2.05810E-01
 -1     19672 2.05810E-01
 -1     19673 2.16736E-01
 -1     19678 2.05810E-01
 -1     19679 2.05810E-01
 -1     19680 2.16736E-01
 -1     19685 2.05810E-01
 -1     19686 2.05810E-01
 -1     19687 2.16736E-01
 -1     19692 2.05810E-01
 -1     19693 2.05810E-01
 -1     19694 2.16736E-01
 -1     19699 2.05810E-01
 -1     19700 2.05810E-01
 -1     19701 2.16736E-01
 -1     19706 2.05810E-01
 -1     19707 2.05810E-01
 -1     19708 2.16736E-01
 -1     19713 2.05810E-01
 -1     19714 2.05810E-01
 -1     19715 2.16736E-01
 -1     19720 2.05810E-01
 -1     19721 2.05810E-01
 -1     19722 2.16736E-01
 -1     19727 2.05810E-01
 -1     19728 2.05810E-01
 -1     19729 2.16736E-01
 -1     19734 2.05810E-01
 -1     19735 2.05810E-01
 -1     19736 2.16736E-01
 -1     19741 2.05810E-01
 -1     19745 2.05810E-01
 -1     19746 2.05810E-01
 -1     19747 2.16736E-01
 -1     19752 2.05810E-01
 -1     19753 2.05810E-01
 -1     19754 2.16736E-01
 -1     19759 2.05810E-01
 -1     19760 2.05810E-01
 -1     19761 2.16736E-01
 -1     19766 2.05810E-01
 -1     19767 2.05810E-01
 -1     19768 2.16736E-01
 -1     19773 2.05810E-01
 -1     19774 2.05810E-01
 -1     19775 2.16736E-01
 -1     19780 2.05810E-01
 -1     19781 2.05810E-01
 -1     19782 2.16736E-01
 -1     19787 2.05810E-01
 -1     19788 2.05810E-01
 -1     19789 2.16736E-01
 -1     19794 2.05810E-01
 -1     19795 2.05810E-01
 -1     19796 2.16736E-01
 -1     19801 2.05810E-01
 -1     19802 2.05810E-01
 -1     19803 2.16736E-01
 -1     19808 2.05810E-01
 -1     19809 2.05810E-01
 -1     19810 2.16736E-01
 -1     19815 2.05810E-01
 -1     19819 2.05810E-01
 -1     19823 2.05810E-01
 -1     19827 2.05810E-01
 -1     19831 2.05810E-01
 -1     19835 2.05810E-01
 -1     19839 2.05810E-01
 -1     19843 2.05810E-01
 -1     19847 2.05810E-01
 -1     19851 2.05810E-01
 -1     19855 2.05810E-01
 -1     19861 1.86575E-01
 -1     19862 1.86575E-01
 -1     19863 1.96192E-01
 -1     19868 1.86575E-01
 -1     19869 1.86575E-01
 -1     19870 1.96192E-01
 -1     19875 1.86575E-01
 -1     19876 1.86575E-01
 -1     19877 1.96192E-01
 -1     19882 1.86575E-01
 -1     19883 1.86575E-01
 -1     19884 1.96192E-01
 -1     19889 1.86575E-01
 -1     19890 1.86575E-01
 -1     19891 1.96192E-01
 -1     19896 1.86575E-01
 -1     19897 1.86575E-01
 -1     19898 1.96192E-01
 -1     19903 1.86575E-01
 -1     19904 1.86575E-01
 -1     19905 1.96192E-01
 -1     19910 1.86575E-01
 -1     19911 1.86575E-01
 -1     19912 1.96192E-01
 -1     19917 1.86575E-01
 -1     19918 1.86575E-01
 -1     19919 1.96192E-01
 -1     19924 1.86575E-01
 -1     19925 1.86575E-01
 -1     19926 1.96192E-01
 -1     19931 1.86575E-01
 -1     19935 1.86575E-01
 -1     19936 1.86575E-01
 -1     19937 1.96192E-01
 -1     19942 1.86575E-01
 -1     19943 1.86575E-01
 -1     19944 1.96192E-01
 -1     19949 1.86575E-01
 -1     19950 1.86575E-01
 -1     19951 1.96192E-01
 -1     19956 1.86575E-01
 -1     19957 1.86575E-01
 -1     19958 1.96192E-01
 -1     19963 1.86575E-01
 -1     19964 1.86575E-01
 -1     19965 1.96192E-01
 -1     19970 1.86575E-01
 -1     19971 1.86575E-01
 -1     19972 1.96192E-01
 -1     19977 1.86575E-01
 -1     19978 1.86575E-01
 -1     19979 1.96192E-01
 -1     19984 1.86575E-01
 -1     19985 1.86575E-01
 -1     19986 1.96192E-01
 -1     19991 1.86575E-01
 -1     19992 1.86575E-01
 -1     19993 1.96192E-01
 -1     19998 1.86575E-01
 -1     19999 1.86575E-01
 -1     20000 1.96192E-01
 -1     20005 1.86575E-01
 -1     20009 1.86575E-01
 -1     20010 1.86575E-01
 -1     20011 1.96192E-01
 -1     20016 1.86575E-01
 -1     20017 1.86575E-01
 -1     20018 1.96192E-01
 -1     20023 1.86575E-01
 -1     20024 1.86575E-01
 -1     20025 1.96192E-01
 -1     20030 1.86575E-01
 -1     20031 1.86575E-01
 -1     20032 1.96192E-01
 -1     20037 1.86575E-01
 -1     20038 1.86575E-01
 -1     20039 1.96192E-01
 -1     20044 1.86575E-01
 -1     20045 1.86575E-01
 -1     20046 1.96192E-01
 -1     20051 1.86575E-01
 -1     20052 1.86575E-01
 -1     20053 1.96192E-01
 -1     20058 1.86575E-01
 -1     20059 1.86575E-01
 -1     20060 1.96192E-01
 -1     20065 1.86575E-01
 -1     20066 1.86575E-01
 -1     20067 1.96192E-01
 -1     20072 1.86575E-01
 -1     20073 1.86575E-01
 -1     20074 1.96192E-01
 -1     20079 1.86575E-01
 -1     20083 1.86575E-01
 -1     20084 1.86575E-01
 -1     20085 1.96192E-01
 -1     20090 1.86575E-01
 -1     20091 1.86575E-01
 -1     20092 1.96192E-01
 -1     20097 1.86575E-01
 -1     20098 1.86575E-01
 -1     20099 1.96192E-01
 -1     20104 1.86575E-01
 -1     20105 1.86575E-01
 -1     20106 1.96192E-01
 -1     20111 1.86575E-01
 -1     20112 1.86575E-01
 -1     20113 1.96192E-01
 -1     20118 1.86575E-01
 -1     20119 1.86575E-01
 -1     20120 1.96192E-01
 -1     20125 1.86575E-01
 -1     20126 1.86575E-01
 -1     20127 1.96192E-01
 -1     20132 1.86575E-01
 -1     20133 1.86575E-01
 -1     20134 1.96192E-01
 -1     20139 1.86575E-01
 -1     20140 1.86575E-01
 -1     20141 1.96192E-01
 -1     20146 1.86575E-01
 -1     20147 1.86575E-01
 -1     20148 1.96192E-01
 -1     20153 1.86575E-01
 -1     20157 1.86575E-01
 -1     20158 1.86575E-01
 -1     20159 1.96192E-01
 -1     20164 1.86575E-01
 -1     20165 1.86575E-01
 -1     20166 1.96192E-01
 -1     20171 1.86575E-01
 -1     20172 1.86575E-01
 -1     20173 1.96192E-01
 -1     20178 1.86575E-01
 -1     20179 1.86575E-01
 -1     20180 1.96192E-01
 -1     20185 1.86575E-01
 -1     20186 1.86575E-01
 -1     20187 1.96192E-01
 -1     20192 1.86575E-01
 -1     20193 1.86575E-01
 -1     20194 1.96192E-01
 -1     20199 1.86575E-01
 -1     20200 1.86575E-01
 -1     20201 1.96192E-01
 -1     20206 1.86575E-01
 -1     20207 1.86575E-01
 -1     20208 1.96192E-01
 -1     20213 1.86575E-01
 -1     20214 1.86575E-01
 -1     20215 1.96192E-01
 -1     20220 1.86575E-01
 -1     20221 1.86575E-01
 -1     20222 1.96192E-01
 -1     20227 1.86575E-01
 -1     20231 1.86575E-01
 -1     20232 1.86575E-01
 -1     20233 1.96192E-01
 -1     20238 1.86575E-01
 -1     20239 1.86575E-01
 -1     20240 1.96192E-01
 -1     20245 1.86575E-01
 -1     20246 1.86575E-01
 -1     20247 1.96192E-01
 -1     20252 1.86575E-01
 -1     20253 1.86575E-01
 -1     20254 1.96192E-01
 -1     20259 1.86575E-01
 -1     20260 1.86575E-01
 -1     20261 1.96192E-01
 -1     20266 1.86575E-01
 -1     20267 1.86575E-01
 -1     20268 1.96192E-01
 -1     20273 1.86575E-01
 -1     20274 1.86575E-01
 -1     20275 1.96192E-01
 -1     20280 1.86575E-01
 -1     20281 1.86575E-01
 -1     20282 1.96192E-01
 -1     20287 1.86575E-01
 -1     20288 1.86575E-01
 -1     20289 1.96192E-01
 -1     20294 1.86575E-01
 -1     20295 1.86575E-01
 -1     20296 1.96192E-01
 -1     20301 1.86575E-01
 -1     20305 1.86575E-01
 -1     20306 1.86575E-01
 -1     20307 1.96192E-01
 -1     20312 1.86575E-01
 -1     20313 1.86575E-01
 -1     20314 1.96192E-01
 -1     20319 1.86575E-01
 -1     20320 1.86575E-01
 -1     20321 1.96192E-01
 -1     20326 1.86575E-01
 -1     20327 1.86575E-01
 -1     20328 1.96192E-01
 -1     20333 1.86575E-01
 -1     20334 1.86575E-01
 -1     20335 1.96192E-01
 -1     20340 1.86575E-01
 -1     20341 1.86575E-01
 -1     20342 1.96192E-01
 -1     20347 1.86575E-01
 -1     20348 1.86575E-01
 -1     20349 1.96192E-01
 -1     20354 1.86575E-01
 -1     20355 1.86575E-01
 -1     20356 1.96192E-01
 -1     20361 1.86575E-01
 -1     20362 1.86575E-01
 -1     20363 1.96192E-01
 -1     20368 1.86575E-01
 -1     20369 1.86575E-01
 -1     20370 1.96192E-01
 -1     20375 1.86575E-01
 -1     20379 1.86575E-01
 -1     20380 1.86575E-01
 -1     20381 1.96192E-01
 -1     20386 1.86575E-01
 -1     20387 1.86575E-01
 -1     20388 1.96192E-01
 -1     20393 1.86575E-01
 -1     20394 1.86575E-01
 -1     20395 1.96192E-01
 -1     20400 1.86575E-01
 -1     20401 1.86575E-01
 -1     20402 1.96192E-01
 -1     20407 1.86575E-01
 -1     20408 1.86575E-01
 -1     20409 1.96192E-01
 -1     20414 1.86575E-01
 -1     20415 1.86575E-01
 -1     20416 1.96192E-01
 -1     20421 1.86575E-01
 -1     20422 1.86575E-01
 -1     20423 1.96192E-01
 -1     20428 1.86575E-01
 -1     20429 1.86575E-01
 -1     20430 1.96192E-01
 -1     20435 1.86575E-01
 -1     20436 1.86575E-01
 -1     20437 1.96192E-01
 -1     20442 1.86575E-01
 -1     20443 1.86575E-01
 -1     20444 1.96192E-01
 -1     20449 1.86575E-01
 -1     20453 1.86575E-01
 -1     20454 1.86575E-01
 -1     20455 1.96192E-01
 -1     20460 1.86575E-01
 -1     20461 1.86575E-01
 -1     20462 1.96192E-01
 -1     20467 1.86575E-01
 -1     20468 1.86575E-01
 -1     20469 1.96192E-01
 -1     20474 1.86575E-01
 -1     20475 1.86575E-01
 -1     20476 1.96192E-01
 -1     20481 1.86575E-01
 -1     20482 1.86575E-01
 -1     20483 1.96192E-01
 -1     20488 1.86575E-01
 -1     20489 1.86575E-01
 -1     20490 1.96192E-01
 -1     20495 1.86575E-01
 -1     20496 1.86575E-01
 -1     20497 1.96192E-01
 -1     20502 1.86575E-01
 -1     20503 1.86575E-01
 -1     20504 1.96192E-01
 -1     20509 1.86575E-01
 -1     20510 1.86575E-01
 -1     20511 1.96192E-01
 -1     20516 1.86575E-01
 -1     20517 1.86575E-01
 -1     20518 1.96192E-01
 -1     20523 1.86575E-01
 -1     20527 1.86575E-01
 -1     20531 1.86575E-01
 -1     20535 1.86575E-01
 -1     20539 1.86575E-01
 -1     20543 1.86575E-01
 -1     20547 1.86575E-01
 -1     20551 1.86575E-01
 -1     20555 1.86575E-01
 -1     20559 1.86575E-01
 -1     20563 1.86575E-01
 -1     20569 1.69588E-01
 -1     20570 1.69588E-01
 -1     20571 1.78081E-01
 -1     20576 1.69588E-01
 -1     20577 1.69588E-01
 -1     20578 1.78081E-01
 -1     20583 1.69588E-01
 -1     20584 1.69588E-01
 -1     20585 1.78081E-01
 -1     20590 1.69588E-01
 -1     20591 1.69588E-01
 -1     20592 1.78081E-01
 -1     20597 1.69588E-01
 -1     20598 1.69588E-01
 -1     20599 1.78081E-01
 -1     20604 1.69588E-01
 -1     20605 1.69588E-01
 -1     20606 1.78081E-01
 -1     20611 1.69588E-01
 -1     20612 1.69588E-01
 -1     20613 1.78081E-01
 -1     20618 1.69588E-01
 -1     20619 1.69588E-01
 -1     20620 1.78081E-01
 -1     20625 1.69588E-01
 -1     20626 1.69588E-01
 -1     20627 1.78081E-01
 -1     20632 1.69588E-01
 -1     20633 1.69588E-01
 -1     20634 1.78081E-01
 -1     20639 1.69588E-01
 -1     20643 1.69588E-01
 -1     20644 1.69588E-01
 -1     20645 1.78081E-01
 -1     20650 1.69588E-01
 -1     20651 1.69588E-01
 -1     20652 1.78081E-01
 -1     20657 1.69588E-01
 -1     20658 1.69588E-01
 -1     20659 1.78081E-01
 -1     20664 1.69588E-01
 -1     20665 1.69588E-01
 -1     20666 1.78081E-01
 -1     20671 1.69588E-01
 -1     20672 1.69588E-01
 -1     20673 1.78081E-01
 -1     20678 1.69588E-01
 -1     20679 1.69588E-01
 -1     20680 1.78081E-01
 -1     20685 1.69588E-01
 -1     20686 1.69588E-01
 -1     20687 1.78081E-01
 -1     20692 1.69588E-01
 -1     20693 1.69588E-01
 -1     20694 1.78081E-01
 -1     20699 1.69588E-01
 -1     20700 1.69588E-01
 -1     20701 1.78081E-01
 -1     20706 1.69588E-01
 -1     20707 1.69588E-01
 -1     20708 1.78081E-01
 -1     20713 1.69588E-01
 -1     20717 1.69588E-01
 -1     20718 1.69588E-01
 -1     20719 1.78081E-01
 -1     20724 1.69588E-01
 -1     20725 1.69588E-01
 -1     20726 1.78081E-01
 -1     20731 1.69588E-01
 -1     20732 1.69588E-01
 -1     20733 1.78081E-01
 -1     20738 1.69588E-01
 -1     20739 1.69588E-01
 -1     20740 1.78081E-01
 -1     20745 1.69588E-01
 -1     20746 1.69588E-01
 -1     20747 1.78081E-01
 -1     20752 1.69588E-01
 -1     20753 1.69588E-01
 -1     20754 1.78081E-01
 -1     20759 1.69588E-01
 -1     20760 1.69588E-01
 -1     20761 1.78081E-01
 -1     20766 1.69588E-01
 -1     20767 1.69588E-01
 -1     20768 1.78081E-01
 -1     20773 1.69588E-01
 -1     20774 1.69588E-01
 -1     20775 1.78081E-01
 -1     20780 1.69588E-01
 -1     20781 1.69588E-01
 -1     20782 1.78081E-01
 -1     20787 1.69588E-01
 -1     20791 1.69588E-01
 -1     20792 1.69588E-01
 -1     20793 1.78081E-01
 -1     20798 1.69588E-01
 -1     20799 1.69588E-01
 -1     20800 1.78081E-01
 -1     20805 1.69588E-01
 -1     20806 1.69588E-01
 -1     20807 1.78081E-01
 -1     20812 1.69588E-01
 -1     20813 1.69588E-01
 -1     20814 1.78081E-01
 -1     20819 1.69588E-01
 -1     20820 1.69588E-01
 -1     20821 1.78081E-01
 -1     20826 1.69588E-01
 -1     20827 1.69588E-01
 -1     20828 1.78081E-01
 -1     20833 1.69588E-01
 -1     20834 1.69588E-01
 -1     20835 1.78081E-01
 -1     20840 1.69588E-01
 -1     20841 1.69588E-01
 -1     20842 1.78081E-01
 -1     20847 1.69588E-01
 -1     20848 1.69588E-01
 -1     20849 1.78081E-01
 -1     20854 1.69588E-01
 -1     20855 1.69588E-01
 -1     20856 1.78081E-01
 -1     20861 1.69588E-01
 -1     20865 1.69588E-01
 -1     20866 1.69588E-01
 -1     20867 1.78081E-01
 -1     20872 1.69588E-01
 -1     20873 1.69588E-01
 -1     20874 1.78081E-01
 -1     20879 1.69588E-01
 -1     20880 1.69588E-01
 -1     20881 1.78081E-01
 -1     20886 1.69588E-01
 -1     20887 1.69588E-01
 -1     20888 1.78081E-01
 -1     20893 1.69588E-01
 -1     20894 1.69588E-01
 -1     20895 1.78081E-01
 -1     20900 1.69588E-01
 -1     20901 1.69588E-01
 -1     20902 1.78081E-01
 -1     20907 1.69588E-01
 -1     20908 1.69588E-01
 -1     20909 1.78081E-01
 -1     20914 1.69588E-01
 -1     20915 1.69588E-01
 -1     20916 1.78081E-01
 -1     20921 1.69588E-01
 -1     20922 1.69588E-01
 -1     20923 1.78081E-01
 -1     20928 1.69588E-01
 -1     20929 1.69588E-01
 -1     20930 1.78081E-01
 -1     20935 1.69588E-01
 -1     20939 1.69588E-01
 -1     20940 1.69588E-01
 -1     20941 1.78081E-01
 -1     20946 1.69588E-01
 -1     20947 1.69588E-01
 -1     20948 1.78081E-01
 -1     20953 1.69588E-01
 -1     20954 1.69588E-01
 -1     20955 1.78081E-01
 -1     20960 1.69588E-01
 -1     20961 1.69588E-01
 -1     20962 1.78081E-01
 -1     20967 1.69588E-01
 -1     20968 1.69588E-01
 -1     20969 1.78081E-01
 -1     20974 1.69588E-01
 -1     20975 1.69588E-01
 -1     20976 1.78081E-01
 -1     20981 1.69588E-01
 -1     20982 1.69588E-01
 -1     20983 1.78081E-01
 -1     20988 1.69588E-01
 -1     20989 1.69588E-01
 -1     20990 1.78081E-01
 -1     20995 1.69588E-01
 -1     20996 1.69588E-01
 -1     20997 1.78081E-01
 -1     21002 1.69588E-01
 -1     21003 1.69588E-01
 -1     21004 1.78081E-01
 -1     21009 1.69588E-01
 -1     21013 1.69588E-01
 -1     21014 1.69588E-01
 -1     21015 1.78081E-01
 -1     21020 1.69588E-01
 -1     21021 1.69588E-01
 -1     21022 1.78081E-01
 -1     21027 1.69588E-01
 -1     21028 1.69588E-01
 -1     21029 1.78081E-01
 -1     21034 1.69588E-01
 -1     21035 1.69588E-01
 -1     21036 1.78081E-01
 -1     21041 1.69588E-01
 -1     21042 1.69588E-01
 -1     21043 1.78081E-01
 -1     21048 1.69588E-01
 -1     21049 1.69588E-01
 -1     21050 1.78081E-01
 -1     21055 1.69588E-01
 -1     21056 1.69588E-01
 -1     21057 1.78081E-01
 -1     21062 1.69588E-01
 -1     21063 1.69588E-01
 -1     21064 1.78081E-01
 -1     21069 1.69588E-01
 -1     21070 1.69588E-01
 -1     21071 1.78081E-01
 -1     21076 1.69588E-01
 -1     21077 1.69588E-01
 -1     21078 1.78081E-01
 -1     21083 1.69588E-01
 -1     21087 1.69588E-01
 -1     21088 1.69588E-01
 -1     21089 1.78081E-01
 -1     21094 1.69588E-01
 -1     21095 1.69588E-01
 -1     21096 1.78081E-01
 -1     21101 1.69588E-01
 -1     21102 1.69588E-01
 -1     21103 1.78081E-01
 -1     21108 1.69588E-01
 -1     21109 1.69588E-01
 -1     21110 1.78081E-01
 -1     21115 1.69588E-01
 -1     21116 1.69588E-01
 -1     21117 1.78081E-01
 -1     21122 1.69588E-01
 -1     21123 1.69588E-01
 -1     21124 1.78081E-01
 -1     21129 1.69588E-01
 -1     21130 1.69588E-01
 -1     21131 1.78081E-01
 -1     21136 1.69588E-01
 -1     21137 1.69588E-01
 -1     21138 1.78081E-01
 -1     21143 1.69588E-01
 -1     21144 1.69588E-01
 -1     21145 1.78081E-01
 -1     21150 1.69588E-01
 -1     21151 1.69588E-01
 -1     21152 1.78081E-01
 -1     21157 1.69588E-01
 -1     21161 1.69588E-01
 -1     21162 1.69588E-01
 -1     21163 1.78081E-01
 -1     21168 1.69588E-01
 -1     21169 1.69588E-01
 -1     21170 1.78081E-01
 -1     21175 1.69588E-01
 -1     21176 1.69588E-01
 -1     21177 1.78081E-01
 -1     21182 1.69588E-01
 -1     21183 1.69588E-01
 -1     21184 1.78081E-01
 -1     21189 1.69588E-01
 -1     21190 1.69588E-01
 -1     21191 1.78081E-01
 -1     21196 1.69588E-01
 -1     21197 1.69588E-01
 -1     21198 1.78081E-01
 -1     21203 1.69588E-01
 -1     21204 1.69588E-01
 -1     21205 1.78081E-01
 -1     21210 1.69588E-01
 -1     21211 1.69588E-01
 -1     21212 1.78081E-01
 -1     21217 1.69588E-01
 -1     21218 1.69588E-01
 -1     21219 1.78081E-01
 -1     21224 1.69588E-01
 -1     21225 1.69588E-01
 -1     21226 1.78081E-01
 -1     21231 1.69588E-01
 -1     21235 1.69588E-01
 -1     21239 1.69588E-01
 -1     21243 1.69588E-01
 -1     21247 1.69588E-01
 -1     21251 1.69588E-01
 -1     21255 1.69588E-01
 -1     21259 1.69588E-01
 -1     21263 1.69588E-01
 -1     21267 1.69588E-01
 -1     21271 1.69588E-01
 -1     21277 1.54540E-01
 -1     21278 1.54540E-01
 -1     21279 1.62064E-01
 -1     21284 1.54540E-01
 -1     21285 1.54540E-01
 -1     21286 1.62064E-01
 -1     21291 1.54540E-01
 -1     21292 1.54540E-01
 -1     21293 1.62064E-01
 -1     21298 1.54540E-01
 -1     21299 1.54540E-01
 -1     21300 1.62064E-01
 -1     21305 1.54540E-01
 -1     21306 1.54540E-01
 -1     21307 1.62064E-01
 -1     21312 1.54540E-01
 -1     21313 1.54540E-01
 -1     21314 1.62064E-01
 -1     21319 1.54540E-01
 -1     21320 1.54540E-01
 -1     21321 1.62064E-01
 -1     21326 1.54540E-01
 -1     21327 1.54540E-01
 -1     21328 1.62064E-01
 -1     21333 1.54540E-01
 -1     21334 1.54540E-01
 -1     21335 1.62064E-01
 -1     21340 1.54540E-01
 -1     21341 1.54540E-01
 -1     21342 1.62064E-01
 -1     21347 1.54540E-01
 -1     21351 1.54540E-01
 -1     21352 1.54540E-01
 -1     21353 1.62064E-01
 -1     21358 1.54540E-01
 -1     21359 1.54540E-01
 -1     21360 1.62064E-01
 -1     21365 1.54540E-01
 -1     21366 1.54540E-01
 -1     21367 1.62064E-01
 -1     21372 1.54540E-01
 -1     21373 1.54540E-01
 -1     21374 1.62064E-01
 -1     21379 1.54540E-01
 -1     21380 1.54540E-01
 -1     21381 1.62064E-01
 -1     21386 1.54540E-01
 -1     21387 1.54540E-01
 -1     21388 1.62064E-01
 -1     21393 1.54540E-01
 -1     21394 1.54540E-01
 -1     21395 1.62064E-01
 -1     21400 1.54540E-01
 -1     21401 1.54540E-01
 -1     21402 1.62064E-01
 -1     21407 1.54540E-01
 -1     21408 1.54540E-01
 -1     21409 1.62064E-01
 -1     21414 1.54540E-01
 -1     21415 1.54540E-01
 -1     21416 1.62064E-01
 -1     21421 1.54540E-01
 -1     21425 1.54540E-01
 -1     21426 1.54540E-01
 -1     21427 1.62064E-01
 -1     21432 1.54540E-01
 -1     21433 1.54540E-01
 -1     21434 1.62064E-01
 -1     21439 1.54540E-01
 -1     21440 1.54540E-01
 -1     21441 1.62064E-01
 -1     21446 1.54540E-01
 -1     21447 1.54540E-01
 -1     21448 1.62064E-01
 -1     21453 1.54540E-01
 -1     21454 1.54540E-01
 -1     21455 1.62064E-01
 -1     21460 1.54540E-01
 -1     21461 1.54540E-01
 -1     21462 1.62064E-01
 -1     21467 1.54540E-01
 -1     21468 1.54540E-01
 -1     21469 1.62064E-01
 -1     21474 1.54540E-01
 -1     21475 1.54540E-01
 -1     21476 1.62064E-01
 -1     21481 1.54540E-01
 -1     21482 1.54540E-01
 -1     21483 1.62064E-01
 -1     21488 1.54540E-01
 -1     21489 1.54540E-01
 -1     21490 1.62064E-01
 -1     21495 1.54540E-01
 -1     21499 1.54540E-01
 -1     21500 1.54540E-01
 -1     21501 1.62064E-01
 -1     21506 1.54540E-01
 -1     21507 1.54540E-01
 -1     21508 1.62064E-01
 -1     21513 1.54540E-01
 -1     21514 1.54540E-01
 -1     21515 1.62064E-01
 -1     21520 1.54540E-01
 -1     21521 1.54540E-01
 -1     21522 1.62064E-01
 -1     21527 1.54540E-01
 -1     21528 1.54540E-01
 -1     21529 1.62064E-01
 -1     21534 1.54540E-01
 -1     21535 1.54540E-01
 -1     21536 1.62064E-01
 -1     21541 1.54540E-01
 -1     21542 1.54540E-01
 -1     21543 1.62064E-01
 -1     21548 1.54540E-01
 -1     21549 1.54540E-01
 -1     21550 1.62064E-01
 -1     21555 1.54540E-01
 -1     21556 1.54540E-01
 -1     21557 1.62064E-01
 -1     21562 1.54540E-01
 -1     21563 1.54540E-01
 -1     21564 1.62064E-01
 -1     21569 1.54540E-01
 -1     21573 1.54540E-01
 -1     21574 1.54540E-01
 -1     21575 1.62064E-01
 -1     21580 1.54540E-01
 -1     21581 1.54540E-01
 -1     21582 1.62064E-01
 -1     21587 1.54540E-01
 -1     21588 1.54540E-01
 -1     21589 1.62064E-01
 -1     21594 1.54540E-01
 -1     21595 1.54540E-01
 -1     21596 1.62064E-01
 -1     21601 1.54540E-01
 -1     21602 1.54540E-01
 -1     21603 1.62064E-01
 -1     21608 1.54540E-01
 -1     21609 1.54540E-01
 -1     21610 1.62064E-01
 -1     21615 1.54540E-01
 -1     21616 1.54540E-01
 -1     21617 1.62064E-01
 -1     21622 1.54540E-01
 -1     21623 1.54540E-01
 -1     21624 1.62064E-01
 -1     21629 1.54540E-01
 -1     21630 1.54540E-01
 -1     21631 1.62064E-01
 -1     21636 1.54540E-01
 -1     21637 1.54540E-01
 -1     21638 1.62064E-01
 -1     21643 1.54540E-01
 -1     21647 1.54540E-01
 -1     21648 1.54540E-01
 -1     21649 1.62064E-01
 -1     21654 1.54540E-01
 -1     21655 1.54540E-01
 -1     21656 1.62064E-01
 -1     21661 1.54540E-01
 -1     21662 1.54540E-01
 -1     21663 1.62064E-01
 -1     21668 1.54540E-01
 -1     21669 1.54540E-01
 -1     21670 1.62064E-01
 -1     21675 1.54540E-01
 -1     21676 1.54540E-01
 -1     21677 1.62064E-01
 -1     21682 1.54540E-01
 -1     21683 1.54540E-01
 -1     21684 1.62064E-01
 -1     21689 1.54540E-01
 -1     21690 1.54540E-01
 -1     21691 1.62064E-01
 -1     21696 1.54540E-01
 -1     21697 1.54540E-01
 -1     21698 1.62064E-01
 -1     21703 1.54540E-01
 -1     21704 1.54540E-01
 -1     21705 1.62064E-01
 -1     21710 1.54540E-01
 -1     21711 1.54540E-01
 -1     21712 1.62064E-01
 -1     21717 1.54540E-01
 -1     21721 1.54540E-01
 -1     21722 1.54540E-01
 -1     21723 1.62064E-01
 -1     21728 1.54540E-01
 -1     21729 1.54540E-01
 -1     21730 1.62064E-01
 -1     21735 1.54540E-01
 -1     21736 1.54540E-01
 -1     21737 1.62064E-01
 -1     21742 1.54540E-01
 -1     21743 1.54540E-01
 -1     21744 1.62064E-01
 -1     21749 1.54540E-01
 -1     21750 1.54540E-01
 -1     21751 1.62064E-01
 -1     21756 1.54540E-01
 -1     21757 1.54540E-01
 -1     21758 1.62064E-01
 -1     21763 1.54540E-01
 -1     21764 1.54540E-01
 -1     21765 1.62064E-01
 -1     21770 1.54540E-01
 -1     21771 1.54540E-01
 -1     21772 1.62064E-01
 -1     21777 1.54540E-01
 -1     21778 1.54540E-01
 -1     21779 1.62064E-01
 -1     21784 1.54540E-01
 -1     21785 1.54540E-01
 -1     21786 1.62064E-01
 -1     21791 1.54540E-01
 -1     21795 1.54540E-01
 -1     21796 1.54540E-01
 -1     21797 1.62064E-01
 -1     21802 1.54540E-01
 -1     21803 1.54540E-01
 -1     21804 1.62064E-01
 -1     21809 1.54540E-01
 -1     21810 1.54540E-01
 -1     21811 1.62064E-01
 -1     21816 1.54540E-01
 -1     21817 1.54540E-01
 -1     21818 1.62064E-01
 -1     21823 1.54540E-01
 -1     21824 1.54540E-01
 -1     21825 1.62064E-01
 -1     21830 1.54540E-01
 -1     21831 1.54540E-01
 -1     21832 1.62064E-01
 -1     21837 1.54540E-01
 -1     21838 1.54540E-01
 -1     21839 1.62064E-01
 -1     21844 1.54540E-01
 -1     21845 1.54540E-01
 -1     21846 1.62064E-01
 -1     21851 1.54540E-01
 -1     21852 1.54540E-01
 -1     21853 1.62064E-01
 -1     21858 1.54540E-01
 -1     21859 1.54540E-01
 -1     21860 1.62064E-01
 -1     21865 1.54540E-01
 -1     21869 1.54540E-01
 -1     21870 1.54540E-01
 -1     21871 1.62064E-01
 -1     21876 1.54540E-01
 -1     21877 1.54540E-01
 -1     21878 1.62064E-01
 -1     21883 1.54540E-01
 -1     21884 1.54540E-01
 -1     21885 1.62064E-01
 -1     21890 1.54540E-01
 -1     21891 1.54540E-01
 -1     21892 1.62064E-01
 -1     21897 1.54540E-01
 -1     21898 1.54540E-01
 -1     21899 1.62064E-01
 -1     21904 1.54540E-01
 -1     21905 1.54540E-01
 -1     21906 1.62064E-01
 -1     21911 1.54540E-01
 -1     21912 1.54540E-01
 -1     21913 1.62064E-01
 -1     21918 1.54540E-01
 -1     21919 1.54540E-01
 -1     21920 1.62064E-01
 -1     21925 1.54540E-01
 -1     21926 1.54540E-01
 -1     21927 1.62064E-01
 -1     21932 1.54540E-01
 -1     21933 1.54540E-01
 -1     21934 1.62064E-01
 -1     21939 1.54540E-01
 -1     21943 1.54540E-01
 -1     21947 1.54540E-01
 -1     21951 1.54540E-01
 -1     21955 1.54540E-01
 -1     21959 1.54540E-01
 -1     21963 1.54540E-01
 -1     21967 1.54540E-01
 -1     21971 1.54540E-01
 -1     21975 1.54540E-01
 -1     21979 1.54540E-01
 -1     21985 1.41171E-01
 -1     21986 1.41171E-01
 -1     21987 1.47856E-01
 -1     21992 1.41171E-01
 -1     21993 1.41171E-01
 -1     21994 1.47856E-01
 -1     21999 1.41171E-01
 -1     22000 1.41171E-01
 -1     22001 1.47856E-01
 -1     22006 1.41171E-01
 -1     22007 1.41171E-01
 -1     22008 1.47856E-01
 -1     22013 1.41171E-01
 -1     22014 1.41171E-01
 -1     22015 1.47856E-01
 -1     22020 1.41171E-01
 -1     22021 1.41171E-01
 -1     22022 1.47856E-01
 -1     22027 1.41171E-01
 -1     22028 1.41171E-01
 -1     22029 1.47856E-01
 -1     22034 1.41171E-01
 -1     22035 1.41171E-01
 -1     22036 1.47856E-01
 -1     22041 1.41171E-01
 -1     22042 1.41171E-01
 -1     22043 1.47856E-01
 -1     22048 1.41171E-01
 -1     22049 1.41171E-01
 -1     22050 1.47856E-01
 -1     22055 1.41171E-01
 -1     22059 1.41171E-01
 -1     22060 1.41171E-01
 -1     22061 1.47856E-01
 -1     22066 1.41171E-01
 -1     22067 1.41171E-01
 -1     22068 1.47856E-01
 -1     22073 1.41171E-01
 -1     22074 1.41171E-01
 -1     22075 1.47856E-01
 -1     22080 1.41171E-01
 -1     22081 1.41171E-01
 -1     22082 1.47856E-01
 -1     22087 1.41171E-01
 -1     22088 1.41171E-01
 -1     22089 1.47856E-01
 -1     22094 1.41171E-01
 -1     22095 1.41171E-01
 -1     22096 1.47856E-01
 -1     22101 1.41171E-01
 -1     22102 1.41171E-01
 -1     22103 1.47856E-01
 -1     22108 1.41171E-01
 -1     22109 1.41171E-01
 -1     22110 1.47856E-01
 -1     22115 1.41171E-01
 -1     22116 1.41171E-01
 -1     22117 1.47856E-01
 -1     22122 1.41171E-01
 -1     22123 1.41171E-01
 -1     22124 1.47856E-01
 -1     22129 1.41171E-01
 -1     22133 1.41172E-01
 -1     22134 1.41171E-01
 -1     22135 1.47856E-01
 -1     22140 1.41172E-01
 -1     22141 1.41171E-01
 -1     22142 1.47856E-01
 -1     22147 1.41172E-01
 -1     22148 1.41171E-01
 -1     22149 1.47856E-01
 -1     22154 1.41172E-01
 -1     22155 1.41171E-01
 -1     22156 1.47856E-01
 -1     22161 1.41172E-01
 -1     22162 1.41171E-01
 -1     22163 1.47856E-01
 -1     22168 1.41172E-01
 -1     22169 1.41171E-01
 -1     22170 1.47856E-01
 -1     22175 1.41172E-01
 -1     22176 1.41171E-01
 -1     22177 1.47856E-01
 -1     22182 1.41172E-01
 -1     22183 1.41171E-01
 -1     22184 1.47856E-01
 -1     22189 1.41172E-01
 -1     22190 1.41171E-01
 -1     22191 1.47856E-01
 -1     22196 1.41172E-01
 -1     22197 1.41171E-01
 -1     22198 1.47856E-01
 -1     22203 1.41172E-01
 -1     22207 1.41172E-01
 -1     22208 1.41172E-01
 -1     22209 1.47856E-01
 -1     22214 1.41172E-01
 -1     22215 1.41172E-01
 -1     22216 1.47856E-01
 -1     22221 1.41172E-01
 -1     22222 1.41172E-01
 -1     22223 1.47856E-01
 -1     22228 1.41172E-01
 -1     22229 1.41172E-01
 -1     22230 1.47856E-01
 -1     22235 1.41172E-01
 -1     22236 1.41172E-01
 -1     22237 1.47856E-01
 -1     22242 1.41172E-01
 -1     22243 1.41172E-01
 -1     22244 1.47856E-01
 -1     22249 1.41172E-01
 -1     22250 1.41172E-01
 -1     22251 1.47856E-01
 -1     22256 1.41172E-01
 -1     22257 1.41172E-01
 -1     22258 1.47856E-01
 -1     22263 1.41172E-01
 -1     22264 1.41172E-01
 -1     22265 1.47856E-01
 -1     22270 1.41172E-01
 -1     22271 1.41172E-01
 -1     22272 1.47856E-01
 -1     22277 1.41172E-01
 -1     22281 1.41172E-01
 -1     22282 1.41172E-01
 -1     22283 1.47856E-01
 -1     22288 1.41172E-01
 -1     22289 1.41172E-01
 -1     22290 1.47856E-01
 -1     22295 1.41172E-01
 -1     22296 1.41172E-01
 -1     22297 1.47856E-01
 -1     22302 1.41172E-01
 -1     22303 1.41172E-01
 -1     22304 1.47856E-01
 -1     22309 1.41172E-01
 -1     22310 1.41172E-01
 -1     22311 1.47856E-01
 -1     22316 1.41172E-01
 -1     22317 1.41172E-01
 -1     22318 1.47856E-01
 -1     22323 1.41172E-01
 -1     22324 1.41172E-01
 -1     22325 1.47856E-01
 -1     22330 1.41172E-01
 -1     22331 1.41172E-01
 -1     22332 1.47856E-01
 -1     22337 1.41172E-01
 -1     22338 1.41172E-01
 -1     22339 1.47856E-01
 -1     22344 1.41172E-01
 -1     22345 1.41172E-01
 -1     22346 1.47856E-01
 -1     22351 1.41172E-01
 -1     22355 1.41172E-01
 -1     22356 1.41172E-01
 -1     22357 1.47856E-01
 -1     22362 1.41172E-01
 -1     22363 1.41172E-01
 -1     22364 1.47856E-01
 -1     22369 1.41172E-01
 -1     22370 1.41172E-01
 -1     22371 1.47856E-01
 -1     22376 1.41172E-01
 -1     22377 1.41172E-01
 -1     22378 1.47856E-01
 -1     22383 1.41172E-01
 -1     22384 1.41172E-01
 -1     22385 1.47856E-01
 -1     22390 1.41172E-01
 -1     22391 1.41172E-01
 -1     22392 1.47856E-01
 -1     22397 1.41172E-01
 -1     22398 1.41172E-01
 -1     22399 1.47856E-01
 -1     22404 1.41172E-01
 -1     22405 1.41172E-01
 -1     22406 1.47856E-01
 -1     22411 1.41172E-01
 -1     22412 1.41172E-01
 -1     22413 1.47856E-01
 -1     22418 1.41172E-01
 -1     22419 1.41172E-01
 -1     22420 1.47856E-01
 -1     22425 1.41172E-01
 -1     22429 1.41172E-01
 -1     22430 1.41172E-01
 -1     22431 1.47856E-01
 -1     22436 1.41172E-01
 -1     22437 1.41172E-01
 -1     22438 1.47856E-01
 -1     22443 1.41172E-01
 -1     22444 1.41172E-01
 -1     22445 1.47856E-01
 -1     22450 1.41172E-01
 -1     22451 1.41172E-01
 -1     22452 1.47856E-01
 -1     22457 1.41172E-01
 -1     22458 1.41172E-01
 -1     22459 1.47856E-01
 -1     22464 1.41172E-01
 -1     22465 1.41172E-01
 -1     22466 1.47856E-01
 -1     22471 1.41172E-01
 -1     22472 1.41172E-01
 -1     22473 1.47856E-01
 -1     22478 1.41172E-01
 -1     22479 1.41172E-01
 -1     22480 1.47856E-01
 -1     22485 1.41172E-01
 -1     22486 1.41172E-01
 -1     22487 1.47856E-01
 -1     22492 1.41172E-01
 -1     22493 1.41172E-01
 -1     22494 1.47856E-01
 -1     22499 1.41172E-01
 -1     22503 1.41172E-01
 -1     22504 1.41172E-01
 -1     22505 1.47856E-01
 -1     22510 1.41172E-01
 -1     22511 1.41172E-01
 -1     22512 1.47856E-01
 -1     22517 1.41172E-01
 -1     22518 1.41172E-01
 -1     22519 1.47856E-01
 -1     22524 1.41172E-01
 -1     22525 1.41172E-01
 -1     22526 1.47856E-01
 -1     22531 1.41172E-01
 -1     22532 1.41172E-01
 -1     22533 1.47856E-01
 -1     22538 1.41172E-01
 -1     22539 1.41172E-01
 -1     22540 1.47856E-01
 -1     22545 1.41172E-01
 -1     22546 1.41172E-01
 -1     22547 1.47856E-01
 -1     22552 1.41172E-01
 -1     22553 1.41172E-01
 -1     22554 1.47856E-01
 -1     22559 1.41172E-01
 -1     22560 1.41172E-01
 -1     22561 1.47856E-01
 -1     22566 1.41172E-01
 -1     22567 1.41172E-01
 -1     22568 1.47856E-01
 -1     22573 1.41172E-01
 -1     22577 1.41172E-01
 -1     22578 1.41172E-01
 -1     22579 1.47856E-01
 -1     22584 1.41172E-01
 -1     22585 1.41172E-01
 -1     22586 1.47856E-01
 -1     22591 1.41172E-01
 -1     22592 1.41172E-01
 -1     22593 1.47856E-01
 -1     22598 1.41172E-01
 -1     22599 1.41172E-01
 -1     22600 1.47856E-01
 -1     22605 1.41172E-01
 -1     22606 1.41172E-01
 -1     22607 1.47856E-01
 -1     22612 1.41172E-01
 -1     22613 1.41172E-01
 -1     22614 1.47856E-01
 -1     22619 1.41172E-01
 -1     22620 1.41172E-01
 -1     22621 1.47856E-01
 -1     22626 1.41172E-01
 -1     22627 1.41172E-01
 -1     22628 1.47856E-01
 -1     22633 1.41172E-01
 -1     22634 1.41172E-01
 -1     22635 1.47856E-01
 -1     22640 1.41172E-01
 -1     22641 1.41172E-01
 -1     22642 1.47856E-01
 -1     22647 1.41172E-01
 -1     22651 1.41172E-01
 -1     22655 1.41172E-01
 -1     22659 1.41172E-01
 -1     22663 1.41172E-01
 -1     22667 1.41172E-01
 -1     22671 1.41172E-01
 -1     22675 1.41172E-01
 -1     22679 1.41172E-01
 -1     22683 1.41172E-01
 -1     22687 1.41172E-01
 -1     22693 1.29260E-01
 -1     22694 1.29260E-01
 -1     22695 1.35216E-01
 -1     22700 1.29260E-01
 -1     22701 1.29260E-01
 -1     22702 1.35216E-01
 -1     22707 1.29260E-01
 -1     22708 1.29260E-01
 -1     22709 1.35216E-01
 -1     22714 1.29260E-01
 -1     22715 1.29260E-01
 -1     22716 1.35216E-01
 -1     22721 1.29260E-01
 -1     22722 1.29260E-01
 -1     22723 1.35216E-01
 -1     22728 1.29260E-01
 -1     22729 1.29260E-01
 -1     22730 1.35216E-01
 -1     22735 1.29260E-01
 -1     22736 1.29260E-01
 -1     22737 1.35216E-01
 -1     22742 1.29260E-01
 -1     22743 1.29260E-01
 -1     22744 1.35216E-01
 -1     22749 1.29260E-01
 -1     22750 1.29260E-01
 -1     22751 1.35216E-01
 -1     22756 1.29260E-01
 -1     22757 1.29260E-01
 -1     22758 1.35216E-01
 -1     22763 1.29260E-01
 -1     22767 1.29260E-01
 -1     22768 1.29260E-01
 -1     22769 1.35216E-01
 -1     22774 1.29260E-01
 -1     22775 1.29260E-01
 -1     22776 1.35216E-01
 -1     22781 1.29260E-01
 -1     22782 1.29260E-01
 -1     22783 1.35216E-01
 -1     22788 1.29260E-01
 -1     22789 1.29260E-01
 -1     22790 1.35216E-01
 -1     22795 1.29260E-01
 -1     22796 1.29260E-01
 -1     22797 1.35216E-01
 -1     22802 1.29260E-01
 -1     22803 1.29260E-01
 -1     22804 1.35216E-01
 -1     22809 1.29260E-01
 -1     22810 1.29260E-01
 -1     22811 1.35216E-01
 -1     22816 1.29260E-01
 -1     22817 1.29260E-01
 -1     22818 1.35216E-01
 -1     22823 1.29260E-01
 -1     22824 1.29260E-01
 -1     22825 1.35216E-01
 -1     22830 1.29260E-01
 -1     22831 1.29260E-01
 -1     22832 1.35216E-01
 -1     22837 1.29260E-01
 -1     22841 1.29260E-01
 -1     22842 1.29260E-01
 -1     22843 1.35216E-01
 -1     22848 1.29260E-01
 -1     22849 1.29260E-01
 -1     22850 1.35216E-01
 -1     22855 1.29260E-01
 -1     22856 1.29260E-01
 -1     22857 1.35216E-01
 -1     22862 1.29260E-01
 -1     22863 1.29260E-01
 -1     22864 1.35216E-01
 -1     22869 1.29260E-01
 -1     22870 1.29260E-01
 -1     22871 1.35216E-01
 -1     22876 1.29260E-01
 -1     22877 1.29260E-01
 -1     22878 1.35216E-01
 -1     22883 1.29260E-01
 -1     22884 1.29260E-01
 -1     22885 1.35216E-01
 -1     22890 1.29260E-01
 -1     22891 1.29260E-01
 -1     22892 1.35216E-01
 -1     22897 1.29260E-01
 -1     22898 1.29260E-01
 -1     22899 1.35216E-01
 -1     22904 1.29260E-01
 -1     22905 1.29260E-01
 -1     22906 1.35216E-01
 -1     22911 1.29260E-01
 -1     22915 1.29260E-01
 -1     22916 1.29260E-01
 -1     22917 1.35216E-01
 -1     22922 1.29260E-01
 -1     22923 1.29260E-01
 -1     22924 1.35216E-01
 -1     22929 1.29260E-01
 -1     22930 1.29260E-01
 -1     22931 1.35216E-01
 -1     22936 1.29260E-01
 -1     22937 1.29260E-01
 -1     22938 1.35216E-01
 -1     22943 1.29260E-01
 -1     22944 1.29260E-01
 -1     22945 1.35216E-01
 -1     22950 1.29260E-01
 -1     22951 1.29260E-01
 -1     22952 1.35216E-01
 -1     22957 1.29260E-01
 -1     22958 1.29260E-01
 -1     22959 1.35216E-01
 -1     22964 1.29260E-01
 -1     22965 1.29260E-01
 -1     22966 1.35216E-01
 -1     22971 1.29260E-01
 -1     22972 1.29260E-01
 -1     22973 1.35216E-01
 -1     22978 1.29260E-01
 -1     22979 1.29260E-01
 -1     22980 1.35216E-01
 -1     22985 1.29260E-01
 -1     22989 1.29260E-01
 -1     22990 1.29260E-01
 -1     22991 1.35216E-01
 -1     22996 1.29260E-01
 -1     22997 1.29260E-01
 -1     22998 1.35216E-01
 -1     23003 1.29260E-01
 -1     23004 1.29260E-01
 -1     23005 1.35216E-01
 -1     23010 1.29260E-01
 -1     23011 1.29260E-01
 -1     23012 1.35216E-01
 -1     23017 1.29260E-01
 -1     23018 1.29260E-01
 -1     23019 1.35216E-01
 -1     23024 1.29260E-01
 -1     23025 1.29260E-01
 -1     23026 1.35216E-01
 -1     23031 1.29260E-01
 -1     23032 1.29260E-01
 -1     23033 1.35216E-01
 -1     23038 1.29260E-01
 -1     23039 1.29260E-01
 -1     23040 1.35216E-01
 -1     23045 1.29260E-01
 -1     23046 1.29260E-01
 -1     23047 1.35216E-01
 -1     23052 1.29260E-01
 -1     23053 1.29260E-01
 -1     23054 1.35216E-01
 -1     23059 1.29260E-01
 -1     23063 1.29260E-01
 -1     23064 1.29260E-01
 -1     23065 1.35216E-01
 -1     23070 1.29260E-01
 -1     23071 1.29260E-01
 -1     23072 1.35216E-01
 -1     23077 1.29260E-01
 -1     23078 1.29260E-01
 -1     23079 1.35216E-01
 -1     23084 1.29260E-01
 -1     23085 1.29260E-01
 -1     23086 1.35216E-01
 -1     23091 1.29260E-01
 -1     23092 1.29260E-01
 -1     23093 1.35216E-01
 -1     23098 1.29260E-01
 -1     23099 1.29260E-01
 -1     23100 1.35216E-01
 -1     23105 1.29260E-01
 -1     23106 1.29260E-01
 -1     23107 1.35216E-01
 -1     23112 1.29260E-01
 -1     23113 1.29260E-01
 -1     23114 1.35216E-01
 -1     23119 1.29260E-01
 -1     23120 1.29260E-01
 -1     23121 1.35216E-01
 -1     23126 1.29260E-01
 -1     23127 1.29260E-01
 -1     23128 1.35216E-01
 -1     23133 1.29260E-01
 -1     23137 1.29260E-01
 -1     23138 1.29260E-01
 -1     23139 1.35216E-01
 -1     23144 1.29260E-01
 -1     23145 1.29260E-01
 -1     23146 1.35216E-01
 -1     23151 1.29260E-01
 -1     23152 1.29260E-01
 -1     23153 1.35216E-01
 -1     23158 1.29260E-01
 -1     23159 1.29260E-01
 -1     23160 1.35216E-01
 -1     23165 1.29260E-01
 -1     23166 1.29260E-01
 -1     23167 1.35216E-01
 -1     23172 1.29260E-01
 -1     23173 1.29260E-01
 -1     23174 1.35216E-01
 -1     23179 1.29260E-01
 -1     23180 1.29260E-01
 -1     23181 1.35216E-01
 -1     23186 1.29260E-01
 -1     23187 1.29260E-01
 -1     23188 1.35216E-01
 -1     23193 1.29260E-01
 -1     23194 1.29260E-01
 -1     23195 1.35216E-01
 -1     23200 1.29260E-01
 -1     23201 1.29260E-01
 -1     23202 1.35216E-01
 -1     23207 1.29260E-01
 -1     23211 1.29260E-01
 -1     23212 1.29260E-01
 -1     23213 1.35216E-01
 -1     23218 1.29260E-01
 -1     23219 1.29260E-01
 -1     23220 1.35216E-01
 -1     23225 1.29260E-01
 -1     23226 1.29260E-01
 -1     23227 1.35216E-01
 -1     23232 1.29260E-01
 -1     23233 1.29260E-01
 -1     23234 1.35216E-01
 -1     23239 1.29260E-01
 -1     23240 1.29260E-01
 -1     23241 1.35216E-01
 -1     23246 1.29260E-01
 -1     23247 1.29260E-01
 -1     23248 1.35216E-01
 -1     23253 1.29260E-01
 -1     23254 1.29260E-01
 -1     23255 1.35216E-01
 -1     23260 1.29260E-01
 -1     23261 1.29260E-01
 -1     23262 1.35216E-01
 -1     23267 1.29260E-01
 -1     23268 1.29260E-01
 -1     23269 1.35216E-01
 -1     23274 1.29260E-01
 -1     23275 1.29260E-01
 -1     23276 1.35216E-01
 -1     23281 1.29260E-01
 -1     23285 1.29260E-01
 -1     23286 1.29260E-01
 -1     23287 1.35216E-01
 -1     23292 1.29260E-01
 -1     23293 1.29260E-01
 -1     23294 1.35216E-01
 -1     23299 1.29260E-01
 -1     23300 1.29260E-01
 -1     23301 1.35216E-01
 -1     23306 1.29260E-01
 -1     23307 1.29260E-01
 -1     23308 1.35216E-01
 -1     23313 1.29260E-01
 -1     23314 1.29260E-01
 -1     23315 1.35216E-01
 -1     23320 1.29260E-01
 -1     23321 1.29260E-01
 -1     23322 1.35216E-01
 -1     23327 1.29260E-01
 -1     23328 1.29260E-01
 -1     23329 1.35216E-01
 -1     23334 1.29260E-01
 -1     23335 1.29260E-01
 -1     23336 1.35216E-01
 -1     23341 1.29260E-01
 -1     23342 1.29260E-01
 -1     23343 1.35216E-01
 -1     23348 1.29260E-01
 -1     23349 1.29260E-01
 -1     23350 1.35216E-01
 -1     23355 1.29260E-01
 -1     23359 1.29260E-01
 -1     23363 1.29260E-01
 -1     23367 1.29260E-01
 -1     23371 1.29260E-01
 -1     23375 1.29260E-01
 -1     23379 1.29260E-01
 -1     23383 1.29260E-01
 -1     23387 1.29260E-01
 -1     23391 1.29260E-01
 -1     23395 1.29260E-01
 -1     23401 1.18617E-01
 -1     23402 1.18617E-01
 -1     23403 1.23938E-01
 -1     23408 1.18617E-01
 -1     23409 1.18617E-01
 -1     23410 1.23938E-01
 -1     23415 1.18617E-01
 -1     23416 1.18617E-01
 -1     23417 1.23938E-01
 -1     23422 1.18617E-01
 -1     23423 1.18617E-01
 -1     23424 1.23938E-01
 -1     23429 1.18617E-01
 -1     23430 1.18617E-01
 -1     23431 1.23938E-01
 -1     23436 1.18617E-01
 -1     23437 1.18617E-01
 -1     23438 1.23938E-01
 -1     23443 1.18617E-01
 -1     23444 1.18617E-01
 -1     23445 1.23938E-01
 -1     23450 1.18617E-01
 -1     23451 1.18617E-01
 -1     23452 1.23938E-01
 -1     23457 1.18617E-01
 -1     23458 1.18617E-01
 -1     23459 1.23938E-01
 -1     23464 1.18617E-01
 -1     23465 1.18617E-01
 -1     23466 1.23938E-01
 -1     23471 1.18617E-01
 -1     23475 1.18617E-01
 -1     23476 1.18617E-01
 -1     23477 1.23938E-01
 -1     23482 1.18617E-01
 -1     23483 1.18617E-01
 -1     23484 1.23938E-01
 -1     23489 1.18617E-01
 -1     23490 1.18617E-01
 -1     23491 1.23938E-01
 -1     23496 1.18617E-01
 -1     23497 1.18617E-01
 -1     23498 1.23938E-01
 -1     23503 1.18617E-01
 -1     23504 1.18617E-01
 -1     23505 1.23938E-01
 -1     23510 1.18617E-01
 -1     23511 1.18617E-01
 -1     23512 1.23938E-01
 -1     23517 1.18617E-01
 -1     23518 1.18617E-01
 -1     23519 1.23938E-01
 -1     23524 1.18617E-01
 -1     23525 1.18617E-01
 -1     23526 1.23938E-01
 -1     23531 1.18617E-01
 -1     23532 1.18617E-01
 -1     23533 1.23938E-01
 -1     23538 1.18617E-01
 -1     23539 1.18617E-01
 -1     23540 1.23938E-01
 -1     23545 1.18617E-01
 -1     23549 1.18617E-01
 -1     23550 1.18617E-01
 -1     23551 1.23938E-01
 -1     23556 1.18617E-01
 -1     23557 1.18617E-01
 -1     23558 1.23938E-01
 -1     23563 1.18617E-01
 -1     23564 1.18617E-01
 -1     23565 1.23938E-01
 -1     23570 1.18617E-01
 -1     23571 1.18617E-01
 -1     23572 1.23938E-01
 -1     23577 1.18617E-01
 -1     23578 1.18617E-01
 -1     23579 1.23938E-01
 -1     23584 1.18617E-01
 -1     23585 1.18617E-01
 -1     23586 1.23938E-01
 -1     23591 1.18617E-01
 -1     23592 1.18617E-01
 -1     23593 1.23938E-01
 -1     23598 1.18617E-01
 -1     23599 1.18617E-01
 -1     23600 1.23938E-01
 -1     23605 1.18617E-01
 -1     23606 1.18617E-01
 -1     23607 1.23938E-01
 -1     23612 1.18617E-01
 -1     23613 1.18617E-01
 -1     23614 1.23938E-01
 -1     23619 1.18617E-01
 -1     23623 1.18617E-01
 -1     23624 1.18617E-01
 -1     23625 1.23938E-01
 -1     23630 1.18617E-01
 -1     23631 1.18617E-01
 -1     23632 1.23938E-01
 -1     23637 1.18617E-01
 -1     23638 1.18617E-01
 -1     23639 1.23938E-01
 -1     23644 1.18617E-01
 -1     23645 1.18617E-01
 -1     23646 1.23938E-01
 -1     23651 1.18617E-01
 -1     23652 1.18617E-01
 -1     23653 1.23938E-01
 -1     23658 1.18617E-01
 -1     23659 1.18617E-01
 -1     23660 1.23938E-01
 -1     23665 1.18617E-01
 -1     23666 1.18617E-01
 -1     23667 1.23938E-01
 -1     23672 1.18617E-01
 -1     23673 1.18617E-01
 -1     23674 1.23938E-01
 -1     23679 1.18617E-01
 -1     23680 1.18617E-01
 -1     23681 1.23938E-01
 -1     23686 1.18617E-01
 -1     23687 1.18617E-01
 -1     23688 1.23938E-01
 -1     23693 1.18617E-01
 -1     23697 1.18617E-01
 -1     23698 1.18617E-01
 -1     23699 1.23938E-01
 -1     23704 1.18617E-01
 -1     23705 1.18617E-01
 -1     23706 1.23938E-01
 -1     23711 1.18617E-01
 -1     23712 1.18617E-01
 -1     23713 1.23938E-01
 -1     23718 1.18617E-01
 -1     23719 1.18617E-01
 -1     23720 1.23938E-01
 -1     23725 1.18617E-01
 -1     23726 1.18617E-01
 -1     23727 1.23938E-01
 -1     23732 1.18617E-01
 -1     23733 1.18617E-01
 -1     23734 1.23938E-01
 -1     23739 1.18617E-01
 -1     23740 1.18617E-01
 -1     23741 1.23938E-01
 -1     23746 1.18617E-01
 -1     23747 1.18617E-01
 -1     23748 1.23938E-01
 -1     23753 1.18617E-01
 -1     23754 1.18617E-01
 -1     23755 1.23938E-01
 -1     23760 1.18617E-01
 -1     23761 1.18617E-01
 -1     23762 1.23938E-01
 -1     23767 1.18617E-01
 -1     23771 1.18617E-01
 -1     23772 1.18617E-01
 -1     23773 1.23938E-01
 -1     23778 1.18617E-01
 -1     23779 1.18617E-01
 -1     23780 1.23938E-01
 -1     23785 1.18617E-01
 -1     23786 1.18617E-01
 -1     23787 1.23938E-01
 -1     23792 1.18617E-01
 -1     23793 1.18617E-01
 -1     23794 1.23938E-01
 -1     23799 1.18617E-01
 -1     23800 1.18617E-01
 -1     23801 1.23938E-01
 -1     23806 1.18617E-01
 -1     23807 1.18617E-01
 -1     23808 1.23938E-01
 -1     23813 1.18617E-01
 -1     23814 1.18617E-01
 -1     23815 1.23938E-01
 -1     23820 1.18617E-01
 -1     23821 1.18617E-01
 -1     23822 1.23938E-01
 -1     23827 1.18617E-01
 -1     23828 1.18617E-01
 -1     23829 1.23938E-01
 -1     23834 1.18617E-01
 -1     23835 1.18617E-01
 -1     23836 1.23938E-01
 -1     23841 1.18617E-01
 -1     23845 1.18617E-01
 -1     23846 1.18617E-01
 -1     23847 1.23938E-01
 -1     23852 1.18617E-01
 -1     23853 1.18617E-01
 -1     23854 1.23938E-01
 -1     23859 1.18617E-01
 -1     23860 1.18617E-01
 -1     23861 1.23938E-01
 -1     23866 1.18617E-01
 -1     23867 1.18617E-01
 -1     23868 1.23938E-01
 -1     23873 1.18617E-01
 -1     23874 1.18617E-01
 -1     23875 1.23938E-01
 -1     23880 1.18617E-01
 -1     23881 1.18617E-01
 -1     23882 1.23938E-01
 -1     23887 1.18617E-01
 -1     23888 1.18617E-01
 -1     23889 1.23938E-01
 -1     23894 1.18617E-01
 -1     23895 1.18617E-01
 -1     23896 1.23938E-01
 -1     23901 1.18617E-01
 -1     23902 1.18617E-01
 -1     23903 1.23938E-01
 -1     23908 1.18617E-01
 -1     23909 1.18617E-01
 -1     23910 1.23938E-01
 -1     23915 1.18617E-01
 -1     23919 1.18617E-01
 -1     23920 1.18617E-01
 -1     23921 1.23938E-01
 -1     23926 1.18617E-01
 -1     23927 1.18617E-01
 -1     23928 1.23938E-01
 -1     23933 1.18617E-01
 -1     23934 1.18617E-01
 -1     23935 1.23938E-01
 -1     23940 1.18617E-01
 -1     23941 1.18617E-01
 -1     23942 1.23938E-01
 -1     23947 1.18617E-01
 -1     23948 1.18617E-01
 -1     23949 1.23938E-01
 -1     23954 1.18617E-01
 -1     23955 1.18617E-01
 -1     23956 1.23938E-01
 -1     23961 1.18617E-01
 -1     23962 1.18617E-01
 -1     23963 1.23938E-01
 -1     23968 1.18617E-01
 -1     23969 1.18617E-01
 -1     23970 1.23938E-01
 -1     23975 1.18617E-01
 -1     23976 1.18617E-01
 -1     23977 1.23938E-01
 -1     23982 1.18617E-01
 -1     23983 1.18617E-01
 -1     23984 1.23938E-01
 -1     23989 1.18617E-01
 -1     23993 1.18617E-01
 -1     23994 1.18617E-01
 -1     23995 1.23938E-01
 -1     24000 1.18617E-01
 -1     24001 1.18617E-01
 -1     24002 1.23938E-01
 -1     24007 1.18617E-01
 -1     24008 1.18617E-01
 -1     24009 1.23938E-01
 -1     24014 1.18617E-01
 -1     24015 1.18617E-01
 -1     24016 1.23938E-01
 -1     24021 1.18617E-01
 -1     24022 1.18617E-01
 -1     24023 1.23938E-01
 -1     24028 1.18617E-01
 -1     24029 1.18617E-01
 -1     24030 1.23938E-01
 -1     24035 1.18617E-01
 -1     24036 1.18617E-01
 -1     24037 1.23938E-01
 -1     24042 1.18617E-01
 -1     24043 1.18617E-01
 -1     24044 1.23938E-01
 -1     24049 1.18617E-01
 -1     24050 1.18617E-01
 -1     24051 1.23938E-01
 -1     24056 1.18617E-01
 -1     24057 1.18617E-01
 -1     24058 1.23938E-01
 -1     24063 1.18617E-01
 -1     24067 1.18617E-01
 -1     24071 1.18617E-01
 -1     24075 1.18617E-01
 -1     24079 1.18617E-01
 -1     24083 1.18617E-01
 -1     24087 1.18617E-01
 -1     24091 1.18617E-01
 -1     24095 1.18617E-01
 -1     24099 1.18617E-01
 -1     24103 1.18617E-01
 -1     24109 1.09083E-01
 -1     24110 1.09083E-01
 -1     24111 1.13850E-01
 -1     24116 1.09083E-01
 -1     24117 1.09083E-01
 -1     24118 1.13850E-01
 -1     24123 1.09083E-01
 -1     24124 1.09083E-01
 -1     24125 1.13850E-01
 -1     24130 1.09083E-01
 -1     24131 1.09083E-01
 -1     24132 1.13850E-01
 -1     24137 1.09083E-01
 -1     24138 1.09083E-01
 -1     24139 1.13850E-01
 -1     24144 1.09083E-01
 -1     24145 1.09083E-01
 -1     24146 1.13850E-01
 -1     24151 1.09083E-01
 -1     24152 1.09083E-01
 -1     24153 1.13850E-01
 -1     24158 1.09083E-01
 -1     24159 1.09083E-01
 -1     24160 1.13850E-01
 -1     24165 1.09083E-01
 -1     24166 1.09083E-01
 -1     24167 1.13850E-01
 -1     24172 1.09083E-01
 -1     24173 1.09083E-01
 -1     24174 1.13850E-01
 -1     24179 1.09083E-01
 -1     24183 1.09083E-01
 -1     24184 1.09083E-01
 -1     24185 1.13850E-01
 -1     24190 1.09083E-01
 -1     24191 1.09083E-01
 -1     24192 1.13850E-01
 -1     24197 1.09083E-01
 -1     24198 1.09083E-01
 -1     24199 1.13850E-01
 -1     24204 1.09083E-01
 -1     24205 1.09083E-01
 -1     24206 1.13850E-01
 -1     24211 1.09083E-01
 -1     24212 1.09083E-01
 -1     24213 1.13850E-01
 -1     24218 1.09083E-01
 -1     24219 1.09083E-01
 -1     24220 1.13850E-01
 -1     24225 1.09083E-01
 -1     24226 1.09083E-01
 -1     24227 1.13850E-01
 -1     24232 1.09083E-01
 -1     24233 1.09083E-01
 -1     24234 1.13850E-01
 -1     24239 1.09083E-01
 -1     24240 1.09083E-01
 -1     24241 1.13850E-01
 -1     24246 1.09083E-01
 -1     24247 1.09083E-01
 -1     24248 1.13850E-01
 -1     24253 1.09083E-01
 -1     24257 1.09083E-01
 -1     24258 1.09083E-01
 -1     24259 1.13850E-01
 -1     24264 1.09083E-01
 -1     24265 1.09083E-01
 -1     24266 1.13850E-01
 -1     24271 1.09083E-01
 -1     24272 1.09083E-01
 -1     24273 1.13850E-01
 -1     24278 1.09083E-01
 -1     24279 1.09083E-01
 -1     24280 1.13850E-01
 -1     24285 1.09083E-01
 -1     24286 1.09083E-01
 -1     24287 1.13850E-01
 -1     24292 1.09083E-01
 -1     24293 1.09083E-01
 -1     24294 1.13850E-01
 -1     24299 1.09083E-01
 -1     24300 1.09083E-01
 -1     24301 1.13850E-01
 -1     24306 1.09083E-01
 -1     24307 1.09083E-01
 -1     24308 1.13850E-01
 -1     24313 1.09083E-01
 -1     24314 1.09083E-01
 -1     24315 1.13850E-01
 -1     24320 1.09083E-01
 -1     24321 1.09083E-01
 -1     24322 1.13850E-01
 -1     24327 1.09083E-01
 -1     24331 1.09083E-01
 -1     24332 1.09083E-01
 -1     24333 1.13850E-01
 -1     24338 1.09083E-01
 -1     24339 1.09083E-01
 -1     24340 1.13850E-01
 -1     24345 1.09083E-01
 -1     24346 1.09083E-01
 -1     24347 1.13850E-01
 -1     24352 1.09083E-01
 -1     24353 1.09083E-01
 -1     24354 1.13850E-01
 -1     24359 1.09083E-01
 -1     24360 1.09083E-01
 -1     24361 1.13850E-01
 -1     24366 1.09083E-01
 -1     24367 1.09083E-01
 -1     24368 1.13850E-01
 -1     24373 1.09083E-01
 -1     24374 1.09083E-01
 -1     24375 1.13850E-01
 -1     24380 1.09083E-01
 -1     24381 1.09083E-01
 -1     24382 1.13850E-01
 -1     24387 1.09083E-01
 -1     24388 1.09083E-01
 -1     24389 1.13850E-01
 -1     24394 1.09083E-01
 -1     24395 1.09083E-01
 -1     24396 1.13850E-01
 -1     24401 1.09083E-01
 -1     24405 1.09083E-01
 -1     24406 1.09083E-01
 -1     24407 1.13850E-01
 -1     24412 1.09083E-01
 -1     24413 1.09083E-01
 -1     24414 1.13850E-01
 -1     24419 1.09083E-01
 -1     24420 1.09083E-01
 -1     24421 1.13850E-01
 -1     24426 1.09083E-01
 -1     24427 1.09083E-01
 -1     24428 1.13850E-01
 -1     24433 1.09083E-01
 -1     24434 1.09083E-01
 -1     24435 1.13850E-01
 -1     24440 1.09083E-01
 -1     24441 1.09083E-01
 -1     24442 1.13850E-01
 -1     24447 1.09083E-01
 -1     24448 1.09083E-01
 -1     24449 1.13850E-01
 -1     24454 1.09083E-01
 -1     24455 1.09083E-01
 -1     24456 1.13850E-01
 -1     24461 1.09083E-01
 -1     24462 1.09083E-01
 -1     24463 1.13850E-01
 -1     24468 1.09083E-01
 -1     24469 1.09083E-01
 -1     24470 1.13850E-01
 -1     24475 1.09083E-01
 -1     24479 1.09083E-01
 -1     24480 1.09083E-01
 -1     24481 1.13850E-01
 -1     24486 1.09083E-01
 -1     24487 1.09083E-01
 -1     24488 1.13850E-01
 -1     24493 1.09083E-01
 -1     24494 1.09083E-01
 -1     24495 1.13850E-01
 -1     24500 1.09083E-01
 -1     24501 1.09083E-01
 -1     24502 1.13850E-01
 -1     24507 1.09083E-01
 -1     24508 1.09083E-01
 -1     24509 1.13850E-01
 -1     24514 1.09083E-01
 -1     24515 1.09083E-01
 -1     24516 1.13850E-01
 -1     24521 1.09083E-01
 -1     24522 1.09083E-01
 -1     24523 1.13850E-01
 -1     24528 1.09083E-01
 -1     24529 1.09083E-01
 -1     24530 1.13850E-01
 -1     24535 1.09083E-01
 -1     24536 1.09083E-01
 -1     24537 1.13850E-01
 -1     24542 1.09083E-01
 -1     24543 1.09083E-01
 -1     24544 1.13850E-01
 -1     24549 1.09083E-01
 -1     24553 1.09083E-01
 -1     24554 1.09083E-01
 -1     24555 1.13850E-01
 -1     24560 1.09083E-01
 -1     24561 1.09083E-01
 -1     24562 1.13850E-01
 -1     24567 1.09083E-01
 -1     24568 1.09083E-01
 -1     24569 1.13850E-01
 -1     24574 1.09083E-01
 -1     24575 1.09083E-01
 -1     24576 1.13850E-01
 -1     24581 1.09083E-01
 -1     24582 1.09083E-01
 -1     24583 1.13850E-01
 -1     24588 1.09083E-01
 -1     24589 1.09083E-01
 -1     24590 1.13850E-01
 -1     24595 1.09083E-01
 -1     24596 1.09083E-01
 -1     24597 1.13850E-01
 -1     24602 1.09083E-01
 -1     24603 1.09083E-01
 -1     24604 1.13850E-01
 -1     24609 1.09083E-01
 -1     24610 1.09083E-01
 -1     24611 1.13850E-01
 -1     24616 1.09083E-01
 -1     24617 1.09083E-01
 -1     24618 1.13850E-01
 -1     24623 1.09083E-01
 -1     24627 1.09083E-01
 -1     24628 1.09083E-01
 -1     24629 1.13850E-01
 -1     24634 1.09083E-01
 -1     24635 1.09083E-01
 -1     24636 1.13850E-01
 -1     24641 1.09083E-01
 -1     24642 1.09083E-01
 -1     24643 1.13850E-01
 -1     24648 1.09083E-01
 -1     24649 1.09083E-01
 -1     24650 1.13850E-01
 -1     24655 1.09083E-01
 -1     24656 1.09083E-01
 -1     24657 1.13850E-01
 -1     24662 1.09083E-01
 -1     24663 1.09083E-01
 -1     24664 1.13850E-01
 -1     24669 1.09083E-01
 -1     24670 1.09083E-01
 -1     24671 1.13850E-01
 -1     24676 1.09083E-01
 -1     24677 1.09083E-01
 -1     24678 1.13850E-01
 -1     24683 1.09083E-01
 -1     24684 1.09083E-01
 -1     24685 1.13850E-01
 -1     24690 1.09083E-01
 -1     24691 1.09083E-01
 -1     24692 1.13850E-01
 -1     24697 1.09083E-01
 -1     24701 1.09083E-01
 -1     24702 1.09083E-01
 -1     24703 1.13850E-01
 -1     24708 1.09083E-01
 -1     24709 1.09083E-01
 -1     24710 1.13850E-01
 -1     24715 1.09083E-01
 -1     24716 1.09083E-01
 -1     24717 1.13850E-01
 -1     24722 1.09083E-01
 -1     24723 1.09083E-01
 -1     24724 1.13850E-01
 -1     24729 1.09083E-01
 -1     24730 1.09083E-01
 -1     24731 1.13850E-01
 -1     24736 1.09083E-01
 -1     24737 1.09083E-01
 -1     24738 1.13850E-01
 -1     24743 1.09083E-01
 -1     24744 1.09083E-01
 -1     24745 1.13850E-01
 -1     24750 1.09083E-01
 -1     24751 1.09083E-01
 -1     24752 1.13850E-01
 -1     24757 1.09083E-01
 -1     24758 1.09083E-01
 -1     24759 1.13850E-01
 -1     24764 1.09083E-01
 -1     24765 1.09083E-01
 -1     24766 1.13850E-01
 -1     24771 1.09083E-01
 -1     24775 1.09083E-01
 -1     24779 1.09083E-01
 -1     24783 1.09083E-01
 -1     24787 1.09083E-01
 -1     24791 1.09083E-01
 -1     24795 1.09083E-01
 -1     24799 1.09083E-01
 -1     24803 1.09083E-01
 -1     24807 1.09083E-01
 -1     24811 1.09083E-01
 -1     24817 1.00521E-01
 -1     24818 1.00521E-01
 -1     24819 1.04802E-01
 -1     24824 1.00521E-01
 -1     24825 1.00521E-01
 -1     24826 1.04802E-01
 -1     24831 1.00521E-01
 -1     24832 1.00521E-01
 -1     24833 1.04802E-01
 -1     24838 1.00521E-01
 -1     24839 1.00521E-01
 -1     24840 1.04802E-01
 -1     24845 1.00521E-01
 -1     24846 1.00521E-01
 -1     24847 1.04802E-01
 -1     24852 1.00521E-01
 -1     24853 1.00521E-01
 -1     24854 1.04802E-01
 -1     24859 1.00521E-01
 -1     24860 1.00521E-01
 -1     24861 1.04802E-01
 -1     24866 1.00521E-01
 -1     24867 1.00521E-01
 -1     24868 1.04802E-01
 -1     24873 1.00521E-01
 -1     24874 1.00521E-01
 -1     24875 1.04802E-01
 -1     24880 1.00521E-01
 -1     24881 1.00521E-01
 -1     24882 1.04802E-01
 -1     24887 1.00521E-01
 -1     24891 1.00521E-01
 -1     24892 1.00521E-01
 -1     24893 1.04802E-01
 -1     24898 1.00521E-01
 -1     24899 1.00521E-01
 -1     24900 1.04802E-01
 -1     24905 1.00521E-01
 -1     24906 1.00521E-01
 -1     24907 1.04802E-01
 -1     24912 1.00521E-01
 -1     24913 1.00521E-01
 -1     24914 1.04802E-01
 -1     24919 1.00521E-01
 -1     24920 1.00521E-01
 -1     24921 1.04802E-01
 -1     24926 1.00521E-01
 -1     24927 1.00521E-01
 -1     24928 1.04802E-01
 -1     24933 1.00521E-01
 -1     24934 1.00521E-01
 -1     24935 1.04802E-01
 -1     24940 1.00521E-01
 -1     24941 1.00521E-01
 -1     24942 1.04802E-01
 -1     24947 1.00521E-01
 -1     24948 1.00521E-01
 -1     24949 1.04802E-01
 -1     24954 1.00521E-01
 -1     24955 1.00521E-01
 -1     24956 1.04802E-01
 -1     24961 1.00521E-01
 -1     24965 1.00521E-01
 -1     24966 1.00521E-01
 -1     24967 1.04802E-01
 -1     24972 1.00521E-01
 -1     24973 1.00521E-01
 -1     24974 1.04802E-01
 -1     24979 1.00521E-01
 -1     24980 1.00521E-01
 -1     24981 1.04802E-01
 -1     24986 1.00521E-01
 -1     24987 1.00521E-01
 -1     24988 1.04802E-01
 -1     24993 1.00521E-01
 -1     24994 1.00521E-01
 -1     24995 1.04802E-01
 -1     25000 1.00521E-01
 -1     25001 1.00521E-01
 -1     25002 1.04802E-01
 -1     25007 1.00521E-01
 -1     25008 1.00521E-01
 -1     25009 1.04802E-01
 -1     25014 1.00521E-01
 -1     25015 1.00521E-01
 -1     25016 1.04802E-01
 -1     25021 1.00521E-01
 -1     25022 1.00521E-01
 -1     25023 1.04802E-01
 -1     25028 1.00521E-01
 -1     25029 1.00521E-01
 -1     25030 1.04802E-01
 -1     25035 1.00521E-01
 -1     25039 1.00521E-01
 -1     25040 1.00521E-01
 -1     25041 1.04802E-01
 -1     25046 1.00521E-01
 -1     25047 1.00521E-01
 -1     25048 1.04802E-01
 -1     25053 1.00521E-01
 -1     25054 1.00521E-01
 -1     25055 1.04802E-01
 -1     25060 1.00521E-01
 -1     25061 1.00521E-01
 -1     25062 1.04802E-01
 -1     25067 1.00521E-01
 -1     25068 1.00521E-01
 -1     25069 1.04802E-01
 -1     25074 1.00521E-01
 -1     25075 1.00521E-01
 -1     25076 1.04802E-01
 -1     25081 1.00521E-01
 -1     25082 1.00521E-01
 -1     25083 1.04802E-01
 -1     25088 1.00521E-01
 -1     25089 1.00521E-01
 -1     25090 1.04802E-01
 -1     25095 1.00521E-01
 -1     25096 1.00521E-01
 -1     25097 1.04802E-01
 -1     25102 1.00521E-01
 -1     25103 1.00521E-01
 -1     25104 1.04802E-01
 -1     25109 1.00521E-01
 -1     25113 1.00521E-01
 -1     25114 1.00521E-01
 -1     25115 1.04802E-01
 -1     25120 1.00521E-01
 -1     25121 1.00521E-01
 -1     25122 1.04802E-01
 -1     25127 1.00521E-01
 -1     25128 1.00521E-01
 -1     25129 1.04802E-01
 -1     25134 1.00521E-01
 -1     25135 1.00521E-01
 -1     25136 1.04802E-01
 -1     25141 1.00521E-01
 -1     25142 1.00521E-01
 -1     25143 1.04802E-01
 -1     25148 1.00521E-01
 -1     25149 1.00521E-01
 -1     25150 1.04802E-01
 -1     25155 1.00521E-01
 -1     25156 1.00521E-01
 -1     25157 1.04802E-01
 -1     25162 1.00521E-01
 -1     25163 1.00521E-01
 -1     25164 1.04802E-01
 -1     25169 1.00521E-01
 -1     25170 1.00521E-01
 -1     25171 1.04802E-01
 -1     25176 1.00521E-01
 -1     25177 1.00521E-01
 -1     25178 1.04802E-01
 -1     25183 1.00521E-01
 -1     25187 1.00521E-01
 -1     25188 1.00521E-01
 -1     25189 1.04802E-01
 -1     25194 1.00521E-01
 -1     25195 1.00521E-01
 -1     25196 1.04802E-01
 -1     25201 1.00521E-01
 -1     25202 1.00521E-01
 -1     25203 1.04802E-01
 -1     25208 1.00521E-01
 -1     25209 1.00521E-01
 -1     25210 1.04802E-01
 -1     25215 1.00521E-01
 -1     25216 1.00521E-01
 -1     25217 1.04802E-01
 -1     25222 1.00521E-01
 -1     25223 1.00521E-01
 -1     25224 1.04802E-01
 -1     25229 1.00521E-01
 -1     25230 1.00521E-01
 -1     25231 1.04802E-01
 -1     25236 1.00521E-01
 -1     25237 1.00521E-01
 -1     25238 1.04802E-01
 -1     25243 1.00521E-01
 -1     25244 1.00521E-01
 -1     25245 1.04802E-01
 -1     25250 1.00521E-01
 -1     25251 1.00521E-01
 -1     25252 1.04802E-01
 -1     25257 1.00521E-01
 -1     25261 1.00521E-01
 -1     25262 1.00521E-01
 -1     25263 1.04802E-01
 -1     25268 1.00521E-01
 -1     25269 1.00521E-01
 -1     25270 1.04802E-01
 -1     25275 1.00521E-01
 -1     25276 1.00521E-01
 -1     25277 1.04802E-01
 -1     25282 1.00521E-01
 -1     25283 1.00521E-01
 -1     25284 1.04802E-01
 -1     25289 1.00521E-01
 -1     25290 1.00521E-01
 -1     25291 1.04802E-01
 -1     25296 1.00521E-01
 -1     25297 1.00521E-01
 -1     25298 1.04802E-01
 -1     25303 1.00521E-01
 -1     25304 1.00521E-01
 -1     25305 1.04802E-01
 -1     25310 1.00521E-01
 -1     25311 1.00521E-01
 -1     25312 1.04802E-01
 -1     25317 1.00521E-01
 -1     25318 1.00521E-01
 -1     25319 1.04802E-01
 -1     25324 1.00521E-01
 -1     25325 1.00521E-01
 -1     25326 1.04802E-01
 -1     25331 1.00521E-01
 -1     25335 1.00521E-01
 -1     25336 1.00521E-01
 -1     25337 1.04802E-01
 -1     25342 1.00521E-01
 -1     25343 1.00521E-01
 -1     25344 1.04802E-01
 -1     25349 1.00521E-01
 -1     25350 1.00521E-01
 -1     25351 1.04802E-01
 -1     25356 1.00521E-01
 -1     25357 1.00521E-01
 -1     25358 1.04802E-01
 -1     25363 1.00521E-01
 -1     25364 1.00521E-01
 -1     25365 1.04802E-01
 -1     25370 1.00521E-01
 -1     25371 1.00521E-01
 -1     25372 1.04802E-01
 -1     25377 1.00521E-01
 -1     25378 1.00521E-01
 -1     25379 1.04802E-01
 -1     25384 1.00521E-01
 -1     25385 1.00521E-01
 -1     25386 1.04802E-01
 -1     25391 1.00521E-01
 -1     25392 1.00521E-01
 -1     25393 1.04802E-01
 -1     25398 1.00521E-01
 -1     25399 1.00521E-01
 -1     25400 1.04802E-01
 -1     25405 1.00521E-01
 -1     25409 1.00521E-01
 -1     25410 1.00521E-01
 -1     25411 1.04802E-01
 -1     25416 1.00521E-01
 -1     25417 1.00521E-01
 -1     25418 1.04802E-01
 -1     25423 1.00521E-01
 -1     25424 1.00521E-01
 -1     25425 1.04802E-01
 -1     25430 1.00521E-01
 -1     25431 1.00521E-01
 -1     25432 1.04802E-01
 -1     25437 1.00521E-01
 -1     25438 1.00521E-01
 -1     25439 1.04802E-01
 -1     25444 1.00521E-01
 -1     25445 1.00521E-01
 -1     25446 1.04802E-01
 -1     25451 1.00521E-01
 -1     25452 1.00521E-01
 -1     25453 1.04802E-01
 -1     25458 1.00521E-01
 -1     25459 1.00521E-01
 -1     25460 1.04802E-01
 -1     25465 1.00521E-01
 -1     25466 1.00521E-01
 -1     25467 1.04802E-01
 -1     25472 1.00521E-01
 -1     25473 1.00521E-01
 -1     25474 1.04802E-01
 -1     25479 1.00521E-01
 -1     25483 1.00521E-01
 -1     25487 1.00521E-01
 -1     25491 1.00521E-01
 -1     25495 1.00521E-01
 -1     25499 1.00521E-01
 -1     25503 1.00521E-01
 -1     25507 1.00521E-01
 -1     25511 1.00521E-01
 -1     25515 1.00521E-01
 -1     25519 1.00521E-01
 -1     25525 9.28113E-02
 -1     25526 9.28113E-02
 -1     25527 9.66660E-02
 -1     25532 9.28113E-02
 -1     25533 9.28113E-02
 -1     25534 9.66660E-02
 -1     25539 9.28112E-02
 -1     25540 9.28112E-02
 -1     25541 9.66659E-02
 -1     25546 9.28112E-02
 -1     25547 9.28112E-02
 -1     25548 9.66659E-02
 -1     25553 9.28112E-02
 -1     25554 9.28112E-02
 -1     25555 9.66659E-02
 -1     25560 9.28112E-02
 -1     25561 9.28112E-02
 -1     25562 9.66659E-02
 -1     25567 9.28112E-02
 -1     25568 9.28112E-02
 -1     25569 9.66659E-02
 -1     25574 9.28112E-02
 -1     25575 9.28112E-02
 -1     25576 9.66659E-02
 -1     25581 9.28112E-02
 -1     25582 9.28113E-02
 -1     25583 9.66660E-02
 -1     25588 9.28113E-02
 -1     25589 9.28113E-02
 -1     25590 9.66660E-02
 -1     25595 9.28113E-02
 -1     25599 9.28113E-02
 -1     25600 9.28113E-02
 -1     25601 9.66660E-02
 -1     25606 9.28113E-02
 -1     25607 9.28113E-02
 -1     25608 9.66660E-02
 -1     25613 9.28113E-02
 -1     25614 9.28112E-02
 -1     25615 9.66659E-02
 -1     25620 9.28112E-02
 -1     25621 9.28112E-02
 -1     25622 9.66659E-02
 -1     25627 9.28112E-02
 -1     25628 9.28112E-02
 -1     25629 9.66659E-02
 -1     25634 9.28112E-02
 -1     25635 9.28112E-02
 -1     25636 9.66659E-02
 -1     25641 9.28112E-02
 -1     25642 9.28112E-02
 -1     25643 9.66659E-02
 -1     25648 9.28112E-02
 -1     25649 9.28112E-02
 -1     25650 9.66659E-02
 -1     25655 9.28113E-02
 -1     25656 9.28113E-02
 -1     25657 9.66660E-02
 -1     25662 9.28113E-02
 -1     25663 9.28113E-02
 -1     25664 9.66660E-02
 -1     25669 9.28113E-02
 -1     25673 9.28113E-02
 -1     25674 9.28113E-02
 -1     25675 9.66660E-02
 -1     25680 9.28113E-02
 -1     25681 9.28113E-02
 -1     25682 9.66660E-02
 -1     25687 9.28113E-02
 -1     25688 9.28112E-02
 -1     25689 9.66659E-02
 -1     25694 9.28112E-02
 -1     25695 9.28112E-02
 -1     25696 9.66659E-02
 -1     25701 9.28112E-02
 -1     25702 9.28112E-02
 -1     25703 9.66659E-02
 -1     25708 9.28112E-02
 -1     25709 9.28112E-02
 -1     25710 9.66659E-02
 -1     25715 9.28112E-02
 -1     25716 9.28112E-02
 -1     25717 9.66659E-02
 -1     25722 9.28112E-02
 -1     25723 9.28112E-02
 -1     25724 9.66659E-02
 -1     25729 9.28113E-02
 -1     25730 9.28113E-02
 -1     25731 9.66660E-02
 -1     25736 9.28113E-02
 -1     25737 9.28113E-02
 -1     25738 9.66660E-02
 -1     25743 9.28113E-02
 -1     25747 9.28114E-02
 -1     25748 9.28114E-02
 -1     25749 9.66661E-02
 -1     25754 9.28114E-02
 -1     25755 9.28114E-02
 -1     25756 9.66661E-02
 -1     25761 9.28113E-02
 -1     25762 9.28112E-02
 -1     25763 9.66660E-02
 -1     25768 9.28113E-02
 -1     25769 9.28112E-02
 -1     25770 9.66660E-02
 -1     25775 9.28113E-02
 -1     25776 9.28112E-02
 -1     25777 9.66660E-02
 -1     25782 9.28113E-02
 -1     25783 9.28112E-02
 -1     25784 9.66660E-02
 -1     25789 9.28113E-02
 -1     25790 9.28112E-02
 -1     25791 9.66660E-02
 -1     25796 9.28113E-02
 -1     25797 9.28112E-02
 -1     25798 9.66660E-02
 -1     25803 9.28113E-02
 -1     25804 9.28114E-02
 -1     25805 9.66661E-02
 -1     25810 9.28114E-02
 -1     25811 9.28114E-02
 -1     25812 9.66661E-02
 -1     25817 9.28114E-02
 -1     25821 9.28114E-02
 -1     25822 9.28114E-02
 -1     25823 9.66661E-02
 -1     25828 9.28114E-02
 -1     25829 9.28114E-02
 -1     25830 9.66661E-02
 -1     25835 9.28113E-02
 -1     25836 9.28113E-02
 -1     25837 9.66660E-02
 -1     25842 9.28113E-02
 -1     25843 9.28113E-02
 -1     25844 9.66660E-02
 -1     25849 9.28113E-02
 -1     25850 9.28113E-02
 -1     25851 9.66660E-02
 -1     25856 9.28113E-02
 -1     25857 9.28113E-02
 -1     25858 9.66660E-02
 -1     25863 9.28113E-02
 -1     25864 9.28113E-02
 -1     25865 9.66660E-02
 -1     25870 9.28113E-02
 -1     25871 9.28113E-02
 -1     25872 9.66660E-02
 -1     25877 9.28113E-02
 -1     25878 9.28114E-02
 -1     25879 9.66661E-02
 -1     25884 9.28114E-02
 -1     25885 9.28114E-02
 -1     25886 9.66661E-02
 -1     25891 9.28114E-02
 -1     25895 9.28113E-02
 -1     25896 9.28114E-02
 -1     25897 9.66660E-02
 -1     25902 9.28113E-02
 -1     25903 9.28114E-02
 -1     25904 9.66660E-02
 -1     25909 9.28113E-02
 -1     25910 9.28112E-02
 -1     25911 9.66659E-02
 -1     25916 9.28112E-02
 -1     25917 9.28112E-02
 -1     25918 9.66659E-02
 -1     25923 9.28112E-02
 -1     25924 9.28112E-02
 -1     25925 9.66659E-02
 -1     25930 9.28112E-02
 -1     25931 9.28112E-02
 -1     25932 9.66659E-02
 -1     25937 9.28112E-02
 -1     25938 9.28112E-02
 -1     25939 9.66659E-02
 -1     25944 9.28112E-02
 -1     25945 9.28112E-02
 -1     25946 9.66659E-02
 -1     25951 9.28113E-02
 -1     25952 9.28114E-02
 -1     25953 9.66660E-02
 -1     25958 9.28113E-02
 -1     25959 9.28114E-02
 -1     25960 9.66660E-02
 -1     25965 9.28113E-02
 -1     25969 9.28114E-02
 -1     25970 9.28113E-02
 -1     25971 9.66660E-02
 -1     25976 9.28114E-02
 -1     25977 9.28113E-02
 -1     25978 9.66660E-02
 -1     25983 9.28113E-02
 -1     25984 9.28112E-02
 -1     25985 9.66660E-02
 -1     25990 9.28112E-02
 -1     25991 9.28112E-02
 -1     25992 9.66660E-02
 -1     25997 9.28112E-02
 -1     25998 9.28112E-02
 -1     25999 9.66660E-02
 -1     26004 9.28112E-02
 -1     26005 9.28112E-02
 -1     26006 9.66660E-02
 -1     26011 9.28112E-02
 -1     26012 9.28112E-02
 -1     26013 9.66660E-02
 -1     26018 9.28112E-02
 -1     26019 9.28112E-02
 -1     26020 9.66660E-02
 -1     26025 9.28113E-02
 -1     26026 9.28113E-02
 -1     26027 9.66660E-02
 -1     26032 9.28114E-02
 -1     26033 9.28113E-02
 -1     26034 9.66660E-02
 -1     26039 9.28114E-02
 -1     26043 9.28115E-02
 -1     26044 9.28114E-02
 -1     26045 9.66661E-02
 -1     26050 9.28115E-02
 -1     26051 9.28114E-02
 -1     26052 9.66661E-02
 -1     26057 9.28114E-02
 -1     26058 9.28113E-02
 -1     26059 9.66660E-02
 -1     26064 9.28113E-02
 -1     26065 9.28113E-02
 -1     26066 9.66660E-02
 -1     26071 9.28113E-02
 -1     26072 9.28113E-02
 -1     26073 9.66660E-02
 -1     26078 9.28113E-02
 -1     26079 9.28113E-02
 -1     26080 9.66660E-02
 -1     26085 9.28113E-02
 -1     26086 9.28113E-02
 -1     26087 9.66660E-02
 -1     26092 9.28113E-02
 -1     26093 9.28113E-02
 -1     26094 9.66660E-02
 -1     26099 9.28114E-02
 -1     26100 9.28114E-02
 -1     26101 9.66661E-02
 -1     26106 9.28115E-02
 -1     26107 9.28114E-02
 -1     26108 9.66661E-02
 -1     26113 9.28115E-02
 -1     26117 9.28115E-02
 -1     26118 9.28115E-02
 -1     26119 9.66661E-02
 -1     26124 9.28115E-02
 -1     26125 9.28115E-02
 -1     26126 9.66661E-02
 -1     26131 9.28114E-02
 -1     26132 9.28113E-02
 -1     26133 9.66660E-02
 -1     26138 9.28113E-02
 -1     26139 9.28113E-02
 -1     26140 9.66660E-02
 -1     26145 9.28113E-02
 -1     26146 9.28113E-02
 -1     26147 9.66660E-02
 -1     26152 9.28113E-02
 -1     26153 9.28113E-02
 -1     26154 9.66660E-02
 -1     26159 9.28113E-02
 -1     26160 9.28113E-02
 -1     26161 9.66660E-02
 -1     26166 9.28113E-02
 -1     26167 9.28113E-02
 -1     26168 9.66660E-02
 -1     26173 9.28114E-02
 -1     26174 9.28115E-02
 -1     26175 9.66661E-02
 -1     26180 9.28115E-02
 -1     26181 9.28115E-02
 -1     26182 9.66661E-02
 -1     26187 9.28115E-02
 -1     26191 9.28114E-02
 -1     26195 9.28114E-02
 -1     26199 9.28112E-02
 -1     26203 9.28112E-02
 -1     26207 9.28112E-02
 -1     26211 9.28112E-02
 -1     26215 9.28112E-02
 -1     26219 9.28112E-02
 -1     26223 9.28114E-02
 -1     26227 9.28114E-02
 -1     26233 8.58560E-02
 -1     26234 8.58562E-02
 -1     26235 8.93338E-02
 -1     26240 8.58562E-02
 -1     26241 8.58562E-02
 -1     26242 8.93338E-02
 -1     26247 8.58561E-02
 -1     26248 8.58561E-02
 -1     26249 8.93336E-02
 -1     26254 8.58561E-02
 -1     26255 8.58561E-02
 -1     26256 8.93336E-02
 -1     26261 8.58560E-02
 -1     26262 8.58560E-02
 -1     26263 8.93336E-02
 -1     26268 8.58560E-02
 -1     26269 8.58560E-02
 -1     26270 8.93336E-02
 -1     26275 8.58560E-02
 -1     26276 8.58561E-02
 -1     26277 8.93336E-02
 -1     26282 8.58561E-02
 -1     26283 8.58561E-02
 -1     26284 8.93336E-02
 -1     26289 8.58561E-02
 -1     26290 8.58562E-02
 -1     26291 8.93338E-02
 -1     26296 8.58562E-02
 -1     26297 8.58562E-02
 -1     26298 8.93338E-02
 -1     26303 8.58560E-02
 -1     26307 8.58560E-02
 -1     26308 8.58562E-02
 -1     26309 8.93338E-02
 -1     26314 8.58563E-02
 -1     26315 8.58562E-02
 -1     26316 8.93338E-02
 -1     26321 8.58562E-02
 -1     26322 8.58561E-02
 -1     26323 8.93336E-02
 -1     26328 8.58561E-02
 -1     26329 8.58561E-02
 -1     26330 8.93336E-02
 -1     26335 8.58561E-02
 -1     26336 8.58560E-02
 -1     26337 8.93336E-02
 -1     26342 8.58560E-02
 -1     26343 8.58560E-02
 -1     26344 8.93336E-02
 -1     26349 8.58561E-02
 -1     26350 8.58561E-02
 -1     26351 8.93336E-02
 -1     26356 8.58561E-02
 -1     26357 8.58561E-02
 -1     26358 8.93336E-02
 -1     26363 8.58562E-02
 -1     26364 8.58562E-02
 -1     26365 8.93338E-02
 -1     26370 8.58563E-02
 -1     26371 8.58562E-02
 -1     26372 8.93338E-02
 -1     26377 8.58560E-02
 -1     26381 8.58560E-02
 -1     26382 8.58563E-02
 -1     26383 8.93338E-02
 -1     26388 8.58563E-02
 -1     26389 8.58563E-02
 -1     26390 8.93338E-02
 -1     26395 8.58562E-02
 -1     26396 8.58561E-02
 -1     26397 8.93336E-02
 -1     26402 8.58561E-02
 -1     26403 8.58561E-02
 -1     26404 8.93336E-02
 -1     26409 8.58561E-02
 -1     26410 8.58560E-02
 -1     26411 8.93336E-02
 -1     26416 8.58560E-02
 -1     26417 8.58560E-02
 -1     26418 8.93336E-02
 -1     26423 8.58561E-02
 -1     26424 8.58561E-02
 -1     26425 8.93336E-02
 -1     26430 8.58561E-02
 -1     26431 8.58561E-02
 -1     26432 8.93336E-02
 -1     26437 8.58562E-02
 -1     26438 8.58563E-02
 -1     26439 8.93338E-02
 -1     26444 8.58563E-02
 -1     26445 8.58563E-02
 -1     26446 8.93338E-02
 -1     26451 8.58560E-02
 -1     26455 8.58561E-02
 -1     26456 8.58563E-02
 -1     26457 8.93339E-02
 -1     26462 8.58564E-02
 -1     26463 8.58563E-02
 -1     26464 8.93339E-02
 -1     26469 8.58563E-02
 -1     26470 8.58561E-02
 -1     26471 8.93337E-02
 -1     26476 8.58562E-02
 -1     26477 8.58561E-02
 -1     26478 8.93337E-02
 -1     26483 8.58562E-02
 -1     26484 8.58561E-02
 -1     26485 8.93337E-02
 -1     26490 8.58561E-02
 -1     26491 8.58561E-02
 -1     26492 8.93337E-02
 -1     26497 8.58562E-02
 -1     26498 8.58561E-02
 -1     26499 8.93337E-02
 -1     26504 8.58562E-02
 -1     26505 8.58561E-02
 -1     26506 8.93337E-02
 -1     26511 8.58563E-02
 -1     26512 8.58563E-02
 -1     26513 8.93339E-02
 -1     26518 8.58564E-02
 -1     26519 8.58563E-02
 -1     26520 8.93339E-02
 -1     26525 8.58561E-02
 -1     26529 8.58561E-02
 -1     26530 8.58564E-02
 -1     26531 8.93339E-02
 -1     26536 8.58564E-02
 -1     26537 8.58564E-02
 -1     26538 8.93339E-02
 -1     26543 8.58563E-02
 -1     26544 8.58562E-02
 -1     26545 8.93337E-02
 -1     26550 8.58562E-02
 -1     26551 8.58562E-02
 -1     26552 8.93337E-02
 -1     26557 8.58562E-02
 -1     26558 8.58561E-02
 -1     26559 8.93337E-02
 -1     26564 8.58561E-02
 -1     26565 8.58561E-02
 -1     26566 8.93337E-02
 -1     26571 8.58562E-02
 -1     26572 8.58562E-02
 -1     26573 8.93337E-02
 -1     26578 8.58562E-02
 -1     26579 8.58562E-02
 -1     26580 8.93337E-02
 -1     26585 8.58563E-02
 -1     26586 8.58564E-02
 -1     26587 8.93339E-02
 -1     26592 8.58564E-02
 -1     26593 8.58564E-02
 -1     26594 8.93339E-02
 -1     26599 8.58561E-02
 -1     26603 8.58560E-02
 -1     26604 8.58563E-02
 -1     26605 8.93338E-02
 -1     26610 8.58562E-02
 -1     26611 8.58563E-02
 -1     26612 8.93338E-02
 -1     26617 8.58561E-02
 -1     26618 8.58561E-02
 -1     26619 8.93336E-02
 -1     26624 8.58560E-02
 -1     26625 8.58561E-02
 -1     26626 8.93336E-02
 -1     26631 8.58560E-02
 -1     26632 8.58561E-02
 -1     26633 8.93336E-02
 -1     26638 8.58560E-02
 -1     26639 8.58561E-02
 -1     26640 8.93336E-02
 -1     26645 8.58560E-02
 -1     26646 8.58561E-02
 -1     26647 8.93336E-02
 -1     26652 8.58560E-02
 -1     26653 8.58561E-02
 -1     26654 8.93336E-02
 -1     26659 8.58561E-02
 -1     26660 8.58563E-02
 -1     26661 8.93338E-02
 -1     26666 8.58562E-02
 -1     26667 8.58563E-02
 -1     26668 8.93338E-02
 -1     26673 8.58560E-02
 -1     26677 8.58561E-02
 -1     26678 8.58563E-02
 -1     26679 8.93338E-02
 -1     26684 8.58563E-02
 -1     26685 8.58563E-02
 -1     26686 8.93338E-02
 -1     26691 8.58562E-02
 -1     26692 8.58561E-02
 -1     26693 8.93337E-02
 -1     26698 8.58561E-02
 -1     26699 8.58561E-02
 -1     26700 8.93337E-02
 -1     26705 8.58561E-02
 -1     26706 8.58561E-02
 -1     26707 8.93337E-02
 -1     26712 8.58561E-02
 -1     26713 8.58561E-02
 -1     26714 8.93337E-02
 -1     26719 8.58561E-02
 -1     26720 8.58561E-02
 -1     26721 8.93337E-02
 -1     26726 8.58561E-02
 -1     26727 8.58561E-02
 -1     26728 8.93337E-02
 -1     26733 8.58562E-02
 -1     26734 8.58563E-02
 -1     26735 8.93338E-02
 -1     26740 8.58563E-02
 -1     26741 8.58563E-02
 -1     26742 8.93338E-02
 -1     26747 8.58561E-02
 -1     26751 8.58562E-02
 -1     26752 8.58564E-02
 -1     26753 8.93340E-02
 -1     26758 8.58565E-02
 -1     26759 8.58564E-02
 -1     26760 8.93340E-02
 -1     26765 8.58564E-02
 -1     26766 8.58562E-02
 -1     26767 8.93338E-02
 -1     26772 8.58563E-02
 -1     26773 8.58562E-02
 -1     26774 8.93338E-02
 -1     26779 8.58563E-02
 -1     26780 8.58562E-02
 -1     26781 8.93338E-02
 -1     26786 8.58563E-02
 -1     26787 8.58562E-02
 -1     26788 8.93338E-02
 -1     26793 8.58563E-02
 -1     26794 8.58562E-02
 -1     26795 8.93338E-02
 -1     26800 8.58563E-02
 -1     26801 8.58562E-02
 -1     26802 8.93338E-02
 -1     26807 8.58564E-02
 -1     26808 8.58564E-02
 -1     26809 8.93340E-02
 -1     26814 8.58565E-02
 -1     26815 8.58564E-02
 -1     26816 8.93340E-02
 -1     26821 8.58562E-02
 -1     26825 8.58562E-02
 -1     26826 8.58565E-02
 -1     26827 8.93340E-02
 -1     26832 8.58565E-02
 -1     26833 8.58565E-02
 -1     26834 8.93340E-02
 -1     26839 8.58564E-02
 -1     26840 8.58563E-02
 -1     26841 8.93338E-02
 -1     26846 8.58563E-02
 -1     26847 8.58563E-02
 -1     26848 8.93338E-02
 -1     26853 8.58563E-02
 -1     26854 8.58563E-02
 -1     26855 8.93338E-02
 -1     26860 8.58563E-02
 -1     26861 8.58563E-02
 -1     26862 8.93338E-02
 -1     26867 8.58563E-02
 -1     26868 8.58563E-02
 -1     26869 8.93338E-02
 -1     26874 8.58563E-02
 -1     26875 8.58563E-02
 -1     26876 8.93338E-02
 -1     26881 8.58564E-02
 -1     26882 8.58565E-02
 -1     26883 8.93340E-02
 -1     26888 8.58565E-02
 -1     26889 8.58565E-02
 -1     26890 8.93340E-02
 -1     26895 8.58562E-02
 -1     26899 8.58563E-02
 -1     26903 8.58563E-02
 -1     26907 8.58562E-02
 -1     26911 8.58562E-02
 -1     26915 8.58561E-02
 -1     26919 8.58561E-02
 -1     26923 8.58562E-02
 -1     26927 8.58562E-02
 -1     26931 8.58563E-02
 -1     26935 8.58563E-02
 -1     26941 7.95587E-02
 -1     26942 7.95587E-02
 -1     26943 8.27075E-02
 -1     26948 7.95581E-02
 -1     26949 7.95575E-02
 -1     26950 8.27069E-02
 -1     26955 7.95571E-02
 -1     26956 7.95567E-02
 -1     26957 8.27064E-02
 -1     26962 7.95567E-02
 -1     26963 7.95566E-02
 -1     26964 8.27063E-02
 -1     26969 7.95566E-02
 -1     26970 7.95566E-02
 -1     26971 8.27063E-02
 -1     26976 7.95566E-02
 -1     26977 7.95566E-02
 -1     26978 8.27063E-02
 -1     26983 7.95566E-02
 -1     26984 7.95566E-02
 -1     26985 8.27063E-02
 -1     26990 7.95567E-02
 -1     26991 7.95567E-02
 -1     26992 8.27064E-02
 -1     26997 7.95571E-02
 -1     26998 7.95575E-02
 -1     26999 8.27069E-02
 -1     27004 7.95581E-02
 -1     27005 7.95587E-02
 -1     27006 8.27075E-02
 -1     27011 7.95587E-02
 -1     27015 7.95587E-02
 -1     27016 7.95587E-02
 -1     27017 8.27075E-02
 -1     27022 7.95581E-02
 -1     27023 7.95575E-02
 -1     27024 8.27069E-02
 -1     27029 7.95571E-02
 -1     27030 7.95567E-02
 -1     27031 8.27064E-02
 -1     27036 7.95567E-02
 -1     27037 7.95566E-02
 -1     27038 8.27063E-02
 -1     27043 7.95566E-02
 -1     27044 7.95566E-02
 -1     27045 8.27063E-02
 -1     27050 7.95566E-02
 -1     27051 7.95566E-02
 -1     27052 8.27063E-02
 -1     27057 7.95566E-02
 -1     27058 7.95566E-02
 -1     27059 8.27063E-02
 -1     27064 7.95567E-02
 -1     27065 7.95567E-02
 -1     27066 8.27064E-02
 -1     27071 7.95571E-02
 -1     27072 7.95575E-02
 -1     27073 8.27069E-02
 -1     27078 7.95581E-02
 -1     27079 7.95587E-02
 -1     27080 8.27075E-02
 -1     27085 7.95587E-02
 -1     27089 7.95587E-02
 -1     27090 7.95587E-02
 -1     27091 8.27075E-02
 -1     27096 7.95581E-02
 -1     27097 7.95575E-02
 -1     27098 8.27069E-02
 -1     27103 7.95571E-02
 -1     27104 7.95567E-02
 -1     27105 8.27064E-02
 -1     27110 7.95567E-02
 -1     27111 7.95566E-02
 -1     27112 8.27064E-02
 -1     27117 7.95567E-02
 -1     27118 7.95566E-02
 -1     27119 8.27064E-02
 -1     27124 7.95567E-02
 -1     27125 7.95566E-02
 -1     27126 8.27064E-02
 -1     27131 7.95567E-02
 -1     27132 7.95566E-02
 -1     27133 8.27064E-02
 -1     27138 7.95567E-02
 -1     27139 7.95567E-02
 -1     27140 8.27064E-02
 -1     27145 7.95571E-02
 -1     27146 7.95575E-02
 -1     27147 8.27069E-02
 -1     27152 7.95581E-02
 -1     27153 7.95587E-02
 -1     27154 8.27075E-02
 -1     27159 7.95587E-02
 -1     27163 7.95588E-02
 -1     27164 7.95587E-02
 -1     27165 8.27076E-02
 -1     27170 7.95583E-02
 -1     27171 7.95576E-02
 -1     27172 8.27071E-02
 -1     27177 7.95573E-02
 -1     27178 7.95568E-02
 -1     27179 8.27065E-02
 -1     27184 7.95568E-02
 -1     27185 7.95567E-02
 -1     27186 8.27064E-02
 -1     27191 7.95567E-02
 -1     27192 7.95567E-02
 -1     27193 8.27064E-02
 -1     27198 7.95567E-02
 -1     27199 7.95567E-02
 -1     27200 8.27064E-02
 -1     27205 7.95567E-02
 -1     27206 7.95567E-02
 -1     27207 8.27064E-02
 -1     27212 7.95568E-02
 -1     27213 7.95568E-02
 -1     27214 8.27065E-02
 -1     27219 7.95573E-02
 -1     27220 7.95576E-02
 -1     27221 8.27071E-02
 -1     27226 7.95583E-02
 -1     27227 7.95587E-02
 -1     27228 8.27076E-02
 -1     27233 7.95588E-02
 -1     27237 7.95588E-02
 -1     27238 7.95588E-02
 -1     27239 8.27076E-02
 -1     27244 7.95583E-02
 -1     27245 7.95577E-02
 -1     27246 8.27071E-02
 -1     27251 7.95573E-02
 -1     27252 7.95568E-02
 -1     27253 8.27065E-02
 -1     27258 7.95568E-02
 -1     27259 7.95567E-02
 -1     27260 8.27065E-02
 -1     27265 7.95568E-02
 -1     27266 7.95567E-02
 -1     27267 8.27065E-02
 -1     27272 7.95568E-02
 -1     27273 7.95567E-02
 -1     27274 8.27065E-02
 -1     27279 7.95568E-02
 -1     27280 7.95567E-02
 -1     27281 8.27065E-02
 -1     27286 7.95568E-02
 -1     27287 7.95568E-02
 -1     27288 8.27065E-02
 -1     27293 7.95573E-02
 -1     27294 7.95577E-02
 -1     27295 8.27071E-02
 -1     27300 7.95583E-02
 -1     27301 7.95588E-02
 -1     27302 8.27076E-02
 -1     27307 7.95588E-02
 -1     27311 7.95588E-02
 -1     27312 7.95588E-02
 -1     27313 8.27075E-02
 -1     27318 7.95581E-02
 -1     27319 7.95576E-02
 -1     27320 8.27068E-02
 -1     27325 7.95571E-02
 -1     27326 7.95568E-02
 -1     27327 8.27064E-02
 -1     27332 7.95568E-02
 -1     27333 7.95568E-02
 -1     27334 8.27064E-02
 -1     27339 7.95568E-02
 -1     27340 7.95568E-02
 -1     27341 8.27064E-02
 -1     27346 7.95568E-02
 -1     27347 7.95568E-02
 -1     27348 8.27064E-02
 -1     27353 7.95568E-02
 -1     27354 7.95568E-02
 -1     27355 8.27064E-02
 -1     27360 7.95568E-02
 -1     27361 7.95568E-02
 -1     27362 8.27064E-02
 -1     27367 7.95571E-02
 -1     27368 7.95576E-02
 -1     27369 8.27068E-02
 -1     27374 7.95581E-02
 -1     27375 7.95588E-02
 -1     27376 8.27075E-02
 -1     27381 7.95588E-02
 -1     27385 7.95589E-02
 -1     27386 7.95588E-02
 -1     27387 8.27076E-02
 -1     27392 7.95584E-02
 -1     27393 7.95576E-02
 -1     27394 8.27071E-02
 -1     27399 7.95574E-02
 -1     27400 7.95569E-02
 -1     27401 8.27065E-02
 -1     27406 7.95569E-02
 -1     27407 7.95568E-02
 -1     27408 8.27065E-02
 -1     27413 7.95569E-02
 -1     27414 7.95568E-02
 -1     27415 8.27065E-02
 -1     27420 7.95569E-02
 -1     27421 7.95568E-02
 -1     27422 8.27065E-02
 -1     27427 7.95569E-02
 -1     27428 7.95568E-02
 -1     27429 8.27065E-02
 -1     27434 7.95569E-02
 -1     27435 7.95569E-02
 -1     27436 8.27065E-02
 -1     27441 7.95574E-02
 -1     27442 7.95576E-02
 -1     27443 8.27071E-02
 -1     27448 7.95584E-02
 -1     27449 7.95588E-02
 -1     27450 8.27076E-02
 -1     27455 7.95589E-02
 -1     27459 7.95590E-02
 -1     27460 7.95590E-02
 -1     27461 8.27078E-02
 -1     27466 7.95585E-02
 -1     27467 7.95579E-02
 -1     27468 8.27072E-02
 -1     27473 7.95575E-02
 -1     27474 7.95570E-02
 -1     27475 8.27067E-02
 -1     27480 7.95570E-02
 -1     27481 7.95569E-02
 -1     27482 8.27066E-02
 -1     27487 7.95569E-02
 -1     27488 7.95569E-02
 -1     27489 8.27066E-02
 -1     27494 7.95569E-02
 -1     27495 7.95569E-02
 -1     27496 8.27066E-02
 -1     27501 7.95569E-02
 -1     27502 7.95569E-02
 -1     27503 8.27066E-02
 -1     27508 7.95570E-02
 -1     27509 7.95570E-02
 -1     27510 8.27067E-02
 -1     27515 7.95575E-02
 -1     27516 7.95579E-02
 -1     27517 8.27072E-02
 -1     27522 7.95585E-02
 -1     27523 7.95590E-02
 -1     27524 8.27078E-02
 -1     27529 7.95590E-02
 -1     27533 7.95590E-02
 -1     27534 7.95590E-02
 -1     27535 8.27078E-02
 -1     27540 7.95585E-02
 -1     27541 7.95579E-02
 -1     27542 8.27072E-02
 -1     27547 7.95575E-02
 -1     27548 7.95570E-02
 -1     27549 8.27067E-02
 -1     27554 7.95570E-02
 -1     27555 7.95569E-02
 -1     27556 8.27066E-02
 -1     27561 7.95569E-02
 -1     27562 7.95569E-02
 -1     27563 8.27066E-02
 -1     27568 7.95569E-02
 -1     27569 7.95569E-02
 -1     27570 8.27066E-02
 -1     27575 7.95569E-02
 -1     27576 7.95569E-02
 -1     27577 8.27066E-02
 -1     27582 7.95570E-02
 -1     27583 7.95570E-02
 -1     27584 8.27067E-02
 -1     27589 7.95575E-02
 -1     27590 7.95579E-02
 -1     27591 8.27072E-02
 -1     27596 7.95585E-02
 -1     27597 7.95590E-02
 -1     27598 8.27078E-02
 -1     27603 7.95590E-02
 -1     27607 7.95589E-02
 -1     27611 7.95576E-02
 -1     27615 7.95569E-02
 -1     27619 7.95569E-02
 -1     27623 7.95569E-02
 -1     27627 7.95569E-02
 -1     27631 7.95569E-02
 -1     27635 7.95569E-02
 -1     27639 7.95576E-02
 -1     27643 7.95589E-02
 -1     27649 7.38776E-02
 -1     27650 7.38798E-02
 -1     27651 7.67193E-02
 -1     27656 7.38803E-02
 -1     27657 7.38807E-02
 -1     27658 7.67191E-02
 -1     27663 7.38807E-02
 -1     27664 7.38807E-02
 -1     27665 7.67187E-02
 -1     27670 7.38803E-02
 -1     27671 7.38799E-02
 -1     27672 7.67182E-02
 -1     27677 7.38797E-02
 -1     27678 7.38795E-02
 -1     27679 7.67180E-02
 -1     27684 7.38795E-02
 -1     27685 7.38795E-02
 -1     27686 7.67180E-02
 -1     27691 7.38797E-02
 -1     27692 7.38799E-02
 -1     27693 7.67182E-02
 -1     27698 7.38803E-02
 -1     27699 7.38807E-02
 -1     27700 7.67187E-02
 -1     27705 7.38807E-02
 -1     27706 7.38807E-02
 -1     27707 7.67191E-02
 -1     27712 7.38803E-02
 -1     27713 7.38798E-02
 -1     27714 7.67193E-02
 -1     27719 7.38776E-02
 -1     27723 7.38776E-02
 -1     27724 7.38798E-02
 -1     27725 7.67193E-02
 -1     27730 7.38803E-02
 -1     27731 7.38807E-02
 -1     27732 7.67191E-02
 -1     27737 7.38807E-02
 -1     27738 7.38807E-02
 -1     27739 7.67187E-02
 -1     27744 7.38803E-02
 -1     27745 7.38799E-02
 -1     27746 7.67183E-02
 -1     27751 7.38797E-02
 -1     27752 7.38795E-02
 -1     27753 7.67181E-02
 -1     27758 7.38795E-02
 -1     27759 7.38795E-02
 -1     27760 7.67181E-02
 -1     27765 7.38797E-02
 -1     27766 7.38799E-02
 -1     27767 7.67183E-02
 -1     27772 7.38803E-02
 -1     27773 7.38807E-02
 -1     27774 7.67187E-02
 -1     27779 7.38807E-02
 -1     27780 7.38807E-02
 -1     27781 7.67191E-02
 -1     27786 7.38803E-02
 -1     27787 7.38798E-02
 -1     27788 7.67193E-02
 -1     27793 7.38776E-02
 -1     27797 7.38776E-02
 -1     27798 7.38799E-02
 -1     27799 7.67193E-02
 -1     27804 7.38804E-02
 -1     27805 7.38808E-02
 -1     27806 7.67192E-02
 -1     27811 7.38809E-02
 -1     27812 7.38808E-02
 -1     27813 7.67188E-02
 -1     27818 7.38805E-02
 -1     27819 7.38800E-02
 -1     27820 7.67184E-02
 -1     27825 7.38799E-02
 -1     27826 7.38796E-02
 -1     27827 7.67182E-02
 -1     27832 7.38797E-02
 -1     27833 7.38796E-02
 -1     27834 7.67182E-02
 -1     27839 7.38799E-02
 -1     27840 7.38800E-02
 -1     27841 7.67184E-02
 -1     27846 7.38805E-02
 -1     27847 7.38808E-02
 -1     27848 7.67188E-02
 -1     27853 7.38809E-02
 -1     27854 7.38808E-02
 -1     27855 7.67192E-02
 -1     27860 7.38804E-02
 -1     27861 7.38799E-02
 -1     27862 7.67193E-02
 -1     27867 7.38776E-02
 -1     27871 7.38779E-02
 -1     27872 7.38801E-02
 -1     27873 7.67195E-02
 -1     27878 7.38805E-02
 -1     27879 7.38809E-02
 -1     27880 7.67193E-02
 -1     27885 7.38809E-02
 -1     27886 7.38809E-02
 -1     27887 7.67188E-02
 -1     27892 7.38805E-02
 -1     27893 7.38801E-02
 -1     27894 7.67184E-02
 -1     27899 7.38799E-02
 -1     27900 7.38797E-02
 -1     27901 7.67182E-02
 -1     27906 7.38797E-02
 -1     27907 7.38797E-02
 -1     27908 7.67182E-02
 -1     27913 7.38799E-02
 -1     27914 7.38801E-02
 -1     27915 7.67184E-02
 -1     27920 7.38805E-02
 -1     27921 7.38809E-02
 -1     27922 7.67188E-02
 -1     27927 7.38809E-02
 -1     27928 7.38809E-02
 -1     27929 7.67193E-02
 -1     27934 7.38805E-02
 -1     27935 7.38801E-02
 -1     27936 7.67195E-02
 -1     27941 7.38779E-02
 -1     27945 7.38779E-02
 -1     27946 7.38802E-02
 -1     27947 7.67195E-02
 -1     27952 7.38805E-02
 -1     27953 7.38809E-02
 -1     27954 7.67193E-02
 -1     27959 7.38809E-02
 -1     27960 7.38809E-02
 -1     27961 7.67189E-02
 -1     27966 7.38805E-02
 -1     27967 7.38801E-02
 -1     27968 7.67184E-02
 -1     27973 7.38800E-02
 -1     27974 7.38798E-02
 -1     27975 7.67183E-02
 -1     27980 7.38799E-02
 -1     27981 7.38798E-02
 -1     27982 7.67183E-02
 -1     27987 7.38800E-02
 -1     27988 7.38801E-02
 -1     27989 7.67184E-02
 -1     27994 7.38805E-02
 -1     27995 7.38809E-02
 -1     27996 7.67189E-02
 -1     28001 7.38809E-02
 -1     28002 7.38809E-02
 -1     28003 7.67193E-02
 -1     28008 7.38805E-02
 -1     28009 7.38802E-02
 -1     28010 7.67195E-02
 -1     28015 7.38779E-02
 -1     28019 7.38777E-02
 -1     28020 7.38800E-02
 -1     28021 7.67193E-02
 -1     28026 7.38803E-02
 -1     28027 7.38809E-02
 -1     28028 7.67192E-02
 -1     28033 7.38809E-02
 -1     28034 7.38809E-02
 -1     28035 7.67188E-02
 -1     28040 7.38806E-02
 -1     28041 7.38802E-02
 -1     28042 7.67186E-02
 -1     28047 7.38802E-02
 -1     28048 7.38800E-02
 -1     28049 7.67184E-02
 -1     28054 7.38801E-02
 -1     28055 7.38800E-02
 -1     28056 7.67184E-02
 -1     28061 7.38802E-02
 -1     28062 7.38802E-02
 -1     28063 7.67186E-02
 -1     28068 7.38806E-02
 -1     28069 7.38809E-02
 -1     28070 7.67188E-02
 -1     28075 7.38809E-02
 -1     28076 7.38809E-02
 -1     28077 7.67192E-02
 -1     28082 7.38803E-02
 -1     28083 7.38800E-02
 -1     28084 7.67193E-02
 -1     28089 7.38777E-02
 -1     28093 7.38781E-02
 -1     28094 7.38800E-02
 -1     28095 7.67195E-02
 -1     28100 7.38805E-02
 -1     28101 7.38809E-02
 -1     28102 7.67194E-02
 -1     28107 7.38809E-02
 -1     28108 7.38809E-02
 -1     28109 7.67189E-02
 -1     28114 7.38806E-02
 -1     28115 7.38803E-02
 -1     28116 7.67186E-02
 -1     28121 7.38802E-02
 -1     28122 7.38801E-02
 -1     28123 7.67185E-02
 -1     28128 7.38801E-02
 -1     28129 7.38801E-02
 -1     28130 7.67185E-02
 -1     28135 7.38802E-02
 -1     28136 7.38803E-02
 -1     28137 7.67186E-02
 -1     28142 7.38806E-02
 -1     28143 7.38809E-02
 -1     28144 7.67189E-02
 -1     28149 7.38809E-02
 -1     28150 7.38809E-02
 -1     28151 7.67194E-02
 -1     28156 7.38805E-02
 -1     28157 7.38800E-02
 -1     28158 7.67195E-02
 -1     28163 7.38781E-02
 -1     28167 7.38782E-02
 -1     28168 7.38802E-02
 -1     28169 7.67197E-02
 -1     28174 7.38807E-02
 -1     28175 7.38810E-02
 -1     28176 7.67195E-02
 -1     28181 7.38812E-02
 -1     28182 7.38810E-02
 -1     28183 7.67191E-02
 -1     28188 7.38807E-02
 -1     28189 7.38802E-02
 -1     28190 7.67185E-02
 -1     28195 7.38801E-02
 -1     28196 7.38800E-02
 -1     28197 7.67185E-02
 -1     28202 7.38800E-02
 -1     28203 7.38800E-02
 -1     28204 7.67185E-02
 -1     28209 7.38801E-02
 -1     28210 7.38802E-02
 -1     28211 7.67185E-02
 -1     28216 7.38807E-02
 -1     28217 7.38810E-02
 -1     28218 7.67191E-02
 -1     28223 7.38812E-02
 -1     28224 7.38810E-02
 -1     28225 7.67195E-02
 -1     28230 7.38807E-02
 -1     28231 7.38802E-02
 -1     28232 7.67197E-02
 -1     28237 7.38782E-02
 -1     28241 7.38782E-02
 -1     28242 7.38803E-02
 -1     28243 7.67197E-02
 -1     28248 7.38808E-02
 -1     28249 7.38813E-02
 -1     28250 7.67196E-02
 -1     28255 7.38814E-02
 -1     28256 7.38813E-02
 -1     28257 7.67192E-02
 -1     28262 7.38810E-02
 -1     28263 7.38804E-02
 -1     28264 7.67188E-02
 -1     28269 7.38807E-02
 -1     28270 7.38803E-02
 -1     28271 7.67188E-02
 -1     28276 7.38806E-02
 -1     28277 7.38803E-02
 -1     28278 7.67188E-02
 -1     28283 7.38807E-02
 -1     28284 7.38804E-02
 -1     28285 7.67188E-02
 -1     28290 7.38810E-02
 -1     28291 7.38813E-02
 -1     28292 7.67192E-02
 -1     28297 7.38814E-02
 -1     28298 7.38813E-02
 -1     28299 7.67196E-02
 -1     28304 7.38808E-02
 -1     28305 7.38803E-02
 -1     28306 7.67197E-02
 -1     28311 7.38782E-02
 -1     28315 7.38801E-02
 -1     28319 7.38814E-02
 -1     28323 7.38814E-02
 -1     28327 7.38807E-02
 -1     28331 7.38806E-02
 -1     28335 7.38806E-02
 -1     28339 7.38807E-02
 -1     28343 7.38814E-02
 -1     28347 7.38814E-02
 -1     28351 7.38801E-02
 -1     28357 6.86101E-02
 -1     28358 6.86101E-02
 -1     28359 7.12450E-02
 -1     28364 6.86022E-02
 -1     28365 6.85942E-02
 -1     28366 7.12375E-02
 -1     28371 6.85941E-02
 -1     28372 6.85937E-02
 -1     28373 7.12373E-02
 -1     28378 6.85941E-02
 -1     28379 6.85942E-02
 -1     28380 7.12371E-02
 -1     28385 6.85943E-02
 -1     28386 6.85943E-02
 -1     28387 7.12369E-02
 -1     28392 6.85944E-02
 -1     28393 6.85943E-02
 -1     28394 7.12369E-02
 -1     28399 6.85943E-02
 -1     28400 6.85942E-02
 -1     28401 7.12371E-02
 -1     28406 6.85941E-02
 -1     28407 6.85937E-02
 -1     28408 7.12373E-02
 -1     28413 6.85941E-02
 -1     28414 6.85942E-02
 -1     28415 7.12375E-02
 -1     28420 6.86022E-02
 -1     28421 6.86101E-02
 -1     28422 7.12450E-02
 -1     28427 6.86101E-02
 -1     28431 6.86107E-02
 -1     28432 6.86104E-02
 -1     28433 7.12452E-02
 -1     28438 6.86025E-02
 -1     28439 6.85943E-02
 -1     28440 7.12375E-02
 -1     28445 6.85943E-02
 -1     28446 6.85941E-02
 -1     28447 7.12375E-02
 -1     28452 6.85945E-02
 -1     28453 6.85945E-02
 -1     28454 7.12373E-02
 -1     28459 6.85948E-02
 -1     28460 6.85946E-02
 -1     28461 7.12372E-02
 -1     28466 6.85948E-02
 -1     28467 6.85946E-02
 -1     28468 7.12372E-02
 -1     28473 6.85948E-02
 -1     28474 6.85945E-02
 -1     28475 7.12373E-02
 -1     28480 6.85945E-02
 -1     28481 6.85941E-02
 -1     28482 7.12375E-02
 -1     28487 6.85943E-02
 -1     28488 6.85943E-02
 -1     28489 7.12375E-02
 -1     28494 6.86025E-02
 -1     28495 6.86104E-02
 -1     28496 7.12452E-02
 -1     28501 6.86107E-02
 -1     28505 6.86107E-02
 -1     28506 6.86107E-02
 -1     28507 7.12453E-02
 -1     28512 6.86030E-02
 -1     28513 6.85948E-02
 -1     28514 7.12381E-02
 -1     28519 6.85948E-02
 -1     28520 6.85943E-02
 -1     28521 7.12376E-02
 -1     28526 6.85945E-02
 -1     28527 6.85948E-02
 -1     28528 7.12374E-02
 -1     28533 6.85948E-02
 -1     28534 6.85948E-02
 -1     28535 7.12373E-02
 -1     28540 6.85948E-02
 -1     28541 6.85948E-02
 -1     28542 7.12373E-02
 -1     28547 6.85948E-02
 -1     28548 6.85948E-02
 -1     28549 7.12374E-02
 -1     28554 6.85945E-02
 -1     28555 6.85943E-02
 -1     28556 7.12376E-02
 -1     28561 6.85948E-02
 -1     28562 6.85948E-02
 -1     28563 7.12381E-02
 -1     28568 6.86030E-02
 -1     28569 6.86107E-02
 -1     28570 7.12453E-02
 -1     28575 6.86107E-02
 -1     28579 6.86106E-02
 -1     28580 6.86106E-02
 -1     28581 7.12454E-02
 -1     28586 6.86030E-02
 -1     28587 6.85953E-02
 -1     28588 7.12381E-02
 -1     28593 6.85958E-02
 -1     28594 6.85953E-02
 -1     28595 7.12386E-02
 -1     28600 6.85966E-02
 -1     28601 6.85959E-02
 -1     28602 7.12385E-02
 -1     28607 6.85971E-02
 -1     28608 6.85960E-02
 -1     28609 7.12384E-02
 -1     28614 6.85971E-02
 -1     28615 6.85960E-02
 -1     28616 7.12384E-02
 -1     28621 6.85971E-02
 -1     28622 6.85959E-02
 -1     28623 7.12385E-02
 -1     28628 6.85966E-02
 -1     28629 6.85953E-02
 -1     28630 7.12386E-02
 -1     28635 6.85958E-02
 -1     28636 6.85953E-02
 -1     28637 7.12381E-02
 -1     28642 6.86030E-02
 -1     28643 6.86106E-02
 -1     28644 7.12454E-02
 -1     28649 6.86106E-02
 -1     28653 6.86120E-02
 -1     28654 6.86113E-02
 -1     28655 7.12461E-02
 -1     28660 6.86052E-02
 -1     28661 6.85969E-02
 -1     28662 7.12397E-02
 -1     28667 6.85992E-02
 -1     28668 6.85981E-02
 -1     28669 7.12404E-02
 -1     28674 6.86005E-02
 -1     28675 6.85991E-02
 -1     28676 7.12406E-02
 -1     28681 6.86013E-02
 -1     28682 6.85993E-02
 -1     28683 7.12407E-02
 -1     28688 6.86014E-02
 -1     28689 6.85993E-02
 -1     28690 7.12407E-02
 -1     28695 6.86013E-02
 -1     28696 6.85991E-02
 -1     28697 7.12406E-02
 -1     28702 6.86005E-02
 -1     28703 6.85981E-02
 -1     28704 7.12404E-02
 -1     28709 6.85992E-02
 -1     28710 6.85969E-02
 -1     28711 7.12397E-02
 -1     28716 6.86052E-02
 -1     28717 6.86113E-02
 -1     28718 7.12461E-02
 -1     28723 6.86120E-02
 -1     28727 6.86129E-02
 -1     28728 6.86124E-02
 -1     28729 7.12463E-02
 -1     28734 6.86076E-02
 -1     28735 6.86003E-02
 -1     28736 7.12416E-02
 -1     28741 6.86011E-02
 -1     28742 6.85999E-02
 -1     28743 7.12404E-02
 -1     28748 6.86005E-02
 -1     28749 6.86011E-02
 -1     28750 7.12407E-02
 -1     28755 6.86013E-02
 -1     28756 6.86014E-02
 -1     28757 7.12407E-02
 -1     28762 6.86014E-02
 -1     28763 6.86014E-02
 -1     28764 7.12407E-02
 -1     28769 6.86013E-02
 -1     28770 6.86011E-02
 -1     28771 7.12407E-02
 -1     28776 6.86005E-02
 -1     28777 6.85999E-02
 -1     28778 7.12404E-02
 -1     28783 6.86011E-02
 -1     28784 6.86003E-02
 -1     28785 7.12416E-02
 -1     28790 6.86076E-02
 -1     28791 6.86124E-02
 -1     28792 7.12463E-02
 -1     28797 6.86129E-02
 -1     28801 6.86129E-02
 -1     28802 6.86129E-02
 -1     28803 7.12465E-02
 -1     28808 6.86076E-02
 -1     28809 6.86022E-02
 -1     28810 7.12416E-02
 -1     28815 6.85992E-02
 -1     28816 6.85980E-02
 -1     28817 7.12385E-02
 -1     28822 6.85965E-02
 -1     28823 6.85990E-02
 -1     28824 7.12386E-02
 -1     28829 6.85970E-02
 -1     28830 6.85993E-02
 -1     28831 7.12386E-02
 -1     28836 6.85972E-02
 -1     28837 6.85993E-02
 -1     28838 7.12386E-02
 -1     28843 6.85970E-02
 -1     28844 6.85990E-02
 -1     28845 7.12386E-02
 -1     28850 6.85965E-02
 -1     28851 6.85980E-02
 -1     28852 7.12385E-02
 -1     28857 6.85992E-02
 -1     28858 6.86022E-02
 -1     28859 7.12416E-02
 -1     28864 6.86076E-02
 -1     28865 6.86129E-02
 -1     28866 7.12465E-02
 -1     28871 6.86129E-02
 -1     28875 6.86109E-02
 -1     28876 6.86119E-02
 -1     28877 7.12456E-02
 -1     28882 6.86068E-02
 -1     28883 6.86024E-02
 -1     28884 7.12419E-02
 -1     28889 6.86035E-02
 -1     28890 6.86002E-02
 -1     28891 7.12427E-02
 -1     28896 6.86046E-02
 -1     28897 6.86009E-02
 -1     28898 7.12425E-02
 -1     28903 6.86050E-02
 -1     28904 6.86011E-02
 -1     28905 7.12425E-02
 -1     28910 6.86050E-02
 -1     28911 6.86011E-02
 -1     28912 7.12425E-02
 -1     28917 6.86050E-02
 -1     28918 6.86009E-02
 -1     28919 7.12425E-02
 -1     28924 6.86046E-02
 -1     28925 6.86002E-02
 -1     28926 7.12427E-02
 -1     28931 6.86035E-02
 -1     28932 6.86024E-02
 -1     28933 7.12419E-02
 -1     28938 6.86068E-02
 -1     28939 6.86119E-02
 -1     28940 7.12456E-02
 -1     28945 6.86109E-02
 -1     28949 6.86174E-02
 -1     28950 6.86141E-02
 -1     28951 7.12489E-02
 -1     28956 6.86120E-02
 -1     28957 6.86047E-02
 -1     28958 7.12440E-02
 -1     28963 6.86064E-02
 -1     28964 6.86052E-02
 -1     28965 7.12437E-02
 -1     28970 6.86064E-02
 -1     28971 6.86059E-02
 -1     28972 7.12438E-02
 -1     28977 6.86068E-02
 -1     28978 6.86059E-02
 -1     28979 7.12437E-02
 -1     28984 6.86068E-02
 -1     28985 6.86059E-02
 -1     28986 7.12437E-02
 -1     28991 6.86068E-02
 -1     28992 6.86059E-02
 -1     28993 7.12438E-02
 -1     28998 6.86064E-02
 -1     28999 6.86052E-02
 -1     29000 7.12437E-02
 -1     29005 6.86064E-02
 -1     29006 6.86047E-02
 -1     29007 7.12440E-02
 -1     29012 6.86120E-02
 -1     29013 6.86141E-02
 -1     29014 7.12489E-02
 -1     29019 6.86174E-02
 -1     29023 6.86174E-02
 -1     29027 6.86067E-02
 -1     29031 6.86060E-02
 -1     29035 6.86068E-02
 -1     29039 6.86068E-02
 -1     29043 6.86068E-02
 -1     29047 6.86068E-02
 -1     29051 6.86060E-02
 -1     29055 6.86067E-02
 -1     29059 6.86174E-02
 -1     29065 6.86056E-02
 -1     29069 6.85943E-02
 -1     29073 6.85938E-02
 -1     29077 6.85943E-02
 -1     29081 6.85944E-02
 -1     29085 6.85944E-02
 -1     29089 6.85943E-02
 -1     29093 6.85938E-02
 -1     29097 6.85943E-02
 -1     29101 6.86056E-02
 -1     29107 6.86064E-02
 -1     29111 6.85943E-02
 -1     29115 6.85943E-02
 -1     29119 6.85948E-02
 -1     29123 6.85948E-02
 -1     29127 6.85948E-02
 -1     29131 6.85948E-02
 -1     29135 6.85943E-02
 -1     29139 6.85943E-02
 -1     29143 6.86064E-02
 -1     29149 6.86064E-02
 -1     29153 6.85953E-02
 -1     29157 6.85943E-02
 -1     29161 6.85948E-02
 -1     29165 6.85948E-02
 -1     29169 6.85948E-02
 -1     29173 6.85948E-02
 -1     29177 6.85943E-02
 -1     29181 6.85953E-02
 -1     29185 6.86064E-02
 -1     29191 6.86055E-02
 -1     29195 6.85953E-02
 -1     29199 6.85963E-02
 -1     29203 6.85970E-02
 -1     29207 6.85971E-02
 -1     29211 6.85971E-02
 -1     29215 6.85970E-02
 -1     29219 6.85963E-02
 -1     29223 6.85953E-02
 -1     29227 6.86055E-02
 -1     29233 6.86094E-02
 -1     29237 6.85984E-02
 -1     29241 6.85999E-02
 -1     29245 6.86011E-02
 -1     29249 6.86014E-02
 -1     29253 6.86014E-02
 -1     29257 6.86011E-02
 -1     29261 6.85999E-02
 -1     29265 6.85984E-02
 -1     29269 6.86094E-02
 -1     29275 6.86117E-02
 -1     29279 6.86022E-02
 -1     29283 6.85999E-02
 -1     29287 6.86011E-02
 -1     29291 6.86014E-02
 -1     29295 6.86014E-02
 -1     29299 6.86011E-02
 -1     29303 6.85999E-02
 -1     29307 6.86022E-02
 -1     29311 6.86117E-02
 -1     29317 6.86117E-02
 -1     29321 6.86022E-02
 -1     29325 6.85962E-02
 -1     29329 6.85968E-02
 -1     29333 6.85972E-02
 -1     29337 6.85972E-02
 -1     29341 6.85968E-02
 -1     29345 6.85962E-02
 -1     29349 6.86022E-02
 -1     29353 6.86117E-02
 -1     29359 6.86085E-02
 -1     29363 6.86027E-02
 -1     29367 6.86043E-02
 -1     29371 6.86049E-02
 -1     29375 6.86050E-02
 -1     29379 6.86050E-02
 -1     29383 6.86049E-02
 -1     29387 6.86043E-02
 -1     29391 6.86027E-02
 -1     29395 6.86085E-02
 -1     29401 6.86174E-02
 -1     29405 6.86067E-02
 -1     29409 6.86060E-02
 -1     29413 6.86068E-02
 -1     29417 6.86068E-02
 -1     29421 6.86068E-02
 -1     29425 6.86068E-02
 -1     29429 6.86060E-02
 -1     29433 6.86067E-02
 -1     29437 6.86174E-02
 -3
 9999
