    1C
    1U curvedbeam.inp                                                   
    1UUSER                                                              
    1UDATE              09.november.2021                                
    1UTIME              14:09:47                                        
    1UHOST                                                              
    1UPGM               CalculiX                                        
    1UVERSION           Version 2.17                             
    1UCOMPILETIME       Wed 13 Oct 2021 03:49:17 PM WEST                    
    1UDIR                                                               
    1UDBN                                                               
    1UMAT    1STEEL                                                     
    2C                          1452                                     1
 -1         1 0.00000E+00-5.08000E+01-9.52500E+00
 -1         2 0.00000E+00-1.52400E+02-9.52500E+00
 -1         3 9.33181E-15 1.52400E+02-9.52500E+00
 -1         4 3.11060E-15 5.08000E+01-9.52500E+00
 -1         5 0.00000E+00-5.08000E+01 9.52500E+00
 -1         6 0.00000E+00-1.52400E+02 9.52500E+00
 -1         7 9.33181E-15 1.52400E+02 9.52500E+00
 -1         8 3.11060E-15 5.08000E+01 9.52500E+00
 -1         9 0.00000E+00-6.09600E+01-9.52500E+00
 -1        10 0.00000E+00-7.11200E+01-9.52500E+00
 -1        11 0.00000E+00-8.12800E+01-9.52500E+00
 -1        12 0.00000E+00-9.14400E+01-9.52500E+00
 -1        13 0.00000E+00-1.01600E+02-9.52500E+00
 -1        14 0.00000E+00-1.11760E+02-9.52500E+00
 -1        15 0.00000E+00-1.21920E+02-9.52500E+00
 -1        16 0.00000E+00-1.32080E+02-9.52500E+00
 -1        17 0.00000E+00-1.42240E+02-9.52500E+00
 -1        18 4.70942E+01-1.44941E+02-9.52500E+00
 -1        19 8.95785E+01-1.23294E+02-9.52500E+00
 -1        20 1.23294E+02-8.95785E+01-9.52500E+00
 -1        21 1.44941E+02-4.70942E+01-9.52500E+00
 -1        22 1.52400E+02 6.95125E-07-9.52500E+00
 -1        23 1.44941E+02 4.70942E+01-9.52500E+00
 -1        24 1.23294E+02 8.95785E+01-9.52500E+00
 -1        25 8.95785E+01 1.23294E+02-9.52500E+00
 -1        26 4.70942E+01 1.44941E+02-9.52500E+00
 -1        27 8.70969E-15 1.42240E+02-9.52500E+00
 -1        28 8.08757E-15 1.32080E+02-9.52500E+00
 -1        29 7.46545E-15 1.21920E+02-9.52500E+00
 -1        30 6.84333E-15 1.11760E+02-9.52500E+00
 -1        31 6.22121E-15 1.01600E+02-9.52500E+00
 -1        32 5.59909E-15 9.14400E+01-9.52500E+00
 -1        33 4.97696E-15 8.12800E+01-9.52500E+00
 -1        34 4.35484E-15 7.11200E+01-9.52500E+00
 -1        35 3.73272E-15 6.09600E+01-9.52500E+00
 -1        36 1.56981E+01-4.83137E+01-9.52500E+00
 -1        37 2.98595E+01-4.10981E+01-9.52500E+00
 -1        38 4.10981E+01-2.98595E+01-9.52500E+00
 -1        39 4.83137E+01-1.56981E+01-9.52500E+00
 -1        40 5.08000E+01 2.39247E-07-9.52500E+00
 -1        41 4.83137E+01 1.56981E+01-9.52500E+00
 -1        42 4.10981E+01 2.98595E+01-9.52500E+00
 -1        43 2.98595E+01 4.10981E+01-9.52500E+00
 -1        44 1.56981E+01 4.83137E+01-9.52500E+00
 -1        45 0.00000E+00-6.09600E+01 9.52500E+00
 -1        46 0.00000E+00-7.11200E+01 9.52500E+00
 -1        47 0.00000E+00-8.12800E+01 9.52500E+00
 -1        48 0.00000E+00-9.14400E+01 9.52500E+00
 -1        49 0.00000E+00-1.01600E+02 9.52500E+00
 -1        50 0.00000E+00-1.11760E+02 9.52500E+00
 -1        51 0.00000E+00-1.21920E+02 9.52500E+00
 -1        52 0.00000E+00-1.32080E+02 9.52500E+00
 -1        53 0.00000E+00-1.42240E+02 9.52500E+00
 -1        54 4.70942E+01-1.44941E+02 9.52500E+00
 -1        55 8.95785E+01-1.23294E+02 9.52500E+00
 -1        56 1.23294E+02-8.95785E+01 9.52500E+00
 -1        57 1.44941E+02-4.70942E+01 9.52500E+00
 -1        58 1.52400E+02 6.95125E-07 9.52500E+00
 -1        59 1.44941E+02 4.70942E+01 9.52500E+00
 -1        60 1.23294E+02 8.95785E+01 9.52500E+00
 -1        61 8.95785E+01 1.23294E+02 9.52500E+00
 -1        62 4.70942E+01 1.44941E+02 9.52500E+00
 -1        63 8.70969E-15 1.42240E+02 9.52500E+00
 -1        64 8.08757E-15 1.32080E+02 9.52500E+00
 -1        65 7.46545E-15 1.21920E+02 9.52500E+00
 -1        66 6.84333E-15 1.11760E+02 9.52500E+00
 -1        67 6.22121E-15 1.01600E+02 9.52500E+00
 -1        68 5.59909E-15 9.14400E+01 9.52500E+00
 -1        69 4.97696E-15 8.12800E+01 9.52500E+00
 -1        70 4.35484E-15 7.11200E+01 9.52500E+00
 -1        71 3.73272E-15 6.09600E+01 9.52500E+00
 -1        72 1.56981E+01 4.83137E+01 9.52500E+00
 -1        73 2.98595E+01 4.10981E+01 9.52500E+00
 -1        74 4.10981E+01 2.98595E+01 9.52500E+00
 -1        75 4.83137E+01 1.56981E+01 9.52500E+00
 -1        76 5.08000E+01 2.39247E-07 9.52500E+00
 -1        77 4.83137E+01-1.56981E+01 9.52500E+00
 -1        78 4.10981E+01-2.98595E+01 9.52500E+00
 -1        79 2.98595E+01-4.10981E+01 9.52500E+00
 -1        80 1.56981E+01-4.83137E+01 9.52500E+00
 -1        81 0.00000E+00-5.08000E+01-7.79318E+00
 -1        82 0.00000E+00-5.08000E+01-6.06136E+00
 -1        83 0.00000E+00-5.08000E+01-4.32955E+00
 -1        84 0.00000E+00-5.08000E+01-2.59773E+00
 -1        85 0.00000E+00-5.08000E+01-8.65909E-01
 -1        86 0.00000E+00-5.08000E+01 8.65909E-01
 -1        87 0.00000E+00-5.08000E+01 2.59773E+00
 -1        88 0.00000E+00-5.08000E+01 4.32955E+00
 -1        89 0.00000E+00-5.08000E+01 6.06136E+00
 -1        90 0.00000E+00-5.08000E+01 7.79318E+00
 -1        91 0.00000E+00-1.52400E+02-7.79318E+00
 -1        92 0.00000E+00-1.52400E+02-6.06136E+00
 -1        93 0.00000E+00-1.52400E+02-4.32955E+00
 -1        94 0.00000E+00-1.52400E+02-2.59773E+00
 -1        95 0.00000E+00-1.52400E+02-8.65909E-01
 -1        96 0.00000E+00-1.52400E+02 8.65909E-01
 -1        97 0.00000E+00-1.52400E+02 2.59773E+00
 -1        98 0.00000E+00-1.52400E+02 4.32955E+00
 -1        99 0.00000E+00-1.52400E+02 6.06136E+00
 -1       100 0.00000E+00-1.52400E+02 7.79318E+00
 -1       101 9.33181E-15 1.52400E+02-7.79318E+00
 -1       102 9.33181E-15 1.52400E+02-6.06136E+00
 -1       103 9.33181E-15 1.52400E+02-4.32955E+00
 -1       104 9.33181E-15 1.52400E+02-2.59773E+00
 -1       105 9.33181E-15 1.52400E+02-8.65909E-01
 -1       106 9.33181E-15 1.52400E+02 8.65909E-01
 -1       107 9.33181E-15 1.52400E+02 2.59773E+00
 -1       108 9.33181E-15 1.52400E+02 4.32955E+00
 -1       109 9.33181E-15 1.52400E+02 6.06136E+00
 -1       110 9.33181E-15 1.52400E+02 7.79318E+00
 -1       111 3.11060E-15 5.08000E+01-7.79318E+00
 -1       112 3.11060E-15 5.08000E+01-6.06136E+00
 -1       113 3.11060E-15 5.08000E+01-4.32955E+00
 -1       114 3.11060E-15 5.08000E+01-2.59773E+00
 -1       115 3.11060E-15 5.08000E+01-8.65909E-01
 -1       116 3.11060E-15 5.08000E+01 8.65909E-01
 -1       117 3.11060E-15 5.08000E+01 2.59773E+00
 -1       118 3.11060E-15 5.08000E+01 4.32955E+00
 -1       119 3.11060E-15 5.08000E+01 6.06136E+00
 -1       120 3.11060E-15 5.08000E+01 7.79318E+00
 -1       121 1.88377E+01-5.79764E+01-9.52500E+00
 -1       122 3.58314E+01-4.93177E+01-9.52500E+00
 -1       123 4.93177E+01-3.58314E+01-9.52500E+00
 -1       124 5.79764E+01-1.88377E+01-9.52500E+00
 -1       125 6.09600E+01 2.84858E-07-9.52500E+00
 -1       126 5.79764E+01 1.88377E+01-9.52500E+00
 -1       127 4.93177E+01 3.58314E+01-9.52500E+00
 -1       128 3.58314E+01 4.93177E+01-9.52500E+00
 -1       129 1.88377E+01 5.79764E+01-9.52500E+00
 -1       130 2.19773E+01-6.76391E+01-9.52500E+00
 -1       131 4.18033E+01-5.75373E+01-9.52500E+00
 -1       132 5.75373E+01-4.18033E+01-9.52500E+00
 -1       133 6.76391E+01-2.19773E+01-9.52500E+00
 -1       134 7.11200E+01 3.30477E-07-9.52500E+00
 -1       135 6.76391E+01 2.19773E+01-9.52500E+00
 -1       136 5.75373E+01 4.18033E+01-9.52500E+00
 -1       137 4.18033E+01 5.75373E+01-9.52500E+00
 -1       138 2.19773E+01 6.76391E+01-9.52500E+00
 -1       139 2.51169E+01-7.73019E+01-9.52500E+00
 -1       140 4.77752E+01-6.57569E+01-9.52500E+00
 -1       141 6.57569E+01-4.77752E+01-9.52500E+00
 -1       142 7.73019E+01-2.51169E+01-9.52500E+00
 -1       143 8.12800E+01 3.76091E-07-9.52500E+00
 -1       144 7.73019E+01 2.51169E+01-9.52500E+00
 -1       145 6.57569E+01 4.77752E+01-9.52500E+00
 -1       146 4.77752E+01 6.57569E+01-9.52500E+00
 -1       147 2.51169E+01 7.73019E+01-9.52500E+00
 -1       148 2.82565E+01-8.69646E+01-9.52500E+00
 -1       149 5.37471E+01-7.39765E+01-9.52500E+00
 -1       150 7.39765E+01-5.37471E+01-9.52500E+00
 -1       151 8.69646E+01-2.82565E+01-9.52500E+00
 -1       152 9.14400E+01 4.21710E-07-9.52500E+00
 -1       153 8.69646E+01 2.82565E+01-9.52500E+00
 -1       154 7.39765E+01 5.37471E+01-9.52500E+00
 -1       155 5.37471E+01 7.39765E+01-9.52500E+00
 -1       156 2.82565E+01 8.69646E+01-9.52500E+00
 -1       157 3.13961E+01-9.66273E+01-9.52500E+00
 -1       158 5.97190E+01-8.21961E+01-9.52500E+00
 -1       159 8.21961E+01-5.97190E+01-9.52500E+00
 -1       160 9.66273E+01-3.13961E+01-9.52500E+00
 -1       161 1.01600E+02 4.67325E-07-9.52500E+00
 -1       162 9.66273E+01 3.13961E+01-9.52500E+00
 -1       163 8.21961E+01 5.97190E+01-9.52500E+00
 -1       164 5.97190E+01 8.21961E+01-9.52500E+00
 -1       165 3.13961E+01 9.66273E+01-9.52500E+00
 -1       166 3.45357E+01-1.06290E+02-9.52500E+00
 -1       167 6.56909E+01-9.04157E+01-9.52500E+00
 -1       168 9.04157E+01-6.56909E+01-9.52500E+00
 -1       169 1.06290E+02-3.45357E+01-9.52500E+00
 -1       170 1.11760E+02 5.12885E-07-9.52500E+00
 -1       171 1.06290E+02 3.45357E+01-9.52500E+00
 -1       172 9.04157E+01 6.56909E+01-9.52500E+00
 -1       173 6.56909E+01 9.04157E+01-9.52500E+00
 -1       174 3.45357E+01 1.06290E+02-9.52500E+00
 -1       175 3.76754E+01-1.15953E+02-9.52500E+00
 -1       176 7.16628E+01-9.86354E+01-9.52500E+00
 -1       177 9.86354E+01-7.16628E+01-9.52500E+00
 -1       178 1.15953E+02-3.76754E+01-9.52500E+00
 -1       179 1.21920E+02 5.58445E-07-9.52500E+00
 -1       180 1.15953E+02 3.76754E+01-9.52500E+00
 -1       181 9.86354E+01 7.16628E+01-9.52500E+00
 -1       182 7.16628E+01 9.86354E+01-9.52500E+00
 -1       183 3.76754E+01 1.15953E+02-9.52500E+00
 -1       184 4.08150E+01-1.25616E+02-9.52500E+00
 -1       185 7.76347E+01-1.06855E+02-9.52500E+00
 -1       186 1.06855E+02-7.76347E+01-9.52500E+00
 -1       187 1.25616E+02-4.08150E+01-9.52500E+00
 -1       188 1.32080E+02 6.04011E-07-9.52500E+00
 -1       189 1.25616E+02 4.08150E+01-9.52500E+00
 -1       190 1.06855E+02 7.76347E+01-9.52500E+00
 -1       191 7.76347E+01 1.06855E+02-9.52500E+00
 -1       192 4.08150E+01 1.25616E+02-9.52500E+00
 -1       193 4.39546E+01-1.35278E+02-9.52500E+00
 -1       194 8.36066E+01-1.15075E+02-9.52500E+00
 -1       195 1.15075E+02-8.36066E+01-9.52500E+00
 -1       196 1.35278E+02-4.39546E+01-9.52500E+00
 -1       197 1.42240E+02 6.49564E-07-9.52500E+00
 -1       198 1.35278E+02 4.39546E+01-9.52500E+00
 -1       199 1.15075E+02 8.36066E+01-9.52500E+00
 -1       200 8.36066E+01 1.15075E+02-9.52500E+00
 -1       201 4.39546E+01 1.35278E+02-9.52500E+00
 -1       202 0.00000E+00-6.09600E+01-7.79318E+00
 -1       203 0.00000E+00-6.09600E+01-6.06136E+00
 -1       204 0.00000E+00-6.09600E+01-4.32955E+00
 -1       205 0.00000E+00-6.09600E+01-2.59773E+00
 -1       206 0.00000E+00-6.09600E+01-8.65909E-01
 -1       207 0.00000E+00-6.09600E+01 8.65909E-01
 -1       208 0.00000E+00-6.09600E+01 2.59773E+00
 -1       209 0.00000E+00-6.09600E+01 4.32955E+00
 -1       210 0.00000E+00-6.09600E+01 6.06136E+00
 -1       211 0.00000E+00-6.09600E+01 7.79318E+00
 -1       212 0.00000E+00-7.11200E+01-7.79318E+00
 -1       213 0.00000E+00-7.11200E+01-6.06136E+00
 -1       214 0.00000E+00-7.11200E+01-4.32955E+00
 -1       215 0.00000E+00-7.11200E+01-2.59773E+00
 -1       216 0.00000E+00-7.11200E+01-8.65909E-01
 -1       217 0.00000E+00-7.11200E+01 8.65909E-01
 -1       218 0.00000E+00-7.11200E+01 2.59773E+00
 -1       219 0.00000E+00-7.11200E+01 4.32955E+00
 -1       220 0.00000E+00-7.11200E+01 6.06136E+00
 -1       221 0.00000E+00-7.11200E+01 7.79318E+00
 -1       222 0.00000E+00-8.12800E+01-7.79318E+00
 -1       223 0.00000E+00-8.12800E+01-6.06136E+00
 -1       224 0.00000E+00-8.12800E+01-4.32955E+00
 -1       225 0.00000E+00-8.12800E+01-2.59773E+00
 -1       226 0.00000E+00-8.12800E+01-8.65909E-01
 -1       227 0.00000E+00-8.12800E+01 8.65909E-01
 -1       228 0.00000E+00-8.12800E+01 2.59773E+00
 -1       229 0.00000E+00-8.12800E+01 4.32955E+00
 -1       230 0.00000E+00-8.12800E+01 6.06136E+00
 -1       231 0.00000E+00-8.12800E+01 7.79318E+00
 -1       232 0.00000E+00-9.14400E+01-7.79318E+00
 -1       233 0.00000E+00-9.14400E+01-6.06136E+00
 -1       234 0.00000E+00-9.14400E+01-4.32955E+00
 -1       235 0.00000E+00-9.14400E+01-2.59773E+00
 -1       236 0.00000E+00-9.14400E+01-8.65909E-01
 -1       237 0.00000E+00-9.14400E+01 8.65909E-01
 -1       238 0.00000E+00-9.14400E+01 2.59773E+00
 -1       239 0.00000E+00-9.14400E+01 4.32955E+00
 -1       240 0.00000E+00-9.14400E+01 6.06136E+00
 -1       241 0.00000E+00-9.14400E+01 7.79318E+00
 -1       242 0.00000E+00-1.01600E+02-7.79318E+00
 -1       243 0.00000E+00-1.01600E+02-6.06136E+00
 -1       244 0.00000E+00-1.01600E+02-4.32955E+00
 -1       245 0.00000E+00-1.01600E+02-2.59773E+00
 -1       246 0.00000E+00-1.01600E+02-8.65909E-01
 -1       247 0.00000E+00-1.01600E+02 8.65909E-01
 -1       248 0.00000E+00-1.01600E+02 2.59773E+00
 -1       249 0.00000E+00-1.01600E+02 4.32955E+00
 -1       250 0.00000E+00-1.01600E+02 6.06136E+00
 -1       251 0.00000E+00-1.01600E+02 7.79318E+00
 -1       252 0.00000E+00-1.11760E+02-7.79318E+00
 -1       253 0.00000E+00-1.11760E+02-6.06136E+00
 -1       254 0.00000E+00-1.11760E+02-4.32955E+00
 -1       255 0.00000E+00-1.11760E+02-2.59773E+00
 -1       256 0.00000E+00-1.11760E+02-8.65909E-01
 -1       257 0.00000E+00-1.11760E+02 8.65909E-01
 -1       258 0.00000E+00-1.11760E+02 2.59773E+00
 -1       259 0.00000E+00-1.11760E+02 4.32955E+00
 -1       260 0.00000E+00-1.11760E+02 6.06136E+00
 -1       261 0.00000E+00-1.11760E+02 7.79318E+00
 -1       262 0.00000E+00-1.21920E+02-7.79318E+00
 -1       263 0.00000E+00-1.21920E+02-6.06136E+00
 -1       264 0.00000E+00-1.21920E+02-4.32955E+00
 -1       265 0.00000E+00-1.21920E+02-2.59773E+00
 -1       266 0.00000E+00-1.21920E+02-8.65909E-01
 -1       267 0.00000E+00-1.21920E+02 8.65909E-01
 -1       268 0.00000E+00-1.21920E+02 2.59773E+00
 -1       269 0.00000E+00-1.21920E+02 4.32955E+00
 -1       270 0.00000E+00-1.21920E+02 6.06136E+00
 -1       271 0.00000E+00-1.21920E+02 7.79318E+00
 -1       272 0.00000E+00-1.32080E+02-7.79318E+00
 -1       273 0.00000E+00-1.32080E+02-6.06136E+00
 -1       274 0.00000E+00-1.32080E+02-4.32955E+00
 -1       275 0.00000E+00-1.32080E+02-2.59773E+00
 -1       276 0.00000E+00-1.32080E+02-8.65909E-01
 -1       277 0.00000E+00-1.32080E+02 8.65909E-01
 -1       278 0.00000E+00-1.32080E+02 2.59773E+00
 -1       279 0.00000E+00-1.32080E+02 4.32955E+00
 -1       280 0.00000E+00-1.32080E+02 6.06136E+00
 -1       281 0.00000E+00-1.32080E+02 7.79318E+00
 -1       282 0.00000E+00-1.42240E+02-7.79318E+00
 -1       283 0.00000E+00-1.42240E+02-6.06136E+00
 -1       284 0.00000E+00-1.42240E+02-4.32955E+00
 -1       285 0.00000E+00-1.42240E+02-2.59773E+00
 -1       286 0.00000E+00-1.42240E+02-8.65909E-01
 -1       287 0.00000E+00-1.42240E+02 8.65909E-01
 -1       288 0.00000E+00-1.42240E+02 2.59773E+00
 -1       289 0.00000E+00-1.42240E+02 4.32955E+00
 -1       290 0.00000E+00-1.42240E+02 6.06136E+00
 -1       291 0.00000E+00-1.42240E+02 7.79318E+00
 -1       292 4.70942E+01-1.44941E+02-7.79318E+00
 -1       293 4.70942E+01-1.44941E+02-6.06136E+00
 -1       294 4.70942E+01-1.44941E+02-4.32955E+00
 -1       295 4.70942E+01-1.44941E+02-2.59773E+00
 -1       296 4.70942E+01-1.44941E+02-8.65909E-01
 -1       297 4.70942E+01-1.44941E+02 8.65909E-01
 -1       298 4.70942E+01-1.44941E+02 2.59773E+00
 -1       299 4.70942E+01-1.44941E+02 4.32955E+00
 -1       300 4.70942E+01-1.44941E+02 6.06136E+00
 -1       301 4.70942E+01-1.44941E+02 7.79318E+00
 -1       302 8.95785E+01-1.23294E+02-7.79318E+00
 -1       303 8.95785E+01-1.23294E+02-6.06136E+00
 -1       304 8.95785E+01-1.23294E+02-4.32955E+00
 -1       305 8.95785E+01-1.23294E+02-2.59773E+00
 -1       306 8.95785E+01-1.23294E+02-8.65909E-01
 -1       307 8.95785E+01-1.23294E+02 8.65909E-01
 -1       308 8.95785E+01-1.23294E+02 2.59773E+00
 -1       309 8.95785E+01-1.23294E+02 4.32955E+00
 -1       310 8.95785E+01-1.23294E+02 6.06136E+00
 -1       311 8.95785E+01-1.23294E+02 7.79318E+00
 -1       312 1.23294E+02-8.95785E+01-7.79318E+00
 -1       313 1.23294E+02-8.95785E+01-6.06136E+00
 -1       314 1.23294E+02-8.95785E+01-4.32955E+00
 -1       315 1.23294E+02-8.95785E+01-2.59773E+00
 -1       316 1.23294E+02-8.95785E+01-8.65909E-01
 -1       317 1.23294E+02-8.95785E+01 8.65909E-01
 -1       318 1.23294E+02-8.95785E+01 2.59773E+00
 -1       319 1.23294E+02-8.95785E+01 4.32955E+00
 -1       320 1.23294E+02-8.95785E+01 6.06136E+00
 -1       321 1.23294E+02-8.95785E+01 7.79318E+00
 -1       322 1.44941E+02-4.70942E+01-7.79318E+00
 -1       323 1.44941E+02-4.70942E+01-6.06136E+00
 -1       324 1.44941E+02-4.70942E+01-4.32955E+00
 -1       325 1.44941E+02-4.70942E+01-2.59773E+00
 -1       326 1.44941E+02-4.70942E+01-8.65909E-01
 -1       327 1.44941E+02-4.70942E+01 8.65909E-01
 -1       328 1.44941E+02-4.70942E+01 2.59773E+00
 -1       329 1.44941E+02-4.70942E+01 4.32955E+00
 -1       330 1.44941E+02-4.70942E+01 6.06136E+00
 -1       331 1.44941E+02-4.70942E+01 7.79318E+00
 -1       332 1.52400E+02 6.95125E-07-7.79318E+00
 -1       333 1.52400E+02 6.95125E-07-6.06136E+00
 -1       334 1.52400E+02 6.95125E-07-4.32955E+00
 -1       335 1.52400E+02 6.95125E-07-2.59773E+00
 -1       336 1.52400E+02 6.95125E-07-8.65909E-01
 -1       337 1.52400E+02 6.95125E-07 8.65909E-01
 -1       338 1.52400E+02 6.95125E-07 2.59773E+00
 -1       339 1.52400E+02 6.95125E-07 4.32955E+00
 -1       340 1.52400E+02 6.95125E-07 6.06136E+00
 -1       341 1.52400E+02 6.95125E-07 7.79318E+00
 -1       342 1.44941E+02 4.70942E+01-7.79318E+00
 -1       343 1.44941E+02 4.70942E+01-6.06136E+00
 -1       344 1.44941E+02 4.70942E+01-4.32955E+00
 -1       345 1.44941E+02 4.70942E+01-2.59773E+00
 -1       346 1.44941E+02 4.70942E+01-8.65909E-01
 -1       347 1.44941E+02 4.70942E+01 8.65909E-01
 -1       348 1.44941E+02 4.70942E+01 2.59773E+00
 -1       349 1.44941E+02 4.70942E+01 4.32955E+00
 -1       350 1.44941E+02 4.70942E+01 6.06136E+00
 -1       351 1.44941E+02 4.70942E+01 7.79318E+00
 -1       352 1.23294E+02 8.95785E+01-7.79318E+00
 -1       353 1.23294E+02 8.95785E+01-6.06136E+00
 -1       354 1.23294E+02 8.95785E+01-4.32955E+00
 -1       355 1.23294E+02 8.95785E+01-2.59773E+00
 -1       356 1.23294E+02 8.95785E+01-8.65909E-01
 -1       357 1.23294E+02 8.95785E+01 8.65909E-01
 -1       358 1.23294E+02 8.95785E+01 2.59773E+00
 -1       359 1.23294E+02 8.95785E+01 4.32955E+00
 -1       360 1.23294E+02 8.95785E+01 6.06136E+00
 -1       361 1.23294E+02 8.95785E+01 7.79318E+00
 -1       362 8.95785E+01 1.23294E+02-7.79318E+00
 -1       363 8.95785E+01 1.23294E+02-6.06136E+00
 -1       364 8.95785E+01 1.23294E+02-4.32955E+00
 -1       365 8.95785E+01 1.23294E+02-2.59773E+00
 -1       366 8.95785E+01 1.23294E+02-8.65909E-01
 -1       367 8.95785E+01 1.23294E+02 8.65909E-01
 -1       368 8.95785E+01 1.23294E+02 2.59773E+00
 -1       369 8.95785E+01 1.23294E+02 4.32955E+00
 -1       370 8.95785E+01 1.23294E+02 6.06136E+00
 -1       371 8.95785E+01 1.23294E+02 7.79318E+00
 -1       372 4.70942E+01 1.44941E+02-7.79318E+00
 -1       373 4.70942E+01 1.44941E+02-6.06136E+00
 -1       374 4.70942E+01 1.44941E+02-4.32955E+00
 -1       375 4.70942E+01 1.44941E+02-2.59773E+00
 -1       376 4.70942E+01 1.44941E+02-8.65909E-01
 -1       377 4.70942E+01 1.44941E+02 8.65909E-01
 -1       378 4.70942E+01 1.44941E+02 2.59773E+00
 -1       379 4.70942E+01 1.44941E+02 4.32955E+00
 -1       380 4.70942E+01 1.44941E+02 6.06136E+00
 -1       381 4.70942E+01 1.44941E+02 7.79318E+00
 -1       382 8.70969E-15 1.42240E+02-7.79318E+00
 -1       383 8.70969E-15 1.42240E+02-6.06136E+00
 -1       384 8.70969E-15 1.42240E+02-4.32955E+00
 -1       385 8.70969E-15 1.42240E+02-2.59773E+00
 -1       386 8.70969E-15 1.42240E+02-8.65909E-01
 -1       387 8.70969E-15 1.42240E+02 8.65909E-01
 -1       388 8.70969E-15 1.42240E+02 2.59773E+00
 -1       389 8.70969E-15 1.42240E+02 4.32955E+00
 -1       390 8.70969E-15 1.42240E+02 6.06136E+00
 -1       391 8.70969E-15 1.42240E+02 7.79318E+00
 -1       392 8.08757E-15 1.32080E+02-7.79318E+00
 -1       393 8.08757E-15 1.32080E+02-6.06136E+00
 -1       394 8.08757E-15 1.32080E+02-4.32955E+00
 -1       395 8.08757E-15 1.32080E+02-2.59773E+00
 -1       396 8.08757E-15 1.32080E+02-8.65909E-01
 -1       397 8.08757E-15 1.32080E+02 8.65909E-01
 -1       398 8.08757E-15 1.32080E+02 2.59773E+00
 -1       399 8.08757E-15 1.32080E+02 4.32955E+00
 -1       400 8.08757E-15 1.32080E+02 6.06136E+00
 -1       401 8.08757E-15 1.32080E+02 7.79318E+00
 -1       402 7.46545E-15 1.21920E+02-7.79318E+00
 -1       403 7.46545E-15 1.21920E+02-6.06136E+00
 -1       404 7.46545E-15 1.21920E+02-4.32955E+00
 -1       405 7.46545E-15 1.21920E+02-2.59773E+00
 -1       406 7.46545E-15 1.21920E+02-8.65909E-01
 -1       407 7.46545E-15 1.21920E+02 8.65909E-01
 -1       408 7.46545E-15 1.21920E+02 2.59773E+00
 -1       409 7.46545E-15 1.21920E+02 4.32955E+00
 -1       410 7.46545E-15 1.21920E+02 6.06136E+00
 -1       411 7.46545E-15 1.21920E+02 7.79318E+00
 -1       412 6.84333E-15 1.11760E+02-7.79318E+00
 -1       413 6.84333E-15 1.11760E+02-6.06136E+00
 -1       414 6.84333E-15 1.11760E+02-4.32955E+00
 -1       415 6.84333E-15 1.11760E+02-2.59773E+00
 -1       416 6.84333E-15 1.11760E+02-8.65909E-01
 -1       417 6.84333E-15 1.11760E+02 8.65909E-01
 -1       418 6.84333E-15 1.11760E+02 2.59773E+00
 -1       419 6.84333E-15 1.11760E+02 4.32955E+00
 -1       420 6.84333E-15 1.11760E+02 6.06136E+00
 -1       421 6.84333E-15 1.11760E+02 7.79318E+00
 -1       422 6.22121E-15 1.01600E+02-7.79318E+00
 -1       423 6.22121E-15 1.01600E+02-6.06136E+00
 -1       424 6.22121E-15 1.01600E+02-4.32955E+00
 -1       425 6.22121E-15 1.01600E+02-2.59773E+00
 -1       426 6.22121E-15 1.01600E+02-8.65909E-01
 -1       427 6.22121E-15 1.01600E+02 8.65909E-01
 -1       428 6.22121E-15 1.01600E+02 2.59773E+00
 -1       429 6.22121E-15 1.01600E+02 4.32955E+00
 -1       430 6.22121E-15 1.01600E+02 6.06136E+00
 -1       431 6.22121E-15 1.01600E+02 7.79318E+00
 -1       432 5.59909E-15 9.14400E+01-7.79318E+00
 -1       433 5.59909E-15 9.14400E+01-6.06136E+00
 -1       434 5.59909E-15 9.14400E+01-4.32955E+00
 -1       435 5.59909E-15 9.14400E+01-2.59773E+00
 -1       436 5.59909E-15 9.14400E+01-8.65909E-01
 -1       437 5.59909E-15 9.14400E+01 8.65909E-01
 -1       438 5.59909E-15 9.14400E+01 2.59773E+00
 -1       439 5.59909E-15 9.14400E+01 4.32955E+00
 -1       440 5.59909E-15 9.14400E+01 6.06136E+00
 -1       441 5.59909E-15 9.14400E+01 7.79318E+00
 -1       442 4.97696E-15 8.12800E+01-7.79318E+00
 -1       443 4.97696E-15 8.12800E+01-6.06136E+00
 -1       444 4.97696E-15 8.12800E+01-4.32955E+00
 -1       445 4.97696E-15 8.12800E+01-2.59773E+00
 -1       446 4.97696E-15 8.12800E+01-8.65909E-01
 -1       447 4.97696E-15 8.12800E+01 8.65909E-01
 -1       448 4.97696E-15 8.12800E+01 2.59773E+00
 -1       449 4.97696E-15 8.12800E+01 4.32955E+00
 -1       450 4.97696E-15 8.12800E+01 6.06136E+00
 -1       451 4.97696E-15 8.12800E+01 7.79318E+00
 -1       452 4.35484E-15 7.11200E+01-7.79318E+00
 -1       453 4.35484E-15 7.11200E+01-6.06136E+00
 -1       454 4.35484E-15 7.11200E+01-4.32955E+00
 -1       455 4.35484E-15 7.11200E+01-2.59773E+00
 -1       456 4.35484E-15 7.11200E+01-8.65909E-01
 -1       457 4.35484E-15 7.11200E+01 8.65909E-01
 -1       458 4.35484E-15 7.11200E+01 2.59773E+00
 -1       459 4.35484E-15 7.11200E+01 4.32955E+00
 -1       460 4.35484E-15 7.11200E+01 6.06136E+00
 -1       461 4.35484E-15 7.11200E+01 7.79318E+00
 -1       462 3.73272E-15 6.09600E+01-7.79318E+00
 -1       463 3.73272E-15 6.09600E+01-6.06136E+00
 -1       464 3.73272E-15 6.09600E+01-4.32955E+00
 -1       465 3.73272E-15 6.09600E+01-2.59773E+00
 -1       466 3.73272E-15 6.09600E+01-8.65909E-01
 -1       467 3.73272E-15 6.09600E+01 8.65909E-01
 -1       468 3.73272E-15 6.09600E+01 2.59773E+00
 -1       469 3.73272E-15 6.09600E+01 4.32955E+00
 -1       470 3.73272E-15 6.09600E+01 6.06136E+00
 -1       471 3.73272E-15 6.09600E+01 7.79318E+00
 -1       472 1.56981E+01-4.83137E+01-7.79318E+00
 -1       473 1.56981E+01-4.83137E+01-6.06136E+00
 -1       474 1.56981E+01-4.83137E+01-4.32955E+00
 -1       475 1.56981E+01-4.83137E+01-2.59773E+00
 -1       476 1.56981E+01-4.83137E+01-8.65909E-01
 -1       477 1.56981E+01-4.83137E+01 8.65909E-01
 -1       478 1.56981E+01-4.83137E+01 2.59773E+00
 -1       479 1.56981E+01-4.83137E+01 4.32955E+00
 -1       480 1.56981E+01-4.83137E+01 6.06136E+00
 -1       481 1.56981E+01-4.83137E+01 7.79318E+00
 -1       482 2.98595E+01-4.10981E+01-7.79318E+00
 -1       483 2.98595E+01-4.10981E+01-6.06136E+00
 -1       484 2.98595E+01-4.10981E+01-4.32955E+00
 -1       485 2.98595E+01-4.10981E+01-2.59773E+00
 -1       486 2.98595E+01-4.10981E+01-8.65909E-01
 -1       487 2.98595E+01-4.10981E+01 8.65909E-01
 -1       488 2.98595E+01-4.10981E+01 2.59773E+00
 -1       489 2.98595E+01-4.10981E+01 4.32955E+00
 -1       490 2.98595E+01-4.10981E+01 6.06136E+00
 -1       491 2.98595E+01-4.10981E+01 7.79318E+00
 -1       492 4.10981E+01-2.98595E+01-7.79318E+00
 -1       493 4.10981E+01-2.98595E+01-6.06136E+00
 -1       494 4.10981E+01-2.98595E+01-4.32955E+00
 -1       495 4.10981E+01-2.98595E+01-2.59773E+00
 -1       496 4.10981E+01-2.98595E+01-8.65909E-01
 -1       497 4.10981E+01-2.98595E+01 8.65909E-01
 -1       498 4.10981E+01-2.98595E+01 2.59773E+00
 -1       499 4.10981E+01-2.98595E+01 4.32955E+00
 -1       500 4.10981E+01-2.98595E+01 6.06136E+00
 -1       501 4.10981E+01-2.98595E+01 7.79318E+00
 -1       502 4.83137E+01-1.56981E+01-7.79318E+00
 -1       503 4.83137E+01-1.56981E+01-6.06136E+00
 -1       504 4.83137E+01-1.56981E+01-4.32955E+00
 -1       505 4.83137E+01-1.56981E+01-2.59773E+00
 -1       506 4.83137E+01-1.56981E+01-8.65909E-01
 -1       507 4.83137E+01-1.56981E+01 8.65909E-01
 -1       508 4.83137E+01-1.56981E+01 2.59773E+00
 -1       509 4.83137E+01-1.56981E+01 4.32955E+00
 -1       510 4.83137E+01-1.56981E+01 6.06136E+00
 -1       511 4.83137E+01-1.56981E+01 7.79318E+00
 -1       512 5.08000E+01 2.39247E-07-7.79318E+00
 -1       513 5.08000E+01 2.39247E-07-6.06136E+00
 -1       514 5.08000E+01 2.39247E-07-4.32955E+00
 -1       515 5.08000E+01 2.39247E-07-2.59773E+00
 -1       516 5.08000E+01 2.39247E-07-8.65909E-01
 -1       517 5.08000E+01 2.39247E-07 8.65909E-01
 -1       518 5.08000E+01 2.39247E-07 2.59773E+00
 -1       519 5.08000E+01 2.39247E-07 4.32955E+00
 -1       520 5.08000E+01 2.39247E-07 6.06136E+00
 -1       521 5.08000E+01 2.39247E-07 7.79318E+00
 -1       522 4.83137E+01 1.56981E+01-7.79318E+00
 -1       523 4.83137E+01 1.56981E+01-6.06136E+00
 -1       524 4.83137E+01 1.56981E+01-4.32955E+00
 -1       525 4.83137E+01 1.56981E+01-2.59773E+00
 -1       526 4.83137E+01 1.56981E+01-8.65909E-01
 -1       527 4.83137E+01 1.56981E+01 8.65909E-01
 -1       528 4.83137E+01 1.56981E+01 2.59773E+00
 -1       529 4.83137E+01 1.56981E+01 4.32955E+00
 -1       530 4.83137E+01 1.56981E+01 6.06136E+00
 -1       531 4.83137E+01 1.56981E+01 7.79318E+00
 -1       532 4.10981E+01 2.98595E+01-7.79318E+00
 -1       533 4.10981E+01 2.98595E+01-6.06136E+00
 -1       534 4.10981E+01 2.98595E+01-4.32955E+00
 -1       535 4.10981E+01 2.98595E+01-2.59773E+00
 -1       536 4.10981E+01 2.98595E+01-8.65909E-01
 -1       537 4.10981E+01 2.98595E+01 8.65909E-01
 -1       538 4.10981E+01 2.98595E+01 2.59773E+00
 -1       539 4.10981E+01 2.98595E+01 4.32955E+00
 -1       540 4.10981E+01 2.98595E+01 6.06136E+00
 -1       541 4.10981E+01 2.98595E+01 7.79318E+00
 -1       542 2.98595E+01 4.10981E+01-7.79318E+00
 -1       543 2.98595E+01 4.10981E+01-6.06136E+00
 -1       544 2.98595E+01 4.10981E+01-4.32955E+00
 -1       545 2.98595E+01 4.10981E+01-2.59773E+00
 -1       546 2.98595E+01 4.10981E+01-8.65909E-01
 -1       547 2.98595E+01 4.10981E+01 8.65909E-01
 -1       548 2.98595E+01 4.10981E+01 2.59773E+00
 -1       549 2.98595E+01 4.10981E+01 4.32955E+00
 -1       550 2.98595E+01 4.10981E+01 6.06136E+00
 -1       551 2.98595E+01 4.10981E+01 7.79318E+00
 -1       552 1.56981E+01 4.83137E+01-7.79318E+00
 -1       553 1.56981E+01 4.83137E+01-6.06136E+00
 -1       554 1.56981E+01 4.83137E+01-4.32955E+00
 -1       555 1.56981E+01 4.83137E+01-2.59773E+00
 -1       556 1.56981E+01 4.83137E+01-8.65909E-01
 -1       557 1.56981E+01 4.83137E+01 8.65909E-01
 -1       558 1.56981E+01 4.83137E+01 2.59773E+00
 -1       559 1.56981E+01 4.83137E+01 4.32955E+00
 -1       560 1.56981E+01 4.83137E+01 6.06136E+00
 -1       561 1.56981E+01 4.83137E+01 7.79318E+00
 -1       562 1.88377E+01-5.79764E+01 9.52500E+00
 -1       563 3.58314E+01-4.93177E+01 9.52500E+00
 -1       564 4.93177E+01-3.58314E+01 9.52500E+00
 -1       565 5.79764E+01-1.88377E+01 9.52500E+00
 -1       566 6.09600E+01 2.84858E-07 9.52500E+00
 -1       567 5.79764E+01 1.88377E+01 9.52500E+00
 -1       568 4.93177E+01 3.58314E+01 9.52500E+00
 -1       569 3.58314E+01 4.93177E+01 9.52500E+00
 -1       570 1.88377E+01 5.79764E+01 9.52500E+00
 -1       571 2.19773E+01-6.76391E+01 9.52500E+00
 -1       572 4.18033E+01-5.75373E+01 9.52500E+00
 -1       573 5.75373E+01-4.18033E+01 9.52500E+00
 -1       574 6.76391E+01-2.19773E+01 9.52500E+00
 -1       575 7.11200E+01 3.30477E-07 9.52500E+00
 -1       576 6.76391E+01 2.19773E+01 9.52500E+00
 -1       577 5.75373E+01 4.18033E+01 9.52500E+00
 -1       578 4.18033E+01 5.75373E+01 9.52500E+00
 -1       579 2.19773E+01 6.76391E+01 9.52500E+00
 -1       580 2.51169E+01-7.73019E+01 9.52500E+00
 -1       581 4.77752E+01-6.57569E+01 9.52500E+00
 -1       582 6.57569E+01-4.77752E+01 9.52500E+00
 -1       583 7.73019E+01-2.51169E+01 9.52500E+00
 -1       584 8.12800E+01 3.76091E-07 9.52500E+00
 -1       585 7.73019E+01 2.51169E+01 9.52500E+00
 -1       586 6.57569E+01 4.77752E+01 9.52500E+00
 -1       587 4.77752E+01 6.57569E+01 9.52500E+00
 -1       588 2.51169E+01 7.73019E+01 9.52500E+00
 -1       589 2.82565E+01-8.69646E+01 9.52500E+00
 -1       590 5.37471E+01-7.39765E+01 9.52500E+00
 -1       591 7.39765E+01-5.37471E+01 9.52500E+00
 -1       592 8.69646E+01-2.82565E+01 9.52500E+00
 -1       593 9.14400E+01 4.21710E-07 9.52500E+00
 -1       594 8.69646E+01 2.82565E+01 9.52500E+00
 -1       595 7.39765E+01 5.37471E+01 9.52500E+00
 -1       596 5.37471E+01 7.39765E+01 9.52500E+00
 -1       597 2.82565E+01 8.69646E+01 9.52500E+00
 -1       598 3.13961E+01-9.66273E+01 9.52500E+00
 -1       599 5.97190E+01-8.21961E+01 9.52500E+00
 -1       600 8.21961E+01-5.97190E+01 9.52500E+00
 -1       601 9.66273E+01-3.13961E+01 9.52500E+00
 -1       602 1.01600E+02 4.67325E-07 9.52500E+00
 -1       603 9.66273E+01 3.13961E+01 9.52500E+00
 -1       604 8.21961E+01 5.97190E+01 9.52500E+00
 -1       605 5.97190E+01 8.21961E+01 9.52500E+00
 -1       606 3.13961E+01 9.66273E+01 9.52500E+00
 -1       607 3.45357E+01-1.06290E+02 9.52500E+00
 -1       608 6.56909E+01-9.04157E+01 9.52500E+00
 -1       609 9.04157E+01-6.56909E+01 9.52500E+00
 -1       610 1.06290E+02-3.45357E+01 9.52500E+00
 -1       611 1.11760E+02 5.12885E-07 9.52500E+00
 -1       612 1.06290E+02 3.45357E+01 9.52500E+00
 -1       613 9.04157E+01 6.56909E+01 9.52500E+00
 -1       614 6.56909E+01 9.04157E+01 9.52500E+00
 -1       615 3.45357E+01 1.06290E+02 9.52500E+00
 -1       616 3.76754E+01-1.15953E+02 9.52500E+00
 -1       617 7.16628E+01-9.86354E+01 9.52500E+00
 -1       618 9.86354E+01-7.16628E+01 9.52500E+00
 -1       619 1.15953E+02-3.76754E+01 9.52500E+00
 -1       620 1.21920E+02 5.58445E-07 9.52500E+00
 -1       621 1.15953E+02 3.76754E+01 9.52500E+00
 -1       622 9.86354E+01 7.16628E+01 9.52500E+00
 -1       623 7.16628E+01 9.86354E+01 9.52500E+00
 -1       624 3.76754E+01 1.15953E+02 9.52500E+00
 -1       625 4.08150E+01-1.25616E+02 9.52500E+00
 -1       626 7.76347E+01-1.06855E+02 9.52500E+00
 -1       627 1.06855E+02-7.76347E+01 9.52500E+00
 -1       628 1.25616E+02-4.08150E+01 9.52500E+00
 -1       629 1.32080E+02 6.04011E-07 9.52500E+00
 -1       630 1.25616E+02 4.08150E+01 9.52500E+00
 -1       631 1.06855E+02 7.76347E+01 9.52500E+00
 -1       632 7.76347E+01 1.06855E+02 9.52500E+00
 -1       633 4.08150E+01 1.25616E+02 9.52500E+00
 -1       634 4.39546E+01-1.35278E+02 9.52500E+00
 -1       635 8.36066E+01-1.15075E+02 9.52500E+00
 -1       636 1.15075E+02-8.36066E+01 9.52500E+00
 -1       637 1.35278E+02-4.39546E+01 9.52500E+00
 -1       638 1.42240E+02 6.49564E-07 9.52500E+00
 -1       639 1.35278E+02 4.39546E+01 9.52500E+00
 -1       640 1.15075E+02 8.36066E+01 9.52500E+00
 -1       641 8.36066E+01 1.15075E+02 9.52500E+00
 -1       642 4.39546E+01 1.35278E+02 9.52500E+00
 -1       643 1.88377E+01-5.79764E+01-7.79318E+00
 -1       644 1.88377E+01-5.79764E+01-6.06136E+00
 -1       645 1.88377E+01-5.79764E+01-4.32955E+00
 -1       646 1.88377E+01-5.79764E+01-2.59773E+00
 -1       647 1.88377E+01-5.79764E+01-8.65909E-01
 -1       648 1.88377E+01-5.79764E+01 8.65909E-01
 -1       649 1.88377E+01-5.79764E+01 2.59773E+00
 -1       650 1.88377E+01-5.79764E+01 4.32955E+00
 -1       651 1.88377E+01-5.79764E+01 6.06136E+00
 -1       652 1.88377E+01-5.79764E+01 7.79318E+00
 -1       653 3.58314E+01-4.93177E+01-7.79318E+00
 -1       654 3.58314E+01-4.93177E+01-6.06136E+00
 -1       655 3.58314E+01-4.93177E+01-4.32955E+00
 -1       656 3.58314E+01-4.93177E+01-2.59773E+00
 -1       657 3.58314E+01-4.93177E+01-8.65909E-01
 -1       658 3.58314E+01-4.93177E+01 8.65909E-01
 -1       659 3.58314E+01-4.93177E+01 2.59773E+00
 -1       660 3.58314E+01-4.93177E+01 4.32955E+00
 -1       661 3.58314E+01-4.93177E+01 6.06136E+00
 -1       662 3.58314E+01-4.93177E+01 7.79318E+00
 -1       663 4.93177E+01-3.58314E+01-7.79318E+00
 -1       664 4.93177E+01-3.58314E+01-6.06136E+00
 -1       665 4.93177E+01-3.58314E+01-4.32955E+00
 -1       666 4.93177E+01-3.58314E+01-2.59773E+00
 -1       667 4.93177E+01-3.58314E+01-8.65909E-01
 -1       668 4.93177E+01-3.58314E+01 8.65909E-01
 -1       669 4.93177E+01-3.58314E+01 2.59773E+00
 -1       670 4.93177E+01-3.58314E+01 4.32955E+00
 -1       671 4.93177E+01-3.58314E+01 6.06136E+00
 -1       672 4.93177E+01-3.58314E+01 7.79318E+00
 -1       673 5.79764E+01-1.88377E+01-7.79318E+00
 -1       674 5.79764E+01-1.88377E+01-6.06136E+00
 -1       675 5.79764E+01-1.88377E+01-4.32955E+00
 -1       676 5.79764E+01-1.88377E+01-2.59773E+00
 -1       677 5.79764E+01-1.88377E+01-8.65909E-01
 -1       678 5.79764E+01-1.88377E+01 8.65909E-01
 -1       679 5.79764E+01-1.88377E+01 2.59773E+00
 -1       680 5.79764E+01-1.88377E+01 4.32955E+00
 -1       681 5.79764E+01-1.88377E+01 6.06136E+00
 -1       682 5.79764E+01-1.88377E+01 7.79318E+00
 -1       683 6.09600E+01 2.84858E-07-7.79318E+00
 -1       684 6.09600E+01 2.84858E-07-6.06136E+00
 -1       685 6.09600E+01 2.84858E-07-4.32955E+00
 -1       686 6.09600E+01 2.84858E-07-2.59773E+00
 -1       687 6.09600E+01 2.84858E-07-8.65909E-01
 -1       688 6.09600E+01 2.84858E-07 8.65909E-01
 -1       689 6.09600E+01 2.84858E-07 2.59773E+00
 -1       690 6.09600E+01 2.84858E-07 4.32955E+00
 -1       691 6.09600E+01 2.84858E-07 6.06136E+00
 -1       692 6.09600E+01 2.84858E-07 7.79318E+00
 -1       693 5.79764E+01 1.88377E+01-7.79318E+00
 -1       694 5.79764E+01 1.88377E+01-6.06136E+00
 -1       695 5.79764E+01 1.88377E+01-4.32955E+00
 -1       696 5.79764E+01 1.88377E+01-2.59773E+00
 -1       697 5.79764E+01 1.88377E+01-8.65909E-01
 -1       698 5.79764E+01 1.88377E+01 8.65909E-01
 -1       699 5.79764E+01 1.88377E+01 2.59773E+00
 -1       700 5.79764E+01 1.88377E+01 4.32955E+00
 -1       701 5.79764E+01 1.88377E+01 6.06136E+00
 -1       702 5.79764E+01 1.88377E+01 7.79318E+00
 -1       703 4.93177E+01 3.58314E+01-7.79318E+00
 -1       704 4.93177E+01 3.58314E+01-6.06136E+00
 -1       705 4.93177E+01 3.58314E+01-4.32955E+00
 -1       706 4.93177E+01 3.58314E+01-2.59773E+00
 -1       707 4.93177E+01 3.58314E+01-8.65909E-01
 -1       708 4.93177E+01 3.58314E+01 8.65909E-01
 -1       709 4.93177E+01 3.58314E+01 2.59773E+00
 -1       710 4.93177E+01 3.58314E+01 4.32955E+00
 -1       711 4.93177E+01 3.58314E+01 6.06136E+00
 -1       712 4.93177E+01 3.58314E+01 7.79318E+00
 -1       713 3.58314E+01 4.93177E+01-7.79318E+00
 -1       714 3.58314E+01 4.93177E+01-6.06136E+00
 -1       715 3.58314E+01 4.93177E+01-4.32955E+00
 -1       716 3.58314E+01 4.93177E+01-2.59773E+00
 -1       717 3.58314E+01 4.93177E+01-8.65909E-01
 -1       718 3.58314E+01 4.93177E+01 8.65909E-01
 -1       719 3.58314E+01 4.93177E+01 2.59773E+00
 -1       720 3.58314E+01 4.93177E+01 4.32955E+00
 -1       721 3.58314E+01 4.93177E+01 6.06136E+00
 -1       722 3.58314E+01 4.93177E+01 7.79318E+00
 -1       723 1.88377E+01 5.79764E+01-7.79318E+00
 -1       724 1.88377E+01 5.79764E+01-6.06136E+00
 -1       725 1.88377E+01 5.79764E+01-4.32955E+00
 -1       726 1.88377E+01 5.79764E+01-2.59773E+00
 -1       727 1.88377E+01 5.79764E+01-8.65909E-01
 -1       728 1.88377E+01 5.79764E+01 8.65909E-01
 -1       729 1.88377E+01 5.79764E+01 2.59773E+00
 -1       730 1.88377E+01 5.79764E+01 4.32955E+00
 -1       731 1.88377E+01 5.79764E+01 6.06136E+00
 -1       732 1.88377E+01 5.79764E+01 7.79318E+00
 -1       733 2.19773E+01-6.76391E+01-7.79318E+00
 -1       734 2.19773E+01-6.76391E+01-6.06136E+00
 -1       735 2.19773E+01-6.76391E+01-4.32955E+00
 -1       736 2.19773E+01-6.76391E+01-2.59773E+00
 -1       737 2.19773E+01-6.76391E+01-8.65909E-01
 -1       738 2.19773E+01-6.76391E+01 8.65909E-01
 -1       739 2.19773E+01-6.76391E+01 2.59773E+00
 -1       740 2.19773E+01-6.76391E+01 4.32955E+00
 -1       741 2.19773E+01-6.76391E+01 6.06136E+00
 -1       742 2.19773E+01-6.76391E+01 7.79318E+00
 -1       743 4.18033E+01-5.75373E+01-7.79318E+00
 -1       744 4.18033E+01-5.75373E+01-6.06136E+00
 -1       745 4.18033E+01-5.75373E+01-4.32955E+00
 -1       746 4.18033E+01-5.75373E+01-2.59773E+00
 -1       747 4.18033E+01-5.75373E+01-8.65909E-01
 -1       748 4.18033E+01-5.75373E+01 8.65909E-01
 -1       749 4.18033E+01-5.75373E+01 2.59773E+00
 -1       750 4.18033E+01-5.75373E+01 4.32955E+00
 -1       751 4.18033E+01-5.75373E+01 6.06136E+00
 -1       752 4.18033E+01-5.75373E+01 7.79318E+00
 -1       753 5.75373E+01-4.18033E+01-7.79318E+00
 -1       754 5.75373E+01-4.18033E+01-6.06136E+00
 -1       755 5.75373E+01-4.18033E+01-4.32955E+00
 -1       756 5.75373E+01-4.18033E+01-2.59773E+00
 -1       757 5.75373E+01-4.18033E+01-8.65909E-01
 -1       758 5.75373E+01-4.18033E+01 8.65909E-01
 -1       759 5.75373E+01-4.18033E+01 2.59773E+00
 -1       760 5.75373E+01-4.18033E+01 4.32955E+00
 -1       761 5.75373E+01-4.18033E+01 6.06136E+00
 -1       762 5.75373E+01-4.18033E+01 7.79318E+00
 -1       763 6.76391E+01-2.19773E+01-7.79318E+00
 -1       764 6.76391E+01-2.19773E+01-6.06136E+00
 -1       765 6.76391E+01-2.19773E+01-4.32955E+00
 -1       766 6.76391E+01-2.19773E+01-2.59773E+00
 -1       767 6.76391E+01-2.19773E+01-8.65909E-01
 -1       768 6.76391E+01-2.19773E+01 8.65909E-01
 -1       769 6.76391E+01-2.19773E+01 2.59773E+00
 -1       770 6.76391E+01-2.19773E+01 4.32955E+00
 -1       771 6.76391E+01-2.19773E+01 6.06136E+00
 -1       772 6.76391E+01-2.19773E+01 7.79318E+00
 -1       773 7.11200E+01 3.30477E-07-7.79318E+00
 -1       774 7.11200E+01 3.30477E-07-6.06136E+00
 -1       775 7.11200E+01 3.30477E-07-4.32955E+00
 -1       776 7.11200E+01 3.30477E-07-2.59773E+00
 -1       777 7.11200E+01 3.30477E-07-8.65909E-01
 -1       778 7.11200E+01 3.30477E-07 8.65909E-01
 -1       779 7.11200E+01 3.30477E-07 2.59773E+00
 -1       780 7.11200E+01 3.30477E-07 4.32955E+00
 -1       781 7.11200E+01 3.30477E-07 6.06136E+00
 -1       782 7.11200E+01 3.30477E-07 7.79318E+00
 -1       783 6.76391E+01 2.19773E+01-7.79318E+00
 -1       784 6.76391E+01 2.19773E+01-6.06136E+00
 -1       785 6.76391E+01 2.19773E+01-4.32955E+00
 -1       786 6.76391E+01 2.19773E+01-2.59773E+00
 -1       787 6.76391E+01 2.19773E+01-8.65909E-01
 -1       788 6.76391E+01 2.19773E+01 8.65909E-01
 -1       789 6.76391E+01 2.19773E+01 2.59773E+00
 -1       790 6.76391E+01 2.19773E+01 4.32955E+00
 -1       791 6.76391E+01 2.19773E+01 6.06136E+00
 -1       792 6.76391E+01 2.19773E+01 7.79318E+00
 -1       793 5.75373E+01 4.18033E+01-7.79318E+00
 -1       794 5.75373E+01 4.18033E+01-6.06136E+00
 -1       795 5.75373E+01 4.18033E+01-4.32955E+00
 -1       796 5.75373E+01 4.18033E+01-2.59773E+00
 -1       797 5.75373E+01 4.18033E+01-8.65909E-01
 -1       798 5.75373E+01 4.18033E+01 8.65909E-01
 -1       799 5.75373E+01 4.18033E+01 2.59773E+00
 -1       800 5.75373E+01 4.18033E+01 4.32955E+00
 -1       801 5.75373E+01 4.18033E+01 6.06136E+00
 -1       802 5.75373E+01 4.18033E+01 7.79318E+00
 -1       803 4.18033E+01 5.75373E+01-7.79318E+00
 -1       804 4.18033E+01 5.75373E+01-6.06136E+00
 -1       805 4.18033E+01 5.75373E+01-4.32955E+00
 -1       806 4.18033E+01 5.75373E+01-2.59773E+00
 -1       807 4.18033E+01 5.75373E+01-8.65909E-01
 -1       808 4.18033E+01 5.75373E+01 8.65909E-01
 -1       809 4.18033E+01 5.75373E+01 2.59773E+00
 -1       810 4.18033E+01 5.75373E+01 4.32955E+00
 -1       811 4.18033E+01 5.75373E+01 6.06136E+00
 -1       812 4.18033E+01 5.75373E+01 7.79318E+00
 -1       813 2.19773E+01 6.76391E+01-7.79318E+00
 -1       814 2.19773E+01 6.76391E+01-6.06136E+00
 -1       815 2.19773E+01 6.76391E+01-4.32955E+00
 -1       816 2.19773E+01 6.76391E+01-2.59773E+00
 -1       817 2.19773E+01 6.76391E+01-8.65909E-01
 -1       818 2.19773E+01 6.76391E+01 8.65909E-01
 -1       819 2.19773E+01 6.76391E+01 2.59773E+00
 -1       820 2.19773E+01 6.76391E+01 4.32955E+00
 -1       821 2.19773E+01 6.76391E+01 6.06136E+00
 -1       822 2.19773E+01 6.76391E+01 7.79318E+00
 -1       823 2.51169E+01-7.73019E+01-7.79318E+00
 -1       824 2.51169E+01-7.73019E+01-6.06136E+00
 -1       825 2.51169E+01-7.73019E+01-4.32955E+00
 -1       826 2.51169E+01-7.73019E+01-2.59773E+00
 -1       827 2.51169E+01-7.73019E+01-8.65909E-01
 -1       828 2.51169E+01-7.73019E+01 8.65909E-01
 -1       829 2.51169E+01-7.73019E+01 2.59773E+00
 -1       830 2.51169E+01-7.73019E+01 4.32955E+00
 -1       831 2.51169E+01-7.73019E+01 6.06136E+00
 -1       832 2.51169E+01-7.73019E+01 7.79318E+00
 -1       833 4.77752E+01-6.57569E+01-7.79318E+00
 -1       834 4.77752E+01-6.57569E+01-6.06136E+00
 -1       835 4.77752E+01-6.57569E+01-4.32955E+00
 -1       836 4.77752E+01-6.57569E+01-2.59773E+00
 -1       837 4.77752E+01-6.57569E+01-8.65909E-01
 -1       838 4.77752E+01-6.57569E+01 8.65909E-01
 -1       839 4.77752E+01-6.57569E+01 2.59773E+00
 -1       840 4.77752E+01-6.57569E+01 4.32955E+00
 -1       841 4.77752E+01-6.57569E+01 6.06136E+00
 -1       842 4.77752E+01-6.57569E+01 7.79318E+00
 -1       843 6.57569E+01-4.77752E+01-7.79318E+00
 -1       844 6.57569E+01-4.77752E+01-6.06136E+00
 -1       845 6.57569E+01-4.77752E+01-4.32955E+00
 -1       846 6.57569E+01-4.77752E+01-2.59773E+00
 -1       847 6.57569E+01-4.77752E+01-8.65909E-01
 -1       848 6.57569E+01-4.77752E+01 8.65909E-01
 -1       849 6.57569E+01-4.77752E+01 2.59773E+00
 -1       850 6.57569E+01-4.77752E+01 4.32955E+00
 -1       851 6.57569E+01-4.77752E+01 6.06136E+00
 -1       852 6.57569E+01-4.77752E+01 7.79318E+00
 -1       853 7.73019E+01-2.51169E+01-7.79318E+00
 -1       854 7.73019E+01-2.51169E+01-6.06136E+00
 -1       855 7.73019E+01-2.51169E+01-4.32955E+00
 -1       856 7.73019E+01-2.51169E+01-2.59773E+00
 -1       857 7.73019E+01-2.51169E+01-8.65909E-01
 -1       858 7.73019E+01-2.51169E+01 8.65909E-01
 -1       859 7.73019E+01-2.51169E+01 2.59773E+00
 -1       860 7.73019E+01-2.51169E+01 4.32955E+00
 -1       861 7.73019E+01-2.51169E+01 6.06136E+00
 -1       862 7.73019E+01-2.51169E+01 7.79318E+00
 -1       863 8.12800E+01 3.76091E-07-7.79318E+00
 -1       864 8.12800E+01 3.76091E-07-6.06136E+00
 -1       865 8.12800E+01 3.76091E-07-4.32955E+00
 -1       866 8.12800E+01 3.76091E-07-2.59773E+00
 -1       867 8.12800E+01 3.76091E-07-8.65909E-01
 -1       868 8.12800E+01 3.76091E-07 8.65909E-01
 -1       869 8.12800E+01 3.76091E-07 2.59773E+00
 -1       870 8.12800E+01 3.76091E-07 4.32955E+00
 -1       871 8.12800E+01 3.76091E-07 6.06136E+00
 -1       872 8.12800E+01 3.76091E-07 7.79318E+00
 -1       873 7.73019E+01 2.51169E+01-7.79318E+00
 -1       874 7.73019E+01 2.51169E+01-6.06136E+00
 -1       875 7.73019E+01 2.51169E+01-4.32955E+00
 -1       876 7.73019E+01 2.51169E+01-2.59773E+00
 -1       877 7.73019E+01 2.51169E+01-8.65909E-01
 -1       878 7.73019E+01 2.51169E+01 8.65909E-01
 -1       879 7.73019E+01 2.51169E+01 2.59773E+00
 -1       880 7.73019E+01 2.51169E+01 4.32955E+00
 -1       881 7.73019E+01 2.51169E+01 6.06136E+00
 -1       882 7.73019E+01 2.51169E+01 7.79318E+00
 -1       883 6.57569E+01 4.77752E+01-7.79318E+00
 -1       884 6.57569E+01 4.77752E+01-6.06136E+00
 -1       885 6.57569E+01 4.77752E+01-4.32955E+00
 -1       886 6.57569E+01 4.77752E+01-2.59773E+00
 -1       887 6.57569E+01 4.77752E+01-8.65909E-01
 -1       888 6.57569E+01 4.77752E+01 8.65909E-01
 -1       889 6.57569E+01 4.77752E+01 2.59773E+00
 -1       890 6.57569E+01 4.77752E+01 4.32955E+00
 -1       891 6.57569E+01 4.77752E+01 6.06136E+00
 -1       892 6.57569E+01 4.77752E+01 7.79318E+00
 -1       893 4.77752E+01 6.57569E+01-7.79318E+00
 -1       894 4.77752E+01 6.57569E+01-6.06136E+00
 -1       895 4.77752E+01 6.57569E+01-4.32955E+00
 -1       896 4.77752E+01 6.57569E+01-2.59773E+00
 -1       897 4.77752E+01 6.57569E+01-8.65909E-01
 -1       898 4.77752E+01 6.57569E+01 8.65909E-01
 -1       899 4.77752E+01 6.57569E+01 2.59773E+00
 -1       900 4.77752E+01 6.57569E+01 4.32955E+00
 -1       901 4.77752E+01 6.57569E+01 6.06136E+00
 -1       902 4.77752E+01 6.57569E+01 7.79318E+00
 -1       903 2.51169E+01 7.73019E+01-7.79318E+00
 -1       904 2.51169E+01 7.73019E+01-6.06136E+00
 -1       905 2.51169E+01 7.73019E+01-4.32955E+00
 -1       906 2.51169E+01 7.73019E+01-2.59773E+00
 -1       907 2.51169E+01 7.73019E+01-8.65909E-01
 -1       908 2.51169E+01 7.73019E+01 8.65909E-01
 -1       909 2.51169E+01 7.73019E+01 2.59773E+00
 -1       910 2.51169E+01 7.73019E+01 4.32955E+00
 -1       911 2.51169E+01 7.73019E+01 6.06136E+00
 -1       912 2.51169E+01 7.73019E+01 7.79318E+00
 -1       913 2.82565E+01-8.69646E+01-7.79318E+00
 -1       914 2.82565E+01-8.69646E+01-6.06136E+00
 -1       915 2.82565E+01-8.69646E+01-4.32955E+00
 -1       916 2.82565E+01-8.69646E+01-2.59773E+00
 -1       917 2.82565E+01-8.69646E+01-8.65909E-01
 -1       918 2.82565E+01-8.69646E+01 8.65909E-01
 -1       919 2.82565E+01-8.69646E+01 2.59773E+00
 -1       920 2.82565E+01-8.69646E+01 4.32955E+00
 -1       921 2.82565E+01-8.69646E+01 6.06136E+00
 -1       922 2.82565E+01-8.69646E+01 7.79318E+00
 -1       923 5.37471E+01-7.39765E+01-7.79318E+00
 -1       924 5.37471E+01-7.39765E+01-6.06136E+00
 -1       925 5.37471E+01-7.39765E+01-4.32955E+00
 -1       926 5.37471E+01-7.39765E+01-2.59773E+00
 -1       927 5.37471E+01-7.39765E+01-8.65909E-01
 -1       928 5.37471E+01-7.39765E+01 8.65909E-01
 -1       929 5.37471E+01-7.39765E+01 2.59773E+00
 -1       930 5.37471E+01-7.39765E+01 4.32955E+00
 -1       931 5.37471E+01-7.39765E+01 6.06136E+00
 -1       932 5.37471E+01-7.39765E+01 7.79318E+00
 -1       933 7.39765E+01-5.37471E+01-7.79318E+00
 -1       934 7.39765E+01-5.37471E+01-6.06136E+00
 -1       935 7.39765E+01-5.37471E+01-4.32955E+00
 -1       936 7.39765E+01-5.37471E+01-2.59773E+00
 -1       937 7.39765E+01-5.37471E+01-8.65909E-01
 -1       938 7.39765E+01-5.37471E+01 8.65909E-01
 -1       939 7.39765E+01-5.37471E+01 2.59773E+00
 -1       940 7.39765E+01-5.37471E+01 4.32955E+00
 -1       941 7.39765E+01-5.37471E+01 6.06136E+00
 -1       942 7.39765E+01-5.37471E+01 7.79318E+00
 -1       943 8.69646E+01-2.82565E+01-7.79318E+00
 -1       944 8.69646E+01-2.82565E+01-6.06136E+00
 -1       945 8.69646E+01-2.82565E+01-4.32955E+00
 -1       946 8.69646E+01-2.82565E+01-2.59773E+00
 -1       947 8.69646E+01-2.82565E+01-8.65909E-01
 -1       948 8.69646E+01-2.82565E+01 8.65909E-01
 -1       949 8.69646E+01-2.82565E+01 2.59773E+00
 -1       950 8.69646E+01-2.82565E+01 4.32955E+00
 -1       951 8.69646E+01-2.82565E+01 6.06136E+00
 -1       952 8.69646E+01-2.82565E+01 7.79318E+00
 -1       953 9.14400E+01 4.21710E-07-7.79318E+00
 -1       954 9.14400E+01 4.21710E-07-6.06136E+00
 -1       955 9.14400E+01 4.21710E-07-4.32955E+00
 -1       956 9.14400E+01 4.21710E-07-2.59773E+00
 -1       957 9.14400E+01 4.21710E-07-8.65909E-01
 -1       958 9.14400E+01 4.21710E-07 8.65909E-01
 -1       959 9.14400E+01 4.21710E-07 2.59773E+00
 -1       960 9.14400E+01 4.21710E-07 4.32955E+00
 -1       961 9.14400E+01 4.21710E-07 6.06136E+00
 -1       962 9.14400E+01 4.21710E-07 7.79318E+00
 -1       963 8.69646E+01 2.82565E+01-7.79318E+00
 -1       964 8.69646E+01 2.82565E+01-6.06136E+00
 -1       965 8.69646E+01 2.82565E+01-4.32955E+00
 -1       966 8.69646E+01 2.82565E+01-2.59773E+00
 -1       967 8.69646E+01 2.82565E+01-8.65909E-01
 -1       968 8.69646E+01 2.82565E+01 8.65909E-01
 -1       969 8.69646E+01 2.82565E+01 2.59773E+00
 -1       970 8.69646E+01 2.82565E+01 4.32955E+00
 -1       971 8.69646E+01 2.82565E+01 6.06136E+00
 -1       972 8.69646E+01 2.82565E+01 7.79318E+00
 -1       973 7.39765E+01 5.37471E+01-7.79318E+00
 -1       974 7.39765E+01 5.37471E+01-6.06136E+00
 -1       975 7.39765E+01 5.37471E+01-4.32955E+00
 -1       976 7.39765E+01 5.37471E+01-2.59773E+00
 -1       977 7.39765E+01 5.37471E+01-8.65909E-01
 -1       978 7.39765E+01 5.37471E+01 8.65909E-01
 -1       979 7.39765E+01 5.37471E+01 2.59773E+00
 -1       980 7.39765E+01 5.37471E+01 4.32955E+00
 -1       981 7.39765E+01 5.37471E+01 6.06136E+00
 -1       982 7.39765E+01 5.37471E+01 7.79318E+00
 -1       983 5.37471E+01 7.39765E+01-7.79318E+00
 -1       984 5.37471E+01 7.39765E+01-6.06136E+00
 -1       985 5.37471E+01 7.39765E+01-4.32955E+00
 -1       986 5.37471E+01 7.39765E+01-2.59773E+00
 -1       987 5.37471E+01 7.39765E+01-8.65909E-01
 -1       988 5.37471E+01 7.39765E+01 8.65909E-01
 -1       989 5.37471E+01 7.39765E+01 2.59773E+00
 -1       990 5.37471E+01 7.39765E+01 4.32955E+00
 -1       991 5.37471E+01 7.39765E+01 6.06136E+00
 -1       992 5.37471E+01 7.39765E+01 7.79318E+00
 -1       993 2.82565E+01 8.69646E+01-7.79318E+00
 -1       994 2.82565E+01 8.69646E+01-6.06136E+00
 -1       995 2.82565E+01 8.69646E+01-4.32955E+00
 -1       996 2.82565E+01 8.69646E+01-2.59773E+00
 -1       997 2.82565E+01 8.69646E+01-8.65909E-01
 -1       998 2.82565E+01 8.69646E+01 8.65909E-01
 -1       999 2.82565E+01 8.69646E+01 2.59773E+00
 -1      1000 2.82565E+01 8.69646E+01 4.32955E+00
 -1      1001 2.82565E+01 8.69646E+01 6.06136E+00
 -1      1002 2.82565E+01 8.69646E+01 7.79318E+00
 -1      1003 3.13961E+01-9.66273E+01-7.79318E+00
 -1      1004 3.13961E+01-9.66273E+01-6.06136E+00
 -1      1005 3.13961E+01-9.66273E+01-4.32955E+00
 -1      1006 3.13961E+01-9.66273E+01-2.59773E+00
 -1      1007 3.13961E+01-9.66273E+01-8.65909E-01
 -1      1008 3.13961E+01-9.66273E+01 8.65909E-01
 -1      1009 3.13961E+01-9.66273E+01 2.59773E+00
 -1      1010 3.13961E+01-9.66273E+01 4.32955E+00
 -1      1011 3.13961E+01-9.66273E+01 6.06136E+00
 -1      1012 3.13961E+01-9.66273E+01 7.79318E+00
 -1      1013 5.97190E+01-8.21961E+01-7.79318E+00
 -1      1014 5.97190E+01-8.21961E+01-6.06136E+00
 -1      1015 5.97190E+01-8.21961E+01-4.32955E+00
 -1      1016 5.97190E+01-8.21961E+01-2.59773E+00
 -1      1017 5.97190E+01-8.21961E+01-8.65909E-01
 -1      1018 5.97190E+01-8.21961E+01 8.65909E-01
 -1      1019 5.97190E+01-8.21961E+01 2.59773E+00
 -1      1020 5.97190E+01-8.21961E+01 4.32955E+00
 -1      1021 5.97190E+01-8.21961E+01 6.06136E+00
 -1      1022 5.97190E+01-8.21961E+01 7.79318E+00
 -1      1023 8.21961E+01-5.97190E+01-7.79318E+00
 -1      1024 8.21961E+01-5.97190E+01-6.06136E+00
 -1      1025 8.21961E+01-5.97190E+01-4.32955E+00
 -1      1026 8.21961E+01-5.97190E+01-2.59773E+00
 -1      1027 8.21961E+01-5.97190E+01-8.65909E-01
 -1      1028 8.21961E+01-5.97190E+01 8.65909E-01
 -1      1029 8.21961E+01-5.97190E+01 2.59773E+00
 -1      1030 8.21961E+01-5.97190E+01 4.32955E+00
 -1      1031 8.21961E+01-5.97190E+01 6.06136E+00
 -1      1032 8.21961E+01-5.97190E+01 7.79318E+00
 -1      1033 9.66273E+01-3.13961E+01-7.79318E+00
 -1      1034 9.66273E+01-3.13961E+01-6.06136E+00
 -1      1035 9.66273E+01-3.13961E+01-4.32955E+00
 -1      1036 9.66273E+01-3.13961E+01-2.59773E+00
 -1      1037 9.66273E+01-3.13961E+01-8.65909E-01
 -1      1038 9.66273E+01-3.13961E+01 8.65909E-01
 -1      1039 9.66273E+01-3.13961E+01 2.59773E+00
 -1      1040 9.66273E+01-3.13961E+01 4.32955E+00
 -1      1041 9.66273E+01-3.13961E+01 6.06136E+00
 -1      1042 9.66273E+01-3.13961E+01 7.79318E+00
 -1      1043 1.01600E+02 4.67325E-07-7.79318E+00
 -1      1044 1.01600E+02 4.67325E-07-6.06136E+00
 -1      1045 1.01600E+02 4.67325E-07-4.32955E+00
 -1      1046 1.01600E+02 4.67325E-07-2.59773E+00
 -1      1047 1.01600E+02 4.67325E-07-8.65909E-01
 -1      1048 1.01600E+02 4.67325E-07 8.65909E-01
 -1      1049 1.01600E+02 4.67325E-07 2.59773E+00
 -1      1050 1.01600E+02 4.67325E-07 4.32955E+00
 -1      1051 1.01600E+02 4.67325E-07 6.06136E+00
 -1      1052 1.01600E+02 4.67325E-07 7.79318E+00
 -1      1053 9.66273E+01 3.13961E+01-7.79318E+00
 -1      1054 9.66273E+01 3.13961E+01-6.06136E+00
 -1      1055 9.66273E+01 3.13961E+01-4.32955E+00
 -1      1056 9.66273E+01 3.13961E+01-2.59773E+00
 -1      1057 9.66273E+01 3.13961E+01-8.65909E-01
 -1      1058 9.66273E+01 3.13961E+01 8.65909E-01
 -1      1059 9.66273E+01 3.13961E+01 2.59773E+00
 -1      1060 9.66273E+01 3.13961E+01 4.32955E+00
 -1      1061 9.66273E+01 3.13961E+01 6.06136E+00
 -1      1062 9.66273E+01 3.13961E+01 7.79318E+00
 -1      1063 8.21961E+01 5.97190E+01-7.79318E+00
 -1      1064 8.21961E+01 5.97190E+01-6.06136E+00
 -1      1065 8.21961E+01 5.97190E+01-4.32955E+00
 -1      1066 8.21961E+01 5.97190E+01-2.59773E+00
 -1      1067 8.21961E+01 5.97190E+01-8.65909E-01
 -1      1068 8.21961E+01 5.97190E+01 8.65909E-01
 -1      1069 8.21961E+01 5.97190E+01 2.59773E+00
 -1      1070 8.21961E+01 5.97190E+01 4.32955E+00
 -1      1071 8.21961E+01 5.97190E+01 6.06136E+00
 -1      1072 8.21961E+01 5.97190E+01 7.79318E+00
 -1      1073 5.97190E+01 8.21961E+01-7.79318E+00
 -1      1074 5.97190E+01 8.21961E+01-6.06136E+00
 -1      1075 5.97190E+01 8.21961E+01-4.32955E+00
 -1      1076 5.97190E+01 8.21961E+01-2.59773E+00
 -1      1077 5.97190E+01 8.21961E+01-8.65909E-01
 -1      1078 5.97190E+01 8.21961E+01 8.65909E-01
 -1      1079 5.97190E+01 8.21961E+01 2.59773E+00
 -1      1080 5.97190E+01 8.21961E+01 4.32955E+00
 -1      1081 5.97190E+01 8.21961E+01 6.06136E+00
 -1      1082 5.97190E+01 8.21961E+01 7.79318E+00
 -1      1083 3.13961E+01 9.66273E+01-7.79318E+00
 -1      1084 3.13961E+01 9.66273E+01-6.06136E+00
 -1      1085 3.13961E+01 9.66273E+01-4.32955E+00
 -1      1086 3.13961E+01 9.66273E+01-2.59773E+00
 -1      1087 3.13961E+01 9.66273E+01-8.65909E-01
 -1      1088 3.13961E+01 9.66273E+01 8.65909E-01
 -1      1089 3.13961E+01 9.66273E+01 2.59773E+00
 -1      1090 3.13961E+01 9.66273E+01 4.32955E+00
 -1      1091 3.13961E+01 9.66273E+01 6.06136E+00
 -1      1092 3.13961E+01 9.66273E+01 7.79318E+00
 -1      1093 3.45357E+01-1.06290E+02-7.79318E+00
 -1      1094 3.45357E+01-1.06290E+02-6.06136E+00
 -1      1095 3.45357E+01-1.06290E+02-4.32955E+00
 -1      1096 3.45357E+01-1.06290E+02-2.59773E+00
 -1      1097 3.45357E+01-1.06290E+02-8.65909E-01
 -1      1098 3.45357E+01-1.06290E+02 8.65909E-01
 -1      1099 3.45357E+01-1.06290E+02 2.59773E+00
 -1      1100 3.45357E+01-1.06290E+02 4.32955E+00
 -1      1101 3.45357E+01-1.06290E+02 6.06136E+00
 -1      1102 3.45357E+01-1.06290E+02 7.79318E+00
 -1      1103 6.56909E+01-9.04157E+01-7.79318E+00
 -1      1104 6.56909E+01-9.04157E+01-6.06136E+00
 -1      1105 6.56909E+01-9.04157E+01-4.32955E+00
 -1      1106 6.56909E+01-9.04157E+01-2.59773E+00
 -1      1107 6.56909E+01-9.04157E+01-8.65909E-01
 -1      1108 6.56909E+01-9.04157E+01 8.65909E-01
 -1      1109 6.56909E+01-9.04157E+01 2.59773E+00
 -1      1110 6.56909E+01-9.04157E+01 4.32955E+00
 -1      1111 6.56909E+01-9.04157E+01 6.06136E+00
 -1      1112 6.56909E+01-9.04157E+01 7.79318E+00
 -1      1113 9.04157E+01-6.56909E+01-7.79318E+00
 -1      1114 9.04157E+01-6.56909E+01-6.06136E+00
 -1      1115 9.04157E+01-6.56909E+01-4.32955E+00
 -1      1116 9.04157E+01-6.56909E+01-2.59773E+00
 -1      1117 9.04157E+01-6.56909E+01-8.65909E-01
 -1      1118 9.04157E+01-6.56909E+01 8.65909E-01
 -1      1119 9.04157E+01-6.56909E+01 2.59773E+00
 -1      1120 9.04157E+01-6.56909E+01 4.32955E+00
 -1      1121 9.04157E+01-6.56909E+01 6.06136E+00
 -1      1122 9.04157E+01-6.56909E+01 7.79318E+00
 -1      1123 1.06290E+02-3.45357E+01-7.79318E+00
 -1      1124 1.06290E+02-3.45357E+01-6.06136E+00
 -1      1125 1.06290E+02-3.45357E+01-4.32955E+00
 -1      1126 1.06290E+02-3.45357E+01-2.59773E+00
 -1      1127 1.06290E+02-3.45357E+01-8.65909E-01
 -1      1128 1.06290E+02-3.45357E+01 8.65909E-01
 -1      1129 1.06290E+02-3.45357E+01 2.59773E+00
 -1      1130 1.06290E+02-3.45357E+01 4.32955E+00
 -1      1131 1.06290E+02-3.45357E+01 6.06136E+00
 -1      1132 1.06290E+02-3.45357E+01 7.79318E+00
 -1      1133 1.11760E+02 5.12885E-07-7.79318E+00
 -1      1134 1.11760E+02 5.12885E-07-6.06136E+00
 -1      1135 1.11760E+02 5.12885E-07-4.32955E+00
 -1      1136 1.11760E+02 5.12885E-07-2.59773E+00
 -1      1137 1.11760E+02 5.12885E-07-8.65909E-01
 -1      1138 1.11760E+02 5.12885E-07 8.65909E-01
 -1      1139 1.11760E+02 5.12885E-07 2.59773E+00
 -1      1140 1.11760E+02 5.12885E-07 4.32955E+00
 -1      1141 1.11760E+02 5.12885E-07 6.06136E+00
 -1      1142 1.11760E+02 5.12885E-07 7.79318E+00
 -1      1143 1.06290E+02 3.45357E+01-7.79318E+00
 -1      1144 1.06290E+02 3.45357E+01-6.06136E+00
 -1      1145 1.06290E+02 3.45357E+01-4.32955E+00
 -1      1146 1.06290E+02 3.45357E+01-2.59773E+00
 -1      1147 1.06290E+02 3.45357E+01-8.65909E-01
 -1      1148 1.06290E+02 3.45357E+01 8.65909E-01
 -1      1149 1.06290E+02 3.45357E+01 2.59773E+00
 -1      1150 1.06290E+02 3.45357E+01 4.32955E+00
 -1      1151 1.06290E+02 3.45357E+01 6.06136E+00
 -1      1152 1.06290E+02 3.45357E+01 7.79318E+00
 -1      1153 9.04157E+01 6.56909E+01-7.79318E+00
 -1      1154 9.04157E+01 6.56909E+01-6.06136E+00
 -1      1155 9.04157E+01 6.56909E+01-4.32955E+00
 -1      1156 9.04157E+01 6.56909E+01-2.59773E+00
 -1      1157 9.04157E+01 6.56909E+01-8.65909E-01
 -1      1158 9.04157E+01 6.56909E+01 8.65909E-01
 -1      1159 9.04157E+01 6.56909E+01 2.59773E+00
 -1      1160 9.04157E+01 6.56909E+01 4.32955E+00
 -1      1161 9.04157E+01 6.56909E+01 6.06136E+00
 -1      1162 9.04157E+01 6.56909E+01 7.79318E+00
 -1      1163 6.56909E+01 9.04157E+01-7.79318E+00
 -1      1164 6.56909E+01 9.04157E+01-6.06136E+00
 -1      1165 6.56909E+01 9.04157E+01-4.32955E+00
 -1      1166 6.56909E+01 9.04157E+01-2.59773E+00
 -1      1167 6.56909E+01 9.04157E+01-8.65909E-01
 -1      1168 6.56909E+01 9.04157E+01 8.65909E-01
 -1      1169 6.56909E+01 9.04157E+01 2.59773E+00
 -1      1170 6.56909E+01 9.04157E+01 4.32955E+00
 -1      1171 6.56909E+01 9.04157E+01 6.06136E+00
 -1      1172 6.56909E+01 9.04157E+01 7.79318E+00
 -1      1173 3.45357E+01 1.06290E+02-7.79318E+00
 -1      1174 3.45357E+01 1.06290E+02-6.06136E+00
 -1      1175 3.45357E+01 1.06290E+02-4.32955E+00
 -1      1176 3.45357E+01 1.06290E+02-2.59773E+00
 -1      1177 3.45357E+01 1.06290E+02-8.65909E-01
 -1      1178 3.45357E+01 1.06290E+02 8.65909E-01
 -1      1179 3.45357E+01 1.06290E+02 2.59773E+00
 -1      1180 3.45357E+01 1.06290E+02 4.32955E+00
 -1      1181 3.45357E+01 1.06290E+02 6.06136E+00
 -1      1182 3.45357E+01 1.06290E+02 7.79318E+00
 -1      1183 3.76754E+01-1.15953E+02-7.79318E+00
 -1      1184 3.76754E+01-1.15953E+02-6.06136E+00
 -1      1185 3.76754E+01-1.15953E+02-4.32955E+00
 -1      1186 3.76754E+01-1.15953E+02-2.59773E+00
 -1      1187 3.76754E+01-1.15953E+02-8.65909E-01
 -1      1188 3.76754E+01-1.15953E+02 8.65909E-01
 -1      1189 3.76754E+01-1.15953E+02 2.59773E+00
 -1      1190 3.76754E+01-1.15953E+02 4.32955E+00
 -1      1191 3.76754E+01-1.15953E+02 6.06136E+00
 -1      1192 3.76754E+01-1.15953E+02 7.79318E+00
 -1      1193 7.16628E+01-9.86354E+01-7.79318E+00
 -1      1194 7.16628E+01-9.86354E+01-6.06136E+00
 -1      1195 7.16628E+01-9.86354E+01-4.32955E+00
 -1      1196 7.16628E+01-9.86354E+01-2.59773E+00
 -1      1197 7.16628E+01-9.86354E+01-8.65909E-01
 -1      1198 7.16628E+01-9.86354E+01 8.65909E-01
 -1      1199 7.16628E+01-9.86354E+01 2.59773E+00
 -1      1200 7.16628E+01-9.86354E+01 4.32955E+00
 -1      1201 7.16628E+01-9.86354E+01 6.06136E+00
 -1      1202 7.16628E+01-9.86354E+01 7.79318E+00
 -1      1203 9.86354E+01-7.16628E+01-7.79318E+00
 -1      1204 9.86354E+01-7.16628E+01-6.06136E+00
 -1      1205 9.86354E+01-7.16628E+01-4.32955E+00
 -1      1206 9.86354E+01-7.16628E+01-2.59773E+00
 -1      1207 9.86354E+01-7.16628E+01-8.65909E-01
 -1      1208 9.86354E+01-7.16628E+01 8.65909E-01
 -1      1209 9.86354E+01-7.16628E+01 2.59773E+00
 -1      1210 9.86354E+01-7.16628E+01 4.32955E+00
 -1      1211 9.86354E+01-7.16628E+01 6.06136E+00
 -1      1212 9.86354E+01-7.16628E+01 7.79318E+00
 -1      1213 1.15953E+02-3.76754E+01-7.79318E+00
 -1      1214 1.15953E+02-3.76754E+01-6.06136E+00
 -1      1215 1.15953E+02-3.76754E+01-4.32955E+00
 -1      1216 1.15953E+02-3.76754E+01-2.59773E+00
 -1      1217 1.15953E+02-3.76754E+01-8.65909E-01
 -1      1218 1.15953E+02-3.76754E+01 8.65909E-01
 -1      1219 1.15953E+02-3.76754E+01 2.59773E+00
 -1      1220 1.15953E+02-3.76754E+01 4.32955E+00
 -1      1221 1.15953E+02-3.76754E+01 6.06136E+00
 -1      1222 1.15953E+02-3.76754E+01 7.79318E+00
 -1      1223 1.21920E+02 5.58445E-07-7.79318E+00
 -1      1224 1.21920E+02 5.58445E-07-6.06136E+00
 -1      1225 1.21920E+02 5.58445E-07-4.32955E+00
 -1      1226 1.21920E+02 5.58445E-07-2.59773E+00
 -1      1227 1.21920E+02 5.58445E-07-8.65909E-01
 -1      1228 1.21920E+02 5.58445E-07 8.65909E-01
 -1      1229 1.21920E+02 5.58445E-07 2.59773E+00
 -1      1230 1.21920E+02 5.58445E-07 4.32955E+00
 -1      1231 1.21920E+02 5.58445E-07 6.06136E+00
 -1      1232 1.21920E+02 5.58445E-07 7.79318E+00
 -1      1233 1.15953E+02 3.76754E+01-7.79318E+00
 -1      1234 1.15953E+02 3.76754E+01-6.06136E+00
 -1      1235 1.15953E+02 3.76754E+01-4.32955E+00
 -1      1236 1.15953E+02 3.76754E+01-2.59773E+00
 -1      1237 1.15953E+02 3.76754E+01-8.65909E-01
 -1      1238 1.15953E+02 3.76754E+01 8.65909E-01
 -1      1239 1.15953E+02 3.76754E+01 2.59773E+00
 -1      1240 1.15953E+02 3.76754E+01 4.32955E+00
 -1      1241 1.15953E+02 3.76754E+01 6.06136E+00
 -1      1242 1.15953E+02 3.76754E+01 7.79318E+00
 -1      1243 9.86354E+01 7.16628E+01-7.79318E+00
 -1      1244 9.86354E+01 7.16628E+01-6.06136E+00
 -1      1245 9.86354E+01 7.16628E+01-4.32955E+00
 -1      1246 9.86354E+01 7.16628E+01-2.59773E+00
 -1      1247 9.86354E+01 7.16628E+01-8.65909E-01
 -1      1248 9.86354E+01 7.16628E+01 8.65909E-01
 -1      1249 9.86354E+01 7.16628E+01 2.59773E+00
 -1      1250 9.86354E+01 7.16628E+01 4.32955E+00
 -1      1251 9.86354E+01 7.16628E+01 6.06136E+00
 -1      1252 9.86354E+01 7.16628E+01 7.79318E+00
 -1      1253 7.16628E+01 9.86354E+01-7.79318E+00
 -1      1254 7.16628E+01 9.86354E+01-6.06136E+00
 -1      1255 7.16628E+01 9.86354E+01-4.32955E+00
 -1      1256 7.16628E+01 9.86354E+01-2.59773E+00
 -1      1257 7.16628E+01 9.86354E+01-8.65909E-01
 -1      1258 7.16628E+01 9.86354E+01 8.65909E-01
 -1      1259 7.16628E+01 9.86354E+01 2.59773E+00
 -1      1260 7.16628E+01 9.86354E+01 4.32955E+00
 -1      1261 7.16628E+01 9.86354E+01 6.06136E+00
 -1      1262 7.16628E+01 9.86354E+01 7.79318E+00
 -1      1263 3.76754E+01 1.15953E+02-7.79318E+00
 -1      1264 3.76754E+01 1.15953E+02-6.06136E+00
 -1      1265 3.76754E+01 1.15953E+02-4.32955E+00
 -1      1266 3.76754E+01 1.15953E+02-2.59773E+00
 -1      1267 3.76754E+01 1.15953E+02-8.65909E-01
 -1      1268 3.76754E+01 1.15953E+02 8.65909E-01
 -1      1269 3.76754E+01 1.15953E+02 2.59773E+00
 -1      1270 3.76754E+01 1.15953E+02 4.32955E+00
 -1      1271 3.76754E+01 1.15953E+02 6.06136E+00
 -1      1272 3.76754E+01 1.15953E+02 7.79318E+00
 -1      1273 4.08150E+01-1.25616E+02-7.79318E+00
 -1      1274 4.08150E+01-1.25616E+02-6.06136E+00
 -1      1275 4.08150E+01-1.25616E+02-4.32955E+00
 -1      1276 4.08150E+01-1.25616E+02-2.59773E+00
 -1      1277 4.08150E+01-1.25616E+02-8.65909E-01
 -1      1278 4.08150E+01-1.25616E+02 8.65909E-01
 -1      1279 4.08150E+01-1.25616E+02 2.59773E+00
 -1      1280 4.08150E+01-1.25616E+02 4.32955E+00
 -1      1281 4.08150E+01-1.25616E+02 6.06136E+00
 -1      1282 4.08150E+01-1.25616E+02 7.79318E+00
 -1      1283 7.76347E+01-1.06855E+02-7.79318E+00
 -1      1284 7.76347E+01-1.06855E+02-6.06136E+00
 -1      1285 7.76347E+01-1.06855E+02-4.32955E+00
 -1      1286 7.76347E+01-1.06855E+02-2.59773E+00
 -1      1287 7.76347E+01-1.06855E+02-8.65909E-01
 -1      1288 7.76347E+01-1.06855E+02 8.65909E-01
 -1      1289 7.76347E+01-1.06855E+02 2.59773E+00
 -1      1290 7.76347E+01-1.06855E+02 4.32955E+00
 -1      1291 7.76347E+01-1.06855E+02 6.06136E+00
 -1      1292 7.76347E+01-1.06855E+02 7.79318E+00
 -1      1293 1.06855E+02-7.76347E+01-7.79318E+00
 -1      1294 1.06855E+02-7.76347E+01-6.06136E+00
 -1      1295 1.06855E+02-7.76347E+01-4.32955E+00
 -1      1296 1.06855E+02-7.76347E+01-2.59773E+00
 -1      1297 1.06855E+02-7.76347E+01-8.65909E-01
 -1      1298 1.06855E+02-7.76347E+01 8.65909E-01
 -1      1299 1.06855E+02-7.76347E+01 2.59773E+00
 -1      1300 1.06855E+02-7.76347E+01 4.32955E+00
 -1      1301 1.06855E+02-7.76347E+01 6.06136E+00
 -1      1302 1.06855E+02-7.76347E+01 7.79318E+00
 -1      1303 1.25616E+02-4.08150E+01-7.79318E+00
 -1      1304 1.25616E+02-4.08150E+01-6.06136E+00
 -1      1305 1.25616E+02-4.08150E+01-4.32955E+00
 -1      1306 1.25616E+02-4.08150E+01-2.59773E+00
 -1      1307 1.25616E+02-4.08150E+01-8.65909E-01
 -1      1308 1.25616E+02-4.08150E+01 8.65909E-01
 -1      1309 1.25616E+02-4.08150E+01 2.59773E+00
 -1      1310 1.25616E+02-4.08150E+01 4.32955E+00
 -1      1311 1.25616E+02-4.08150E+01 6.06136E+00
 -1      1312 1.25616E+02-4.08150E+01 7.79318E+00
 -1      1313 1.32080E+02 6.04011E-07-7.79318E+00
 -1      1314 1.32080E+02 6.04011E-07-6.06136E+00
 -1      1315 1.32080E+02 6.04011E-07-4.32955E+00
 -1      1316 1.32080E+02 6.04011E-07-2.59773E+00
 -1      1317 1.32080E+02 6.04011E-07-8.65909E-01
 -1      1318 1.32080E+02 6.04011E-07 8.65909E-01
 -1      1319 1.32080E+02 6.04011E-07 2.59773E+00
 -1      1320 1.32080E+02 6.04011E-07 4.32955E+00
 -1      1321 1.32080E+02 6.04011E-07 6.06136E+00
 -1      1322 1.32080E+02 6.04011E-07 7.79318E+00
 -1      1323 1.25616E+02 4.08150E+01-7.79318E+00
 -1      1324 1.25616E+02 4.08150E+01-6.06136E+00
 -1      1325 1.25616E+02 4.08150E+01-4.32955E+00
 -1      1326 1.25616E+02 4.08150E+01-2.59773E+00
 -1      1327 1.25616E+02 4.08150E+01-8.65909E-01
 -1      1328 1.25616E+02 4.08150E+01 8.65909E-01
 -1      1329 1.25616E+02 4.08150E+01 2.59773E+00
 -1      1330 1.25616E+02 4.08150E+01 4.32955E+00
 -1      1331 1.25616E+02 4.08150E+01 6.06136E+00
 -1      1332 1.25616E+02 4.08150E+01 7.79318E+00
 -1      1333 1.06855E+02 7.76347E+01-7.79318E+00
 -1      1334 1.06855E+02 7.76347E+01-6.06136E+00
 -1      1335 1.06855E+02 7.76347E+01-4.32955E+00
 -1      1336 1.06855E+02 7.76347E+01-2.59773E+00
 -1      1337 1.06855E+02 7.76347E+01-8.65909E-01
 -1      1338 1.06855E+02 7.76347E+01 8.65909E-01
 -1      1339 1.06855E+02 7.76347E+01 2.59773E+00
 -1      1340 1.06855E+02 7.76347E+01 4.32955E+00
 -1      1341 1.06855E+02 7.76347E+01 6.06136E+00
 -1      1342 1.06855E+02 7.76347E+01 7.79318E+00
 -1      1343 7.76347E+01 1.06855E+02-7.79318E+00
 -1      1344 7.76347E+01 1.06855E+02-6.06136E+00
 -1      1345 7.76347E+01 1.06855E+02-4.32955E+00
 -1      1346 7.76347E+01 1.06855E+02-2.59773E+00
 -1      1347 7.76347E+01 1.06855E+02-8.65909E-01
 -1      1348 7.76347E+01 1.06855E+02 8.65909E-01
 -1      1349 7.76347E+01 1.06855E+02 2.59773E+00
 -1      1350 7.76347E+01 1.06855E+02 4.32955E+00
 -1      1351 7.76347E+01 1.06855E+02 6.06136E+00
 -1      1352 7.76347E+01 1.06855E+02 7.79318E+00
 -1      1353 4.08150E+01 1.25616E+02-7.79318E+00
 -1      1354 4.08150E+01 1.25616E+02-6.06136E+00
 -1      1355 4.08150E+01 1.25616E+02-4.32955E+00
 -1      1356 4.08150E+01 1.25616E+02-2.59773E+00
 -1      1357 4.08150E+01 1.25616E+02-8.65909E-01
 -1      1358 4.08150E+01 1.25616E+02 8.65909E-01
 -1      1359 4.08150E+01 1.25616E+02 2.59773E+00
 -1      1360 4.08150E+01 1.25616E+02 4.32955E+00
 -1      1361 4.08150E+01 1.25616E+02 6.06136E+00
 -1      1362 4.08150E+01 1.25616E+02 7.79318E+00
 -1      1363 4.39546E+01-1.35278E+02-7.79318E+00
 -1      1364 4.39546E+01-1.35278E+02-6.06136E+00
 -1      1365 4.39546E+01-1.35278E+02-4.32955E+00
 -1      1366 4.39546E+01-1.35278E+02-2.59773E+00
 -1      1367 4.39546E+01-1.35278E+02-8.65909E-01
 -1      1368 4.39546E+01-1.35278E+02 8.65909E-01
 -1      1369 4.39546E+01-1.35278E+02 2.59773E+00
 -1      1370 4.39546E+01-1.35278E+02 4.32955E+00
 -1      1371 4.39546E+01-1.35278E+02 6.06136E+00
 -1      1372 4.39546E+01-1.35278E+02 7.79318E+00
 -1      1373 8.36066E+01-1.15075E+02-7.79318E+00
 -1      1374 8.36066E+01-1.15075E+02-6.06136E+00
 -1      1375 8.36066E+01-1.15075E+02-4.32955E+00
 -1      1376 8.36066E+01-1.15075E+02-2.59773E+00
 -1      1377 8.36066E+01-1.15075E+02-8.65909E-01
 -1      1378 8.36066E+01-1.15075E+02 8.65909E-01
 -1      1379 8.36066E+01-1.15075E+02 2.59773E+00
 -1      1380 8.36066E+01-1.15075E+02 4.32955E+00
 -1      1381 8.36066E+01-1.15075E+02 6.06136E+00
 -1      1382 8.36066E+01-1.15075E+02 7.79318E+00
 -1      1383 1.15075E+02-8.36066E+01-7.79318E+00
 -1      1384 1.15075E+02-8.36066E+01-6.06136E+00
 -1      1385 1.15075E+02-8.36066E+01-4.32955E+00
 -1      1386 1.15075E+02-8.36066E+01-2.59773E+00
 -1      1387 1.15075E+02-8.36066E+01-8.65909E-01
 -1      1388 1.15075E+02-8.36066E+01 8.65909E-01
 -1      1389 1.15075E+02-8.36066E+01 2.59773E+00
 -1      1390 1.15075E+02-8.36066E+01 4.32955E+00
 -1      1391 1.15075E+02-8.36066E+01 6.06136E+00
 -1      1392 1.15075E+02-8.36066E+01 7.79318E+00
 -1      1393 1.35278E+02-4.39546E+01-7.79318E+00
 -1      1394 1.35278E+02-4.39546E+01-6.06136E+00
 -1      1395 1.35278E+02-4.39546E+01-4.32955E+00
 -1      1396 1.35278E+02-4.39546E+01-2.59773E+00
 -1      1397 1.35278E+02-4.39546E+01-8.65909E-01
 -1      1398 1.35278E+02-4.39546E+01 8.65909E-01
 -1      1399 1.35278E+02-4.39546E+01 2.59773E+00
 -1      1400 1.35278E+02-4.39546E+01 4.32955E+00
 -1      1401 1.35278E+02-4.39546E+01 6.06136E+00
 -1      1402 1.35278E+02-4.39546E+01 7.79318E+00
 -1      1403 1.42240E+02 6.49564E-07-7.79318E+00
 -1      1404 1.42240E+02 6.49564E-07-6.06136E+00
 -1      1405 1.42240E+02 6.49564E-07-4.32955E+00
 -1      1406 1.42240E+02 6.49564E-07-2.59773E+00
 -1      1407 1.42240E+02 6.49564E-07-8.65909E-01
 -1      1408 1.42240E+02 6.49564E-07 8.65909E-01
 -1      1409 1.42240E+02 6.49564E-07 2.59773E+00
 -1      1410 1.42240E+02 6.49564E-07 4.32955E+00
 -1      1411 1.42240E+02 6.49564E-07 6.06136E+00
 -1      1412 1.42240E+02 6.49564E-07 7.79318E+00
 -1      1413 1.35278E+02 4.39546E+01-7.79318E+00
 -1      1414 1.35278E+02 4.39546E+01-6.06136E+00
 -1      1415 1.35278E+02 4.39546E+01-4.32955E+00
 -1      1416 1.35278E+02 4.39546E+01-2.59773E+00
 -1      1417 1.35278E+02 4.39546E+01-8.65909E-01
 -1      1418 1.35278E+02 4.39546E+01 8.65909E-01
 -1      1419 1.35278E+02 4.39546E+01 2.59773E+00
 -1      1420 1.35278E+02 4.39546E+01 4.32955E+00
 -1      1421 1.35278E+02 4.39546E+01 6.06136E+00
 -1      1422 1.35278E+02 4.39546E+01 7.79318E+00
 -1      1423 1.15075E+02 8.36066E+01-7.79318E+00
 -1      1424 1.15075E+02 8.36066E+01-6.06136E+00
 -1      1425 1.15075E+02 8.36066E+01-4.32955E+00
 -1      1426 1.15075E+02 8.36066E+01-2.59773E+00
 -1      1427 1.15075E+02 8.36066E+01-8.65909E-01
 -1      1428 1.15075E+02 8.36066E+01 8.65909E-01
 -1      1429 1.15075E+02 8.36066E+01 2.59773E+00
 -1      1430 1.15075E+02 8.36066E+01 4.32955E+00
 -1      1431 1.15075E+02 8.36066E+01 6.06136E+00
 -1      1432 1.15075E+02 8.36066E+01 7.79318E+00
 -1      1433 8.36066E+01 1.15075E+02-7.79318E+00
 -1      1434 8.36066E+01 1.15075E+02-6.06136E+00
 -1      1435 8.36066E+01 1.15075E+02-4.32955E+00
 -1      1436 8.36066E+01 1.15075E+02-2.59773E+00
 -1      1437 8.36066E+01 1.15075E+02-8.65909E-01
 -1      1438 8.36066E+01 1.15075E+02 8.65909E-01
 -1      1439 8.36066E+01 1.15075E+02 2.59773E+00
 -1      1440 8.36066E+01 1.15075E+02 4.32955E+00
 -1      1441 8.36066E+01 1.15075E+02 6.06136E+00
 -1      1442 8.36066E+01 1.15075E+02 7.79318E+00
 -1      1443 4.39546E+01 1.35278E+02-7.79318E+00
 -1      1444 4.39546E+01 1.35278E+02-6.06136E+00
 -1      1445 4.39546E+01 1.35278E+02-4.32955E+00
 -1      1446 4.39546E+01 1.35278E+02-2.59773E+00
 -1      1447 4.39546E+01 1.35278E+02-8.65909E-01
 -1      1448 4.39546E+01 1.35278E+02 8.65909E-01
 -1      1449 4.39546E+01 1.35278E+02 2.59773E+00
 -1      1450 4.39546E+01 1.35278E+02 4.32955E+00
 -1      1451 4.39546E+01 1.35278E+02 6.06136E+00
 -1      1452 4.39546E+01 1.35278E+02 7.79318E+00
 -3
    3C                          1100                                     1
 -1       232    1    0    1
 -2         1         9       121        36        81       202       643       472
 -1       233    1    0    1
 -2        81       202       643       472        82       203       644       473
 -1       234    1    0    1
 -2        82       203       644       473        83       204       645       474
 -1       235    1    0    1
 -2        83       204       645       474        84       205       646       475
 -1       236    1    0    1
 -2        84       205       646       475        85       206       647       476
 -1       237    1    0    1
 -2        85       206       647       476        86       207       648       477
 -1       238    1    0    1
 -2        86       207       648       477        87       208       649       478
 -1       239    1    0    1
 -2        87       208       649       478        88       209       650       479
 -1       240    1    0    1
 -2        88       209       650       479        89       210       651       480
 -1       241    1    0    1
 -2        89       210       651       480        90       211       652       481
 -1       242    1    0    1
 -2        90       211       652       481         5        45       562        80
 -1       243    1    0    1
 -2        36       121       122        37       472       643       653       482
 -1       244    1    0    1
 -2       472       643       653       482       473       644       654       483
 -1       245    1    0    1
 -2       473       644       654       483       474       645       655       484
 -1       246    1    0    1
 -2       474       645       655       484       475       646       656       485
 -1       247    1    0    1
 -2       475       646       656       485       476       647       657       486
 -1       248    1    0    1
 -2       476       647       657       486       477       648       658       487
 -1       249    1    0    1
 -2       477       648       658       487       478       649       659       488
 -1       250    1    0    1
 -2       478       649       659       488       479       650       660       489
 -1       251    1    0    1
 -2       479       650       660       489       480       651       661       490
 -1       252    1    0    1
 -2       480       651       661       490       481       652       662       491
 -1       253    1    0    1
 -2       481       652       662       491        80       562       563        79
 -1       254    1    0    1
 -2        37       122       123        38       482       653       663       492
 -1       255    1    0    1
 -2       482       653       663       492       483       654       664       493
 -1       256    1    0    1
 -2       483       654       664       493       484       655       665       494
 -1       257    1    0    1
 -2       484       655       665       494       485       656       666       495
 -1       258    1    0    1
 -2       485       656       666       495       486       657       667       496
 -1       259    1    0    1
 -2       486       657       667       496       487       658       668       497
 -1       260    1    0    1
 -2       487       658       668       497       488       659       669       498
 -1       261    1    0    1
 -2       488       659       669       498       489       660       670       499
 -1       262    1    0    1
 -2       489       660       670       499       490       661       671       500
 -1       263    1    0    1
 -2       490       661       671       500       491       662       672       501
 -1       264    1    0    1
 -2       491       662       672       501        79       563       564        78
 -1       265    1    0    1
 -2        38       123       124        39       492       663       673       502
 -1       266    1    0    1
 -2       492       663       673       502       493       664       674       503
 -1       267    1    0    1
 -2       493       664       674       503       494       665       675       504
 -1       268    1    0    1
 -2       494       665       675       504       495       666       676       505
 -1       269    1    0    1
 -2       495       666       676       505       496       667       677       506
 -1       270    1    0    1
 -2       496       667       677       506       497       668       678       507
 -1       271    1    0    1
 -2       497       668       678       507       498       669       679       508
 -1       272    1    0    1
 -2       498       669       679       508       499       670       680       509
 -1       273    1    0    1
 -2       499       670       680       509       500       671       681       510
 -1       274    1    0    1
 -2       500       671       681       510       501       672       682       511
 -1       275    1    0    1
 -2       501       672       682       511        78       564       565        77
 -1       276    1    0    1
 -2        39       124       125        40       502       673       683       512
 -1       277    1    0    1
 -2       502       673       683       512       503       674       684       513
 -1       278    1    0    1
 -2       503       674       684       513       504       675       685       514
 -1       279    1    0    1
 -2       504       675       685       514       505       676       686       515
 -1       280    1    0    1
 -2       505       676       686       515       506       677       687       516
 -1       281    1    0    1
 -2       506       677       687       516       507       678       688       517
 -1       282    1    0    1
 -2       507       678       688       517       508       679       689       518
 -1       283    1    0    1
 -2       508       679       689       518       509       680       690       519
 -1       284    1    0    1
 -2       509       680       690       519       510       681       691       520
 -1       285    1    0    1
 -2       510       681       691       520       511       682       692       521
 -1       286    1    0    1
 -2       511       682       692       521        77       565       566        76
 -1       287    1    0    1
 -2        40       125       126        41       512       683       693       522
 -1       288    1    0    1
 -2       512       683       693       522       513       684       694       523
 -1       289    1    0    1
 -2       513       684       694       523       514       685       695       524
 -1       290    1    0    1
 -2       514       685       695       524       515       686       696       525
 -1       291    1    0    1
 -2       515       686       696       525       516       687       697       526
 -1       292    1    0    1
 -2       516       687       697       526       517       688       698       527
 -1       293    1    0    1
 -2       517       688       698       527       518       689       699       528
 -1       294    1    0    1
 -2       518       689       699       528       519       690       700       529
 -1       295    1    0    1
 -2       519       690       700       529       520       691       701       530
 -1       296    1    0    1
 -2       520       691       701       530       521       692       702       531
 -1       297    1    0    1
 -2       521       692       702       531        76       566       567        75
 -1       298    1    0    1
 -2        41       126       127        42       522       693       703       532
 -1       299    1    0    1
 -2       522       693       703       532       523       694       704       533
 -1       300    1    0    1
 -2       523       694       704       533       524       695       705       534
 -1       301    1    0    1
 -2       524       695       705       534       525       696       706       535
 -1       302    1    0    1
 -2       525       696       706       535       526       697       707       536
 -1       303    1    0    1
 -2       526       697       707       536       527       698       708       537
 -1       304    1    0    1
 -2       527       698       708       537       528       699       709       538
 -1       305    1    0    1
 -2       528       699       709       538       529       700       710       539
 -1       306    1    0    1
 -2       529       700       710       539       530       701       711       540
 -1       307    1    0    1
 -2       530       701       711       540       531       702       712       541
 -1       308    1    0    1
 -2       531       702       712       541        75       567       568        74
 -1       309    1    0    1
 -2        42       127       128        43       532       703       713       542
 -1       310    1    0    1
 -2       532       703       713       542       533       704       714       543
 -1       311    1    0    1
 -2       533       704       714       543       534       705       715       544
 -1       312    1    0    1
 -2       534       705       715       544       535       706       716       545
 -1       313    1    0    1
 -2       535       706       716       545       536       707       717       546
 -1       314    1    0    1
 -2       536       707       717       546       537       708       718       547
 -1       315    1    0    1
 -2       537       708       718       547       538       709       719       548
 -1       316    1    0    1
 -2       538       709       719       548       539       710       720       549
 -1       317    1    0    1
 -2       539       710       720       549       540       711       721       550
 -1       318    1    0    1
 -2       540       711       721       550       541       712       722       551
 -1       319    1    0    1
 -2       541       712       722       551        74       568       569        73
 -1       320    1    0    1
 -2        43       128       129        44       542       713       723       552
 -1       321    1    0    1
 -2       542       713       723       552       543       714       724       553
 -1       322    1    0    1
 -2       543       714       724       553       544       715       725       554
 -1       323    1    0    1
 -2       544       715       725       554       545       716       726       555
 -1       324    1    0    1
 -2       545       716       726       555       546       717       727       556
 -1       325    1    0    1
 -2       546       717       727       556       547       718       728       557
 -1       326    1    0    1
 -2       547       718       728       557       548       719       729       558
 -1       327    1    0    1
 -2       548       719       729       558       549       720       730       559
 -1       328    1    0    1
 -2       549       720       730       559       550       721       731       560
 -1       329    1    0    1
 -2       550       721       731       560       551       722       732       561
 -1       330    1    0    1
 -2       551       722       732       561        73       569       570        72
 -1       331    1    0    1
 -2        44       129        35         4       552       723       462       111
 -1       332    1    0    1
 -2       552       723       462       111       553       724       463       112
 -1       333    1    0    1
 -2       553       724       463       112       554       725       464       113
 -1       334    1    0    1
 -2       554       725       464       113       555       726       465       114
 -1       335    1    0    1
 -2       555       726       465       114       556       727       466       115
 -1       336    1    0    1
 -2       556       727       466       115       557       728       467       116
 -1       337    1    0    1
 -2       557       728       467       116       558       729       468       117
 -1       338    1    0    1
 -2       558       729       468       117       559       730       469       118
 -1       339    1    0    1
 -2       559       730       469       118       560       731       470       119
 -1       340    1    0    1
 -2       560       731       470       119       561       732       471       120
 -1       341    1    0    1
 -2       561       732       471       120        72       570        71         8
 -1       342    1    0    1
 -2         9        10       130       121       202       212       733       643
 -1       343    1    0    1
 -2       202       212       733       643       203       213       734       644
 -1       344    1    0    1
 -2       203       213       734       644       204       214       735       645
 -1       345    1    0    1
 -2       204       214       735       645       205       215       736       646
 -1       346    1    0    1
 -2       205       215       736       646       206       216       737       647
 -1       347    1    0    1
 -2       206       216       737       647       207       217       738       648
 -1       348    1    0    1
 -2       207       217       738       648       208       218       739       649
 -1       349    1    0    1
 -2       208       218       739       649       209       219       740       650
 -1       350    1    0    1
 -2       209       219       740       650       210       220       741       651
 -1       351    1    0    1
 -2       210       220       741       651       211       221       742       652
 -1       352    1    0    1
 -2       211       221       742       652        45        46       571       562
 -1       353    1    0    1
 -2       121       130       131       122       643       733       743       653
 -1       354    1    0    1
 -2       643       733       743       653       644       734       744       654
 -1       355    1    0    1
 -2       644       734       744       654       645       735       745       655
 -1       356    1    0    1
 -2       645       735       745       655       646       736       746       656
 -1       357    1    0    1
 -2       646       736       746       656       647       737       747       657
 -1       358    1    0    1
 -2       647       737       747       657       648       738       748       658
 -1       359    1    0    1
 -2       648       738       748       658       649       739       749       659
 -1       360    1    0    1
 -2       649       739       749       659       650       740       750       660
 -1       361    1    0    1
 -2       650       740       750       660       651       741       751       661
 -1       362    1    0    1
 -2       651       741       751       661       652       742       752       662
 -1       363    1    0    1
 -2       652       742       752       662       562       571       572       563
 -1       364    1    0    1
 -2       122       131       132       123       653       743       753       663
 -1       365    1    0    1
 -2       653       743       753       663       654       744       754       664
 -1       366    1    0    1
 -2       654       744       754       664       655       745       755       665
 -1       367    1    0    1
 -2       655       745       755       665       656       746       756       666
 -1       368    1    0    1
 -2       656       746       756       666       657       747       757       667
 -1       369    1    0    1
 -2       657       747       757       667       658       748       758       668
 -1       370    1    0    1
 -2       658       748       758       668       659       749       759       669
 -1       371    1    0    1
 -2       659       749       759       669       660       750       760       670
 -1       372    1    0    1
 -2       660       750       760       670       661       751       761       671
 -1       373    1    0    1
 -2       661       751       761       671       662       752       762       672
 -1       374    1    0    1
 -2       662       752       762       672       563       572       573       564
 -1       375    1    0    1
 -2       123       132       133       124       663       753       763       673
 -1       376    1    0    1
 -2       663       753       763       673       664       754       764       674
 -1       377    1    0    1
 -2       664       754       764       674       665       755       765       675
 -1       378    1    0    1
 -2       665       755       765       675       666       756       766       676
 -1       379    1    0    1
 -2       666       756       766       676       667       757       767       677
 -1       380    1    0    1
 -2       667       757       767       677       668       758       768       678
 -1       381    1    0    1
 -2       668       758       768       678       669       759       769       679
 -1       382    1    0    1
 -2       669       759       769       679       670       760       770       680
 -1       383    1    0    1
 -2       670       760       770       680       671       761       771       681
 -1       384    1    0    1
 -2       671       761       771       681       672       762       772       682
 -1       385    1    0    1
 -2       672       762       772       682       564       573       574       565
 -1       386    1    0    1
 -2       124       133       134       125       673       763       773       683
 -1       387    1    0    1
 -2       673       763       773       683       674       764       774       684
 -1       388    1    0    1
 -2       674       764       774       684       675       765       775       685
 -1       389    1    0    1
 -2       675       765       775       685       676       766       776       686
 -1       390    1    0    1
 -2       676       766       776       686       677       767       777       687
 -1       391    1    0    1
 -2       677       767       777       687       678       768       778       688
 -1       392    1    0    1
 -2       678       768       778       688       679       769       779       689
 -1       393    1    0    1
 -2       679       769       779       689       680       770       780       690
 -1       394    1    0    1
 -2       680       770       780       690       681       771       781       691
 -1       395    1    0    1
 -2       681       771       781       691       682       772       782       692
 -1       396    1    0    1
 -2       682       772       782       692       565       574       575       566
 -1       397    1    0    1
 -2       125       134       135       126       683       773       783       693
 -1       398    1    0    1
 -2       683       773       783       693       684       774       784       694
 -1       399    1    0    1
 -2       684       774       784       694       685       775       785       695
 -1       400    1    0    1
 -2       685       775       785       695       686       776       786       696
 -1       401    1    0    1
 -2       686       776       786       696       687       777       787       697
 -1       402    1    0    1
 -2       687       777       787       697       688       778       788       698
 -1       403    1    0    1
 -2       688       778       788       698       689       779       789       699
 -1       404    1    0    1
 -2       689       779       789       699       690       780       790       700
 -1       405    1    0    1
 -2       690       780       790       700       691       781       791       701
 -1       406    1    0    1
 -2       691       781       791       701       692       782       792       702
 -1       407    1    0    1
 -2       692       782       792       702       566       575       576       567
 -1       408    1    0    1
 -2       126       135       136       127       693       783       793       703
 -1       409    1    0    1
 -2       693       783       793       703       694       784       794       704
 -1       410    1    0    1
 -2       694       784       794       704       695       785       795       705
 -1       411    1    0    1
 -2       695       785       795       705       696       786       796       706
 -1       412    1    0    1
 -2       696       786       796       706       697       787       797       707
 -1       413    1    0    1
 -2       697       787       797       707       698       788       798       708
 -1       414    1    0    1
 -2       698       788       798       708       699       789       799       709
 -1       415    1    0    1
 -2       699       789       799       709       700       790       800       710
 -1       416    1    0    1
 -2       700       790       800       710       701       791       801       711
 -1       417    1    0    1
 -2       701       791       801       711       702       792       802       712
 -1       418    1    0    1
 -2       702       792       802       712       567       576       577       568
 -1       419    1    0    1
 -2       127       136       137       128       703       793       803       713
 -1       420    1    0    1
 -2       703       793       803       713       704       794       804       714
 -1       421    1    0    1
 -2       704       794       804       714       705       795       805       715
 -1       422    1    0    1
 -2       705       795       805       715       706       796       806       716
 -1       423    1    0    1
 -2       706       796       806       716       707       797       807       717
 -1       424    1    0    1
 -2       707       797       807       717       708       798       808       718
 -1       425    1    0    1
 -2       708       798       808       718       709       799       809       719
 -1       426    1    0    1
 -2       709       799       809       719       710       800       810       720
 -1       427    1    0    1
 -2       710       800       810       720       711       801       811       721
 -1       428    1    0    1
 -2       711       801       811       721       712       802       812       722
 -1       429    1    0    1
 -2       712       802       812       722       568       577       578       569
 -1       430    1    0    1
 -2       128       137       138       129       713       803       813       723
 -1       431    1    0    1
 -2       713       803       813       723       714       804       814       724
 -1       432    1    0    1
 -2       714       804       814       724       715       805       815       725
 -1       433    1    0    1
 -2       715       805       815       725       716       806       816       726
 -1       434    1    0    1
 -2       716       806       816       726       717       807       817       727
 -1       435    1    0    1
 -2       717       807       817       727       718       808       818       728
 -1       436    1    0    1
 -2       718       808       818       728       719       809       819       729
 -1       437    1    0    1
 -2       719       809       819       729       720       810       820       730
 -1       438    1    0    1
 -2       720       810       820       730       721       811       821       731
 -1       439    1    0    1
 -2       721       811       821       731       722       812       822       732
 -1       440    1    0    1
 -2       722       812       822       732       569       578       579       570
 -1       441    1    0    1
 -2       129       138        34        35       723       813       452       462
 -1       442    1    0    1
 -2       723       813       452       462       724       814       453       463
 -1       443    1    0    1
 -2       724       814       453       463       725       815       454       464
 -1       444    1    0    1
 -2       725       815       454       464       726       816       455       465
 -1       445    1    0    1
 -2       726       816       455       465       727       817       456       466
 -1       446    1    0    1
 -2       727       817       456       466       728       818       457       467
 -1       447    1    0    1
 -2       728       818       457       467       729       819       458       468
 -1       448    1    0    1
 -2       729       819       458       468       730       820       459       469
 -1       449    1    0    1
 -2       730       820       459       469       731       821       460       470
 -1       450    1    0    1
 -2       731       821       460       470       732       822       461       471
 -1       451    1    0    1
 -2       732       822       461       471       570       579        70        71
 -1       452    1    0    1
 -2        10        11       139       130       212       222       823       733
 -1       453    1    0    1
 -2       212       222       823       733       213       223       824       734
 -1       454    1    0    1
 -2       213       223       824       734       214       224       825       735
 -1       455    1    0    1
 -2       214       224       825       735       215       225       826       736
 -1       456    1    0    1
 -2       215       225       826       736       216       226       827       737
 -1       457    1    0    1
 -2       216       226       827       737       217       227       828       738
 -1       458    1    0    1
 -2       217       227       828       738       218       228       829       739
 -1       459    1    0    1
 -2       218       228       829       739       219       229       830       740
 -1       460    1    0    1
 -2       219       229       830       740       220       230       831       741
 -1       461    1    0    1
 -2       220       230       831       741       221       231       832       742
 -1       462    1    0    1
 -2       221       231       832       742        46        47       580       571
 -1       463    1    0    1
 -2       130       139       140       131       733       823       833       743
 -1       464    1    0    1
 -2       733       823       833       743       734       824       834       744
 -1       465    1    0    1
 -2       734       824       834       744       735       825       835       745
 -1       466    1    0    1
 -2       735       825       835       745       736       826       836       746
 -1       467    1    0    1
 -2       736       826       836       746       737       827       837       747
 -1       468    1    0    1
 -2       737       827       837       747       738       828       838       748
 -1       469    1    0    1
 -2       738       828       838       748       739       829       839       749
 -1       470    1    0    1
 -2       739       829       839       749       740       830       840       750
 -1       471    1    0    1
 -2       740       830       840       750       741       831       841       751
 -1       472    1    0    1
 -2       741       831       841       751       742       832       842       752
 -1       473    1    0    1
 -2       742       832       842       752       571       580       581       572
 -1       474    1    0    1
 -2       131       140       141       132       743       833       843       753
 -1       475    1    0    1
 -2       743       833       843       753       744       834       844       754
 -1       476    1    0    1
 -2       744       834       844       754       745       835       845       755
 -1       477    1    0    1
 -2       745       835       845       755       746       836       846       756
 -1       478    1    0    1
 -2       746       836       846       756       747       837       847       757
 -1       479    1    0    1
 -2       747       837       847       757       748       838       848       758
 -1       480    1    0    1
 -2       748       838       848       758       749       839       849       759
 -1       481    1    0    1
 -2       749       839       849       759       750       840       850       760
 -1       482    1    0    1
 -2       750       840       850       760       751       841       851       761
 -1       483    1    0    1
 -2       751       841       851       761       752       842       852       762
 -1       484    1    0    1
 -2       752       842       852       762       572       581       582       573
 -1       485    1    0    1
 -2       132       141       142       133       753       843       853       763
 -1       486    1    0    1
 -2       753       843       853       763       754       844       854       764
 -1       487    1    0    1
 -2       754       844       854       764       755       845       855       765
 -1       488    1    0    1
 -2       755       845       855       765       756       846       856       766
 -1       489    1    0    1
 -2       756       846       856       766       757       847       857       767
 -1       490    1    0    1
 -2       757       847       857       767       758       848       858       768
 -1       491    1    0    1
 -2       758       848       858       768       759       849       859       769
 -1       492    1    0    1
 -2       759       849       859       769       760       850       860       770
 -1       493    1    0    1
 -2       760       850       860       770       761       851       861       771
 -1       494    1    0    1
 -2       761       851       861       771       762       852       862       772
 -1       495    1    0    1
 -2       762       852       862       772       573       582       583       574
 -1       496    1    0    1
 -2       133       142       143       134       763       853       863       773
 -1       497    1    0    1
 -2       763       853       863       773       764       854       864       774
 -1       498    1    0    1
 -2       764       854       864       774       765       855       865       775
 -1       499    1    0    1
 -2       765       855       865       775       766       856       866       776
 -1       500    1    0    1
 -2       766       856       866       776       767       857       867       777
 -1       501    1    0    1
 -2       767       857       867       777       768       858       868       778
 -1       502    1    0    1
 -2       768       858       868       778       769       859       869       779
 -1       503    1    0    1
 -2       769       859       869       779       770       860       870       780
 -1       504    1    0    1
 -2       770       860       870       780       771       861       871       781
 -1       505    1    0    1
 -2       771       861       871       781       772       862       872       782
 -1       506    1    0    1
 -2       772       862       872       782       574       583       584       575
 -1       507    1    0    1
 -2       134       143       144       135       773       863       873       783
 -1       508    1    0    1
 -2       773       863       873       783       774       864       874       784
 -1       509    1    0    1
 -2       774       864       874       784       775       865       875       785
 -1       510    1    0    1
 -2       775       865       875       785       776       866       876       786
 -1       511    1    0    1
 -2       776       866       876       786       777       867       877       787
 -1       512    1    0    1
 -2       777       867       877       787       778       868       878       788
 -1       513    1    0    1
 -2       778       868       878       788       779       869       879       789
 -1       514    1    0    1
 -2       779       869       879       789       780       870       880       790
 -1       515    1    0    1
 -2       780       870       880       790       781       871       881       791
 -1       516    1    0    1
 -2       781       871       881       791       782       872       882       792
 -1       517    1    0    1
 -2       782       872       882       792       575       584       585       576
 -1       518    1    0    1
 -2       135       144       145       136       783       873       883       793
 -1       519    1    0    1
 -2       783       873       883       793       784       874       884       794
 -1       520    1    0    1
 -2       784       874       884       794       785       875       885       795
 -1       521    1    0    1
 -2       785       875       885       795       786       876       886       796
 -1       522    1    0    1
 -2       786       876       886       796       787       877       887       797
 -1       523    1    0    1
 -2       787       877       887       797       788       878       888       798
 -1       524    1    0    1
 -2       788       878       888       798       789       879       889       799
 -1       525    1    0    1
 -2       789       879       889       799       790       880       890       800
 -1       526    1    0    1
 -2       790       880       890       800       791       881       891       801
 -1       527    1    0    1
 -2       791       881       891       801       792       882       892       802
 -1       528    1    0    1
 -2       792       882       892       802       576       585       586       577
 -1       529    1    0    1
 -2       136       145       146       137       793       883       893       803
 -1       530    1    0    1
 -2       793       883       893       803       794       884       894       804
 -1       531    1    0    1
 -2       794       884       894       804       795       885       895       805
 -1       532    1    0    1
 -2       795       885       895       805       796       886       896       806
 -1       533    1    0    1
 -2       796       886       896       806       797       887       897       807
 -1       534    1    0    1
 -2       797       887       897       807       798       888       898       808
 -1       535    1    0    1
 -2       798       888       898       808       799       889       899       809
 -1       536    1    0    1
 -2       799       889       899       809       800       890       900       810
 -1       537    1    0    1
 -2       800       890       900       810       801       891       901       811
 -1       538    1    0    1
 -2       801       891       901       811       802       892       902       812
 -1       539    1    0    1
 -2       802       892       902       812       577       586       587       578
 -1       540    1    0    1
 -2       137       146       147       138       803       893       903       813
 -1       541    1    0    1
 -2       803       893       903       813       804       894       904       814
 -1       542    1    0    1
 -2       804       894       904       814       805       895       905       815
 -1       543    1    0    1
 -2       805       895       905       815       806       896       906       816
 -1       544    1    0    1
 -2       806       896       906       816       807       897       907       817
 -1       545    1    0    1
 -2       807       897       907       817       808       898       908       818
 -1       546    1    0    1
 -2       808       898       908       818       809       899       909       819
 -1       547    1    0    1
 -2       809       899       909       819       810       900       910       820
 -1       548    1    0    1
 -2       810       900       910       820       811       901       911       821
 -1       549    1    0    1
 -2       811       901       911       821       812       902       912       822
 -1       550    1    0    1
 -2       812       902       912       822       578       587       588       579
 -1       551    1    0    1
 -2       138       147        33        34       813       903       442       452
 -1       552    1    0    1
 -2       813       903       442       452       814       904       443       453
 -1       553    1    0    1
 -2       814       904       443       453       815       905       444       454
 -1       554    1    0    1
 -2       815       905       444       454       816       906       445       455
 -1       555    1    0    1
 -2       816       906       445       455       817       907       446       456
 -1       556    1    0    1
 -2       817       907       446       456       818       908       447       457
 -1       557    1    0    1
 -2       818       908       447       457       819       909       448       458
 -1       558    1    0    1
 -2       819       909       448       458       820       910       449       459
 -1       559    1    0    1
 -2       820       910       449       459       821       911       450       460
 -1       560    1    0    1
 -2       821       911       450       460       822       912       451       461
 -1       561    1    0    1
 -2       822       912       451       461       579       588        69        70
 -1       562    1    0    1
 -2        11        12       148       139       222       232       913       823
 -1       563    1    0    1
 -2       222       232       913       823       223       233       914       824
 -1       564    1    0    1
 -2       223       233       914       824       224       234       915       825
 -1       565    1    0    1
 -2       224       234       915       825       225       235       916       826
 -1       566    1    0    1
 -2       225       235       916       826       226       236       917       827
 -1       567    1    0    1
 -2       226       236       917       827       227       237       918       828
 -1       568    1    0    1
 -2       227       237       918       828       228       238       919       829
 -1       569    1    0    1
 -2       228       238       919       829       229       239       920       830
 -1       570    1    0    1
 -2       229       239       920       830       230       240       921       831
 -1       571    1    0    1
 -2       230       240       921       831       231       241       922       832
 -1       572    1    0    1
 -2       231       241       922       832        47        48       589       580
 -1       573    1    0    1
 -2       139       148       149       140       823       913       923       833
 -1       574    1    0    1
 -2       823       913       923       833       824       914       924       834
 -1       575    1    0    1
 -2       824       914       924       834       825       915       925       835
 -1       576    1    0    1
 -2       825       915       925       835       826       916       926       836
 -1       577    1    0    1
 -2       826       916       926       836       827       917       927       837
 -1       578    1    0    1
 -2       827       917       927       837       828       918       928       838
 -1       579    1    0    1
 -2       828       918       928       838       829       919       929       839
 -1       580    1    0    1
 -2       829       919       929       839       830       920       930       840
 -1       581    1    0    1
 -2       830       920       930       840       831       921       931       841
 -1       582    1    0    1
 -2       831       921       931       841       832       922       932       842
 -1       583    1    0    1
 -2       832       922       932       842       580       589       590       581
 -1       584    1    0    1
 -2       140       149       150       141       833       923       933       843
 -1       585    1    0    1
 -2       833       923       933       843       834       924       934       844
 -1       586    1    0    1
 -2       834       924       934       844       835       925       935       845
 -1       587    1    0    1
 -2       835       925       935       845       836       926       936       846
 -1       588    1    0    1
 -2       836       926       936       846       837       927       937       847
 -1       589    1    0    1
 -2       837       927       937       847       838       928       938       848
 -1       590    1    0    1
 -2       838       928       938       848       839       929       939       849
 -1       591    1    0    1
 -2       839       929       939       849       840       930       940       850
 -1       592    1    0    1
 -2       840       930       940       850       841       931       941       851
 -1       593    1    0    1
 -2       841       931       941       851       842       932       942       852
 -1       594    1    0    1
 -2       842       932       942       852       581       590       591       582
 -1       595    1    0    1
 -2       141       150       151       142       843       933       943       853
 -1       596    1    0    1
 -2       843       933       943       853       844       934       944       854
 -1       597    1    0    1
 -2       844       934       944       854       845       935       945       855
 -1       598    1    0    1
 -2       845       935       945       855       846       936       946       856
 -1       599    1    0    1
 -2       846       936       946       856       847       937       947       857
 -1       600    1    0    1
 -2       847       937       947       857       848       938       948       858
 -1       601    1    0    1
 -2       848       938       948       858       849       939       949       859
 -1       602    1    0    1
 -2       849       939       949       859       850       940       950       860
 -1       603    1    0    1
 -2       850       940       950       860       851       941       951       861
 -1       604    1    0    1
 -2       851       941       951       861       852       942       952       862
 -1       605    1    0    1
 -2       852       942       952       862       582       591       592       583
 -1       606    1    0    1
 -2       142       151       152       143       853       943       953       863
 -1       607    1    0    1
 -2       853       943       953       863       854       944       954       864
 -1       608    1    0    1
 -2       854       944       954       864       855       945       955       865
 -1       609    1    0    1
 -2       855       945       955       865       856       946       956       866
 -1       610    1    0    1
 -2       856       946       956       866       857       947       957       867
 -1       611    1    0    1
 -2       857       947       957       867       858       948       958       868
 -1       612    1    0    1
 -2       858       948       958       868       859       949       959       869
 -1       613    1    0    1
 -2       859       949       959       869       860       950       960       870
 -1       614    1    0    1
 -2       860       950       960       870       861       951       961       871
 -1       615    1    0    1
 -2       861       951       961       871       862       952       962       872
 -1       616    1    0    1
 -2       862       952       962       872       583       592       593       584
 -1       617    1    0    1
 -2       143       152       153       144       863       953       963       873
 -1       618    1    0    1
 -2       863       953       963       873       864       954       964       874
 -1       619    1    0    1
 -2       864       954       964       874       865       955       965       875
 -1       620    1    0    1
 -2       865       955       965       875       866       956       966       876
 -1       621    1    0    1
 -2       866       956       966       876       867       957       967       877
 -1       622    1    0    1
 -2       867       957       967       877       868       958       968       878
 -1       623    1    0    1
 -2       868       958       968       878       869       959       969       879
 -1       624    1    0    1
 -2       869       959       969       879       870       960       970       880
 -1       625    1    0    1
 -2       870       960       970       880       871       961       971       881
 -1       626    1    0    1
 -2       871       961       971       881       872       962       972       882
 -1       627    1    0    1
 -2       872       962       972       882       584       593       594       585
 -1       628    1    0    1
 -2       144       153       154       145       873       963       973       883
 -1       629    1    0    1
 -2       873       963       973       883       874       964       974       884
 -1       630    1    0    1
 -2       874       964       974       884       875       965       975       885
 -1       631    1    0    1
 -2       875       965       975       885       876       966       976       886
 -1       632    1    0    1
 -2       876       966       976       886       877       967       977       887
 -1       633    1    0    1
 -2       877       967       977       887       878       968       978       888
 -1       634    1    0    1
 -2       878       968       978       888       879       969       979       889
 -1       635    1    0    1
 -2       879       969       979       889       880       970       980       890
 -1       636    1    0    1
 -2       880       970       980       890       881       971       981       891
 -1       637    1    0    1
 -2       881       971       981       891       882       972       982       892
 -1       638    1    0    1
 -2       882       972       982       892       585       594       595       586
 -1       639    1    0    1
 -2       145       154       155       146       883       973       983       893
 -1       640    1    0    1
 -2       883       973       983       893       884       974       984       894
 -1       641    1    0    1
 -2       884       974       984       894       885       975       985       895
 -1       642    1    0    1
 -2       885       975       985       895       886       976       986       896
 -1       643    1    0    1
 -2       886       976       986       896       887       977       987       897
 -1       644    1    0    1
 -2       887       977       987       897       888       978       988       898
 -1       645    1    0    1
 -2       888       978       988       898       889       979       989       899
 -1       646    1    0    1
 -2       889       979       989       899       890       980       990       900
 -1       647    1    0    1
 -2       890       980       990       900       891       981       991       901
 -1       648    1    0    1
 -2       891       981       991       901       892       982       992       902
 -1       649    1    0    1
 -2       892       982       992       902       586       595       596       587
 -1       650    1    0    1
 -2       146       155       156       147       893       983       993       903
 -1       651    1    0    1
 -2       893       983       993       903       894       984       994       904
 -1       652    1    0    1
 -2       894       984       994       904       895       985       995       905
 -1       653    1    0    1
 -2       895       985       995       905       896       986       996       906
 -1       654    1    0    1
 -2       896       986       996       906       897       987       997       907
 -1       655    1    0    1
 -2       897       987       997       907       898       988       998       908
 -1       656    1    0    1
 -2       898       988       998       908       899       989       999       909
 -1       657    1    0    1
 -2       899       989       999       909       900       990      1000       910
 -1       658    1    0    1
 -2       900       990      1000       910       901       991      1001       911
 -1       659    1    0    1
 -2       901       991      1001       911       902       992      1002       912
 -1       660    1    0    1
 -2       902       992      1002       912       587       596       597       588
 -1       661    1    0    1
 -2       147       156        32        33       903       993       432       442
 -1       662    1    0    1
 -2       903       993       432       442       904       994       433       443
 -1       663    1    0    1
 -2       904       994       433       443       905       995       434       444
 -1       664    1    0    1
 -2       905       995       434       444       906       996       435       445
 -1       665    1    0    1
 -2       906       996       435       445       907       997       436       446
 -1       666    1    0    1
 -2       907       997       436       446       908       998       437       447
 -1       667    1    0    1
 -2       908       998       437       447       909       999       438       448
 -1       668    1    0    1
 -2       909       999       438       448       910      1000       439       449
 -1       669    1    0    1
 -2       910      1000       439       449       911      1001       440       450
 -1       670    1    0    1
 -2       911      1001       440       450       912      1002       441       451
 -1       671    1    0    1
 -2       912      1002       441       451       588       597        68        69
 -1       672    1    0    1
 -2        12        13       157       148       232       242      1003       913
 -1       673    1    0    1
 -2       232       242      1003       913       233       243      1004       914
 -1       674    1    0    1
 -2       233       243      1004       914       234       244      1005       915
 -1       675    1    0    1
 -2       234       244      1005       915       235       245      1006       916
 -1       676    1    0    1
 -2       235       245      1006       916       236       246      1007       917
 -1       677    1    0    1
 -2       236       246      1007       917       237       247      1008       918
 -1       678    1    0    1
 -2       237       247      1008       918       238       248      1009       919
 -1       679    1    0    1
 -2       238       248      1009       919       239       249      1010       920
 -1       680    1    0    1
 -2       239       249      1010       920       240       250      1011       921
 -1       681    1    0    1
 -2       240       250      1011       921       241       251      1012       922
 -1       682    1    0    1
 -2       241       251      1012       922        48        49       598       589
 -1       683    1    0    1
 -2       148       157       158       149       913      1003      1013       923
 -1       684    1    0    1
 -2       913      1003      1013       923       914      1004      1014       924
 -1       685    1    0    1
 -2       914      1004      1014       924       915      1005      1015       925
 -1       686    1    0    1
 -2       915      1005      1015       925       916      1006      1016       926
 -1       687    1    0    1
 -2       916      1006      1016       926       917      1007      1017       927
 -1       688    1    0    1
 -2       917      1007      1017       927       918      1008      1018       928
 -1       689    1    0    1
 -2       918      1008      1018       928       919      1009      1019       929
 -1       690    1    0    1
 -2       919      1009      1019       929       920      1010      1020       930
 -1       691    1    0    1
 -2       920      1010      1020       930       921      1011      1021       931
 -1       692    1    0    1
 -2       921      1011      1021       931       922      1012      1022       932
 -1       693    1    0    1
 -2       922      1012      1022       932       589       598       599       590
 -1       694    1    0    1
 -2       149       158       159       150       923      1013      1023       933
 -1       695    1    0    1
 -2       923      1013      1023       933       924      1014      1024       934
 -1       696    1    0    1
 -2       924      1014      1024       934       925      1015      1025       935
 -1       697    1    0    1
 -2       925      1015      1025       935       926      1016      1026       936
 -1       698    1    0    1
 -2       926      1016      1026       936       927      1017      1027       937
 -1       699    1    0    1
 -2       927      1017      1027       937       928      1018      1028       938
 -1       700    1    0    1
 -2       928      1018      1028       938       929      1019      1029       939
 -1       701    1    0    1
 -2       929      1019      1029       939       930      1020      1030       940
 -1       702    1    0    1
 -2       930      1020      1030       940       931      1021      1031       941
 -1       703    1    0    1
 -2       931      1021      1031       941       932      1022      1032       942
 -1       704    1    0    1
 -2       932      1022      1032       942       590       599       600       591
 -1       705    1    0    1
 -2       150       159       160       151       933      1023      1033       943
 -1       706    1    0    1
 -2       933      1023      1033       943       934      1024      1034       944
 -1       707    1    0    1
 -2       934      1024      1034       944       935      1025      1035       945
 -1       708    1    0    1
 -2       935      1025      1035       945       936      1026      1036       946
 -1       709    1    0    1
 -2       936      1026      1036       946       937      1027      1037       947
 -1       710    1    0    1
 -2       937      1027      1037       947       938      1028      1038       948
 -1       711    1    0    1
 -2       938      1028      1038       948       939      1029      1039       949
 -1       712    1    0    1
 -2       939      1029      1039       949       940      1030      1040       950
 -1       713    1    0    1
 -2       940      1030      1040       950       941      1031      1041       951
 -1       714    1    0    1
 -2       941      1031      1041       951       942      1032      1042       952
 -1       715    1    0    1
 -2       942      1032      1042       952       591       600       601       592
 -1       716    1    0    1
 -2       151       160       161       152       943      1033      1043       953
 -1       717    1    0    1
 -2       943      1033      1043       953       944      1034      1044       954
 -1       718    1    0    1
 -2       944      1034      1044       954       945      1035      1045       955
 -1       719    1    0    1
 -2       945      1035      1045       955       946      1036      1046       956
 -1       720    1    0    1
 -2       946      1036      1046       956       947      1037      1047       957
 -1       721    1    0    1
 -2       947      1037      1047       957       948      1038      1048       958
 -1       722    1    0    1
 -2       948      1038      1048       958       949      1039      1049       959
 -1       723    1    0    1
 -2       949      1039      1049       959       950      1040      1050       960
 -1       724    1    0    1
 -2       950      1040      1050       960       951      1041      1051       961
 -1       725    1    0    1
 -2       951      1041      1051       961       952      1042      1052       962
 -1       726    1    0    1
 -2       952      1042      1052       962       592       601       602       593
 -1       727    1    0    1
 -2       152       161       162       153       953      1043      1053       963
 -1       728    1    0    1
 -2       953      1043      1053       963       954      1044      1054       964
 -1       729    1    0    1
 -2       954      1044      1054       964       955      1045      1055       965
 -1       730    1    0    1
 -2       955      1045      1055       965       956      1046      1056       966
 -1       731    1    0    1
 -2       956      1046      1056       966       957      1047      1057       967
 -1       732    1    0    1
 -2       957      1047      1057       967       958      1048      1058       968
 -1       733    1    0    1
 -2       958      1048      1058       968       959      1049      1059       969
 -1       734    1    0    1
 -2       959      1049      1059       969       960      1050      1060       970
 -1       735    1    0    1
 -2       960      1050      1060       970       961      1051      1061       971
 -1       736    1    0    1
 -2       961      1051      1061       971       962      1052      1062       972
 -1       737    1    0    1
 -2       962      1052      1062       972       593       602       603       594
 -1       738    1    0    1
 -2       153       162       163       154       963      1053      1063       973
 -1       739    1    0    1
 -2       963      1053      1063       973       964      1054      1064       974
 -1       740    1    0    1
 -2       964      1054      1064       974       965      1055      1065       975
 -1       741    1    0    1
 -2       965      1055      1065       975       966      1056      1066       976
 -1       742    1    0    1
 -2       966      1056      1066       976       967      1057      1067       977
 -1       743    1    0    1
 -2       967      1057      1067       977       968      1058      1068       978
 -1       744    1    0    1
 -2       968      1058      1068       978       969      1059      1069       979
 -1       745    1    0    1
 -2       969      1059      1069       979       970      1060      1070       980
 -1       746    1    0    1
 -2       970      1060      1070       980       971      1061      1071       981
 -1       747    1    0    1
 -2       971      1061      1071       981       972      1062      1072       982
 -1       748    1    0    1
 -2       972      1062      1072       982       594       603       604       595
 -1       749    1    0    1
 -2       154       163       164       155       973      1063      1073       983
 -1       750    1    0    1
 -2       973      1063      1073       983       974      1064      1074       984
 -1       751    1    0    1
 -2       974      1064      1074       984       975      1065      1075       985
 -1       752    1    0    1
 -2       975      1065      1075       985       976      1066      1076       986
 -1       753    1    0    1
 -2       976      1066      1076       986       977      1067      1077       987
 -1       754    1    0    1
 -2       977      1067      1077       987       978      1068      1078       988
 -1       755    1    0    1
 -2       978      1068      1078       988       979      1069      1079       989
 -1       756    1    0    1
 -2       979      1069      1079       989       980      1070      1080       990
 -1       757    1    0    1
 -2       980      1070      1080       990       981      1071      1081       991
 -1       758    1    0    1
 -2       981      1071      1081       991       982      1072      1082       992
 -1       759    1    0    1
 -2       982      1072      1082       992       595       604       605       596
 -1       760    1    0    1
 -2       155       164       165       156       983      1073      1083       993
 -1       761    1    0    1
 -2       983      1073      1083       993       984      1074      1084       994
 -1       762    1    0    1
 -2       984      1074      1084       994       985      1075      1085       995
 -1       763    1    0    1
 -2       985      1075      1085       995       986      1076      1086       996
 -1       764    1    0    1
 -2       986      1076      1086       996       987      1077      1087       997
 -1       765    1    0    1
 -2       987      1077      1087       997       988      1078      1088       998
 -1       766    1    0    1
 -2       988      1078      1088       998       989      1079      1089       999
 -1       767    1    0    1
 -2       989      1079      1089       999       990      1080      1090      1000
 -1       768    1    0    1
 -2       990      1080      1090      1000       991      1081      1091      1001
 -1       769    1    0    1
 -2       991      1081      1091      1001       992      1082      1092      1002
 -1       770    1    0    1
 -2       992      1082      1092      1002       596       605       606       597
 -1       771    1    0    1
 -2       156       165        31        32       993      1083       422       432
 -1       772    1    0    1
 -2       993      1083       422       432       994      1084       423       433
 -1       773    1    0    1
 -2       994      1084       423       433       995      1085       424       434
 -1       774    1    0    1
 -2       995      1085       424       434       996      1086       425       435
 -1       775    1    0    1
 -2       996      1086       425       435       997      1087       426       436
 -1       776    1    0    1
 -2       997      1087       426       436       998      1088       427       437
 -1       777    1    0    1
 -2       998      1088       427       437       999      1089       428       438
 -1       778    1    0    1
 -2       999      1089       428       438      1000      1090       429       439
 -1       779    1    0    1
 -2      1000      1090       429       439      1001      1091       430       440
 -1       780    1    0    1
 -2      1001      1091       430       440      1002      1092       431       441
 -1       781    1    0    1
 -2      1002      1092       431       441       597       606        67        68
 -1       782    1    0    1
 -2        13        14       166       157       242       252      1093      1003
 -1       783    1    0    1
 -2       242       252      1093      1003       243       253      1094      1004
 -1       784    1    0    1
 -2       243       253      1094      1004       244       254      1095      1005
 -1       785    1    0    1
 -2       244       254      1095      1005       245       255      1096      1006
 -1       786    1    0    1
 -2       245       255      1096      1006       246       256      1097      1007
 -1       787    1    0    1
 -2       246       256      1097      1007       247       257      1098      1008
 -1       788    1    0    1
 -2       247       257      1098      1008       248       258      1099      1009
 -1       789    1    0    1
 -2       248       258      1099      1009       249       259      1100      1010
 -1       790    1    0    1
 -2       249       259      1100      1010       250       260      1101      1011
 -1       791    1    0    1
 -2       250       260      1101      1011       251       261      1102      1012
 -1       792    1    0    1
 -2       251       261      1102      1012        49        50       607       598
 -1       793    1    0    1
 -2       157       166       167       158      1003      1093      1103      1013
 -1       794    1    0    1
 -2      1003      1093      1103      1013      1004      1094      1104      1014
 -1       795    1    0    1
 -2      1004      1094      1104      1014      1005      1095      1105      1015
 -1       796    1    0    1
 -2      1005      1095      1105      1015      1006      1096      1106      1016
 -1       797    1    0    1
 -2      1006      1096      1106      1016      1007      1097      1107      1017
 -1       798    1    0    1
 -2      1007      1097      1107      1017      1008      1098      1108      1018
 -1       799    1    0    1
 -2      1008      1098      1108      1018      1009      1099      1109      1019
 -1       800    1    0    1
 -2      1009      1099      1109      1019      1010      1100      1110      1020
 -1       801    1    0    1
 -2      1010      1100      1110      1020      1011      1101      1111      1021
 -1       802    1    0    1
 -2      1011      1101      1111      1021      1012      1102      1112      1022
 -1       803    1    0    1
 -2      1012      1102      1112      1022       598       607       608       599
 -1       804    1    0    1
 -2       158       167       168       159      1013      1103      1113      1023
 -1       805    1    0    1
 -2      1013      1103      1113      1023      1014      1104      1114      1024
 -1       806    1    0    1
 -2      1014      1104      1114      1024      1015      1105      1115      1025
 -1       807    1    0    1
 -2      1015      1105      1115      1025      1016      1106      1116      1026
 -1       808    1    0    1
 -2      1016      1106      1116      1026      1017      1107      1117      1027
 -1       809    1    0    1
 -2      1017      1107      1117      1027      1018      1108      1118      1028
 -1       810    1    0    1
 -2      1018      1108      1118      1028      1019      1109      1119      1029
 -1       811    1    0    1
 -2      1019      1109      1119      1029      1020      1110      1120      1030
 -1       812    1    0    1
 -2      1020      1110      1120      1030      1021      1111      1121      1031
 -1       813    1    0    1
 -2      1021      1111      1121      1031      1022      1112      1122      1032
 -1       814    1    0    1
 -2      1022      1112      1122      1032       599       608       609       600
 -1       815    1    0    1
 -2       159       168       169       160      1023      1113      1123      1033
 -1       816    1    0    1
 -2      1023      1113      1123      1033      1024      1114      1124      1034
 -1       817    1    0    1
 -2      1024      1114      1124      1034      1025      1115      1125      1035
 -1       818    1    0    1
 -2      1025      1115      1125      1035      1026      1116      1126      1036
 -1       819    1    0    1
 -2      1026      1116      1126      1036      1027      1117      1127      1037
 -1       820    1    0    1
 -2      1027      1117      1127      1037      1028      1118      1128      1038
 -1       821    1    0    1
 -2      1028      1118      1128      1038      1029      1119      1129      1039
 -1       822    1    0    1
 -2      1029      1119      1129      1039      1030      1120      1130      1040
 -1       823    1    0    1
 -2      1030      1120      1130      1040      1031      1121      1131      1041
 -1       824    1    0    1
 -2      1031      1121      1131      1041      1032      1122      1132      1042
 -1       825    1    0    1
 -2      1032      1122      1132      1042       600       609       610       601
 -1       826    1    0    1
 -2       160       169       170       161      1033      1123      1133      1043
 -1       827    1    0    1
 -2      1033      1123      1133      1043      1034      1124      1134      1044
 -1       828    1    0    1
 -2      1034      1124      1134      1044      1035      1125      1135      1045
 -1       829    1    0    1
 -2      1035      1125      1135      1045      1036      1126      1136      1046
 -1       830    1    0    1
 -2      1036      1126      1136      1046      1037      1127      1137      1047
 -1       831    1    0    1
 -2      1037      1127      1137      1047      1038      1128      1138      1048
 -1       832    1    0    1
 -2      1038      1128      1138      1048      1039      1129      1139      1049
 -1       833    1    0    1
 -2      1039      1129      1139      1049      1040      1130      1140      1050
 -1       834    1    0    1
 -2      1040      1130      1140      1050      1041      1131      1141      1051
 -1       835    1    0    1
 -2      1041      1131      1141      1051      1042      1132      1142      1052
 -1       836    1    0    1
 -2      1042      1132      1142      1052       601       610       611       602
 -1       837    1    0    1
 -2       161       170       171       162      1043      1133      1143      1053
 -1       838    1    0    1
 -2      1043      1133      1143      1053      1044      1134      1144      1054
 -1       839    1    0    1
 -2      1044      1134      1144      1054      1045      1135      1145      1055
 -1       840    1    0    1
 -2      1045      1135      1145      1055      1046      1136      1146      1056
 -1       841    1    0    1
 -2      1046      1136      1146      1056      1047      1137      1147      1057
 -1       842    1    0    1
 -2      1047      1137      1147      1057      1048      1138      1148      1058
 -1       843    1    0    1
 -2      1048      1138      1148      1058      1049      1139      1149      1059
 -1       844    1    0    1
 -2      1049      1139      1149      1059      1050      1140      1150      1060
 -1       845    1    0    1
 -2      1050      1140      1150      1060      1051      1141      1151      1061
 -1       846    1    0    1
 -2      1051      1141      1151      1061      1052      1142      1152      1062
 -1       847    1    0    1
 -2      1052      1142      1152      1062       602       611       612       603
 -1       848    1    0    1
 -2       162       171       172       163      1053      1143      1153      1063
 -1       849    1    0    1
 -2      1053      1143      1153      1063      1054      1144      1154      1064
 -1       850    1    0    1
 -2      1054      1144      1154      1064      1055      1145      1155      1065
 -1       851    1    0    1
 -2      1055      1145      1155      1065      1056      1146      1156      1066
 -1       852    1    0    1
 -2      1056      1146      1156      1066      1057      1147      1157      1067
 -1       853    1    0    1
 -2      1057      1147      1157      1067      1058      1148      1158      1068
 -1       854    1    0    1
 -2      1058      1148      1158      1068      1059      1149      1159      1069
 -1       855    1    0    1
 -2      1059      1149      1159      1069      1060      1150      1160      1070
 -1       856    1    0    1
 -2      1060      1150      1160      1070      1061      1151      1161      1071
 -1       857    1    0    1
 -2      1061      1151      1161      1071      1062      1152      1162      1072
 -1       858    1    0    1
 -2      1062      1152      1162      1072       603       612       613       604
 -1       859    1    0    1
 -2       163       172       173       164      1063      1153      1163      1073
 -1       860    1    0    1
 -2      1063      1153      1163      1073      1064      1154      1164      1074
 -1       861    1    0    1
 -2      1064      1154      1164      1074      1065      1155      1165      1075
 -1       862    1    0    1
 -2      1065      1155      1165      1075      1066      1156      1166      1076
 -1       863    1    0    1
 -2      1066      1156      1166      1076      1067      1157      1167      1077
 -1       864    1    0    1
 -2      1067      1157      1167      1077      1068      1158      1168      1078
 -1       865    1    0    1
 -2      1068      1158      1168      1078      1069      1159      1169      1079
 -1       866    1    0    1
 -2      1069      1159      1169      1079      1070      1160      1170      1080
 -1       867    1    0    1
 -2      1070      1160      1170      1080      1071      1161      1171      1081
 -1       868    1    0    1
 -2      1071      1161      1171      1081      1072      1162      1172      1082
 -1       869    1    0    1
 -2      1072      1162      1172      1082       604       613       614       605
 -1       870    1    0    1
 -2       164       173       174       165      1073      1163      1173      1083
 -1       871    1    0    1
 -2      1073      1163      1173      1083      1074      1164      1174      1084
 -1       872    1    0    1
 -2      1074      1164      1174      1084      1075      1165      1175      1085
 -1       873    1    0    1
 -2      1075      1165      1175      1085      1076      1166      1176      1086
 -1       874    1    0    1
 -2      1076      1166      1176      1086      1077      1167      1177      1087
 -1       875    1    0    1
 -2      1077      1167      1177      1087      1078      1168      1178      1088
 -1       876    1    0    1
 -2      1078      1168      1178      1088      1079      1169      1179      1089
 -1       877    1    0    1
 -2      1079      1169      1179      1089      1080      1170      1180      1090
 -1       878    1    0    1
 -2      1080      1170      1180      1090      1081      1171      1181      1091
 -1       879    1    0    1
 -2      1081      1171      1181      1091      1082      1172      1182      1092
 -1       880    1    0    1
 -2      1082      1172      1182      1092       605       614       615       606
 -1       881    1    0    1
 -2       165       174        30        31      1083      1173       412       422
 -1       882    1    0    1
 -2      1083      1173       412       422      1084      1174       413       423
 -1       883    1    0    1
 -2      1084      1174       413       423      1085      1175       414       424
 -1       884    1    0    1
 -2      1085      1175       414       424      1086      1176       415       425
 -1       885    1    0    1
 -2      1086      1176       415       425      1087      1177       416       426
 -1       886    1    0    1
 -2      1087      1177       416       426      1088      1178       417       427
 -1       887    1    0    1
 -2      1088      1178       417       427      1089      1179       418       428
 -1       888    1    0    1
 -2      1089      1179       418       428      1090      1180       419       429
 -1       889    1    0    1
 -2      1090      1180       419       429      1091      1181       420       430
 -1       890    1    0    1
 -2      1091      1181       420       430      1092      1182       421       431
 -1       891    1    0    1
 -2      1092      1182       421       431       606       615        66        67
 -1       892    1    0    1
 -2        14        15       175       166       252       262      1183      1093
 -1       893    1    0    1
 -2       252       262      1183      1093       253       263      1184      1094
 -1       894    1    0    1
 -2       253       263      1184      1094       254       264      1185      1095
 -1       895    1    0    1
 -2       254       264      1185      1095       255       265      1186      1096
 -1       896    1    0    1
 -2       255       265      1186      1096       256       266      1187      1097
 -1       897    1    0    1
 -2       256       266      1187      1097       257       267      1188      1098
 -1       898    1    0    1
 -2       257       267      1188      1098       258       268      1189      1099
 -1       899    1    0    1
 -2       258       268      1189      1099       259       269      1190      1100
 -1       900    1    0    1
 -2       259       269      1190      1100       260       270      1191      1101
 -1       901    1    0    1
 -2       260       270      1191      1101       261       271      1192      1102
 -1       902    1    0    1
 -2       261       271      1192      1102        50        51       616       607
 -1       903    1    0    1
 -2       166       175       176       167      1093      1183      1193      1103
 -1       904    1    0    1
 -2      1093      1183      1193      1103      1094      1184      1194      1104
 -1       905    1    0    1
 -2      1094      1184      1194      1104      1095      1185      1195      1105
 -1       906    1    0    1
 -2      1095      1185      1195      1105      1096      1186      1196      1106
 -1       907    1    0    1
 -2      1096      1186      1196      1106      1097      1187      1197      1107
 -1       908    1    0    1
 -2      1097      1187      1197      1107      1098      1188      1198      1108
 -1       909    1    0    1
 -2      1098      1188      1198      1108      1099      1189      1199      1109
 -1       910    1    0    1
 -2      1099      1189      1199      1109      1100      1190      1200      1110
 -1       911    1    0    1
 -2      1100      1190      1200      1110      1101      1191      1201      1111
 -1       912    1    0    1
 -2      1101      1191      1201      1111      1102      1192      1202      1112
 -1       913    1    0    1
 -2      1102      1192      1202      1112       607       616       617       608
 -1       914    1    0    1
 -2       167       176       177       168      1103      1193      1203      1113
 -1       915    1    0    1
 -2      1103      1193      1203      1113      1104      1194      1204      1114
 -1       916    1    0    1
 -2      1104      1194      1204      1114      1105      1195      1205      1115
 -1       917    1    0    1
 -2      1105      1195      1205      1115      1106      1196      1206      1116
 -1       918    1    0    1
 -2      1106      1196      1206      1116      1107      1197      1207      1117
 -1       919    1    0    1
 -2      1107      1197      1207      1117      1108      1198      1208      1118
 -1       920    1    0    1
 -2      1108      1198      1208      1118      1109      1199      1209      1119
 -1       921    1    0    1
 -2      1109      1199      1209      1119      1110      1200      1210      1120
 -1       922    1    0    1
 -2      1110      1200      1210      1120      1111      1201      1211      1121
 -1       923    1    0    1
 -2      1111      1201      1211      1121      1112      1202      1212      1122
 -1       924    1    0    1
 -2      1112      1202      1212      1122       608       617       618       609
 -1       925    1    0    1
 -2       168       177       178       169      1113      1203      1213      1123
 -1       926    1    0    1
 -2      1113      1203      1213      1123      1114      1204      1214      1124
 -1       927    1    0    1
 -2      1114      1204      1214      1124      1115      1205      1215      1125
 -1       928    1    0    1
 -2      1115      1205      1215      1125      1116      1206      1216      1126
 -1       929    1    0    1
 -2      1116      1206      1216      1126      1117      1207      1217      1127
 -1       930    1    0    1
 -2      1117      1207      1217      1127      1118      1208      1218      1128
 -1       931    1    0    1
 -2      1118      1208      1218      1128      1119      1209      1219      1129
 -1       932    1    0    1
 -2      1119      1209      1219      1129      1120      1210      1220      1130
 -1       933    1    0    1
 -2      1120      1210      1220      1130      1121      1211      1221      1131
 -1       934    1    0    1
 -2      1121      1211      1221      1131      1122      1212      1222      1132
 -1       935    1    0    1
 -2      1122      1212      1222      1132       609       618       619       610
 -1       936    1    0    1
 -2       169       178       179       170      1123      1213      1223      1133
 -1       937    1    0    1
 -2      1123      1213      1223      1133      1124      1214      1224      1134
 -1       938    1    0    1
 -2      1124      1214      1224      1134      1125      1215      1225      1135
 -1       939    1    0    1
 -2      1125      1215      1225      1135      1126      1216      1226      1136
 -1       940    1    0    1
 -2      1126      1216      1226      1136      1127      1217      1227      1137
 -1       941    1    0    1
 -2      1127      1217      1227      1137      1128      1218      1228      1138
 -1       942    1    0    1
 -2      1128      1218      1228      1138      1129      1219      1229      1139
 -1       943    1    0    1
 -2      1129      1219      1229      1139      1130      1220      1230      1140
 -1       944    1    0    1
 -2      1130      1220      1230      1140      1131      1221      1231      1141
 -1       945    1    0    1
 -2      1131      1221      1231      1141      1132      1222      1232      1142
 -1       946    1    0    1
 -2      1132      1222      1232      1142       610       619       620       611
 -1       947    1    0    1
 -2       170       179       180       171      1133      1223      1233      1143
 -1       948    1    0    1
 -2      1133      1223      1233      1143      1134      1224      1234      1144
 -1       949    1    0    1
 -2      1134      1224      1234      1144      1135      1225      1235      1145
 -1       950    1    0    1
 -2      1135      1225      1235      1145      1136      1226      1236      1146
 -1       951    1    0    1
 -2      1136      1226      1236      1146      1137      1227      1237      1147
 -1       952    1    0    1
 -2      1137      1227      1237      1147      1138      1228      1238      1148
 -1       953    1    0    1
 -2      1138      1228      1238      1148      1139      1229      1239      1149
 -1       954    1    0    1
 -2      1139      1229      1239      1149      1140      1230      1240      1150
 -1       955    1    0    1
 -2      1140      1230      1240      1150      1141      1231      1241      1151
 -1       956    1    0    1
 -2      1141      1231      1241      1151      1142      1232      1242      1152
 -1       957    1    0    1
 -2      1142      1232      1242      1152       611       620       621       612
 -1       958    1    0    1
 -2       171       180       181       172      1143      1233      1243      1153
 -1       959    1    0    1
 -2      1143      1233      1243      1153      1144      1234      1244      1154
 -1       960    1    0    1
 -2      1144      1234      1244      1154      1145      1235      1245      1155
 -1       961    1    0    1
 -2      1145      1235      1245      1155      1146      1236      1246      1156
 -1       962    1    0    1
 -2      1146      1236      1246      1156      1147      1237      1247      1157
 -1       963    1    0    1
 -2      1147      1237      1247      1157      1148      1238      1248      1158
 -1       964    1    0    1
 -2      1148      1238      1248      1158      1149      1239      1249      1159
 -1       965    1    0    1
 -2      1149      1239      1249      1159      1150      1240      1250      1160
 -1       966    1    0    1
 -2      1150      1240      1250      1160      1151      1241      1251      1161
 -1       967    1    0    1
 -2      1151      1241      1251      1161      1152      1242      1252      1162
 -1       968    1    0    1
 -2      1152      1242      1252      1162       612       621       622       613
 -1       969    1    0    1
 -2       172       181       182       173      1153      1243      1253      1163
 -1       970    1    0    1
 -2      1153      1243      1253      1163      1154      1244      1254      1164
 -1       971    1    0    1
 -2      1154      1244      1254      1164      1155      1245      1255      1165
 -1       972    1    0    1
 -2      1155      1245      1255      1165      1156      1246      1256      1166
 -1       973    1    0    1
 -2      1156      1246      1256      1166      1157      1247      1257      1167
 -1       974    1    0    1
 -2      1157      1247      1257      1167      1158      1248      1258      1168
 -1       975    1    0    1
 -2      1158      1248      1258      1168      1159      1249      1259      1169
 -1       976    1    0    1
 -2      1159      1249      1259      1169      1160      1250      1260      1170
 -1       977    1    0    1
 -2      1160      1250      1260      1170      1161      1251      1261      1171
 -1       978    1    0    1
 -2      1161      1251      1261      1171      1162      1252      1262      1172
 -1       979    1    0    1
 -2      1162      1252      1262      1172       613       622       623       614
 -1       980    1    0    1
 -2       173       182       183       174      1163      1253      1263      1173
 -1       981    1    0    1
 -2      1163      1253      1263      1173      1164      1254      1264      1174
 -1       982    1    0    1
 -2      1164      1254      1264      1174      1165      1255      1265      1175
 -1       983    1    0    1
 -2      1165      1255      1265      1175      1166      1256      1266      1176
 -1       984    1    0    1
 -2      1166      1256      1266      1176      1167      1257      1267      1177
 -1       985    1    0    1
 -2      1167      1257      1267      1177      1168      1258      1268      1178
 -1       986    1    0    1
 -2      1168      1258      1268      1178      1169      1259      1269      1179
 -1       987    1    0    1
 -2      1169      1259      1269      1179      1170      1260      1270      1180
 -1       988    1    0    1
 -2      1170      1260      1270      1180      1171      1261      1271      1181
 -1       989    1    0    1
 -2      1171      1261      1271      1181      1172      1262      1272      1182
 -1       990    1    0    1
 -2      1172      1262      1272      1182       614       623       624       615
 -1       991    1    0    1
 -2       174       183        29        30      1173      1263       402       412
 -1       992    1    0    1
 -2      1173      1263       402       412      1174      1264       403       413
 -1       993    1    0    1
 -2      1174      1264       403       413      1175      1265       404       414
 -1       994    1    0    1
 -2      1175      1265       404       414      1176      1266       405       415
 -1       995    1    0    1
 -2      1176      1266       405       415      1177      1267       406       416
 -1       996    1    0    1
 -2      1177      1267       406       416      1178      1268       407       417
 -1       997    1    0    1
 -2      1178      1268       407       417      1179      1269       408       418
 -1       998    1    0    1
 -2      1179      1269       408       418      1180      1270       409       419
 -1       999    1    0    1
 -2      1180      1270       409       419      1181      1271       410       420
 -1      1000    1    0    1
 -2      1181      1271       410       420      1182      1272       411       421
 -1      1001    1    0    1
 -2      1182      1272       411       421       615       624        65        66
 -1      1002    1    0    1
 -2        15        16       184       175       262       272      1273      1183
 -1      1003    1    0    1
 -2       262       272      1273      1183       263       273      1274      1184
 -1      1004    1    0    1
 -2       263       273      1274      1184       264       274      1275      1185
 -1      1005    1    0    1
 -2       264       274      1275      1185       265       275      1276      1186
 -1      1006    1    0    1
 -2       265       275      1276      1186       266       276      1277      1187
 -1      1007    1    0    1
 -2       266       276      1277      1187       267       277      1278      1188
 -1      1008    1    0    1
 -2       267       277      1278      1188       268       278      1279      1189
 -1      1009    1    0    1
 -2       268       278      1279      1189       269       279      1280      1190
 -1      1010    1    0    1
 -2       269       279      1280      1190       270       280      1281      1191
 -1      1011    1    0    1
 -2       270       280      1281      1191       271       281      1282      1192
 -1      1012    1    0    1
 -2       271       281      1282      1192        51        52       625       616
 -1      1013    1    0    1
 -2       175       184       185       176      1183      1273      1283      1193
 -1      1014    1    0    1
 -2      1183      1273      1283      1193      1184      1274      1284      1194
 -1      1015    1    0    1
 -2      1184      1274      1284      1194      1185      1275      1285      1195
 -1      1016    1    0    1
 -2      1185      1275      1285      1195      1186      1276      1286      1196
 -1      1017    1    0    1
 -2      1186      1276      1286      1196      1187      1277      1287      1197
 -1      1018    1    0    1
 -2      1187      1277      1287      1197      1188      1278      1288      1198
 -1      1019    1    0    1
 -2      1188      1278      1288      1198      1189      1279      1289      1199
 -1      1020    1    0    1
 -2      1189      1279      1289      1199      1190      1280      1290      1200
 -1      1021    1    0    1
 -2      1190      1280      1290      1200      1191      1281      1291      1201
 -1      1022    1    0    1
 -2      1191      1281      1291      1201      1192      1282      1292      1202
 -1      1023    1    0    1
 -2      1192      1282      1292      1202       616       625       626       617
 -1      1024    1    0    1
 -2       176       185       186       177      1193      1283      1293      1203
 -1      1025    1    0    1
 -2      1193      1283      1293      1203      1194      1284      1294      1204
 -1      1026    1    0    1
 -2      1194      1284      1294      1204      1195      1285      1295      1205
 -1      1027    1    0    1
 -2      1195      1285      1295      1205      1196      1286      1296      1206
 -1      1028    1    0    1
 -2      1196      1286      1296      1206      1197      1287      1297      1207
 -1      1029    1    0    1
 -2      1197      1287      1297      1207      1198      1288      1298      1208
 -1      1030    1    0    1
 -2      1198      1288      1298      1208      1199      1289      1299      1209
 -1      1031    1    0    1
 -2      1199      1289      1299      1209      1200      1290      1300      1210
 -1      1032    1    0    1
 -2      1200      1290      1300      1210      1201      1291      1301      1211
 -1      1033    1    0    1
 -2      1201      1291      1301      1211      1202      1292      1302      1212
 -1      1034    1    0    1
 -2      1202      1292      1302      1212       617       626       627       618
 -1      1035    1    0    1
 -2       177       186       187       178      1203      1293      1303      1213
 -1      1036    1    0    1
 -2      1203      1293      1303      1213      1204      1294      1304      1214
 -1      1037    1    0    1
 -2      1204      1294      1304      1214      1205      1295      1305      1215
 -1      1038    1    0    1
 -2      1205      1295      1305      1215      1206      1296      1306      1216
 -1      1039    1    0    1
 -2      1206      1296      1306      1216      1207      1297      1307      1217
 -1      1040    1    0    1
 -2      1207      1297      1307      1217      1208      1298      1308      1218
 -1      1041    1    0    1
 -2      1208      1298      1308      1218      1209      1299      1309      1219
 -1      1042    1    0    1
 -2      1209      1299      1309      1219      1210      1300      1310      1220
 -1      1043    1    0    1
 -2      1210      1300      1310      1220      1211      1301      1311      1221
 -1      1044    1    0    1
 -2      1211      1301      1311      1221      1212      1302      1312      1222
 -1      1045    1    0    1
 -2      1212      1302      1312      1222       618       627       628       619
 -1      1046    1    0    1
 -2       178       187       188       179      1213      1303      1313      1223
 -1      1047    1    0    1
 -2      1213      1303      1313      1223      1214      1304      1314      1224
 -1      1048    1    0    1
 -2      1214      1304      1314      1224      1215      1305      1315      1225
 -1      1049    1    0    1
 -2      1215      1305      1315      1225      1216      1306      1316      1226
 -1      1050    1    0    1
 -2      1216      1306      1316      1226      1217      1307      1317      1227
 -1      1051    1    0    1
 -2      1217      1307      1317      1227      1218      1308      1318      1228
 -1      1052    1    0    1
 -2      1218      1308      1318      1228      1219      1309      1319      1229
 -1      1053    1    0    1
 -2      1219      1309      1319      1229      1220      1310      1320      1230
 -1      1054    1    0    1
 -2      1220      1310      1320      1230      1221      1311      1321      1231
 -1      1055    1    0    1
 -2      1221      1311      1321      1231      1222      1312      1322      1232
 -1      1056    1    0    1
 -2      1222      1312      1322      1232       619       628       629       620
 -1      1057    1    0    1
 -2       179       188       189       180      1223      1313      1323      1233
 -1      1058    1    0    1
 -2      1223      1313      1323      1233      1224      1314      1324      1234
 -1      1059    1    0    1
 -2      1224      1314      1324      1234      1225      1315      1325      1235
 -1      1060    1    0    1
 -2      1225      1315      1325      1235      1226      1316      1326      1236
 -1      1061    1    0    1
 -2      1226      1316      1326      1236      1227      1317      1327      1237
 -1      1062    1    0    1
 -2      1227      1317      1327      1237      1228      1318      1328      1238
 -1      1063    1    0    1
 -2      1228      1318      1328      1238      1229      1319      1329      1239
 -1      1064    1    0    1
 -2      1229      1319      1329      1239      1230      1320      1330      1240
 -1      1065    1    0    1
 -2      1230      1320      1330      1240      1231      1321      1331      1241
 -1      1066    1    0    1
 -2      1231      1321      1331      1241      1232      1322      1332      1242
 -1      1067    1    0    1
 -2      1232      1322      1332      1242       620       629       630       621
 -1      1068    1    0    1
 -2       180       189       190       181      1233      1323      1333      1243
 -1      1069    1    0    1
 -2      1233      1323      1333      1243      1234      1324      1334      1244
 -1      1070    1    0    1
 -2      1234      1324      1334      1244      1235      1325      1335      1245
 -1      1071    1    0    1
 -2      1235      1325      1335      1245      1236      1326      1336      1246
 -1      1072    1    0    1
 -2      1236      1326      1336      1246      1237      1327      1337      1247
 -1      1073    1    0    1
 -2      1237      1327      1337      1247      1238      1328      1338      1248
 -1      1074    1    0    1
 -2      1238      1328      1338      1248      1239      1329      1339      1249
 -1      1075    1    0    1
 -2      1239      1329      1339      1249      1240      1330      1340      1250
 -1      1076    1    0    1
 -2      1240      1330      1340      1250      1241      1331      1341      1251
 -1      1077    1    0    1
 -2      1241      1331      1341      1251      1242      1332      1342      1252
 -1      1078    1    0    1
 -2      1242      1332      1342      1252       621       630       631       622
 -1      1079    1    0    1
 -2       181       190       191       182      1243      1333      1343      1253
 -1      1080    1    0    1
 -2      1243      1333      1343      1253      1244      1334      1344      1254
 -1      1081    1    0    1
 -2      1244      1334      1344      1254      1245      1335      1345      1255
 -1      1082    1    0    1
 -2      1245      1335      1345      1255      1246      1336      1346      1256
 -1      1083    1    0    1
 -2      1246      1336      1346      1256      1247      1337      1347      1257
 -1      1084    1    0    1
 -2      1247      1337      1347      1257      1248      1338      1348      1258
 -1      1085    1    0    1
 -2      1248      1338      1348      1258      1249      1339      1349      1259
 -1      1086    1    0    1
 -2      1249      1339      1349      1259      1250      1340      1350      1260
 -1      1087    1    0    1
 -2      1250      1340      1350      1260      1251      1341      1351      1261
 -1      1088    1    0    1
 -2      1251      1341      1351      1261      1252      1342      1352      1262
 -1      1089    1    0    1
 -2      1252      1342      1352      1262       622       631       632       623
 -1      1090    1    0    1
 -2       182       191       192       183      1253      1343      1353      1263
 -1      1091    1    0    1
 -2      1253      1343      1353      1263      1254      1344      1354      1264
 -1      1092    1    0    1
 -2      1254      1344      1354      1264      1255      1345      1355      1265
 -1      1093    1    0    1
 -2      1255      1345      1355      1265      1256      1346      1356      1266
 -1      1094    1    0    1
 -2      1256      1346      1356      1266      1257      1347      1357      1267
 -1      1095    1    0    1
 -2      1257      1347      1357      1267      1258      1348      1358      1268
 -1      1096    1    0    1
 -2      1258      1348      1358      1268      1259      1349      1359      1269
 -1      1097    1    0    1
 -2      1259      1349      1359      1269      1260      1350      1360      1270
 -1      1098    1    0    1
 -2      1260      1350      1360      1270      1261      1351      1361      1271
 -1      1099    1    0    1
 -2      1261      1351      1361      1271      1262      1352      1362      1272
 -1      1100    1    0    1
 -2      1262      1352      1362      1272       623       632       633       624
 -1      1101    1    0    1
 -2       183       192        28        29      1263      1353       392       402
 -1      1102    1    0    1
 -2      1263      1353       392       402      1264      1354       393       403
 -1      1103    1    0    1
 -2      1264      1354       393       403      1265      1355       394       404
 -1      1104    1    0    1
 -2      1265      1355       394       404      1266      1356       395       405
 -1      1105    1    0    1
 -2      1266      1356       395       405      1267      1357       396       406
 -1      1106    1    0    1
 -2      1267      1357       396       406      1268      1358       397       407
 -1      1107    1    0    1
 -2      1268      1358       397       407      1269      1359       398       408
 -1      1108    1    0    1
 -2      1269      1359       398       408      1270      1360       399       409
 -1      1109    1    0    1
 -2      1270      1360       399       409      1271      1361       400       410
 -1      1110    1    0    1
 -2      1271      1361       400       410      1272      1362       401       411
 -1      1111    1    0    1
 -2      1272      1362       401       411       624       633        64        65
 -1      1112    1    0    1
 -2        16        17       193       184       272       282      1363      1273
 -1      1113    1    0    1
 -2       272       282      1363      1273       273       283      1364      1274
 -1      1114    1    0    1
 -2       273       283      1364      1274       274       284      1365      1275
 -1      1115    1    0    1
 -2       274       284      1365      1275       275       285      1366      1276
 -1      1116    1    0    1
 -2       275       285      1366      1276       276       286      1367      1277
 -1      1117    1    0    1
 -2       276       286      1367      1277       277       287      1368      1278
 -1      1118    1    0    1
 -2       277       287      1368      1278       278       288      1369      1279
 -1      1119    1    0    1
 -2       278       288      1369      1279       279       289      1370      1280
 -1      1120    1    0    1
 -2       279       289      1370      1280       280       290      1371      1281
 -1      1121    1    0    1
 -2       280       290      1371      1281       281       291      1372      1282
 -1      1122    1    0    1
 -2       281       291      1372      1282        52        53       634       625
 -1      1123    1    0    1
 -2       184       193       194       185      1273      1363      1373      1283
 -1      1124    1    0    1
 -2      1273      1363      1373      1283      1274      1364      1374      1284
 -1      1125    1    0    1
 -2      1274      1364      1374      1284      1275      1365      1375      1285
 -1      1126    1    0    1
 -2      1275      1365      1375      1285      1276      1366      1376      1286
 -1      1127    1    0    1
 -2      1276      1366      1376      1286      1277      1367      1377      1287
 -1      1128    1    0    1
 -2      1277      1367      1377      1287      1278      1368      1378      1288
 -1      1129    1    0    1
 -2      1278      1368      1378      1288      1279      1369      1379      1289
 -1      1130    1    0    1
 -2      1279      1369      1379      1289      1280      1370      1380      1290
 -1      1131    1    0    1
 -2      1280      1370      1380      1290      1281      1371      1381      1291
 -1      1132    1    0    1
 -2      1281      1371      1381      1291      1282      1372      1382      1292
 -1      1133    1    0    1
 -2      1282      1372      1382      1292       625       634       635       626
 -1      1134    1    0    1
 -2       185       194       195       186      1283      1373      1383      1293
 -1      1135    1    0    1
 -2      1283      1373      1383      1293      1284      1374      1384      1294
 -1      1136    1    0    1
 -2      1284      1374      1384      1294      1285      1375      1385      1295
 -1      1137    1    0    1
 -2      1285      1375      1385      1295      1286      1376      1386      1296
 -1      1138    1    0    1
 -2      1286      1376      1386      1296      1287      1377      1387      1297
 -1      1139    1    0    1
 -2      1287      1377      1387      1297      1288      1378      1388      1298
 -1      1140    1    0    1
 -2      1288      1378      1388      1298      1289      1379      1389      1299
 -1      1141    1    0    1
 -2      1289      1379      1389      1299      1290      1380      1390      1300
 -1      1142    1    0    1
 -2      1290      1380      1390      1300      1291      1381      1391      1301
 -1      1143    1    0    1
 -2      1291      1381      1391      1301      1292      1382      1392      1302
 -1      1144    1    0    1
 -2      1292      1382      1392      1302       626       635       636       627
 -1      1145    1    0    1
 -2       186       195       196       187      1293      1383      1393      1303
 -1      1146    1    0    1
 -2      1293      1383      1393      1303      1294      1384      1394      1304
 -1      1147    1    0    1
 -2      1294      1384      1394      1304      1295      1385      1395      1305
 -1      1148    1    0    1
 -2      1295      1385      1395      1305      1296      1386      1396      1306
 -1      1149    1    0    1
 -2      1296      1386      1396      1306      1297      1387      1397      1307
 -1      1150    1    0    1
 -2      1297      1387      1397      1307      1298      1388      1398      1308
 -1      1151    1    0    1
 -2      1298      1388      1398      1308      1299      1389      1399      1309
 -1      1152    1    0    1
 -2      1299      1389      1399      1309      1300      1390      1400      1310
 -1      1153    1    0    1
 -2      1300      1390      1400      1310      1301      1391      1401      1311
 -1      1154    1    0    1
 -2      1301      1391      1401      1311      1302      1392      1402      1312
 -1      1155    1    0    1
 -2      1302      1392      1402      1312       627       636       637       628
 -1      1156    1    0    1
 -2       187       196       197       188      1303      1393      1403      1313
 -1      1157    1    0    1
 -2      1303      1393      1403      1313      1304      1394      1404      1314
 -1      1158    1    0    1
 -2      1304      1394      1404      1314      1305      1395      1405      1315
 -1      1159    1    0    1
 -2      1305      1395      1405      1315      1306      1396      1406      1316
 -1      1160    1    0    1
 -2      1306      1396      1406      1316      1307      1397      1407      1317
 -1      1161    1    0    1
 -2      1307      1397      1407      1317      1308      1398      1408      1318
 -1      1162    1    0    1
 -2      1308      1398      1408      1318      1309      1399      1409      1319
 -1      1163    1    0    1
 -2      1309      1399      1409      1319      1310      1400      1410      1320
 -1      1164    1    0    1
 -2      1310      1400      1410      1320      1311      1401      1411      1321
 -1      1165    1    0    1
 -2      1311      1401      1411      1321      1312      1402      1412      1322
 -1      1166    1    0    1
 -2      1312      1402      1412      1322       628       637       638       629
 -1      1167    1    0    1
 -2       188       197       198       189      1313      1403      1413      1323
 -1      1168    1    0    1
 -2      1313      1403      1413      1323      1314      1404      1414      1324
 -1      1169    1    0    1
 -2      1314      1404      1414      1324      1315      1405      1415      1325
 -1      1170    1    0    1
 -2      1315      1405      1415      1325      1316      1406      1416      1326
 -1      1171    1    0    1
 -2      1316      1406      1416      1326      1317      1407      1417      1327
 -1      1172    1    0    1
 -2      1317      1407      1417      1327      1318      1408      1418      1328
 -1      1173    1    0    1
 -2      1318      1408      1418      1328      1319      1409      1419      1329
 -1      1174    1    0    1
 -2      1319      1409      1419      1329      1320      1410      1420      1330
 -1      1175    1    0    1
 -2      1320      1410      1420      1330      1321      1411      1421      1331
 -1      1176    1    0    1
 -2      1321      1411      1421      1331      1322      1412      1422      1332
 -1      1177    1    0    1
 -2      1322      1412      1422      1332       629       638       639       630
 -1      1178    1    0    1
 -2       189       198       199       190      1323      1413      1423      1333
 -1      1179    1    0    1
 -2      1323      1413      1423      1333      1324      1414      1424      1334
 -1      1180    1    0    1
 -2      1324      1414      1424      1334      1325      1415      1425      1335
 -1      1181    1    0    1
 -2      1325      1415      1425      1335      1326      1416      1426      1336
 -1      1182    1    0    1
 -2      1326      1416      1426      1336      1327      1417      1427      1337
 -1      1183    1    0    1
 -2      1327      1417      1427      1337      1328      1418      1428      1338
 -1      1184    1    0    1
 -2      1328      1418      1428      1338      1329      1419      1429      1339
 -1      1185    1    0    1
 -2      1329      1419      1429      1339      1330      1420      1430      1340
 -1      1186    1    0    1
 -2      1330      1420      1430      1340      1331      1421      1431      1341
 -1      1187    1    0    1
 -2      1331      1421      1431      1341      1332      1422      1432      1342
 -1      1188    1    0    1
 -2      1332      1422      1432      1342       630       639       640       631
 -1      1189    1    0    1
 -2       190       199       200       191      1333      1423      1433      1343
 -1      1190    1    0    1
 -2      1333      1423      1433      1343      1334      1424      1434      1344
 -1      1191    1    0    1
 -2      1334      1424      1434      1344      1335      1425      1435      1345
 -1      1192    1    0    1
 -2      1335      1425      1435      1345      1336      1426      1436      1346
 -1      1193    1    0    1
 -2      1336      1426      1436      1346      1337      1427      1437      1347
 -1      1194    1    0    1
 -2      1337      1427      1437      1347      1338      1428      1438      1348
 -1      1195    1    0    1
 -2      1338      1428      1438      1348      1339      1429      1439      1349
 -1      1196    1    0    1
 -2      1339      1429      1439      1349      1340      1430      1440      1350
 -1      1197    1    0    1
 -2      1340      1430      1440      1350      1341      1431      1441      1351
 -1      1198    1    0    1
 -2      1341      1431      1441      1351      1342      1432      1442      1352
 -1      1199    1    0    1
 -2      1342      1432      1442      1352       631       640       641       632
 -1      1200    1    0    1
 -2       191       200       201       192      1343      1433      1443      1353
 -1      1201    1    0    1
 -2      1343      1433      1443      1353      1344      1434      1444      1354
 -1      1202    1    0    1
 -2      1344      1434      1444      1354      1345      1435      1445      1355
 -1      1203    1    0    1
 -2      1345      1435      1445      1355      1346      1436      1446      1356
 -1      1204    1    0    1
 -2      1346      1436      1446      1356      1347      1437      1447      1357
 -1      1205    1    0    1
 -2      1347      1437      1447      1357      1348      1438      1448      1358
 -1      1206    1    0    1
 -2      1348      1438      1448      1358      1349      1439      1449      1359
 -1      1207    1    0    1
 -2      1349      1439      1449      1359      1350      1440      1450      1360
 -1      1208    1    0    1
 -2      1350      1440      1450      1360      1351      1441      1451      1361
 -1      1209    1    0    1
 -2      1351      1441      1451      1361      1352      1442      1452      1362
 -1      1210    1    0    1
 -2      1352      1442      1452      1362       632       641       642       633
 -1      1211    1    0    1
 -2       192       201        27        28      1353      1443       382       392
 -1      1212    1    0    1
 -2      1353      1443       382       392      1354      1444       383       393
 -1      1213    1    0    1
 -2      1354      1444       383       393      1355      1445       384       394
 -1      1214    1    0    1
 -2      1355      1445       384       394      1356      1446       385       395
 -1      1215    1    0    1
 -2      1356      1446       385       395      1357      1447       386       396
 -1      1216    1    0    1
 -2      1357      1447       386       396      1358      1448       387       397
 -1      1217    1    0    1
 -2      1358      1448       387       397      1359      1449       388       398
 -1      1218    1    0    1
 -2      1359      1449       388       398      1360      1450       389       399
 -1      1219    1    0    1
 -2      1360      1450       389       399      1361      1451       390       400
 -1      1220    1    0    1
 -2      1361      1451       390       400      1362      1452       391       401
 -1      1221    1    0    1
 -2      1362      1452       391       401       633       642        63        64
 -1      1222    1    0    1
 -2        17         2        18       193       282        91       292      1363
 -1      1223    1    0    1
 -2       282        91       292      1363       283        92       293      1364
 -1      1224    1    0    1
 -2       283        92       293      1364       284        93       294      1365
 -1      1225    1    0    1
 -2       284        93       294      1365       285        94       295      1366
 -1      1226    1    0    1
 -2       285        94       295      1366       286        95       296      1367
 -1      1227    1    0    1
 -2       286        95       296      1367       287        96       297      1368
 -1      1228    1    0    1
 -2       287        96       297      1368       288        97       298      1369
 -1      1229    1    0    1
 -2       288        97       298      1369       289        98       299      1370
 -1      1230    1    0    1
 -2       289        98       299      1370       290        99       300      1371
 -1      1231    1    0    1
 -2       290        99       300      1371       291       100       301      1372
 -1      1232    1    0    1
 -2       291       100       301      1372        53         6        54       634
 -1      1233    1    0    1
 -2       193        18        19       194      1363       292       302      1373
 -1      1234    1    0    1
 -2      1363       292       302      1373      1364       293       303      1374
 -1      1235    1    0    1
 -2      1364       293       303      1374      1365       294       304      1375
 -1      1236    1    0    1
 -2      1365       294       304      1375      1366       295       305      1376
 -1      1237    1    0    1
 -2      1366       295       305      1376      1367       296       306      1377
 -1      1238    1    0    1
 -2      1367       296       306      1377      1368       297       307      1378
 -1      1239    1    0    1
 -2      1368       297       307      1378      1369       298       308      1379
 -1      1240    1    0    1
 -2      1369       298       308      1379      1370       299       309      1380
 -1      1241    1    0    1
 -2      1370       299       309      1380      1371       300       310      1381
 -1      1242    1    0    1
 -2      1371       300       310      1381      1372       301       311      1382
 -1      1243    1    0    1
 -2      1372       301       311      1382       634        54        55       635
 -1      1244    1    0    1
 -2       194        19        20       195      1373       302       312      1383
 -1      1245    1    0    1
 -2      1373       302       312      1383      1374       303       313      1384
 -1      1246    1    0    1
 -2      1374       303       313      1384      1375       304       314      1385
 -1      1247    1    0    1
 -2      1375       304       314      1385      1376       305       315      1386
 -1      1248    1    0    1
 -2      1376       305       315      1386      1377       306       316      1387
 -1      1249    1    0    1
 -2      1377       306       316      1387      1378       307       317      1388
 -1      1250    1    0    1
 -2      1378       307       317      1388      1379       308       318      1389
 -1      1251    1    0    1
 -2      1379       308       318      1389      1380       309       319      1390
 -1      1252    1    0    1
 -2      1380       309       319      1390      1381       310       320      1391
 -1      1253    1    0    1
 -2      1381       310       320      1391      1382       311       321      1392
 -1      1254    1    0    1
 -2      1382       311       321      1392       635        55        56       636
 -1      1255    1    0    1
 -2       195        20        21       196      1383       312       322      1393
 -1      1256    1    0    1
 -2      1383       312       322      1393      1384       313       323      1394
 -1      1257    1    0    1
 -2      1384       313       323      1394      1385       314       324      1395
 -1      1258    1    0    1
 -2      1385       314       324      1395      1386       315       325      1396
 -1      1259    1    0    1
 -2      1386       315       325      1396      1387       316       326      1397
 -1      1260    1    0    1
 -2      1387       316       326      1397      1388       317       327      1398
 -1      1261    1    0    1
 -2      1388       317       327      1398      1389       318       328      1399
 -1      1262    1    0    1
 -2      1389       318       328      1399      1390       319       329      1400
 -1      1263    1    0    1
 -2      1390       319       329      1400      1391       320       330      1401
 -1      1264    1    0    1
 -2      1391       320       330      1401      1392       321       331      1402
 -1      1265    1    0    1
 -2      1392       321       331      1402       636        56        57       637
 -1      1266    1    0    1
 -2       196        21        22       197      1393       322       332      1403
 -1      1267    1    0    1
 -2      1393       322       332      1403      1394       323       333      1404
 -1      1268    1    0    1
 -2      1394       323       333      1404      1395       324       334      1405
 -1      1269    1    0    1
 -2      1395       324       334      1405      1396       325       335      1406
 -1      1270    1    0    1
 -2      1396       325       335      1406      1397       326       336      1407
 -1      1271    1    0    1
 -2      1397       326       336      1407      1398       327       337      1408
 -1      1272    1    0    1
 -2      1398       327       337      1408      1399       328       338      1409
 -1      1273    1    0    1
 -2      1399       328       338      1409      1400       329       339      1410
 -1      1274    1    0    1
 -2      1400       329       339      1410      1401       330       340      1411
 -1      1275    1    0    1
 -2      1401       330       340      1411      1402       331       341      1412
 -1      1276    1    0    1
 -2      1402       331       341      1412       637        57        58       638
 -1      1277    1    0    1
 -2       197        22        23       198      1403       332       342      1413
 -1      1278    1    0    1
 -2      1403       332       342      1413      1404       333       343      1414
 -1      1279    1    0    1
 -2      1404       333       343      1414      1405       334       344      1415
 -1      1280    1    0    1
 -2      1405       334       344      1415      1406       335       345      1416
 -1      1281    1    0    1
 -2      1406       335       345      1416      1407       336       346      1417
 -1      1282    1    0    1
 -2      1407       336       346      1417      1408       337       347      1418
 -1      1283    1    0    1
 -2      1408       337       347      1418      1409       338       348      1419
 -1      1284    1    0    1
 -2      1409       338       348      1419      1410       339       349      1420
 -1      1285    1    0    1
 -2      1410       339       349      1420      1411       340       350      1421
 -1      1286    1    0    1
 -2      1411       340       350      1421      1412       341       351      1422
 -1      1287    1    0    1
 -2      1412       341       351      1422       638        58        59       639
 -1      1288    1    0    1
 -2       198        23        24       199      1413       342       352      1423
 -1      1289    1    0    1
 -2      1413       342       352      1423      1414       343       353      1424
 -1      1290    1    0    1
 -2      1414       343       353      1424      1415       344       354      1425
 -1      1291    1    0    1
 -2      1415       344       354      1425      1416       345       355      1426
 -1      1292    1    0    1
 -2      1416       345       355      1426      1417       346       356      1427
 -1      1293    1    0    1
 -2      1417       346       356      1427      1418       347       357      1428
 -1      1294    1    0    1
 -2      1418       347       357      1428      1419       348       358      1429
 -1      1295    1    0    1
 -2      1419       348       358      1429      1420       349       359      1430
 -1      1296    1    0    1
 -2      1420       349       359      1430      1421       350       360      1431
 -1      1297    1    0    1
 -2      1421       350       360      1431      1422       351       361      1432
 -1      1298    1    0    1
 -2      1422       351       361      1432       639        59        60       640
 -1      1299    1    0    1
 -2       199        24        25       200      1423       352       362      1433
 -1      1300    1    0    1
 -2      1423       352       362      1433      1424       353       363      1434
 -1      1301    1    0    1
 -2      1424       353       363      1434      1425       354       364      1435
 -1      1302    1    0    1
 -2      1425       354       364      1435      1426       355       365      1436
 -1      1303    1    0    1
 -2      1426       355       365      1436      1427       356       366      1437
 -1      1304    1    0    1
 -2      1427       356       366      1437      1428       357       367      1438
 -1      1305    1    0    1
 -2      1428       357       367      1438      1429       358       368      1439
 -1      1306    1    0    1
 -2      1429       358       368      1439      1430       359       369      1440
 -1      1307    1    0    1
 -2      1430       359       369      1440      1431       360       370      1441
 -1      1308    1    0    1
 -2      1431       360       370      1441      1432       361       371      1442
 -1      1309    1    0    1
 -2      1432       361       371      1442       640        60        61       641
 -1      1310    1    0    1
 -2       200        25        26       201      1433       362       372      1443
 -1      1311    1    0    1
 -2      1433       362       372      1443      1434       363       373      1444
 -1      1312    1    0    1
 -2      1434       363       373      1444      1435       364       374      1445
 -1      1313    1    0    1
 -2      1435       364       374      1445      1436       365       375      1446
 -1      1314    1    0    1
 -2      1436       365       375      1446      1437       366       376      1447
 -1      1315    1    0    1
 -2      1437       366       376      1447      1438       367       377      1448
 -1      1316    1    0    1
 -2      1438       367       377      1448      1439       368       378      1449
 -1      1317    1    0    1
 -2      1439       368       378      1449      1440       369       379      1450
 -1      1318    1    0    1
 -2      1440       369       379      1450      1441       370       380      1451
 -1      1319    1    0    1
 -2      1441       370       380      1451      1442       371       381      1452
 -1      1320    1    0    1
 -2      1442       371       381      1452       641        61        62       642
 -1      1321    1    0    1
 -2       201        26         3        27      1443       372       101       382
 -1      1322    1    0    1
 -2      1443       372       101       382      1444       373       102       383
 -1      1323    1    0    1
 -2      1444       373       102       383      1445       374       103       384
 -1      1324    1    0    1
 -2      1445       374       103       384      1446       375       104       385
 -1      1325    1    0    1
 -2      1446       375       104       385      1447       376       105       386
 -1      1326    1    0    1
 -2      1447       376       105       386      1448       377       106       387
 -1      1327    1    0    1
 -2      1448       377       106       387      1449       378       107       388
 -1      1328    1    0    1
 -2      1449       378       107       388      1450       379       108       389
 -1      1329    1    0    1
 -2      1450       379       108       389      1451       380       109       390
 -1      1330    1    0    1
 -2      1451       380       109       390      1452       381       110       391
 -1      1331    1    0    1
 -2      1452       381       110       391       642        62         7        63
 -3
    1PSTEP                         1           1           1          
  100CL  101 1.000000000        1452                     0    1           1
 -4  DISP        4    1
 -5  D1          1    2    1    0
 -5  D2          1    2    2    0
 -5  D3          1    2    3    0
 -5  ALL         1    2    0    0    1ALL
 -1         1 5.06812E-02-1.27073E-01-2.63510E-03
 -1         2 1.69717E-01-1.04759E-01-6.58649E-06
 -1         3 0.00000E+00 0.00000E+00 0.00000E+00
 -1         4 0.00000E+00 0.00000E+00 0.00000E+00
 -1         5 5.06812E-02-1.27073E-01 2.63510E-03
 -1         6 1.69717E-01-1.04759E-01 6.58649E-06
 -1         7 0.00000E+00 0.00000E+00 0.00000E+00
 -1         8 0.00000E+00 0.00000E+00 0.00000E+00
 -1         9 6.99819E-02-1.16390E-01-2.07264E-03
 -1        10 8.25886E-02-1.11460E-01-1.47455E-03
 -1        11 9.37555E-02-1.08437E-01-8.72907E-04
 -1        12 1.04431E-01-1.06635E-01-5.21580E-04
 -1        13 1.15018E-01-1.05609E-01-3.08947E-04
 -1        14 1.25671E-01-1.05065E-01-1.77075E-04
 -1        15 1.36461E-01-1.04814E-01-9.64373E-05
 -1        16 1.47412E-01-1.04732E-01-4.98405E-05
 -1        17 1.58512E-01-1.04732E-01-2.49673E-05
 -1        18 1.60862E-01-5.25503E-02-8.69967E-05
 -1        19 1.34363E-01-6.61292E-03-2.49230E-04
 -1        20 9.58491E-02 2.37951E-02-4.10979E-04
 -1        21 5.57028E-02 3.54741E-02-4.99645E-04
 -1        22 2.29135E-02 3.17807E-02-5.26093E-04
 -1        23 2.42159E-03 1.96601E-02-4.99538E-04
 -1        24-5.57349E-03 6.72769E-03-4.22349E-04
 -1        25-4.82771E-03-1.42963E-03-3.22601E-04
 -1        26-9.59152E-04-2.70259E-03-1.12196E-04
 -1        27 0.00000E+00 0.00000E+00 0.00000E+00
 -1        28 0.00000E+00 0.00000E+00 0.00000E+00
 -1        29 0.00000E+00 0.00000E+00 0.00000E+00
 -1        30 0.00000E+00 0.00000E+00 0.00000E+00
 -1        31 0.00000E+00 0.00000E+00 0.00000E+00
 -1        32 0.00000E+00 0.00000E+00 0.00000E+00
 -1        33 0.00000E+00 0.00000E+00 0.00000E+00
 -1        34 0.00000E+00 0.00000E+00 0.00000E+00
 -1        35 0.00000E+00 0.00000E+00 0.00000E+00
 -1        36 5.13947E-02-8.70342E-02 1.90520E-03
 -1        37 4.73626E-02-6.69452E-02 1.26840E-03
 -1        38 3.94726E-02-4.93171E-02 1.44799E-03
 -1        39 2.98464E-02-3.57217E-02 1.66071E-03
 -1        40 2.03284E-02-2.55786E-02 1.74483E-03
 -1        41 1.21720E-02-1.82276E-02 1.66252E-03
 -1        42 5.99869E-03-1.27089E-02 1.41950E-03
 -1        43 1.94636E-03-8.10253E-03 1.03509E-03
 -1        44-7.67030E-05-3.77046E-03 3.54519E-04
 -1        45 6.99819E-02-1.16390E-01 2.07264E-03
 -1        46 8.25886E-02-1.11460E-01 1.47455E-03
 -1        47 9.37555E-02-1.08437E-01 8.72907E-04
 -1        48 1.04431E-01-1.06635E-01 5.21580E-04
 -1        49 1.15018E-01-1.05609E-01 3.08947E-04
 -1        50 1.25671E-01-1.05065E-01 1.77075E-04
 -1        51 1.36461E-01-1.04814E-01 9.64373E-05
 -1        52 1.47412E-01-1.04732E-01 4.98405E-05
 -1        53 1.58512E-01-1.04732E-01 2.49673E-05
 -1        54 1.60862E-01-5.25503E-02 8.69967E-05
 -1        55 1.34363E-01-6.61292E-03 2.49230E-04
 -1        56 9.58491E-02 2.37951E-02 4.10979E-04
 -1        57 5.57028E-02 3.54741E-02 4.99645E-04
 -1        58 2.29135E-02 3.17807E-02 5.26093E-04
 -1        59 2.42159E-03 1.96601E-02 4.99538E-04
 -1        60-5.57349E-03 6.72769E-03 4.22349E-04
 -1        61-4.82771E-03-1.42963E-03 3.22601E-04
 -1        62-9.59152E-04-2.70259E-03 1.12196E-04
 -1        63 0.00000E+00 0.00000E+00 0.00000E+00
 -1        64 0.00000E+00 0.00000E+00 0.00000E+00
 -1        65 0.00000E+00 0.00000E+00 0.00000E+00
 -1        66 0.00000E+00 0.00000E+00 0.00000E+00
 -1        67 0.00000E+00 0.00000E+00 0.00000E+00
 -1        68 0.00000E+00 0.00000E+00 0.00000E+00
 -1        69 0.00000E+00 0.00000E+00 0.00000E+00
 -1        70 0.00000E+00 0.00000E+00 0.00000E+00
 -1        71 0.00000E+00 0.00000E+00 0.00000E+00
 -1        72-7.67030E-05-3.77046E-03-3.54519E-04
 -1        73 1.94636E-03-8.10253E-03-1.03509E-03
 -1        74 5.99869E-03-1.27089E-02-1.41950E-03
 -1        75 1.21720E-02-1.82276E-02-1.66252E-03
 -1        76 2.03284E-02-2.55786E-02-1.74483E-03
 -1        77 2.98464E-02-3.57217E-02-1.66071E-03
 -1        78 3.94726E-02-4.93171E-02-1.44799E-03
 -1        79 4.73626E-02-6.69452E-02-1.26840E-03
 -1        80 5.13947E-02-8.70342E-02-1.90520E-03
 -1        81 5.01982E-02-1.26041E-01-2.08678E-03
 -1        82 4.99487E-02-1.25509E-01-1.58902E-03
 -1        83 4.98143E-02-1.25217E-01-1.11805E-03
 -1        84 4.97431E-02-1.25058E-01-6.64089E-04
 -1        85 4.97121E-02-1.24987E-01-2.20230E-04
 -1        86 4.97121E-02-1.24987E-01 2.20230E-04
 -1        87 4.97431E-02-1.25058E-01 6.64089E-04
 -1        88 4.98143E-02-1.25217E-01 1.11805E-03
 -1        89 4.99487E-02-1.25509E-01 1.58902E-03
 -1        90 5.01982E-02-1.26041E-01 2.08678E-03
 -1        91 1.69719E-01-1.04756E-01-5.29278E-06
 -1        92 1.69721E-01-1.04754E-01-4.04217E-06
 -1        93 1.69722E-01-1.04752E-01-2.84178E-06
 -1        94 1.69722E-01-1.04751E-01-1.68515E-06
 -1        95 1.69723E-01-1.04750E-01-5.58220E-07
 -1        96 1.69723E-01-1.04750E-01 5.58222E-07
 -1        97 1.69722E-01-1.04751E-01 1.68515E-06
 -1        98 1.69722E-01-1.04752E-01 2.84179E-06
 -1        99 1.69721E-01-1.04754E-01 4.04218E-06
 -1       100 1.69719E-01-1.04756E-01 5.29278E-06
 -1       101 0.00000E+00 0.00000E+00 0.00000E+00
 -1       102 0.00000E+00 0.00000E+00 0.00000E+00
 -1       103 0.00000E+00 0.00000E+00 0.00000E+00
 -1       104 0.00000E+00 0.00000E+00 0.00000E+00
 -1       105 0.00000E+00 0.00000E+00 0.00000E+00
 -1       106 0.00000E+00 0.00000E+00 0.00000E+00
 -1       107 0.00000E+00 0.00000E+00 0.00000E+00
 -1       108 0.00000E+00 0.00000E+00 0.00000E+00
 -1       109 0.00000E+00 0.00000E+00 0.00000E+00
 -1       110 0.00000E+00 0.00000E+00 0.00000E+00
 -1       111 0.00000E+00 0.00000E+00 0.00000E+00
 -1       112 0.00000E+00 0.00000E+00 0.00000E+00
 -1       113 0.00000E+00 0.00000E+00 0.00000E+00
 -1       114 0.00000E+00 0.00000E+00 0.00000E+00
 -1       115 0.00000E+00 0.00000E+00 0.00000E+00
 -1       116 0.00000E+00 0.00000E+00 0.00000E+00
 -1       117 0.00000E+00 0.00000E+00 0.00000E+00
 -1       118 0.00000E+00 0.00000E+00 0.00000E+00
 -1       119 0.00000E+00 0.00000E+00 0.00000E+00
 -1       120 0.00000E+00 0.00000E+00 0.00000E+00
 -1       121 6.63316E-02-8.33250E-02 6.45361E-04
 -1       122 5.65828E-02-5.91728E-02 7.46067E-04
 -1       123 4.46900E-02-4.08400E-02 9.74100E-04
 -1       124 3.13954E-02-2.78923E-02 1.10537E-03
 -1       125 1.93398E-02-1.98627E-02 1.15829E-03
 -1       126 1.01909E-02-1.51913E-02 1.10155E-03
 -1       127 4.47886E-03-1.19807E-02 9.38023E-04
 -1       128 1.69988E-03-8.65860E-03 6.72823E-04
 -1       129 7.27558E-04-4.36754E-03 3.49216E-04
 -1       130 7.85299E-02-7.96643E-02 2.05362E-04
 -1       131 6.59201E-02-5.27110E-02 5.40537E-04
 -1       132 5.01484E-02-3.32126E-02 7.22529E-04
 -1       133 3.36443E-02-2.06412E-02 8.36714E-04
 -1       134 1.92114E-02-1.41441E-02 8.72577E-04
 -1       135 8.88317E-03-1.15617E-02 8.29124E-04
 -1       136 3.12157E-03-1.02872E-02 7.04154E-04
 -1       137 9.60744E-04-8.22684E-03 5.06766E-04
 -1       138 4.93925E-04-4.53976E-03 2.87992E-04
 -1       139 8.92247E-02-7.61140E-02 1.20877E-05
 -1       140 7.47701E-02-4.68872E-02 3.62233E-04
 -1       141 5.57642E-02-2.60354E-02 5.14233E-04
 -1       142 3.61995E-02-1.36383E-02 5.97183E-04
 -1       143 1.94668E-02-8.41878E-03 6.23134E-04
 -1       144 7.87065E-03-7.67055E-03 5.90743E-04
 -1       145 1.83552E-03-8.16769E-03 5.01697E-04
 -1       146 1.05248E-05-7.39001E-03 3.58815E-04
 -1       147 5.48526E-05-4.45011E-03 2.13095E-04
 -1       148 9.93303E-02-7.26571E-02-5.16240E-05
 -1       149 8.32708E-02-4.13190E-02 2.18961E-04
 -1       150 6.14153E-02-1.90852E-02 3.35398E-04
 -1       151 3.89136E-02-6.73810E-03 3.90526E-04
 -1       152 1.99073E-02-2.68710E-03 4.06409E-04
 -1       153 7.00735E-03-3.66904E-03 3.84655E-04
 -1       154 6.02416E-04-5.87327E-03 3.26239E-04
 -1       155-9.76015E-04-6.37976E-03 2.33340E-04
 -1       156-4.18840E-04-4.20036E-03 1.34782E-04
 -1       157 1.09261E-01-6.92794E-02-7.57821E-05
 -1       158 9.16056E-02-3.58066E-02 1.06574E-04
 -1       159 6.70651E-02-1.22019E-02 1.79432E-04
 -1       160 4.16957E-02 1.40914E-04 2.08349E-04
 -1       161 2.04249E-02 3.05090E-03 2.14946E-04
 -1       162 6.21261E-03 3.56972E-04 2.02704E-04
 -1       163-5.80533E-04-3.54494E-03 1.71677E-04
 -1       164-1.92264E-03-5.32490E-03 1.23548E-04
 -1       165-8.59339E-04-3.86804E-03 6.30449E-05
 -1       166 1.19223E-01-6.59501E-02-8.60197E-05
 -1       167 9.99102E-02-3.02490E-02 1.47752E-05
 -1       168 7.27212E-02-5.28203E-03 4.13898E-05
 -1       169 4.45006E-02 7.04959E-03 4.45018E-05
 -1       170 2.09634E-02 8.79391E-03 4.26781E-05
 -1       171 5.44742E-03 4.35843E-03 3.91303E-05
 -1       172-1.70937E-03-1.26232E-03 3.27674E-05
 -1       173-2.78487E-03-4.30534E-03 2.51684E-05
 -1       174-1.22599E-03-3.51022E-03 1.98733E-06
 -1       175 1.29322E-01-6.26368E-02-9.12521E-05
 -1       176 1.08278E-01-2.45884E-02-6.35730E-05
 -1       177 7.84050E-02 1.74119E-03-8.35491E-05
 -1       178 4.73085E-02 1.40208E-02-1.05787E-04
 -1       179 2.14934E-02 1.45402E-02-1.15164E-04
 -1       180 4.69272E-03 8.30593E-03-1.10551E-04
 -1       181-2.77821E-03 9.28124E-04-9.45916E-05
 -1       182-3.52926E-03-3.37633E-03-6.53314E-05
 -1       183-1.48050E-03-3.17197E-03-4.68927E-05
 -1       184 1.39611E-01-5.93131E-02-9.36512E-05
 -1       185 1.16774E-01-1.87848E-02-1.32714E-04
 -1       186 8.41404E-02 8.91161E-03-1.99169E-04
 -1       187 5.01119E-02 2.10752E-02-2.45833E-04
 -1       188 2.19995E-02 2.02877E-02-2.61848E-04
 -1       189 3.93916E-03 1.21805E-02-2.49364E-04
 -1       190-3.78168E-03 2.99968E-03-2.13010E-04
 -1       191-4.12781E-03-2.57683E-03-1.51128E-04
 -1       192-1.57493E-03-2.89410E-03-8.32384E-05
 -1       193 1.50119E-01-5.59576E-02-9.26835E-05
 -1       194 1.25452E-01-1.28048E-02-1.95543E-04
 -1       195 8.99493E-02 1.62575E-02-3.08689E-04
 -1       196 5.29098E-02 2.82243E-02-3.78098E-04
 -1       197 2.24743E-02 2.60350E-02-3.99888E-04
 -1       198 3.18275E-03 1.59686E-02-3.79772E-04
 -1       199-4.71514E-03 4.93762E-03-3.23873E-04
 -1       200-4.56078E-03-1.92907E-03-2.35678E-04
 -1       201-1.43897E-03-2.71921E-03-1.07801E-04
 -1       202 6.96662E-02-1.16498E-01-1.59871E-03
 -1       203 6.94096E-02-1.16459E-01-1.19676E-03
 -1       204 6.92242E-02-1.16397E-01-8.34365E-04
 -1       205 6.91058E-02-1.16348E-01-4.93508E-04
 -1       206 6.90484E-02-1.16323E-01-1.63412E-04
 -1       207 6.90484E-02-1.16323E-01 1.63412E-04
 -1       208 6.91058E-02-1.16348E-01 4.93508E-04
 -1       209 6.92242E-02-1.16397E-01 8.34365E-04
 -1       210 6.94096E-02-1.16459E-01 1.19676E-03
 -1       211 6.96662E-02-1.16498E-01 1.59871E-03
 -1       212 8.24376E-02-1.11351E-01-1.21650E-03
 -1       213 8.23240E-02-1.11316E-01-9.42700E-04
 -1       214 8.22396E-02-1.11299E-01-6.68934E-04
 -1       215 8.21831E-02-1.11290E-01-3.99095E-04
 -1       216 8.21547E-02-1.11285E-01-1.32617E-04
 -1       217 8.21547E-02-1.11285E-01 1.32617E-04
 -1       218 8.21831E-02-1.11290E-01 3.99095E-04
 -1       219 8.22396E-02-1.11299E-01 6.68934E-04
 -1       220 8.23240E-02-1.11316E-01 9.42700E-04
 -1       221 8.24376E-02-1.11351E-01 1.21650E-03
 -1       222 9.36792E-02-1.08373E-01-7.09288E-04
 -1       223 9.36185E-02-1.08319E-01-5.52970E-04
 -1       224 9.35742E-02-1.08284E-01-3.96531E-04
 -1       225 9.35455E-02-1.08265E-01-2.38647E-04
 -1       226 9.35313E-02-1.08256E-01-7.96746E-05
 -1       227 9.35313E-02-1.08256E-01 7.96746E-05
 -1       228 9.35455E-02-1.08265E-01 2.38647E-04
 -1       229 9.35742E-02-1.08284E-01 3.96531E-04
 -1       230 9.36185E-02-1.08319E-01 5.52970E-04
 -1       231 9.36792E-02-1.08373E-01 7.09288E-04
 -1       232 1.04397E-01-1.06595E-01-4.24098E-04
 -1       233 1.04369E-01-1.06564E-01-3.27454E-04
 -1       234 1.04348E-01-1.06541E-01-2.32721E-04
 -1       235 1.04333E-01-1.06525E-01-1.39243E-04
 -1       236 1.04326E-01-1.06517E-01-4.63594E-05
 -1       237 1.04326E-01-1.06517E-01 4.63594E-05
 -1       238 1.04333E-01-1.06525E-01 1.39243E-04
 -1       239 1.04348E-01-1.06541E-01 2.32721E-04
 -1       240 1.04369E-01-1.06564E-01 3.27454E-04
 -1       241 1.04397E-01-1.06595E-01 4.24098E-04
 -1       242 1.15002E-01-1.05584E-01-2.51334E-04
 -1       243 1.14989E-01-1.05564E-01-1.94780E-04
 -1       244 1.14979E-01-1.05550E-01-1.38688E-04
 -1       245 1.14973E-01-1.05540E-01-8.30083E-05
 -1       246 1.14970E-01-1.05535E-01-2.76324E-05
 -1       247 1.14970E-01-1.05535E-01 2.76324E-05
 -1       248 1.14973E-01-1.05540E-01 8.30083E-05
 -1       249 1.14979E-01-1.05550E-01 1.38688E-04
 -1       250 1.14989E-01-1.05564E-01 1.94780E-04
 -1       251 1.15002E-01-1.05584E-01 2.51334E-04
 -1       252 1.25664E-01-1.05049E-01-1.44130E-04
 -1       253 1.25659E-01-1.05036E-01-1.11625E-04
 -1       254 1.25655E-01-1.05027E-01-7.95147E-05
 -1       255 1.25653E-01-1.05021E-01-4.76330E-05
 -1       256 1.25651E-01-1.05018E-01-1.58659E-05
 -1       257 1.25651E-01-1.05018E-01 1.58659E-05
 -1       258 1.25653E-01-1.05021E-01 4.76331E-05
 -1       259 1.25655E-01-1.05027E-01 7.95147E-05
 -1       260 1.25659E-01-1.05036E-01 1.11625E-04
 -1       261 1.25664E-01-1.05049E-01 1.44130E-04
 -1       262 1.36460E-01-1.04804E-01-7.84118E-05
 -1       263 1.36459E-01-1.04797E-01-6.07047E-05
 -1       264 1.36458E-01-1.04791E-01-4.32081E-05
 -1       265 1.36457E-01-1.04787E-01-2.58645E-05
 -1       266 1.36457E-01-1.04785E-01-8.61163E-06
 -1       267 1.36457E-01-1.04785E-01 8.61163E-06
 -1       268 1.36457E-01-1.04787E-01 2.58645E-05
 -1       269 1.36458E-01-1.04791E-01 4.32081E-05
 -1       270 1.36459E-01-1.04797E-01 6.07047E-05
 -1       271 1.36460E-01-1.04804E-01 7.84118E-05
 -1       272 1.47413E-01-1.04726E-01-4.05215E-05
 -1       273 1.47414E-01-1.04722E-01-3.13656E-05
 -1       274 1.47414E-01-1.04718E-01-2.23289E-05
 -1       275 1.47414E-01-1.04716E-01-1.33684E-05
 -1       276 1.47415E-01-1.04715E-01-4.45135E-06
 -1       277 1.47415E-01-1.04715E-01 4.45135E-06
 -1       278 1.47414E-01-1.04716E-01 1.33684E-05
 -1       279 1.47414E-01-1.04718E-01 2.23289E-05
 -1       280 1.47414E-01-1.04722E-01 3.13656E-05
 -1       281 1.47413E-01-1.04726E-01 4.05215E-05
 -1       282 1.58513E-01-1.04729E-01-2.02687E-05
 -1       283 1.58515E-01-1.04727E-01-1.56661E-05
 -1       284 1.58516E-01-1.04724E-01-1.11375E-05
 -1       285 1.58516E-01-1.04723E-01-6.66182E-06
 -1       286 1.58517E-01-1.04722E-01-2.21722E-06
 -1       287 1.58517E-01-1.04722E-01 2.21722E-06
 -1       288 1.58516E-01-1.04723E-01 6.66182E-06
 -1       289 1.58516E-01-1.04724E-01 1.11375E-05
 -1       290 1.58515E-01-1.04727E-01 1.56661E-05
 -1       291 1.58513E-01-1.04729E-01 2.02687E-05
 -1       292 1.60865E-01-5.25483E-02-7.12411E-05
 -1       293 1.60868E-01-5.25469E-02-5.54587E-05
 -1       294 1.60869E-01-5.25459E-02-3.96435E-05
 -1       295 1.60871E-01-5.25452E-02-2.37992E-05
 -1       296 1.60871E-01-5.25449E-02-7.93534E-06
 -1       297 1.60871E-01-5.25449E-02 7.93534E-06
 -1       298 1.60871E-01-5.25452E-02 2.37992E-05
 -1       299 1.60869E-01-5.25459E-02 3.96435E-05
 -1       300 1.60868E-01-5.25469E-02 5.54587E-05
 -1       301 1.60865E-01-5.25483E-02 7.12411E-05
 -1       302 1.34373E-01-6.61650E-03-2.03995E-04
 -1       303 1.34380E-01-6.61966E-03-1.58714E-04
 -1       304 1.34385E-01-6.62218E-03-1.13396E-04
 -1       305 1.34388E-01-6.62393E-03-6.80486E-05
 -1       306 1.34390E-01-6.62482E-03-2.26848E-05
 -1       307 1.34390E-01-6.62482E-03 2.26848E-05
 -1       308 1.34388E-01-6.62393E-03 6.80486E-05
 -1       309 1.34385E-01-6.62218E-03 1.13396E-04
 -1       310 1.34380E-01-6.61966E-03 1.58714E-04
 -1       311 1.34373E-01-6.61650E-03 2.03995E-04
 -1       312 9.58642E-02 2.37890E-02-3.36296E-04
 -1       313 9.58763E-02 2.37839E-02-2.61588E-04
 -1       314 9.58854E-02 2.37800E-02-1.86861E-04
 -1       315 9.58915E-02 2.37774E-02-1.12121E-04
 -1       316 9.58945E-02 2.37761E-02-3.73745E-05
 -1       317 9.58945E-02 2.37761E-02 3.73745E-05
 -1       318 9.58915E-02 2.37774E-02 1.12121E-04
 -1       319 9.58854E-02 2.37800E-02 1.86861E-04
 -1       320 9.58763E-02 2.37839E-02 2.61588E-04
 -1       321 9.58642E-02 2.37890E-02 3.36296E-04
 -1       322 5.57212E-02 3.54699E-02-4.08881E-04
 -1       323 5.57360E-02 3.54665E-02-3.18073E-04
 -1       324 5.57472E-02 3.54639E-02-2.27225E-04
 -1       325 5.57547E-02 3.54621E-02-1.36347E-04
 -1       326 5.57585E-02 3.54612E-02-4.54512E-05
 -1       327 5.57585E-02 3.54612E-02 4.54512E-05
 -1       328 5.57547E-02 3.54621E-02 1.36347E-04
 -1       329 5.57472E-02 3.54639E-02 2.27225E-04
 -1       330 5.57360E-02 3.54665E-02 3.18073E-04
 -1       331 5.57212E-02 3.54699E-02 4.08881E-04
 -1       332 2.29330E-02 3.17807E-02-4.30530E-04
 -1       333 2.29488E-02 3.17807E-02-3.34916E-04
 -1       334 2.29607E-02 3.17807E-02-2.39258E-04
 -1       335 2.29687E-02 3.17807E-02-1.43569E-04
 -1       336 2.29727E-02 3.17807E-02-4.78585E-05
 -1       337 2.29727E-02 3.17807E-02 4.78585E-05
 -1       338 2.29687E-02 3.17807E-02 1.43569E-04
 -1       339 2.29607E-02 3.17807E-02 2.39258E-04
 -1       340 2.29488E-02 3.17807E-02 3.34916E-04
 -1       341 2.29330E-02 3.17807E-02 4.30530E-04
 -1       342 2.43979E-03 1.96642E-02-4.08769E-04
 -1       343 2.45445E-03 1.96676E-02-3.17972E-04
 -1       344 2.46551E-03 1.96703E-02-2.27146E-04
 -1       345 2.47290E-03 1.96720E-02-1.36297E-04
 -1       346 2.47661E-03 1.96729E-02-4.54339E-05
 -1       347 2.47661E-03 1.96729E-02 4.54339E-05
 -1       348 2.47290E-03 1.96720E-02 1.36297E-04
 -1       349 2.46551E-03 1.96703E-02 2.27146E-04
 -1       350 2.45445E-03 1.96676E-02 3.17972E-04
 -1       351 2.43979E-03 1.96642E-02 4.08769E-04
 -1       352-5.55977E-03 6.73451E-03-3.45697E-04
 -1       353-5.54861E-03 6.74013E-03-2.68966E-04
 -1       354-5.54015E-03 6.74442E-03-1.92169E-04
 -1       355-5.53447E-03 6.74732E-03-1.15322E-04
 -1       356-5.53163E-03 6.74878E-03-3.84442E-05
 -1       357-5.53163E-03 6.74878E-03 3.84442E-05
 -1       358-5.53447E-03 6.74732E-03 1.15322E-04
 -1       359-5.54015E-03 6.74442E-03 1.92169E-04
 -1       360-5.54861E-03 6.74013E-03 2.68966E-04
 -1       361-5.55977E-03 6.73451E-03 3.45697E-04
 -1       362-4.81582E-03-1.42150E-03-2.63832E-04
 -1       363-4.80657E-03-1.41494E-03-2.05123E-04
 -1       364-4.79977E-03-1.40999E-03-1.46470E-04
 -1       365-4.79530E-03-1.40668E-03-8.78626E-05
 -1       366-4.79308E-03-1.40503E-03-2.92842E-05
 -1       367-4.79308E-03-1.40503E-03 2.92842E-05
 -1       368-4.79530E-03-1.40668E-03 8.78626E-05
 -1       369-4.79977E-03-1.40999E-03 1.46470E-04
 -1       370-4.80657E-03-1.41494E-03 2.05123E-04
 -1       371-4.81582E-03-1.42150E-03 2.63832E-04
 -1       372-9.53201E-04-2.70393E-03-9.20970E-05
 -1       373-9.48556E-04-2.70452E-03-7.18352E-05
 -1       374-9.45136E-04-2.70472E-03-5.14269E-05
 -1       375-9.42887E-04-2.70475E-03-3.09044E-05
 -1       376-9.41772E-04-2.70473E-03-1.03097E-05
 -1       377-9.41772E-04-2.70473E-03 1.03097E-05
 -1       378-9.42887E-04-2.70475E-03 3.09044E-05
 -1       379-9.45136E-04-2.70472E-03 5.14269E-05
 -1       380-9.48556E-04-2.70452E-03 7.18352E-05
 -1       381-9.53201E-04-2.70393E-03 9.20970E-05
 -1       382 0.00000E+00 0.00000E+00 0.00000E+00
 -1       383 0.00000E+00 0.00000E+00 0.00000E+00
 -1       384 0.00000E+00 0.00000E+00 0.00000E+00
 -1       385 0.00000E+00 0.00000E+00 0.00000E+00
 -1       386 0.00000E+00 0.00000E+00 0.00000E+00
 -1       387 0.00000E+00 0.00000E+00 0.00000E+00
 -1       388 0.00000E+00 0.00000E+00 0.00000E+00
 -1       389 0.00000E+00 0.00000E+00 0.00000E+00
 -1       390 0.00000E+00 0.00000E+00 0.00000E+00
 -1       391 0.00000E+00 0.00000E+00 0.00000E+00
 -1       392 0.00000E+00 0.00000E+00 0.00000E+00
 -1       393 0.00000E+00 0.00000E+00 0.00000E+00
 -1       394 0.00000E+00 0.00000E+00 0.00000E+00
 -1       395 0.00000E+00 0.00000E+00 0.00000E+00
 -1       396 0.00000E+00 0.00000E+00 0.00000E+00
 -1       397 0.00000E+00 0.00000E+00 0.00000E+00
 -1       398 0.00000E+00 0.00000E+00 0.00000E+00
 -1       399 0.00000E+00 0.00000E+00 0.00000E+00
 -1       400 0.00000E+00 0.00000E+00 0.00000E+00
 -1       401 0.00000E+00 0.00000E+00 0.00000E+00
 -1       402 0.00000E+00 0.00000E+00 0.00000E+00
 -1       403 0.00000E+00 0.00000E+00 0.00000E+00
 -1       404 0.00000E+00 0.00000E+00 0.00000E+00
 -1       405 0.00000E+00 0.00000E+00 0.00000E+00
 -1       406 0.00000E+00 0.00000E+00 0.00000E+00
 -1       407 0.00000E+00 0.00000E+00 0.00000E+00
 -1       408 0.00000E+00 0.00000E+00 0.00000E+00
 -1       409 0.00000E+00 0.00000E+00 0.00000E+00
 -1       410 0.00000E+00 0.00000E+00 0.00000E+00
 -1       411 0.00000E+00 0.00000E+00 0.00000E+00
 -1       412 0.00000E+00 0.00000E+00 0.00000E+00
 -1       413 0.00000E+00 0.00000E+00 0.00000E+00
 -1       414 0.00000E+00 0.00000E+00 0.00000E+00
 -1       415 0.00000E+00 0.00000E+00 0.00000E+00
 -1       416 0.00000E+00 0.00000E+00 0.00000E+00
 -1       417 0.00000E+00 0.00000E+00 0.00000E+00
 -1       418 0.00000E+00 0.00000E+00 0.00000E+00
 -1       419 0.00000E+00 0.00000E+00 0.00000E+00
 -1       420 0.00000E+00 0.00000E+00 0.00000E+00
 -1       421 0.00000E+00 0.00000E+00 0.00000E+00
 -1       422 0.00000E+00 0.00000E+00 0.00000E+00
 -1       423 0.00000E+00 0.00000E+00 0.00000E+00
 -1       424 0.00000E+00 0.00000E+00 0.00000E+00
 -1       425 0.00000E+00 0.00000E+00 0.00000E+00
 -1       426 0.00000E+00 0.00000E+00 0.00000E+00
 -1       427 0.00000E+00 0.00000E+00 0.00000E+00
 -1       428 0.00000E+00 0.00000E+00 0.00000E+00
 -1       429 0.00000E+00 0.00000E+00 0.00000E+00
 -1       430 0.00000E+00 0.00000E+00 0.00000E+00
 -1       431 0.00000E+00 0.00000E+00 0.00000E+00
 -1       432 0.00000E+00 0.00000E+00 0.00000E+00
 -1       433 0.00000E+00 0.00000E+00 0.00000E+00
 -1       434 0.00000E+00 0.00000E+00 0.00000E+00
 -1       435 0.00000E+00 0.00000E+00 0.00000E+00
 -1       436 0.00000E+00 0.00000E+00 0.00000E+00
 -1       437 0.00000E+00 0.00000E+00 0.00000E+00
 -1       438 0.00000E+00 0.00000E+00 0.00000E+00
 -1       439 0.00000E+00 0.00000E+00 0.00000E+00
 -1       440 0.00000E+00 0.00000E+00 0.00000E+00
 -1       441 0.00000E+00 0.00000E+00 0.00000E+00
 -1       442 0.00000E+00 0.00000E+00 0.00000E+00
 -1       443 0.00000E+00 0.00000E+00 0.00000E+00
 -1       444 0.00000E+00 0.00000E+00 0.00000E+00
 -1       445 0.00000E+00 0.00000E+00 0.00000E+00
 -1       446 0.00000E+00 0.00000E+00 0.00000E+00
 -1       447 0.00000E+00 0.00000E+00 0.00000E+00
 -1       448 0.00000E+00 0.00000E+00 0.00000E+00
 -1       449 0.00000E+00 0.00000E+00 0.00000E+00
 -1       450 0.00000E+00 0.00000E+00 0.00000E+00
 -1       451 0.00000E+00 0.00000E+00 0.00000E+00
 -1       452 0.00000E+00 0.00000E+00 0.00000E+00
 -1       453 0.00000E+00 0.00000E+00 0.00000E+00
 -1       454 0.00000E+00 0.00000E+00 0.00000E+00
 -1       455 0.00000E+00 0.00000E+00 0.00000E+00
 -1       456 0.00000E+00 0.00000E+00 0.00000E+00
 -1       457 0.00000E+00 0.00000E+00 0.00000E+00
 -1       458 0.00000E+00 0.00000E+00 0.00000E+00
 -1       459 0.00000E+00 0.00000E+00 0.00000E+00
 -1       460 0.00000E+00 0.00000E+00 0.00000E+00
 -1       461 0.00000E+00 0.00000E+00 0.00000E+00
 -1       462 0.00000E+00 0.00000E+00 0.00000E+00
 -1       463 0.00000E+00 0.00000E+00 0.00000E+00
 -1       464 0.00000E+00 0.00000E+00 0.00000E+00
 -1       465 0.00000E+00 0.00000E+00 0.00000E+00
 -1       466 0.00000E+00 0.00000E+00 0.00000E+00
 -1       467 0.00000E+00 0.00000E+00 0.00000E+00
 -1       468 0.00000E+00 0.00000E+00 0.00000E+00
 -1       469 0.00000E+00 0.00000E+00 0.00000E+00
 -1       470 0.00000E+00 0.00000E+00 0.00000E+00
 -1       471 0.00000E+00 0.00000E+00 0.00000E+00
 -1       472 5.12995E-02-8.75361E-02 1.49196E-03
 -1       473 5.12236E-02-8.78190E-02 1.11658E-03
 -1       474 5.11714E-02-8.79837E-02 7.73101E-04
 -1       475 5.11396E-02-8.80762E-02 4.53822E-04
 -1       476 5.11247E-02-8.81181E-02 1.49578E-04
 -1       477 5.11247E-02-8.81181E-02-1.49578E-04
 -1       478 5.11396E-02-8.80762E-02-4.53822E-04
 -1       479 5.11714E-02-8.79837E-02-7.73101E-04
 -1       480 5.12236E-02-8.78190E-02-1.11658E-03
 -1       481 5.12995E-02-8.75361E-02-1.49196E-03
 -1       482 4.74768E-02-6.69351E-02 1.06967E-03
 -1       483 4.75337E-02-6.69678E-02 8.49699E-04
 -1       484 4.75601E-02-6.70074E-02 6.15613E-04
 -1       485 4.75714E-02-6.70388E-02 3.72619E-04
 -1       486 4.75753E-02-6.70557E-02 1.24726E-04
 -1       487 4.75753E-02-6.70557E-02-1.24726E-04
 -1       488 4.75714E-02-6.70388E-02-3.72619E-04
 -1       489 4.75601E-02-6.70074E-02-6.15613E-04
 -1       490 4.75337E-02-6.69678E-02-8.49699E-04
 -1       491 4.74768E-02-6.69351E-02-1.06967E-03
 -1       492 3.95106E-02-4.94007E-02 1.16764E-03
 -1       493 3.95500E-02-4.94470E-02 9.00252E-04
 -1       494 3.95825E-02-4.94746E-02 6.39724E-04
 -1       495 3.96050E-02-4.94907E-02 3.82737E-04
 -1       496 3.96163E-02-4.94983E-02 1.27417E-04
 -1       497 3.96163E-02-4.94983E-02-1.27417E-04
 -1       498 3.96050E-02-4.94907E-02-3.82737E-04
 -1       499 3.95825E-02-4.94746E-02-6.39724E-04
 -1       500 3.95500E-02-4.94470E-02-9.00252E-04
 -1       501 3.95106E-02-4.94007E-02-1.16764E-03
 -1       502 2.99355E-02-3.57618E-02 1.35700E-03
 -1       503 2.99971E-02-3.57947E-02 1.05280E-03
 -1       504 3.00393E-02-3.58182E-02 7.50101E-04
 -1       505 3.00659E-02-3.58330E-02 4.49196E-04
 -1       506 3.00788E-02-3.58401E-02 1.49579E-04
 -1       507 3.00788E-02-3.58401E-02-1.49579E-04
 -1       508 3.00659E-02-3.58330E-02-4.49196E-04
 -1       509 3.00393E-02-3.58182E-02-7.50101E-04
 -1       510 2.99971E-02-3.57947E-02-1.05280E-03
 -1       511 2.99355E-02-3.57618E-02-1.35700E-03
 -1       512 2.04285E-02-2.55796E-02 1.42172E-03
 -1       513 2.05021E-02-2.55789E-02 1.10239E-03
 -1       514 2.05537E-02-2.55783E-02 7.85640E-04
 -1       515 2.05866E-02-2.55781E-02 4.70672E-04
 -1       516 2.06026E-02-2.55780E-02 1.56771E-04
 -1       517 2.06026E-02-2.55780E-02-1.56771E-04
 -1       518 2.05866E-02-2.55781E-02-4.70672E-04
 -1       519 2.05537E-02-2.55783E-02-7.85640E-04
 -1       520 2.05021E-02-2.55789E-02-1.10239E-03
 -1       521 2.04285E-02-2.55796E-02-1.42172E-03
 -1       522 1.22587E-02-1.81826E-02 1.35522E-03
 -1       523 1.23218E-02-1.81509E-02 1.05066E-03
 -1       524 1.23660E-02-1.81290E-02 7.48573E-04
 -1       525 1.23942E-02-1.81151E-02 4.48370E-04
 -1       526 1.24079E-02-1.81083E-02 1.49327E-04
 -1       527 1.24079E-02-1.81083E-02-1.49327E-04
 -1       528 1.23942E-02-1.81151E-02-4.48370E-04
 -1       529 1.23660E-02-1.81290E-02-7.48573E-04
 -1       530 1.23218E-02-1.81509E-02-1.05066E-03
 -1       531 1.22587E-02-1.81826E-02-1.35522E-03
 -1       532 6.05012E-03-1.26370E-02 1.15812E-03
 -1       533 6.08710E-03-1.25844E-02 8.98510E-04
 -1       534 6.11288E-03-1.25476E-02 6.40494E-04
 -1       535 6.12927E-03-1.25242E-02 3.83750E-04
 -1       536 6.13725E-03-1.25128E-02 1.27823E-04
 -1       537 6.13725E-03-1.25128E-02-1.27823E-04
 -1       538 6.12927E-03-1.25242E-02-3.83750E-04
 -1       539 6.11288E-03-1.25476E-02-6.40494E-04
 -1       540 6.08710E-03-1.25844E-02-8.98510E-04
 -1       541 6.05012E-03-1.26370E-02-1.15812E-03
 -1       542 1.93952E-03-8.02142E-03 8.41831E-04
 -1       543 1.93648E-03-7.96521E-03 6.51245E-04
 -1       544 1.93538E-03-7.92732E-03 4.63179E-04
 -1       545 1.93513E-03-7.90384E-03 2.77083E-04
 -1       546 1.93515E-03-7.89259E-03 9.22211E-05
 -1       547 1.93515E-03-7.89259E-03-9.22211E-05
 -1       548 1.93513E-03-7.90384E-03-2.77083E-04
 -1       549 1.93538E-03-7.92732E-03-4.63179E-04
 -1       550 1.93648E-03-7.96521E-03-6.51245E-04
 -1       551 1.93952E-03-8.02142E-03-8.41831E-04
 -1       552-1.31357E-04-3.75415E-03 2.91115E-04
 -1       553-1.65999E-04-3.74146E-03 2.27472E-04
 -1       554-1.87474E-04-3.73208E-03 1.63173E-04
 -1       555-1.99895E-04-3.72586E-03 9.82128E-05
 -1       556-2.05582E-04-3.72276E-03 3.27918E-05
 -1       557-2.05582E-04-3.72276E-03-3.27918E-05
 -1       558-1.99895E-04-3.72586E-03-9.82128E-05
 -1       559-1.87474E-04-3.73208E-03-1.63173E-04
 -1       560-1.65999E-04-3.74146E-03-2.27472E-04
 -1       561-1.31357E-04-3.75415E-03-2.91115E-04
 -1       562 6.63316E-02-8.33250E-02-6.45361E-04
 -1       563 5.65828E-02-5.91728E-02-7.46067E-04
 -1       564 4.46900E-02-4.08400E-02-9.74100E-04
 -1       565 3.13954E-02-2.78923E-02-1.10537E-03
 -1       566 1.93398E-02-1.98627E-02-1.15829E-03
 -1       567 1.01909E-02-1.51913E-02-1.10155E-03
 -1       568 4.47886E-03-1.19807E-02-9.38023E-04
 -1       569 1.69988E-03-8.65860E-03-6.72823E-04
 -1       570 7.27558E-04-4.36754E-03-3.49216E-04
 -1       571 7.85299E-02-7.96643E-02-2.05362E-04
 -1       572 6.59201E-02-5.27110E-02-5.40537E-04
 -1       573 5.01484E-02-3.32126E-02-7.22529E-04
 -1       574 3.36443E-02-2.06412E-02-8.36714E-04
 -1       575 1.92114E-02-1.41441E-02-8.72577E-04
 -1       576 8.88317E-03-1.15617E-02-8.29124E-04
 -1       577 3.12157E-03-1.02872E-02-7.04154E-04
 -1       578 9.60744E-04-8.22684E-03-5.06766E-04
 -1       579 4.93925E-04-4.53976E-03-2.87992E-04
 -1       580 8.92247E-02-7.61140E-02-1.20877E-05
 -1       581 7.47701E-02-4.68872E-02-3.62233E-04
 -1       582 5.57642E-02-2.60354E-02-5.14233E-04
 -1       583 3.61995E-02-1.36383E-02-5.97183E-04
 -1       584 1.94668E-02-8.41878E-03-6.23134E-04
 -1       585 7.87065E-03-7.67055E-03-5.90743E-04
 -1       586 1.83552E-03-8.16769E-03-5.01697E-04
 -1       587 1.05248E-05-7.39001E-03-3.58815E-04
 -1       588 5.48526E-05-4.45011E-03-2.13095E-04
 -1       589 9.93303E-02-7.26571E-02 5.16240E-05
 -1       590 8.32708E-02-4.13190E-02-2.18961E-04
 -1       591 6.14153E-02-1.90852E-02-3.35398E-04
 -1       592 3.89136E-02-6.73810E-03-3.90526E-04
 -1       593 1.99073E-02-2.68710E-03-4.06409E-04
 -1       594 7.00735E-03-3.66904E-03-3.84655E-04
 -1       595 6.02416E-04-5.87327E-03-3.26239E-04
 -1       596-9.76015E-04-6.37976E-03-2.33340E-04
 -1       597-4.18840E-04-4.20036E-03-1.34782E-04
 -1       598 1.09261E-01-6.92794E-02 7.57821E-05
 -1       599 9.16056E-02-3.58066E-02-1.06574E-04
 -1       600 6.70651E-02-1.22019E-02-1.79432E-04
 -1       601 4.16957E-02 1.40914E-04-2.08349E-04
 -1       602 2.04249E-02 3.05090E-03-2.14946E-04
 -1       603 6.21261E-03 3.56972E-04-2.02704E-04
 -1       604-5.80533E-04-3.54494E-03-1.71677E-04
 -1       605-1.92264E-03-5.32490E-03-1.23548E-04
 -1       606-8.59339E-04-3.86804E-03-6.30449E-05
 -1       607 1.19223E-01-6.59501E-02 8.60197E-05
 -1       608 9.99102E-02-3.02490E-02-1.47752E-05
 -1       609 7.27212E-02-5.28203E-03-4.13898E-05
 -1       610 4.45006E-02 7.04959E-03-4.45018E-05
 -1       611 2.09634E-02 8.79391E-03-4.26781E-05
 -1       612 5.44742E-03 4.35843E-03-3.91303E-05
 -1       613-1.70937E-03-1.26232E-03-3.27674E-05
 -1       614-2.78487E-03-4.30534E-03-2.51684E-05
 -1       615-1.22599E-03-3.51022E-03-1.98733E-06
 -1       616 1.29322E-01-6.26368E-02 9.12521E-05
 -1       617 1.08278E-01-2.45884E-02 6.35730E-05
 -1       618 7.84050E-02 1.74119E-03 8.35491E-05
 -1       619 4.73085E-02 1.40208E-02 1.05787E-04
 -1       620 2.14934E-02 1.45402E-02 1.15164E-04
 -1       621 4.69272E-03 8.30593E-03 1.10551E-04
 -1       622-2.77821E-03 9.28124E-04 9.45916E-05
 -1       623-3.52926E-03-3.37633E-03 6.53314E-05
 -1       624-1.48050E-03-3.17197E-03 4.68927E-05
 -1       625 1.39611E-01-5.93131E-02 9.36512E-05
 -1       626 1.16774E-01-1.87848E-02 1.32714E-04
 -1       627 8.41404E-02 8.91161E-03 1.99169E-04
 -1       628 5.01119E-02 2.10752E-02 2.45833E-04
 -1       629 2.19995E-02 2.02877E-02 2.61848E-04
 -1       630 3.93916E-03 1.21805E-02 2.49364E-04
 -1       631-3.78168E-03 2.99968E-03 2.13010E-04
 -1       632-4.12781E-03-2.57683E-03 1.51128E-04
 -1       633-1.57493E-03-2.89410E-03 8.32384E-05
 -1       634 1.50119E-01-5.59576E-02 9.26835E-05
 -1       635 1.25452E-01-1.28048E-02 1.95543E-04
 -1       636 8.99493E-02 1.62575E-02 3.08689E-04
 -1       637 5.29098E-02 2.82243E-02 3.78098E-04
 -1       638 2.24743E-02 2.60350E-02 3.99888E-04
 -1       639 3.18275E-03 1.59686E-02 3.79772E-04
 -1       640-4.71514E-03 4.93762E-03 3.23873E-04
 -1       641-4.56078E-03-1.92907E-03 2.35678E-04
 -1       642-1.43897E-03-2.71921E-03 1.07801E-04
 -1       643 6.62625E-02-8.34231E-02 5.18456E-04
 -1       644 6.61977E-02-8.35189E-02 4.01180E-04
 -1       645 6.61436E-02-8.35907E-02 2.86487E-04
 -1       646 6.61051E-02-8.36367E-02 1.72061E-04
 -1       647 6.60853E-02-8.36588E-02 5.73957E-05
 -1       648 6.60853E-02-8.36588E-02-5.73957E-05
 -1       649 6.61051E-02-8.36367E-02-1.72061E-04
 -1       650 6.61436E-02-8.35907E-02-2.86487E-04
 -1       651 6.61977E-02-8.35189E-02-4.01180E-04
 -1       652 6.62625E-02-8.34231E-02-5.18456E-04
 -1       653 5.66323E-02-5.92329E-02 6.21833E-04
 -1       654 5.66712E-02-5.92774E-02 4.91281E-04
 -1       655 5.66985E-02-5.93115E-02 3.55228E-04
 -1       656 5.67155E-02-5.93350E-02 2.14923E-04
 -1       657 5.67236E-02-5.93471E-02 7.19445E-05
 -1       658 5.67236E-02-5.93471E-02-7.19445E-05
 -1       659 5.67155E-02-5.93350E-02-2.14923E-04
 -1       660 5.66985E-02-5.93115E-02-3.55228E-04
 -1       661 5.66712E-02-5.92774E-02-4.91281E-04
 -1       662 5.66323E-02-5.92329E-02-6.21833E-04
 -1       663 4.47190E-02-4.08841E-02 7.94655E-04
 -1       664 4.47445E-02-4.09187E-02 6.16840E-04
 -1       665 4.47651E-02-4.09433E-02 4.40080E-04
 -1       666 4.47796E-02-4.09589E-02 2.63885E-04
 -1       667 4.47870E-02-4.09665E-02 8.79395E-05
 -1       668 4.47870E-02-4.09665E-02-8.79395E-05
 -1       669 4.47796E-02-4.09589E-02-2.63885E-04
 -1       670 4.47651E-02-4.09433E-02-4.40080E-04
 -1       671 4.47445E-02-4.09187E-02-6.16840E-04
 -1       672 4.47190E-02-4.08841E-02-7.94655E-04
 -1       673 3.14545E-02-2.79202E-02 9.07902E-04
 -1       674 3.15001E-02-2.79431E-02 7.08709E-04
 -1       675 3.15332E-02-2.79605E-02 5.07673E-04
 -1       676 3.15547E-02-2.79723E-02 3.05194E-04
 -1       677 3.15653E-02-2.79781E-02 1.01830E-04
 -1       678 3.15653E-02-2.79781E-02-1.01830E-04
 -1       679 3.15547E-02-2.79723E-02-3.05194E-04
 -1       680 3.15332E-02-2.79605E-02-5.07673E-04
 -1       681 3.15001E-02-2.79431E-02-7.08709E-04
 -1       682 3.14545E-02-2.79202E-02-9.07902E-04
 -1       683 1.94060E-02-1.98626E-02 9.50053E-04
 -1       684 1.94586E-02-1.98624E-02 7.40913E-04
 -1       685 1.94975E-02-1.98621E-02 5.30472E-04
 -1       686 1.95231E-02-1.98619E-02 3.18829E-04
 -1       687 1.95358E-02-1.98618E-02 1.06371E-04
 -1       688 1.95358E-02-1.98618E-02-1.06371E-04
 -1       689 1.95231E-02-1.98619E-02-3.18829E-04
 -1       690 1.94975E-02-1.98621E-02-5.30472E-04
 -1       691 1.94586E-02-1.98624E-02-7.40913E-04
 -1       692 1.94060E-02-1.98626E-02-9.50053E-04
 -1       693 1.02489E-02-1.51623E-02 9.03868E-04
 -1       694 1.02943E-02-1.51392E-02 7.05019E-04
 -1       695 1.03276E-02-1.51220E-02 5.04786E-04
 -1       696 1.03496E-02-1.51106E-02 3.03381E-04
 -1       697 1.03604E-02-1.51050E-02 1.01214E-04
 -1       698 1.03604E-02-1.51050E-02-1.01214E-04
 -1       699 1.03496E-02-1.51106E-02-3.03381E-04
 -1       700 1.03276E-02-1.51220E-02-5.04786E-04
 -1       701 1.02943E-02-1.51392E-02-7.05019E-04
 -1       702 1.02489E-02-1.51623E-02-9.03868E-04
 -1       703 4.51191E-03-1.19332E-02 7.69427E-04
 -1       704 4.53798E-03-1.18952E-02 6.00123E-04
 -1       705 4.55714E-03-1.18669E-02 4.29715E-04
 -1       706 4.56968E-03-1.18482E-02 2.58289E-04
 -1       707 4.57587E-03-1.18389E-02 8.61760E-05
 -1       708 4.57587E-03-1.18389E-02-8.61760E-05
 -1       709 4.56968E-03-1.18482E-02-2.58289E-04
 -1       710 4.55714E-03-1.18669E-02-4.29715E-04
 -1       711 4.53798E-03-1.18952E-02-6.00123E-04
 -1       712 4.51191E-03-1.19332E-02-7.69427E-04
 -1       713 1.70235E-03-8.61038E-03 5.53282E-04
 -1       714 1.70166E-03-8.57181E-03 4.32279E-04
 -1       715 1.69997E-03-8.54317E-03 3.09871E-04
 -1       716 1.69841E-03-8.52428E-03 1.86373E-04
 -1       717 1.69752E-03-8.51491E-03 6.21999E-05
 -1       718 1.69752E-03-8.51491E-03-6.21999E-05
 -1       719 1.69841E-03-8.52428E-03-1.86373E-04
 -1       720 1.69997E-03-8.54317E-03-3.09871E-04
 -1       721 1.70166E-03-8.57181E-03-4.32279E-04
 -1       722 1.70235E-03-8.61038E-03-5.53282E-04
 -1       723 6.94626E-04-4.35205E-03 2.83158E-04
 -1       724 6.69792E-04-4.33840E-03 2.18529E-04
 -1       725 6.52178E-04-4.32757E-03 1.55155E-04
 -1       726 6.40950E-04-4.32013E-03 9.27142E-05
 -1       727 6.35496E-04-4.31635E-03 3.08415E-05
 -1       728 6.35496E-04-4.31635E-03-3.08415E-05
 -1       729 6.40950E-04-4.32013E-03-9.27142E-05
 -1       730 6.52178E-04-4.32757E-03-1.55155E-04
 -1       731 6.69792E-04-4.33840E-03-2.18529E-04
 -1       732 6.94626E-04-4.35205E-03-2.83158E-04
 -1       733 7.84751E-02-7.97293E-02 1.67560E-04
 -1       734 7.84306E-02-7.97702E-02 1.28539E-04
 -1       735 7.83970E-02-7.97985E-02 9.06445E-05
 -1       736 7.83744E-02-7.98169E-02 5.39178E-05
 -1       737 7.83630E-02-7.98260E-02 1.78973E-05
 -1       738 7.83630E-02-7.98260E-02-1.78973E-05
 -1       739 7.83744E-02-7.98169E-02-5.39178E-05
 -1       740 7.83970E-02-7.97985E-02-9.06445E-05
 -1       741 7.84306E-02-7.97702E-02-1.28539E-04
 -1       742 7.84751E-02-7.97293E-02-1.67560E-04
 -1       743 6.59319E-02-5.27406E-02 4.40314E-04
 -1       744 6.59424E-02-5.27715E-02 3.41515E-04
 -1       745 6.59508E-02-5.27972E-02 2.43512E-04
 -1       746 6.59567E-02-5.28153E-02 1.45958E-04
 -1       747 6.59597E-02-5.28245E-02 4.86301E-05
 -1       748 6.59597E-02-5.28245E-02-4.86301E-05
 -1       749 6.59567E-02-5.28153E-02-1.45958E-04
 -1       750 6.59508E-02-5.27972E-02-2.43512E-04
 -1       751 6.59424E-02-5.27715E-02-3.41515E-04
 -1       752 6.59319E-02-5.27406E-02-4.40314E-04
 -1       753 5.01683E-02-3.32421E-02 5.88948E-04
 -1       754 5.01866E-02-3.32653E-02 4.56713E-04
 -1       755 5.02014E-02-3.32829E-02 3.25508E-04
 -1       756 5.02118E-02-3.32947E-02 1.95023E-04
 -1       757 5.02171E-02-3.33006E-02 6.49612E-05
 -1       758 5.02171E-02-3.33006E-02-6.49612E-05
 -1       759 5.02118E-02-3.32947E-02-1.95023E-04
 -1       760 5.02014E-02-3.32829E-02-3.25508E-04
 -1       761 5.01866E-02-3.32653E-02-4.56713E-04
 -1       762 5.01683E-02-3.32421E-02-5.88948E-04
 -1       763 3.36791E-02-2.06580E-02 6.82572E-04
 -1       764 3.37090E-02-2.06726E-02 5.29620E-04
 -1       765 3.37324E-02-2.06840E-02 3.77644E-04
 -1       766 3.37484E-02-2.06917E-02 2.26336E-04
 -1       767 3.37565E-02-2.06956E-02 7.54048E-05
 -1       768 3.37565E-02-2.06956E-02-7.54048E-05
 -1       769 3.37484E-02-2.06917E-02-2.26336E-04
 -1       770 3.37324E-02-2.06840E-02-3.77644E-04
 -1       771 3.37090E-02-2.06726E-02-5.29620E-04
 -1       772 3.36791E-02-2.06580E-02-6.82572E-04
 -1       773 1.92511E-02-1.41438E-02 7.11676E-04
 -1       774 1.92855E-02-1.41436E-02 5.52177E-04
 -1       775 1.93125E-02-1.41434E-02 3.93729E-04
 -1       776 1.93310E-02-1.41433E-02 2.35978E-04
 -1       777 1.93404E-02-1.41433E-02 7.86179E-05
 -1       778 1.93404E-02-1.41433E-02-7.86179E-05
 -1       779 1.93310E-02-1.41433E-02-2.35978E-04
 -1       780 1.93125E-02-1.41434E-02-3.93729E-04
 -1       781 1.92855E-02-1.41436E-02-5.52177E-04
 -1       782 1.92511E-02-1.41438E-02-7.11676E-04
 -1       783 8.91762E-03-1.15441E-02 6.76317E-04
 -1       784 8.94741E-03-1.15292E-02 5.24753E-04
 -1       785 8.97078E-03-1.15177E-02 3.74169E-04
 -1       786 8.98677E-03-1.15099E-02 2.24251E-04
 -1       787 8.99487E-03-1.15059E-02 7.47097E-05
 -1       788 8.99487E-03-1.15059E-02-7.47097E-05
 -1       789 8.98677E-03-1.15099E-02-2.24251E-04
 -1       790 8.97078E-03-1.15177E-02-3.74169E-04
 -1       791 8.94741E-03-1.15292E-02-5.24753E-04
 -1       792 8.91762E-03-1.15441E-02-6.76317E-04
 -1       793 3.14024E-03-1.02583E-02 5.74048E-04
 -1       794 3.15716E-03-1.02341E-02 4.45235E-04
 -1       795 3.17076E-03-1.02154E-02 3.17396E-04
 -1       796 3.18018E-03-1.02028E-02 1.90199E-04
 -1       797 3.18499E-03-1.01964E-02 6.33617E-05
 -1       798 3.18499E-03-1.01964E-02-6.33617E-05
 -1       799 3.18018E-03-1.02028E-02-1.90199E-04
 -1       800 3.17076E-03-1.02154E-02-3.17396E-04
 -1       801 3.15716E-03-1.02341E-02-4.45235E-04
 -1       802 3.14024E-03-1.02583E-02-5.74048E-04
 -1       803 9.63315E-04-8.19894E-03 4.13922E-04
 -1       804 9.65601E-04-8.17519E-03 3.21531E-04
 -1       805 9.67287E-04-8.15671E-03 2.29470E-04
 -1       806 9.68356E-04-8.14413E-03 1.37613E-04
 -1       807 9.68868E-04-8.13777E-03 4.58606E-05
 -1       808 9.68868E-04-8.13777E-03-4.58606E-05
 -1       809 9.68356E-04-8.14413E-03-1.37613E-04
 -1       810 9.67287E-04-8.15671E-03-2.29470E-04
 -1       811 9.65601E-04-8.17519E-03-3.21531E-04
 -1       812 9.63315E-04-8.19894E-03-4.13922E-04
 -1       813 4.74811E-04-4.52334E-03 2.34753E-04
 -1       814 4.60592E-04-4.51063E-03 1.81944E-04
 -1       815 4.50479E-04-4.50121E-03 1.29577E-04
 -1       816 4.43978E-04-4.49495E-03 7.75814E-05
 -1       817 4.40796E-04-4.49181E-03 2.58320E-05
 -1       818 4.40796E-04-4.49181E-03-2.58320E-05
 -1       819 4.43978E-04-4.49495E-03-7.75814E-05
 -1       820 4.50479E-04-4.50121E-03-1.29577E-04
 -1       821 4.60592E-04-4.51063E-03-1.81944E-04
 -1       822 4.74811E-04-4.52334E-03-2.34753E-04
 -1       823 8.91924E-02-7.61411E-02 9.48248E-06
 -1       824 8.91654E-02-7.61622E-02 7.81566E-06
 -1       825 8.91445E-02-7.61765E-02 5.90151E-06
 -1       826 8.91303E-02-7.61852E-02 3.66673E-06
 -1       827 8.91231E-02-7.61894E-02 1.24199E-06
 -1       828 8.91231E-02-7.61894E-02-1.24199E-06
 -1       829 8.91303E-02-7.61852E-02-3.66673E-06
 -1       830 8.91445E-02-7.61765E-02-5.90151E-06
 -1       831 8.91654E-02-7.61622E-02-7.81566E-06
 -1       832 8.91924E-02-7.61411E-02-9.48248E-06
 -1       833 7.47761E-02-4.69171E-02 2.97545E-04
 -1       834 7.47801E-02-4.69402E-02 2.31742E-04
 -1       835 7.47830E-02-4.69577E-02 1.65574E-04
 -1       836 7.47849E-02-4.69696E-02 9.93322E-05
 -1       837 7.47858E-02-4.69756E-02 3.31060E-05
 -1       838 7.47858E-02-4.69756E-02-3.31060E-05
 -1       839 7.47849E-02-4.69696E-02-9.93322E-05
 -1       840 7.47830E-02-4.69577E-02-1.65574E-04
 -1       841 7.47801E-02-4.69402E-02-2.31742E-04
 -1       842 7.47761E-02-4.69171E-02-2.97545E-04
 -1       843 5.57846E-02-2.60590E-02 4.20877E-04
 -1       844 5.58006E-02-2.60775E-02 3.27341E-04
 -1       845 5.58126E-02-2.60913E-02 2.33772E-04
 -1       846 5.58207E-02-2.61004E-02 1.40235E-04
 -1       847 5.58247E-02-2.61049E-02 4.67391E-05
 -1       848 5.58247E-02-2.61049E-02-4.67391E-05
 -1       849 5.58207E-02-2.61004E-02-1.40235E-04
 -1       850 5.58126E-02-2.60913E-02-2.33772E-04
 -1       851 5.58006E-02-2.60775E-02-3.27341E-04
 -1       852 5.57846E-02-2.60590E-02-4.20877E-04
 -1       853 3.62323E-02-1.36527E-02 4.89179E-04
 -1       854 3.62576E-02-1.36640E-02 3.80649E-04
 -1       855 3.62763E-02-1.36724E-02 2.71916E-04
 -1       856 3.62888E-02-1.36779E-02 1.63139E-04
 -1       857 3.62950E-02-1.36807E-02 5.43763E-05
 -1       858 3.62950E-02-1.36807E-02-5.43763E-05
 -1       859 3.62888E-02-1.36779E-02-1.63139E-04
 -1       860 3.62763E-02-1.36724E-02-2.71916E-04
 -1       861 3.62576E-02-1.36640E-02-3.80649E-04
 -1       862 3.62323E-02-1.36527E-02-4.89179E-04
 -1       863 1.95038E-02-8.41855E-03 5.10342E-04
 -1       864 1.95325E-02-8.41839E-03 3.97074E-04
 -1       865 1.95539E-02-8.41827E-03 2.83634E-04
 -1       866 1.95682E-02-8.41819E-03 1.70166E-04
 -1       867 1.95753E-02-8.41815E-03 5.67181E-05
 -1       868 1.95753E-02-8.41815E-03-5.67181E-05
 -1       869 1.95682E-02-8.41819E-03-1.70166E-04
 -1       870 1.95539E-02-8.41827E-03-2.83634E-04
 -1       871 1.95325E-02-8.41839E-03-3.97074E-04
 -1       872 1.95038E-02-8.41855E-03-5.10342E-04
 -1       873 7.90314E-03-7.65589E-03 4.83909E-04
 -1       874 7.92828E-03-7.64438E-03 3.76552E-04
 -1       875 7.94691E-03-7.63579E-03 2.68991E-04
 -1       876 7.95929E-03-7.63007E-03 1.61386E-04
 -1       877 7.96549E-03-7.62720E-03 5.37923E-05
 -1       878 7.96549E-03-7.62720E-03-5.37923E-05
 -1       879 7.95929E-03-7.63007E-03-1.61386E-04
 -1       880 7.94691E-03-7.63579E-03-2.68991E-04
 -1       881 7.92828E-03-7.64438E-03-3.76552E-04
 -1       882 7.90314E-03-7.65589E-03-4.83909E-04
 -1       883 1.85483E-03-8.14372E-03 4.10707E-04
 -1       884 1.86990E-03-8.12507E-03 3.19445E-04
 -1       885 1.88116E-03-8.11124E-03 2.28126E-04
 -1       886 1.88869E-03-8.10205E-03 1.36842E-04
 -1       887 1.89247E-03-8.09746E-03 4.56071E-05
 -1       888 1.89247E-03-8.09746E-03-4.56071E-05
 -1       889 1.88869E-03-8.10205E-03-1.36842E-04
 -1       890 1.88116E-03-8.11124E-03-2.28126E-04
 -1       891 1.86990E-03-8.12507E-03-3.19445E-04
 -1       892 1.85483E-03-8.14372E-03-4.10707E-04
 -1       893 1.66972E-05-7.36675E-03 2.94380E-04
 -1       894 2.08982E-05-7.34848E-03 2.29344E-04
 -1       895 2.37647E-05-7.33483E-03 1.63977E-04
 -1       896 2.55779E-05-7.32572E-03 9.84386E-05
 -1       897 2.64609E-05-7.32116E-03 3.28204E-05
 -1       898 2.64609E-05-7.32116E-03-3.28204E-05
 -1       899 2.55779E-05-7.32572E-03-9.84386E-05
 -1       900 2.37647E-05-7.33483E-03-1.63977E-04
 -1       901 2.08982E-05-7.34848E-03-2.29344E-04
 -1       902 1.66972E-05-7.36675E-03-2.94380E-04
 -1       903 4.40705E-05-4.43499E-03 1.73696E-04
 -1       904 3.59936E-05-4.42306E-03 1.34696E-04
 -1       905 3.02371E-05-4.41424E-03 9.59968E-05
 -1       906 2.65369E-05-4.40843E-03 5.75117E-05
 -1       907 2.47269E-05-4.40555E-03 1.91561E-05
 -1       908 2.47269E-05-4.40555E-03-1.91561E-05
 -1       909 2.65369E-05-4.40843E-03-5.75117E-05
 -1       910 3.02371E-05-4.41424E-03-9.59968E-05
 -1       911 3.59936E-05-4.42306E-03-1.34696E-04
 -1       912 4.40705E-05-4.43499E-03-1.73696E-04
 -1       913 9.93111E-02-7.26692E-02-4.23952E-05
 -1       914 9.92954E-02-7.26782E-02-3.31227E-05
 -1       915 9.92834E-02-7.26848E-02-2.36846E-05
 -1       916 9.92753E-02-7.26892E-02-1.41991E-05
 -1       917 9.92713E-02-7.26913E-02-4.72877E-06
 -1       918 9.92713E-02-7.26913E-02 4.72877E-06
 -1       919 9.92753E-02-7.26892E-02 1.41991E-05
 -1       920 9.92834E-02-7.26848E-02 2.36846E-05
 -1       921 9.92954E-02-7.26782E-02 3.31227E-05
 -1       922 9.93111E-02-7.26692E-02 4.23952E-05
 -1       923 8.32744E-02-4.13415E-02 1.79108E-04
 -1       924 8.32774E-02-4.13599E-02 1.39420E-04
 -1       925 8.32797E-02-4.13736E-02 9.96734E-05
 -1       926 8.32811E-02-4.13828E-02 5.98425E-05
 -1       927 8.32819E-02-4.13873E-02 1.99540E-05
 -1       928 8.32819E-02-4.13873E-02-1.99540E-05
 -1       929 8.32811E-02-4.13828E-02-5.98425E-05
 -1       930 8.32797E-02-4.13736E-02-9.96734E-05
 -1       931 8.32774E-02-4.13599E-02-1.39420E-04
 -1       932 8.32744E-02-4.13415E-02-1.79108E-04
 -1       933 6.14340E-02-1.91042E-02 2.74501E-04
 -1       934 6.14491E-02-1.91195E-02 2.13595E-04
 -1       935 6.14603E-02-1.91309E-02 1.52630E-04
 -1       936 6.14677E-02-1.91384E-02 9.16054E-05
 -1       937 6.14715E-02-1.91422E-02 3.05399E-05
 -1       938 6.14715E-02-1.91422E-02-3.05399E-05
 -1       939 6.14677E-02-1.91384E-02-9.16054E-05
 -1       940 6.14603E-02-1.91309E-02-1.52630E-04
 -1       941 6.14491E-02-1.91195E-02-2.13595E-04
 -1       942 6.14340E-02-1.91042E-02-2.74501E-04
 -1       943 3.89419E-02-6.74949E-03 3.19484E-04
 -1       944 3.89647E-02-6.75864E-03 2.48546E-04
 -1       945 3.89818E-02-6.76549E-03 1.77587E-04
 -1       946 3.89931E-02-6.77003E-03 1.06578E-04
 -1       947 3.89987E-02-6.77230E-03 3.55307E-05
 -1       948 3.89987E-02-6.77230E-03-3.55307E-05
 -1       949 3.89931E-02-6.77003E-03-1.06578E-04
 -1       950 3.89818E-02-6.76549E-03-1.77587E-04
 -1       951 3.89647E-02-6.75864E-03-2.48546E-04
 -1       952 3.89419E-02-6.74949E-03-3.19484E-04
 -1       953 1.99393E-02-2.68693E-03 3.32516E-04
 -1       954 1.99650E-02-2.68680E-03 2.58704E-04
 -1       955 1.99842E-02-2.68671E-03 1.84854E-04
 -1       956 1.99970E-02-2.68665E-03 1.10943E-04
 -1       957 2.00034E-02-2.68662E-03 3.69862E-05
 -1       958 2.00034E-02-2.68662E-03-3.69862E-05
 -1       959 1.99970E-02-2.68665E-03-1.10943E-04
 -1       960 1.99842E-02-2.68671E-03-1.84854E-04
 -1       961 1.99650E-02-2.68680E-03-2.58704E-04
 -1       962 1.99393E-02-2.68693E-03-3.32516E-04
 -1       963 7.03559E-03-3.65740E-03 3.14740E-04
 -1       964 7.05828E-03-3.64803E-03 2.44887E-04
 -1       965 7.07523E-03-3.64100E-03 1.74987E-04
 -1       966 7.08648E-03-3.63633E-03 1.05023E-04
 -1       967 7.09208E-03-3.63399E-03 3.50132E-05
 -1       968 7.09208E-03-3.63399E-03-3.50132E-05
 -1       969 7.08648E-03-3.63633E-03-1.05023E-04
 -1       970 7.07523E-03-3.64100E-03-1.74987E-04
 -1       971 7.05828E-03-3.64803E-03-2.44887E-04
 -1       972 7.03559E-03-3.65740E-03-3.14740E-04
 -1       973 6.20387E-04-5.85433E-03 2.66831E-04
 -1       974 6.34925E-04-5.83918E-03 2.07546E-04
 -1       975 6.45835E-04-5.82788E-03 1.48273E-04
 -1       976 6.53094E-04-5.82038E-03 8.89780E-05
 -1       977 6.56717E-04-5.81664E-03 2.96620E-05
 -1       978 6.56717E-04-5.81664E-03-2.96620E-05
 -1       979 6.53094E-04-5.82038E-03-8.89780E-05
 -1       980 6.45835E-04-5.82788E-03-1.48273E-04
 -1       981 6.34925E-04-5.83918E-03-2.07546E-04
 -1       982 6.20387E-04-5.85433E-03-2.66831E-04
 -1       983-9.69164E-04-6.36148E-03 1.91086E-04
 -1       984-9.63778E-04-6.34668E-03 1.48782E-04
 -1       985-9.59840E-04-6.33555E-03 1.06373E-04
 -1       986-9.57271E-04-6.32813E-03 6.38664E-05
 -1       987-9.56004E-04-6.32442E-03 2.12961E-05
 -1       988-9.56004E-04-6.32442E-03-2.12961E-05
 -1       989-9.57271E-04-6.32813E-03-6.38664E-05
 -1       990-9.59840E-04-6.33555E-03-1.06373E-04
 -1       991-9.63778E-04-6.34668E-03-1.48782E-04
 -1       992-9.69164E-04-6.36148E-03-1.91086E-04
 -1       993-4.23767E-04-4.18697E-03 1.09957E-04
 -1       994-4.27497E-04-4.17646E-03 8.53132E-05
 -1       995-4.30171E-04-4.16868E-03 6.08239E-05
 -1       996-4.31895E-04-4.16354E-03 3.64483E-05
 -1       997-4.32741E-04-4.16099E-03 1.21417E-05
 -1       998-4.32741E-04-4.16099E-03-1.21417E-05
 -1       999-4.31895E-04-4.16354E-03-3.64483E-05
 -1      1000-4.30171E-04-4.16868E-03-6.08239E-05
 -1      1001-4.27497E-04-4.17646E-03-8.53132E-05
 -1      1002-4.23767E-04-4.18697E-03-1.09957E-04
 -1      1003 1.09251E-01-6.92852E-02-6.19345E-05
 -1      1004 1.09243E-01-6.92896E-02-4.80838E-05
 -1      1005 1.09236E-01-6.92927E-02-3.43035E-05
 -1      1006 1.09232E-01-6.92948E-02-2.05674E-05
 -1      1007 1.09230E-01-6.92957E-02-6.85350E-06
 -1      1008 1.09230E-01-6.92957E-02 6.85350E-06
 -1      1009 1.09232E-01-6.92948E-02 2.05674E-05
 -1      1010 1.09236E-01-6.92927E-02 3.43035E-05
 -1      1011 1.09243E-01-6.92896E-02 4.80838E-05
 -1      1012 1.09251E-01-6.92852E-02 6.19345E-05
 -1      1013 9.16095E-02-3.58236E-02 8.71162E-05
 -1      1014 9.16126E-02-3.58372E-02 6.76660E-05
 -1      1015 9.16150E-02-3.58474E-02 4.82824E-05
 -1      1016 9.16166E-02-3.58543E-02 2.89506E-05
 -1      1017 9.16175E-02-3.58578E-02 9.64725E-06
 -1      1018 9.16175E-02-3.58578E-02-9.64725E-06
 -1      1019 9.16166E-02-3.58543E-02-2.89506E-05
 -1      1020 9.16150E-02-3.58474E-02-4.82824E-05
 -1      1021 9.16126E-02-3.58372E-02-6.76660E-05
 -1      1022 9.16095E-02-3.58236E-02-8.71162E-05
 -1      1023 6.70826E-02-1.22174E-02 1.46898E-04
 -1      1024 6.70965E-02-1.22298E-02 1.14302E-04
 -1      1025 6.71069E-02-1.22391E-02 8.16703E-05
 -1      1026 6.71139E-02-1.22454E-02 4.90130E-05
 -1      1027 6.71173E-02-1.22485E-02 1.63396E-05
 -1      1028 6.71173E-02-1.22485E-02-1.63396E-05
 -1      1029 6.71139E-02-1.22454E-02-4.90130E-05
 -1      1030 6.71069E-02-1.22391E-02-8.16703E-05
 -1      1031 6.70965E-02-1.22298E-02-1.14302E-04
 -1      1032 6.70826E-02-1.22174E-02-1.46898E-04
 -1      1033 4.17212E-02 1.31600E-04 1.70479E-04
 -1      1034 4.17416E-02 1.24174E-04 1.32580E-04
 -1      1035 4.17569E-02 1.18604E-04 9.46902E-05
 -1      1036 4.17671E-02 1.14889E-04 5.68107E-05
 -1      1037 4.17722E-02 1.13031E-04 1.89364E-05
 -1      1038 4.17722E-02 1.13031E-04-1.89364E-05
 -1      1039 4.17671E-02 1.14889E-04-5.68107E-05
 -1      1040 4.17569E-02 1.18604E-04-9.46902E-05
 -1      1041 4.17416E-02 1.24174E-04-1.32580E-04
 -1      1042 4.17212E-02 1.31600E-04-1.70479E-04
 -1      1043 2.04535E-02 3.05105E-03 1.75898E-04
 -1      1044 2.04763E-02 3.05116E-03 1.36810E-04
 -1      1045 2.04934E-02 3.05124E-03 9.77201E-05
 -1      1046 2.05048E-02 3.05130E-03 5.86322E-05
 -1      1047 2.05105E-02 3.05132E-03 1.95442E-05
 -1      1048 2.05105E-02 3.05132E-03-1.95442E-05
 -1      1049 2.05048E-02 3.05130E-03-5.86322E-05
 -1      1050 2.04934E-02 3.05124E-03-9.77201E-05
 -1      1051 2.04763E-02 3.05116E-03-1.36810E-04
 -1      1052 2.04535E-02 3.05105E-03-1.75898E-04
 -1      1053 6.23806E-03 3.66516E-04 1.65881E-04
 -1      1054 6.25838E-03 3.74146E-04 1.29019E-04
 -1      1055 6.27362E-03 3.79876E-04 9.21549E-05
 -1      1056 6.28379E-03 3.83701E-04 5.52929E-05
 -1      1057 6.28888E-03 3.85614E-04 1.84311E-05
 -1      1058 6.28888E-03 3.85614E-04-1.84311E-05
 -1      1059 6.28379E-03 3.83701E-04-5.52929E-05
 -1      1060 6.27362E-03 3.79876E-04-9.21549E-05
 -1      1061 6.25838E-03 3.74146E-04-1.29019E-04
 -1      1062 6.23806E-03 3.66516E-04-1.65881E-04
 -1      1063-5.63294E-04-3.52957E-03 1.40464E-04
 -1      1064-5.49503E-04-3.51731E-03 1.09235E-04
 -1      1065-5.39136E-04-3.50811E-03 7.80161E-05
 -1      1066-5.32213E-04-3.50198E-03 4.68068E-05
 -1      1067-5.28747E-04-3.49892E-03 1.56019E-05
 -1      1068-5.28747E-04-3.49892E-03-1.56019E-05
 -1      1069-5.32213E-04-3.50198E-03-4.68068E-05
 -1      1070-5.39136E-04-3.50811E-03-7.80161E-05
 -1      1071-5.49503E-04-3.51731E-03-1.09235E-04
 -1      1072-5.63294E-04-3.52957E-03-1.40464E-04
 -1      1073-1.91526E-03-5.30985E-03 1.01162E-04
 -1      1074-1.90941E-03-5.29779E-03 7.87145E-05
 -1      1075-1.90504E-03-5.28872E-03 5.62401E-05
 -1      1076-1.90212E-03-5.28265E-03 3.37504E-05
 -1      1077-1.90066E-03-5.27961E-03 1.12512E-05
 -1      1078-1.90066E-03-5.27961E-03-1.12512E-05
 -1      1079-1.90212E-03-5.28265E-03-3.37504E-05
 -1      1080-1.90504E-03-5.28872E-03-5.62401E-05
 -1      1081-1.90941E-03-5.29779E-03-7.87145E-05
 -1      1082-1.91526E-03-5.30985E-03-1.01162E-04
 -1      1083-8.60377E-04-3.85702E-03 5.13873E-05
 -1      1084-8.61131E-04-3.84829E-03 3.98509E-05
 -1      1085-8.61655E-04-3.84181E-03 2.84035E-05
 -1      1086-8.61985E-04-3.83751E-03 1.70178E-05
 -1      1087-8.62144E-04-3.83537E-03 5.66860E-06
 -1      1088-8.62144E-04-3.83537E-03-5.66860E-06
 -1      1089-8.61985E-04-3.83751E-03-1.70178E-05
 -1      1090-8.61655E-04-3.84181E-03-2.84035E-05
 -1      1091-8.61131E-04-3.84829E-03-3.98509E-05
 -1      1092-8.60377E-04-3.85702E-03-5.13873E-05
 -1      1093 1.19219E-01-6.59528E-02-7.03367E-05
 -1      1094 1.19215E-01-6.59549E-02-5.46649E-05
 -1      1095 1.19212E-01-6.59565E-02-3.90121E-05
 -1      1096 1.19210E-01-6.59575E-02-2.33905E-05
 -1      1097 1.19209E-01-6.59580E-02-7.79377E-06
 -1      1098 1.19209E-01-6.59580E-02 7.79377E-06
 -1      1099 1.19210E-01-6.59575E-02 2.33905E-05
 -1      1100 1.19212E-01-6.59565E-02 3.90121E-05
 -1      1101 1.19215E-01-6.59549E-02 5.46649E-05
 -1      1102 1.19219E-01-6.59528E-02 7.03367E-05
 -1      1103 9.99150E-02-3.02618E-02 1.19976E-05
 -1      1104 9.99190E-02-3.02721E-02 9.28168E-06
 -1      1105 9.99220E-02-3.02798E-02 6.60025E-06
 -1      1106 9.99240E-02-3.02849E-02 3.94704E-06
 -1      1107 9.99250E-02-3.02874E-02 1.31336E-06
 -1      1108 9.99250E-02-3.02874E-02-1.31335E-06
 -1      1109 9.99240E-02-3.02849E-02-3.94704E-06
 -1      1110 9.99220E-02-3.02798E-02-6.60025E-06
 -1      1111 9.99190E-02-3.02721E-02-9.28168E-06
 -1      1112 9.99150E-02-3.02618E-02-1.19976E-05
 -1      1113 7.27377E-02-5.29466E-03 3.39264E-05
 -1      1114 7.27508E-02-5.30478E-03 2.64296E-05
 -1      1115 7.27607E-02-5.31237E-03 1.89012E-05
 -1      1116 7.27672E-02-5.31744E-03 1.13497E-05
 -1      1117 7.27705E-02-5.31998E-03 3.78471E-06
 -1      1118 7.27705E-02-5.31998E-03-3.78471E-06
 -1      1119 7.27672E-02-5.31744E-03-1.13497E-05
 -1      1120 7.27607E-02-5.31237E-03-1.89012E-05
 -1      1121 7.27508E-02-5.30478E-03-2.64296E-05
 -1      1122 7.27377E-02-5.29466E-03-3.39264E-05
 -1      1123 4.45240E-02 7.04188E-03 3.64021E-05
 -1      1124 4.45427E-02 7.03572E-03 2.83155E-05
 -1      1125 4.45567E-02 7.03110E-03 2.02270E-05
 -1      1126 4.45661E-02 7.02803E-03 1.21365E-05
 -1      1127 4.45707E-02 7.02649E-03 4.04551E-06
 -1      1128 4.45707E-02 7.02649E-03-4.04551E-06
 -1      1129 4.45661E-02 7.02803E-03-1.21365E-05
 -1      1130 4.45567E-02 7.03110E-03-2.02270E-05
 -1      1131 4.45427E-02 7.03572E-03-2.83155E-05
 -1      1132 4.45240E-02 7.04188E-03-3.64021E-05
 -1      1133 2.09893E-02 8.79403E-03 3.49330E-05
 -1      1134 2.10100E-02 8.79413E-03 2.71856E-05
 -1      1135 2.10255E-02 8.79420E-03 1.94262E-05
 -1      1136 2.10359E-02 8.79424E-03 1.16584E-05
 -1      1137 2.10411E-02 8.79426E-03 3.88653E-06
 -1      1138 2.10411E-02 8.79426E-03-3.88653E-06
 -1      1139 2.10359E-02 8.79424E-03-1.16584E-05
 -1      1140 2.10255E-02 8.79420E-03-1.94262E-05
 -1      1141 2.10100E-02 8.79413E-03-2.71856E-05
 -1      1142 2.09893E-02 8.79403E-03-3.49330E-05
 -1      1143 5.47066E-03 4.36637E-03 3.20089E-05
 -1      1144 5.48926E-03 4.37272E-03 2.48993E-05
 -1      1145 5.50321E-03 4.37747E-03 1.77874E-05
 -1      1146 5.51250E-03 4.38064E-03 1.06730E-05
 -1      1147 5.51715E-03 4.38223E-03 3.55771E-06
 -1      1148 5.51715E-03 4.38223E-03-3.55771E-06
 -1      1149 5.51250E-03 4.38064E-03-1.06730E-05
 -1      1150 5.50321E-03 4.37747E-03-1.77874E-05
 -1      1151 5.48926E-03 4.37272E-03-2.48993E-05
 -1      1152 5.47066E-03 4.36637E-03-3.20089E-05
 -1      1153-1.69272E-03-1.24964E-03 2.68364E-05
 -1      1154-1.67942E-03-1.23949E-03 2.08945E-05
 -1      1155-1.66945E-03-1.23188E-03 1.49359E-05
 -1      1156-1.66280E-03-1.22680E-03 8.96563E-06
 -1      1157-1.65948E-03-1.22426E-03 2.98917E-06
 -1      1158-1.65948E-03-1.22426E-03-2.98917E-06
 -1      1159-1.66280E-03-1.22680E-03-8.96563E-06
 -1      1160-1.66945E-03-1.23188E-03-1.49359E-05
 -1      1161-1.67942E-03-1.23949E-03-2.08945E-05
 -1      1162-1.69272E-03-1.24964E-03-2.68364E-05
 -1      1163-2.77704E-03-4.29274E-03 2.05851E-05
 -1      1164-2.77074E-03-4.28266E-03 1.60095E-05
 -1      1165-2.76601E-03-4.27510E-03 1.14342E-05
 -1      1166-2.76284E-03-4.27006E-03 6.85976E-06
 -1      1167-2.76126E-03-4.26754E-03 2.28642E-06
 -1      1168-2.76126E-03-4.26754E-03-2.28642E-06
 -1      1169-2.76284E-03-4.27006E-03-6.85976E-06
 -1      1170-2.76601E-03-4.27510E-03-1.14342E-05
 -1      1171-2.77074E-03-4.28266E-03-1.60095E-05
 -1      1172-2.77704E-03-4.29274E-03-2.05851E-05
 -1      1173-1.22437E-03-3.50167E-03 1.51854E-06
 -1      1174-1.22307E-03-3.49488E-03 1.12099E-06
 -1      1175-1.22210E-03-3.48980E-03 7.71019E-07
 -1      1176-1.22145E-03-3.48643E-03 4.51361E-07
 -1      1177-1.22112E-03-3.48474E-03 1.48634E-07
 -1      1178-1.22112E-03-3.48474E-03-1.48634E-07
 -1      1179-1.22145E-03-3.48643E-03-4.51361E-07
 -1      1180-1.22210E-03-3.48980E-03-7.71019E-07
 -1      1181-1.22307E-03-3.49488E-03-1.12099E-06
 -1      1182-1.22437E-03-3.50167E-03-1.51854E-06
 -1      1183 1.29321E-01-6.26379E-02-7.46380E-05
 -1      1184 1.29320E-01-6.26387E-02-5.80321E-05
 -1      1185 1.29319E-01-6.26393E-02-4.14399E-05
 -1      1186 1.29319E-01-6.26398E-02-2.48587E-05
 -1      1187 1.29318E-01-6.26400E-02-8.28528E-06
 -1      1188 1.29318E-01-6.26400E-02 8.28528E-06
 -1      1189 1.29319E-01-6.26398E-02 2.48587E-05
 -1      1190 1.29319E-01-6.26393E-02 4.14399E-05
 -1      1191 1.29320E-01-6.26387E-02 5.80321E-05
 -1      1192 1.29321E-01-6.26379E-02 7.46380E-05
 -1      1193 1.08284E-01-2.45981E-02-5.20615E-05
 -1      1194 1.08289E-01-2.46059E-02-4.05294E-05
 -1      1195 1.08292E-01-2.46117E-02-2.89707E-05
 -1      1196 1.08295E-01-2.46156E-02-1.73912E-05
 -1      1197 1.08296E-01-2.46175E-02-5.79856E-06
 -1      1198 1.08296E-01-2.46175E-02 5.79856E-06
 -1      1199 1.08295E-01-2.46156E-02 1.73912E-05
 -1      1200 1.08292E-01-2.46117E-02 2.89707E-05
 -1      1201 1.08289E-01-2.46059E-02 4.05294E-05
 -1      1202 1.08284E-01-2.45981E-02 5.20615E-05
 -1      1203 7.84209E-02 1.73082E-03-6.82967E-05
 -1      1204 7.84336E-02 1.72250E-03-5.30854E-05
 -1      1205 7.84431E-02 1.71625E-03-3.79011E-05
 -1      1206 7.84495E-02 1.71208E-03-2.27342E-05
 -1      1207 7.84527E-02 1.70999E-03-7.57699E-06
 -1      1208 7.84527E-02 1.70999E-03 7.57699E-06
 -1      1209 7.84495E-02 1.71208E-03 2.27342E-05
 -1      1210 7.84431E-02 1.71625E-03 3.79011E-05
 -1      1211 7.84336E-02 1.72250E-03 5.30854E-05
 -1      1212 7.84209E-02 1.73082E-03 6.82967E-05
 -1      1213 4.73303E-02 1.40143E-02-8.65423E-05
 -1      1214 4.73477E-02 1.40092E-02-6.73102E-05
 -1      1215 4.73608E-02 1.40053E-02-4.80799E-05
 -1      1216 4.73695E-02 1.40027E-02-2.88487E-05
 -1      1217 4.73739E-02 1.40014E-02-9.61639E-06
 -1      1218 4.73739E-02 1.40014E-02 9.61640E-06
 -1      1219 4.73695E-02 1.40027E-02 2.88487E-05
 -1      1220 4.73608E-02 1.40053E-02 4.80799E-05
 -1      1221 4.73477E-02 1.40092E-02 6.73102E-05
 -1      1222 4.73303E-02 1.40143E-02 8.65423E-05
 -1      1223 2.15173E-02 1.45402E-02-9.41946E-05
 -1      1224 2.15364E-02 1.45403E-02-7.32510E-05
 -1      1225 2.15507E-02 1.45404E-02-5.23180E-05
 -1      1226 2.15603E-02 1.45404E-02-3.13896E-05
 -1      1227 2.15651E-02 1.45404E-02-1.04630E-05
 -1      1228 2.15651E-02 1.45404E-02 1.04630E-05
 -1      1229 2.15603E-02 1.45404E-02 3.13896E-05
 -1      1230 2.15507E-02 1.45404E-02 5.23180E-05
 -1      1231 2.15364E-02 1.45403E-02 7.32510E-05
 -1      1232 2.15173E-02 1.45402E-02 9.41946E-05
 -1      1233 4.71428E-03 8.31263E-03-9.04487E-05
 -1      1234 4.73156E-03 8.31799E-03-7.03528E-05
 -1      1235 4.74452E-03 8.32200E-03-5.02550E-05
 -1      1236 4.75316E-03 8.32468E-03-3.01544E-05
 -1      1237 4.75749E-03 8.32601E-03-1.00517E-05
 -1      1238 4.75749E-03 8.32601E-03 1.00517E-05
 -1      1239 4.75316E-03 8.32468E-03 3.01544E-05
 -1      1240 4.74452E-03 8.32200E-03 5.02550E-05
 -1      1241 4.73156E-03 8.31799E-03 7.03528E-05
 -1      1242 4.71428E-03 8.31263E-03 9.04487E-05
 -1      1243-2.76205E-03 9.38793E-04-7.73394E-05
 -1      1244-2.74913E-03 9.47357E-04-6.01281E-05
 -1      1245-2.73946E-03 9.53792E-04-4.29381E-05
 -1      1246-2.73301E-03 9.58085E-04-2.57593E-05
 -1      1247-2.72980E-03 9.60232E-04-8.58591E-06
 -1      1248-2.72980E-03 9.60232E-04 8.58591E-06
 -1      1249-2.73301E-03 9.58085E-04 2.57593E-05
 -1      1250-2.73946E-03 9.53792E-04 4.29381E-05
 -1      1251-2.74913E-03 9.47357E-04 6.01281E-05
 -1      1252-2.76205E-03 9.38793E-04 7.73394E-05
 -1      1253-3.52080E-03-3.36558E-03-5.34742E-05
 -1      1254-3.51397E-03-3.35699E-03-4.16035E-05
 -1      1255-3.50882E-03-3.35056E-03-2.97226E-05
 -1      1256-3.50537E-03-3.34628E-03-1.78356E-05
 -1      1257-3.50364E-03-3.34414E-03-5.94553E-06
 -1      1258-3.50364E-03-3.34414E-03 5.94553E-06
 -1      1259-3.50537E-03-3.34628E-03 1.78356E-05
 -1      1260-3.50882E-03-3.35056E-03 2.97226E-05
 -1      1261-3.51397E-03-3.35699E-03 4.16035E-05
 -1      1262-3.52080E-03-3.36558E-03 5.34742E-05
 -1      1263-1.47706E-03-3.16589E-03-3.84013E-05
 -1      1264-1.47432E-03-3.16098E-03-2.98963E-05
 -1      1265-1.47228E-03-3.15729E-03-2.13727E-05
 -1      1266-1.47093E-03-3.15482E-03-1.28316E-05
 -1      1267-1.47026E-03-3.15359E-03-4.27862E-06
 -1      1268-1.47026E-03-3.15359E-03 4.27862E-06
 -1      1269-1.47093E-03-3.15482E-03 1.28316E-05
 -1      1270-1.47228E-03-3.15729E-03 2.13727E-05
 -1      1271-1.47432E-03-3.16098E-03 2.98963E-05
 -1      1272-1.47706E-03-3.16589E-03 3.84013E-05
 -1      1273 1.39612E-01-5.93130E-02-7.66453E-05
 -1      1274 1.39613E-01-5.93129E-02-5.96200E-05
 -1      1275 1.39614E-01-5.93128E-02-4.25863E-05
 -1      1276 1.39614E-01-5.93128E-02-2.55513E-05
 -1      1277 1.39614E-01-5.93127E-02-8.51692E-06
 -1      1278 1.39614E-01-5.93127E-02 8.51693E-06
 -1      1279 1.39614E-01-5.93128E-02 2.55513E-05
 -1      1280 1.39614E-01-5.93128E-02 4.25863E-05
 -1      1281 1.39613E-01-5.93129E-02 5.96200E-05
 -1      1282 1.39612E-01-5.93130E-02 7.66453E-05
 -1      1283 1.16781E-01-1.87922E-02-1.08673E-04
 -1      1284 1.16787E-01-1.87981E-02-8.45784E-05
 -1      1285 1.16791E-01-1.88024E-02-6.04421E-05
 -1      1286 1.16794E-01-1.88053E-02-3.62767E-05
 -1      1287 1.16796E-01-1.88068E-02-1.20941E-05
 -1      1288 1.16796E-01-1.88068E-02 1.20941E-05
 -1      1289 1.16794E-01-1.88053E-02 3.62767E-05
 -1      1290 1.16791E-01-1.88024E-02 6.04421E-05
 -1      1291 1.16787E-01-1.87981E-02 8.45784E-05
 -1      1292 1.16781E-01-1.87922E-02 1.08673E-04
 -1      1293 8.41561E-02 8.90295E-03-1.62958E-04
 -1      1294 8.41685E-02 8.89604E-03-1.26746E-04
 -1      1295 8.41778E-02 8.89086E-03-9.05335E-05
 -1      1296 8.41840E-02 8.88742E-03-5.43200E-05
 -1      1297 8.41871E-02 8.88569E-03-1.81066E-05
 -1      1298 8.41871E-02 8.88569E-03 1.81066E-05
 -1      1299 8.41840E-02 8.88742E-03 5.43200E-05
 -1      1300 8.41778E-02 8.89086E-03 9.05335E-05
 -1      1301 8.41685E-02 8.89604E-03 1.26746E-04
 -1      1302 8.41561E-02 8.90295E-03 1.62958E-04
 -1      1303 5.01326E-02 2.10696E-02-2.01195E-04
 -1      1304 5.01490E-02 2.10652E-02-1.56520E-04
 -1      1305 5.01614E-02 2.10619E-02-1.11818E-04
 -1      1306 5.01695E-02 2.10597E-02-6.70974E-05
 -1      1307 5.01736E-02 2.10586E-02-2.23669E-05
 -1      1308 5.01736E-02 2.10586E-02 2.23669E-05
 -1      1309 5.01695E-02 2.10597E-02 6.70974E-05
 -1      1310 5.01614E-02 2.10619E-02 1.11818E-04
 -1      1311 5.01490E-02 2.10652E-02 1.56520E-04
 -1      1312 5.01326E-02 2.10696E-02 2.01195E-04
 -1      1313 2.20219E-02 2.02878E-02-2.14291E-04
 -1      1314 2.20397E-02 2.02878E-02-1.66701E-04
 -1      1315 2.20531E-02 2.02879E-02-1.19088E-04
 -1      1316 2.20619E-02 2.02879E-02-7.14585E-05
 -1      1317 2.20664E-02 2.02879E-02-2.38204E-05
 -1      1318 2.20664E-02 2.02879E-02 2.38204E-05
 -1      1319 2.20619E-02 2.02879E-02 7.14585E-05
 -1      1320 2.20531E-02 2.02879E-02 1.19088E-04
 -1      1321 2.20397E-02 2.02878E-02 1.66701E-04
 -1      1322 2.20219E-02 2.02878E-02 2.14291E-04
 -1      1323 3.95949E-03 1.21862E-02-2.04087E-04
 -1      1324 3.97571E-03 1.21908E-02-1.58770E-04
 -1      1325 3.98785E-03 1.21942E-02-1.13425E-04
 -1      1326 3.99593E-03 1.21965E-02-6.80615E-05
 -1      1327 3.99997E-03 1.21976E-02-2.26882E-05
 -1      1328 3.99997E-03 1.21976E-02 2.26882E-05
 -1      1329 3.99593E-03 1.21965E-02 6.80615E-05
 -1      1330 3.98785E-03 1.21942E-02 1.13425E-04
 -1      1331 3.97571E-03 1.21908E-02 1.58770E-04
 -1      1332 3.95949E-03 1.21862E-02 2.04087E-04
 -1      1333-3.76595E-03 3.00888E-03-1.74326E-04
 -1      1334-3.75346E-03 3.01620E-03-1.35613E-04
 -1      1335-3.74415E-03 3.02168E-03-9.68795E-05
 -1      1336-3.73796E-03 3.02533E-03-5.81325E-05
 -1      1337-3.73487E-03 3.02715E-03-1.93783E-05
 -1      1338-3.73487E-03 3.02715E-03 1.93783E-05
 -1      1339-3.73796E-03 3.02533E-03 5.81325E-05
 -1      1340-3.74415E-03 3.02168E-03 9.68795E-05
 -1      1341-3.75346E-03 3.01620E-03 1.35613E-04
 -1      1342-3.76595E-03 3.00888E-03 1.74326E-04
 -1      1343-4.11845E-03-2.56741E-03-1.23639E-04
 -1      1344-4.11089E-03-2.55987E-03-9.61587E-05
 -1      1345-4.10519E-03-2.55423E-03-6.86837E-05
 -1      1346-4.10137E-03-2.55048E-03-4.12102E-05
 -1      1347-4.09945E-03-2.54860E-03-1.37368E-05
 -1      1348-4.09945E-03-2.54860E-03 1.37368E-05
 -1      1349-4.10137E-03-2.55048E-03 4.12102E-05
 -1      1350-4.10519E-03-2.55423E-03 6.86837E-05
 -1      1351-4.11089E-03-2.55987E-03 9.61587E-05
 -1      1352-4.11845E-03-2.56741E-03 1.23639E-04
 -1      1353-1.57017E-03-2.89020E-03-6.82610E-05
 -1      1354-1.56644E-03-2.88718E-03-5.31832E-05
 -1      1355-1.56368E-03-2.88495E-03-3.80330E-05
 -1      1356-1.56185E-03-2.88348E-03-2.28364E-05
 -1      1357-1.56095E-03-2.88275E-03-7.61478E-06
 -1      1358-1.56095E-03-2.88275E-03 7.61478E-06
 -1      1359-1.56185E-03-2.88348E-03 2.28364E-05
 -1      1360-1.56368E-03-2.88495E-03 3.80330E-05
 -1      1361-1.56644E-03-2.88718E-03 5.31832E-05
 -1      1362-1.57017E-03-2.89020E-03 6.82610E-05
 -1      1363 1.50122E-01-5.59564E-02-7.58177E-05
 -1      1364 1.50124E-01-5.59554E-02-5.89520E-05
 -1      1365 1.50125E-01-5.59547E-02-4.20963E-05
 -1      1366 1.50126E-01-5.59543E-02-2.52521E-05
 -1      1367 1.50127E-01-5.59541E-02-8.41633E-06
 -1      1368 1.50127E-01-5.59541E-02 8.41633E-06
 -1      1369 1.50126E-01-5.59543E-02 2.52521E-05
 -1      1370 1.50125E-01-5.59547E-02 4.20963E-05
 -1      1371 1.50124E-01-5.59554E-02 5.89520E-05
 -1      1372 1.50122E-01-5.59564E-02 7.58177E-05
 -1      1373 1.25460E-01-1.28100E-02-1.59941E-04
 -1      1374 1.25467E-01-1.28141E-02-1.24358E-04
 -1      1375 1.25472E-01-1.28172E-02-8.88021E-05
 -1      1376 1.25476E-01-1.28193E-02-5.32703E-05
 -1      1377 1.25477E-01-1.28203E-02-1.77549E-05
 -1      1378 1.25477E-01-1.28203E-02 1.77549E-05
 -1      1379 1.25476E-01-1.28193E-02 5.32703E-05
 -1      1380 1.25472E-01-1.28172E-02 8.88021E-05
 -1      1381 1.25467E-01-1.28141E-02 1.24358E-04
 -1      1382 1.25460E-01-1.28100E-02 1.59941E-04
 -1      1383 8.99646E-02 1.62504E-02-2.52496E-04
 -1      1384 8.99768E-02 1.62447E-02-1.96336E-04
 -1      1385 8.99860E-02 1.62404E-02-1.40211E-04
 -1      1386 8.99922E-02 1.62375E-02-8.41144E-05
 -1      1387 8.99952E-02 1.62361E-02-2.80360E-05
 -1      1388 8.99952E-02 1.62361E-02 2.80360E-05
 -1      1389 8.99922E-02 1.62375E-02 8.41144E-05
 -1      1390 8.99860E-02 1.62404E-02 1.40211E-04
 -1      1391 8.99768E-02 1.62447E-02 1.96336E-04
 -1      1392 8.99646E-02 1.62504E-02 2.52496E-04
 -1      1393 5.29292E-02 2.82196E-02-3.09284E-04
 -1      1394 5.29446E-02 2.82158E-02-2.40499E-04
 -1      1395 5.29563E-02 2.82130E-02-1.71751E-04
 -1      1396 5.29641E-02 2.82111E-02-1.03036E-04
 -1      1397 5.29679E-02 2.82101E-02-3.43428E-05
 -1      1398 5.29679E-02 2.82101E-02 3.43428E-05
 -1      1399 5.29641E-02 2.82111E-02 1.03036E-04
 -1      1400 5.29563E-02 2.82130E-02 1.71751E-04
 -1      1401 5.29446E-02 2.82158E-02 2.40499E-04
 -1      1402 5.29292E-02 2.82196E-02 3.09284E-04
 -1      1403 2.24949E-02 2.60350E-02-3.27099E-04
 -1      1404 2.25115E-02 2.60350E-02-2.54346E-04
 -1      1405 2.25240E-02 2.60350E-02-1.81637E-04
 -1      1406 2.25323E-02 2.60350E-02-1.08966E-04
 -1      1407 2.25365E-02 2.60350E-02-3.63189E-05
 -1      1408 2.25365E-02 2.60350E-02 3.63189E-05
 -1      1409 2.25323E-02 2.60350E-02 1.08966E-04
 -1      1410 2.25240E-02 2.60350E-02 1.81637E-04
 -1      1411 2.25115E-02 2.60350E-02 2.54346E-04
 -1      1412 2.24949E-02 2.60350E-02 3.27099E-04
 -1      1413 3.20175E-03 1.59734E-02-3.10647E-04
 -1      1414 3.21700E-03 1.59772E-02-2.41555E-04
 -1      1415 3.22847E-03 1.59801E-02-1.72504E-04
 -1      1416 3.23613E-03 1.59820E-02-1.03487E-04
 -1      1417 3.23996E-03 1.59830E-02-3.44931E-05
 -1      1418 3.23996E-03 1.59830E-02 3.44931E-05
 -1      1419 3.23613E-03 1.59820E-02 1.03487E-04
 -1      1420 3.22847E-03 1.59801E-02 1.72504E-04
 -1      1421 3.21700E-03 1.59772E-02 2.41555E-04
 -1      1422 3.20175E-03 1.59734E-02 3.10647E-04
 -1      1423-4.70043E-03 4.94532E-03-2.64909E-04
 -1      1424-4.68866E-03 4.95155E-03-2.05976E-04
 -1      1425-4.67982E-03 4.95625E-03-1.47086E-04
 -1      1426-4.67392E-03 4.95940E-03-8.82342E-05
 -1      1427-4.67097E-03 4.96098E-03-2.94084E-05
 -1      1428-4.67097E-03 4.96098E-03 2.94084E-05
 -1      1429-4.67392E-03 4.95940E-03 8.82342E-05
 -1      1430-4.67982E-03 4.95625E-03 1.47086E-04
 -1      1431-4.68866E-03 4.95155E-03 2.05976E-04
 -1      1432-4.70043E-03 4.94532E-03 2.64909E-04
 -1      1433-4.55014E-03-1.92044E-03-1.92828E-04
 -1      1434-4.54157E-03-1.91362E-03-1.49986E-04
 -1      1435-4.53512E-03-1.90854E-03-1.07140E-04
 -1      1436-4.53081E-03-1.90517E-03-6.42879E-05
 -1      1437-4.52866E-03-1.90349E-03-2.14300E-05
 -1      1438-4.52866E-03-1.90349E-03 2.14300E-05
 -1      1439-4.53081E-03-1.90517E-03 6.42879E-05
 -1      1440-4.53512E-03-1.90854E-03 1.07140E-04
 -1      1441-4.54157E-03-1.91362E-03 1.49986E-04
 -1      1442-4.55014E-03-1.92044E-03 1.92828E-04
 -1      1443-1.43349E-03-2.71827E-03-8.80767E-05
 -1      1444-1.42910E-03-2.71740E-03-6.83976E-05
 -1      1445-1.42580E-03-2.71666E-03-4.87884E-05
 -1      1446-1.42359E-03-2.71613E-03-2.92437E-05
 -1      1447-1.42249E-03-2.71585E-03-9.74281E-06
 -1      1448-1.42249E-03-2.71585E-03 9.74281E-06
 -1      1449-1.42359E-03-2.71613E-03 2.92437E-05
 -1      1450-1.42580E-03-2.71666E-03 4.87884E-05
 -1      1451-1.42910E-03-2.71740E-03 6.83976E-05
 -1      1452-1.43349E-03-2.71827E-03 8.80767E-05
 -3
    1PSTEP                         2           1           1          
  100CL  101 1.000000000        1452                     0    1           1
 -4  STRESS      6    1
 -5  SXX         1    4    1    1
 -5  SYY         1    4    2    2
 -5  SZZ         1    4    3    3
 -5  SXY         1    4    1    2
 -5  SYZ         1    4    2    3
 -5  SZX         1    4    3    1
 -1         1 6.62398E+00-2.17897E+02 3.10641E+00 6.38935E+01 4.36844E+01 1.15341E+00
 -1         2-3.36002E+00-7.90332E-01-1.08827E+00 4.24300E-01-2.15683E-02-3.19534E-02
 -1         3-5.71850E+00-2.45088E+00-2.45085E+00-4.63097E+00-3.79819E-07-1.92357E-01
 -1         4-9.73719E-01-4.17317E-01-4.17178E-01-1.93767E+01-4.04948E-06 1.81320E+00
 -1         5 6.62398E+00-2.17897E+02 3.10641E+00 6.38935E+01-4.36844E+01-1.15341E+00
 -1         6-3.36002E+00-7.90332E-01-1.08827E+00 4.24300E-01 2.15683E-02 3.19534E-02
 -1         7-5.71850E+00-2.45088E+00-2.45085E+00-4.63097E+00 3.79819E-07 1.92357E-01
 -1         8-9.73719E-01-4.17317E-01-4.17178E-01-1.93767E+01 4.04948E-06-1.81320E+00
 -1         9-4.53054E+01-1.77781E+02-9.45732E+00 2.35386E+01-9.65029E+00-2.57863E+00
 -1        10-2.91449E+01-9.24958E+01-5.20227E+00 2.69144E+01 3.15393E-01-2.20439E-01
 -1        11-2.01743E+01-5.68988E+01-3.28196E+00 1.99516E+01-8.06008E-01-1.65815E-01
 -1        12-1.42263E+01-3.43091E+01-2.74035E+00 1.42908E+01-3.42756E-01 7.13709E-02
 -1        13-1.03854E+01-1.99827E+01-2.12440E+00 9.97905E+00-1.86453E-01 5.58271E-02
 -1        14-7.97713E+00-1.11324E+01-1.73804E+00 6.72426E+00-9.79439E-02 5.07355E-02
 -1        15-6.39885E+00-5.80814E+00-1.47642E+00 4.20156E+00-5.30459E-02 2.84964E-02
 -1        16-5.27885E+00-2.81765E+00-1.29900E+00 2.27717E+00-3.32942E-02 7.22314E-03
 -1        17-4.32922E+00-1.35942E+00-1.13689E+00 9.46053E-01-2.43217E-02-1.45560E-02
 -1        18-7.07747E+00-1.70203E+00-7.23420E-01-2.17782E+00-1.40092E-02-3.19362E-02
 -1        19-1.09897E+01-6.75046E+00 1.62843E-01-8.19506E+00 1.43506E-02-5.16573E-02
 -1        20-9.81313E+00-1.84691E+01 5.70972E-01-1.24655E+01 1.93096E-02-7.82774E-02
 -1        21-4.37495E+00-3.05878E+01 5.16752E-01-9.42756E+00 9.56293E-03-9.18586E-02
 -1        22-1.47256E+00-3.56280E+01 4.57416E-01-1.37934E-02 6.04416E-04-9.39772E-02
 -1        23-4.45629E+00-3.08106E+01 4.26114E-01 9.45925E+00-1.80684E-02-8.42753E-02
 -1        24-1.06125E+01-1.94301E+01 2.81778E-01 1.31211E+01-1.89028E-02-8.24263E-02
 -1        25-1.38096E+01-7.99188E+00 5.85657E-01 9.50042E+00-2.29419E-02-6.74321E-02
 -1        26-7.49277E+00-9.71856E-01-1.02272E-01 3.78739E+00-9.88087E-03 3.01814E-03
 -1        27-9.22379E+00-3.95318E+00-3.95313E+00-4.99007E+00-2.99409E-08-1.98253E-01
 -1        28-1.08961E+01-4.66992E+00-4.66983E+00-5.71541E+00 2.36662E-08-1.65343E-01
 -1        29-1.11145E+01-4.76359E+00-4.76345E+00-6.78266E+00-1.78764E-07-1.01703E-01
 -1        30-1.00606E+01-4.31194E+00-4.31176E+00-8.18523E+00-8.62179E-08 2.65981E-03
 -1        31-7.78596E+00-3.33711E+00-3.33690E+00-9.91885E+00 9.88270E-08 1.59018E-01
 -1        32-4.26742E+00-1.82917E+00-1.82892E+00-1.19656E+01 4.22416E-07 3.80424E-01
 -1        33 5.07742E-01 2.17353E-01 2.17609E-01-1.42612E+01 5.68607E-07 6.78249E-01
 -1        34 6.23085E+00 2.67017E+00 2.67041E+00-1.66311E+01 6.01714E-07 1.04875E+00
 -1        35 1.10247E+01 4.72480E+00 4.72498E+00-1.86882E+01-1.83689E-06 1.48670E+00
 -1        36 9.80147E+01 8.09979E+01 3.59459E+00 3.94372E+01-1.08207E+01 1.88984E+00
 -1        37 5.89620E+01 3.71240E+01 4.72970E+00 3.70232E+01 3.17278E+00 1.98713E+00
 -1        38 4.20429E+01 7.82880E+01 2.10520E+00 4.03991E+01-8.77389E-01-6.88369E-01
 -1        39 2.38009E+01 1.07596E+02 2.59189E+00 2.70959E+01 2.10619E-01 1.90056E-01
 -1        40 1.65125E+01 1.21059E+02 2.09242E+00-2.87695E-02-4.25611E-02 9.39985E-03
 -1        41 2.34215E+01 1.07567E+02 2.03467E+00-2.68768E+01-6.22193E-02 5.51667E-02
 -1        42 3.72971E+01 7.45415E+01 1.85813E+00-3.85580E+01-1.85874E-01 2.36923E-01
 -1        43 4.07063E+01 3.77470E+01 1.02791E-01-3.16458E+01-1.28293E-01 1.65288E-01
 -1        44 2.18513E+01 1.22689E+01 2.54802E+00-1.66710E+01-8.96914E-02-6.79564E-02
 -1        45-4.53054E+01-1.77781E+02-9.45732E+00 2.35386E+01 9.65029E+00 2.57863E+00
 -1        46-2.91449E+01-9.24958E+01-5.20227E+00 2.69144E+01-3.15393E-01 2.20439E-01
 -1        47-2.01743E+01-5.68988E+01-3.28196E+00 1.99516E+01 8.06008E-01 1.65815E-01
 -1        48-1.42263E+01-3.43091E+01-2.74035E+00 1.42908E+01 3.42756E-01-7.13709E-02
 -1        49-1.03854E+01-1.99827E+01-2.12440E+00 9.97905E+00 1.86453E-01-5.58271E-02
 -1        50-7.97713E+00-1.11324E+01-1.73804E+00 6.72426E+00 9.79439E-02-5.07355E-02
 -1        51-6.39885E+00-5.80814E+00-1.47642E+00 4.20156E+00 5.30459E-02-2.84964E-02
 -1        52-5.27885E+00-2.81765E+00-1.29900E+00 2.27717E+00 3.32942E-02-7.22314E-03
 -1        53-4.32922E+00-1.35942E+00-1.13689E+00 9.46053E-01 2.43217E-02 1.45560E-02
 -1        54-7.07747E+00-1.70203E+00-7.23420E-01-2.17782E+00 1.40092E-02 3.19362E-02
 -1        55-1.09897E+01-6.75046E+00 1.62843E-01-8.19506E+00-1.43506E-02 5.16573E-02
 -1        56-9.81313E+00-1.84691E+01 5.70972E-01-1.24655E+01-1.93096E-02 7.82774E-02
 -1        57-4.37495E+00-3.05878E+01 5.16752E-01-9.42756E+00-9.56293E-03 9.18586E-02
 -1        58-1.47256E+00-3.56280E+01 4.57416E-01-1.37934E-02-6.04416E-04 9.39772E-02
 -1        59-4.45629E+00-3.08106E+01 4.26114E-01 9.45925E+00 1.80684E-02 8.42753E-02
 -1        60-1.06125E+01-1.94301E+01 2.81778E-01 1.31211E+01 1.89028E-02 8.24263E-02
 -1        61-1.38096E+01-7.99188E+00 5.85657E-01 9.50042E+00 2.29419E-02 6.74321E-02
 -1        62-7.49277E+00-9.71856E-01-1.02272E-01 3.78739E+00 9.88087E-03-3.01814E-03
 -1        63-9.22379E+00-3.95318E+00-3.95313E+00-4.99007E+00 2.99409E-08 1.98253E-01
 -1        64-1.08961E+01-4.66992E+00-4.66983E+00-5.71541E+00-2.36662E-08 1.65343E-01
 -1        65-1.11145E+01-4.76359E+00-4.76345E+00-6.78266E+00 1.78764E-07 1.01703E-01
 -1        66-1.00606E+01-4.31194E+00-4.31176E+00-8.18523E+00 8.62180E-08-2.65981E-03
 -1        67-7.78596E+00-3.33711E+00-3.33690E+00-9.91885E+00-9.88271E-08-1.59018E-01
 -1        68-4.26742E+00-1.82917E+00-1.82892E+00-1.19656E+01-4.22416E-07-3.80424E-01
 -1        69 5.07742E-01 2.17353E-01 2.17609E-01-1.42612E+01-5.68607E-07-6.78249E-01
 -1        70 6.23085E+00 2.67017E+00 2.67041E+00-1.66311E+01-6.01714E-07-1.04875E+00
 -1        71 1.10247E+01 4.72480E+00 4.72498E+00-1.86882E+01 1.83689E-06-1.48670E+00
 -1        72 2.18513E+01 1.22689E+01 2.54802E+00-1.66710E+01 8.96914E-02 6.79564E-02
 -1        73 4.07063E+01 3.77470E+01 1.02791E-01-3.16458E+01 1.28293E-01-1.65288E-01
 -1        74 3.72971E+01 7.45415E+01 1.85813E+00-3.85580E+01 1.85874E-01-2.36923E-01
 -1        75 2.34215E+01 1.07567E+02 2.03467E+00-2.68768E+01 6.22193E-02-5.51667E-02
 -1        76 1.65125E+01 1.21059E+02 2.09242E+00-2.87695E-02 4.25611E-02-9.39985E-03
 -1        77 2.38009E+01 1.07596E+02 2.59189E+00 2.70959E+01-2.10619E-01-1.90056E-01
 -1        78 4.20429E+01 7.82880E+01 2.10520E+00 4.03991E+01 8.77389E-01 6.88369E-01
 -1        79 5.89620E+01 3.71240E+01 4.72970E+00 3.70232E+01-3.17278E+00-1.98713E+00
 -1        80 9.80147E+01 8.09979E+01 3.59459E+00 3.94372E+01 1.08207E+01-1.88984E+00
 -1        81 2.60684E+01-1.84668E+02 1.58433E+01 5.34958E+01 3.26038E+01 1.63648E+00
 -1        82 3.23339E+01-1.72320E+02 1.67374E+01 4.88579E+01 1.60957E+01 5.22610E+00
 -1        83 3.48147E+01-1.66915E+02 1.64472E+01 4.66832E+01 8.25828E+00 5.12870E+00
 -1        84 3.56970E+01-1.64578E+02 1.57697E+01 4.56559E+01 4.00454E+00 3.48752E+00
 -1        85 3.59510E+01-1.63704E+02 1.52897E+01 4.52400E+01 1.20352E+00 1.21905E+00
 -1        86 3.59510E+01-1.63704E+02 1.52897E+01 4.52400E+01-1.20352E+00-1.21905E+00
 -1        87 3.56970E+01-1.64578E+02 1.57697E+01 4.56559E+01-4.00454E+00-3.48752E+00
 -1        88 3.48147E+01-1.66915E+02 1.64472E+01 4.66832E+01-8.25828E+00-5.12870E+00
 -1        89 3.23339E+01-1.72320E+02 1.67374E+01 4.88579E+01-1.60957E+01-5.22610E+00
 -1        90 2.60684E+01-1.84668E+02 1.58433E+01 5.34958E+01-3.26038E+01-1.63648E+00
 -1        91-3.34663E+00-7.74229E-01-1.08204E+00 4.22559E-01-5.35231E-03-1.93227E-02
 -1        92-3.33777E+00-7.61615E-01-1.08125E+00 4.20158E-01-1.26123E-03-1.48183E-02
 -1        93-3.33197E+00-7.52327E-01-1.08242E+00 4.17850E-01 8.47781E-04-1.06539E-02
 -1        94-3.32849E+00-7.46242E-01-1.08401E+00 4.16091E-01 1.24014E-03-6.46643E-03
 -1        95-3.32688E+00-7.43257E-01-1.08506E+00 4.15149E-01 5.39271E-04-2.17249E-03
 -1        96-3.32688E+00-7.43257E-01-1.08506E+00 4.15149E-01-5.39271E-04 2.17249E-03
 -1        97-3.32849E+00-7.46242E-01-1.08401E+00 4.16091E-01-1.24014E-03 6.46643E-03
 -1        98-3.33197E+00-7.52327E-01-1.08242E+00 4.17850E-01-8.47781E-04 1.06539E-02
 -1        99-3.33777E+00-7.61615E-01-1.08125E+00 4.20158E-01 1.26123E-03 1.48183E-02
 -1       100-3.34663E+00-7.74229E-01-1.08204E+00 4.22559E-01 5.35231E-03 1.93227E-02
 -1       101-5.68277E+00-2.43556E+00-2.43554E+00-4.63331E+00-4.34764E-07-1.57906E-01
 -1       102-5.65489E+00-2.42361E+00-2.42359E+00-4.63436E+00-4.57470E-07-1.23172E-01
 -1       103-5.63437E+00-2.41482E+00-2.41480E+00-4.63472E+00-3.85113E-07-8.81827E-02
 -1       104-5.62088E+00-2.40904E+00-2.40902E+00-4.63478E+00-2.52941E-07-5.29939E-02
 -1       105-5.61419E+00-2.40617E+00-2.40615E+00-4.63475E+00-8.78203E-08-1.76790E-02
 -1       106-5.61419E+00-2.40617E+00-2.40615E+00-4.63475E+00 8.78202E-08 1.76790E-02
 -1       107-5.62088E+00-2.40904E+00-2.40902E+00-4.63478E+00 2.52941E-07 5.29939E-02
 -1       108-5.63437E+00-2.41482E+00-2.41480E+00-4.63472E+00 3.85113E-07 8.81827E-02
 -1       109-5.65489E+00-2.42361E+00-2.42359E+00-4.63436E+00 4.57470E-07 1.23172E-01
 -1       110-5.68277E+00-2.43556E+00-2.43554E+00-4.63331E+00 4.34764E-07 1.57906E-01
 -1       111-1.94167E+00-8.32152E-01-8.32014E-01-1.92933E+01-3.57198E-06 1.48840E+00
 -1       112-2.55717E+00-1.09594E+00-1.09580E+00-1.92283E+01-2.80453E-06 1.16262E+00
 -1       113-2.93982E+00-1.25993E+00-1.25980E+00-1.91801E+01-1.96166E-06 8.33760E-01
 -1       114-3.16165E+00-1.35500E+00-1.35487E+00-1.91481E+01-1.14710E-06 5.01737E-01
 -1       115-3.26338E+00-1.39860E+00-1.39847E+00-1.91321E+01-3.76208E-07 1.67507E-01
 -1       116-3.26338E+00-1.39860E+00-1.39847E+00-1.91321E+01 3.76208E-07-1.67507E-01
 -1       117-3.16165E+00-1.35500E+00-1.35487E+00-1.91481E+01 1.14710E-06-5.01737E-01
 -1       118-2.93982E+00-1.25993E+00-1.25980E+00-1.91801E+01 1.96166E-06-8.33760E-01
 -1       119-2.55717E+00-1.09594E+00-1.09580E+00-1.92283E+01 2.80453E-06-1.16262E+00
 -1       120-1.94167E+00-8.32152E-01-8.32014E-01-1.92933E+01 3.57198E-06-1.48840E+00
 -1       121 2.59106E+01 3.41605E+01 2.63304E+00 1.35461E+01 3.69100E+00 3.53407E-01
 -1       122 2.23456E+01 2.65164E+01-4.05200E-01 1.96894E+01-2.85627E-02 1.20334E+00
 -1       123 2.06931E+01 4.85150E+01-9.96119E-01 2.22431E+01 2.55937E-01-5.28493E-01
 -1       124 1.34009E+01 6.61467E+01-8.00587E-02 1.43435E+01 7.98243E-02-2.36647E-01
 -1       125 1.01484E+01 7.27001E+01-3.94599E-01-8.52954E-03-6.21125E-03-3.75443E-01
 -1       126 1.28773E+01 6.59460E+01-3.23100E-01-1.41543E+01-1.15640E-01-3.04331E-01
 -1       127 1.80852E+01 4.89107E+01-3.44267E-01-2.15991E+01-1.87538E-01-2.26831E-01
 -1       128 1.95648E+01 2.95842E+01 2.49815E-01-2.11635E+01-1.75698E-01-1.19922E-01
 -1       129 1.40180E+01 1.13765E+01-3.91554E-01-1.74780E+01 3.25456E-02-2.68573E-01
 -1       130 2.76606E+00 1.68543E+01 1.30208E+00 1.52465E+01 4.92305E-01 1.41656E-01
 -1       131 9.67612E+00 3.03998E+01-1.29731E-01 8.46624E+00 4.10207E-01 4.24135E-01
 -1       132 1.25214E+01 3.70424E+01-1.32821E+00 8.21869E+00 1.37224E-01-2.34340E-01
 -1       133 1.46863E+01 4.47841E+01-8.49433E-01 4.63868E+00 9.77107E-02-2.14866E-01
 -1       134 1.52224E+01 4.71613E+01-7.95015E-01-1.33517E-02-3.80535E-03-2.76053E-01
 -1       135 1.42301E+01 4.51085E+01-7.27063E-01-4.62797E+00-9.77643E-02-2.29826E-01
 -1       136 1.15644E+01 3.89998E+01-6.06744E-01-9.14554E+00-1.47021E-01-1.87891E-01
 -1       137 8.51098E+00 2.91210E+01 3.18362E-02-1.37150E+01-1.52615E-01-2.72797E-03
 -1       138 5.61892E+00 1.26647E+01-9.70456E-01-1.74781E+01-3.33242E-02-1.82784E-01
 -1       139-6.29098E+00 8.75624E+00 4.23576E-01 1.45178E+01 3.09996E-01 4.43554E-02
 -1       140 9.20354E-01 2.82102E+01 8.95377E-01 4.25291E+00 1.09895E-01 1.74567E-01
 -1       141 7.85164E+00 2.86693E+01-3.63573E-01 2.64951E-01 1.08530E-01-7.37711E-02
 -1       142 1.36340E+01 2.93736E+01-1.93772E-01-7.27979E-01 3.97355E-02-1.07346E-01
 -1       143 1.59924E+01 2.93943E+01-6.04953E-02-1.02591E-02 4.04881E-04-1.27383E-01
 -1       144 1.32903E+01 2.98913E+01 3.60706E-04 5.03555E-01-4.59846E-02-1.05107E-01
 -1       145 7.10344E+00 2.96728E+01-2.11332E-04-2.09356E+00-6.36445E-02-9.78320E-02
 -1       146 1.76755E+00 2.50471E+01 2.31397E-01-8.34177E+00-6.41229E-02 2.03336E-02
 -1       147 6.70003E-01 1.28131E+01-7.32455E-01-1.42695E+01-5.01520E-02-1.48268E-01
 -1       148-9.39686E+00 4.86712E+00-2.39930E-01 1.20078E+01 9.03749E-02-8.93589E-03
 -1       149-4.57004E+00 2.31141E+01 7.30835E-01 1.78589E+00 9.44122E-02 1.34794E-02
 -1       150 3.88486E+00 2.09736E+01 7.35322E-02-4.21149E+00 8.93227E-02-5.89584E-02
 -1       151 1.15028E+01 1.71973E+01-4.17204E-03-3.87812E+00 4.21016E-02-1.19245E-01
 -1       152 1.46098E+01 1.55936E+01 1.01073E-01-1.13364E-02-3.03191E-04-1.31529E-01
 -1       153 1.11757E+01 1.75693E+01 1.46045E-01 3.51363E+00-4.15144E-02-1.14632E-01
 -1       154 3.49496E+00 2.08597E+01 1.02901E-01 2.32536E+00-6.08372E-02-9.74606E-02
 -1       155-2.67929E+00 2.00516E+01 8.82093E-02-4.12240E+00-6.33046E-02-1.12094E-02
 -1       156-2.88115E+00 1.20685E+01-2.54021E-01-1.09299E+01-4.42274E-02-1.00578E-01
 -1       157-1.01884E+01 2.97494E+00-4.84951E-01 9.07612E+00 2.11419E-02-1.20526E-02
 -1       158-7.69443E+00 1.74340E+01 5.62493E-01-1.89129E-01 5.44024E-02-3.45242E-02
 -1       159 5.55510E-01 1.35653E+01 2.91319E-01-6.82442E+00 6.80897E-02-5.50273E-02
 -1       160 8.87831E+00 7.05876E+00 1.89101E-01-5.76162E+00 3.33129E-02-1.04392E-01
 -1       161 1.22820E+01 4.31779E+00 2.45093E-01-6.68170E-03-3.52283E-04-1.13389E-01
 -1       162 8.59833E+00 7.16772E+00 2.64849E-01 5.38221E+00-3.14171E-02-1.02436E-01
 -1       163 5.21283E-01 1.27409E+01 1.93937E-01 5.29879E+00-4.98733E-02-8.08216E-02
 -1       164-5.78660E+00 1.49157E+01 2.43496E-02-8.01062E-01-4.81026E-02-3.09779E-02
 -1       165-5.49640E+00 1.06494E+01 1.32356E-01-7.91613E+00-3.64922E-02-6.28020E-02
 -1       166-1.00620E+01 1.78595E+00-5.81167E-01 6.19192E+00-2.04570E-03-2.26845E-02
 -1       167-9.43595E+00 1.18576E+01 3.89676E-01-1.99928E+00 3.50491E-02-5.11368E-02
 -1       168-2.18523E+00 6.42095E+00 3.65736E-01-8.46788E+00 5.22960E-02-5.68844E-02
 -1       169 6.07375E+00-1.82612E+00 2.92168E-01-6.91926E+00 2.69045E-02-9.75719E-02
 -1       170 9.52956E+00-5.35470E+00 3.13332E-01 8.02661E-04-6.05811E-04-1.03387E-01
 -1       171 5.86228E+00-1.95493E+00 3.08704E-01 6.62285E+00-2.50965E-02-9.67219E-02
 -1       172-2.03750E+00 5.23982E+00 2.41541E-01 7.44947E+00-4.30135E-02-7.09163E-02
 -1       173-8.04108E+00 9.80817E+00-2.56191E-02 1.87697E+00-4.00739E-02-4.83564E-02
 -1       174-7.30648E+00 8.79100E+00 3.88516E-01-5.24848E+00-2.54032E-02-3.28895E-02
 -1       175-9.53571E+00 8.01975E-01-6.05585E-01 3.51344E+00-1.11879E-02-2.62390E-02
 -1       176-1.03235E+01 6.55466E+00 2.65152E-01-3.71772E+00 2.44498E-02-5.47112E-02
 -1       177-4.42771E+00-4.40226E-01 3.89056E-01-9.60598E+00 4.08254E-02-5.98898E-02
 -1       178 3.28236E+00-9.86380E+00 3.59051E-01-7.66720E+00 2.13867E-02-9.25191E-02
 -1       179 6.63375E+00-1.39325E+01 3.53014E-01 5.96731E-03-1.03085E-03-9.61980E-02
 -1       180 3.12533E+00-1.01542E+01 3.28816E-01 7.50023E+00-2.05043E-02-9.18202E-02
 -1       181-4.30672E+00-1.72256E+00 2.83136E-01 9.12125E+00-3.68046E-02-6.55406E-02
 -1       182-9.67913E+00 4.78855E+00-2.94265E-02 4.11748E+00-3.45516E-02-5.95830E-02
 -1       183-8.35412E+00 6.59357E+00 5.01467E-01-2.81697E+00-1.64310E-02-1.18112E-02
 -1       184-8.77209E+00-1.46990E-01-6.13668E-01 1.08283E+00-1.56336E-02-2.73954E-02
 -1       185-1.06376E+01 1.47547E+00 1.66398E-01-5.36245E+00 1.62499E-02-5.04890E-02
 -1       186-6.28778E+00-7.03920E+00 3.92626E-01-1.04909E+01 3.08910E-02-6.17956E-02
 -1       187 5.72944E-01-1.73112E+01 3.91029E-01-8.19967E+00 1.56630E-02-8.56977E-02
 -1       188 3.72219E+00-2.17421E+01 3.60573E-01 4.50188E-03-1.35906E-03-8.74749E-02
 -1       189 4.42970E-01-1.76729E+01 3.21085E-01 8.15314E+00-1.65754E-02-8.44640E-02
 -1       190-6.39390E+00-8.23845E+00 3.00996E-01 1.05163E+01-2.77583E-02-6.11204E-02
 -1       191-1.08991E+01-9.71565E-02 3.43158E-02 6.08504E+00-3.23405E-02-6.59644E-02
 -1       192-8.63356E+00 4.02927E+00 4.34794E-01-4.37504E-01-1.96316E-03 4.08408E-03
 -1       193-7.76894E+00-1.13224E+00-6.25301E-01-1.09202E+00-1.51130E-02-2.49603E-02
 -1       194-1.04494E+01-3.48100E+00 1.37788E-01-6.95459E+00 1.57769E-02-4.40041E-02
 -1       195-7.86034E+00-1.33852E+01 4.40063E-01-1.12765E+01 2.57090E-02-6.63845E-02
 -1       196-2.02191E+00-2.43073E+01 4.45288E-01-8.63296E+00 1.25852E-02-8.45029E-02
 -1       197 8.75119E-01-2.89671E+01 3.98416E-01-5.49927E-03-1.28278E-03-8.59366E-02
 -1       198-2.14070E+00-2.46465E+01 3.45651E-01 8.65668E+00-1.63155E-02-8.12998E-02
 -1       199-8.34219E+00-1.43898E+01 3.30001E-01 1.17318E+01-2.22772E-02-6.51121E-02
 -1       200-1.19589E+01-4.70906E+00 1.95355E-01 7.90697E+00-3.16904E-02-6.54106E-02
 -1       201-8.01825E+00 9.78229E-01 2.79642E-01 2.17984E+00 1.24450E-03 1.31175E-02
 -1       202-3.79640E+01-1.65585E+02-7.96117E+00 2.17804E+01-5.07970E+00-3.90446E+00
 -1       203-3.57599E+01-1.61234E+02-1.27570E+01 2.04062E+01-2.18807E-01-3.18695E+00
 -1       204-3.41844E+01-1.58649E+02-1.52124E+01 1.94887E+01 8.04454E-01-2.09287E+00
 -1       205-3.31952E+01-1.57174E+02-1.64317E+01 1.89468E+01 6.76482E-01-1.13594E+00
 -1       206-3.27228E+01-1.56500E+02-1.69386E+01 1.86981E+01 2.43959E-01-3.55475E-01
 -1       207-3.27228E+01-1.56500E+02-1.69386E+01 1.86981E+01-2.43959E-01 3.55475E-01
 -1       208-3.31952E+01-1.57174E+02-1.64317E+01 1.89468E+01-6.76482E-01 1.13594E+00
 -1       209-3.41844E+01-1.58649E+02-1.52124E+01 1.94887E+01-8.04454E-01 2.09287E+00
 -1       210-3.57599E+01-1.61234E+02-1.27570E+01 2.04062E+01 2.18807E-01 3.18695E+00
 -1       211-3.79640E+01-1.65585E+02-7.96117E+00 2.17804E+01 5.07970E+00 3.90446E+00
 -1       212-2.78915E+01-9.35963E+01-4.20112E+00 2.54278E+01-1.59675E-01-6.04573E-01
 -1       213-2.61401E+01-9.27018E+01-2.45419E+00 2.43810E+01-1.34524E+00-3.34921E-01
 -1       214-2.51695E+01-9.20519E+01-2.20834E+00 2.36434E+01-1.13828E+00-2.61023E-01
 -1       215-2.46305E+01-9.16369E+01-2.36404E+00 2.31702E+01-6.79990E-01-1.78195E-01
 -1       216-2.43854E+01-9.14360E+01-2.50937E+00 2.29390E+01-2.21656E-01-6.36317E-02
 -1       217-2.43854E+01-9.14360E+01-2.50937E+00 2.29390E+01 2.21656E-01 6.36317E-02
 -1       218-2.46305E+01-9.16369E+01-2.36404E+00 2.31702E+01 6.79990E-01 1.78195E-01
 -1       219-2.51695E+01-9.20519E+01-2.20834E+00 2.36434E+01 1.13828E+00 2.61023E-01
 -1       220-2.61401E+01-9.27018E+01-2.45419E+00 2.43810E+01 1.34524E+00 3.34921E-01
 -1       221-2.78915E+01-9.35963E+01-4.20112E+00 2.54278E+01 1.59675E-01 6.04573E-01
 -1       222-1.92800E+01-5.58859E+01-3.15245E+00 1.91572E+01-4.10832E-01-4.27627E-01
 -1       223-1.89399E+01-5.58250E+01-3.46749E+00 1.85749E+01-3.88528E-01-2.88435E-01
 -1       224-1.85330E+01-5.57018E+01-3.21351E+00 1.81716E+01-4.64052E-01-1.56634E-01
 -1       225-1.82301E+01-5.55947E+01-2.93690E+00 1.79168E+01-3.65753E-01-7.29624E-02
 -1       226-1.80746E+01-5.55356E+01-2.78368E+00 1.77931E+01-1.36494E-01-2.09421E-02
 -1       227-1.80746E+01-5.55356E+01-2.78368E+00 1.77931E+01 1.36494E-01 2.09421E-02
 -1       228-1.82301E+01-5.55947E+01-2.93690E+00 1.79168E+01 3.65753E-01 7.29624E-02
 -1       229-1.85330E+01-5.57018E+01-3.21351E+00 1.81716E+01 4.64052E-01 1.56634E-01
 -1       230-1.89399E+01-5.58250E+01-3.46749E+00 1.85749E+01 3.88528E-01 2.88435E-01
 -1       231-1.92800E+01-5.58859E+01-3.15245E+00 1.91572E+01 4.10832E-01 4.27627E-01
 -1       232-1.37443E+01-3.36812E+01-2.45813E+00 1.38780E+01-1.57699E-01-8.87089E-02
 -1       233-1.34177E+01-3.32156E+01-2.38710E+00 1.35557E+01-1.60941E-01-8.99345E-02
 -1       234-1.32410E+01-3.29729E+01-2.45326E+00 1.33206E+01-1.02724E-01-7.93062E-02
 -1       235-1.31339E+01-3.28468E+01-2.49541E+00 1.31681E+01-5.93496E-02-5.24541E-02
 -1       236-1.30811E+01-3.27922E+01-2.50917E+00 1.30934E+01-2.00699E-02-1.81066E-02
 -1       237-1.30811E+01-3.27922E+01-2.50917E+00 1.30934E+01 2.00699E-02 1.81066E-02
 -1       238-1.31339E+01-3.28468E+01-2.49541E+00 1.31681E+01 5.93496E-02 5.24541E-02
 -1       239-1.32410E+01-3.29729E+01-2.45326E+00 1.33206E+01 1.02724E-01 7.93062E-02
 -1       240-1.34177E+01-3.32156E+01-2.38710E+00 1.35557E+01 1.60941E-01 8.99345E-02
 -1       241-1.37443E+01-3.36812E+01-2.45813E+00 1.38780E+01 1.57699E-01 8.87089E-02
 -1       242-1.01601E+01-1.96268E+01-2.01428E+00 9.77209E+00-5.49138E-02-2.27400E-02
 -1       243-1.00149E+01-1.93901E+01-1.99200E+00 9.60854E+00-5.50253E-02-2.27139E-02
 -1       244-9.89308E+00-1.91938E+01-1.94957E+00 9.48618E+00-5.25018E-02-1.84769E-02
 -1       245-9.81454E+00-1.90630E+01-1.93014E+00 9.40453E+00-3.45861E-02-1.25840E-02
 -1       246-9.77689E+00-1.89987E+01-1.92473E+00 9.36365E+00-1.17314E-02-4.51834E-03
 -1       247-9.77689E+00-1.89987E+01-1.92473E+00 9.36365E+00 1.17314E-02 4.51834E-03
 -1       248-9.81454E+00-1.90630E+01-1.93014E+00 9.40453E+00 3.45861E-02 1.25840E-02
 -1       249-9.89308E+00-1.91938E+01-1.94957E+00 9.48618E+00 5.25018E-02 1.84769E-02
 -1       250-1.00149E+01-1.93901E+01-1.99200E+00 9.60854E+00 5.50253E-02 2.27139E-02
 -1       251-1.01601E+01-1.96268E+01-2.01428E+00 9.77209E+00 5.49138E-02 2.27400E-02
 -1       252-7.85322E+00-1.09103E+01-1.66091E+00 6.61206E+00-2.13303E-02 1.21122E-02
 -1       253-7.77198E+00-1.07525E+01-1.63987E+00 6.52322E+00-2.23795E-02 2.79994E-03
 -1       254-7.71392E+00-1.06414E+01-1.62691E+00 6.45736E+00-1.81169E-02-1.41528E-03
 -1       255-7.67367E+00-1.05671E+01-1.61333E+00 6.41382E+00-1.26750E-02-1.97280E-03
 -1       256-7.65293E+00-1.05296E+01-1.60493E+00 6.39215E+00-4.62819E-03-8.20642E-04
 -1       257-7.65293E+00-1.05296E+01-1.60493E+00 6.39215E+00 4.62819E-03 8.20642E-04
 -1       258-7.67367E+00-1.05671E+01-1.61333E+00 6.41382E+00 1.26750E-02 1.97280E-03
 -1       259-7.71392E+00-1.06414E+01-1.62691E+00 6.45736E+00 1.81169E-02 1.41528E-03
 -1       260-7.77198E+00-1.07525E+01-1.63987E+00 6.52322E+00 2.23795E-02-2.79994E-03
 -1       261-7.85322E+00-1.09103E+01-1.66091E+00 6.61206E+00 2.13303E-02-1.21122E-02
 -1       262-6.32857E+00-5.66361E+00-1.43128E+00 4.14289E+00-5.76735E-03 1.49297E-02
 -1       263-6.28373E+00-5.56244E+00-1.41954E+00 4.09611E+00-5.64933E-03 7.56792E-03
 -1       264-6.24947E+00-5.48703E+00-1.40867E+00 4.06106E+00-4.71413E-03 3.19044E-03
 -1       265-6.22714E+00-5.43811E+00-1.40208E+00 4.03773E+00-2.78508E-03 9.62593E-04
 -1       266-6.21612E+00-5.41413E+00-1.39887E+00 4.02609E+00-8.96129E-04 1.57359E-04
 -1       267-6.21612E+00-5.41413E+00-1.39887E+00 4.02609E+00 8.96129E-04-1.57359E-04
 -1       268-6.22714E+00-5.43811E+00-1.40208E+00 4.03773E+00 2.78508E-03-9.62593E-04
 -1       269-6.24947E+00-5.48703E+00-1.40867E+00 4.06106E+00 4.71413E-03-3.19044E-03
 -1       270-6.28373E+00-5.56244E+00-1.41954E+00 4.09611E+00 5.64933E-03-7.56792E-03
 -1       271-6.32857E+00-5.66361E+00-1.43128E+00 4.14289E+00 5.76735E-03-1.49297E-02
 -1       272-5.23820E+00-2.72920E+00-1.27015E+00 2.25050E+00-3.07582E-03 7.31296E-03
 -1       273-5.21179E+00-2.66639E+00-1.26050E+00 2.22895E+00 1.92497E-03 2.28961E-03
 -1       274-5.19192E+00-2.62037E+00-1.25258E+00 2.21267E+00 3.52614E-03-1.37006E-04
 -1       275-5.17844E+00-2.58989E+00-1.24664E+00 2.20175E+00 2.84837E-03-7.64637E-04
 -1       276-5.17166E+00-2.57471E+00-1.24356E+00 2.19626E+00 1.06358E-03-3.66913E-04
 -1       277-5.17166E+00-2.57471E+00-1.24356E+00 2.19626E+00-1.06358E-03 3.66913E-04
 -1       278-5.17844E+00-2.58989E+00-1.24664E+00 2.20175E+00-2.84837E-03 7.64637E-04
 -1       279-5.19192E+00-2.62037E+00-1.25258E+00 2.21267E+00-3.52614E-03 1.37006E-04
 -1       280-5.21179E+00-2.66639E+00-1.26050E+00 2.22895E+00-1.92497E-03-2.28961E-03
 -1       281-5.23820E+00-2.72920E+00-1.27015E+00 2.25050E+00 3.07582E-03-7.31296E-03
 -1       282-4.31019E+00-1.32244E+00-1.12591E+00 9.38075E-01-3.83244E-03-6.70459E-03
 -1       283-4.29735E+00-1.29540E+00-1.12425E+00 9.30912E-01 2.41949E-03-7.24528E-03
 -1       284-4.28733E+00-1.27485E+00-1.12277E+00 9.25125E-01 4.47220E-03-6.18756E-03
 -1       285-4.28053E+00-1.26114E+00-1.12171E+00 9.21085E-01 3.76598E-03-4.10214E-03
 -1       286-4.27708E+00-1.25427E+00-1.12112E+00 9.19014E-01 1.43240E-03-1.43054E-03
 -1       287-4.27708E+00-1.25427E+00-1.12112E+00 9.19014E-01-1.43240E-03 1.43054E-03
 -1       288-4.28053E+00-1.26114E+00-1.12171E+00 9.21085E-01-3.76598E-03 4.10214E-03
 -1       289-4.28733E+00-1.27485E+00-1.12277E+00 9.25125E-01-4.47220E-03 6.18756E-03
 -1       290-4.29735E+00-1.29540E+00-1.12425E+00 9.30912E-01-2.41949E-03 7.24528E-03
 -1       291-4.31019E+00-1.32244E+00-1.12591E+00 9.38075E-01 3.83244E-03 6.70459E-03
 -1       292-7.05992E+00-1.71479E+00-7.20353E-01-2.18494E+00-6.68783E-03-1.73976E-02
 -1       293-7.04566E+00-1.72247E+00-7.14764E-01-2.18994E+00-9.89399E-03-1.89131E-02
 -1       294-7.03491E+00-1.72704E+00-7.09160E-01-2.19337E+00-9.36683E-03-1.61772E-02
 -1       295-7.02772E+00-1.72958E+00-7.04821E-01-2.19553E+00-6.48229E-03-1.07193E-02
 -1       296-7.02412E+00-1.73071E+00-7.02478E-01-2.19657E+00-2.29925E-03-3.73682E-03
 -1       297-7.02412E+00-1.73071E+00-7.02478E-01-2.19657E+00 2.29925E-03 3.73682E-03
 -1       298-7.02772E+00-1.72958E+00-7.04821E-01-2.19553E+00 6.48229E-03 1.07193E-02
 -1       299-7.03491E+00-1.72704E+00-7.09160E-01-2.19337E+00 9.36683E-03 1.61772E-02
 -1       300-7.04566E+00-1.72247E+00-7.14764E-01-2.18994E+00 9.89399E-03 1.89131E-02
 -1       301-7.05992E+00-1.71479E+00-7.20353E-01-2.18494E+00 6.68783E-03 1.73976E-02
 -1       302-1.09685E+01-6.78147E+00 1.62735E-01-8.19207E+00-7.94708E-03-1.21047E-02
 -1       303-1.09501E+01-6.79919E+00 1.68071E-01-8.18967E+00-1.57646E-02-1.58633E-02
 -1       304-1.09365E+01-6.80981E+00 1.72969E-01-8.18783E+00-1.57940E-02-1.45777E-02
 -1       305-1.09275E+01-6.81580E+00 1.76602E-01-8.18657E+00-1.11401E-02-9.98841E-03
 -1       306-1.09230E+01-6.81850E+00 1.78514E-01-8.18593E+00-3.97679E-03-3.53103E-03
 -1       307-1.09230E+01-6.81850E+00 1.78514E-01-8.18593E+00 3.97679E-03 3.53103E-03
 -1       308-1.09275E+01-6.81580E+00 1.76602E-01-8.18657E+00 1.11401E-02 9.98841E-03
 -1       309-1.09365E+01-6.80981E+00 1.72969E-01-8.18783E+00 1.57940E-02 1.45777E-02
 -1       310-1.09501E+01-6.79919E+00 1.68071E-01-8.18967E+00 1.57646E-02 1.58633E-02
 -1       311-1.09685E+01-6.78147E+00 1.62735E-01-8.19207E+00 7.94708E-03 1.21047E-02
 -1       312-9.80744E+00-1.84812E+01 5.70634E-01-1.24520E+01-1.12750E-02-6.92372E-03
 -1       313-9.80033E+00-1.84864E+01 5.73923E-01-1.24419E+01-1.48508E-02-5.84243E-03
 -1       314-9.79430E+00-1.84887E+01 5.76943E-01-1.24347E+01-1.35281E-02-4.50331E-03
 -1       315-9.79000E+00-1.84895E+01 5.79182E-01-1.24301E+01-9.20002E-03-2.85336E-03
 -1       316-9.78778E+00-1.84897E+01 5.80361E-01-1.24278E+01-3.23937E-03-9.78035E-04
 -1       317-9.78778E+00-1.84897E+01 5.80361E-01-1.24278E+01 3.23937E-03 9.78035E-04
 -1       318-9.79000E+00-1.84895E+01 5.79182E-01-1.24301E+01 9.20002E-03 2.85336E-03
 -1       319-9.79430E+00-1.84887E+01 5.76943E-01-1.24347E+01 1.35281E-02 4.50331E-03
 -1       320-9.80033E+00-1.84864E+01 5.73923E-01-1.24419E+01 1.48508E-02 5.84243E-03
 -1       321-9.80744E+00-1.84812E+01 5.70634E-01-1.24520E+01 1.12750E-02 6.92372E-03
 -1       322-4.38836E+00-3.05821E+01 5.17184E-01-9.41618E+00-9.78621E-03-2.75463E-03
 -1       323-4.39381E+00-3.05734E+01 5.23277E-01-9.40771E+00-1.03372E-02 2.01678E-03
 -1       324-4.39604E+00-3.05654E+01 5.29161E-01-9.40164E+00-8.68375E-03 3.31526E-03
 -1       325-4.39677E+00-3.05596E+01 5.33628E-01-9.39771E+00-5.69011E-03 2.65189E-03
 -1       326-4.39693E+00-3.05565E+01 5.36009E-01-9.39578E+00-1.97297E-03 9.86434E-04
 -1       327-4.39693E+00-3.05565E+01 5.36009E-01-9.39578E+00 1.97297E-03-9.86434E-04
 -1       328-4.39677E+00-3.05596E+01 5.33628E-01-9.39771E+00 5.69011E-03-2.65189E-03
 -1       329-4.39604E+00-3.05654E+01 5.29161E-01-9.40164E+00 8.68375E-03-3.31526E-03
 -1       330-4.39381E+00-3.05734E+01 5.23277E-01-9.40771E+00 1.03372E-02-2.01678E-03
 -1       331-4.38836E+00-3.05821E+01 5.17184E-01-9.41618E+00 9.78621E-03 2.75463E-03
 -1       332-1.49302E+00-3.56155E+01 4.58098E-01-1.39108E-02 4.66342E-04 5.17188E-04
 -1       333-1.50307E+00-3.56012E+01 4.65056E-01-1.41104E-02 2.53763E-04 5.89381E-03
 -1       334-1.50837E+00-3.55892E+01 4.71680E-01-1.43041E-02 1.44870E-04 6.70750E-03
 -1       335-1.51099E+00-3.55806E+01 4.76683E-01-1.44489E-02 7.77518E-05 4.91395E-03
 -1       336-1.51205E+00-3.55761E+01 4.79345E-01-1.45252E-02 2.48708E-05 1.77620E-03
 -1       337-1.51205E+00-3.55761E+01 4.79345E-01-1.45252E-02-2.48708E-05-1.77620E-03
 -1       338-1.51099E+00-3.55806E+01 4.76683E-01-1.44489E-02-7.77517E-05-4.91395E-03
 -1       339-1.50837E+00-3.55892E+01 4.71680E-01-1.43041E-02-1.44870E-04-6.70750E-03
 -1       340-1.50307E+00-3.56012E+01 4.65056E-01-1.41104E-02-2.53763E-04-5.89381E-03
 -1       341-1.49302E+00-3.56155E+01 4.58098E-01-1.39108E-02-4.66342E-04-5.17188E-04
 -1       342-4.46538E+00-3.08031E+01 4.27438E-01 9.44544E+00 3.47470E-03 1.98818E-03
 -1       343-4.46930E+00-3.07936E+01 4.32598E-01 9.43551E+00 6.84528E-03 4.52290E-03
 -1       344-4.47094E+00-3.07851E+01 4.37727E-01 9.42859E+00 6.84550E-03 4.60167E-03
 -1       345-4.47150E+00-3.07788E+01 4.41666E-01 9.42419E+00 4.82274E-03 3.25261E-03
 -1       346-4.47163E+00-3.07756E+01 4.43776E-01 9.42205E+00 1.72061E-03 1.16081E-03
 -1       347-4.47163E+00-3.07756E+01 4.43776E-01 9.42205E+00-1.72061E-03-1.16081E-03
 -1       348-4.47150E+00-3.07788E+01 4.41666E-01 9.42419E+00-4.82274E-03-3.25261E-03
 -1       349-4.47094E+00-3.07851E+01 4.37727E-01 9.42859E+00-6.84550E-03-4.60167E-03
 -1       350-4.46930E+00-3.07936E+01 4.32598E-01 9.43551E+00-6.84528E-03-4.52290E-03
 -1       351-4.46538E+00-3.08031E+01 4.27438E-01 9.44544E+00-3.47470E-03-1.98818E-03
 -1       352-1.06228E+01-1.94367E+01 2.81439E-01 1.31044E+01 1.33164E-02-1.23780E-02
 -1       353-1.06230E+01-1.94358E+01 2.90407E-01 1.30923E+01 1.51357E-02-4.61950E-03
 -1       354-1.06205E+01-1.94333E+01 2.98949E-01 1.30838E+01 1.30785E-02-1.13717E-03
 -1       355-1.06178E+01-1.94308E+01 3.05405E-01 1.30783E+01 8.68269E-03 5.57410E-05
 -1       356-1.06161E+01-1.94294E+01 3.08840E-01 1.30756E+01 3.02701E-03 1.30093E-04
 -1       357-1.06161E+01-1.94294E+01 3.08840E-01 1.30756E+01-3.02701E-03-1.30093E-04
 -1       358-1.06178E+01-1.94308E+01 3.05405E-01 1.30783E+01-8.68269E-03-5.57410E-05
 -1       359-1.06205E+01-1.94333E+01 2.98949E-01 1.30838E+01-1.30785E-02 1.13717E-03
 -1       360-1.06230E+01-1.94358E+01 2.90407E-01 1.30923E+01-1.51357E-02 4.61950E-03
 -1       361-1.06228E+01-1.94367E+01 2.81439E-01 1.31044E+01-1.33164E-02 1.23780E-02
 -1       362-1.37835E+01-8.00281E+00 5.86582E-01 9.50785E+00 1.41431E-02-1.53857E-02
 -1       363-1.37680E+01-8.01233E+00 5.81305E-01 9.51198E+00 1.33270E-02-2.07072E-02
 -1       364-1.37583E+01-8.01908E+00 5.76009E-01 9.51419E+00 1.06988E-02-1.88839E-02
 -1       365-1.37526E+01-8.02341E+00 5.71913E-01 9.51531E+00 6.87129E-03-1.28188E-02
 -1       366-1.37500E+01-8.02552E+00 5.69706E-01 9.51577E+00 2.36374E-03-4.50731E-03
 -1       367-1.37500E+01-8.02552E+00 5.69706E-01 9.51577E+00-2.36374E-03 4.50731E-03
 -1       368-1.37526E+01-8.02341E+00 5.71913E-01 9.51531E+00-6.87129E-03 1.28188E-02
 -1       369-1.37583E+01-8.01908E+00 5.76009E-01 9.51419E+00-1.06988E-02 1.88839E-02
 -1       370-1.37680E+01-8.01233E+00 5.81305E-01 9.51198E+00-1.33270E-02 2.07072E-02
 -1       371-1.37835E+01-8.00281E+00 5.86582E-01 9.50785E+00-1.41431E-02 1.53857E-02
 -1       372-7.47801E+00-1.01748E+00-1.01669E-01 3.78888E+00-5.33401E-03 2.15452E-02
 -1       373-7.45788E+00-1.03930E+00-8.34374E-02 3.79007E+00 9.97666E-03 1.19293E-02
 -1       374-7.44095E+00-1.05082E+00-6.60077E-02 3.79089E+00 1.36663E-02 5.95613E-03
 -1       375-7.42892E+00-1.05655E+00-5.28119E-02 3.79138E+00 1.05611E-02 2.55732E-03
 -1       376-7.42271E+00-1.05889E+00-4.57796E-02 3.79161E+00 3.89074E-03 6.84184E-04
 -1       377-7.42271E+00-1.05889E+00-4.57796E-02 3.79161E+00-3.89074E-03-6.84184E-04
 -1       378-7.42892E+00-1.05655E+00-5.28119E-02 3.79138E+00-1.05611E-02-2.55732E-03
 -1       379-7.44095E+00-1.05082E+00-6.60077E-02 3.79089E+00-1.36663E-02-5.95613E-03
 -1       380-7.45788E+00-1.03930E+00-8.34374E-02 3.79007E+00-9.97666E-03-1.19293E-02
 -1       381-7.47801E+00-1.01748E+00-1.01669E-01 3.78888E+00 5.33401E-03-2.15452E-02
 -1       382-9.18856E+00-3.93808E+00-3.93803E+00-4.98842E+00-7.33398E-08-1.61980E-01
 -1       383-9.16028E+00-3.92596E+00-3.92591E+00-4.98686E+00-1.50473E-07-1.25790E-01
 -1       384-9.13905E+00-3.91686E+00-3.91681E+00-4.98553E+00-1.56375E-07-8.97271E-02
 -1       385-9.12488E+00-3.91079E+00-3.91074E+00-4.98457E+00-1.13022E-07-5.37827E-02
 -1       386-9.11780E+00-3.90775E+00-3.90770E+00-4.98406E+00-4.08362E-08-1.79183E-02
 -1       387-9.11780E+00-3.90775E+00-3.90770E+00-4.98406E+00 4.08362E-08 1.79183E-02
 -1       388-9.12488E+00-3.91079E+00-3.91074E+00-4.98457E+00 1.13022E-07 5.37827E-02
 -1       389-9.13905E+00-3.91686E+00-3.91681E+00-4.98553E+00 1.56375E-07 8.97271E-02
 -1       390-9.16028E+00-3.92596E+00-3.92591E+00-4.98686E+00 1.50473E-07 1.25790E-01
 -1       391-9.18856E+00-3.93808E+00-3.93803E+00-4.98842E+00 7.33398E-08 1.61980E-01
 -1       392-1.08630E+01-4.65577E+00-4.65567E+00-5.70777E+00 6.79621E-08-1.35589E-01
 -1       393-1.08372E+01-4.64468E+00-4.64458E+00-5.70185E+00 3.48317E-08-1.05637E-01
 -1       394-1.08180E+01-4.63647E+00-4.63637E+00-5.69748E+00 1.21699E-08-7.55432E-02
 -1       395-1.08054E+01-4.63105E+00-4.63095E+00-5.69460E+00 1.40494E-09-4.53584E-02
 -1       396-1.07991E+01-4.62835E+00-4.62825E+00-5.69317E+00-5.91282E-10-1.51246E-02
 -1       397-1.07991E+01-4.62835E+00-4.62825E+00-5.69317E+00 5.91239E-10 1.51246E-02
 -1       398-1.08054E+01-4.63105E+00-4.63095E+00-5.69460E+00-1.40497E-09 4.53584E-02
 -1       399-1.08180E+01-4.63647E+00-4.63637E+00-5.69748E+00-1.21699E-08 7.55432E-02
 -1       400-1.08372E+01-4.64468E+00-4.64458E+00-5.70185E+00-3.48317E-08 1.05637E-01
 -1       401-1.08630E+01-4.65577E+00-4.65567E+00-5.70777E+00-6.79621E-08 1.35589E-01
 -1       402-1.10885E+01-4.75246E+00-4.75232E+00-6.76970E+00-6.10344E-08-8.32858E-02
 -1       403-1.10679E+01-4.74360E+00-4.74346E+00-6.75924E+00-3.04473E-08-6.48395E-02
 -1       404-1.10525E+01-4.73701E+00-4.73687E+00-6.75138E+00-1.31053E-08-4.63530E-02
 -1       405-1.10423E+01-4.73264E+00-4.73250E+00-6.74613E+00-4.52589E-09-2.78290E-02
 -1       406-1.10372E+01-4.73047E+00-4.73033E+00-6.74351E+00-9.64744E-10-9.27936E-03
 -1       407-1.10372E+01-4.73047E+00-4.73033E+00-6.74351E+00 9.64724E-10 9.27936E-03
 -1       408-1.10423E+01-4.73264E+00-4.73250E+00-6.74613E+00 4.52586E-09 2.78290E-02
 -1       409-1.10525E+01-4.73701E+00-4.73687E+00-6.75138E+00 1.31053E-08 4.63530E-02
 -1       410-1.10679E+01-4.74360E+00-4.74346E+00-6.75924E+00 3.04472E-08 6.48395E-02
 -1       411-1.10885E+01-4.75246E+00-4.75232E+00-6.76970E+00 6.10344E-08 8.32858E-02
 -1       412-1.00470E+01-4.30613E+00-4.30595E+00-8.16535E+00 5.85870E-08 1.92810E-03
 -1       413-1.00362E+01-4.30149E+00-4.30131E+00-8.14955E+00 5.93023E-08 1.36088E-03
 -1       414-1.00281E+01-4.29800E+00-4.29782E+00-8.13775E+00 5.16359E-08 9.03531E-04
 -1       415-1.00226E+01-4.29567E+00-4.29549E+00-8.12990E+00 3.50721E-08 5.16148E-04
 -1       416-1.00199E+01-4.29451E+00-4.29433E+00-8.12597E+00 1.24025E-08 1.67849E-04
 -1       417-1.00199E+01-4.29451E+00-4.29433E+00-8.12597E+00-1.24024E-08-1.67849E-04
 -1       418-1.00226E+01-4.29567E+00-4.29549E+00-8.12990E+00-3.50720E-08-5.16148E-04
 -1       419-1.00281E+01-4.29800E+00-4.29782E+00-8.13775E+00-5.16359E-08-9.03531E-04
 -1       420-1.00362E+01-4.30149E+00-4.30131E+00-8.14955E+00-5.93022E-08-1.36088E-03
 -1       421-1.00470E+01-4.30613E+00-4.30595E+00-8.16535E+00-5.85870E-08-1.92810E-03
 -1       422-7.79479E+00-3.34090E+00-3.34068E+00-9.89066E+00 2.95565E-07 1.29610E-01
 -1       423-7.80118E+00-3.34363E+00-3.34342E+00-9.86832E+00 2.85202E-07 1.00510E-01
 -1       424-7.80561E+00-3.34553E+00-3.34532E+00-9.85172E+00 2.30119E-07 7.16372E-02
 -1       425-7.80839E+00-3.34672E+00-3.34651E+00-9.84072E+00 1.48028E-07 4.29207E-02
 -1       426-7.80973E+00-3.34730E+00-3.34709E+00-9.83525E+00 5.09576E-08 1.42967E-02
 -1       427-7.80973E+00-3.34730E+00-3.34709E+00-9.83525E+00-5.09576E-08-1.42967E-02
 -1       428-7.80839E+00-3.34672E+00-3.34651E+00-9.84072E+00-1.48028E-07-4.29207E-02
 -1       429-7.80561E+00-3.34553E+00-3.34532E+00-9.85172E+00-2.30119E-07-7.16372E-02
 -1       430-7.80118E+00-3.34363E+00-3.34342E+00-9.86832E+00-2.85202E-07-1.00510E-01
 -1       431-7.79479E+00-3.34090E+00-3.34068E+00-9.89066E+00-2.95565E-07-1.29610E-01
 -1       432-4.31567E+00-1.84985E+00-1.84960E+00-1.19275E+01 6.40397E-07 3.10356E-01
 -1       433-4.35220E+00-1.86550E+00-1.86526E+00-1.18977E+01 5.75589E-07 2.40801E-01
 -1       434-4.37840E+00-1.87673E+00-1.87649E+00-1.18755E+01 4.53961E-07 1.71679E-01
 -1       435-4.39530E+00-1.88397E+00-1.88373E+00-1.18609E+01 2.89403E-07 1.02878E-01
 -1       436-4.40358E+00-1.88752E+00-1.88728E+00-1.18536E+01 9.92698E-08 3.42710E-02
 -1       437-4.40358E+00-1.88752E+00-1.88728E+00-1.18536E+01-9.92698E-08-3.42710E-02
 -1       438-4.39530E+00-1.88397E+00-1.88373E+00-1.18609E+01-2.89403E-07-1.02878E-01
 -1       439-4.37840E+00-1.87673E+00-1.87649E+00-1.18755E+01-4.53961E-07-1.71679E-01
 -1       440-4.35220E+00-1.86550E+00-1.86526E+00-1.18977E+01-5.75589E-07-2.40801E-01
 -1       441-4.31567E+00-1.84985E+00-1.84960E+00-1.19275E+01-6.40397E-07-3.10356E-01
 -1       442 3.88434E-01 1.66221E-01 1.66476E-01-1.42127E+01 8.36619E-07 5.52848E-01
 -1       443 2.99044E-01 1.27912E-01 1.28166E-01-1.41746E+01 7.62288E-07 4.28723E-01
 -1       444 2.35330E-01 1.00607E-01 1.00860E-01-1.41463E+01 5.85073E-07 3.05551E-01
 -1       445 1.94375E-01 8.30548E-02 8.33071E-02-1.41277E+01 3.62436E-07 1.83058E-01
 -1       446 1.74341E-01 7.44691E-02 7.47211E-02-1.41185E+01 1.22263E-07 6.09736E-02
 -1       447 1.74341E-01 7.44691E-02 7.47211E-02-1.41185E+01-1.22263E-07-6.09736E-02
 -1       448 1.94375E-01 8.30548E-02 8.33071E-02-1.41277E+01-3.62436E-07-1.83058E-01
 -1       449 2.35330E-01 1.00607E-01 1.00860E-01-1.41463E+01-5.85073E-07-3.05551E-01
 -1       450 2.99044E-01 1.27912E-01 1.28166E-01-1.41746E+01-7.62288E-07-4.28723E-01
 -1       451 3.88434E-01 1.66221E-01 1.66476E-01-1.42127E+01-8.36619E-07-5.52848E-01
 -1       452 5.98941E+00 2.56670E+00 2.56694E+00-1.65709E+01 6.81717E-07 8.54951E-01
 -1       453 5.80986E+00 2.48975E+00 2.48999E+00-1.65245E+01 3.30257E-07 6.62675E-01
 -1       454 5.68216E+00 2.43502E+00 2.43526E+00-1.64901E+01 1.27257E-07 4.71969E-01
 -1       455 5.60004E+00 2.39982E+00 2.40006E+00-1.64672E+01 3.26631E-08 2.82593E-01
 -1       456 5.55984E+00 2.38259E+00 2.38283E+00-1.64558E+01 3.59775E-09 9.40954E-02
 -1       457 5.55984E+00 2.38259E+00 2.38283E+00-1.64558E+01-3.59775E-09-9.40954E-02
 -1       458 5.60004E+00 2.39982E+00 2.40006E+00-1.64672E+01-3.26631E-08-2.82593E-01
 -1       459 5.68216E+00 2.43502E+00 2.43526E+00-1.64901E+01-1.27257E-07-4.71969E-01
 -1       460 5.80986E+00 2.48975E+00 2.48999E+00-1.65245E+01-3.30257E-07-6.62675E-01
 -1       461 5.98941E+00 2.56670E+00 2.56694E+00-1.65709E+01-6.81717E-07-8.54951E-01
 -1       462 1.05407E+01 4.51737E+00 4.51755E+00-1.86221E+01-1.49944E-06 1.20528E+00
 -1       463 1.01742E+01 4.36027E+00 4.36045E+00-1.85638E+01-1.23647E-06 9.30021E-01
 -1       464 9.91338E+00 4.24851E+00 4.24869E+00-1.85176E+01-9.08927E-07 6.60210E-01
 -1       465 9.74683E+00 4.17713E+00 4.17731E+00-1.84858E+01-5.52143E-07 3.94472E-01
 -1       466 9.66584E+00 4.14242E+00 4.14260E+00-1.84697E+01-1.84824E-07 1.31214E-01
 -1       467 9.66584E+00 4.14242E+00 4.14260E+00-1.84697E+01 1.84824E-07-1.31214E-01
 -1       468 9.74683E+00 4.17713E+00 4.17731E+00-1.84858E+01 5.52143E-07-3.94472E-01
 -1       469 9.91338E+00 4.24851E+00 4.24869E+00-1.85176E+01 9.08927E-07-6.60210E-01
 -1       470 1.01742E+01 4.36027E+00 4.36045E+00-1.85638E+01 1.23647E-06-9.30021E-01
 -1       471 1.05407E+01 4.51737E+00 4.51755E+00-1.86221E+01 1.49944E-06-1.20528E+00
 -1       472 9.88382E+01 7.11422E+01 3.18070E+00 3.82834E+01-8.46509E+00 1.23543E+00
 -1       473 1.01204E+02 6.82627E+01 7.25640E+00 3.75595E+01-3.11641E+00 1.13946E+00
 -1       474 1.03094E+02 6.74547E+01 1.09821E+01 3.71403E+01-9.60524E-01 1.02913E+00
 -1       475 1.04372E+02 6.73580E+01 1.37155E+01 3.69166E+01-1.92032E-01 7.18976E-01
 -1       476 1.05012E+02 6.74118E+01 1.51436E+01 3.68204E+01-9.75751E-03 2.57258E-01
 -1       477 1.05012E+02 6.74118E+01 1.51436E+01 3.68204E+01 9.75751E-03-2.57258E-01
 -1       478 1.04372E+02 6.73580E+01 1.37155E+01 3.69166E+01 1.92032E-01-7.18976E-01
 -1       479 1.03094E+02 6.74547E+01 1.09821E+01 3.71403E+01 9.60524E-01-1.02913E+00
 -1       480 1.01204E+02 6.82627E+01 7.25640E+00 3.75595E+01 3.11641E+00-1.13946E+00
 -1       481 9.88382E+01 7.11422E+01 3.18070E+00 3.82834E+01 8.46509E+00-1.23543E+00
 -1       482 5.97144E+01 4.00631E+01 4.54864E+00 3.81555E+01 1.88891E+00 1.26059E+00
 -1       483 5.96501E+01 4.05408E+01 2.52863E+00 3.88679E+01 3.11444E-01-1.55693E-01
 -1       484 5.97214E+01 4.05881E+01 1.16852E+00 3.92935E+01-1.69246E-01-5.97662E-01
 -1       485 5.98188E+01 4.05328E+01 3.44057E-01 3.95301E+01-2.10157E-01-5.20515E-01
 -1       486 5.98810E+01 4.04882E+01-4.22062E-02 3.96353E+01-8.42425E-02-1.97432E-01
 -1       487 5.98810E+01 4.04882E+01-4.22062E-02 3.96353E+01 8.42425E-02 1.97432E-01
 -1       488 5.98188E+01 4.05328E+01 3.44057E-01 3.95301E+01 2.10157E-01 5.20515E-01
 -1       489 5.97214E+01 4.05881E+01 1.16852E+00 3.92935E+01 1.69246E-01 5.97662E-01
 -1       490 5.96501E+01 4.05408E+01 2.52863E+00 3.88679E+01-3.11444E-01 1.55693E-01
 -1       491 5.97144E+01 4.00631E+01 4.54864E+00 3.81555E+01-1.88891E+00-1.26059E+00
 -1       492 4.17428E+01 7.76076E+01 2.59680E+00 4.05732E+01-6.93740E-01-1.62249E-01
 -1       493 4.20672E+01 7.79885E+01 4.01017E+00 4.07245E+01 2.32737E-02 1.60673E-01
 -1       494 4.22737E+01 7.83411E+01 4.80859E+00 4.08552E+01 1.94072E-01 2.00605E-01
 -1       495 4.24025E+01 7.85909E+01 5.23794E+00 4.09518E+01 1.61302E-01 1.39257E-01
 -1       496 4.24656E+01 7.87178E+01 5.42554E+00 4.10029E+01 5.91319E-02 4.82594E-02
 -1       497 4.24656E+01 7.87178E+01 5.42554E+00 4.10029E+01-5.91319E-02-4.82594E-02
 -1       498 4.24025E+01 7.85909E+01 5.23794E+00 4.09518E+01-1.61302E-01-1.39257E-01
 -1       499 4.22737E+01 7.83411E+01 4.80859E+00 4.08552E+01-1.94072E-01-2.00605E-01
 -1       500 4.20672E+01 7.79885E+01 4.01017E+00 4.07245E+01-2.32737E-02-1.60673E-01
 -1       501 4.17428E+01 7.76076E+01 2.59680E+00 4.05732E+01 6.93740E-01 1.62249E-01
 -1       502 2.34136E+01 1.07902E+02 2.53789E+00 2.74756E+01 1.46428E-02 3.17670E-01
 -1       503 2.32536E+01 1.08108E+02 2.61360E+00 2.77096E+01 1.73242E-02-2.39831E-02
 -1       504 2.32610E+01 1.08330E+02 2.88225E+00 2.78463E+01 5.27410E-02-1.14395E-01
 -1       505 2.33103E+01 1.08504E+02 3.13605E+00 2.79207E+01 5.40636E-02-9.70258E-02
 -1       506 2.33456E+01 1.08599E+02 3.28098E+00 2.79533E+01 2.21610E-02-3.61990E-02
 -1       507 2.33456E+01 1.08599E+02 3.28098E+00 2.79533E+01-2.21610E-02 3.61990E-02
 -1       508 2.33103E+01 1.08504E+02 3.13605E+00 2.79207E+01-5.40636E-02 9.70258E-02
 -1       509 2.32610E+01 1.08330E+02 2.88225E+00 2.78463E+01-5.27410E-02 1.14395E-01
 -1       510 2.32536E+01 1.08108E+02 2.61360E+00 2.77096E+01-1.73242E-02 2.39831E-02
 -1       511 2.34136E+01 1.07902E+02 2.53789E+00 2.74756E+01-1.46428E-02-3.17670E-01
 -1       512 1.60253E+01 1.21542E+02 2.32039E+00-2.66350E-02-1.25808E-02 3.00917E-01
 -1       513 1.59100E+01 1.22088E+02 2.83534E+00-2.65262E-02 2.32423E-02 4.48237E-02
 -1       514 1.58816E+01 1.22493E+02 3.21276E+00-2.37682E-02 1.53984E-02-5.76803E-02
 -1       515 1.58889E+01 1.22762E+02 3.46816E+00-2.02991E-02 5.74218E-03-6.71164E-02
 -1       516 1.58999E+01 1.22896E+02 3.59813E+00-1.80900E-02 1.14865E-03-2.74574E-02
 -1       517 1.58999E+01 1.22896E+02 3.59813E+00-1.80900E-02-1.14865E-03 2.74574E-02
 -1       518 1.58889E+01 1.22762E+02 3.46816E+00-2.02991E-02-5.74218E-03 6.71164E-02
 -1       519 1.58816E+01 1.22493E+02 3.21276E+00-2.37682E-02-1.53984E-02 5.76803E-02
 -1       520 1.59100E+01 1.22088E+02 2.83534E+00-2.65262E-02-2.32423E-02-4.48237E-02
 -1       521 1.60253E+01 1.21542E+02 2.32039E+00-2.66350E-02 1.25808E-02-3.00917E-01
 -1       522 2.30953E+01 1.07870E+02 2.19383E+00-2.72435E+01 4.45821E-02 2.85567E-01
 -1       523 2.30670E+01 1.08261E+02 2.61855E+00-2.74806E+01-9.10095E-02 4.86945E-02
 -1       524 2.31179E+01 1.08587E+02 2.99598E+00-2.76338E+01-1.14371E-01-4.04530E-02
 -1       525 2.31783E+01 1.08816E+02 3.26720E+00-2.77263E+01-8.47519E-02-5.00760E-02
 -1       526 2.32152E+01 1.08933E+02 3.40738E+00-2.77700E+01-3.06545E-02-2.06082E-02
 -1       527 2.32152E+01 1.08933E+02 3.40738E+00-2.77700E+01 3.06545E-02 2.06082E-02
 -1       528 2.31783E+01 1.08816E+02 3.26720E+00-2.77263E+01 8.47519E-02 5.00760E-02
 -1       529 2.31179E+01 1.08587E+02 2.99598E+00-2.76338E+01 1.14371E-01 4.04530E-02
 -1       530 2.30670E+01 1.08261E+02 2.61855E+00-2.74806E+01 9.10095E-02-4.86945E-02
 -1       531 2.30953E+01 1.07870E+02 2.19383E+00-2.72435E+01-4.45821E-02-2.85567E-01
 -1       532 3.73718E+01 7.44944E+01 1.97326E+00-3.90452E+01 3.26132E-02 3.26912E-01
 -1       533 3.75614E+01 7.45908E+01 2.26282E+00-3.93625E+01-1.28297E-01 1.39916E-01
 -1       534 3.77392E+01 7.47043E+01 2.52422E+00-3.95655E+01-1.65969E-01 5.31742E-02
 -1       535 3.78715E+01 7.47969E+01 2.71839E+00-3.96864E+01-1.26931E-01 1.66110E-02
 -1       536 3.79412E+01 7.48478E+01 2.82112E+00-3.97429E+01-4.66310E-02 3.28806E-03
 -1       537 3.79412E+01 7.48478E+01 2.82112E+00-3.97429E+01 4.66310E-02-3.28806E-03
 -1       538 3.78715E+01 7.47969E+01 2.71839E+00-3.96864E+01 1.26931E-01-1.66110E-02
 -1       539 3.77392E+01 7.47043E+01 2.52422E+00-3.95655E+01 1.65969E-01-5.31742E-02
 -1       540 3.75614E+01 7.45908E+01 2.26282E+00-3.93625E+01 1.28297E-01-1.39916E-01
 -1       541 3.73718E+01 7.44944E+01 1.97326E+00-3.90452E+01-3.26132E-02-3.26912E-01
 -1       542 4.12711E+01 3.72021E+01 2.70568E-01-3.17838E+01 5.85064E-02 1.94031E-01
 -1       543 4.17465E+01 3.70158E+01 6.71771E-01-3.18763E+01-2.10990E-01 2.52506E-01
 -1       544 4.20836E+01 3.69633E+01 1.02937E+00-3.19376E+01-2.64041E-01 2.28472E-01
 -1       545 4.22992E+01 3.69622E+01 1.28804E+00-3.19755E+01-1.97859E-01 1.54802E-01
 -1       546 4.24042E+01 3.69706E+01 1.42232E+00-3.19936E+01-7.19923E-02 5.44160E-02
 -1       547 4.24042E+01 3.69706E+01 1.42232E+00-3.19936E+01 7.19923E-02-5.44160E-02
 -1       548 4.22992E+01 3.69622E+01 1.28804E+00-3.19755E+01 1.97859E-01-1.54802E-01
 -1       549 4.20836E+01 3.69633E+01 1.02937E+00-3.19376E+01 2.64041E-01-2.28472E-01
 -1       550 4.17465E+01 3.70158E+01 6.71771E-01-3.18763E+01 2.10990E-01-2.52506E-01
 -1       551 4.12711E+01 3.72021E+01 2.70568E-01-3.17838E+01-5.85064E-02-1.94031E-01
 -1       552 2.18692E+01 1.20729E+01 2.48013E+00-1.63084E+01-4.31482E-02-7.30662E-02
 -1       553 2.18419E+01 1.19384E+01 2.37732E+00-1.60940E+01-6.30053E-02 2.39188E-01
 -1       554 2.17911E+01 1.18363E+01 2.25156E+00-1.59688E+01-5.96473E-02 3.06498E-01
 -1       555 2.17459E+01 1.17683E+01 2.14959E+00-1.58997E+01-4.13878E-02 2.32285E-01
 -1       556 2.17205E+01 1.17344E+01 2.09401E+00-1.58690E+01-1.47069E-02 8.49480E-02
 -1       557 2.17205E+01 1.17344E+01 2.09401E+00-1.58690E+01 1.47069E-02-8.49480E-02
 -1       558 2.17459E+01 1.17683E+01 2.14959E+00-1.58997E+01 4.13878E-02-2.32285E-01
 -1       559 2.17911E+01 1.18363E+01 2.25156E+00-1.59688E+01 5.96473E-02-3.06498E-01
 -1       560 2.18419E+01 1.19384E+01 2.37732E+00-1.60940E+01 6.30053E-02-2.39188E-01
 -1       561 2.18692E+01 1.20729E+01 2.48013E+00-1.63084E+01 4.31482E-02 7.30662E-02
 -1       562 2.59106E+01 3.41605E+01 2.63304E+00 1.35461E+01-3.69100E+00-3.53407E-01
 -1       563 2.23456E+01 2.65164E+01-4.05200E-01 1.96894E+01 2.85627E-02-1.20334E+00
 -1       564 2.06931E+01 4.85150E+01-9.96119E-01 2.22431E+01-2.55937E-01 5.28493E-01
 -1       565 1.34009E+01 6.61467E+01-8.00587E-02 1.43435E+01-7.98243E-02 2.36647E-01
 -1       566 1.01484E+01 7.27001E+01-3.94599E-01-8.52954E-03 6.21125E-03 3.75443E-01
 -1       567 1.28773E+01 6.59460E+01-3.23100E-01-1.41543E+01 1.15640E-01 3.04331E-01
 -1       568 1.80852E+01 4.89107E+01-3.44267E-01-2.15991E+01 1.87538E-01 2.26831E-01
 -1       569 1.95648E+01 2.95842E+01 2.49815E-01-2.11635E+01 1.75698E-01 1.19922E-01
 -1       570 1.40180E+01 1.13765E+01-3.91554E-01-1.74780E+01-3.25456E-02 2.68573E-01
 -1       571 2.76606E+00 1.68543E+01 1.30208E+00 1.52465E+01-4.92305E-01-1.41656E-01
 -1       572 9.67612E+00 3.03998E+01-1.29731E-01 8.46624E+00-4.10207E-01-4.24135E-01
 -1       573 1.25214E+01 3.70424E+01-1.32821E+00 8.21869E+00-1.37224E-01 2.34340E-01
 -1       574 1.46863E+01 4.47841E+01-8.49433E-01 4.63868E+00-9.77107E-02 2.14866E-01
 -1       575 1.52224E+01 4.71613E+01-7.95015E-01-1.33517E-02 3.80535E-03 2.76053E-01
 -1       576 1.42301E+01 4.51085E+01-7.27063E-01-4.62797E+00 9.77643E-02 2.29826E-01
 -1       577 1.15644E+01 3.89998E+01-6.06744E-01-9.14554E+00 1.47021E-01 1.87891E-01
 -1       578 8.51098E+00 2.91210E+01 3.18362E-02-1.37150E+01 1.52615E-01 2.72797E-03
 -1       579 5.61892E+00 1.26647E+01-9.70456E-01-1.74781E+01 3.33242E-02 1.82784E-01
 -1       580-6.29098E+00 8.75624E+00 4.23576E-01 1.45178E+01-3.09996E-01-4.43554E-02
 -1       581 9.20354E-01 2.82102E+01 8.95377E-01 4.25291E+00-1.09895E-01-1.74567E-01
 -1       582 7.85164E+00 2.86693E+01-3.63573E-01 2.64951E-01-1.08530E-01 7.37711E-02
 -1       583 1.36340E+01 2.93736E+01-1.93772E-01-7.27979E-01-3.97355E-02 1.07346E-01
 -1       584 1.59924E+01 2.93943E+01-6.04953E-02-1.02591E-02-4.04881E-04 1.27383E-01
 -1       585 1.32903E+01 2.98913E+01 3.60706E-04 5.03555E-01 4.59846E-02 1.05107E-01
 -1       586 7.10344E+00 2.96728E+01-2.11332E-04-2.09356E+00 6.36445E-02 9.78320E-02
 -1       587 1.76755E+00 2.50471E+01 2.31397E-01-8.34177E+00 6.41229E-02-2.03336E-02
 -1       588 6.70003E-01 1.28131E+01-7.32455E-01-1.42695E+01 5.01520E-02 1.48268E-01
 -1       589-9.39686E+00 4.86712E+00-2.39930E-01 1.20078E+01-9.03749E-02 8.93589E-03
 -1       590-4.57004E+00 2.31141E+01 7.30835E-01 1.78589E+00-9.44122E-02-1.34794E-02
 -1       591 3.88486E+00 2.09736E+01 7.35322E-02-4.21149E+00-8.93227E-02 5.89584E-02
 -1       592 1.15028E+01 1.71973E+01-4.17204E-03-3.87812E+00-4.21016E-02 1.19245E-01
 -1       593 1.46098E+01 1.55936E+01 1.01073E-01-1.13364E-02 3.03191E-04 1.31529E-01
 -1       594 1.11757E+01 1.75693E+01 1.46045E-01 3.51363E+00 4.15144E-02 1.14632E-01
 -1       595 3.49496E+00 2.08597E+01 1.02901E-01 2.32536E+00 6.08372E-02 9.74606E-02
 -1       596-2.67929E+00 2.00516E+01 8.82093E-02-4.12240E+00 6.33046E-02 1.12094E-02
 -1       597-2.88115E+00 1.20685E+01-2.54021E-01-1.09299E+01 4.42274E-02 1.00578E-01
 -1       598-1.01884E+01 2.97494E+00-4.84951E-01 9.07612E+00-2.11419E-02 1.20526E-02
 -1       599-7.69443E+00 1.74340E+01 5.62493E-01-1.89129E-01-5.44024E-02 3.45242E-02
 -1       600 5.55510E-01 1.35653E+01 2.91319E-01-6.82442E+00-6.80897E-02 5.50273E-02
 -1       601 8.87831E+00 7.05876E+00 1.89101E-01-5.76162E+00-3.33129E-02 1.04392E-01
 -1       602 1.22820E+01 4.31779E+00 2.45093E-01-6.68170E-03 3.52283E-04 1.13389E-01
 -1       603 8.59833E+00 7.16772E+00 2.64849E-01 5.38221E+00 3.14171E-02 1.02436E-01
 -1       604 5.21283E-01 1.27409E+01 1.93937E-01 5.29879E+00 4.98733E-02 8.08216E-02
 -1       605-5.78660E+00 1.49157E+01 2.43496E-02-8.01062E-01 4.81026E-02 3.09779E-02
 -1       606-5.49640E+00 1.06494E+01 1.32356E-01-7.91613E+00 3.64922E-02 6.28020E-02
 -1       607-1.00620E+01 1.78595E+00-5.81167E-01 6.19192E+00 2.04570E-03 2.26845E-02
 -1       608-9.43595E+00 1.18576E+01 3.89676E-01-1.99928E+00-3.50491E-02 5.11368E-02
 -1       609-2.18523E+00 6.42095E+00 3.65736E-01-8.46788E+00-5.22960E-02 5.68844E-02
 -1       610 6.07375E+00-1.82612E+00 2.92168E-01-6.91926E+00-2.69045E-02 9.75719E-02
 -1       611 9.52956E+00-5.35470E+00 3.13332E-01 8.02661E-04 6.05811E-04 1.03387E-01
 -1       612 5.86228E+00-1.95493E+00 3.08704E-01 6.62285E+00 2.50965E-02 9.67219E-02
 -1       613-2.03750E+00 5.23982E+00 2.41541E-01 7.44947E+00 4.30135E-02 7.09163E-02
 -1       614-8.04108E+00 9.80817E+00-2.56191E-02 1.87697E+00 4.00739E-02 4.83564E-02
 -1       615-7.30648E+00 8.79100E+00 3.88516E-01-5.24848E+00 2.54032E-02 3.28895E-02
 -1       616-9.53571E+00 8.01975E-01-6.05585E-01 3.51344E+00 1.11879E-02 2.62390E-02
 -1       617-1.03235E+01 6.55466E+00 2.65152E-01-3.71772E+00-2.44498E-02 5.47112E-02
 -1       618-4.42771E+00-4.40226E-01 3.89056E-01-9.60598E+00-4.08254E-02 5.98898E-02
 -1       619 3.28236E+00-9.86380E+00 3.59051E-01-7.66720E+00-2.13867E-02 9.25191E-02
 -1       620 6.63375E+00-1.39325E+01 3.53014E-01 5.96731E-03 1.03085E-03 9.61980E-02
 -1       621 3.12533E+00-1.01542E+01 3.28816E-01 7.50023E+00 2.05043E-02 9.18202E-02
 -1       622-4.30672E+00-1.72256E+00 2.83136E-01 9.12125E+00 3.68046E-02 6.55406E-02
 -1       623-9.67913E+00 4.78855E+00-2.94265E-02 4.11748E+00 3.45516E-02 5.95830E-02
 -1       624-8.35412E+00 6.59357E+00 5.01467E-01-2.81697E+00 1.64310E-02 1.18112E-02
 -1       625-8.77209E+00-1.46990E-01-6.13668E-01 1.08283E+00 1.56336E-02 2.73954E-02
 -1       626-1.06376E+01 1.47547E+00 1.66398E-01-5.36245E+00-1.62499E-02 5.04890E-02
 -1       627-6.28778E+00-7.03920E+00 3.92626E-01-1.04909E+01-3.08910E-02 6.17956E-02
 -1       628 5.72944E-01-1.73112E+01 3.91029E-01-8.19967E+00-1.56630E-02 8.56977E-02
 -1       629 3.72219E+00-2.17421E+01 3.60573E-01 4.50188E-03 1.35906E-03 8.74749E-02
 -1       630 4.42970E-01-1.76729E+01 3.21085E-01 8.15314E+00 1.65754E-02 8.44640E-02
 -1       631-6.39390E+00-8.23845E+00 3.00996E-01 1.05163E+01 2.77583E-02 6.11204E-02
 -1       632-1.08991E+01-9.71565E-02 3.43158E-02 6.08504E+00 3.23405E-02 6.59644E-02
 -1       633-8.63356E+00 4.02927E+00 4.34794E-01-4.37504E-01 1.96316E-03-4.08408E-03
 -1       634-7.76894E+00-1.13224E+00-6.25301E-01-1.09202E+00 1.51130E-02 2.49603E-02
 -1       635-1.04494E+01-3.48100E+00 1.37788E-01-6.95459E+00-1.57769E-02 4.40041E-02
 -1       636-7.86034E+00-1.33852E+01 4.40063E-01-1.12765E+01-2.57090E-02 6.63845E-02
 -1       637-2.02191E+00-2.43073E+01 4.45288E-01-8.63296E+00-1.25852E-02 8.45029E-02
 -1       638 8.75119E-01-2.89671E+01 3.98416E-01-5.49927E-03 1.28278E-03 8.59366E-02
 -1       639-2.14070E+00-2.46465E+01 3.45651E-01 8.65668E+00 1.63155E-02 8.12998E-02
 -1       640-8.34219E+00-1.43898E+01 3.30001E-01 1.17318E+01 2.22772E-02 6.51121E-02
 -1       641-1.19589E+01-4.70906E+00 1.95355E-01 7.90697E+00 3.16904E-02 6.54106E-02
 -1       642-8.01825E+00 9.78229E-01 2.79642E-01 2.17984E+00-1.24450E-03-1.31175E-02
 -1       643 2.65560E+01 3.00303E+01 2.17138E+00 1.42958E+01 1.93610E+00-2.87934E-01
 -1       644 2.77548E+01 2.80338E+01 2.67248E+00 1.45156E+01 9.28050E-01-5.97134E-01
 -1       645 2.85771E+01 2.67970E+01 2.72089E+00 1.45668E+01 6.08692E-01-6.09305E-01
 -1       646 2.90895E+01 2.60845E+01 2.66258E+00 1.45709E+01 3.87229E-01-4.28264E-01
 -1       647 2.93355E+01 2.57598E+01 2.61686E+00 1.45673E+01 1.35706E-01-1.51958E-01
 -1       648 2.93355E+01 2.57598E+01 2.61686E+00 1.45673E+01-1.35706E-01 1.51958E-01
 -1       649 2.90895E+01 2.60845E+01 2.66258E+00 1.45709E+01-3.87229E-01 4.28264E-01
 -1       650 2.85771E+01 2.67970E+01 2.72089E+00 1.45668E+01-6.08692E-01 6.09305E-01
 -1       651 2.77548E+01 2.80338E+01 2.67248E+00 1.45156E+01-9.28050E-01 5.97134E-01
 -1       652 2.65560E+01 3.00303E+01 2.17138E+00 1.42958E+01-1.93610E+00 2.87934E-01
 -1       653 2.21560E+01 2.68446E+01-7.46718E-01 2.01304E+01-5.32190E-02 1.08773E+00
 -1       654 2.20042E+01 2.67335E+01-1.54220E+00 2.04957E+01 8.30742E-02 7.43610E-01
 -1       655 2.19831E+01 2.65644E+01-2.19057E+00 2.07574E+01 5.26925E-02 4.39460E-01
 -1       656 2.20058E+01 2.64179E+01-2.64757E+00 2.09222E+01 1.70479E-02 2.18376E-01
 -1       657 2.20268E+01 2.63359E+01-2.88320E+00 2.10013E+01 2.50129E-03 6.45172E-02
 -1       658 2.20268E+01 2.63359E+01-2.88320E+00 2.10013E+01-2.50129E-03-6.45172E-02
 -1       659 2.20058E+01 2.64179E+01-2.64757E+00 2.09222E+01-1.70479E-02-2.18376E-01
 -1       660 2.19831E+01 2.65644E+01-2.19057E+00 2.07574E+01-5.26925E-02-4.39460E-01
 -1       661 2.20042E+01 2.67335E+01-1.54220E+00 2.04957E+01-8.30742E-02-7.43610E-01
 -1       662 2.21560E+01 2.68446E+01-7.46718E-01 2.01304E+01 5.32190E-02-1.08773E+00
 -1       663 2.04882E+01 4.82621E+01-1.03465E+00 2.25193E+01 1.03935E-02-2.30486E-01
 -1       664 2.03506E+01 4.82109E+01-9.28539E-01 2.26823E+01 3.16780E-02-7.86819E-02
 -1       665 2.02410E+01 4.82116E+01-8.62929E-01 2.27862E+01 5.90143E-02-2.17922E-03
 -1       666 2.01680E+01 4.82255E+01-8.31297E-01 2.28507E+01 5.30479E-02 1.91868E-02
 -1       667 2.01319E+01 4.82356E+01-8.19943E-01 2.28821E+01 2.07505E-02 9.63972E-03
 -1       668 2.01319E+01 4.82356E+01-8.19943E-01 2.28821E+01-2.07505E-02-9.63972E-03
 -1       669 2.01680E+01 4.82255E+01-8.31297E-01 2.28507E+01-5.30479E-02-1.91868E-02
 -1       670 2.02410E+01 4.82116E+01-8.62929E-01 2.27862E+01-5.90143E-02 2.17922E-03
 -1       671 2.03506E+01 4.82109E+01-9.28539E-01 2.26823E+01-3.16780E-02 7.86819E-02
 -1       672 2.04882E+01 4.82621E+01-1.03465E+00 2.25193E+01-1.03935E-02 2.30486E-01
 -1       673 1.27952E+01 6.60226E+01-4.03414E-01 1.46008E+01-4.46370E-02-5.93132E-03
 -1       674 1.23843E+01 6.59108E+01-7.76342E-01 1.47858E+01-4.98472E-02-6.26321E-02
 -1       675 1.21160E+01 6.58309E+01-1.08000E+00 1.49081E+01-4.23878E-02-7.66053E-02
 -1       676 1.19543E+01 6.57818E+01-1.28437E+00 1.49810E+01-2.66861E-02-5.82090E-02
 -1       677 1.18783E+01 6.57588E+01-1.38571E+00 1.50148E+01-8.91453E-03-2.13601E-02
 -1       678 1.18783E+01 6.57588E+01-1.38571E+00 1.50148E+01 8.91453E-03 2.13601E-02
 -1       679 1.19543E+01 6.57818E+01-1.28437E+00 1.49810E+01 2.66861E-02 5.82090E-02
 -1       680 1.21160E+01 6.58309E+01-1.08000E+00 1.49081E+01 4.23878E-02 7.66053E-02
 -1       681 1.23843E+01 6.59108E+01-7.76342E-01 1.47858E+01 4.98472E-02 6.26321E-02
 -1       682 1.27952E+01 6.60226E+01-4.03414E-01 1.46008E+01 4.46370E-02 5.93132E-03
 -1       683 9.45471E+00 7.27268E+01-6.49715E-01-6.16635E-03-2.56776E-03-5.11533E-02
 -1       684 8.97897E+00 7.27562E+01-9.17589E-01-8.33516E-03 3.36371E-03-5.44463E-02
 -1       685 8.65901E+00 7.27784E+01-1.15868E+00-9.26473E-03 4.83069E-03-5.30241E-02
 -1       686 8.46176E+00 7.27932E+01-1.33561E+00-9.00582E-03 3.29942E-03-3.90089E-02
 -1       687 8.36771E+00 7.28007E+01-1.42829E+00-8.55996E-03 1.09414E-03-1.43374E-02
 -1       688 8.36771E+00 7.28007E+01-1.42829E+00-8.55996E-03-1.09414E-03 1.43374E-02
 -1       689 8.46176E+00 7.27932E+01-1.33561E+00-9.00582E-03-3.29942E-03 3.90089E-02
 -1       690 8.65901E+00 7.27784E+01-1.15868E+00-9.26473E-03-4.83069E-03 5.30241E-02
 -1       691 8.97897E+00 7.27562E+01-9.17589E-01-8.33516E-03-3.36371E-03 5.44463E-02
 -1       692 9.45471E+00 7.27268E+01-6.49715E-01-6.16635E-03 2.56776E-03 5.11533E-02
 -1       693 1.23135E+01 6.58562E+01-5.89864E-01-1.44196E+01 1.78502E-02-3.86381E-02
 -1       694 1.19272E+01 6.57971E+01-8.78026E-01-1.46019E+01 1.16612E-02-5.87911E-02
 -1       695 1.16724E+01 6.57614E+01-1.12012E+00-1.47249E+01 3.84069E-03-5.97188E-02
 -1       696 1.15179E+01 6.57419E+01-1.28956E+00-1.48012E+01-7.21052E-05-4.33947E-02
 -1       697 1.14451E+01 6.57335E+01-1.37603E+00-1.48378E+01-4.61926E-04-1.57618E-02
 -1       698 1.14451E+01 6.57335E+01-1.37603E+00-1.48378E+01 4.61926E-04 1.57618E-02
 -1       699 1.15179E+01 6.57419E+01-1.28956E+00-1.48012E+01 7.21052E-05 4.33947E-02
 -1       700 1.16724E+01 6.57614E+01-1.12012E+00-1.47249E+01-3.84069E-03 5.97188E-02
 -1       701 1.19272E+01 6.57971E+01-8.78026E-01-1.46019E+01-1.16612E-02 5.87911E-02
 -1       702 1.23135E+01 6.58562E+01-5.89864E-01-1.44196E+01-1.78502E-02 3.86381E-02
 -1       703 1.78296E+01 4.85932E+01-5.59136E-01-2.19317E+01 2.98639E-02-6.45275E-02
 -1       704 1.76801E+01 4.83783E+01-7.78328E-01-2.21676E+01 2.02549E-02-6.45458E-02
 -1       705 1.75870E+01 4.82307E+01-9.79245E-01-2.23286E+01 8.93899E-03-5.80439E-02
 -1       706 1.75330E+01 4.81387E+01-1.12637E+00-2.24289E+01 2.15187E-03-4.04531E-02
 -1       707 1.75083E+01 4.80947E+01-1.20311E+00-2.24770E+01 9.15621E-05-1.44868E-02
 -1       708 1.75083E+01 4.80947E+01-1.20311E+00-2.24770E+01-9.15621E-05 1.44868E-02
 -1       709 1.75330E+01 4.81387E+01-1.12637E+00-2.24289E+01-2.15187E-03 4.04531E-02
 -1       710 1.75870E+01 4.82307E+01-9.79245E-01-2.23286E+01-8.93899E-03 5.80439E-02
 -1       711 1.76801E+01 4.83783E+01-7.78328E-01-2.21676E+01-2.02549E-02 6.45458E-02
 -1       712 1.78296E+01 4.85932E+01-5.59136E-01-2.19317E+01-2.98639E-02 6.45275E-02
 -1       713 1.96674E+01 2.89975E+01 1.59731E-02-2.12849E+01 4.80734E-02-1.32798E-01
 -1       714 1.97132E+01 2.85760E+01-2.70591E-01-2.13654E+01 3.61865E-02-1.77816E-01
 -1       715 1.97429E+01 2.82988E+01-4.96193E-01-2.14178E+01 1.81066E-02-1.55482E-01
 -1       716 1.97609E+01 2.81312E+01-6.48015E-01-2.14494E+01 6.10844E-03-1.01856E-01
 -1       717 1.97695E+01 2.80524E+01-7.23754E-01-2.14643E+01 1.09969E-03-3.51238E-02
 -1       718 1.97695E+01 2.80524E+01-7.23754E-01-2.14643E+01-1.09969E-03 3.51238E-02
 -1       719 1.97609E+01 2.81312E+01-6.48015E-01-2.14494E+01-6.10844E-03 1.01856E-01
 -1       720 1.97429E+01 2.82988E+01-4.96193E-01-2.14178E+01-1.81066E-02 1.55482E-01
 -1       721 1.97132E+01 2.85760E+01-2.70591E-01-2.13654E+01-3.61865E-02 1.77816E-01
 -1       722 1.96674E+01 2.89975E+01 1.59731E-02-2.12849E+01-4.80734E-02 1.32798E-01
 -1       723 1.41931E+01 1.13920E+01-2.47664E-01-1.72490E+01 1.06033E-01-3.06682E-01
 -1       724 1.43329E+01 1.14340E+01-3.04395E-02-1.70941E+01 1.16948E-01-1.78680E-01
 -1       725 1.44186E+01 1.14615E+01 1.36176E-01-1.69924E+01 9.69472E-02-9.21733E-02
 -1       726 1.44673E+01 1.14776E+01 2.46685E-01-1.69309E+01 6.23148E-02-4.03901E-02
 -1       727 1.44892E+01 1.14849E+01 3.01383E-01-1.69020E+01 2.13535E-02-1.09192E-02
 -1       728 1.44892E+01 1.14849E+01 3.01383E-01-1.69020E+01-2.13535E-02 1.09192E-02
 -1       729 1.44673E+01 1.14776E+01 2.46685E-01-1.69309E+01-6.23148E-02 4.03901E-02
 -1       730 1.44186E+01 1.14615E+01 1.36176E-01-1.69924E+01-9.69472E-02 9.21733E-02
 -1       731 1.43329E+01 1.14340E+01-3.04395E-02-1.70941E+01-1.16948E-01 1.78680E-01
 -1       732 1.41931E+01 1.13920E+01-2.47664E-01-1.72490E+01-1.06033E-01 3.06682E-01
 -1       733 3.33078E+00 1.60782E+01 1.16484E+00 1.50391E+01 3.83924E-01-7.98030E-02
 -1       734 3.74807E+00 1.53414E+01 1.06341E+00 1.49406E+01 5.94148E-01-8.54510E-02
 -1       735 4.16257E+00 1.48760E+01 1.18722E+00 1.48650E+01 4.84983E-01-7.97502E-02
 -1       736 4.47071E+00 1.46003E+01 1.31062E+00 1.48067E+01 3.02201E-01-5.90136E-02
 -1       737 4.63172E+00 1.44719E+01 1.37691E+00 1.47744E+01 1.01958E-01-2.19459E-02
 -1       738 4.63172E+00 1.44719E+01 1.37691E+00 1.47744E+01-1.01958E-01 2.19459E-02
 -1       739 4.47071E+00 1.46003E+01 1.31062E+00 1.48067E+01-3.02201E-01 5.90136E-02
 -1       740 4.16257E+00 1.48760E+01 1.18722E+00 1.48650E+01-4.84983E-01 7.97502E-02
 -1       741 3.74807E+00 1.53414E+01 1.06341E+00 1.49406E+01-5.94148E-01 8.54510E-02
 -1       742 3.33078E+00 1.60782E+01 1.16484E+00 1.50391E+01-3.83924E-01 7.98030E-02
 -1       743 9.66489E+00 3.02542E+01-9.04721E-02 8.80839E+00 8.62501E-02 3.89304E-01
 -1       744 9.70432E+00 3.01706E+01 3.08553E-02 9.06215E+00-1.30941E-01 3.23264E-01
 -1       745 9.73235E+00 3.00863E+01 8.94665E-02 9.24615E+00-1.56543E-01 2.40995E-01
 -1       746 9.75478E+00 3.00208E+01 1.17472E-01 9.36632E+00-1.11602E-01 1.48116E-01
 -1       747 9.76779E+00 2.99855E+01 1.28568E-01 9.42564E+00-3.96138E-02 4.98800E-02
 -1       748 9.76779E+00 2.99855E+01 1.28568E-01 9.42564E+00 3.96138E-02-4.98800E-02
 -1       749 9.75478E+00 3.00208E+01 1.17472E-01 9.36632E+00 1.11602E-01-1.48116E-01
 -1       750 9.73235E+00 3.00863E+01 8.94665E-02 9.24615E+00 1.56543E-01-2.40995E-01
 -1       751 9.70432E+00 3.01706E+01 3.08553E-02 9.06215E+00 1.30941E-01-3.23264E-01
 -1       752 9.66489E+00 3.02542E+01-9.04721E-02 8.80839E+00-8.62501E-02-3.89304E-01
 -1       753 1.25142E+01 3.69823E+01-1.26686E+00 8.35287E+00 1.26266E-03-5.25768E-02
 -1       754 1.25443E+01 3.70043E+01-1.10716E+00 8.47302E+00 1.87239E-03 4.25811E-02
 -1       755 1.25593E+01 3.70337E+01-9.87719E-01 8.56570E+00-4.91151E-03 6.74960E-02
 -1       756 1.25655E+01 3.70588E+01-9.08989E-01 8.62765E+00-6.01119E-03 5.37076E-02
 -1       757 1.25675E+01 3.70730E+01-8.70041E-01 8.65854E+00-2.51118E-03 1.99705E-02
 -1       758 1.25675E+01 3.70730E+01-8.70041E-01 8.65854E+00 2.51118E-03-1.99705E-02
 -1       759 1.25655E+01 3.70588E+01-9.08989E-01 8.62765E+00 6.01119E-03-5.37076E-02
 -1       760 1.25593E+01 3.70337E+01-9.87719E-01 8.56570E+00 4.91151E-03-6.74960E-02
 -1       761 1.25443E+01 3.70043E+01-1.10716E+00 8.47302E+00-1.87239E-03-4.25811E-02
 -1       762 1.25142E+01 3.69823E+01-1.26686E+00 8.35287E+00-1.26266E-03 5.25768E-02
 -1       763 1.44689E+01 4.48138E+01-8.33530E-01 4.77272E+00-6.50882E-03-5.65381E-03
 -1       764 1.43473E+01 4.48801E+01-7.18756E-01 4.88251E+00-3.72403E-02 5.62974E-02
 -1       765 1.42686E+01 4.49349E+01-6.26308E-01 4.96544E+00-3.84180E-02 6.49871E-02
 -1       766 1.42212E+01 4.49728E+01-5.65829E-01 5.02055E+00-2.67841E-02 4.68610E-02
 -1       767 1.41988E+01 4.49920E+01-5.36521E-01 5.04795E+00-9.47489E-03 1.67414E-02
 -1       768 1.41988E+01 4.49920E+01-5.36521E-01 5.04795E+00 9.47489E-03-1.67414E-02
 -1       769 1.42212E+01 4.49728E+01-5.65829E-01 5.02055E+00 2.67841E-02-4.68610E-02
 -1       770 1.42686E+01 4.49349E+01-6.26308E-01 4.96544E+00 3.84180E-02-6.49871E-02
 -1       771 1.43473E+01 4.48801E+01-7.18756E-01 4.88251E+00 3.72403E-02-5.62974E-02
 -1       772 1.44689E+01 4.48138E+01-8.33530E-01 4.77272E+00 6.50882E-03 5.65381E-03
 -1       773 1.49577E+01 4.72543E+01-7.61456E-01-1.32065E-02-8.23704E-04-1.98765E-02
 -1       774 1.47927E+01 4.73850E+01-6.22965E-01-1.36148E-02 8.49190E-04 6.58813E-02
 -1       775 1.46723E+01 4.74870E+01-5.22582E-01-1.42506E-02 5.23592E-04 8.04931E-02
 -1       776 1.45943E+01 4.75560E+01-4.59326E-01-1.47338E-02 1.98108E-04 5.91643E-02
 -1       777 1.45560E+01 4.75907E+01-4.29159E-01-1.49661E-02 4.44389E-05 2.13034E-02
 -1       778 1.45560E+01 4.75907E+01-4.29159E-01-1.49661E-02-4.44389E-05-2.13034E-02
 -1       779 1.45943E+01 4.75560E+01-4.59326E-01-1.47338E-02-1.98108E-04-5.91643E-02
 -1       780 1.46723E+01 4.74870E+01-5.22582E-01-1.42506E-02-5.23592E-04-8.04931E-02
 -1       781 1.47927E+01 4.73850E+01-6.22965E-01-1.36148E-02-8.49190E-04-6.58813E-02
 -1       782 1.49577E+01 4.72543E+01-7.61456E-01-1.32065E-02 8.23704E-04 1.98765E-02
 -1       783 1.40257E+01 4.51366E+01-7.04518E-01-4.76554E+00 3.07641E-03-1.22409E-02
 -1       784 1.39103E+01 4.52088E+01-5.82736E-01-4.87792E+00 2.67415E-02 5.80938E-02
 -1       785 1.38308E+01 4.52686E+01-4.88905E-01-4.96213E+00 2.97676E-02 6.92678E-02
 -1       786 1.37811E+01 4.53102E+01-4.28095E-01-5.01789E+00 2.14625E-02 5.05765E-02
 -1       787 1.37571E+01 4.53315E+01-3.98658E-01-5.04559E+00 7.69052E-03 1.81707E-02
 -1       788 1.37571E+01 4.53315E+01-3.98658E-01-5.04559E+00-7.69052E-03-1.81707E-02
 -1       789 1.37811E+01 4.53102E+01-4.28095E-01-5.01789E+00-2.14625E-02-5.05765E-02
 -1       790 1.38308E+01 4.52686E+01-4.88905E-01-4.96213E+00-2.97676E-02-6.92678E-02
 -1       791 1.39103E+01 4.52088E+01-5.82736E-01-4.87792E+00-2.67415E-02-5.80938E-02
 -1       792 1.40257E+01 4.51366E+01-7.04518E-01-4.76554E+00-3.07641E-03 1.22409E-02
 -1       793 1.15136E+01 3.88898E+01-5.76572E-01-9.31095E+00 1.36195E-02-4.33089E-02
 -1       794 1.15234E+01 3.88475E+01-4.48935E-01-9.44844E+00 4.55531E-02 2.61884E-02
 -1       795 1.15364E+01 3.88179E+01-3.55915E-01-9.55255E+00 4.77656E-02 4.32777E-02
 -1       796 1.15476E+01 3.87989E+01-2.97476E-01-9.62186E+00 3.38707E-02 3.38736E-02
 -1       797 1.15540E+01 3.87896E+01-2.69696E-01-9.65638E+00 1.20771E-02 1.24305E-02
 -1       798 1.15540E+01 3.87896E+01-2.69696E-01-9.65638E+00-1.20771E-02-1.24305E-02
 -1       799 1.15476E+01 3.87989E+01-2.97476E-01-9.62186E+00-3.38707E-02-3.38736E-02
 -1       800 1.15364E+01 3.88179E+01-3.55915E-01-9.55255E+00-4.77656E-02-4.32777E-02
 -1       801 1.15234E+01 3.88475E+01-4.48935E-01-9.44844E+00-4.55531E-02-2.61884E-02
 -1       802 1.15136E+01 3.88898E+01-5.76572E-01-9.31095E+00-1.36195E-02 4.33089E-02
 -1       803 8.61054E+00 2.89060E+01 2.46538E-02-1.37836E+01 9.93976E-03 6.42427E-03
 -1       804 8.72147E+00 2.87482E+01 5.80569E-02-1.38318E+01 5.13572E-02 4.91328E-03
 -1       805 8.81198E+00 2.86318E+01 8.26781E-02-1.38639E+01 5.48933E-02-1.00529E-03
 -1       806 8.87474E+00 2.85556E+01 9.72865E-02-1.38835E+01 3.89324E-02-3.34722E-03
 -1       807 8.90666E+00 2.85179E+01 1.03812E-01-1.38928E+01 1.38585E-02-1.64804E-03
 -1       808 8.90666E+00 2.85179E+01 1.03812E-01-1.38928E+01-1.38585E-02 1.64804E-03
 -1       809 8.87474E+00 2.85556E+01 9.72865E-02-1.38835E+01-3.89324E-02 3.34722E-03
 -1       810 8.81198E+00 2.86318E+01 8.26781E-02-1.38639E+01-5.48933E-02 1.00529E-03
 -1       811 8.72147E+00 2.87482E+01 5.80569E-02-1.38318E+01-5.13572E-02-4.91328E-03
 -1       812 8.61054E+00 2.89060E+01 2.46538E-02-1.37836E+01-9.93976E-03-6.42427E-03
 -1       813 5.71964E+00 1.26680E+01-9.13172E-01-1.73483E+01 3.30384E-02-1.96425E-01
 -1       814 5.80676E+00 1.26661E+01-8.34738E-01-1.72475E+01 1.85546E-02-1.14758E-01
 -1       815 5.86995E+00 1.26582E+01-7.68811E-01-1.71742E+01 1.32505E-02-6.35822E-02
 -1       816 5.91087E+00 1.26503E+01-7.21432E-01-1.71267E+01 8.78262E-03-3.12758E-02
 -1       817 5.93094E+00 1.26457E+01-6.96729E-01-1.71034E+01 3.13537E-03-9.32240E-03
 -1       818 5.93094E+00 1.26457E+01-6.96729E-01-1.71034E+01-3.13537E-03 9.32240E-03
 -1       819 5.91087E+00 1.26503E+01-7.21432E-01-1.71267E+01-8.78262E-03 3.12758E-02
 -1       820 5.86995E+00 1.26582E+01-7.68811E-01-1.71742E+01-1.32505E-02 6.35822E-02
 -1       821 5.80676E+00 1.26661E+01-8.34738E-01-1.72475E+01-1.85546E-02 1.14758E-01
 -1       822 5.71964E+00 1.26680E+01-9.13172E-01-1.73483E+01-3.30384E-02 1.96425E-01
 -1       823-6.04213E+00 8.17872E+00 3.81870E-01 1.43462E+01 1.62147E-01-1.20533E-01
 -1       824-5.79169E+00 7.84711E+00 3.99421E-01 1.41917E+01 1.70772E-01-1.33080E-01
 -1       825-5.63281E+00 7.59620E+00 3.37376E-01 1.40800E+01 1.70153E-01-1.13023E-01
 -1       826-5.53038E+00 7.43366E+00 2.88386E-01 1.40090E+01 1.22080E-01-7.33984E-02
 -1       827-5.47883E+00 7.35457E+00 2.65018E-01 1.39746E+01 4.38617E-02-2.52285E-02
 -1       828-5.47883E+00 7.35457E+00 2.65018E-01 1.39746E+01-4.38617E-02 2.52285E-02
 -1       829-5.53038E+00 7.43366E+00 2.88386E-01 1.40090E+01-1.22080E-01 7.33984E-02
 -1       830-5.63281E+00 7.59620E+00 3.37376E-01 1.40800E+01-1.70153E-01 1.13023E-01
 -1       831-5.79169E+00 7.84711E+00 3.99421E-01 1.41917E+01-1.70772E-01 1.33080E-01
 -1       832-6.04213E+00 8.17872E+00 3.81870E-01 1.43462E+01-1.62147E-01 1.20533E-01
 -1       833 1.02101E+00 2.81738E+01 8.47086E-01 4.34934E+00-9.71163E-03 1.55459E-01
 -1       834 1.04484E+00 2.80456E+01 7.26045E-01 4.44568E+00 4.25543E-03 1.03431E-01
 -1       835 1.07006E+00 2.79388E+01 6.74954E-01 4.52482E+00-7.36192E-03 6.89579E-02
 -1       836 1.08861E+00 2.78627E+01 6.54151E-01 4.58004E+00-1.09979E-02 4.03312E-02
 -1       837 1.09819E+00 2.78232E+01 6.46984E-01 4.60829E+00-4.90196E-03 1.33488E-02
 -1       838 1.09819E+00 2.78232E+01 6.46984E-01 4.60829E+00 4.90196E-03-1.33488E-02
 -1       839 1.08861E+00 2.78627E+01 6.54151E-01 4.58004E+00 1.09979E-02-4.03312E-02
 -1       840 1.07006E+00 2.79388E+01 6.74954E-01 4.52482E+00 7.36192E-03-6.89579E-02
 -1       841 1.04484E+00 2.80456E+01 7.26045E-01 4.44568E+00-4.25543E-03-1.03431E-01
 -1       842 1.02101E+00 2.81738E+01 8.47086E-01 4.34934E+00 9.71163E-03-1.55459E-01
 -1       843 7.91494E+00 2.86809E+01-3.52010E-01 3.50379E-01-2.26305E-04 1.73403E-02
 -1       844 7.93576E+00 2.86756E+01-3.60347E-01 4.22381E-01 6.94028E-03 1.12387E-02
 -1       845 7.94360E+00 2.86711E+01-3.59395E-01 4.79731E-01 8.08135E-03 1.14137E-02
 -1       846 7.94584E+00 2.86684E+01-3.55069E-01 5.19706E-01 5.56957E-03 9.13616E-03
 -1       847 7.94616E+00 2.86671E+01-3.51780E-01 5.40219E-01 1.91355E-03 3.50030E-03
 -1       848 7.94616E+00 2.86671E+01-3.51780E-01 5.40219E-01-1.91355E-03-3.50030E-03
 -1       849 7.94584E+00 2.86684E+01-3.55069E-01 5.19706E-01-5.56957E-03-9.13616E-03
 -1       850 7.94360E+00 2.86711E+01-3.59395E-01 4.79731E-01-8.08135E-03-1.14137E-02
 -1       851 7.93576E+00 2.86756E+01-3.60347E-01 4.22381E-01-6.94028E-03-1.12387E-02
 -1       852 7.91494E+00 2.86809E+01-3.52010E-01 3.50379E-01 2.26305E-04-1.73403E-02
 -1       853 1.36027E+01 2.94336E+01-2.16973E-01-6.62361E-01-1.77257E-02 2.46085E-02
 -1       854 1.35376E+01 2.94532E+01-2.74867E-01-6.04500E-01-7.31149E-03-6.60775E-04
 -1       855 1.34844E+01 2.94698E+01-3.00845E-01-5.58531E-01-4.60111E-03-3.75569E-03
 -1       856 1.34476E+01 2.94820E+01-3.09987E-01-5.26804E-01-3.00591E-03-1.94512E-03
 -1       857 1.34289E+01 2.94885E+01-3.12206E-01-5.10642E-01-1.07757E-03-4.62350E-04
 -1       858 1.34289E+01 2.94885E+01-3.12206E-01-5.10642E-01 1.07757E-03 4.62350E-04
 -1       859 1.34476E+01 2.94820E+01-3.09987E-01-5.26804E-01 3.00591E-03 1.94512E-03
 -1       860 1.34844E+01 2.94698E+01-3.00845E-01-5.58531E-01 4.60111E-03 3.75569E-03
 -1       861 1.35376E+01 2.94532E+01-2.74867E-01-6.04500E-01 7.31149E-03 6.60775E-04
 -1       862 1.36027E+01 2.94336E+01-2.16973E-01-6.62361E-01 1.77257E-02-2.46085E-02
 -1       863 1.59380E+01 2.94942E+01-7.57686E-02-1.07924E-02 7.79884E-04 2.65303E-02
 -1       864 1.58486E+01 2.95467E+01-1.26177E-01-1.15016E-02 1.31411E-04 2.84586E-03
 -1       865 1.57737E+01 2.95879E+01-1.48385E-01-1.20456E-02 9.83866E-06 1.34001E-04
 -1       866 1.57206E+01 2.96165E+01-1.56189E-01-1.23973E-02-3.24494E-05 9.46925E-04
 -1       867 1.56933E+01 2.96312E+01-1.58085E-01-1.25692E-02-1.93536E-05 5.92697E-04
 -1       868 1.56933E+01 2.96312E+01-1.58085E-01-1.25692E-02 1.93536E-05-5.92697E-04
 -1       869 1.57206E+01 2.96165E+01-1.56189E-01-1.23973E-02 3.24494E-05-9.46925E-04
 -1       870 1.57737E+01 2.95879E+01-1.48385E-01-1.20456E-02-9.83866E-06-1.34001E-04
 -1       871 1.58486E+01 2.95467E+01-1.26177E-01-1.15016E-02-1.31411E-04-2.84586E-03
 -1       872 1.59380E+01 2.94942E+01-7.57686E-02-1.07924E-02-7.79884E-04-2.65303E-02
 -1       873 1.32635E+01 2.99514E+01-2.13916E-02 4.34823E-01 1.54680E-02 2.60703E-02
 -1       874 1.31996E+01 2.99704E+01-7.89406E-02 3.75468E-01 7.52765E-03 8.62746E-04
 -1       875 1.31464E+01 2.99863E+01-1.05160E-01 3.28491E-01 5.04243E-03-2.43572E-03
 -1       876 1.31090E+01 2.99979E+01-1.14913E-01 2.96081E-01 3.35042E-03-1.09213E-03
 -1       877 1.30898E+01 3.00041E+01-1.17581E-01 2.79568E-01 1.20890E-03-1.71755E-04
 -1       878 1.30898E+01 3.00041E+01-1.17581E-01 2.79568E-01-1.20890E-03 1.71755E-04
 -1       879 1.31090E+01 2.99979E+01-1.14913E-01 2.96081E-01-3.35042E-03 1.09213E-03
 -1       880 1.31464E+01 2.99863E+01-1.05160E-01 3.28491E-01-5.04243E-03 2.43572E-03
 -1       881 1.31996E+01 2.99704E+01-7.89406E-02 3.75468E-01-7.52765E-03-8.62746E-04
 -1       882 1.32635E+01 2.99514E+01-2.13916E-02 4.34823E-01-1.54680E-02-2.60703E-02
 -1       883 7.15440E+00 2.96546E+01-6.79409E-03-2.16921E+00 3.21711E-02-8.94882E-03
 -1       884 7.16618E+00 2.96176E+01-3.42711E-02-2.23724E+00 1.27193E-02-1.26242E-02
 -1       885 7.17070E+00 2.95884E+01-4.30124E-02-2.29234E+00 6.42478E-03-7.38745E-03
 -1       886 7.17228E+00 2.95687E+01-4.33826E-02-2.33086E+00 3.66235E-03-2.79352E-03
 -1       887 7.17275E+00 2.95587E+01-4.19980E-02-2.35062E+00 1.26199E-03-5.78632E-04
 -1       888 7.17275E+00 2.95587E+01-4.19980E-02-2.35062E+00-1.26199E-03 5.78632E-04
 -1       889 7.17228E+00 2.95687E+01-4.33826E-02-2.33086E+00-3.66235E-03 2.79352E-03
 -1       890 7.17070E+00 2.95884E+01-4.30124E-02-2.29234E+00-6.42478E-03 7.38745E-03
 -1       891 7.16618E+00 2.96176E+01-3.42711E-02-2.23724E+00-1.27193E-02 1.26242E-02
 -1       892 7.15440E+00 2.96546E+01-6.79409E-03-2.16921E+00-3.21711E-02 8.94882E-03
 -1       893 1.85862E+00 2.49621E+01 1.96758E-01-8.36732E+00 3.03655E-02 2.62218E-02
 -1       894 1.90327E+00 2.48625E+01 1.23725E-01-8.39131E+00 1.60943E-02-1.07146E-03
 -1       895 1.93842E+00 2.47867E+01 8.10357E-02-8.41074E+00 1.12909E-02-8.45322E-03
 -1       896 1.96295E+00 2.47358E+01 5.79109E-02-8.42418E+00 7.47529E-03-7.34304E-03
 -1       897 1.97559E+00 2.47103E+01 4.78503E-02-8.43100E+00 2.67027E-03-2.76118E-03
 -1       898 1.97559E+00 2.47103E+01 4.78503E-02-8.43100E+00-2.67027E-03 2.76118E-03
 -1       899 1.96295E+00 2.47358E+01 5.79109E-02-8.42418E+00-7.47529E-03 7.34304E-03
 -1       900 1.93842E+00 2.47867E+01 8.10357E-02-8.41074E+00-1.12909E-02 8.45322E-03
 -1       901 1.90327E+00 2.48625E+01 1.23725E-01-8.39131E+00-1.60943E-02 1.07146E-03
 -1       902 1.85862E+00 2.49621E+01 1.96758E-01-8.36732E+00-3.03655E-02-2.62218E-02
 -1       903 7.43831E-01 1.27873E+01-6.93817E-01-1.41874E+01 1.44440E-02-1.47726E-01
 -1       904 8.10024E-01 1.27802E+01-6.33652E-01-1.41248E+01 5.76221E-03-9.43075E-02
 -1       905 8.56035E-01 1.27732E+01-5.90730E-01-1.40794E+01 5.41202E-04-5.68883E-02
 -1       906 8.85250E-01 1.27676E+01-5.62802E-01-1.40499E+01-1.14320E-03-3.00863E-02
 -1       907 8.99466E-01 1.27646E+01-5.48979E-01-1.40353E+01-6.22310E-04-9.36803E-03
 -1       908 8.99466E-01 1.27646E+01-5.48979E-01-1.40353E+01 6.22310E-04 9.36803E-03
 -1       909 8.85250E-01 1.27676E+01-5.62802E-01-1.40499E+01 1.14320E-03 3.00863E-02
 -1       910 8.56035E-01 1.27732E+01-5.90730E-01-1.40794E+01-5.41202E-04 5.68883E-02
 -1       911 8.10024E-01 1.27802E+01-6.33652E-01-1.41248E+01-5.76221E-03 9.43075E-02
 -1       912 7.43831E-01 1.27873E+01-6.93817E-01-1.41874E+01-1.44440E-02 1.47726E-01
 -1       913-9.28513E+00 4.60650E+00-2.81945E-01 1.18818E+01 4.05095E-02-9.18231E-02
 -1       914-9.18009E+00 4.41469E+00-2.95281E-01 1.17792E+01 4.99665E-02-8.75297E-02
 -1       915-9.08801E+00 4.29104E+00-2.91840E-01 1.16979E+01 4.09520E-02-7.12086E-02
 -1       916-9.02501E+00 4.21442E+00-2.93974E-01 1.16417E+01 2.75286E-02-4.65042E-02
 -1       917-8.99355E+00 4.17738E+00-2.97343E-01 1.16131E+01 9.81503E-03-1.61623E-02
 -1       918-8.99355E+00 4.17738E+00-2.97343E-01 1.16131E+01-9.81503E-03 1.61623E-02
 -1       919-9.02501E+00 4.21442E+00-2.93974E-01 1.16417E+01-2.75286E-02 4.65042E-02
 -1       920-9.08801E+00 4.29104E+00-2.91840E-01 1.16979E+01-4.09520E-02 7.12086E-02
 -1       921-9.18009E+00 4.41469E+00-2.95281E-01 1.17792E+01-4.99665E-02 8.75297E-02
 -1       922-9.28513E+00 4.60650E+00-2.81945E-01 1.18818E+01-4.05095E-02 9.18231E-02
 -1       923-4.50020E+00 2.30115E+01 7.30991E-01 1.84617E+00-1.31559E-02 2.57496E-02
 -1       924-4.43472E+00 2.29394E+01 7.35450E-01 1.88972E+00-1.66726E-02 2.26423E-02
 -1       925-4.39135E+00 2.28772E+01 7.21148E-01 1.92185E+00-1.01506E-02 1.51261E-02
 -1       926-4.36402E+00 2.28324E+01 7.07307E-01 1.94340E+00-4.93998E-03 8.28670E-03
 -1       927-4.35068E+00 2.28091E+01 6.99634E-01 1.95426E+00-1.45155E-03 2.60786E-03
 -1       928-4.35068E+00 2.28091E+01 6.99634E-01 1.95426E+00 1.45155E-03-2.60786E-03
 -1       929-4.36402E+00 2.28324E+01 7.07307E-01 1.94340E+00 4.93998E-03-8.28670E-03
 -1       930-4.39135E+00 2.28772E+01 7.21148E-01 1.92185E+00 1.01506E-02-1.51261E-02
 -1       931-4.43472E+00 2.29394E+01 7.35450E-01 1.88972E+00 1.66726E-02-2.26423E-02
 -1       932-4.50020E+00 2.30115E+01 7.30991E-01 1.84617E+00 1.31559E-02-2.57496E-02
 -1       933 3.91488E+00 2.09689E+01 8.05267E-02-4.14101E+00 9.67289E-04 2.38309E-02
 -1       934 3.94115E+00 2.09681E+01 8.40112E-02-4.08591E+00 1.76050E-03 1.82388E-02
 -1       935 3.95894E+00 2.09664E+01 8.16867E-02-4.04513E+00 2.23542E-03 1.14599E-02
 -1       936 3.96965E+00 2.09646E+01 7.82630E-02-4.01807E+00 1.89171E-03 6.06022E-03
 -1       937 3.97462E+00 2.09636E+01 7.60910E-02-4.00454E+00 7.36821E-04 1.87592E-03
 -1       938 3.97462E+00 2.09636E+01 7.60910E-02-4.00454E+00-7.36821E-04-1.87592E-03
 -1       939 3.96965E+00 2.09646E+01 7.82630E-02-4.01807E+00-1.89171E-03-6.06022E-03
 -1       940 3.95894E+00 2.09664E+01 8.16867E-02-4.04513E+00-2.23542E-03-1.14599E-02
 -1       941 3.94115E+00 2.09681E+01 8.40112E-02-4.08591E+00-1.76050E-03-1.82388E-02
 -1       942 3.91488E+00 2.09689E+01 8.05267E-02-4.14101E+00-9.67289E-04-2.38309E-02
 -1       943 1.14609E+01 1.72377E+01 1.67285E-03-3.82363E+00-9.51115E-03 1.16170E-02
 -1       944 1.14391E+01 1.72759E+01 1.16058E-02-3.78193E+00-7.79031E-03 1.07313E-02
 -1       945 1.14215E+01 1.73015E+01 9.74965E-03-3.75121E+00-4.69136E-03 5.73998E-03
 -1       946 1.14090E+01 1.73172E+01 5.35615E-03-3.73085E+00-2.32555E-03 2.21911E-03
 -1       947 1.14024E+01 1.73248E+01 2.44935E-03-3.72068E+00-6.87269E-04 5.08814E-04
 -1       948 1.14024E+01 1.73248E+01 2.44935E-03-3.72068E+00 6.87269E-04-5.08814E-04
 -1       949 1.14090E+01 1.73172E+01 5.35615E-03-3.73085E+00 2.32555E-03-2.21911E-03
 -1       950 1.14215E+01 1.73015E+01 9.74965E-03-3.75121E+00 4.69136E-03-5.73998E-03
 -1       951 1.14391E+01 1.72759E+01 1.16058E-02-3.78193E+00 7.79031E-03-1.07313E-02
 -1       952 1.14609E+01 1.72377E+01 1.67285E-03-3.82363E+00 9.51115E-03-1.16170E-02
 -1       953 1.45444E+01 1.56605E+01 1.06450E-01-1.17322E-02 3.27800E-04 1.54082E-02
 -1       954 1.45025E+01 1.57187E+01 1.13950E-01-1.20830E-02 1.67068E-05 1.30103E-02
 -1       955 1.44695E+01 1.57589E+01 1.10112E-01-1.23839E-02-1.22938E-04 6.88642E-03
 -1       956 1.44464E+01 1.57843E+01 1.04371E-01-1.25981E-02-1.15017E-04 2.71283E-03
 -1       957 1.44345E+01 1.57966E+01 1.00775E-01-1.27078E-02-4.36225E-05 6.41763E-04
 -1       958 1.44345E+01 1.57966E+01 1.00775E-01-1.27078E-02 4.36225E-05-6.41763E-04
 -1       959 1.44464E+01 1.57843E+01 1.04371E-01-1.25981E-02 1.15017E-04-2.71283E-03
 -1       960 1.44695E+01 1.57589E+01 1.10112E-01-1.23839E-02 1.22938E-04-6.88642E-03
 -1       961 1.45025E+01 1.57187E+01 1.13950E-01-1.20830E-02-1.67068E-05-1.30103E-02
 -1       962 1.45444E+01 1.56605E+01 1.06450E-01-1.17322E-02-3.27800E-04-1.54082E-02
 -1       963 1.11347E+01 1.76074E+01 1.48846E-01 3.45850E+00 1.10945E-02 1.40558E-02
 -1       964 1.11117E+01 1.76422E+01 1.53289E-01 3.41622E+00 9.61392E-03 1.08544E-02
 -1       965 1.10933E+01 1.76653E+01 1.48023E-01 3.38510E+00 6.44592E-03 5.06733E-03
 -1       966 1.10802E+01 1.76796E+01 1.41655E-01 3.36451E+00 3.54007E-03 1.56543E-03
 -1       967 1.10734E+01 1.76863E+01 1.37836E-01 3.35422E+00 1.11544E-03 2.54100E-04
 -1       968 1.10734E+01 1.76863E+01 1.37836E-01 3.35422E+00-1.11544E-03-2.54100E-04
 -1       969 1.10802E+01 1.76796E+01 1.41655E-01 3.36451E+00-3.54007E-03-1.56543E-03
 -1       970 1.10933E+01 1.76653E+01 1.48023E-01 3.38510E+00-6.44592E-03-5.06733E-03
 -1       971 1.11117E+01 1.76422E+01 1.53289E-01 3.41622E+00-9.61392E-03-1.08544E-02
 -1       972 1.11347E+01 1.76074E+01 1.48846E-01 3.45850E+00-1.10945E-02-1.40558E-02
 -1       973 3.51983E+00 2.08372E+01 1.11099E-01 2.26275E+00 2.20728E-02-8.26279E-03
 -1       974 3.54767E+00 2.08270E+01 1.24548E-01 2.21478E+00 1.58314E-02-2.74352E-03
 -1       975 3.56611E+00 2.08173E+01 1.26508E-01 2.17940E+00 9.31107E-03-2.04147E-03
 -1       976 3.57718E+00 2.08098E+01 1.24997E-01 2.15589E+00 4.60001E-03-1.59391E-03
 -1       977 3.58233E+00 2.08058E+01 1.23584E-01 2.14412E+00 1.35925E-03-6.13486E-04
 -1       978 3.58233E+00 2.08058E+01 1.23584E-01 2.14412E+00-1.35925E-03 6.13486E-04
 -1       979 3.57718E+00 2.08098E+01 1.24997E-01 2.15589E+00-4.60001E-03 1.59391E-03
 -1       980 3.56611E+00 2.08173E+01 1.26508E-01 2.17940E+00-9.31107E-03 2.04147E-03
 -1       981 3.54767E+00 2.08270E+01 1.24548E-01 2.21478E+00-1.58314E-02 2.74352E-03
 -1       982 3.51983E+00 2.08372E+01 1.11099E-01 2.26275E+00-2.20728E-02 8.26279E-03
 -1       983-2.62567E+00 1.99851E+01 8.12866E-02-4.15046E+00 1.97090E-02 1.33250E-02
 -1       984-2.57995E+00 1.99334E+01 7.00840E-02-4.16960E+00 1.88864E-02 5.28050E-03
 -1       985-2.54654E+00 1.98933E+01 5.57830E-02-4.18273E+00 1.35308E-02 1.44051E-05
 -1       986-2.52466E+00 1.98659E+01 4.43659E-02-4.19109E+00 7.83185E-03-1.62486E-03
 -1       987-2.51384E+00 1.98520E+01 3.82521E-02-4.19519E+00 2.54404E-03-8.18714E-04
 -1       988-2.51384E+00 1.98520E+01 3.82521E-02-4.19519E+00-2.54404E-03 8.18714E-04
 -1       989-2.52466E+00 1.98659E+01 4.43659E-02-4.19109E+00-7.83185E-03 1.62486E-03
 -1       990-2.54654E+00 1.98933E+01 5.57830E-02-4.18273E+00-1.35308E-02-1.44051E-05
 -1       991-2.57995E+00 1.99334E+01 7.00840E-02-4.16960E+00-1.88864E-02-5.28050E-03
 -1       992-2.62567E+00 1.99851E+01 8.12866E-02-4.15046E+00-1.97090E-02-1.33250E-02
 -1       993-2.83563E+00 1.20243E+01-2.42576E-01-1.08765E+01 1.16400E-02-9.53712E-02
 -1       994-2.79466E+00 1.19954E+01-2.18569E-01-1.08351E+01 2.84813E-03-6.59432E-02
 -1       995-2.76456E+00 1.19746E+01-1.99552E-01-1.08049E+01-7.45365E-04-4.26904E-02
 -1       996-2.74490E+00 1.19610E+01-1.86645E-01-1.07851E+01-1.48019E-03-2.38696E-02
 -1       997-2.73521E+00 1.19543E+01-1.80161E-01-1.07754E+01-6.61052E-04-7.66860E-03
 -1       998-2.73521E+00 1.19543E+01-1.80161E-01-1.07754E+01 6.61052E-04 7.66860E-03
 -1       999-2.74490E+00 1.19610E+01-1.86645E-01-1.07851E+01 1.48019E-03 2.38696E-02
 -1      1000-2.76456E+00 1.19746E+01-1.99552E-01-1.08049E+01 7.45365E-04 4.26904E-02
 -1      1001-2.79466E+00 1.19954E+01-2.18569E-01-1.08351E+01-2.84813E-03 6.59432E-02
 -1      1002-2.83563E+00 1.20243E+01-2.42576E-01-1.08765E+01-1.16400E-02 9.53712E-02
 -1      1003-1.01192E+01 2.85598E+00-4.99692E-01 8.98882E+00-6.63858E-04-5.56949E-02
 -1      1004-1.00610E+01 2.76727E+00-5.12948E-01 8.91768E+00 8.45909E-03-5.28735E-02
 -1      1005-1.00181E+01 2.70062E+00-5.27008E-01 8.86439E+00 1.15870E-02-4.28712E-02
 -1      1006-9.98818E+00 2.65775E+00-5.34915E-01 8.82869E+00 8.71261E-03-2.76448E-02
 -1      1007-9.97269E+00 2.63693E+00-5.38278E-01 8.81074E+00 3.14290E-03-9.52385E-03
 -1      1008-9.97269E+00 2.63693E+00-5.38278E-01 8.81074E+00-3.14290E-03 9.52385E-03
 -1      1009-9.98818E+00 2.65775E+00-5.34915E-01 8.82869E+00-8.71261E-03 2.76448E-02
 -1      1010-1.00181E+01 2.70062E+00-5.27008E-01 8.86439E+00-1.15870E-02 4.28712E-02
 -1      1011-1.00610E+01 2.76727E+00-5.12948E-01 8.91768E+00-8.45909E-03 5.28735E-02
 -1      1012-1.01192E+01 2.85598E+00-4.99692E-01 8.98882E+00 6.63858E-04 5.56949E-02
 -1      1013-7.64148E+00 1.73468E+01 5.52699E-01-1.60068E-01-2.00601E-02-1.26214E-02
 -1      1014-7.59901E+00 1.72746E+01 5.48275E-01-1.35700E-01-1.63830E-02-7.95217E-03
 -1      1015-7.56437E+00 1.72226E+01 5.50234E-01-1.17667E-01-1.33810E-02-4.10330E-03
 -1      1016-7.54062E+00 1.71884E+01 5.51971E-01-1.05886E-01-8.65848E-03-1.83948E-03
 -1      1017-7.52864E+00 1.71714E+01 5.52724E-01-1.00078E-01-2.97358E-03-5.16828E-04
 -1      1018-7.52864E+00 1.71714E+01 5.52724E-01-1.00078E-01 2.97358E-03 5.16828E-04
 -1      1019-7.54062E+00 1.71884E+01 5.51971E-01-1.05886E-01 8.65848E-03 1.83948E-03
 -1      1020-7.56437E+00 1.72226E+01 5.50234E-01-1.17667E-01 1.33810E-02 4.10330E-03
 -1      1021-7.59901E+00 1.72746E+01 5.48275E-01-1.35700E-01 1.63830E-02 7.95217E-03
 -1      1022-7.64148E+00 1.73468E+01 5.52699E-01-1.60068E-01 2.00601E-02 1.26214E-02
 -1      1023 5.74260E-01 1.35518E+01 2.89154E-01-6.77020E+00-3.26716E-03 2.04379E-02
 -1      1024 5.86908E-01 1.35393E+01 2.83256E-01-6.72688E+00-2.38313E-03 1.43898E-02
 -1      1025 5.97264E-01 1.35309E+01 2.80127E-01-6.69455E+00-1.73256E-03 9.85252E-03
 -1      1026 6.04540E-01 1.35258E+01 2.78254E-01-6.67313E+00-1.07308E-03 5.75760E-03
 -1      1027 6.08276E-01 1.35233E+01 2.77311E-01-6.66247E+00-3.63841E-04 1.89113E-03
 -1      1028 6.08276E-01 1.35233E+01 2.77311E-01-6.66247E+00 3.63841E-04-1.89113E-03
 -1      1029 6.04540E-01 1.35258E+01 2.78254E-01-6.67313E+00 1.07308E-03-5.75760E-03
 -1      1030 5.97264E-01 1.35309E+01 2.80127E-01-6.69455E+00 1.73256E-03-9.85252E-03
 -1      1031 5.86908E-01 1.35393E+01 2.83256E-01-6.72688E+00 2.38313E-03-1.43898E-02
 -1      1032 5.74260E-01 1.35518E+01 2.89154E-01-6.77020E+00 3.26716E-03-2.04379E-02
 -1      1033 8.84928E+00 7.08733E+00 1.87269E-01-5.72199E+00-7.81542E-03 1.14757E-02
 -1      1034 8.82435E+00 7.10929E+00 1.85224E-01-5.68990E+00-5.52457E-03 8.70653E-03
 -1      1035 8.80738E+00 7.12722E+00 1.86680E-01-5.66590E+00-3.95900E-03 6.86692E-03
 -1      1036 8.79679E+00 7.13960E+00 1.88157E-01-5.64998E+00-2.39433E-03 4.42329E-03
 -1      1037 8.79169E+00 7.14586E+00 1.88905E-01-5.64206E+00-7.99610E-04 1.52129E-03
 -1      1038 8.79169E+00 7.14586E+00 1.88905E-01-5.64206E+00 7.99610E-04-1.52129E-03
 -1      1039 8.79679E+00 7.13960E+00 1.88157E-01-5.64998E+00 2.39433E-03-4.42329E-03
 -1      1040 8.80738E+00 7.12722E+00 1.86680E-01-5.66590E+00 3.95900E-03-6.86692E-03
 -1      1041 8.82435E+00 7.10929E+00 1.85224E-01-5.68990E+00 5.52457E-03-8.70653E-03
 -1      1042 8.84928E+00 7.08733E+00 1.87269E-01-5.72199E+00 7.81542E-03-1.14757E-02
 -1      1043 1.22326E+01 4.36481E+00 2.42009E-01-6.96991E-03 1.43161E-04 1.53811E-02
 -1      1044 1.21909E+01 4.40117E+00 2.37917E-01-7.20993E-03-8.98553E-05 1.11477E-02
 -1      1045 1.21614E+01 4.42982E+00 2.37647E-01-7.39357E-03-1.43433E-04 8.28851E-03
 -1      1046 1.21424E+01 4.44929E+00 2.37897E-01-7.51981E-03-1.14637E-04 5.13677E-03
 -1      1047 1.21331E+01 4.45909E+00 2.38017E-01-7.58457E-03-4.27677E-05 1.73470E-03
 -1      1048 1.21331E+01 4.45909E+00 2.38017E-01-7.58457E-03 4.27677E-05-1.73470E-03
 -1      1049 1.21424E+01 4.44929E+00 2.37897E-01-7.51981E-03 1.14637E-04-5.13677E-03
 -1      1050 1.21614E+01 4.42982E+00 2.37647E-01-7.39357E-03 1.43433E-04-8.28851E-03
 -1      1051 1.21909E+01 4.40117E+00 2.37917E-01-7.20993E-03 8.98553E-05-1.11477E-02
 -1      1052 1.22326E+01 4.36481E+00 2.42009E-01-6.96991E-03-1.43161E-04-1.53811E-02
 -1      1053 8.56744E+00 7.19364E+00 2.60986E-01 5.34226E+00 1.05197E-02 1.21501E-02
 -1      1054 8.54106E+00 7.21313E+00 2.56427E-01 5.31002E+00 8.12429E-03 8.34753E-03
 -1      1055 8.52311E+00 7.22918E+00 2.55859E-01 5.28591E+00 5.99098E-03 6.11891E-03
 -1      1056 8.51192E+00 7.24029E+00 2.55967E-01 5.26994E+00 3.67729E-03 3.77653E-03
 -1      1057 8.50653E+00 7.24592E+00 2.56034E-01 5.26200E+00 1.23780E-03 1.27295E-03
 -1      1058 8.50653E+00 7.24592E+00 2.56034E-01 5.26200E+00-1.23780E-03-1.27295E-03
 -1      1059 8.51192E+00 7.24029E+00 2.55967E-01 5.26994E+00-3.67729E-03-3.77653E-03
 -1      1060 8.52311E+00 7.22918E+00 2.55859E-01 5.28591E+00-5.99098E-03-6.11891E-03
 -1      1061 8.54106E+00 7.21313E+00 2.56427E-01 5.31002E+00-8.12429E-03-8.34753E-03
 -1      1062 8.56744E+00 7.19364E+00 2.60986E-01 5.34226E+00-1.05197E-02-1.21501E-02
 -1      1063 5.40068E-01 1.27232E+01 1.93281E-01 5.25271E+00 1.74106E-02-8.02770E-06
 -1      1064 5.53461E-01 1.27085E+01 1.92549E-01 5.21545E+00 1.28467E-02 5.24908E-04
 -1      1065 5.64449E-01 1.26989E+01 1.94142E-01 5.18762E+00 9.17411E-03 1.12095E-03
 -1      1066 5.72112E-01 1.26929E+01 1.95490E-01 5.16920E+00 5.52374E-03 9.84423E-04
 -1      1067 5.76021E-01 1.26900E+01 1.96137E-01 5.16003E+00 1.84262E-03 3.76141E-04
 -1      1068 5.76021E-01 1.26900E+01 1.96137E-01 5.16003E+00-1.84262E-03-3.76141E-04
 -1      1069 5.72112E-01 1.26929E+01 1.95490E-01 5.16920E+00-5.52374E-03-9.84423E-04
 -1      1070 5.64449E-01 1.26989E+01 1.94142E-01 5.18762E+00-9.17411E-03-1.12095E-03
 -1      1071 5.53461E-01 1.27085E+01 1.92549E-01 5.21545E+00-1.28467E-02-5.24908E-04
 -1      1072 5.40068E-01 1.27232E+01 1.93281E-01 5.25271E+00-1.74106E-02 8.02770E-06
 -1      1073-5.74688E+00 1.48700E+01 1.87745E-02-8.20423E-01 1.76473E-02 1.42519E-03
 -1      1074-5.71661E+00 1.48302E+01 1.05555E-02-8.35801E-01 1.40770E-02-5.41348E-04
 -1      1075-5.69237E+00 1.48011E+01 6.56637E-03-8.46965E-01 1.07127E-02-8.87939E-04
 -1      1076-5.67565E+00 1.47820E+01 4.33208E-03-8.54169E-01 6.70958E-03-7.02378E-04
 -1      1077-5.66714E+00 1.47724E+01 3.25172E-03-8.57692E-01 2.28037E-03-2.62772E-04
 -1      1078-5.66714E+00 1.47724E+01 3.25172E-03-8.57692E-01-2.28037E-03 2.62772E-04
 -1      1079-5.67565E+00 1.47820E+01 4.33208E-03-8.54169E-01-6.70958E-03 7.02378E-04
 -1      1080-5.69237E+00 1.48011E+01 6.56637E-03-8.46965E-01-1.07127E-02 8.87939E-04
 -1      1081-5.71661E+00 1.48302E+01 1.05555E-02-8.35801E-01-1.40770E-02 5.41348E-04
 -1      1082-5.74688E+00 1.48700E+01 1.87745E-02-8.20423E-01-1.76473E-02-1.42519E-03
 -1      1083-5.46886E+00 1.05942E+01 1.31424E-01-7.88192E+00 1.09362E-02-5.31976E-02
 -1      1084-5.44307E+00 1.05558E+01 1.40366E-01-7.85512E+00 5.73808E-03-3.84483E-02
 -1      1085-5.42407E+00 1.05275E+01 1.46716E-01-7.83534E+00 2.47090E-03-2.59775E-02
 -1      1086-5.41154E+00 1.05089E+01 1.50857E-01-7.82230E+00 8.32458E-04-1.50004E-02
 -1      1087-5.40531E+00 1.04997E+01 1.52908E-01-7.81582E+00 1.70945E-04-4.90265E-03
 -1      1088-5.40531E+00 1.04997E+01 1.52908E-01-7.81582E+00-1.70945E-04 4.90265E-03
 -1      1089-5.41154E+00 1.05089E+01 1.50857E-01-7.82230E+00-8.32458E-04 1.50004E-02
 -1      1090-5.42407E+00 1.05275E+01 1.46716E-01-7.83534E+00-2.47090E-03 2.59775E-02
 -1      1091-5.44307E+00 1.05558E+01 1.40366E-01-7.85512E+00-5.73808E-03 3.84483E-02
 -1      1092-5.46886E+00 1.05942E+01 1.31424E-01-7.88192E+00-1.09362E-02 5.31976E-02
 -1      1093-1.00229E+01 1.72158E+00-5.89434E-01 6.13561E+00-1.03026E-02-3.92898E-02
 -1      1094-9.98950E+00 1.67324E+00-5.95744E-01 6.08996E+00-4.98119E-03-3.47894E-02
 -1      1095-9.96347E+00 1.63884E+00-6.01299E-01 6.05523E+00-1.90886E-03-2.71509E-02
 -1      1096-9.94614E+00 1.61623E+00-6.06285E-01 6.03192E+00-2.95954E-04-1.72623E-02
 -1      1097-9.93749E+00 1.60498E+00-6.09130E-01 6.02025E+00 6.03243E-05-5.92051E-03
 -1      1098-9.93749E+00 1.60498E+00-6.09130E-01 6.02025E+00-6.03243E-05 5.92051E-03
 -1      1099-9.94614E+00 1.61623E+00-6.06285E-01 6.03192E+00 2.95954E-04 1.72623E-02
 -1      1100-9.96347E+00 1.63884E+00-6.01299E-01 6.05523E+00 1.90886E-03 2.71509E-02
 -1      1101-9.98950E+00 1.67324E+00-5.95744E-01 6.08996E+00 4.98119E-03 3.47894E-02
 -1      1102-1.00229E+01 1.72158E+00-5.89434E-01 6.13561E+00 1.03026E-02 3.92898E-02
 -1      1103-9.39128E+00 1.17917E+01 3.87053E-01-1.98443E+00-2.04565E-02-2.19760E-02
 -1      1104-9.35377E+00 1.17406E+01 3.88797E-01-1.97260E+00-1.59291E-02-1.53901E-02
 -1      1105-9.32646E+00 1.17010E+01 3.88919E-01-1.96349E+00-1.12062E-02-1.02253E-02
 -1      1106-9.30832E+00 1.16743E+01 3.89256E-01-1.95729E+00-6.73359E-03-5.80382E-03
 -1      1107-9.29924E+00 1.16609E+01 3.89574E-01-1.95416E+00-2.25689E-03-1.87516E-03
 -1      1108-9.29924E+00 1.16609E+01 3.89574E-01-1.95416E+00 2.25689E-03 1.87516E-03
 -1      1109-9.30832E+00 1.16743E+01 3.89256E-01-1.95729E+00 6.73359E-03 5.80382E-03
 -1      1110-9.32646E+00 1.17010E+01 3.88919E-01-1.96349E+00 1.12062E-02 1.02253E-02
 -1      1111-9.35377E+00 1.17406E+01 3.88797E-01-1.97260E+00 1.59291E-02 1.53901E-02
 -1      1112-9.39128E+00 1.17917E+01 3.87053E-01-1.98443E+00 2.04565E-02 2.19760E-02
 -1      1113-2.17068E+00 6.40593E+00 3.63574E-01-8.42677E+00-5.57334E-03 1.57146E-02
 -1      1114-2.15988E+00 6.39299E+00 3.58992E-01-8.39409E+00-4.69505E-03 1.11898E-02
 -1      1115-2.15197E+00 6.38310E+00 3.55081E-01-8.36963E+00-3.51818E-03 7.43841E-03
 -1      1116-2.14674E+00 6.37650E+00 3.52451E-01-8.35332E+00-2.17527E-03 4.26880E-03
 -1      1117-2.14412E+00 6.37320E+00 3.51158E-01-8.34517E+00-7.36195E-04 1.39414E-03
 -1      1118-2.14412E+00 6.37320E+00 3.51158E-01-8.34517E+00 7.36195E-04-1.39414E-03
 -1      1119-2.14674E+00 6.37650E+00 3.52451E-01-8.35332E+00 2.17527E-03-4.26880E-03
 -1      1120-2.15197E+00 6.38310E+00 3.55081E-01-8.36963E+00 3.51818E-03-7.43841E-03
 -1      1121-2.15988E+00 6.39299E+00 3.58992E-01-8.39409E+00 4.69505E-03-1.11898E-02
 -1      1122-2.17068E+00 6.40593E+00 3.63574E-01-8.42677E+00 5.57334E-03-1.57146E-02
 -1      1123 6.05264E+00-1.80448E+00 2.93117E-01-6.88896E+00-7.27904E-03 9.64275E-03
 -1      1124 6.03650E+00-1.78672E+00 2.94279E-01-6.86484E+00-5.34927E-03 7.89689E-03
 -1      1125 6.02378E+00-1.77390E+00 2.94075E-01-6.84672E+00-3.62435E-03 5.71898E-03
 -1      1126 6.01512E+00-1.76542E+00 2.93868E-01-6.83460E+00-2.11243E-03 3.48595E-03
 -1      1127 6.01077E+00-1.76119E+00 2.93799E-01-6.82853E+00-6.96158E-04 1.17555E-03
 -1      1128 6.01077E+00-1.76119E+00 2.93799E-01-6.82853E+00 6.96158E-04-1.17555E-03
 -1      1129 6.01512E+00-1.76542E+00 2.93868E-01-6.83460E+00 2.11243E-03-3.48595E-03
 -1      1130 6.02378E+00-1.77390E+00 2.94075E-01-6.84672E+00 3.62435E-03-5.71898E-03
 -1      1131 6.03650E+00-1.78672E+00 2.94279E-01-6.86484E+00 5.34927E-03-7.89689E-03
 -1      1132 6.05264E+00-1.80448E+00 2.93117E-01-6.88896E+00 7.27904E-03-9.64275E-03
 -1      1133 9.49175E+00-5.31888E+00 3.12588E-01 4.19442E-04-9.97755E-05 1.41702E-02
 -1      1134 9.46176E+00-5.29040E+00 3.11271E-01 1.26676E-04-1.82192E-04 1.07254E-02
 -1      1135 9.43874E+00-5.26950E+00 3.09402E-01-8.89382E-05-1.82309E-04 7.41132E-03
 -1      1136 9.42324E+00-5.25562E+00 3.08158E-01-2.31337E-04-1.27933E-04 4.38290E-03
 -1      1137 9.41547E+00-5.24867E+00 3.07589E-01-3.02215E-04-4.54989E-05 1.45590E-03
 -1      1138 9.41547E+00-5.24867E+00 3.07589E-01-3.02215E-04 4.54989E-05-1.45590E-03
 -1      1139 9.42324E+00-5.25562E+00 3.08158E-01-2.31337E-04 1.27933E-04-4.38290E-03
 -1      1140 9.43874E+00-5.26950E+00 3.09402E-01-8.89383E-05 1.82309E-04-7.41132E-03
 -1      1141 9.46176E+00-5.29040E+00 3.11271E-01 1.26676E-04 1.82192E-04-1.07254E-02
 -1      1142 9.49175E+00-5.31888E+00 3.12588E-01 4.19442E-04 9.97755E-05-1.41702E-02
 -1      1143 5.83861E+00-1.93508E+00 3.08270E-01 6.59255E+00 9.65924E-03 9.53860E-03
 -1      1144 5.82060E+00-1.91877E+00 3.08332E-01 6.56838E+00 7.36256E-03 7.39803E-03
 -1      1145 5.80664E+00-1.90700E+00 3.07388E-01 6.55022E+00 5.14648E-03 5.16165E-03
 -1      1146 5.79723E+00-1.89921E+00 3.06701E-01 6.53807E+00 3.05326E-03 3.07471E-03
 -1      1147 5.79252E+00-1.89531E+00 3.06392E-01 6.53199E+00 1.01368E-03 1.02583E-03
 -1      1148 5.79252E+00-1.89531E+00 3.06392E-01 6.53199E+00-1.01368E-03-1.02583E-03
 -1      1149 5.79723E+00-1.89921E+00 3.06701E-01 6.53807E+00-3.05326E-03-3.07471E-03
 -1      1150 5.80664E+00-1.90700E+00 3.07388E-01 6.55022E+00-5.14648E-03-5.16165E-03
 -1      1151 5.82060E+00-1.91877E+00 3.08332E-01 6.56838E+00-7.36256E-03-7.39803E-03
 -1      1152 5.83861E+00-1.93508E+00 3.08270E-01 6.59255E+00-9.65924E-03-9.53860E-03
 -1      1153-2.02295E+00 5.22702E+00 2.41400E-01 7.41411E+00 1.34646E-02 5.40104E-03
 -1      1154-2.01196E+00 5.21655E+00 2.39879E-01 7.38602E+00 1.07347E-02 3.84473E-03
 -1      1155-2.00439E+00 5.20833E+00 2.37966E-01 7.36493E+00 7.76589E-03 2.51895E-03
 -1      1156-1.99955E+00 5.20280E+00 2.36676E-01 7.35083E+00 4.71382E-03 1.44811E-03
 -1      1157-1.99717E+00 5.20004E+00 2.36072E-01 7.34377E+00 1.58266E-03 4.76124E-04
 -1      1158-1.99717E+00 5.20004E+00 2.36072E-01 7.34377E+00-1.58266E-03-4.76124E-04
 -1      1159-1.99955E+00 5.20280E+00 2.36676E-01 7.35083E+00-4.71382E-03-1.44811E-03
 -1      1160-2.00439E+00 5.20833E+00 2.37966E-01 7.36493E+00-7.76589E-03-2.51895E-03
 -1      1161-2.01196E+00 5.21655E+00 2.39879E-01 7.38602E+00-1.07347E-02-3.84473E-03
 -1      1162-2.02295E+00 5.22702E+00 2.41400E-01 7.41411E+00-1.34646E-02-5.40104E-03
 -1      1163-8.00741E+00 9.77512E+00-2.49711E-02 1.86403E+00 1.49869E-02-8.98148E-03
 -1      1164-7.97976E+00 9.74863E+00-2.41356E-02 1.85401E+00 1.14623E-02-5.86031E-03
 -1      1165-7.95906E+00 9.72828E+00-2.39611E-02 1.84658E+00 7.95975E-03-3.70036E-03
 -1      1166-7.94519E+00 9.71457E+00-2.37975E-02 1.84165E+00 4.69744E-03-2.02824E-03
 -1      1167-7.93822E+00 9.70769E+00-2.36709E-02 1.83919E+00 1.55574E-03-6.43167E-04
 -1      1168-7.93822E+00 9.70769E+00-2.36709E-02 1.83919E+00-1.55574E-03 6.43167E-04
 -1      1169-7.94519E+00 9.71457E+00-2.37975E-02 1.84165E+00-4.69744E-03 2.02824E-03
 -1      1170-7.95906E+00 9.72828E+00-2.39611E-02 1.84658E+00-7.95975E-03 3.70036E-03
 -1      1171-7.97976E+00 9.74863E+00-2.41356E-02 1.85401E+00-1.14623E-02 5.86031E-03
 -1      1172-8.00741E+00 9.77512E+00-2.49711E-02 1.86403E+00-1.49869E-02 8.98148E-03
 -1      1173-7.28905E+00 8.73364E+00 3.80859E-01-5.22646E+00 1.13422E-02-2.05896E-02
 -1      1174-7.27246E+00 8.69154E+00 3.80408E-01-5.20905E+00 7.64659E-03-1.59258E-02
 -1      1175-7.26021E+00 8.66039E+00 3.79460E-01-5.19614E+00 5.04036E-03-1.12366E-02
 -1      1176-7.25214E+00 8.63979E+00 3.78567E-01-5.18760E+00 2.88049E-03-6.67321E-03
 -1      1177-7.24813E+00 8.62954E+00 3.78052E-01-5.18335E+00 9.37162E-04-2.21220E-03
 -1      1178-7.24813E+00 8.62954E+00 3.78052E-01-5.18335E+00-9.37162E-04 2.21220E-03
 -1      1179-7.25214E+00 8.63979E+00 3.78567E-01-5.18760E+00-2.88049E-03 6.67321E-03
 -1      1180-7.26021E+00 8.66039E+00 3.79460E-01-5.19614E+00-5.04036E-03 1.12366E-02
 -1      1181-7.27246E+00 8.69154E+00 3.80408E-01-5.20905E+00-7.64659E-03 1.59258E-02
 -1      1182-7.28905E+00 8.73364E+00 3.80859E-01-5.22646E+00-1.13422E-02 2.05896E-02
 -1      1183-9.51093E+00 7.63287E-01-6.10248E-01 3.47808E+00-1.26971E-02-2.74977E-02
 -1      1184-9.49046E+00 7.33173E-01-6.14463E-01 3.44957E+00-8.92771E-03-2.40279E-02
 -1      1185-9.47472E+00 7.11044E-01-6.17882E-01 3.42807E+00-5.79850E-03-1.85758E-02
 -1      1186-9.46393E+00 6.96676E-01-6.20092E-01 3.41364E+00-3.27537E-03-1.16958E-02
 -1      1187-9.45845E+00 6.89608E-01-6.21212E-01 3.40639E+00-1.05886E-03-3.98926E-03
 -1      1188-9.45845E+00 6.89608E-01-6.21212E-01 3.40639E+00 1.05886E-03 3.98926E-03
 -1      1189-9.46393E+00 6.96676E-01-6.20092E-01 3.41364E+00 3.27537E-03 1.16958E-02
 -1      1190-9.47472E+00 7.11044E-01-6.17882E-01 3.42807E+00 5.79850E-03 1.85758E-02
 -1      1191-9.49046E+00 7.33173E-01-6.14463E-01 3.44957E+00 8.92771E-03 2.40279E-02
 -1      1192-9.51093E+00 7.63287E-01-6.10248E-01 3.47808E+00 1.26971E-02 2.74977E-02
 -1      1193-1.02862E+01 6.50467E+00 2.62598E-01-3.71047E+00-1.70573E-02-2.04324E-02
 -1      1194-1.02561E+01 6.46467E+00 2.62502E-01-3.70429E+00-1.31469E-02-1.44125E-02
 -1      1195-1.02334E+01 6.43471E+00 2.63210E-01-3.69953E+00-9.24341E-03-9.62716E-03
 -1      1196-1.02182E+01 6.41464E+00 2.63787E-01-3.69628E+00-5.43070E-03-5.55961E-03
 -1      1197-1.02107E+01 6.40455E+00 2.64093E-01-3.69464E+00-1.78551E-03-1.82195E-03
 -1      1198-1.02107E+01 6.40455E+00 2.64093E-01-3.69464E+00 1.78551E-03 1.82195E-03
 -1      1199-1.02182E+01 6.41464E+00 2.63787E-01-3.69628E+00 5.43070E-03 5.55961E-03
 -1      1200-1.02334E+01 6.43471E+00 2.63210E-01-3.69953E+00 9.24341E-03 9.62716E-03
 -1      1201-1.02561E+01 6.46467E+00 2.62502E-01-3.70429E+00 1.31469E-02 1.44125E-02
 -1      1202-1.02862E+01 6.50467E+00 2.62598E-01-3.71047E+00 1.70573E-02 2.04324E-02
 -1      1203-4.41427E+00-4.53843E-01 3.86505E-01-9.57560E+00-6.46429E-03 1.12939E-02
 -1      1204-4.40515E+00-4.66343E-01 3.81361E-01-9.55116E+00-5.57816E-03 8.35065E-03
 -1      1205-4.39822E+00-4.75648E-01 3.77964E-01-9.53278E+00-4.19301E-03 5.62909E-03
 -1      1206-4.39358E+00-4.81847E-01 3.75848E-01-9.52051E+00-2.57531E-03 3.21197E-03
 -1      1207-4.39126E+00-4.84949E-01 3.74827E-01-9.51437E+00-8.66044E-04 1.04025E-03
 -1      1208-4.39126E+00-4.84949E-01 3.74827E-01-9.51437E+00 8.66044E-04-1.04025E-03
 -1      1209-4.39358E+00-4.81847E-01 3.75848E-01-9.52051E+00 2.57531E-03-3.21197E-03
 -1      1210-4.39822E+00-4.75648E-01 3.77964E-01-9.53278E+00 4.19301E-03-5.62909E-03
 -1      1211-4.40515E+00-4.66343E-01 3.81361E-01-9.55116E+00 5.57816E-03-8.35065E-03
 -1      1212-4.41427E+00-4.53843E-01 3.86505E-01-9.57560E+00 6.46429E-03-1.12939E-02
 -1      1213 3.26721E+00-9.84774E+00 3.58575E-01-7.64415E+00-7.21392E-03 7.75514E-03
 -1      1214 3.25393E+00-9.83547E+00 3.57421E-01-7.62553E+00-5.53283E-03 6.62011E-03
 -1      1215 3.24394E+00-9.82608E+00 3.57187E-01-7.61150E+00-3.86300E-03 4.86814E-03
 -1      1216 3.23721E+00-9.81980E+00 3.57176E-01-7.60212E+00-2.26428E-03 2.91670E-03
 -1      1217 3.23382E+00-9.81665E+00 3.57198E-01-7.59742E+00-7.44132E-04 9.65745E-04
 -1      1218 3.23382E+00-9.81665E+00 3.57198E-01-7.59742E+00 7.44132E-04-9.65745E-04
 -1      1219 3.23721E+00-9.81980E+00 3.57176E-01-7.60212E+00 2.26428E-03-2.91670E-03
 -1      1220 3.24394E+00-9.82608E+00 3.57187E-01-7.61150E+00 3.86300E-03-4.86814E-03
 -1      1221 3.25393E+00-9.83547E+00 3.57421E-01-7.62553E+00 5.53283E-03-6.62011E-03
 -1      1222 3.26721E+00-9.84774E+00 3.58575E-01-7.64415E+00 7.21392E-03-7.75514E-03
 -1      1223 6.60492E+00-1.39051E+01 3.51027E-01 5.43574E-03-5.29589E-04 1.24848E-02
 -1      1224 6.58025E+00-1.38842E+01 3.47696E-01 5.02538E-03-4.32575E-04 9.83216E-03
 -1      1225 6.56176E+00-1.38683E+01 3.45992E-01 4.72642E-03-3.22776E-04 6.89603E-03
 -1      1226 6.54939E+00-1.38577E+01 3.45084E-01 4.53109E-03-1.99936E-04 4.02386E-03
 -1      1227 6.54319E+00-1.38523E+01 3.44683E-01 4.43457E-03-6.77422E-05 1.31640E-03
 -1      1228 6.54319E+00-1.38523E+01 3.44683E-01 4.43457E-03 6.77422E-05-1.31640E-03
 -1      1229 6.54939E+00-1.38577E+01 3.45084E-01 4.53109E-03 1.99936E-04-4.02386E-03
 -1      1230 6.56176E+00-1.38683E+01 3.45992E-01 4.72642E-03 3.22776E-04-6.89603E-03
 -1      1231 6.58025E+00-1.38842E+01 3.47696E-01 5.02538E-03 4.32575E-04-9.83216E-03
 -1      1232 6.60492E+00-1.39051E+01 3.51027E-01 5.43574E-03 5.29589E-04-1.24848E-02
 -1      1233 3.10762E+00-1.01389E+01 3.27731E-01 7.47702E+00 8.66237E-03 7.48894E-03
 -1      1234 3.09275E+00-1.01269E+01 3.26605E-01 7.45826E+00 6.55114E-03 6.38662E-03
 -1      1235 3.08165E+00-1.01178E+01 3.26298E-01 7.44410E+00 4.54796E-03 4.68681E-03
 -1      1236 3.07423E+00-1.01117E+01 3.26202E-01 7.43463E+00 2.66299E-03 2.80405E-03
 -1      1237 3.07051E+00-1.01086E+01 3.26174E-01 7.42988E+00 8.75383E-04 9.27838E-04
 -1      1238 3.07051E+00-1.01086E+01 3.26174E-01 7.42988E+00-8.75383E-04-9.27838E-04
 -1      1239 3.07423E+00-1.01117E+01 3.26202E-01 7.43463E+00-2.66299E-03-2.80405E-03
 -1      1240 3.08165E+00-1.01178E+01 3.26298E-01 7.44410E+00-4.54796E-03-4.68681E-03
 -1      1241 3.09275E+00-1.01269E+01 3.26605E-01 7.45826E+00-6.55114E-03-6.38662E-03
 -1      1242 3.10762E+00-1.01389E+01 3.27731E-01 7.47702E+00-8.66237E-03-7.48894E-03
 -1      1243-4.29663E+00-1.73230E+00 2.80760E-01 9.09403E+00 1.10914E-02 7.53111E-03
 -1      1244-4.29081E+00-1.74194E+00 2.75843E-01 9.07197E+00 9.43362E-03 5.12623E-03
 -1      1245-4.28650E+00-1.74903E+00 2.73041E-01 9.05531E+00 7.00866E-03 3.12385E-03
 -1      1246-4.28370E+00-1.75372E+00 2.71466E-01 9.04416E+00 4.26711E-03 1.61424E-03
 -1      1247-4.28233E+00-1.75606E+00 2.70754E-01 9.03857E+00 1.42846E-03 4.90600E-04
 -1      1248-4.28233E+00-1.75606E+00 2.70754E-01 9.03857E+00-1.42846E-03-4.90600E-04
 -1      1249-4.28370E+00-1.75372E+00 2.71466E-01 9.04416E+00-4.26711E-03-1.61424E-03
 -1      1250-4.28650E+00-1.74903E+00 2.73041E-01 9.05531E+00-7.00866E-03-3.12385E-03
 -1      1251-4.29081E+00-1.74194E+00 2.75843E-01 9.07197E+00-9.43362E-03-5.12623E-03
 -1      1252-4.29663E+00-1.73230E+00 2.80760E-01 9.09403E+00-1.10914E-02-7.53111E-03
 -1      1253-9.64729E+00 4.76502E+00-2.61192E-02 4.11099E+00 1.23053E-02-1.49931E-02
 -1      1254-9.62115E+00 4.74666E+00-2.23483E-02 4.10585E+00 8.92551E-03-9.50568E-03
 -1      1255-9.60142E+00 4.73287E+00-1.95756E-02 4.10206E+00 6.13009E-03-5.65943E-03
 -1      1256-9.58826E+00 4.72362E+00-1.78452E-02 4.09957E+00 3.58817E-03-2.95956E-03
 -1      1257-9.58168E+00 4.71897E+00-1.70214E-02 4.09833E+00 1.18124E-03-9.15630E-04
 -1      1258-9.58168E+00 4.71897E+00-1.70214E-02 4.09833E+00-1.18124E-03 9.15630E-04
 -1      1259-9.58826E+00 4.72362E+00-1.78452E-02 4.09957E+00-3.58817E-03 2.95956E-03
 -1      1260-9.60142E+00 4.73287E+00-1.95756E-02 4.10206E+00-6.13009E-03 5.65943E-03
 -1      1261-9.62115E+00 4.74666E+00-2.23483E-02 4.10585E+00-8.92551E-03 9.50568E-03
 -1      1262-9.64729E+00 4.76502E+00-2.61192E-02 4.11099E+00-1.23053E-02 1.49931E-02
 -1      1263-8.34168E+00 6.53878E+00 4.89585E-01-2.80271E+00 1.06200E-02 3.00037E-03
 -1      1264-8.33137E+00 6.49502E+00 4.81503E-01-2.79168E+00 9.36156E-03 1.55616E-03
 -1      1265-8.32340E+00 6.46231E+00 4.76271E-01-2.78361E+00 6.83895E-03 5.78541E-04
 -1      1266-8.31795E+00 6.44060E+00 4.73173E-01-2.77831E+00 4.07296E-03 1.13310E-04
 -1      1267-8.31518E+00 6.42977E+00 4.71735E-01-2.77569E+00 1.34521E-03-2.62035E-06
 -1      1268-8.31518E+00 6.42977E+00 4.71735E-01-2.77569E+00-1.34521E-03 2.62035E-06
 -1      1269-8.31795E+00 6.44060E+00 4.73173E-01-2.77831E+00-4.07296E-03-1.13310E-04
 -1      1270-8.32340E+00 6.46231E+00 4.76271E-01-2.78361E+00-6.83895E-03-5.78541E-04
 -1      1271-8.33137E+00 6.49502E+00 4.81503E-01-2.79168E+00-9.36156E-03-1.55616E-03
 -1      1272-8.34168E+00 6.53878E+00 4.89585E-01-2.80271E+00-1.06200E-02-3.00037E-03
 -1      1273-8.75459E+00-1.75442E-01-6.15778E-01 1.06229E+00-1.22040E-02-1.92286E-02
 -1      1274-8.73917E+00-1.96539E-01-6.15802E-01 1.04543E+00-9.17284E-03-1.64238E-02
 -1      1275-8.72740E+00-2.11970E-01-6.16310E-01 1.03256E+00-6.44114E-03-1.24394E-02
 -1      1276-8.71948E+00-2.22108E-01-6.16936E-01 1.02389E+00-3.82469E-03-7.73233E-03
 -1      1277-8.71550E+00-2.27127E-01-6.17320E-01 1.01953E+00-1.26949E-03-2.62075E-03
 -1      1278-8.71550E+00-2.27127E-01-6.17320E-01 1.01953E+00 1.26949E-03 2.62075E-03
 -1      1279-8.71948E+00-2.22108E-01-6.16936E-01 1.02389E+00 3.82469E-03 7.73233E-03
 -1      1280-8.72740E+00-2.11970E-01-6.16310E-01 1.03256E+00 6.44114E-03 1.24394E-02
 -1      1281-8.73917E+00-1.96539E-01-6.15802E-01 1.04543E+00 9.17284E-03 1.64238E-02
 -1      1282-8.75459E+00-1.75442E-01-6.15778E-01 1.06229E+00 1.22040E-02 1.92286E-02
 -1      1283-1.06065E+01 1.43361E+00 1.66477E-01-5.35768E+00-1.37263E-02-1.34133E-02
 -1      1284-1.05798E+01 1.40185E+00 1.70750E-01-5.35384E+00-8.55906E-03-1.07796E-02
 -1      1285-1.05598E+01 1.37806E+00 1.73886E-01-5.35096E+00-5.13564E-03-7.69139E-03
 -1      1286-1.05465E+01 1.36226E+00 1.75950E-01-5.34906E+00-2.74342E-03-4.55847E-03
 -1      1287-1.05398E+01 1.35439E+00 1.76963E-01-5.34811E+00-8.63141E-04-1.50541E-03
 -1      1288-1.05398E+01 1.35439E+00 1.76963E-01-5.34811E+00 8.63141E-04 1.50541E-03
 -1      1289-1.05465E+01 1.36226E+00 1.75950E-01-5.34906E+00 2.74342E-03 4.55847E-03
 -1      1290-1.05598E+01 1.37806E+00 1.73886E-01-5.35096E+00 5.13564E-03 7.69139E-03
 -1      1291-1.05798E+01 1.40185E+00 1.70750E-01-5.35384E+00 8.55906E-03 1.07796E-02
 -1      1292-1.06065E+01 1.43361E+00 1.66477E-01-5.35768E+00 1.37263E-02 1.34133E-02
 -1      1293-6.27647E+00-7.05172E+00 3.92343E-01-1.04674E+01-7.35841E-03 7.91823E-03
 -1      1294-6.26732E+00-7.06191E+00 3.92180E-01-1.04487E+01-5.14378E-03 4.55014E-03
 -1      1295-6.26036E+00-7.06959E+00 3.92054E-01-1.04348E+01-3.41574E-03 2.56432E-03
 -1      1296-6.25568E+00-7.07472E+00 3.91942E-01-1.04255E+01-1.96158E-03 1.31080E-03
 -1      1297-6.25332E+00-7.07728E+00 3.91871E-01-1.04209E+01-6.40758E-04 4.03218E-04
 -1      1298-6.25332E+00-7.07728E+00 3.91871E-01-1.04209E+01 6.40758E-04-4.03218E-04
 -1      1299-6.25568E+00-7.07472E+00 3.91942E-01-1.04255E+01 1.96158E-03-1.31080E-03
 -1      1300-6.26036E+00-7.06959E+00 3.92054E-01-1.04348E+01 3.41574E-03-2.56432E-03
 -1      1301-6.26732E+00-7.06191E+00 3.92180E-01-1.04487E+01 5.14378E-03-4.55014E-03
 -1      1302-6.27647E+00-7.05172E+00 3.92343E-01-1.04674E+01 7.35841E-03-7.91823E-03
 -1      1303 5.57901E-01-1.72999E+01 3.92211E-01-8.18090E+00-7.95559E-03 7.41269E-03
 -1      1304 5.47191E-01-1.72895E+01 3.96049E-01-8.16597E+00-5.44100E-03 3.86592E-03
 -1      1305 5.39226E-01-1.72818E+01 3.98733E-01-8.15485E+00-3.57216E-03 1.99520E-03
 -1      1306 5.33978E-01-1.72766E+01 4.00409E-01-8.14748E+00-2.04160E-03 9.60311E-04
 -1      1307 5.31376E-01-1.72740E+01 4.01204E-01-8.14381E+00-6.65809E-04 2.87109E-04
 -1      1308 5.31376E-01-1.72740E+01 4.01204E-01-8.14381E+00 6.65809E-04-2.87109E-04
 -1      1309 5.33978E-01-1.72766E+01 4.00409E-01-8.14748E+00 2.04160E-03-9.60311E-04
 -1      1310 5.39226E-01-1.72818E+01 3.98733E-01-8.15485E+00 3.57216E-03-1.99520E-03
 -1      1311 5.47191E-01-1.72895E+01 3.96049E-01-8.16597E+00 5.44100E-03-3.86592E-03
 -1      1312 5.57901E-01-1.72999E+01 3.92211E-01-8.18090E+00 7.95559E-03-7.41269E-03
 -1      1313 3.69536E+00-2.17211E+01 3.60791E-01 3.86421E-03-9.20326E-04 1.21900E-02
 -1      1314 3.67523E+00-2.17033E+01 3.63519E-01 3.38752E-03-6.80002E-04 6.98016E-03
 -1      1315 3.66035E+00-2.16899E+01 3.65476E-01 3.04664E-03-4.62525E-04 3.94604E-03
 -1      1316 3.65058E+00-2.16810E+01 3.66704E-01 2.82636E-03-2.67691E-04 2.03424E-03
 -1      1317 3.64574E+00-2.16766E+01 3.67285E-01 2.71812E-03-8.75799E-05 6.30190E-04
 -1      1318 3.64574E+00-2.16766E+01 3.67285E-01 2.71812E-03 8.75799E-05-6.30190E-04
 -1      1319 3.65058E+00-2.16810E+01 3.66704E-01 2.82636E-03 2.67691E-04-2.03424E-03
 -1      1320 3.66035E+00-2.16899E+01 3.65476E-01 3.04664E-03 4.62525E-04-3.94604E-03
 -1      1321 3.67523E+00-2.17033E+01 3.63519E-01 3.38752E-03 6.80002E-04-6.98016E-03
 -1      1322 3.69536E+00-2.17211E+01 3.60791E-01 3.86421E-03 9.20326E-04-1.21900E-02
 -1      1323 4.26935E-01-1.76611E+01 3.22248E-01 8.13380E+00 7.79528E-03 7.55184E-03
 -1      1324 4.15708E-01-1.76503E+01 3.26239E-01 8.11834E+00 5.16233E-03 4.42174E-03
 -1      1325 4.07407E-01-1.76423E+01 3.28955E-01 8.10677E+00 3.26277E-03 2.63457E-03
 -1      1326 4.01954E-01-1.76370E+01 3.30617E-01 8.09908E+00 1.80582E-03 1.43854E-03
 -1      1327 3.99255E-01-1.76344E+01 3.31396E-01 8.09525E+00 5.78405E-04 4.61911E-04
 -1      1328 3.99255E-01-1.76344E+01 3.31396E-01 8.09525E+00-5.78405E-04-4.61911E-04
 -1      1329 4.01954E-01-1.76370E+01 3.30617E-01 8.09908E+00-1.80582E-03-1.43854E-03
 -1      1330 4.07407E-01-1.76423E+01 3.28955E-01 8.10677E+00-3.26277E-03-2.63457E-03
 -1      1331 4.15708E-01-1.76503E+01 3.26239E-01 8.11834E+00-5.16233E-03-4.42174E-03
 -1      1332 4.26935E-01-1.76611E+01 3.22248E-01 8.13380E+00-7.79528E-03-7.55184E-03
 -1      1333-6.39297E+00-8.24886E+00 2.99850E-01 1.04925E+01 1.17179E-02 7.75050E-03
 -1      1334-6.39123E+00-8.25599E+00 3.01202E-01 1.04737E+01 8.18273E-03 2.74631E-03
 -1      1335-6.38978E+00-8.26115E+00 3.02174E-01 1.04598E+01 5.54207E-03 4.72414E-04
 -1      1336-6.38873E+00-8.26450E+00 3.02746E-01 1.04506E+01 3.25605E-03-2.36720E-04
 -1      1337-6.38818E+00-8.26615E+00 3.02996E-01 1.04460E+01 1.07857E-03-1.58407E-04
 -1      1338-6.38818E+00-8.26615E+00 3.02996E-01 1.04460E+01-1.07857E-03 1.58407E-04
 -1      1339-6.38873E+00-8.26450E+00 3.02746E-01 1.04506E+01-3.25605E-03 2.36720E-04
 -1      1340-6.38978E+00-8.26115E+00 3.02174E-01 1.04598E+01-5.54207E-03-4.72414E-04
 -1      1341-6.39123E+00-8.25599E+00 3.01202E-01 1.04737E+01-8.18273E-03-2.74631E-03
 -1      1342-6.39297E+00-8.24886E+00 2.99850E-01 1.04925E+01-1.17179E-02-7.75050E-03
 -1      1343-1.08658E+01-1.11400E-01 3.94855E-02 6.08499E+00 9.34670E-03-1.65998E-02
 -1      1344-1.08398E+01-1.23876E-01 4.26907E-02 6.08486E+00 6.91482E-03-1.04997E-02
 -1      1345-1.08205E+01-1.33590E-01 4.51740E-02 6.08467E+00 4.62334E-03-6.21246E-03
 -1      1346-1.08077E+01-1.40195E-01 4.69313E-02 6.08449E+00 2.62162E-03-3.21667E-03
 -1      1347-1.08013E+01-1.43531E-01 4.78464E-02 6.08438E+00 8.46230E-04-9.87801E-04
 -1      1348-1.08013E+01-1.43531E-01 4.78464E-02 6.08438E+00-8.46230E-04 9.87801E-04
 -1      1349-1.08077E+01-1.40195E-01 4.69313E-02 6.08449E+00-2.62162E-03 3.21667E-03
 -1      1350-1.08205E+01-1.33590E-01 4.51740E-02 6.08467E+00-4.62334E-03 6.21246E-03
 -1      1351-1.08398E+01-1.23876E-01 4.26907E-02 6.08486E+00-6.91482E-03 1.04997E-02
 -1      1352-1.08658E+01-1.11400E-01 3.94855E-02 6.08499E+00-9.34670E-03 1.65998E-02
 -1      1353-8.62397E+00 3.97156E+00 4.26450E-01-4.30174E-01 1.16124E-02 1.98634E-02
 -1      1354-8.61226E+00 3.92985E+00 4.27933E-01-4.24115E-01 6.40852E-03 1.29475E-02
 -1      1355-8.60323E+00 3.89926E+00 4.28660E-01-4.19427E-01 3.66379E-03 8.16329E-03
 -1      1356-8.59714E+00 3.87920E+00 4.28802E-01-4.16227E-01 1.95636E-03 4.52676E-03
 -1      1357-8.59408E+00 3.86928E+00 4.28745E-01-4.14604E-01 6.23226E-04 1.45275E-03
 -1      1358-8.59408E+00 3.86928E+00 4.28745E-01-4.14604E-01-6.23226E-04-1.45275E-03
 -1      1359-8.59714E+00 3.87920E+00 4.28802E-01-4.16227E-01-1.95636E-03-4.52676E-03
 -1      1360-8.60323E+00 3.89926E+00 4.28660E-01-4.19427E-01-3.66379E-03-8.16329E-03
 -1      1361-8.61226E+00 3.92985E+00 4.27933E-01-4.24115E-01-6.40852E-03-1.29475E-02
 -1      1362-8.62397E+00 3.97156E+00 4.26450E-01-4.30174E-01-1.16124E-02-1.98634E-02
 -1      1363-7.75404E+00-1.15315E+00-6.27112E-01-1.10309E+00-8.75755E-03-1.05369E-02
 -1      1364-7.74182E+00-1.16836E+00-6.28618E-01-1.11182E+00-8.73751E-03-7.69168E-03
 -1      1365-7.73280E+00-1.17927E+00-6.30484E-01-1.11831E+00-7.27246E-03-5.41268E-03
 -1      1366-7.72685E+00-1.18630E+00-6.32017E-01-1.12262E+00-4.77691E-03-3.26147E-03
 -1      1367-7.72390E+00-1.18975E+00-6.32868E-01-1.12477E+00-1.66080E-03-1.09384E-03
 -1      1368-7.72390E+00-1.18975E+00-6.32868E-01-1.12477E+00 1.66080E-03 1.09384E-03
 -1      1369-7.72685E+00-1.18630E+00-6.32017E-01-1.12262E+00 4.77691E-03 3.26147E-03
 -1      1370-7.73280E+00-1.17927E+00-6.30484E-01-1.11831E+00 7.27246E-03 5.41268E-03
 -1      1371-7.74182E+00-1.16836E+00-6.28618E-01-1.11182E+00 8.73751E-03 7.69168E-03
 -1      1372-7.75404E+00-1.15315E+00-6.27112E-01-1.10309E+00 8.75755E-03 1.05369E-02
 -1      1373-1.04278E+01-3.52033E+00 1.31296E-01-6.95057E+00-6.61669E-03-3.06388E-03
 -1      1374-1.04112E+01-3.54921E+00 1.24864E-01-6.94767E+00-5.00107E-03-9.69991E-04
 -1      1375-1.03990E+01-3.56962E+00 1.19290E-01-6.94562E+00-3.77563E-03-1.55802E-04
 -1      1376-1.03911E+01-3.58267E+00 1.15293E-01-6.94430E+00-2.41175E-03 6.25276E-05
 -1      1377-1.03871E+01-3.58903E+00 1.13229E-01-6.94365E+00-8.34220E-04 4.14129E-05
 -1      1378-1.03871E+01-3.58903E+00 1.13229E-01-6.94365E+00 8.34220E-04-4.14129E-05
 -1      1379-1.03911E+01-3.58267E+00 1.15293E-01-6.94430E+00 2.41175E-03-6.25276E-05
 -1      1380-1.03990E+01-3.56962E+00 1.19290E-01-6.94562E+00 3.77563E-03 1.55802E-04
 -1      1381-1.04112E+01-3.54921E+00 1.24864E-01-6.94767E+00 5.00107E-03 9.69991E-04
 -1      1382-1.04278E+01-3.52033E+00 1.31296E-01-6.95057E+00 6.61669E-03 3.06388E-03
 -1      1383-7.85469E+00-1.33996E+01 4.35409E-01-1.12587E+01-6.07602E-03 4.38017E-03
 -1      1384-7.85037E+00-1.34106E+01 4.29245E-01-1.12453E+01-4.77274E-03 3.97169E-03
 -1      1385-7.84692E+00-1.34184E+01 4.24131E-01-1.12357E+01-3.61351E-03 3.11482E-03
 -1      1386-7.84452E+00-1.34233E+01 4.20539E-01-1.12294E+01-2.29330E-03 1.97143E-03
 -1      1387-7.84330E+00-1.34257E+01 4.18699E-01-1.12263E+01-7.89199E-04 6.73359E-04
 -1      1388-7.84330E+00-1.34257E+01 4.18699E-01-1.12263E+01 7.89199E-04-6.73359E-04
 -1      1389-7.84452E+00-1.34233E+01 4.20539E-01-1.12294E+01 2.29330E-03-1.97143E-03
 -1      1390-7.84692E+00-1.34184E+01 4.24131E-01-1.12357E+01 3.61351E-03-3.11482E-03
 -1      1391-7.85037E+00-1.34106E+01 4.29245E-01-1.12453E+01 4.77274E-03-3.97169E-03
 -1      1392-7.85469E+00-1.33996E+01 4.35409E-01-1.12587E+01 6.07602E-03-4.38017E-03
 -1      1393-2.04069E+00-2.43030E+01 4.39180E-01-8.61825E+00-7.88482E-03 5.29837E-03
 -1      1394-2.05424E+00-2.42994E+01 4.32189E-01-8.60713E+00-6.57199E-03 5.36973E-03
 -1      1395-2.06364E+00-2.42966E+01 4.25988E-01-8.59912E+00-4.97095E-03 4.57413E-03
 -1      1396-2.06955E+00-2.42946E+01 4.21492E-01-8.59391E+00-3.10229E-03 3.05296E-03
 -1      1397-2.07242E+00-2.42936E+01 4.19155E-01-8.59134E+00-1.05485E-03 1.07012E-03
 -1      1398-2.07242E+00-2.42936E+01 4.19155E-01-8.59134E+00 1.05485E-03-1.07012E-03
 -1      1399-2.06955E+00-2.42946E+01 4.21492E-01-8.59391E+00 3.10229E-03-3.05296E-03
 -1      1400-2.06364E+00-2.42966E+01 4.25988E-01-8.59912E+00 4.97095E-03-4.57413E-03
 -1      1401-2.05424E+00-2.42994E+01 4.32189E-01-8.60713E+00 6.57199E-03-5.36973E-03
 -1      1402-2.04069E+00-2.43030E+01 4.39180E-01-8.61825E+00 7.88482E-03-5.29837E-03
 -1      1403 8.46682E-01-2.89551E+01 3.91308E-01-5.92879E-03-9.01613E-04 9.31722E-03
 -1      1404 8.25901E-01-2.89457E+01 3.83094E-01-6.27557E-03-5.28774E-04 8.59851E-03
 -1      1405 8.11414E-01-2.89385E+01 3.75960E-01-6.53797E-03-3.10498E-04 6.97365E-03
 -1      1406 8.02237E-01-2.89337E+01 3.70841E-01-6.71396E-03-1.65498E-04 4.53871E-03
 -1      1407 7.97786E-01-2.89313E+01 3.68192E-01-6.80225E-03-5.22367E-05 1.57380E-03
 -1      1408 7.97786E-01-2.89313E+01 3.68192E-01-6.80225E-03 5.22367E-05-1.57380E-03
 -1      1409 8.02237E-01-2.89337E+01 3.70841E-01-6.71396E-03 1.65498E-04-4.53871E-03
 -1      1410 8.11414E-01-2.89385E+01 3.75960E-01-6.53797E-03 3.10498E-04-6.97365E-03
 -1      1411 8.25901E-01-2.89457E+01 3.83094E-01-6.27557E-03 5.28774E-04-8.59851E-03
 -1      1412 8.46682E-01-2.89551E+01 3.91308E-01-5.92879E-03 9.01613E-04-9.31722E-03
 -1      1413-2.15715E+00-2.46408E+01 3.40360E-01 8.64047E+00 4.78520E-03 7.20975E-03
 -1      1414-2.16947E+00-2.46361E+01 3.33575E-01 8.62824E+00 3.49447E-03 7.46201E-03
 -1      1415-2.17814E+00-2.46324E+01 3.27570E-01 8.61944E+00 2.51726E-03 6.29880E-03
 -1      1416-2.18367E+00-2.46298E+01 3.23217E-01 8.61374E+00 1.55369E-03 4.15874E-03
 -1      1417-2.18636E+00-2.46285E+01 3.20953E-01 8.61093E+00 5.28281E-04 1.44875E-03
 -1      1418-2.18636E+00-2.46285E+01 3.20953E-01 8.61093E+00-5.28281E-04-1.44875E-03
 -1      1419-2.18367E+00-2.46298E+01 3.23217E-01 8.61374E+00-1.55369E-03-4.15874E-03
 -1      1420-2.17814E+00-2.46324E+01 3.27570E-01 8.61944E+00-2.51726E-03-6.29880E-03
 -1      1421-2.16947E+00-2.46361E+01 3.33575E-01 8.62824E+00-3.49447E-03-7.46201E-03
 -1      1422-2.15715E+00-2.46408E+01 3.40360E-01 8.64047E+00-4.78520E-03-7.20975E-03
 -1      1423-8.35412E+00-1.44033E+01 3.20554E-01 1.17113E+01 1.22596E-02 2.69843E-03
 -1      1424-8.36167E+00-1.44130E+01 3.10937E-01 1.16961E+01 1.14686E-02 2.24801E-03
 -1      1425-8.36642E+00-1.44199E+01 3.02511E-01 1.16854E+01 9.24591E-03 1.87157E-03
 -1      1426-8.36917E+00-1.44243E+01 2.96448E-01 1.16785E+01 5.96938E-03 1.26911E-03
 -1      1427-8.37043E+00-1.44265E+01 2.93307E-01 1.16751E+01 2.05992E-03 4.50727E-04
 -1      1428-8.37043E+00-1.44265E+01 2.93307E-01 1.16751E+01-2.05992E-03-4.50727E-04
 -1      1429-8.36917E+00-1.44243E+01 2.96448E-01 1.16785E+01-5.96938E-03-1.26911E-03
 -1      1430-8.36642E+00-1.44199E+01 3.02511E-01 1.16854E+01-9.24591E-03-1.87157E-03
 -1      1431-8.36167E+00-1.44130E+01 3.10937E-01 1.16961E+01-1.14686E-02-2.24801E-03
 -1      1432-8.35412E+00-1.44033E+01 3.20554E-01 1.17113E+01-1.22596E-02-2.69843E-03
 -1      1433-1.19263E+01-4.71753E+00 2.02128E-01 7.91216E+00 5.46987E-03-1.13911E-02
 -1      1434-1.19025E+01-4.72462E+00 2.06896E-01 7.91533E+00 1.71813E-03-6.99181E-03
 -1      1435-1.18854E+01-4.72957E+00 2.11187E-01 7.91719E+00 6.34736E-05-4.34029E-03
 -1      1436-1.18743E+01-4.73272E+00 2.14305E-01 7.91820E+00-3.75398E-04-2.42712E-03
 -1      1437-1.18689E+01-4.73426E+00 2.15927E-01 7.91864E+00-1.89005E-04-7.87055E-04
 -1      1438-1.18689E+01-4.73426E+00 2.15927E-01 7.91864E+00 1.89005E-04 7.87055E-04
 -1      1439-1.18743E+01-4.73272E+00 2.14305E-01 7.91820E+00 3.75398E-04 2.42712E-03
 -1      1440-1.18854E+01-4.72957E+00 2.11187E-01 7.91719E+00-6.34736E-05 4.34029E-03
 -1      1441-1.19025E+01-4.72462E+00 2.06896E-01 7.91533E+00-1.71813E-03 6.99181E-03
 -1      1442-1.19263E+01-4.71753E+00 2.02128E-01 7.91216E+00-5.46987E-03 1.13911E-02
 -1      1443-8.01548E+00 9.14989E-01 2.58771E-01 2.18242E+00 6.94676E-03 3.18041E-02
 -1      1444-8.01274E+00 8.69292E-01 2.38919E-01 2.18496E+00 9.74281E-03 2.50422E-02
 -1      1445-8.01080E+00 8.37122E-01 2.21696E-01 2.18707E+00 9.52902E-03 1.79099E-02
 -1      1446-8.00951E+00 8.16625E-01 2.09366E-01 2.18856E+00 6.79689E-03 1.07166E-02
 -1      1447-8.00886E+00 8.06651E-01 2.02992E-01 2.18932E+00 2.44960E-03 3.56358E-03
 -1      1448-8.00886E+00 8.06651E-01 2.02992E-01 2.18932E+00-2.44960E-03-3.56358E-03
 -1      1449-8.00951E+00 8.16625E-01 2.09366E-01 2.18856E+00-6.79689E-03-1.07166E-02
 -1      1450-8.01080E+00 8.37122E-01 2.21696E-01 2.18707E+00-9.52902E-03-1.79099E-02
 -1      1451-8.01274E+00 8.69292E-01 2.38919E-01 2.18496E+00-9.74281E-03-2.50422E-02
 -1      1452-8.01548E+00 9.14989E-01 2.58771E-01 2.18242E+00-6.94676E-03-3.18041E-02
 -3
    1PSTEP                         3           1           1          
  100CL  101 1.000000000        1452                     0    1           1
 -4  ERROR       1    1
 -5  STR(%)      1    1    0    0
 -1         1 7.05276E+01
 -1         2 3.00070E+01
 -1         3 6.06206E+01
 -1         4 2.20755E+01
 -1         5 7.05276E+01
 -1         6 3.00070E+01
 -1         7 6.06206E+01
 -1         8 2.20755E+01
 -1         9 7.05276E+01
 -1        10 5.87873E+01
 -1        11 5.12524E+01
 -1        12 4.39476E+01
 -1        13 3.69119E+01
 -1        14 3.07804E+01
 -1        15 2.55971E+01
 -1        16 2.15153E+01
 -1        17 3.00070E+01
 -1        18 3.00070E+01
 -1        19 9.34280E+00
 -1        20 5.25805E+00
 -1        21 4.13277E+00
 -1        22 3.42563E+00
 -1        23 3.89305E+00
 -1        24 4.66819E+00
 -1        25 8.69195E+00
 -1        26 6.06206E+01
 -1        27 6.06206E+01
 -1        28 3.91091E+01
 -1        29 2.96936E+01
 -1        30 4.96309E+01
 -1        31 4.96309E+01
 -1        32 4.14993E+01
 -1        33 3.31026E+01
 -1        34 2.41298E+01
 -1        35 2.20755E+01
 -1        36 7.05276E+01
 -1        37 3.88957E+01
 -1        38 1.99118E+01
 -1        39 1.68029E+01
 -1        40 1.65531E+01
 -1        41 1.68919E+01
 -1        42 1.73536E+01
 -1        43 1.73536E+01
 -1        44 2.20755E+01
 -1        45 7.05276E+01
 -1        46 5.87873E+01
 -1        47 5.12524E+01
 -1        48 4.39476E+01
 -1        49 3.69119E+01
 -1        50 3.07804E+01
 -1        51 2.55971E+01
 -1        52 2.15153E+01
 -1        53 3.00070E+01
 -1        54 3.00070E+01
 -1        55 9.34280E+00
 -1        56 5.25805E+00
 -1        57 4.13277E+00
 -1        58 3.42563E+00
 -1        59 3.89305E+00
 -1        60 4.66819E+00
 -1        61 8.69195E+00
 -1        62 6.06206E+01
 -1        63 6.06206E+01
 -1        64 3.91091E+01
 -1        65 2.96936E+01
 -1        66 4.96309E+01
 -1        67 4.96309E+01
 -1        68 4.14993E+01
 -1        69 3.31026E+01
 -1        70 2.41298E+01
 -1        71 2.20755E+01
 -1        72 2.20755E+01
 -1        73 1.73536E+01
 -1        74 1.73536E+01
 -1        75 1.68919E+01
 -1        76 1.65531E+01
 -1        77 1.68029E+01
 -1        78 1.99118E+01
 -1        79 3.88957E+01
 -1        80 7.05276E+01
 -1        81 7.14383E+01
 -1        82 7.21648E+01
 -1        83 7.26699E+01
 -1        84 7.29625E+01
 -1        85 7.30519E+01
 -1        86 7.30519E+01
 -1        87 7.29625E+01
 -1        88 7.26699E+01
 -1        89 7.21648E+01
 -1        90 7.14383E+01
 -1        91 3.00070E+01
 -1        92 3.00033E+01
 -1        93 2.99878E+01
 -1        94 2.99694E+01
 -1        95 2.99515E+01
 -1        96 2.99515E+01
 -1        97 2.99694E+01
 -1        98 2.99878E+01
 -1        99 3.00033E+01
 -1       100 3.00070E+01
 -1       101 6.07525E+01
 -1       102 6.08679E+01
 -1       103 6.09534E+01
 -1       104 6.10021E+01
 -1       105 6.10105E+01
 -1       106 6.10105E+01
 -1       107 6.10021E+01
 -1       108 6.09534E+01
 -1       109 6.08679E+01
 -1       110 6.07525E+01
 -1       111 2.31390E+01
 -1       112 2.37652E+01
 -1       113 2.41021E+01
 -1       114 2.42251E+01
 -1       115 2.42251E+01
 -1       116 2.42251E+01
 -1       117 2.42251E+01
 -1       118 2.41021E+01
 -1       119 2.37652E+01
 -1       120 2.31390E+01
 -1       121 7.05276E+01
 -1       122 3.88957E+01
 -1       123 2.45060E+01
 -1       124 2.12565E+01
 -1       125 1.74611E+01
 -1       126 2.10287E+01
 -1       127 2.33734E+01
 -1       128 2.57098E+01
 -1       129 2.57098E+01
 -1       130 5.87873E+01
 -1       131 3.95399E+01
 -1       132 2.72006E+01
 -1       133 2.72006E+01
 -1       134 2.11798E+01
 -1       135 2.73076E+01
 -1       136 2.86971E+01
 -1       137 3.13195E+01
 -1       138 3.13195E+01
 -1       139 5.12524E+01
 -1       140 4.51894E+01
 -1       141 3.20108E+01
 -1       142 3.20108E+01
 -1       143 3.03644E+01
 -1       144 3.54785E+01
 -1       145 3.54785E+01
 -1       146 3.53943E+01
 -1       147 3.53943E+01
 -1       148 4.99607E+01
 -1       149 4.99607E+01
 -1       150 3.39557E+01
 -1       151 3.20108E+01
 -1       152 3.03644E+01
 -1       153 3.81411E+01
 -1       154 3.96445E+01
 -1       155 3.96445E+01
 -1       156 4.14993E+01
 -1       157 5.56996E+01
 -1       158 5.56996E+01
 -1       159 4.05314E+01
 -1       160 3.32968E+01
 -1       161 2.28572E+01
 -1       162 3.85404E+01
 -1       163 4.50297E+01
 -1       164 4.50297E+01
 -1       165 4.96309E+01
 -1       166 5.56996E+01
 -1       167 5.56996E+01
 -1       168 4.86468E+01
 -1       169 3.32968E+01
 -1       170 1.91199E+01
 -1       171 3.85404E+01
 -1       172 5.11824E+01
 -1       173 5.11824E+01
 -1       174 4.96309E+01
 -1       175 2.55971E+01
 -1       176 4.86468E+01
 -1       177 4.86468E+01
 -1       178 1.84464E+01
 -1       179 1.84464E+01
 -1       180 1.82782E+01
 -1       181 5.11824E+01
 -1       182 5.11824E+01
 -1       183 4.69125E+01
 -1       184 2.15153E+01
 -1       185 1.67778E+01
 -1       186 7.53735E+00
 -1       187 7.29541E+00
 -1       188 7.33893E+00
 -1       189 7.71653E+00
 -1       190 8.38337E+00
 -1       191 8.38337E+00
 -1       192 3.91091E+01
 -1       193 3.00070E+01
 -1       194 1.25087E+01
 -1       195 5.84315E+00
 -1       196 4.76143E+00
 -1       197 4.30089E+00
 -1       198 4.70033E+00
 -1       199 6.23425E+00
 -1       200 8.69195E+00
 -1       201 6.06206E+01
 -1       202 7.14383E+01
 -1       203 7.21648E+01
 -1       204 7.26699E+01
 -1       205 7.29625E+01
 -1       206 7.30519E+01
 -1       207 7.30519E+01
 -1       208 7.29625E+01
 -1       209 7.26699E+01
 -1       210 7.21648E+01
 -1       211 7.14383E+01
 -1       212 5.94956E+01
 -1       213 5.96637E+01
 -1       214 5.96637E+01
 -1       215 5.96513E+01
 -1       216 5.95920E+01
 -1       217 5.95920E+01
 -1       218 5.96513E+01
 -1       219 5.96637E+01
 -1       220 5.96637E+01
 -1       221 5.94956E+01
 -1       222 5.12524E+01
 -1       223 5.05951E+01
 -1       224 5.06488E+01
 -1       225 5.06805E+01
 -1       226 5.06805E+01
 -1       227 5.06805E+01
 -1       228 5.06805E+01
 -1       229 5.06488E+01
 -1       230 5.05951E+01
 -1       231 5.12524E+01
 -1       232 4.39476E+01
 -1       233 4.37734E+01
 -1       234 4.33939E+01
 -1       235 4.31341E+01
 -1       236 4.29868E+01
 -1       237 4.29868E+01
 -1       238 4.31341E+01
 -1       239 4.33939E+01
 -1       240 4.37734E+01
 -1       241 4.39476E+01
 -1       242 3.69119E+01
 -1       243 3.65807E+01
 -1       244 3.63868E+01
 -1       245 3.61984E+01
 -1       246 3.60404E+01
 -1       247 3.60404E+01
 -1       248 3.61984E+01
 -1       249 3.63868E+01
 -1       250 3.65807E+01
 -1       251 3.69119E+01
 -1       252 3.07804E+01
 -1       253 3.05347E+01
 -1       254 3.03262E+01
 -1       255 3.01641E+01
 -1       256 3.00334E+01
 -1       257 3.00334E+01
 -1       258 3.01641E+01
 -1       259 3.03262E+01
 -1       260 3.05347E+01
 -1       261 3.07804E+01
 -1       262 2.55971E+01
 -1       263 2.52922E+01
 -1       264 2.50349E+01
 -1       265 2.48250E+01
 -1       266 2.46693E+01
 -1       267 2.46693E+01
 -1       268 2.48250E+01
 -1       269 2.50349E+01
 -1       270 2.52922E+01
 -1       271 2.55971E+01
 -1       272 2.15153E+01
 -1       273 2.11645E+01
 -1       274 2.08825E+01
 -1       275 2.06660E+01
 -1       276 2.05111E+01
 -1       277 2.05111E+01
 -1       278 2.06660E+01
 -1       279 2.08825E+01
 -1       280 2.11645E+01
 -1       281 2.15153E+01
 -1       282 3.00070E+01
 -1       283 3.00033E+01
 -1       284 2.99878E+01
 -1       285 2.99694E+01
 -1       286 2.99515E+01
 -1       287 2.99515E+01
 -1       288 2.99694E+01
 -1       289 2.99878E+01
 -1       290 3.00033E+01
 -1       291 3.00070E+01
 -1       292 3.00070E+01
 -1       293 3.00033E+01
 -1       294 2.99878E+01
 -1       295 2.99694E+01
 -1       296 2.99515E+01
 -1       297 2.99515E+01
 -1       298 2.99694E+01
 -1       299 2.99878E+01
 -1       300 3.00033E+01
 -1       301 3.00070E+01
 -1       302 9.34280E+00
 -1       303 9.30993E+00
 -1       304 9.28106E+00
 -1       305 9.25709E+00
 -1       306 9.23870E+00
 -1       307 9.23870E+00
 -1       308 9.25709E+00
 -1       309 9.28106E+00
 -1       310 9.30993E+00
 -1       311 9.34280E+00
 -1       312 5.26514E+00
 -1       313 5.26548E+00
 -1       314 5.26548E+00
 -1       315 5.26227E+00
 -1       316 5.25738E+00
 -1       317 5.25738E+00
 -1       318 5.26227E+00
 -1       319 5.26548E+00
 -1       320 5.26548E+00
 -1       321 5.26514E+00
 -1       322 4.13303E+00
 -1       323 4.13303E+00
 -1       324 4.13194E+00
 -1       325 4.13026E+00
 -1       326 4.12841E+00
 -1       327 4.12841E+00
 -1       328 4.13026E+00
 -1       329 4.13194E+00
 -1       330 4.13303E+00
 -1       331 4.13303E+00
 -1       332 3.42563E+00
 -1       333 3.42531E+00
 -1       334 3.42367E+00
 -1       335 3.42151E+00
 -1       336 3.41929E+00
 -1       337 3.41929E+00
 -1       338 3.42151E+00
 -1       339 3.42367E+00
 -1       340 3.42531E+00
 -1       341 3.42563E+00
 -1       342 3.89313E+00
 -1       343 3.89313E+00
 -1       344 3.89150E+00
 -1       345 3.88921E+00
 -1       346 3.88682E+00
 -1       347 3.88682E+00
 -1       348 3.88921E+00
 -1       349 3.89150E+00
 -1       350 3.89313E+00
 -1       351 3.89313E+00
 -1       352 4.66819E+00
 -1       353 4.66430E+00
 -1       354 4.66085E+00
 -1       355 4.65783E+00
 -1       356 4.65528E+00
 -1       357 4.65528E+00
 -1       358 4.65783E+00
 -1       359 4.66085E+00
 -1       360 4.66430E+00
 -1       361 4.66819E+00
 -1       362 8.72427E+00
 -1       363 8.74168E+00
 -1       364 8.75008E+00
 -1       365 8.75286E+00
 -1       366 8.75286E+00
 -1       367 8.75286E+00
 -1       368 8.75286E+00
 -1       369 8.75008E+00
 -1       370 8.74168E+00
 -1       371 8.72427E+00
 -1       372 6.07525E+01
 -1       373 6.08679E+01
 -1       374 6.09534E+01
 -1       375 6.10021E+01
 -1       376 6.10105E+01
 -1       377 6.10105E+01
 -1       378 6.10021E+01
 -1       379 6.09534E+01
 -1       380 6.08679E+01
 -1       381 6.07525E+01
 -1       382 6.07525E+01
 -1       383 6.08679E+01
 -1       384 6.09534E+01
 -1       385 6.10021E+01
 -1       386 6.10105E+01
 -1       387 6.10105E+01
 -1       388 6.10021E+01
 -1       389 6.09534E+01
 -1       390 6.08679E+01
 -1       391 6.07525E+01
 -1       392 3.91091E+01
 -1       393 3.90587E+01
 -1       394 3.90189E+01
 -1       395 3.89888E+01
 -1       396 3.89668E+01
 -1       397 3.89668E+01
 -1       398 3.89888E+01
 -1       399 3.90189E+01
 -1       400 3.90587E+01
 -1       401 3.91091E+01
 -1       402 2.96936E+01
 -1       403 2.96877E+01
 -1       404 2.96740E+01
 -1       405 2.96586E+01
 -1       406 2.96449E+01
 -1       407 2.96449E+01
 -1       408 2.96586E+01
 -1       409 2.96740E+01
 -1       410 2.96877E+01
 -1       411 2.96936E+01
 -1       412 4.96309E+01
 -1       413 4.96204E+01
 -1       414 4.96086E+01
 -1       415 4.95958E+01
 -1       416 4.95814E+01
 -1       417 4.95814E+01
 -1       418 4.95958E+01
 -1       419 4.96086E+01
 -1       420 4.96204E+01
 -1       421 4.96309E+01
 -1       422 4.96309E+01
 -1       423 4.96204E+01
 -1       424 4.96086E+01
 -1       425 4.95958E+01
 -1       426 4.95814E+01
 -1       427 4.95814E+01
 -1       428 4.95958E+01
 -1       429 4.96086E+01
 -1       430 4.96204E+01
 -1       431 4.96309E+01
 -1       432 4.14993E+01
 -1       433 4.14862E+01
 -1       434 4.14736E+01
 -1       435 4.14585E+01
 -1       436 4.14398E+01
 -1       437 4.14398E+01
 -1       438 4.14585E+01
 -1       439 4.14736E+01
 -1       440 4.14862E+01
 -1       441 4.14993E+01
 -1       442 3.31026E+01
 -1       443 3.30911E+01
 -1       444 3.30737E+01
 -1       445 3.30524E+01
 -1       446 3.30262E+01
 -1       447 3.30262E+01
 -1       448 3.30524E+01
 -1       449 3.30737E+01
 -1       450 3.30911E+01
 -1       451 3.31026E+01
 -1       452 2.41298E+01
 -1       453 2.40679E+01
 -1       454 2.40261E+01
 -1       455 2.39868E+01
 -1       456 2.39430E+01
 -1       457 2.39430E+01
 -1       458 2.39868E+01
 -1       459 2.40261E+01
 -1       460 2.40679E+01
 -1       461 2.41298E+01
 -1       462 2.31390E+01
 -1       463 2.37652E+01
 -1       464 2.41021E+01
 -1       465 2.42251E+01
 -1       466 2.42251E+01
 -1       467 2.42251E+01
 -1       468 2.42251E+01
 -1       469 2.41021E+01
 -1       470 2.37652E+01
 -1       471 2.31390E+01
 -1       472 7.14383E+01
 -1       473 7.21648E+01
 -1       474 7.26699E+01
 -1       475 7.29625E+01
 -1       476 7.30519E+01
 -1       477 7.30519E+01
 -1       478 7.29625E+01
 -1       479 7.26699E+01
 -1       480 7.21648E+01
 -1       481 7.14383E+01
 -1       482 3.88957E+01
 -1       483 3.80957E+01
 -1       484 3.77021E+01
 -1       485 3.75074E+01
 -1       486 3.73894E+01
 -1       487 3.73894E+01
 -1       488 3.75074E+01
 -1       489 3.77021E+01
 -1       490 3.80957E+01
 -1       491 3.88957E+01
 -1       492 1.99118E+01
 -1       493 2.01118E+01
 -1       494 2.05199E+01
 -1       495 2.07230E+01
 -1       496 2.07514E+01
 -1       497 2.07514E+01
 -1       498 2.07230E+01
 -1       499 2.05199E+01
 -1       500 2.01118E+01
 -1       501 1.99118E+01
 -1       502 1.68029E+01
 -1       503 1.68190E+01
 -1       504 1.68673E+01
 -1       505 1.68781E+01
 -1       506 1.68781E+01
 -1       507 1.68781E+01
 -1       508 1.68781E+01
 -1       509 1.68673E+01
 -1       510 1.68190E+01
 -1       511 1.68029E+01
 -1       512 1.67109E+01
 -1       513 1.68190E+01
 -1       514 1.68673E+01
 -1       515 1.68781E+01
 -1       516 1.68781E+01
 -1       517 1.68781E+01
 -1       518 1.68781E+01
 -1       519 1.68673E+01
 -1       520 1.68190E+01
 -1       521 1.67109E+01
 -1       522 1.69799E+01
 -1       523 1.70464E+01
 -1       524 1.70859E+01
 -1       525 1.70984E+01
 -1       526 1.70984E+01
 -1       527 1.70984E+01
 -1       528 1.70984E+01
 -1       529 1.70859E+01
 -1       530 1.70464E+01
 -1       531 1.69799E+01
 -1       532 1.74114E+01
 -1       533 1.74281E+01
 -1       534 1.74281E+01
 -1       535 1.74251E+01
 -1       536 1.74108E+01
 -1       537 1.74108E+01
 -1       538 1.74251E+01
 -1       539 1.74281E+01
 -1       540 1.74281E+01
 -1       541 1.74114E+01
 -1       542 1.74114E+01
 -1       543 1.74281E+01
 -1       544 1.74281E+01
 -1       545 1.74251E+01
 -1       546 1.74108E+01
 -1       547 1.74108E+01
 -1       548 1.74251E+01
 -1       549 1.74281E+01
 -1       550 1.74281E+01
 -1       551 1.74114E+01
 -1       552 2.31390E+01
 -1       553 2.37652E+01
 -1       554 2.41021E+01
 -1       555 2.42251E+01
 -1       556 2.42251E+01
 -1       557 2.42251E+01
 -1       558 2.42251E+01
 -1       559 2.41021E+01
 -1       560 2.37652E+01
 -1       561 2.31390E+01
 -1       562 7.05276E+01
 -1       563 3.88957E+01
 -1       564 2.45060E+01
 -1       565 2.12565E+01
 -1       566 1.74611E+01
 -1       567 2.10287E+01
 -1       568 2.33734E+01
 -1       569 2.57098E+01
 -1       570 2.57098E+01
 -1       571 5.87873E+01
 -1       572 3.95399E+01
 -1       573 2.72006E+01
 -1       574 2.72006E+01
 -1       575 2.11798E+01
 -1       576 2.73076E+01
 -1       577 2.86971E+01
 -1       578 3.13195E+01
 -1       579 3.13195E+01
 -1       580 5.12524E+01
 -1       581 4.51894E+01
 -1       582 3.20108E+01
 -1       583 3.20108E+01
 -1       584 3.03644E+01
 -1       585 3.54785E+01
 -1       586 3.54785E+01
 -1       587 3.53943E+01
 -1       588 3.53943E+01
 -1       589 4.99607E+01
 -1       590 4.99607E+01
 -1       591 3.39557E+01
 -1       592 3.20108E+01
 -1       593 3.03644E+01
 -1       594 3.81411E+01
 -1       595 3.96445E+01
 -1       596 3.96445E+01
 -1       597 4.14993E+01
 -1       598 5.56996E+01
 -1       599 5.56996E+01
 -1       600 4.05314E+01
 -1       601 3.32968E+01
 -1       602 2.28572E+01
 -1       603 3.85404E+01
 -1       604 4.50297E+01
 -1       605 4.50297E+01
 -1       606 4.96309E+01
 -1       607 5.56996E+01
 -1       608 5.56996E+01
 -1       609 4.86468E+01
 -1       610 3.32968E+01
 -1       611 1.91199E+01
 -1       612 3.85404E+01
 -1       613 5.11824E+01
 -1       614 5.11824E+01
 -1       615 4.96309E+01
 -1       616 2.55971E+01
 -1       617 4.86468E+01
 -1       618 4.86468E+01
 -1       619 1.84464E+01
 -1       620 1.84464E+01
 -1       621 1.82782E+01
 -1       622 5.11824E+01
 -1       623 5.11824E+01
 -1       624 4.69125E+01
 -1       625 2.15153E+01
 -1       626 1.67778E+01
 -1       627 7.53735E+00
 -1       628 7.29541E+00
 -1       629 7.33893E+00
 -1       630 7.71653E+00
 -1       631 8.38337E+00
 -1       632 8.38337E+00
 -1       633 3.91091E+01
 -1       634 3.00070E+01
 -1       635 1.25087E+01
 -1       636 5.84315E+00
 -1       637 4.76143E+00
 -1       638 4.30089E+00
 -1       639 4.70033E+00
 -1       640 6.23425E+00
 -1       641 8.69195E+00
 -1       642 6.06206E+01
 -1       643 7.14383E+01
 -1       644 7.21648E+01
 -1       645 7.26699E+01
 -1       646 7.29625E+01
 -1       647 7.30519E+01
 -1       648 7.30519E+01
 -1       649 7.29625E+01
 -1       650 7.26699E+01
 -1       651 7.21648E+01
 -1       652 7.14383E+01
 -1       653 3.88957E+01
 -1       654 3.80957E+01
 -1       655 3.77021E+01
 -1       656 3.75074E+01
 -1       657 3.73894E+01
 -1       658 3.73894E+01
 -1       659 3.75074E+01
 -1       660 3.77021E+01
 -1       661 3.80957E+01
 -1       662 3.88957E+01
 -1       663 2.46397E+01
 -1       664 2.46755E+01
 -1       665 2.47047E+01
 -1       666 2.47357E+01
 -1       667 2.47442E+01
 -1       668 2.47442E+01
 -1       669 2.47357E+01
 -1       670 2.47047E+01
 -1       671 2.46755E+01
 -1       672 2.46397E+01
 -1       673 2.12565E+01
 -1       674 2.10400E+01
 -1       675 2.08689E+01
 -1       676 2.07407E+01
 -1       677 2.06603E+01
 -1       678 2.06603E+01
 -1       679 2.07407E+01
 -1       680 2.08689E+01
 -1       681 2.10400E+01
 -1       682 2.12565E+01
 -1       683 1.74611E+01
 -1       684 1.74349E+01
 -1       685 1.73796E+01
 -1       686 1.73142E+01
 -1       687 1.72603E+01
 -1       688 1.72603E+01
 -1       689 1.73142E+01
 -1       690 1.73796E+01
 -1       691 1.74349E+01
 -1       692 1.74611E+01
 -1       693 2.10287E+01
 -1       694 2.09096E+01
 -1       695 2.08114E+01
 -1       696 2.07248E+01
 -1       697 2.06630E+01
 -1       698 2.06630E+01
 -1       699 2.07248E+01
 -1       700 2.08114E+01
 -1       701 2.09096E+01
 -1       702 2.10287E+01
 -1       703 2.33734E+01
 -1       704 2.32689E+01
 -1       705 2.31612E+01
 -1       706 2.30849E+01
 -1       707 2.30308E+01
 -1       708 2.30308E+01
 -1       709 2.30849E+01
 -1       710 2.31612E+01
 -1       711 2.32689E+01
 -1       712 2.33734E+01
 -1       713 2.57098E+01
 -1       714 2.52007E+01
 -1       715 2.48335E+01
 -1       716 2.45871E+01
 -1       717 2.44340E+01
 -1       718 2.44340E+01
 -1       719 2.45871E+01
 -1       720 2.48335E+01
 -1       721 2.52007E+01
 -1       722 2.57098E+01
 -1       723 2.57098E+01
 -1       724 2.52007E+01
 -1       725 2.48335E+01
 -1       726 2.45871E+01
 -1       727 2.44340E+01
 -1       728 2.44340E+01
 -1       729 2.45871E+01
 -1       730 2.48335E+01
 -1       731 2.52007E+01
 -1       732 2.57098E+01
 -1       733 5.94956E+01
 -1       734 5.96637E+01
 -1       735 5.96637E+01
 -1       736 5.96513E+01
 -1       737 5.95920E+01
 -1       738 5.95920E+01
 -1       739 5.96513E+01
 -1       740 5.96637E+01
 -1       741 5.96637E+01
 -1       742 5.94956E+01
 -1       743 4.00340E+01
 -1       744 4.03140E+01
 -1       745 4.05031E+01
 -1       746 4.06102E+01
 -1       747 4.06279E+01
 -1       748 4.06279E+01
 -1       749 4.06102E+01
 -1       750 4.05031E+01
 -1       751 4.03140E+01
 -1       752 4.00340E+01
 -1       753 2.72006E+01
 -1       754 2.71356E+01
 -1       755 2.71026E+01
 -1       756 2.70864E+01
 -1       757 2.70752E+01
 -1       758 2.70752E+01
 -1       759 2.70864E+01
 -1       760 2.71026E+01
 -1       761 2.71356E+01
 -1       762 2.72006E+01
 -1       763 2.72006E+01
 -1       764 2.71356E+01
 -1       765 2.71026E+01
 -1       766 2.70864E+01
 -1       767 2.70752E+01
 -1       768 2.70752E+01
 -1       769 2.70864E+01
 -1       770 2.71026E+01
 -1       771 2.71356E+01
 -1       772 2.72006E+01
 -1       773 2.11798E+01
 -1       774 2.11474E+01
 -1       775 2.11375E+01
 -1       776 2.11309E+01
 -1       777 2.11228E+01
 -1       778 2.11228E+01
 -1       779 2.11309E+01
 -1       780 2.11375E+01
 -1       781 2.11474E+01
 -1       782 2.11798E+01
 -1       783 2.73076E+01
 -1       784 2.72410E+01
 -1       785 2.72155E+01
 -1       786 2.72076E+01
 -1       787 2.72030E+01
 -1       788 2.72030E+01
 -1       789 2.72076E+01
 -1       790 2.72155E+01
 -1       791 2.72410E+01
 -1       792 2.73076E+01
 -1       793 2.87859E+01
 -1       794 2.88467E+01
 -1       795 2.88769E+01
 -1       796 2.88858E+01
 -1       797 2.88858E+01
 -1       798 2.88858E+01
 -1       799 2.88858E+01
 -1       800 2.88769E+01
 -1       801 2.88467E+01
 -1       802 2.87859E+01
 -1       803 3.13195E+01
 -1       804 3.11855E+01
 -1       805 3.10564E+01
 -1       806 3.09544E+01
 -1       807 3.08888E+01
 -1       808 3.08888E+01
 -1       809 3.09544E+01
 -1       810 3.10564E+01
 -1       811 3.11855E+01
 -1       812 3.13195E+01
 -1       813 3.13195E+01
 -1       814 3.11855E+01
 -1       815 3.10564E+01
 -1       816 3.09544E+01
 -1       817 3.08888E+01
 -1       818 3.08888E+01
 -1       819 3.09544E+01
 -1       820 3.10564E+01
 -1       821 3.11855E+01
 -1       822 3.13195E+01
 -1       823 5.12524E+01
 -1       824 5.05951E+01
 -1       825 5.06488E+01
 -1       826 5.06805E+01
 -1       827 5.06805E+01
 -1       828 5.06805E+01
 -1       829 5.06805E+01
 -1       830 5.06488E+01
 -1       831 5.05951E+01
 -1       832 5.12524E+01
 -1       833 4.54379E+01
 -1       834 4.56211E+01
 -1       835 4.57284E+01
 -1       836 4.57786E+01
 -1       837 4.57835E+01
 -1       838 4.57835E+01
 -1       839 4.57786E+01
 -1       840 4.57284E+01
 -1       841 4.56211E+01
 -1       842 4.54379E+01
 -1       843 3.20288E+01
 -1       844 3.20653E+01
 -1       845 3.20995E+01
 -1       846 3.21211E+01
 -1       847 3.21255E+01
 -1       848 3.21255E+01
 -1       849 3.21211E+01
 -1       850 3.20995E+01
 -1       851 3.20653E+01
 -1       852 3.20288E+01
 -1       853 3.20288E+01
 -1       854 3.20653E+01
 -1       855 3.20995E+01
 -1       856 3.21211E+01
 -1       857 3.21255E+01
 -1       858 3.21255E+01
 -1       859 3.21211E+01
 -1       860 3.20995E+01
 -1       861 3.20653E+01
 -1       862 3.20288E+01
 -1       863 3.03644E+01
 -1       864 3.03606E+01
 -1       865 3.03316E+01
 -1       866 3.03062E+01
 -1       867 3.02882E+01
 -1       868 3.02882E+01
 -1       869 3.03062E+01
 -1       870 3.03316E+01
 -1       871 3.03606E+01
 -1       872 3.03644E+01
 -1       873 3.54785E+01
 -1       874 3.54603E+01
 -1       875 3.54698E+01
 -1       876 3.54782E+01
 -1       877 3.54806E+01
 -1       878 3.54806E+01
 -1       879 3.54782E+01
 -1       880 3.54698E+01
 -1       881 3.54603E+01
 -1       882 3.54785E+01
 -1       883 3.54785E+01
 -1       884 3.54603E+01
 -1       885 3.54698E+01
 -1       886 3.54782E+01
 -1       887 3.54806E+01
 -1       888 3.54806E+01
 -1       889 3.54782E+01
 -1       890 3.54698E+01
 -1       891 3.54603E+01
 -1       892 3.54785E+01
 -1       893 3.53943E+01
 -1       894 3.52763E+01
 -1       895 3.51990E+01
 -1       896 3.51459E+01
 -1       897 3.51119E+01
 -1       898 3.51119E+01
 -1       899 3.51459E+01
 -1       900 3.51990E+01
 -1       901 3.52763E+01
 -1       902 3.53943E+01
 -1       903 3.53943E+01
 -1       904 3.52763E+01
 -1       905 3.51990E+01
 -1       906 3.51459E+01
 -1       907 3.51119E+01
 -1       908 3.51119E+01
 -1       909 3.51459E+01
 -1       910 3.51990E+01
 -1       911 3.52763E+01
 -1       912 3.53943E+01
 -1       913 5.01078E+01
 -1       914 5.02089E+01
 -1       915 5.02745E+01
 -1       916 5.03048E+01
 -1       917 5.03048E+01
 -1       918 5.03048E+01
 -1       919 5.03048E+01
 -1       920 5.02745E+01
 -1       921 5.02089E+01
 -1       922 5.01078E+01
 -1       923 5.01078E+01
 -1       924 5.02089E+01
 -1       925 5.02745E+01
 -1       926 5.03048E+01
 -1       927 5.03048E+01
 -1       928 5.03048E+01
 -1       929 5.03048E+01
 -1       930 5.02745E+01
 -1       931 5.02089E+01
 -1       932 5.01078E+01
 -1       933 3.40788E+01
 -1       934 3.41621E+01
 -1       935 3.42120E+01
 -1       936 3.42346E+01
 -1       937 3.42346E+01
 -1       938 3.42346E+01
 -1       939 3.42346E+01
 -1       940 3.42120E+01
 -1       941 3.41621E+01
 -1       942 3.40788E+01
 -1       943 3.20288E+01
 -1       944 3.20653E+01
 -1       945 3.20995E+01
 -1       946 3.21211E+01
 -1       947 3.21255E+01
 -1       948 3.21255E+01
 -1       949 3.21211E+01
 -1       950 3.20995E+01
 -1       951 3.20653E+01
 -1       952 3.20288E+01
 -1       953 3.03644E+01
 -1       954 3.03606E+01
 -1       955 3.03316E+01
 -1       956 3.03062E+01
 -1       957 3.02882E+01
 -1       958 3.02882E+01
 -1       959 3.03062E+01
 -1       960 3.03316E+01
 -1       961 3.03606E+01
 -1       962 3.03644E+01
 -1       963 3.82279E+01
 -1       964 3.82809E+01
 -1       965 3.83114E+01
 -1       966 3.83245E+01
 -1       967 3.83245E+01
 -1       968 3.83245E+01
 -1       969 3.83245E+01
 -1       970 3.83114E+01
 -1       971 3.82809E+01
 -1       972 3.82279E+01
 -1       973 3.97054E+01
 -1       974 3.97412E+01
 -1       975 3.97604E+01
 -1       976 3.97667E+01
 -1       977 3.97667E+01
 -1       978 3.97667E+01
 -1       979 3.97667E+01
 -1       980 3.97604E+01
 -1       981 3.97412E+01
 -1       982 3.97054E+01
 -1       983 3.97054E+01
 -1       984 3.97412E+01
 -1       985 3.97604E+01
 -1       986 3.97667E+01
 -1       987 3.97667E+01
 -1       988 3.97667E+01
 -1       989 3.97667E+01
 -1       990 3.97604E+01
 -1       991 3.97412E+01
 -1       992 3.97054E+01
 -1       993 4.14993E+01
 -1       994 4.14862E+01
 -1       995 4.14736E+01
 -1       996 4.14585E+01
 -1       997 4.14398E+01
 -1       998 4.14398E+01
 -1       999 4.14585E+01
 -1      1000 4.14736E+01
 -1      1001 4.14862E+01
 -1      1002 4.14993E+01
 -1      1003 5.58114E+01
 -1      1004 5.58909E+01
 -1      1005 5.59402E+01
 -1      1006 5.59620E+01
 -1      1007 5.59620E+01
 -1      1008 5.59620E+01
 -1      1009 5.59620E+01
 -1      1010 5.59402E+01
 -1      1011 5.58909E+01
 -1      1012 5.58114E+01
 -1      1013 5.58114E+01
 -1      1014 5.58909E+01
 -1      1015 5.59402E+01
 -1      1016 5.59620E+01
 -1      1017 5.59620E+01
 -1      1018 5.59620E+01
 -1      1019 5.59620E+01
 -1      1020 5.59402E+01
 -1      1021 5.58909E+01
 -1      1022 5.58114E+01
 -1      1023 4.06091E+01
 -1      1024 4.06733E+01
 -1      1025 4.07172E+01
 -1      1026 4.07372E+01
 -1      1027 4.07372E+01
 -1      1028 4.07372E+01
 -1      1029 4.07372E+01
 -1      1030 4.07172E+01
 -1      1031 4.06733E+01
 -1      1032 4.06091E+01
 -1      1033 3.33666E+01
 -1      1034 3.34227E+01
 -1      1035 3.34587E+01
 -1      1036 3.34737E+01
 -1      1037 3.34737E+01
 -1      1038 3.34737E+01
 -1      1039 3.34737E+01
 -1      1040 3.34587E+01
 -1      1041 3.34227E+01
 -1      1042 3.33666E+01
 -1      1043 2.29853E+01
 -1      1044 2.30592E+01
 -1      1045 2.31012E+01
 -1      1046 2.31205E+01
 -1      1047 2.31205E+01
 -1      1048 2.31205E+01
 -1      1049 2.31205E+01
 -1      1050 2.31012E+01
 -1      1051 2.30592E+01
 -1      1052 2.29853E+01
 -1      1053 3.85851E+01
 -1      1054 3.86235E+01
 -1      1055 3.86483E+01
 -1      1056 3.86577E+01
 -1      1057 3.86577E+01
 -1      1058 3.86577E+01
 -1      1059 3.86577E+01
 -1      1060 3.86483E+01
 -1      1061 3.86235E+01
 -1      1062 3.85851E+01
 -1      1063 4.50742E+01
 -1      1064 4.51098E+01
 -1      1065 4.51327E+01
 -1      1066 4.51414E+01
 -1      1067 4.51414E+01
 -1      1068 4.51414E+01
 -1      1069 4.51414E+01
 -1      1070 4.51327E+01
 -1      1071 4.51098E+01
 -1      1072 4.50742E+01
 -1      1073 4.50742E+01
 -1      1074 4.51098E+01
 -1      1075 4.51327E+01
 -1      1076 4.51414E+01
 -1      1077 4.51414E+01
 -1      1078 4.51414E+01
 -1      1079 4.51414E+01
 -1      1080 4.51327E+01
 -1      1081 4.51098E+01
 -1      1082 4.50742E+01
 -1      1083 4.96309E+01
 -1      1084 4.96204E+01
 -1      1085 4.96086E+01
 -1      1086 4.95958E+01
 -1      1087 4.95814E+01
 -1      1088 4.95814E+01
 -1      1089 4.95958E+01
 -1      1090 4.96086E+01
 -1      1091 4.96204E+01
 -1      1092 4.96309E+01
 -1      1093 5.58114E+01
 -1      1094 5.58909E+01
 -1      1095 5.59402E+01
 -1      1096 5.59620E+01
 -1      1097 5.59620E+01
 -1      1098 5.59620E+01
 -1      1099 5.59620E+01
 -1      1100 5.59402E+01
 -1      1101 5.58909E+01
 -1      1102 5.58114E+01
 -1      1103 5.58114E+01
 -1      1104 5.58909E+01
 -1      1105 5.59402E+01
 -1      1106 5.59620E+01
 -1      1107 5.59620E+01
 -1      1108 5.59620E+01
 -1      1109 5.59620E+01
 -1      1110 5.59402E+01
 -1      1111 5.58909E+01
 -1      1112 5.58114E+01
 -1      1113 4.87187E+01
 -1      1114 4.87694E+01
 -1      1115 4.88014E+01
 -1      1116 4.88150E+01
 -1      1117 4.88150E+01
 -1      1118 4.88150E+01
 -1      1119 4.88150E+01
 -1      1120 4.88014E+01
 -1      1121 4.87694E+01
 -1      1122 4.87187E+01
 -1      1123 3.33666E+01
 -1      1124 3.34227E+01
 -1      1125 3.34587E+01
 -1      1126 3.34737E+01
 -1      1127 3.34737E+01
 -1      1128 3.34737E+01
 -1      1129 3.34737E+01
 -1      1130 3.34587E+01
 -1      1131 3.34227E+01
 -1      1132 3.33666E+01
 -1      1133 1.91641E+01
 -1      1134 1.92038E+01
 -1      1135 1.92277E+01
 -1      1136 1.92341E+01
 -1      1137 1.92341E+01
 -1      1138 1.92341E+01
 -1      1139 1.92341E+01
 -1      1140 1.92277E+01
 -1      1141 1.92038E+01
 -1      1142 1.91641E+01
 -1      1143 3.85851E+01
 -1      1144 3.86235E+01
 -1      1145 3.86483E+01
 -1      1146 3.86577E+01
 -1      1147 3.86577E+01
 -1      1148 3.86577E+01
 -1      1149 3.86577E+01
 -1      1150 3.86483E+01
 -1      1151 3.86235E+01
 -1      1152 3.85851E+01
 -1      1153 5.12082E+01
 -1      1154 5.12258E+01
 -1      1155 5.12357E+01
 -1      1156 5.12378E+01
 -1      1157 5.12378E+01
 -1      1158 5.12378E+01
 -1      1159 5.12378E+01
 -1      1160 5.12357E+01
 -1      1161 5.12258E+01
 -1      1162 5.12082E+01
 -1      1163 5.12082E+01
 -1      1164 5.12258E+01
 -1      1165 5.12357E+01
 -1      1166 5.12378E+01
 -1      1167 5.12378E+01
 -1      1168 5.12378E+01
 -1      1169 5.12378E+01
 -1      1170 5.12357E+01
 -1      1171 5.12258E+01
 -1      1172 5.12082E+01
 -1      1173 4.96309E+01
 -1      1174 4.96204E+01
 -1      1175 4.96086E+01
 -1      1176 4.95958E+01
 -1      1177 4.95814E+01
 -1      1178 4.95814E+01
 -1      1179 4.95958E+01
 -1      1180 4.96086E+01
 -1      1181 4.96204E+01
 -1      1182 4.96309E+01
 -1      1183 2.55971E+01
 -1      1184 2.52922E+01
 -1      1185 2.50349E+01
 -1      1186 2.48250E+01
 -1      1187 2.46693E+01
 -1      1188 2.46693E+01
 -1      1189 2.48250E+01
 -1      1190 2.50349E+01
 -1      1191 2.52922E+01
 -1      1192 2.55971E+01
 -1      1193 4.87187E+01
 -1      1194 4.87694E+01
 -1      1195 4.88014E+01
 -1      1196 4.88150E+01
 -1      1197 4.88150E+01
 -1      1198 4.88150E+01
 -1      1199 4.88150E+01
 -1      1200 4.88014E+01
 -1      1201 4.87694E+01
 -1      1202 4.87187E+01
 -1      1203 4.87187E+01
 -1      1204 4.87694E+01
 -1      1205 4.88014E+01
 -1      1206 4.88150E+01
 -1      1207 4.88150E+01
 -1      1208 4.88150E+01
 -1      1209 4.88150E+01
 -1      1210 4.88014E+01
 -1      1211 4.87694E+01
 -1      1212 4.87187E+01
 -1      1213 1.85336E+01
 -1      1214 1.85931E+01
 -1      1215 1.86297E+01
 -1      1216 1.86444E+01
 -1      1217 1.86444E+01
 -1      1218 1.86444E+01
 -1      1219 1.86444E+01
 -1      1220 1.86297E+01
 -1      1221 1.85931E+01
 -1      1222 1.85336E+01
 -1      1223 1.85336E+01
 -1      1224 1.85931E+01
 -1      1225 1.86297E+01
 -1      1226 1.86444E+01
 -1      1227 1.86444E+01
 -1      1228 1.86444E+01
 -1      1229 1.86444E+01
 -1      1230 1.86297E+01
 -1      1231 1.85931E+01
 -1      1232 1.85336E+01
 -1      1233 1.83602E+01
 -1      1234 1.84163E+01
 -1      1235 1.84505E+01
 -1      1236 1.84639E+01
 -1      1237 1.84639E+01
 -1      1238 1.84639E+01
 -1      1239 1.84639E+01
 -1      1240 1.84505E+01
 -1      1241 1.84163E+01
 -1      1242 1.83602E+01
 -1      1243 5.12082E+01
 -1      1244 5.12258E+01
 -1      1245 5.12357E+01
 -1      1246 5.12378E+01
 -1      1247 5.12378E+01
 -1      1248 5.12378E+01
 -1      1249 5.12378E+01
 -1      1250 5.12357E+01
 -1      1251 5.12258E+01
 -1      1252 5.12082E+01
 -1      1253 5.12082E+01
 -1      1254 5.12258E+01
 -1      1255 5.12357E+01
 -1      1256 5.12378E+01
 -1      1257 5.12378E+01
 -1      1258 5.12378E+01
 -1      1259 5.12378E+01
 -1      1260 5.12357E+01
 -1      1261 5.12258E+01
 -1      1262 5.12082E+01
 -1      1263 4.70379E+01
 -1      1264 4.71243E+01
 -1      1265 4.71785E+01
 -1      1266 4.72026E+01
 -1      1267 4.72026E+01
 -1      1268 4.72026E+01
 -1      1269 4.72026E+01
 -1      1270 4.71785E+01
 -1      1271 4.71243E+01
 -1      1272 4.70379E+01
 -1      1273 2.15153E+01
 -1      1274 2.11645E+01
 -1      1275 2.08825E+01
 -1      1276 2.06660E+01
 -1      1277 2.05111E+01
 -1      1278 2.05111E+01
 -1      1279 2.06660E+01
 -1      1280 2.08825E+01
 -1      1281 2.11645E+01
 -1      1282 2.15153E+01
 -1      1283 1.67778E+01
 -1      1284 1.67280E+01
 -1      1285 1.66856E+01
 -1      1286 1.66497E+01
 -1      1287 1.66204E+01
 -1      1288 1.66204E+01
 -1      1289 1.66497E+01
 -1      1290 1.66856E+01
 -1      1291 1.67280E+01
 -1      1292 1.67778E+01
 -1      1293 7.53735E+00
 -1      1294 7.51936E+00
 -1      1295 7.50401E+00
 -1      1296 7.48925E+00
 -1      1297 7.47390E+00
 -1      1298 7.47390E+00
 -1      1299 7.48925E+00
 -1      1300 7.50401E+00
 -1      1301 7.51936E+00
 -1      1302 7.53735E+00
 -1      1303 7.30332E+00
 -1      1304 7.30974E+00
 -1      1305 7.31267E+00
 -1      1306 7.31267E+00
 -1      1307 7.31109E+00
 -1      1308 7.31109E+00
 -1      1309 7.31267E+00
 -1      1310 7.31267E+00
 -1      1311 7.30974E+00
 -1      1312 7.30332E+00
 -1      1313 7.34861E+00
 -1      1314 7.35635E+00
 -1      1315 7.36018E+00
 -1      1316 7.36018E+00
 -1      1317 7.35911E+00
 -1      1318 7.35911E+00
 -1      1319 7.36018E+00
 -1      1320 7.36018E+00
 -1      1321 7.35635E+00
 -1      1322 7.34861E+00
 -1      1323 7.72134E+00
 -1      1324 7.72535E+00
 -1      1325 7.72647E+00
 -1      1326 7.72647E+00
 -1      1327 7.72371E+00
 -1      1328 7.72371E+00
 -1      1329 7.72647E+00
 -1      1330 7.72647E+00
 -1      1331 7.72535E+00
 -1      1332 7.72134E+00
 -1      1333 8.38337E+00
 -1      1334 8.36816E+00
 -1      1335 8.35298E+00
 -1      1336 8.33824E+00
 -1      1337 8.32412E+00
 -1      1338 8.32412E+00
 -1      1339 8.33824E+00
 -1      1340 8.35298E+00
 -1      1341 8.36816E+00
 -1      1342 8.38337E+00
 -1      1343 8.38337E+00
 -1      1344 8.36816E+00
 -1      1345 8.35298E+00
 -1      1346 8.33824E+00
 -1      1347 8.32412E+00
 -1      1348 8.32412E+00
 -1      1349 8.33824E+00
 -1      1350 8.35298E+00
 -1      1351 8.36816E+00
 -1      1352 8.38337E+00
 -1      1353 3.91091E+01
 -1      1354 3.90587E+01
 -1      1355 3.90189E+01
 -1      1356 3.89888E+01
 -1      1357 3.89668E+01
 -1      1358 3.89668E+01
 -1      1359 3.89888E+01
 -1      1360 3.90189E+01
 -1      1361 3.90587E+01
 -1      1362 3.91091E+01
 -1      1363 3.00070E+01
 -1      1364 3.00033E+01
 -1      1365 2.99878E+01
 -1      1366 2.99694E+01
 -1      1367 2.99515E+01
 -1      1368 2.99515E+01
 -1      1369 2.99694E+01
 -1      1370 2.99878E+01
 -1      1371 3.00033E+01
 -1      1372 3.00070E+01
 -1      1373 1.25087E+01
 -1      1374 1.24838E+01
 -1      1375 1.24626E+01
 -1      1376 1.24436E+01
 -1      1377 1.24263E+01
 -1      1378 1.24263E+01
 -1      1379 1.24436E+01
 -1      1380 1.24626E+01
 -1      1381 1.24838E+01
 -1      1382 1.25087E+01
 -1      1383 5.86064E+00
 -1      1384 5.87313E+00
 -1      1385 5.87952E+00
 -1      1386 5.87952E+00
 -1      1387 5.87944E+00
 -1      1388 5.87944E+00
 -1      1389 5.87952E+00
 -1      1390 5.87952E+00
 -1      1391 5.87313E+00
 -1      1392 5.86064E+00
 -1      1393 4.76734E+00
 -1      1394 4.77183E+00
 -1      1395 4.77450E+00
 -1      1396 4.77521E+00
 -1      1397 4.77521E+00
 -1      1398 4.77521E+00
 -1      1399 4.77521E+00
 -1      1400 4.77450E+00
 -1      1401 4.77183E+00
 -1      1402 4.76734E+00
 -1      1403 4.30727E+00
 -1      1404 4.31204E+00
 -1      1405 4.31489E+00
 -1      1406 4.31571E+00
 -1      1407 4.31571E+00
 -1      1408 4.31571E+00
 -1      1409 4.31571E+00
 -1      1410 4.31489E+00
 -1      1411 4.31204E+00
 -1      1412 4.30727E+00
 -1      1413 4.70854E+00
 -1      1414 4.71455E+00
 -1      1415 4.71814E+00
 -1      1416 4.71932E+00
 -1      1417 4.71932E+00
 -1      1418 4.71932E+00
 -1      1419 4.71932E+00
 -1      1420 4.71814E+00
 -1      1421 4.71455E+00
 -1      1422 4.70854E+00
 -1      1423 6.23425E+00
 -1      1424 6.21820E+00
 -1      1425 6.20659E+00
 -1      1426 6.19735E+00
 -1      1427 6.18925E+00
 -1      1428 6.18925E+00
 -1      1429 6.19735E+00
 -1      1430 6.20659E+00
 -1      1431 6.21820E+00
 -1      1432 6.23425E+00
 -1      1433 8.72427E+00
 -1      1434 8.74168E+00
 -1      1435 8.75008E+00
 -1      1436 8.75286E+00
 -1      1437 8.75286E+00
 -1      1438 8.75286E+00
 -1      1439 8.75286E+00
 -1      1440 8.75008E+00
 -1      1441 8.74168E+00
 -1      1442 8.72427E+00
 -1      1443 6.07525E+01
 -1      1444 6.08679E+01
 -1      1445 6.09534E+01
 -1      1446 6.10021E+01
 -1      1447 6.10105E+01
 -1      1448 6.10105E+01
 -1      1449 6.10021E+01
 -1      1450 6.09534E+01
 -1      1451 6.08679E+01
 -1      1452 6.07525E+01
 -3
 9999
