    1C
    1U cylinder.inp                                                     
    1UUSER                                                              
    1UDATE              26.february.2021                                
    1UTIME              11:09:35                                        
    1UHOST                                                              
    1UPGM               CalculiX                                        
    1UVERSION           Version 2.17                             
    1UCOMPILETIME       Thu Jul 23 21:29:36 CEST 2020                    
    1UDIR                                                               
    1UDBN                                                               
    1UMAT    1STEEL                                                     
    2C                          3120                                     1
 -1   1000002 1.00050E+01 0.00000E+00 0.00000E+00
 -1   1000004 9.99500E+00 0.00000E+00 0.00000E+00
 -1   1000005 1.00050E+01 0.00000E+00 1.00000E+02
 -1   1000007 9.99500E+00 0.00000E+00 1.00000E+02
 -1   1000008 9.78637E+00 2.08016E+00 0.00000E+00
 -1   1000010 9.77659E+00 2.07808E+00 0.00000E+00
 -1   1000011 9.14002E+00 4.06940E+00 0.00000E+00
 -1   1000013 9.13089E+00 4.06533E+00 0.00000E+00
 -1   1000014 8.09422E+00 5.88079E+00 0.00000E+00
 -1   1000016 8.08612E+00 5.87491E+00 0.00000E+00
 -1   1000017 6.69465E+00 7.43516E+00 0.00000E+00
 -1   1000019 6.68796E+00 7.42773E+00 0.00000E+00
 -1   1000020 5.00250E+00 8.66458E+00 0.00000E+00
 -1   1000022 4.99750E+00 8.65592E+00 0.00000E+00
 -1   1000023 3.09172E+00 9.51532E+00 0.00000E+00
 -1   1000025 3.08862E+00 9.50581E+00 0.00000E+00
 -1   1000026 1.04581E+00 9.95019E+00 0.00000E+00
 -1   1000028 1.04476E+00 9.94025E+00 0.00000E+00
 -1   1000029-1.04581E+00 9.95019E+00 0.00000E+00
 -1   1000031-1.04476E+00 9.94025E+00 0.00000E+00
 -1   1000032-3.09172E+00 9.51532E+00 0.00000E+00
 -1   1000034-3.08862E+00 9.50581E+00 0.00000E+00
 -1   1000035-5.00250E+00 8.66458E+00 0.00000E+00
 -1   1000037-4.99750E+00 8.65592E+00 0.00000E+00
 -1   1000038-6.69465E+00 7.43516E+00 0.00000E+00
 -1   1000040-6.68796E+00 7.42773E+00 0.00000E+00
 -1   1000041-8.09422E+00 5.88079E+00 0.00000E+00
 -1   1000043-8.08612E+00 5.87491E+00 0.00000E+00
 -1   1000044-9.14002E+00 4.06940E+00 0.00000E+00
 -1   1000046-9.13089E+00 4.06533E+00 0.00000E+00
 -1   1000047-9.78637E+00 2.08016E+00 0.00000E+00
 -1   1000049-9.77659E+00 2.07808E+00 0.00000E+00
 -1   1000050-1.00050E+01-2.09850E-14 0.00000E+00
 -1   1000052-9.99500E+00-2.09746E-14 0.00000E+00
 -1   1000053-9.78637E+00-2.08016E+00 0.00000E+00
 -1   1000055-9.77659E+00-2.07808E+00 0.00000E+00
 -1   1000056-9.14002E+00-4.06940E+00 0.00000E+00
 -1   1000058-9.13089E+00-4.06533E+00 0.00000E+00
 -1   1000059-8.09422E+00-5.88079E+00 0.00000E+00
 -1   1000061-8.08612E+00-5.87491E+00 0.00000E+00
 -1   1000062-6.69465E+00-7.43516E+00 0.00000E+00
 -1   1000064-6.68796E+00-7.42773E+00 0.00000E+00
 -1   1000065-5.00250E+00-8.66458E+00 0.00000E+00
 -1   1000067-4.99750E+00-8.65592E+00 0.00000E+00
 -1   1000068-3.09172E+00-9.51532E+00 0.00000E+00
 -1   1000070-3.08862E+00-9.50581E+00 0.00000E+00
 -1   1000071-1.04581E+00-9.95019E+00 0.00000E+00
 -1   1000073-1.04476E+00-9.94025E+00 0.00000E+00
 -1   1000074 1.04581E+00-9.95019E+00 0.00000E+00
 -1   1000076 1.04476E+00-9.94025E+00 0.00000E+00
 -1   1000077 3.09172E+00-9.51532E+00 0.00000E+00
 -1   1000079 3.08862E+00-9.50581E+00 0.00000E+00
 -1   1000080 5.00250E+00-8.66458E+00 0.00000E+00
 -1   1000082 4.99750E+00-8.65592E+00 0.00000E+00
 -1   1000083 6.69465E+00-7.43516E+00 0.00000E+00
 -1   1000085 6.68796E+00-7.42773E+00 0.00000E+00
 -1   1000086 8.09422E+00-5.88079E+00 0.00000E+00
 -1   1000088 8.08612E+00-5.87491E+00 0.00000E+00
 -1   1000089 9.14002E+00-4.06940E+00 0.00000E+00
 -1   1000091 9.13089E+00-4.06533E+00 0.00000E+00
 -1   1000092 9.78637E+00-2.08016E+00 0.00000E+00
 -1   1000094 9.77659E+00-2.07808E+00 0.00000E+00
 -1   1000095 1.00050E+01 0.00000E+00 1.96078E+00
 -1   1000097 9.99500E+00 0.00000E+00 1.96078E+00
 -1   1000098 1.00050E+01 0.00000E+00 3.92157E+00
 -1   1000100 9.99500E+00 0.00000E+00 3.92157E+00
 -1   1000101 1.00050E+01 0.00000E+00 5.88235E+00
 -1   1000103 9.99500E+00 0.00000E+00 5.88235E+00
 -1   1000104 1.00050E+01-1.74428E-20 7.84314E+00
 -1   1000106 9.99500E+00 1.74428E-20 7.84314E+00
 -1   1000107 1.00050E+01-1.74428E-20 9.80392E+00
 -1   1000109 9.99500E+00 1.74428E-20 9.80392E+00
 -1   1000110 1.00050E+01 0.00000E+00 1.17647E+01
 -1   1000112 9.99500E+00 0.00000E+00 1.17647E+01
 -1   1000113 1.00050E+01 0.00000E+00 1.37255E+01
 -1   1000115 9.99500E+00 0.00000E+00 1.37255E+01
 -1   1000116 1.00050E+01 0.00000E+00 1.56863E+01
 -1   1000118 9.99500E+00 0.00000E+00 1.56863E+01
 -1   1000119 1.00050E+01 0.00000E+00 1.76471E+01
 -1   1000121 9.99500E+00 0.00000E+00 1.76471E+01
 -1   1000122 1.00050E+01 0.00000E+00 1.96078E+01
 -1   1000124 9.99500E+00 0.00000E+00 1.96078E+01
 -1   1000125 1.00050E+01 0.00000E+00 2.15686E+01
 -1   1000127 9.99500E+00 0.00000E+00 2.15686E+01
 -1   1000128 1.00050E+01 0.00000E+00 2.35294E+01
 -1   1000130 9.99500E+00 0.00000E+00 2.35294E+01
 -1   1000131 1.00050E+01 0.00000E+00 2.54902E+01
 -1   1000133 9.99500E+00 0.00000E+00 2.54902E+01
 -1   1000134 1.00050E+01 0.00000E+00 2.74510E+01
 -1   1000136 9.99500E+00 0.00000E+00 2.74510E+01
 -1   1000137 1.00050E+01 0.00000E+00 2.94118E+01
 -1   1000139 9.99500E+00 0.00000E+00 2.94118E+01
 -1   1000140 1.00050E+01 0.00000E+00 3.13725E+01
 -1   1000142 9.99500E+00 0.00000E+00 3.13725E+01
 -1   1000143 1.00050E+01 0.00000E+00 3.33333E+01
 -1   1000145 9.99500E+00 0.00000E+00 3.33333E+01
 -1   1000146 1.00050E+01 0.00000E+00 3.52941E+01
 -1   1000148 9.99500E+00 0.00000E+00 3.52941E+01
 -1   1000149 1.00050E+01 0.00000E+00 3.72549E+01
 -1   1000151 9.99500E+00 0.00000E+00 3.72549E+01
 -1   1000152 1.00050E+01 0.00000E+00 3.92157E+01
 -1   1000154 9.99500E+00 0.00000E+00 3.92157E+01
 -1   1000155 1.00050E+01 0.00000E+00 4.11765E+01
 -1   1000157 9.99500E+00 0.00000E+00 4.11765E+01
 -1   1000158 1.00050E+01 0.00000E+00 4.31373E+01
 -1   1000160 9.99500E+00 0.00000E+00 4.31373E+01
 -1   1000161 1.00050E+01 0.00000E+00 4.50980E+01
 -1   1000163 9.99500E+00 0.00000E+00 4.50980E+01
 -1   1000164 1.00050E+01 0.00000E+00 4.70588E+01
 -1   1000166 9.99500E+00 0.00000E+00 4.70588E+01
 -1   1000167 1.00050E+01 0.00000E+00 4.90196E+01
 -1   1000169 9.99500E+00 0.00000E+00 4.90196E+01
 -1   1000170 1.00050E+01 0.00000E+00 5.09804E+01
 -1   1000172 9.99500E+00 0.00000E+00 5.09804E+01
 -1   1000173 1.00050E+01 0.00000E+00 5.29412E+01
 -1   1000175 9.99500E+00 0.00000E+00 5.29412E+01
 -1   1000176 1.00050E+01 0.00000E+00 5.49020E+01
 -1   1000178 9.99500E+00 0.00000E+00 5.49020E+01
 -1   1000179 1.00050E+01 0.00000E+00 5.68627E+01
 -1   1000181 9.99500E+00 0.00000E+00 5.68627E+01
 -1   1000182 1.00050E+01 0.00000E+00 5.88235E+01
 -1   1000184 9.99500E+00 0.00000E+00 5.88235E+01
 -1   1000185 1.00050E+01 0.00000E+00 6.07843E+01
 -1   1000187 9.99500E+00 0.00000E+00 6.07843E+01
 -1   1000188 1.00050E+01 0.00000E+00 6.27451E+01
 -1   1000190 9.99500E+00 0.00000E+00 6.27451E+01
 -1   1000191 1.00050E+01 0.00000E+00 6.47059E+01
 -1   1000193 9.99500E+00 0.00000E+00 6.47059E+01
 -1   1000194 1.00050E+01 0.00000E+00 6.66667E+01
 -1   1000196 9.99500E+00 0.00000E+00 6.66667E+01
 -1   1000197 1.00050E+01 0.00000E+00 6.86274E+01
 -1   1000199 9.99500E+00 0.00000E+00 6.86274E+01
 -1   1000200 1.00050E+01 0.00000E+00 7.05882E+01
 -1   1000202 9.99500E+00 0.00000E+00 7.05882E+01
 -1   1000203 1.00050E+01 0.00000E+00 7.25490E+01
 -1   1000205 9.99500E+00 0.00000E+00 7.25490E+01
 -1   1000206 1.00050E+01 0.00000E+00 7.45098E+01
 -1   1000208 9.99500E+00 0.00000E+00 7.45098E+01
 -1   1000209 1.00050E+01 0.00000E+00 7.64706E+01
 -1   1000211 9.99500E+00 0.00000E+00 7.64706E+01
 -1   1000212 1.00050E+01 0.00000E+00 7.84314E+01
 -1   1000214 9.99500E+00 0.00000E+00 7.84314E+01
 -1   1000215 1.00050E+01 0.00000E+00 8.03922E+01
 -1   1000217 9.99500E+00 0.00000E+00 8.03922E+01
 -1   1000218 1.00050E+01 0.00000E+00 8.23529E+01
 -1   1000220 9.99500E+00 0.00000E+00 8.23529E+01
 -1   1000221 1.00050E+01 0.00000E+00 8.43137E+01
 -1   1000223 9.99500E+00 0.00000E+00 8.43137E+01
 -1   1000224 1.00050E+01 0.00000E+00 8.62745E+01
 -1   1000226 9.99500E+00 0.00000E+00 8.62745E+01
 -1   1000227 1.00050E+01 0.00000E+00 8.82353E+01
 -1   1000229 9.99500E+00 0.00000E+00 8.82353E+01
 -1   1000230 1.00050E+01 0.00000E+00 9.01961E+01
 -1   1000232 9.99500E+00 0.00000E+00 9.01961E+01
 -1   1000233 1.00050E+01 0.00000E+00 9.21569E+01
 -1   1000235 9.99500E+00 0.00000E+00 9.21569E+01
 -1   1000236 1.00050E+01 0.00000E+00 9.41176E+01
 -1   1000238 9.99500E+00 0.00000E+00 9.41176E+01
 -1   1000239 1.00050E+01 0.00000E+00 9.60784E+01
 -1   1000241 9.99500E+00 0.00000E+00 9.60784E+01
 -1   1000242 1.00050E+01 0.00000E+00 9.80392E+01
 -1   1000244 9.99500E+00 0.00000E+00 9.80392E+01
 -1   1000245 9.78637E+00 2.08016E+00 1.00000E+02
 -1   1000247 9.77659E+00 2.07808E+00 1.00000E+02
 -1   1000248 9.14002E+00 4.06940E+00 1.00000E+02
 -1   1000250 9.13089E+00 4.06533E+00 1.00000E+02
 -1   1000251 8.09422E+00 5.88079E+00 1.00000E+02
 -1   1000253 8.08612E+00 5.87491E+00 1.00000E+02
 -1   1000254 6.69465E+00 7.43516E+00 1.00000E+02
 -1   1000256 6.68796E+00 7.42773E+00 1.00000E+02
 -1   1000257 5.00250E+00 8.66458E+00 1.00000E+02
 -1   1000259 4.99750E+00 8.65592E+00 1.00000E+02
 -1   1000260 3.09172E+00 9.51532E+00 1.00000E+02
 -1   1000262 3.08862E+00 9.50581E+00 1.00000E+02
 -1   1000263 1.04581E+00 9.95019E+00 1.00000E+02
 -1   1000265 1.04476E+00 9.94025E+00 1.00000E+02
 -1   1000266-1.04581E+00 9.95019E+00 1.00000E+02
 -1   1000268-1.04476E+00 9.94025E+00 1.00000E+02
 -1   1000269-3.09172E+00 9.51532E+00 1.00000E+02
 -1   1000271-3.08862E+00 9.50581E+00 1.00000E+02
 -1   1000272-5.00250E+00 8.66458E+00 1.00000E+02
 -1   1000274-4.99750E+00 8.65592E+00 1.00000E+02
 -1   1000275-6.69465E+00 7.43516E+00 1.00000E+02
 -1   1000277-6.68796E+00 7.42773E+00 1.00000E+02
 -1   1000278-8.09422E+00 5.88079E+00 1.00000E+02
 -1   1000280-8.08612E+00 5.87491E+00 1.00000E+02
 -1   1000281-9.14002E+00 4.06940E+00 1.00000E+02
 -1   1000283-9.13089E+00 4.06533E+00 1.00000E+02
 -1   1000284-9.78637E+00 2.08016E+00 1.00000E+02
 -1   1000286-9.77659E+00 2.07808E+00 1.00000E+02
 -1   1000287-1.00050E+01-2.09850E-14 1.00000E+02
 -1   1000289-9.99500E+00-2.09746E-14 1.00000E+02
 -1   1000290-9.78637E+00-2.08016E+00 1.00000E+02
 -1   1000292-9.77659E+00-2.07808E+00 1.00000E+02
 -1   1000293-9.14002E+00-4.06940E+00 1.00000E+02
 -1   1000295-9.13089E+00-4.06533E+00 1.00000E+02
 -1   1000296-8.09422E+00-5.88079E+00 1.00000E+02
 -1   1000298-8.08612E+00-5.87491E+00 1.00000E+02
 -1   1000299-6.69465E+00-7.43516E+00 1.00000E+02
 -1   1000301-6.68796E+00-7.42773E+00 1.00000E+02
 -1   1000302-5.00250E+00-8.66458E+00 1.00000E+02
 -1   1000304-4.99750E+00-8.65592E+00 1.00000E+02
 -1   1000305-3.09172E+00-9.51532E+00 1.00000E+02
 -1   1000307-3.08862E+00-9.50581E+00 1.00000E+02
 -1   1000308-1.04581E+00-9.95019E+00 1.00000E+02
 -1   1000310-1.04476E+00-9.94025E+00 1.00000E+02
 -1   1000311 1.04581E+00-9.95019E+00 1.00000E+02
 -1   1000313 1.04476E+00-9.94025E+00 1.00000E+02
 -1   1000314 3.09172E+00-9.51532E+00 1.00000E+02
 -1   1000316 3.08862E+00-9.50581E+00 1.00000E+02
 -1   1000317 5.00250E+00-8.66458E+00 1.00000E+02
 -1   1000319 4.99750E+00-8.65592E+00 1.00000E+02
 -1   1000320 6.69465E+00-7.43516E+00 1.00000E+02
 -1   1000322 6.68796E+00-7.42773E+00 1.00000E+02
 -1   1000323 8.09422E+00-5.88079E+00 1.00000E+02
 -1   1000325 8.08612E+00-5.87491E+00 1.00000E+02
 -1   1000326 9.14002E+00-4.06940E+00 1.00000E+02
 -1   1000328 9.13089E+00-4.06533E+00 1.00000E+02
 -1   1000329 9.78637E+00-2.08016E+00 1.00000E+02
 -1   1000331 9.77659E+00-2.07808E+00 1.00000E+02
 -1   1000332 9.78637E+00 2.08016E+00 1.96078E+00
 -1   1000334 9.77659E+00 2.07808E+00 1.96078E+00
 -1   1000335 9.78637E+00 2.08016E+00 3.92157E+00
 -1   1000337 9.77659E+00 2.07808E+00 3.92157E+00
 -1   1000338 9.78637E+00 2.08016E+00 5.88235E+00
 -1   1000340 9.77659E+00 2.07808E+00 5.88235E+00
 -1   1000341 9.78637E+00 2.08016E+00 7.84314E+00
 -1   1000343 9.77659E+00 2.07808E+00 7.84314E+00
 -1   1000344 9.78637E+00 2.08016E+00 9.80392E+00
 -1   1000346 9.77659E+00 2.07808E+00 9.80392E+00
 -1   1000347 9.78637E+00 2.08016E+00 1.17647E+01
 -1   1000349 9.77659E+00 2.07808E+00 1.17647E+01
 -1   1000350 9.78637E+00 2.08016E+00 1.37255E+01
 -1   1000352 9.77659E+00 2.07808E+00 1.37255E+01
 -1   1000353 9.78637E+00 2.08016E+00 1.56863E+01
 -1   1000355 9.77659E+00 2.07808E+00 1.56863E+01
 -1   1000356 9.78637E+00 2.08016E+00 1.76471E+01
 -1   1000358 9.77659E+00 2.07808E+00 1.76471E+01
 -1   1000359 9.78637E+00 2.08016E+00 1.96078E+01
 -1   1000361 9.77659E+00 2.07808E+00 1.96078E+01
 -1   1000362 9.78637E+00 2.08016E+00 2.15686E+01
 -1   1000364 9.77659E+00 2.07808E+00 2.15686E+01
 -1   1000365 9.78637E+00 2.08016E+00 2.35294E+01
 -1   1000367 9.77659E+00 2.07808E+00 2.35294E+01
 -1   1000368 9.78637E+00 2.08016E+00 2.54902E+01
 -1   1000370 9.77659E+00 2.07808E+00 2.54902E+01
 -1   1000371 9.78637E+00 2.08016E+00 2.74510E+01
 -1   1000373 9.77659E+00 2.07808E+00 2.74510E+01
 -1   1000374 9.78637E+00 2.08016E+00 2.94118E+01
 -1   1000376 9.77659E+00 2.07808E+00 2.94118E+01
 -1   1000377 9.78637E+00 2.08016E+00 3.13725E+01
 -1   1000379 9.77659E+00 2.07808E+00 3.13725E+01
 -1   1000380 9.78637E+00 2.08016E+00 3.33333E+01
 -1   1000382 9.77659E+00 2.07808E+00 3.33333E+01
 -1   1000383 9.78637E+00 2.08016E+00 3.52941E+01
 -1   1000385 9.77659E+00 2.07808E+00 3.52941E+01
 -1   1000386 9.78637E+00 2.08016E+00 3.72549E+01
 -1   1000388 9.77659E+00 2.07808E+00 3.72549E+01
 -1   1000389 9.78637E+00 2.08016E+00 3.92157E+01
 -1   1000391 9.77659E+00 2.07808E+00 3.92157E+01
 -1   1000392 9.78637E+00 2.08016E+00 4.11765E+01
 -1   1000394 9.77659E+00 2.07808E+00 4.11765E+01
 -1   1000395 9.78637E+00 2.08016E+00 4.31373E+01
 -1   1000397 9.77659E+00 2.07808E+00 4.31373E+01
 -1   1000398 9.78637E+00 2.08016E+00 4.50980E+01
 -1   1000400 9.77659E+00 2.07808E+00 4.50980E+01
 -1   1000401 9.78637E+00 2.08016E+00 4.70588E+01
 -1   1000403 9.77659E+00 2.07808E+00 4.70588E+01
 -1   1000404 9.78637E+00 2.08016E+00 4.90196E+01
 -1   1000406 9.77659E+00 2.07808E+00 4.90196E+01
 -1   1000407 9.78637E+00 2.08016E+00 5.09804E+01
 -1   1000409 9.77659E+00 2.07808E+00 5.09804E+01
 -1   1000410 9.78637E+00 2.08016E+00 5.29412E+01
 -1   1000412 9.77659E+00 2.07808E+00 5.29412E+01
 -1   1000413 9.78637E+00 2.08016E+00 5.49020E+01
 -1   1000415 9.77659E+00 2.07808E+00 5.49020E+01
 -1   1000416 9.78637E+00 2.08016E+00 5.68627E+01
 -1   1000418 9.77659E+00 2.07808E+00 5.68627E+01
 -1   1000419 9.78637E+00 2.08016E+00 5.88235E+01
 -1   1000421 9.77659E+00 2.07808E+00 5.88235E+01
 -1   1000422 9.78637E+00 2.08016E+00 6.07843E+01
 -1   1000424 9.77659E+00 2.07808E+00 6.07843E+01
 -1   1000425 9.78637E+00 2.08016E+00 6.27451E+01
 -1   1000427 9.77659E+00 2.07808E+00 6.27451E+01
 -1   1000428 9.78637E+00 2.08016E+00 6.47059E+01
 -1   1000430 9.77659E+00 2.07808E+00 6.47059E+01
 -1   1000431 9.78637E+00 2.08016E+00 6.66667E+01
 -1   1000433 9.77659E+00 2.07808E+00 6.66667E+01
 -1   1000434 9.78637E+00 2.08016E+00 6.86274E+01
 -1   1000436 9.77659E+00 2.07808E+00 6.86274E+01
 -1   1000437 9.78637E+00 2.08016E+00 7.05882E+01
 -1   1000439 9.77659E+00 2.07808E+00 7.05882E+01
 -1   1000440 9.78637E+00 2.08016E+00 7.25490E+01
 -1   1000442 9.77659E+00 2.07808E+00 7.25490E+01
 -1   1000443 9.78637E+00 2.08016E+00 7.45098E+01
 -1   1000445 9.77659E+00 2.07808E+00 7.45098E+01
 -1   1000446 9.78637E+00 2.08016E+00 7.64706E+01
 -1   1000448 9.77659E+00 2.07808E+00 7.64706E+01
 -1   1000449 9.78637E+00 2.08016E+00 7.84314E+01
 -1   1000451 9.77659E+00 2.07808E+00 7.84314E+01
 -1   1000452 9.78637E+00 2.08016E+00 8.03922E+01
 -1   1000454 9.77659E+00 2.07808E+00 8.03922E+01
 -1   1000455 9.78637E+00 2.08016E+00 8.23529E+01
 -1   1000457 9.77659E+00 2.07808E+00 8.23529E+01
 -1   1000458 9.78637E+00 2.08016E+00 8.43137E+01
 -1   1000460 9.77659E+00 2.07808E+00 8.43137E+01
 -1   1000461 9.78637E+00 2.08016E+00 8.62745E+01
 -1   1000463 9.77659E+00 2.07808E+00 8.62745E+01
 -1   1000464 9.78637E+00 2.08016E+00 8.82353E+01
 -1   1000466 9.77659E+00 2.07808E+00 8.82353E+01
 -1   1000467 9.78637E+00 2.08016E+00 9.01961E+01
 -1   1000469 9.77659E+00 2.07808E+00 9.01961E+01
 -1   1000470 9.78637E+00 2.08016E+00 9.21569E+01
 -1   1000472 9.77659E+00 2.07808E+00 9.21569E+01
 -1   1000473 9.78637E+00 2.08016E+00 9.41176E+01
 -1   1000475 9.77659E+00 2.07808E+00 9.41176E+01
 -1   1000476 9.78637E+00 2.08016E+00 9.60784E+01
 -1   1000478 9.77659E+00 2.07808E+00 9.60784E+01
 -1   1000479 9.78637E+00 2.08016E+00 9.80392E+01
 -1   1000481 9.77659E+00 2.07808E+00 9.80392E+01
 -1   1000482 9.14002E+00 4.06940E+00 1.96078E+00
 -1   1000484 9.13089E+00 4.06533E+00 1.96078E+00
 -1   1000485 9.14002E+00 4.06940E+00 3.92157E+00
 -1   1000487 9.13089E+00 4.06533E+00 3.92157E+00
 -1   1000488 9.14002E+00 4.06940E+00 5.88235E+00
 -1   1000490 9.13089E+00 4.06533E+00 5.88235E+00
 -1   1000491 9.14002E+00 4.06940E+00 7.84314E+00
 -1   1000493 9.13089E+00 4.06533E+00 7.84314E+00
 -1   1000494 9.14002E+00 4.06940E+00 9.80392E+00
 -1   1000496 9.13089E+00 4.06533E+00 9.80392E+00
 -1   1000497 9.14002E+00 4.06940E+00 1.17647E+01
 -1   1000499 9.13089E+00 4.06533E+00 1.17647E+01
 -1   1000500 9.14002E+00 4.06940E+00 1.37255E+01
 -1   1000502 9.13089E+00 4.06533E+00 1.37255E+01
 -1   1000503 9.14002E+00 4.06940E+00 1.56863E+01
 -1   1000505 9.13089E+00 4.06533E+00 1.56863E+01
 -1   1000506 9.14002E+00 4.06940E+00 1.76471E+01
 -1   1000508 9.13089E+00 4.06533E+00 1.76471E+01
 -1   1000509 9.14002E+00 4.06940E+00 1.96078E+01
 -1   1000511 9.13089E+00 4.06533E+00 1.96078E+01
 -1   1000512 9.14002E+00 4.06940E+00 2.15686E+01
 -1   1000514 9.13089E+00 4.06533E+00 2.15686E+01
 -1   1000515 9.14002E+00 4.06940E+00 2.35294E+01
 -1   1000517 9.13089E+00 4.06533E+00 2.35294E+01
 -1   1000518 9.14002E+00 4.06940E+00 2.54902E+01
 -1   1000520 9.13089E+00 4.06533E+00 2.54902E+01
 -1   1000521 9.14002E+00 4.06940E+00 2.74510E+01
 -1   1000523 9.13089E+00 4.06533E+00 2.74510E+01
 -1   1000524 9.14002E+00 4.06940E+00 2.94118E+01
 -1   1000526 9.13089E+00 4.06533E+00 2.94118E+01
 -1   1000527 9.14002E+00 4.06940E+00 3.13725E+01
 -1   1000529 9.13089E+00 4.06533E+00 3.13725E+01
 -1   1000530 9.14002E+00 4.06940E+00 3.33333E+01
 -1   1000532 9.13089E+00 4.06533E+00 3.33333E+01
 -1   1000533 9.14002E+00 4.06940E+00 3.52941E+01
 -1   1000535 9.13089E+00 4.06533E+00 3.52941E+01
 -1   1000536 9.14002E+00 4.06940E+00 3.72549E+01
 -1   1000538 9.13089E+00 4.06533E+00 3.72549E+01
 -1   1000539 9.14002E+00 4.06940E+00 3.92157E+01
 -1   1000541 9.13089E+00 4.06533E+00 3.92157E+01
 -1   1000542 9.14002E+00 4.06940E+00 4.11765E+01
 -1   1000544 9.13089E+00 4.06533E+00 4.11765E+01
 -1   1000545 9.14002E+00 4.06940E+00 4.31373E+01
 -1   1000547 9.13089E+00 4.06533E+00 4.31373E+01
 -1   1000548 9.14002E+00 4.06940E+00 4.50980E+01
 -1   1000550 9.13089E+00 4.06533E+00 4.50980E+01
 -1   1000551 9.14002E+00 4.06940E+00 4.70588E+01
 -1   1000553 9.13089E+00 4.06533E+00 4.70588E+01
 -1   1000554 9.14002E+00 4.06940E+00 4.90196E+01
 -1   1000556 9.13089E+00 4.06533E+00 4.90196E+01
 -1   1000557 9.14002E+00 4.06940E+00 5.09804E+01
 -1   1000559 9.13089E+00 4.06533E+00 5.09804E+01
 -1   1000560 9.14002E+00 4.06940E+00 5.29412E+01
 -1   1000562 9.13089E+00 4.06533E+00 5.29412E+01
 -1   1000563 9.14002E+00 4.06940E+00 5.49020E+01
 -1   1000565 9.13089E+00 4.06533E+00 5.49020E+01
 -1   1000566 9.14002E+00 4.06940E+00 5.68627E+01
 -1   1000568 9.13089E+00 4.06533E+00 5.68627E+01
 -1   1000569 9.14002E+00 4.06940E+00 5.88235E+01
 -1   1000571 9.13089E+00 4.06533E+00 5.88235E+01
 -1   1000572 9.14002E+00 4.06940E+00 6.07843E+01
 -1   1000574 9.13089E+00 4.06533E+00 6.07843E+01
 -1   1000575 9.14002E+00 4.06940E+00 6.27451E+01
 -1   1000577 9.13089E+00 4.06533E+00 6.27451E+01
 -1   1000578 9.14002E+00 4.06940E+00 6.47059E+01
 -1   1000580 9.13089E+00 4.06533E+00 6.47059E+01
 -1   1000581 9.14002E+00 4.06940E+00 6.66667E+01
 -1   1000583 9.13089E+00 4.06533E+00 6.66667E+01
 -1   1000584 9.14002E+00 4.06940E+00 6.86274E+01
 -1   1000586 9.13089E+00 4.06533E+00 6.86274E+01
 -1   1000587 9.14002E+00 4.06940E+00 7.05882E+01
 -1   1000589 9.13089E+00 4.06533E+00 7.05882E+01
 -1   1000590 9.14002E+00 4.06940E+00 7.25490E+01
 -1   1000592 9.13089E+00 4.06533E+00 7.25490E+01
 -1   1000593 9.14002E+00 4.06940E+00 7.45098E+01
 -1   1000595 9.13089E+00 4.06533E+00 7.45098E+01
 -1   1000596 9.14002E+00 4.06940E+00 7.64706E+01
 -1   1000598 9.13089E+00 4.06533E+00 7.64706E+01
 -1   1000599 9.14002E+00 4.06940E+00 7.84314E+01
 -1   1000601 9.13089E+00 4.06533E+00 7.84314E+01
 -1   1000602 9.14002E+00 4.06940E+00 8.03922E+01
 -1   1000604 9.13089E+00 4.06533E+00 8.03922E+01
 -1   1000605 9.14002E+00 4.06940E+00 8.23529E+01
 -1   1000607 9.13089E+00 4.06533E+00 8.23529E+01
 -1   1000608 9.14002E+00 4.06940E+00 8.43137E+01
 -1   1000610 9.13089E+00 4.06533E+00 8.43137E+01
 -1   1000611 9.14002E+00 4.06940E+00 8.62745E+01
 -1   1000613 9.13089E+00 4.06533E+00 8.62745E+01
 -1   1000614 9.14002E+00 4.06940E+00 8.82353E+01
 -1   1000616 9.13089E+00 4.06533E+00 8.82353E+01
 -1   1000617 9.14002E+00 4.06940E+00 9.01961E+01
 -1   1000619 9.13089E+00 4.06533E+00 9.01961E+01
 -1   1000620 9.14002E+00 4.06940E+00 9.21569E+01
 -1   1000622 9.13089E+00 4.06533E+00 9.21569E+01
 -1   1000623 9.14002E+00 4.06940E+00 9.41176E+01
 -1   1000625 9.13089E+00 4.06533E+00 9.41176E+01
 -1   1000626 9.14002E+00 4.06940E+00 9.60784E+01
 -1   1000628 9.13089E+00 4.06533E+00 9.60784E+01
 -1   1000629 9.14002E+00 4.06940E+00 9.80392E+01
 -1   1000631 9.13089E+00 4.06533E+00 9.80392E+01
 -1   1000632 8.09422E+00 5.88079E+00 1.96078E+00
 -1   1000634 8.08612E+00 5.87491E+00 1.96078E+00
 -1   1000635 8.09422E+00 5.88079E+00 3.92157E+00
 -1   1000637 8.08612E+00 5.87491E+00 3.92157E+00
 -1   1000638 8.09422E+00 5.88079E+00 5.88235E+00
 -1   1000640 8.08612E+00 5.87491E+00 5.88235E+00
 -1   1000641 8.09422E+00 5.88079E+00 7.84314E+00
 -1   1000643 8.08612E+00 5.87491E+00 7.84314E+00
 -1   1000644 8.09422E+00 5.88079E+00 9.80392E+00
 -1   1000646 8.08612E+00 5.87491E+00 9.80392E+00
 -1   1000647 8.09422E+00 5.88079E+00 1.17647E+01
 -1   1000649 8.08612E+00 5.87491E+00 1.17647E+01
 -1   1000650 8.09422E+00 5.88079E+00 1.37255E+01
 -1   1000652 8.08612E+00 5.87491E+00 1.37255E+01
 -1   1000653 8.09422E+00 5.88079E+00 1.56863E+01
 -1   1000655 8.08612E+00 5.87491E+00 1.56863E+01
 -1   1000656 8.09422E+00 5.88079E+00 1.76471E+01
 -1   1000658 8.08612E+00 5.87491E+00 1.76471E+01
 -1   1000659 8.09422E+00 5.88079E+00 1.96078E+01
 -1   1000661 8.08612E+00 5.87491E+00 1.96078E+01
 -1   1000662 8.09422E+00 5.88079E+00 2.15686E+01
 -1   1000664 8.08612E+00 5.87491E+00 2.15686E+01
 -1   1000665 8.09422E+00 5.88079E+00 2.35294E+01
 -1   1000667 8.08612E+00 5.87491E+00 2.35294E+01
 -1   1000668 8.09422E+00 5.88079E+00 2.54902E+01
 -1   1000670 8.08612E+00 5.87491E+00 2.54902E+01
 -1   1000671 8.09422E+00 5.88079E+00 2.74510E+01
 -1   1000673 8.08612E+00 5.87491E+00 2.74510E+01
 -1   1000674 8.09422E+00 5.88079E+00 2.94118E+01
 -1   1000676 8.08612E+00 5.87491E+00 2.94118E+01
 -1   1000677 8.09422E+00 5.88079E+00 3.13725E+01
 -1   1000679 8.08612E+00 5.87491E+00 3.13725E+01
 -1   1000680 8.09422E+00 5.88079E+00 3.33333E+01
 -1   1000682 8.08612E+00 5.87491E+00 3.33333E+01
 -1   1000683 8.09422E+00 5.88079E+00 3.52941E+01
 -1   1000685 8.08612E+00 5.87491E+00 3.52941E+01
 -1   1000686 8.09422E+00 5.88079E+00 3.72549E+01
 -1   1000688 8.08612E+00 5.87491E+00 3.72549E+01
 -1   1000689 8.09422E+00 5.88079E+00 3.92157E+01
 -1   1000691 8.08612E+00 5.87491E+00 3.92157E+01
 -1   1000692 8.09422E+00 5.88079E+00 4.11765E+01
 -1   1000694 8.08612E+00 5.87491E+00 4.11765E+01
 -1   1000695 8.09422E+00 5.88079E+00 4.31373E+01
 -1   1000697 8.08612E+00 5.87491E+00 4.31373E+01
 -1   1000698 8.09422E+00 5.88079E+00 4.50980E+01
 -1   1000700 8.08612E+00 5.87491E+00 4.50980E+01
 -1   1000701 8.09422E+00 5.88079E+00 4.70588E+01
 -1   1000703 8.08612E+00 5.87491E+00 4.70588E+01
 -1   1000704 8.09422E+00 5.88079E+00 4.90196E+01
 -1   1000706 8.08612E+00 5.87491E+00 4.90196E+01
 -1   1000707 8.09422E+00 5.88079E+00 5.09804E+01
 -1   1000709 8.08612E+00 5.87491E+00 5.09804E+01
 -1   1000710 8.09422E+00 5.88079E+00 5.29412E+01
 -1   1000712 8.08612E+00 5.87491E+00 5.29412E+01
 -1   1000713 8.09422E+00 5.88079E+00 5.49020E+01
 -1   1000715 8.08612E+00 5.87491E+00 5.49020E+01
 -1   1000716 8.09422E+00 5.88079E+00 5.68627E+01
 -1   1000718 8.08612E+00 5.87491E+00 5.68627E+01
 -1   1000719 8.09422E+00 5.88079E+00 5.88235E+01
 -1   1000721 8.08612E+00 5.87491E+00 5.88235E+01
 -1   1000722 8.09422E+00 5.88079E+00 6.07843E+01
 -1   1000724 8.08612E+00 5.87491E+00 6.07843E+01
 -1   1000725 8.09422E+00 5.88079E+00 6.27451E+01
 -1   1000727 8.08612E+00 5.87491E+00 6.27451E+01
 -1   1000728 8.09422E+00 5.88079E+00 6.47059E+01
 -1   1000730 8.08612E+00 5.87491E+00 6.47059E+01
 -1   1000731 8.09422E+00 5.88079E+00 6.66667E+01
 -1   1000733 8.08612E+00 5.87491E+00 6.66667E+01
 -1   1000734 8.09422E+00 5.88079E+00 6.86274E+01
 -1   1000736 8.08612E+00 5.87491E+00 6.86274E+01
 -1   1000737 8.09422E+00 5.88079E+00 7.05882E+01
 -1   1000739 8.08612E+00 5.87491E+00 7.05882E+01
 -1   1000740 8.09422E+00 5.88079E+00 7.25490E+01
 -1   1000742 8.08612E+00 5.87491E+00 7.25490E+01
 -1   1000743 8.09422E+00 5.88079E+00 7.45098E+01
 -1   1000745 8.08612E+00 5.87491E+00 7.45098E+01
 -1   1000746 8.09422E+00 5.88079E+00 7.64706E+01
 -1   1000748 8.08612E+00 5.87491E+00 7.64706E+01
 -1   1000749 8.09422E+00 5.88079E+00 7.84314E+01
 -1   1000751 8.08612E+00 5.87491E+00 7.84314E+01
 -1   1000752 8.09422E+00 5.88079E+00 8.03922E+01
 -1   1000754 8.08612E+00 5.87491E+00 8.03922E+01
 -1   1000755 8.09422E+00 5.88079E+00 8.23529E+01
 -1   1000757 8.08612E+00 5.87491E+00 8.23529E+01
 -1   1000758 8.09422E+00 5.88079E+00 8.43137E+01
 -1   1000760 8.08612E+00 5.87491E+00 8.43137E+01
 -1   1000761 8.09422E+00 5.88079E+00 8.62745E+01
 -1   1000763 8.08612E+00 5.87491E+00 8.62745E+01
 -1   1000764 8.09422E+00 5.88079E+00 8.82353E+01
 -1   1000766 8.08612E+00 5.87491E+00 8.82353E+01
 -1   1000767 8.09422E+00 5.88079E+00 9.01961E+01
 -1   1000769 8.08612E+00 5.87491E+00 9.01961E+01
 -1   1000770 8.09422E+00 5.88079E+00 9.21569E+01
 -1   1000772 8.08612E+00 5.87491E+00 9.21569E+01
 -1   1000773 8.09422E+00 5.88079E+00 9.41176E+01
 -1   1000775 8.08612E+00 5.87491E+00 9.41176E+01
 -1   1000776 8.09422E+00 5.88079E+00 9.60784E+01
 -1   1000778 8.08612E+00 5.87491E+00 9.60784E+01
 -1   1000779 8.09422E+00 5.88079E+00 9.80392E+01
 -1   1000781 8.08612E+00 5.87491E+00 9.80392E+01
 -1   1000782 6.69465E+00 7.43516E+00 1.96078E+00
 -1   1000784 6.68796E+00 7.42773E+00 1.96078E+00
 -1   1000785 6.69465E+00 7.43516E+00 3.92157E+00
 -1   1000787 6.68796E+00 7.42773E+00 3.92157E+00
 -1   1000788 6.69465E+00 7.43516E+00 5.88235E+00
 -1   1000790 6.68796E+00 7.42773E+00 5.88235E+00
 -1   1000791 6.69465E+00 7.43516E+00 7.84314E+00
 -1   1000793 6.68796E+00 7.42773E+00 7.84314E+00
 -1   1000794 6.69465E+00 7.43516E+00 9.80392E+00
 -1   1000796 6.68796E+00 7.42773E+00 9.80392E+00
 -1   1000797 6.69465E+00 7.43516E+00 1.17647E+01
 -1   1000799 6.68796E+00 7.42773E+00 1.17647E+01
 -1   1000800 6.69465E+00 7.43516E+00 1.37255E+01
 -1   1000802 6.68796E+00 7.42773E+00 1.37255E+01
 -1   1000803 6.69465E+00 7.43516E+00 1.56863E+01
 -1   1000805 6.68796E+00 7.42773E+00 1.56863E+01
 -1   1000806 6.69465E+00 7.43516E+00 1.76471E+01
 -1   1000808 6.68796E+00 7.42773E+00 1.76471E+01
 -1   1000809 6.69465E+00 7.43516E+00 1.96078E+01
 -1   1000811 6.68796E+00 7.42773E+00 1.96078E+01
 -1   1000812 6.69465E+00 7.43516E+00 2.15686E+01
 -1   1000814 6.68796E+00 7.42773E+00 2.15686E+01
 -1   1000815 6.69465E+00 7.43516E+00 2.35294E+01
 -1   1000817 6.68796E+00 7.42773E+00 2.35294E+01
 -1   1000818 6.69465E+00 7.43516E+00 2.54902E+01
 -1   1000820 6.68796E+00 7.42773E+00 2.54902E+01
 -1   1000821 6.69465E+00 7.43516E+00 2.74510E+01
 -1   1000823 6.68796E+00 7.42773E+00 2.74510E+01
 -1   1000824 6.69465E+00 7.43516E+00 2.94118E+01
 -1   1000826 6.68796E+00 7.42773E+00 2.94118E+01
 -1   1000827 6.69465E+00 7.43516E+00 3.13725E+01
 -1   1000829 6.68796E+00 7.42773E+00 3.13725E+01
 -1   1000830 6.69465E+00 7.43516E+00 3.33333E+01
 -1   1000832 6.68796E+00 7.42773E+00 3.33333E+01
 -1   1000833 6.69465E+00 7.43516E+00 3.52941E+01
 -1   1000835 6.68796E+00 7.42773E+00 3.52941E+01
 -1   1000836 6.69465E+00 7.43516E+00 3.72549E+01
 -1   1000838 6.68796E+00 7.42773E+00 3.72549E+01
 -1   1000839 6.69465E+00 7.43516E+00 3.92157E+01
 -1   1000841 6.68796E+00 7.42773E+00 3.92157E+01
 -1   1000842 6.69465E+00 7.43516E+00 4.11765E+01
 -1   1000844 6.68796E+00 7.42773E+00 4.11765E+01
 -1   1000845 6.69465E+00 7.43516E+00 4.31373E+01
 -1   1000847 6.68796E+00 7.42773E+00 4.31373E+01
 -1   1000848 6.69465E+00 7.43516E+00 4.50980E+01
 -1   1000850 6.68796E+00 7.42773E+00 4.50980E+01
 -1   1000851 6.69465E+00 7.43516E+00 4.70588E+01
 -1   1000853 6.68796E+00 7.42773E+00 4.70588E+01
 -1   1000854 6.69465E+00 7.43516E+00 4.90196E+01
 -1   1000856 6.68796E+00 7.42773E+00 4.90196E+01
 -1   1000857 6.69465E+00 7.43516E+00 5.09804E+01
 -1   1000859 6.68796E+00 7.42773E+00 5.09804E+01
 -1   1000860 6.69465E+00 7.43516E+00 5.29412E+01
 -1   1000862 6.68796E+00 7.42773E+00 5.29412E+01
 -1   1000863 6.69465E+00 7.43516E+00 5.49020E+01
 -1   1000865 6.68796E+00 7.42773E+00 5.49020E+01
 -1   1000866 6.69465E+00 7.43516E+00 5.68627E+01
 -1   1000868 6.68796E+00 7.42773E+00 5.68627E+01
 -1   1000869 6.69465E+00 7.43516E+00 5.88235E+01
 -1   1000871 6.68796E+00 7.42773E+00 5.88235E+01
 -1   1000872 6.69465E+00 7.43516E+00 6.07843E+01
 -1   1000874 6.68796E+00 7.42773E+00 6.07843E+01
 -1   1000875 6.69465E+00 7.43516E+00 6.27451E+01
 -1   1000877 6.68796E+00 7.42773E+00 6.27451E+01
 -1   1000878 6.69465E+00 7.43516E+00 6.47059E+01
 -1   1000880 6.68796E+00 7.42773E+00 6.47059E+01
 -1   1000881 6.69465E+00 7.43516E+00 6.66667E+01
 -1   1000883 6.68796E+00 7.42773E+00 6.66667E+01
 -1   1000884 6.69465E+00 7.43516E+00 6.86274E+01
 -1   1000886 6.68796E+00 7.42773E+00 6.86274E+01
 -1   1000887 6.69465E+00 7.43516E+00 7.05882E+01
 -1   1000889 6.68796E+00 7.42773E+00 7.05882E+01
 -1   1000890 6.69465E+00 7.43516E+00 7.25490E+01
 -1   1000892 6.68796E+00 7.42773E+00 7.25490E+01
 -1   1000893 6.69465E+00 7.43516E+00 7.45098E+01
 -1   1000895 6.68796E+00 7.42773E+00 7.45098E+01
 -1   1000896 6.69465E+00 7.43516E+00 7.64706E+01
 -1   1000898 6.68796E+00 7.42773E+00 7.64706E+01
 -1   1000899 6.69465E+00 7.43516E+00 7.84314E+01
 -1   1000901 6.68796E+00 7.42773E+00 7.84314E+01
 -1   1000902 6.69465E+00 7.43516E+00 8.03922E+01
 -1   1000904 6.68796E+00 7.42773E+00 8.03922E+01
 -1   1000905 6.69465E+00 7.43516E+00 8.23529E+01
 -1   1000907 6.68796E+00 7.42773E+00 8.23529E+01
 -1   1000908 6.69465E+00 7.43516E+00 8.43137E+01
 -1   1000910 6.68796E+00 7.42773E+00 8.43137E+01
 -1   1000911 6.69465E+00 7.43516E+00 8.62745E+01
 -1   1000913 6.68796E+00 7.42773E+00 8.62745E+01
 -1   1000914 6.69465E+00 7.43516E+00 8.82353E+01
 -1   1000916 6.68796E+00 7.42773E+00 8.82353E+01
 -1   1000917 6.69465E+00 7.43516E+00 9.01961E+01
 -1   1000919 6.68796E+00 7.42773E+00 9.01961E+01
 -1   1000920 6.69465E+00 7.43516E+00 9.21569E+01
 -1   1000922 6.68796E+00 7.42773E+00 9.21569E+01
 -1   1000923 6.69465E+00 7.43516E+00 9.41176E+01
 -1   1000925 6.68796E+00 7.42773E+00 9.41176E+01
 -1   1000926 6.69465E+00 7.43516E+00 9.60784E+01
 -1   1000928 6.68796E+00 7.42773E+00 9.60784E+01
 -1   1000929 6.69465E+00 7.43516E+00 9.80392E+01
 -1   1000931 6.68796E+00 7.42773E+00 9.80392E+01
 -1   1000932 5.00250E+00 8.66458E+00 1.96078E+00
 -1   1000934 4.99750E+00 8.65592E+00 1.96078E+00
 -1   1000935 5.00250E+00 8.66458E+00 3.92157E+00
 -1   1000937 4.99750E+00 8.65592E+00 3.92157E+00
 -1   1000938 5.00250E+00 8.66458E+00 5.88235E+00
 -1   1000940 4.99750E+00 8.65592E+00 5.88235E+00
 -1   1000941 5.00250E+00 8.66458E+00 7.84314E+00
 -1   1000943 4.99750E+00 8.65592E+00 7.84314E+00
 -1   1000944 5.00250E+00 8.66458E+00 9.80392E+00
 -1   1000946 4.99750E+00 8.65592E+00 9.80392E+00
 -1   1000947 5.00250E+00 8.66458E+00 1.17647E+01
 -1   1000949 4.99750E+00 8.65592E+00 1.17647E+01
 -1   1000950 5.00250E+00 8.66458E+00 1.37255E+01
 -1   1000952 4.99750E+00 8.65592E+00 1.37255E+01
 -1   1000953 5.00250E+00 8.66458E+00 1.56863E+01
 -1   1000955 4.99750E+00 8.65592E+00 1.56863E+01
 -1   1000956 5.00250E+00 8.66458E+00 1.76471E+01
 -1   1000958 4.99750E+00 8.65592E+00 1.76471E+01
 -1   1000959 5.00250E+00 8.66458E+00 1.96078E+01
 -1   1000961 4.99750E+00 8.65592E+00 1.96078E+01
 -1   1000962 5.00250E+00 8.66458E+00 2.15686E+01
 -1   1000964 4.99750E+00 8.65592E+00 2.15686E+01
 -1   1000965 5.00250E+00 8.66458E+00 2.35294E+01
 -1   1000967 4.99750E+00 8.65592E+00 2.35294E+01
 -1   1000968 5.00250E+00 8.66458E+00 2.54902E+01
 -1   1000970 4.99750E+00 8.65592E+00 2.54902E+01
 -1   1000971 5.00250E+00 8.66458E+00 2.74510E+01
 -1   1000973 4.99750E+00 8.65592E+00 2.74510E+01
 -1   1000974 5.00250E+00 8.66458E+00 2.94118E+01
 -1   1000976 4.99750E+00 8.65592E+00 2.94118E+01
 -1   1000977 5.00250E+00 8.66458E+00 3.13725E+01
 -1   1000979 4.99750E+00 8.65592E+00 3.13725E+01
 -1   1000980 5.00250E+00 8.66458E+00 3.33333E+01
 -1   1000982 4.99750E+00 8.65592E+00 3.33333E+01
 -1   1000983 5.00250E+00 8.66458E+00 3.52941E+01
 -1   1000985 4.99750E+00 8.65592E+00 3.52941E+01
 -1   1000986 5.00250E+00 8.66458E+00 3.72549E+01
 -1   1000988 4.99750E+00 8.65592E+00 3.72549E+01
 -1   1000989 5.00250E+00 8.66458E+00 3.92157E+01
 -1   1000991 4.99750E+00 8.65592E+00 3.92157E+01
 -1   1000992 5.00250E+00 8.66458E+00 4.11765E+01
 -1   1000994 4.99750E+00 8.65592E+00 4.11765E+01
 -1   1000995 5.00250E+00 8.66458E+00 4.31373E+01
 -1   1000997 4.99750E+00 8.65592E+00 4.31373E+01
 -1   1000998 5.00250E+00 8.66458E+00 4.50980E+01
 -1   1001000 4.99750E+00 8.65592E+00 4.50980E+01
 -1   1001001 5.00250E+00 8.66458E+00 4.70588E+01
 -1   1001003 4.99750E+00 8.65592E+00 4.70588E+01
 -1   1001004 5.00250E+00 8.66458E+00 4.90196E+01
 -1   1001006 4.99750E+00 8.65592E+00 4.90196E+01
 -1   1001007 5.00250E+00 8.66458E+00 5.09804E+01
 -1   1001009 4.99750E+00 8.65592E+00 5.09804E+01
 -1   1001010 5.00250E+00 8.66458E+00 5.29412E+01
 -1   1001012 4.99750E+00 8.65592E+00 5.29412E+01
 -1   1001013 5.00250E+00 8.66458E+00 5.49020E+01
 -1   1001015 4.99750E+00 8.65592E+00 5.49020E+01
 -1   1001016 5.00250E+00 8.66458E+00 5.68627E+01
 -1   1001018 4.99750E+00 8.65592E+00 5.68627E+01
 -1   1001019 5.00250E+00 8.66458E+00 5.88235E+01
 -1   1001021 4.99750E+00 8.65592E+00 5.88235E+01
 -1   1001022 5.00250E+00 8.66458E+00 6.07843E+01
 -1   1001024 4.99750E+00 8.65592E+00 6.07843E+01
 -1   1001025 5.00250E+00 8.66458E+00 6.27451E+01
 -1   1001027 4.99750E+00 8.65592E+00 6.27451E+01
 -1   1001028 5.00250E+00 8.66458E+00 6.47059E+01
 -1   1001030 4.99750E+00 8.65592E+00 6.47059E+01
 -1   1001031 5.00250E+00 8.66458E+00 6.66667E+01
 -1   1001033 4.99750E+00 8.65592E+00 6.66667E+01
 -1   1001034 5.00250E+00 8.66458E+00 6.86274E+01
 -1   1001036 4.99750E+00 8.65592E+00 6.86274E+01
 -1   1001037 5.00250E+00 8.66458E+00 7.05882E+01
 -1   1001039 4.99750E+00 8.65592E+00 7.05882E+01
 -1   1001040 5.00250E+00 8.66458E+00 7.25490E+01
 -1   1001042 4.99750E+00 8.65592E+00 7.25490E+01
 -1   1001043 5.00250E+00 8.66458E+00 7.45098E+01
 -1   1001045 4.99750E+00 8.65592E+00 7.45098E+01
 -1   1001046 5.00250E+00 8.66458E+00 7.64706E+01
 -1   1001048 4.99750E+00 8.65592E+00 7.64706E+01
 -1   1001049 5.00250E+00 8.66458E+00 7.84314E+01
 -1   1001051 4.99750E+00 8.65592E+00 7.84314E+01
 -1   1001052 5.00250E+00 8.66458E+00 8.03922E+01
 -1   1001054 4.99750E+00 8.65592E+00 8.03922E+01
 -1   1001055 5.00250E+00 8.66458E+00 8.23529E+01
 -1   1001057 4.99750E+00 8.65592E+00 8.23529E+01
 -1   1001058 5.00250E+00 8.66458E+00 8.43137E+01
 -1   1001060 4.99750E+00 8.65592E+00 8.43137E+01
 -1   1001061 5.00250E+00 8.66458E+00 8.62745E+01
 -1   1001063 4.99750E+00 8.65592E+00 8.62745E+01
 -1   1001064 5.00250E+00 8.66458E+00 8.82353E+01
 -1   1001066 4.99750E+00 8.65592E+00 8.82353E+01
 -1   1001067 5.00250E+00 8.66458E+00 9.01961E+01
 -1   1001069 4.99750E+00 8.65592E+00 9.01961E+01
 -1   1001070 5.00250E+00 8.66458E+00 9.21569E+01
 -1   1001072 4.99750E+00 8.65592E+00 9.21569E+01
 -1   1001073 5.00250E+00 8.66458E+00 9.41176E+01
 -1   1001075 4.99750E+00 8.65592E+00 9.41176E+01
 -1   1001076 5.00250E+00 8.66458E+00 9.60784E+01
 -1   1001078 4.99750E+00 8.65592E+00 9.60784E+01
 -1   1001079 5.00250E+00 8.66458E+00 9.80392E+01
 -1   1001081 4.99750E+00 8.65592E+00 9.80392E+01
 -1   1001082 3.09172E+00 9.51532E+00 1.96078E+00
 -1   1001084 3.08862E+00 9.50581E+00 1.96078E+00
 -1   1001085 3.09172E+00 9.51532E+00 3.92157E+00
 -1   1001087 3.08862E+00 9.50581E+00 3.92157E+00
 -1   1001088 3.09172E+00 9.51532E+00 5.88235E+00
 -1   1001090 3.08862E+00 9.50581E+00 5.88235E+00
 -1   1001091 3.09172E+00 9.51532E+00 7.84314E+00
 -1   1001093 3.08862E+00 9.50581E+00 7.84314E+00
 -1   1001094 3.09172E+00 9.51532E+00 9.80392E+00
 -1   1001096 3.08862E+00 9.50581E+00 9.80392E+00
 -1   1001097 3.09172E+00 9.51532E+00 1.17647E+01
 -1   1001099 3.08862E+00 9.50581E+00 1.17647E+01
 -1   1001100 3.09172E+00 9.51532E+00 1.37255E+01
 -1   1001102 3.08862E+00 9.50581E+00 1.37255E+01
 -1   1001103 3.09172E+00 9.51532E+00 1.56863E+01
 -1   1001105 3.08862E+00 9.50581E+00 1.56863E+01
 -1   1001106 3.09172E+00 9.51532E+00 1.76471E+01
 -1   1001108 3.08862E+00 9.50581E+00 1.76471E+01
 -1   1001109 3.09172E+00 9.51532E+00 1.96078E+01
 -1   1001111 3.08862E+00 9.50581E+00 1.96078E+01
 -1   1001112 3.09172E+00 9.51532E+00 2.15686E+01
 -1   1001114 3.08862E+00 9.50581E+00 2.15686E+01
 -1   1001115 3.09172E+00 9.51532E+00 2.35294E+01
 -1   1001117 3.08862E+00 9.50581E+00 2.35294E+01
 -1   1001118 3.09172E+00 9.51532E+00 2.54902E+01
 -1   1001120 3.08862E+00 9.50581E+00 2.54902E+01
 -1   1001121 3.09172E+00 9.51532E+00 2.74510E+01
 -1   1001123 3.08862E+00 9.50581E+00 2.74510E+01
 -1   1001124 3.09172E+00 9.51532E+00 2.94118E+01
 -1   1001126 3.08862E+00 9.50581E+00 2.94118E+01
 -1   1001127 3.09172E+00 9.51532E+00 3.13725E+01
 -1   1001129 3.08862E+00 9.50581E+00 3.13725E+01
 -1   1001130 3.09172E+00 9.51532E+00 3.33333E+01
 -1   1001132 3.08862E+00 9.50581E+00 3.33333E+01
 -1   1001133 3.09172E+00 9.51532E+00 3.52941E+01
 -1   1001135 3.08862E+00 9.50581E+00 3.52941E+01
 -1   1001136 3.09172E+00 9.51532E+00 3.72549E+01
 -1   1001138 3.08862E+00 9.50581E+00 3.72549E+01
 -1   1001139 3.09172E+00 9.51532E+00 3.92157E+01
 -1   1001141 3.08862E+00 9.50581E+00 3.92157E+01
 -1   1001142 3.09172E+00 9.51532E+00 4.11765E+01
 -1   1001144 3.08862E+00 9.50581E+00 4.11765E+01
 -1   1001145 3.09172E+00 9.51532E+00 4.31373E+01
 -1   1001147 3.08862E+00 9.50581E+00 4.31373E+01
 -1   1001148 3.09172E+00 9.51532E+00 4.50980E+01
 -1   1001150 3.08862E+00 9.50581E+00 4.50980E+01
 -1   1001151 3.09172E+00 9.51532E+00 4.70588E+01
 -1   1001153 3.08862E+00 9.50581E+00 4.70588E+01
 -1   1001154 3.09172E+00 9.51532E+00 4.90196E+01
 -1   1001156 3.08862E+00 9.50581E+00 4.90196E+01
 -1   1001157 3.09172E+00 9.51532E+00 5.09804E+01
 -1   1001159 3.08862E+00 9.50581E+00 5.09804E+01
 -1   1001160 3.09172E+00 9.51532E+00 5.29412E+01
 -1   1001162 3.08862E+00 9.50581E+00 5.29412E+01
 -1   1001163 3.09172E+00 9.51532E+00 5.49020E+01
 -1   1001165 3.08862E+00 9.50581E+00 5.49020E+01
 -1   1001166 3.09172E+00 9.51532E+00 5.68627E+01
 -1   1001168 3.08862E+00 9.50581E+00 5.68627E+01
 -1   1001169 3.09172E+00 9.51532E+00 5.88235E+01
 -1   1001171 3.08862E+00 9.50581E+00 5.88235E+01
 -1   1001172 3.09172E+00 9.51532E+00 6.07843E+01
 -1   1001174 3.08862E+00 9.50581E+00 6.07843E+01
 -1   1001175 3.09172E+00 9.51532E+00 6.27451E+01
 -1   1001177 3.08862E+00 9.50581E+00 6.27451E+01
 -1   1001178 3.09172E+00 9.51532E+00 6.47059E+01
 -1   1001180 3.08862E+00 9.50581E+00 6.47059E+01
 -1   1001181 3.09172E+00 9.51532E+00 6.66667E+01
 -1   1001183 3.08862E+00 9.50581E+00 6.66667E+01
 -1   1001184 3.09172E+00 9.51532E+00 6.86274E+01
 -1   1001186 3.08862E+00 9.50581E+00 6.86274E+01
 -1   1001187 3.09172E+00 9.51532E+00 7.05882E+01
 -1   1001189 3.08862E+00 9.50581E+00 7.05882E+01
 -1   1001190 3.09172E+00 9.51532E+00 7.25490E+01
 -1   1001192 3.08862E+00 9.50581E+00 7.25490E+01
 -1   1001193 3.09172E+00 9.51532E+00 7.45098E+01
 -1   1001195 3.08862E+00 9.50581E+00 7.45098E+01
 -1   1001196 3.09172E+00 9.51532E+00 7.64706E+01
 -1   1001198 3.08862E+00 9.50581E+00 7.64706E+01
 -1   1001199 3.09172E+00 9.51532E+00 7.84314E+01
 -1   1001201 3.08862E+00 9.50581E+00 7.84314E+01
 -1   1001202 3.09172E+00 9.51532E+00 8.03922E+01
 -1   1001204 3.08862E+00 9.50581E+00 8.03922E+01
 -1   1001205 3.09172E+00 9.51532E+00 8.23529E+01
 -1   1001207 3.08862E+00 9.50581E+00 8.23529E+01
 -1   1001208 3.09172E+00 9.51532E+00 8.43137E+01
 -1   1001210 3.08862E+00 9.50581E+00 8.43137E+01
 -1   1001211 3.09172E+00 9.51532E+00 8.62745E+01
 -1   1001213 3.08862E+00 9.50581E+00 8.62745E+01
 -1   1001214 3.09172E+00 9.51532E+00 8.82353E+01
 -1   1001216 3.08862E+00 9.50581E+00 8.82353E+01
 -1   1001217 3.09172E+00 9.51532E+00 9.01961E+01
 -1   1001219 3.08862E+00 9.50581E+00 9.01961E+01
 -1   1001220 3.09172E+00 9.51532E+00 9.21569E+01
 -1   1001222 3.08862E+00 9.50581E+00 9.21569E+01
 -1   1001223 3.09172E+00 9.51532E+00 9.41176E+01
 -1   1001225 3.08862E+00 9.50581E+00 9.41176E+01
 -1   1001226 3.09172E+00 9.51532E+00 9.60784E+01
 -1   1001228 3.08862E+00 9.50581E+00 9.60784E+01
 -1   1001229 3.09172E+00 9.51532E+00 9.80392E+01
 -1   1001231 3.08862E+00 9.50581E+00 9.80392E+01
 -1   1001232 1.04581E+00 9.95019E+00 1.96078E+00
 -1   1001234 1.04476E+00 9.94025E+00 1.96078E+00
 -1   1001235 1.04581E+00 9.95019E+00 3.92157E+00
 -1   1001237 1.04476E+00 9.94025E+00 3.92157E+00
 -1   1001238 1.04581E+00 9.95019E+00 5.88235E+00
 -1   1001240 1.04476E+00 9.94025E+00 5.88235E+00
 -1   1001241 1.04581E+00 9.95019E+00 7.84314E+00
 -1   1001243 1.04476E+00 9.94025E+00 7.84314E+00
 -1   1001244 1.04581E+00 9.95019E+00 9.80392E+00
 -1   1001246 1.04476E+00 9.94025E+00 9.80392E+00
 -1   1001247 1.04581E+00 9.95019E+00 1.17647E+01
 -1   1001249 1.04476E+00 9.94025E+00 1.17647E+01
 -1   1001250 1.04581E+00 9.95019E+00 1.37255E+01
 -1   1001252 1.04476E+00 9.94025E+00 1.37255E+01
 -1   1001253 1.04581E+00 9.95019E+00 1.56863E+01
 -1   1001255 1.04476E+00 9.94025E+00 1.56863E+01
 -1   1001256 1.04581E+00 9.95019E+00 1.76471E+01
 -1   1001258 1.04476E+00 9.94025E+00 1.76471E+01
 -1   1001259 1.04581E+00 9.95019E+00 1.96078E+01
 -1   1001261 1.04476E+00 9.94025E+00 1.96078E+01
 -1   1001262 1.04581E+00 9.95019E+00 2.15686E+01
 -1   1001264 1.04476E+00 9.94025E+00 2.15686E+01
 -1   1001265 1.04581E+00 9.95019E+00 2.35294E+01
 -1   1001267 1.04476E+00 9.94025E+00 2.35294E+01
 -1   1001268 1.04581E+00 9.95019E+00 2.54902E+01
 -1   1001270 1.04476E+00 9.94025E+00 2.54902E+01
 -1   1001271 1.04581E+00 9.95019E+00 2.74510E+01
 -1   1001273 1.04476E+00 9.94025E+00 2.74510E+01
 -1   1001274 1.04581E+00 9.95019E+00 2.94118E+01
 -1   1001276 1.04476E+00 9.94025E+00 2.94118E+01
 -1   1001277 1.04581E+00 9.95019E+00 3.13725E+01
 -1   1001279 1.04476E+00 9.94025E+00 3.13725E+01
 -1   1001280 1.04581E+00 9.95019E+00 3.33333E+01
 -1   1001282 1.04476E+00 9.94025E+00 3.33333E+01
 -1   1001283 1.04581E+00 9.95019E+00 3.52941E+01
 -1   1001285 1.04476E+00 9.94025E+00 3.52941E+01
 -1   1001286 1.04581E+00 9.95019E+00 3.72549E+01
 -1   1001288 1.04476E+00 9.94025E+00 3.72549E+01
 -1   1001289 1.04581E+00 9.95019E+00 3.92157E+01
 -1   1001291 1.04476E+00 9.94025E+00 3.92157E+01
 -1   1001292 1.04581E+00 9.95019E+00 4.11765E+01
 -1   1001294 1.04476E+00 9.94025E+00 4.11765E+01
 -1   1001295 1.04581E+00 9.95019E+00 4.31373E+01
 -1   1001297 1.04476E+00 9.94025E+00 4.31373E+01
 -1   1001298 1.04581E+00 9.95019E+00 4.50980E+01
 -1   1001300 1.04476E+00 9.94025E+00 4.50980E+01
 -1   1001301 1.04581E+00 9.95019E+00 4.70588E+01
 -1   1001303 1.04476E+00 9.94025E+00 4.70588E+01
 -1   1001304 1.04581E+00 9.95019E+00 4.90196E+01
 -1   1001306 1.04476E+00 9.94025E+00 4.90196E+01
 -1   1001307 1.04581E+00 9.95019E+00 5.09804E+01
 -1   1001309 1.04476E+00 9.94025E+00 5.09804E+01
 -1   1001310 1.04581E+00 9.95019E+00 5.29412E+01
 -1   1001312 1.04476E+00 9.94025E+00 5.29412E+01
 -1   1001313 1.04581E+00 9.95019E+00 5.49020E+01
 -1   1001315 1.04476E+00 9.94025E+00 5.49020E+01
 -1   1001316 1.04581E+00 9.95019E+00 5.68627E+01
 -1   1001318 1.04476E+00 9.94025E+00 5.68627E+01
 -1   1001319 1.04581E+00 9.95019E+00 5.88235E+01
 -1   1001321 1.04476E+00 9.94025E+00 5.88235E+01
 -1   1001322 1.04581E+00 9.95019E+00 6.07843E+01
 -1   1001324 1.04476E+00 9.94025E+00 6.07843E+01
 -1   1001325 1.04581E+00 9.95019E+00 6.27451E+01
 -1   1001327 1.04476E+00 9.94025E+00 6.27451E+01
 -1   1001328 1.04581E+00 9.95019E+00 6.47059E+01
 -1   1001330 1.04476E+00 9.94025E+00 6.47059E+01
 -1   1001331 1.04581E+00 9.95019E+00 6.66667E+01
 -1   1001333 1.04476E+00 9.94025E+00 6.66667E+01
 -1   1001334 1.04581E+00 9.95019E+00 6.86274E+01
 -1   1001336 1.04476E+00 9.94025E+00 6.86274E+01
 -1   1001337 1.04581E+00 9.95019E+00 7.05882E+01
 -1   1001339 1.04476E+00 9.94025E+00 7.05882E+01
 -1   1001340 1.04581E+00 9.95019E+00 7.25490E+01
 -1   1001342 1.04476E+00 9.94025E+00 7.25490E+01
 -1   1001343 1.04581E+00 9.95019E+00 7.45098E+01
 -1   1001345 1.04476E+00 9.94025E+00 7.45098E+01
 -1   1001346 1.04581E+00 9.95019E+00 7.64706E+01
 -1   1001348 1.04476E+00 9.94025E+00 7.64706E+01
 -1   1001349 1.04581E+00 9.95019E+00 7.84314E+01
 -1   1001351 1.04476E+00 9.94025E+00 7.84314E+01
 -1   1001352 1.04581E+00 9.95019E+00 8.03922E+01
 -1   1001354 1.04476E+00 9.94025E+00 8.03922E+01
 -1   1001355 1.04581E+00 9.95019E+00 8.23529E+01
 -1   1001357 1.04476E+00 9.94025E+00 8.23529E+01
 -1   1001358 1.04581E+00 9.95019E+00 8.43137E+01
 -1   1001360 1.04476E+00 9.94025E+00 8.43137E+01
 -1   1001361 1.04581E+00 9.95019E+00 8.62745E+01
 -1   1001363 1.04476E+00 9.94025E+00 8.62745E+01
 -1   1001364 1.04581E+00 9.95019E+00 8.82353E+01
 -1   1001366 1.04476E+00 9.94025E+00 8.82353E+01
 -1   1001367 1.04581E+00 9.95019E+00 9.01961E+01
 -1   1001369 1.04476E+00 9.94025E+00 9.01961E+01
 -1   1001370 1.04581E+00 9.95019E+00 9.21569E+01
 -1   1001372 1.04476E+00 9.94025E+00 9.21569E+01
 -1   1001373 1.04581E+00 9.95019E+00 9.41176E+01
 -1   1001375 1.04476E+00 9.94025E+00 9.41176E+01
 -1   1001376 1.04581E+00 9.95019E+00 9.60784E+01
 -1   1001378 1.04476E+00 9.94025E+00 9.60784E+01
 -1   1001379 1.04581E+00 9.95019E+00 9.80392E+01
 -1   1001381 1.04476E+00 9.94025E+00 9.80392E+01
 -1   1001382-1.04581E+00 9.95019E+00 1.96078E+00
 -1   1001384-1.04476E+00 9.94025E+00 1.96078E+00
 -1   1001385-1.04581E+00 9.95019E+00 3.92157E+00
 -1   1001387-1.04476E+00 9.94025E+00 3.92157E+00
 -1   1001388-1.04581E+00 9.95019E+00 5.88235E+00
 -1   1001390-1.04476E+00 9.94025E+00 5.88235E+00
 -1   1001391-1.04581E+00 9.95019E+00 7.84314E+00
 -1   1001393-1.04476E+00 9.94025E+00 7.84314E+00
 -1   1001394-1.04581E+00 9.95019E+00 9.80392E+00
 -1   1001396-1.04476E+00 9.94025E+00 9.80392E+00
 -1   1001397-1.04581E+00 9.95019E+00 1.17647E+01
 -1   1001399-1.04476E+00 9.94025E+00 1.17647E+01
 -1   1001400-1.04581E+00 9.95019E+00 1.37255E+01
 -1   1001402-1.04476E+00 9.94025E+00 1.37255E+01
 -1   1001403-1.04581E+00 9.95019E+00 1.56863E+01
 -1   1001405-1.04476E+00 9.94025E+00 1.56863E+01
 -1   1001406-1.04581E+00 9.95019E+00 1.76471E+01
 -1   1001408-1.04476E+00 9.94025E+00 1.76471E+01
 -1   1001409-1.04581E+00 9.95019E+00 1.96078E+01
 -1   1001411-1.04476E+00 9.94025E+00 1.96078E+01
 -1   1001412-1.04581E+00 9.95019E+00 2.15686E+01
 -1   1001414-1.04476E+00 9.94025E+00 2.15686E+01
 -1   1001415-1.04581E+00 9.95019E+00 2.35294E+01
 -1   1001417-1.04476E+00 9.94025E+00 2.35294E+01
 -1   1001418-1.04581E+00 9.95019E+00 2.54902E+01
 -1   1001420-1.04476E+00 9.94025E+00 2.54902E+01
 -1   1001421-1.04581E+00 9.95019E+00 2.74510E+01
 -1   1001423-1.04476E+00 9.94025E+00 2.74510E+01
 -1   1001424-1.04581E+00 9.95019E+00 2.94118E+01
 -1   1001426-1.04476E+00 9.94025E+00 2.94118E+01
 -1   1001427-1.04581E+00 9.95019E+00 3.13725E+01
 -1   1001429-1.04476E+00 9.94025E+00 3.13725E+01
 -1   1001430-1.04581E+00 9.95019E+00 3.33333E+01
 -1   1001432-1.04476E+00 9.94025E+00 3.33333E+01
 -1   1001433-1.04581E+00 9.95019E+00 3.52941E+01
 -1   1001435-1.04476E+00 9.94025E+00 3.52941E+01
 -1   1001436-1.04581E+00 9.95019E+00 3.72549E+01
 -1   1001438-1.04476E+00 9.94025E+00 3.72549E+01
 -1   1001439-1.04581E+00 9.95019E+00 3.92157E+01
 -1   1001441-1.04476E+00 9.94025E+00 3.92157E+01
 -1   1001442-1.04581E+00 9.95019E+00 4.11765E+01
 -1   1001444-1.04476E+00 9.94025E+00 4.11765E+01
 -1   1001445-1.04581E+00 9.95019E+00 4.31373E+01
 -1   1001447-1.04476E+00 9.94025E+00 4.31373E+01
 -1   1001448-1.04581E+00 9.95019E+00 4.50980E+01
 -1   1001450-1.04476E+00 9.94025E+00 4.50980E+01
 -1   1001451-1.04581E+00 9.95019E+00 4.70588E+01
 -1   1001453-1.04476E+00 9.94025E+00 4.70588E+01
 -1   1001454-1.04581E+00 9.95019E+00 4.90196E+01
 -1   1001456-1.04476E+00 9.94025E+00 4.90196E+01
 -1   1001457-1.04581E+00 9.95019E+00 5.09804E+01
 -1   1001459-1.04476E+00 9.94025E+00 5.09804E+01
 -1   1001460-1.04581E+00 9.95019E+00 5.29412E+01
 -1   1001462-1.04476E+00 9.94025E+00 5.29412E+01
 -1   1001463-1.04581E+00 9.95019E+00 5.49020E+01
 -1   1001465-1.04476E+00 9.94025E+00 5.49020E+01
 -1   1001466-1.04581E+00 9.95019E+00 5.68627E+01
 -1   1001468-1.04476E+00 9.94025E+00 5.68627E+01
 -1   1001469-1.04581E+00 9.95019E+00 5.88235E+01
 -1   1001471-1.04476E+00 9.94025E+00 5.88235E+01
 -1   1001472-1.04581E+00 9.95019E+00 6.07843E+01
 -1   1001474-1.04476E+00 9.94025E+00 6.07843E+01
 -1   1001475-1.04581E+00 9.95019E+00 6.27451E+01
 -1   1001477-1.04476E+00 9.94025E+00 6.27451E+01
 -1   1001478-1.04581E+00 9.95019E+00 6.47059E+01
 -1   1001480-1.04476E+00 9.94025E+00 6.47059E+01
 -1   1001481-1.04581E+00 9.95019E+00 6.66667E+01
 -1   1001483-1.04476E+00 9.94025E+00 6.66667E+01
 -1   1001484-1.04581E+00 9.95019E+00 6.86274E+01
 -1   1001486-1.04476E+00 9.94025E+00 6.86274E+01
 -1   1001487-1.04581E+00 9.95019E+00 7.05882E+01
 -1   1001489-1.04476E+00 9.94025E+00 7.05882E+01
 -1   1001490-1.04581E+00 9.95019E+00 7.25490E+01
 -1   1001492-1.04476E+00 9.94025E+00 7.25490E+01
 -1   1001493-1.04581E+00 9.95019E+00 7.45098E+01
 -1   1001495-1.04476E+00 9.94025E+00 7.45098E+01
 -1   1001496-1.04581E+00 9.95019E+00 7.64706E+01
 -1   1001498-1.04476E+00 9.94025E+00 7.64706E+01
 -1   1001499-1.04581E+00 9.95019E+00 7.84314E+01
 -1   1001501-1.04476E+00 9.94025E+00 7.84314E+01
 -1   1001502-1.04581E+00 9.95019E+00 8.03922E+01
 -1   1001504-1.04476E+00 9.94025E+00 8.03922E+01
 -1   1001505-1.04581E+00 9.95019E+00 8.23529E+01
 -1   1001507-1.04476E+00 9.94025E+00 8.23529E+01
 -1   1001508-1.04581E+00 9.95019E+00 8.43137E+01
 -1   1001510-1.04476E+00 9.94025E+00 8.43137E+01
 -1   1001511-1.04581E+00 9.95019E+00 8.62745E+01
 -1   1001513-1.04476E+00 9.94025E+00 8.62745E+01
 -1   1001514-1.04581E+00 9.95019E+00 8.82353E+01
 -1   1001516-1.04476E+00 9.94025E+00 8.82353E+01
 -1   1001517-1.04581E+00 9.95019E+00 9.01961E+01
 -1   1001519-1.04476E+00 9.94025E+00 9.01961E+01
 -1   1001520-1.04581E+00 9.95019E+00 9.21569E+01
 -1   1001522-1.04476E+00 9.94025E+00 9.21569E+01
 -1   1001523-1.04581E+00 9.95019E+00 9.41176E+01
 -1   1001525-1.04476E+00 9.94025E+00 9.41176E+01
 -1   1001526-1.04581E+00 9.95019E+00 9.60784E+01
 -1   1001528-1.04476E+00 9.94025E+00 9.60784E+01
 -1   1001529-1.04581E+00 9.95019E+00 9.80392E+01
 -1   1001531-1.04476E+00 9.94025E+00 9.80392E+01
 -1   1001532-3.09172E+00 9.51532E+00 1.96078E+00
 -1   1001534-3.08862E+00 9.50581E+00 1.96078E+00
 -1   1001535-3.09172E+00 9.51532E+00 3.92157E+00
 -1   1001537-3.08862E+00 9.50581E+00 3.92157E+00
 -1   1001538-3.09172E+00 9.51532E+00 5.88235E+00
 -1   1001540-3.08862E+00 9.50581E+00 5.88235E+00
 -1   1001541-3.09172E+00 9.51532E+00 7.84314E+00
 -1   1001543-3.08862E+00 9.50581E+00 7.84314E+00
 -1   1001544-3.09172E+00 9.51532E+00 9.80392E+00
 -1   1001546-3.08862E+00 9.50581E+00 9.80392E+00
 -1   1001547-3.09172E+00 9.51532E+00 1.17647E+01
 -1   1001549-3.08862E+00 9.50581E+00 1.17647E+01
 -1   1001550-3.09172E+00 9.51532E+00 1.37255E+01
 -1   1001552-3.08862E+00 9.50581E+00 1.37255E+01
 -1   1001553-3.09172E+00 9.51532E+00 1.56863E+01
 -1   1001555-3.08862E+00 9.50581E+00 1.56863E+01
 -1   1001556-3.09172E+00 9.51532E+00 1.76471E+01
 -1   1001558-3.08862E+00 9.50581E+00 1.76471E+01
 -1   1001559-3.09172E+00 9.51532E+00 1.96078E+01
 -1   1001561-3.08862E+00 9.50581E+00 1.96078E+01
 -1   1001562-3.09172E+00 9.51532E+00 2.15686E+01
 -1   1001564-3.08862E+00 9.50581E+00 2.15686E+01
 -1   1001565-3.09172E+00 9.51532E+00 2.35294E+01
 -1   1001567-3.08862E+00 9.50581E+00 2.35294E+01
 -1   1001568-3.09172E+00 9.51532E+00 2.54902E+01
 -1   1001570-3.08862E+00 9.50581E+00 2.54902E+01
 -1   1001571-3.09172E+00 9.51532E+00 2.74510E+01
 -1   1001573-3.08862E+00 9.50581E+00 2.74510E+01
 -1   1001574-3.09172E+00 9.51532E+00 2.94118E+01
 -1   1001576-3.08862E+00 9.50581E+00 2.94118E+01
 -1   1001577-3.09172E+00 9.51532E+00 3.13725E+01
 -1   1001579-3.08862E+00 9.50581E+00 3.13725E+01
 -1   1001580-3.09172E+00 9.51532E+00 3.33333E+01
 -1   1001582-3.08862E+00 9.50581E+00 3.33333E+01
 -1   1001583-3.09172E+00 9.51532E+00 3.52941E+01
 -1   1001585-3.08862E+00 9.50581E+00 3.52941E+01
 -1   1001586-3.09172E+00 9.51532E+00 3.72549E+01
 -1   1001588-3.08862E+00 9.50581E+00 3.72549E+01
 -1   1001589-3.09172E+00 9.51532E+00 3.92157E+01
 -1   1001591-3.08862E+00 9.50581E+00 3.92157E+01
 -1   1001592-3.09172E+00 9.51532E+00 4.11765E+01
 -1   1001594-3.08862E+00 9.50581E+00 4.11765E+01
 -1   1001595-3.09172E+00 9.51532E+00 4.31373E+01
 -1   1001597-3.08862E+00 9.50581E+00 4.31373E+01
 -1   1001598-3.09172E+00 9.51532E+00 4.50980E+01
 -1   1001600-3.08862E+00 9.50581E+00 4.50980E+01
 -1   1001601-3.09172E+00 9.51532E+00 4.70588E+01
 -1   1001603-3.08862E+00 9.50581E+00 4.70588E+01
 -1   1001604-3.09172E+00 9.51532E+00 4.90196E+01
 -1   1001606-3.08862E+00 9.50581E+00 4.90196E+01
 -1   1001607-3.09172E+00 9.51532E+00 5.09804E+01
 -1   1001609-3.08862E+00 9.50581E+00 5.09804E+01
 -1   1001610-3.09172E+00 9.51532E+00 5.29412E+01
 -1   1001612-3.08862E+00 9.50581E+00 5.29412E+01
 -1   1001613-3.09172E+00 9.51532E+00 5.49020E+01
 -1   1001615-3.08862E+00 9.50581E+00 5.49020E+01
 -1   1001616-3.09172E+00 9.51532E+00 5.68627E+01
 -1   1001618-3.08862E+00 9.50581E+00 5.68627E+01
 -1   1001619-3.09172E+00 9.51532E+00 5.88235E+01
 -1   1001621-3.08862E+00 9.50581E+00 5.88235E+01
 -1   1001622-3.09172E+00 9.51532E+00 6.07843E+01
 -1   1001624-3.08862E+00 9.50581E+00 6.07843E+01
 -1   1001625-3.09172E+00 9.51532E+00 6.27451E+01
 -1   1001627-3.08862E+00 9.50581E+00 6.27451E+01
 -1   1001628-3.09172E+00 9.51532E+00 6.47059E+01
 -1   1001630-3.08862E+00 9.50581E+00 6.47059E+01
 -1   1001631-3.09172E+00 9.51532E+00 6.66667E+01
 -1   1001633-3.08862E+00 9.50581E+00 6.66667E+01
 -1   1001634-3.09172E+00 9.51532E+00 6.86274E+01
 -1   1001636-3.08862E+00 9.50581E+00 6.86274E+01
 -1   1001637-3.09172E+00 9.51532E+00 7.05882E+01
 -1   1001639-3.08862E+00 9.50581E+00 7.05882E+01
 -1   1001640-3.09172E+00 9.51532E+00 7.25490E+01
 -1   1001642-3.08862E+00 9.50581E+00 7.25490E+01
 -1   1001643-3.09172E+00 9.51532E+00 7.45098E+01
 -1   1001645-3.08862E+00 9.50581E+00 7.45098E+01
 -1   1001646-3.09172E+00 9.51532E+00 7.64706E+01
 -1   1001648-3.08862E+00 9.50581E+00 7.64706E+01
 -1   1001649-3.09172E+00 9.51532E+00 7.84314E+01
 -1   1001651-3.08862E+00 9.50581E+00 7.84314E+01
 -1   1001652-3.09172E+00 9.51532E+00 8.03922E+01
 -1   1001654-3.08862E+00 9.50581E+00 8.03922E+01
 -1   1001655-3.09172E+00 9.51532E+00 8.23529E+01
 -1   1001657-3.08862E+00 9.50581E+00 8.23529E+01
 -1   1001658-3.09172E+00 9.51532E+00 8.43137E+01
 -1   1001660-3.08862E+00 9.50581E+00 8.43137E+01
 -1   1001661-3.09172E+00 9.51532E+00 8.62745E+01
 -1   1001663-3.08862E+00 9.50581E+00 8.62745E+01
 -1   1001664-3.09172E+00 9.51532E+00 8.82353E+01
 -1   1001666-3.08862E+00 9.50581E+00 8.82353E+01
 -1   1001667-3.09172E+00 9.51532E+00 9.01961E+01
 -1   1001669-3.08862E+00 9.50581E+00 9.01961E+01
 -1   1001670-3.09172E+00 9.51532E+00 9.21569E+01
 -1   1001672-3.08862E+00 9.50581E+00 9.21569E+01
 -1   1001673-3.09172E+00 9.51532E+00 9.41176E+01
 -1   1001675-3.08862E+00 9.50581E+00 9.41176E+01
 -1   1001676-3.09172E+00 9.51532E+00 9.60784E+01
 -1   1001678-3.08862E+00 9.50581E+00 9.60784E+01
 -1   1001679-3.09172E+00 9.51532E+00 9.80392E+01
 -1   1001681-3.08862E+00 9.50581E+00 9.80392E+01
 -1   1001682-5.00250E+00 8.66458E+00 1.96078E+00
 -1   1001684-4.99750E+00 8.65592E+00 1.96078E+00
 -1   1001685-5.00250E+00 8.66458E+00 3.92157E+00
 -1   1001687-4.99750E+00 8.65592E+00 3.92157E+00
 -1   1001688-5.00250E+00 8.66458E+00 5.88235E+00
 -1   1001690-4.99750E+00 8.65592E+00 5.88235E+00
 -1   1001691-5.00250E+00 8.66458E+00 7.84314E+00
 -1   1001693-4.99750E+00 8.65592E+00 7.84314E+00
 -1   1001694-5.00250E+00 8.66458E+00 9.80392E+00
 -1   1001696-4.99750E+00 8.65592E+00 9.80392E+00
 -1   1001697-5.00250E+00 8.66458E+00 1.17647E+01
 -1   1001699-4.99750E+00 8.65592E+00 1.17647E+01
 -1   1001700-5.00250E+00 8.66458E+00 1.37255E+01
 -1   1001702-4.99750E+00 8.65592E+00 1.37255E+01
 -1   1001703-5.00250E+00 8.66458E+00 1.56863E+01
 -1   1001705-4.99750E+00 8.65592E+00 1.56863E+01
 -1   1001706-5.00250E+00 8.66458E+00 1.76471E+01
 -1   1001708-4.99750E+00 8.65592E+00 1.76471E+01
 -1   1001709-5.00250E+00 8.66458E+00 1.96078E+01
 -1   1001711-4.99750E+00 8.65592E+00 1.96078E+01
 -1   1001712-5.00250E+00 8.66458E+00 2.15686E+01
 -1   1001714-4.99750E+00 8.65592E+00 2.15686E+01
 -1   1001715-5.00250E+00 8.66458E+00 2.35294E+01
 -1   1001717-4.99750E+00 8.65592E+00 2.35294E+01
 -1   1001718-5.00250E+00 8.66458E+00 2.54902E+01
 -1   1001720-4.99750E+00 8.65592E+00 2.54902E+01
 -1   1001721-5.00250E+00 8.66458E+00 2.74510E+01
 -1   1001723-4.99750E+00 8.65592E+00 2.74510E+01
 -1   1001724-5.00250E+00 8.66458E+00 2.94118E+01
 -1   1001726-4.99750E+00 8.65592E+00 2.94118E+01
 -1   1001727-5.00250E+00 8.66458E+00 3.13725E+01
 -1   1001729-4.99750E+00 8.65592E+00 3.13725E+01
 -1   1001730-5.00250E+00 8.66458E+00 3.33333E+01
 -1   1001732-4.99750E+00 8.65592E+00 3.33333E+01
 -1   1001733-5.00250E+00 8.66458E+00 3.52941E+01
 -1   1001735-4.99750E+00 8.65592E+00 3.52941E+01
 -1   1001736-5.00250E+00 8.66458E+00 3.72549E+01
 -1   1001738-4.99750E+00 8.65592E+00 3.72549E+01
 -1   1001739-5.00250E+00 8.66458E+00 3.92157E+01
 -1   1001741-4.99750E+00 8.65592E+00 3.92157E+01
 -1   1001742-5.00250E+00 8.66458E+00 4.11765E+01
 -1   1001744-4.99750E+00 8.65592E+00 4.11765E+01
 -1   1001745-5.00250E+00 8.66458E+00 4.31373E+01
 -1   1001747-4.99750E+00 8.65592E+00 4.31373E+01
 -1   1001748-5.00250E+00 8.66458E+00 4.50980E+01
 -1   1001750-4.99750E+00 8.65592E+00 4.50980E+01
 -1   1001751-5.00250E+00 8.66458E+00 4.70588E+01
 -1   1001753-4.99750E+00 8.65592E+00 4.70588E+01
 -1   1001754-5.00250E+00 8.66458E+00 4.90196E+01
 -1   1001756-4.99750E+00 8.65592E+00 4.90196E+01
 -1   1001757-5.00250E+00 8.66458E+00 5.09804E+01
 -1   1001759-4.99750E+00 8.65592E+00 5.09804E+01
 -1   1001760-5.00250E+00 8.66458E+00 5.29412E+01
 -1   1001762-4.99750E+00 8.65592E+00 5.29412E+01
 -1   1001763-5.00250E+00 8.66458E+00 5.49020E+01
 -1   1001765-4.99750E+00 8.65592E+00 5.49020E+01
 -1   1001766-5.00250E+00 8.66458E+00 5.68627E+01
 -1   1001768-4.99750E+00 8.65592E+00 5.68627E+01
 -1   1001769-5.00250E+00 8.66458E+00 5.88235E+01
 -1   1001771-4.99750E+00 8.65592E+00 5.88235E+01
 -1   1001772-5.00250E+00 8.66458E+00 6.07843E+01
 -1   1001774-4.99750E+00 8.65592E+00 6.07843E+01
 -1   1001775-5.00250E+00 8.66458E+00 6.27451E+01
 -1   1001777-4.99750E+00 8.65592E+00 6.27451E+01
 -1   1001778-5.00250E+00 8.66458E+00 6.47059E+01
 -1   1001780-4.99750E+00 8.65592E+00 6.47059E+01
 -1   1001781-5.00250E+00 8.66458E+00 6.66667E+01
 -1   1001783-4.99750E+00 8.65592E+00 6.66667E+01
 -1   1001784-5.00250E+00 8.66458E+00 6.86274E+01
 -1   1001786-4.99750E+00 8.65592E+00 6.86274E+01
 -1   1001787-5.00250E+00 8.66458E+00 7.05882E+01
 -1   1001789-4.99750E+00 8.65592E+00 7.05882E+01
 -1   1001790-5.00250E+00 8.66458E+00 7.25490E+01
 -1   1001792-4.99750E+00 8.65592E+00 7.25490E+01
 -1   1001793-5.00250E+00 8.66458E+00 7.45098E+01
 -1   1001795-4.99750E+00 8.65592E+00 7.45098E+01
 -1   1001796-5.00250E+00 8.66458E+00 7.64706E+01
 -1   1001798-4.99750E+00 8.65592E+00 7.64706E+01
 -1   1001799-5.00250E+00 8.66458E+00 7.84314E+01
 -1   1001801-4.99750E+00 8.65592E+00 7.84314E+01
 -1   1001802-5.00250E+00 8.66458E+00 8.03922E+01
 -1   1001804-4.99750E+00 8.65592E+00 8.03922E+01
 -1   1001805-5.00250E+00 8.66458E+00 8.23529E+01
 -1   1001807-4.99750E+00 8.65592E+00 8.23529E+01
 -1   1001808-5.00250E+00 8.66458E+00 8.43137E+01
 -1   1001810-4.99750E+00 8.65592E+00 8.43137E+01
 -1   1001811-5.00250E+00 8.66458E+00 8.62745E+01
 -1   1001813-4.99750E+00 8.65592E+00 8.62745E+01
 -1   1001814-5.00250E+00 8.66458E+00 8.82353E+01
 -1   1001816-4.99750E+00 8.65592E+00 8.82353E+01
 -1   1001817-5.00250E+00 8.66458E+00 9.01961E+01
 -1   1001819-4.99750E+00 8.65592E+00 9.01961E+01
 -1   1001820-5.00250E+00 8.66458E+00 9.21569E+01
 -1   1001822-4.99750E+00 8.65592E+00 9.21569E+01
 -1   1001823-5.00250E+00 8.66458E+00 9.41176E+01
 -1   1001825-4.99750E+00 8.65592E+00 9.41176E+01
 -1   1001826-5.00250E+00 8.66458E+00 9.60784E+01
 -1   1001828-4.99750E+00 8.65592E+00 9.60784E+01
 -1   1001829-5.00250E+00 8.66458E+00 9.80392E+01
 -1   1001831-4.99750E+00 8.65592E+00 9.80392E+01
 -1   1001832-6.69465E+00 7.43516E+00 1.96078E+00
 -1   1001834-6.68796E+00 7.42773E+00 1.96078E+00
 -1   1001835-6.69465E+00 7.43516E+00 3.92157E+00
 -1   1001837-6.68796E+00 7.42773E+00 3.92157E+00
 -1   1001838-6.69465E+00 7.43516E+00 5.88235E+00
 -1   1001840-6.68796E+00 7.42773E+00 5.88235E+00
 -1   1001841-6.69465E+00 7.43516E+00 7.84314E+00
 -1   1001843-6.68796E+00 7.42773E+00 7.84314E+00
 -1   1001844-6.69465E+00 7.43516E+00 9.80392E+00
 -1   1001846-6.68796E+00 7.42773E+00 9.80392E+00
 -1   1001847-6.69465E+00 7.43516E+00 1.17647E+01
 -1   1001849-6.68796E+00 7.42773E+00 1.17647E+01
 -1   1001850-6.69465E+00 7.43516E+00 1.37255E+01
 -1   1001852-6.68796E+00 7.42773E+00 1.37255E+01
 -1   1001853-6.69465E+00 7.43516E+00 1.56863E+01
 -1   1001855-6.68796E+00 7.42773E+00 1.56863E+01
 -1   1001856-6.69465E+00 7.43516E+00 1.76471E+01
 -1   1001858-6.68796E+00 7.42773E+00 1.76471E+01
 -1   1001859-6.69465E+00 7.43516E+00 1.96078E+01
 -1   1001861-6.68796E+00 7.42773E+00 1.96078E+01
 -1   1001862-6.69465E+00 7.43516E+00 2.15686E+01
 -1   1001864-6.68796E+00 7.42773E+00 2.15686E+01
 -1   1001865-6.69465E+00 7.43516E+00 2.35294E+01
 -1   1001867-6.68796E+00 7.42773E+00 2.35294E+01
 -1   1001868-6.69465E+00 7.43516E+00 2.54902E+01
 -1   1001870-6.68796E+00 7.42773E+00 2.54902E+01
 -1   1001871-6.69465E+00 7.43516E+00 2.74510E+01
 -1   1001873-6.68796E+00 7.42773E+00 2.74510E+01
 -1   1001874-6.69465E+00 7.43516E+00 2.94118E+01
 -1   1001876-6.68796E+00 7.42773E+00 2.94118E+01
 -1   1001877-6.69465E+00 7.43516E+00 3.13725E+01
 -1   1001879-6.68796E+00 7.42773E+00 3.13725E+01
 -1   1001880-6.69465E+00 7.43516E+00 3.33333E+01
 -1   1001882-6.68796E+00 7.42773E+00 3.33333E+01
 -1   1001883-6.69465E+00 7.43516E+00 3.52941E+01
 -1   1001885-6.68796E+00 7.42773E+00 3.52941E+01
 -1   1001886-6.69465E+00 7.43516E+00 3.72549E+01
 -1   1001888-6.68796E+00 7.42773E+00 3.72549E+01
 -1   1001889-6.69465E+00 7.43516E+00 3.92157E+01
 -1   1001891-6.68796E+00 7.42773E+00 3.92157E+01
 -1   1001892-6.69465E+00 7.43516E+00 4.11765E+01
 -1   1001894-6.68796E+00 7.42773E+00 4.11765E+01
 -1   1001895-6.69465E+00 7.43516E+00 4.31373E+01
 -1   1001897-6.68796E+00 7.42773E+00 4.31373E+01
 -1   1001898-6.69465E+00 7.43516E+00 4.50980E+01
 -1   1001900-6.68796E+00 7.42773E+00 4.50980E+01
 -1   1001901-6.69465E+00 7.43516E+00 4.70588E+01
 -1   1001903-6.68796E+00 7.42773E+00 4.70588E+01
 -1   1001904-6.69465E+00 7.43516E+00 4.90196E+01
 -1   1001906-6.68796E+00 7.42773E+00 4.90196E+01
 -1   1001907-6.69465E+00 7.43516E+00 5.09804E+01
 -1   1001909-6.68796E+00 7.42773E+00 5.09804E+01
 -1   1001910-6.69465E+00 7.43516E+00 5.29412E+01
 -1   1001912-6.68796E+00 7.42773E+00 5.29412E+01
 -1   1001913-6.69465E+00 7.43516E+00 5.49020E+01
 -1   1001915-6.68796E+00 7.42773E+00 5.49020E+01
 -1   1001916-6.69465E+00 7.43516E+00 5.68627E+01
 -1   1001918-6.68796E+00 7.42773E+00 5.68627E+01
 -1   1001919-6.69465E+00 7.43516E+00 5.88235E+01
 -1   1001921-6.68796E+00 7.42773E+00 5.88235E+01
 -1   1001922-6.69465E+00 7.43516E+00 6.07843E+01
 -1   1001924-6.68796E+00 7.42773E+00 6.07843E+01
 -1   1001925-6.69465E+00 7.43516E+00 6.27451E+01
 -1   1001927-6.68796E+00 7.42773E+00 6.27451E+01
 -1   1001928-6.69465E+00 7.43516E+00 6.47059E+01
 -1   1001930-6.68796E+00 7.42773E+00 6.47059E+01
 -1   1001931-6.69465E+00 7.43516E+00 6.66667E+01
 -1   1001933-6.68796E+00 7.42773E+00 6.66667E+01
 -1   1001934-6.69465E+00 7.43516E+00 6.86274E+01
 -1   1001936-6.68796E+00 7.42773E+00 6.86274E+01
 -1   1001937-6.69465E+00 7.43516E+00 7.05882E+01
 -1   1001939-6.68796E+00 7.42773E+00 7.05882E+01
 -1   1001940-6.69465E+00 7.43516E+00 7.25490E+01
 -1   1001942-6.68796E+00 7.42773E+00 7.25490E+01
 -1   1001943-6.69465E+00 7.43516E+00 7.45098E+01
 -1   1001945-6.68796E+00 7.42773E+00 7.45098E+01
 -1   1001946-6.69465E+00 7.43516E+00 7.64706E+01
 -1   1001948-6.68796E+00 7.42773E+00 7.64706E+01
 -1   1001949-6.69465E+00 7.43516E+00 7.84314E+01
 -1   1001951-6.68796E+00 7.42773E+00 7.84314E+01
 -1   1001952-6.69465E+00 7.43516E+00 8.03922E+01
 -1   1001954-6.68796E+00 7.42773E+00 8.03922E+01
 -1   1001955-6.69465E+00 7.43516E+00 8.23529E+01
 -1   1001957-6.68796E+00 7.42773E+00 8.23529E+01
 -1   1001958-6.69465E+00 7.43516E+00 8.43137E+01
 -1   1001960-6.68796E+00 7.42773E+00 8.43137E+01
 -1   1001961-6.69465E+00 7.43516E+00 8.62745E+01
 -1   1001963-6.68796E+00 7.42773E+00 8.62745E+01
 -1   1001964-6.69465E+00 7.43516E+00 8.82353E+01
 -1   1001966-6.68796E+00 7.42773E+00 8.82353E+01
 -1   1001967-6.69465E+00 7.43516E+00 9.01961E+01
 -1   1001969-6.68796E+00 7.42773E+00 9.01961E+01
 -1   1001970-6.69465E+00 7.43516E+00 9.21569E+01
 -1   1001972-6.68796E+00 7.42773E+00 9.21569E+01
 -1   1001973-6.69465E+00 7.43516E+00 9.41176E+01
 -1   1001975-6.68796E+00 7.42773E+00 9.41176E+01
 -1   1001976-6.69465E+00 7.43516E+00 9.60784E+01
 -1   1001978-6.68796E+00 7.42773E+00 9.60784E+01
 -1   1001979-6.69465E+00 7.43516E+00 9.80392E+01
 -1   1001981-6.68796E+00 7.42773E+00 9.80392E+01
 -1   1001982-8.09422E+00 5.88079E+00 1.96078E+00
 -1   1001984-8.08612E+00 5.87491E+00 1.96078E+00
 -1   1001985-8.09422E+00 5.88079E+00 3.92157E+00
 -1   1001987-8.08612E+00 5.87491E+00 3.92157E+00
 -1   1001988-8.09422E+00 5.88079E+00 5.88235E+00
 -1   1001990-8.08612E+00 5.87491E+00 5.88235E+00
 -1   1001991-8.09422E+00 5.88079E+00 7.84314E+00
 -1   1001993-8.08612E+00 5.87491E+00 7.84314E+00
 -1   1001994-8.09422E+00 5.88079E+00 9.80392E+00
 -1   1001996-8.08612E+00 5.87491E+00 9.80392E+00
 -1   1001997-8.09422E+00 5.88079E+00 1.17647E+01
 -1   1001999-8.08612E+00 5.87491E+00 1.17647E+01
 -1   1002000-8.09422E+00 5.88079E+00 1.37255E+01
 -1   1002002-8.08612E+00 5.87491E+00 1.37255E+01
 -1   1002003-8.09422E+00 5.88079E+00 1.56863E+01
 -1   1002005-8.08612E+00 5.87491E+00 1.56863E+01
 -1   1002006-8.09422E+00 5.88079E+00 1.76471E+01
 -1   1002008-8.08612E+00 5.87491E+00 1.76471E+01
 -1   1002009-8.09422E+00 5.88079E+00 1.96078E+01
 -1   1002011-8.08612E+00 5.87491E+00 1.96078E+01
 -1   1002012-8.09422E+00 5.88079E+00 2.15686E+01
 -1   1002014-8.08612E+00 5.87491E+00 2.15686E+01
 -1   1002015-8.09422E+00 5.88079E+00 2.35294E+01
 -1   1002017-8.08612E+00 5.87491E+00 2.35294E+01
 -1   1002018-8.09422E+00 5.88079E+00 2.54902E+01
 -1   1002020-8.08612E+00 5.87491E+00 2.54902E+01
 -1   1002021-8.09422E+00 5.88079E+00 2.74510E+01
 -1   1002023-8.08612E+00 5.87491E+00 2.74510E+01
 -1   1002024-8.09422E+00 5.88079E+00 2.94118E+01
 -1   1002026-8.08612E+00 5.87491E+00 2.94118E+01
 -1   1002027-8.09422E+00 5.88079E+00 3.13725E+01
 -1   1002029-8.08612E+00 5.87491E+00 3.13725E+01
 -1   1002030-8.09422E+00 5.88079E+00 3.33333E+01
 -1   1002032-8.08612E+00 5.87491E+00 3.33333E+01
 -1   1002033-8.09422E+00 5.88079E+00 3.52941E+01
 -1   1002035-8.08612E+00 5.87491E+00 3.52941E+01
 -1   1002036-8.09422E+00 5.88079E+00 3.72549E+01
 -1   1002038-8.08612E+00 5.87491E+00 3.72549E+01
 -1   1002039-8.09422E+00 5.88079E+00 3.92157E+01
 -1   1002041-8.08612E+00 5.87491E+00 3.92157E+01
 -1   1002042-8.09422E+00 5.88079E+00 4.11765E+01
 -1   1002044-8.08612E+00 5.87491E+00 4.11765E+01
 -1   1002045-8.09422E+00 5.88079E+00 4.31373E+01
 -1   1002047-8.08612E+00 5.87491E+00 4.31373E+01
 -1   1002048-8.09422E+00 5.88079E+00 4.50980E+01
 -1   1002050-8.08612E+00 5.87491E+00 4.50980E+01
 -1   1002051-8.09422E+00 5.88079E+00 4.70588E+01
 -1   1002053-8.08612E+00 5.87491E+00 4.70588E+01
 -1   1002054-8.09422E+00 5.88079E+00 4.90196E+01
 -1   1002056-8.08612E+00 5.87491E+00 4.90196E+01
 -1   1002057-8.09422E+00 5.88079E+00 5.09804E+01
 -1   1002059-8.08612E+00 5.87491E+00 5.09804E+01
 -1   1002060-8.09422E+00 5.88079E+00 5.29412E+01
 -1   1002062-8.08612E+00 5.87491E+00 5.29412E+01
 -1   1002063-8.09422E+00 5.88079E+00 5.49020E+01
 -1   1002065-8.08612E+00 5.87491E+00 5.49020E+01
 -1   1002066-8.09422E+00 5.88079E+00 5.68627E+01
 -1   1002068-8.08612E+00 5.87491E+00 5.68627E+01
 -1   1002069-8.09422E+00 5.88079E+00 5.88235E+01
 -1   1002071-8.08612E+00 5.87491E+00 5.88235E+01
 -1   1002072-8.09422E+00 5.88079E+00 6.07843E+01
 -1   1002074-8.08612E+00 5.87491E+00 6.07843E+01
 -1   1002075-8.09422E+00 5.88079E+00 6.27451E+01
 -1   1002077-8.08612E+00 5.87491E+00 6.27451E+01
 -1   1002078-8.09422E+00 5.88079E+00 6.47059E+01
 -1   1002080-8.08612E+00 5.87491E+00 6.47059E+01
 -1   1002081-8.09422E+00 5.88079E+00 6.66667E+01
 -1   1002083-8.08612E+00 5.87491E+00 6.66667E+01
 -1   1002084-8.09422E+00 5.88079E+00 6.86274E+01
 -1   1002086-8.08612E+00 5.87491E+00 6.86274E+01
 -1   1002087-8.09422E+00 5.88079E+00 7.05882E+01
 -1   1002089-8.08612E+00 5.87491E+00 7.05882E+01
 -1   1002090-8.09422E+00 5.88079E+00 7.25490E+01
 -1   1002092-8.08612E+00 5.87491E+00 7.25490E+01
 -1   1002093-8.09422E+00 5.88079E+00 7.45098E+01
 -1   1002095-8.08612E+00 5.87491E+00 7.45098E+01
 -1   1002096-8.09422E+00 5.88079E+00 7.64706E+01
 -1   1002098-8.08612E+00 5.87491E+00 7.64706E+01
 -1   1002099-8.09422E+00 5.88079E+00 7.84314E+01
 -1   1002101-8.08612E+00 5.87491E+00 7.84314E+01
 -1   1002102-8.09422E+00 5.88079E+00 8.03922E+01
 -1   1002104-8.08612E+00 5.87491E+00 8.03922E+01
 -1   1002105-8.09422E+00 5.88079E+00 8.23529E+01
 -1   1002107-8.08612E+00 5.87491E+00 8.23529E+01
 -1   1002108-8.09422E+00 5.88079E+00 8.43137E+01
 -1   1002110-8.08612E+00 5.87491E+00 8.43137E+01
 -1   1002111-8.09422E+00 5.88079E+00 8.62745E+01
 -1   1002113-8.08612E+00 5.87491E+00 8.62745E+01
 -1   1002114-8.09422E+00 5.88079E+00 8.82353E+01
 -1   1002116-8.08612E+00 5.87491E+00 8.82353E+01
 -1   1002117-8.09422E+00 5.88079E+00 9.01961E+01
 -1   1002119-8.08612E+00 5.87491E+00 9.01961E+01
 -1   1002120-8.09422E+00 5.88079E+00 9.21569E+01
 -1   1002122-8.08612E+00 5.87491E+00 9.21569E+01
 -1   1002123-8.09422E+00 5.88079E+00 9.41176E+01
 -1   1002125-8.08612E+00 5.87491E+00 9.41176E+01
 -1   1002126-8.09422E+00 5.88079E+00 9.60784E+01
 -1   1002128-8.08612E+00 5.87491E+00 9.60784E+01
 -1   1002129-8.09422E+00 5.88079E+00 9.80392E+01
 -1   1002131-8.08612E+00 5.87491E+00 9.80392E+01
 -1   1002132-9.14002E+00 4.06940E+00 1.96078E+00
 -1   1002134-9.13089E+00 4.06533E+00 1.96078E+00
 -1   1002135-9.14002E+00 4.06940E+00 3.92157E+00
 -1   1002137-9.13089E+00 4.06533E+00 3.92157E+00
 -1   1002138-9.14002E+00 4.06940E+00 5.88235E+00
 -1   1002140-9.13089E+00 4.06533E+00 5.88235E+00
 -1   1002141-9.14002E+00 4.06940E+00 7.84314E+00
 -1   1002143-9.13089E+00 4.06533E+00 7.84314E+00
 -1   1002144-9.14002E+00 4.06940E+00 9.80392E+00
 -1   1002146-9.13089E+00 4.06533E+00 9.80392E+00
 -1   1002147-9.14002E+00 4.06940E+00 1.17647E+01
 -1   1002149-9.13089E+00 4.06533E+00 1.17647E+01
 -1   1002150-9.14002E+00 4.06940E+00 1.37255E+01
 -1   1002152-9.13089E+00 4.06533E+00 1.37255E+01
 -1   1002153-9.14002E+00 4.06940E+00 1.56863E+01
 -1   1002155-9.13089E+00 4.06533E+00 1.56863E+01
 -1   1002156-9.14002E+00 4.06940E+00 1.76471E+01
 -1   1002158-9.13089E+00 4.06533E+00 1.76471E+01
 -1   1002159-9.14002E+00 4.06940E+00 1.96078E+01
 -1   1002161-9.13089E+00 4.06533E+00 1.96078E+01
 -1   1002162-9.14002E+00 4.06940E+00 2.15686E+01
 -1   1002164-9.13089E+00 4.06533E+00 2.15686E+01
 -1   1002165-9.14002E+00 4.06940E+00 2.35294E+01
 -1   1002167-9.13089E+00 4.06533E+00 2.35294E+01
 -1   1002168-9.14002E+00 4.06940E+00 2.54902E+01
 -1   1002170-9.13089E+00 4.06533E+00 2.54902E+01
 -1   1002171-9.14002E+00 4.06940E+00 2.74510E+01
 -1   1002173-9.13089E+00 4.06533E+00 2.74510E+01
 -1   1002174-9.14002E+00 4.06940E+00 2.94118E+01
 -1   1002176-9.13089E+00 4.06533E+00 2.94118E+01
 -1   1002177-9.14002E+00 4.06940E+00 3.13725E+01
 -1   1002179-9.13089E+00 4.06533E+00 3.13725E+01
 -1   1002180-9.14002E+00 4.06940E+00 3.33333E+01
 -1   1002182-9.13089E+00 4.06533E+00 3.33333E+01
 -1   1002183-9.14002E+00 4.06940E+00 3.52941E+01
 -1   1002185-9.13089E+00 4.06533E+00 3.52941E+01
 -1   1002186-9.14002E+00 4.06940E+00 3.72549E+01
 -1   1002188-9.13089E+00 4.06533E+00 3.72549E+01
 -1   1002189-9.14002E+00 4.06940E+00 3.92157E+01
 -1   1002191-9.13089E+00 4.06533E+00 3.92157E+01
 -1   1002192-9.14002E+00 4.06940E+00 4.11765E+01
 -1   1002194-9.13089E+00 4.06533E+00 4.11765E+01
 -1   1002195-9.14002E+00 4.06940E+00 4.31373E+01
 -1   1002197-9.13089E+00 4.06533E+00 4.31373E+01
 -1   1002198-9.14002E+00 4.06940E+00 4.50980E+01
 -1   1002200-9.13089E+00 4.06533E+00 4.50980E+01
 -1   1002201-9.14002E+00 4.06940E+00 4.70588E+01
 -1   1002203-9.13089E+00 4.06533E+00 4.70588E+01
 -1   1002204-9.14002E+00 4.06940E+00 4.90196E+01
 -1   1002206-9.13089E+00 4.06533E+00 4.90196E+01
 -1   1002207-9.14002E+00 4.06940E+00 5.09804E+01
 -1   1002209-9.13089E+00 4.06533E+00 5.09804E+01
 -1   1002210-9.14002E+00 4.06940E+00 5.29412E+01
 -1   1002212-9.13089E+00 4.06533E+00 5.29412E+01
 -1   1002213-9.14002E+00 4.06940E+00 5.49020E+01
 -1   1002215-9.13089E+00 4.06533E+00 5.49020E+01
 -1   1002216-9.14002E+00 4.06940E+00 5.68627E+01
 -1   1002218-9.13089E+00 4.06533E+00 5.68627E+01
 -1   1002219-9.14002E+00 4.06940E+00 5.88235E+01
 -1   1002221-9.13089E+00 4.06533E+00 5.88235E+01
 -1   1002222-9.14002E+00 4.06940E+00 6.07843E+01
 -1   1002224-9.13089E+00 4.06533E+00 6.07843E+01
 -1   1002225-9.14002E+00 4.06940E+00 6.27451E+01
 -1   1002227-9.13089E+00 4.06533E+00 6.27451E+01
 -1   1002228-9.14002E+00 4.06940E+00 6.47059E+01
 -1   1002230-9.13089E+00 4.06533E+00 6.47059E+01
 -1   1002231-9.14002E+00 4.06940E+00 6.66667E+01
 -1   1002233-9.13089E+00 4.06533E+00 6.66667E+01
 -1   1002234-9.14002E+00 4.06940E+00 6.86274E+01
 -1   1002236-9.13089E+00 4.06533E+00 6.86274E+01
 -1   1002237-9.14002E+00 4.06940E+00 7.05882E+01
 -1   1002239-9.13089E+00 4.06533E+00 7.05882E+01
 -1   1002240-9.14002E+00 4.06940E+00 7.25490E+01
 -1   1002242-9.13089E+00 4.06533E+00 7.25490E+01
 -1   1002243-9.14002E+00 4.06940E+00 7.45098E+01
 -1   1002245-9.13089E+00 4.06533E+00 7.45098E+01
 -1   1002246-9.14002E+00 4.06940E+00 7.64706E+01
 -1   1002248-9.13089E+00 4.06533E+00 7.64706E+01
 -1   1002249-9.14002E+00 4.06940E+00 7.84314E+01
 -1   1002251-9.13089E+00 4.06533E+00 7.84314E+01
 -1   1002252-9.14002E+00 4.06940E+00 8.03922E+01
 -1   1002254-9.13089E+00 4.06533E+00 8.03922E+01
 -1   1002255-9.14002E+00 4.06940E+00 8.23529E+01
 -1   1002257-9.13089E+00 4.06533E+00 8.23529E+01
 -1   1002258-9.14002E+00 4.06940E+00 8.43137E+01
 -1   1002260-9.13089E+00 4.06533E+00 8.43137E+01
 -1   1002261-9.14002E+00 4.06940E+00 8.62745E+01
 -1   1002263-9.13089E+00 4.06533E+00 8.62745E+01
 -1   1002264-9.14002E+00 4.06940E+00 8.82353E+01
 -1   1002266-9.13089E+00 4.06533E+00 8.82353E+01
 -1   1002267-9.14002E+00 4.06940E+00 9.01961E+01
 -1   1002269-9.13089E+00 4.06533E+00 9.01961E+01
 -1   1002270-9.14002E+00 4.06940E+00 9.21569E+01
 -1   1002272-9.13089E+00 4.06533E+00 9.21569E+01
 -1   1002273-9.14002E+00 4.06940E+00 9.41176E+01
 -1   1002275-9.13089E+00 4.06533E+00 9.41176E+01
 -1   1002276-9.14002E+00 4.06940E+00 9.60784E+01
 -1   1002278-9.13089E+00 4.06533E+00 9.60784E+01
 -1   1002279-9.14002E+00 4.06940E+00 9.80392E+01
 -1   1002281-9.13089E+00 4.06533E+00 9.80392E+01
 -1   1002282-9.78637E+00 2.08016E+00 1.96078E+00
 -1   1002284-9.77659E+00 2.07808E+00 1.96078E+00
 -1   1002285-9.78637E+00 2.08016E+00 3.92157E+00
 -1   1002287-9.77659E+00 2.07808E+00 3.92157E+00
 -1   1002288-9.78637E+00 2.08016E+00 5.88235E+00
 -1   1002290-9.77659E+00 2.07808E+00 5.88235E+00
 -1   1002291-9.78637E+00 2.08016E+00 7.84314E+00
 -1   1002293-9.77659E+00 2.07808E+00 7.84314E+00
 -1   1002294-9.78637E+00 2.08016E+00 9.80392E+00
 -1   1002296-9.77659E+00 2.07808E+00 9.80392E+00
 -1   1002297-9.78637E+00 2.08016E+00 1.17647E+01
 -1   1002299-9.77659E+00 2.07808E+00 1.17647E+01
 -1   1002300-9.78637E+00 2.08016E+00 1.37255E+01
 -1   1002302-9.77659E+00 2.07808E+00 1.37255E+01
 -1   1002303-9.78637E+00 2.08016E+00 1.56863E+01
 -1   1002305-9.77659E+00 2.07808E+00 1.56863E+01
 -1   1002306-9.78637E+00 2.08016E+00 1.76471E+01
 -1   1002308-9.77659E+00 2.07808E+00 1.76471E+01
 -1   1002309-9.78637E+00 2.08016E+00 1.96078E+01
 -1   1002311-9.77659E+00 2.07808E+00 1.96078E+01
 -1   1002312-9.78637E+00 2.08016E+00 2.15686E+01
 -1   1002314-9.77659E+00 2.07808E+00 2.15686E+01
 -1   1002315-9.78637E+00 2.08016E+00 2.35294E+01
 -1   1002317-9.77659E+00 2.07808E+00 2.35294E+01
 -1   1002318-9.78637E+00 2.08016E+00 2.54902E+01
 -1   1002320-9.77659E+00 2.07808E+00 2.54902E+01
 -1   1002321-9.78637E+00 2.08016E+00 2.74510E+01
 -1   1002323-9.77659E+00 2.07808E+00 2.74510E+01
 -1   1002324-9.78637E+00 2.08016E+00 2.94118E+01
 -1   1002326-9.77659E+00 2.07808E+00 2.94118E+01
 -1   1002327-9.78637E+00 2.08016E+00 3.13725E+01
 -1   1002329-9.77659E+00 2.07808E+00 3.13725E+01
 -1   1002330-9.78637E+00 2.08016E+00 3.33333E+01
 -1   1002332-9.77659E+00 2.07808E+00 3.33333E+01
 -1   1002333-9.78637E+00 2.08016E+00 3.52941E+01
 -1   1002335-9.77659E+00 2.07808E+00 3.52941E+01
 -1   1002336-9.78637E+00 2.08016E+00 3.72549E+01
 -1   1002338-9.77659E+00 2.07808E+00 3.72549E+01
 -1   1002339-9.78637E+00 2.08016E+00 3.92157E+01
 -1   1002341-9.77659E+00 2.07808E+00 3.92157E+01
 -1   1002342-9.78637E+00 2.08016E+00 4.11765E+01
 -1   1002344-9.77659E+00 2.07808E+00 4.11765E+01
 -1   1002345-9.78637E+00 2.08016E+00 4.31373E+01
 -1   1002347-9.77659E+00 2.07808E+00 4.31373E+01
 -1   1002348-9.78637E+00 2.08016E+00 4.50980E+01
 -1   1002350-9.77659E+00 2.07808E+00 4.50980E+01
 -1   1002351-9.78637E+00 2.08016E+00 4.70588E+01
 -1   1002353-9.77659E+00 2.07808E+00 4.70588E+01
 -1   1002354-9.78637E+00 2.08016E+00 4.90196E+01
 -1   1002356-9.77659E+00 2.07808E+00 4.90196E+01
 -1   1002357-9.78637E+00 2.08016E+00 5.09804E+01
 -1   1002359-9.77659E+00 2.07808E+00 5.09804E+01
 -1   1002360-9.78637E+00 2.08016E+00 5.29412E+01
 -1   1002362-9.77659E+00 2.07808E+00 5.29412E+01
 -1   1002363-9.78637E+00 2.08016E+00 5.49020E+01
 -1   1002365-9.77659E+00 2.07808E+00 5.49020E+01
 -1   1002366-9.78637E+00 2.08016E+00 5.68627E+01
 -1   1002368-9.77659E+00 2.07808E+00 5.68627E+01
 -1   1002369-9.78637E+00 2.08016E+00 5.88235E+01
 -1   1002371-9.77659E+00 2.07808E+00 5.88235E+01
 -1   1002372-9.78637E+00 2.08016E+00 6.07843E+01
 -1   1002374-9.77659E+00 2.07808E+00 6.07843E+01
 -1   1002375-9.78637E+00 2.08016E+00 6.27451E+01
 -1   1002377-9.77659E+00 2.07808E+00 6.27451E+01
 -1   1002378-9.78637E+00 2.08016E+00 6.47059E+01
 -1   1002380-9.77659E+00 2.07808E+00 6.47059E+01
 -1   1002381-9.78637E+00 2.08016E+00 6.66667E+01
 -1   1002383-9.77659E+00 2.07808E+00 6.66667E+01
 -1   1002384-9.78637E+00 2.08016E+00 6.86274E+01
 -1   1002386-9.77659E+00 2.07808E+00 6.86274E+01
 -1   1002387-9.78637E+00 2.08016E+00 7.05882E+01
 -1   1002389-9.77659E+00 2.07808E+00 7.05882E+01
 -1   1002390-9.78637E+00 2.08016E+00 7.25490E+01
 -1   1002392-9.77659E+00 2.07808E+00 7.25490E+01
 -1   1002393-9.78637E+00 2.08016E+00 7.45098E+01
 -1   1002395-9.77659E+00 2.07808E+00 7.45098E+01
 -1   1002396-9.78637E+00 2.08016E+00 7.64706E+01
 -1   1002398-9.77659E+00 2.07808E+00 7.64706E+01
 -1   1002399-9.78637E+00 2.08016E+00 7.84314E+01
 -1   1002401-9.77659E+00 2.07808E+00 7.84314E+01
 -1   1002402-9.78637E+00 2.08016E+00 8.03922E+01
 -1   1002404-9.77659E+00 2.07808E+00 8.03922E+01
 -1   1002405-9.78637E+00 2.08016E+00 8.23529E+01
 -1   1002407-9.77659E+00 2.07808E+00 8.23529E+01
 -1   1002408-9.78637E+00 2.08016E+00 8.43137E+01
 -1   1002410-9.77659E+00 2.07808E+00 8.43137E+01
 -1   1002411-9.78637E+00 2.08016E+00 8.62745E+01
 -1   1002413-9.77659E+00 2.07808E+00 8.62745E+01
 -1   1002414-9.78637E+00 2.08016E+00 8.82353E+01
 -1   1002416-9.77659E+00 2.07808E+00 8.82353E+01
 -1   1002417-9.78637E+00 2.08016E+00 9.01961E+01
 -1   1002419-9.77659E+00 2.07808E+00 9.01961E+01
 -1   1002420-9.78637E+00 2.08016E+00 9.21569E+01
 -1   1002422-9.77659E+00 2.07808E+00 9.21569E+01
 -1   1002423-9.78637E+00 2.08016E+00 9.41176E+01
 -1   1002425-9.77659E+00 2.07808E+00 9.41176E+01
 -1   1002426-9.78637E+00 2.08016E+00 9.60784E+01
 -1   1002428-9.77659E+00 2.07808E+00 9.60784E+01
 -1   1002429-9.78637E+00 2.08016E+00 9.80392E+01
 -1   1002431-9.77659E+00 2.07808E+00 9.80392E+01
 -1   1002432-1.00050E+01-2.09850E-14 1.96078E+00
 -1   1002434-9.99500E+00-2.09746E-14 1.96078E+00
 -1   1002435-1.00050E+01-2.09850E-14 3.92157E+00
 -1   1002437-9.99500E+00-2.09746E-14 3.92157E+00
 -1   1002438-1.00050E+01-2.09850E-14 5.88235E+00
 -1   1002440-9.99500E+00-2.09746E-14 5.88235E+00
 -1   1002441-1.00050E+01-2.09851E-14 7.84314E+00
 -1   1002443-9.99500E+00-2.09746E-14 7.84314E+00
 -1   1002444-1.00050E+01-2.09851E-14 9.80392E+00
 -1   1002446-9.99500E+00-2.09745E-14 9.80392E+00
 -1   1002447-1.00050E+01-2.09851E-14 1.17647E+01
 -1   1002449-9.99500E+00-2.09745E-14 1.17647E+01
 -1   1002450-1.00050E+01-2.09850E-14 1.37255E+01
 -1   1002452-9.99500E+00-2.09746E-14 1.37255E+01
 -1   1002453-1.00050E+01-2.09850E-14 1.56863E+01
 -1   1002455-9.99500E+00-2.09746E-14 1.56863E+01
 -1   1002456-1.00050E+01-2.09850E-14 1.76471E+01
 -1   1002458-9.99500E+00-2.09746E-14 1.76471E+01
 -1   1002459-1.00050E+01-2.09850E-14 1.96078E+01
 -1   1002461-9.99500E+00-2.09746E-14 1.96078E+01
 -1   1002462-1.00050E+01-2.09850E-14 2.15686E+01
 -1   1002464-9.99500E+00-2.09746E-14 2.15686E+01
 -1   1002465-1.00050E+01-2.09850E-14 2.35294E+01
 -1   1002467-9.99500E+00-2.09746E-14 2.35294E+01
 -1   1002468-1.00050E+01-2.09850E-14 2.54902E+01
 -1   1002470-9.99500E+00-2.09746E-14 2.54902E+01
 -1   1002471-1.00050E+01-2.09850E-14 2.74510E+01
 -1   1002473-9.99500E+00-2.09746E-14 2.74510E+01
 -1   1002474-1.00050E+01-2.09850E-14 2.94118E+01
 -1   1002476-9.99500E+00-2.09746E-14 2.94118E+01
 -1   1002477-1.00050E+01-2.09850E-14 3.13725E+01
 -1   1002479-9.99500E+00-2.09746E-14 3.13725E+01
 -1   1002480-1.00050E+01-2.09851E-14 3.33333E+01
 -1   1002482-9.99500E+00-2.09746E-14 3.33333E+01
 -1   1002483-1.00050E+01-2.09851E-14 3.52941E+01
 -1   1002485-9.99500E+00-2.09746E-14 3.52941E+01
 -1   1002486-1.00050E+01-2.09850E-14 3.72549E+01
 -1   1002488-9.99500E+00-2.09746E-14 3.72549E+01
 -1   1002489-1.00050E+01-2.09850E-14 3.92157E+01
 -1   1002491-9.99500E+00-2.09746E-14 3.92157E+01
 -1   1002492-1.00050E+01-2.09850E-14 4.11765E+01
 -1   1002494-9.99500E+00-2.09746E-14 4.11765E+01
 -1   1002495-1.00050E+01-2.09850E-14 4.31373E+01
 -1   1002497-9.99500E+00-2.09746E-14 4.31373E+01
 -1   1002498-1.00050E+01-2.09850E-14 4.50980E+01
 -1   1002500-9.99500E+00-2.09746E-14 4.50980E+01
 -1   1002501-1.00050E+01-2.09850E-14 4.70588E+01
 -1   1002503-9.99500E+00-2.09746E-14 4.70588E+01
 -1   1002504-1.00050E+01-2.09851E-14 4.90196E+01
 -1   1002506-9.99500E+00-2.09746E-14 4.90196E+01
 -1   1002507-1.00050E+01-2.09851E-14 5.09804E+01
 -1   1002509-9.99500E+00-2.09746E-14 5.09804E+01
 -1   1002510-1.00050E+01-2.09850E-14 5.29412E+01
 -1   1002512-9.99500E+00-2.09746E-14 5.29412E+01
 -1   1002513-1.00050E+01-2.09850E-14 5.49020E+01
 -1   1002515-9.99500E+00-2.09746E-14 5.49020E+01
 -1   1002516-1.00050E+01-2.09850E-14 5.68627E+01
 -1   1002518-9.99500E+00-2.09746E-14 5.68627E+01
 -1   1002519-1.00050E+01-2.09850E-14 5.88235E+01
 -1   1002521-9.99500E+00-2.09746E-14 5.88235E+01
 -1   1002522-1.00050E+01-2.09850E-14 6.07843E+01
 -1   1002524-9.99500E+00-2.09746E-14 6.07843E+01
 -1   1002525-1.00050E+01-2.09850E-14 6.27451E+01
 -1   1002527-9.99500E+00-2.09746E-14 6.27451E+01
 -1   1002528-1.00050E+01-2.09851E-14 6.47059E+01
 -1   1002530-9.99500E+00-2.09746E-14 6.47059E+01
 -1   1002531-1.00050E+01-2.09851E-14 6.66667E+01
 -1   1002533-9.99500E+00-2.09746E-14 6.66667E+01
 -1   1002534-1.00050E+01-2.09851E-14 6.86274E+01
 -1   1002536-9.99500E+00-2.09746E-14 6.86274E+01
 -1   1002537-1.00050E+01-2.09851E-14 7.05882E+01
 -1   1002539-9.99500E+00-2.09746E-14 7.05882E+01
 -1   1002540-1.00050E+01-2.09850E-14 7.25490E+01
 -1   1002542-9.99500E+00-2.09746E-14 7.25490E+01
 -1   1002543-1.00050E+01-2.09850E-14 7.45098E+01
 -1   1002545-9.99500E+00-2.09746E-14 7.45098E+01
 -1   1002546-1.00050E+01-2.09851E-14 7.64706E+01
 -1   1002548-9.99500E+00-2.09746E-14 7.64706E+01
 -1   1002549-1.00050E+01-2.09851E-14 7.84314E+01
 -1   1002551-9.99500E+00-2.09746E-14 7.84314E+01
 -1   1002552-1.00050E+01-2.09850E-14 8.03922E+01
 -1   1002554-9.99500E+00-2.09746E-14 8.03922E+01
 -1   1002555-1.00050E+01-2.09850E-14 8.23529E+01
 -1   1002557-9.99500E+00-2.09746E-14 8.23529E+01
 -1   1002558-1.00050E+01-2.09851E-14 8.43137E+01
 -1   1002560-9.99500E+00-2.09746E-14 8.43137E+01
 -1   1002561-1.00050E+01-2.09851E-14 8.62745E+01
 -1   1002563-9.99500E+00-2.09746E-14 8.62745E+01
 -1   1002564-1.00050E+01-2.09851E-14 8.82353E+01
 -1   1002566-9.99500E+00-2.09746E-14 8.82353E+01
 -1   1002567-1.00050E+01-2.09851E-14 9.01961E+01
 -1   1002569-9.99500E+00-2.09746E-14 9.01961E+01
 -1   1002570-1.00050E+01-2.09850E-14 9.21569E+01
 -1   1002572-9.99500E+00-2.09746E-14 9.21569E+01
 -1   1002573-1.00050E+01-2.09850E-14 9.41176E+01
 -1   1002575-9.99500E+00-2.09746E-14 9.41176E+01
 -1   1002576-1.00050E+01-2.09851E-14 9.60784E+01
 -1   1002578-9.99500E+00-2.09746E-14 9.60784E+01
 -1   1002579-1.00050E+01-2.09851E-14 9.80392E+01
 -1   1002581-9.99500E+00-2.09746E-14 9.80392E+01
 -1   1002582-9.78637E+00-2.08016E+00 1.96078E+00
 -1   1002584-9.77659E+00-2.07808E+00 1.96078E+00
 -1   1002585-9.78637E+00-2.08016E+00 3.92157E+00
 -1   1002587-9.77659E+00-2.07808E+00 3.92157E+00
 -1   1002588-9.78637E+00-2.08016E+00 5.88235E+00
 -1   1002590-9.77659E+00-2.07808E+00 5.88235E+00
 -1   1002591-9.78637E+00-2.08016E+00 7.84314E+00
 -1   1002593-9.77659E+00-2.07808E+00 7.84314E+00
 -1   1002594-9.78637E+00-2.08016E+00 9.80392E+00
 -1   1002596-9.77659E+00-2.07808E+00 9.80392E+00
 -1   1002597-9.78637E+00-2.08016E+00 1.17647E+01
 -1   1002599-9.77659E+00-2.07808E+00 1.17647E+01
 -1   1002600-9.78637E+00-2.08016E+00 1.37255E+01
 -1   1002602-9.77659E+00-2.07808E+00 1.37255E+01
 -1   1002603-9.78637E+00-2.08016E+00 1.56863E+01
 -1   1002605-9.77659E+00-2.07808E+00 1.56863E+01
 -1   1002606-9.78637E+00-2.08016E+00 1.76471E+01
 -1   1002608-9.77659E+00-2.07808E+00 1.76471E+01
 -1   1002609-9.78637E+00-2.08016E+00 1.96078E+01
 -1   1002611-9.77659E+00-2.07808E+00 1.96078E+01
 -1   1002612-9.78637E+00-2.08016E+00 2.15686E+01
 -1   1002614-9.77659E+00-2.07808E+00 2.15686E+01
 -1   1002615-9.78637E+00-2.08016E+00 2.35294E+01
 -1   1002617-9.77659E+00-2.07808E+00 2.35294E+01
 -1   1002618-9.78637E+00-2.08016E+00 2.54902E+01
 -1   1002620-9.77659E+00-2.07808E+00 2.54902E+01
 -1   1002621-9.78637E+00-2.08016E+00 2.74510E+01
 -1   1002623-9.77659E+00-2.07808E+00 2.74510E+01
 -1   1002624-9.78637E+00-2.08016E+00 2.94118E+01
 -1   1002626-9.77659E+00-2.07808E+00 2.94118E+01
 -1   1002627-9.78637E+00-2.08016E+00 3.13725E+01
 -1   1002629-9.77659E+00-2.07808E+00 3.13725E+01
 -1   1002630-9.78637E+00-2.08016E+00 3.33333E+01
 -1   1002632-9.77659E+00-2.07808E+00 3.33333E+01
 -1   1002633-9.78637E+00-2.08016E+00 3.52941E+01
 -1   1002635-9.77659E+00-2.07808E+00 3.52941E+01
 -1   1002636-9.78637E+00-2.08016E+00 3.72549E+01
 -1   1002638-9.77659E+00-2.07808E+00 3.72549E+01
 -1   1002639-9.78637E+00-2.08016E+00 3.92157E+01
 -1   1002641-9.77659E+00-2.07808E+00 3.92157E+01
 -1   1002642-9.78637E+00-2.08016E+00 4.11765E+01
 -1   1002644-9.77659E+00-2.07808E+00 4.11765E+01
 -1   1002645-9.78637E+00-2.08016E+00 4.31373E+01
 -1   1002647-9.77659E+00-2.07808E+00 4.31373E+01
 -1   1002648-9.78637E+00-2.08016E+00 4.50980E+01
 -1   1002650-9.77659E+00-2.07808E+00 4.50980E+01
 -1   1002651-9.78637E+00-2.08016E+00 4.70588E+01
 -1   1002653-9.77659E+00-2.07808E+00 4.70588E+01
 -1   1002654-9.78637E+00-2.08016E+00 4.90196E+01
 -1   1002656-9.77659E+00-2.07808E+00 4.90196E+01
 -1   1002657-9.78637E+00-2.08016E+00 5.09804E+01
 -1   1002659-9.77659E+00-2.07808E+00 5.09804E+01
 -1   1002660-9.78637E+00-2.08016E+00 5.29412E+01
 -1   1002662-9.77659E+00-2.07808E+00 5.29412E+01
 -1   1002663-9.78637E+00-2.08016E+00 5.49020E+01
 -1   1002665-9.77659E+00-2.07808E+00 5.49020E+01
 -1   1002666-9.78637E+00-2.08016E+00 5.68627E+01
 -1   1002668-9.77659E+00-2.07808E+00 5.68627E+01
 -1   1002669-9.78637E+00-2.08016E+00 5.88235E+01
 -1   1002671-9.77659E+00-2.07808E+00 5.88235E+01
 -1   1002672-9.78637E+00-2.08016E+00 6.07843E+01
 -1   1002674-9.77659E+00-2.07808E+00 6.07843E+01
 -1   1002675-9.78637E+00-2.08016E+00 6.27451E+01
 -1   1002677-9.77659E+00-2.07808E+00 6.27451E+01
 -1   1002678-9.78637E+00-2.08016E+00 6.47059E+01
 -1   1002680-9.77659E+00-2.07808E+00 6.47059E+01
 -1   1002681-9.78637E+00-2.08016E+00 6.66667E+01
 -1   1002683-9.77659E+00-2.07808E+00 6.66667E+01
 -1   1002684-9.78637E+00-2.08016E+00 6.86274E+01
 -1   1002686-9.77659E+00-2.07808E+00 6.86274E+01
 -1   1002687-9.78637E+00-2.08016E+00 7.05882E+01
 -1   1002689-9.77659E+00-2.07808E+00 7.05882E+01
 -1   1002690-9.78637E+00-2.08016E+00 7.25490E+01
 -1   1002692-9.77659E+00-2.07808E+00 7.25490E+01
 -1   1002693-9.78637E+00-2.08016E+00 7.45098E+01
 -1   1002695-9.77659E+00-2.07808E+00 7.45098E+01
 -1   1002696-9.78637E+00-2.08016E+00 7.64706E+01
 -1   1002698-9.77659E+00-2.07808E+00 7.64706E+01
 -1   1002699-9.78637E+00-2.08016E+00 7.84314E+01
 -1   1002701-9.77659E+00-2.07808E+00 7.84314E+01
 -1   1002702-9.78637E+00-2.08016E+00 8.03922E+01
 -1   1002704-9.77659E+00-2.07808E+00 8.03922E+01
 -1   1002705-9.78637E+00-2.08016E+00 8.23529E+01
 -1   1002707-9.77659E+00-2.07808E+00 8.23529E+01
 -1   1002708-9.78637E+00-2.08016E+00 8.43137E+01
 -1   1002710-9.77659E+00-2.07808E+00 8.43137E+01
 -1   1002711-9.78637E+00-2.08016E+00 8.62745E+01
 -1   1002713-9.77659E+00-2.07808E+00 8.62745E+01
 -1   1002714-9.78637E+00-2.08016E+00 8.82353E+01
 -1   1002716-9.77659E+00-2.07808E+00 8.82353E+01
 -1   1002717-9.78637E+00-2.08016E+00 9.01961E+01
 -1   1002719-9.77659E+00-2.07808E+00 9.01961E+01
 -1   1002720-9.78637E+00-2.08016E+00 9.21569E+01
 -1   1002722-9.77659E+00-2.07808E+00 9.21569E+01
 -1   1002723-9.78637E+00-2.08016E+00 9.41176E+01
 -1   1002725-9.77659E+00-2.07808E+00 9.41176E+01
 -1   1002726-9.78637E+00-2.08016E+00 9.60784E+01
 -1   1002728-9.77659E+00-2.07808E+00 9.60784E+01
 -1   1002729-9.78637E+00-2.08016E+00 9.80392E+01
 -1   1002731-9.77659E+00-2.07808E+00 9.80392E+01
 -1   1002732-9.14002E+00-4.06940E+00 1.96078E+00
 -1   1002734-9.13089E+00-4.06533E+00 1.96078E+00
 -1   1002735-9.14002E+00-4.06940E+00 3.92157E+00
 -1   1002737-9.13089E+00-4.06533E+00 3.92157E+00
 -1   1002738-9.14002E+00-4.06940E+00 5.88235E+00
 -1   1002740-9.13089E+00-4.06533E+00 5.88235E+00
 -1   1002741-9.14002E+00-4.06940E+00 7.84314E+00
 -1   1002743-9.13089E+00-4.06533E+00 7.84314E+00
 -1   1002744-9.14002E+00-4.06940E+00 9.80392E+00
 -1   1002746-9.13089E+00-4.06533E+00 9.80392E+00
 -1   1002747-9.14002E+00-4.06940E+00 1.17647E+01
 -1   1002749-9.13089E+00-4.06533E+00 1.17647E+01
 -1   1002750-9.14002E+00-4.06940E+00 1.37255E+01
 -1   1002752-9.13089E+00-4.06533E+00 1.37255E+01
 -1   1002753-9.14002E+00-4.06940E+00 1.56863E+01
 -1   1002755-9.13089E+00-4.06533E+00 1.56863E+01
 -1   1002756-9.14002E+00-4.06940E+00 1.76471E+01
 -1   1002758-9.13089E+00-4.06533E+00 1.76471E+01
 -1   1002759-9.14002E+00-4.06940E+00 1.96078E+01
 -1   1002761-9.13089E+00-4.06533E+00 1.96078E+01
 -1   1002762-9.14002E+00-4.06940E+00 2.15686E+01
 -1   1002764-9.13089E+00-4.06533E+00 2.15686E+01
 -1   1002765-9.14002E+00-4.06940E+00 2.35294E+01
 -1   1002767-9.13089E+00-4.06533E+00 2.35294E+01
 -1   1002768-9.14002E+00-4.06940E+00 2.54902E+01
 -1   1002770-9.13089E+00-4.06533E+00 2.54902E+01
 -1   1002771-9.14002E+00-4.06940E+00 2.74510E+01
 -1   1002773-9.13089E+00-4.06533E+00 2.74510E+01
 -1   1002774-9.14002E+00-4.06940E+00 2.94118E+01
 -1   1002776-9.13089E+00-4.06533E+00 2.94118E+01
 -1   1002777-9.14002E+00-4.06940E+00 3.13725E+01
 -1   1002779-9.13089E+00-4.06533E+00 3.13725E+01
 -1   1002780-9.14002E+00-4.06940E+00 3.33333E+01
 -1   1002782-9.13089E+00-4.06533E+00 3.33333E+01
 -1   1002783-9.14002E+00-4.06940E+00 3.52941E+01
 -1   1002785-9.13089E+00-4.06533E+00 3.52941E+01
 -1   1002786-9.14002E+00-4.06940E+00 3.72549E+01
 -1   1002788-9.13089E+00-4.06533E+00 3.72549E+01
 -1   1002789-9.14002E+00-4.06940E+00 3.92157E+01
 -1   1002791-9.13089E+00-4.06533E+00 3.92157E+01
 -1   1002792-9.14002E+00-4.06940E+00 4.11765E+01
 -1   1002794-9.13089E+00-4.06533E+00 4.11765E+01
 -1   1002795-9.14002E+00-4.06940E+00 4.31373E+01
 -1   1002797-9.13089E+00-4.06533E+00 4.31373E+01
 -1   1002798-9.14002E+00-4.06940E+00 4.50980E+01
 -1   1002800-9.13089E+00-4.06533E+00 4.50980E+01
 -1   1002801-9.14002E+00-4.06940E+00 4.70588E+01
 -1   1002803-9.13089E+00-4.06533E+00 4.70588E+01
 -1   1002804-9.14002E+00-4.06940E+00 4.90196E+01
 -1   1002806-9.13089E+00-4.06533E+00 4.90196E+01
 -1   1002807-9.14002E+00-4.06940E+00 5.09804E+01
 -1   1002809-9.13089E+00-4.06533E+00 5.09804E+01
 -1   1002810-9.14002E+00-4.06940E+00 5.29412E+01
 -1   1002812-9.13089E+00-4.06533E+00 5.29412E+01
 -1   1002813-9.14002E+00-4.06940E+00 5.49020E+01
 -1   1002815-9.13089E+00-4.06533E+00 5.49020E+01
 -1   1002816-9.14002E+00-4.06940E+00 5.68627E+01
 -1   1002818-9.13089E+00-4.06533E+00 5.68627E+01
 -1   1002819-9.14002E+00-4.06940E+00 5.88235E+01
 -1   1002821-9.13089E+00-4.06533E+00 5.88235E+01
 -1   1002822-9.14002E+00-4.06940E+00 6.07843E+01
 -1   1002824-9.13089E+00-4.06533E+00 6.07843E+01
 -1   1002825-9.14002E+00-4.06940E+00 6.27451E+01
 -1   1002827-9.13089E+00-4.06533E+00 6.27451E+01
 -1   1002828-9.14002E+00-4.06940E+00 6.47059E+01
 -1   1002830-9.13089E+00-4.06533E+00 6.47059E+01
 -1   1002831-9.14002E+00-4.06940E+00 6.66667E+01
 -1   1002833-9.13089E+00-4.06533E+00 6.66667E+01
 -1   1002834-9.14002E+00-4.06940E+00 6.86274E+01
 -1   1002836-9.13089E+00-4.06533E+00 6.86274E+01
 -1   1002837-9.14002E+00-4.06940E+00 7.05882E+01
 -1   1002839-9.13089E+00-4.06533E+00 7.05882E+01
 -1   1002840-9.14002E+00-4.06940E+00 7.25490E+01
 -1   1002842-9.13089E+00-4.06533E+00 7.25490E+01
 -1   1002843-9.14002E+00-4.06940E+00 7.45098E+01
 -1   1002845-9.13089E+00-4.06533E+00 7.45098E+01
 -1   1002846-9.14002E+00-4.06940E+00 7.64706E+01
 -1   1002848-9.13089E+00-4.06533E+00 7.64706E+01
 -1   1002849-9.14002E+00-4.06940E+00 7.84314E+01
 -1   1002851-9.13089E+00-4.06533E+00 7.84314E+01
 -1   1002852-9.14002E+00-4.06940E+00 8.03922E+01
 -1   1002854-9.13089E+00-4.06533E+00 8.03922E+01
 -1   1002855-9.14002E+00-4.06940E+00 8.23529E+01
 -1   1002857-9.13089E+00-4.06533E+00 8.23529E+01
 -1   1002858-9.14002E+00-4.06940E+00 8.43137E+01
 -1   1002860-9.13089E+00-4.06533E+00 8.43137E+01
 -1   1002861-9.14002E+00-4.06940E+00 8.62745E+01
 -1   1002863-9.13089E+00-4.06533E+00 8.62745E+01
 -1   1002864-9.14002E+00-4.06940E+00 8.82353E+01
 -1   1002866-9.13089E+00-4.06533E+00 8.82353E+01
 -1   1002867-9.14002E+00-4.06940E+00 9.01961E+01
 -1   1002869-9.13089E+00-4.06533E+00 9.01961E+01
 -1   1002870-9.14002E+00-4.06940E+00 9.21569E+01
 -1   1002872-9.13089E+00-4.06533E+00 9.21569E+01
 -1   1002873-9.14002E+00-4.06940E+00 9.41176E+01
 -1   1002875-9.13089E+00-4.06533E+00 9.41176E+01
 -1   1002876-9.14002E+00-4.06940E+00 9.60784E+01
 -1   1002878-9.13089E+00-4.06533E+00 9.60784E+01
 -1   1002879-9.14002E+00-4.06940E+00 9.80392E+01
 -1   1002881-9.13089E+00-4.06533E+00 9.80392E+01
 -1   1002882-8.09422E+00-5.88079E+00 1.96078E+00
 -1   1002884-8.08612E+00-5.87491E+00 1.96078E+00
 -1   1002885-8.09422E+00-5.88079E+00 3.92157E+00
 -1   1002887-8.08612E+00-5.87491E+00 3.92157E+00
 -1   1002888-8.09422E+00-5.88079E+00 5.88235E+00
 -1   1002890-8.08612E+00-5.87491E+00 5.88235E+00
 -1   1002891-8.09422E+00-5.88079E+00 7.84314E+00
 -1   1002893-8.08612E+00-5.87491E+00 7.84314E+00
 -1   1002894-8.09422E+00-5.88079E+00 9.80392E+00
 -1   1002896-8.08612E+00-5.87491E+00 9.80392E+00
 -1   1002897-8.09422E+00-5.88079E+00 1.17647E+01
 -1   1002899-8.08612E+00-5.87491E+00 1.17647E+01
 -1   1002900-8.09422E+00-5.88079E+00 1.37255E+01
 -1   1002902-8.08612E+00-5.87491E+00 1.37255E+01
 -1   1002903-8.09422E+00-5.88079E+00 1.56863E+01
 -1   1002905-8.08612E+00-5.87491E+00 1.56863E+01
 -1   1002906-8.09422E+00-5.88079E+00 1.76471E+01
 -1   1002908-8.08612E+00-5.87491E+00 1.76471E+01
 -1   1002909-8.09422E+00-5.88079E+00 1.96078E+01
 -1   1002911-8.08612E+00-5.87491E+00 1.96078E+01
 -1   1002912-8.09422E+00-5.88079E+00 2.15686E+01
 -1   1002914-8.08612E+00-5.87491E+00 2.15686E+01
 -1   1002915-8.09422E+00-5.88079E+00 2.35294E+01
 -1   1002917-8.08612E+00-5.87491E+00 2.35294E+01
 -1   1002918-8.09422E+00-5.88079E+00 2.54902E+01
 -1   1002920-8.08612E+00-5.87491E+00 2.54902E+01
 -1   1002921-8.09422E+00-5.88079E+00 2.74510E+01
 -1   1002923-8.08612E+00-5.87491E+00 2.74510E+01
 -1   1002924-8.09422E+00-5.88079E+00 2.94118E+01
 -1   1002926-8.08612E+00-5.87491E+00 2.94118E+01
 -1   1002927-8.09422E+00-5.88079E+00 3.13725E+01
 -1   1002929-8.08612E+00-5.87491E+00 3.13725E+01
 -1   1002930-8.09422E+00-5.88079E+00 3.33333E+01
 -1   1002932-8.08612E+00-5.87491E+00 3.33333E+01
 -1   1002933-8.09422E+00-5.88079E+00 3.52941E+01
 -1   1002935-8.08612E+00-5.87491E+00 3.52941E+01
 -1   1002936-8.09422E+00-5.88079E+00 3.72549E+01
 -1   1002938-8.08612E+00-5.87491E+00 3.72549E+01
 -1   1002939-8.09422E+00-5.88079E+00 3.92157E+01
 -1   1002941-8.08612E+00-5.87491E+00 3.92157E+01
 -1   1002942-8.09422E+00-5.88079E+00 4.11765E+01
 -1   1002944-8.08612E+00-5.87491E+00 4.11765E+01
 -1   1002945-8.09422E+00-5.88079E+00 4.31373E+01
 -1   1002947-8.08612E+00-5.87491E+00 4.31373E+01
 -1   1002948-8.09422E+00-5.88079E+00 4.50980E+01
 -1   1002950-8.08612E+00-5.87491E+00 4.50980E+01
 -1   1002951-8.09422E+00-5.88079E+00 4.70588E+01
 -1   1002953-8.08612E+00-5.87491E+00 4.70588E+01
 -1   1002954-8.09422E+00-5.88079E+00 4.90196E+01
 -1   1002956-8.08612E+00-5.87491E+00 4.90196E+01
 -1   1002957-8.09422E+00-5.88079E+00 5.09804E+01
 -1   1002959-8.08612E+00-5.87491E+00 5.09804E+01
 -1   1002960-8.09422E+00-5.88079E+00 5.29412E+01
 -1   1002962-8.08612E+00-5.87491E+00 5.29412E+01
 -1   1002963-8.09422E+00-5.88079E+00 5.49020E+01
 -1   1002965-8.08612E+00-5.87491E+00 5.49020E+01
 -1   1002966-8.09422E+00-5.88079E+00 5.68627E+01
 -1   1002968-8.08612E+00-5.87491E+00 5.68627E+01
 -1   1002969-8.09422E+00-5.88079E+00 5.88235E+01
 -1   1002971-8.08612E+00-5.87491E+00 5.88235E+01
 -1   1002972-8.09422E+00-5.88079E+00 6.07843E+01
 -1   1002974-8.08612E+00-5.87491E+00 6.07843E+01
 -1   1002975-8.09422E+00-5.88079E+00 6.27451E+01
 -1   1002977-8.08612E+00-5.87491E+00 6.27451E+01
 -1   1002978-8.09422E+00-5.88079E+00 6.47059E+01
 -1   1002980-8.08612E+00-5.87491E+00 6.47059E+01
 -1   1002981-8.09422E+00-5.88079E+00 6.66667E+01
 -1   1002983-8.08612E+00-5.87491E+00 6.66667E+01
 -1   1002984-8.09422E+00-5.88079E+00 6.86274E+01
 -1   1002986-8.08612E+00-5.87491E+00 6.86274E+01
 -1   1002987-8.09422E+00-5.88079E+00 7.05882E+01
 -1   1002989-8.08612E+00-5.87491E+00 7.05882E+01
 -1   1002990-8.09422E+00-5.88079E+00 7.25490E+01
 -1   1002992-8.08612E+00-5.87491E+00 7.25490E+01
 -1   1002993-8.09422E+00-5.88079E+00 7.45098E+01
 -1   1002995-8.08612E+00-5.87491E+00 7.45098E+01
 -1   1002996-8.09422E+00-5.88079E+00 7.64706E+01
 -1   1002998-8.08612E+00-5.87491E+00 7.64706E+01
 -1   1002999-8.09422E+00-5.88079E+00 7.84314E+01
 -1   1003001-8.08612E+00-5.87491E+00 7.84314E+01
 -1   1003002-8.09422E+00-5.88079E+00 8.03922E+01
 -1   1003004-8.08612E+00-5.87491E+00 8.03922E+01
 -1   1003005-8.09422E+00-5.88079E+00 8.23529E+01
 -1   1003007-8.08612E+00-5.87491E+00 8.23529E+01
 -1   1003008-8.09422E+00-5.88079E+00 8.43137E+01
 -1   1003010-8.08612E+00-5.87491E+00 8.43137E+01
 -1   1003011-8.09422E+00-5.88079E+00 8.62745E+01
 -1   1003013-8.08612E+00-5.87491E+00 8.62745E+01
 -1   1003014-8.09422E+00-5.88079E+00 8.82353E+01
 -1   1003016-8.08612E+00-5.87491E+00 8.82353E+01
 -1   1003017-8.09422E+00-5.88079E+00 9.01961E+01
 -1   1003019-8.08612E+00-5.87491E+00 9.01961E+01
 -1   1003020-8.09422E+00-5.88079E+00 9.21569E+01
 -1   1003022-8.08612E+00-5.87491E+00 9.21569E+01
 -1   1003023-8.09422E+00-5.88079E+00 9.41176E+01
 -1   1003025-8.08612E+00-5.87491E+00 9.41176E+01
 -1   1003026-8.09422E+00-5.88079E+00 9.60784E+01
 -1   1003028-8.08612E+00-5.87491E+00 9.60784E+01
 -1   1003029-8.09422E+00-5.88079E+00 9.80392E+01
 -1   1003031-8.08612E+00-5.87491E+00 9.80392E+01
 -1   1003032-6.69465E+00-7.43516E+00 1.96078E+00
 -1   1003034-6.68796E+00-7.42773E+00 1.96078E+00
 -1   1003035-6.69465E+00-7.43516E+00 3.92157E+00
 -1   1003037-6.68796E+00-7.42773E+00 3.92157E+00
 -1   1003038-6.69465E+00-7.43516E+00 5.88235E+00
 -1   1003040-6.68796E+00-7.42773E+00 5.88235E+00
 -1   1003041-6.69465E+00-7.43516E+00 7.84314E+00
 -1   1003043-6.68796E+00-7.42773E+00 7.84314E+00
 -1   1003044-6.69465E+00-7.43516E+00 9.80392E+00
 -1   1003046-6.68796E+00-7.42773E+00 9.80392E+00
 -1   1003047-6.69465E+00-7.43516E+00 1.17647E+01
 -1   1003049-6.68796E+00-7.42773E+00 1.17647E+01
 -1   1003050-6.69465E+00-7.43516E+00 1.37255E+01
 -1   1003052-6.68796E+00-7.42773E+00 1.37255E+01
 -1   1003053-6.69465E+00-7.43516E+00 1.56863E+01
 -1   1003055-6.68796E+00-7.42773E+00 1.56863E+01
 -1   1003056-6.69465E+00-7.43516E+00 1.76471E+01
 -1   1003058-6.68796E+00-7.42773E+00 1.76471E+01
 -1   1003059-6.69465E+00-7.43516E+00 1.96078E+01
 -1   1003061-6.68796E+00-7.42773E+00 1.96078E+01
 -1   1003062-6.69465E+00-7.43516E+00 2.15686E+01
 -1   1003064-6.68796E+00-7.42773E+00 2.15686E+01
 -1   1003065-6.69465E+00-7.43516E+00 2.35294E+01
 -1   1003067-6.68796E+00-7.42773E+00 2.35294E+01
 -1   1003068-6.69465E+00-7.43516E+00 2.54902E+01
 -1   1003070-6.68796E+00-7.42773E+00 2.54902E+01
 -1   1003071-6.69465E+00-7.43516E+00 2.74510E+01
 -1   1003073-6.68796E+00-7.42773E+00 2.74510E+01
 -1   1003074-6.69465E+00-7.43516E+00 2.94118E+01
 -1   1003076-6.68796E+00-7.42773E+00 2.94118E+01
 -1   1003077-6.69465E+00-7.43516E+00 3.13725E+01
 -1   1003079-6.68796E+00-7.42773E+00 3.13725E+01
 -1   1003080-6.69465E+00-7.43516E+00 3.33333E+01
 -1   1003082-6.68796E+00-7.42773E+00 3.33333E+01
 -1   1003083-6.69465E+00-7.43516E+00 3.52941E+01
 -1   1003085-6.68796E+00-7.42773E+00 3.52941E+01
 -1   1003086-6.69465E+00-7.43516E+00 3.72549E+01
 -1   1003088-6.68796E+00-7.42773E+00 3.72549E+01
 -1   1003089-6.69465E+00-7.43516E+00 3.92157E+01
 -1   1003091-6.68796E+00-7.42773E+00 3.92157E+01
 -1   1003092-6.69465E+00-7.43516E+00 4.11765E+01
 -1   1003094-6.68796E+00-7.42773E+00 4.11765E+01
 -1   1003095-6.69465E+00-7.43516E+00 4.31373E+01
 -1   1003097-6.68796E+00-7.42773E+00 4.31373E+01
 -1   1003098-6.69465E+00-7.43516E+00 4.50980E+01
 -1   1003100-6.68796E+00-7.42773E+00 4.50980E+01
 -1   1003101-6.69465E+00-7.43516E+00 4.70588E+01
 -1   1003103-6.68796E+00-7.42773E+00 4.70588E+01
 -1   1003104-6.69465E+00-7.43516E+00 4.90196E+01
 -1   1003106-6.68796E+00-7.42773E+00 4.90196E+01
 -1   1003107-6.69465E+00-7.43516E+00 5.09804E+01
 -1   1003109-6.68796E+00-7.42773E+00 5.09804E+01
 -1   1003110-6.69465E+00-7.43516E+00 5.29412E+01
 -1   1003112-6.68796E+00-7.42773E+00 5.29412E+01
 -1   1003113-6.69465E+00-7.43516E+00 5.49020E+01
 -1   1003115-6.68796E+00-7.42773E+00 5.49020E+01
 -1   1003116-6.69465E+00-7.43516E+00 5.68627E+01
 -1   1003118-6.68796E+00-7.42773E+00 5.68627E+01
 -1   1003119-6.69465E+00-7.43516E+00 5.88235E+01
 -1   1003121-6.68796E+00-7.42773E+00 5.88235E+01
 -1   1003122-6.69465E+00-7.43516E+00 6.07843E+01
 -1   1003124-6.68796E+00-7.42773E+00 6.07843E+01
 -1   1003125-6.69465E+00-7.43516E+00 6.27451E+01
 -1   1003127-6.68796E+00-7.42773E+00 6.27451E+01
 -1   1003128-6.69465E+00-7.43516E+00 6.47059E+01
 -1   1003130-6.68796E+00-7.42773E+00 6.47059E+01
 -1   1003131-6.69465E+00-7.43516E+00 6.66667E+01
 -1   1003133-6.68796E+00-7.42773E+00 6.66667E+01
 -1   1003134-6.69465E+00-7.43516E+00 6.86274E+01
 -1   1003136-6.68796E+00-7.42773E+00 6.86274E+01
 -1   1003137-6.69465E+00-7.43516E+00 7.05882E+01
 -1   1003139-6.68796E+00-7.42773E+00 7.05882E+01
 -1   1003140-6.69465E+00-7.43516E+00 7.25490E+01
 -1   1003142-6.68796E+00-7.42773E+00 7.25490E+01
 -1   1003143-6.69465E+00-7.43516E+00 7.45098E+01
 -1   1003145-6.68796E+00-7.42773E+00 7.45098E+01
 -1   1003146-6.69465E+00-7.43516E+00 7.64706E+01
 -1   1003148-6.68796E+00-7.42773E+00 7.64706E+01
 -1   1003149-6.69465E+00-7.43516E+00 7.84314E+01
 -1   1003151-6.68796E+00-7.42773E+00 7.84314E+01
 -1   1003152-6.69465E+00-7.43516E+00 8.03922E+01
 -1   1003154-6.68796E+00-7.42773E+00 8.03922E+01
 -1   1003155-6.69465E+00-7.43516E+00 8.23529E+01
 -1   1003157-6.68796E+00-7.42773E+00 8.23529E+01
 -1   1003158-6.69465E+00-7.43516E+00 8.43137E+01
 -1   1003160-6.68796E+00-7.42773E+00 8.43137E+01
 -1   1003161-6.69465E+00-7.43516E+00 8.62745E+01
 -1   1003163-6.68796E+00-7.42773E+00 8.62745E+01
 -1   1003164-6.69465E+00-7.43516E+00 8.82353E+01
 -1   1003166-6.68796E+00-7.42773E+00 8.82353E+01
 -1   1003167-6.69465E+00-7.43516E+00 9.01961E+01
 -1   1003169-6.68796E+00-7.42773E+00 9.01961E+01
 -1   1003170-6.69465E+00-7.43516E+00 9.21569E+01
 -1   1003172-6.68796E+00-7.42773E+00 9.21569E+01
 -1   1003173-6.69465E+00-7.43516E+00 9.41176E+01
 -1   1003175-6.68796E+00-7.42773E+00 9.41176E+01
 -1   1003176-6.69465E+00-7.43516E+00 9.60784E+01
 -1   1003178-6.68796E+00-7.42773E+00 9.60784E+01
 -1   1003179-6.69465E+00-7.43516E+00 9.80392E+01
 -1   1003181-6.68796E+00-7.42773E+00 9.80392E+01
 -1   1003182-5.00250E+00-8.66458E+00 1.96078E+00
 -1   1003184-4.99750E+00-8.65592E+00 1.96078E+00
 -1   1003185-5.00250E+00-8.66458E+00 3.92157E+00
 -1   1003187-4.99750E+00-8.65592E+00 3.92157E+00
 -1   1003188-5.00250E+00-8.66458E+00 5.88235E+00
 -1   1003190-4.99750E+00-8.65592E+00 5.88235E+00
 -1   1003191-5.00250E+00-8.66458E+00 7.84314E+00
 -1   1003193-4.99750E+00-8.65592E+00 7.84314E+00
 -1   1003194-5.00250E+00-8.66458E+00 9.80392E+00
 -1   1003196-4.99750E+00-8.65592E+00 9.80392E+00
 -1   1003197-5.00250E+00-8.66458E+00 1.17647E+01
 -1   1003199-4.99750E+00-8.65592E+00 1.17647E+01
 -1   1003200-5.00250E+00-8.66458E+00 1.37255E+01
 -1   1003202-4.99750E+00-8.65592E+00 1.37255E+01
 -1   1003203-5.00250E+00-8.66458E+00 1.56863E+01
 -1   1003205-4.99750E+00-8.65592E+00 1.56863E+01
 -1   1003206-5.00250E+00-8.66458E+00 1.76471E+01
 -1   1003208-4.99750E+00-8.65592E+00 1.76471E+01
 -1   1003209-5.00250E+00-8.66458E+00 1.96078E+01
 -1   1003211-4.99750E+00-8.65592E+00 1.96078E+01
 -1   1003212-5.00250E+00-8.66458E+00 2.15686E+01
 -1   1003214-4.99750E+00-8.65592E+00 2.15686E+01
 -1   1003215-5.00250E+00-8.66458E+00 2.35294E+01
 -1   1003217-4.99750E+00-8.65592E+00 2.35294E+01
 -1   1003218-5.00250E+00-8.66458E+00 2.54902E+01
 -1   1003220-4.99750E+00-8.65592E+00 2.54902E+01
 -1   1003221-5.00250E+00-8.66458E+00 2.74510E+01
 -1   1003223-4.99750E+00-8.65592E+00 2.74510E+01
 -1   1003224-5.00250E+00-8.66458E+00 2.94118E+01
 -1   1003226-4.99750E+00-8.65592E+00 2.94118E+01
 -1   1003227-5.00250E+00-8.66458E+00 3.13725E+01
 -1   1003229-4.99750E+00-8.65592E+00 3.13725E+01
 -1   1003230-5.00250E+00-8.66458E+00 3.33333E+01
 -1   1003232-4.99750E+00-8.65592E+00 3.33333E+01
 -1   1003233-5.00250E+00-8.66458E+00 3.52941E+01
 -1   1003235-4.99750E+00-8.65592E+00 3.52941E+01
 -1   1003236-5.00250E+00-8.66458E+00 3.72549E+01
 -1   1003238-4.99750E+00-8.65592E+00 3.72549E+01
 -1   1003239-5.00250E+00-8.66458E+00 3.92157E+01
 -1   1003241-4.99750E+00-8.65592E+00 3.92157E+01
 -1   1003242-5.00250E+00-8.66458E+00 4.11765E+01
 -1   1003244-4.99750E+00-8.65592E+00 4.11765E+01
 -1   1003245-5.00250E+00-8.66458E+00 4.31373E+01
 -1   1003247-4.99750E+00-8.65592E+00 4.31373E+01
 -1   1003248-5.00250E+00-8.66458E+00 4.50980E+01
 -1   1003250-4.99750E+00-8.65592E+00 4.50980E+01
 -1   1003251-5.00250E+00-8.66458E+00 4.70588E+01
 -1   1003253-4.99750E+00-8.65592E+00 4.70588E+01
 -1   1003254-5.00250E+00-8.66458E+00 4.90196E+01
 -1   1003256-4.99750E+00-8.65592E+00 4.90196E+01
 -1   1003257-5.00250E+00-8.66458E+00 5.09804E+01
 -1   1003259-4.99750E+00-8.65592E+00 5.09804E+01
 -1   1003260-5.00250E+00-8.66458E+00 5.29412E+01
 -1   1003262-4.99750E+00-8.65592E+00 5.29412E+01
 -1   1003263-5.00250E+00-8.66458E+00 5.49020E+01
 -1   1003265-4.99750E+00-8.65592E+00 5.49020E+01
 -1   1003266-5.00250E+00-8.66458E+00 5.68627E+01
 -1   1003268-4.99750E+00-8.65592E+00 5.68627E+01
 -1   1003269-5.00250E+00-8.66458E+00 5.88235E+01
 -1   1003271-4.99750E+00-8.65592E+00 5.88235E+01
 -1   1003272-5.00250E+00-8.66458E+00 6.07843E+01
 -1   1003274-4.99750E+00-8.65592E+00 6.07843E+01
 -1   1003275-5.00250E+00-8.66458E+00 6.27451E+01
 -1   1003277-4.99750E+00-8.65592E+00 6.27451E+01
 -1   1003278-5.00250E+00-8.66458E+00 6.47059E+01
 -1   1003280-4.99750E+00-8.65592E+00 6.47059E+01
 -1   1003281-5.00250E+00-8.66458E+00 6.66667E+01
 -1   1003283-4.99750E+00-8.65592E+00 6.66667E+01
 -1   1003284-5.00250E+00-8.66458E+00 6.86274E+01
 -1   1003286-4.99750E+00-8.65592E+00 6.86274E+01
 -1   1003287-5.00250E+00-8.66458E+00 7.05882E+01
 -1   1003289-4.99750E+00-8.65592E+00 7.05882E+01
 -1   1003290-5.00250E+00-8.66458E+00 7.25490E+01
 -1   1003292-4.99750E+00-8.65592E+00 7.25490E+01
 -1   1003293-5.00250E+00-8.66458E+00 7.45098E+01
 -1   1003295-4.99750E+00-8.65592E+00 7.45098E+01
 -1   1003296-5.00250E+00-8.66458E+00 7.64706E+01
 -1   1003298-4.99750E+00-8.65592E+00 7.64706E+01
 -1   1003299-5.00250E+00-8.66458E+00 7.84314E+01
 -1   1003301-4.99750E+00-8.65592E+00 7.84314E+01
 -1   1003302-5.00250E+00-8.66458E+00 8.03922E+01
 -1   1003304-4.99750E+00-8.65592E+00 8.03922E+01
 -1   1003305-5.00250E+00-8.66458E+00 8.23529E+01
 -1   1003307-4.99750E+00-8.65592E+00 8.23529E+01
 -1   1003308-5.00250E+00-8.66458E+00 8.43137E+01
 -1   1003310-4.99750E+00-8.65592E+00 8.43137E+01
 -1   1003311-5.00250E+00-8.66458E+00 8.62745E+01
 -1   1003313-4.99750E+00-8.65592E+00 8.62745E+01
 -1   1003314-5.00250E+00-8.66458E+00 8.82353E+01
 -1   1003316-4.99750E+00-8.65592E+00 8.82353E+01
 -1   1003317-5.00250E+00-8.66458E+00 9.01961E+01
 -1   1003319-4.99750E+00-8.65592E+00 9.01961E+01
 -1   1003320-5.00250E+00-8.66458E+00 9.21569E+01
 -1   1003322-4.99750E+00-8.65592E+00 9.21569E+01
 -1   1003323-5.00250E+00-8.66458E+00 9.41176E+01
 -1   1003325-4.99750E+00-8.65592E+00 9.41176E+01
 -1   1003326-5.00250E+00-8.66458E+00 9.60784E+01
 -1   1003328-4.99750E+00-8.65592E+00 9.60784E+01
 -1   1003329-5.00250E+00-8.66458E+00 9.80392E+01
 -1   1003331-4.99750E+00-8.65592E+00 9.80392E+01
 -1   1003332-3.09172E+00-9.51532E+00 1.96078E+00
 -1   1003334-3.08862E+00-9.50581E+00 1.96078E+00
 -1   1003335-3.09172E+00-9.51532E+00 3.92157E+00
 -1   1003337-3.08862E+00-9.50581E+00 3.92157E+00
 -1   1003338-3.09172E+00-9.51532E+00 5.88235E+00
 -1   1003340-3.08862E+00-9.50581E+00 5.88235E+00
 -1   1003341-3.09172E+00-9.51532E+00 7.84314E+00
 -1   1003343-3.08862E+00-9.50581E+00 7.84314E+00
 -1   1003344-3.09172E+00-9.51532E+00 9.80392E+00
 -1   1003346-3.08862E+00-9.50581E+00 9.80392E+00
 -1   1003347-3.09172E+00-9.51532E+00 1.17647E+01
 -1   1003349-3.08862E+00-9.50581E+00 1.17647E+01
 -1   1003350-3.09172E+00-9.51532E+00 1.37255E+01
 -1   1003352-3.08862E+00-9.50581E+00 1.37255E+01
 -1   1003353-3.09172E+00-9.51532E+00 1.56863E+01
 -1   1003355-3.08862E+00-9.50581E+00 1.56863E+01
 -1   1003356-3.09172E+00-9.51532E+00 1.76471E+01
 -1   1003358-3.08862E+00-9.50581E+00 1.76471E+01
 -1   1003359-3.09172E+00-9.51532E+00 1.96078E+01
 -1   1003361-3.08862E+00-9.50581E+00 1.96078E+01
 -1   1003362-3.09172E+00-9.51532E+00 2.15686E+01
 -1   1003364-3.08862E+00-9.50581E+00 2.15686E+01
 -1   1003365-3.09172E+00-9.51532E+00 2.35294E+01
 -1   1003367-3.08862E+00-9.50581E+00 2.35294E+01
 -1   1003368-3.09172E+00-9.51532E+00 2.54902E+01
 -1   1003370-3.08862E+00-9.50581E+00 2.54902E+01
 -1   1003371-3.09172E+00-9.51532E+00 2.74510E+01
 -1   1003373-3.08862E+00-9.50581E+00 2.74510E+01
 -1   1003374-3.09172E+00-9.51532E+00 2.94118E+01
 -1   1003376-3.08862E+00-9.50581E+00 2.94118E+01
 -1   1003377-3.09172E+00-9.51532E+00 3.13725E+01
 -1   1003379-3.08862E+00-9.50581E+00 3.13725E+01
 -1   1003380-3.09172E+00-9.51532E+00 3.33333E+01
 -1   1003382-3.08862E+00-9.50581E+00 3.33333E+01
 -1   1003383-3.09172E+00-9.51532E+00 3.52941E+01
 -1   1003385-3.08862E+00-9.50581E+00 3.52941E+01
 -1   1003386-3.09172E+00-9.51532E+00 3.72549E+01
 -1   1003388-3.08862E+00-9.50581E+00 3.72549E+01
 -1   1003389-3.09172E+00-9.51532E+00 3.92157E+01
 -1   1003391-3.08862E+00-9.50581E+00 3.92157E+01
 -1   1003392-3.09172E+00-9.51532E+00 4.11765E+01
 -1   1003394-3.08862E+00-9.50581E+00 4.11765E+01
 -1   1003395-3.09172E+00-9.51532E+00 4.31373E+01
 -1   1003397-3.08862E+00-9.50581E+00 4.31373E+01
 -1   1003398-3.09172E+00-9.51532E+00 4.50980E+01
 -1   1003400-3.08862E+00-9.50581E+00 4.50980E+01
 -1   1003401-3.09172E+00-9.51532E+00 4.70588E+01
 -1   1003403-3.08862E+00-9.50581E+00 4.70588E+01
 -1   1003404-3.09172E+00-9.51532E+00 4.90196E+01
 -1   1003406-3.08862E+00-9.50581E+00 4.90196E+01
 -1   1003407-3.09172E+00-9.51532E+00 5.09804E+01
 -1   1003409-3.08862E+00-9.50581E+00 5.09804E+01
 -1   1003410-3.09172E+00-9.51532E+00 5.29412E+01
 -1   1003412-3.08862E+00-9.50581E+00 5.29412E+01
 -1   1003413-3.09172E+00-9.51532E+00 5.49020E+01
 -1   1003415-3.08862E+00-9.50581E+00 5.49020E+01
 -1   1003416-3.09172E+00-9.51532E+00 5.68627E+01
 -1   1003418-3.08862E+00-9.50581E+00 5.68627E+01
 -1   1003419-3.09172E+00-9.51532E+00 5.88235E+01
 -1   1003421-3.08862E+00-9.50581E+00 5.88235E+01
 -1   1003422-3.09172E+00-9.51532E+00 6.07843E+01
 -1   1003424-3.08862E+00-9.50581E+00 6.07843E+01
 -1   1003425-3.09172E+00-9.51532E+00 6.27451E+01
 -1   1003427-3.08862E+00-9.50581E+00 6.27451E+01
 -1   1003428-3.09172E+00-9.51532E+00 6.47059E+01
 -1   1003430-3.08862E+00-9.50581E+00 6.47059E+01
 -1   1003431-3.09172E+00-9.51532E+00 6.66667E+01
 -1   1003433-3.08862E+00-9.50581E+00 6.66667E+01
 -1   1003434-3.09172E+00-9.51532E+00 6.86274E+01
 -1   1003436-3.08862E+00-9.50581E+00 6.86274E+01
 -1   1003437-3.09172E+00-9.51532E+00 7.05882E+01
 -1   1003439-3.08862E+00-9.50581E+00 7.05882E+01
 -1   1003440-3.09172E+00-9.51532E+00 7.25490E+01
 -1   1003442-3.08862E+00-9.50581E+00 7.25490E+01
 -1   1003443-3.09172E+00-9.51532E+00 7.45098E+01
 -1   1003445-3.08862E+00-9.50581E+00 7.45098E+01
 -1   1003446-3.09172E+00-9.51532E+00 7.64706E+01
 -1   1003448-3.08862E+00-9.50581E+00 7.64706E+01
 -1   1003449-3.09172E+00-9.51532E+00 7.84314E+01
 -1   1003451-3.08862E+00-9.50581E+00 7.84314E+01
 -1   1003452-3.09172E+00-9.51532E+00 8.03922E+01
 -1   1003454-3.08862E+00-9.50581E+00 8.03922E+01
 -1   1003455-3.09172E+00-9.51532E+00 8.23529E+01
 -1   1003457-3.08862E+00-9.50581E+00 8.23529E+01
 -1   1003458-3.09172E+00-9.51532E+00 8.43137E+01
 -1   1003460-3.08862E+00-9.50581E+00 8.43137E+01
 -1   1003461-3.09172E+00-9.51532E+00 8.62745E+01
 -1   1003463-3.08862E+00-9.50581E+00 8.62745E+01
 -1   1003464-3.09172E+00-9.51532E+00 8.82353E+01
 -1   1003466-3.08862E+00-9.50581E+00 8.82353E+01
 -1   1003467-3.09172E+00-9.51532E+00 9.01961E+01
 -1   1003469-3.08862E+00-9.50581E+00 9.01961E+01
 -1   1003470-3.09172E+00-9.51532E+00 9.21569E+01
 -1   1003472-3.08862E+00-9.50581E+00 9.21569E+01
 -1   1003473-3.09172E+00-9.51532E+00 9.41176E+01
 -1   1003475-3.08862E+00-9.50581E+00 9.41176E+01
 -1   1003476-3.09172E+00-9.51532E+00 9.60784E+01
 -1   1003478-3.08862E+00-9.50581E+00 9.60784E+01
 -1   1003479-3.09172E+00-9.51532E+00 9.80392E+01
 -1   1003481-3.08862E+00-9.50581E+00 9.80392E+01
 -1   1003482-1.04581E+00-9.95019E+00 1.96078E+00
 -1   1003484-1.04476E+00-9.94025E+00 1.96078E+00
 -1   1003485-1.04581E+00-9.95019E+00 3.92157E+00
 -1   1003487-1.04476E+00-9.94025E+00 3.92157E+00
 -1   1003488-1.04581E+00-9.95019E+00 5.88235E+00
 -1   1003490-1.04476E+00-9.94025E+00 5.88235E+00
 -1   1003491-1.04581E+00-9.95019E+00 7.84314E+00
 -1   1003493-1.04476E+00-9.94025E+00 7.84314E+00
 -1   1003494-1.04581E+00-9.95019E+00 9.80392E+00
 -1   1003496-1.04476E+00-9.94025E+00 9.80392E+00
 -1   1003497-1.04581E+00-9.95019E+00 1.17647E+01
 -1   1003499-1.04476E+00-9.94025E+00 1.17647E+01
 -1   1003500-1.04581E+00-9.95019E+00 1.37255E+01
 -1   1003502-1.04476E+00-9.94025E+00 1.37255E+01
 -1   1003503-1.04581E+00-9.95019E+00 1.56863E+01
 -1   1003505-1.04476E+00-9.94025E+00 1.56863E+01
 -1   1003506-1.04581E+00-9.95019E+00 1.76471E+01
 -1   1003508-1.04476E+00-9.94025E+00 1.76471E+01
 -1   1003509-1.04581E+00-9.95019E+00 1.96078E+01
 -1   1003511-1.04476E+00-9.94025E+00 1.96078E+01
 -1   1003512-1.04581E+00-9.95019E+00 2.15686E+01
 -1   1003514-1.04476E+00-9.94025E+00 2.15686E+01
 -1   1003515-1.04581E+00-9.95019E+00 2.35294E+01
 -1   1003517-1.04476E+00-9.94025E+00 2.35294E+01
 -1   1003518-1.04581E+00-9.95019E+00 2.54902E+01
 -1   1003520-1.04476E+00-9.94025E+00 2.54902E+01
 -1   1003521-1.04581E+00-9.95019E+00 2.74510E+01
 -1   1003523-1.04476E+00-9.94025E+00 2.74510E+01
 -1   1003524-1.04581E+00-9.95019E+00 2.94118E+01
 -1   1003526-1.04476E+00-9.94025E+00 2.94118E+01
 -1   1003527-1.04581E+00-9.95019E+00 3.13725E+01
 -1   1003529-1.04476E+00-9.94025E+00 3.13725E+01
 -1   1003530-1.04581E+00-9.95019E+00 3.33333E+01
 -1   1003532-1.04476E+00-9.94025E+00 3.33333E+01
 -1   1003533-1.04581E+00-9.95019E+00 3.52941E+01
 -1   1003535-1.04476E+00-9.94025E+00 3.52941E+01
 -1   1003536-1.04581E+00-9.95019E+00 3.72549E+01
 -1   1003538-1.04476E+00-9.94025E+00 3.72549E+01
 -1   1003539-1.04581E+00-9.95019E+00 3.92157E+01
 -1   1003541-1.04476E+00-9.94025E+00 3.92157E+01
 -1   1003542-1.04581E+00-9.95019E+00 4.11765E+01
 -1   1003544-1.04476E+00-9.94025E+00 4.11765E+01
 -1   1003545-1.04581E+00-9.95019E+00 4.31373E+01
 -1   1003547-1.04476E+00-9.94025E+00 4.31373E+01
 -1   1003548-1.04581E+00-9.95019E+00 4.50980E+01
 -1   1003550-1.04476E+00-9.94025E+00 4.50980E+01
 -1   1003551-1.04581E+00-9.95019E+00 4.70588E+01
 -1   1003553-1.04476E+00-9.94025E+00 4.70588E+01
 -1   1003554-1.04581E+00-9.95019E+00 4.90196E+01
 -1   1003556-1.04476E+00-9.94025E+00 4.90196E+01
 -1   1003557-1.04581E+00-9.95019E+00 5.09804E+01
 -1   1003559-1.04476E+00-9.94025E+00 5.09804E+01
 -1   1003560-1.04581E+00-9.95019E+00 5.29412E+01
 -1   1003562-1.04476E+00-9.94025E+00 5.29412E+01
 -1   1003563-1.04581E+00-9.95019E+00 5.49020E+01
 -1   1003565-1.04476E+00-9.94025E+00 5.49020E+01
 -1   1003566-1.04581E+00-9.95019E+00 5.68627E+01
 -1   1003568-1.04476E+00-9.94025E+00 5.68627E+01
 -1   1003569-1.04581E+00-9.95019E+00 5.88235E+01
 -1   1003571-1.04476E+00-9.94025E+00 5.88235E+01
 -1   1003572-1.04581E+00-9.95019E+00 6.07843E+01
 -1   1003574-1.04476E+00-9.94025E+00 6.07843E+01
 -1   1003575-1.04581E+00-9.95019E+00 6.27451E+01
 -1   1003577-1.04476E+00-9.94025E+00 6.27451E+01
 -1   1003578-1.04581E+00-9.95019E+00 6.47059E+01
 -1   1003580-1.04476E+00-9.94025E+00 6.47059E+01
 -1   1003581-1.04581E+00-9.95019E+00 6.66667E+01
 -1   1003583-1.04476E+00-9.94025E+00 6.66667E+01
 -1   1003584-1.04581E+00-9.95019E+00 6.86274E+01
 -1   1003586-1.04476E+00-9.94025E+00 6.86274E+01
 -1   1003587-1.04581E+00-9.95019E+00 7.05882E+01
 -1   1003589-1.04476E+00-9.94025E+00 7.05882E+01
 -1   1003590-1.04581E+00-9.95019E+00 7.25490E+01
 -1   1003592-1.04476E+00-9.94025E+00 7.25490E+01
 -1   1003593-1.04581E+00-9.95019E+00 7.45098E+01
 -1   1003595-1.04476E+00-9.94025E+00 7.45098E+01
 -1   1003596-1.04581E+00-9.95019E+00 7.64706E+01
 -1   1003598-1.04476E+00-9.94025E+00 7.64706E+01
 -1   1003599-1.04581E+00-9.95019E+00 7.84314E+01
 -1   1003601-1.04476E+00-9.94025E+00 7.84314E+01
 -1   1003602-1.04581E+00-9.95019E+00 8.03922E+01
 -1   1003604-1.04476E+00-9.94025E+00 8.03922E+01
 -1   1003605-1.04581E+00-9.95019E+00 8.23529E+01
 -1   1003607-1.04476E+00-9.94025E+00 8.23529E+01
 -1   1003608-1.04581E+00-9.95019E+00 8.43137E+01
 -1   1003610-1.04476E+00-9.94025E+00 8.43137E+01
 -1   1003611-1.04581E+00-9.95019E+00 8.62745E+01
 -1   1003613-1.04476E+00-9.94025E+00 8.62745E+01
 -1   1003614-1.04581E+00-9.95019E+00 8.82353E+01
 -1   1003616-1.04476E+00-9.94025E+00 8.82353E+01
 -1   1003617-1.04581E+00-9.95019E+00 9.01961E+01
 -1   1003619-1.04476E+00-9.94025E+00 9.01961E+01
 -1   1003620-1.04581E+00-9.95019E+00 9.21569E+01
 -1   1003622-1.04476E+00-9.94025E+00 9.21569E+01
 -1   1003623-1.04581E+00-9.95019E+00 9.41176E+01
 -1   1003625-1.04476E+00-9.94025E+00 9.41176E+01
 -1   1003626-1.04581E+00-9.95019E+00 9.60784E+01
 -1   1003628-1.04476E+00-9.94025E+00 9.60784E+01
 -1   1003629-1.04581E+00-9.95019E+00 9.80392E+01
 -1   1003631-1.04476E+00-9.94025E+00 9.80392E+01
 -1   1003632 1.04581E+00-9.95019E+00 1.96078E+00
 -1   1003634 1.04476E+00-9.94025E+00 1.96078E+00
 -1   1003635 1.04581E+00-9.95019E+00 3.92157E+00
 -1   1003637 1.04476E+00-9.94025E+00 3.92157E+00
 -1   1003638 1.04581E+00-9.95019E+00 5.88235E+00
 -1   1003640 1.04476E+00-9.94025E+00 5.88235E+00
 -1   1003641 1.04581E+00-9.95019E+00 7.84314E+00
 -1   1003643 1.04476E+00-9.94025E+00 7.84314E+00
 -1   1003644 1.04581E+00-9.95019E+00 9.80392E+00
 -1   1003646 1.04476E+00-9.94025E+00 9.80392E+00
 -1   1003647 1.04581E+00-9.95019E+00 1.17647E+01
 -1   1003649 1.04476E+00-9.94025E+00 1.17647E+01
 -1   1003650 1.04581E+00-9.95019E+00 1.37255E+01
 -1   1003652 1.04476E+00-9.94025E+00 1.37255E+01
 -1   1003653 1.04581E+00-9.95019E+00 1.56863E+01
 -1   1003655 1.04476E+00-9.94025E+00 1.56863E+01
 -1   1003656 1.04581E+00-9.95019E+00 1.76471E+01
 -1   1003658 1.04476E+00-9.94025E+00 1.76471E+01
 -1   1003659 1.04581E+00-9.95019E+00 1.96078E+01
 -1   1003661 1.04476E+00-9.94025E+00 1.96078E+01
 -1   1003662 1.04581E+00-9.95019E+00 2.15686E+01
 -1   1003664 1.04476E+00-9.94025E+00 2.15686E+01
 -1   1003665 1.04581E+00-9.95019E+00 2.35294E+01
 -1   1003667 1.04476E+00-9.94025E+00 2.35294E+01
 -1   1003668 1.04581E+00-9.95019E+00 2.54902E+01
 -1   1003670 1.04476E+00-9.94025E+00 2.54902E+01
 -1   1003671 1.04581E+00-9.95019E+00 2.74510E+01
 -1   1003673 1.04476E+00-9.94025E+00 2.74510E+01
 -1   1003674 1.04581E+00-9.95019E+00 2.94118E+01
 -1   1003676 1.04476E+00-9.94025E+00 2.94118E+01
 -1   1003677 1.04581E+00-9.95019E+00 3.13725E+01
 -1   1003679 1.04476E+00-9.94025E+00 3.13725E+01
 -1   1003680 1.04581E+00-9.95019E+00 3.33333E+01
 -1   1003682 1.04476E+00-9.94025E+00 3.33333E+01
 -1   1003683 1.04581E+00-9.95019E+00 3.52941E+01
 -1   1003685 1.04476E+00-9.94025E+00 3.52941E+01
 -1   1003686 1.04581E+00-9.95019E+00 3.72549E+01
 -1   1003688 1.04476E+00-9.94025E+00 3.72549E+01
 -1   1003689 1.04581E+00-9.95019E+00 3.92157E+01
 -1   1003691 1.04476E+00-9.94025E+00 3.92157E+01
 -1   1003692 1.04581E+00-9.95019E+00 4.11765E+01
 -1   1003694 1.04476E+00-9.94025E+00 4.11765E+01
 -1   1003695 1.04581E+00-9.95019E+00 4.31373E+01
 -1   1003697 1.04476E+00-9.94025E+00 4.31373E+01
 -1   1003698 1.04581E+00-9.95019E+00 4.50980E+01
 -1   1003700 1.04476E+00-9.94025E+00 4.50980E+01
 -1   1003701 1.04581E+00-9.95019E+00 4.70588E+01
 -1   1003703 1.04476E+00-9.94025E+00 4.70588E+01
 -1   1003704 1.04581E+00-9.95019E+00 4.90196E+01
 -1   1003706 1.04476E+00-9.94025E+00 4.90196E+01
 -1   1003707 1.04581E+00-9.95019E+00 5.09804E+01
 -1   1003709 1.04476E+00-9.94025E+00 5.09804E+01
 -1   1003710 1.04581E+00-9.95019E+00 5.29412E+01
 -1   1003712 1.04476E+00-9.94025E+00 5.29412E+01
 -1   1003713 1.04581E+00-9.95019E+00 5.49020E+01
 -1   1003715 1.04476E+00-9.94025E+00 5.49020E+01
 -1   1003716 1.04581E+00-9.95019E+00 5.68627E+01
 -1   1003718 1.04476E+00-9.94025E+00 5.68627E+01
 -1   1003719 1.04581E+00-9.95019E+00 5.88235E+01
 -1   1003721 1.04476E+00-9.94025E+00 5.88235E+01
 -1   1003722 1.04581E+00-9.95019E+00 6.07843E+01
 -1   1003724 1.04476E+00-9.94025E+00 6.07843E+01
 -1   1003725 1.04581E+00-9.95019E+00 6.27451E+01
 -1   1003727 1.04476E+00-9.94025E+00 6.27451E+01
 -1   1003728 1.04581E+00-9.95019E+00 6.47059E+01
 -1   1003730 1.04476E+00-9.94025E+00 6.47059E+01
 -1   1003731 1.04581E+00-9.95019E+00 6.66667E+01
 -1   1003733 1.04476E+00-9.94025E+00 6.66667E+01
 -1   1003734 1.04581E+00-9.95019E+00 6.86274E+01
 -1   1003736 1.04476E+00-9.94025E+00 6.86274E+01
 -1   1003737 1.04581E+00-9.95019E+00 7.05882E+01
 -1   1003739 1.04476E+00-9.94025E+00 7.05882E+01
 -1   1003740 1.04581E+00-9.95019E+00 7.25490E+01
 -1   1003742 1.04476E+00-9.94025E+00 7.25490E+01
 -1   1003743 1.04581E+00-9.95019E+00 7.45098E+01
 -1   1003745 1.04476E+00-9.94025E+00 7.45098E+01
 -1   1003746 1.04581E+00-9.95019E+00 7.64706E+01
 -1   1003748 1.04476E+00-9.94025E+00 7.64706E+01
 -1   1003749 1.04581E+00-9.95019E+00 7.84314E+01
 -1   1003751 1.04476E+00-9.94025E+00 7.84314E+01
 -1   1003752 1.04581E+00-9.95019E+00 8.03922E+01
 -1   1003754 1.04476E+00-9.94025E+00 8.03922E+01
 -1   1003755 1.04581E+00-9.95019E+00 8.23529E+01
 -1   1003757 1.04476E+00-9.94025E+00 8.23529E+01
 -1   1003758 1.04581E+00-9.95019E+00 8.43137E+01
 -1   1003760 1.04476E+00-9.94025E+00 8.43137E+01
 -1   1003761 1.04581E+00-9.95019E+00 8.62745E+01
 -1   1003763 1.04476E+00-9.94025E+00 8.62745E+01
 -1   1003764 1.04581E+00-9.95019E+00 8.82353E+01
 -1   1003766 1.04476E+00-9.94025E+00 8.82353E+01
 -1   1003767 1.04581E+00-9.95019E+00 9.01961E+01
 -1   1003769 1.04476E+00-9.94025E+00 9.01961E+01
 -1   1003770 1.04581E+00-9.95019E+00 9.21569E+01
 -1   1003772 1.04476E+00-9.94025E+00 9.21569E+01
 -1   1003773 1.04581E+00-9.95019E+00 9.41176E+01
 -1   1003775 1.04476E+00-9.94025E+00 9.41176E+01
 -1   1003776 1.04581E+00-9.95019E+00 9.60784E+01
 -1   1003778 1.04476E+00-9.94025E+00 9.60784E+01
 -1   1003779 1.04581E+00-9.95019E+00 9.80392E+01
 -1   1003781 1.04476E+00-9.94025E+00 9.80392E+01
 -1   1003782 3.09172E+00-9.51532E+00 1.96078E+00
 -1   1003784 3.08862E+00-9.50581E+00 1.96078E+00
 -1   1003785 3.09172E+00-9.51532E+00 3.92157E+00
 -1   1003787 3.08862E+00-9.50581E+00 3.92157E+00
 -1   1003788 3.09172E+00-9.51532E+00 5.88235E+00
 -1   1003790 3.08862E+00-9.50581E+00 5.88235E+00
 -1   1003791 3.09172E+00-9.51532E+00 7.84314E+00
 -1   1003793 3.08862E+00-9.50581E+00 7.84314E+00
 -1   1003794 3.09172E+00-9.51532E+00 9.80392E+00
 -1   1003796 3.08862E+00-9.50581E+00 9.80392E+00
 -1   1003797 3.09172E+00-9.51532E+00 1.17647E+01
 -1   1003799 3.08862E+00-9.50581E+00 1.17647E+01
 -1   1003800 3.09172E+00-9.51532E+00 1.37255E+01
 -1   1003802 3.08862E+00-9.50581E+00 1.37255E+01
 -1   1003803 3.09172E+00-9.51532E+00 1.56863E+01
 -1   1003805 3.08862E+00-9.50581E+00 1.56863E+01
 -1   1003806 3.09172E+00-9.51532E+00 1.76471E+01
 -1   1003808 3.08862E+00-9.50581E+00 1.76471E+01
 -1   1003809 3.09172E+00-9.51532E+00 1.96078E+01
 -1   1003811 3.08862E+00-9.50581E+00 1.96078E+01
 -1   1003812 3.09172E+00-9.51532E+00 2.15686E+01
 -1   1003814 3.08862E+00-9.50581E+00 2.15686E+01
 -1   1003815 3.09172E+00-9.51532E+00 2.35294E+01
 -1   1003817 3.08862E+00-9.50581E+00 2.35294E+01
 -1   1003818 3.09172E+00-9.51532E+00 2.54902E+01
 -1   1003820 3.08862E+00-9.50581E+00 2.54902E+01
 -1   1003821 3.09172E+00-9.51532E+00 2.74510E+01
 -1   1003823 3.08862E+00-9.50581E+00 2.74510E+01
 -1   1003824 3.09172E+00-9.51532E+00 2.94118E+01
 -1   1003826 3.08862E+00-9.50581E+00 2.94118E+01
 -1   1003827 3.09172E+00-9.51532E+00 3.13725E+01
 -1   1003829 3.08862E+00-9.50581E+00 3.13725E+01
 -1   1003830 3.09172E+00-9.51532E+00 3.33333E+01
 -1   1003832 3.08862E+00-9.50581E+00 3.33333E+01
 -1   1003833 3.09172E+00-9.51532E+00 3.52941E+01
 -1   1003835 3.08862E+00-9.50581E+00 3.52941E+01
 -1   1003836 3.09172E+00-9.51532E+00 3.72549E+01
 -1   1003838 3.08862E+00-9.50581E+00 3.72549E+01
 -1   1003839 3.09172E+00-9.51532E+00 3.92157E+01
 -1   1003841 3.08862E+00-9.50581E+00 3.92157E+01
 -1   1003842 3.09172E+00-9.51532E+00 4.11765E+01
 -1   1003844 3.08862E+00-9.50581E+00 4.11765E+01
 -1   1003845 3.09172E+00-9.51532E+00 4.31373E+01
 -1   1003847 3.08862E+00-9.50581E+00 4.31373E+01
 -1   1003848 3.09172E+00-9.51532E+00 4.50980E+01
 -1   1003850 3.08862E+00-9.50581E+00 4.50980E+01
 -1   1003851 3.09172E+00-9.51532E+00 4.70588E+01
 -1   1003853 3.08862E+00-9.50581E+00 4.70588E+01
 -1   1003854 3.09172E+00-9.51532E+00 4.90196E+01
 -1   1003856 3.08862E+00-9.50581E+00 4.90196E+01
 -1   1003857 3.09172E+00-9.51532E+00 5.09804E+01
 -1   1003859 3.08862E+00-9.50581E+00 5.09804E+01
 -1   1003860 3.09172E+00-9.51532E+00 5.29412E+01
 -1   1003862 3.08862E+00-9.50581E+00 5.29412E+01
 -1   1003863 3.09172E+00-9.51532E+00 5.49020E+01
 -1   1003865 3.08862E+00-9.50581E+00 5.49020E+01
 -1   1003866 3.09172E+00-9.51532E+00 5.68627E+01
 -1   1003868 3.08862E+00-9.50581E+00 5.68627E+01
 -1   1003869 3.09172E+00-9.51532E+00 5.88235E+01
 -1   1003871 3.08862E+00-9.50581E+00 5.88235E+01
 -1   1003872 3.09172E+00-9.51532E+00 6.07843E+01
 -1   1003874 3.08862E+00-9.50581E+00 6.07843E+01
 -1   1003875 3.09172E+00-9.51532E+00 6.27451E+01
 -1   1003877 3.08862E+00-9.50581E+00 6.27451E+01
 -1   1003878 3.09172E+00-9.51532E+00 6.47059E+01
 -1   1003880 3.08862E+00-9.50581E+00 6.47059E+01
 -1   1003881 3.09172E+00-9.51532E+00 6.66667E+01
 -1   1003883 3.08862E+00-9.50581E+00 6.66667E+01
 -1   1003884 3.09172E+00-9.51532E+00 6.86274E+01
 -1   1003886 3.08862E+00-9.50581E+00 6.86274E+01
 -1   1003887 3.09172E+00-9.51532E+00 7.05882E+01
 -1   1003889 3.08862E+00-9.50581E+00 7.05882E+01
 -1   1003890 3.09172E+00-9.51532E+00 7.25490E+01
 -1   1003892 3.08862E+00-9.50581E+00 7.25490E+01
 -1   1003893 3.09172E+00-9.51532E+00 7.45098E+01
 -1   1003895 3.08862E+00-9.50581E+00 7.45098E+01
 -1   1003896 3.09172E+00-9.51532E+00 7.64706E+01
 -1   1003898 3.08862E+00-9.50581E+00 7.64706E+01
 -1   1003899 3.09172E+00-9.51532E+00 7.84314E+01
 -1   1003901 3.08862E+00-9.50581E+00 7.84314E+01
 -1   1003902 3.09172E+00-9.51532E+00 8.03922E+01
 -1   1003904 3.08862E+00-9.50581E+00 8.03922E+01
 -1   1003905 3.09172E+00-9.51532E+00 8.23529E+01
 -1   1003907 3.08862E+00-9.50581E+00 8.23529E+01
 -1   1003908 3.09172E+00-9.51532E+00 8.43137E+01
 -1   1003910 3.08862E+00-9.50581E+00 8.43137E+01
 -1   1003911 3.09172E+00-9.51532E+00 8.62745E+01
 -1   1003913 3.08862E+00-9.50581E+00 8.62745E+01
 -1   1003914 3.09172E+00-9.51532E+00 8.82353E+01
 -1   1003916 3.08862E+00-9.50581E+00 8.82353E+01
 -1   1003917 3.09172E+00-9.51532E+00 9.01961E+01
 -1   1003919 3.08862E+00-9.50581E+00 9.01961E+01
 -1   1003920 3.09172E+00-9.51532E+00 9.21569E+01
 -1   1003922 3.08862E+00-9.50581E+00 9.21569E+01
 -1   1003923 3.09172E+00-9.51532E+00 9.41176E+01
 -1   1003925 3.08862E+00-9.50581E+00 9.41176E+01
 -1   1003926 3.09172E+00-9.51532E+00 9.60784E+01
 -1   1003928 3.08862E+00-9.50581E+00 9.60784E+01
 -1   1003929 3.09172E+00-9.51532E+00 9.80392E+01
 -1   1003931 3.08862E+00-9.50581E+00 9.80392E+01
 -1   1003932 5.00250E+00-8.66458E+00 1.96078E+00
 -1   1003934 4.99750E+00-8.65592E+00 1.96078E+00
 -1   1003935 5.00250E+00-8.66458E+00 3.92157E+00
 -1   1003937 4.99750E+00-8.65592E+00 3.92157E+00
 -1   1003938 5.00250E+00-8.66458E+00 5.88235E+00
 -1   1003940 4.99750E+00-8.65592E+00 5.88235E+00
 -1   1003941 5.00250E+00-8.66458E+00 7.84314E+00
 -1   1003943 4.99750E+00-8.65592E+00 7.84314E+00
 -1   1003944 5.00250E+00-8.66458E+00 9.80392E+00
 -1   1003946 4.99750E+00-8.65592E+00 9.80392E+00
 -1   1003947 5.00250E+00-8.66458E+00 1.17647E+01
 -1   1003949 4.99750E+00-8.65592E+00 1.17647E+01
 -1   1003950 5.00250E+00-8.66458E+00 1.37255E+01
 -1   1003952 4.99750E+00-8.65592E+00 1.37255E+01
 -1   1003953 5.00250E+00-8.66458E+00 1.56863E+01
 -1   1003955 4.99750E+00-8.65592E+00 1.56863E+01
 -1   1003956 5.00250E+00-8.66458E+00 1.76471E+01
 -1   1003958 4.99750E+00-8.65592E+00 1.76471E+01
 -1   1003959 5.00250E+00-8.66458E+00 1.96078E+01
 -1   1003961 4.99750E+00-8.65592E+00 1.96078E+01
 -1   1003962 5.00250E+00-8.66458E+00 2.15686E+01
 -1   1003964 4.99750E+00-8.65592E+00 2.15686E+01
 -1   1003965 5.00250E+00-8.66458E+00 2.35294E+01
 -1   1003967 4.99750E+00-8.65592E+00 2.35294E+01
 -1   1003968 5.00250E+00-8.66458E+00 2.54902E+01
 -1   1003970 4.99750E+00-8.65592E+00 2.54902E+01
 -1   1003971 5.00250E+00-8.66458E+00 2.74510E+01
 -1   1003973 4.99750E+00-8.65592E+00 2.74510E+01
 -1   1003974 5.00250E+00-8.66458E+00 2.94118E+01
 -1   1003976 4.99750E+00-8.65592E+00 2.94118E+01
 -1   1003977 5.00250E+00-8.66458E+00 3.13725E+01
 -1   1003979 4.99750E+00-8.65592E+00 3.13725E+01
 -1   1003980 5.00250E+00-8.66458E+00 3.33333E+01
 -1   1003982 4.99750E+00-8.65592E+00 3.33333E+01
 -1   1003983 5.00250E+00-8.66458E+00 3.52941E+01
 -1   1003985 4.99750E+00-8.65592E+00 3.52941E+01
 -1   1003986 5.00250E+00-8.66458E+00 3.72549E+01
 -1   1003988 4.99750E+00-8.65592E+00 3.72549E+01
 -1   1003989 5.00250E+00-8.66458E+00 3.92157E+01
 -1   1003991 4.99750E+00-8.65592E+00 3.92157E+01
 -1   1003992 5.00250E+00-8.66458E+00 4.11765E+01
 -1   1003994 4.99750E+00-8.65592E+00 4.11765E+01
 -1   1003995 5.00250E+00-8.66458E+00 4.31373E+01
 -1   1003997 4.99750E+00-8.65592E+00 4.31373E+01
 -1   1003998 5.00250E+00-8.66458E+00 4.50980E+01
 -1   1004000 4.99750E+00-8.65592E+00 4.50980E+01
 -1   1004001 5.00250E+00-8.66458E+00 4.70588E+01
 -1   1004003 4.99750E+00-8.65592E+00 4.70588E+01
 -1   1004004 5.00250E+00-8.66458E+00 4.90196E+01
 -1   1004006 4.99750E+00-8.65592E+00 4.90196E+01
 -1   1004007 5.00250E+00-8.66458E+00 5.09804E+01
 -1   1004009 4.99750E+00-8.65592E+00 5.09804E+01
 -1   1004010 5.00250E+00-8.66458E+00 5.29412E+01
 -1   1004012 4.99750E+00-8.65592E+00 5.29412E+01
 -1   1004013 5.00250E+00-8.66458E+00 5.49020E+01
 -1   1004015 4.99750E+00-8.65592E+00 5.49020E+01
 -1   1004016 5.00250E+00-8.66458E+00 5.68627E+01
 -1   1004018 4.99750E+00-8.65592E+00 5.68627E+01
 -1   1004019 5.00250E+00-8.66458E+00 5.88235E+01
 -1   1004021 4.99750E+00-8.65592E+00 5.88235E+01
 -1   1004022 5.00250E+00-8.66458E+00 6.07843E+01
 -1   1004024 4.99750E+00-8.65592E+00 6.07843E+01
 -1   1004025 5.00250E+00-8.66458E+00 6.27451E+01
 -1   1004027 4.99750E+00-8.65592E+00 6.27451E+01
 -1   1004028 5.00250E+00-8.66458E+00 6.47059E+01
 -1   1004030 4.99750E+00-8.65592E+00 6.47059E+01
 -1   1004031 5.00250E+00-8.66458E+00 6.66667E+01
 -1   1004033 4.99750E+00-8.65592E+00 6.66667E+01
 -1   1004034 5.00250E+00-8.66458E+00 6.86274E+01
 -1   1004036 4.99750E+00-8.65592E+00 6.86274E+01
 -1   1004037 5.00250E+00-8.66458E+00 7.05882E+01
 -1   1004039 4.99750E+00-8.65592E+00 7.05882E+01
 -1   1004040 5.00250E+00-8.66458E+00 7.25490E+01
 -1   1004042 4.99750E+00-8.65592E+00 7.25490E+01
 -1   1004043 5.00250E+00-8.66458E+00 7.45098E+01
 -1   1004045 4.99750E+00-8.65592E+00 7.45098E+01
 -1   1004046 5.00250E+00-8.66458E+00 7.64706E+01
 -1   1004048 4.99750E+00-8.65592E+00 7.64706E+01
 -1   1004049 5.00250E+00-8.66458E+00 7.84314E+01
 -1   1004051 4.99750E+00-8.65592E+00 7.84314E+01
 -1   1004052 5.00250E+00-8.66458E+00 8.03922E+01
 -1   1004054 4.99750E+00-8.65592E+00 8.03922E+01
 -1   1004055 5.00250E+00-8.66458E+00 8.23529E+01
 -1   1004057 4.99750E+00-8.65592E+00 8.23529E+01
 -1   1004058 5.00250E+00-8.66458E+00 8.43137E+01
 -1   1004060 4.99750E+00-8.65592E+00 8.43137E+01
 -1   1004061 5.00250E+00-8.66458E+00 8.62745E+01
 -1   1004063 4.99750E+00-8.65592E+00 8.62745E+01
 -1   1004064 5.00250E+00-8.66458E+00 8.82353E+01
 -1   1004066 4.99750E+00-8.65592E+00 8.82353E+01
 -1   1004067 5.00250E+00-8.66458E+00 9.01961E+01
 -1   1004069 4.99750E+00-8.65592E+00 9.01961E+01
 -1   1004070 5.00250E+00-8.66458E+00 9.21569E+01
 -1   1004072 4.99750E+00-8.65592E+00 9.21569E+01
 -1   1004073 5.00250E+00-8.66458E+00 9.41176E+01
 -1   1004075 4.99750E+00-8.65592E+00 9.41176E+01
 -1   1004076 5.00250E+00-8.66458E+00 9.60784E+01
 -1   1004078 4.99750E+00-8.65592E+00 9.60784E+01
 -1   1004079 5.00250E+00-8.66458E+00 9.80392E+01
 -1   1004081 4.99750E+00-8.65592E+00 9.80392E+01
 -1   1004082 6.69465E+00-7.43516E+00 1.96078E+00
 -1   1004084 6.68796E+00-7.42773E+00 1.96078E+00
 -1   1004085 6.69465E+00-7.43516E+00 3.92157E+00
 -1   1004087 6.68796E+00-7.42773E+00 3.92157E+00
 -1   1004088 6.69465E+00-7.43516E+00 5.88235E+00
 -1   1004090 6.68796E+00-7.42773E+00 5.88235E+00
 -1   1004091 6.69465E+00-7.43516E+00 7.84314E+00
 -1   1004093 6.68796E+00-7.42773E+00 7.84314E+00
 -1   1004094 6.69465E+00-7.43516E+00 9.80392E+00
 -1   1004096 6.68796E+00-7.42773E+00 9.80392E+00
 -1   1004097 6.69465E+00-7.43516E+00 1.17647E+01
 -1   1004099 6.68796E+00-7.42773E+00 1.17647E+01
 -1   1004100 6.69465E+00-7.43516E+00 1.37255E+01
 -1   1004102 6.68796E+00-7.42773E+00 1.37255E+01
 -1   1004103 6.69465E+00-7.43516E+00 1.56863E+01
 -1   1004105 6.68796E+00-7.42773E+00 1.56863E+01
 -1   1004106 6.69465E+00-7.43516E+00 1.76471E+01
 -1   1004108 6.68796E+00-7.42773E+00 1.76471E+01
 -1   1004109 6.69465E+00-7.43516E+00 1.96078E+01
 -1   1004111 6.68796E+00-7.42773E+00 1.96078E+01
 -1   1004112 6.69465E+00-7.43516E+00 2.15686E+01
 -1   1004114 6.68796E+00-7.42773E+00 2.15686E+01
 -1   1004115 6.69465E+00-7.43516E+00 2.35294E+01
 -1   1004117 6.68796E+00-7.42773E+00 2.35294E+01
 -1   1004118 6.69465E+00-7.43516E+00 2.54902E+01
 -1   1004120 6.68796E+00-7.42773E+00 2.54902E+01
 -1   1004121 6.69465E+00-7.43516E+00 2.74510E+01
 -1   1004123 6.68796E+00-7.42773E+00 2.74510E+01
 -1   1004124 6.69465E+00-7.43516E+00 2.94118E+01
 -1   1004126 6.68796E+00-7.42773E+00 2.94118E+01
 -1   1004127 6.69465E+00-7.43516E+00 3.13725E+01
 -1   1004129 6.68796E+00-7.42773E+00 3.13725E+01
 -1   1004130 6.69465E+00-7.43516E+00 3.33333E+01
 -1   1004132 6.68796E+00-7.42773E+00 3.33333E+01
 -1   1004133 6.69465E+00-7.43516E+00 3.52941E+01
 -1   1004135 6.68796E+00-7.42773E+00 3.52941E+01
 -1   1004136 6.69465E+00-7.43516E+00 3.72549E+01
 -1   1004138 6.68796E+00-7.42773E+00 3.72549E+01
 -1   1004139 6.69465E+00-7.43516E+00 3.92157E+01
 -1   1004141 6.68796E+00-7.42773E+00 3.92157E+01
 -1   1004142 6.69465E+00-7.43516E+00 4.11765E+01
 -1   1004144 6.68796E+00-7.42773E+00 4.11765E+01
 -1   1004145 6.69465E+00-7.43516E+00 4.31373E+01
 -1   1004147 6.68796E+00-7.42773E+00 4.31373E+01
 -1   1004148 6.69465E+00-7.43516E+00 4.50980E+01
 -1   1004150 6.68796E+00-7.42773E+00 4.50980E+01
 -1   1004151 6.69465E+00-7.43516E+00 4.70588E+01
 -1   1004153 6.68796E+00-7.42773E+00 4.70588E+01
 -1   1004154 6.69465E+00-7.43516E+00 4.90196E+01
 -1   1004156 6.68796E+00-7.42773E+00 4.90196E+01
 -1   1004157 6.69465E+00-7.43516E+00 5.09804E+01
 -1   1004159 6.68796E+00-7.42773E+00 5.09804E+01
 -1   1004160 6.69465E+00-7.43516E+00 5.29412E+01
 -1   1004162 6.68796E+00-7.42773E+00 5.29412E+01
 -1   1004163 6.69465E+00-7.43516E+00 5.49020E+01
 -1   1004165 6.68796E+00-7.42773E+00 5.49020E+01
 -1   1004166 6.69465E+00-7.43516E+00 5.68627E+01
 -1   1004168 6.68796E+00-7.42773E+00 5.68627E+01
 -1   1004169 6.69465E+00-7.43516E+00 5.88235E+01
 -1   1004171 6.68796E+00-7.42773E+00 5.88235E+01
 -1   1004172 6.69465E+00-7.43516E+00 6.07843E+01
 -1   1004174 6.68796E+00-7.42773E+00 6.07843E+01
 -1   1004175 6.69465E+00-7.43516E+00 6.27451E+01
 -1   1004177 6.68796E+00-7.42773E+00 6.27451E+01
 -1   1004178 6.69465E+00-7.43516E+00 6.47059E+01
 -1   1004180 6.68796E+00-7.42773E+00 6.47059E+01
 -1   1004181 6.69465E+00-7.43516E+00 6.66667E+01
 -1   1004183 6.68796E+00-7.42773E+00 6.66667E+01
 -1   1004184 6.69465E+00-7.43516E+00 6.86274E+01
 -1   1004186 6.68796E+00-7.42773E+00 6.86274E+01
 -1   1004187 6.69465E+00-7.43516E+00 7.05882E+01
 -1   1004189 6.68796E+00-7.42773E+00 7.05882E+01
 -1   1004190 6.69465E+00-7.43516E+00 7.25490E+01
 -1   1004192 6.68796E+00-7.42773E+00 7.25490E+01
 -1   1004193 6.69465E+00-7.43516E+00 7.45098E+01
 -1   1004195 6.68796E+00-7.42773E+00 7.45098E+01
 -1   1004196 6.69465E+00-7.43516E+00 7.64706E+01
 -1   1004198 6.68796E+00-7.42773E+00 7.64706E+01
 -1   1004199 6.69465E+00-7.43516E+00 7.84314E+01
 -1   1004201 6.68796E+00-7.42773E+00 7.84314E+01
 -1   1004202 6.69465E+00-7.43516E+00 8.03922E+01
 -1   1004204 6.68796E+00-7.42773E+00 8.03922E+01
 -1   1004205 6.69465E+00-7.43516E+00 8.23529E+01
 -1   1004207 6.68796E+00-7.42773E+00 8.23529E+01
 -1   1004208 6.69465E+00-7.43516E+00 8.43137E+01
 -1   1004210 6.68796E+00-7.42773E+00 8.43137E+01
 -1   1004211 6.69465E+00-7.43516E+00 8.62745E+01
 -1   1004213 6.68796E+00-7.42773E+00 8.62745E+01
 -1   1004214 6.69465E+00-7.43516E+00 8.82353E+01
 -1   1004216 6.68796E+00-7.42773E+00 8.82353E+01
 -1   1004217 6.69465E+00-7.43516E+00 9.01961E+01
 -1   1004219 6.68796E+00-7.42773E+00 9.01961E+01
 -1   1004220 6.69465E+00-7.43516E+00 9.21569E+01
 -1   1004222 6.68796E+00-7.42773E+00 9.21569E+01
 -1   1004223 6.69465E+00-7.43516E+00 9.41176E+01
 -1   1004225 6.68796E+00-7.42773E+00 9.41176E+01
 -1   1004226 6.69465E+00-7.43516E+00 9.60784E+01
 -1   1004228 6.68796E+00-7.42773E+00 9.60784E+01
 -1   1004229 6.69465E+00-7.43516E+00 9.80392E+01
 -1   1004231 6.68796E+00-7.42773E+00 9.80392E+01
 -1   1004232 8.09422E+00-5.88079E+00 1.96078E+00
 -1   1004234 8.08612E+00-5.87491E+00 1.96078E+00
 -1   1004235 8.09422E+00-5.88079E+00 3.92157E+00
 -1   1004237 8.08612E+00-5.87491E+00 3.92157E+00
 -1   1004238 8.09422E+00-5.88079E+00 5.88235E+00
 -1   1004240 8.08612E+00-5.87491E+00 5.88235E+00
 -1   1004241 8.09422E+00-5.88079E+00 7.84314E+00
 -1   1004243 8.08612E+00-5.87491E+00 7.84314E+00
 -1   1004244 8.09422E+00-5.88079E+00 9.80392E+00
 -1   1004246 8.08612E+00-5.87491E+00 9.80392E+00
 -1   1004247 8.09422E+00-5.88079E+00 1.17647E+01
 -1   1004249 8.08612E+00-5.87491E+00 1.17647E+01
 -1   1004250 8.09422E+00-5.88079E+00 1.37255E+01
 -1   1004252 8.08612E+00-5.87491E+00 1.37255E+01
 -1   1004253 8.09422E+00-5.88079E+00 1.56863E+01
 -1   1004255 8.08612E+00-5.87491E+00 1.56863E+01
 -1   1004256 8.09422E+00-5.88079E+00 1.76471E+01
 -1   1004258 8.08612E+00-5.87491E+00 1.76471E+01
 -1   1004259 8.09422E+00-5.88079E+00 1.96078E+01
 -1   1004261 8.08612E+00-5.87491E+00 1.96078E+01
 -1   1004262 8.09422E+00-5.88079E+00 2.15686E+01
 -1   1004264 8.08612E+00-5.87491E+00 2.15686E+01
 -1   1004265 8.09422E+00-5.88079E+00 2.35294E+01
 -1   1004267 8.08612E+00-5.87491E+00 2.35294E+01
 -1   1004268 8.09422E+00-5.88079E+00 2.54902E+01
 -1   1004270 8.08612E+00-5.87491E+00 2.54902E+01
 -1   1004271 8.09422E+00-5.88079E+00 2.74510E+01
 -1   1004273 8.08612E+00-5.87491E+00 2.74510E+01
 -1   1004274 8.09422E+00-5.88079E+00 2.94118E+01
 -1   1004276 8.08612E+00-5.87491E+00 2.94118E+01
 -1   1004277 8.09422E+00-5.88079E+00 3.13725E+01
 -1   1004279 8.08612E+00-5.87491E+00 3.13725E+01
 -1   1004280 8.09422E+00-5.88079E+00 3.33333E+01
 -1   1004282 8.08612E+00-5.87491E+00 3.33333E+01
 -1   1004283 8.09422E+00-5.88079E+00 3.52941E+01
 -1   1004285 8.08612E+00-5.87491E+00 3.52941E+01
 -1   1004286 8.09422E+00-5.88079E+00 3.72549E+01
 -1   1004288 8.08612E+00-5.87491E+00 3.72549E+01
 -1   1004289 8.09422E+00-5.88079E+00 3.92157E+01
 -1   1004291 8.08612E+00-5.87491E+00 3.92157E+01
 -1   1004292 8.09422E+00-5.88079E+00 4.11765E+01
 -1   1004294 8.08612E+00-5.87491E+00 4.11765E+01
 -1   1004295 8.09422E+00-5.88079E+00 4.31373E+01
 -1   1004297 8.08612E+00-5.87491E+00 4.31373E+01
 -1   1004298 8.09422E+00-5.88079E+00 4.50980E+01
 -1   1004300 8.08612E+00-5.87491E+00 4.50980E+01
 -1   1004301 8.09422E+00-5.88079E+00 4.70588E+01
 -1   1004303 8.08612E+00-5.87491E+00 4.70588E+01
 -1   1004304 8.09422E+00-5.88079E+00 4.90196E+01
 -1   1004306 8.08612E+00-5.87491E+00 4.90196E+01
 -1   1004307 8.09422E+00-5.88079E+00 5.09804E+01
 -1   1004309 8.08612E+00-5.87491E+00 5.09804E+01
 -1   1004310 8.09422E+00-5.88079E+00 5.29412E+01
 -1   1004312 8.08612E+00-5.87491E+00 5.29412E+01
 -1   1004313 8.09422E+00-5.88079E+00 5.49020E+01
 -1   1004315 8.08612E+00-5.87491E+00 5.49020E+01
 -1   1004316 8.09422E+00-5.88079E+00 5.68627E+01
 -1   1004318 8.08612E+00-5.87491E+00 5.68627E+01
 -1   1004319 8.09422E+00-5.88079E+00 5.88235E+01
 -1   1004321 8.08612E+00-5.87491E+00 5.88235E+01
 -1   1004322 8.09422E+00-5.88079E+00 6.07843E+01
 -1   1004324 8.08612E+00-5.87491E+00 6.07843E+01
 -1   1004325 8.09422E+00-5.88079E+00 6.27451E+01
 -1   1004327 8.08612E+00-5.87491E+00 6.27451E+01
 -1   1004328 8.09422E+00-5.88079E+00 6.47059E+01
 -1   1004330 8.08612E+00-5.87491E+00 6.47059E+01
 -1   1004331 8.09422E+00-5.88079E+00 6.66667E+01
 -1   1004333 8.08612E+00-5.87491E+00 6.66667E+01
 -1   1004334 8.09422E+00-5.88079E+00 6.86274E+01
 -1   1004336 8.08612E+00-5.87491E+00 6.86274E+01
 -1   1004337 8.09422E+00-5.88079E+00 7.05882E+01
 -1   1004339 8.08612E+00-5.87491E+00 7.05882E+01
 -1   1004340 8.09422E+00-5.88079E+00 7.25490E+01
 -1   1004342 8.08612E+00-5.87491E+00 7.25490E+01
 -1   1004343 8.09422E+00-5.88079E+00 7.45098E+01
 -1   1004345 8.08612E+00-5.87491E+00 7.45098E+01
 -1   1004346 8.09422E+00-5.88079E+00 7.64706E+01
 -1   1004348 8.08612E+00-5.87491E+00 7.64706E+01
 -1   1004349 8.09422E+00-5.88079E+00 7.84314E+01
 -1   1004351 8.08612E+00-5.87491E+00 7.84314E+01
 -1   1004352 8.09422E+00-5.88079E+00 8.03922E+01
 -1   1004354 8.08612E+00-5.87491E+00 8.03922E+01
 -1   1004355 8.09422E+00-5.88079E+00 8.23529E+01
 -1   1004357 8.08612E+00-5.87491E+00 8.23529E+01
 -1   1004358 8.09422E+00-5.88079E+00 8.43137E+01
 -1   1004360 8.08612E+00-5.87491E+00 8.43137E+01
 -1   1004361 8.09422E+00-5.88079E+00 8.62745E+01
 -1   1004363 8.08612E+00-5.87491E+00 8.62745E+01
 -1   1004364 8.09422E+00-5.88079E+00 8.82353E+01
 -1   1004366 8.08612E+00-5.87491E+00 8.82353E+01
 -1   1004367 8.09422E+00-5.88079E+00 9.01961E+01
 -1   1004369 8.08612E+00-5.87491E+00 9.01961E+01
 -1   1004370 8.09422E+00-5.88079E+00 9.21569E+01
 -1   1004372 8.08612E+00-5.87491E+00 9.21569E+01
 -1   1004373 8.09422E+00-5.88079E+00 9.41176E+01
 -1   1004375 8.08612E+00-5.87491E+00 9.41176E+01
 -1   1004376 8.09422E+00-5.88079E+00 9.60784E+01
 -1   1004378 8.08612E+00-5.87491E+00 9.60784E+01
 -1   1004379 8.09422E+00-5.88079E+00 9.80392E+01
 -1   1004381 8.08612E+00-5.87491E+00 9.80392E+01
 -1   1004382 9.14002E+00-4.06940E+00 1.96078E+00
 -1   1004384 9.13089E+00-4.06533E+00 1.96078E+00
 -1   1004385 9.14002E+00-4.06940E+00 3.92157E+00
 -1   1004387 9.13089E+00-4.06533E+00 3.92157E+00
 -1   1004388 9.14002E+00-4.06940E+00 5.88235E+00
 -1   1004390 9.13089E+00-4.06533E+00 5.88235E+00
 -1   1004391 9.14002E+00-4.06940E+00 7.84314E+00
 -1   1004393 9.13089E+00-4.06533E+00 7.84314E+00
 -1   1004394 9.14002E+00-4.06940E+00 9.80392E+00
 -1   1004396 9.13089E+00-4.06533E+00 9.80392E+00
 -1   1004397 9.14002E+00-4.06940E+00 1.17647E+01
 -1   1004399 9.13089E+00-4.06533E+00 1.17647E+01
 -1   1004400 9.14002E+00-4.06940E+00 1.37255E+01
 -1   1004402 9.13089E+00-4.06533E+00 1.37255E+01
 -1   1004403 9.14002E+00-4.06940E+00 1.56863E+01
 -1   1004405 9.13089E+00-4.06533E+00 1.56863E+01
 -1   1004406 9.14002E+00-4.06940E+00 1.76471E+01
 -1   1004408 9.13089E+00-4.06533E+00 1.76471E+01
 -1   1004409 9.14002E+00-4.06940E+00 1.96078E+01
 -1   1004411 9.13089E+00-4.06533E+00 1.96078E+01
 -1   1004412 9.14002E+00-4.06940E+00 2.15686E+01
 -1   1004414 9.13089E+00-4.06533E+00 2.15686E+01
 -1   1004415 9.14002E+00-4.06940E+00 2.35294E+01
 -1   1004417 9.13089E+00-4.06533E+00 2.35294E+01
 -1   1004418 9.14002E+00-4.06940E+00 2.54902E+01
 -1   1004420 9.13089E+00-4.06533E+00 2.54902E+01
 -1   1004421 9.14002E+00-4.06940E+00 2.74510E+01
 -1   1004423 9.13089E+00-4.06533E+00 2.74510E+01
 -1   1004424 9.14002E+00-4.06940E+00 2.94118E+01
 -1   1004426 9.13089E+00-4.06533E+00 2.94118E+01
 -1   1004427 9.14002E+00-4.06940E+00 3.13725E+01
 -1   1004429 9.13089E+00-4.06533E+00 3.13725E+01
 -1   1004430 9.14002E+00-4.06940E+00 3.33333E+01
 -1   1004432 9.13089E+00-4.06533E+00 3.33333E+01
 -1   1004433 9.14002E+00-4.06940E+00 3.52941E+01
 -1   1004435 9.13089E+00-4.06533E+00 3.52941E+01
 -1   1004436 9.14002E+00-4.06940E+00 3.72549E+01
 -1   1004438 9.13089E+00-4.06533E+00 3.72549E+01
 -1   1004439 9.14002E+00-4.06940E+00 3.92157E+01
 -1   1004441 9.13089E+00-4.06533E+00 3.92157E+01
 -1   1004442 9.14002E+00-4.06940E+00 4.11765E+01
 -1   1004444 9.13089E+00-4.06533E+00 4.11765E+01
 -1   1004445 9.14002E+00-4.06940E+00 4.31373E+01
 -1   1004447 9.13089E+00-4.06533E+00 4.31373E+01
 -1   1004448 9.14002E+00-4.06940E+00 4.50980E+01
 -1   1004450 9.13089E+00-4.06533E+00 4.50980E+01
 -1   1004451 9.14002E+00-4.06940E+00 4.70588E+01
 -1   1004453 9.13089E+00-4.06533E+00 4.70588E+01
 -1   1004454 9.14002E+00-4.06940E+00 4.90196E+01
 -1   1004456 9.13089E+00-4.06533E+00 4.90196E+01
 -1   1004457 9.14002E+00-4.06940E+00 5.09804E+01
 -1   1004459 9.13089E+00-4.06533E+00 5.09804E+01
 -1   1004460 9.14002E+00-4.06940E+00 5.29412E+01
 -1   1004462 9.13089E+00-4.06533E+00 5.29412E+01
 -1   1004463 9.14002E+00-4.06940E+00 5.49020E+01
 -1   1004465 9.13089E+00-4.06533E+00 5.49020E+01
 -1   1004466 9.14002E+00-4.06940E+00 5.68627E+01
 -1   1004468 9.13089E+00-4.06533E+00 5.68627E+01
 -1   1004469 9.14002E+00-4.06940E+00 5.88235E+01
 -1   1004471 9.13089E+00-4.06533E+00 5.88235E+01
 -1   1004472 9.14002E+00-4.06940E+00 6.07843E+01
 -1   1004474 9.13089E+00-4.06533E+00 6.07843E+01
 -1   1004475 9.14002E+00-4.06940E+00 6.27451E+01
 -1   1004477 9.13089E+00-4.06533E+00 6.27451E+01
 -1   1004478 9.14002E+00-4.06940E+00 6.47059E+01
 -1   1004480 9.13089E+00-4.06533E+00 6.47059E+01
 -1   1004481 9.14002E+00-4.06940E+00 6.66667E+01
 -1   1004483 9.13089E+00-4.06533E+00 6.66667E+01
 -1   1004484 9.14002E+00-4.06940E+00 6.86274E+01
 -1   1004486 9.13089E+00-4.06533E+00 6.86274E+01
 -1   1004487 9.14002E+00-4.06940E+00 7.05882E+01
 -1   1004489 9.13089E+00-4.06533E+00 7.05882E+01
 -1   1004490 9.14002E+00-4.06940E+00 7.25490E+01
 -1   1004492 9.13089E+00-4.06533E+00 7.25490E+01
 -1   1004493 9.14002E+00-4.06940E+00 7.45098E+01
 -1   1004495 9.13089E+00-4.06533E+00 7.45098E+01
 -1   1004496 9.14002E+00-4.06940E+00 7.64706E+01
 -1   1004498 9.13089E+00-4.06533E+00 7.64706E+01
 -1   1004499 9.14002E+00-4.06940E+00 7.84314E+01
 -1   1004501 9.13089E+00-4.06533E+00 7.84314E+01
 -1   1004502 9.14002E+00-4.06940E+00 8.03922E+01
 -1   1004504 9.13089E+00-4.06533E+00 8.03922E+01
 -1   1004505 9.14002E+00-4.06940E+00 8.23529E+01
 -1   1004507 9.13089E+00-4.06533E+00 8.23529E+01
 -1   1004508 9.14002E+00-4.06940E+00 8.43137E+01
 -1   1004510 9.13089E+00-4.06533E+00 8.43137E+01
 -1   1004511 9.14002E+00-4.06940E+00 8.62745E+01
 -1   1004513 9.13089E+00-4.06533E+00 8.62745E+01
 -1   1004514 9.14002E+00-4.06940E+00 8.82353E+01
 -1   1004516 9.13089E+00-4.06533E+00 8.82353E+01
 -1   1004517 9.14002E+00-4.06940E+00 9.01961E+01
 -1   1004519 9.13089E+00-4.06533E+00 9.01961E+01
 -1   1004520 9.14002E+00-4.06940E+00 9.21569E+01
 -1   1004522 9.13089E+00-4.06533E+00 9.21569E+01
 -1   1004523 9.14002E+00-4.06940E+00 9.41176E+01
 -1   1004525 9.13089E+00-4.06533E+00 9.41176E+01
 -1   1004526 9.14002E+00-4.06940E+00 9.60784E+01
 -1   1004528 9.13089E+00-4.06533E+00 9.60784E+01
 -1   1004529 9.14002E+00-4.06940E+00 9.80392E+01
 -1   1004531 9.13089E+00-4.06533E+00 9.80392E+01
 -1   1004532 9.78637E+00-2.08016E+00 1.96078E+00
 -1   1004534 9.77659E+00-2.07808E+00 1.96078E+00
 -1   1004535 9.78637E+00-2.08016E+00 3.92157E+00
 -1   1004537 9.77659E+00-2.07808E+00 3.92157E+00
 -1   1004538 9.78637E+00-2.08016E+00 5.88235E+00
 -1   1004540 9.77659E+00-2.07808E+00 5.88235E+00
 -1   1004541 9.78637E+00-2.08016E+00 7.84314E+00
 -1   1004543 9.77659E+00-2.07808E+00 7.84314E+00
 -1   1004544 9.78637E+00-2.08016E+00 9.80392E+00
 -1   1004546 9.77659E+00-2.07808E+00 9.80392E+00
 -1   1004547 9.78637E+00-2.08016E+00 1.17647E+01
 -1   1004549 9.77659E+00-2.07808E+00 1.17647E+01
 -1   1004550 9.78637E+00-2.08016E+00 1.37255E+01
 -1   1004552 9.77659E+00-2.07808E+00 1.37255E+01
 -1   1004553 9.78637E+00-2.08016E+00 1.56863E+01
 -1   1004555 9.77659E+00-2.07808E+00 1.56863E+01
 -1   1004556 9.78637E+00-2.08016E+00 1.76471E+01
 -1   1004558 9.77659E+00-2.07808E+00 1.76471E+01
 -1   1004559 9.78637E+00-2.08016E+00 1.96078E+01
 -1   1004561 9.77659E+00-2.07808E+00 1.96078E+01
 -1   1004562 9.78637E+00-2.08016E+00 2.15686E+01
 -1   1004564 9.77659E+00-2.07808E+00 2.15686E+01
 -1   1004565 9.78637E+00-2.08016E+00 2.35294E+01
 -1   1004567 9.77659E+00-2.07808E+00 2.35294E+01
 -1   1004568 9.78637E+00-2.08016E+00 2.54902E+01
 -1   1004570 9.77659E+00-2.07808E+00 2.54902E+01
 -1   1004571 9.78637E+00-2.08016E+00 2.74510E+01
 -1   1004573 9.77659E+00-2.07808E+00 2.74510E+01
 -1   1004574 9.78637E+00-2.08016E+00 2.94118E+01
 -1   1004576 9.77659E+00-2.07808E+00 2.94118E+01
 -1   1004577 9.78637E+00-2.08016E+00 3.13725E+01
 -1   1004579 9.77659E+00-2.07808E+00 3.13725E+01
 -1   1004580 9.78637E+00-2.08016E+00 3.33333E+01
 -1   1004582 9.77659E+00-2.07808E+00 3.33333E+01
 -1   1004583 9.78637E+00-2.08016E+00 3.52941E+01
 -1   1004585 9.77659E+00-2.07808E+00 3.52941E+01
 -1   1004586 9.78637E+00-2.08016E+00 3.72549E+01
 -1   1004588 9.77659E+00-2.07808E+00 3.72549E+01
 -1   1004589 9.78637E+00-2.08016E+00 3.92157E+01
 -1   1004591 9.77659E+00-2.07808E+00 3.92157E+01
 -1   1004592 9.78637E+00-2.08016E+00 4.11765E+01
 -1   1004594 9.77659E+00-2.07808E+00 4.11765E+01
 -1   1004595 9.78637E+00-2.08016E+00 4.31373E+01
 -1   1004597 9.77659E+00-2.07808E+00 4.31373E+01
 -1   1004598 9.78637E+00-2.08016E+00 4.50980E+01
 -1   1004600 9.77659E+00-2.07808E+00 4.50980E+01
 -1   1004601 9.78637E+00-2.08016E+00 4.70588E+01
 -1   1004603 9.77659E+00-2.07808E+00 4.70588E+01
 -1   1004604 9.78637E+00-2.08016E+00 4.90196E+01
 -1   1004606 9.77659E+00-2.07808E+00 4.90196E+01
 -1   1004607 9.78637E+00-2.08016E+00 5.09804E+01
 -1   1004609 9.77659E+00-2.07808E+00 5.09804E+01
 -1   1004610 9.78637E+00-2.08016E+00 5.29412E+01
 -1   1004612 9.77659E+00-2.07808E+00 5.29412E+01
 -1   1004613 9.78637E+00-2.08016E+00 5.49020E+01
 -1   1004615 9.77659E+00-2.07808E+00 5.49020E+01
 -1   1004616 9.78637E+00-2.08016E+00 5.68627E+01
 -1   1004618 9.77659E+00-2.07808E+00 5.68627E+01
 -1   1004619 9.78637E+00-2.08016E+00 5.88235E+01
 -1   1004621 9.77659E+00-2.07808E+00 5.88235E+01
 -1   1004622 9.78637E+00-2.08016E+00 6.07843E+01
 -1   1004624 9.77659E+00-2.07808E+00 6.07843E+01
 -1   1004625 9.78637E+00-2.08016E+00 6.27451E+01
 -1   1004627 9.77659E+00-2.07808E+00 6.27451E+01
 -1   1004628 9.78637E+00-2.08016E+00 6.47059E+01
 -1   1004630 9.77659E+00-2.07808E+00 6.47059E+01
 -1   1004631 9.78637E+00-2.08016E+00 6.66667E+01
 -1   1004633 9.77659E+00-2.07808E+00 6.66667E+01
 -1   1004634 9.78637E+00-2.08016E+00 6.86274E+01
 -1   1004636 9.77659E+00-2.07808E+00 6.86274E+01
 -1   1004637 9.78637E+00-2.08016E+00 7.05882E+01
 -1   1004639 9.77659E+00-2.07808E+00 7.05882E+01
 -1   1004640 9.78637E+00-2.08016E+00 7.25490E+01
 -1   1004642 9.77659E+00-2.07808E+00 7.25490E+01
 -1   1004643 9.78637E+00-2.08016E+00 7.45098E+01
 -1   1004645 9.77659E+00-2.07808E+00 7.45098E+01
 -1   1004646 9.78637E+00-2.08016E+00 7.64706E+01
 -1   1004648 9.77659E+00-2.07808E+00 7.64706E+01
 -1   1004649 9.78637E+00-2.08016E+00 7.84314E+01
 -1   1004651 9.77659E+00-2.07808E+00 7.84314E+01
 -1   1004652 9.78637E+00-2.08016E+00 8.03922E+01
 -1   1004654 9.77659E+00-2.07808E+00 8.03922E+01
 -1   1004655 9.78637E+00-2.08016E+00 8.23529E+01
 -1   1004657 9.77659E+00-2.07808E+00 8.23529E+01
 -1   1004658 9.78637E+00-2.08016E+00 8.43137E+01
 -1   1004660 9.77659E+00-2.07808E+00 8.43137E+01
 -1   1004661 9.78637E+00-2.08016E+00 8.62745E+01
 -1   1004663 9.77659E+00-2.07808E+00 8.62745E+01
 -1   1004664 9.78637E+00-2.08016E+00 8.82353E+01
 -1   1004666 9.77659E+00-2.07808E+00 8.82353E+01
 -1   1004667 9.78637E+00-2.08016E+00 9.01961E+01
 -1   1004669 9.77659E+00-2.07808E+00 9.01961E+01
 -1   1004670 9.78637E+00-2.08016E+00 9.21569E+01
 -1   1004672 9.77659E+00-2.07808E+00 9.21569E+01
 -1   1004673 9.78637E+00-2.08016E+00 9.41176E+01
 -1   1004675 9.77659E+00-2.07808E+00 9.41176E+01
 -1   1004676 9.78637E+00-2.08016E+00 9.60784E+01
 -1   1004678 9.77659E+00-2.07808E+00 9.60784E+01
 -1   1004679 9.78637E+00-2.08016E+00 9.80392E+01
 -1   1004681 9.77659E+00-2.07808E+00 9.80392E+01
 -3
    3C                          1530                                     1
 -1        61    1    0    1
 -2   1000002   1000095   1000332   1000008   1000004   1000097   1000334   1000010
 -1        62    1    0    1
 -2   1000095   1000098   1000335   1000332   1000097   1000100   1000337   1000334
 -1        63    1    0    1
 -2   1000098   1000101   1000338   1000335   1000100   1000103   1000340   1000337
 -1        64    1    0    1
 -2   1000101   1000104   1000341   1000338   1000103   1000106   1000343   1000340
 -1        65    1    0    1
 -2   1000104   1000107   1000344   1000341   1000106   1000109   1000346   1000343
 -1        66    1    0    1
 -2   1000107   1000110   1000347   1000344   1000109   1000112   1000349   1000346
 -1        67    1    0    1
 -2   1000110   1000113   1000350   1000347   1000112   1000115   1000352   1000349
 -1        68    1    0    1
 -2   1000113   1000116   1000353   1000350   1000115   1000118   1000355   1000352
 -1        69    1    0    1
 -2   1000116   1000119   1000356   1000353   1000118   1000121   1000358   1000355
 -1        70    1    0    1
 -2   1000119   1000122   1000359   1000356   1000121   1000124   1000361   1000358
 -1        71    1    0    1
 -2   1000122   1000125   1000362   1000359   1000124   1000127   1000364   1000361
 -1        72    1    0    1
 -2   1000125   1000128   1000365   1000362   1000127   1000130   1000367   1000364
 -1        73    1    0    1
 -2   1000128   1000131   1000368   1000365   1000130   1000133   1000370   1000367
 -1        74    1    0    1
 -2   1000131   1000134   1000371   1000368   1000133   1000136   1000373   1000370
 -1        75    1    0    1
 -2   1000134   1000137   1000374   1000371   1000136   1000139   1000376   1000373
 -1        76    1    0    1
 -2   1000137   1000140   1000377   1000374   1000139   1000142   1000379   1000376
 -1        77    1    0    1
 -2   1000140   1000143   1000380   1000377   1000142   1000145   1000382   1000379
 -1        78    1    0    1
 -2   1000143   1000146   1000383   1000380   1000145   1000148   1000385   1000382
 -1        79    1    0    1
 -2   1000146   1000149   1000386   1000383   1000148   1000151   1000388   1000385
 -1        80    1    0    1
 -2   1000149   1000152   1000389   1000386   1000151   1000154   1000391   1000388
 -1        81    1    0    1
 -2   1000152   1000155   1000392   1000389   1000154   1000157   1000394   1000391
 -1        82    1    0    1
 -2   1000155   1000158   1000395   1000392   1000157   1000160   1000397   1000394
 -1        83    1    0    1
 -2   1000158   1000161   1000398   1000395   1000160   1000163   1000400   1000397
 -1        84    1    0    1
 -2   1000161   1000164   1000401   1000398   1000163   1000166   1000403   1000400
 -1        85    1    0    1
 -2   1000164   1000167   1000404   1000401   1000166   1000169   1000406   1000403
 -1        86    1    0    1
 -2   1000167   1000170   1000407   1000404   1000169   1000172   1000409   1000406
 -1        87    1    0    1
 -2   1000170   1000173   1000410   1000407   1000172   1000175   1000412   1000409
 -1        88    1    0    1
 -2   1000173   1000176   1000413   1000410   1000175   1000178   1000415   1000412
 -1        89    1    0    1
 -2   1000176   1000179   1000416   1000413   1000178   1000181   1000418   1000415
 -1        90    1    0    1
 -2   1000179   1000182   1000419   1000416   1000181   1000184   1000421   1000418
 -1        91    1    0    1
 -2   1000182   1000185   1000422   1000419   1000184   1000187   1000424   1000421
 -1        92    1    0    1
 -2   1000185   1000188   1000425   1000422   1000187   1000190   1000427   1000424
 -1        93    1    0    1
 -2   1000188   1000191   1000428   1000425   1000190   1000193   1000430   1000427
 -1        94    1    0    1
 -2   1000191   1000194   1000431   1000428   1000193   1000196   1000433   1000430
 -1        95    1    0    1
 -2   1000194   1000197   1000434   1000431   1000196   1000199   1000436   1000433
 -1        96    1    0    1
 -2   1000197   1000200   1000437   1000434   1000199   1000202   1000439   1000436
 -1        97    1    0    1
 -2   1000200   1000203   1000440   1000437   1000202   1000205   1000442   1000439
 -1        98    1    0    1
 -2   1000203   1000206   1000443   1000440   1000205   1000208   1000445   1000442
 -1        99    1    0    1
 -2   1000206   1000209   1000446   1000443   1000208   1000211   1000448   1000445
 -1       100    1    0    1
 -2   1000209   1000212   1000449   1000446   1000211   1000214   1000451   1000448
 -1       101    1    0    1
 -2   1000212   1000215   1000452   1000449   1000214   1000217   1000454   1000451
 -1       102    1    0    1
 -2   1000215   1000218   1000455   1000452   1000217   1000220   1000457   1000454
 -1       103    1    0    1
 -2   1000218   1000221   1000458   1000455   1000220   1000223   1000460   1000457
 -1       104    1    0    1
 -2   1000221   1000224   1000461   1000458   1000223   1000226   1000463   1000460
 -1       105    1    0    1
 -2   1000224   1000227   1000464   1000461   1000226   1000229   1000466   1000463
 -1       106    1    0    1
 -2   1000227   1000230   1000467   1000464   1000229   1000232   1000469   1000466
 -1       107    1    0    1
 -2   1000230   1000233   1000470   1000467   1000232   1000235   1000472   1000469
 -1       108    1    0    1
 -2   1000233   1000236   1000473   1000470   1000235   1000238   1000475   1000472
 -1       109    1    0    1
 -2   1000236   1000239   1000476   1000473   1000238   1000241   1000478   1000475
 -1       110    1    0    1
 -2   1000239   1000242   1000479   1000476   1000241   1000244   1000481   1000478
 -1       111    1    0    1
 -2   1000242   1000005   1000245   1000479   1000244   1000007   1000247   1000481
 -1       112    1    0    1
 -2   1000008   1000332   1000482   1000011   1000010   1000334   1000484   1000013
 -1       113    1    0    1
 -2   1000332   1000335   1000485   1000482   1000334   1000337   1000487   1000484
 -1       114    1    0    1
 -2   1000335   1000338   1000488   1000485   1000337   1000340   1000490   1000487
 -1       115    1    0    1
 -2   1000338   1000341   1000491   1000488   1000340   1000343   1000493   1000490
 -1       116    1    0    1
 -2   1000341   1000344   1000494   1000491   1000343   1000346   1000496   1000493
 -1       117    1    0    1
 -2   1000344   1000347   1000497   1000494   1000346   1000349   1000499   1000496
 -1       118    1    0    1
 -2   1000347   1000350   1000500   1000497   1000349   1000352   1000502   1000499
 -1       119    1    0    1
 -2   1000350   1000353   1000503   1000500   1000352   1000355   1000505   1000502
 -1       120    1    0    1
 -2   1000353   1000356   1000506   1000503   1000355   1000358   1000508   1000505
 -1       121    1    0    1
 -2   1000356   1000359   1000509   1000506   1000358   1000361   1000511   1000508
 -1       122    1    0    1
 -2   1000359   1000362   1000512   1000509   1000361   1000364   1000514   1000511
 -1       123    1    0    1
 -2   1000362   1000365   1000515   1000512   1000364   1000367   1000517   1000514
 -1       124    1    0    1
 -2   1000365   1000368   1000518   1000515   1000367   1000370   1000520   1000517
 -1       125    1    0    1
 -2   1000368   1000371   1000521   1000518   1000370   1000373   1000523   1000520
 -1       126    1    0    1
 -2   1000371   1000374   1000524   1000521   1000373   1000376   1000526   1000523
 -1       127    1    0    1
 -2   1000374   1000377   1000527   1000524   1000376   1000379   1000529   1000526
 -1       128    1    0    1
 -2   1000377   1000380   1000530   1000527   1000379   1000382   1000532   1000529
 -1       129    1    0    1
 -2   1000380   1000383   1000533   1000530   1000382   1000385   1000535   1000532
 -1       130    1    0    1
 -2   1000383   1000386   1000536   1000533   1000385   1000388   1000538   1000535
 -1       131    1    0    1
 -2   1000386   1000389   1000539   1000536   1000388   1000391   1000541   1000538
 -1       132    1    0    1
 -2   1000389   1000392   1000542   1000539   1000391   1000394   1000544   1000541
 -1       133    1    0    1
 -2   1000392   1000395   1000545   1000542   1000394   1000397   1000547   1000544
 -1       134    1    0    1
 -2   1000395   1000398   1000548   1000545   1000397   1000400   1000550   1000547
 -1       135    1    0    1
 -2   1000398   1000401   1000551   1000548   1000400   1000403   1000553   1000550
 -1       136    1    0    1
 -2   1000401   1000404   1000554   1000551   1000403   1000406   1000556   1000553
 -1       137    1    0    1
 -2   1000404   1000407   1000557   1000554   1000406   1000409   1000559   1000556
 -1       138    1    0    1
 -2   1000407   1000410   1000560   1000557   1000409   1000412   1000562   1000559
 -1       139    1    0    1
 -2   1000410   1000413   1000563   1000560   1000412   1000415   1000565   1000562
 -1       140    1    0    1
 -2   1000413   1000416   1000566   1000563   1000415   1000418   1000568   1000565
 -1       141    1    0    1
 -2   1000416   1000419   1000569   1000566   1000418   1000421   1000571   1000568
 -1       142    1    0    1
 -2   1000419   1000422   1000572   1000569   1000421   1000424   1000574   1000571
 -1       143    1    0    1
 -2   1000422   1000425   1000575   1000572   1000424   1000427   1000577   1000574
 -1       144    1    0    1
 -2   1000425   1000428   1000578   1000575   1000427   1000430   1000580   1000577
 -1       145    1    0    1
 -2   1000428   1000431   1000581   1000578   1000430   1000433   1000583   1000580
 -1       146    1    0    1
 -2   1000431   1000434   1000584   1000581   1000433   1000436   1000586   1000583
 -1       147    1    0    1
 -2   1000434   1000437   1000587   1000584   1000436   1000439   1000589   1000586
 -1       148    1    0    1
 -2   1000437   1000440   1000590   1000587   1000439   1000442   1000592   1000589
 -1       149    1    0    1
 -2   1000440   1000443   1000593   1000590   1000442   1000445   1000595   1000592
 -1       150    1    0    1
 -2   1000443   1000446   1000596   1000593   1000445   1000448   1000598   1000595
 -1       151    1    0    1
 -2   1000446   1000449   1000599   1000596   1000448   1000451   1000601   1000598
 -1       152    1    0    1
 -2   1000449   1000452   1000602   1000599   1000451   1000454   1000604   1000601
 -1       153    1    0    1
 -2   1000452   1000455   1000605   1000602   1000454   1000457   1000607   1000604
 -1       154    1    0    1
 -2   1000455   1000458   1000608   1000605   1000457   1000460   1000610   1000607
 -1       155    1    0    1
 -2   1000458   1000461   1000611   1000608   1000460   1000463   1000613   1000610
 -1       156    1    0    1
 -2   1000461   1000464   1000614   1000611   1000463   1000466   1000616   1000613
 -1       157    1    0    1
 -2   1000464   1000467   1000617   1000614   1000466   1000469   1000619   1000616
 -1       158    1    0    1
 -2   1000467   1000470   1000620   1000617   1000469   1000472   1000622   1000619
 -1       159    1    0    1
 -2   1000470   1000473   1000623   1000620   1000472   1000475   1000625   1000622
 -1       160    1    0    1
 -2   1000473   1000476   1000626   1000623   1000475   1000478   1000628   1000625
 -1       161    1    0    1
 -2   1000476   1000479   1000629   1000626   1000478   1000481   1000631   1000628
 -1       162    1    0    1
 -2   1000479   1000245   1000248   1000629   1000481   1000247   1000250   1000631
 -1       163    1    0    1
 -2   1000011   1000482   1000632   1000014   1000013   1000484   1000634   1000016
 -1       164    1    0    1
 -2   1000482   1000485   1000635   1000632   1000484   1000487   1000637   1000634
 -1       165    1    0    1
 -2   1000485   1000488   1000638   1000635   1000487   1000490   1000640   1000637
 -1       166    1    0    1
 -2   1000488   1000491   1000641   1000638   1000490   1000493   1000643   1000640
 -1       167    1    0    1
 -2   1000491   1000494   1000644   1000641   1000493   1000496   1000646   1000643
 -1       168    1    0    1
 -2   1000494   1000497   1000647   1000644   1000496   1000499   1000649   1000646
 -1       169    1    0    1
 -2   1000497   1000500   1000650   1000647   1000499   1000502   1000652   1000649
 -1       170    1    0    1
 -2   1000500   1000503   1000653   1000650   1000502   1000505   1000655   1000652
 -1       171    1    0    1
 -2   1000503   1000506   1000656   1000653   1000505   1000508   1000658   1000655
 -1       172    1    0    1
 -2   1000506   1000509   1000659   1000656   1000508   1000511   1000661   1000658
 -1       173    1    0    1
 -2   1000509   1000512   1000662   1000659   1000511   1000514   1000664   1000661
 -1       174    1    0    1
 -2   1000512   1000515   1000665   1000662   1000514   1000517   1000667   1000664
 -1       175    1    0    1
 -2   1000515   1000518   1000668   1000665   1000517   1000520   1000670   1000667
 -1       176    1    0    1
 -2   1000518   1000521   1000671   1000668   1000520   1000523   1000673   1000670
 -1       177    1    0    1
 -2   1000521   1000524   1000674   1000671   1000523   1000526   1000676   1000673
 -1       178    1    0    1
 -2   1000524   1000527   1000677   1000674   1000526   1000529   1000679   1000676
 -1       179    1    0    1
 -2   1000527   1000530   1000680   1000677   1000529   1000532   1000682   1000679
 -1       180    1    0    1
 -2   1000530   1000533   1000683   1000680   1000532   1000535   1000685   1000682
 -1       181    1    0    1
 -2   1000533   1000536   1000686   1000683   1000535   1000538   1000688   1000685
 -1       182    1    0    1
 -2   1000536   1000539   1000689   1000686   1000538   1000541   1000691   1000688
 -1       183    1    0    1
 -2   1000539   1000542   1000692   1000689   1000541   1000544   1000694   1000691
 -1       184    1    0    1
 -2   1000542   1000545   1000695   1000692   1000544   1000547   1000697   1000694
 -1       185    1    0    1
 -2   1000545   1000548   1000698   1000695   1000547   1000550   1000700   1000697
 -1       186    1    0    1
 -2   1000548   1000551   1000701   1000698   1000550   1000553   1000703   1000700
 -1       187    1    0    1
 -2   1000551   1000554   1000704   1000701   1000553   1000556   1000706   1000703
 -1       188    1    0    1
 -2   1000554   1000557   1000707   1000704   1000556   1000559   1000709   1000706
 -1       189    1    0    1
 -2   1000557   1000560   1000710   1000707   1000559   1000562   1000712   1000709
 -1       190    1    0    1
 -2   1000560   1000563   1000713   1000710   1000562   1000565   1000715   1000712
 -1       191    1    0    1
 -2   1000563   1000566   1000716   1000713   1000565   1000568   1000718   1000715
 -1       192    1    0    1
 -2   1000566   1000569   1000719   1000716   1000568   1000571   1000721   1000718
 -1       193    1    0    1
 -2   1000569   1000572   1000722   1000719   1000571   1000574   1000724   1000721
 -1       194    1    0    1
 -2   1000572   1000575   1000725   1000722   1000574   1000577   1000727   1000724
 -1       195    1    0    1
 -2   1000575   1000578   1000728   1000725   1000577   1000580   1000730   1000727
 -1       196    1    0    1
 -2   1000578   1000581   1000731   1000728   1000580   1000583   1000733   1000730
 -1       197    1    0    1
 -2   1000581   1000584   1000734   1000731   1000583   1000586   1000736   1000733
 -1       198    1    0    1
 -2   1000584   1000587   1000737   1000734   1000586   1000589   1000739   1000736
 -1       199    1    0    1
 -2   1000587   1000590   1000740   1000737   1000589   1000592   1000742   1000739
 -1       200    1    0    1
 -2   1000590   1000593   1000743   1000740   1000592   1000595   1000745   1000742
 -1       201    1    0    1
 -2   1000593   1000596   1000746   1000743   1000595   1000598   1000748   1000745
 -1       202    1    0    1
 -2   1000596   1000599   1000749   1000746   1000598   1000601   1000751   1000748
 -1       203    1    0    1
 -2   1000599   1000602   1000752   1000749   1000601   1000604   1000754   1000751
 -1       204    1    0    1
 -2   1000602   1000605   1000755   1000752   1000604   1000607   1000757   1000754
 -1       205    1    0    1
 -2   1000605   1000608   1000758   1000755   1000607   1000610   1000760   1000757
 -1       206    1    0    1
 -2   1000608   1000611   1000761   1000758   1000610   1000613   1000763   1000760
 -1       207    1    0    1
 -2   1000611   1000614   1000764   1000761   1000613   1000616   1000766   1000763
 -1       208    1    0    1
 -2   1000614   1000617   1000767   1000764   1000616   1000619   1000769   1000766
 -1       209    1    0    1
 -2   1000617   1000620   1000770   1000767   1000619   1000622   1000772   1000769
 -1       210    1    0    1
 -2   1000620   1000623   1000773   1000770   1000622   1000625   1000775   1000772
 -1       211    1    0    1
 -2   1000623   1000626   1000776   1000773   1000625   1000628   1000778   1000775
 -1       212    1    0    1
 -2   1000626   1000629   1000779   1000776   1000628   1000631   1000781   1000778
 -1       213    1    0    1
 -2   1000629   1000248   1000251   1000779   1000631   1000250   1000253   1000781
 -1       214    1    0    1
 -2   1000014   1000632   1000782   1000017   1000016   1000634   1000784   1000019
 -1       215    1    0    1
 -2   1000632   1000635   1000785   1000782   1000634   1000637   1000787   1000784
 -1       216    1    0    1
 -2   1000635   1000638   1000788   1000785   1000637   1000640   1000790   1000787
 -1       217    1    0    1
 -2   1000638   1000641   1000791   1000788   1000640   1000643   1000793   1000790
 -1       218    1    0    1
 -2   1000641   1000644   1000794   1000791   1000643   1000646   1000796   1000793
 -1       219    1    0    1
 -2   1000644   1000647   1000797   1000794   1000646   1000649   1000799   1000796
 -1       220    1    0    1
 -2   1000647   1000650   1000800   1000797   1000649   1000652   1000802   1000799
 -1       221    1    0    1
 -2   1000650   1000653   1000803   1000800   1000652   1000655   1000805   1000802
 -1       222    1    0    1
 -2   1000653   1000656   1000806   1000803   1000655   1000658   1000808   1000805
 -1       223    1    0    1
 -2   1000656   1000659   1000809   1000806   1000658   1000661   1000811   1000808
 -1       224    1    0    1
 -2   1000659   1000662   1000812   1000809   1000661   1000664   1000814   1000811
 -1       225    1    0    1
 -2   1000662   1000665   1000815   1000812   1000664   1000667   1000817   1000814
 -1       226    1    0    1
 -2   1000665   1000668   1000818   1000815   1000667   1000670   1000820   1000817
 -1       227    1    0    1
 -2   1000668   1000671   1000821   1000818   1000670   1000673   1000823   1000820
 -1       228    1    0    1
 -2   1000671   1000674   1000824   1000821   1000673   1000676   1000826   1000823
 -1       229    1    0    1
 -2   1000674   1000677   1000827   1000824   1000676   1000679   1000829   1000826
 -1       230    1    0    1
 -2   1000677   1000680   1000830   1000827   1000679   1000682   1000832   1000829
 -1       231    1    0    1
 -2   1000680   1000683   1000833   1000830   1000682   1000685   1000835   1000832
 -1       232    1    0    1
 -2   1000683   1000686   1000836   1000833   1000685   1000688   1000838   1000835
 -1       233    1    0    1
 -2   1000686   1000689   1000839   1000836   1000688   1000691   1000841   1000838
 -1       234    1    0    1
 -2   1000689   1000692   1000842   1000839   1000691   1000694   1000844   1000841
 -1       235    1    0    1
 -2   1000692   1000695   1000845   1000842   1000694   1000697   1000847   1000844
 -1       236    1    0    1
 -2   1000695   1000698   1000848   1000845   1000697   1000700   1000850   1000847
 -1       237    1    0    1
 -2   1000698   1000701   1000851   1000848   1000700   1000703   1000853   1000850
 -1       238    1    0    1
 -2   1000701   1000704   1000854   1000851   1000703   1000706   1000856   1000853
 -1       239    1    0    1
 -2   1000704   1000707   1000857   1000854   1000706   1000709   1000859   1000856
 -1       240    1    0    1
 -2   1000707   1000710   1000860   1000857   1000709   1000712   1000862   1000859
 -1       241    1    0    1
 -2   1000710   1000713   1000863   1000860   1000712   1000715   1000865   1000862
 -1       242    1    0    1
 -2   1000713   1000716   1000866   1000863   1000715   1000718   1000868   1000865
 -1       243    1    0    1
 -2   1000716   1000719   1000869   1000866   1000718   1000721   1000871   1000868
 -1       244    1    0    1
 -2   1000719   1000722   1000872   1000869   1000721   1000724   1000874   1000871
 -1       245    1    0    1
 -2   1000722   1000725   1000875   1000872   1000724   1000727   1000877   1000874
 -1       246    1    0    1
 -2   1000725   1000728   1000878   1000875   1000727   1000730   1000880   1000877
 -1       247    1    0    1
 -2   1000728   1000731   1000881   1000878   1000730   1000733   1000883   1000880
 -1       248    1    0    1
 -2   1000731   1000734   1000884   1000881   1000733   1000736   1000886   1000883
 -1       249    1    0    1
 -2   1000734   1000737   1000887   1000884   1000736   1000739   1000889   1000886
 -1       250    1    0    1
 -2   1000737   1000740   1000890   1000887   1000739   1000742   1000892   1000889
 -1       251    1    0    1
 -2   1000740   1000743   1000893   1000890   1000742   1000745   1000895   1000892
 -1       252    1    0    1
 -2   1000743   1000746   1000896   1000893   1000745   1000748   1000898   1000895
 -1       253    1    0    1
 -2   1000746   1000749   1000899   1000896   1000748   1000751   1000901   1000898
 -1       254    1    0    1
 -2   1000749   1000752   1000902   1000899   1000751   1000754   1000904   1000901
 -1       255    1    0    1
 -2   1000752   1000755   1000905   1000902   1000754   1000757   1000907   1000904
 -1       256    1    0    1
 -2   1000755   1000758   1000908   1000905   1000757   1000760   1000910   1000907
 -1       257    1    0    1
 -2   1000758   1000761   1000911   1000908   1000760   1000763   1000913   1000910
 -1       258    1    0    1
 -2   1000761   1000764   1000914   1000911   1000763   1000766   1000916   1000913
 -1       259    1    0    1
 -2   1000764   1000767   1000917   1000914   1000766   1000769   1000919   1000916
 -1       260    1    0    1
 -2   1000767   1000770   1000920   1000917   1000769   1000772   1000922   1000919
 -1       261    1    0    1
 -2   1000770   1000773   1000923   1000920   1000772   1000775   1000925   1000922
 -1       262    1    0    1
 -2   1000773   1000776   1000926   1000923   1000775   1000778   1000928   1000925
 -1       263    1    0    1
 -2   1000776   1000779   1000929   1000926   1000778   1000781   1000931   1000928
 -1       264    1    0    1
 -2   1000779   1000251   1000254   1000929   1000781   1000253   1000256   1000931
 -1       265    1    0    1
 -2   1000017   1000782   1000932   1000020   1000019   1000784   1000934   1000022
 -1       266    1    0    1
 -2   1000782   1000785   1000935   1000932   1000784   1000787   1000937   1000934
 -1       267    1    0    1
 -2   1000785   1000788   1000938   1000935   1000787   1000790   1000940   1000937
 -1       268    1    0    1
 -2   1000788   1000791   1000941   1000938   1000790   1000793   1000943   1000940
 -1       269    1    0    1
 -2   1000791   1000794   1000944   1000941   1000793   1000796   1000946   1000943
 -1       270    1    0    1
 -2   1000794   1000797   1000947   1000944   1000796   1000799   1000949   1000946
 -1       271    1    0    1
 -2   1000797   1000800   1000950   1000947   1000799   1000802   1000952   1000949
 -1       272    1    0    1
 -2   1000800   1000803   1000953   1000950   1000802   1000805   1000955   1000952
 -1       273    1    0    1
 -2   1000803   1000806   1000956   1000953   1000805   1000808   1000958   1000955
 -1       274    1    0    1
 -2   1000806   1000809   1000959   1000956   1000808   1000811   1000961   1000958
 -1       275    1    0    1
 -2   1000809   1000812   1000962   1000959   1000811   1000814   1000964   1000961
 -1       276    1    0    1
 -2   1000812   1000815   1000965   1000962   1000814   1000817   1000967   1000964
 -1       277    1    0    1
 -2   1000815   1000818   1000968   1000965   1000817   1000820   1000970   1000967
 -1       278    1    0    1
 -2   1000818   1000821   1000971   1000968   1000820   1000823   1000973   1000970
 -1       279    1    0    1
 -2   1000821   1000824   1000974   1000971   1000823   1000826   1000976   1000973
 -1       280    1    0    1
 -2   1000824   1000827   1000977   1000974   1000826   1000829   1000979   1000976
 -1       281    1    0    1
 -2   1000827   1000830   1000980   1000977   1000829   1000832   1000982   1000979
 -1       282    1    0    1
 -2   1000830   1000833   1000983   1000980   1000832   1000835   1000985   1000982
 -1       283    1    0    1
 -2   1000833   1000836   1000986   1000983   1000835   1000838   1000988   1000985
 -1       284    1    0    1
 -2   1000836   1000839   1000989   1000986   1000838   1000841   1000991   1000988
 -1       285    1    0    1
 -2   1000839   1000842   1000992   1000989   1000841   1000844   1000994   1000991
 -1       286    1    0    1
 -2   1000842   1000845   1000995   1000992   1000844   1000847   1000997   1000994
 -1       287    1    0    1
 -2   1000845   1000848   1000998   1000995   1000847   1000850   1001000   1000997
 -1       288    1    0    1
 -2   1000848   1000851   1001001   1000998   1000850   1000853   1001003   1001000
 -1       289    1    0    1
 -2   1000851   1000854   1001004   1001001   1000853   1000856   1001006   1001003
 -1       290    1    0    1
 -2   1000854   1000857   1001007   1001004   1000856   1000859   1001009   1001006
 -1       291    1    0    1
 -2   1000857   1000860   1001010   1001007   1000859   1000862   1001012   1001009
 -1       292    1    0    1
 -2   1000860   1000863   1001013   1001010   1000862   1000865   1001015   1001012
 -1       293    1    0    1
 -2   1000863   1000866   1001016   1001013   1000865   1000868   1001018   1001015
 -1       294    1    0    1
 -2   1000866   1000869   1001019   1001016   1000868   1000871   1001021   1001018
 -1       295    1    0    1
 -2   1000869   1000872   1001022   1001019   1000871   1000874   1001024   1001021
 -1       296    1    0    1
 -2   1000872   1000875   1001025   1001022   1000874   1000877   1001027   1001024
 -1       297    1    0    1
 -2   1000875   1000878   1001028   1001025   1000877   1000880   1001030   1001027
 -1       298    1    0    1
 -2   1000878   1000881   1001031   1001028   1000880   1000883   1001033   1001030
 -1       299    1    0    1
 -2   1000881   1000884   1001034   1001031   1000883   1000886   1001036   1001033
 -1       300    1    0    1
 -2   1000884   1000887   1001037   1001034   1000886   1000889   1001039   1001036
 -1       301    1    0    1
 -2   1000887   1000890   1001040   1001037   1000889   1000892   1001042   1001039
 -1       302    1    0    1
 -2   1000890   1000893   1001043   1001040   1000892   1000895   1001045   1001042
 -1       303    1    0    1
 -2   1000893   1000896   1001046   1001043   1000895   1000898   1001048   1001045
 -1       304    1    0    1
 -2   1000896   1000899   1001049   1001046   1000898   1000901   1001051   1001048
 -1       305    1    0    1
 -2   1000899   1000902   1001052   1001049   1000901   1000904   1001054   1001051
 -1       306    1    0    1
 -2   1000902   1000905   1001055   1001052   1000904   1000907   1001057   1001054
 -1       307    1    0    1
 -2   1000905   1000908   1001058   1001055   1000907   1000910   1001060   1001057
 -1       308    1    0    1
 -2   1000908   1000911   1001061   1001058   1000910   1000913   1001063   1001060
 -1       309    1    0    1
 -2   1000911   1000914   1001064   1001061   1000913   1000916   1001066   1001063
 -1       310    1    0    1
 -2   1000914   1000917   1001067   1001064   1000916   1000919   1001069   1001066
 -1       311    1    0    1
 -2   1000917   1000920   1001070   1001067   1000919   1000922   1001072   1001069
 -1       312    1    0    1
 -2   1000920   1000923   1001073   1001070   1000922   1000925   1001075   1001072
 -1       313    1    0    1
 -2   1000923   1000926   1001076   1001073   1000925   1000928   1001078   1001075
 -1       314    1    0    1
 -2   1000926   1000929   1001079   1001076   1000928   1000931   1001081   1001078
 -1       315    1    0    1
 -2   1000929   1000254   1000257   1001079   1000931   1000256   1000259   1001081
 -1       316    1    0    1
 -2   1000020   1000932   1001082   1000023   1000022   1000934   1001084   1000025
 -1       317    1    0    1
 -2   1000932   1000935   1001085   1001082   1000934   1000937   1001087   1001084
 -1       318    1    0    1
 -2   1000935   1000938   1001088   1001085   1000937   1000940   1001090   1001087
 -1       319    1    0    1
 -2   1000938   1000941   1001091   1001088   1000940   1000943   1001093   1001090
 -1       320    1    0    1
 -2   1000941   1000944   1001094   1001091   1000943   1000946   1001096   1001093
 -1       321    1    0    1
 -2   1000944   1000947   1001097   1001094   1000946   1000949   1001099   1001096
 -1       322    1    0    1
 -2   1000947   1000950   1001100   1001097   1000949   1000952   1001102   1001099
 -1       323    1    0    1
 -2   1000950   1000953   1001103   1001100   1000952   1000955   1001105   1001102
 -1       324    1    0    1
 -2   1000953   1000956   1001106   1001103   1000955   1000958   1001108   1001105
 -1       325    1    0    1
 -2   1000956   1000959   1001109   1001106   1000958   1000961   1001111   1001108
 -1       326    1    0    1
 -2   1000959   1000962   1001112   1001109   1000961   1000964   1001114   1001111
 -1       327    1    0    1
 -2   1000962   1000965   1001115   1001112   1000964   1000967   1001117   1001114
 -1       328    1    0    1
 -2   1000965   1000968   1001118   1001115   1000967   1000970   1001120   1001117
 -1       329    1    0    1
 -2   1000968   1000971   1001121   1001118   1000970   1000973   1001123   1001120
 -1       330    1    0    1
 -2   1000971   1000974   1001124   1001121   1000973   1000976   1001126   1001123
 -1       331    1    0    1
 -2   1000974   1000977   1001127   1001124   1000976   1000979   1001129   1001126
 -1       332    1    0    1
 -2   1000977   1000980   1001130   1001127   1000979   1000982   1001132   1001129
 -1       333    1    0    1
 -2   1000980   1000983   1001133   1001130   1000982   1000985   1001135   1001132
 -1       334    1    0    1
 -2   1000983   1000986   1001136   1001133   1000985   1000988   1001138   1001135
 -1       335    1    0    1
 -2   1000986   1000989   1001139   1001136   1000988   1000991   1001141   1001138
 -1       336    1    0    1
 -2   1000989   1000992   1001142   1001139   1000991   1000994   1001144   1001141
 -1       337    1    0    1
 -2   1000992   1000995   1001145   1001142   1000994   1000997   1001147   1001144
 -1       338    1    0    1
 -2   1000995   1000998   1001148   1001145   1000997   1001000   1001150   1001147
 -1       339    1    0    1
 -2   1000998   1001001   1001151   1001148   1001000   1001003   1001153   1001150
 -1       340    1    0    1
 -2   1001001   1001004   1001154   1001151   1001003   1001006   1001156   1001153
 -1       341    1    0    1
 -2   1001004   1001007   1001157   1001154   1001006   1001009   1001159   1001156
 -1       342    1    0    1
 -2   1001007   1001010   1001160   1001157   1001009   1001012   1001162   1001159
 -1       343    1    0    1
 -2   1001010   1001013   1001163   1001160   1001012   1001015   1001165   1001162
 -1       344    1    0    1
 -2   1001013   1001016   1001166   1001163   1001015   1001018   1001168   1001165
 -1       345    1    0    1
 -2   1001016   1001019   1001169   1001166   1001018   1001021   1001171   1001168
 -1       346    1    0    1
 -2   1001019   1001022   1001172   1001169   1001021   1001024   1001174   1001171
 -1       347    1    0    1
 -2   1001022   1001025   1001175   1001172   1001024   1001027   1001177   1001174
 -1       348    1    0    1
 -2   1001025   1001028   1001178   1001175   1001027   1001030   1001180   1001177
 -1       349    1    0    1
 -2   1001028   1001031   1001181   1001178   1001030   1001033   1001183   1001180
 -1       350    1    0    1
 -2   1001031   1001034   1001184   1001181   1001033   1001036   1001186   1001183
 -1       351    1    0    1
 -2   1001034   1001037   1001187   1001184   1001036   1001039   1001189   1001186
 -1       352    1    0    1
 -2   1001037   1001040   1001190   1001187   1001039   1001042   1001192   1001189
 -1       353    1    0    1
 -2   1001040   1001043   1001193   1001190   1001042   1001045   1001195   1001192
 -1       354    1    0    1
 -2   1001043   1001046   1001196   1001193   1001045   1001048   1001198   1001195
 -1       355    1    0    1
 -2   1001046   1001049   1001199   1001196   1001048   1001051   1001201   1001198
 -1       356    1    0    1
 -2   1001049   1001052   1001202   1001199   1001051   1001054   1001204   1001201
 -1       357    1    0    1
 -2   1001052   1001055   1001205   1001202   1001054   1001057   1001207   1001204
 -1       358    1    0    1
 -2   1001055   1001058   1001208   1001205   1001057   1001060   1001210   1001207
 -1       359    1    0    1
 -2   1001058   1001061   1001211   1001208   1001060   1001063   1001213   1001210
 -1       360    1    0    1
 -2   1001061   1001064   1001214   1001211   1001063   1001066   1001216   1001213
 -1       361    1    0    1
 -2   1001064   1001067   1001217   1001214   1001066   1001069   1001219   1001216
 -1       362    1    0    1
 -2   1001067   1001070   1001220   1001217   1001069   1001072   1001222   1001219
 -1       363    1    0    1
 -2   1001070   1001073   1001223   1001220   1001072   1001075   1001225   1001222
 -1       364    1    0    1
 -2   1001073   1001076   1001226   1001223   1001075   1001078   1001228   1001225
 -1       365    1    0    1
 -2   1001076   1001079   1001229   1001226   1001078   1001081   1001231   1001228
 -1       366    1    0    1
 -2   1001079   1000257   1000260   1001229   1001081   1000259   1000262   1001231
 -1       367    1    0    1
 -2   1000023   1001082   1001232   1000026   1000025   1001084   1001234   1000028
 -1       368    1    0    1
 -2   1001082   1001085   1001235   1001232   1001084   1001087   1001237   1001234
 -1       369    1    0    1
 -2   1001085   1001088   1001238   1001235   1001087   1001090   1001240   1001237
 -1       370    1    0    1
 -2   1001088   1001091   1001241   1001238   1001090   1001093   1001243   1001240
 -1       371    1    0    1
 -2   1001091   1001094   1001244   1001241   1001093   1001096   1001246   1001243
 -1       372    1    0    1
 -2   1001094   1001097   1001247   1001244   1001096   1001099   1001249   1001246
 -1       373    1    0    1
 -2   1001097   1001100   1001250   1001247   1001099   1001102   1001252   1001249
 -1       374    1    0    1
 -2   1001100   1001103   1001253   1001250   1001102   1001105   1001255   1001252
 -1       375    1    0    1
 -2   1001103   1001106   1001256   1001253   1001105   1001108   1001258   1001255
 -1       376    1    0    1
 -2   1001106   1001109   1001259   1001256   1001108   1001111   1001261   1001258
 -1       377    1    0    1
 -2   1001109   1001112   1001262   1001259   1001111   1001114   1001264   1001261
 -1       378    1    0    1
 -2   1001112   1001115   1001265   1001262   1001114   1001117   1001267   1001264
 -1       379    1    0    1
 -2   1001115   1001118   1001268   1001265   1001117   1001120   1001270   1001267
 -1       380    1    0    1
 -2   1001118   1001121   1001271   1001268   1001120   1001123   1001273   1001270
 -1       381    1    0    1
 -2   1001121   1001124   1001274   1001271   1001123   1001126   1001276   1001273
 -1       382    1    0    1
 -2   1001124   1001127   1001277   1001274   1001126   1001129   1001279   1001276
 -1       383    1    0    1
 -2   1001127   1001130   1001280   1001277   1001129   1001132   1001282   1001279
 -1       384    1    0    1
 -2   1001130   1001133   1001283   1001280   1001132   1001135   1001285   1001282
 -1       385    1    0    1
 -2   1001133   1001136   1001286   1001283   1001135   1001138   1001288   1001285
 -1       386    1    0    1
 -2   1001136   1001139   1001289   1001286   1001138   1001141   1001291   1001288
 -1       387    1    0    1
 -2   1001139   1001142   1001292   1001289   1001141   1001144   1001294   1001291
 -1       388    1    0    1
 -2   1001142   1001145   1001295   1001292   1001144   1001147   1001297   1001294
 -1       389    1    0    1
 -2   1001145   1001148   1001298   1001295   1001147   1001150   1001300   1001297
 -1       390    1    0    1
 -2   1001148   1001151   1001301   1001298   1001150   1001153   1001303   1001300
 -1       391    1    0    1
 -2   1001151   1001154   1001304   1001301   1001153   1001156   1001306   1001303
 -1       392    1    0    1
 -2   1001154   1001157   1001307   1001304   1001156   1001159   1001309   1001306
 -1       393    1    0    1
 -2   1001157   1001160   1001310   1001307   1001159   1001162   1001312   1001309
 -1       394    1    0    1
 -2   1001160   1001163   1001313   1001310   1001162   1001165   1001315   1001312
 -1       395    1    0    1
 -2   1001163   1001166   1001316   1001313   1001165   1001168   1001318   1001315
 -1       396    1    0    1
 -2   1001166   1001169   1001319   1001316   1001168   1001171   1001321   1001318
 -1       397    1    0    1
 -2   1001169   1001172   1001322   1001319   1001171   1001174   1001324   1001321
 -1       398    1    0    1
 -2   1001172   1001175   1001325   1001322   1001174   1001177   1001327   1001324
 -1       399    1    0    1
 -2   1001175   1001178   1001328   1001325   1001177   1001180   1001330   1001327
 -1       400    1    0    1
 -2   1001178   1001181   1001331   1001328   1001180   1001183   1001333   1001330
 -1       401    1    0    1
 -2   1001181   1001184   1001334   1001331   1001183   1001186   1001336   1001333
 -1       402    1    0    1
 -2   1001184   1001187   1001337   1001334   1001186   1001189   1001339   1001336
 -1       403    1    0    1
 -2   1001187   1001190   1001340   1001337   1001189   1001192   1001342   1001339
 -1       404    1    0    1
 -2   1001190   1001193   1001343   1001340   1001192   1001195   1001345   1001342
 -1       405    1    0    1
 -2   1001193   1001196   1001346   1001343   1001195   1001198   1001348   1001345
 -1       406    1    0    1
 -2   1001196   1001199   1001349   1001346   1001198   1001201   1001351   1001348
 -1       407    1    0    1
 -2   1001199   1001202   1001352   1001349   1001201   1001204   1001354   1001351
 -1       408    1    0    1
 -2   1001202   1001205   1001355   1001352   1001204   1001207   1001357   1001354
 -1       409    1    0    1
 -2   1001205   1001208   1001358   1001355   1001207   1001210   1001360   1001357
 -1       410    1    0    1
 -2   1001208   1001211   1001361   1001358   1001210   1001213   1001363   1001360
 -1       411    1    0    1
 -2   1001211   1001214   1001364   1001361   1001213   1001216   1001366   1001363
 -1       412    1    0    1
 -2   1001214   1001217   1001367   1001364   1001216   1001219   1001369   1001366
 -1       413    1    0    1
 -2   1001217   1001220   1001370   1001367   1001219   1001222   1001372   1001369
 -1       414    1    0    1
 -2   1001220   1001223   1001373   1001370   1001222   1001225   1001375   1001372
 -1       415    1    0    1
 -2   1001223   1001226   1001376   1001373   1001225   1001228   1001378   1001375
 -1       416    1    0    1
 -2   1001226   1001229   1001379   1001376   1001228   1001231   1001381   1001378
 -1       417    1    0    1
 -2   1001229   1000260   1000263   1001379   1001231   1000262   1000265   1001381
 -1       418    1    0    1
 -2   1000026   1001232   1001382   1000029   1000028   1001234   1001384   1000031
 -1       419    1    0    1
 -2   1001232   1001235   1001385   1001382   1001234   1001237   1001387   1001384
 -1       420    1    0    1
 -2   1001235   1001238   1001388   1001385   1001237   1001240   1001390   1001387
 -1       421    1    0    1
 -2   1001238   1001241   1001391   1001388   1001240   1001243   1001393   1001390
 -1       422    1    0    1
 -2   1001241   1001244   1001394   1001391   1001243   1001246   1001396   1001393
 -1       423    1    0    1
 -2   1001244   1001247   1001397   1001394   1001246   1001249   1001399   1001396
 -1       424    1    0    1
 -2   1001247   1001250   1001400   1001397   1001249   1001252   1001402   1001399
 -1       425    1    0    1
 -2   1001250   1001253   1001403   1001400   1001252   1001255   1001405   1001402
 -1       426    1    0    1
 -2   1001253   1001256   1001406   1001403   1001255   1001258   1001408   1001405
 -1       427    1    0    1
 -2   1001256   1001259   1001409   1001406   1001258   1001261   1001411   1001408
 -1       428    1    0    1
 -2   1001259   1001262   1001412   1001409   1001261   1001264   1001414   1001411
 -1       429    1    0    1
 -2   1001262   1001265   1001415   1001412   1001264   1001267   1001417   1001414
 -1       430    1    0    1
 -2   1001265   1001268   1001418   1001415   1001267   1001270   1001420   1001417
 -1       431    1    0    1
 -2   1001268   1001271   1001421   1001418   1001270   1001273   1001423   1001420
 -1       432    1    0    1
 -2   1001271   1001274   1001424   1001421   1001273   1001276   1001426   1001423
 -1       433    1    0    1
 -2   1001274   1001277   1001427   1001424   1001276   1001279   1001429   1001426
 -1       434    1    0    1
 -2   1001277   1001280   1001430   1001427   1001279   1001282   1001432   1001429
 -1       435    1    0    1
 -2   1001280   1001283   1001433   1001430   1001282   1001285   1001435   1001432
 -1       436    1    0    1
 -2   1001283   1001286   1001436   1001433   1001285   1001288   1001438   1001435
 -1       437    1    0    1
 -2   1001286   1001289   1001439   1001436   1001288   1001291   1001441   1001438
 -1       438    1    0    1
 -2   1001289   1001292   1001442   1001439   1001291   1001294   1001444   1001441
 -1       439    1    0    1
 -2   1001292   1001295   1001445   1001442   1001294   1001297   1001447   1001444
 -1       440    1    0    1
 -2   1001295   1001298   1001448   1001445   1001297   1001300   1001450   1001447
 -1       441    1    0    1
 -2   1001298   1001301   1001451   1001448   1001300   1001303   1001453   1001450
 -1       442    1    0    1
 -2   1001301   1001304   1001454   1001451   1001303   1001306   1001456   1001453
 -1       443    1    0    1
 -2   1001304   1001307   1001457   1001454   1001306   1001309   1001459   1001456
 -1       444    1    0    1
 -2   1001307   1001310   1001460   1001457   1001309   1001312   1001462   1001459
 -1       445    1    0    1
 -2   1001310   1001313   1001463   1001460   1001312   1001315   1001465   1001462
 -1       446    1    0    1
 -2   1001313   1001316   1001466   1001463   1001315   1001318   1001468   1001465
 -1       447    1    0    1
 -2   1001316   1001319   1001469   1001466   1001318   1001321   1001471   1001468
 -1       448    1    0    1
 -2   1001319   1001322   1001472   1001469   1001321   1001324   1001474   1001471
 -1       449    1    0    1
 -2   1001322   1001325   1001475   1001472   1001324   1001327   1001477   1001474
 -1       450    1    0    1
 -2   1001325   1001328   1001478   1001475   1001327   1001330   1001480   1001477
 -1       451    1    0    1
 -2   1001328   1001331   1001481   1001478   1001330   1001333   1001483   1001480
 -1       452    1    0    1
 -2   1001331   1001334   1001484   1001481   1001333   1001336   1001486   1001483
 -1       453    1    0    1
 -2   1001334   1001337   1001487   1001484   1001336   1001339   1001489   1001486
 -1       454    1    0    1
 -2   1001337   1001340   1001490   1001487   1001339   1001342   1001492   1001489
 -1       455    1    0    1
 -2   1001340   1001343   1001493   1001490   1001342   1001345   1001495   1001492
 -1       456    1    0    1
 -2   1001343   1001346   1001496   1001493   1001345   1001348   1001498   1001495
 -1       457    1    0    1
 -2   1001346   1001349   1001499   1001496   1001348   1001351   1001501   1001498
 -1       458    1    0    1
 -2   1001349   1001352   1001502   1001499   1001351   1001354   1001504   1001501
 -1       459    1    0    1
 -2   1001352   1001355   1001505   1001502   1001354   1001357   1001507   1001504
 -1       460    1    0    1
 -2   1001355   1001358   1001508   1001505   1001357   1001360   1001510   1001507
 -1       461    1    0    1
 -2   1001358   1001361   1001511   1001508   1001360   1001363   1001513   1001510
 -1       462    1    0    1
 -2   1001361   1001364   1001514   1001511   1001363   1001366   1001516   1001513
 -1       463    1    0    1
 -2   1001364   1001367   1001517   1001514   1001366   1001369   1001519   1001516
 -1       464    1    0    1
 -2   1001367   1001370   1001520   1001517   1001369   1001372   1001522   1001519
 -1       465    1    0    1
 -2   1001370   1001373   1001523   1001520   1001372   1001375   1001525   1001522
 -1       466    1    0    1
 -2   1001373   1001376   1001526   1001523   1001375   1001378   1001528   1001525
 -1       467    1    0    1
 -2   1001376   1001379   1001529   1001526   1001378   1001381   1001531   1001528
 -1       468    1    0    1
 -2   1001379   1000263   1000266   1001529   1001381   1000265   1000268   1001531
 -1       469    1    0    1
 -2   1000029   1001382   1001532   1000032   1000031   1001384   1001534   1000034
 -1       470    1    0    1
 -2   1001382   1001385   1001535   1001532   1001384   1001387   1001537   1001534
 -1       471    1    0    1
 -2   1001385   1001388   1001538   1001535   1001387   1001390   1001540   1001537
 -1       472    1    0    1
 -2   1001388   1001391   1001541   1001538   1001390   1001393   1001543   1001540
 -1       473    1    0    1
 -2   1001391   1001394   1001544   1001541   1001393   1001396   1001546   1001543
 -1       474    1    0    1
 -2   1001394   1001397   1001547   1001544   1001396   1001399   1001549   1001546
 -1       475    1    0    1
 -2   1001397   1001400   1001550   1001547   1001399   1001402   1001552   1001549
 -1       476    1    0    1
 -2   1001400   1001403   1001553   1001550   1001402   1001405   1001555   1001552
 -1       477    1    0    1
 -2   1001403   1001406   1001556   1001553   1001405   1001408   1001558   1001555
 -1       478    1    0    1
 -2   1001406   1001409   1001559   1001556   1001408   1001411   1001561   1001558
 -1       479    1    0    1
 -2   1001409   1001412   1001562   1001559   1001411   1001414   1001564   1001561
 -1       480    1    0    1
 -2   1001412   1001415   1001565   1001562   1001414   1001417   1001567   1001564
 -1       481    1    0    1
 -2   1001415   1001418   1001568   1001565   1001417   1001420   1001570   1001567
 -1       482    1    0    1
 -2   1001418   1001421   1001571   1001568   1001420   1001423   1001573   1001570
 -1       483    1    0    1
 -2   1001421   1001424   1001574   1001571   1001423   1001426   1001576   1001573
 -1       484    1    0    1
 -2   1001424   1001427   1001577   1001574   1001426   1001429   1001579   1001576
 -1       485    1    0    1
 -2   1001427   1001430   1001580   1001577   1001429   1001432   1001582   1001579
 -1       486    1    0    1
 -2   1001430   1001433   1001583   1001580   1001432   1001435   1001585   1001582
 -1       487    1    0    1
 -2   1001433   1001436   1001586   1001583   1001435   1001438   1001588   1001585
 -1       488    1    0    1
 -2   1001436   1001439   1001589   1001586   1001438   1001441   1001591   1001588
 -1       489    1    0    1
 -2   1001439   1001442   1001592   1001589   1001441   1001444   1001594   1001591
 -1       490    1    0    1
 -2   1001442   1001445   1001595   1001592   1001444   1001447   1001597   1001594
 -1       491    1    0    1
 -2   1001445   1001448   1001598   1001595   1001447   1001450   1001600   1001597
 -1       492    1    0    1
 -2   1001448   1001451   1001601   1001598   1001450   1001453   1001603   1001600
 -1       493    1    0    1
 -2   1001451   1001454   1001604   1001601   1001453   1001456   1001606   1001603
 -1       494    1    0    1
 -2   1001454   1001457   1001607   1001604   1001456   1001459   1001609   1001606
 -1       495    1    0    1
 -2   1001457   1001460   1001610   1001607   1001459   1001462   1001612   1001609
 -1       496    1    0    1
 -2   1001460   1001463   1001613   1001610   1001462   1001465   1001615   1001612
 -1       497    1    0    1
 -2   1001463   1001466   1001616   1001613   1001465   1001468   1001618   1001615
 -1       498    1    0    1
 -2   1001466   1001469   1001619   1001616   1001468   1001471   1001621   1001618
 -1       499    1    0    1
 -2   1001469   1001472   1001622   1001619   1001471   1001474   1001624   1001621
 -1       500    1    0    1
 -2   1001472   1001475   1001625   1001622   1001474   1001477   1001627   1001624
 -1       501    1    0    1
 -2   1001475   1001478   1001628   1001625   1001477   1001480   1001630   1001627
 -1       502    1    0    1
 -2   1001478   1001481   1001631   1001628   1001480   1001483   1001633   1001630
 -1       503    1    0    1
 -2   1001481   1001484   1001634   1001631   1001483   1001486   1001636   1001633
 -1       504    1    0    1
 -2   1001484   1001487   1001637   1001634   1001486   1001489   1001639   1001636
 -1       505    1    0    1
 -2   1001487   1001490   1001640   1001637   1001489   1001492   1001642   1001639
 -1       506    1    0    1
 -2   1001490   1001493   1001643   1001640   1001492   1001495   1001645   1001642
 -1       507    1    0    1
 -2   1001493   1001496   1001646   1001643   1001495   1001498   1001648   1001645
 -1       508    1    0    1
 -2   1001496   1001499   1001649   1001646   1001498   1001501   1001651   1001648
 -1       509    1    0    1
 -2   1001499   1001502   1001652   1001649   1001501   1001504   1001654   1001651
 -1       510    1    0    1
 -2   1001502   1001505   1001655   1001652   1001504   1001507   1001657   1001654
 -1       511    1    0    1
 -2   1001505   1001508   1001658   1001655   1001507   1001510   1001660   1001657
 -1       512    1    0    1
 -2   1001508   1001511   1001661   1001658   1001510   1001513   1001663   1001660
 -1       513    1    0    1
 -2   1001511   1001514   1001664   1001661   1001513   1001516   1001666   1001663
 -1       514    1    0    1
 -2   1001514   1001517   1001667   1001664   1001516   1001519   1001669   1001666
 -1       515    1    0    1
 -2   1001517   1001520   1001670   1001667   1001519   1001522   1001672   1001669
 -1       516    1    0    1
 -2   1001520   1001523   1001673   1001670   1001522   1001525   1001675   1001672
 -1       517    1    0    1
 -2   1001523   1001526   1001676   1001673   1001525   1001528   1001678   1001675
 -1       518    1    0    1
 -2   1001526   1001529   1001679   1001676   1001528   1001531   1001681   1001678
 -1       519    1    0    1
 -2   1001529   1000266   1000269   1001679   1001531   1000268   1000271   1001681
 -1       520    1    0    1
 -2   1000032   1001532   1001682   1000035   1000034   1001534   1001684   1000037
 -1       521    1    0    1
 -2   1001532   1001535   1001685   1001682   1001534   1001537   1001687   1001684
 -1       522    1    0    1
 -2   1001535   1001538   1001688   1001685   1001537   1001540   1001690   1001687
 -1       523    1    0    1
 -2   1001538   1001541   1001691   1001688   1001540   1001543   1001693   1001690
 -1       524    1    0    1
 -2   1001541   1001544   1001694   1001691   1001543   1001546   1001696   1001693
 -1       525    1    0    1
 -2   1001544   1001547   1001697   1001694   1001546   1001549   1001699   1001696
 -1       526    1    0    1
 -2   1001547   1001550   1001700   1001697   1001549   1001552   1001702   1001699
 -1       527    1    0    1
 -2   1001550   1001553   1001703   1001700   1001552   1001555   1001705   1001702
 -1       528    1    0    1
 -2   1001553   1001556   1001706   1001703   1001555   1001558   1001708   1001705
 -1       529    1    0    1
 -2   1001556   1001559   1001709   1001706   1001558   1001561   1001711   1001708
 -1       530    1    0    1
 -2   1001559   1001562   1001712   1001709   1001561   1001564   1001714   1001711
 -1       531    1    0    1
 -2   1001562   1001565   1001715   1001712   1001564   1001567   1001717   1001714
 -1       532    1    0    1
 -2   1001565   1001568   1001718   1001715   1001567   1001570   1001720   1001717
 -1       533    1    0    1
 -2   1001568   1001571   1001721   1001718   1001570   1001573   1001723   1001720
 -1       534    1    0    1
 -2   1001571   1001574   1001724   1001721   1001573   1001576   1001726   1001723
 -1       535    1    0    1
 -2   1001574   1001577   1001727   1001724   1001576   1001579   1001729   1001726
 -1       536    1    0    1
 -2   1001577   1001580   1001730   1001727   1001579   1001582   1001732   1001729
 -1       537    1    0    1
 -2   1001580   1001583   1001733   1001730   1001582   1001585   1001735   1001732
 -1       538    1    0    1
 -2   1001583   1001586   1001736   1001733   1001585   1001588   1001738   1001735
 -1       539    1    0    1
 -2   1001586   1001589   1001739   1001736   1001588   1001591   1001741   1001738
 -1       540    1    0    1
 -2   1001589   1001592   1001742   1001739   1001591   1001594   1001744   1001741
 -1       541    1    0    1
 -2   1001592   1001595   1001745   1001742   1001594   1001597   1001747   1001744
 -1       542    1    0    1
 -2   1001595   1001598   1001748   1001745   1001597   1001600   1001750   1001747
 -1       543    1    0    1
 -2   1001598   1001601   1001751   1001748   1001600   1001603   1001753   1001750
 -1       544    1    0    1
 -2   1001601   1001604   1001754   1001751   1001603   1001606   1001756   1001753
 -1       545    1    0    1
 -2   1001604   1001607   1001757   1001754   1001606   1001609   1001759   1001756
 -1       546    1    0    1
 -2   1001607   1001610   1001760   1001757   1001609   1001612   1001762   1001759
 -1       547    1    0    1
 -2   1001610   1001613   1001763   1001760   1001612   1001615   1001765   1001762
 -1       548    1    0    1
 -2   1001613   1001616   1001766   1001763   1001615   1001618   1001768   1001765
 -1       549    1    0    1
 -2   1001616   1001619   1001769   1001766   1001618   1001621   1001771   1001768
 -1       550    1    0    1
 -2   1001619   1001622   1001772   1001769   1001621   1001624   1001774   1001771
 -1       551    1    0    1
 -2   1001622   1001625   1001775   1001772   1001624   1001627   1001777   1001774
 -1       552    1    0    1
 -2   1001625   1001628   1001778   1001775   1001627   1001630   1001780   1001777
 -1       553    1    0    1
 -2   1001628   1001631   1001781   1001778   1001630   1001633   1001783   1001780
 -1       554    1    0    1
 -2   1001631   1001634   1001784   1001781   1001633   1001636   1001786   1001783
 -1       555    1    0    1
 -2   1001634   1001637   1001787   1001784   1001636   1001639   1001789   1001786
 -1       556    1    0    1
 -2   1001637   1001640   1001790   1001787   1001639   1001642   1001792   1001789
 -1       557    1    0    1
 -2   1001640   1001643   1001793   1001790   1001642   1001645   1001795   1001792
 -1       558    1    0    1
 -2   1001643   1001646   1001796   1001793   1001645   1001648   1001798   1001795
 -1       559    1    0    1
 -2   1001646   1001649   1001799   1001796   1001648   1001651   1001801   1001798
 -1       560    1    0    1
 -2   1001649   1001652   1001802   1001799   1001651   1001654   1001804   1001801
 -1       561    1    0    1
 -2   1001652   1001655   1001805   1001802   1001654   1001657   1001807   1001804
 -1       562    1    0    1
 -2   1001655   1001658   1001808   1001805   1001657   1001660   1001810   1001807
 -1       563    1    0    1
 -2   1001658   1001661   1001811   1001808   1001660   1001663   1001813   1001810
 -1       564    1    0    1
 -2   1001661   1001664   1001814   1001811   1001663   1001666   1001816   1001813
 -1       565    1    0    1
 -2   1001664   1001667   1001817   1001814   1001666   1001669   1001819   1001816
 -1       566    1    0    1
 -2   1001667   1001670   1001820   1001817   1001669   1001672   1001822   1001819
 -1       567    1    0    1
 -2   1001670   1001673   1001823   1001820   1001672   1001675   1001825   1001822
 -1       568    1    0    1
 -2   1001673   1001676   1001826   1001823   1001675   1001678   1001828   1001825
 -1       569    1    0    1
 -2   1001676   1001679   1001829   1001826   1001678   1001681   1001831   1001828
 -1       570    1    0    1
 -2   1001679   1000269   1000272   1001829   1001681   1000271   1000274   1001831
 -1       571    1    0    1
 -2   1000035   1001682   1001832   1000038   1000037   1001684   1001834   1000040
 -1       572    1    0    1
 -2   1001682   1001685   1001835   1001832   1001684   1001687   1001837   1001834
 -1       573    1    0    1
 -2   1001685   1001688   1001838   1001835   1001687   1001690   1001840   1001837
 -1       574    1    0    1
 -2   1001688   1001691   1001841   1001838   1001690   1001693   1001843   1001840
 -1       575    1    0    1
 -2   1001691   1001694   1001844   1001841   1001693   1001696   1001846   1001843
 -1       576    1    0    1
 -2   1001694   1001697   1001847   1001844   1001696   1001699   1001849   1001846
 -1       577    1    0    1
 -2   1001697   1001700   1001850   1001847   1001699   1001702   1001852   1001849
 -1       578    1    0    1
 -2   1001700   1001703   1001853   1001850   1001702   1001705   1001855   1001852
 -1       579    1    0    1
 -2   1001703   1001706   1001856   1001853   1001705   1001708   1001858   1001855
 -1       580    1    0    1
 -2   1001706   1001709   1001859   1001856   1001708   1001711   1001861   1001858
 -1       581    1    0    1
 -2   1001709   1001712   1001862   1001859   1001711   1001714   1001864   1001861
 -1       582    1    0    1
 -2   1001712   1001715   1001865   1001862   1001714   1001717   1001867   1001864
 -1       583    1    0    1
 -2   1001715   1001718   1001868   1001865   1001717   1001720   1001870   1001867
 -1       584    1    0    1
 -2   1001718   1001721   1001871   1001868   1001720   1001723   1001873   1001870
 -1       585    1    0    1
 -2   1001721   1001724   1001874   1001871   1001723   1001726   1001876   1001873
 -1       586    1    0    1
 -2   1001724   1001727   1001877   1001874   1001726   1001729   1001879   1001876
 -1       587    1    0    1
 -2   1001727   1001730   1001880   1001877   1001729   1001732   1001882   1001879
 -1       588    1    0    1
 -2   1001730   1001733   1001883   1001880   1001732   1001735   1001885   1001882
 -1       589    1    0    1
 -2   1001733   1001736   1001886   1001883   1001735   1001738   1001888   1001885
 -1       590    1    0    1
 -2   1001736   1001739   1001889   1001886   1001738   1001741   1001891   1001888
 -1       591    1    0    1
 -2   1001739   1001742   1001892   1001889   1001741   1001744   1001894   1001891
 -1       592    1    0    1
 -2   1001742   1001745   1001895   1001892   1001744   1001747   1001897   1001894
 -1       593    1    0    1
 -2   1001745   1001748   1001898   1001895   1001747   1001750   1001900   1001897
 -1       594    1    0    1
 -2   1001748   1001751   1001901   1001898   1001750   1001753   1001903   1001900
 -1       595    1    0    1
 -2   1001751   1001754   1001904   1001901   1001753   1001756   1001906   1001903
 -1       596    1    0    1
 -2   1001754   1001757   1001907   1001904   1001756   1001759   1001909   1001906
 -1       597    1    0    1
 -2   1001757   1001760   1001910   1001907   1001759   1001762   1001912   1001909
 -1       598    1    0    1
 -2   1001760   1001763   1001913   1001910   1001762   1001765   1001915   1001912
 -1       599    1    0    1
 -2   1001763   1001766   1001916   1001913   1001765   1001768   1001918   1001915
 -1       600    1    0    1
 -2   1001766   1001769   1001919   1001916   1001768   1001771   1001921   1001918
 -1       601    1    0    1
 -2   1001769   1001772   1001922   1001919   1001771   1001774   1001924   1001921
 -1       602    1    0    1
 -2   1001772   1001775   1001925   1001922   1001774   1001777   1001927   1001924
 -1       603    1    0    1
 -2   1001775   1001778   1001928   1001925   1001777   1001780   1001930   1001927
 -1       604    1    0    1
 -2   1001778   1001781   1001931   1001928   1001780   1001783   1001933   1001930
 -1       605    1    0    1
 -2   1001781   1001784   1001934   1001931   1001783   1001786   1001936   1001933
 -1       606    1    0    1
 -2   1001784   1001787   1001937   1001934   1001786   1001789   1001939   1001936
 -1       607    1    0    1
 -2   1001787   1001790   1001940   1001937   1001789   1001792   1001942   1001939
 -1       608    1    0    1
 -2   1001790   1001793   1001943   1001940   1001792   1001795   1001945   1001942
 -1       609    1    0    1
 -2   1001793   1001796   1001946   1001943   1001795   1001798   1001948   1001945
 -1       610    1    0    1
 -2   1001796   1001799   1001949   1001946   1001798   1001801   1001951   1001948
 -1       611    1    0    1
 -2   1001799   1001802   1001952   1001949   1001801   1001804   1001954   1001951
 -1       612    1    0    1
 -2   1001802   1001805   1001955   1001952   1001804   1001807   1001957   1001954
 -1       613    1    0    1
 -2   1001805   1001808   1001958   1001955   1001807   1001810   1001960   1001957
 -1       614    1    0    1
 -2   1001808   1001811   1001961   1001958   1001810   1001813   1001963   1001960
 -1       615    1    0    1
 -2   1001811   1001814   1001964   1001961   1001813   1001816   1001966   1001963
 -1       616    1    0    1
 -2   1001814   1001817   1001967   1001964   1001816   1001819   1001969   1001966
 -1       617    1    0    1
 -2   1001817   1001820   1001970   1001967   1001819   1001822   1001972   1001969
 -1       618    1    0    1
 -2   1001820   1001823   1001973   1001970   1001822   1001825   1001975   1001972
 -1       619    1    0    1
 -2   1001823   1001826   1001976   1001973   1001825   1001828   1001978   1001975
 -1       620    1    0    1
 -2   1001826   1001829   1001979   1001976   1001828   1001831   1001981   1001978
 -1       621    1    0    1
 -2   1001829   1000272   1000275   1001979   1001831   1000274   1000277   1001981
 -1       622    1    0    1
 -2   1000038   1001832   1001982   1000041   1000040   1001834   1001984   1000043
 -1       623    1    0    1
 -2   1001832   1001835   1001985   1001982   1001834   1001837   1001987   1001984
 -1       624    1    0    1
 -2   1001835   1001838   1001988   1001985   1001837   1001840   1001990   1001987
 -1       625    1    0    1
 -2   1001838   1001841   1001991   1001988   1001840   1001843   1001993   1001990
 -1       626    1    0    1
 -2   1001841   1001844   1001994   1001991   1001843   1001846   1001996   1001993
 -1       627    1    0    1
 -2   1001844   1001847   1001997   1001994   1001846   1001849   1001999   1001996
 -1       628    1    0    1
 -2   1001847   1001850   1002000   1001997   1001849   1001852   1002002   1001999
 -1       629    1    0    1
 -2   1001850   1001853   1002003   1002000   1001852   1001855   1002005   1002002
 -1       630    1    0    1
 -2   1001853   1001856   1002006   1002003   1001855   1001858   1002008   1002005
 -1       631    1    0    1
 -2   1001856   1001859   1002009   1002006   1001858   1001861   1002011   1002008
 -1       632    1    0    1
 -2   1001859   1001862   1002012   1002009   1001861   1001864   1002014   1002011
 -1       633    1    0    1
 -2   1001862   1001865   1002015   1002012   1001864   1001867   1002017   1002014
 -1       634    1    0    1
 -2   1001865   1001868   1002018   1002015   1001867   1001870   1002020   1002017
 -1       635    1    0    1
 -2   1001868   1001871   1002021   1002018   1001870   1001873   1002023   1002020
 -1       636    1    0    1
 -2   1001871   1001874   1002024   1002021   1001873   1001876   1002026   1002023
 -1       637    1    0    1
 -2   1001874   1001877   1002027   1002024   1001876   1001879   1002029   1002026
 -1       638    1    0    1
 -2   1001877   1001880   1002030   1002027   1001879   1001882   1002032   1002029
 -1       639    1    0    1
 -2   1001880   1001883   1002033   1002030   1001882   1001885   1002035   1002032
 -1       640    1    0    1
 -2   1001883   1001886   1002036   1002033   1001885   1001888   1002038   1002035
 -1       641    1    0    1
 -2   1001886   1001889   1002039   1002036   1001888   1001891   1002041   1002038
 -1       642    1    0    1
 -2   1001889   1001892   1002042   1002039   1001891   1001894   1002044   1002041
 -1       643    1    0    1
 -2   1001892   1001895   1002045   1002042   1001894   1001897   1002047   1002044
 -1       644    1    0    1
 -2   1001895   1001898   1002048   1002045   1001897   1001900   1002050   1002047
 -1       645    1    0    1
 -2   1001898   1001901   1002051   1002048   1001900   1001903   1002053   1002050
 -1       646    1    0    1
 -2   1001901   1001904   1002054   1002051   1001903   1001906   1002056   1002053
 -1       647    1    0    1
 -2   1001904   1001907   1002057   1002054   1001906   1001909   1002059   1002056
 -1       648    1    0    1
 -2   1001907   1001910   1002060   1002057   1001909   1001912   1002062   1002059
 -1       649    1    0    1
 -2   1001910   1001913   1002063   1002060   1001912   1001915   1002065   1002062
 -1       650    1    0    1
 -2   1001913   1001916   1002066   1002063   1001915   1001918   1002068   1002065
 -1       651    1    0    1
 -2   1001916   1001919   1002069   1002066   1001918   1001921   1002071   1002068
 -1       652    1    0    1
 -2   1001919   1001922   1002072   1002069   1001921   1001924   1002074   1002071
 -1       653    1    0    1
 -2   1001922   1001925   1002075   1002072   1001924   1001927   1002077   1002074
 -1       654    1    0    1
 -2   1001925   1001928   1002078   1002075   1001927   1001930   1002080   1002077
 -1       655    1    0    1
 -2   1001928   1001931   1002081   1002078   1001930   1001933   1002083   1002080
 -1       656    1    0    1
 -2   1001931   1001934   1002084   1002081   1001933   1001936   1002086   1002083
 -1       657    1    0    1
 -2   1001934   1001937   1002087   1002084   1001936   1001939   1002089   1002086
 -1       658    1    0    1
 -2   1001937   1001940   1002090   1002087   1001939   1001942   1002092   1002089
 -1       659    1    0    1
 -2   1001940   1001943   1002093   1002090   1001942   1001945   1002095   1002092
 -1       660    1    0    1
 -2   1001943   1001946   1002096   1002093   1001945   1001948   1002098   1002095
 -1       661    1    0    1
 -2   1001946   1001949   1002099   1002096   1001948   1001951   1002101   1002098
 -1       662    1    0    1
 -2   1001949   1001952   1002102   1002099   1001951   1001954   1002104   1002101
 -1       663    1    0    1
 -2   1001952   1001955   1002105   1002102   1001954   1001957   1002107   1002104
 -1       664    1    0    1
 -2   1001955   1001958   1002108   1002105   1001957   1001960   1002110   1002107
 -1       665    1    0    1
 -2   1001958   1001961   1002111   1002108   1001960   1001963   1002113   1002110
 -1       666    1    0    1
 -2   1001961   1001964   1002114   1002111   1001963   1001966   1002116   1002113
 -1       667    1    0    1
 -2   1001964   1001967   1002117   1002114   1001966   1001969   1002119   1002116
 -1       668    1    0    1
 -2   1001967   1001970   1002120   1002117   1001969   1001972   1002122   1002119
 -1       669    1    0    1
 -2   1001970   1001973   1002123   1002120   1001972   1001975   1002125   1002122
 -1       670    1    0    1
 -2   1001973   1001976   1002126   1002123   1001975   1001978   1002128   1002125
 -1       671    1    0    1
 -2   1001976   1001979   1002129   1002126   1001978   1001981   1002131   1002128
 -1       672    1    0    1
 -2   1001979   1000275   1000278   1002129   1001981   1000277   1000280   1002131
 -1       673    1    0    1
 -2   1000041   1001982   1002132   1000044   1000043   1001984   1002134   1000046
 -1       674    1    0    1
 -2   1001982   1001985   1002135   1002132   1001984   1001987   1002137   1002134
 -1       675    1    0    1
 -2   1001985   1001988   1002138   1002135   1001987   1001990   1002140   1002137
 -1       676    1    0    1
 -2   1001988   1001991   1002141   1002138   1001990   1001993   1002143   1002140
 -1       677    1    0    1
 -2   1001991   1001994   1002144   1002141   1001993   1001996   1002146   1002143
 -1       678    1    0    1
 -2   1001994   1001997   1002147   1002144   1001996   1001999   1002149   1002146
 -1       679    1    0    1
 -2   1001997   1002000   1002150   1002147   1001999   1002002   1002152   1002149
 -1       680    1    0    1
 -2   1002000   1002003   1002153   1002150   1002002   1002005   1002155   1002152
 -1       681    1    0    1
 -2   1002003   1002006   1002156   1002153   1002005   1002008   1002158   1002155
 -1       682    1    0    1
 -2   1002006   1002009   1002159   1002156   1002008   1002011   1002161   1002158
 -1       683    1    0    1
 -2   1002009   1002012   1002162   1002159   1002011   1002014   1002164   1002161
 -1       684    1    0    1
 -2   1002012   1002015   1002165   1002162   1002014   1002017   1002167   1002164
 -1       685    1    0    1
 -2   1002015   1002018   1002168   1002165   1002017   1002020   1002170   1002167
 -1       686    1    0    1
 -2   1002018   1002021   1002171   1002168   1002020   1002023   1002173   1002170
 -1       687    1    0    1
 -2   1002021   1002024   1002174   1002171   1002023   1002026   1002176   1002173
 -1       688    1    0    1
 -2   1002024   1002027   1002177   1002174   1002026   1002029   1002179   1002176
 -1       689    1    0    1
 -2   1002027   1002030   1002180   1002177   1002029   1002032   1002182   1002179
 -1       690    1    0    1
 -2   1002030   1002033   1002183   1002180   1002032   1002035   1002185   1002182
 -1       691    1    0    1
 -2   1002033   1002036   1002186   1002183   1002035   1002038   1002188   1002185
 -1       692    1    0    1
 -2   1002036   1002039   1002189   1002186   1002038   1002041   1002191   1002188
 -1       693    1    0    1
 -2   1002039   1002042   1002192   1002189   1002041   1002044   1002194   1002191
 -1       694    1    0    1
 -2   1002042   1002045   1002195   1002192   1002044   1002047   1002197   1002194
 -1       695    1    0    1
 -2   1002045   1002048   1002198   1002195   1002047   1002050   1002200   1002197
 -1       696    1    0    1
 -2   1002048   1002051   1002201   1002198   1002050   1002053   1002203   1002200
 -1       697    1    0    1
 -2   1002051   1002054   1002204   1002201   1002053   1002056   1002206   1002203
 -1       698    1    0    1
 -2   1002054   1002057   1002207   1002204   1002056   1002059   1002209   1002206
 -1       699    1    0    1
 -2   1002057   1002060   1002210   1002207   1002059   1002062   1002212   1002209
 -1       700    1    0    1
 -2   1002060   1002063   1002213   1002210   1002062   1002065   1002215   1002212
 -1       701    1    0    1
 -2   1002063   1002066   1002216   1002213   1002065   1002068   1002218   1002215
 -1       702    1    0    1
 -2   1002066   1002069   1002219   1002216   1002068   1002071   1002221   1002218
 -1       703    1    0    1
 -2   1002069   1002072   1002222   1002219   1002071   1002074   1002224   1002221
 -1       704    1    0    1
 -2   1002072   1002075   1002225   1002222   1002074   1002077   1002227   1002224
 -1       705    1    0    1
 -2   1002075   1002078   1002228   1002225   1002077   1002080   1002230   1002227
 -1       706    1    0    1
 -2   1002078   1002081   1002231   1002228   1002080   1002083   1002233   1002230
 -1       707    1    0    1
 -2   1002081   1002084   1002234   1002231   1002083   1002086   1002236   1002233
 -1       708    1    0    1
 -2   1002084   1002087   1002237   1002234   1002086   1002089   1002239   1002236
 -1       709    1    0    1
 -2   1002087   1002090   1002240   1002237   1002089   1002092   1002242   1002239
 -1       710    1    0    1
 -2   1002090   1002093   1002243   1002240   1002092   1002095   1002245   1002242
 -1       711    1    0    1
 -2   1002093   1002096   1002246   1002243   1002095   1002098   1002248   1002245
 -1       712    1    0    1
 -2   1002096   1002099   1002249   1002246   1002098   1002101   1002251   1002248
 -1       713    1    0    1
 -2   1002099   1002102   1002252   1002249   1002101   1002104   1002254   1002251
 -1       714    1    0    1
 -2   1002102   1002105   1002255   1002252   1002104   1002107   1002257   1002254
 -1       715    1    0    1
 -2   1002105   1002108   1002258   1002255   1002107   1002110   1002260   1002257
 -1       716    1    0    1
 -2   1002108   1002111   1002261   1002258   1002110   1002113   1002263   1002260
 -1       717    1    0    1
 -2   1002111   1002114   1002264   1002261   1002113   1002116   1002266   1002263
 -1       718    1    0    1
 -2   1002114   1002117   1002267   1002264   1002116   1002119   1002269   1002266
 -1       719    1    0    1
 -2   1002117   1002120   1002270   1002267   1002119   1002122   1002272   1002269
 -1       720    1    0    1
 -2   1002120   1002123   1002273   1002270   1002122   1002125   1002275   1002272
 -1       721    1    0    1
 -2   1002123   1002126   1002276   1002273   1002125   1002128   1002278   1002275
 -1       722    1    0    1
 -2   1002126   1002129   1002279   1002276   1002128   1002131   1002281   1002278
 -1       723    1    0    1
 -2   1002129   1000278   1000281   1002279   1002131   1000280   1000283   1002281
 -1       724    1    0    1
 -2   1000044   1002132   1002282   1000047   1000046   1002134   1002284   1000049
 -1       725    1    0    1
 -2   1002132   1002135   1002285   1002282   1002134   1002137   1002287   1002284
 -1       726    1    0    1
 -2   1002135   1002138   1002288   1002285   1002137   1002140   1002290   1002287
 -1       727    1    0    1
 -2   1002138   1002141   1002291   1002288   1002140   1002143   1002293   1002290
 -1       728    1    0    1
 -2   1002141   1002144   1002294   1002291   1002143   1002146   1002296   1002293
 -1       729    1    0    1
 -2   1002144   1002147   1002297   1002294   1002146   1002149   1002299   1002296
 -1       730    1    0    1
 -2   1002147   1002150   1002300   1002297   1002149   1002152   1002302   1002299
 -1       731    1    0    1
 -2   1002150   1002153   1002303   1002300   1002152   1002155   1002305   1002302
 -1       732    1    0    1
 -2   1002153   1002156   1002306   1002303   1002155   1002158   1002308   1002305
 -1       733    1    0    1
 -2   1002156   1002159   1002309   1002306   1002158   1002161   1002311   1002308
 -1       734    1    0    1
 -2   1002159   1002162   1002312   1002309   1002161   1002164   1002314   1002311
 -1       735    1    0    1
 -2   1002162   1002165   1002315   1002312   1002164   1002167   1002317   1002314
 -1       736    1    0    1
 -2   1002165   1002168   1002318   1002315   1002167   1002170   1002320   1002317
 -1       737    1    0    1
 -2   1002168   1002171   1002321   1002318   1002170   1002173   1002323   1002320
 -1       738    1    0    1
 -2   1002171   1002174   1002324   1002321   1002173   1002176   1002326   1002323
 -1       739    1    0    1
 -2   1002174   1002177   1002327   1002324   1002176   1002179   1002329   1002326
 -1       740    1    0    1
 -2   1002177   1002180   1002330   1002327   1002179   1002182   1002332   1002329
 -1       741    1    0    1
 -2   1002180   1002183   1002333   1002330   1002182   1002185   1002335   1002332
 -1       742    1    0    1
 -2   1002183   1002186   1002336   1002333   1002185   1002188   1002338   1002335
 -1       743    1    0    1
 -2   1002186   1002189   1002339   1002336   1002188   1002191   1002341   1002338
 -1       744    1    0    1
 -2   1002189   1002192   1002342   1002339   1002191   1002194   1002344   1002341
 -1       745    1    0    1
 -2   1002192   1002195   1002345   1002342   1002194   1002197   1002347   1002344
 -1       746    1    0    1
 -2   1002195   1002198   1002348   1002345   1002197   1002200   1002350   1002347
 -1       747    1    0    1
 -2   1002198   1002201   1002351   1002348   1002200   1002203   1002353   1002350
 -1       748    1    0    1
 -2   1002201   1002204   1002354   1002351   1002203   1002206   1002356   1002353
 -1       749    1    0    1
 -2   1002204   1002207   1002357   1002354   1002206   1002209   1002359   1002356
 -1       750    1    0    1
 -2   1002207   1002210   1002360   1002357   1002209   1002212   1002362   1002359
 -1       751    1    0    1
 -2   1002210   1002213   1002363   1002360   1002212   1002215   1002365   1002362
 -1       752    1    0    1
 -2   1002213   1002216   1002366   1002363   1002215   1002218   1002368   1002365
 -1       753    1    0    1
 -2   1002216   1002219   1002369   1002366   1002218   1002221   1002371   1002368
 -1       754    1    0    1
 -2   1002219   1002222   1002372   1002369   1002221   1002224   1002374   1002371
 -1       755    1    0    1
 -2   1002222   1002225   1002375   1002372   1002224   1002227   1002377   1002374
 -1       756    1    0    1
 -2   1002225   1002228   1002378   1002375   1002227   1002230   1002380   1002377
 -1       757    1    0    1
 -2   1002228   1002231   1002381   1002378   1002230   1002233   1002383   1002380
 -1       758    1    0    1
 -2   1002231   1002234   1002384   1002381   1002233   1002236   1002386   1002383
 -1       759    1    0    1
 -2   1002234   1002237   1002387   1002384   1002236   1002239   1002389   1002386
 -1       760    1    0    1
 -2   1002237   1002240   1002390   1002387   1002239   1002242   1002392   1002389
 -1       761    1    0    1
 -2   1002240   1002243   1002393   1002390   1002242   1002245   1002395   1002392
 -1       762    1    0    1
 -2   1002243   1002246   1002396   1002393   1002245   1002248   1002398   1002395
 -1       763    1    0    1
 -2   1002246   1002249   1002399   1002396   1002248   1002251   1002401   1002398
 -1       764    1    0    1
 -2   1002249   1002252   1002402   1002399   1002251   1002254   1002404   1002401
 -1       765    1    0    1
 -2   1002252   1002255   1002405   1002402   1002254   1002257   1002407   1002404
 -1       766    1    0    1
 -2   1002255   1002258   1002408   1002405   1002257   1002260   1002410   1002407
 -1       767    1    0    1
 -2   1002258   1002261   1002411   1002408   1002260   1002263   1002413   1002410
 -1       768    1    0    1
 -2   1002261   1002264   1002414   1002411   1002263   1002266   1002416   1002413
 -1       769    1    0    1
 -2   1002264   1002267   1002417   1002414   1002266   1002269   1002419   1002416
 -1       770    1    0    1
 -2   1002267   1002270   1002420   1002417   1002269   1002272   1002422   1002419
 -1       771    1    0    1
 -2   1002270   1002273   1002423   1002420   1002272   1002275   1002425   1002422
 -1       772    1    0    1
 -2   1002273   1002276   1002426   1002423   1002275   1002278   1002428   1002425
 -1       773    1    0    1
 -2   1002276   1002279   1002429   1002426   1002278   1002281   1002431   1002428
 -1       774    1    0    1
 -2   1002279   1000281   1000284   1002429   1002281   1000283   1000286   1002431
 -1       775    1    0    1
 -2   1000047   1002282   1002432   1000050   1000049   1002284   1002434   1000052
 -1       776    1    0    1
 -2   1002282   1002285   1002435   1002432   1002284   1002287   1002437   1002434
 -1       777    1    0    1
 -2   1002285   1002288   1002438   1002435   1002287   1002290   1002440   1002437
 -1       778    1    0    1
 -2   1002288   1002291   1002441   1002438   1002290   1002293   1002443   1002440
 -1       779    1    0    1
 -2   1002291   1002294   1002444   1002441   1002293   1002296   1002446   1002443
 -1       780    1    0    1
 -2   1002294   1002297   1002447   1002444   1002296   1002299   1002449   1002446
 -1       781    1    0    1
 -2   1002297   1002300   1002450   1002447   1002299   1002302   1002452   1002449
 -1       782    1    0    1
 -2   1002300   1002303   1002453   1002450   1002302   1002305   1002455   1002452
 -1       783    1    0    1
 -2   1002303   1002306   1002456   1002453   1002305   1002308   1002458   1002455
 -1       784    1    0    1
 -2   1002306   1002309   1002459   1002456   1002308   1002311   1002461   1002458
 -1       785    1    0    1
 -2   1002309   1002312   1002462   1002459   1002311   1002314   1002464   1002461
 -1       786    1    0    1
 -2   1002312   1002315   1002465   1002462   1002314   1002317   1002467   1002464
 -1       787    1    0    1
 -2   1002315   1002318   1002468   1002465   1002317   1002320   1002470   1002467
 -1       788    1    0    1
 -2   1002318   1002321   1002471   1002468   1002320   1002323   1002473   1002470
 -1       789    1    0    1
 -2   1002321   1002324   1002474   1002471   1002323   1002326   1002476   1002473
 -1       790    1    0    1
 -2   1002324   1002327   1002477   1002474   1002326   1002329   1002479   1002476
 -1       791    1    0    1
 -2   1002327   1002330   1002480   1002477   1002329   1002332   1002482   1002479
 -1       792    1    0    1
 -2   1002330   1002333   1002483   1002480   1002332   1002335   1002485   1002482
 -1       793    1    0    1
 -2   1002333   1002336   1002486   1002483   1002335   1002338   1002488   1002485
 -1       794    1    0    1
 -2   1002336   1002339   1002489   1002486   1002338   1002341   1002491   1002488
 -1       795    1    0    1
 -2   1002339   1002342   1002492   1002489   1002341   1002344   1002494   1002491
 -1       796    1    0    1
 -2   1002342   1002345   1002495   1002492   1002344   1002347   1002497   1002494
 -1       797    1    0    1
 -2   1002345   1002348   1002498   1002495   1002347   1002350   1002500   1002497
 -1       798    1    0    1
 -2   1002348   1002351   1002501   1002498   1002350   1002353   1002503   1002500
 -1       799    1    0    1
 -2   1002351   1002354   1002504   1002501   1002353   1002356   1002506   1002503
 -1       800    1    0    1
 -2   1002354   1002357   1002507   1002504   1002356   1002359   1002509   1002506
 -1       801    1    0    1
 -2   1002357   1002360   1002510   1002507   1002359   1002362   1002512   1002509
 -1       802    1    0    1
 -2   1002360   1002363   1002513   1002510   1002362   1002365   1002515   1002512
 -1       803    1    0    1
 -2   1002363   1002366   1002516   1002513   1002365   1002368   1002518   1002515
 -1       804    1    0    1
 -2   1002366   1002369   1002519   1002516   1002368   1002371   1002521   1002518
 -1       805    1    0    1
 -2   1002369   1002372   1002522   1002519   1002371   1002374   1002524   1002521
 -1       806    1    0    1
 -2   1002372   1002375   1002525   1002522   1002374   1002377   1002527   1002524
 -1       807    1    0    1
 -2   1002375   1002378   1002528   1002525   1002377   1002380   1002530   1002527
 -1       808    1    0    1
 -2   1002378   1002381   1002531   1002528   1002380   1002383   1002533   1002530
 -1       809    1    0    1
 -2   1002381   1002384   1002534   1002531   1002383   1002386   1002536   1002533
 -1       810    1    0    1
 -2   1002384   1002387   1002537   1002534   1002386   1002389   1002539   1002536
 -1       811    1    0    1
 -2   1002387   1002390   1002540   1002537   1002389   1002392   1002542   1002539
 -1       812    1    0    1
 -2   1002390   1002393   1002543   1002540   1002392   1002395   1002545   1002542
 -1       813    1    0    1
 -2   1002393   1002396   1002546   1002543   1002395   1002398   1002548   1002545
 -1       814    1    0    1
 -2   1002396   1002399   1002549   1002546   1002398   1002401   1002551   1002548
 -1       815    1    0    1
 -2   1002399   1002402   1002552   1002549   1002401   1002404   1002554   1002551
 -1       816    1    0    1
 -2   1002402   1002405   1002555   1002552   1002404   1002407   1002557   1002554
 -1       817    1    0    1
 -2   1002405   1002408   1002558   1002555   1002407   1002410   1002560   1002557
 -1       818    1    0    1
 -2   1002408   1002411   1002561   1002558   1002410   1002413   1002563   1002560
 -1       819    1    0    1
 -2   1002411   1002414   1002564   1002561   1002413   1002416   1002566   1002563
 -1       820    1    0    1
 -2   1002414   1002417   1002567   1002564   1002416   1002419   1002569   1002566
 -1       821    1    0    1
 -2   1002417   1002420   1002570   1002567   1002419   1002422   1002572   1002569
 -1       822    1    0    1
 -2   1002420   1002423   1002573   1002570   1002422   1002425   1002575   1002572
 -1       823    1    0    1
 -2   1002423   1002426   1002576   1002573   1002425   1002428   1002578   1002575
 -1       824    1    0    1
 -2   1002426   1002429   1002579   1002576   1002428   1002431   1002581   1002578
 -1       825    1    0    1
 -2   1002429   1000284   1000287   1002579   1002431   1000286   1000289   1002581
 -1       826    1    0    1
 -2   1000050   1002432   1002582   1000053   1000052   1002434   1002584   1000055
 -1       827    1    0    1
 -2   1002432   1002435   1002585   1002582   1002434   1002437   1002587   1002584
 -1       828    1    0    1
 -2   1002435   1002438   1002588   1002585   1002437   1002440   1002590   1002587
 -1       829    1    0    1
 -2   1002438   1002441   1002591   1002588   1002440   1002443   1002593   1002590
 -1       830    1    0    1
 -2   1002441   1002444   1002594   1002591   1002443   1002446   1002596   1002593
 -1       831    1    0    1
 -2   1002444   1002447   1002597   1002594   1002446   1002449   1002599   1002596
 -1       832    1    0    1
 -2   1002447   1002450   1002600   1002597   1002449   1002452   1002602   1002599
 -1       833    1    0    1
 -2   1002450   1002453   1002603   1002600   1002452   1002455   1002605   1002602
 -1       834    1    0    1
 -2   1002453   1002456   1002606   1002603   1002455   1002458   1002608   1002605
 -1       835    1    0    1
 -2   1002456   1002459   1002609   1002606   1002458   1002461   1002611   1002608
 -1       836    1    0    1
 -2   1002459   1002462   1002612   1002609   1002461   1002464   1002614   1002611
 -1       837    1    0    1
 -2   1002462   1002465   1002615   1002612   1002464   1002467   1002617   1002614
 -1       838    1    0    1
 -2   1002465   1002468   1002618   1002615   1002467   1002470   1002620   1002617
 -1       839    1    0    1
 -2   1002468   1002471   1002621   1002618   1002470   1002473   1002623   1002620
 -1       840    1    0    1
 -2   1002471   1002474   1002624   1002621   1002473   1002476   1002626   1002623
 -1       841    1    0    1
 -2   1002474   1002477   1002627   1002624   1002476   1002479   1002629   1002626
 -1       842    1    0    1
 -2   1002477   1002480   1002630   1002627   1002479   1002482   1002632   1002629
 -1       843    1    0    1
 -2   1002480   1002483   1002633   1002630   1002482   1002485   1002635   1002632
 -1       844    1    0    1
 -2   1002483   1002486   1002636   1002633   1002485   1002488   1002638   1002635
 -1       845    1    0    1
 -2   1002486   1002489   1002639   1002636   1002488   1002491   1002641   1002638
 -1       846    1    0    1
 -2   1002489   1002492   1002642   1002639   1002491   1002494   1002644   1002641
 -1       847    1    0    1
 -2   1002492   1002495   1002645   1002642   1002494   1002497   1002647   1002644
 -1       848    1    0    1
 -2   1002495   1002498   1002648   1002645   1002497   1002500   1002650   1002647
 -1       849    1    0    1
 -2   1002498   1002501   1002651   1002648   1002500   1002503   1002653   1002650
 -1       850    1    0    1
 -2   1002501   1002504   1002654   1002651   1002503   1002506   1002656   1002653
 -1       851    1    0    1
 -2   1002504   1002507   1002657   1002654   1002506   1002509   1002659   1002656
 -1       852    1    0    1
 -2   1002507   1002510   1002660   1002657   1002509   1002512   1002662   1002659
 -1       853    1    0    1
 -2   1002510   1002513   1002663   1002660   1002512   1002515   1002665   1002662
 -1       854    1    0    1
 -2   1002513   1002516   1002666   1002663   1002515   1002518   1002668   1002665
 -1       855    1    0    1
 -2   1002516   1002519   1002669   1002666   1002518   1002521   1002671   1002668
 -1       856    1    0    1
 -2   1002519   1002522   1002672   1002669   1002521   1002524   1002674   1002671
 -1       857    1    0    1
 -2   1002522   1002525   1002675   1002672   1002524   1002527   1002677   1002674
 -1       858    1    0    1
 -2   1002525   1002528   1002678   1002675   1002527   1002530   1002680   1002677
 -1       859    1    0    1
 -2   1002528   1002531   1002681   1002678   1002530   1002533   1002683   1002680
 -1       860    1    0    1
 -2   1002531   1002534   1002684   1002681   1002533   1002536   1002686   1002683
 -1       861    1    0    1
 -2   1002534   1002537   1002687   1002684   1002536   1002539   1002689   1002686
 -1       862    1    0    1
 -2   1002537   1002540   1002690   1002687   1002539   1002542   1002692   1002689
 -1       863    1    0    1
 -2   1002540   1002543   1002693   1002690   1002542   1002545   1002695   1002692
 -1       864    1    0    1
 -2   1002543   1002546   1002696   1002693   1002545   1002548   1002698   1002695
 -1       865    1    0    1
 -2   1002546   1002549   1002699   1002696   1002548   1002551   1002701   1002698
 -1       866    1    0    1
 -2   1002549   1002552   1002702   1002699   1002551   1002554   1002704   1002701
 -1       867    1    0    1
 -2   1002552   1002555   1002705   1002702   1002554   1002557   1002707   1002704
 -1       868    1    0    1
 -2   1002555   1002558   1002708   1002705   1002557   1002560   1002710   1002707
 -1       869    1    0    1
 -2   1002558   1002561   1002711   1002708   1002560   1002563   1002713   1002710
 -1       870    1    0    1
 -2   1002561   1002564   1002714   1002711   1002563   1002566   1002716   1002713
 -1       871    1    0    1
 -2   1002564   1002567   1002717   1002714   1002566   1002569   1002719   1002716
 -1       872    1    0    1
 -2   1002567   1002570   1002720   1002717   1002569   1002572   1002722   1002719
 -1       873    1    0    1
 -2   1002570   1002573   1002723   1002720   1002572   1002575   1002725   1002722
 -1       874    1    0    1
 -2   1002573   1002576   1002726   1002723   1002575   1002578   1002728   1002725
 -1       875    1    0    1
 -2   1002576   1002579   1002729   1002726   1002578   1002581   1002731   1002728
 -1       876    1    0    1
 -2   1002579   1000287   1000290   1002729   1002581   1000289   1000292   1002731
 -1       877    1    0    1
 -2   1000053   1002582   1002732   1000056   1000055   1002584   1002734   1000058
 -1       878    1    0    1
 -2   1002582   1002585   1002735   1002732   1002584   1002587   1002737   1002734
 -1       879    1    0    1
 -2   1002585   1002588   1002738   1002735   1002587   1002590   1002740   1002737
 -1       880    1    0    1
 -2   1002588   1002591   1002741   1002738   1002590   1002593   1002743   1002740
 -1       881    1    0    1
 -2   1002591   1002594   1002744   1002741   1002593   1002596   1002746   1002743
 -1       882    1    0    1
 -2   1002594   1002597   1002747   1002744   1002596   1002599   1002749   1002746
 -1       883    1    0    1
 -2   1002597   1002600   1002750   1002747   1002599   1002602   1002752   1002749
 -1       884    1    0    1
 -2   1002600   1002603   1002753   1002750   1002602   1002605   1002755   1002752
 -1       885    1    0    1
 -2   1002603   1002606   1002756   1002753   1002605   1002608   1002758   1002755
 -1       886    1    0    1
 -2   1002606   1002609   1002759   1002756   1002608   1002611   1002761   1002758
 -1       887    1    0    1
 -2   1002609   1002612   1002762   1002759   1002611   1002614   1002764   1002761
 -1       888    1    0    1
 -2   1002612   1002615   1002765   1002762   1002614   1002617   1002767   1002764
 -1       889    1    0    1
 -2   1002615   1002618   1002768   1002765   1002617   1002620   1002770   1002767
 -1       890    1    0    1
 -2   1002618   1002621   1002771   1002768   1002620   1002623   1002773   1002770
 -1       891    1    0    1
 -2   1002621   1002624   1002774   1002771   1002623   1002626   1002776   1002773
 -1       892    1    0    1
 -2   1002624   1002627   1002777   1002774   1002626   1002629   1002779   1002776
 -1       893    1    0    1
 -2   1002627   1002630   1002780   1002777   1002629   1002632   1002782   1002779
 -1       894    1    0    1
 -2   1002630   1002633   1002783   1002780   1002632   1002635   1002785   1002782
 -1       895    1    0    1
 -2   1002633   1002636   1002786   1002783   1002635   1002638   1002788   1002785
 -1       896    1    0    1
 -2   1002636   1002639   1002789   1002786   1002638   1002641   1002791   1002788
 -1       897    1    0    1
 -2   1002639   1002642   1002792   1002789   1002641   1002644   1002794   1002791
 -1       898    1    0    1
 -2   1002642   1002645   1002795   1002792   1002644   1002647   1002797   1002794
 -1       899    1    0    1
 -2   1002645   1002648   1002798   1002795   1002647   1002650   1002800   1002797
 -1       900    1    0    1
 -2   1002648   1002651   1002801   1002798   1002650   1002653   1002803   1002800
 -1       901    1    0    1
 -2   1002651   1002654   1002804   1002801   1002653   1002656   1002806   1002803
 -1       902    1    0    1
 -2   1002654   1002657   1002807   1002804   1002656   1002659   1002809   1002806
 -1       903    1    0    1
 -2   1002657   1002660   1002810   1002807   1002659   1002662   1002812   1002809
 -1       904    1    0    1
 -2   1002660   1002663   1002813   1002810   1002662   1002665   1002815   1002812
 -1       905    1    0    1
 -2   1002663   1002666   1002816   1002813   1002665   1002668   1002818   1002815
 -1       906    1    0    1
 -2   1002666   1002669   1002819   1002816   1002668   1002671   1002821   1002818
 -1       907    1    0    1
 -2   1002669   1002672   1002822   1002819   1002671   1002674   1002824   1002821
 -1       908    1    0    1
 -2   1002672   1002675   1002825   1002822   1002674   1002677   1002827   1002824
 -1       909    1    0    1
 -2   1002675   1002678   1002828   1002825   1002677   1002680   1002830   1002827
 -1       910    1    0    1
 -2   1002678   1002681   1002831   1002828   1002680   1002683   1002833   1002830
 -1       911    1    0    1
 -2   1002681   1002684   1002834   1002831   1002683   1002686   1002836   1002833
 -1       912    1    0    1
 -2   1002684   1002687   1002837   1002834   1002686   1002689   1002839   1002836
 -1       913    1    0    1
 -2   1002687   1002690   1002840   1002837   1002689   1002692   1002842   1002839
 -1       914    1    0    1
 -2   1002690   1002693   1002843   1002840   1002692   1002695   1002845   1002842
 -1       915    1    0    1
 -2   1002693   1002696   1002846   1002843   1002695   1002698   1002848   1002845
 -1       916    1    0    1
 -2   1002696   1002699   1002849   1002846   1002698   1002701   1002851   1002848
 -1       917    1    0    1
 -2   1002699   1002702   1002852   1002849   1002701   1002704   1002854   1002851
 -1       918    1    0    1
 -2   1002702   1002705   1002855   1002852   1002704   1002707   1002857   1002854
 -1       919    1    0    1
 -2   1002705   1002708   1002858   1002855   1002707   1002710   1002860   1002857
 -1       920    1    0    1
 -2   1002708   1002711   1002861   1002858   1002710   1002713   1002863   1002860
 -1       921    1    0    1
 -2   1002711   1002714   1002864   1002861   1002713   1002716   1002866   1002863
 -1       922    1    0    1
 -2   1002714   1002717   1002867   1002864   1002716   1002719   1002869   1002866
 -1       923    1    0    1
 -2   1002717   1002720   1002870   1002867   1002719   1002722   1002872   1002869
 -1       924    1    0    1
 -2   1002720   1002723   1002873   1002870   1002722   1002725   1002875   1002872
 -1       925    1    0    1
 -2   1002723   1002726   1002876   1002873   1002725   1002728   1002878   1002875
 -1       926    1    0    1
 -2   1002726   1002729   1002879   1002876   1002728   1002731   1002881   1002878
 -1       927    1    0    1
 -2   1002729   1000290   1000293   1002879   1002731   1000292   1000295   1002881
 -1       928    1    0    1
 -2   1000056   1002732   1002882   1000059   1000058   1002734   1002884   1000061
 -1       929    1    0    1
 -2   1002732   1002735   1002885   1002882   1002734   1002737   1002887   1002884
 -1       930    1    0    1
 -2   1002735   1002738   1002888   1002885   1002737   1002740   1002890   1002887
 -1       931    1    0    1
 -2   1002738   1002741   1002891   1002888   1002740   1002743   1002893   1002890
 -1       932    1    0    1
 -2   1002741   1002744   1002894   1002891   1002743   1002746   1002896   1002893
 -1       933    1    0    1
 -2   1002744   1002747   1002897   1002894   1002746   1002749   1002899   1002896
 -1       934    1    0    1
 -2   1002747   1002750   1002900   1002897   1002749   1002752   1002902   1002899
 -1       935    1    0    1
 -2   1002750   1002753   1002903   1002900   1002752   1002755   1002905   1002902
 -1       936    1    0    1
 -2   1002753   1002756   1002906   1002903   1002755   1002758   1002908   1002905
 -1       937    1    0    1
 -2   1002756   1002759   1002909   1002906   1002758   1002761   1002911   1002908
 -1       938    1    0    1
 -2   1002759   1002762   1002912   1002909   1002761   1002764   1002914   1002911
 -1       939    1    0    1
 -2   1002762   1002765   1002915   1002912   1002764   1002767   1002917   1002914
 -1       940    1    0    1
 -2   1002765   1002768   1002918   1002915   1002767   1002770   1002920   1002917
 -1       941    1    0    1
 -2   1002768   1002771   1002921   1002918   1002770   1002773   1002923   1002920
 -1       942    1    0    1
 -2   1002771   1002774   1002924   1002921   1002773   1002776   1002926   1002923
 -1       943    1    0    1
 -2   1002774   1002777   1002927   1002924   1002776   1002779   1002929   1002926
 -1       944    1    0    1
 -2   1002777   1002780   1002930   1002927   1002779   1002782   1002932   1002929
 -1       945    1    0    1
 -2   1002780   1002783   1002933   1002930   1002782   1002785   1002935   1002932
 -1       946    1    0    1
 -2   1002783   1002786   1002936   1002933   1002785   1002788   1002938   1002935
 -1       947    1    0    1
 -2   1002786   1002789   1002939   1002936   1002788   1002791   1002941   1002938
 -1       948    1    0    1
 -2   1002789   1002792   1002942   1002939   1002791   1002794   1002944   1002941
 -1       949    1    0    1
 -2   1002792   1002795   1002945   1002942   1002794   1002797   1002947   1002944
 -1       950    1    0    1
 -2   1002795   1002798   1002948   1002945   1002797   1002800   1002950   1002947
 -1       951    1    0    1
 -2   1002798   1002801   1002951   1002948   1002800   1002803   1002953   1002950
 -1       952    1    0    1
 -2   1002801   1002804   1002954   1002951   1002803   1002806   1002956   1002953
 -1       953    1    0    1
 -2   1002804   1002807   1002957   1002954   1002806   1002809   1002959   1002956
 -1       954    1    0    1
 -2   1002807   1002810   1002960   1002957   1002809   1002812   1002962   1002959
 -1       955    1    0    1
 -2   1002810   1002813   1002963   1002960   1002812   1002815   1002965   1002962
 -1       956    1    0    1
 -2   1002813   1002816   1002966   1002963   1002815   1002818   1002968   1002965
 -1       957    1    0    1
 -2   1002816   1002819   1002969   1002966   1002818   1002821   1002971   1002968
 -1       958    1    0    1
 -2   1002819   1002822   1002972   1002969   1002821   1002824   1002974   1002971
 -1       959    1    0    1
 -2   1002822   1002825   1002975   1002972   1002824   1002827   1002977   1002974
 -1       960    1    0    1
 -2   1002825   1002828   1002978   1002975   1002827   1002830   1002980   1002977
 -1       961    1    0    1
 -2   1002828   1002831   1002981   1002978   1002830   1002833   1002983   1002980
 -1       962    1    0    1
 -2   1002831   1002834   1002984   1002981   1002833   1002836   1002986   1002983
 -1       963    1    0    1
 -2   1002834   1002837   1002987   1002984   1002836   1002839   1002989   1002986
 -1       964    1    0    1
 -2   1002837   1002840   1002990   1002987   1002839   1002842   1002992   1002989
 -1       965    1    0    1
 -2   1002840   1002843   1002993   1002990   1002842   1002845   1002995   1002992
 -1       966    1    0    1
 -2   1002843   1002846   1002996   1002993   1002845   1002848   1002998   1002995
 -1       967    1    0    1
 -2   1002846   1002849   1002999   1002996   1002848   1002851   1003001   1002998
 -1       968    1    0    1
 -2   1002849   1002852   1003002   1002999   1002851   1002854   1003004   1003001
 -1       969    1    0    1
 -2   1002852   1002855   1003005   1003002   1002854   1002857   1003007   1003004
 -1       970    1    0    1
 -2   1002855   1002858   1003008   1003005   1002857   1002860   1003010   1003007
 -1       971    1    0    1
 -2   1002858   1002861   1003011   1003008   1002860   1002863   1003013   1003010
 -1       972    1    0    1
 -2   1002861   1002864   1003014   1003011   1002863   1002866   1003016   1003013
 -1       973    1    0    1
 -2   1002864   1002867   1003017   1003014   1002866   1002869   1003019   1003016
 -1       974    1    0    1
 -2   1002867   1002870   1003020   1003017   1002869   1002872   1003022   1003019
 -1       975    1    0    1
 -2   1002870   1002873   1003023   1003020   1002872   1002875   1003025   1003022
 -1       976    1    0    1
 -2   1002873   1002876   1003026   1003023   1002875   1002878   1003028   1003025
 -1       977    1    0    1
 -2   1002876   1002879   1003029   1003026   1002878   1002881   1003031   1003028
 -1       978    1    0    1
 -2   1002879   1000293   1000296   1003029   1002881   1000295   1000298   1003031
 -1       979    1    0    1
 -2   1000059   1002882   1003032   1000062   1000061   1002884   1003034   1000064
 -1       980    1    0    1
 -2   1002882   1002885   1003035   1003032   1002884   1002887   1003037   1003034
 -1       981    1    0    1
 -2   1002885   1002888   1003038   1003035   1002887   1002890   1003040   1003037
 -1       982    1    0    1
 -2   1002888   1002891   1003041   1003038   1002890   1002893   1003043   1003040
 -1       983    1    0    1
 -2   1002891   1002894   1003044   1003041   1002893   1002896   1003046   1003043
 -1       984    1    0    1
 -2   1002894   1002897   1003047   1003044   1002896   1002899   1003049   1003046
 -1       985    1    0    1
 -2   1002897   1002900   1003050   1003047   1002899   1002902   1003052   1003049
 -1       986    1    0    1
 -2   1002900   1002903   1003053   1003050   1002902   1002905   1003055   1003052
 -1       987    1    0    1
 -2   1002903   1002906   1003056   1003053   1002905   1002908   1003058   1003055
 -1       988    1    0    1
 -2   1002906   1002909   1003059   1003056   1002908   1002911   1003061   1003058
 -1       989    1    0    1
 -2   1002909   1002912   1003062   1003059   1002911   1002914   1003064   1003061
 -1       990    1    0    1
 -2   1002912   1002915   1003065   1003062   1002914   1002917   1003067   1003064
 -1       991    1    0    1
 -2   1002915   1002918   1003068   1003065   1002917   1002920   1003070   1003067
 -1       992    1    0    1
 -2   1002918   1002921   1003071   1003068   1002920   1002923   1003073   1003070
 -1       993    1    0    1
 -2   1002921   1002924   1003074   1003071   1002923   1002926   1003076   1003073
 -1       994    1    0    1
 -2   1002924   1002927   1003077   1003074   1002926   1002929   1003079   1003076
 -1       995    1    0    1
 -2   1002927   1002930   1003080   1003077   1002929   1002932   1003082   1003079
 -1       996    1    0    1
 -2   1002930   1002933   1003083   1003080   1002932   1002935   1003085   1003082
 -1       997    1    0    1
 -2   1002933   1002936   1003086   1003083   1002935   1002938   1003088   1003085
 -1       998    1    0    1
 -2   1002936   1002939   1003089   1003086   1002938   1002941   1003091   1003088
 -1       999    1    0    1
 -2   1002939   1002942   1003092   1003089   1002941   1002944   1003094   1003091
 -1      1000    1    0    1
 -2   1002942   1002945   1003095   1003092   1002944   1002947   1003097   1003094
 -1      1001    1    0    1
 -2   1002945   1002948   1003098   1003095   1002947   1002950   1003100   1003097
 -1      1002    1    0    1
 -2   1002948   1002951   1003101   1003098   1002950   1002953   1003103   1003100
 -1      1003    1    0    1
 -2   1002951   1002954   1003104   1003101   1002953   1002956   1003106   1003103
 -1      1004    1    0    1
 -2   1002954   1002957   1003107   1003104   1002956   1002959   1003109   1003106
 -1      1005    1    0    1
 -2   1002957   1002960   1003110   1003107   1002959   1002962   1003112   1003109
 -1      1006    1    0    1
 -2   1002960   1002963   1003113   1003110   1002962   1002965   1003115   1003112
 -1      1007    1    0    1
 -2   1002963   1002966   1003116   1003113   1002965   1002968   1003118   1003115
 -1      1008    1    0    1
 -2   1002966   1002969   1003119   1003116   1002968   1002971   1003121   1003118
 -1      1009    1    0    1
 -2   1002969   1002972   1003122   1003119   1002971   1002974   1003124   1003121
 -1      1010    1    0    1
 -2   1002972   1002975   1003125   1003122   1002974   1002977   1003127   1003124
 -1      1011    1    0    1
 -2   1002975   1002978   1003128   1003125   1002977   1002980   1003130   1003127
 -1      1012    1    0    1
 -2   1002978   1002981   1003131   1003128   1002980   1002983   1003133   1003130
 -1      1013    1    0    1
 -2   1002981   1002984   1003134   1003131   1002983   1002986   1003136   1003133
 -1      1014    1    0    1
 -2   1002984   1002987   1003137   1003134   1002986   1002989   1003139   1003136
 -1      1015    1    0    1
 -2   1002987   1002990   1003140   1003137   1002989   1002992   1003142   1003139
 -1      1016    1    0    1
 -2   1002990   1002993   1003143   1003140   1002992   1002995   1003145   1003142
 -1      1017    1    0    1
 -2   1002993   1002996   1003146   1003143   1002995   1002998   1003148   1003145
 -1      1018    1    0    1
 -2   1002996   1002999   1003149   1003146   1002998   1003001   1003151   1003148
 -1      1019    1    0    1
 -2   1002999   1003002   1003152   1003149   1003001   1003004   1003154   1003151
 -1      1020    1    0    1
 -2   1003002   1003005   1003155   1003152   1003004   1003007   1003157   1003154
 -1      1021    1    0    1
 -2   1003005   1003008   1003158   1003155   1003007   1003010   1003160   1003157
 -1      1022    1    0    1
 -2   1003008   1003011   1003161   1003158   1003010   1003013   1003163   1003160
 -1      1023    1    0    1
 -2   1003011   1003014   1003164   1003161   1003013   1003016   1003166   1003163
 -1      1024    1    0    1
 -2   1003014   1003017   1003167   1003164   1003016   1003019   1003169   1003166
 -1      1025    1    0    1
 -2   1003017   1003020   1003170   1003167   1003019   1003022   1003172   1003169
 -1      1026    1    0    1
 -2   1003020   1003023   1003173   1003170   1003022   1003025   1003175   1003172
 -1      1027    1    0    1
 -2   1003023   1003026   1003176   1003173   1003025   1003028   1003178   1003175
 -1      1028    1    0    1
 -2   1003026   1003029   1003179   1003176   1003028   1003031   1003181   1003178
 -1      1029    1    0    1
 -2   1003029   1000296   1000299   1003179   1003031   1000298   1000301   1003181
 -1      1030    1    0    1
 -2   1000062   1003032   1003182   1000065   1000064   1003034   1003184   1000067
 -1      1031    1    0    1
 -2   1003032   1003035   1003185   1003182   1003034   1003037   1003187   1003184
 -1      1032    1    0    1
 -2   1003035   1003038   1003188   1003185   1003037   1003040   1003190   1003187
 -1      1033    1    0    1
 -2   1003038   1003041   1003191   1003188   1003040   1003043   1003193   1003190
 -1      1034    1    0    1
 -2   1003041   1003044   1003194   1003191   1003043   1003046   1003196   1003193
 -1      1035    1    0    1
 -2   1003044   1003047   1003197   1003194   1003046   1003049   1003199   1003196
 -1      1036    1    0    1
 -2   1003047   1003050   1003200   1003197   1003049   1003052   1003202   1003199
 -1      1037    1    0    1
 -2   1003050   1003053   1003203   1003200   1003052   1003055   1003205   1003202
 -1      1038    1    0    1
 -2   1003053   1003056   1003206   1003203   1003055   1003058   1003208   1003205
 -1      1039    1    0    1
 -2   1003056   1003059   1003209   1003206   1003058   1003061   1003211   1003208
 -1      1040    1    0    1
 -2   1003059   1003062   1003212   1003209   1003061   1003064   1003214   1003211
 -1      1041    1    0    1
 -2   1003062   1003065   1003215   1003212   1003064   1003067   1003217   1003214
 -1      1042    1    0    1
 -2   1003065   1003068   1003218   1003215   1003067   1003070   1003220   1003217
 -1      1043    1    0    1
 -2   1003068   1003071   1003221   1003218   1003070   1003073   1003223   1003220
 -1      1044    1    0    1
 -2   1003071   1003074   1003224   1003221   1003073   1003076   1003226   1003223
 -1      1045    1    0    1
 -2   1003074   1003077   1003227   1003224   1003076   1003079   1003229   1003226
 -1      1046    1    0    1
 -2   1003077   1003080   1003230   1003227   1003079   1003082   1003232   1003229
 -1      1047    1    0    1
 -2   1003080   1003083   1003233   1003230   1003082   1003085   1003235   1003232
 -1      1048    1    0    1
 -2   1003083   1003086   1003236   1003233   1003085   1003088   1003238   1003235
 -1      1049    1    0    1
 -2   1003086   1003089   1003239   1003236   1003088   1003091   1003241   1003238
 -1      1050    1    0    1
 -2   1003089   1003092   1003242   1003239   1003091   1003094   1003244   1003241
 -1      1051    1    0    1
 -2   1003092   1003095   1003245   1003242   1003094   1003097   1003247   1003244
 -1      1052    1    0    1
 -2   1003095   1003098   1003248   1003245   1003097   1003100   1003250   1003247
 -1      1053    1    0    1
 -2   1003098   1003101   1003251   1003248   1003100   1003103   1003253   1003250
 -1      1054    1    0    1
 -2   1003101   1003104   1003254   1003251   1003103   1003106   1003256   1003253
 -1      1055    1    0    1
 -2   1003104   1003107   1003257   1003254   1003106   1003109   1003259   1003256
 -1      1056    1    0    1
 -2   1003107   1003110   1003260   1003257   1003109   1003112   1003262   1003259
 -1      1057    1    0    1
 -2   1003110   1003113   1003263   1003260   1003112   1003115   1003265   1003262
 -1      1058    1    0    1
 -2   1003113   1003116   1003266   1003263   1003115   1003118   1003268   1003265
 -1      1059    1    0    1
 -2   1003116   1003119   1003269   1003266   1003118   1003121   1003271   1003268
 -1      1060    1    0    1
 -2   1003119   1003122   1003272   1003269   1003121   1003124   1003274   1003271
 -1      1061    1    0    1
 -2   1003122   1003125   1003275   1003272   1003124   1003127   1003277   1003274
 -1      1062    1    0    1
 -2   1003125   1003128   1003278   1003275   1003127   1003130   1003280   1003277
 -1      1063    1    0    1
 -2   1003128   1003131   1003281   1003278   1003130   1003133   1003283   1003280
 -1      1064    1    0    1
 -2   1003131   1003134   1003284   1003281   1003133   1003136   1003286   1003283
 -1      1065    1    0    1
 -2   1003134   1003137   1003287   1003284   1003136   1003139   1003289   1003286
 -1      1066    1    0    1
 -2   1003137   1003140   1003290   1003287   1003139   1003142   1003292   1003289
 -1      1067    1    0    1
 -2   1003140   1003143   1003293   1003290   1003142   1003145   1003295   1003292
 -1      1068    1    0    1
 -2   1003143   1003146   1003296   1003293   1003145   1003148   1003298   1003295
 -1      1069    1    0    1
 -2   1003146   1003149   1003299   1003296   1003148   1003151   1003301   1003298
 -1      1070    1    0    1
 -2   1003149   1003152   1003302   1003299   1003151   1003154   1003304   1003301
 -1      1071    1    0    1
 -2   1003152   1003155   1003305   1003302   1003154   1003157   1003307   1003304
 -1      1072    1    0    1
 -2   1003155   1003158   1003308   1003305   1003157   1003160   1003310   1003307
 -1      1073    1    0    1
 -2   1003158   1003161   1003311   1003308   1003160   1003163   1003313   1003310
 -1      1074    1    0    1
 -2   1003161   1003164   1003314   1003311   1003163   1003166   1003316   1003313
 -1      1075    1    0    1
 -2   1003164   1003167   1003317   1003314   1003166   1003169   1003319   1003316
 -1      1076    1    0    1
 -2   1003167   1003170   1003320   1003317   1003169   1003172   1003322   1003319
 -1      1077    1    0    1
 -2   1003170   1003173   1003323   1003320   1003172   1003175   1003325   1003322
 -1      1078    1    0    1
 -2   1003173   1003176   1003326   1003323   1003175   1003178   1003328   1003325
 -1      1079    1    0    1
 -2   1003176   1003179   1003329   1003326   1003178   1003181   1003331   1003328
 -1      1080    1    0    1
 -2   1003179   1000299   1000302   1003329   1003181   1000301   1000304   1003331
 -1      1081    1    0    1
 -2   1000065   1003182   1003332   1000068   1000067   1003184   1003334   1000070
 -1      1082    1    0    1
 -2   1003182   1003185   1003335   1003332   1003184   1003187   1003337   1003334
 -1      1083    1    0    1
 -2   1003185   1003188   1003338   1003335   1003187   1003190   1003340   1003337
 -1      1084    1    0    1
 -2   1003188   1003191   1003341   1003338   1003190   1003193   1003343   1003340
 -1      1085    1    0    1
 -2   1003191   1003194   1003344   1003341   1003193   1003196   1003346   1003343
 -1      1086    1    0    1
 -2   1003194   1003197   1003347   1003344   1003196   1003199   1003349   1003346
 -1      1087    1    0    1
 -2   1003197   1003200   1003350   1003347   1003199   1003202   1003352   1003349
 -1      1088    1    0    1
 -2   1003200   1003203   1003353   1003350   1003202   1003205   1003355   1003352
 -1      1089    1    0    1
 -2   1003203   1003206   1003356   1003353   1003205   1003208   1003358   1003355
 -1      1090    1    0    1
 -2   1003206   1003209   1003359   1003356   1003208   1003211   1003361   1003358
 -1      1091    1    0    1
 -2   1003209   1003212   1003362   1003359   1003211   1003214   1003364   1003361
 -1      1092    1    0    1
 -2   1003212   1003215   1003365   1003362   1003214   1003217   1003367   1003364
 -1      1093    1    0    1
 -2   1003215   1003218   1003368   1003365   1003217   1003220   1003370   1003367
 -1      1094    1    0    1
 -2   1003218   1003221   1003371   1003368   1003220   1003223   1003373   1003370
 -1      1095    1    0    1
 -2   1003221   1003224   1003374   1003371   1003223   1003226   1003376   1003373
 -1      1096    1    0    1
 -2   1003224   1003227   1003377   1003374   1003226   1003229   1003379   1003376
 -1      1097    1    0    1
 -2   1003227   1003230   1003380   1003377   1003229   1003232   1003382   1003379
 -1      1098    1    0    1
 -2   1003230   1003233   1003383   1003380   1003232   1003235   1003385   1003382
 -1      1099    1    0    1
 -2   1003233   1003236   1003386   1003383   1003235   1003238   1003388   1003385
 -1      1100    1    0    1
 -2   1003236   1003239   1003389   1003386   1003238   1003241   1003391   1003388
 -1      1101    1    0    1
 -2   1003239   1003242   1003392   1003389   1003241   1003244   1003394   1003391
 -1      1102    1    0    1
 -2   1003242   1003245   1003395   1003392   1003244   1003247   1003397   1003394
 -1      1103    1    0    1
 -2   1003245   1003248   1003398   1003395   1003247   1003250   1003400   1003397
 -1      1104    1    0    1
 -2   1003248   1003251   1003401   1003398   1003250   1003253   1003403   1003400
 -1      1105    1    0    1
 -2   1003251   1003254   1003404   1003401   1003253   1003256   1003406   1003403
 -1      1106    1    0    1
 -2   1003254   1003257   1003407   1003404   1003256   1003259   1003409   1003406
 -1      1107    1    0    1
 -2   1003257   1003260   1003410   1003407   1003259   1003262   1003412   1003409
 -1      1108    1    0    1
 -2   1003260   1003263   1003413   1003410   1003262   1003265   1003415   1003412
 -1      1109    1    0    1
 -2   1003263   1003266   1003416   1003413   1003265   1003268   1003418   1003415
 -1      1110    1    0    1
 -2   1003266   1003269   1003419   1003416   1003268   1003271   1003421   1003418
 -1      1111    1    0    1
 -2   1003269   1003272   1003422   1003419   1003271   1003274   1003424   1003421
 -1      1112    1    0    1
 -2   1003272   1003275   1003425   1003422   1003274   1003277   1003427   1003424
 -1      1113    1    0    1
 -2   1003275   1003278   1003428   1003425   1003277   1003280   1003430   1003427
 -1      1114    1    0    1
 -2   1003278   1003281   1003431   1003428   1003280   1003283   1003433   1003430
 -1      1115    1    0    1
 -2   1003281   1003284   1003434   1003431   1003283   1003286   1003436   1003433
 -1      1116    1    0    1
 -2   1003284   1003287   1003437   1003434   1003286   1003289   1003439   1003436
 -1      1117    1    0    1
 -2   1003287   1003290   1003440   1003437   1003289   1003292   1003442   1003439
 -1      1118    1    0    1
 -2   1003290   1003293   1003443   1003440   1003292   1003295   1003445   1003442
 -1      1119    1    0    1
 -2   1003293   1003296   1003446   1003443   1003295   1003298   1003448   1003445
 -1      1120    1    0    1
 -2   1003296   1003299   1003449   1003446   1003298   1003301   1003451   1003448
 -1      1121    1    0    1
 -2   1003299   1003302   1003452   1003449   1003301   1003304   1003454   1003451
 -1      1122    1    0    1
 -2   1003302   1003305   1003455   1003452   1003304   1003307   1003457   1003454
 -1      1123    1    0    1
 -2   1003305   1003308   1003458   1003455   1003307   1003310   1003460   1003457
 -1      1124    1    0    1
 -2   1003308   1003311   1003461   1003458   1003310   1003313   1003463   1003460
 -1      1125    1    0    1
 -2   1003311   1003314   1003464   1003461   1003313   1003316   1003466   1003463
 -1      1126    1    0    1
 -2   1003314   1003317   1003467   1003464   1003316   1003319   1003469   1003466
 -1      1127    1    0    1
 -2   1003317   1003320   1003470   1003467   1003319   1003322   1003472   1003469
 -1      1128    1    0    1
 -2   1003320   1003323   1003473   1003470   1003322   1003325   1003475   1003472
 -1      1129    1    0    1
 -2   1003323   1003326   1003476   1003473   1003325   1003328   1003478   1003475
 -1      1130    1    0    1
 -2   1003326   1003329   1003479   1003476   1003328   1003331   1003481   1003478
 -1      1131    1    0    1
 -2   1003329   1000302   1000305   1003479   1003331   1000304   1000307   1003481
 -1      1132    1    0    1
 -2   1000068   1003332   1003482   1000071   1000070   1003334   1003484   1000073
 -1      1133    1    0    1
 -2   1003332   1003335   1003485   1003482   1003334   1003337   1003487   1003484
 -1      1134    1    0    1
 -2   1003335   1003338   1003488   1003485   1003337   1003340   1003490   1003487
 -1      1135    1    0    1
 -2   1003338   1003341   1003491   1003488   1003340   1003343   1003493   1003490
 -1      1136    1    0    1
 -2   1003341   1003344   1003494   1003491   1003343   1003346   1003496   1003493
 -1      1137    1    0    1
 -2   1003344   1003347   1003497   1003494   1003346   1003349   1003499   1003496
 -1      1138    1    0    1
 -2   1003347   1003350   1003500   1003497   1003349   1003352   1003502   1003499
 -1      1139    1    0    1
 -2   1003350   1003353   1003503   1003500   1003352   1003355   1003505   1003502
 -1      1140    1    0    1
 -2   1003353   1003356   1003506   1003503   1003355   1003358   1003508   1003505
 -1      1141    1    0    1
 -2   1003356   1003359   1003509   1003506   1003358   1003361   1003511   1003508
 -1      1142    1    0    1
 -2   1003359   1003362   1003512   1003509   1003361   1003364   1003514   1003511
 -1      1143    1    0    1
 -2   1003362   1003365   1003515   1003512   1003364   1003367   1003517   1003514
 -1      1144    1    0    1
 -2   1003365   1003368   1003518   1003515   1003367   1003370   1003520   1003517
 -1      1145    1    0    1
 -2   1003368   1003371   1003521   1003518   1003370   1003373   1003523   1003520
 -1      1146    1    0    1
 -2   1003371   1003374   1003524   1003521   1003373   1003376   1003526   1003523
 -1      1147    1    0    1
 -2   1003374   1003377   1003527   1003524   1003376   1003379   1003529   1003526
 -1      1148    1    0    1
 -2   1003377   1003380   1003530   1003527   1003379   1003382   1003532   1003529
 -1      1149    1    0    1
 -2   1003380   1003383   1003533   1003530   1003382   1003385   1003535   1003532
 -1      1150    1    0    1
 -2   1003383   1003386   1003536   1003533   1003385   1003388   1003538   1003535
 -1      1151    1    0    1
 -2   1003386   1003389   1003539   1003536   1003388   1003391   1003541   1003538
 -1      1152    1    0    1
 -2   1003389   1003392   1003542   1003539   1003391   1003394   1003544   1003541
 -1      1153    1    0    1
 -2   1003392   1003395   1003545   1003542   1003394   1003397   1003547   1003544
 -1      1154    1    0    1
 -2   1003395   1003398   1003548   1003545   1003397   1003400   1003550   1003547
 -1      1155    1    0    1
 -2   1003398   1003401   1003551   1003548   1003400   1003403   1003553   1003550
 -1      1156    1    0    1
 -2   1003401   1003404   1003554   1003551   1003403   1003406   1003556   1003553
 -1      1157    1    0    1
 -2   1003404   1003407   1003557   1003554   1003406   1003409   1003559   1003556
 -1      1158    1    0    1
 -2   1003407   1003410   1003560   1003557   1003409   1003412   1003562   1003559
 -1      1159    1    0    1
 -2   1003410   1003413   1003563   1003560   1003412   1003415   1003565   1003562
 -1      1160    1    0    1
 -2   1003413   1003416   1003566   1003563   1003415   1003418   1003568   1003565
 -1      1161    1    0    1
 -2   1003416   1003419   1003569   1003566   1003418   1003421   1003571   1003568
 -1      1162    1    0    1
 -2   1003419   1003422   1003572   1003569   1003421   1003424   1003574   1003571
 -1      1163    1    0    1
 -2   1003422   1003425   1003575   1003572   1003424   1003427   1003577   1003574
 -1      1164    1    0    1
 -2   1003425   1003428   1003578   1003575   1003427   1003430   1003580   1003577
 -1      1165    1    0    1
 -2   1003428   1003431   1003581   1003578   1003430   1003433   1003583   1003580
 -1      1166    1    0    1
 -2   1003431   1003434   1003584   1003581   1003433   1003436   1003586   1003583
 -1      1167    1    0    1
 -2   1003434   1003437   1003587   1003584   1003436   1003439   1003589   1003586
 -1      1168    1    0    1
 -2   1003437   1003440   1003590   1003587   1003439   1003442   1003592   1003589
 -1      1169    1    0    1
 -2   1003440   1003443   1003593   1003590   1003442   1003445   1003595   1003592
 -1      1170    1    0    1
 -2   1003443   1003446   1003596   1003593   1003445   1003448   1003598   1003595
 -1      1171    1    0    1
 -2   1003446   1003449   1003599   1003596   1003448   1003451   1003601   1003598
 -1      1172    1    0    1
 -2   1003449   1003452   1003602   1003599   1003451   1003454   1003604   1003601
 -1      1173    1    0    1
 -2   1003452   1003455   1003605   1003602   1003454   1003457   1003607   1003604
 -1      1174    1    0    1
 -2   1003455   1003458   1003608   1003605   1003457   1003460   1003610   1003607
 -1      1175    1    0    1
 -2   1003458   1003461   1003611   1003608   1003460   1003463   1003613   1003610
 -1      1176    1    0    1
 -2   1003461   1003464   1003614   1003611   1003463   1003466   1003616   1003613
 -1      1177    1    0    1
 -2   1003464   1003467   1003617   1003614   1003466   1003469   1003619   1003616
 -1      1178    1    0    1
 -2   1003467   1003470   1003620   1003617   1003469   1003472   1003622   1003619
 -1      1179    1    0    1
 -2   1003470   1003473   1003623   1003620   1003472   1003475   1003625   1003622
 -1      1180    1    0    1
 -2   1003473   1003476   1003626   1003623   1003475   1003478   1003628   1003625
 -1      1181    1    0    1
 -2   1003476   1003479   1003629   1003626   1003478   1003481   1003631   1003628
 -1      1182    1    0    1
 -2   1003479   1000305   1000308   1003629   1003481   1000307   1000310   1003631
 -1      1183    1    0    1
 -2   1000071   1003482   1003632   1000074   1000073   1003484   1003634   1000076
 -1      1184    1    0    1
 -2   1003482   1003485   1003635   1003632   1003484   1003487   1003637   1003634
 -1      1185    1    0    1
 -2   1003485   1003488   1003638   1003635   1003487   1003490   1003640   1003637
 -1      1186    1    0    1
 -2   1003488   1003491   1003641   1003638   1003490   1003493   1003643   1003640
 -1      1187    1    0    1
 -2   1003491   1003494   1003644   1003641   1003493   1003496   1003646   1003643
 -1      1188    1    0    1
 -2   1003494   1003497   1003647   1003644   1003496   1003499   1003649   1003646
 -1      1189    1    0    1
 -2   1003497   1003500   1003650   1003647   1003499   1003502   1003652   1003649
 -1      1190    1    0    1
 -2   1003500   1003503   1003653   1003650   1003502   1003505   1003655   1003652
 -1      1191    1    0    1
 -2   1003503   1003506   1003656   1003653   1003505   1003508   1003658   1003655
 -1      1192    1    0    1
 -2   1003506   1003509   1003659   1003656   1003508   1003511   1003661   1003658
 -1      1193    1    0    1
 -2   1003509   1003512   1003662   1003659   1003511   1003514   1003664   1003661
 -1      1194    1    0    1
 -2   1003512   1003515   1003665   1003662   1003514   1003517   1003667   1003664
 -1      1195    1    0    1
 -2   1003515   1003518   1003668   1003665   1003517   1003520   1003670   1003667
 -1      1196    1    0    1
 -2   1003518   1003521   1003671   1003668   1003520   1003523   1003673   1003670
 -1      1197    1    0    1
 -2   1003521   1003524   1003674   1003671   1003523   1003526   1003676   1003673
 -1      1198    1    0    1
 -2   1003524   1003527   1003677   1003674   1003526   1003529   1003679   1003676
 -1      1199    1    0    1
 -2   1003527   1003530   1003680   1003677   1003529   1003532   1003682   1003679
 -1      1200    1    0    1
 -2   1003530   1003533   1003683   1003680   1003532   1003535   1003685   1003682
 -1      1201    1    0    1
 -2   1003533   1003536   1003686   1003683   1003535   1003538   1003688   1003685
 -1      1202    1    0    1
 -2   1003536   1003539   1003689   1003686   1003538   1003541   1003691   1003688
 -1      1203    1    0    1
 -2   1003539   1003542   1003692   1003689   1003541   1003544   1003694   1003691
 -1      1204    1    0    1
 -2   1003542   1003545   1003695   1003692   1003544   1003547   1003697   1003694
 -1      1205    1    0    1
 -2   1003545   1003548   1003698   1003695   1003547   1003550   1003700   1003697
 -1      1206    1    0    1
 -2   1003548   1003551   1003701   1003698   1003550   1003553   1003703   1003700
 -1      1207    1    0    1
 -2   1003551   1003554   1003704   1003701   1003553   1003556   1003706   1003703
 -1      1208    1    0    1
 -2   1003554   1003557   1003707   1003704   1003556   1003559   1003709   1003706
 -1      1209    1    0    1
 -2   1003557   1003560   1003710   1003707   1003559   1003562   1003712   1003709
 -1      1210    1    0    1
 -2   1003560   1003563   1003713   1003710   1003562   1003565   1003715   1003712
 -1      1211    1    0    1
 -2   1003563   1003566   1003716   1003713   1003565   1003568   1003718   1003715
 -1      1212    1    0    1
 -2   1003566   1003569   1003719   1003716   1003568   1003571   1003721   1003718
 -1      1213    1    0    1
 -2   1003569   1003572   1003722   1003719   1003571   1003574   1003724   1003721
 -1      1214    1    0    1
 -2   1003572   1003575   1003725   1003722   1003574   1003577   1003727   1003724
 -1      1215    1    0    1
 -2   1003575   1003578   1003728   1003725   1003577   1003580   1003730   1003727
 -1      1216    1    0    1
 -2   1003578   1003581   1003731   1003728   1003580   1003583   1003733   1003730
 -1      1217    1    0    1
 -2   1003581   1003584   1003734   1003731   1003583   1003586   1003736   1003733
 -1      1218    1    0    1
 -2   1003584   1003587   1003737   1003734   1003586   1003589   1003739   1003736
 -1      1219    1    0    1
 -2   1003587   1003590   1003740   1003737   1003589   1003592   1003742   1003739
 -1      1220    1    0    1
 -2   1003590   1003593   1003743   1003740   1003592   1003595   1003745   1003742
 -1      1221    1    0    1
 -2   1003593   1003596   1003746   1003743   1003595   1003598   1003748   1003745
 -1      1222    1    0    1
 -2   1003596   1003599   1003749   1003746   1003598   1003601   1003751   1003748
 -1      1223    1    0    1
 -2   1003599   1003602   1003752   1003749   1003601   1003604   1003754   1003751
 -1      1224    1    0    1
 -2   1003602   1003605   1003755   1003752   1003604   1003607   1003757   1003754
 -1      1225    1    0    1
 -2   1003605   1003608   1003758   1003755   1003607   1003610   1003760   1003757
 -1      1226    1    0    1
 -2   1003608   1003611   1003761   1003758   1003610   1003613   1003763   1003760
 -1      1227    1    0    1
 -2   1003611   1003614   1003764   1003761   1003613   1003616   1003766   1003763
 -1      1228    1    0    1
 -2   1003614   1003617   1003767   1003764   1003616   1003619   1003769   1003766
 -1      1229    1    0    1
 -2   1003617   1003620   1003770   1003767   1003619   1003622   1003772   1003769
 -1      1230    1    0    1
 -2   1003620   1003623   1003773   1003770   1003622   1003625   1003775   1003772
 -1      1231    1    0    1
 -2   1003623   1003626   1003776   1003773   1003625   1003628   1003778   1003775
 -1      1232    1    0    1
 -2   1003626   1003629   1003779   1003776   1003628   1003631   1003781   1003778
 -1      1233    1    0    1
 -2   1003629   1000308   1000311   1003779   1003631   1000310   1000313   1003781
 -1      1234    1    0    1
 -2   1000074   1003632   1003782   1000077   1000076   1003634   1003784   1000079
 -1      1235    1    0    1
 -2   1003632   1003635   1003785   1003782   1003634   1003637   1003787   1003784
 -1      1236    1    0    1
 -2   1003635   1003638   1003788   1003785   1003637   1003640   1003790   1003787
 -1      1237    1    0    1
 -2   1003638   1003641   1003791   1003788   1003640   1003643   1003793   1003790
 -1      1238    1    0    1
 -2   1003641   1003644   1003794   1003791   1003643   1003646   1003796   1003793
 -1      1239    1    0    1
 -2   1003644   1003647   1003797   1003794   1003646   1003649   1003799   1003796
 -1      1240    1    0    1
 -2   1003647   1003650   1003800   1003797   1003649   1003652   1003802   1003799
 -1      1241    1    0    1
 -2   1003650   1003653   1003803   1003800   1003652   1003655   1003805   1003802
 -1      1242    1    0    1
 -2   1003653   1003656   1003806   1003803   1003655   1003658   1003808   1003805
 -1      1243    1    0    1
 -2   1003656   1003659   1003809   1003806   1003658   1003661   1003811   1003808
 -1      1244    1    0    1
 -2   1003659   1003662   1003812   1003809   1003661   1003664   1003814   1003811
 -1      1245    1    0    1
 -2   1003662   1003665   1003815   1003812   1003664   1003667   1003817   1003814
 -1      1246    1    0    1
 -2   1003665   1003668   1003818   1003815   1003667   1003670   1003820   1003817
 -1      1247    1    0    1
 -2   1003668   1003671   1003821   1003818   1003670   1003673   1003823   1003820
 -1      1248    1    0    1
 -2   1003671   1003674   1003824   1003821   1003673   1003676   1003826   1003823
 -1      1249    1    0    1
 -2   1003674   1003677   1003827   1003824   1003676   1003679   1003829   1003826
 -1      1250    1    0    1
 -2   1003677   1003680   1003830   1003827   1003679   1003682   1003832   1003829
 -1      1251    1    0    1
 -2   1003680   1003683   1003833   1003830   1003682   1003685   1003835   1003832
 -1      1252    1    0    1
 -2   1003683   1003686   1003836   1003833   1003685   1003688   1003838   1003835
 -1      1253    1    0    1
 -2   1003686   1003689   1003839   1003836   1003688   1003691   1003841   1003838
 -1      1254    1    0    1
 -2   1003689   1003692   1003842   1003839   1003691   1003694   1003844   1003841
 -1      1255    1    0    1
 -2   1003692   1003695   1003845   1003842   1003694   1003697   1003847   1003844
 -1      1256    1    0    1
 -2   1003695   1003698   1003848   1003845   1003697   1003700   1003850   1003847
 -1      1257    1    0    1
 -2   1003698   1003701   1003851   1003848   1003700   1003703   1003853   1003850
 -1      1258    1    0    1
 -2   1003701   1003704   1003854   1003851   1003703   1003706   1003856   1003853
 -1      1259    1    0    1
 -2   1003704   1003707   1003857   1003854   1003706   1003709   1003859   1003856
 -1      1260    1    0    1
 -2   1003707   1003710   1003860   1003857   1003709   1003712   1003862   1003859
 -1      1261    1    0    1
 -2   1003710   1003713   1003863   1003860   1003712   1003715   1003865   1003862
 -1      1262    1    0    1
 -2   1003713   1003716   1003866   1003863   1003715   1003718   1003868   1003865
 -1      1263    1    0    1
 -2   1003716   1003719   1003869   1003866   1003718   1003721   1003871   1003868
 -1      1264    1    0    1
 -2   1003719   1003722   1003872   1003869   1003721   1003724   1003874   1003871
 -1      1265    1    0    1
 -2   1003722   1003725   1003875   1003872   1003724   1003727   1003877   1003874
 -1      1266    1    0    1
 -2   1003725   1003728   1003878   1003875   1003727   1003730   1003880   1003877
 -1      1267    1    0    1
 -2   1003728   1003731   1003881   1003878   1003730   1003733   1003883   1003880
 -1      1268    1    0    1
 -2   1003731   1003734   1003884   1003881   1003733   1003736   1003886   1003883
 -1      1269    1    0    1
 -2   1003734   1003737   1003887   1003884   1003736   1003739   1003889   1003886
 -1      1270    1    0    1
 -2   1003737   1003740   1003890   1003887   1003739   1003742   1003892   1003889
 -1      1271    1    0    1
 -2   1003740   1003743   1003893   1003890   1003742   1003745   1003895   1003892
 -1      1272    1    0    1
 -2   1003743   1003746   1003896   1003893   1003745   1003748   1003898   1003895
 -1      1273    1    0    1
 -2   1003746   1003749   1003899   1003896   1003748   1003751   1003901   1003898
 -1      1274    1    0    1
 -2   1003749   1003752   1003902   1003899   1003751   1003754   1003904   1003901
 -1      1275    1    0    1
 -2   1003752   1003755   1003905   1003902   1003754   1003757   1003907   1003904
 -1      1276    1    0    1
 -2   1003755   1003758   1003908   1003905   1003757   1003760   1003910   1003907
 -1      1277    1    0    1
 -2   1003758   1003761   1003911   1003908   1003760   1003763   1003913   1003910
 -1      1278    1    0    1
 -2   1003761   1003764   1003914   1003911   1003763   1003766   1003916   1003913
 -1      1279    1    0    1
 -2   1003764   1003767   1003917   1003914   1003766   1003769   1003919   1003916
 -1      1280    1    0    1
 -2   1003767   1003770   1003920   1003917   1003769   1003772   1003922   1003919
 -1      1281    1    0    1
 -2   1003770   1003773   1003923   1003920   1003772   1003775   1003925   1003922
 -1      1282    1    0    1
 -2   1003773   1003776   1003926   1003923   1003775   1003778   1003928   1003925
 -1      1283    1    0    1
 -2   1003776   1003779   1003929   1003926   1003778   1003781   1003931   1003928
 -1      1284    1    0    1
 -2   1003779   1000311   1000314   1003929   1003781   1000313   1000316   1003931
 -1      1285    1    0    1
 -2   1000077   1003782   1003932   1000080   1000079   1003784   1003934   1000082
 -1      1286    1    0    1
 -2   1003782   1003785   1003935   1003932   1003784   1003787   1003937   1003934
 -1      1287    1    0    1
 -2   1003785   1003788   1003938   1003935   1003787   1003790   1003940   1003937
 -1      1288    1    0    1
 -2   1003788   1003791   1003941   1003938   1003790   1003793   1003943   1003940
 -1      1289    1    0    1
 -2   1003791   1003794   1003944   1003941   1003793   1003796   1003946   1003943
 -1      1290    1    0    1
 -2   1003794   1003797   1003947   1003944   1003796   1003799   1003949   1003946
 -1      1291    1    0    1
 -2   1003797   1003800   1003950   1003947   1003799   1003802   1003952   1003949
 -1      1292    1    0    1
 -2   1003800   1003803   1003953   1003950   1003802   1003805   1003955   1003952
 -1      1293    1    0    1
 -2   1003803   1003806   1003956   1003953   1003805   1003808   1003958   1003955
 -1      1294    1    0    1
 -2   1003806   1003809   1003959   1003956   1003808   1003811   1003961   1003958
 -1      1295    1    0    1
 -2   1003809   1003812   1003962   1003959   1003811   1003814   1003964   1003961
 -1      1296    1    0    1
 -2   1003812   1003815   1003965   1003962   1003814   1003817   1003967   1003964
 -1      1297    1    0    1
 -2   1003815   1003818   1003968   1003965   1003817   1003820   1003970   1003967
 -1      1298    1    0    1
 -2   1003818   1003821   1003971   1003968   1003820   1003823   1003973   1003970
 -1      1299    1    0    1
 -2   1003821   1003824   1003974   1003971   1003823   1003826   1003976   1003973
 -1      1300    1    0    1
 -2   1003824   1003827   1003977   1003974   1003826   1003829   1003979   1003976
 -1      1301    1    0    1
 -2   1003827   1003830   1003980   1003977   1003829   1003832   1003982   1003979
 -1      1302    1    0    1
 -2   1003830   1003833   1003983   1003980   1003832   1003835   1003985   1003982
 -1      1303    1    0    1
 -2   1003833   1003836   1003986   1003983   1003835   1003838   1003988   1003985
 -1      1304    1    0    1
 -2   1003836   1003839   1003989   1003986   1003838   1003841   1003991   1003988
 -1      1305    1    0    1
 -2   1003839   1003842   1003992   1003989   1003841   1003844   1003994   1003991
 -1      1306    1    0    1
 -2   1003842   1003845   1003995   1003992   1003844   1003847   1003997   1003994
 -1      1307    1    0    1
 -2   1003845   1003848   1003998   1003995   1003847   1003850   1004000   1003997
 -1      1308    1    0    1
 -2   1003848   1003851   1004001   1003998   1003850   1003853   1004003   1004000
 -1      1309    1    0    1
 -2   1003851   1003854   1004004   1004001   1003853   1003856   1004006   1004003
 -1      1310    1    0    1
 -2   1003854   1003857   1004007   1004004   1003856   1003859   1004009   1004006
 -1      1311    1    0    1
 -2   1003857   1003860   1004010   1004007   1003859   1003862   1004012   1004009
 -1      1312    1    0    1
 -2   1003860   1003863   1004013   1004010   1003862   1003865   1004015   1004012
 -1      1313    1    0    1
 -2   1003863   1003866   1004016   1004013   1003865   1003868   1004018   1004015
 -1      1314    1    0    1
 -2   1003866   1003869   1004019   1004016   1003868   1003871   1004021   1004018
 -1      1315    1    0    1
 -2   1003869   1003872   1004022   1004019   1003871   1003874   1004024   1004021
 -1      1316    1    0    1
 -2   1003872   1003875   1004025   1004022   1003874   1003877   1004027   1004024
 -1      1317    1    0    1
 -2   1003875   1003878   1004028   1004025   1003877   1003880   1004030   1004027
 -1      1318    1    0    1
 -2   1003878   1003881   1004031   1004028   1003880   1003883   1004033   1004030
 -1      1319    1    0    1
 -2   1003881   1003884   1004034   1004031   1003883   1003886   1004036   1004033
 -1      1320    1    0    1
 -2   1003884   1003887   1004037   1004034   1003886   1003889   1004039   1004036
 -1      1321    1    0    1
 -2   1003887   1003890   1004040   1004037   1003889   1003892   1004042   1004039
 -1      1322    1    0    1
 -2   1003890   1003893   1004043   1004040   1003892   1003895   1004045   1004042
 -1      1323    1    0    1
 -2   1003893   1003896   1004046   1004043   1003895   1003898   1004048   1004045
 -1      1324    1    0    1
 -2   1003896   1003899   1004049   1004046   1003898   1003901   1004051   1004048
 -1      1325    1    0    1
 -2   1003899   1003902   1004052   1004049   1003901   1003904   1004054   1004051
 -1      1326    1    0    1
 -2   1003902   1003905   1004055   1004052   1003904   1003907   1004057   1004054
 -1      1327    1    0    1
 -2   1003905   1003908   1004058   1004055   1003907   1003910   1004060   1004057
 -1      1328    1    0    1
 -2   1003908   1003911   1004061   1004058   1003910   1003913   1004063   1004060
 -1      1329    1    0    1
 -2   1003911   1003914   1004064   1004061   1003913   1003916   1004066   1004063
 -1      1330    1    0    1
 -2   1003914   1003917   1004067   1004064   1003916   1003919   1004069   1004066
 -1      1331    1    0    1
 -2   1003917   1003920   1004070   1004067   1003919   1003922   1004072   1004069
 -1      1332    1    0    1
 -2   1003920   1003923   1004073   1004070   1003922   1003925   1004075   1004072
 -1      1333    1    0    1
 -2   1003923   1003926   1004076   1004073   1003925   1003928   1004078   1004075
 -1      1334    1    0    1
 -2   1003926   1003929   1004079   1004076   1003928   1003931   1004081   1004078
 -1      1335    1    0    1
 -2   1003929   1000314   1000317   1004079   1003931   1000316   1000319   1004081
 -1      1336    1    0    1
 -2   1000080   1003932   1004082   1000083   1000082   1003934   1004084   1000085
 -1      1337    1    0    1
 -2   1003932   1003935   1004085   1004082   1003934   1003937   1004087   1004084
 -1      1338    1    0    1
 -2   1003935   1003938   1004088   1004085   1003937   1003940   1004090   1004087
 -1      1339    1    0    1
 -2   1003938   1003941   1004091   1004088   1003940   1003943   1004093   1004090
 -1      1340    1    0    1
 -2   1003941   1003944   1004094   1004091   1003943   1003946   1004096   1004093
 -1      1341    1    0    1
 -2   1003944   1003947   1004097   1004094   1003946   1003949   1004099   1004096
 -1      1342    1    0    1
 -2   1003947   1003950   1004100   1004097   1003949   1003952   1004102   1004099
 -1      1343    1    0    1
 -2   1003950   1003953   1004103   1004100   1003952   1003955   1004105   1004102
 -1      1344    1    0    1
 -2   1003953   1003956   1004106   1004103   1003955   1003958   1004108   1004105
 -1      1345    1    0    1
 -2   1003956   1003959   1004109   1004106   1003958   1003961   1004111   1004108
 -1      1346    1    0    1
 -2   1003959   1003962   1004112   1004109   1003961   1003964   1004114   1004111
 -1      1347    1    0    1
 -2   1003962   1003965   1004115   1004112   1003964   1003967   1004117   1004114
 -1      1348    1    0    1
 -2   1003965   1003968   1004118   1004115   1003967   1003970   1004120   1004117
 -1      1349    1    0    1
 -2   1003968   1003971   1004121   1004118   1003970   1003973   1004123   1004120
 -1      1350    1    0    1
 -2   1003971   1003974   1004124   1004121   1003973   1003976   1004126   1004123
 -1      1351    1    0    1
 -2   1003974   1003977   1004127   1004124   1003976   1003979   1004129   1004126
 -1      1352    1    0    1
 -2   1003977   1003980   1004130   1004127   1003979   1003982   1004132   1004129
 -1      1353    1    0    1
 -2   1003980   1003983   1004133   1004130   1003982   1003985   1004135   1004132
 -1      1354    1    0    1
 -2   1003983   1003986   1004136   1004133   1003985   1003988   1004138   1004135
 -1      1355    1    0    1
 -2   1003986   1003989   1004139   1004136   1003988   1003991   1004141   1004138
 -1      1356    1    0    1
 -2   1003989   1003992   1004142   1004139   1003991   1003994   1004144   1004141
 -1      1357    1    0    1
 -2   1003992   1003995   1004145   1004142   1003994   1003997   1004147   1004144
 -1      1358    1    0    1
 -2   1003995   1003998   1004148   1004145   1003997   1004000   1004150   1004147
 -1      1359    1    0    1
 -2   1003998   1004001   1004151   1004148   1004000   1004003   1004153   1004150
 -1      1360    1    0    1
 -2   1004001   1004004   1004154   1004151   1004003   1004006   1004156   1004153
 -1      1361    1    0    1
 -2   1004004   1004007   1004157   1004154   1004006   1004009   1004159   1004156
 -1      1362    1    0    1
 -2   1004007   1004010   1004160   1004157   1004009   1004012   1004162   1004159
 -1      1363    1    0    1
 -2   1004010   1004013   1004163   1004160   1004012   1004015   1004165   1004162
 -1      1364    1    0    1
 -2   1004013   1004016   1004166   1004163   1004015   1004018   1004168   1004165
 -1      1365    1    0    1
 -2   1004016   1004019   1004169   1004166   1004018   1004021   1004171   1004168
 -1      1366    1    0    1
 -2   1004019   1004022   1004172   1004169   1004021   1004024   1004174   1004171
 -1      1367    1    0    1
 -2   1004022   1004025   1004175   1004172   1004024   1004027   1004177   1004174
 -1      1368    1    0    1
 -2   1004025   1004028   1004178   1004175   1004027   1004030   1004180   1004177
 -1      1369    1    0    1
 -2   1004028   1004031   1004181   1004178   1004030   1004033   1004183   1004180
 -1      1370    1    0    1
 -2   1004031   1004034   1004184   1004181   1004033   1004036   1004186   1004183
 -1      1371    1    0    1
 -2   1004034   1004037   1004187   1004184   1004036   1004039   1004189   1004186
 -1      1372    1    0    1
 -2   1004037   1004040   1004190   1004187   1004039   1004042   1004192   1004189
 -1      1373    1    0    1
 -2   1004040   1004043   1004193   1004190   1004042   1004045   1004195   1004192
 -1      1374    1    0    1
 -2   1004043   1004046   1004196   1004193   1004045   1004048   1004198   1004195
 -1      1375    1    0    1
 -2   1004046   1004049   1004199   1004196   1004048   1004051   1004201   1004198
 -1      1376    1    0    1
 -2   1004049   1004052   1004202   1004199   1004051   1004054   1004204   1004201
 -1      1377    1    0    1
 -2   1004052   1004055   1004205   1004202   1004054   1004057   1004207   1004204
 -1      1378    1    0    1
 -2   1004055   1004058   1004208   1004205   1004057   1004060   1004210   1004207
 -1      1379    1    0    1
 -2   1004058   1004061   1004211   1004208   1004060   1004063   1004213   1004210
 -1      1380    1    0    1
 -2   1004061   1004064   1004214   1004211   1004063   1004066   1004216   1004213
 -1      1381    1    0    1
 -2   1004064   1004067   1004217   1004214   1004066   1004069   1004219   1004216
 -1      1382    1    0    1
 -2   1004067   1004070   1004220   1004217   1004069   1004072   1004222   1004219
 -1      1383    1    0    1
 -2   1004070   1004073   1004223   1004220   1004072   1004075   1004225   1004222
 -1      1384    1    0    1
 -2   1004073   1004076   1004226   1004223   1004075   1004078   1004228   1004225
 -1      1385    1    0    1
 -2   1004076   1004079   1004229   1004226   1004078   1004081   1004231   1004228
 -1      1386    1    0    1
 -2   1004079   1000317   1000320   1004229   1004081   1000319   1000322   1004231
 -1      1387    1    0    1
 -2   1000083   1004082   1004232   1000086   1000085   1004084   1004234   1000088
 -1      1388    1    0    1
 -2   1004082   1004085   1004235   1004232   1004084   1004087   1004237   1004234
 -1      1389    1    0    1
 -2   1004085   1004088   1004238   1004235   1004087   1004090   1004240   1004237
 -1      1390    1    0    1
 -2   1004088   1004091   1004241   1004238   1004090   1004093   1004243   1004240
 -1      1391    1    0    1
 -2   1004091   1004094   1004244   1004241   1004093   1004096   1004246   1004243
 -1      1392    1    0    1
 -2   1004094   1004097   1004247   1004244   1004096   1004099   1004249   1004246
 -1      1393    1    0    1
 -2   1004097   1004100   1004250   1004247   1004099   1004102   1004252   1004249
 -1      1394    1    0    1
 -2   1004100   1004103   1004253   1004250   1004102   1004105   1004255   1004252
 -1      1395    1    0    1
 -2   1004103   1004106   1004256   1004253   1004105   1004108   1004258   1004255
 -1      1396    1    0    1
 -2   1004106   1004109   1004259   1004256   1004108   1004111   1004261   1004258
 -1      1397    1    0    1
 -2   1004109   1004112   1004262   1004259   1004111   1004114   1004264   1004261
 -1      1398    1    0    1
 -2   1004112   1004115   1004265   1004262   1004114   1004117   1004267   1004264
 -1      1399    1    0    1
 -2   1004115   1004118   1004268   1004265   1004117   1004120   1004270   1004267
 -1      1400    1    0    1
 -2   1004118   1004121   1004271   1004268   1004120   1004123   1004273   1004270
 -1      1401    1    0    1
 -2   1004121   1004124   1004274   1004271   1004123   1004126   1004276   1004273
 -1      1402    1    0    1
 -2   1004124   1004127   1004277   1004274   1004126   1004129   1004279   1004276
 -1      1403    1    0    1
 -2   1004127   1004130   1004280   1004277   1004129   1004132   1004282   1004279
 -1      1404    1    0    1
 -2   1004130   1004133   1004283   1004280   1004132   1004135   1004285   1004282
 -1      1405    1    0    1
 -2   1004133   1004136   1004286   1004283   1004135   1004138   1004288   1004285
 -1      1406    1    0    1
 -2   1004136   1004139   1004289   1004286   1004138   1004141   1004291   1004288
 -1      1407    1    0    1
 -2   1004139   1004142   1004292   1004289   1004141   1004144   1004294   1004291
 -1      1408    1    0    1
 -2   1004142   1004145   1004295   1004292   1004144   1004147   1004297   1004294
 -1      1409    1    0    1
 -2   1004145   1004148   1004298   1004295   1004147   1004150   1004300   1004297
 -1      1410    1    0    1
 -2   1004148   1004151   1004301   1004298   1004150   1004153   1004303   1004300
 -1      1411    1    0    1
 -2   1004151   1004154   1004304   1004301   1004153   1004156   1004306   1004303
 -1      1412    1    0    1
 -2   1004154   1004157   1004307   1004304   1004156   1004159   1004309   1004306
 -1      1413    1    0    1
 -2   1004157   1004160   1004310   1004307   1004159   1004162   1004312   1004309
 -1      1414    1    0    1
 -2   1004160   1004163   1004313   1004310   1004162   1004165   1004315   1004312
 -1      1415    1    0    1
 -2   1004163   1004166   1004316   1004313   1004165   1004168   1004318   1004315
 -1      1416    1    0    1
 -2   1004166   1004169   1004319   1004316   1004168   1004171   1004321   1004318
 -1      1417    1    0    1
 -2   1004169   1004172   1004322   1004319   1004171   1004174   1004324   1004321
 -1      1418    1    0    1
 -2   1004172   1004175   1004325   1004322   1004174   1004177   1004327   1004324
 -1      1419    1    0    1
 -2   1004175   1004178   1004328   1004325   1004177   1004180   1004330   1004327
 -1      1420    1    0    1
 -2   1004178   1004181   1004331   1004328   1004180   1004183   1004333   1004330
 -1      1421    1    0    1
 -2   1004181   1004184   1004334   1004331   1004183   1004186   1004336   1004333
 -1      1422    1    0    1
 -2   1004184   1004187   1004337   1004334   1004186   1004189   1004339   1004336
 -1      1423    1    0    1
 -2   1004187   1004190   1004340   1004337   1004189   1004192   1004342   1004339
 -1      1424    1    0    1
 -2   1004190   1004193   1004343   1004340   1004192   1004195   1004345   1004342
 -1      1425    1    0    1
 -2   1004193   1004196   1004346   1004343   1004195   1004198   1004348   1004345
 -1      1426    1    0    1
 -2   1004196   1004199   1004349   1004346   1004198   1004201   1004351   1004348
 -1      1427    1    0    1
 -2   1004199   1004202   1004352   1004349   1004201   1004204   1004354   1004351
 -1      1428    1    0    1
 -2   1004202   1004205   1004355   1004352   1004204   1004207   1004357   1004354
 -1      1429    1    0    1
 -2   1004205   1004208   1004358   1004355   1004207   1004210   1004360   1004357
 -1      1430    1    0    1
 -2   1004208   1004211   1004361   1004358   1004210   1004213   1004363   1004360
 -1      1431    1    0    1
 -2   1004211   1004214   1004364   1004361   1004213   1004216   1004366   1004363
 -1      1432    1    0    1
 -2   1004214   1004217   1004367   1004364   1004216   1004219   1004369   1004366
 -1      1433    1    0    1
 -2   1004217   1004220   1004370   1004367   1004219   1004222   1004372   1004369
 -1      1434    1    0    1
 -2   1004220   1004223   1004373   1004370   1004222   1004225   1004375   1004372
 -1      1435    1    0    1
 -2   1004223   1004226   1004376   1004373   1004225   1004228   1004378   1004375
 -1      1436    1    0    1
 -2   1004226   1004229   1004379   1004376   1004228   1004231   1004381   1004378
 -1      1437    1    0    1
 -2   1004229   1000320   1000323   1004379   1004231   1000322   1000325   1004381
 -1      1438    1    0    1
 -2   1000086   1004232   1004382   1000089   1000088   1004234   1004384   1000091
 -1      1439    1    0    1
 -2   1004232   1004235   1004385   1004382   1004234   1004237   1004387   1004384
 -1      1440    1    0    1
 -2   1004235   1004238   1004388   1004385   1004237   1004240   1004390   1004387
 -1      1441    1    0    1
 -2   1004238   1004241   1004391   1004388   1004240   1004243   1004393   1004390
 -1      1442    1    0    1
 -2   1004241   1004244   1004394   1004391   1004243   1004246   1004396   1004393
 -1      1443    1    0    1
 -2   1004244   1004247   1004397   1004394   1004246   1004249   1004399   1004396
 -1      1444    1    0    1
 -2   1004247   1004250   1004400   1004397   1004249   1004252   1004402   1004399
 -1      1445    1    0    1
 -2   1004250   1004253   1004403   1004400   1004252   1004255   1004405   1004402
 -1      1446    1    0    1
 -2   1004253   1004256   1004406   1004403   1004255   1004258   1004408   1004405
 -1      1447    1    0    1
 -2   1004256   1004259   1004409   1004406   1004258   1004261   1004411   1004408
 -1      1448    1    0    1
 -2   1004259   1004262   1004412   1004409   1004261   1004264   1004414   1004411
 -1      1449    1    0    1
 -2   1004262   1004265   1004415   1004412   1004264   1004267   1004417   1004414
 -1      1450    1    0    1
 -2   1004265   1004268   1004418   1004415   1004267   1004270   1004420   1004417
 -1      1451    1    0    1
 -2   1004268   1004271   1004421   1004418   1004270   1004273   1004423   1004420
 -1      1452    1    0    1
 -2   1004271   1004274   1004424   1004421   1004273   1004276   1004426   1004423
 -1      1453    1    0    1
 -2   1004274   1004277   1004427   1004424   1004276   1004279   1004429   1004426
 -1      1454    1    0    1
 -2   1004277   1004280   1004430   1004427   1004279   1004282   1004432   1004429
 -1      1455    1    0    1
 -2   1004280   1004283   1004433   1004430   1004282   1004285   1004435   1004432
 -1      1456    1    0    1
 -2   1004283   1004286   1004436   1004433   1004285   1004288   1004438   1004435
 -1      1457    1    0    1
 -2   1004286   1004289   1004439   1004436   1004288   1004291   1004441   1004438
 -1      1458    1    0    1
 -2   1004289   1004292   1004442   1004439   1004291   1004294   1004444   1004441
 -1      1459    1    0    1
 -2   1004292   1004295   1004445   1004442   1004294   1004297   1004447   1004444
 -1      1460    1    0    1
 -2   1004295   1004298   1004448   1004445   1004297   1004300   1004450   1004447
 -1      1461    1    0    1
 -2   1004298   1004301   1004451   1004448   1004300   1004303   1004453   1004450
 -1      1462    1    0    1
 -2   1004301   1004304   1004454   1004451   1004303   1004306   1004456   1004453
 -1      1463    1    0    1
 -2   1004304   1004307   1004457   1004454   1004306   1004309   1004459   1004456
 -1      1464    1    0    1
 -2   1004307   1004310   1004460   1004457   1004309   1004312   1004462   1004459
 -1      1465    1    0    1
 -2   1004310   1004313   1004463   1004460   1004312   1004315   1004465   1004462
 -1      1466    1    0    1
 -2   1004313   1004316   1004466   1004463   1004315   1004318   1004468   1004465
 -1      1467    1    0    1
 -2   1004316   1004319   1004469   1004466   1004318   1004321   1004471   1004468
 -1      1468    1    0    1
 -2   1004319   1004322   1004472   1004469   1004321   1004324   1004474   1004471
 -1      1469    1    0    1
 -2   1004322   1004325   1004475   1004472   1004324   1004327   1004477   1004474
 -1      1470    1    0    1
 -2   1004325   1004328   1004478   1004475   1004327   1004330   1004480   1004477
 -1      1471    1    0    1
 -2   1004328   1004331   1004481   1004478   1004330   1004333   1004483   1004480
 -1      1472    1    0    1
 -2   1004331   1004334   1004484   1004481   1004333   1004336   1004486   1004483
 -1      1473    1    0    1
 -2   1004334   1004337   1004487   1004484   1004336   1004339   1004489   1004486
 -1      1474    1    0    1
 -2   1004337   1004340   1004490   1004487   1004339   1004342   1004492   1004489
 -1      1475    1    0    1
 -2   1004340   1004343   1004493   1004490   1004342   1004345   1004495   1004492
 -1      1476    1    0    1
 -2   1004343   1004346   1004496   1004493   1004345   1004348   1004498   1004495
 -1      1477    1    0    1
 -2   1004346   1004349   1004499   1004496   1004348   1004351   1004501   1004498
 -1      1478    1    0    1
 -2   1004349   1004352   1004502   1004499   1004351   1004354   1004504   1004501
 -1      1479    1    0    1
 -2   1004352   1004355   1004505   1004502   1004354   1004357   1004507   1004504
 -1      1480    1    0    1
 -2   1004355   1004358   1004508   1004505   1004357   1004360   1004510   1004507
 -1      1481    1    0    1
 -2   1004358   1004361   1004511   1004508   1004360   1004363   1004513   1004510
 -1      1482    1    0    1
 -2   1004361   1004364   1004514   1004511   1004363   1004366   1004516   1004513
 -1      1483    1    0    1
 -2   1004364   1004367   1004517   1004514   1004366   1004369   1004519   1004516
 -1      1484    1    0    1
 -2   1004367   1004370   1004520   1004517   1004369   1004372   1004522   1004519
 -1      1485    1    0    1
 -2   1004370   1004373   1004523   1004520   1004372   1004375   1004525   1004522
 -1      1486    1    0    1
 -2   1004373   1004376   1004526   1004523   1004375   1004378   1004528   1004525
 -1      1487    1    0    1
 -2   1004376   1004379   1004529   1004526   1004378   1004381   1004531   1004528
 -1      1488    1    0    1
 -2   1004379   1000323   1000326   1004529   1004381   1000325   1000328   1004531
 -1      1489    1    0    1
 -2   1000089   1004382   1004532   1000092   1000091   1004384   1004534   1000094
 -1      1490    1    0    1
 -2   1004382   1004385   1004535   1004532   1004384   1004387   1004537   1004534
 -1      1491    1    0    1
 -2   1004385   1004388   1004538   1004535   1004387   1004390   1004540   1004537
 -1      1492    1    0    1
 -2   1004388   1004391   1004541   1004538   1004390   1004393   1004543   1004540
 -1      1493    1    0    1
 -2   1004391   1004394   1004544   1004541   1004393   1004396   1004546   1004543
 -1      1494    1    0    1
 -2   1004394   1004397   1004547   1004544   1004396   1004399   1004549   1004546
 -1      1495    1    0    1
 -2   1004397   1004400   1004550   1004547   1004399   1004402   1004552   1004549
 -1      1496    1    0    1
 -2   1004400   1004403   1004553   1004550   1004402   1004405   1004555   1004552
 -1      1497    1    0    1
 -2   1004403   1004406   1004556   1004553   1004405   1004408   1004558   1004555
 -1      1498    1    0    1
 -2   1004406   1004409   1004559   1004556   1004408   1004411   1004561   1004558
 -1      1499    1    0    1
 -2   1004409   1004412   1004562   1004559   1004411   1004414   1004564   1004561
 -1      1500    1    0    1
 -2   1004412   1004415   1004565   1004562   1004414   1004417   1004567   1004564
 -1      1501    1    0    1
 -2   1004415   1004418   1004568   1004565   1004417   1004420   1004570   1004567
 -1      1502    1    0    1
 -2   1004418   1004421   1004571   1004568   1004420   1004423   1004573   1004570
 -1      1503    1    0    1
 -2   1004421   1004424   1004574   1004571   1004423   1004426   1004576   1004573
 -1      1504    1    0    1
 -2   1004424   1004427   1004577   1004574   1004426   1004429   1004579   1004576
 -1      1505    1    0    1
 -2   1004427   1004430   1004580   1004577   1004429   1004432   1004582   1004579
 -1      1506    1    0    1
 -2   1004430   1004433   1004583   1004580   1004432   1004435   1004585   1004582
 -1      1507    1    0    1
 -2   1004433   1004436   1004586   1004583   1004435   1004438   1004588   1004585
 -1      1508    1    0    1
 -2   1004436   1004439   1004589   1004586   1004438   1004441   1004591   1004588
 -1      1509    1    0    1
 -2   1004439   1004442   1004592   1004589   1004441   1004444   1004594   1004591
 -1      1510    1    0    1
 -2   1004442   1004445   1004595   1004592   1004444   1004447   1004597   1004594
 -1      1511    1    0    1
 -2   1004445   1004448   1004598   1004595   1004447   1004450   1004600   1004597
 -1      1512    1    0    1
 -2   1004448   1004451   1004601   1004598   1004450   1004453   1004603   1004600
 -1      1513    1    0    1
 -2   1004451   1004454   1004604   1004601   1004453   1004456   1004606   1004603
 -1      1514    1    0    1
 -2   1004454   1004457   1004607   1004604   1004456   1004459   1004609   1004606
 -1      1515    1    0    1
 -2   1004457   1004460   1004610   1004607   1004459   1004462   1004612   1004609
 -1      1516    1    0    1
 -2   1004460   1004463   1004613   1004610   1004462   1004465   1004615   1004612
 -1      1517    1    0    1
 -2   1004463   1004466   1004616   1004613   1004465   1004468   1004618   1004615
 -1      1518    1    0    1
 -2   1004466   1004469   1004619   1004616   1004468   1004471   1004621   1004618
 -1      1519    1    0    1
 -2   1004469   1004472   1004622   1004619   1004471   1004474   1004624   1004621
 -1      1520    1    0    1
 -2   1004472   1004475   1004625   1004622   1004474   1004477   1004627   1004624
 -1      1521    1    0    1
 -2   1004475   1004478   1004628   1004625   1004477   1004480   1004630   1004627
 -1      1522    1    0    1
 -2   1004478   1004481   1004631   1004628   1004480   1004483   1004633   1004630
 -1      1523    1    0    1
 -2   1004481   1004484   1004634   1004631   1004483   1004486   1004636   1004633
 -1      1524    1    0    1
 -2   1004484   1004487   1004637   1004634   1004486   1004489   1004639   1004636
 -1      1525    1    0    1
 -2   1004487   1004490   1004640   1004637   1004489   1004492   1004642   1004639
 -1      1526    1    0    1
 -2   1004490   1004493   1004643   1004640   1004492   1004495   1004645   1004642
 -1      1527    1    0    1
 -2   1004493   1004496   1004646   1004643   1004495   1004498   1004648   1004645
 -1      1528    1    0    1
 -2   1004496   1004499   1004649   1004646   1004498   1004501   1004651   1004648
 -1      1529    1    0    1
 -2   1004499   1004502   1004652   1004649   1004501   1004504   1004654   1004651
 -1      1530    1    0    1
 -2   1004502   1004505   1004655   1004652   1004504   1004507   1004657   1004654
 -1      1531    1    0    1
 -2   1004505   1004508   1004658   1004655   1004507   1004510   1004660   1004657
 -1      1532    1    0    1
 -2   1004508   1004511   1004661   1004658   1004510   1004513   1004663   1004660
 -1      1533    1    0    1
 -2   1004511   1004514   1004664   1004661   1004513   1004516   1004666   1004663
 -1      1534    1    0    1
 -2   1004514   1004517   1004667   1004664   1004516   1004519   1004669   1004666
 -1      1535    1    0    1
 -2   1004517   1004520   1004670   1004667   1004519   1004522   1004672   1004669
 -1      1536    1    0    1
 -2   1004520   1004523   1004673   1004670   1004522   1004525   1004675   1004672
 -1      1537    1    0    1
 -2   1004523   1004526   1004676   1004673   1004525   1004528   1004678   1004675
 -1      1538    1    0    1
 -2   1004526   1004529   1004679   1004676   1004528   1004531   1004681   1004678
 -1      1539    1    0    1
 -2   1004529   1000326   1000329   1004679   1004531   1000328   1000331   1004681
 -1      1540    1    0    1
 -2   1000092   1004532   1000095   1000002   1000094   1004534   1000097   1000004
 -1      1541    1    0    1
 -2   1004532   1004535   1000098   1000095   1004534   1004537   1000100   1000097
 -1      1542    1    0    1
 -2   1004535   1004538   1000101   1000098   1004537   1004540   1000103   1000100
 -1      1543    1    0    1
 -2   1004538   1004541   1000104   1000101   1004540   1004543   1000106   1000103
 -1      1544    1    0    1
 -2   1004541   1004544   1000107   1000104   1004543   1004546   1000109   1000106
 -1      1545    1    0    1
 -2   1004544   1004547   1000110   1000107   1004546   1004549   1000112   1000109
 -1      1546    1    0    1
 -2   1004547   1004550   1000113   1000110   1004549   1004552   1000115   1000112
 -1      1547    1    0    1
 -2   1004550   1004553   1000116   1000113   1004552   1004555   1000118   1000115
 -1      1548    1    0    1
 -2   1004553   1004556   1000119   1000116   1004555   1004558   1000121   1000118
 -1      1549    1    0    1
 -2   1004556   1004559   1000122   1000119   1004558   1004561   1000124   1000121
 -1      1550    1    0    1
 -2   1004559   1004562   1000125   1000122   1004561   1004564   1000127   1000124
 -1      1551    1    0    1
 -2   1004562   1004565   1000128   1000125   1004564   1004567   1000130   1000127
 -1      1552    1    0    1
 -2   1004565   1004568   1000131   1000128   1004567   1004570   1000133   1000130
 -1      1553    1    0    1
 -2   1004568   1004571   1000134   1000131   1004570   1004573   1000136   1000133
 -1      1554    1    0    1
 -2   1004571   1004574   1000137   1000134   1004573   1004576   1000139   1000136
 -1      1555    1    0    1
 -2   1004574   1004577   1000140   1000137   1004576   1004579   1000142   1000139
 -1      1556    1    0    1
 -2   1004577   1004580   1000143   1000140   1004579   1004582   1000145   1000142
 -1      1557    1    0    1
 -2   1004580   1004583   1000146   1000143   1004582   1004585   1000148   1000145
 -1      1558    1    0    1
 -2   1004583   1004586   1000149   1000146   1004585   1004588   1000151   1000148
 -1      1559    1    0    1
 -2   1004586   1004589   1000152   1000149   1004588   1004591   1000154   1000151
 -1      1560    1    0    1
 -2   1004589   1004592   1000155   1000152   1004591   1004594   1000157   1000154
 -1      1561    1    0    1
 -2   1004592   1004595   1000158   1000155   1004594   1004597   1000160   1000157
 -1      1562    1    0    1
 -2   1004595   1004598   1000161   1000158   1004597   1004600   1000163   1000160
 -1      1563    1    0    1
 -2   1004598   1004601   1000164   1000161   1004600   1004603   1000166   1000163
 -1      1564    1    0    1
 -2   1004601   1004604   1000167   1000164   1004603   1004606   1000169   1000166
 -1      1565    1    0    1
 -2   1004604   1004607   1000170   1000167   1004606   1004609   1000172   1000169
 -1      1566    1    0    1
 -2   1004607   1004610   1000173   1000170   1004609   1004612   1000175   1000172
 -1      1567    1    0    1
 -2   1004610   1004613   1000176   1000173   1004612   1004615   1000178   1000175
 -1      1568    1    0    1
 -2   1004613   1004616   1000179   1000176   1004615   1004618   1000181   1000178
 -1      1569    1    0    1
 -2   1004616   1004619   1000182   1000179   1004618   1004621   1000184   1000181
 -1      1570    1    0    1
 -2   1004619   1004622   1000185   1000182   1004621   1004624   1000187   1000184
 -1      1571    1    0    1
 -2   1004622   1004625   1000188   1000185   1004624   1004627   1000190   1000187
 -1      1572    1    0    1
 -2   1004625   1004628   1000191   1000188   1004627   1004630   1000193   1000190
 -1      1573    1    0    1
 -2   1004628   1004631   1000194   1000191   1004630   1004633   1000196   1000193
 -1      1574    1    0    1
 -2   1004631   1004634   1000197   1000194   1004633   1004636   1000199   1000196
 -1      1575    1    0    1
 -2   1004634   1004637   1000200   1000197   1004636   1004639   1000202   1000199
 -1      1576    1    0    1
 -2   1004637   1004640   1000203   1000200   1004639   1004642   1000205   1000202
 -1      1577    1    0    1
 -2   1004640   1004643   1000206   1000203   1004642   1004645   1000208   1000205
 -1      1578    1    0    1
 -2   1004643   1004646   1000209   1000206   1004645   1004648   1000211   1000208
 -1      1579    1    0    1
 -2   1004646   1004649   1000212   1000209   1004648   1004651   1000214   1000211
 -1      1580    1    0    1
 -2   1004649   1004652   1000215   1000212   1004651   1004654   1000217   1000214
 -1      1581    1    0    1
 -2   1004652   1004655   1000218   1000215   1004654   1004657   1000220   1000217
 -1      1582    1    0    1
 -2   1004655   1004658   1000221   1000218   1004657   1004660   1000223   1000220
 -1      1583    1    0    1
 -2   1004658   1004661   1000224   1000221   1004660   1004663   1000226   1000223
 -1      1584    1    0    1
 -2   1004661   1004664   1000227   1000224   1004663   1004666   1000229   1000226
 -1      1585    1    0    1
 -2   1004664   1004667   1000230   1000227   1004666   1004669   1000232   1000229
 -1      1586    1    0    1
 -2   1004667   1004670   1000233   1000230   1004669   1004672   1000235   1000232
 -1      1587    1    0    1
 -2   1004670   1004673   1000236   1000233   1004672   1004675   1000238   1000235
 -1      1588    1    0    1
 -2   1004673   1004676   1000239   1000236   1004675   1004678   1000241   1000238
 -1      1589    1    0    1
 -2   1004676   1004679   1000242   1000239   1004678   1004681   1000244   1000241
 -1      1590    1    0    1
 -2   1004679   1000329   1000005   1000242   1004681   1000331   1000007   1000244
 -3
    1PSTEP                         1           1           1          
  100CL  101 1.000000000        3120                     0    1           1
 -4  DISP        4    1
 -5  D1          1    2    1    0
 -5  D2          1    2    2    0
 -5  D3          1    2    3    0
 -5  ALL         1    2    0    0    1ALL
 -1   1000002 1.48778E-05 1.90359E-16-1.83580E-04
 -1   1000004-1.48778E-05-1.90359E-16 1.83580E-04
 -1   1000005 2.29130E-02-3.91293E-09-7.63059E-01
 -1   1000007 2.28901E-02-3.92646E-09-7.63059E-01
 -1   1000008 1.45526E-05 3.09326E-06-1.83580E-04
 -1   1000010-1.45526E-05-3.09326E-06 1.83580E-04
 -1   1000011 1.35915E-05 6.05133E-06-1.83580E-04
 -1   1000013-1.35915E-05-6.05133E-06 1.83580E-04
 -1   1000014 1.20364E-05 8.74493E-06-1.83580E-04
 -1   1000016-1.20364E-05-8.74493E-06 1.83580E-04
 -1   1000017 9.95516E-06 1.10563E-05-1.83580E-04
 -1   1000019-9.95516E-06-1.10563E-05 1.83580E-04
 -1   1000020 7.43888E-06 1.28845E-05-1.83580E-04
 -1   1000022-7.43888E-06-1.28845E-05 1.83580E-04
 -1   1000023 4.59748E-06 1.41496E-05-1.83580E-04
 -1   1000025-4.59748E-06-1.41496E-05 1.83580E-04
 -1   1000026 1.55515E-06 1.47963E-05-1.83580E-04
 -1   1000028-1.55515E-06-1.47963E-05 1.83580E-04
 -1   1000029-1.55515E-06 1.47963E-05-1.83580E-04
 -1   1000031 1.55515E-06-1.47963E-05 1.83580E-04
 -1   1000032-4.59748E-06 1.41496E-05-1.83580E-04
 -1   1000034 4.59748E-06-1.41496E-05 1.83580E-04
 -1   1000035-7.43888E-06 1.28845E-05-1.83580E-04
 -1   1000037 7.43888E-06-1.28845E-05 1.83580E-04
 -1   1000038-9.95516E-06 1.10563E-05-1.83580E-04
 -1   1000040 9.95516E-06-1.10563E-05 1.83580E-04
 -1   1000041-1.20364E-05 8.74493E-06-1.83580E-04
 -1   1000043 1.20364E-05-8.74493E-06 1.83580E-04
 -1   1000044-1.35915E-05 6.05133E-06-1.83580E-04
 -1   1000046 1.35915E-05-6.05133E-06 1.83580E-04
 -1   1000047-1.45526E-05 3.09326E-06-1.83580E-04
 -1   1000049 1.45526E-05-3.09326E-06 1.83580E-04
 -1   1000050-1.48778E-05-7.57967E-16-1.83580E-04
 -1   1000052 1.48778E-05 7.57967E-16 1.83580E-04
 -1   1000053-1.45526E-05-3.09326E-06-1.83580E-04
 -1   1000055 1.45526E-05 3.09326E-06 1.83580E-04
 -1   1000056-1.35915E-05-6.05133E-06-1.83580E-04
 -1   1000058 1.35915E-05 6.05133E-06 1.83580E-04
 -1   1000059-1.20364E-05-8.74493E-06-1.83580E-04
 -1   1000061 1.20364E-05 8.74493E-06 1.83580E-04
 -1   1000062-9.95516E-06-1.10563E-05-1.83580E-04
 -1   1000064 9.95516E-06 1.10563E-05 1.83580E-04
 -1   1000065-7.43888E-06-1.28845E-05-1.83580E-04
 -1   1000067 7.43888E-06 1.28845E-05 1.83580E-04
 -1   1000068-4.59748E-06-1.41496E-05-1.83580E-04
 -1   1000070 4.59748E-06 1.41496E-05 1.83580E-04
 -1   1000071-1.55515E-06-1.47963E-05-1.83580E-04
 -1   1000073 1.55515E-06 1.47963E-05 1.83580E-04
 -1   1000074 1.55515E-06-1.47963E-05-1.83580E-04
 -1   1000076-1.55515E-06 1.47963E-05 1.83580E-04
 -1   1000077 4.59748E-06-1.41496E-05-1.83580E-04
 -1   1000079-4.59748E-06 1.41496E-05 1.83580E-04
 -1   1000080 7.43888E-06-1.28845E-05-1.83580E-04
 -1   1000082-7.43888E-06 1.28845E-05 1.83580E-04
 -1   1000083 9.95516E-06-1.10563E-05-1.83580E-04
 -1   1000085-9.95516E-06 1.10563E-05 1.83580E-04
 -1   1000086 1.20364E-05-8.74493E-06-1.83580E-04
 -1   1000088-1.20364E-05 8.74493E-06 1.83580E-04
 -1   1000089 1.35915E-05-6.05133E-06-1.83580E-04
 -1   1000091-1.35915E-05 6.05133E-06 1.83580E-04
 -1   1000092 1.45526E-05-3.09326E-06-1.83580E-04
 -1   1000094-1.45526E-05 3.09326E-06 1.83580E-04
 -1   1000095 2.89581E-02-4.90849E-12-1.44360E-02
 -1   1000097 2.89370E-02-4.97140E-12-1.45111E-02
 -1   1000098 2.14007E-02-1.57829E-11-2.95762E-02
 -1   1000100 2.13773E-02-1.59484E-11-2.95773E-02
 -1   1000101 2.32207E-02-3.07984E-11-4.45203E-02
 -1   1000103 2.31979E-02-3.11199E-11-4.45009E-02
 -1   1000104 2.29243E-02-4.82253E-11-5.94783E-02
 -1   1000106 2.29014E-02-4.87120E-11-5.95007E-02
 -1   1000107 2.28302E-02-6.70107E-11-7.44676E-02
 -1   1000109 2.28073E-02-6.76084E-11-7.44462E-02
 -1   1000110 2.30116E-02-8.72486E-11-8.94171E-02
 -1   1000112 2.29887E-02-8.79275E-11-8.94367E-02
 -1   1000113 2.28227E-02-1.09386E-10-1.04405E-01
 -1   1000115 2.27998E-02-1.10153E-10-1.04388E-01
 -1   1000116 2.29992E-02-1.33112E-10-1.19358E-01
 -1   1000118 2.29763E-02-1.33937E-10-1.19374E-01
 -1   1000119 2.28390E-02-1.58318E-10-1.34343E-01
 -1   1000121 2.28161E-02-1.59144E-10-1.34329E-01
 -1   1000122 2.29832E-02-1.85945E-10-1.49299E-01
 -1   1000124 2.29603E-02-1.86779E-10-1.49312E-01
 -1   1000125 2.28537E-02-2.16769E-10-1.64281E-01
 -1   1000127 2.28308E-02-2.17629E-10-1.64269E-01
 -1   1000128 2.29699E-02-2.50919E-10-1.79239E-01
 -1   1000130 2.29470E-02-2.51812E-10-1.79250E-01
 -1   1000131 2.28657E-02-2.88169E-10-1.94219E-01
 -1   1000133 2.28428E-02-2.89133E-10-1.94210E-01
 -1   1000134 2.29591E-02-3.27779E-10-2.09180E-01
 -1   1000136 2.29362E-02-3.28859E-10-2.09188E-01
 -1   1000137 2.28753E-02-3.69034E-10-2.24157E-01
 -1   1000139 2.28524E-02-3.70215E-10-2.24150E-01
 -1   1000140 2.29505E-02-4.12746E-10-2.39120E-01
 -1   1000142 2.29276E-02-4.14001E-10-2.39126E-01
 -1   1000143 2.28831E-02-4.58851E-10-2.54096E-01
 -1   1000145 2.28601E-02-4.60167E-10-2.54090E-01
 -1   1000146 2.29436E-02-5.08516E-10-2.69059E-01
 -1   1000148 2.29207E-02-5.09909E-10-2.69065E-01
 -1   1000149 2.28893E-02-5.62530E-10-2.84034E-01
 -1   1000151 2.28664E-02-5.64030E-10-2.84029E-01
 -1   1000152 2.29380E-02-6.21215E-10-2.98999E-01
 -1   1000154 2.29151E-02-6.22855E-10-2.99003E-01
 -1   1000155 2.28943E-02-6.85269E-10-3.13973E-01
 -1   1000157 2.28714E-02-6.87111E-10-3.13969E-01
 -1   1000158 2.29335E-02-7.54264E-10-3.28939E-01
 -1   1000160 2.29106E-02-7.56348E-10-3.28942E-01
 -1   1000161 2.28983E-02-8.27985E-10-3.43912E-01
 -1   1000163 2.28754E-02-8.30340E-10-3.43909E-01
 -1   1000164 2.29299E-02-9.05872E-10-3.58878E-01
 -1   1000166 2.29070E-02-9.08526E-10-3.58881E-01
 -1   1000167 2.29015E-02-9.87633E-10-3.73851E-01
 -1   1000169 2.28786E-02-9.90578E-10-3.73848E-01
 -1   1000170 2.29270E-02-1.07387E-09-3.88818E-01
 -1   1000172 2.29041E-02-1.07715E-09-3.88820E-01
 -1   1000173 2.29041E-02-1.16542E-09-4.03790E-01
 -1   1000175 2.28812E-02-1.16910E-09-4.03788E-01
 -1   1000176 2.29247E-02-1.26070E-09-4.18757E-01
 -1   1000178 2.29018E-02-1.26482E-09-4.18759E-01
 -1   1000179 2.29062E-02-1.35948E-09-4.33729E-01
 -1   1000181 2.28833E-02-1.36403E-09-4.33727E-01
 -1   1000182 2.29228E-02-1.46114E-09-4.48697E-01
 -1   1000184 2.28999E-02-1.46610E-09-4.48698E-01
 -1   1000185 2.29079E-02-1.56553E-09-4.63668E-01
 -1   1000187 2.28850E-02-1.57089E-09-4.63666E-01
 -1   1000188 2.29213E-02-1.67292E-09-4.78636E-01
 -1   1000190 2.28984E-02-1.67874E-09-4.78637E-01
 -1   1000191 2.29092E-02-1.78324E-09-4.93607E-01
 -1   1000193 2.28863E-02-1.78956E-09-4.93606E-01
 -1   1000194 2.29202E-02-1.89509E-09-5.08575E-01
 -1   1000196 2.28973E-02-1.90188E-09-5.08576E-01
 -1   1000197 2.29103E-02-2.00725E-09-5.23546E-01
 -1   1000199 2.28873E-02-2.01445E-09-5.23545E-01
 -1   1000200 2.29192E-02-2.12132E-09-5.38515E-01
 -1   1000202 2.28963E-02-2.12888E-09-5.38515E-01
 -1   1000203 2.29111E-02-2.23529E-09-5.53485E-01
 -1   1000205 2.28882E-02-2.24321E-09-5.53484E-01
 -1   1000206 2.29185E-02-2.35169E-09-5.68454E-01
 -1   1000208 2.28956E-02-2.36001E-09-5.68455E-01
 -1   1000209 2.29117E-02-2.47161E-09-5.83424E-01
 -1   1000211 2.28888E-02-2.48040E-09-5.83424E-01
 -1   1000212 2.29179E-02-2.59351E-09-5.98393E-01
 -1   1000214 2.28950E-02-2.60285E-09-5.98394E-01
 -1   1000215 2.29122E-02-2.71637E-09-6.13363E-01
 -1   1000217 2.28893E-02-2.72625E-09-6.13363E-01
 -1   1000218 2.29175E-02-2.83909E-09-6.28333E-01
 -1   1000220 2.28946E-02-2.84943E-09-6.28333E-01
 -1   1000221 2.29126E-02-2.96063E-09-6.43302E-01
 -1   1000223 2.28897E-02-2.97136E-09-6.43302E-01
 -1   1000224 2.29172E-02-3.08157E-09-6.58272E-01
 -1   1000226 2.28943E-02-3.09268E-09-6.58272E-01
 -1   1000227 2.29128E-02-3.20225E-09-6.73242E-01
 -1   1000229 2.28899E-02-3.21375E-09-6.73241E-01
 -1   1000230 2.29170E-02-3.32327E-09-6.88211E-01
 -1   1000232 2.28941E-02-3.33516E-09-6.88211E-01
 -1   1000233 2.29130E-02-3.44348E-09-7.03181E-01
 -1   1000235 2.28901E-02-3.45575E-09-7.03181E-01
 -1   1000236 2.29169E-02-3.56308E-09-7.18150E-01
 -1   1000238 2.28940E-02-3.57573E-09-7.18150E-01
 -1   1000239 2.29130E-02-3.68151E-09-7.33120E-01
 -1   1000241 2.28901E-02-3.69450E-09-7.33120E-01
 -1   1000242 2.29169E-02-3.80104E-09-7.48090E-01
 -1   1000244 2.28940E-02-3.81432E-09-7.48089E-01
 -1   1000245 2.24123E-02 4.76388E-03-7.63059E-01
 -1   1000247 2.23899E-02 4.75912E-03-7.63059E-01
 -1   1000248 2.09321E-02 9.31955E-03-7.63059E-01
 -1   1000250 2.09112E-02 9.31024E-03-7.63059E-01
 -1   1000251 1.85370E-02 1.34679E-02-7.63059E-01
 -1   1000253 1.85185E-02 1.34545E-02-7.63059E-01
 -1   1000254 1.53318E-02 1.70277E-02-7.63059E-01
 -1   1000256 1.53165E-02 1.70106E-02-7.63059E-01
 -1   1000257 1.14565E-02 1.98432E-02-7.63059E-01
 -1   1000259 1.14451E-02 1.98234E-02-7.63059E-01
 -1   1000260 7.08051E-03 2.17915E-02-7.63059E-01
 -1   1000262 7.07343E-03 2.17698E-02-7.63059E-01
 -1   1000263 2.39506E-03 2.27875E-02-7.63059E-01
 -1   1000265 2.39267E-03 2.27647E-02-7.63059E-01
 -1   1000266-2.39506E-03 2.27875E-02-7.63059E-01
 -1   1000268-2.39267E-03 2.27647E-02-7.63059E-01
 -1   1000269-7.08051E-03 2.17916E-02-7.63059E-01
 -1   1000271-7.07343E-03 2.17698E-02-7.63059E-01
 -1   1000272-1.14565E-02 1.98432E-02-7.63059E-01
 -1   1000274-1.14451E-02 1.98234E-02-7.63059E-01
 -1   1000275-1.53318E-02 1.70277E-02-7.63059E-01
 -1   1000277-1.53165E-02 1.70107E-02-7.63059E-01
 -1   1000278-1.85370E-02 1.34679E-02-7.63059E-01
 -1   1000280-1.85185E-02 1.34545E-02-7.63059E-01
 -1   1000281-2.09321E-02 9.31956E-03-7.63059E-01
 -1   1000283-2.09112E-02 9.31025E-03-7.63059E-01
 -1   1000284-2.24123E-02 4.76388E-03-7.63059E-01
 -1   1000286-2.23899E-02 4.75912E-03-7.63059E-01
 -1   1000287-2.29130E-02 2.32038E-09-7.63059E-01
 -1   1000289-2.28901E-02 2.32743E-09-7.63059E-01
 -1   1000290-2.24123E-02-4.76388E-03-7.63059E-01
 -1   1000292-2.23899E-02-4.75912E-03-7.63059E-01
 -1   1000293-2.09321E-02-9.31956E-03-7.63059E-01
 -1   1000295-2.09112E-02-9.31024E-03-7.63059E-01
 -1   1000296-1.85370E-02-1.34679E-02-7.63059E-01
 -1   1000298-1.85185E-02-1.34545E-02-7.63059E-01
 -1   1000299-1.53318E-02-1.70277E-02-7.63059E-01
 -1   1000301-1.53165E-02-1.70107E-02-7.63059E-01
 -1   1000302-1.14565E-02-1.98432E-02-7.63059E-01
 -1   1000304-1.14451E-02-1.98234E-02-7.63059E-01
 -1   1000305-7.08051E-03-2.17916E-02-7.63059E-01
 -1   1000307-7.07343E-03-2.17698E-02-7.63059E-01
 -1   1000308-2.39506E-03-2.27875E-02-7.63059E-01
 -1   1000310-2.39266E-03-2.27647E-02-7.63059E-01
 -1   1000311 2.39507E-03-2.27875E-02-7.63059E-01
 -1   1000313 2.39267E-03-2.27647E-02-7.63059E-01
 -1   1000314 7.08051E-03-2.17916E-02-7.63059E-01
 -1   1000316 7.07344E-03-2.17698E-02-7.63059E-01
 -1   1000317 1.14565E-02-1.98432E-02-7.63059E-01
 -1   1000319 1.14451E-02-1.98234E-02-7.63059E-01
 -1   1000320 1.53318E-02-1.70277E-02-7.63059E-01
 -1   1000322 1.53165E-02-1.70107E-02-7.63059E-01
 -1   1000323 1.85370E-02-1.34679E-02-7.63059E-01
 -1   1000325 1.85185E-02-1.34545E-02-7.63059E-01
 -1   1000326 2.09321E-02-9.31956E-03-7.63059E-01
 -1   1000328 2.09112E-02-9.31025E-03-7.63059E-01
 -1   1000329 2.24123E-02-4.76389E-03-7.63059E-01
 -1   1000331 2.23899E-02-4.75912E-03-7.63059E-01
 -1   1000332 2.83253E-02 6.02073E-03-1.44360E-02
 -1   1000334 2.83047E-02 6.01634E-03-1.45111E-02
 -1   1000335 2.09330E-02 4.44945E-03-2.95762E-02
 -1   1000337 2.09102E-02 4.44459E-03-2.95773E-02
 -1   1000338 2.27133E-02 4.82786E-03-4.45203E-02
 -1   1000340 2.26910E-02 4.82312E-03-4.45009E-02
 -1   1000341 2.24233E-02 4.76622E-03-5.94783E-02
 -1   1000343 2.24009E-02 4.76146E-03-5.95007E-02
 -1   1000344 2.23313E-02 4.74666E-03-7.44676E-02
 -1   1000346 2.23089E-02 4.74189E-03-7.44462E-02
 -1   1000347 2.25087E-02 4.78437E-03-8.94171E-02
 -1   1000349 2.24863E-02 4.77962E-03-8.94367E-02
 -1   1000350 2.23240E-02 4.74511E-03-1.04405E-01
 -1   1000352 2.23016E-02 4.74035E-03-1.04388E-01
 -1   1000353 2.24966E-02 4.78179E-03-1.19358E-01
 -1   1000355 2.24742E-02 4.77704E-03-1.19374E-01
 -1   1000356 2.23399E-02 4.74850E-03-1.34343E-01
 -1   1000358 2.23175E-02 4.74373E-03-1.34329E-01
 -1   1000359 2.24809E-02 4.77847E-03-1.49299E-01
 -1   1000361 2.24585E-02 4.77371E-03-1.49312E-01
 -1   1000362 2.23543E-02 4.75156E-03-1.64281E-01
 -1   1000364 2.23319E-02 4.74679E-03-1.64269E-01
 -1   1000365 2.24679E-02 4.77570E-03-1.79239E-01
 -1   1000367 2.24455E-02 4.77094E-03-1.79250E-01
 -1   1000368 2.23660E-02 4.75404E-03-1.94219E-01
 -1   1000370 2.23436E-02 4.74928E-03-1.94210E-01
 -1   1000371 2.24574E-02 4.77347E-03-2.09180E-01
 -1   1000373 2.24350E-02 4.76871E-03-2.09188E-01
 -1   1000374 2.23754E-02 4.75604E-03-2.24157E-01
 -1   1000376 2.23530E-02 4.75128E-03-2.24150E-01
 -1   1000377 2.24490E-02 4.77168E-03-2.39120E-01
 -1   1000379 2.24266E-02 4.76692E-03-2.39126E-01
 -1   1000380 2.23830E-02 4.75765E-03-2.54096E-01
 -1   1000382 2.23606E-02 4.75289E-03-2.54090E-01
 -1   1000383 2.24422E-02 4.77023E-03-2.69059E-01
 -1   1000385 2.24198E-02 4.76547E-03-2.69065E-01
 -1   1000386 2.23891E-02 4.75895E-03-2.84034E-01
 -1   1000388 2.23667E-02 4.75418E-03-2.84029E-01
 -1   1000389 2.24367E-02 4.76907E-03-2.98999E-01
 -1   1000391 2.24143E-02 4.76431E-03-2.99003E-01
 -1   1000392 2.23940E-02 4.75999E-03-3.13973E-01
 -1   1000394 2.23716E-02 4.75522E-03-3.13969E-01
 -1   1000395 2.24323E-02 4.76814E-03-3.28939E-01
 -1   1000397 2.24100E-02 4.76338E-03-3.28942E-01
 -1   1000398 2.23979E-02 4.76082E-03-3.43912E-01
 -1   1000400 2.23755E-02 4.75606E-03-3.43909E-01
 -1   1000401 2.24288E-02 4.76739E-03-3.58878E-01
 -1   1000403 2.24064E-02 4.76263E-03-3.58881E-01
 -1   1000404 2.24011E-02 4.76149E-03-3.73851E-01
 -1   1000406 2.23787E-02 4.75673E-03-3.73848E-01
 -1   1000407 2.24260E-02 4.76679E-03-3.88818E-01
 -1   1000409 2.24036E-02 4.76203E-03-3.88820E-01
 -1   1000410 2.24036E-02 4.76203E-03-4.03790E-01
 -1   1000412 2.23812E-02 4.75727E-03-4.03788E-01
 -1   1000413 2.24237E-02 4.76631E-03-4.18757E-01
 -1   1000415 2.24013E-02 4.76155E-03-4.18759E-01
 -1   1000416 2.24057E-02 4.76247E-03-4.33729E-01
 -1   1000418 2.23832E-02 4.75770E-03-4.33727E-01
 -1   1000419 2.24219E-02 4.76592E-03-4.48697E-01
 -1   1000421 2.23995E-02 4.76116E-03-4.48698E-01
 -1   1000422 2.24073E-02 4.76281E-03-4.63668E-01
 -1   1000424 2.23849E-02 4.75805E-03-4.63666E-01
 -1   1000425 2.24205E-02 4.76561E-03-4.78636E-01
 -1   1000427 2.23981E-02 4.76085E-03-4.78637E-01
 -1   1000428 2.24086E-02 4.76309E-03-4.93607E-01
 -1   1000430 2.23862E-02 4.75832E-03-4.93606E-01
 -1   1000431 2.24193E-02 4.76537E-03-5.08575E-01
 -1   1000433 2.23969E-02 4.76060E-03-5.08576E-01
 -1   1000434 2.24096E-02 4.76331E-03-5.23546E-01
 -1   1000436 2.23872E-02 4.75854E-03-5.23545E-01
 -1   1000437 2.24184E-02 4.76517E-03-5.38515E-01
 -1   1000439 2.23960E-02 4.76041E-03-5.38515E-01
 -1   1000440 2.24104E-02 4.76348E-03-5.53485E-01
 -1   1000442 2.23880E-02 4.75872E-03-5.53484E-01
 -1   1000443 2.24177E-02 4.76502E-03-5.68454E-01
 -1   1000445 2.23953E-02 4.76026E-03-5.68455E-01
 -1   1000446 2.24110E-02 4.76361E-03-5.83424E-01
 -1   1000448 2.23886E-02 4.75885E-03-5.83424E-01
 -1   1000449 2.24171E-02 4.76490E-03-5.98393E-01
 -1   1000451 2.23947E-02 4.76014E-03-5.98394E-01
 -1   1000452 2.24115E-02 4.76371E-03-6.13363E-01
 -1   1000454 2.23891E-02 4.75895E-03-6.13363E-01
 -1   1000455 2.24167E-02 4.76481E-03-6.28333E-01
 -1   1000457 2.23943E-02 4.76005E-03-6.28333E-01
 -1   1000458 2.24119E-02 4.76379E-03-6.43302E-01
 -1   1000460 2.23895E-02 4.75903E-03-6.43302E-01
 -1   1000461 2.24164E-02 4.76475E-03-6.58272E-01
 -1   1000463 2.23940E-02 4.75999E-03-6.58272E-01
 -1   1000464 2.24121E-02 4.76384E-03-6.73242E-01
 -1   1000466 2.23897E-02 4.75908E-03-6.73241E-01
 -1   1000467 2.24162E-02 4.76471E-03-6.88211E-01
 -1   1000469 2.23938E-02 4.75995E-03-6.88211E-01
 -1   1000470 2.24123E-02 4.76387E-03-7.03181E-01
 -1   1000472 2.23899E-02 4.75911E-03-7.03181E-01
 -1   1000473 2.24161E-02 4.76469E-03-7.18150E-01
 -1   1000475 2.23937E-02 4.75993E-03-7.18150E-01
 -1   1000476 2.24123E-02 4.76388E-03-7.33120E-01
 -1   1000478 2.23899E-02 4.75912E-03-7.33120E-01
 -1   1000479 2.24161E-02 4.76468E-03-7.48090E-01
 -1   1000481 2.23937E-02 4.75992E-03-7.48089E-01
 -1   1000482 2.64545E-02 1.17783E-02-1.44360E-02
 -1   1000484 2.64353E-02 1.17697E-02-1.45111E-02
 -1   1000485 1.95505E-02 8.70443E-03-2.95762E-02
 -1   1000487 1.95291E-02 8.69493E-03-2.95773E-02
 -1   1000488 2.12132E-02 9.44472E-03-4.45203E-02
 -1   1000490 2.11923E-02 9.43544E-03-4.45009E-02
 -1   1000491 2.09424E-02 9.32414E-03-5.94783E-02
 -1   1000493 2.09214E-02 9.31482E-03-5.95007E-02
 -1   1000494 2.08564E-02 9.28587E-03-7.44676E-02
 -1   1000496 2.08355E-02 9.27655E-03-7.44462E-02
 -1   1000497 2.10221E-02 9.35965E-03-8.94171E-02
 -1   1000499 2.10012E-02 9.35034E-03-8.94367E-02
 -1   1000500 2.08496E-02 9.28284E-03-1.04405E-01
 -1   1000502 2.08287E-02 9.27352E-03-1.04388E-01
 -1   1000503 2.10108E-02 9.35460E-03-1.19358E-01
 -1   1000505 2.09899E-02 9.34529E-03-1.19374E-01
 -1   1000506 2.08645E-02 9.28947E-03-1.34343E-01
 -1   1000508 2.08435E-02 9.28014E-03-1.34329E-01
 -1   1000509 2.09962E-02 9.34809E-03-1.49299E-01
 -1   1000511 2.09753E-02 9.33879E-03-1.49312E-01
 -1   1000512 2.08779E-02 9.29545E-03-1.64281E-01
 -1   1000514 2.08570E-02 9.28613E-03-1.64269E-01
 -1   1000515 2.09840E-02 9.34269E-03-1.79239E-01
 -1   1000517 2.09631E-02 9.33338E-03-1.79250E-01
 -1   1000518 2.08888E-02 9.30031E-03-1.94219E-01
 -1   1000520 2.08679E-02 9.29099E-03-1.94210E-01
 -1   1000521 2.09742E-02 9.33832E-03-2.09180E-01
 -1   1000523 2.09533E-02 9.32901E-03-2.09188E-01
 -1   1000524 2.08976E-02 9.30423E-03-2.24157E-01
 -1   1000526 2.08767E-02 9.29491E-03-2.24150E-01
 -1   1000527 2.09663E-02 9.33481E-03-2.39120E-01
 -1   1000529 2.09454E-02 9.32550E-03-2.39126E-01
 -1   1000530 2.09047E-02 9.30737E-03-2.54096E-01
 -1   1000532 2.08838E-02 9.29805E-03-2.54090E-01
 -1   1000533 2.09600E-02 9.33199E-03-2.69059E-01
 -1   1000535 2.09391E-02 9.32268E-03-2.69065E-01
 -1   1000536 2.09104E-02 9.30991E-03-2.84034E-01
 -1   1000538 2.08895E-02 9.30059E-03-2.84029E-01
 -1   1000539 2.09549E-02 9.32972E-03-2.98999E-01
 -1   1000541 2.09340E-02 9.32041E-03-2.99003E-01
 -1   1000542 2.09150E-02 9.31194E-03-3.13973E-01
 -1   1000544 2.08940E-02 9.30262E-03-3.13969E-01
 -1   1000545 2.09508E-02 9.32789E-03-3.28939E-01
 -1   1000547 2.09299E-02 9.31858E-03-3.28942E-01
 -1   1000548 2.09186E-02 9.31358E-03-3.43912E-01
 -1   1000550 2.08977E-02 9.30426E-03-3.43909E-01
 -1   1000551 2.09475E-02 9.32643E-03-3.58878E-01
 -1   1000553 2.09266E-02 9.31711E-03-3.58881E-01
 -1   1000554 2.09216E-02 9.31489E-03-3.73851E-01
 -1   1000556 2.09007E-02 9.30557E-03-3.73848E-01
 -1   1000557 2.09449E-02 9.32525E-03-3.88818E-01
 -1   1000559 2.09239E-02 9.31593E-03-3.88820E-01
 -1   1000560 2.09240E-02 9.31594E-03-4.03790E-01
 -1   1000562 2.09030E-02 9.30663E-03-4.03788E-01
 -1   1000563 2.09427E-02 9.32430E-03-4.18757E-01
 -1   1000565 2.09218E-02 9.31499E-03-4.18759E-01
 -1   1000566 2.09259E-02 9.31679E-03-4.33729E-01
 -1   1000568 2.09049E-02 9.30747E-03-4.33727E-01
 -1   1000569 2.09410E-02 9.32355E-03-4.48697E-01
 -1   1000571 2.09201E-02 9.31423E-03-4.48698E-01
 -1   1000572 2.09274E-02 9.31747E-03-4.63668E-01
 -1   1000574 2.09065E-02 9.30815E-03-4.63666E-01
 -1   1000575 2.09397E-02 9.32294E-03-4.78636E-01
 -1   1000577 2.09188E-02 9.31363E-03-4.78637E-01
 -1   1000578 2.09286E-02 9.31800E-03-4.93607E-01
 -1   1000580 2.09077E-02 9.30869E-03-4.93606E-01
 -1   1000581 2.09386E-02 9.32246E-03-5.08575E-01
 -1   1000583 2.09177E-02 9.31315E-03-5.08576E-01
 -1   1000584 2.09296E-02 9.31843E-03-5.23546E-01
 -1   1000586 2.09086E-02 9.30912E-03-5.23545E-01
 -1   1000587 2.09378E-02 9.32208E-03-5.38515E-01
 -1   1000589 2.09168E-02 9.31277E-03-5.38515E-01
 -1   1000590 2.09303E-02 9.31877E-03-5.53485E-01
 -1   1000592 2.09094E-02 9.30945E-03-5.53484E-01
 -1   1000593 2.09371E-02 9.32178E-03-5.68454E-01
 -1   1000595 2.09162E-02 9.31247E-03-5.68455E-01
 -1   1000596 2.09309E-02 9.31903E-03-5.83424E-01
 -1   1000598 2.09100E-02 9.30971E-03-5.83424E-01
 -1   1000599 2.09366E-02 9.32155E-03-5.98393E-01
 -1   1000601 2.09156E-02 9.31224E-03-5.98394E-01
 -1   1000602 2.09313E-02 9.31923E-03-6.13363E-01
 -1   1000604 2.09104E-02 9.30991E-03-6.13363E-01
 -1   1000605 2.09362E-02 9.32138E-03-6.28333E-01
 -1   1000607 2.09153E-02 9.31207E-03-6.28333E-01
 -1   1000608 2.09317E-02 9.31938E-03-6.43302E-01
 -1   1000610 2.09108E-02 9.31006E-03-6.43302E-01
 -1   1000611 2.09359E-02 9.32126E-03-6.58272E-01
 -1   1000613 2.09150E-02 9.31194E-03-6.58272E-01
 -1   1000614 2.09319E-02 9.31948E-03-6.73242E-01
 -1   1000616 2.09110E-02 9.31016E-03-6.73241E-01
 -1   1000617 2.09357E-02 9.32118E-03-6.88211E-01
 -1   1000619 2.09148E-02 9.31186E-03-6.88211E-01
 -1   1000620 2.09320E-02 9.31954E-03-7.03181E-01
 -1   1000622 2.09111E-02 9.31022E-03-7.03181E-01
 -1   1000623 2.09356E-02 9.32114E-03-7.18150E-01
 -1   1000625 2.09147E-02 9.31182E-03-7.18150E-01
 -1   1000626 2.09321E-02 9.31956E-03-7.33120E-01
 -1   1000628 2.09112E-02 9.31024E-03-7.33120E-01
 -1   1000629 2.09356E-02 9.32113E-03-7.48090E-01
 -1   1000631 2.09147E-02 9.31181E-03-7.48089E-01
 -1   1000632 2.34276E-02 1.70211E-02-1.44360E-02
 -1   1000634 2.34105E-02 1.70087E-02-1.45111E-02
 -1   1000635 1.73135E-02 1.25790E-02-2.95762E-02
 -1   1000637 1.72946E-02 1.25653E-02-2.95773E-02
 -1   1000638 1.87860E-02 1.36488E-02-4.45203E-02
 -1   1000640 1.87675E-02 1.36354E-02-4.45009E-02
 -1   1000641 1.85461E-02 1.34745E-02-5.94783E-02
 -1   1000643 1.85276E-02 1.34611E-02-5.95007E-02
 -1   1000644 1.84700E-02 1.34192E-02-7.44676E-02
 -1   1000646 1.84515E-02 1.34058E-02-7.44462E-02
 -1   1000647 1.86167E-02 1.35259E-02-8.94171E-02
 -1   1000649 1.85982E-02 1.35124E-02-8.94367E-02
 -1   1000650 1.84640E-02 1.34149E-02-1.04405E-01
 -1   1000652 1.84454E-02 1.34014E-02-1.04388E-01
 -1   1000653 1.86067E-02 1.35186E-02-1.19358E-01
 -1   1000655 1.85882E-02 1.35051E-02-1.19374E-01
 -1   1000656 1.84772E-02 1.34244E-02-1.34343E-01
 -1   1000658 1.84586E-02 1.34110E-02-1.34329E-01
 -1   1000659 1.85938E-02 1.35092E-02-1.49299E-01
 -1   1000661 1.85753E-02 1.34957E-02-1.49312E-01
 -1   1000662 1.84891E-02 1.34331E-02-1.64281E-01
 -1   1000664 1.84705E-02 1.34196E-02-1.64269E-01
 -1   1000665 1.85830E-02 1.35013E-02-1.79239E-01
 -1   1000667 1.85645E-02 1.34879E-02-1.79250E-01
 -1   1000668 1.84987E-02 1.34401E-02-1.94219E-01
 -1   1000670 1.84802E-02 1.34266E-02-1.94210E-01
 -1   1000671 1.85743E-02 1.34950E-02-2.09180E-01
 -1   1000673 1.85558E-02 1.34816E-02-2.09188E-01
 -1   1000674 1.85065E-02 1.34458E-02-2.24157E-01
 -1   1000676 1.84880E-02 1.34323E-02-2.24150E-01
 -1   1000677 1.85673E-02 1.34900E-02-2.39120E-01
 -1   1000679 1.85488E-02 1.34765E-02-2.39126E-01
 -1   1000680 1.85128E-02 1.34503E-02-2.54096E-01
 -1   1000682 1.84942E-02 1.34369E-02-2.54090E-01
 -1   1000683 1.85617E-02 1.34859E-02-2.69059E-01
 -1   1000685 1.85432E-02 1.34724E-02-2.69065E-01
 -1   1000686 1.85178E-02 1.34540E-02-2.84034E-01
 -1   1000688 1.84993E-02 1.34405E-02-2.84029E-01
 -1   1000689 1.85572E-02 1.34826E-02-2.98999E-01
 -1   1000691 1.85387E-02 1.34691E-02-2.99003E-01
 -1   1000692 1.85219E-02 1.34569E-02-3.13973E-01
 -1   1000694 1.85033E-02 1.34435E-02-3.13969E-01
 -1   1000695 1.85536E-02 1.34800E-02-3.28939E-01
 -1   1000697 1.85351E-02 1.34665E-02-3.28942E-01
 -1   1000698 1.85251E-02 1.34593E-02-3.43912E-01
 -1   1000700 1.85066E-02 1.34458E-02-3.43909E-01
 -1   1000701 1.85507E-02 1.34779E-02-3.58878E-01
 -1   1000703 1.85321E-02 1.34644E-02-3.58881E-01
 -1   1000704 1.85277E-02 1.34612E-02-3.73851E-01
 -1   1000706 1.85092E-02 1.34477E-02-3.73848E-01
 -1   1000707 1.85483E-02 1.34762E-02-3.88818E-01
 -1   1000709 1.85298E-02 1.34627E-02-3.88820E-01
 -1   1000710 1.85298E-02 1.34627E-02-4.03790E-01
 -1   1000712 1.85113E-02 1.34492E-02-4.03788E-01
 -1   1000713 1.85465E-02 1.34748E-02-4.18757E-01
 -1   1000715 1.85279E-02 1.34613E-02-4.18759E-01
 -1   1000716 1.85315E-02 1.34639E-02-4.33729E-01
 -1   1000718 1.85130E-02 1.34505E-02-4.33727E-01
 -1   1000719 1.85450E-02 1.34737E-02-4.48697E-01
 -1   1000721 1.85264E-02 1.34602E-02-4.48698E-01
 -1   1000722 1.85329E-02 1.34649E-02-4.63668E-01
 -1   1000724 1.85143E-02 1.34514E-02-4.63666E-01
 -1   1000725 1.85438E-02 1.34728E-02-4.78636E-01
 -1   1000727 1.85252E-02 1.34594E-02-4.78637E-01
 -1   1000728 1.85339E-02 1.34657E-02-4.93607E-01
 -1   1000730 1.85154E-02 1.34522E-02-4.93606E-01
 -1   1000731 1.85428E-02 1.34721E-02-5.08575E-01
 -1   1000733 1.85243E-02 1.34587E-02-5.08576E-01
 -1   1000734 1.85348E-02 1.34663E-02-5.23546E-01
 -1   1000736 1.85162E-02 1.34528E-02-5.23545E-01
 -1   1000737 1.85420E-02 1.34716E-02-5.38515E-01
 -1   1000739 1.85235E-02 1.34581E-02-5.38515E-01
 -1   1000740 1.85354E-02 1.34668E-02-5.53485E-01
 -1   1000742 1.85169E-02 1.34533E-02-5.53484E-01
 -1   1000743 1.85414E-02 1.34711E-02-5.68454E-01
 -1   1000745 1.85229E-02 1.34577E-02-5.68455E-01
 -1   1000746 1.85360E-02 1.34672E-02-5.83424E-01
 -1   1000748 1.85174E-02 1.34537E-02-5.83424E-01
 -1   1000749 1.85410E-02 1.34708E-02-5.98393E-01
 -1   1000751 1.85225E-02 1.34573E-02-5.98394E-01
 -1   1000752 1.85364E-02 1.34675E-02-6.13363E-01
 -1   1000754 1.85178E-02 1.34540E-02-6.13363E-01
 -1   1000755 1.85406E-02 1.34706E-02-6.28333E-01
 -1   1000757 1.85221E-02 1.34571E-02-6.28333E-01
 -1   1000758 1.85367E-02 1.34677E-02-6.43302E-01
 -1   1000760 1.85181E-02 1.34542E-02-6.43302E-01
 -1   1000761 1.85404E-02 1.34704E-02-6.58272E-01
 -1   1000763 1.85219E-02 1.34569E-02-6.58272E-01
 -1   1000764 1.85369E-02 1.34678E-02-6.73242E-01
 -1   1000766 1.85183E-02 1.34543E-02-6.73241E-01
 -1   1000767 1.85402E-02 1.34703E-02-6.88211E-01
 -1   1000769 1.85217E-02 1.34568E-02-6.88211E-01
 -1   1000770 1.85370E-02 1.34679E-02-7.03181E-01
 -1   1000772 1.85184E-02 1.34544E-02-7.03181E-01
 -1   1000773 1.85402E-02 1.34702E-02-7.18150E-01
 -1   1000775 1.85216E-02 1.34567E-02-7.18150E-01
 -1   1000776 1.85370E-02 1.34679E-02-7.33120E-01
 -1   1000778 1.85185E-02 1.34545E-02-7.33120E-01
 -1   1000779 1.85402E-02 1.34702E-02-7.48090E-01
 -1   1000781 1.85216E-02 1.34567E-02-7.48089E-01
 -1   1000782 1.93768E-02 2.15201E-02-1.44360E-02
 -1   1000784 1.93626E-02 2.15044E-02-1.45111E-02
 -1   1000785 1.43198E-02 1.59038E-02-2.95762E-02
 -1   1000787 1.43042E-02 1.58864E-02-2.95773E-02
 -1   1000788 1.55377E-02 1.72564E-02-4.45203E-02
 -1   1000790 1.55224E-02 1.72394E-02-4.45009E-02
 -1   1000791 1.53393E-02 1.70361E-02-5.94783E-02
 -1   1000793 1.53240E-02 1.70190E-02-5.95007E-02
 -1   1000794 1.52764E-02 1.69661E-02-7.44676E-02
 -1   1000796 1.52610E-02 1.69491E-02-7.44462E-02
 -1   1000797 1.53977E-02 1.71009E-02-8.94171E-02
 -1   1000799 1.53824E-02 1.70839E-02-8.94367E-02
 -1   1000800 1.52714E-02 1.69606E-02-1.04405E-01
 -1   1000802 1.52561E-02 1.69436E-02-1.04388E-01
 -1   1000803 1.53894E-02 1.70917E-02-1.19358E-01
 -1   1000805 1.53741E-02 1.70747E-02-1.19374E-01
 -1   1000806 1.52823E-02 1.69727E-02-1.34343E-01
 -1   1000808 1.52669E-02 1.69557E-02-1.34329E-01
 -1   1000809 1.53787E-02 1.70798E-02-1.49299E-01
 -1   1000811 1.53634E-02 1.70628E-02-1.49312E-01
 -1   1000812 1.52921E-02 1.69836E-02-1.64281E-01
 -1   1000814 1.52768E-02 1.69666E-02-1.64269E-01
 -1   1000815 1.53698E-02 1.70699E-02-1.79239E-01
 -1   1000817 1.53545E-02 1.70529E-02-1.79250E-01
 -1   1000818 1.53001E-02 1.69925E-02-1.94219E-01
 -1   1000820 1.52848E-02 1.69755E-02-1.94210E-01
 -1   1000821 1.53627E-02 1.70620E-02-2.09180E-01
 -1   1000823 1.53473E-02 1.70450E-02-2.09188E-01
 -1   1000824 1.53066E-02 1.69997E-02-2.24157E-01
 -1   1000826 1.52912E-02 1.69826E-02-2.24150E-01
 -1   1000827 1.53569E-02 1.70555E-02-2.39120E-01
 -1   1000829 1.53416E-02 1.70385E-02-2.39126E-01
 -1   1000830 1.53117E-02 1.70054E-02-2.54096E-01
 -1   1000832 1.52964E-02 1.69884E-02-2.54090E-01
 -1   1000833 1.53522E-02 1.70504E-02-2.69059E-01
 -1   1000835 1.53369E-02 1.70334E-02-2.69065E-01
 -1   1000836 1.53159E-02 1.70100E-02-2.84034E-01
 -1   1000838 1.53006E-02 1.69930E-02-2.84029E-01
 -1   1000839 1.53485E-02 1.70462E-02-2.98999E-01
 -1   1000841 1.53332E-02 1.70292E-02-2.99003E-01
 -1   1000842 1.53193E-02 1.70138E-02-3.13973E-01
 -1   1000844 1.53039E-02 1.69967E-02-3.13969E-01
 -1   1000845 1.53455E-02 1.70429E-02-3.28939E-01
 -1   1000847 1.53302E-02 1.70259E-02-3.28942E-01
 -1   1000848 1.53220E-02 1.70168E-02-3.43912E-01
 -1   1000850 1.53066E-02 1.69997E-02-3.43909E-01
 -1   1000851 1.53431E-02 1.70402E-02-3.58878E-01
 -1   1000853 1.53278E-02 1.70232E-02-3.58881E-01
 -1   1000854 1.53241E-02 1.70192E-02-3.73851E-01
 -1   1000856 1.53088E-02 1.70021E-02-3.73848E-01
 -1   1000857 1.53412E-02 1.70381E-02-3.88818E-01
 -1   1000859 1.53258E-02 1.70211E-02-3.88820E-01
 -1   1000860 1.53259E-02 1.70211E-02-4.03790E-01
 -1   1000862 1.53105E-02 1.70041E-02-4.03788E-01
 -1   1000863 1.53396E-02 1.70364E-02-4.18757E-01
 -1   1000865 1.53243E-02 1.70193E-02-4.18759E-01
 -1   1000866 1.53272E-02 1.70226E-02-4.33729E-01
 -1   1000868 1.53119E-02 1.70056E-02-4.33727E-01
 -1   1000869 1.53384E-02 1.70350E-02-4.48697E-01
 -1   1000871 1.53230E-02 1.70180E-02-4.48698E-01
 -1   1000872 1.53284E-02 1.70239E-02-4.63668E-01
 -1   1000874 1.53130E-02 1.70068E-02-4.63666E-01
 -1   1000875 1.53374E-02 1.70339E-02-4.78636E-01
 -1   1000877 1.53220E-02 1.70168E-02-4.78637E-01
 -1   1000878 1.53292E-02 1.70248E-02-4.93607E-01
 -1   1000880 1.53139E-02 1.70078E-02-4.93606E-01
 -1   1000881 1.53366E-02 1.70330E-02-5.08575E-01
 -1   1000883 1.53213E-02 1.70160E-02-5.08576E-01
 -1   1000884 1.53299E-02 1.70256E-02-5.23546E-01
 -1   1000886 1.53146E-02 1.70086E-02-5.23545E-01
 -1   1000887 1.53359E-02 1.70323E-02-5.38515E-01
 -1   1000889 1.53206E-02 1.70153E-02-5.38515E-01
 -1   1000890 1.53305E-02 1.70262E-02-5.53485E-01
 -1   1000892 1.53152E-02 1.70092E-02-5.53484E-01
 -1   1000893 1.53355E-02 1.70317E-02-5.68454E-01
 -1   1000895 1.53201E-02 1.70147E-02-5.68455E-01
 -1   1000896 1.53309E-02 1.70267E-02-5.83424E-01
 -1   1000898 1.53156E-02 1.70097E-02-5.83424E-01
 -1   1000899 1.53351E-02 1.70313E-02-5.98393E-01
 -1   1000901 1.53198E-02 1.70143E-02-5.98394E-01
 -1   1000902 1.53313E-02 1.70271E-02-6.13363E-01
 -1   1000904 1.53159E-02 1.70101E-02-6.13363E-01
 -1   1000905 1.53348E-02 1.70310E-02-6.28333E-01
 -1   1000907 1.53195E-02 1.70140E-02-6.28333E-01
 -1   1000908 1.53315E-02 1.70273E-02-6.43302E-01
 -1   1000910 1.53162E-02 1.70103E-02-6.43302E-01
 -1   1000911 1.53346E-02 1.70308E-02-6.58272E-01
 -1   1000913 1.53193E-02 1.70138E-02-6.58272E-01
 -1   1000914 1.53317E-02 1.70275E-02-6.73242E-01
 -1   1000916 1.53163E-02 1.70105E-02-6.73241E-01
 -1   1000917 1.53345E-02 1.70306E-02-6.88211E-01
 -1   1000919 1.53191E-02 1.70136E-02-6.88211E-01
 -1   1000920 1.53318E-02 1.70276E-02-7.03181E-01
 -1   1000922 1.53164E-02 1.70106E-02-7.03181E-01
 -1   1000923 1.53344E-02 1.70306E-02-7.18150E-01
 -1   1000925 1.53191E-02 1.70135E-02-7.18150E-01
 -1   1000926 1.53318E-02 1.70277E-02-7.33120E-01
 -1   1000928 1.53165E-02 1.70107E-02-7.33120E-01
 -1   1000929 1.53344E-02 1.70306E-02-7.48090E-01
 -1   1000931 1.53191E-02 1.70135E-02-7.48089E-01
 -1   1000932 1.44791E-02 2.50785E-02-1.44360E-02
 -1   1000934 1.44685E-02 2.50602E-02-1.45111E-02
 -1   1000935 1.07003E-02 1.85335E-02-2.95762E-02
 -1   1000937 1.06887E-02 1.85133E-02-2.95773E-02
 -1   1000938 1.16104E-02 2.01097E-02-4.45203E-02
 -1   1000940 1.15990E-02 2.00900E-02-4.45009E-02
 -1   1000941 1.14621E-02 1.98530E-02-5.94783E-02
 -1   1000943 1.14507E-02 1.98332E-02-5.95007E-02
 -1   1000944 1.14151E-02 1.97715E-02-7.44676E-02
 -1   1000946 1.14036E-02 1.97517E-02-7.44462E-02
 -1   1000947 1.15058E-02 1.99286E-02-8.94171E-02
 -1   1000949 1.14943E-02 1.99088E-02-8.94367E-02
 -1   1000950 1.14114E-02 1.97651E-02-1.04405E-01
 -1   1000952 1.13999E-02 1.97452E-02-1.04388E-01
 -1   1000953 1.14996E-02 1.99178E-02-1.19358E-01
 -1   1000955 1.14881E-02 1.98980E-02-1.19374E-01
 -1   1000956 1.14195E-02 1.97792E-02-1.34343E-01
 -1   1000958 1.14080E-02 1.97593E-02-1.34329E-01
 -1   1000959 1.14916E-02 1.99040E-02-1.49299E-01
 -1   1000961 1.14801E-02 1.98842E-02-1.49312E-01
 -1   1000962 1.14269E-02 1.97919E-02-1.64281E-01
 -1   1000964 1.14154E-02 1.97721E-02-1.64269E-01
 -1   1000965 1.14849E-02 1.98925E-02-1.79239E-01
 -1   1000967 1.14735E-02 1.98727E-02-1.79250E-01
 -1   1000968 1.14328E-02 1.98023E-02-1.94219E-01
 -1   1000970 1.14214E-02 1.97824E-02-1.94210E-01
 -1   1000971 1.14796E-02 1.98832E-02-2.09180E-01
 -1   1000973 1.14681E-02 1.98634E-02-2.09188E-01
 -1   1000974 1.14377E-02 1.98106E-02-2.24157E-01
 -1   1000976 1.14262E-02 1.97908E-02-2.24150E-01
 -1   1000977 1.14753E-02 1.98757E-02-2.39120E-01
 -1   1000979 1.14638E-02 1.98559E-02-2.39126E-01
 -1   1000980 1.14415E-02 1.98173E-02-2.54096E-01
 -1   1000982 1.14301E-02 1.97975E-02-2.54090E-01
 -1   1000983 1.14718E-02 1.98697E-02-2.69059E-01
 -1   1000985 1.14603E-02 1.98499E-02-2.69065E-01
 -1   1000986 1.14446E-02 1.98227E-02-2.84034E-01
 -1   1000988 1.14332E-02 1.98028E-02-2.84029E-01
 -1   1000989 1.14690E-02 1.98649E-02-2.98999E-01
 -1   1000991 1.14575E-02 1.98450E-02-2.99003E-01
 -1   1000992 1.14471E-02 1.98270E-02-3.13973E-01
 -1   1000994 1.14357E-02 1.98072E-02-3.13969E-01
 -1   1000995 1.14667E-02 1.98610E-02-3.28939E-01
 -1   1000997 1.14553E-02 1.98412E-02-3.28942E-01
 -1   1000998 1.14491E-02 1.98305E-02-3.43912E-01
 -1   1001000 1.14377E-02 1.98107E-02-3.43909E-01
 -1   1001001 1.14649E-02 1.98579E-02-3.58878E-01
 -1   1001003 1.14535E-02 1.98380E-02-3.58881E-01
 -1   1001004 1.14508E-02 1.98333E-02-3.73851E-01
 -1   1001006 1.14393E-02 1.98135E-02-3.73848E-01
 -1   1001007 1.14635E-02 1.98554E-02-3.88818E-01
 -1   1001009 1.14520E-02 1.98355E-02-3.88820E-01
 -1   1001010 1.14521E-02 1.98355E-02-4.03790E-01
 -1   1001012 1.14406E-02 1.98157E-02-4.03788E-01
 -1   1001013 1.14623E-02 1.98533E-02-4.18757E-01
 -1   1001015 1.14509E-02 1.98335E-02-4.18759E-01
 -1   1001016 1.14531E-02 1.98373E-02-4.33729E-01
 -1   1001018 1.14416E-02 1.98175E-02-4.33727E-01
 -1   1001019 1.14614E-02 1.98517E-02-4.48697E-01
 -1   1001021 1.14500E-02 1.98319E-02-4.48698E-01
 -1   1001022 1.14539E-02 1.98388E-02-4.63668E-01
 -1   1001024 1.14425E-02 1.98190E-02-4.63666E-01
 -1   1001025 1.14607E-02 1.98504E-02-4.78636E-01
 -1   1001027 1.14492E-02 1.98306E-02-4.78637E-01
 -1   1001028 1.14546E-02 1.98399E-02-4.93607E-01
 -1   1001030 1.14431E-02 1.98201E-02-4.93606E-01
 -1   1001031 1.14601E-02 1.98494E-02-5.08575E-01
 -1   1001033 1.14486E-02 1.98296E-02-5.08576E-01
 -1   1001034 1.14551E-02 1.98408E-02-5.23546E-01
 -1   1001036 1.14437E-02 1.98210E-02-5.23545E-01
 -1   1001037 1.14596E-02 1.98486E-02-5.38515E-01
 -1   1001039 1.14482E-02 1.98288E-02-5.38515E-01
 -1   1001040 1.14555E-02 1.98416E-02-5.53485E-01
 -1   1001042 1.14441E-02 1.98217E-02-5.53484E-01
 -1   1001043 1.14592E-02 1.98480E-02-5.68454E-01
 -1   1001045 1.14478E-02 1.98281E-02-5.68455E-01
 -1   1001046 1.14559E-02 1.98421E-02-5.83424E-01
 -1   1001048 1.14444E-02 1.98223E-02-5.83424E-01
 -1   1001049 1.14590E-02 1.98475E-02-5.98393E-01
 -1   1001051 1.14475E-02 1.98277E-02-5.98394E-01
 -1   1001052 1.14561E-02 1.98425E-02-6.13363E-01
 -1   1001054 1.14447E-02 1.98227E-02-6.13363E-01
 -1   1001055 1.14587E-02 1.98471E-02-6.28333E-01
 -1   1001057 1.14473E-02 1.98273E-02-6.28333E-01
 -1   1001058 1.14563E-02 1.98429E-02-6.43302E-01
 -1   1001060 1.14448E-02 1.98230E-02-6.43302E-01
 -1   1001061 1.14586E-02 1.98469E-02-6.58272E-01
 -1   1001063 1.14471E-02 1.98270E-02-6.58272E-01
 -1   1001064 1.14564E-02 1.98431E-02-6.73242E-01
 -1   1001066 1.14450E-02 1.98232E-02-6.73241E-01
 -1   1001067 1.14585E-02 1.98467E-02-6.88211E-01
 -1   1001069 1.14470E-02 1.98269E-02-6.88211E-01
 -1   1001070 1.14565E-02 1.98432E-02-7.03181E-01
 -1   1001072 1.14450E-02 1.98234E-02-7.03181E-01
 -1   1001073 1.14584E-02 1.98466E-02-7.18150E-01
 -1   1001075 1.14470E-02 1.98268E-02-7.18150E-01
 -1   1001076 1.14565E-02 1.98432E-02-7.33120E-01
 -1   1001078 1.14451E-02 1.98234E-02-7.33120E-01
 -1   1001079 1.14584E-02 1.98466E-02-7.48090E-01
 -1   1001081 1.14470E-02 1.98268E-02-7.48089E-01
 -1   1001082 8.94855E-03 2.75408E-02-1.44360E-02
 -1   1001084 8.94202E-03 2.75207E-02-1.45111E-02
 -1   1001085 6.61317E-03 2.03532E-02-2.95762E-02
 -1   1001087 6.60595E-03 2.03310E-02-2.95773E-02
 -1   1001088 7.17560E-03 2.20842E-02-4.45203E-02
 -1   1001090 7.16855E-03 2.20625E-02-4.45009E-02
 -1   1001091 7.08399E-03 2.18023E-02-5.94783E-02
 -1   1001093 7.07691E-03 2.17805E-02-5.95007E-02
 -1   1001094 7.05491E-03 2.17128E-02-7.44676E-02
 -1   1001096 7.04783E-03 2.16910E-02-7.44462E-02
 -1   1001097 7.11096E-03 2.18853E-02-8.94171E-02
 -1   1001099 7.10390E-03 2.18635E-02-8.94367E-02
 -1   1001100 7.05261E-03 2.17057E-02-1.04405E-01
 -1   1001102 7.04553E-03 2.16839E-02-1.04388E-01
 -1   1001103 7.10713E-03 2.18735E-02-1.19358E-01
 -1   1001105 7.10006E-03 2.18517E-02-1.19374E-01
 -1   1001106 7.05765E-03 2.17212E-02-1.34343E-01
 -1   1001108 7.05056E-03 2.16994E-02-1.34329E-01
 -1   1001109 7.10219E-03 2.18583E-02-1.49299E-01
 -1   1001111 7.09512E-03 2.18365E-02-1.49312E-01
 -1   1001112 7.06219E-03 2.17352E-02-1.64281E-01
 -1   1001114 7.05511E-03 2.17134E-02-1.64269E-01
 -1   1001115 7.09808E-03 2.18456E-02-1.79239E-01
 -1   1001117 7.09101E-03 2.18239E-02-1.79250E-01
 -1   1001118 7.06589E-03 2.17466E-02-1.94219E-01
 -1   1001120 7.05880E-03 2.17248E-02-1.94210E-01
 -1   1001121 7.09476E-03 2.18354E-02-2.09180E-01
 -1   1001123 7.08769E-03 2.18137E-02-2.09188E-01
 -1   1001124 7.06886E-03 2.17557E-02-2.24157E-01
 -1   1001126 7.06178E-03 2.17339E-02-2.24150E-01
 -1   1001127 7.09210E-03 2.18272E-02-2.39120E-01
 -1   1001129 7.08502E-03 2.18055E-02-2.39126E-01
 -1   1001130 7.07125E-03 2.17631E-02-2.54096E-01
 -1   1001132 7.06417E-03 2.17413E-02-2.54090E-01
 -1   1001133 7.08995E-03 2.18206E-02-2.69059E-01
 -1   1001135 7.08288E-03 2.17989E-02-2.69065E-01
 -1   1001136 7.07317E-03 2.17690E-02-2.84034E-01
 -1   1001138 7.06609E-03 2.17472E-02-2.84029E-01
 -1   1001139 7.08823E-03 2.18153E-02-2.98999E-01
 -1   1001141 7.08115E-03 2.17935E-02-2.99003E-01
 -1   1001142 7.07472E-03 2.17737E-02-3.13973E-01
 -1   1001144 7.06764E-03 2.17520E-02-3.13969E-01
 -1   1001145 7.08684E-03 2.18110E-02-3.28939E-01
 -1   1001147 7.07976E-03 2.17893E-02-3.28942E-01
 -1   1001148 7.07596E-03 2.17776E-02-3.43912E-01
 -1   1001150 7.06888E-03 2.17558E-02-3.43909E-01
 -1   1001151 7.08573E-03 2.18076E-02-3.58878E-01
 -1   1001153 7.07865E-03 2.17858E-02-3.58881E-01
 -1   1001154 7.07696E-03 2.17806E-02-3.73851E-01
 -1   1001156 7.06988E-03 2.17589E-02-3.73848E-01
 -1   1001157 7.08483E-03 2.18049E-02-3.88818E-01
 -1   1001159 7.07776E-03 2.17831E-02-3.88820E-01
 -1   1001160 7.07776E-03 2.17831E-02-4.03790E-01
 -1   1001162 7.07068E-03 2.17613E-02-4.03788E-01
 -1   1001163 7.08411E-03 2.18027E-02-4.18757E-01
 -1   1001165 7.07704E-03 2.17809E-02-4.18759E-01
 -1   1001166 7.07841E-03 2.17851E-02-4.33729E-01
 -1   1001168 7.07133E-03 2.17633E-02-4.33727E-01
 -1   1001169 7.08354E-03 2.18009E-02-4.48697E-01
 -1   1001171 7.07646E-03 2.17791E-02-4.48698E-01
 -1   1001172 7.07892E-03 2.17867E-02-4.63668E-01
 -1   1001174 7.07184E-03 2.17649E-02-4.63666E-01
 -1   1001175 7.08308E-03 2.17995E-02-4.78636E-01
 -1   1001177 7.07600E-03 2.17777E-02-4.78637E-01
 -1   1001178 7.07933E-03 2.17879E-02-4.93607E-01
 -1   1001180 7.07225E-03 2.17661E-02-4.93606E-01
 -1   1001181 7.08272E-03 2.17983E-02-5.08575E-01
 -1   1001183 7.07564E-03 2.17766E-02-5.08576E-01
 -1   1001184 7.07965E-03 2.17889E-02-5.23546E-01
 -1   1001186 7.07258E-03 2.17671E-02-5.23545E-01
 -1   1001187 7.08243E-03 2.17975E-02-5.38515E-01
 -1   1001189 7.07535E-03 2.17757E-02-5.38515E-01
 -1   1001190 7.07991E-03 2.17897E-02-5.53485E-01
 -1   1001192 7.07283E-03 2.17679E-02-5.53484E-01
 -1   1001193 7.08220E-03 2.17968E-02-5.68454E-01
 -1   1001195 7.07512E-03 2.17750E-02-5.68455E-01
 -1   1001196 7.08011E-03 2.17903E-02-5.83424E-01
 -1   1001198 7.07303E-03 2.17685E-02-5.83424E-01
 -1   1001199 7.08203E-03 2.17962E-02-5.98393E-01
 -1   1001201 7.07495E-03 2.17744E-02-5.98394E-01
 -1   1001202 7.08026E-03 2.17908E-02-6.13363E-01
 -1   1001204 7.07318E-03 2.17690E-02-6.13363E-01
 -1   1001205 7.08189E-03 2.17958E-02-6.28333E-01
 -1   1001207 7.07482E-03 2.17740E-02-6.28333E-01
 -1   1001208 7.08037E-03 2.17911E-02-6.43302E-01
 -1   1001210 7.07329E-03 2.17694E-02-6.43302E-01
 -1   1001211 7.08180E-03 2.17955E-02-6.58272E-01
 -1   1001213 7.07472E-03 2.17737E-02-6.58272E-01
 -1   1001214 7.08045E-03 2.17914E-02-6.73242E-01
 -1   1001216 7.07337E-03 2.17696E-02-6.73241E-01
 -1   1001217 7.08174E-03 2.17953E-02-6.88211E-01
 -1   1001219 7.07466E-03 2.17736E-02-6.88211E-01
 -1   1001220 7.08049E-03 2.17915E-02-7.03181E-01
 -1   1001222 7.07341E-03 2.17697E-02-7.03181E-01
 -1   1001223 7.08171E-03 2.17952E-02-7.18150E-01
 -1   1001225 7.07463E-03 2.17735E-02-7.18150E-01
 -1   1001226 7.08051E-03 2.17916E-02-7.33120E-01
 -1   1001228 7.07343E-03 2.17698E-02-7.33120E-01
 -1   1001229 7.08170E-03 2.17952E-02-7.48090E-01
 -1   1001231 7.07463E-03 2.17735E-02-7.48089E-01
 -1   1001232 3.02695E-03 2.87995E-02-1.44360E-02
 -1   1001234 3.02474E-03 2.87785E-02-1.45111E-02
 -1   1001235 2.23698E-03 2.12834E-02-2.95762E-02
 -1   1001237 2.23454E-03 2.12602E-02-2.95773E-02
 -1   1001238 2.42723E-03 2.30935E-02-4.45203E-02
 -1   1001240 2.42484E-03 2.30708E-02-4.45009E-02
 -1   1001241 2.39624E-03 2.27987E-02-5.94783E-02
 -1   1001243 2.39384E-03 2.27759E-02-5.95007E-02
 -1   1001244 2.38640E-03 2.27051E-02-7.44676E-02
 -1   1001246 2.38401E-03 2.26823E-02-7.44462E-02
 -1   1001247 2.40536E-03 2.28855E-02-8.94171E-02
 -1   1001249 2.40297E-03 2.28628E-02-8.94367E-02
 -1   1001250 2.38563E-03 2.26977E-02-1.04405E-01
 -1   1001252 2.38323E-03 2.26749E-02-1.04388E-01
 -1   1001253 2.40407E-03 2.28732E-02-1.19358E-01
 -1   1001255 2.40167E-03 2.28504E-02-1.19374E-01
 -1   1001256 2.38733E-03 2.27139E-02-1.34343E-01
 -1   1001258 2.38493E-03 2.26911E-02-1.34329E-01
 -1   1001259 2.40239E-03 2.28573E-02-1.49299E-01
 -1   1001261 2.40000E-03 2.28345E-02-1.49312E-01
 -1   1001262 2.38887E-03 2.27285E-02-1.64281E-01
 -1   1001264 2.38647E-03 2.27057E-02-1.64269E-01
 -1   1001265 2.40100E-03 2.28440E-02-1.79239E-01
 -1   1001267 2.39861E-03 2.28213E-02-1.79250E-01
 -1   1001268 2.39012E-03 2.27404E-02-1.94219E-01
 -1   1001270 2.38772E-03 2.27176E-02-1.94210E-01
 -1   1001271 2.39988E-03 2.28334E-02-2.09180E-01
 -1   1001273 2.39749E-03 2.28106E-02-2.09188E-01
 -1   1001274 2.39112E-03 2.27500E-02-2.24157E-01
 -1   1001276 2.38873E-03 2.27272E-02-2.24150E-01
 -1   1001277 2.39898E-03 2.28248E-02-2.39120E-01
 -1   1001279 2.39659E-03 2.28020E-02-2.39126E-01
 -1   1001280 2.39193E-03 2.27577E-02-2.54096E-01
 -1   1001282 2.38953E-03 2.27349E-02-2.54090E-01
 -1   1001283 2.39826E-03 2.28179E-02-2.69059E-01
 -1   1001285 2.39586E-03 2.27951E-02-2.69065E-01
 -1   1001286 2.39258E-03 2.27639E-02-2.84034E-01
 -1   1001288 2.39019E-03 2.27411E-02-2.84029E-01
 -1   1001289 2.39767E-03 2.28123E-02-2.98999E-01
 -1   1001291 2.39528E-03 2.27896E-02-2.99003E-01
 -1   1001292 2.39310E-03 2.27689E-02-3.13973E-01
 -1   1001294 2.39071E-03 2.27461E-02-3.13969E-01
 -1   1001295 2.39720E-03 2.28079E-02-3.28939E-01
 -1   1001297 2.39481E-03 2.27851E-02-3.28942E-01
 -1   1001298 2.39352E-03 2.27729E-02-3.43912E-01
 -1   1001300 2.39113E-03 2.27501E-02-3.43909E-01
 -1   1001301 2.39683E-03 2.28043E-02-3.58878E-01
 -1   1001303 2.39443E-03 2.27815E-02-3.58881E-01
 -1   1001304 2.39386E-03 2.27761E-02-3.73851E-01
 -1   1001306 2.39147E-03 2.27533E-02-3.73848E-01
 -1   1001307 2.39652E-03 2.28014E-02-3.88818E-01
 -1   1001309 2.39413E-03 2.27786E-02-3.88820E-01
 -1   1001310 2.39413E-03 2.27786E-02-4.03790E-01
 -1   1001312 2.39174E-03 2.27559E-02-4.03788E-01
 -1   1001313 2.39628E-03 2.27991E-02-4.18757E-01
 -1   1001315 2.39389E-03 2.27763E-02-4.18759E-01
 -1   1001316 2.39435E-03 2.27807E-02-4.33729E-01
 -1   1001318 2.39196E-03 2.27579E-02-4.33727E-01
 -1   1001319 2.39609E-03 2.27972E-02-4.48697E-01
 -1   1001321 2.39369E-03 2.27745E-02-4.48698E-01
 -1   1001322 2.39452E-03 2.27824E-02-4.63668E-01
 -1   1001324 2.39213E-03 2.27596E-02-4.63666E-01
 -1   1001325 2.39593E-03 2.27958E-02-4.78636E-01
 -1   1001327 2.39354E-03 2.27730E-02-4.78637E-01
 -1   1001328 2.39466E-03 2.27837E-02-4.93607E-01
 -1   1001330 2.39227E-03 2.27609E-02-4.93606E-01
 -1   1001331 2.39581E-03 2.27946E-02-5.08575E-01
 -1   1001333 2.39341E-03 2.27718E-02-5.08576E-01
 -1   1001334 2.39477E-03 2.27847E-02-5.23546E-01
 -1   1001336 2.39238E-03 2.27620E-02-5.23545E-01
 -1   1001337 2.39571E-03 2.27937E-02-5.38515E-01
 -1   1001339 2.39332E-03 2.27709E-02-5.38515E-01
 -1   1001340 2.39486E-03 2.27856E-02-5.53485E-01
 -1   1001342 2.39246E-03 2.27628E-02-5.53484E-01
 -1   1001343 2.39563E-03 2.27929E-02-5.68454E-01
 -1   1001345 2.39324E-03 2.27701E-02-5.68455E-01
 -1   1001346 2.39493E-03 2.27862E-02-5.83424E-01
 -1   1001348 2.39253E-03 2.27634E-02-5.83424E-01
 -1   1001349 2.39557E-03 2.27924E-02-5.98393E-01
 -1   1001351 2.39318E-03 2.27696E-02-5.98394E-01
 -1   1001352 2.39498E-03 2.27867E-02-6.13363E-01
 -1   1001354 2.39258E-03 2.27639E-02-6.13363E-01
 -1   1001355 2.39553E-03 2.27919E-02-6.28333E-01
 -1   1001357 2.39314E-03 2.27692E-02-6.28333E-01
 -1   1001358 2.39501E-03 2.27870E-02-6.43302E-01
 -1   1001360 2.39262E-03 2.27643E-02-6.43302E-01
 -1   1001361 2.39550E-03 2.27916E-02-6.58272E-01
 -1   1001363 2.39310E-03 2.27689E-02-6.58272E-01
 -1   1001364 2.39504E-03 2.27873E-02-6.73242E-01
 -1   1001366 2.39265E-03 2.27645E-02-6.73241E-01
 -1   1001367 2.39548E-03 2.27914E-02-6.88211E-01
 -1   1001369 2.39308E-03 2.27687E-02-6.88211E-01
 -1   1001370 2.39505E-03 2.27874E-02-7.03181E-01
 -1   1001372 2.39266E-03 2.27646E-02-7.03181E-01
 -1   1001373 2.39547E-03 2.27913E-02-7.18150E-01
 -1   1001375 2.39307E-03 2.27686E-02-7.18150E-01
 -1   1001376 2.39506E-03 2.27875E-02-7.33120E-01
 -1   1001378 2.39267E-03 2.27647E-02-7.33120E-01
 -1   1001379 2.39546E-03 2.27913E-02-7.48090E-01
 -1   1001381 2.39307E-03 2.27685E-02-7.48089E-01
 -1   1001382-3.02695E-03 2.87995E-02-1.44360E-02
 -1   1001384-3.02474E-03 2.87785E-02-1.45111E-02
 -1   1001385-2.23698E-03 2.12834E-02-2.95762E-02
 -1   1001387-2.23454E-03 2.12602E-02-2.95773E-02
 -1   1001388-2.42723E-03 2.30935E-02-4.45203E-02
 -1   1001390-2.42484E-03 2.30708E-02-4.45009E-02
 -1   1001391-2.39624E-03 2.27987E-02-5.94783E-02
 -1   1001393-2.39384E-03 2.27759E-02-5.95007E-02
 -1   1001394-2.38640E-03 2.27051E-02-7.44676E-02
 -1   1001396-2.38401E-03 2.26823E-02-7.44462E-02
 -1   1001397-2.40536E-03 2.28855E-02-8.94171E-02
 -1   1001399-2.40297E-03 2.28628E-02-8.94367E-02
 -1   1001400-2.38563E-03 2.26977E-02-1.04405E-01
 -1   1001402-2.38323E-03 2.26749E-02-1.04388E-01
 -1   1001403-2.40407E-03 2.28732E-02-1.19358E-01
 -1   1001405-2.40167E-03 2.28504E-02-1.19374E-01
 -1   1001406-2.38733E-03 2.27139E-02-1.34343E-01
 -1   1001408-2.38493E-03 2.26911E-02-1.34329E-01
 -1   1001409-2.40239E-03 2.28573E-02-1.49299E-01
 -1   1001411-2.40000E-03 2.28345E-02-1.49312E-01
 -1   1001412-2.38887E-03 2.27285E-02-1.64281E-01
 -1   1001414-2.38647E-03 2.27057E-02-1.64269E-01
 -1   1001415-2.40100E-03 2.28440E-02-1.79239E-01
 -1   1001417-2.39861E-03 2.28213E-02-1.79250E-01
 -1   1001418-2.39012E-03 2.27404E-02-1.94219E-01
 -1   1001420-2.38772E-03 2.27176E-02-1.94210E-01
 -1   1001421-2.39988E-03 2.28334E-02-2.09180E-01
 -1   1001423-2.39749E-03 2.28106E-02-2.09188E-01
 -1   1001424-2.39112E-03 2.27500E-02-2.24157E-01
 -1   1001426-2.38873E-03 2.27272E-02-2.24150E-01
 -1   1001427-2.39898E-03 2.28248E-02-2.39120E-01
 -1   1001429-2.39659E-03 2.28020E-02-2.39126E-01
 -1   1001430-2.39193E-03 2.27577E-02-2.54096E-01
 -1   1001432-2.38954E-03 2.27349E-02-2.54090E-01
 -1   1001433-2.39826E-03 2.28179E-02-2.69059E-01
 -1   1001435-2.39586E-03 2.27951E-02-2.69065E-01
 -1   1001436-2.39258E-03 2.27639E-02-2.84034E-01
 -1   1001438-2.39019E-03 2.27411E-02-2.84029E-01
 -1   1001439-2.39767E-03 2.28123E-02-2.98999E-01
 -1   1001441-2.39528E-03 2.27896E-02-2.99003E-01
 -1   1001442-2.39310E-03 2.27689E-02-3.13973E-01
 -1   1001444-2.39071E-03 2.27461E-02-3.13969E-01
 -1   1001445-2.39720E-03 2.28079E-02-3.28939E-01
 -1   1001447-2.39481E-03 2.27851E-02-3.28942E-01
 -1   1001448-2.39352E-03 2.27729E-02-3.43912E-01
 -1   1001450-2.39113E-03 2.27501E-02-3.43909E-01
 -1   1001451-2.39683E-03 2.28043E-02-3.58878E-01
 -1   1001453-2.39443E-03 2.27815E-02-3.58881E-01
 -1   1001454-2.39386E-03 2.27761E-02-3.73851E-01
 -1   1001456-2.39147E-03 2.27533E-02-3.73848E-01
 -1   1001457-2.39652E-03 2.28014E-02-3.88818E-01
 -1   1001459-2.39413E-03 2.27786E-02-3.88820E-01
 -1   1001460-2.39413E-03 2.27786E-02-4.03790E-01
 -1   1001462-2.39174E-03 2.27559E-02-4.03788E-01
 -1   1001463-2.39628E-03 2.27991E-02-4.18757E-01
 -1   1001465-2.39389E-03 2.27763E-02-4.18759E-01
 -1   1001466-2.39435E-03 2.27807E-02-4.33729E-01
 -1   1001468-2.39196E-03 2.27579E-02-4.33727E-01
 -1   1001469-2.39609E-03 2.27972E-02-4.48697E-01
 -1   1001471-2.39369E-03 2.27745E-02-4.48698E-01
 -1   1001472-2.39452E-03 2.27824E-02-4.63668E-01
 -1   1001474-2.39213E-03 2.27596E-02-4.63666E-01
 -1   1001475-2.39593E-03 2.27958E-02-4.78636E-01
 -1   1001477-2.39354E-03 2.27730E-02-4.78637E-01
 -1   1001478-2.39466E-03 2.27837E-02-4.93607E-01
 -1   1001480-2.39227E-03 2.27609E-02-4.93606E-01
 -1   1001481-2.39581E-03 2.27946E-02-5.08575E-01
 -1   1001483-2.39341E-03 2.27718E-02-5.08576E-01
 -1   1001484-2.39477E-03 2.27847E-02-5.23546E-01
 -1   1001486-2.39238E-03 2.27620E-02-5.23545E-01
 -1   1001487-2.39571E-03 2.27937E-02-5.38515E-01
 -1   1001489-2.39332E-03 2.27709E-02-5.38515E-01
 -1   1001490-2.39486E-03 2.27856E-02-5.53485E-01
 -1   1001492-2.39247E-03 2.27628E-02-5.53484E-01
 -1   1001493-2.39563E-03 2.27929E-02-5.68454E-01
 -1   1001495-2.39324E-03 2.27701E-02-5.68455E-01
 -1   1001496-2.39493E-03 2.27862E-02-5.83424E-01
 -1   1001498-2.39253E-03 2.27634E-02-5.83424E-01
 -1   1001499-2.39558E-03 2.27924E-02-5.98393E-01
 -1   1001501-2.39318E-03 2.27696E-02-5.98394E-01
 -1   1001502-2.39498E-03 2.27867E-02-6.13363E-01
 -1   1001504-2.39258E-03 2.27639E-02-6.13363E-01
 -1   1001505-2.39553E-03 2.27919E-02-6.28333E-01
 -1   1001507-2.39314E-03 2.27692E-02-6.28333E-01
 -1   1001508-2.39502E-03 2.27870E-02-6.43302E-01
 -1   1001510-2.39262E-03 2.27643E-02-6.43302E-01
 -1   1001511-2.39550E-03 2.27916E-02-6.58272E-01
 -1   1001513-2.39311E-03 2.27689E-02-6.58272E-01
 -1   1001514-2.39504E-03 2.27873E-02-6.73242E-01
 -1   1001516-2.39265E-03 2.27645E-02-6.73241E-01
 -1   1001517-2.39548E-03 2.27914E-02-6.88211E-01
 -1   1001519-2.39309E-03 2.27687E-02-6.88211E-01
 -1   1001520-2.39506E-03 2.27874E-02-7.03181E-01
 -1   1001522-2.39266E-03 2.27647E-02-7.03181E-01
 -1   1001523-2.39547E-03 2.27913E-02-7.18150E-01
 -1   1001525-2.39308E-03 2.27686E-02-7.18150E-01
 -1   1001526-2.39506E-03 2.27875E-02-7.33120E-01
 -1   1001528-2.39267E-03 2.27647E-02-7.33120E-01
 -1   1001529-2.39547E-03 2.27913E-02-7.48090E-01
 -1   1001531-2.39307E-03 2.27686E-02-7.48089E-01
 -1   1001532-8.94855E-03 2.75408E-02-1.44360E-02
 -1   1001534-8.94202E-03 2.75207E-02-1.45111E-02
 -1   1001535-6.61317E-03 2.03532E-02-2.95762E-02
 -1   1001537-6.60595E-03 2.03310E-02-2.95773E-02
 -1   1001538-7.17560E-03 2.20842E-02-4.45203E-02
 -1   1001540-7.16855E-03 2.20625E-02-4.45009E-02
 -1   1001541-7.08399E-03 2.18023E-02-5.94783E-02
 -1   1001543-7.07691E-03 2.17805E-02-5.95007E-02
 -1   1001544-7.05491E-03 2.17128E-02-7.44676E-02
 -1   1001546-7.04783E-03 2.16910E-02-7.44462E-02
 -1   1001547-7.11097E-03 2.18853E-02-8.94171E-02
 -1   1001549-7.10390E-03 2.18635E-02-8.94367E-02
 -1   1001550-7.05261E-03 2.17057E-02-1.04405E-01
 -1   1001552-7.04553E-03 2.16839E-02-1.04388E-01
 -1   1001553-7.10713E-03 2.18735E-02-1.19358E-01
 -1   1001555-7.10006E-03 2.18517E-02-1.19374E-01
 -1   1001556-7.05765E-03 2.17212E-02-1.34343E-01
 -1   1001558-7.05056E-03 2.16994E-02-1.34329E-01
 -1   1001559-7.10219E-03 2.18583E-02-1.49299E-01
 -1   1001561-7.09512E-03 2.18365E-02-1.49312E-01
 -1   1001562-7.06219E-03 2.17352E-02-1.64281E-01
 -1   1001564-7.05511E-03 2.17134E-02-1.64269E-01
 -1   1001565-7.09808E-03 2.18456E-02-1.79239E-01
 -1   1001567-7.09101E-03 2.18239E-02-1.79250E-01
 -1   1001568-7.06589E-03 2.17466E-02-1.94219E-01
 -1   1001570-7.05880E-03 2.17248E-02-1.94210E-01
 -1   1001571-7.09476E-03 2.18354E-02-2.09180E-01
 -1   1001573-7.08769E-03 2.18137E-02-2.09188E-01
 -1   1001574-7.06886E-03 2.17557E-02-2.24157E-01
 -1   1001576-7.06178E-03 2.17339E-02-2.24150E-01
 -1   1001577-7.09210E-03 2.18272E-02-2.39120E-01
 -1   1001579-7.08502E-03 2.18055E-02-2.39126E-01
 -1   1001580-7.07125E-03 2.17631E-02-2.54096E-01
 -1   1001582-7.06417E-03 2.17413E-02-2.54090E-01
 -1   1001583-7.08995E-03 2.18206E-02-2.69059E-01
 -1   1001585-7.08288E-03 2.17989E-02-2.69065E-01
 -1   1001586-7.07318E-03 2.17690E-02-2.84034E-01
 -1   1001588-7.06610E-03 2.17472E-02-2.84029E-01
 -1   1001589-7.08823E-03 2.18153E-02-2.98999E-01
 -1   1001591-7.08115E-03 2.17935E-02-2.99003E-01
 -1   1001592-7.07472E-03 2.17737E-02-3.13973E-01
 -1   1001594-7.06764E-03 2.17520E-02-3.13969E-01
 -1   1001595-7.08684E-03 2.18110E-02-3.28939E-01
 -1   1001597-7.07977E-03 2.17893E-02-3.28942E-01
 -1   1001598-7.07596E-03 2.17776E-02-3.43912E-01
 -1   1001600-7.06889E-03 2.17558E-02-3.43909E-01
 -1   1001601-7.08573E-03 2.18076E-02-3.58878E-01
 -1   1001603-7.07865E-03 2.17858E-02-3.58881E-01
 -1   1001604-7.07696E-03 2.17806E-02-3.73851E-01
 -1   1001606-7.06988E-03 2.17589E-02-3.73848E-01
 -1   1001607-7.08483E-03 2.18049E-02-3.88818E-01
 -1   1001609-7.07776E-03 2.17831E-02-3.88820E-01
 -1   1001610-7.07776E-03 2.17831E-02-4.03790E-01
 -1   1001612-7.07069E-03 2.17613E-02-4.03788E-01
 -1   1001613-7.08412E-03 2.18027E-02-4.18757E-01
 -1   1001615-7.07704E-03 2.17809E-02-4.18759E-01
 -1   1001616-7.07841E-03 2.17851E-02-4.33729E-01
 -1   1001618-7.07133E-03 2.17633E-02-4.33727E-01
 -1   1001619-7.08354E-03 2.18009E-02-4.48697E-01
 -1   1001621-7.07646E-03 2.17791E-02-4.48698E-01
 -1   1001622-7.07892E-03 2.17867E-02-4.63668E-01
 -1   1001624-7.07184E-03 2.17649E-02-4.63666E-01
 -1   1001625-7.08308E-03 2.17995E-02-4.78636E-01
 -1   1001627-7.07600E-03 2.17777E-02-4.78637E-01
 -1   1001628-7.07933E-03 2.17879E-02-4.93607E-01
 -1   1001630-7.07225E-03 2.17661E-02-4.93606E-01
 -1   1001631-7.08272E-03 2.17984E-02-5.08575E-01
 -1   1001633-7.07564E-03 2.17766E-02-5.08576E-01
 -1   1001634-7.07966E-03 2.17889E-02-5.23546E-01
 -1   1001636-7.07258E-03 2.17671E-02-5.23545E-01
 -1   1001637-7.08243E-03 2.17975E-02-5.38515E-01
 -1   1001639-7.07535E-03 2.17757E-02-5.38515E-01
 -1   1001640-7.07991E-03 2.17897E-02-5.53485E-01
 -1   1001642-7.07283E-03 2.17679E-02-5.53484E-01
 -1   1001643-7.08220E-03 2.17968E-02-5.68454E-01
 -1   1001645-7.07512E-03 2.17750E-02-5.68455E-01
 -1   1001646-7.08011E-03 2.17903E-02-5.83424E-01
 -1   1001648-7.07303E-03 2.17685E-02-5.83424E-01
 -1   1001649-7.08203E-03 2.17962E-02-5.98393E-01
 -1   1001651-7.07495E-03 2.17744E-02-5.98394E-01
 -1   1001652-7.08026E-03 2.17908E-02-6.13363E-01
 -1   1001654-7.07319E-03 2.17690E-02-6.13363E-01
 -1   1001655-7.08190E-03 2.17958E-02-6.28333E-01
 -1   1001657-7.07482E-03 2.17740E-02-6.28333E-01
 -1   1001658-7.08037E-03 2.17911E-02-6.43302E-01
 -1   1001660-7.07330E-03 2.17694E-02-6.43302E-01
 -1   1001661-7.08180E-03 2.17955E-02-6.58272E-01
 -1   1001663-7.07473E-03 2.17738E-02-6.58272E-01
 -1   1001664-7.08045E-03 2.17914E-02-6.73242E-01
 -1   1001666-7.07337E-03 2.17696E-02-6.73241E-01
 -1   1001667-7.08174E-03 2.17954E-02-6.88211E-01
 -1   1001669-7.07467E-03 2.17736E-02-6.88211E-01
 -1   1001670-7.08050E-03 2.17915E-02-7.03181E-01
 -1   1001672-7.07342E-03 2.17697E-02-7.03181E-01
 -1   1001673-7.08171E-03 2.17953E-02-7.18150E-01
 -1   1001675-7.07464E-03 2.17735E-02-7.18150E-01
 -1   1001676-7.08051E-03 2.17916E-02-7.33120E-01
 -1   1001678-7.07344E-03 2.17698E-02-7.33120E-01
 -1   1001679-7.08171E-03 2.17952E-02-7.48090E-01
 -1   1001681-7.07463E-03 2.17735E-02-7.48089E-01
 -1   1001682-1.44791E-02 2.50785E-02-1.44360E-02
 -1   1001684-1.44685E-02 2.50602E-02-1.45111E-02
 -1   1001685-1.07003E-02 1.85335E-02-2.95762E-02
 -1   1001687-1.06887E-02 1.85133E-02-2.95773E-02
 -1   1001688-1.16104E-02 2.01097E-02-4.45203E-02
 -1   1001690-1.15990E-02 2.00900E-02-4.45009E-02
 -1   1001691-1.14621E-02 1.98530E-02-5.94783E-02
 -1   1001693-1.14507E-02 1.98332E-02-5.95007E-02
 -1   1001694-1.14151E-02 1.97715E-02-7.44676E-02
 -1   1001696-1.14036E-02 1.97517E-02-7.44462E-02
 -1   1001697-1.15058E-02 1.99286E-02-8.94171E-02
 -1   1001699-1.14943E-02 1.99088E-02-8.94367E-02
 -1   1001700-1.14114E-02 1.97651E-02-1.04405E-01
 -1   1001702-1.13999E-02 1.97452E-02-1.04388E-01
 -1   1001703-1.14996E-02 1.99178E-02-1.19358E-01
 -1   1001705-1.14881E-02 1.98980E-02-1.19374E-01
 -1   1001706-1.14195E-02 1.97792E-02-1.34343E-01
 -1   1001708-1.14080E-02 1.97593E-02-1.34329E-01
 -1   1001709-1.14916E-02 1.99040E-02-1.49299E-01
 -1   1001711-1.14801E-02 1.98842E-02-1.49312E-01
 -1   1001712-1.14269E-02 1.97919E-02-1.64281E-01
 -1   1001714-1.14154E-02 1.97721E-02-1.64269E-01
 -1   1001715-1.14849E-02 1.98925E-02-1.79239E-01
 -1   1001717-1.14735E-02 1.98727E-02-1.79250E-01
 -1   1001718-1.14328E-02 1.98023E-02-1.94219E-01
 -1   1001720-1.14214E-02 1.97824E-02-1.94210E-01
 -1   1001721-1.14796E-02 1.98832E-02-2.09180E-01
 -1   1001723-1.14681E-02 1.98634E-02-2.09188E-01
 -1   1001724-1.14377E-02 1.98106E-02-2.24157E-01
 -1   1001726-1.14262E-02 1.97908E-02-2.24150E-01
 -1   1001727-1.14753E-02 1.98757E-02-2.39120E-01
 -1   1001729-1.14638E-02 1.98559E-02-2.39126E-01
 -1   1001730-1.14415E-02 1.98173E-02-2.54096E-01
 -1   1001732-1.14301E-02 1.97975E-02-2.54090E-01
 -1   1001733-1.14718E-02 1.98697E-02-2.69059E-01
 -1   1001735-1.14603E-02 1.98499E-02-2.69065E-01
 -1   1001736-1.14446E-02 1.98227E-02-2.84034E-01
 -1   1001738-1.14332E-02 1.98028E-02-2.84029E-01
 -1   1001739-1.14690E-02 1.98649E-02-2.98999E-01
 -1   1001741-1.14575E-02 1.98450E-02-2.99003E-01
 -1   1001742-1.14471E-02 1.98270E-02-3.13973E-01
 -1   1001744-1.14357E-02 1.98072E-02-3.13969E-01
 -1   1001745-1.14667E-02 1.98610E-02-3.28939E-01
 -1   1001747-1.14553E-02 1.98412E-02-3.28942E-01
 -1   1001748-1.14492E-02 1.98305E-02-3.43912E-01
 -1   1001750-1.14377E-02 1.98107E-02-3.43909E-01
 -1   1001751-1.14649E-02 1.98579E-02-3.58878E-01
 -1   1001753-1.14535E-02 1.98380E-02-3.58881E-01
 -1   1001754-1.14508E-02 1.98333E-02-3.73851E-01
 -1   1001756-1.14393E-02 1.98135E-02-3.73848E-01
 -1   1001757-1.14635E-02 1.98554E-02-3.88818E-01
 -1   1001759-1.14521E-02 1.98355E-02-3.88820E-01
 -1   1001760-1.14521E-02 1.98356E-02-4.03790E-01
 -1   1001762-1.14406E-02 1.98157E-02-4.03788E-01
 -1   1001763-1.14623E-02 1.98533E-02-4.18757E-01
 -1   1001765-1.14509E-02 1.98335E-02-4.18759E-01
 -1   1001766-1.14531E-02 1.98373E-02-4.33729E-01
 -1   1001768-1.14416E-02 1.98175E-02-4.33727E-01
 -1   1001769-1.14614E-02 1.98517E-02-4.48697E-01
 -1   1001771-1.14500E-02 1.98319E-02-4.48698E-01
 -1   1001772-1.14539E-02 1.98388E-02-4.63668E-01
 -1   1001774-1.14425E-02 1.98190E-02-4.63666E-01
 -1   1001775-1.14607E-02 1.98505E-02-4.78636E-01
 -1   1001777-1.14492E-02 1.98306E-02-4.78637E-01
 -1   1001778-1.14546E-02 1.98399E-02-4.93607E-01
 -1   1001780-1.14431E-02 1.98201E-02-4.93606E-01
 -1   1001781-1.14601E-02 1.98494E-02-5.08575E-01
 -1   1001783-1.14486E-02 1.98296E-02-5.08576E-01
 -1   1001784-1.14551E-02 1.98408E-02-5.23546E-01
 -1   1001786-1.14437E-02 1.98210E-02-5.23545E-01
 -1   1001787-1.14596E-02 1.98486E-02-5.38515E-01
 -1   1001789-1.14482E-02 1.98288E-02-5.38515E-01
 -1   1001790-1.14555E-02 1.98416E-02-5.53485E-01
 -1   1001792-1.14441E-02 1.98217E-02-5.53484E-01
 -1   1001793-1.14592E-02 1.98480E-02-5.68454E-01
 -1   1001795-1.14478E-02 1.98282E-02-5.68455E-01
 -1   1001796-1.14559E-02 1.98421E-02-5.83424E-01
 -1   1001798-1.14444E-02 1.98223E-02-5.83424E-01
 -1   1001799-1.14590E-02 1.98475E-02-5.98393E-01
 -1   1001801-1.14475E-02 1.98277E-02-5.98394E-01
 -1   1001802-1.14561E-02 1.98425E-02-6.13363E-01
 -1   1001804-1.14447E-02 1.98227E-02-6.13363E-01
 -1   1001805-1.14588E-02 1.98471E-02-6.28333E-01
 -1   1001807-1.14473E-02 1.98273E-02-6.28333E-01
 -1   1001808-1.14563E-02 1.98429E-02-6.43302E-01
 -1   1001810-1.14448E-02 1.98230E-02-6.43302E-01
 -1   1001811-1.14586E-02 1.98469E-02-6.58272E-01
 -1   1001813-1.14471E-02 1.98270E-02-6.58272E-01
 -1   1001814-1.14564E-02 1.98431E-02-6.73242E-01
 -1   1001816-1.14450E-02 1.98232E-02-6.73241E-01
 -1   1001817-1.14585E-02 1.98467E-02-6.88211E-01
 -1   1001819-1.14471E-02 1.98269E-02-6.88211E-01
 -1   1001820-1.14565E-02 1.98432E-02-7.03181E-01
 -1   1001822-1.14450E-02 1.98234E-02-7.03181E-01
 -1   1001823-1.14585E-02 1.98466E-02-7.18150E-01
 -1   1001825-1.14470E-02 1.98268E-02-7.18150E-01
 -1   1001826-1.14565E-02 1.98432E-02-7.33120E-01
 -1   1001828-1.14451E-02 1.98234E-02-7.33120E-01
 -1   1001829-1.14584E-02 1.98466E-02-7.48090E-01
 -1   1001831-1.14470E-02 1.98268E-02-7.48089E-01
 -1   1001832-1.93768E-02 2.15201E-02-1.44360E-02
 -1   1001834-1.93626E-02 2.15044E-02-1.45111E-02
 -1   1001835-1.43198E-02 1.59038E-02-2.95762E-02
 -1   1001837-1.43042E-02 1.58864E-02-2.95773E-02
 -1   1001838-1.55377E-02 1.72564E-02-4.45203E-02
 -1   1001840-1.55224E-02 1.72394E-02-4.45009E-02
 -1   1001841-1.53393E-02 1.70361E-02-5.94783E-02
 -1   1001843-1.53240E-02 1.70190E-02-5.95007E-02
 -1   1001844-1.52764E-02 1.69661E-02-7.44676E-02
 -1   1001846-1.52610E-02 1.69491E-02-7.44462E-02
 -1   1001847-1.53977E-02 1.71009E-02-8.94171E-02
 -1   1001849-1.53824E-02 1.70839E-02-8.94367E-02
 -1   1001850-1.52714E-02 1.69606E-02-1.04405E-01
 -1   1001852-1.52561E-02 1.69436E-02-1.04388E-01
 -1   1001853-1.53894E-02 1.70917E-02-1.19358E-01
 -1   1001855-1.53741E-02 1.70747E-02-1.19374E-01
 -1   1001856-1.52823E-02 1.69727E-02-1.34343E-01
 -1   1001858-1.52669E-02 1.69557E-02-1.34329E-01
 -1   1001859-1.53787E-02 1.70798E-02-1.49299E-01
 -1   1001861-1.53634E-02 1.70628E-02-1.49312E-01
 -1   1001862-1.52921E-02 1.69836E-02-1.64281E-01
 -1   1001864-1.52768E-02 1.69666E-02-1.64269E-01
 -1   1001865-1.53698E-02 1.70699E-02-1.79239E-01
 -1   1001867-1.53545E-02 1.70529E-02-1.79250E-01
 -1   1001868-1.53001E-02 1.69925E-02-1.94219E-01
 -1   1001870-1.52848E-02 1.69755E-02-1.94210E-01
 -1   1001871-1.53627E-02 1.70620E-02-2.09180E-01
 -1   1001873-1.53473E-02 1.70450E-02-2.09188E-01
 -1   1001874-1.53066E-02 1.69997E-02-2.24157E-01
 -1   1001876-1.52912E-02 1.69826E-02-2.24150E-01
 -1   1001877-1.53569E-02 1.70555E-02-2.39120E-01
 -1   1001879-1.53416E-02 1.70385E-02-2.39126E-01
 -1   1001880-1.53118E-02 1.70054E-02-2.54096E-01
 -1   1001882-1.52964E-02 1.69884E-02-2.54090E-01
 -1   1001883-1.53522E-02 1.70504E-02-2.69059E-01
 -1   1001885-1.53369E-02 1.70334E-02-2.69065E-01
 -1   1001886-1.53159E-02 1.70100E-02-2.84034E-01
 -1   1001888-1.53006E-02 1.69930E-02-2.84029E-01
 -1   1001889-1.53485E-02 1.70462E-02-2.98999E-01
 -1   1001891-1.53332E-02 1.70292E-02-2.99003E-01
 -1   1001892-1.53193E-02 1.70138E-02-3.13973E-01
 -1   1001894-1.53039E-02 1.69967E-02-3.13969E-01
 -1   1001895-1.53455E-02 1.70429E-02-3.28939E-01
 -1   1001897-1.53302E-02 1.70259E-02-3.28942E-01
 -1   1001898-1.53220E-02 1.70168E-02-3.43912E-01
 -1   1001900-1.53066E-02 1.69997E-02-3.43909E-01
 -1   1001901-1.53431E-02 1.70402E-02-3.58878E-01
 -1   1001903-1.53278E-02 1.70232E-02-3.58881E-01
 -1   1001904-1.53241E-02 1.70192E-02-3.73851E-01
 -1   1001906-1.53088E-02 1.70021E-02-3.73848E-01
 -1   1001907-1.53412E-02 1.70381E-02-3.88818E-01
 -1   1001909-1.53258E-02 1.70211E-02-3.88820E-01
 -1   1001910-1.53259E-02 1.70211E-02-4.03790E-01
 -1   1001912-1.53105E-02 1.70041E-02-4.03788E-01
 -1   1001913-1.53396E-02 1.70364E-02-4.18757E-01
 -1   1001915-1.53243E-02 1.70193E-02-4.18759E-01
 -1   1001916-1.53272E-02 1.70226E-02-4.33729E-01
 -1   1001918-1.53119E-02 1.70056E-02-4.33727E-01
 -1   1001919-1.53384E-02 1.70350E-02-4.48697E-01
 -1   1001921-1.53230E-02 1.70180E-02-4.48698E-01
 -1   1001922-1.53284E-02 1.70239E-02-4.63668E-01
 -1   1001924-1.53130E-02 1.70068E-02-4.63666E-01
 -1   1001925-1.53374E-02 1.70339E-02-4.78636E-01
 -1   1001927-1.53220E-02 1.70168E-02-4.78637E-01
 -1   1001928-1.53292E-02 1.70248E-02-4.93607E-01
 -1   1001930-1.53139E-02 1.70078E-02-4.93606E-01
 -1   1001931-1.53366E-02 1.70330E-02-5.08575E-01
 -1   1001933-1.53213E-02 1.70160E-02-5.08576E-01
 -1   1001934-1.53299E-02 1.70256E-02-5.23546E-01
 -1   1001936-1.53146E-02 1.70086E-02-5.23545E-01
 -1   1001937-1.53360E-02 1.70323E-02-5.38515E-01
 -1   1001939-1.53206E-02 1.70153E-02-5.38515E-01
 -1   1001940-1.53305E-02 1.70262E-02-5.53485E-01
 -1   1001942-1.53152E-02 1.70092E-02-5.53484E-01
 -1   1001943-1.53355E-02 1.70317E-02-5.68454E-01
 -1   1001945-1.53201E-02 1.70147E-02-5.68455E-01
 -1   1001946-1.53309E-02 1.70267E-02-5.83424E-01
 -1   1001948-1.53156E-02 1.70097E-02-5.83424E-01
 -1   1001949-1.53351E-02 1.70313E-02-5.98393E-01
 -1   1001951-1.53198E-02 1.70143E-02-5.98394E-01
 -1   1001952-1.53313E-02 1.70271E-02-6.13363E-01
 -1   1001954-1.53159E-02 1.70101E-02-6.13363E-01
 -1   1001955-1.53348E-02 1.70310E-02-6.28333E-01
 -1   1001957-1.53195E-02 1.70140E-02-6.28333E-01
 -1   1001958-1.53315E-02 1.70274E-02-6.43302E-01
 -1   1001960-1.53162E-02 1.70103E-02-6.43302E-01
 -1   1001961-1.53346E-02 1.70308E-02-6.58272E-01
 -1   1001963-1.53193E-02 1.70138E-02-6.58272E-01
 -1   1001964-1.53317E-02 1.70275E-02-6.73242E-01
 -1   1001966-1.53163E-02 1.70105E-02-6.73241E-01
 -1   1001967-1.53345E-02 1.70306E-02-6.88211E-01
 -1   1001969-1.53191E-02 1.70136E-02-6.88211E-01
 -1   1001970-1.53318E-02 1.70276E-02-7.03181E-01
 -1   1001972-1.53164E-02 1.70106E-02-7.03181E-01
 -1   1001973-1.53344E-02 1.70306E-02-7.18150E-01
 -1   1001975-1.53191E-02 1.70136E-02-7.18150E-01
 -1   1001976-1.53318E-02 1.70277E-02-7.33120E-01
 -1   1001978-1.53165E-02 1.70107E-02-7.33120E-01
 -1   1001979-1.53344E-02 1.70306E-02-7.48090E-01
 -1   1001981-1.53191E-02 1.70135E-02-7.48089E-01
 -1   1001982-2.34276E-02 1.70211E-02-1.44360E-02
 -1   1001984-2.34105E-02 1.70087E-02-1.45111E-02
 -1   1001985-1.73135E-02 1.25790E-02-2.95762E-02
 -1   1001987-1.72946E-02 1.25653E-02-2.95773E-02
 -1   1001988-1.87860E-02 1.36488E-02-4.45203E-02
 -1   1001990-1.87675E-02 1.36354E-02-4.45009E-02
 -1   1001991-1.85461E-02 1.34745E-02-5.94783E-02
 -1   1001993-1.85276E-02 1.34611E-02-5.95007E-02
 -1   1001994-1.84700E-02 1.34192E-02-7.44676E-02
 -1   1001996-1.84515E-02 1.34058E-02-7.44462E-02
 -1   1001997-1.86167E-02 1.35259E-02-8.94171E-02
 -1   1001999-1.85982E-02 1.35124E-02-8.94367E-02
 -1   1002000-1.84640E-02 1.34149E-02-1.04405E-01
 -1   1002002-1.84454E-02 1.34014E-02-1.04388E-01
 -1   1002003-1.86067E-02 1.35186E-02-1.19358E-01
 -1   1002005-1.85882E-02 1.35051E-02-1.19374E-01
 -1   1002006-1.84772E-02 1.34244E-02-1.34343E-01
 -1   1002008-1.84586E-02 1.34110E-02-1.34329E-01
 -1   1002009-1.85938E-02 1.35092E-02-1.49299E-01
 -1   1002011-1.85753E-02 1.34957E-02-1.49312E-01
 -1   1002012-1.84891E-02 1.34331E-02-1.64281E-01
 -1   1002014-1.84705E-02 1.34196E-02-1.64269E-01
 -1   1002015-1.85830E-02 1.35013E-02-1.79239E-01
 -1   1002017-1.85645E-02 1.34879E-02-1.79250E-01
 -1   1002018-1.84987E-02 1.34401E-02-1.94219E-01
 -1   1002020-1.84802E-02 1.34266E-02-1.94210E-01
 -1   1002021-1.85743E-02 1.34950E-02-2.09180E-01
 -1   1002023-1.85558E-02 1.34816E-02-2.09188E-01
 -1   1002024-1.85065E-02 1.34458E-02-2.24157E-01
 -1   1002026-1.84880E-02 1.34323E-02-2.24150E-01
 -1   1002027-1.85674E-02 1.34900E-02-2.39120E-01
 -1   1002029-1.85488E-02 1.34765E-02-2.39126E-01
 -1   1002030-1.85128E-02 1.34503E-02-2.54096E-01
 -1   1002032-1.84942E-02 1.34369E-02-2.54090E-01
 -1   1002033-1.85617E-02 1.34859E-02-2.69059E-01
 -1   1002035-1.85432E-02 1.34724E-02-2.69065E-01
 -1   1002036-1.85178E-02 1.34540E-02-2.84034E-01
 -1   1002038-1.84993E-02 1.34405E-02-2.84029E-01
 -1   1002039-1.85572E-02 1.34826E-02-2.98999E-01
 -1   1002041-1.85387E-02 1.34692E-02-2.99003E-01
 -1   1002042-1.85219E-02 1.34569E-02-3.13973E-01
 -1   1002044-1.85033E-02 1.34435E-02-3.13969E-01
 -1   1002045-1.85536E-02 1.34800E-02-3.28939E-01
 -1   1002047-1.85351E-02 1.34665E-02-3.28942E-01
 -1   1002048-1.85251E-02 1.34593E-02-3.43912E-01
 -1   1002050-1.85066E-02 1.34458E-02-3.43909E-01
 -1   1002051-1.85507E-02 1.34779E-02-3.58878E-01
 -1   1002053-1.85322E-02 1.34644E-02-3.58881E-01
 -1   1002054-1.85277E-02 1.34612E-02-3.73851E-01
 -1   1002056-1.85092E-02 1.34477E-02-3.73848E-01
 -1   1002057-1.85483E-02 1.34762E-02-3.88818E-01
 -1   1002059-1.85298E-02 1.34627E-02-3.88820E-01
 -1   1002060-1.85298E-02 1.34627E-02-4.03790E-01
 -1   1002062-1.85113E-02 1.34492E-02-4.03788E-01
 -1   1002063-1.85465E-02 1.34748E-02-4.18757E-01
 -1   1002065-1.85279E-02 1.34613E-02-4.18759E-01
 -1   1002066-1.85315E-02 1.34639E-02-4.33729E-01
 -1   1002068-1.85130E-02 1.34505E-02-4.33727E-01
 -1   1002069-1.85450E-02 1.34737E-02-4.48697E-01
 -1   1002071-1.85264E-02 1.34602E-02-4.48698E-01
 -1   1002072-1.85329E-02 1.34649E-02-4.63668E-01
 -1   1002074-1.85143E-02 1.34514E-02-4.63666E-01
 -1   1002075-1.85438E-02 1.34728E-02-4.78636E-01
 -1   1002077-1.85252E-02 1.34594E-02-4.78637E-01
 -1   1002078-1.85339E-02 1.34657E-02-4.93607E-01
 -1   1002080-1.85154E-02 1.34522E-02-4.93606E-01
 -1   1002081-1.85428E-02 1.34721E-02-5.08575E-01
 -1   1002083-1.85243E-02 1.34587E-02-5.08576E-01
 -1   1002084-1.85348E-02 1.34663E-02-5.23546E-01
 -1   1002086-1.85163E-02 1.34528E-02-5.23545E-01
 -1   1002087-1.85420E-02 1.34716E-02-5.38515E-01
 -1   1002089-1.85235E-02 1.34581E-02-5.38515E-01
 -1   1002090-1.85355E-02 1.34668E-02-5.53485E-01
 -1   1002092-1.85169E-02 1.34533E-02-5.53484E-01
 -1   1002093-1.85414E-02 1.34711E-02-5.68454E-01
 -1   1002095-1.85229E-02 1.34577E-02-5.68455E-01
 -1   1002096-1.85360E-02 1.34672E-02-5.83424E-01
 -1   1002098-1.85174E-02 1.34537E-02-5.83424E-01
 -1   1002099-1.85410E-02 1.34708E-02-5.98393E-01
 -1   1002101-1.85225E-02 1.34574E-02-5.98394E-01
 -1   1002102-1.85364E-02 1.34675E-02-6.13363E-01
 -1   1002104-1.85178E-02 1.34540E-02-6.13363E-01
 -1   1002105-1.85407E-02 1.34706E-02-6.28333E-01
 -1   1002107-1.85221E-02 1.34571E-02-6.28333E-01
 -1   1002108-1.85367E-02 1.34677E-02-6.43302E-01
 -1   1002110-1.85181E-02 1.34542E-02-6.43302E-01
 -1   1002111-1.85404E-02 1.34704E-02-6.58272E-01
 -1   1002113-1.85219E-02 1.34569E-02-6.58272E-01
 -1   1002114-1.85369E-02 1.34678E-02-6.73242E-01
 -1   1002116-1.85183E-02 1.34544E-02-6.73241E-01
 -1   1002117-1.85402E-02 1.34703E-02-6.88211E-01
 -1   1002119-1.85217E-02 1.34568E-02-6.88211E-01
 -1   1002120-1.85370E-02 1.34679E-02-7.03181E-01
 -1   1002122-1.85185E-02 1.34544E-02-7.03181E-01
 -1   1002123-1.85402E-02 1.34702E-02-7.18150E-01
 -1   1002125-1.85216E-02 1.34568E-02-7.18150E-01
 -1   1002126-1.85370E-02 1.34679E-02-7.33120E-01
 -1   1002128-1.85185E-02 1.34545E-02-7.33120E-01
 -1   1002129-1.85402E-02 1.34702E-02-7.48090E-01
 -1   1002131-1.85216E-02 1.34567E-02-7.48089E-01
 -1   1002132-2.64545E-02 1.17783E-02-1.44360E-02
 -1   1002134-2.64353E-02 1.17697E-02-1.45111E-02
 -1   1002135-1.95505E-02 8.70443E-03-2.95762E-02
 -1   1002137-1.95291E-02 8.69493E-03-2.95773E-02
 -1   1002138-2.12132E-02 9.44472E-03-4.45203E-02
 -1   1002140-2.11923E-02 9.43544E-03-4.45009E-02
 -1   1002141-2.09424E-02 9.32414E-03-5.94783E-02
 -1   1002143-2.09214E-02 9.31483E-03-5.95007E-02
 -1   1002144-2.08564E-02 9.28587E-03-7.44676E-02
 -1   1002146-2.08355E-02 9.27655E-03-7.44462E-02
 -1   1002147-2.10221E-02 9.35965E-03-8.94171E-02
 -1   1002149-2.10012E-02 9.35034E-03-8.94367E-02
 -1   1002150-2.08496E-02 9.28285E-03-1.04405E-01
 -1   1002152-2.08287E-02 9.27352E-03-1.04388E-01
 -1   1002153-2.10108E-02 9.35460E-03-1.19358E-01
 -1   1002155-2.09899E-02 9.34529E-03-1.19374E-01
 -1   1002156-2.08645E-02 9.28947E-03-1.34343E-01
 -1   1002158-2.08435E-02 9.28014E-03-1.34329E-01
 -1   1002159-2.09962E-02 9.34809E-03-1.49299E-01
 -1   1002161-2.09753E-02 9.33879E-03-1.49312E-01
 -1   1002162-2.08779E-02 9.29545E-03-1.64281E-01
 -1   1002164-2.08570E-02 9.28613E-03-1.64269E-01
 -1   1002165-2.09840E-02 9.34269E-03-1.79239E-01
 -1   1002167-2.09631E-02 9.33338E-03-1.79250E-01
 -1   1002168-2.08888E-02 9.30031E-03-1.94219E-01
 -1   1002170-2.08679E-02 9.29099E-03-1.94210E-01
 -1   1002171-2.09742E-02 9.33832E-03-2.09180E-01
 -1   1002173-2.09533E-02 9.32901E-03-2.09188E-01
 -1   1002174-2.08976E-02 9.30423E-03-2.24157E-01
 -1   1002176-2.08767E-02 9.29491E-03-2.24150E-01
 -1   1002177-2.09663E-02 9.33481E-03-2.39120E-01
 -1   1002179-2.09454E-02 9.32550E-03-2.39126E-01
 -1   1002180-2.09047E-02 9.30738E-03-2.54096E-01
 -1   1002182-2.08838E-02 9.29806E-03-2.54090E-01
 -1   1002183-2.09600E-02 9.33199E-03-2.69059E-01
 -1   1002185-2.09391E-02 9.32268E-03-2.69065E-01
 -1   1002186-2.09104E-02 9.30991E-03-2.84034E-01
 -1   1002188-2.08895E-02 9.30059E-03-2.84029E-01
 -1   1002189-2.09549E-02 9.32972E-03-2.98999E-01
 -1   1002191-2.09340E-02 9.32041E-03-2.99003E-01
 -1   1002192-2.09150E-02 9.31194E-03-3.13973E-01
 -1   1002194-2.08940E-02 9.30262E-03-3.13969E-01
 -1   1002195-2.09508E-02 9.32790E-03-3.28939E-01
 -1   1002197-2.09299E-02 9.31858E-03-3.28942E-01
 -1   1002198-2.09186E-02 9.31358E-03-3.43912E-01
 -1   1002200-2.08977E-02 9.30426E-03-3.43909E-01
 -1   1002201-2.09475E-02 9.32643E-03-3.58878E-01
 -1   1002203-2.09266E-02 9.31711E-03-3.58881E-01
 -1   1002204-2.09216E-02 9.31489E-03-3.73851E-01
 -1   1002206-2.09007E-02 9.30557E-03-3.73848E-01
 -1   1002207-2.09449E-02 9.32525E-03-3.88818E-01
 -1   1002209-2.09239E-02 9.31594E-03-3.88820E-01
 -1   1002210-2.09240E-02 9.31595E-03-4.03790E-01
 -1   1002212-2.09030E-02 9.30663E-03-4.03788E-01
 -1   1002213-2.09427E-02 9.32431E-03-4.18757E-01
 -1   1002215-2.09218E-02 9.31499E-03-4.18759E-01
 -1   1002216-2.09259E-02 9.31679E-03-4.33729E-01
 -1   1002218-2.09049E-02 9.30748E-03-4.33727E-01
 -1   1002219-2.09410E-02 9.32355E-03-4.48697E-01
 -1   1002221-2.09201E-02 9.31424E-03-4.48698E-01
 -1   1002222-2.09274E-02 9.31747E-03-4.63668E-01
 -1   1002224-2.09065E-02 9.30815E-03-4.63666E-01
 -1   1002225-2.09397E-02 9.32295E-03-4.78636E-01
 -1   1002227-2.09188E-02 9.31363E-03-4.78637E-01
 -1   1002228-2.09286E-02 9.31801E-03-4.93607E-01
 -1   1002230-2.09077E-02 9.30869E-03-4.93606E-01
 -1   1002231-2.09386E-02 9.32247E-03-5.08575E-01
 -1   1002233-2.09177E-02 9.31315E-03-5.08576E-01
 -1   1002234-2.09296E-02 9.31844E-03-5.23546E-01
 -1   1002236-2.09086E-02 9.30912E-03-5.23545E-01
 -1   1002237-2.09378E-02 9.32209E-03-5.38515E-01
 -1   1002239-2.09168E-02 9.31277E-03-5.38515E-01
 -1   1002240-2.09303E-02 9.31877E-03-5.53485E-01
 -1   1002242-2.09094E-02 9.30946E-03-5.53484E-01
 -1   1002243-2.09371E-02 9.32179E-03-5.68454E-01
 -1   1002245-2.09162E-02 9.31247E-03-5.68455E-01
 -1   1002246-2.09309E-02 9.31904E-03-5.83424E-01
 -1   1002248-2.09100E-02 9.30972E-03-5.83424E-01
 -1   1002249-2.09366E-02 9.32156E-03-5.98393E-01
 -1   1002251-2.09156E-02 9.31224E-03-5.98394E-01
 -1   1002252-2.09314E-02 9.31924E-03-6.13363E-01
 -1   1002254-2.09104E-02 9.30992E-03-6.13363E-01
 -1   1002255-2.09362E-02 9.32139E-03-6.28333E-01
 -1   1002257-2.09153E-02 9.31207E-03-6.28333E-01
 -1   1002258-2.09317E-02 9.31938E-03-6.43302E-01
 -1   1002260-2.09108E-02 9.31007E-03-6.43302E-01
 -1   1002261-2.09359E-02 9.32126E-03-6.58272E-01
 -1   1002263-2.09150E-02 9.31195E-03-6.58272E-01
 -1   1002264-2.09319E-02 9.31948E-03-6.73242E-01
 -1   1002266-2.09110E-02 9.31017E-03-6.73241E-01
 -1   1002267-2.09357E-02 9.32118E-03-6.88211E-01
 -1   1002269-2.09148E-02 9.31187E-03-6.88211E-01
 -1   1002270-2.09320E-02 9.31954E-03-7.03181E-01
 -1   1002272-2.09111E-02 9.31023E-03-7.03181E-01
 -1   1002273-2.09356E-02 9.32114E-03-7.18150E-01
 -1   1002275-2.09147E-02 9.31183E-03-7.18150E-01
 -1   1002276-2.09321E-02 9.31956E-03-7.33120E-01
 -1   1002278-2.09112E-02 9.31025E-03-7.33120E-01
 -1   1002279-2.09356E-02 9.32114E-03-7.48090E-01
 -1   1002281-2.09147E-02 9.31182E-03-7.48089E-01
 -1   1002282-2.83253E-02 6.02073E-03-1.44360E-02
 -1   1002284-2.83047E-02 6.01634E-03-1.45111E-02
 -1   1002285-2.09330E-02 4.44945E-03-2.95762E-02
 -1   1002287-2.09102E-02 4.44459E-03-2.95773E-02
 -1   1002288-2.27133E-02 4.82786E-03-4.45203E-02
 -1   1002290-2.26910E-02 4.82312E-03-4.45009E-02
 -1   1002291-2.24233E-02 4.76622E-03-5.94783E-02
 -1   1002293-2.24009E-02 4.76146E-03-5.95007E-02
 -1   1002294-2.23313E-02 4.74666E-03-7.44676E-02
 -1   1002296-2.23089E-02 4.74189E-03-7.44462E-02
 -1   1002297-2.25087E-02 4.78437E-03-8.94171E-02
 -1   1002299-2.24863E-02 4.77962E-03-8.94367E-02
 -1   1002300-2.23240E-02 4.74511E-03-1.04405E-01
 -1   1002302-2.23016E-02 4.74035E-03-1.04388E-01
 -1   1002303-2.24966E-02 4.78179E-03-1.19358E-01
 -1   1002305-2.24742E-02 4.77704E-03-1.19374E-01
 -1   1002306-2.23399E-02 4.74850E-03-1.34343E-01
 -1   1002308-2.23175E-02 4.74373E-03-1.34329E-01
 -1   1002309-2.24809E-02 4.77847E-03-1.49299E-01
 -1   1002311-2.24585E-02 4.77371E-03-1.49312E-01
 -1   1002312-2.23543E-02 4.75156E-03-1.64281E-01
 -1   1002314-2.23319E-02 4.74679E-03-1.64269E-01
 -1   1002315-2.24679E-02 4.77570E-03-1.79239E-01
 -1   1002317-2.24455E-02 4.77094E-03-1.79250E-01
 -1   1002318-2.23660E-02 4.75404E-03-1.94219E-01
 -1   1002320-2.23436E-02 4.74928E-03-1.94210E-01
 -1   1002321-2.24574E-02 4.77347E-03-2.09180E-01
 -1   1002323-2.24350E-02 4.76871E-03-2.09188E-01
 -1   1002324-2.23754E-02 4.75605E-03-2.24157E-01
 -1   1002326-2.23530E-02 4.75128E-03-2.24150E-01
 -1   1002327-2.24490E-02 4.77168E-03-2.39120E-01
 -1   1002329-2.24266E-02 4.76692E-03-2.39126E-01
 -1   1002330-2.23830E-02 4.75765E-03-2.54096E-01
 -1   1002332-2.23606E-02 4.75289E-03-2.54090E-01
 -1   1002333-2.24422E-02 4.77024E-03-2.69059E-01
 -1   1002335-2.24198E-02 4.76548E-03-2.69065E-01
 -1   1002336-2.23891E-02 4.75895E-03-2.84034E-01
 -1   1002338-2.23667E-02 4.75418E-03-2.84029E-01
 -1   1002339-2.24367E-02 4.76908E-03-2.98999E-01
 -1   1002341-2.24143E-02 4.76432E-03-2.99003E-01
 -1   1002342-2.23940E-02 4.75999E-03-3.13973E-01
 -1   1002344-2.23716E-02 4.75523E-03-3.13969E-01
 -1   1002345-2.24323E-02 4.76814E-03-3.28939E-01
 -1   1002347-2.24100E-02 4.76338E-03-3.28942E-01
 -1   1002348-2.23979E-02 4.76083E-03-3.43912E-01
 -1   1002350-2.23755E-02 4.75606E-03-3.43909E-01
 -1   1002351-2.24288E-02 4.76739E-03-3.58878E-01
 -1   1002353-2.24064E-02 4.76263E-03-3.58881E-01
 -1   1002354-2.24011E-02 4.76150E-03-3.73851E-01
 -1   1002356-2.23787E-02 4.75673E-03-3.73848E-01
 -1   1002357-2.24260E-02 4.76679E-03-3.88818E-01
 -1   1002359-2.24036E-02 4.76203E-03-3.88820E-01
 -1   1002360-2.24036E-02 4.76204E-03-4.03790E-01
 -1   1002362-2.23812E-02 4.75727E-03-4.03788E-01
 -1   1002363-2.24237E-02 4.76631E-03-4.18757E-01
 -1   1002365-2.24013E-02 4.76155E-03-4.18759E-01
 -1   1002366-2.24057E-02 4.76247E-03-4.33729E-01
 -1   1002368-2.23832E-02 4.75771E-03-4.33727E-01
 -1   1002369-2.24219E-02 4.76592E-03-4.48697E-01
 -1   1002371-2.23995E-02 4.76116E-03-4.48698E-01
 -1   1002372-2.24073E-02 4.76281E-03-4.63668E-01
 -1   1002374-2.23849E-02 4.75805E-03-4.63666E-01
 -1   1002375-2.24205E-02 4.76561E-03-4.78636E-01
 -1   1002377-2.23981E-02 4.76085E-03-4.78637E-01
 -1   1002378-2.24086E-02 4.76309E-03-4.93607E-01
 -1   1002380-2.23862E-02 4.75833E-03-4.93606E-01
 -1   1002381-2.24193E-02 4.76537E-03-5.08575E-01
 -1   1002383-2.23969E-02 4.76061E-03-5.08576E-01
 -1   1002384-2.24096E-02 4.76331E-03-5.23546E-01
 -1   1002386-2.23872E-02 4.75855E-03-5.23545E-01
 -1   1002387-2.24184E-02 4.76517E-03-5.38515E-01
 -1   1002389-2.23960E-02 4.76041E-03-5.38515E-01
 -1   1002390-2.24104E-02 4.76348E-03-5.53485E-01
 -1   1002392-2.23880E-02 4.75872E-03-5.53484E-01
 -1   1002393-2.24177E-02 4.76502E-03-5.68454E-01
 -1   1002395-2.23953E-02 4.76026E-03-5.68455E-01
 -1   1002396-2.24111E-02 4.76362E-03-5.83424E-01
 -1   1002398-2.23886E-02 4.75885E-03-5.83424E-01
 -1   1002399-2.24171E-02 4.76490E-03-5.98393E-01
 -1   1002401-2.23947E-02 4.76014E-03-5.98394E-01
 -1   1002402-2.24115E-02 4.76372E-03-6.13363E-01
 -1   1002404-2.23891E-02 4.75895E-03-6.13363E-01
 -1   1002405-2.24167E-02 4.76482E-03-6.28333E-01
 -1   1002407-2.23943E-02 4.76006E-03-6.28333E-01
 -1   1002408-2.24119E-02 4.76379E-03-6.43302E-01
 -1   1002410-2.23895E-02 4.75903E-03-6.43302E-01
 -1   1002411-2.24164E-02 4.76475E-03-6.58272E-01
 -1   1002413-2.23940E-02 4.75999E-03-6.58272E-01
 -1   1002414-2.24121E-02 4.76384E-03-6.73242E-01
 -1   1002416-2.23897E-02 4.75908E-03-6.73241E-01
 -1   1002417-2.24162E-02 4.76471E-03-6.88211E-01
 -1   1002419-2.23938E-02 4.75995E-03-6.88211E-01
 -1   1002420-2.24123E-02 4.76387E-03-7.03181E-01
 -1   1002422-2.23899E-02 4.75911E-03-7.03181E-01
 -1   1002423-2.24161E-02 4.76469E-03-7.18150E-01
 -1   1002425-2.23937E-02 4.75993E-03-7.18150E-01
 -1   1002426-2.24123E-02 4.76389E-03-7.33120E-01
 -1   1002428-2.23899E-02 4.75912E-03-7.33120E-01
 -1   1002429-2.24161E-02 4.76469E-03-7.48090E-01
 -1   1002431-2.23937E-02 4.75993E-03-7.48089E-01
 -1   1002432-2.89581E-02 5.12072E-12-1.44360E-02
 -1   1002434-2.89370E-02 5.19550E-12-1.45111E-02
 -1   1002435-2.14007E-02 1.57894E-11-2.95762E-02
 -1   1002437-2.13773E-02 1.59465E-11-2.95773E-02
 -1   1002438-2.32207E-02 3.03248E-11-4.45203E-02
 -1   1002440-2.31979E-02 3.05940E-11-4.45009E-02
 -1   1002441-2.29243E-02 4.81072E-11-5.94783E-02
 -1   1002443-2.29014E-02 4.85009E-11-5.95007E-02
 -1   1002444-2.28302E-02 6.88960E-11-7.44676E-02
 -1   1002446-2.28073E-02 6.94337E-11-7.44462E-02
 -1   1002447-2.30116E-02 9.23027E-11-8.94171E-02
 -1   1002449-2.29887E-02 9.30001E-11-8.94367E-02
 -1   1002450-2.28227E-02 1.18199E-10-1.04405E-01
 -1   1002452-2.27998E-02 1.19033E-10-1.04388E-01
 -1   1002453-2.29992E-02 1.46482E-10-1.19358E-01
 -1   1002455-2.29763E-02 1.47463E-10-1.19374E-01
 -1   1002456-2.28390E-02 1.76590E-10-1.34343E-01
 -1   1002458-2.28161E-02 1.77716E-10-1.34329E-01
 -1   1002459-2.29832E-02 2.08110E-10-1.49299E-01
 -1   1002461-2.29603E-02 2.09320E-10-1.49312E-01
 -1   1002462-2.28537E-02 2.41119E-10-1.64281E-01
 -1   1002464-2.28308E-02 2.42421E-10-1.64269E-01
 -1   1002465-2.29699E-02 2.76371E-10-1.79239E-01
 -1   1002467-2.29470E-02 2.77792E-10-1.79250E-01
 -1   1002468-2.28657E-02 3.14234E-10-1.94219E-01
 -1   1002470-2.28428E-02 3.15797E-10-1.94210E-01
 -1   1002471-2.29591E-02 3.53359E-10-2.09180E-01
 -1   1002473-2.29362E-02 3.55108E-10-2.09188E-01
 -1   1002474-2.28753E-02 3.93552E-10-2.24157E-01
 -1   1002476-2.28524E-02 3.95484E-10-2.24150E-01
 -1   1002477-2.29505E-02 4.34470E-10-2.39120E-01
 -1   1002479-2.29276E-02 4.36570E-10-2.39126E-01
 -1   1002480-2.28831E-02 4.75297E-10-2.54096E-01
 -1   1002482-2.28601E-02 4.77530E-10-2.54090E-01
 -1   1002483-2.29436E-02 5.16524E-10-2.69059E-01
 -1   1002485-2.29207E-02 5.18877E-10-2.69065E-01
 -1   1002486-2.28893E-02 5.59101E-10-2.84034E-01
 -1   1002488-2.28664E-02 5.61597E-10-2.84029E-01
 -1   1002489-2.29380E-02 6.02890E-10-2.98999E-01
 -1   1002491-2.29151E-02 6.05551E-10-2.99003E-01
 -1   1002492-2.28943E-02 6.47854E-10-3.13973E-01
 -1   1002494-2.28714E-02 6.50648E-10-3.13969E-01
 -1   1002495-2.29335E-02 6.93023E-10-3.28939E-01
 -1   1002497-2.29106E-02 6.95935E-10-3.28942E-01
 -1   1002498-2.28983E-02 7.38453E-10-3.43912E-01
 -1   1002500-2.28754E-02 7.41479E-10-3.43909E-01
 -1   1002501-2.29299E-02 7.84350E-10-3.58878E-01
 -1   1002503-2.29070E-02 7.87464E-10-3.58881E-01
 -1   1002504-2.29015E-02 8.30506E-10-3.73851E-01
 -1   1002506-2.28786E-02 8.33698E-10-3.73848E-01
 -1   1002507-2.29270E-02 8.78067E-10-3.88818E-01
 -1   1002509-2.29041E-02 8.81360E-10-3.88820E-01
 -1   1002510-2.29041E-02 9.26711E-10-4.03790E-01
 -1   1002512-2.28812E-02 9.30159E-10-4.03788E-01
 -1   1002513-2.29247E-02 9.75151E-10-4.18757E-01
 -1   1002515-2.29018E-02 9.78746E-10-4.18759E-01
 -1   1002516-2.29062E-02 1.02265E-09-4.33729E-01
 -1   1002518-2.28833E-02 1.02633E-09-4.33727E-01
 -1   1002519-2.29228E-02 1.06901E-09-4.48697E-01
 -1   1002521-2.28999E-02 1.07273E-09-4.48698E-01
 -1   1002522-2.29079E-02 1.11602E-09-4.63668E-01
 -1   1002524-2.28850E-02 1.11977E-09-4.63666E-01
 -1   1002525-2.29213E-02 1.16374E-09-4.78636E-01
 -1   1002527-2.28984E-02 1.16753E-09-4.78637E-01
 -1   1002528-2.29092E-02 1.21243E-09-4.93607E-01
 -1   1002530-2.28863E-02 1.21628E-09-4.93606E-01
 -1   1002531-2.29202E-02 1.26140E-09-5.08575E-01
 -1   1002533-2.28973E-02 1.26527E-09-5.08576E-01
 -1   1002534-2.29103E-02 1.31077E-09-5.23546E-01
 -1   1002536-2.28873E-02 1.31467E-09-5.23545E-01
 -1   1002537-2.29192E-02 1.36252E-09-5.38515E-01
 -1   1002539-2.28963E-02 1.36646E-09-5.38515E-01
 -1   1002540-2.29111E-02 1.41473E-09-5.53485E-01
 -1   1002542-2.28882E-02 1.41874E-09-5.53484E-01
 -1   1002543-2.29185E-02 1.46819E-09-5.68454E-01
 -1   1002545-2.28956E-02 1.47228E-09-5.68455E-01
 -1   1002546-2.29117E-02 1.52182E-09-5.83424E-01
 -1   1002548-2.28888E-02 1.52596E-09-5.83424E-01
 -1   1002549-2.29179E-02 1.57469E-09-5.98393E-01
 -1   1002551-2.28950E-02 1.57889E-09-5.98394E-01
 -1   1002552-2.29122E-02 1.62691E-09-6.13363E-01
 -1   1002554-2.28893E-02 1.63114E-09-6.13363E-01
 -1   1002555-2.29175E-02 1.67996E-09-6.28333E-01
 -1   1002557-2.28946E-02 1.68419E-09-6.28333E-01
 -1   1002558-2.29126E-02 1.73583E-09-6.43302E-01
 -1   1002560-2.28897E-02 1.74008E-09-6.43302E-01
 -1   1002561-2.29172E-02 1.79512E-09-6.58272E-01
 -1   1002563-2.28943E-02 1.79944E-09-6.58272E-01
 -1   1002564-2.29128E-02 1.85852E-09-6.73242E-01
 -1   1002566-2.28899E-02 1.86296E-09-6.73241E-01
 -1   1002567-2.29170E-02 1.92654E-09-6.88211E-01
 -1   1002569-2.28941E-02 1.93121E-09-6.88211E-01
 -1   1002570-2.29130E-02 1.99864E-09-7.03181E-01
 -1   1002572-2.28901E-02 2.00364E-09-7.03181E-01
 -1   1002573-2.29169E-02 2.07397E-09-7.18150E-01
 -1   1002575-2.28940E-02 2.07935E-09-7.18150E-01
 -1   1002576-2.29130E-02 2.15139E-09-7.33120E-01
 -1   1002578-2.28901E-02 2.15723E-09-7.33120E-01
 -1   1002579-2.29169E-02 2.23123E-09-7.48090E-01
 -1   1002581-2.28940E-02 2.23768E-09-7.48089E-01
 -1   1002582-2.83253E-02-6.02073E-03-1.44360E-02
 -1   1002584-2.83047E-02-6.01634E-03-1.45111E-02
 -1   1002585-2.09330E-02-4.44945E-03-2.95762E-02
 -1   1002587-2.09102E-02-4.44459E-03-2.95773E-02
 -1   1002588-2.27133E-02-4.82786E-03-4.45203E-02
 -1   1002590-2.26910E-02-4.82312E-03-4.45009E-02
 -1   1002591-2.24233E-02-4.76622E-03-5.94783E-02
 -1   1002593-2.24009E-02-4.76146E-03-5.95007E-02
 -1   1002594-2.23313E-02-4.74666E-03-7.44676E-02
 -1   1002596-2.23089E-02-4.74189E-03-7.44462E-02
 -1   1002597-2.25087E-02-4.78437E-03-8.94171E-02
 -1   1002599-2.24863E-02-4.77962E-03-8.94367E-02
 -1   1002600-2.23240E-02-4.74511E-03-1.04405E-01
 -1   1002602-2.23016E-02-4.74035E-03-1.04388E-01
 -1   1002603-2.24966E-02-4.78179E-03-1.19358E-01
 -1   1002605-2.24742E-02-4.77704E-03-1.19374E-01
 -1   1002606-2.23399E-02-4.74850E-03-1.34343E-01
 -1   1002608-2.23175E-02-4.74373E-03-1.34329E-01
 -1   1002609-2.24809E-02-4.77847E-03-1.49299E-01
 -1   1002611-2.24585E-02-4.77371E-03-1.49312E-01
 -1   1002612-2.23543E-02-4.75156E-03-1.64281E-01
 -1   1002614-2.23319E-02-4.74679E-03-1.64269E-01
 -1   1002615-2.24679E-02-4.77570E-03-1.79239E-01
 -1   1002617-2.24455E-02-4.77094E-03-1.79250E-01
 -1   1002618-2.23660E-02-4.75404E-03-1.94219E-01
 -1   1002620-2.23436E-02-4.74928E-03-1.94210E-01
 -1   1002621-2.24574E-02-4.77347E-03-2.09180E-01
 -1   1002623-2.24350E-02-4.76871E-03-2.09188E-01
 -1   1002624-2.23754E-02-4.75604E-03-2.24157E-01
 -1   1002626-2.23530E-02-4.75128E-03-2.24150E-01
 -1   1002627-2.24490E-02-4.77168E-03-2.39120E-01
 -1   1002629-2.24266E-02-4.76692E-03-2.39126E-01
 -1   1002630-2.23830E-02-4.75765E-03-2.54096E-01
 -1   1002632-2.23606E-02-4.75289E-03-2.54090E-01
 -1   1002633-2.24422E-02-4.77023E-03-2.69059E-01
 -1   1002635-2.24198E-02-4.76547E-03-2.69065E-01
 -1   1002636-2.23891E-02-4.75895E-03-2.84034E-01
 -1   1002638-2.23667E-02-4.75418E-03-2.84029E-01
 -1   1002639-2.24367E-02-4.76907E-03-2.98999E-01
 -1   1002641-2.24143E-02-4.76431E-03-2.99003E-01
 -1   1002642-2.23940E-02-4.75999E-03-3.13973E-01
 -1   1002644-2.23716E-02-4.75522E-03-3.13969E-01
 -1   1002645-2.24323E-02-4.76814E-03-3.28939E-01
 -1   1002647-2.24100E-02-4.76338E-03-3.28942E-01
 -1   1002648-2.23979E-02-4.76082E-03-3.43912E-01
 -1   1002650-2.23755E-02-4.75606E-03-3.43909E-01
 -1   1002651-2.24288E-02-4.76739E-03-3.58878E-01
 -1   1002653-2.24064E-02-4.76263E-03-3.58881E-01
 -1   1002654-2.24011E-02-4.76150E-03-3.73851E-01
 -1   1002656-2.23787E-02-4.75673E-03-3.73848E-01
 -1   1002657-2.24260E-02-4.76679E-03-3.88818E-01
 -1   1002659-2.24036E-02-4.76203E-03-3.88820E-01
 -1   1002660-2.24036E-02-4.76203E-03-4.03790E-01
 -1   1002662-2.23812E-02-4.75727E-03-4.03788E-01
 -1   1002663-2.24237E-02-4.76631E-03-4.18757E-01
 -1   1002665-2.24013E-02-4.76155E-03-4.18759E-01
 -1   1002666-2.24057E-02-4.76247E-03-4.33729E-01
 -1   1002668-2.23832E-02-4.75770E-03-4.33727E-01
 -1   1002669-2.24219E-02-4.76592E-03-4.48697E-01
 -1   1002671-2.23995E-02-4.76116E-03-4.48698E-01
 -1   1002672-2.24073E-02-4.76281E-03-4.63668E-01
 -1   1002674-2.23849E-02-4.75805E-03-4.63666E-01
 -1   1002675-2.24205E-02-4.76561E-03-4.78636E-01
 -1   1002677-2.23981E-02-4.76085E-03-4.78637E-01
 -1   1002678-2.24086E-02-4.76309E-03-4.93607E-01
 -1   1002680-2.23862E-02-4.75832E-03-4.93606E-01
 -1   1002681-2.24193E-02-4.76537E-03-5.08575E-01
 -1   1002683-2.23969E-02-4.76060E-03-5.08576E-01
 -1   1002684-2.24096E-02-4.76331E-03-5.23546E-01
 -1   1002686-2.23872E-02-4.75854E-03-5.23545E-01
 -1   1002687-2.24184E-02-4.76517E-03-5.38515E-01
 -1   1002689-2.23960E-02-4.76041E-03-5.38515E-01
 -1   1002690-2.24104E-02-4.76348E-03-5.53485E-01
 -1   1002692-2.23880E-02-4.75872E-03-5.53484E-01
 -1   1002693-2.24177E-02-4.76502E-03-5.68454E-01
 -1   1002695-2.23953E-02-4.76026E-03-5.68455E-01
 -1   1002696-2.24110E-02-4.76361E-03-5.83424E-01
 -1   1002698-2.23886E-02-4.75885E-03-5.83424E-01
 -1   1002699-2.24171E-02-4.76490E-03-5.98393E-01
 -1   1002701-2.23947E-02-4.76014E-03-5.98394E-01
 -1   1002702-2.24115E-02-4.76371E-03-6.13363E-01
 -1   1002704-2.23891E-02-4.75895E-03-6.13363E-01
 -1   1002705-2.24167E-02-4.76481E-03-6.28333E-01
 -1   1002707-2.23943E-02-4.76005E-03-6.28333E-01
 -1   1002708-2.24119E-02-4.76379E-03-6.43302E-01
 -1   1002710-2.23895E-02-4.75903E-03-6.43302E-01
 -1   1002711-2.24164E-02-4.76475E-03-6.58272E-01
 -1   1002713-2.23940E-02-4.75999E-03-6.58272E-01
 -1   1002714-2.24121E-02-4.76384E-03-6.73242E-01
 -1   1002716-2.23897E-02-4.75908E-03-6.73241E-01
 -1   1002717-2.24162E-02-4.76471E-03-6.88211E-01
 -1   1002719-2.23938E-02-4.75995E-03-6.88211E-01
 -1   1002720-2.24123E-02-4.76387E-03-7.03181E-01
 -1   1002722-2.23899E-02-4.75911E-03-7.03181E-01
 -1   1002723-2.24161E-02-4.76469E-03-7.18150E-01
 -1   1002725-2.23937E-02-4.75993E-03-7.18150E-01
 -1   1002726-2.24123E-02-4.76388E-03-7.33120E-01
 -1   1002728-2.23899E-02-4.75912E-03-7.33120E-01
 -1   1002729-2.24161E-02-4.76469E-03-7.48090E-01
 -1   1002731-2.23937E-02-4.75992E-03-7.48089E-01
 -1   1002732-2.64545E-02-1.17783E-02-1.44360E-02
 -1   1002734-2.64353E-02-1.17697E-02-1.45111E-02
 -1   1002735-1.95505E-02-8.70443E-03-2.95762E-02
 -1   1002737-1.95291E-02-8.69493E-03-2.95773E-02
 -1   1002738-2.12132E-02-9.44472E-03-4.45203E-02
 -1   1002740-2.11923E-02-9.43544E-03-4.45009E-02
 -1   1002741-2.09424E-02-9.32414E-03-5.94783E-02
 -1   1002743-2.09214E-02-9.31482E-03-5.95007E-02
 -1   1002744-2.08564E-02-9.28587E-03-7.44676E-02
 -1   1002746-2.08355E-02-9.27655E-03-7.44462E-02
 -1   1002747-2.10221E-02-9.35965E-03-8.94171E-02
 -1   1002749-2.10012E-02-9.35034E-03-8.94367E-02
 -1   1002750-2.08496E-02-9.28284E-03-1.04405E-01
 -1   1002752-2.08287E-02-9.27352E-03-1.04388E-01
 -1   1002753-2.10108E-02-9.35460E-03-1.19358E-01
 -1   1002755-2.09899E-02-9.34529E-03-1.19374E-01
 -1   1002756-2.08645E-02-9.28947E-03-1.34343E-01
 -1   1002758-2.08435E-02-9.28014E-03-1.34329E-01
 -1   1002759-2.09962E-02-9.34809E-03-1.49299E-01
 -1   1002761-2.09753E-02-9.33879E-03-1.49312E-01
 -1   1002762-2.08779E-02-9.29545E-03-1.64281E-01
 -1   1002764-2.08570E-02-9.28613E-03-1.64269E-01
 -1   1002765-2.09840E-02-9.34268E-03-1.79239E-01
 -1   1002767-2.09631E-02-9.33338E-03-1.79250E-01
 -1   1002768-2.08888E-02-9.30031E-03-1.94219E-01
 -1   1002770-2.08679E-02-9.29099E-03-1.94210E-01
 -1   1002771-2.09742E-02-9.33832E-03-2.09180E-01
 -1   1002773-2.09533E-02-9.32901E-03-2.09188E-01
 -1   1002774-2.08976E-02-9.30423E-03-2.24157E-01
 -1   1002776-2.08767E-02-9.29491E-03-2.24150E-01
 -1   1002777-2.09663E-02-9.33481E-03-2.39120E-01
 -1   1002779-2.09454E-02-9.32550E-03-2.39126E-01
 -1   1002780-2.09047E-02-9.30737E-03-2.54096E-01
 -1   1002782-2.08838E-02-9.29805E-03-2.54090E-01
 -1   1002783-2.09600E-02-9.33199E-03-2.69059E-01
 -1   1002785-2.09391E-02-9.32268E-03-2.69065E-01
 -1   1002786-2.09104E-02-9.30991E-03-2.84034E-01
 -1   1002788-2.08895E-02-9.30059E-03-2.84029E-01
 -1   1002789-2.09549E-02-9.32972E-03-2.98999E-01
 -1   1002791-2.09340E-02-9.32040E-03-2.99003E-01
 -1   1002792-2.09150E-02-9.31194E-03-3.13973E-01
 -1   1002794-2.08940E-02-9.30262E-03-3.13969E-01
 -1   1002795-2.09508E-02-9.32789E-03-3.28939E-01
 -1   1002797-2.09299E-02-9.31858E-03-3.28942E-01
 -1   1002798-2.09186E-02-9.31358E-03-3.43912E-01
 -1   1002800-2.08977E-02-9.30426E-03-3.43909E-01
 -1   1002801-2.09475E-02-9.32643E-03-3.58878E-01
 -1   1002803-2.09266E-02-9.31711E-03-3.58881E-01
 -1   1002804-2.09216E-02-9.31489E-03-3.73851E-01
 -1   1002806-2.09007E-02-9.30557E-03-3.73848E-01
 -1   1002807-2.09449E-02-9.32525E-03-3.88818E-01
 -1   1002809-2.09239E-02-9.31593E-03-3.88820E-01
 -1   1002810-2.09240E-02-9.31594E-03-4.03790E-01
 -1   1002812-2.09030E-02-9.30663E-03-4.03788E-01
 -1   1002813-2.09427E-02-9.32430E-03-4.18757E-01
 -1   1002815-2.09218E-02-9.31499E-03-4.18759E-01
 -1   1002816-2.09259E-02-9.31679E-03-4.33729E-01
 -1   1002818-2.09049E-02-9.30747E-03-4.33727E-01
 -1   1002819-2.09410E-02-9.32355E-03-4.48697E-01
 -1   1002821-2.09201E-02-9.31423E-03-4.48698E-01
 -1   1002822-2.09274E-02-9.31747E-03-4.63668E-01
 -1   1002824-2.09065E-02-9.30815E-03-4.63666E-01
 -1   1002825-2.09397E-02-9.32294E-03-4.78636E-01
 -1   1002827-2.09188E-02-9.31363E-03-4.78637E-01
 -1   1002828-2.09286E-02-9.31801E-03-4.93607E-01
 -1   1002830-2.09077E-02-9.30869E-03-4.93606E-01
 -1   1002831-2.09386E-02-9.32246E-03-5.08575E-01
 -1   1002833-2.09177E-02-9.31315E-03-5.08576E-01
 -1   1002834-2.09296E-02-9.31843E-03-5.23546E-01
 -1   1002836-2.09086E-02-9.30912E-03-5.23545E-01
 -1   1002837-2.09378E-02-9.32208E-03-5.38515E-01
 -1   1002839-2.09168E-02-9.31277E-03-5.38515E-01
 -1   1002840-2.09303E-02-9.31877E-03-5.53485E-01
 -1   1002842-2.09094E-02-9.30945E-03-5.53484E-01
 -1   1002843-2.09371E-02-9.32178E-03-5.68454E-01
 -1   1002845-2.09162E-02-9.31247E-03-5.68455E-01
 -1   1002846-2.09309E-02-9.31903E-03-5.83424E-01
 -1   1002848-2.09100E-02-9.30972E-03-5.83424E-01
 -1   1002849-2.09366E-02-9.32155E-03-5.98393E-01
 -1   1002851-2.09156E-02-9.31224E-03-5.98394E-01
 -1   1002852-2.09313E-02-9.31923E-03-6.13363E-01
 -1   1002854-2.09104E-02-9.30992E-03-6.13363E-01
 -1   1002855-2.09362E-02-9.32138E-03-6.28333E-01
 -1   1002857-2.09153E-02-9.31207E-03-6.28333E-01
 -1   1002858-2.09317E-02-9.31938E-03-6.43302E-01
 -1   1002860-2.09108E-02-9.31006E-03-6.43302E-01
 -1   1002861-2.09359E-02-9.32126E-03-6.58272E-01
 -1   1002863-2.09150E-02-9.31194E-03-6.58272E-01
 -1   1002864-2.09319E-02-9.31948E-03-6.73242E-01
 -1   1002866-2.09110E-02-9.31016E-03-6.73241E-01
 -1   1002867-2.09357E-02-9.32118E-03-6.88211E-01
 -1   1002869-2.09148E-02-9.31186E-03-6.88211E-01
 -1   1002870-2.09320E-02-9.31954E-03-7.03181E-01
 -1   1002872-2.09111E-02-9.31022E-03-7.03181E-01
 -1   1002873-2.09356E-02-9.32114E-03-7.18150E-01
 -1   1002875-2.09147E-02-9.31182E-03-7.18150E-01
 -1   1002876-2.09321E-02-9.31956E-03-7.33120E-01
 -1   1002878-2.09112E-02-9.31024E-03-7.33120E-01
 -1   1002879-2.09356E-02-9.32113E-03-7.48090E-01
 -1   1002881-2.09147E-02-9.31182E-03-7.48089E-01
 -1   1002882-2.34276E-02-1.70211E-02-1.44360E-02
 -1   1002884-2.34105E-02-1.70087E-02-1.45111E-02
 -1   1002885-1.73135E-02-1.25790E-02-2.95762E-02
 -1   1002887-1.72946E-02-1.25653E-02-2.95773E-02
 -1   1002888-1.87860E-02-1.36488E-02-4.45203E-02
 -1   1002890-1.87675E-02-1.36354E-02-4.45009E-02
 -1   1002891-1.85461E-02-1.34745E-02-5.94783E-02
 -1   1002893-1.85276E-02-1.34611E-02-5.95007E-02
 -1   1002894-1.84700E-02-1.34192E-02-7.44676E-02
 -1   1002896-1.84515E-02-1.34058E-02-7.44462E-02
 -1   1002897-1.86167E-02-1.35259E-02-8.94171E-02
 -1   1002899-1.85982E-02-1.35124E-02-8.94367E-02
 -1   1002900-1.84640E-02-1.34149E-02-1.04405E-01
 -1   1002902-1.84454E-02-1.34014E-02-1.04388E-01
 -1   1002903-1.86067E-02-1.35186E-02-1.19358E-01
 -1   1002905-1.85882E-02-1.35051E-02-1.19374E-01
 -1   1002906-1.84772E-02-1.34244E-02-1.34343E-01
 -1   1002908-1.84586E-02-1.34110E-02-1.34329E-01
 -1   1002909-1.85938E-02-1.35092E-02-1.49299E-01
 -1   1002911-1.85753E-02-1.34957E-02-1.49312E-01
 -1   1002912-1.84891E-02-1.34331E-02-1.64281E-01
 -1   1002914-1.84705E-02-1.34196E-02-1.64269E-01
 -1   1002915-1.85830E-02-1.35013E-02-1.79239E-01
 -1   1002917-1.85645E-02-1.34879E-02-1.79250E-01
 -1   1002918-1.84987E-02-1.34401E-02-1.94219E-01
 -1   1002920-1.84802E-02-1.34266E-02-1.94210E-01
 -1   1002921-1.85743E-02-1.34950E-02-2.09180E-01
 -1   1002923-1.85558E-02-1.34816E-02-2.09188E-01
 -1   1002924-1.85065E-02-1.34458E-02-2.24157E-01
 -1   1002926-1.84880E-02-1.34323E-02-2.24150E-01
 -1   1002927-1.85673E-02-1.34900E-02-2.39120E-01
 -1   1002929-1.85488E-02-1.34765E-02-2.39126E-01
 -1   1002930-1.85128E-02-1.34503E-02-2.54096E-01
 -1   1002932-1.84942E-02-1.34369E-02-2.54090E-01
 -1   1002933-1.85617E-02-1.34859E-02-2.69059E-01
 -1   1002935-1.85432E-02-1.34724E-02-2.69065E-01
 -1   1002936-1.85178E-02-1.34540E-02-2.84034E-01
 -1   1002938-1.84993E-02-1.34405E-02-2.84029E-01
 -1   1002939-1.85572E-02-1.34826E-02-2.98999E-01
 -1   1002941-1.85387E-02-1.34691E-02-2.99003E-01
 -1   1002942-1.85219E-02-1.34569E-02-3.13973E-01
 -1   1002944-1.85033E-02-1.34435E-02-3.13969E-01
 -1   1002945-1.85536E-02-1.34800E-02-3.28939E-01
 -1   1002947-1.85351E-02-1.34665E-02-3.28942E-01
 -1   1002948-1.85251E-02-1.34593E-02-3.43912E-01
 -1   1002950-1.85066E-02-1.34458E-02-3.43909E-01
 -1   1002951-1.85507E-02-1.34779E-02-3.58878E-01
 -1   1002953-1.85321E-02-1.34644E-02-3.58881E-01
 -1   1002954-1.85277E-02-1.34612E-02-3.73851E-01
 -1   1002956-1.85092E-02-1.34477E-02-3.73848E-01
 -1   1002957-1.85483E-02-1.34761E-02-3.88818E-01
 -1   1002959-1.85298E-02-1.34627E-02-3.88820E-01
 -1   1002960-1.85298E-02-1.34627E-02-4.03790E-01
 -1   1002962-1.85113E-02-1.34492E-02-4.03788E-01
 -1   1002963-1.85465E-02-1.34748E-02-4.18757E-01
 -1   1002965-1.85279E-02-1.34613E-02-4.18759E-01
 -1   1002966-1.85315E-02-1.34639E-02-4.33729E-01
 -1   1002968-1.85130E-02-1.34505E-02-4.33727E-01
 -1   1002969-1.85449E-02-1.34737E-02-4.48697E-01
 -1   1002971-1.85264E-02-1.34602E-02-4.48698E-01
 -1   1002972-1.85329E-02-1.34649E-02-4.63668E-01
 -1   1002974-1.85143E-02-1.34514E-02-4.63666E-01
 -1   1002975-1.85437E-02-1.34728E-02-4.78636E-01
 -1   1002977-1.85252E-02-1.34594E-02-4.78637E-01
 -1   1002978-1.85339E-02-1.34657E-02-4.93607E-01
 -1   1002980-1.85154E-02-1.34522E-02-4.93606E-01
 -1   1002981-1.85428E-02-1.34721E-02-5.08575E-01
 -1   1002983-1.85243E-02-1.34587E-02-5.08576E-01
 -1   1002984-1.85348E-02-1.34663E-02-5.23546E-01
 -1   1002986-1.85162E-02-1.34528E-02-5.23545E-01
 -1   1002987-1.85420E-02-1.34716E-02-5.38515E-01
 -1   1002989-1.85235E-02-1.34581E-02-5.38515E-01
 -1   1002990-1.85354E-02-1.34668E-02-5.53485E-01
 -1   1002992-1.85169E-02-1.34533E-02-5.53484E-01
 -1   1002993-1.85414E-02-1.34711E-02-5.68454E-01
 -1   1002995-1.85229E-02-1.34577E-02-5.68455E-01
 -1   1002996-1.85360E-02-1.34672E-02-5.83424E-01
 -1   1002998-1.85174E-02-1.34537E-02-5.83424E-01
 -1   1002999-1.85410E-02-1.34708E-02-5.98393E-01
 -1   1003001-1.85225E-02-1.34573E-02-5.98394E-01
 -1   1003002-1.85364E-02-1.34675E-02-6.13363E-01
 -1   1003004-1.85178E-02-1.34540E-02-6.13363E-01
 -1   1003005-1.85406E-02-1.34706E-02-6.28333E-01
 -1   1003007-1.85221E-02-1.34571E-02-6.28333E-01
 -1   1003008-1.85367E-02-1.34677E-02-6.43302E-01
 -1   1003010-1.85181E-02-1.34542E-02-6.43302E-01
 -1   1003011-1.85404E-02-1.34704E-02-6.58272E-01
 -1   1003013-1.85219E-02-1.34569E-02-6.58272E-01
 -1   1003014-1.85369E-02-1.34678E-02-6.73242E-01
 -1   1003016-1.85183E-02-1.34543E-02-6.73241E-01
 -1   1003017-1.85402E-02-1.34703E-02-6.88211E-01
 -1   1003019-1.85217E-02-1.34568E-02-6.88211E-01
 -1   1003020-1.85370E-02-1.34679E-02-7.03181E-01
 -1   1003022-1.85184E-02-1.34544E-02-7.03181E-01
 -1   1003023-1.85402E-02-1.34702E-02-7.18150E-01
 -1   1003025-1.85216E-02-1.34567E-02-7.18150E-01
 -1   1003026-1.85370E-02-1.34679E-02-7.33120E-01
 -1   1003028-1.85185E-02-1.34545E-02-7.33120E-01
 -1   1003029-1.85402E-02-1.34702E-02-7.48090E-01
 -1   1003031-1.85216E-02-1.34567E-02-7.48089E-01
 -1   1003032-1.93768E-02-2.15201E-02-1.44360E-02
 -1   1003034-1.93626E-02-2.15044E-02-1.45111E-02
 -1   1003035-1.43198E-02-1.59038E-02-2.95762E-02
 -1   1003037-1.43042E-02-1.58864E-02-2.95773E-02
 -1   1003038-1.55377E-02-1.72564E-02-4.45203E-02
 -1   1003040-1.55224E-02-1.72394E-02-4.45009E-02
 -1   1003041-1.53393E-02-1.70361E-02-5.94783E-02
 -1   1003043-1.53240E-02-1.70190E-02-5.95007E-02
 -1   1003044-1.52764E-02-1.69661E-02-7.44676E-02
 -1   1003046-1.52610E-02-1.69491E-02-7.44462E-02
 -1   1003047-1.53977E-02-1.71009E-02-8.94171E-02
 -1   1003049-1.53824E-02-1.70839E-02-8.94367E-02
 -1   1003050-1.52714E-02-1.69606E-02-1.04405E-01
 -1   1003052-1.52561E-02-1.69436E-02-1.04388E-01
 -1   1003053-1.53894E-02-1.70917E-02-1.19358E-01
 -1   1003055-1.53741E-02-1.70747E-02-1.19374E-01
 -1   1003056-1.52823E-02-1.69727E-02-1.34343E-01
 -1   1003058-1.52669E-02-1.69557E-02-1.34329E-01
 -1   1003059-1.53787E-02-1.70798E-02-1.49299E-01
 -1   1003061-1.53634E-02-1.70628E-02-1.49312E-01
 -1   1003062-1.52921E-02-1.69836E-02-1.64281E-01
 -1   1003064-1.52768E-02-1.69666E-02-1.64269E-01
 -1   1003065-1.53698E-02-1.70699E-02-1.79239E-01
 -1   1003067-1.53545E-02-1.70529E-02-1.79250E-01
 -1   1003068-1.53001E-02-1.69925E-02-1.94219E-01
 -1   1003070-1.52848E-02-1.69755E-02-1.94210E-01
 -1   1003071-1.53627E-02-1.70620E-02-2.09180E-01
 -1   1003073-1.53473E-02-1.70450E-02-2.09188E-01
 -1   1003074-1.53066E-02-1.69997E-02-2.24157E-01
 -1   1003076-1.52912E-02-1.69826E-02-2.24150E-01
 -1   1003077-1.53569E-02-1.70555E-02-2.39120E-01
 -1   1003079-1.53416E-02-1.70385E-02-2.39126E-01
 -1   1003080-1.53117E-02-1.70054E-02-2.54096E-01
 -1   1003082-1.52964E-02-1.69884E-02-2.54090E-01
 -1   1003083-1.53522E-02-1.70504E-02-2.69059E-01
 -1   1003085-1.53369E-02-1.70334E-02-2.69065E-01
 -1   1003086-1.53159E-02-1.70100E-02-2.84034E-01
 -1   1003088-1.53006E-02-1.69930E-02-2.84029E-01
 -1   1003089-1.53485E-02-1.70462E-02-2.98999E-01
 -1   1003091-1.53332E-02-1.70292E-02-2.99003E-01
 -1   1003092-1.53193E-02-1.70138E-02-3.13973E-01
 -1   1003094-1.53039E-02-1.69967E-02-3.13969E-01
 -1   1003095-1.53455E-02-1.70429E-02-3.28939E-01
 -1   1003097-1.53302E-02-1.70259E-02-3.28942E-01
 -1   1003098-1.53220E-02-1.70167E-02-3.43912E-01
 -1   1003100-1.53066E-02-1.69997E-02-3.43909E-01
 -1   1003101-1.53431E-02-1.70402E-02-3.58878E-01
 -1   1003103-1.53278E-02-1.70232E-02-3.58881E-01
 -1   1003104-1.53241E-02-1.70192E-02-3.73851E-01
 -1   1003106-1.53088E-02-1.70021E-02-3.73848E-01
 -1   1003107-1.53412E-02-1.70381E-02-3.88818E-01
 -1   1003109-1.53258E-02-1.70211E-02-3.88820E-01
 -1   1003110-1.53258E-02-1.70211E-02-4.03790E-01
 -1   1003112-1.53105E-02-1.70041E-02-4.03788E-01
 -1   1003113-1.53396E-02-1.70364E-02-4.18757E-01
 -1   1003115-1.53243E-02-1.70193E-02-4.18759E-01
 -1   1003116-1.53272E-02-1.70226E-02-4.33729E-01
 -1   1003118-1.53119E-02-1.70056E-02-4.33727E-01
 -1   1003119-1.53384E-02-1.70350E-02-4.48697E-01
 -1   1003121-1.53230E-02-1.70179E-02-4.48698E-01
 -1   1003122-1.53284E-02-1.70239E-02-4.63668E-01
 -1   1003124-1.53130E-02-1.70068E-02-4.63666E-01
 -1   1003125-1.53374E-02-1.70339E-02-4.78636E-01
 -1   1003127-1.53220E-02-1.70168E-02-4.78637E-01
 -1   1003128-1.53292E-02-1.70248E-02-4.93607E-01
 -1   1003130-1.53139E-02-1.70078E-02-4.93606E-01
 -1   1003131-1.53366E-02-1.70330E-02-5.08575E-01
 -1   1003133-1.53212E-02-1.70160E-02-5.08576E-01
 -1   1003134-1.53299E-02-1.70256E-02-5.23546E-01
 -1   1003136-1.53146E-02-1.70086E-02-5.23545E-01
 -1   1003137-1.53359E-02-1.70323E-02-5.38515E-01
 -1   1003139-1.53206E-02-1.70153E-02-5.38515E-01
 -1   1003140-1.53305E-02-1.70262E-02-5.53485E-01
 -1   1003142-1.53152E-02-1.70092E-02-5.53484E-01
 -1   1003143-1.53355E-02-1.70317E-02-5.68454E-01
 -1   1003145-1.53201E-02-1.70147E-02-5.68455E-01
 -1   1003146-1.53309E-02-1.70267E-02-5.83424E-01
 -1   1003148-1.53156E-02-1.70097E-02-5.83424E-01
 -1   1003149-1.53351E-02-1.70313E-02-5.98393E-01
 -1   1003151-1.53198E-02-1.70143E-02-5.98394E-01
 -1   1003152-1.53313E-02-1.70271E-02-6.13363E-01
 -1   1003154-1.53159E-02-1.70101E-02-6.13363E-01
 -1   1003155-1.53348E-02-1.70310E-02-6.28333E-01
 -1   1003157-1.53195E-02-1.70140E-02-6.28333E-01
 -1   1003158-1.53315E-02-1.70273E-02-6.43302E-01
 -1   1003160-1.53162E-02-1.70103E-02-6.43302E-01
 -1   1003161-1.53346E-02-1.70308E-02-6.58272E-01
 -1   1003163-1.53193E-02-1.70138E-02-6.58272E-01
 -1   1003164-1.53317E-02-1.70275E-02-6.73242E-01
 -1   1003166-1.53163E-02-1.70105E-02-6.73241E-01
 -1   1003167-1.53345E-02-1.70306E-02-6.88211E-01
 -1   1003169-1.53191E-02-1.70136E-02-6.88211E-01
 -1   1003170-1.53318E-02-1.70276E-02-7.03181E-01
 -1   1003172-1.53164E-02-1.70106E-02-7.03181E-01
 -1   1003173-1.53344E-02-1.70306E-02-7.18150E-01
 -1   1003175-1.53191E-02-1.70135E-02-7.18150E-01
 -1   1003176-1.53318E-02-1.70277E-02-7.33120E-01
 -1   1003178-1.53165E-02-1.70107E-02-7.33120E-01
 -1   1003179-1.53344E-02-1.70306E-02-7.48090E-01
 -1   1003181-1.53191E-02-1.70135E-02-7.48089E-01
 -1   1003182-1.44791E-02-2.50785E-02-1.44360E-02
 -1   1003184-1.44685E-02-2.50602E-02-1.45111E-02
 -1   1003185-1.07003E-02-1.85335E-02-2.95762E-02
 -1   1003187-1.06887E-02-1.85133E-02-2.95773E-02
 -1   1003188-1.16104E-02-2.01097E-02-4.45203E-02
 -1   1003190-1.15990E-02-2.00900E-02-4.45009E-02
 -1   1003191-1.14621E-02-1.98530E-02-5.94783E-02
 -1   1003193-1.14507E-02-1.98332E-02-5.95007E-02
 -1   1003194-1.14151E-02-1.97715E-02-7.44676E-02
 -1   1003196-1.14036E-02-1.97517E-02-7.44462E-02
 -1   1003197-1.15058E-02-1.99286E-02-8.94171E-02
 -1   1003199-1.14943E-02-1.99088E-02-8.94367E-02
 -1   1003200-1.14114E-02-1.97651E-02-1.04405E-01
 -1   1003202-1.13999E-02-1.97452E-02-1.04388E-01
 -1   1003203-1.14996E-02-1.99178E-02-1.19358E-01
 -1   1003205-1.14881E-02-1.98980E-02-1.19374E-01
 -1   1003206-1.14195E-02-1.97792E-02-1.34343E-01
 -1   1003208-1.14080E-02-1.97593E-02-1.34329E-01
 -1   1003209-1.14916E-02-1.99040E-02-1.49299E-01
 -1   1003211-1.14801E-02-1.98842E-02-1.49312E-01
 -1   1003212-1.14269E-02-1.97919E-02-1.64281E-01
 -1   1003214-1.14154E-02-1.97721E-02-1.64269E-01
 -1   1003215-1.14849E-02-1.98925E-02-1.79239E-01
 -1   1003217-1.14735E-02-1.98727E-02-1.79250E-01
 -1   1003218-1.14328E-02-1.98023E-02-1.94219E-01
 -1   1003220-1.14214E-02-1.97824E-02-1.94210E-01
 -1   1003221-1.14796E-02-1.98832E-02-2.09180E-01
 -1   1003223-1.14681E-02-1.98634E-02-2.09188E-01
 -1   1003224-1.14377E-02-1.98106E-02-2.24157E-01
 -1   1003226-1.14262E-02-1.97908E-02-2.24150E-01
 -1   1003227-1.14753E-02-1.98757E-02-2.39120E-01
 -1   1003229-1.14638E-02-1.98559E-02-2.39126E-01
 -1   1003230-1.14415E-02-1.98173E-02-2.54096E-01
 -1   1003232-1.14301E-02-1.97975E-02-2.54090E-01
 -1   1003233-1.14718E-02-1.98697E-02-2.69059E-01
 -1   1003235-1.14603E-02-1.98499E-02-2.69065E-01
 -1   1003236-1.14446E-02-1.98227E-02-2.84034E-01
 -1   1003238-1.14332E-02-1.98028E-02-2.84029E-01
 -1   1003239-1.14690E-02-1.98649E-02-2.98999E-01
 -1   1003241-1.14575E-02-1.98450E-02-2.99003E-01
 -1   1003242-1.14471E-02-1.98270E-02-3.13973E-01
 -1   1003244-1.14357E-02-1.98072E-02-3.13969E-01
 -1   1003245-1.14667E-02-1.98610E-02-3.28939E-01
 -1   1003247-1.14553E-02-1.98412E-02-3.28942E-01
 -1   1003248-1.14491E-02-1.98305E-02-3.43912E-01
 -1   1003250-1.14377E-02-1.98107E-02-3.43909E-01
 -1   1003251-1.14649E-02-1.98579E-02-3.58878E-01
 -1   1003253-1.14535E-02-1.98380E-02-3.58881E-01
 -1   1003254-1.14508E-02-1.98333E-02-3.73851E-01
 -1   1003256-1.14393E-02-1.98135E-02-3.73848E-01
 -1   1003257-1.14635E-02-1.98554E-02-3.88818E-01
 -1   1003259-1.14520E-02-1.98355E-02-3.88820E-01
 -1   1003260-1.14521E-02-1.98355E-02-4.03790E-01
 -1   1003262-1.14406E-02-1.98157E-02-4.03788E-01
 -1   1003263-1.14623E-02-1.98533E-02-4.18757E-01
 -1   1003265-1.14509E-02-1.98335E-02-4.18759E-01
 -1   1003266-1.14531E-02-1.98373E-02-4.33729E-01
 -1   1003268-1.14416E-02-1.98175E-02-4.33727E-01
 -1   1003269-1.14614E-02-1.98517E-02-4.48697E-01
 -1   1003271-1.14500E-02-1.98319E-02-4.48698E-01
 -1   1003272-1.14539E-02-1.98388E-02-4.63668E-01
 -1   1003274-1.14425E-02-1.98189E-02-4.63666E-01
 -1   1003275-1.14607E-02-1.98504E-02-4.78636E-01
 -1   1003277-1.14492E-02-1.98306E-02-4.78637E-01
 -1   1003278-1.14546E-02-1.98399E-02-4.93607E-01
 -1   1003280-1.14431E-02-1.98201E-02-4.93606E-01
 -1   1003281-1.14601E-02-1.98494E-02-5.08575E-01
 -1   1003283-1.14486E-02-1.98296E-02-5.08576E-01
 -1   1003284-1.14551E-02-1.98408E-02-5.23546E-01
 -1   1003286-1.14437E-02-1.98210E-02-5.23545E-01
 -1   1003287-1.14596E-02-1.98486E-02-5.38515E-01
 -1   1003289-1.14482E-02-1.98288E-02-5.38515E-01
 -1   1003290-1.14555E-02-1.98416E-02-5.53485E-01
 -1   1003292-1.14441E-02-1.98217E-02-5.53484E-01
 -1   1003293-1.14592E-02-1.98480E-02-5.68454E-01
 -1   1003295-1.14478E-02-1.98281E-02-5.68455E-01
 -1   1003296-1.14559E-02-1.98421E-02-5.83424E-01
 -1   1003298-1.14444E-02-1.98223E-02-5.83424E-01
 -1   1003299-1.14590E-02-1.98475E-02-5.98393E-01
 -1   1003301-1.14475E-02-1.98277E-02-5.98394E-01
 -1   1003302-1.14561E-02-1.98425E-02-6.13363E-01
 -1   1003304-1.14446E-02-1.98227E-02-6.13363E-01
 -1   1003305-1.14587E-02-1.98471E-02-6.28333E-01
 -1   1003307-1.14473E-02-1.98273E-02-6.28333E-01
 -1   1003308-1.14563E-02-1.98429E-02-6.43302E-01
 -1   1003310-1.14448E-02-1.98230E-02-6.43302E-01
 -1   1003311-1.14586E-02-1.98469E-02-6.58272E-01
 -1   1003313-1.14471E-02-1.98270E-02-6.58272E-01
 -1   1003314-1.14564E-02-1.98431E-02-6.73242E-01
 -1   1003316-1.14450E-02-1.98232E-02-6.73241E-01
 -1   1003317-1.14585E-02-1.98467E-02-6.88211E-01
 -1   1003319-1.14470E-02-1.98269E-02-6.88211E-01
 -1   1003320-1.14565E-02-1.98432E-02-7.03181E-01
 -1   1003322-1.14450E-02-1.98234E-02-7.03181E-01
 -1   1003323-1.14584E-02-1.98466E-02-7.18150E-01
 -1   1003325-1.14470E-02-1.98268E-02-7.18150E-01
 -1   1003326-1.14565E-02-1.98432E-02-7.33120E-01
 -1   1003328-1.14451E-02-1.98234E-02-7.33120E-01
 -1   1003329-1.14584E-02-1.98466E-02-7.48090E-01
 -1   1003331-1.14470E-02-1.98268E-02-7.48089E-01
 -1   1003332-8.94855E-03-2.75408E-02-1.44360E-02
 -1   1003334-8.94202E-03-2.75207E-02-1.45111E-02
 -1   1003335-6.61317E-03-2.03532E-02-2.95762E-02
 -1   1003337-6.60595E-03-2.03310E-02-2.95773E-02
 -1   1003338-7.17560E-03-2.20842E-02-4.45203E-02
 -1   1003340-7.16855E-03-2.20625E-02-4.45009E-02
 -1   1003341-7.08399E-03-2.18023E-02-5.94783E-02
 -1   1003343-7.07691E-03-2.17805E-02-5.95007E-02
 -1   1003344-7.05491E-03-2.17128E-02-7.44676E-02
 -1   1003346-7.04783E-03-2.16910E-02-7.44462E-02
 -1   1003347-7.11096E-03-2.18853E-02-8.94171E-02
 -1   1003349-7.10390E-03-2.18635E-02-8.94367E-02
 -1   1003350-7.05261E-03-2.17057E-02-1.04405E-01
 -1   1003352-7.04553E-03-2.16839E-02-1.04388E-01
 -1   1003353-7.10713E-03-2.18735E-02-1.19358E-01
 -1   1003355-7.10006E-03-2.18517E-02-1.19374E-01
 -1   1003356-7.05765E-03-2.17212E-02-1.34343E-01
 -1   1003358-7.05056E-03-2.16994E-02-1.34329E-01
 -1   1003359-7.10219E-03-2.18583E-02-1.49299E-01
 -1   1003361-7.09512E-03-2.18365E-02-1.49312E-01
 -1   1003362-7.06219E-03-2.17352E-02-1.64281E-01
 -1   1003364-7.05511E-03-2.17134E-02-1.64269E-01
 -1   1003365-7.09808E-03-2.18456E-02-1.79239E-01
 -1   1003367-7.09101E-03-2.18239E-02-1.79250E-01
 -1   1003368-7.06589E-03-2.17466E-02-1.94219E-01
 -1   1003370-7.05880E-03-2.17248E-02-1.94210E-01
 -1   1003371-7.09476E-03-2.18354E-02-2.09180E-01
 -1   1003373-7.08769E-03-2.18137E-02-2.09188E-01
 -1   1003374-7.06886E-03-2.17557E-02-2.24157E-01
 -1   1003376-7.06178E-03-2.17339E-02-2.24150E-01
 -1   1003377-7.09210E-03-2.18272E-02-2.39120E-01
 -1   1003379-7.08502E-03-2.18055E-02-2.39126E-01
 -1   1003380-7.07125E-03-2.17631E-02-2.54096E-01
 -1   1003382-7.06417E-03-2.17413E-02-2.54090E-01
 -1   1003383-7.08995E-03-2.18206E-02-2.69059E-01
 -1   1003385-7.08288E-03-2.17989E-02-2.69065E-01
 -1   1003386-7.07317E-03-2.17690E-02-2.84034E-01
 -1   1003388-7.06609E-03-2.17472E-02-2.84029E-01
 -1   1003389-7.08823E-03-2.18153E-02-2.98999E-01
 -1   1003391-7.08115E-03-2.17935E-02-2.99003E-01
 -1   1003392-7.07472E-03-2.17737E-02-3.13973E-01
 -1   1003394-7.06764E-03-2.17520E-02-3.13969E-01
 -1   1003395-7.08684E-03-2.18110E-02-3.28939E-01
 -1   1003397-7.07976E-03-2.17893E-02-3.28942E-01
 -1   1003398-7.07596E-03-2.17776E-02-3.43912E-01
 -1   1003400-7.06888E-03-2.17558E-02-3.43909E-01
 -1   1003401-7.08573E-03-2.18076E-02-3.58878E-01
 -1   1003403-7.07865E-03-2.17858E-02-3.58881E-01
 -1   1003404-7.07696E-03-2.17806E-02-3.73851E-01
 -1   1003406-7.06988E-03-2.17589E-02-3.73848E-01
 -1   1003407-7.08483E-03-2.18049E-02-3.88818E-01
 -1   1003409-7.07775E-03-2.17831E-02-3.88820E-01
 -1   1003410-7.07776E-03-2.17831E-02-4.03790E-01
 -1   1003412-7.07068E-03-2.17613E-02-4.03788E-01
 -1   1003413-7.08411E-03-2.18027E-02-4.18757E-01
 -1   1003415-7.07704E-03-2.17809E-02-4.18759E-01
 -1   1003416-7.07840E-03-2.17851E-02-4.33729E-01
 -1   1003418-7.07133E-03-2.17633E-02-4.33727E-01
 -1   1003419-7.08354E-03-2.18009E-02-4.48697E-01
 -1   1003421-7.07646E-03-2.17791E-02-4.48698E-01
 -1   1003422-7.07892E-03-2.17867E-02-4.63668E-01
 -1   1003424-7.07184E-03-2.17649E-02-4.63666E-01
 -1   1003425-7.08308E-03-2.17995E-02-4.78636E-01
 -1   1003427-7.07600E-03-2.17777E-02-4.78637E-01
 -1   1003428-7.07933E-03-2.17879E-02-4.93607E-01
 -1   1003430-7.07225E-03-2.17661E-02-4.93606E-01
 -1   1003431-7.08271E-03-2.17983E-02-5.08575E-01
 -1   1003433-7.07564E-03-2.17766E-02-5.08576E-01
 -1   1003434-7.07965E-03-2.17889E-02-5.23546E-01
 -1   1003436-7.07257E-03-2.17671E-02-5.23545E-01
 -1   1003437-7.08242E-03-2.17975E-02-5.38515E-01
 -1   1003439-7.07535E-03-2.17757E-02-5.38515E-01
 -1   1003440-7.07991E-03-2.17897E-02-5.53485E-01
 -1   1003442-7.07283E-03-2.17679E-02-5.53484E-01
 -1   1003443-7.08220E-03-2.17968E-02-5.68454E-01
 -1   1003445-7.07512E-03-2.17750E-02-5.68455E-01
 -1   1003446-7.08011E-03-2.17903E-02-5.83424E-01
 -1   1003448-7.07303E-03-2.17685E-02-5.83424E-01
 -1   1003449-7.08202E-03-2.17962E-02-5.98393E-01
 -1   1003451-7.07495E-03-2.17744E-02-5.98394E-01
 -1   1003452-7.08026E-03-2.17908E-02-6.13363E-01
 -1   1003454-7.07318E-03-2.17690E-02-6.13363E-01
 -1   1003455-7.08189E-03-2.17958E-02-6.28333E-01
 -1   1003457-7.07482E-03-2.17740E-02-6.28333E-01
 -1   1003458-7.08037E-03-2.17911E-02-6.43302E-01
 -1   1003460-7.07329E-03-2.17694E-02-6.43302E-01
 -1   1003461-7.08180E-03-2.17955E-02-6.58272E-01
 -1   1003463-7.07472E-03-2.17737E-02-6.58272E-01
 -1   1003464-7.08045E-03-2.17914E-02-6.73242E-01
 -1   1003466-7.07337E-03-2.17696E-02-6.73241E-01
 -1   1003467-7.08174E-03-2.17953E-02-6.88211E-01
 -1   1003469-7.07466E-03-2.17736E-02-6.88211E-01
 -1   1003470-7.08049E-03-2.17915E-02-7.03181E-01
 -1   1003472-7.07341E-03-2.17697E-02-7.03181E-01
 -1   1003473-7.08171E-03-2.17953E-02-7.18150E-01
 -1   1003475-7.07463E-03-2.17735E-02-7.18150E-01
 -1   1003476-7.08051E-03-2.17916E-02-7.33120E-01
 -1   1003478-7.07343E-03-2.17698E-02-7.33120E-01
 -1   1003479-7.08170E-03-2.17952E-02-7.48090E-01
 -1   1003481-7.07463E-03-2.17735E-02-7.48089E-01
 -1   1003482-3.02695E-03-2.87995E-02-1.44360E-02
 -1   1003484-3.02474E-03-2.87785E-02-1.45111E-02
 -1   1003485-2.23698E-03-2.12834E-02-2.95762E-02
 -1   1003487-2.23454E-03-2.12602E-02-2.95773E-02
 -1   1003488-2.42723E-03-2.30935E-02-4.45203E-02
 -1   1003490-2.42484E-03-2.30708E-02-4.45009E-02
 -1   1003491-2.39624E-03-2.27987E-02-5.94783E-02
 -1   1003493-2.39384E-03-2.27759E-02-5.95007E-02
 -1   1003494-2.38640E-03-2.27051E-02-7.44676E-02
 -1   1003496-2.38401E-03-2.26823E-02-7.44462E-02
 -1   1003497-2.40536E-03-2.28855E-02-8.94171E-02
 -1   1003499-2.40297E-03-2.28628E-02-8.94367E-02
 -1   1003500-2.38563E-03-2.26977E-02-1.04405E-01
 -1   1003502-2.38323E-03-2.26749E-02-1.04388E-01
 -1   1003503-2.40407E-03-2.28732E-02-1.19358E-01
 -1   1003505-2.40167E-03-2.28504E-02-1.19374E-01
 -1   1003506-2.38733E-03-2.27139E-02-1.34343E-01
 -1   1003508-2.38493E-03-2.26911E-02-1.34329E-01
 -1   1003509-2.40239E-03-2.28573E-02-1.49299E-01
 -1   1003511-2.40000E-03-2.28345E-02-1.49312E-01
 -1   1003512-2.38887E-03-2.27285E-02-1.64281E-01
 -1   1003514-2.38647E-03-2.27057E-02-1.64269E-01
 -1   1003515-2.40100E-03-2.28440E-02-1.79239E-01
 -1   1003517-2.39861E-03-2.28213E-02-1.79250E-01
 -1   1003518-2.39011E-03-2.27404E-02-1.94219E-01
 -1   1003520-2.38772E-03-2.27176E-02-1.94210E-01
 -1   1003521-2.39988E-03-2.28334E-02-2.09180E-01
 -1   1003523-2.39749E-03-2.28106E-02-2.09188E-01
 -1   1003524-2.39112E-03-2.27500E-02-2.24157E-01
 -1   1003526-2.38873E-03-2.27272E-02-2.24150E-01
 -1   1003527-2.39898E-03-2.28248E-02-2.39120E-01
 -1   1003529-2.39659E-03-2.28020E-02-2.39126E-01
 -1   1003530-2.39193E-03-2.27577E-02-2.54096E-01
 -1   1003532-2.38953E-03-2.27349E-02-2.54090E-01
 -1   1003533-2.39825E-03-2.28179E-02-2.69059E-01
 -1   1003535-2.39586E-03-2.27951E-02-2.69065E-01
 -1   1003536-2.39258E-03-2.27639E-02-2.84034E-01
 -1   1003538-2.39018E-03-2.27411E-02-2.84029E-01
 -1   1003539-2.39767E-03-2.28123E-02-2.98999E-01
 -1   1003541-2.39528E-03-2.27896E-02-2.99003E-01
 -1   1003542-2.39310E-03-2.27689E-02-3.13973E-01
 -1   1003544-2.39071E-03-2.27461E-02-3.13969E-01
 -1   1003545-2.39720E-03-2.28079E-02-3.28939E-01
 -1   1003547-2.39481E-03-2.27851E-02-3.28942E-01
 -1   1003548-2.39352E-03-2.27729E-02-3.43912E-01
 -1   1003550-2.39113E-03-2.27501E-02-3.43909E-01
 -1   1003551-2.39683E-03-2.28043E-02-3.58878E-01
 -1   1003553-2.39443E-03-2.27815E-02-3.58881E-01
 -1   1003554-2.39386E-03-2.27761E-02-3.73851E-01
 -1   1003556-2.39147E-03-2.27533E-02-3.73848E-01
 -1   1003557-2.39652E-03-2.28014E-02-3.88818E-01
 -1   1003559-2.39413E-03-2.27786E-02-3.88820E-01
 -1   1003560-2.39413E-03-2.27786E-02-4.03790E-01
 -1   1003562-2.39174E-03-2.27559E-02-4.03788E-01
 -1   1003563-2.39628E-03-2.27991E-02-4.18757E-01
 -1   1003565-2.39389E-03-2.27763E-02-4.18759E-01
 -1   1003566-2.39435E-03-2.27807E-02-4.33729E-01
 -1   1003568-2.39195E-03-2.27579E-02-4.33727E-01
 -1   1003569-2.39609E-03-2.27972E-02-4.48697E-01
 -1   1003571-2.39369E-03-2.27745E-02-4.48698E-01
 -1   1003572-2.39452E-03-2.27824E-02-4.63668E-01
 -1   1003574-2.39213E-03-2.27596E-02-4.63666E-01
 -1   1003575-2.39593E-03-2.27958E-02-4.78636E-01
 -1   1003577-2.39354E-03-2.27730E-02-4.78637E-01
 -1   1003578-2.39466E-03-2.27837E-02-4.93607E-01
 -1   1003580-2.39227E-03-2.27609E-02-4.93606E-01
 -1   1003581-2.39581E-03-2.27946E-02-5.08575E-01
 -1   1003583-2.39341E-03-2.27718E-02-5.08576E-01
 -1   1003584-2.39477E-03-2.27847E-02-5.23546E-01
 -1   1003586-2.39238E-03-2.27619E-02-5.23545E-01
 -1   1003587-2.39571E-03-2.27937E-02-5.38515E-01
 -1   1003589-2.39331E-03-2.27709E-02-5.38515E-01
 -1   1003590-2.39486E-03-2.27856E-02-5.53485E-01
 -1   1003592-2.39246E-03-2.27628E-02-5.53484E-01
 -1   1003593-2.39563E-03-2.27929E-02-5.68454E-01
 -1   1003595-2.39324E-03-2.27701E-02-5.68455E-01
 -1   1003596-2.39492E-03-2.27862E-02-5.83424E-01
 -1   1003598-2.39253E-03-2.27634E-02-5.83424E-01
 -1   1003599-2.39557E-03-2.27924E-02-5.98393E-01
 -1   1003601-2.39318E-03-2.27696E-02-5.98394E-01
 -1   1003602-2.39497E-03-2.27867E-02-6.13363E-01
 -1   1003604-2.39258E-03-2.27639E-02-6.13363E-01
 -1   1003605-2.39553E-03-2.27919E-02-6.28333E-01
 -1   1003607-2.39313E-03-2.27692E-02-6.28333E-01
 -1   1003608-2.39501E-03-2.27870E-02-6.43302E-01
 -1   1003610-2.39262E-03-2.27643E-02-6.43302E-01
 -1   1003611-2.39550E-03-2.27916E-02-6.58272E-01
 -1   1003613-2.39310E-03-2.27689E-02-6.58272E-01
 -1   1003614-2.39504E-03-2.27873E-02-6.73242E-01
 -1   1003616-2.39264E-03-2.27645E-02-6.73241E-01
 -1   1003617-2.39547E-03-2.27914E-02-6.88211E-01
 -1   1003619-2.39308E-03-2.27687E-02-6.88211E-01
 -1   1003620-2.39505E-03-2.27874E-02-7.03181E-01
 -1   1003622-2.39266E-03-2.27646E-02-7.03181E-01
 -1   1003623-2.39546E-03-2.27913E-02-7.18150E-01
 -1   1003625-2.39307E-03-2.27686E-02-7.18150E-01
 -1   1003626-2.39506E-03-2.27875E-02-7.33120E-01
 -1   1003628-2.39266E-03-2.27647E-02-7.33120E-01
 -1   1003629-2.39546E-03-2.27913E-02-7.48090E-01
 -1   1003631-2.39307E-03-2.27685E-02-7.48089E-01
 -1   1003632 3.02695E-03-2.87995E-02-1.44360E-02
 -1   1003634 3.02474E-03-2.87785E-02-1.45111E-02
 -1   1003635 2.23698E-03-2.12834E-02-2.95762E-02
 -1   1003637 2.23454E-03-2.12602E-02-2.95773E-02
 -1   1003638 2.42723E-03-2.30935E-02-4.45203E-02
 -1   1003640 2.42484E-03-2.30708E-02-4.45009E-02
 -1   1003641 2.39624E-03-2.27987E-02-5.94783E-02
 -1   1003643 2.39384E-03-2.27759E-02-5.95007E-02
 -1   1003644 2.38640E-03-2.27051E-02-7.44676E-02
 -1   1003646 2.38401E-03-2.26823E-02-7.44462E-02
 -1   1003647 2.40536E-03-2.28855E-02-8.94171E-02
 -1   1003649 2.40297E-03-2.28628E-02-8.94367E-02
 -1   1003650 2.38563E-03-2.26977E-02-1.04405E-01
 -1   1003652 2.38323E-03-2.26749E-02-1.04388E-01
 -1   1003653 2.40407E-03-2.28732E-02-1.19358E-01
 -1   1003655 2.40167E-03-2.28504E-02-1.19374E-01
 -1   1003656 2.38733E-03-2.27139E-02-1.34343E-01
 -1   1003658 2.38493E-03-2.26911E-02-1.34329E-01
 -1   1003659 2.40239E-03-2.28573E-02-1.49299E-01
 -1   1003661 2.40000E-03-2.28345E-02-1.49312E-01
 -1   1003662 2.38887E-03-2.27285E-02-1.64281E-01
 -1   1003664 2.38647E-03-2.27057E-02-1.64269E-01
 -1   1003665 2.40100E-03-2.28440E-02-1.79239E-01
 -1   1003667 2.39861E-03-2.28213E-02-1.79250E-01
 -1   1003668 2.39012E-03-2.27404E-02-1.94219E-01
 -1   1003670 2.38772E-03-2.27176E-02-1.94210E-01
 -1   1003671 2.39988E-03-2.28334E-02-2.09180E-01
 -1   1003673 2.39749E-03-2.28106E-02-2.09188E-01
 -1   1003674 2.39112E-03-2.27500E-02-2.24157E-01
 -1   1003676 2.38873E-03-2.27272E-02-2.24150E-01
 -1   1003677 2.39898E-03-2.28248E-02-2.39120E-01
 -1   1003679 2.39659E-03-2.28020E-02-2.39126E-01
 -1   1003680 2.39193E-03-2.27577E-02-2.54096E-01
 -1   1003682 2.38954E-03-2.27349E-02-2.54090E-01
 -1   1003683 2.39826E-03-2.28179E-02-2.69059E-01
 -1   1003685 2.39586E-03-2.27951E-02-2.69065E-01
 -1   1003686 2.39258E-03-2.27639E-02-2.84034E-01
 -1   1003688 2.39019E-03-2.27411E-02-2.84029E-01
 -1   1003689 2.39767E-03-2.28123E-02-2.98999E-01
 -1   1003691 2.39528E-03-2.27896E-02-2.99003E-01
 -1   1003692 2.39310E-03-2.27689E-02-3.13973E-01
 -1   1003694 2.39071E-03-2.27461E-02-3.13969E-01
 -1   1003695 2.39720E-03-2.28079E-02-3.28939E-01
 -1   1003697 2.39481E-03-2.27851E-02-3.28942E-01
 -1   1003698 2.39353E-03-2.27729E-02-3.43912E-01
 -1   1003700 2.39113E-03-2.27501E-02-3.43909E-01
 -1   1003701 2.39683E-03-2.28043E-02-3.58878E-01
 -1   1003703 2.39443E-03-2.27815E-02-3.58881E-01
 -1   1003704 2.39386E-03-2.27761E-02-3.73851E-01
 -1   1003706 2.39147E-03-2.27533E-02-3.73848E-01
 -1   1003707 2.39653E-03-2.28014E-02-3.88818E-01
 -1   1003709 2.39413E-03-2.27786E-02-3.88820E-01
 -1   1003710 2.39413E-03-2.27786E-02-4.03790E-01
 -1   1003712 2.39174E-03-2.27559E-02-4.03788E-01
 -1   1003713 2.39628E-03-2.27991E-02-4.18757E-01
 -1   1003715 2.39389E-03-2.27763E-02-4.18759E-01
 -1   1003716 2.39435E-03-2.27807E-02-4.33729E-01
 -1   1003718 2.39196E-03-2.27579E-02-4.33727E-01
 -1   1003719 2.39609E-03-2.27972E-02-4.48697E-01
 -1   1003721 2.39370E-03-2.27745E-02-4.48698E-01
 -1   1003722 2.39453E-03-2.27824E-02-4.63668E-01
 -1   1003724 2.39213E-03-2.27596E-02-4.63666E-01
 -1   1003725 2.39593E-03-2.27958E-02-4.78636E-01
 -1   1003727 2.39354E-03-2.27730E-02-4.78637E-01
 -1   1003728 2.39466E-03-2.27837E-02-4.93607E-01
 -1   1003730 2.39227E-03-2.27609E-02-4.93606E-01
 -1   1003731 2.39581E-03-2.27946E-02-5.08575E-01
 -1   1003733 2.39342E-03-2.27718E-02-5.08576E-01
 -1   1003734 2.39477E-03-2.27847E-02-5.23546E-01
 -1   1003736 2.39238E-03-2.27620E-02-5.23545E-01
 -1   1003737 2.39571E-03-2.27937E-02-5.38515E-01
 -1   1003739 2.39332E-03-2.27709E-02-5.38515E-01
 -1   1003740 2.39486E-03-2.27856E-02-5.53485E-01
 -1   1003742 2.39247E-03-2.27628E-02-5.53484E-01
 -1   1003743 2.39564E-03-2.27929E-02-5.68454E-01
 -1   1003745 2.39324E-03-2.27701E-02-5.68455E-01
 -1   1003746 2.39493E-03-2.27862E-02-5.83424E-01
 -1   1003748 2.39254E-03-2.27634E-02-5.83424E-01
 -1   1003749 2.39558E-03-2.27924E-02-5.98393E-01
 -1   1003751 2.39318E-03-2.27696E-02-5.98394E-01
 -1   1003752 2.39498E-03-2.27867E-02-6.13363E-01
 -1   1003754 2.39259E-03-2.27639E-02-6.13363E-01
 -1   1003755 2.39553E-03-2.27919E-02-6.28333E-01
 -1   1003757 2.39314E-03-2.27692E-02-6.28333E-01
 -1   1003758 2.39502E-03-2.27870E-02-6.43302E-01
 -1   1003760 2.39262E-03-2.27643E-02-6.43302E-01
 -1   1003761 2.39550E-03-2.27916E-02-6.58272E-01
 -1   1003763 2.39311E-03-2.27689E-02-6.58272E-01
 -1   1003764 2.39504E-03-2.27873E-02-6.73242E-01
 -1   1003766 2.39265E-03-2.27645E-02-6.73241E-01
 -1   1003767 2.39548E-03-2.27914E-02-6.88211E-01
 -1   1003769 2.39309E-03-2.27687E-02-6.88211E-01
 -1   1003770 2.39506E-03-2.27874E-02-7.03181E-01
 -1   1003772 2.39267E-03-2.27646E-02-7.03181E-01
 -1   1003773 2.39547E-03-2.27913E-02-7.18150E-01
 -1   1003775 2.39308E-03-2.27686E-02-7.18150E-01
 -1   1003776 2.39507E-03-2.27875E-02-7.33120E-01
 -1   1003778 2.39267E-03-2.27647E-02-7.33120E-01
 -1   1003779 2.39547E-03-2.27913E-02-7.48090E-01
 -1   1003781 2.39308E-03-2.27685E-02-7.48089E-01
 -1   1003782 8.94855E-03-2.75408E-02-1.44360E-02
 -1   1003784 8.94202E-03-2.75207E-02-1.45111E-02
 -1   1003785 6.61317E-03-2.03532E-02-2.95762E-02
 -1   1003787 6.60595E-03-2.03310E-02-2.95773E-02
 -1   1003788 7.17560E-03-2.20842E-02-4.45203E-02
 -1   1003790 7.16855E-03-2.20625E-02-4.45009E-02
 -1   1003791 7.08399E-03-2.18023E-02-5.94783E-02
 -1   1003793 7.07691E-03-2.17805E-02-5.95007E-02
 -1   1003794 7.05491E-03-2.17128E-02-7.44676E-02
 -1   1003796 7.04783E-03-2.16910E-02-7.44462E-02
 -1   1003797 7.11097E-03-2.18853E-02-8.94171E-02
 -1   1003799 7.10390E-03-2.18635E-02-8.94367E-02
 -1   1003800 7.05261E-03-2.17057E-02-1.04405E-01
 -1   1003802 7.04553E-03-2.16839E-02-1.04388E-01
 -1   1003803 7.10713E-03-2.18735E-02-1.19358E-01
 -1   1003805 7.10006E-03-2.18517E-02-1.19374E-01
 -1   1003806 7.05765E-03-2.17212E-02-1.34343E-01
 -1   1003808 7.05056E-03-2.16994E-02-1.34329E-01
 -1   1003809 7.10219E-03-2.18583E-02-1.49299E-01
 -1   1003811 7.09512E-03-2.18365E-02-1.49312E-01
 -1   1003812 7.06219E-03-2.17352E-02-1.64281E-01
 -1   1003814 7.05511E-03-2.17134E-02-1.64269E-01
 -1   1003815 7.09808E-03-2.18456E-02-1.79239E-01
 -1   1003817 7.09101E-03-2.18239E-02-1.79250E-01
 -1   1003818 7.06589E-03-2.17466E-02-1.94219E-01
 -1   1003820 7.05880E-03-2.17248E-02-1.94210E-01
 -1   1003821 7.09476E-03-2.18354E-02-2.09180E-01
 -1   1003823 7.08769E-03-2.18137E-02-2.09188E-01
 -1   1003824 7.06886E-03-2.17557E-02-2.24157E-01
 -1   1003826 7.06178E-03-2.17339E-02-2.24150E-01
 -1   1003827 7.09210E-03-2.18272E-02-2.39120E-01
 -1   1003829 7.08502E-03-2.18055E-02-2.39126E-01
 -1   1003830 7.07125E-03-2.17631E-02-2.54096E-01
 -1   1003832 7.06417E-03-2.17413E-02-2.54090E-01
 -1   1003833 7.08995E-03-2.18206E-02-2.69059E-01
 -1   1003835 7.08288E-03-2.17989E-02-2.69065E-01
 -1   1003836 7.07318E-03-2.17690E-02-2.84034E-01
 -1   1003838 7.06610E-03-2.17472E-02-2.84029E-01
 -1   1003839 7.08823E-03-2.18153E-02-2.98999E-01
 -1   1003841 7.08115E-03-2.17935E-02-2.99003E-01
 -1   1003842 7.07472E-03-2.17738E-02-3.13973E-01
 -1   1003844 7.06764E-03-2.17520E-02-3.13969E-01
 -1   1003845 7.08684E-03-2.18111E-02-3.28939E-01
 -1   1003847 7.07977E-03-2.17893E-02-3.28942E-01
 -1   1003848 7.07597E-03-2.17776E-02-3.43912E-01
 -1   1003850 7.06889E-03-2.17558E-02-3.43909E-01
 -1   1003851 7.08573E-03-2.18076E-02-3.58878E-01
 -1   1003853 7.07865E-03-2.17858E-02-3.58881E-01
 -1   1003854 7.07696E-03-2.17806E-02-3.73851E-01
 -1   1003856 7.06988E-03-2.17589E-02-3.73848E-01
 -1   1003857 7.08483E-03-2.18049E-02-3.88818E-01
 -1   1003859 7.07776E-03-2.17831E-02-3.88820E-01
 -1   1003860 7.07777E-03-2.17831E-02-4.03790E-01
 -1   1003862 7.07069E-03-2.17613E-02-4.03788E-01
 -1   1003863 7.08412E-03-2.18027E-02-4.18757E-01
 -1   1003865 7.07704E-03-2.17809E-02-4.18759E-01
 -1   1003866 7.07841E-03-2.17851E-02-4.33729E-01
 -1   1003868 7.07133E-03-2.17633E-02-4.33727E-01
 -1   1003869 7.08354E-03-2.18009E-02-4.48697E-01
 -1   1003871 7.07647E-03-2.17791E-02-4.48698E-01
 -1   1003872 7.07892E-03-2.17867E-02-4.63668E-01
 -1   1003874 7.07184E-03-2.17649E-02-4.63666E-01
 -1   1003875 7.08308E-03-2.17995E-02-4.78636E-01
 -1   1003877 7.07601E-03-2.17777E-02-4.78637E-01
 -1   1003878 7.07933E-03-2.17879E-02-4.93607E-01
 -1   1003880 7.07225E-03-2.17661E-02-4.93606E-01
 -1   1003881 7.08272E-03-2.17984E-02-5.08575E-01
 -1   1003883 7.07564E-03-2.17766E-02-5.08576E-01
 -1   1003884 7.07966E-03-2.17889E-02-5.23546E-01
 -1   1003886 7.07258E-03-2.17671E-02-5.23545E-01
 -1   1003887 7.08243E-03-2.17975E-02-5.38515E-01
 -1   1003889 7.07535E-03-2.17757E-02-5.38515E-01
 -1   1003890 7.07991E-03-2.17897E-02-5.53485E-01
 -1   1003892 7.07284E-03-2.17679E-02-5.53484E-01
 -1   1003893 7.08220E-03-2.17968E-02-5.68454E-01
 -1   1003895 7.07513E-03-2.17750E-02-5.68455E-01
 -1   1003896 7.08011E-03-2.17903E-02-5.83424E-01
 -1   1003898 7.07303E-03-2.17685E-02-5.83424E-01
 -1   1003899 7.08203E-03-2.17962E-02-5.98393E-01
 -1   1003901 7.07495E-03-2.17744E-02-5.98394E-01
 -1   1003902 7.08026E-03-2.17908E-02-6.13363E-01
 -1   1003904 7.07319E-03-2.17690E-02-6.13363E-01
 -1   1003905 7.08190E-03-2.17958E-02-6.28333E-01
 -1   1003907 7.07482E-03-2.17740E-02-6.28333E-01
 -1   1003908 7.08038E-03-2.17911E-02-6.43302E-01
 -1   1003910 7.07330E-03-2.17694E-02-6.43302E-01
 -1   1003911 7.08181E-03-2.17955E-02-6.58272E-01
 -1   1003913 7.07473E-03-2.17738E-02-6.58272E-01
 -1   1003914 7.08045E-03-2.17914E-02-6.73242E-01
 -1   1003916 7.07338E-03-2.17696E-02-6.73241E-01
 -1   1003917 7.08175E-03-2.17953E-02-6.88211E-01
 -1   1003919 7.07467E-03-2.17736E-02-6.88211E-01
 -1   1003920 7.08050E-03-2.17915E-02-7.03181E-01
 -1   1003922 7.07342E-03-2.17697E-02-7.03181E-01
 -1   1003923 7.08172E-03-2.17953E-02-7.18150E-01
 -1   1003925 7.07464E-03-2.17735E-02-7.18150E-01
 -1   1003926 7.08052E-03-2.17916E-02-7.33120E-01
 -1   1003928 7.07344E-03-2.17698E-02-7.33120E-01
 -1   1003929 7.08171E-03-2.17952E-02-7.48090E-01
 -1   1003931 7.07463E-03-2.17735E-02-7.48089E-01
 -1   1003932 1.44791E-02-2.50785E-02-1.44360E-02
 -1   1003934 1.44685E-02-2.50602E-02-1.45111E-02
 -1   1003935 1.07003E-02-1.85335E-02-2.95762E-02
 -1   1003937 1.06887E-02-1.85133E-02-2.95773E-02
 -1   1003938 1.16104E-02-2.01097E-02-4.45203E-02
 -1   1003940 1.15990E-02-2.00900E-02-4.45009E-02
 -1   1003941 1.14621E-02-1.98530E-02-5.94783E-02
 -1   1003943 1.14507E-02-1.98332E-02-5.95007E-02
 -1   1003944 1.14151E-02-1.97715E-02-7.44676E-02
 -1   1003946 1.14036E-02-1.97517E-02-7.44462E-02
 -1   1003947 1.15058E-02-1.99286E-02-8.94171E-02
 -1   1003949 1.14943E-02-1.99088E-02-8.94367E-02
 -1   1003950 1.14114E-02-1.97651E-02-1.04405E-01
 -1   1003952 1.13999E-02-1.97452E-02-1.04388E-01
 -1   1003953 1.14996E-02-1.99178E-02-1.19358E-01
 -1   1003955 1.14881E-02-1.98980E-02-1.19374E-01
 -1   1003956 1.14195E-02-1.97792E-02-1.34343E-01
 -1   1003958 1.14080E-02-1.97593E-02-1.34329E-01
 -1   1003959 1.14916E-02-1.99040E-02-1.49299E-01
 -1   1003961 1.14801E-02-1.98842E-02-1.49312E-01
 -1   1003962 1.14269E-02-1.97919E-02-1.64281E-01
 -1   1003964 1.14154E-02-1.97721E-02-1.64269E-01
 -1   1003965 1.14849E-02-1.98925E-02-1.79239E-01
 -1   1003967 1.14735E-02-1.98727E-02-1.79250E-01
 -1   1003968 1.14328E-02-1.98023E-02-1.94219E-01
 -1   1003970 1.14214E-02-1.97824E-02-1.94210E-01
 -1   1003971 1.14796E-02-1.98832E-02-2.09180E-01
 -1   1003973 1.14681E-02-1.98634E-02-2.09188E-01
 -1   1003974 1.14377E-02-1.98106E-02-2.24157E-01
 -1   1003976 1.14262E-02-1.97908E-02-2.24150E-01
 -1   1003977 1.14753E-02-1.98757E-02-2.39120E-01
 -1   1003979 1.14638E-02-1.98559E-02-2.39126E-01
 -1   1003980 1.14415E-02-1.98173E-02-2.54096E-01
 -1   1003982 1.14301E-02-1.97975E-02-2.54090E-01
 -1   1003983 1.14718E-02-1.98697E-02-2.69059E-01
 -1   1003985 1.14603E-02-1.98499E-02-2.69065E-01
 -1   1003986 1.14446E-02-1.98227E-02-2.84034E-01
 -1   1003988 1.14332E-02-1.98029E-02-2.84029E-01
 -1   1003989 1.14690E-02-1.98649E-02-2.98999E-01
 -1   1003991 1.14575E-02-1.98450E-02-2.99003E-01
 -1   1003992 1.14471E-02-1.98270E-02-3.13973E-01
 -1   1003994 1.14357E-02-1.98072E-02-3.13969E-01
 -1   1003995 1.14668E-02-1.98610E-02-3.28939E-01
 -1   1003997 1.14553E-02-1.98412E-02-3.28942E-01
 -1   1003998 1.14492E-02-1.98305E-02-3.43912E-01
 -1   1004000 1.14377E-02-1.98107E-02-3.43909E-01
 -1   1004001 1.14649E-02-1.98579E-02-3.58878E-01
 -1   1004003 1.14535E-02-1.98380E-02-3.58881E-01
 -1   1004004 1.14508E-02-1.98333E-02-3.73851E-01
 -1   1004006 1.14393E-02-1.98135E-02-3.73848E-01
 -1   1004007 1.14635E-02-1.98554E-02-3.88818E-01
 -1   1004009 1.14521E-02-1.98355E-02-3.88820E-01
 -1   1004010 1.14521E-02-1.98356E-02-4.03790E-01
 -1   1004012 1.14406E-02-1.98157E-02-4.03788E-01
 -1   1004013 1.14623E-02-1.98534E-02-4.18757E-01
 -1   1004015 1.14509E-02-1.98335E-02-4.18759E-01
 -1   1004016 1.14531E-02-1.98374E-02-4.33729E-01
 -1   1004018 1.14417E-02-1.98175E-02-4.33727E-01
 -1   1004019 1.14614E-02-1.98517E-02-4.48697E-01
 -1   1004021 1.14500E-02-1.98319E-02-4.48698E-01
 -1   1004022 1.14539E-02-1.98388E-02-4.63668E-01
 -1   1004024 1.14425E-02-1.98190E-02-4.63666E-01
 -1   1004025 1.14607E-02-1.98505E-02-4.78636E-01
 -1   1004027 1.14492E-02-1.98306E-02-4.78637E-01
 -1   1004028 1.14546E-02-1.98399E-02-4.93607E-01
 -1   1004030 1.14431E-02-1.98201E-02-4.93606E-01
 -1   1004031 1.14601E-02-1.98494E-02-5.08575E-01
 -1   1004033 1.14486E-02-1.98296E-02-5.08576E-01
 -1   1004034 1.14551E-02-1.98408E-02-5.23546E-01
 -1   1004036 1.14437E-02-1.98210E-02-5.23545E-01
 -1   1004037 1.14596E-02-1.98486E-02-5.38515E-01
 -1   1004039 1.14482E-02-1.98288E-02-5.38515E-01
 -1   1004040 1.14555E-02-1.98416E-02-5.53485E-01
 -1   1004042 1.14441E-02-1.98217E-02-5.53484E-01
 -1   1004043 1.14592E-02-1.98480E-02-5.68454E-01
 -1   1004045 1.14478E-02-1.98282E-02-5.68455E-01
 -1   1004046 1.14559E-02-1.98421E-02-5.83424E-01
 -1   1004048 1.14444E-02-1.98223E-02-5.83424E-01
 -1   1004049 1.14590E-02-1.98475E-02-5.98393E-01
 -1   1004051 1.14475E-02-1.98277E-02-5.98394E-01
 -1   1004052 1.14561E-02-1.98425E-02-6.13363E-01
 -1   1004054 1.14447E-02-1.98227E-02-6.13363E-01
 -1   1004055 1.14588E-02-1.98471E-02-6.28333E-01
 -1   1004057 1.14473E-02-1.98273E-02-6.28333E-01
 -1   1004058 1.14563E-02-1.98429E-02-6.43302E-01
 -1   1004060 1.14448E-02-1.98230E-02-6.43302E-01
 -1   1004061 1.14586E-02-1.98469E-02-6.58272E-01
 -1   1004063 1.14472E-02-1.98270E-02-6.58272E-01
 -1   1004064 1.14564E-02-1.98431E-02-6.73242E-01
 -1   1004066 1.14450E-02-1.98232E-02-6.73241E-01
 -1   1004067 1.14585E-02-1.98467E-02-6.88211E-01
 -1   1004069 1.14471E-02-1.98269E-02-6.88211E-01
 -1   1004070 1.14565E-02-1.98432E-02-7.03181E-01
 -1   1004072 1.14450E-02-1.98234E-02-7.03181E-01
 -1   1004073 1.14585E-02-1.98466E-02-7.18150E-01
 -1   1004075 1.14470E-02-1.98268E-02-7.18150E-01
 -1   1004076 1.14565E-02-1.98432E-02-7.33120E-01
 -1   1004078 1.14451E-02-1.98234E-02-7.33120E-01
 -1   1004079 1.14584E-02-1.98466E-02-7.48090E-01
 -1   1004081 1.14470E-02-1.98268E-02-7.48089E-01
 -1   1004082 1.93768E-02-2.15201E-02-1.44360E-02
 -1   1004084 1.93626E-02-2.15044E-02-1.45111E-02
 -1   1004085 1.43198E-02-1.59038E-02-2.95762E-02
 -1   1004087 1.43042E-02-1.58864E-02-2.95773E-02
 -1   1004088 1.55377E-02-1.72564E-02-4.45203E-02
 -1   1004090 1.55224E-02-1.72394E-02-4.45009E-02
 -1   1004091 1.53393E-02-1.70361E-02-5.94783E-02
 -1   1004093 1.53240E-02-1.70190E-02-5.95007E-02
 -1   1004094 1.52764E-02-1.69661E-02-7.44676E-02
 -1   1004096 1.52610E-02-1.69491E-02-7.44462E-02
 -1   1004097 1.53977E-02-1.71009E-02-8.94171E-02
 -1   1004099 1.53824E-02-1.70839E-02-8.94367E-02
 -1   1004100 1.52714E-02-1.69606E-02-1.04405E-01
 -1   1004102 1.52561E-02-1.69436E-02-1.04388E-01
 -1   1004103 1.53894E-02-1.70917E-02-1.19358E-01
 -1   1004105 1.53741E-02-1.70747E-02-1.19374E-01
 -1   1004106 1.52823E-02-1.69727E-02-1.34343E-01
 -1   1004108 1.52669E-02-1.69557E-02-1.34329E-01
 -1   1004109 1.53787E-02-1.70798E-02-1.49299E-01
 -1   1004111 1.53634E-02-1.70628E-02-1.49312E-01
 -1   1004112 1.52921E-02-1.69836E-02-1.64281E-01
 -1   1004114 1.52768E-02-1.69666E-02-1.64269E-01
 -1   1004115 1.53698E-02-1.70699E-02-1.79239E-01
 -1   1004117 1.53545E-02-1.70529E-02-1.79250E-01
 -1   1004118 1.53001E-02-1.69925E-02-1.94219E-01
 -1   1004120 1.52848E-02-1.69755E-02-1.94210E-01
 -1   1004121 1.53627E-02-1.70620E-02-2.09180E-01
 -1   1004123 1.53473E-02-1.70450E-02-2.09188E-01
 -1   1004124 1.53066E-02-1.69997E-02-2.24157E-01
 -1   1004126 1.52912E-02-1.69826E-02-2.24150E-01
 -1   1004127 1.53569E-02-1.70556E-02-2.39120E-01
 -1   1004129 1.53416E-02-1.70385E-02-2.39126E-01
 -1   1004130 1.53118E-02-1.70054E-02-2.54096E-01
 -1   1004132 1.52964E-02-1.69884E-02-2.54090E-01
 -1   1004133 1.53522E-02-1.70504E-02-2.69059E-01
 -1   1004135 1.53369E-02-1.70334E-02-2.69065E-01
 -1   1004136 1.53159E-02-1.70100E-02-2.84034E-01
 -1   1004138 1.53006E-02-1.69930E-02-2.84029E-01
 -1   1004139 1.53485E-02-1.70462E-02-2.98999E-01
 -1   1004141 1.53332E-02-1.70292E-02-2.99003E-01
 -1   1004142 1.53193E-02-1.70138E-02-3.13973E-01
 -1   1004144 1.53039E-02-1.69967E-02-3.13969E-01
 -1   1004145 1.53455E-02-1.70429E-02-3.28939E-01
 -1   1004147 1.53302E-02-1.70259E-02-3.28942E-01
 -1   1004148 1.53220E-02-1.70168E-02-3.43912E-01
 -1   1004150 1.53066E-02-1.69997E-02-3.43909E-01
 -1   1004151 1.53431E-02-1.70402E-02-3.58878E-01
 -1   1004153 1.53278E-02-1.70232E-02-3.58881E-01
 -1   1004154 1.53241E-02-1.70192E-02-3.73851E-01
 -1   1004156 1.53088E-02-1.70021E-02-3.73848E-01
 -1   1004157 1.53412E-02-1.70381E-02-3.88818E-01
 -1   1004159 1.53258E-02-1.70211E-02-3.88820E-01
 -1   1004160 1.53259E-02-1.70211E-02-4.03790E-01
 -1   1004162 1.53105E-02-1.70041E-02-4.03788E-01
 -1   1004163 1.53396E-02-1.70364E-02-4.18757E-01
 -1   1004165 1.53243E-02-1.70193E-02-4.18759E-01
 -1   1004166 1.53272E-02-1.70226E-02-4.33729E-01
 -1   1004168 1.53119E-02-1.70056E-02-4.33727E-01
 -1   1004169 1.53384E-02-1.70350E-02-4.48697E-01
 -1   1004171 1.53230E-02-1.70180E-02-4.48698E-01
 -1   1004172 1.53284E-02-1.70239E-02-4.63668E-01
 -1   1004174 1.53130E-02-1.70068E-02-4.63666E-01
 -1   1004175 1.53374E-02-1.70339E-02-4.78636E-01
 -1   1004177 1.53220E-02-1.70169E-02-4.78637E-01
 -1   1004178 1.53292E-02-1.70248E-02-4.93607E-01
 -1   1004180 1.53139E-02-1.70078E-02-4.93606E-01
 -1   1004181 1.53366E-02-1.70330E-02-5.08575E-01
 -1   1004183 1.53213E-02-1.70160E-02-5.08576E-01
 -1   1004184 1.53300E-02-1.70256E-02-5.23546E-01
 -1   1004186 1.53146E-02-1.70086E-02-5.23545E-01
 -1   1004187 1.53360E-02-1.70323E-02-5.38515E-01
 -1   1004189 1.53206E-02-1.70153E-02-5.38515E-01
 -1   1004190 1.53305E-02-1.70262E-02-5.53485E-01
 -1   1004192 1.53152E-02-1.70092E-02-5.53484E-01
 -1   1004193 1.53355E-02-1.70318E-02-5.68454E-01
 -1   1004195 1.53201E-02-1.70147E-02-5.68455E-01
 -1   1004196 1.53309E-02-1.70267E-02-5.83424E-01
 -1   1004198 1.53156E-02-1.70097E-02-5.83424E-01
 -1   1004199 1.53351E-02-1.70313E-02-5.98393E-01
 -1   1004201 1.53198E-02-1.70143E-02-5.98394E-01
 -1   1004202 1.53313E-02-1.70271E-02-6.13363E-01
 -1   1004204 1.53159E-02-1.70101E-02-6.13363E-01
 -1   1004205 1.53348E-02-1.70310E-02-6.28333E-01
 -1   1004207 1.53195E-02-1.70140E-02-6.28333E-01
 -1   1004208 1.53315E-02-1.70274E-02-6.43302E-01
 -1   1004210 1.53162E-02-1.70103E-02-6.43302E-01
 -1   1004211 1.53346E-02-1.70308E-02-6.58272E-01
 -1   1004213 1.53193E-02-1.70138E-02-6.58272E-01
 -1   1004214 1.53317E-02-1.70275E-02-6.73242E-01
 -1   1004216 1.53163E-02-1.70105E-02-6.73241E-01
 -1   1004217 1.53345E-02-1.70306E-02-6.88211E-01
 -1   1004219 1.53191E-02-1.70136E-02-6.88211E-01
 -1   1004220 1.53318E-02-1.70276E-02-7.03181E-01
 -1   1004222 1.53164E-02-1.70106E-02-7.03181E-01
 -1   1004223 1.53344E-02-1.70306E-02-7.18150E-01
 -1   1004225 1.53191E-02-1.70136E-02-7.18150E-01
 -1   1004226 1.53318E-02-1.70277E-02-7.33120E-01
 -1   1004228 1.53165E-02-1.70107E-02-7.33120E-01
 -1   1004229 1.53344E-02-1.70306E-02-7.48090E-01
 -1   1004231 1.53191E-02-1.70135E-02-7.48089E-01
 -1   1004232 2.34276E-02-1.70211E-02-1.44360E-02
 -1   1004234 2.34105E-02-1.70087E-02-1.45111E-02
 -1   1004235 1.73135E-02-1.25790E-02-2.95762E-02
 -1   1004237 1.72946E-02-1.25653E-02-2.95773E-02
 -1   1004238 1.87860E-02-1.36488E-02-4.45203E-02
 -1   1004240 1.87675E-02-1.36354E-02-4.45009E-02
 -1   1004241 1.85461E-02-1.34745E-02-5.94783E-02
 -1   1004243 1.85276E-02-1.34611E-02-5.95007E-02
 -1   1004244 1.84700E-02-1.34192E-02-7.44676E-02
 -1   1004246 1.84515E-02-1.34058E-02-7.44462E-02
 -1   1004247 1.86167E-02-1.35259E-02-8.94171E-02
 -1   1004249 1.85982E-02-1.35124E-02-8.94367E-02
 -1   1004250 1.84640E-02-1.34149E-02-1.04405E-01
 -1   1004252 1.84454E-02-1.34014E-02-1.04388E-01
 -1   1004253 1.86067E-02-1.35186E-02-1.19358E-01
 -1   1004255 1.85882E-02-1.35051E-02-1.19374E-01
 -1   1004256 1.84772E-02-1.34244E-02-1.34343E-01
 -1   1004258 1.84586E-02-1.34110E-02-1.34329E-01
 -1   1004259 1.85938E-02-1.35092E-02-1.49299E-01
 -1   1004261 1.85753E-02-1.34957E-02-1.49312E-01
 -1   1004262 1.84891E-02-1.34331E-02-1.64281E-01
 -1   1004264 1.84705E-02-1.34196E-02-1.64269E-01
 -1   1004265 1.85830E-02-1.35013E-02-1.79239E-01
 -1   1004267 1.85645E-02-1.34879E-02-1.79250E-01
 -1   1004268 1.84987E-02-1.34401E-02-1.94219E-01
 -1   1004270 1.84802E-02-1.34266E-02-1.94210E-01
 -1   1004271 1.85743E-02-1.34950E-02-2.09180E-01
 -1   1004273 1.85558E-02-1.34816E-02-2.09188E-01
 -1   1004274 1.85065E-02-1.34458E-02-2.24157E-01
 -1   1004276 1.84880E-02-1.34323E-02-2.24150E-01
 -1   1004277 1.85674E-02-1.34900E-02-2.39120E-01
 -1   1004279 1.85488E-02-1.34765E-02-2.39126E-01
 -1   1004280 1.85128E-02-1.34503E-02-2.54096E-01
 -1   1004282 1.84942E-02-1.34369E-02-2.54090E-01
 -1   1004283 1.85617E-02-1.34859E-02-2.69059E-01
 -1   1004285 1.85432E-02-1.34724E-02-2.69065E-01
 -1   1004286 1.85178E-02-1.34540E-02-2.84034E-01
 -1   1004288 1.84993E-02-1.34405E-02-2.84029E-01
 -1   1004289 1.85572E-02-1.34826E-02-2.98999E-01
 -1   1004291 1.85387E-02-1.34692E-02-2.99003E-01
 -1   1004292 1.85219E-02-1.34569E-02-3.13973E-01
 -1   1004294 1.85033E-02-1.34435E-02-3.13969E-01
 -1   1004295 1.85536E-02-1.34800E-02-3.28939E-01
 -1   1004297 1.85351E-02-1.34665E-02-3.28942E-01
 -1   1004298 1.85251E-02-1.34593E-02-3.43912E-01
 -1   1004300 1.85066E-02-1.34458E-02-3.43909E-01
 -1   1004301 1.85507E-02-1.34779E-02-3.58878E-01
 -1   1004303 1.85322E-02-1.34644E-02-3.58881E-01
 -1   1004304 1.85277E-02-1.34612E-02-3.73851E-01
 -1   1004306 1.85092E-02-1.34477E-02-3.73848E-01
 -1   1004307 1.85483E-02-1.34762E-02-3.88818E-01
 -1   1004309 1.85298E-02-1.34627E-02-3.88820E-01
 -1   1004310 1.85298E-02-1.34627E-02-4.03790E-01
 -1   1004312 1.85113E-02-1.34492E-02-4.03788E-01
 -1   1004313 1.85465E-02-1.34748E-02-4.18757E-01
 -1   1004315 1.85279E-02-1.34613E-02-4.18759E-01
 -1   1004316 1.85315E-02-1.34639E-02-4.33729E-01
 -1   1004318 1.85130E-02-1.34505E-02-4.33727E-01
 -1   1004319 1.85450E-02-1.34737E-02-4.48697E-01
 -1   1004321 1.85264E-02-1.34602E-02-4.48698E-01
 -1   1004322 1.85329E-02-1.34649E-02-4.63668E-01
 -1   1004324 1.85143E-02-1.34514E-02-4.63666E-01
 -1   1004325 1.85438E-02-1.34728E-02-4.78636E-01
 -1   1004327 1.85252E-02-1.34594E-02-4.78637E-01
 -1   1004328 1.85339E-02-1.34657E-02-4.93607E-01
 -1   1004330 1.85154E-02-1.34522E-02-4.93606E-01
 -1   1004331 1.85428E-02-1.34721E-02-5.08575E-01
 -1   1004333 1.85243E-02-1.34587E-02-5.08576E-01
 -1   1004334 1.85348E-02-1.34663E-02-5.23546E-01
 -1   1004336 1.85163E-02-1.34528E-02-5.23545E-01
 -1   1004337 1.85420E-02-1.34716E-02-5.38515E-01
 -1   1004339 1.85235E-02-1.34581E-02-5.38515E-01
 -1   1004340 1.85355E-02-1.34668E-02-5.53485E-01
 -1   1004342 1.85169E-02-1.34533E-02-5.53484E-01
 -1   1004343 1.85415E-02-1.34711E-02-5.68454E-01
 -1   1004345 1.85229E-02-1.34577E-02-5.68455E-01
 -1   1004346 1.85360E-02-1.34672E-02-5.83424E-01
 -1   1004348 1.85174E-02-1.34537E-02-5.83424E-01
 -1   1004349 1.85410E-02-1.34708E-02-5.98393E-01
 -1   1004351 1.85225E-02-1.34574E-02-5.98394E-01
 -1   1004352 1.85364E-02-1.34675E-02-6.13363E-01
 -1   1004354 1.85178E-02-1.34540E-02-6.13363E-01
 -1   1004355 1.85407E-02-1.34706E-02-6.28333E-01
 -1   1004357 1.85221E-02-1.34571E-02-6.28333E-01
 -1   1004358 1.85367E-02-1.34677E-02-6.43302E-01
 -1   1004360 1.85181E-02-1.34542E-02-6.43302E-01
 -1   1004361 1.85404E-02-1.34704E-02-6.58272E-01
 -1   1004363 1.85219E-02-1.34569E-02-6.58272E-01
 -1   1004364 1.85369E-02-1.34678E-02-6.73242E-01
 -1   1004366 1.85183E-02-1.34544E-02-6.73241E-01
 -1   1004367 1.85403E-02-1.34703E-02-6.88211E-01
 -1   1004369 1.85217E-02-1.34568E-02-6.88211E-01
 -1   1004370 1.85370E-02-1.34679E-02-7.03181E-01
 -1   1004372 1.85185E-02-1.34544E-02-7.03181E-01
 -1   1004373 1.85402E-02-1.34702E-02-7.18150E-01
 -1   1004375 1.85216E-02-1.34568E-02-7.18150E-01
 -1   1004376 1.85370E-02-1.34679E-02-7.33120E-01
 -1   1004378 1.85185E-02-1.34545E-02-7.33120E-01
 -1   1004379 1.85402E-02-1.34702E-02-7.48090E-01
 -1   1004381 1.85216E-02-1.34567E-02-7.48089E-01
 -1   1004382 2.64545E-02-1.17783E-02-1.44360E-02
 -1   1004384 2.64353E-02-1.17697E-02-1.45111E-02
 -1   1004385 1.95505E-02-8.70443E-03-2.95762E-02
 -1   1004387 1.95291E-02-8.69493E-03-2.95773E-02
 -1   1004388 2.12132E-02-9.44472E-03-4.45203E-02
 -1   1004390 2.11923E-02-9.43544E-03-4.45009E-02
 -1   1004391 2.09424E-02-9.32414E-03-5.94783E-02
 -1   1004393 2.09214E-02-9.31483E-03-5.95007E-02
 -1   1004394 2.08564E-02-9.28587E-03-7.44676E-02
 -1   1004396 2.08355E-02-9.27655E-03-7.44462E-02
 -1   1004397 2.10221E-02-9.35965E-03-8.94171E-02
 -1   1004399 2.10012E-02-9.35034E-03-8.94367E-02
 -1   1004400 2.08496E-02-9.28285E-03-1.04405E-01
 -1   1004402 2.08287E-02-9.27352E-03-1.04388E-01
 -1   1004403 2.10108E-02-9.35460E-03-1.19358E-01
 -1   1004405 2.09899E-02-9.34529E-03-1.19374E-01
 -1   1004406 2.08645E-02-9.28947E-03-1.34343E-01
 -1   1004408 2.08435E-02-9.28014E-03-1.34329E-01
 -1   1004409 2.09962E-02-9.34809E-03-1.49299E-01
 -1   1004411 2.09753E-02-9.33879E-03-1.49312E-01
 -1   1004412 2.08779E-02-9.29545E-03-1.64281E-01
 -1   1004414 2.08570E-02-9.28613E-03-1.64269E-01
 -1   1004415 2.09840E-02-9.34269E-03-1.79239E-01
 -1   1004417 2.09631E-02-9.33338E-03-1.79250E-01
 -1   1004418 2.08888E-02-9.30031E-03-1.94219E-01
 -1   1004420 2.08679E-02-9.29099E-03-1.94210E-01
 -1   1004421 2.09742E-02-9.33832E-03-2.09180E-01
 -1   1004423 2.09533E-02-9.32901E-03-2.09188E-01
 -1   1004424 2.08976E-02-9.30423E-03-2.24157E-01
 -1   1004426 2.08767E-02-9.29491E-03-2.24150E-01
 -1   1004427 2.09663E-02-9.33481E-03-2.39120E-01
 -1   1004429 2.09454E-02-9.32550E-03-2.39126E-01
 -1   1004430 2.09047E-02-9.30738E-03-2.54096E-01
 -1   1004432 2.08838E-02-9.29806E-03-2.54090E-01
 -1   1004433 2.09600E-02-9.33199E-03-2.69059E-01
 -1   1004435 2.09391E-02-9.32268E-03-2.69065E-01
 -1   1004436 2.09104E-02-9.30991E-03-2.84034E-01
 -1   1004438 2.08895E-02-9.30059E-03-2.84029E-01
 -1   1004439 2.09549E-02-9.32972E-03-2.98999E-01
 -1   1004441 2.09340E-02-9.32041E-03-2.99003E-01
 -1   1004442 2.09150E-02-9.31194E-03-3.13973E-01
 -1   1004444 2.08940E-02-9.30262E-03-3.13969E-01
 -1   1004445 2.09508E-02-9.32790E-03-3.28939E-01
 -1   1004447 2.09299E-02-9.31858E-03-3.28942E-01
 -1   1004448 2.09186E-02-9.31358E-03-3.43912E-01
 -1   1004450 2.08977E-02-9.30426E-03-3.43909E-01
 -1   1004451 2.09475E-02-9.32643E-03-3.58878E-01
 -1   1004453 2.09266E-02-9.31711E-03-3.58881E-01
 -1   1004454 2.09216E-02-9.31489E-03-3.73851E-01
 -1   1004456 2.09007E-02-9.30557E-03-3.73848E-01
 -1   1004457 2.09449E-02-9.32525E-03-3.88818E-01
 -1   1004459 2.09239E-02-9.31594E-03-3.88820E-01
 -1   1004460 2.09240E-02-9.31595E-03-4.03790E-01
 -1   1004462 2.09030E-02-9.30663E-03-4.03788E-01
 -1   1004463 2.09427E-02-9.32431E-03-4.18757E-01
 -1   1004465 2.09218E-02-9.31499E-03-4.18759E-01
 -1   1004466 2.09259E-02-9.31679E-03-4.33729E-01
 -1   1004468 2.09049E-02-9.30748E-03-4.33727E-01
 -1   1004469 2.09410E-02-9.32355E-03-4.48697E-01
 -1   1004471 2.09201E-02-9.31424E-03-4.48698E-01
 -1   1004472 2.09274E-02-9.31747E-03-4.63668E-01
 -1   1004474 2.09065E-02-9.30815E-03-4.63666E-01
 -1   1004475 2.09397E-02-9.32295E-03-4.78636E-01
 -1   1004477 2.09188E-02-9.31363E-03-4.78637E-01
 -1   1004478 2.09286E-02-9.31801E-03-4.93607E-01
 -1   1004480 2.09077E-02-9.30869E-03-4.93606E-01
 -1   1004481 2.09386E-02-9.32247E-03-5.08575E-01
 -1   1004483 2.09177E-02-9.31315E-03-5.08576E-01
 -1   1004484 2.09296E-02-9.31844E-03-5.23546E-01
 -1   1004486 2.09086E-02-9.30912E-03-5.23545E-01
 -1   1004487 2.09378E-02-9.32209E-03-5.38515E-01
 -1   1004489 2.09168E-02-9.31277E-03-5.38515E-01
 -1   1004490 2.09303E-02-9.31877E-03-5.53485E-01
 -1   1004492 2.09094E-02-9.30946E-03-5.53484E-01
 -1   1004493 2.09371E-02-9.32179E-03-5.68454E-01
 -1   1004495 2.09162E-02-9.31247E-03-5.68455E-01
 -1   1004496 2.09309E-02-9.31904E-03-5.83424E-01
 -1   1004498 2.09100E-02-9.30972E-03-5.83424E-01
 -1   1004499 2.09366E-02-9.32156E-03-5.98393E-01
 -1   1004501 2.09156E-02-9.31224E-03-5.98394E-01
 -1   1004502 2.09314E-02-9.31924E-03-6.13363E-01
 -1   1004504 2.09104E-02-9.30992E-03-6.13363E-01
 -1   1004505 2.09362E-02-9.32139E-03-6.28333E-01
 -1   1004507 2.09153E-02-9.31207E-03-6.28333E-01
 -1   1004508 2.09317E-02-9.31938E-03-6.43302E-01
 -1   1004510 2.09108E-02-9.31007E-03-6.43302E-01
 -1   1004511 2.09359E-02-9.32126E-03-6.58272E-01
 -1   1004513 2.09150E-02-9.31195E-03-6.58272E-01
 -1   1004514 2.09319E-02-9.31948E-03-6.73242E-01
 -1   1004516 2.09110E-02-9.31017E-03-6.73241E-01
 -1   1004517 2.09357E-02-9.32119E-03-6.88211E-01
 -1   1004519 2.09148E-02-9.31187E-03-6.88211E-01
 -1   1004520 2.09320E-02-9.31954E-03-7.03181E-01
 -1   1004522 2.09111E-02-9.31023E-03-7.03181E-01
 -1   1004523 2.09356E-02-9.32115E-03-7.18150E-01
 -1   1004525 2.09147E-02-9.31183E-03-7.18150E-01
 -1   1004526 2.09321E-02-9.31957E-03-7.33120E-01
 -1   1004528 2.09112E-02-9.31025E-03-7.33120E-01
 -1   1004529 2.09356E-02-9.32114E-03-7.48090E-01
 -1   1004531 2.09147E-02-9.31182E-03-7.48089E-01
 -1   1004532 2.83253E-02-6.02073E-03-1.44360E-02
 -1   1004534 2.83047E-02-6.01634E-03-1.45111E-02
 -1   1004535 2.09330E-02-4.44945E-03-2.95762E-02
 -1   1004537 2.09102E-02-4.44459E-03-2.95773E-02
 -1   1004538 2.27133E-02-4.82786E-03-4.45203E-02
 -1   1004540 2.26910E-02-4.82312E-03-4.45009E-02
 -1   1004541 2.24233E-02-4.76622E-03-5.94783E-02
 -1   1004543 2.24009E-02-4.76146E-03-5.95007E-02
 -1   1004544 2.23313E-02-4.74666E-03-7.44676E-02
 -1   1004546 2.23089E-02-4.74189E-03-7.44462E-02
 -1   1004547 2.25087E-02-4.78437E-03-8.94171E-02
 -1   1004549 2.24863E-02-4.77962E-03-8.94367E-02
 -1   1004550 2.23240E-02-4.74511E-03-1.04405E-01
 -1   1004552 2.23016E-02-4.74035E-03-1.04388E-01
 -1   1004553 2.24966E-02-4.78179E-03-1.19358E-01
 -1   1004555 2.24742E-02-4.77704E-03-1.19374E-01
 -1   1004556 2.23399E-02-4.74850E-03-1.34343E-01
 -1   1004558 2.23175E-02-4.74373E-03-1.34329E-01
 -1   1004559 2.24809E-02-4.77847E-03-1.49299E-01
 -1   1004561 2.24585E-02-4.77371E-03-1.49312E-01
 -1   1004562 2.23543E-02-4.75156E-03-1.64281E-01
 -1   1004564 2.23319E-02-4.74679E-03-1.64269E-01
 -1   1004565 2.24679E-02-4.77570E-03-1.79239E-01
 -1   1004567 2.24455E-02-4.77094E-03-1.79250E-01
 -1   1004568 2.23660E-02-4.75404E-03-1.94219E-01
 -1   1004570 2.23436E-02-4.74928E-03-1.94210E-01
 -1   1004571 2.24574E-02-4.77347E-03-2.09180E-01
 -1   1004573 2.24350E-02-4.76871E-03-2.09188E-01
 -1   1004574 2.23754E-02-4.75605E-03-2.24157E-01
 -1   1004576 2.23530E-02-4.75128E-03-2.24150E-01
 -1   1004577 2.24490E-02-4.77168E-03-2.39120E-01
 -1   1004579 2.24266E-02-4.76692E-03-2.39126E-01
 -1   1004580 2.23830E-02-4.75765E-03-2.54096E-01
 -1   1004582 2.23606E-02-4.75289E-03-2.54090E-01
 -1   1004583 2.24422E-02-4.77024E-03-2.69059E-01
 -1   1004585 2.24198E-02-4.76548E-03-2.69065E-01
 -1   1004586 2.23891E-02-4.75895E-03-2.84034E-01
 -1   1004588 2.23667E-02-4.75418E-03-2.84029E-01
 -1   1004589 2.24367E-02-4.76908E-03-2.98999E-01
 -1   1004591 2.24143E-02-4.76432E-03-2.99003E-01
 -1   1004592 2.23940E-02-4.75999E-03-3.13973E-01
 -1   1004594 2.23716E-02-4.75523E-03-3.13969E-01
 -1   1004595 2.24323E-02-4.76814E-03-3.28939E-01
 -1   1004597 2.24100E-02-4.76338E-03-3.28942E-01
 -1   1004598 2.23979E-02-4.76083E-03-3.43912E-01
 -1   1004600 2.23755E-02-4.75606E-03-3.43909E-01
 -1   1004601 2.24288E-02-4.76739E-03-3.58878E-01
 -1   1004603 2.24064E-02-4.76263E-03-3.58881E-01
 -1   1004604 2.24011E-02-4.76150E-03-3.73851E-01
 -1   1004606 2.23787E-02-4.75673E-03-3.73848E-01
 -1   1004607 2.24260E-02-4.76679E-03-3.88818E-01
 -1   1004609 2.24036E-02-4.76203E-03-3.88820E-01
 -1   1004610 2.24036E-02-4.76204E-03-4.03790E-01
 -1   1004612 2.23812E-02-4.75727E-03-4.03788E-01
 -1   1004613 2.24237E-02-4.76631E-03-4.18757E-01
 -1   1004615 2.24013E-02-4.76155E-03-4.18759E-01
 -1   1004616 2.24057E-02-4.76247E-03-4.33729E-01
 -1   1004618 2.23832E-02-4.75771E-03-4.33727E-01
 -1   1004619 2.24219E-02-4.76592E-03-4.48697E-01
 -1   1004621 2.23995E-02-4.76116E-03-4.48698E-01
 -1   1004622 2.24073E-02-4.76281E-03-4.63668E-01
 -1   1004624 2.23849E-02-4.75805E-03-4.63666E-01
 -1   1004625 2.24205E-02-4.76561E-03-4.78636E-01
 -1   1004627 2.23981E-02-4.76085E-03-4.78637E-01
 -1   1004628 2.24086E-02-4.76309E-03-4.93607E-01
 -1   1004630 2.23862E-02-4.75833E-03-4.93606E-01
 -1   1004631 2.24193E-02-4.76537E-03-5.08575E-01
 -1   1004633 2.23969E-02-4.76061E-03-5.08576E-01
 -1   1004634 2.24096E-02-4.76331E-03-5.23546E-01
 -1   1004636 2.23872E-02-4.75855E-03-5.23545E-01
 -1   1004637 2.24184E-02-4.76517E-03-5.38515E-01
 -1   1004639 2.23960E-02-4.76041E-03-5.38515E-01
 -1   1004640 2.24104E-02-4.76348E-03-5.53485E-01
 -1   1004642 2.23880E-02-4.75872E-03-5.53484E-01
 -1   1004643 2.24177E-02-4.76502E-03-5.68454E-01
 -1   1004645 2.23953E-02-4.76026E-03-5.68455E-01
 -1   1004646 2.24111E-02-4.76362E-03-5.83424E-01
 -1   1004648 2.23886E-02-4.75885E-03-5.83424E-01
 -1   1004649 2.24171E-02-4.76491E-03-5.98393E-01
 -1   1004651 2.23947E-02-4.76014E-03-5.98394E-01
 -1   1004652 2.24115E-02-4.76372E-03-6.13363E-01
 -1   1004654 2.23891E-02-4.75896E-03-6.13363E-01
 -1   1004655 2.24167E-02-4.76482E-03-6.28333E-01
 -1   1004657 2.23943E-02-4.76006E-03-6.28333E-01
 -1   1004658 2.24119E-02-4.76379E-03-6.43302E-01
 -1   1004660 2.23895E-02-4.75903E-03-6.43302E-01
 -1   1004661 2.24164E-02-4.76476E-03-6.58272E-01
 -1   1004663 2.23940E-02-4.75999E-03-6.58272E-01
 -1   1004664 2.24121E-02-4.76385E-03-6.73242E-01
 -1   1004666 2.23897E-02-4.75908E-03-6.73241E-01
 -1   1004667 2.24162E-02-4.76472E-03-6.88211E-01
 -1   1004669 2.23938E-02-4.75995E-03-6.88211E-01
 -1   1004670 2.24123E-02-4.76388E-03-7.03181E-01
 -1   1004672 2.23899E-02-4.75911E-03-7.03181E-01
 -1   1004673 2.24161E-02-4.76469E-03-7.18150E-01
 -1   1004675 2.23937E-02-4.75993E-03-7.18150E-01
 -1   1004676 2.24123E-02-4.76389E-03-7.33120E-01
 -1   1004678 2.23899E-02-4.75913E-03-7.33120E-01
 -1   1004679 2.24161E-02-4.76469E-03-7.48090E-01
 -1   1004681 2.23937E-02-4.75993E-03-7.48089E-01
 -3
    1PSTEP                         2           1           1          
  100CL  101 1.000000000        3120                     0    1           1
 -4  STRESS      6    1
 -5  SXX         1    4    1    1
 -5  SYY         1    4    2    2
 -5  SZZ         1    4    3    3
 -5  SXY         1    4    1    2
 -5  SYZ         1    4    2    3
 -5  SZX         1    4    3    1
 -1   1000002-2.17508E+00-4.71050E+02-1.57701E+03-1.86276E-08-1.17407E-07 4.05093E-02
 -1   1000004-2.57436E+00-4.87279E+02-1.62936E+03-1.85644E-08-1.22276E-07 4.44455E-02
 -1   1000005-3.76974E-05-3.88200E-02-1.60317E+03-7.18800E-09-1.91737E-07 1.33685E-03
 -1   1000007-1.10144E-04-4.26869E-02-1.60319E+03-1.81813E-08-2.13328E-07 1.33767E-03
 -1   1000008-2.24433E+01-4.50782E+02-1.57701E+03 9.53543E+01 8.42230E-03 3.96241E-02
 -1   1000010-2.35268E+01-4.66327E+02-1.62936E+03 9.85736E+01 9.24067E-03 4.34743E-02
 -1   1000011-7.97432E+01-3.93482E+02-1.57701E+03 1.74221E+02 1.64767E-02 3.70071E-02
 -1   1000013-8.27613E+01-4.07092E+02-1.62936E+03 1.80103E+02 1.80776E-02 4.06030E-02
 -1   1000014-1.64167E+02-3.09058E+02-1.57701E+03 2.22963E+02 2.38109E-02 3.27727E-02
 -1   1000016-1.70036E+02-3.19818E+02-1.62936E+03 2.30491E+02 2.61245E-02 3.59571E-02
 -1   1000017-2.61118E+02-2.12107E+02-1.57701E+03 2.33153E+02 3.01045E-02 2.71060E-02
 -1   1000019-2.70259E+02-2.19594E+02-1.62936E+03 2.41025E+02 3.30296E-02 2.97398E-02
 -1   1000020-3.53831E+02-1.19394E+02-1.57701E+03 2.03029E+02 3.50823E-02 2.02546E-02
 -1   1000022-3.66103E+02-1.23751E+02-1.62936E+03 2.09883E+02 3.84911E-02 2.22227E-02
 -1   1000023-4.26276E+02-4.69486E+01-1.57701E+03 1.37799E+02 3.85267E-02 1.25180E-02
 -1   1000025-4.40994E+02-4.88595E+01-1.62936E+03 1.42451E+02 4.22703E-02 1.37344E-02
 -1   1000026-4.65927E+02-7.29810E+00-1.57701E+03 4.87423E+01 4.02875E-02 4.23436E-03
 -1   1000028-4.81983E+02-7.87034E+00-1.62936E+03 5.03879E+01 4.42021E-02 4.64582E-03
 -1   1000029-4.65927E+02-7.29810E+00-1.57701E+03-4.87423E+01 4.02875E-02-4.23450E-03
 -1   1000031-4.81983E+02-7.87034E+00-1.62936E+03-5.03879E+01 4.42021E-02-4.64594E-03
 -1   1000032-4.26276E+02-4.69486E+01-1.57701E+03-1.37799E+02 3.85266E-02-1.25184E-02
 -1   1000034-4.40994E+02-4.88595E+01-1.62936E+03-1.42451E+02 4.22702E-02-1.37347E-02
 -1   1000035-3.53831E+02-1.19394E+02-1.57701E+03-2.03029E+02 3.50820E-02-2.02550E-02
 -1   1000037-3.66103E+02-1.23751E+02-1.62936E+03-2.09883E+02 3.84908E-02-2.22231E-02
 -1   1000038-2.61118E+02-2.12107E+02-1.57701E+03-2.33153E+02 3.01041E-02-2.71063E-02
 -1   1000040-2.70259E+02-2.19594E+02-1.62936E+03-2.41025E+02 3.30293E-02-2.97401E-02
 -1   1000041-1.64167E+02-3.09058E+02-1.57701E+03-2.22963E+02 2.38107E-02-3.27729E-02
 -1   1000043-1.70036E+02-3.19818E+02-1.62936E+03-2.30491E+02 2.61243E-02-3.59573E-02
 -1   1000044-7.97432E+01-3.93482E+02-1.57701E+03-1.74221E+02 1.64766E-02-3.70071E-02
 -1   1000046-8.27613E+01-4.07092E+02-1.62936E+03-1.80103E+02 1.80776E-02-4.06030E-02
 -1   1000047-2.24433E+01-4.50782E+02-1.57701E+03-9.53543E+01 8.42244E-03-3.96241E-02
 -1   1000049-2.35268E+01-4.66327E+02-1.62936E+03-9.85736E+01 9.24082E-03-4.34743E-02
 -1   1000050-2.17508E+00-4.71050E+02-1.57701E+03-2.91314E-08 1.37333E-07-4.05093E-02
 -1   1000052-2.57436E+00-4.87279E+02-1.62936E+03-2.91745E-08 1.43752E-07-4.44455E-02
 -1   1000053-2.24433E+01-4.50782E+02-1.57701E+03 9.53543E+01-8.42221E-03-3.96241E-02
 -1   1000055-2.35268E+01-4.66327E+02-1.62936E+03 9.85736E+01-9.24057E-03-4.34743E-02
 -1   1000056-7.97432E+01-3.93482E+02-1.57701E+03 1.74221E+02-1.64765E-02-3.70072E-02
 -1   1000058-8.27613E+01-4.07092E+02-1.62936E+03 1.80103E+02-1.80775E-02-4.06031E-02
 -1   1000059-1.64167E+02-3.09058E+02-1.57701E+03 2.22963E+02-2.38108E-02-3.27728E-02
 -1   1000061-1.70036E+02-3.19818E+02-1.62936E+03 2.30491E+02-2.61244E-02-3.59573E-02
 -1   1000062-2.61118E+02-2.12107E+02-1.57701E+03 2.33153E+02-3.01043E-02-2.71061E-02
 -1   1000064-2.70259E+02-2.19594E+02-1.62936E+03 2.41025E+02-3.30295E-02-2.97399E-02
 -1   1000065-3.53831E+02-1.19394E+02-1.57701E+03 2.03029E+02-3.50822E-02-2.02548E-02
 -1   1000067-3.66103E+02-1.23751E+02-1.62936E+03 2.09883E+02-3.84910E-02-2.22229E-02
 -1   1000068-4.26276E+02-4.69486E+01-1.57701E+03 1.37799E+02-3.85267E-02-1.25182E-02
 -1   1000070-4.40994E+02-4.88595E+01-1.62936E+03 1.42451E+02-4.22703E-02-1.37346E-02
 -1   1000071-4.65927E+02-7.29810E+00-1.57701E+03 4.87423E+01-4.02874E-02-4.23454E-03
 -1   1000073-4.81983E+02-7.87034E+00-1.62936E+03 5.03879E+01-4.42021E-02-4.64598E-03
 -1   1000074-4.65927E+02-7.29810E+00-1.57701E+03-4.87423E+01-4.02875E-02 4.23423E-03
 -1   1000076-4.81983E+02-7.87034E+00-1.62936E+03-5.03879E+01-4.42021E-02 4.64568E-03
 -1   1000077-4.26276E+02-4.69486E+01-1.57701E+03-1.37799E+02-3.85267E-02 1.25180E-02
 -1   1000079-4.40994E+02-4.88595E+01-1.62936E+03-1.42451E+02-4.22703E-02 1.37344E-02
 -1   1000080-3.53831E+02-1.19394E+02-1.57701E+03-2.03029E+02-3.50822E-02 2.02547E-02
 -1   1000082-3.66103E+02-1.23751E+02-1.62936E+03-2.09883E+02-3.84910E-02 2.22228E-02
 -1   1000083-2.61118E+02-2.12107E+02-1.57701E+03-2.33153E+02-3.01043E-02 2.71061E-02
 -1   1000085-2.70259E+02-2.19594E+02-1.62936E+03-2.41025E+02-3.30294E-02 2.97399E-02
 -1   1000086-1.64167E+02-3.09058E+02-1.57701E+03-2.22963E+02-2.38108E-02 3.27727E-02
 -1   1000088-1.70036E+02-3.19818E+02-1.62936E+03-2.30491E+02-2.61245E-02 3.59572E-02
 -1   1000089-7.97432E+01-3.93482E+02-1.57701E+03-1.74221E+02-1.64768E-02 3.70071E-02
 -1   1000091-8.27613E+01-4.07092E+02-1.62936E+03-1.80103E+02-1.80777E-02 4.06030E-02
 -1   1000092-2.24433E+01-4.50782E+02-1.57701E+03-9.53543E+01-8.42251E-03 3.96241E-02
 -1   1000094-2.35268E+01-4.66327E+02-1.62936E+03-9.85736E+01-9.24089E-03 4.34743E-02
 -1   1000095-4.23502E-01 1.30823E+02-1.59241E+03-3.11242E-08-1.42586E-07-2.62911E-02
 -1   1000097-3.51242E-01 1.24636E+02-1.61396E+03-3.11650E-08-1.48774E-07-2.48757E-02
 -1   1000098 6.22656E-02-3.28316E+01-1.60595E+03-2.37646E-08-1.75886E-07 2.84832E-03
 -1   1000100 4.37680E-02-3.12415E+01-1.60041E+03-2.40937E-08-1.85477E-07 2.46624E-03
 -1   1000101-5.36387E-03 6.66741E+00-1.60256E+03 1.05998E-08-1.73670E-07 3.03098E-03
 -1   1000103-1.20707E-03 6.30805E+00-1.60380E+03 9.70781E-09-1.86259E-07 3.13573E-03
 -1   1000104 5.99498E-04 1.60576E-01-1.60324E+03 4.12957E-08-1.18663E-07-4.22341E-03
 -1   1000106 2.09467E-04 1.95416E-01-1.60312E+03 3.98172E-08-1.29287E-07-4.25357E-03
 -1   1000107-1.91643E-03-1.79938E+00-1.60326E+03 2.94690E-08-5.18489E-08 4.19346E-03
 -1   1000109-2.46289E-03-1.75316E+00-1.60310E+03 2.76778E-08-5.84984E-08 4.20340E-03
 -1   1000110 2.76324E-03 2.06016E+00-1.60307E+03 2.85407E-08-3.45661E-08-3.87040E-03
 -1   1000112 3.49402E-03 1.99783E+00-1.60329E+03 2.66017E-08-4.08420E-08-3.87473E-03
 -1   1000113-2.93981E-03-1.96814E+00-1.60329E+03 4.26984E-08-4.07548E-08 3.50081E-03
 -1   1000115-3.65988E-03-1.90661E+00-1.60307E+03 4.05173E-08-4.74792E-08 3.50346E-03
 -1   1000116 2.80949E-03 1.79774E+00-1.60308E+03 4.31106E-08-5.92199E-09-3.14780E-03
 -1   1000118 3.47270E-03 1.74104E+00-1.60328E+03 4.09009E-08-8.18131E-09-3.14986E-03
 -1   1000119-2.57924E-03-1.62123E+00-1.60327E+03 2.53140E-08 9.29500E-09 2.82539E-03
 -1   1000121-3.17877E-03-1.56996E+00-1.60309E+03 2.33653E-08 9.09396E-09 2.82715E-03
 -1   1000122 2.33305E-03 1.45654E+00-1.60310E+03 2.15778E-08-1.91431E-08-2.53465E-03
 -1   1000124 2.87206E-03 1.41044E+00-1.60326E+03 1.98574E-08-2.15510E-08-2.53620E-03
 -1   1000125-2.09876E-03-1.30710E+00-1.60325E+03 2.36629E-08-3.76457E-08 2.27343E-03
 -1   1000127-2.58257E-03-1.26573E+00-1.60311E+03 2.21845E-08-4.07552E-08 2.27482E-03
 -1   1000128 1.88451E-03 1.17262E+00-1.60312E+03-1.10522E-08-4.70362E-08-2.03901E-03
 -1   1000130 2.31857E-03 1.13550E+00-1.60325E+03-1.22391E-08-5.18163E-08-2.04025E-03
 -1   1000131-1.69090E-03-1.05188E+00-1.60324E+03-2.40263E-08-4.47844E-08 1.82871E-03
 -1   1000133-2.08027E-03-1.01858E+00-1.60312E+03-2.51398E-08-5.24935E-08 1.82982E-03
 -1   1000134 1.51700E-03 9.43555E-01-1.60313E+03 2.03385E-08-2.01446E-08-1.64008E-03
 -1   1000136 1.86627E-03 9.13684E-01-1.60323E+03 1.89869E-08-2.89544E-08-1.64107E-03
 -1   1000137-1.36080E-03-8.46401E-01-1.60323E+03 4.17399E-08 2.78802E-08 1.47087E-03
 -1   1000139-1.67411E-03-8.19606E-01-1.60313E+03 4.02543E-08 2.12398E-08 1.47176E-03
 -1   1000140 1.22073E-03 7.59269E-01-1.60314E+03 3.10340E-08 6.36909E-08-1.31906E-03
 -1   1000142 1.50179E-03 7.35232E-01-1.60322E+03 2.95610E-08 5.80822E-08-1.31986E-03
 -1   1000143-1.09511E-03-6.81131E-01-1.60322E+03 1.44255E-08 7.82727E-08 1.18285E-03
 -1   1000145-1.34724E-03-6.59568E-01-1.60314E+03 1.30937E-08 7.25774E-08 1.18357E-03
 -1   1000146 9.82495E-04 6.11061E-01-1.60315E+03 9.45811E-09 5.80317E-08-1.06070E-03
 -1   1000148 1.20869E-03 5.91716E-01-1.60321E+03 8.30529E-09 5.01003E-08-1.06135E-03
 -1   1000149-8.81425E-04-5.48228E-01-1.60321E+03 6.17574E-09 2.94689E-08 9.51121E-04
 -1   1000151-1.08436E-03-5.30873E-01-1.60315E+03 5.09931E-09 1.93517E-08 9.51698E-04
 -1   1000152 7.90867E-04 4.91890E-01-1.60315E+03-1.24162E-08-1.39734E-08-8.52795E-04
 -1   1000154 9.72949E-04 4.76318E-01-1.60321E+03-1.33712E-08-2.78943E-08-8.53313E-04
 -1   1000155-7.09654E-04-4.41378E-01-1.60321E+03-3.01441E-09-5.77850E-08 7.64554E-04
 -1   1000157-8.73039E-04-4.27405E-01-1.60316E+03-4.17076E-09-7.59545E-08 7.65019E-04
 -1   1000158 6.36824E-04 3.96095E-01-1.60316E+03 1.45549E-08-6.63564E-08-6.85371E-04
 -1   1000160 7.83446E-04 3.83556E-01-1.60320E+03 1.31480E-08-8.64347E-08-6.85787E-04
 -1   1000161-5.71626E-04-3.55504E-01-1.60320E+03 1.04754E-08-6.57937E-08 6.14339E-04
 -1   1000163-7.03222E-04-3.44249E-01-1.60316E+03 8.80915E-09-8.90300E-08 6.14712E-04
 -1   1000164 5.12987E-04 3.19123E-01-1.60316E+03 3.45025E-08-1.82756E-08-5.50562E-04
 -1   1000166 6.31117E-04 3.09020E-01-1.60320E+03 3.23997E-08-4.13718E-08-5.50896E-04
 -1   1000167-4.60783E-04-2.86523E-01-1.60320E+03 2.12879E-08 1.38552E-08 4.93320E-04
 -1   1000169-5.66844E-04-2.77452E-01-1.60316E+03 1.89920E-08-1.04543E-08 4.93619E-04
 -1   1000170 4.13573E-04 2.57316E-01-1.60317E+03 6.64315E-10-1.29905E-09-4.41888E-04
 -1   1000172 5.08826E-04 2.49170E-01-1.60320E+03-1.99485E-09-3.07628E-08-4.42155E-04
 -1   1000173-3.71801E-04-2.31158E-01-1.60319E+03 1.86014E-08-1.98309E-08 3.95677E-04
 -1   1000175-4.57369E-04-2.23840E-01-1.60317E+03 1.52394E-08-5.24872E-08 3.95915E-04
 -1   1000176 3.33870E-04 2.07738E-01-1.60317E+03 5.97080E-08-3.56752E-08-3.54202E-04
 -1   1000178 4.10768E-04 2.01161E-01-1.60319E+03 5.56353E-08-6.96141E-08-3.54418E-04
 -1   1000179-3.00426E-04-1.86778E-01-1.60319E+03 8.90221E-08-4.55696E-08 3.16903E-04
 -1   1000181-3.69566E-04-1.80865E-01-1.60317E+03 8.42863E-08-7.96359E-08 3.17095E-04
 -1   1000182 2.70007E-04 1.68031E-01-1.60317E+03 6.16945E-08-2.45894E-08-2.83353E-04
 -1   1000184 3.32208E-04 1.62712E-01-1.60319E+03 5.65556E-08-5.63830E-08-2.83525E-04
 -1   1000185-2.43379E-04-1.51275E-01-1.60319E+03 1.64683E-08-3.86379E-08 2.53182E-04
 -1   1000187-2.99377E-04-1.46486E-01-1.60317E+03 1.11180E-08-7.23841E-08 2.53334E-04
 -1   1000188 2.19073E-04 1.36310E-01-1.60317E+03 4.85943E-08-9.39725E-08-2.25987E-04
 -1   1000190 2.69531E-04 1.31994E-01-1.60319E+03 4.26216E-08-1.32789E-07-2.26124E-04
 -1   1000191-1.97781E-04-1.22959E-01-1.60319E+03 1.02951E-07-1.22873E-07 2.01410E-04
 -1   1000193-2.43298E-04-1.19067E-01-1.60317E+03 9.60674E-08-1.61607E-07 2.01532E-04
 -1   1000194 1.78464E-04 1.11066E-01-1.60317E+03 1.19355E-07-1.07856E-07-1.79301E-04
 -1   1000196 2.19575E-04 1.07550E-01-1.60319E+03 1.11967E-07-1.43090E-07-1.79411E-04
 -1   1000197-1.61660E-04-1.00488E-01-1.60319E+03 1.15659E-07-7.06588E-08 1.59396E-04
 -1   1000199-1.98856E-04-9.73068E-02-1.60318E+03 1.08079E-07-1.02067E-07 1.59493E-04
 -1   1000200 1.46345E-04 9.11004E-02-1.60318E+03 8.93235E-08-5.48242E-08-1.41267E-04
 -1   1000202 1.80069E-04 8.82159E-02-1.60319E+03 8.16915E-08-8.44416E-08-1.41354E-04
 -1   1000203-1.33217E-04-8.27913E-02-1.60319E+03 6.78292E-08-6.19939E-08 1.24799E-04
 -1   1000205-1.63863E-04-8.01708E-02-1.60318E+03 6.03313E-08-9.29797E-08 1.24875E-04
 -1   1000206 1.21340E-04 7.54638E-02-1.60318E+03 4.05049E-08-6.55783E-08-1.09858E-04
 -1   1000208 1.49275E-04 7.30743E-02-1.60318E+03 3.29884E-08-1.00505E-07-1.09925E-04
 -1   1000209-1.10921E-04-6.90293E-02-1.60318E+03 3.02899E-08-6.18104E-08 9.61663E-05
 -1   1000211-1.36474E-04-6.68446E-02-1.60318E+03 2.22016E-08-1.02179E-07 9.62225E-05
 -1   1000212 1.02080E-04 6.34137E-02-1.60318E+03 1.05441E-07-6.20384E-08-8.36381E-05
 -1   1000214 1.25553E-04 6.14055E-02-1.60318E+03 9.62906E-08-1.04629E-07-8.36920E-05
 -1   1000215-9.39775E-05-5.85477E-02-1.60318E+03 1.78522E-07-5.94913E-08 7.21024E-05
 -1   1000217-1.15652E-04-5.66949E-02-1.60318E+03 1.68359E-07-9.85521E-08 7.21450E-05
 -1   1000218 8.76278E-05 5.43768E-02-1.60318E+03 1.67951E-07-7.27946E-08-6.14321E-05
 -1   1000220 1.07755E-04 5.26546E-02-1.60318E+03 1.57229E-07-1.06680E-07-6.14713E-05
 -1   1000221-8.14963E-05-5.08482E-02-1.60318E+03 1.24958E-07-8.69958E-08 5.15507E-05
 -1   1000223-1.00319E-04-4.92394E-02-1.60318E+03 1.14166E-07-1.18722E-07 5.15797E-05
 -1   1000224 7.72955E-05 4.79240E-02-1.60318E+03 1.15964E-07-7.06279E-08-4.21521E-05
 -1   1000226 9.50374E-05 4.64059E-02-1.60318E+03 1.05182E-07-1.01952E-07-4.21797E-05
 -1   1000227-7.29484E-05-4.55652E-02-1.60318E+03 1.16890E-07-3.65366E-08 3.32903E-05
 -1   1000229-8.98140E-05-4.41238E-02-1.60318E+03 1.05976E-07-6.84075E-08 3.33073E-05
 -1   1000230 7.07425E-05 4.37476E-02-1.60318E+03 1.16998E-07-6.33123E-09-2.48648E-05
 -1   1000232 8.69365E-05 4.23615E-02-1.60318E+03 1.05845E-07-3.79720E-08-2.48807E-05
 -1   1000233-6.77416E-05-4.24434E-02-1.60318E+03 1.39477E-07 4.17980E-09 1.67353E-05
 -1   1000235-8.34513E-05-4.11012E-02-1.60318E+03 1.28000E-07-2.54240E-08 1.67436E-05
 -1   1000236 6.75164E-05 4.16365E-02-1.60318E+03 1.54424E-07-4.40070E-09-8.71192E-06
 -1   1000238 8.29294E-05 4.03171E-02-1.60318E+03 1.42839E-07-3.42495E-08-8.72112E-06
 -1   1000239-6.54949E-05-4.12879E-02-1.60318E+03 1.89135E-07-2.90501E-08 8.79781E-07
 -1   1000241-8.07648E-05-3.99833E-02-1.60318E+03 1.77580E-07-5.62699E-08 8.76668E-07
 -1   1000242 6.81110E-05 4.13159E-02-1.60318E+03 1.38877E-07-1.25057E-07 6.75215E-06
 -1   1000244 8.33619E-05 4.00095E-02-1.60318E+03 1.27747E-07-1.48254E-07 6.75411E-06
 -1   1000245-1.71406E-03-3.71428E-02-1.60317E+03 7.88819E-03 2.78224E-04 1.30708E-03
 -1   1000247-1.95046E-03-4.08450E-02-1.60319E+03 8.65970E-03 2.78225E-04 1.30791E-03
 -1   1000248-6.45652E-03-3.24016E-02-1.60317E+03 1.44103E-02 5.44503E-04 1.22087E-03
 -1   1000250-7.15632E-03-3.56393E-02-1.60319E+03 1.58195E-02 5.44611E-04 1.22173E-03
 -1   1000251-1.34390E-02-2.54198E-02-1.60317E+03 1.84396E-02 7.85414E-04 1.08166E-03
 -1   1000253-1.48212E-02-2.79738E-02-1.60319E+03 2.02426E-02 7.85749E-04 1.08244E-03
 -1   1000254-2.14567E-02-1.74035E-02-1.60317E+03 1.92830E-02 9.93094E-04 8.94602E-04
 -1   1000256-2.36226E-02-1.91732E-02-1.60319E+03 2.11681E-02 9.93665E-04 8.95196E-04
 -1   1000257-2.91247E-02-9.73581E-03-1.60317E+03 1.67922E-02 1.15767E-03 6.68217E-04
 -1   1000259-3.20401E-02-1.07559E-02-1.60319E+03 1.84337E-02 1.15840E-03 6.68596E-04
 -1   1000260-3.51159E-02-3.74344E-03-1.60317E+03 1.13976E-02 1.27136E-03 4.12933E-04
 -1   1000262-3.86174E-02-4.17782E-03-1.60319E+03 1.25118E-02 1.27216E-03 4.13100E-04
 -1   1000263-3.83952E-02-4.62900E-04-1.60317E+03 4.03186E-03 1.32934E-03 1.39663E-04
 -1   1000265-4.22178E-02-5.76708E-04-1.60319E+03 4.42600E-03 1.33016E-03 1.39656E-04
 -1   1000266-3.83954E-02-4.62699E-04-1.60317E+03-4.03130E-03 1.32934E-03-1.39719E-04
 -1   1000268-4.22183E-02-5.76524E-04-1.60319E+03-4.42551E-03 1.33015E-03-1.39869E-04
 -1   1000269-3.51156E-02-3.74219E-03-1.60317E+03-1.13972E-02 1.27116E-03-4.13125E-04
 -1   1000271-3.86181E-02-4.17670E-03-1.60319E+03-1.25117E-02 1.27193E-03-4.13413E-04
 -1   1000272-2.91235E-02-9.73444E-03-1.60317E+03-1.67918E-02 1.15744E-03-6.68547E-04
 -1   1000274-3.20401E-02-1.07549E-02-1.60319E+03-1.84339E-02 1.15813E-03-6.68979E-04
 -1   1000275-2.14556E-02-1.74020E-02-1.60317E+03-1.92827E-02 9.93278E-04-8.94463E-04
 -1   1000277-2.36224E-02-1.91725E-02-1.60319E+03-2.11686E-02 9.93860E-04-8.95045E-04
 -1   1000278-1.34376E-02-2.54196E-02-1.60317E+03-1.84403E-02 7.85753E-04-1.08134E-03
 -1   1000280-1.48203E-02-2.79745E-02-1.60319E+03-2.02439E-02 7.86185E-04-1.08203E-03
 -1   1000281-6.45444E-03-3.24022E-02-1.60317E+03-1.44096E-02 5.43680E-04-1.22103E-03
 -1   1000283-7.15435E-03-3.56403E-02-1.60319E+03-1.58190E-02 5.43979E-04-1.22179E-03
 -1   1000284-1.71487E-03-3.71417E-02-1.60317E+03-7.88629E-03 2.77785E-04-1.30744E-03
 -1   1000286-1.95124E-03-4.08434E-02-1.60319E+03-8.65773E-03 2.77968E-04-1.30823E-03
 -1   1000287-3.92497E-05-3.88173E-02-1.60317E+03 4.80794E-07-2.68542E-07-1.33663E-03
 -1   1000289-1.11636E-04-4.26829E-02-1.60319E+03 4.74986E-07-2.23961E-07-1.33745E-03
 -1   1000290-1.71588E-03-3.71407E-02-1.60317E+03 7.88615E-03-2.77852E-04-1.30747E-03
 -1   1000292-1.95222E-03-4.08421E-02-1.60319E+03 8.65752E-03-2.77985E-04-1.30828E-03
 -1   1000293-6.45440E-03-3.24024E-02-1.60317E+03 1.44089E-02-5.43324E-04-1.22113E-03
 -1   1000295-7.15424E-03-3.56401E-02-1.60319E+03 1.58182E-02-5.43631E-04-1.22189E-03
 -1   1000296-1.34372E-02-2.54203E-02-1.60317E+03 1.84407E-02-7.85576E-04-1.08144E-03
 -1   1000298-1.48198E-02-2.79749E-02-1.60319E+03 2.02441E-02-7.86025E-04-1.08213E-03
 -1   1000299-2.14559E-02-1.74020E-02-1.60317E+03 1.92834E-02-9.93340E-04-8.94384E-04
 -1   1000301-2.36226E-02-1.91723E-02-1.60319E+03 2.11691E-02-9.93921E-04-8.94962E-04
 -1   1000302-2.91240E-02-9.73407E-03-1.60317E+03 1.67917E-02-1.15757E-03-6.68322E-04
 -1   1000304-3.20402E-02-1.07544E-02-1.60319E+03 1.84336E-02-1.15826E-03-6.68770E-04
 -1   1000305-3.51160E-02-3.74279E-03-1.60317E+03 1.13968E-02-1.27122E-03-4.13214E-04
 -1   1000307-3.86177E-02-4.17723E-03-1.60319E+03 1.25111E-02-1.27198E-03-4.13504E-04
 -1   1000308-3.83958E-02-4.63427E-04-1.60317E+03 4.03136E-03-1.32936E-03-1.39869E-04
 -1   1000310-4.22179E-02-5.77231E-04-1.60319E+03 4.42549E-03-1.33017E-03-1.39991E-04
 -1   1000311-3.83960E-02-4.63528E-04-1.60317E+03-4.03155E-03-1.32934E-03 1.39667E-04
 -1   1000313-4.22180E-02-5.77327E-04-1.60319E+03-4.42566E-03-1.33017E-03 1.39716E-04
 -1   1000314-3.51163E-02-3.74310E-03-1.60317E+03-1.13972E-02-1.27127E-03 4.12978E-04
 -1   1000316-3.86179E-02-4.17750E-03-1.60319E+03-1.25115E-02-1.27205E-03 4.13212E-04
 -1   1000317-2.91244E-02-9.73500E-03-1.60317E+03-1.67919E-02-1.15756E-03 6.68356E-04
 -1   1000319-3.20405E-02-1.07553E-02-1.60319E+03-1.84337E-02-1.15826E-03 6.68785E-04
 -1   1000320-2.14563E-02-1.74024E-02-1.60317E+03-1.92829E-02-9.93268E-04 8.94507E-04
 -1   1000322-2.36229E-02-1.91727E-02-1.60319E+03-2.11685E-02-9.93817E-04 8.95123E-04
 -1   1000323-1.34381E-02-2.54194E-02-1.60317E+03-1.84400E-02-7.85570E-04 1.08143E-03
 -1   1000325-1.48209E-02-2.79743E-02-1.60319E+03-2.02437E-02-7.85918E-04 1.08219E-03
 -1   1000326-6.45533E-03-3.24016E-02-1.60317E+03-1.44100E-02-5.44198E-04 1.22096E-03
 -1   1000328-7.15534E-03-3.56402E-02-1.60319E+03-1.58197E-02-5.44360E-04 1.22178E-03
 -1   1000329-1.71413E-03-3.71421E-02-1.60317E+03-7.88766E-03-2.78137E-04 1.30722E-03
 -1   1000331-1.95057E-03-4.08449E-02-1.60319E+03-8.65932E-03-2.78191E-04 1.30804E-03
 -1   1000332 5.24993E+00 1.25150E+02-1.59241E+03-2.66914E+01-5.46630E-03-2.57166E-02
 -1   1000334 5.05160E+00 1.19233E+02-1.61396E+03-2.54184E+01-5.17202E-03-2.43321E-02
 -1   1000335-1.35965E+00-3.14097E+01-1.60595E+03 6.68958E+00 5.92128E-04 2.78609E-03
 -1   1000337-1.30861E+00-2.98891E+01-1.60041E+03 6.36243E+00 5.12686E-04 2.41236E-03
 -1   1000338 2.83082E-01 6.37896E+00-1.60256E+03-1.35703E+00 6.30111E-04 2.96480E-03
 -1   1000340 2.71525E-01 6.03532E+00-1.60380E+03-1.28310E+00 6.51881E-04 3.06726E-03
 -1   1000341 7.51479E-03 1.53661E-01-1.60324E+03-3.25342E-02-8.78153E-04-4.13110E-03
 -1   1000343 8.64764E-03 1.86977E-01-1.60312E+03-3.96988E-02-8.84432E-04-4.16059E-03
 -1   1000344-7.96159E-02-1.72168E+00-1.60326E+03 3.65547E-01 8.71838E-04 4.10181E-03
 -1   1000346-7.81410E-02-1.67748E+00-1.60310E+03 3.56037E-01 8.73898E-04 4.11153E-03
 -1   1000347 9.16988E-02 1.97122E+00-1.60307E+03-4.18409E-01-8.04703E-04-3.78580E-03
 -1   1000349 8.97038E-02 1.91162E+00-1.60329E+03-4.05586E-01-8.05612E-04-3.79004E-03
 -1   1000350-8.78900E-02-1.88319E+00-1.60329E+03 3.99659E-01 7.27865E-04 3.42432E-03
 -1   1000352-8.59193E-02-1.82435E+00-1.60307E+03 3.86999E-01 7.28408E-04 3.42692E-03
 -1   1000353 8.03993E-02 1.72015E+00-1.60308E+03-3.65032E-01-6.54434E-04-3.07904E-03
 -1   1000355 7.85827E-02 1.66593E+00-1.60328E+03-3.53366E-01-6.54867E-04-3.08104E-03
 -1   1000356-7.25493E-02-1.55126E+00-1.60327E+03 3.29183E-01 5.87464E-04 2.76363E-03
 -1   1000358-7.09067E-02-1.50224E+00-1.60309E+03 3.18634E-01 5.87822E-04 2.76535E-03
 -1   1000359 6.51942E-02 1.39368E+00-1.60310E+03-2.95739E-01-5.26976E-04-2.47927E-03
 -1   1000361 6.37173E-02 1.34960E+00-1.60326E+03-2.86255E-01-5.27307E-04-2.48078E-03
 -1   1000362-5.85106E-02-1.25069E+00-1.60325E+03 2.65397E-01 4.72676E-04 2.22375E-03
 -1   1000364-5.71850E-02-1.21113E+00-1.60311E+03 2.56884E-01 4.72955E-04 2.22510E-03
 -1   1000365 5.24920E-02 1.12201E+00-1.60312E+03-2.38090E-01-4.23932E-04-1.99447E-03
 -1   1000367 5.13027E-02 1.08651E+00-1.60325E+03-2.30452E-01-4.24199E-04-1.99568E-03
 -1   1000368-4.70876E-02-1.00648E+00-1.60324E+03 2.13574E-01 3.80230E-04 1.78877E-03
 -1   1000370-4.60207E-02-9.74636E-01-1.60312E+03 2.06723E-01 3.80449E-04 1.78986E-03
 -1   1000371 4.22387E-02 9.02833E-01-1.60313E+03-1.91581E-01-3.40948E-04-1.60423E-03
 -1   1000373 4.12816E-02 8.74269E-01-1.60323E+03-1.85435E-01-3.41166E-04-1.60520E-03
 -1   1000374-3.78896E-02-8.09872E-01-1.60323E+03 1.71854E-01 3.05879E-04 1.43870E-03
 -1   1000376-3.70311E-02-7.84249E-01-1.60313E+03 1.66341E-01 3.06054E-04 1.43958E-03
 -1   1000377 3.39891E-02 7.26501E-01-1.60314E+03-1.54163E-01-2.74182E-04-1.29025E-03
 -1   1000379 3.32189E-02 7.03515E-01-1.60322E+03-1.49218E-01-2.74361E-04-1.29103E-03
 -1   1000380-3.04912E-02-6.51735E-01-1.60322E+03 1.38298E-01 2.45985E-04 1.15700E-03
 -1   1000382-2.98004E-02-6.31115E-01-1.60314E+03 1.33861E-01 2.46120E-04 1.15770E-03
 -1   1000383 2.73544E-02 5.84689E-01-1.60315E+03-1.24071E-01-2.20471E-04-1.03754E-03
 -1   1000385 2.67346E-02 5.66190E-01-1.60321E+03-1.20090E-01-2.20619E-04-1.03817E-03
 -1   1000386-2.45418E-02-5.24568E-01-1.60321E+03 1.11313E-01 1.97803E-04 9.30326E-04
 -1   1000388-2.39857E-02-5.07971E-01-1.60315E+03 1.07742E-01 1.97907E-04 9.30893E-04
 -1   1000389 2.20197E-02 4.70661E-01-1.60315E+03-9.98740E-02-1.77293E-04-8.34171E-04
 -1   1000391 2.15208E-02 4.55770E-01-1.60321E+03-9.66701E-02-1.77420E-04-8.34673E-04
 -1   1000392-1.97586E-02-4.22329E-01-1.60321E+03 8.96181E-02 1.58943E-04 7.47858E-04
 -1   1000394-1.93109E-02-4.08968E-01-1.60316E+03 8.67432E-02 1.59020E-04 7.48315E-04
 -1   1000395 1.77314E-02 3.79001E-01-1.60316E+03-8.04237E-02-1.42511E-04-6.70387E-04
 -1   1000397 1.73296E-02 3.67009E-01-1.60320E+03-7.78437E-02-1.42617E-04-6.70790E-04
 -1   1000398-1.59144E-02-3.40161E-01-1.60320E+03 7.21819E-02 1.27699E-04 6.00919E-04
 -1   1000400-1.55538E-02-3.29399E-01-1.60316E+03 6.98664E-02 1.27754E-04 6.01287E-04
 -1   1000401 1.42857E-02 3.05350E-01-1.60316E+03-6.47952E-02-1.14495E-04-5.38518E-04
 -1   1000403 1.39620E-02 2.95689E-01-1.60320E+03-6.27166E-02-1.14589E-04-5.38839E-04
 -1   1000404-1.28264E-02-2.74157E-01-1.60320E+03 5.81759E-02 1.02539E-04 4.82496E-04
 -1   1000406-1.25358E-02-2.65483E-01-1.60316E+03 5.63097E-02 1.02574E-04 4.82795E-04
 -1   1000407 1.15188E-02 2.46211E-01-1.60317E+03-5.22459E-02-9.18964E-05-4.32196E-04
 -1   1000409 1.12578E-02 2.38421E-01-1.60320E+03-5.05699E-02-9.19862E-05-4.32451E-04
 -1   1000410-1.03480E-02-2.21182E-01-1.60319E+03 4.69346E-02 8.22433E-05 3.87075E-04
 -1   1000412-1.01136E-02-2.14184E-01-1.60317E+03 4.54290E-02 8.22539E-05 3.87318E-04
 -1   1000413 9.29932E-03 1.98772E-01-1.60317E+03-4.21794E-02-7.36814E-05-3.46447E-04
 -1   1000415 9.08861E-03 1.92483E-01-1.60319E+03-4.08263E-02-7.37683E-05-3.46648E-04
 -1   1000416-8.36141E-03-1.78717E-01-1.60319E+03 3.79237E-02 6.58284E-05 3.09986E-04
 -1   1000418-8.17196E-03-1.73063E-01-1.60317E+03 3.67071E-02 6.58230E-05 3.10184E-04
 -1   1000419 7.52188E-03 1.60779E-01-1.60317E+03-3.41173E-02-5.89563E-05-2.77176E-04
 -1   1000421 7.35144E-03 1.55692E-01-1.60319E+03-3.30228E-02-5.90375E-05-2.77335E-04
 -1   1000422-6.77203E-03-1.44746E-01-1.60319E+03 3.07150E-02 5.25976E-05 2.47640E-04
 -1   1000424-6.61859E-03-1.40166E-01-1.60317E+03 2.97297E-02 5.25811E-05 2.47801E-04
 -1   1000425 6.10178E-03 1.30427E-01-1.60317E+03-2.76765E-02-4.70372E-05-2.20993E-04
 -1   1000427 5.96351E-03 1.26300E-01-1.60319E+03-2.67887E-02-4.71197E-05-2.21116E-04
 -1   1000428-5.50457E-03-1.17653E-01-1.60319E+03 2.49659E-02 4.18346E-05 1.97111E-04
 -1   1000430-5.37985E-03-1.13930E-01-1.60317E+03 2.41650E-02 4.18027E-05 1.97241E-04
 -1   1000431 4.97173E-03 1.06273E-01-1.60317E+03-2.25509E-02-3.73143E-05-1.75440E-04
 -1   1000433 4.85907E-03 1.02910E-01-1.60319E+03-2.18275E-02-3.73919E-05-1.75534E-04
 -1   1000434-4.49861E-03-9.61510E-02-1.60319E+03 2.04032E-02 3.31271E-05 1.55857E-04
 -1   1000436-4.39669E-03-9.31091E-02-1.60318E+03 1.97487E-02 3.30908E-05 1.55961E-04
 -1   1000437 4.07806E-03 8.71686E-02-1.60318E+03-1.84971E-02-2.93551E-05-1.38173E-04
 -1   1000439 3.98565E-03 8.44104E-02-1.60319E+03-1.79037E-02-2.94356E-05-1.38243E-04
 -1   1000440-3.70626E-03-7.92183E-02-1.60319E+03 1.68101E-02 2.59957E-05 1.22057E-04
 -1   1000442-3.62229E-03-7.67122E-02-1.60318E+03 1.62709E-02 2.59424E-05 1.22143E-04
 -1   1000443 3.37810E-03 7.22068E-02-1.60318E+03-1.53222E-02-2.27852E-05-1.07474E-04
 -1   1000445 3.30154E-03 6.99220E-02-1.60318E+03-1.48306E-02-2.28750E-05-1.07522E-04
 -1   1000446-3.09019E-03-6.60503E-02-1.60318E+03 1.40160E-02 2.00562E-05 9.40699E-05
 -1   1000448-3.02019E-03-6.39609E-02-1.60318E+03 1.35664E-02 1.99886E-05 9.41430E-05
 -1   1000449 2.83863E-03 6.06768E-02-1.60318E+03-1.28755E-02-1.73203E-05-8.17787E-05
 -1   1000451 2.77430E-03 5.87567E-02-1.60318E+03-1.24624E-02-1.74121E-05-8.18108E-05
 -1   1000452-2.62104E-03-5.60209E-02-1.60318E+03 1.18877E-02 1.50329E-05 7.05520E-05
 -1   1000454-2.56166E-03-5.42489E-02-1.60318E+03 1.15065E-02 1.49566E-05 7.06109E-05
 -1   1000455 2.43412E-03 5.20300E-02-1.60318E+03-1.10406E-02-1.27548E-05-6.01521E-05
 -1   1000457 2.37896E-03 5.03834E-02-1.60318E+03-1.06863E-02-1.28488E-05-6.01715E-05
 -1   1000458-2.27631E-03-4.86539E-02-1.60318E+03 1.03245E-02 1.07875E-05 5.03378E-05
 -1   1000460-2.22475E-03-4.71151E-02-1.60318E+03 9.99337E-03 1.07044E-05 5.03889E-05
 -1   1000461 2.14538E-03 4.58555E-02-1.60318E+03-9.73039E-03-8.62346E-06-4.12544E-05
 -1   1000463 2.09675E-03 4.44041E-02-1.60318E+03-9.41812E-03-8.72601E-06-4.12602E-05
 -1   1000464-2.03964E-03-4.35988E-02-1.60318E+03 9.25183E-03 7.07030E-06 3.25645E-05
 -1   1000466-1.99345E-03-4.22201E-02-1.60318E+03 8.95517E-03 6.96575E-06 3.26048E-05
 -1   1000467 1.95851E-03 4.18594E-02-1.60318E+03-8.88230E-03-5.01689E-06-2.43712E-05
 -1   1000469 1.91411E-03 4.05343E-02-1.60318E+03-8.59721E-03-5.13625E-06-2.43651E-05
 -1   1000470-1.89978E-03-4.06118E-02-1.60318E+03 8.61805E-03 3.68397E-06 1.63375E-05
 -1   1000472-1.85676E-03-3.93278E-02-1.60318E+03 8.34177E-03 3.56165E-06 1.63729E-05
 -1   1000473 1.86422E-03 3.98395E-02-1.60318E+03-8.45364E-03-1.56034E-06-8.64071E-06
 -1   1000475 1.82197E-03 3.85783E-02-1.60318E+03-8.18232E-03-1.69980E-06-8.61863E-06
 -1   1000476-1.84816E-03-3.95065E-02-1.60318E+03 8.38351E-03 5.81079E-07 9.02727E-07
 -1   1000478-1.80635E-03-3.82585E-02-1.60318E+03 8.11497E-03 4.25166E-07 9.31681E-07
 -1   1000479 1.85057E-03 3.95329E-02-1.60318E+03-8.38820E-03 1.79802E-06 6.50818E-06
 -1   1000481 1.80873E-03 3.82841E-02-1.60318E+03-8.11955E-03 1.63053E-06 6.54540E-06
 -1   1000482 2.12892E+01 1.09110E+02-1.59241E+03-4.87676E+01-1.06935E-02-2.40182E-02
 -1   1000484 2.03259E+01 1.03959E+02-1.61396E+03-4.64417E+01-1.01178E-02-2.27251E-02
 -1   1000485-5.37953E+00-2.73898E+01-1.60595E+03 1.22225E+01 1.15858E-03 2.60203E-03
 -1   1000487-5.13190E+00-2.60658E+01-1.60041E+03 1.16247E+01 1.00317E-03 2.25299E-03
 -1   1000488 1.09854E+00 5.56350E+00-1.60256E+03-2.47942E+00 1.23288E-03 2.76894E-03
 -1   1000490 1.04256E+00 5.26428E+00-1.60380E+03-2.34435E+00 1.27548E-03 2.86463E-03
 -1   1000491 2.70652E-02 1.34111E-01-1.60324E+03-5.94430E-02-1.71778E-03-3.85827E-03
 -1   1000493 3.25033E-02 1.63122E-01-1.60312E+03-7.25333E-02-1.73005E-03-3.88582E-03
 -1   1000494-2.99279E-01-1.50202E+00-1.60326E+03 6.67887E-01 1.70564E-03 3.83090E-03
 -1   1000496-2.92089E-01-1.46354E+00-1.60310E+03 6.50512E-01 1.70968E-03 3.83998E-03
 -1   1000497 3.43128E-01 1.71980E+00-1.60307E+03-7.64472E-01-1.57422E-03-3.53579E-03
 -1   1000499 3.33427E-01 1.66790E+00-1.60329E+03-7.41042E-01-1.57598E-03-3.53975E-03
 -1   1000500-3.28051E-01-1.64302E+00-1.60329E+03 7.30212E-01 1.42394E-03 3.19816E-03
 -1   1000502-3.18474E-01-1.59179E+00-1.60307E+03 7.07083E-01 1.42501E-03 3.20059E-03
 -1   1000503 2.99753E-01 1.50080E+00-1.60308E+03-6.66947E-01-1.28031E-03-2.87568E-03
 -1   1000505 2.90926E-01 1.45358E+00-1.60328E+03-6.45631E-01-1.28115E-03-2.87755E-03
 -1   1000506-2.70361E-01-1.35345E+00-1.60327E+03 6.01446E-01 1.14919E-03 2.58110E-03
 -1   1000508-2.62379E-01-1.31076E+00-1.60309E+03 5.82174E-01 1.14989E-03 2.58271E-03
 -1   1000509 2.42909E-01 1.21596E+00-1.60310E+03-5.40342E-01-1.03093E-03-2.31552E-03
 -1   1000511 2.35733E-01 1.17758E+00-1.60326E+03-5.23014E-01-1.03157E-03-2.31692E-03
 -1   1000512-2.17992E-01-1.09121E+00-1.60325E+03 4.84904E-01 9.24717E-04 2.07688E-03
 -1   1000514-2.11551E-01-1.05676E+00-1.60311E+03 4.69350E-01 9.25263E-04 2.07815E-03
 -1   1000515 1.95564E-01 9.78937E-01-1.60312E+03-4.35012E-01-8.29300E-04-1.86276E-03
 -1   1000517 1.89785E-01 9.48029E-01-1.60325E+03-4.21057E-01-8.29817E-04-1.86388E-03
 -1   1000518-1.75428E-01-8.78139E-01-1.60324E+03 3.90220E-01 7.43871E-04 1.67060E-03
 -1   1000520-1.70244E-01-8.50412E-01-1.60312E+03 3.77702E-01 7.44308E-04 1.67162E-03
 -1   1000521 1.57363E-01 7.87709E-01-1.60313E+03-3.50035E-01-6.67014E-04-1.49831E-03
 -1   1000523 1.52712E-01 7.62838E-01-1.60323E+03-3.38806E-01-6.67433E-04-1.49921E-03
 -1   1000524-1.41160E-01-7.06602E-01-1.60323E+03 3.13993E-01 5.98307E-04 1.34367E-03
 -1   1000526-1.36988E-01-6.84291E-01-1.60313E+03 3.03921E-01 5.98653E-04 1.34449E-03
 -1   1000527 1.26628E-01 6.33862E-01-1.60314E+03-2.81670E-01-5.36482E-04-1.20503E-03
 -1   1000529 1.22886E-01 6.13848E-01-1.60322E+03-2.72634E-01-5.36827E-04-1.20575E-03
 -1   1000530-1.13597E-01-5.68629E-01-1.60322E+03 2.52682E-01 4.81139E-04 1.08060E-03
 -1   1000532-1.10240E-01-5.50675E-01-1.60314E+03 2.44577E-01 4.81409E-04 1.08126E-03
 -1   1000533 1.01911E-01 5.10132E-01-1.60315E+03-2.26688E-01-4.31374E-04-9.69041E-04
 -1   1000535 9.88990E-02 4.94025E-01-1.60321E+03-2.19416E-01-4.31656E-04-9.69620E-04
 -1   1000536-9.14316E-02-4.57678E-01-1.60321E+03 2.03379E-01 3.86926E-04 8.68865E-04
 -1   1000538-8.87298E-02-4.43227E-01-1.60315E+03 1.96855E-01 3.87140E-04 8.69401E-04
 -1   1000539 8.20357E-02 4.10645E-01-1.60315E+03-1.82479E-01-3.46815E-04-7.79073E-04
 -1   1000541 7.96115E-02 3.97679E-01-1.60321E+03-1.76625E-01-3.47048E-04-7.79536E-04
 -1   1000542-7.36116E-02-3.68476E-01-1.60321E+03 1.63740E-01 3.10998E-04 6.98436E-04
 -1   1000544-7.14363E-02-3.56842E-01-1.60316E+03 1.58488E-01 3.11165E-04 6.98869E-04
 -1   1000545 6.60593E-02 3.30673E-01-1.60316E+03-1.46941E-01-2.78729E-04-6.26139E-04
 -1   1000547 6.41072E-02 3.20232E-01-1.60320E+03-1.42228E-01-2.78918E-04-6.26510E-04
 -1   1000548-5.92896E-02-2.96785E-01-1.60320E+03 1.31883E-01 2.49882E-04 5.61228E-04
 -1   1000550-5.75376E-02-2.87415E-01-1.60316E+03 1.27652E-01 2.50009E-04 5.61579E-04
 -1   1000551 5.32223E-02 2.66414E-01-1.60316E+03-1.18387E-01-2.23965E-04-5.02957E-04
 -1   1000553 5.16495E-02 2.58002E-01-1.60320E+03-1.14589E-01-2.24129E-04-5.03249E-04
 -1   1000554-4.77852E-02-2.39198E-01-1.60320E+03 1.06293E-01 2.00594E-04 4.50627E-04
 -1   1000556-4.63732E-02-2.31646E-01-1.60316E+03 1.02883E-01 2.00686E-04 4.50913E-04
 -1   1000557 4.29144E-02 2.14816E-01-1.60317E+03-9.54579E-02-1.79752E-04-4.03651E-04
 -1   1000559 4.16462E-02 2.08033E-01-1.60320E+03-9.23957E-02-1.79893E-04-4.03881E-04
 -1   1000560-3.85517E-02-1.92978E-01-1.60319E+03 8.57538E-02 1.60934E-04 3.61528E-04
 -1   1000562-3.74125E-02-1.86885E-01-1.60317E+03 8.30029E-02 1.60997E-04 3.61762E-04
 -1   1000563 3.46458E-02 1.73426E-01-1.60317E+03-7.70655E-02-1.44105E-04-3.23569E-04
 -1   1000565 3.36220E-02 1.67950E-01-1.60319E+03-7.45933E-02-1.44233E-04-3.23746E-04
 -1   1000566-3.11502E-02-1.55928E-01-1.60319E+03 6.92900E-02 1.28834E-04 2.89517E-04
 -1   1000568-3.02297E-02-1.51005E-01-1.60317E+03 6.70673E-02 1.28867E-04 2.89713E-04
 -1   1000569 2.80236E-02 1.40278E-01-1.60317E+03-6.23353E-02-1.15289E-04-2.58835E-04
 -1   1000571 2.71955E-02 1.35848E-01-1.60319E+03-6.03356E-02-1.15405E-04-2.58972E-04
 -1   1000572-2.52291E-02-1.26289E-01-1.60319E+03 5.61191E-02 1.02926E-04 2.31286E-04
 -1   1000574-2.44835E-02-1.22301E-01-1.60317E+03 5.43189E-02 1.02940E-04 2.31448E-04
 -1   1000575 2.27332E-02 1.13796E-01-1.60317E+03-5.05675E-02-9.19600E-05-2.06423E-04
 -1   1000577 2.20614E-02 1.10203E-01-1.60319E+03-4.89453E-02-9.20682E-05-2.06525E-04
 -1   1000578-2.05067E-02-1.02650E-01-1.60319E+03 4.56148E-02 8.19308E-05 1.84102E-04
 -1   1000580-1.99008E-02-9.94093E-02-1.60317E+03 4.41515E-02 8.19241E-05 1.84240E-04
 -1   1000581 1.85232E-02 9.27212E-02-1.60317E+03-4.12027E-02-7.29385E-05-1.63853E-04
 -1   1000583 1.79758E-02 8.97936E-02-1.60319E+03-3.98809E-02-7.30456E-05-1.63925E-04
 -1   1000584-1.67590E-02-8.38904E-02-1.60319E+03 3.72785E-02 6.48386E-05 1.45525E-04
 -1   1000586-1.62638E-02-8.12417E-02-1.60318E+03 3.60827E-02 6.48083E-05 1.45644E-04
 -1   1000587 1.51933E-02 7.60533E-02-1.60318E+03-3.37958E-02-5.74201E-05-1.29064E-04
 -1   1000589 1.47444E-02 7.36519E-02-1.60319E+03-3.27116E-02-5.75310E-05-1.29110E-04
 -1   1000590-1.38077E-02-6.91169E-02-1.60319E+03 3.07136E-02 5.08245E-05 1.14002E-04
 -1   1000592-1.33997E-02-6.69347E-02-1.60318E+03 2.97284E-02 5.07763E-05 1.14106E-04
 -1   1000593 1.25855E-02 6.29994E-02-1.60318E+03-2.79950E-02-4.46041E-05-1.00330E-04
 -1   1000595 1.22135E-02 6.10102E-02-1.60318E+03-2.70969E-02-4.47145E-05-1.00354E-04
 -1   1000596-1.15127E-02-5.76280E-02-1.60318E+03 2.56083E-02 3.91620E-05 8.78535E-05
 -1   1000598-1.11725E-02-5.58085E-02-1.60318E+03 2.47868E-02 3.90994E-05 8.79452E-05
 -1   1000599 1.05757E-02 5.29396E-02-1.60318E+03-2.35248E-02-3.39742E-05-7.64461E-05
 -1   1000601 1.02632E-02 5.12680E-02-1.60318E+03-2.27701E-02-3.40855E-05-7.64510E-05
 -1   1000602-9.76456E-03-4.88777E-02-1.60318E+03 2.17198E-02 2.94352E-05 6.58538E-05
 -1   1000604-9.47603E-03-4.73345E-02-1.60318E+03 2.10231E-02 2.93544E-05 6.59360E-05
 -1   1000605 9.06861E-03 4.53952E-02-1.60318E+03-2.01723E-02-2.48250E-05-5.62066E-05
 -1   1000607 8.80061E-03 4.39618E-02-1.60318E+03-1.95251E-02-2.49513E-05-5.61927E-05
 -1   1000608-8.48053E-03-4.24500E-02-1.60318E+03 1.88637E-02 2.11588E-05 4.69230E-05
 -1   1000610-8.22995E-03-4.11098E-02-1.60318E+03 1.82586E-02 2.10522E-05 4.70027E-05
 -1   1000611 7.99242E-03 4.00082E-02-1.60318E+03-1.77783E-02-1.69109E-05-3.86434E-05
 -1   1000613 7.75622E-03 3.87448E-02-1.60318E+03-1.72080E-02-1.70490E-05-3.86124E-05
 -1   1000614-7.59936E-03-3.80395E-02-1.60318E+03 1.69038E-02 1.37989E-05 3.03606E-05
 -1   1000616-7.37482E-03-3.68386E-02-1.60318E+03 1.63616E-02 1.36664E-05 3.04430E-05
 -1   1000617 7.29585E-03 3.65215E-02-1.60318E+03-1.62289E-02-9.88903E-06-2.28347E-05
 -1   1000619 7.08023E-03 3.53682E-02-1.60318E+03-1.57082E-02-1.00467E-05-2.27799E-05
 -1   1000620-7.07874E-03-3.54334E-02-1.60318E+03 1.57459E-02 7.04714E-06 1.51534E-05
 -1   1000622-6.86959E-03-3.43149E-02-1.60318E+03 1.52409E-02 6.88823E-06 1.52338E-05
 -1   1000623 6.94381E-03 3.47591E-02-1.60318E+03-1.54456E-02-3.29515E-06-8.16791E-06
 -1   1000625 6.73862E-03 3.36616E-02-1.60318E+03-1.49502E-02-3.47631E-06-8.09270E-06
 -1   1000626-6.88593E-03-3.44691E-02-1.60318E+03 1.53173E-02 8.03018E-07 6.68411E-07
 -1   1000628-6.68261E-03-3.33818E-02-1.60318E+03 1.48264E-02 6.04008E-07 7.59281E-07
 -1   1000629 6.89053E-03 3.44912E-02-1.60318E+03-1.53262E-02 3.45941E-06 6.02694E-06
 -1   1000631 6.68741E-03 3.34047E-02-1.60318E+03-1.48357E-02 3.24233E-06 6.13516E-06
 -1   1000632 4.49211E+01 8.54784E+01-1.59241E+03-6.24114E+01-1.54534E-02-2.12701E-02
 -1   1000634 4.28307E+01 8.14538E+01-1.61396E+03-5.94348E+01-1.46214E-02-2.01249E-02
 -1   1000635-1.13023E+01-2.14671E+01-1.60595E+03 1.56420E+01 1.67434E-03 2.30422E-03
 -1   1000637-1.07650E+01-2.04327E+01-1.60041E+03 1.48770E+01 1.44977E-03 1.99511E-03
 -1   1000638 2.30002E+00 4.36202E+00-1.60256E+03-3.17309E+00 1.78168E-03 2.45202E-03
 -1   1000640 2.17859E+00 4.12825E+00-1.60380E+03-3.00023E+00 1.84326E-03 2.53676E-03
 -1   1000641 5.58701E-02 1.05306E-01-1.60324E+03-7.60735E-02-2.48237E-03-3.41686E-03
 -1   1000643 6.76516E-02 1.27974E-01-1.60312E+03-9.28261E-02-2.50009E-03-3.44126E-03
 -1   1000644-6.22924E-01-1.17837E+00-1.60326E+03 8.54744E-01 2.46491E-03 3.39255E-03
 -1   1000646-6.07315E-01-1.14831E+00-1.60310E+03 8.32507E-01 2.47075E-03 3.40059E-03
 -1   1000647 7.13576E-01 1.34935E+00-1.60307E+03-9.78351E-01-2.27492E-03-3.13125E-03
 -1   1000649 6.92522E-01 1.30881E+00-1.60329E+03-9.48365E-01-2.27747E-03-3.13476E-03
 -1   1000650-6.81898E-01-1.28918E+00-1.60329E+03 9.34506E-01 2.05777E-03 2.83218E-03
 -1   1000652-6.61112E-01-1.24916E+00-1.60307E+03 9.04905E-01 2.05932E-03 2.83433E-03
 -1   1000653 6.22943E-01 1.17761E+00-1.60308E+03-8.53541E-01-1.85021E-03-2.54666E-03
 -1   1000655 6.03787E-01 1.14072E+00-1.60328E+03-8.26261E-01-1.85142E-03-2.54832E-03
 -1   1000656-5.61810E-01-1.06200E+00-1.60327E+03 7.69715E-01 1.66074E-03 2.28577E-03
 -1   1000658-5.44489E-01-1.02865E+00-1.60309E+03 7.45050E-01 1.66176E-03 2.28720E-03
 -1   1000659 5.04748E-01 9.54122E-01-1.60310E+03-6.91515E-01-1.48979E-03-2.05058E-03
 -1   1000661 4.89175E-01 9.24138E-01-1.60326E+03-6.69339E-01-1.49071E-03-2.05182E-03
 -1   1000662-4.52967E-01-8.56236E-01-1.60325E+03 6.20567E-01 1.33635E-03 1.83921E-03
 -1   1000664-4.38989E-01-8.29322E-01-1.60311E+03 6.00661E-01 1.33715E-03 1.84034E-03
 -1   1000665 4.06363E-01 7.68139E-01-1.60312E+03-5.56716E-01-1.19844E-03-1.64965E-03
 -1   1000667 3.93822E-01 7.43993E-01-1.60325E+03-5.38858E-01-1.19918E-03-1.65063E-03
 -1   1000668-3.64521E-01-6.89046E-01-1.60324E+03 4.99393E-01 1.07495E-03 1.47942E-03
 -1   1000670-3.53271E-01-6.67385E-01-1.60312E+03 4.83372E-01 1.07558E-03 1.48033E-03
 -1   1000671 3.26983E-01 6.18089E-01-1.60313E+03-4.47966E-01-9.63994E-04-1.32689E-03
 -1   1000673 3.16892E-01 5.98659E-01-1.60323E+03-4.33595E-01-9.64596E-04-1.32768E-03
 -1   1000674-2.93315E-01-5.54447E-01-1.60323E+03 4.01840E-01 8.64574E-04 1.18992E-03
 -1   1000676-2.84262E-01-5.37017E-01-1.60313E+03 3.88950E-01 8.65078E-04 1.19066E-03
 -1   1000677 2.63120E-01 4.97370E-01-1.60314E+03-3.60473E-01-7.75302E-04-1.06713E-03
 -1   1000679 2.55000E-01 4.81735E-01-1.60322E+03-3.48910E-01-7.75794E-04-1.06776E-03
 -1   1000680-2.36042E-01-4.46184E-01-1.60322E+03 3.23376E-01 6.95285E-04 9.56972E-04
 -1   1000682-2.28757E-01-4.32158E-01-1.60314E+03 3.13002E-01 6.95682E-04 9.57570E-04
 -1   1000683 2.11759E-01 4.00284E-01-1.60315E+03-2.90109E-01-6.23439E-04-8.58164E-04
 -1   1000685 2.05224E-01 3.87701E-01-1.60321E+03-2.80803E-01-6.23839E-04-8.58668E-04
 -1   1000686-1.89985E-01-3.59125E-01-1.60321E+03 2.60279E-01 5.59108E-04 7.69430E-04
 -1   1000688-1.84122E-01-3.47835E-01-1.60315E+03 2.51929E-01 5.59425E-04 7.69912E-04
 -1   1000689 1.70461E-01 3.22220E-01-1.60315E+03-2.33532E-01-5.01202E-04-6.89947E-04
 -1   1000691 1.65201E-01 3.12090E-01-1.60321E+03-2.26040E-01-5.01529E-04-6.90349E-04
 -1   1000692-1.52957E-01-2.89131E-01-1.60321E+03 2.09550E-01 4.49447E-04 6.18508E-04
 -1   1000694-1.48236E-01-2.80042E-01-1.60316E+03 2.02828E-01 4.49695E-04 6.18899E-04
 -1   1000695 1.37264E-01 2.59468E-01-1.60316E+03-1.88052E-01-4.02806E-04-5.54563E-04
 -1   1000697 1.33028E-01 2.51311E-01-1.60320E+03-1.82019E-01-4.03073E-04-5.54883E-04
 -1   1000698-1.23197E-01-2.32878E-01-1.60320E+03 1.68780E-01 3.61159E-04 4.96956E-04
 -1   1000700-1.19395E-01-2.25557E-01-1.60316E+03 1.63366E-01 3.61352E-04 4.97277E-04
 -1   1000701 1.10590E-01 2.09046E-01-1.60316E+03-1.51508E-01-3.23564E-04-4.45414E-04
 -1   1000703 1.07177E-01 2.02474E-01-1.60320E+03-1.46648E-01-3.23790E-04-4.45663E-04
 -1   1000704-9.92926E-02-1.87691E-01-1.60320E+03 1.36031E-01 2.89947E-04 3.99048E-04
 -1   1000706-9.62282E-02-1.81791E-01-1.60316E+03 1.31667E-01 2.90091E-04 3.99312E-04
 -1   1000707 8.91715E-02 1.68559E-01-1.60317E+03-1.22164E-01-2.59699E-04-3.57502E-04
 -1   1000709 8.64194E-02 1.63260E-01-1.60320E+03-1.18245E-01-2.59886E-04-3.57698E-04
 -1   1000710-8.01063E-02-1.51423E-01-1.60319E+03 1.09746E-01 2.32617E-04 3.20096E-04
 -1   1000712-7.76340E-02-1.46663E-01-1.60317E+03 1.06225E-01 2.32729E-04 3.20312E-04
 -1   1000713 7.19903E-02 1.36082E-01-1.60317E+03-9.86263E-02-2.08195E-04-2.86564E-04
 -1   1000715 6.97685E-02 1.31804E-01-1.60319E+03-9.54624E-02-2.08354E-04-2.86714E-04
 -1   1000716-6.47268E-02-1.22352E-01-1.60319E+03 8.86756E-02 1.86271E-04 2.56406E-04
 -1   1000718-6.27292E-02-1.18505E-01-1.60317E+03 8.58310E-02 1.86347E-04 2.56590E-04
 -1   1000719 5.82302E-02 1.10071E-01-1.60317E+03-7.97750E-02-1.66526E-04-2.29226E-04
 -1   1000721 5.64331E-02 1.06611E-01-1.60319E+03-7.72159E-02-1.66664E-04-2.29338E-04
 -1   1000722-5.24232E-02-9.90944E-02-1.60319E+03 7.18197E-02 1.48800E-04 2.04812E-04
 -1   1000724-5.08053E-02-9.59794E-02-1.60317E+03 6.95158E-02 1.48849E-04 2.04965E-04
 -1   1000725 4.72374E-02 8.92917E-02-1.60317E+03-6.47148E-02-1.32850E-04-1.82861E-04
 -1   1000727 4.57795E-02 8.64847E-02-1.60319E+03-6.26388E-02-1.32975E-04-1.82940E-04
 -1   1000728-4.26108E-02-8.05463E-02-1.60319E+03 5.83768E-02 1.18452E-04 1.62985E-04
 -1   1000730-4.12957E-02-7.80142E-02-1.60317E+03 5.65041E-02 1.18477E-04 1.63117E-04
 -1   1000731 3.84893E-02 7.27553E-02-1.60317E+03-5.27299E-02-1.05390E-04-1.45104E-04
 -1   1000733 3.73014E-02 7.04682E-02-1.60319E+03-5.10384E-02-1.05505E-04-1.45154E-04
 -1   1000734-3.48234E-02-6.58260E-02-1.60319E+03 4.77081E-02 9.36840E-05 1.28892E-04
 -1   1000736-3.37487E-02-6.37567E-02-1.60318E+03 4.61776E-02 9.36819E-05 1.29012E-04
 -1   1000737 3.15701E-02 5.96765E-02-1.60318E+03-4.32510E-02-8.29762E-05-1.14274E-04
 -1   1000739 3.05958E-02 5.78005E-02-1.60319E+03-4.18635E-02-8.30888E-05-1.14295E-04
 -1   1000740-2.86910E-02-5.42337E-02-1.60319E+03 3.93065E-02 7.33910E-05 1.00935E-04
 -1   1000742-2.78055E-02-5.25288E-02-1.60318E+03 3.80455E-02 7.33735E-05 1.01042E-04
 -1   1000743 2.61513E-02 4.94335E-02-1.60318E+03-3.58273E-02-6.45324E-05-8.88711E-05
 -1   1000745 2.53443E-02 4.78796E-02-1.60318E+03-3.46781E-02-6.46370E-05-8.88794E-05
 -1   1000746-2.39219E-02-4.52189E-02-1.60318E+03 3.27728E-02 5.65479E-05 7.77811E-05
 -1   1000748-2.31835E-02-4.37973E-02-1.60318E+03 3.17214E-02 5.65110E-05 7.78822E-05
 -1   1000749 2.19754E-02 4.15398E-02-1.60318E+03-3.01063E-02-4.91349E-05-6.77441E-05
 -1   1000751 2.12973E-02 4.02340E-02-1.60318E+03-2.91406E-02-4.92417E-05-6.77282E-05
 -1   1000752-2.02896E-02-3.83527E-02-1.60318E+03 2.77966E-02 4.24612E-05 5.82708E-05
 -1   1000754-1.96633E-02-3.71470E-02-1.60318E+03 2.69048E-02 4.24013E-05 5.83702E-05
 -1   1000755 1.88436E-02 3.56199E-02-1.60318E+03-2.58158E-02-3.59950E-05-4.97624E-05
 -1   1000757 1.82621E-02 3.45003E-02-1.60318E+03-2.49878E-02-3.61100E-05-4.97229E-05
 -1   1000758-1.76215E-02-3.33092E-02-1.60318E+03 2.41412E-02 3.03895E-05 4.15870E-05
 -1   1000760-1.70776E-02-3.22620E-02-1.60318E+03 2.33667E-02 3.03065E-05 4.16863E-05
 -1   1000761 1.66073E-02 3.13930E-02-1.60318E+03-2.27523E-02-2.46757E-05-3.42278E-05
 -1   1000763 1.60949E-02 3.04063E-02-1.60318E+03-2.20225E-02-2.47981E-05-3.41682E-05
 -1   1000764-1.57908E-02-2.98485E-02-1.60318E+03 2.16330E-02 1.97277E-05 2.68826E-05
 -1   1000766-1.53034E-02-2.89100E-02-1.60318E+03 2.09389E-02 1.96254E-05 2.69843E-05
 -1   1000767 1.51598E-02 2.86570E-02-1.60318E+03-2.07694E-02-1.45162E-05-2.02069E-05
 -1   1000769 1.46921E-02 2.77563E-02-1.60318E+03-2.01033E-02-1.46445E-05-2.01300E-05
 -1   1000770-1.47092E-02-2.78036E-02-1.60318E+03 2.01510E-02 9.93256E-06 1.34711E-05
 -1   1000772-1.42551E-02-2.69294E-02-1.60318E+03 1.95044E-02 9.81018E-06 1.35733E-05
 -1   1000773 1.44281E-02 2.72741E-02-1.60318E+03-1.97671E-02-5.13083E-06-7.20789E-06
 -1   1000775 1.39830E-02 2.64172E-02-1.60318E+03-1.91333E-02-5.27095E-06-7.10911E-06
 -1   1000776-1.43094E-02-2.70471E-02-1.60318E+03 1.96026E-02 5.45102E-07 7.64647E-07
 -1   1000778-1.38678E-02-2.61971E-02-1.60318E+03 1.89739E-02 4.02841E-07 8.69397E-07
 -1   1000779 1.43166E-02 2.70636E-02-1.60318E+03-1.96144E-02 3.89771E-06 5.76720E-06
 -1   1000781 1.38761E-02 2.62155E-02-1.60318E+03-1.89871E-02 3.75750E-06 5.87991E-06
 -1   1000782 7.20592E+01 5.83403E+01-1.59241E+03-6.52638E+01-1.95380E-02-1.75924E-02
 -1   1000784 6.86746E+01 5.56099E+01-1.61396E+03-6.21511E+01-1.84861E-02-1.66452E-02
 -1   1000785-1.81039E+01-1.46655E+01-1.60595E+03 1.63569E+01 2.11682E-03 1.90571E-03
 -1   1000787-1.72340E+01-1.39638E+01-1.60041E+03 1.55569E+01 1.83289E-03 1.65005E-03
 -1   1000788 3.67977E+00 2.98228E+00-1.60256E+03-3.31811E+00 2.25256E-03 2.02800E-03
 -1   1000790 3.48317E+00 2.82367E+00-1.60380E+03-3.13735E+00 2.33041E-03 2.09809E-03
 -1   1000791 8.89490E-02 7.22269E-02-1.60324E+03-7.95502E-02-3.13853E-03-2.82611E-03
 -1   1000793 1.08015E-01 8.76103E-02-1.60312E+03-9.70684E-02-3.16094E-03-2.84628E-03
 -1   1000794-9.94590E-01-8.06704E-01-1.60326E+03 8.93808E-01 3.11642E-03 2.80590E-03
 -1   1000796-9.69312E-01-7.86314E-01-1.60310E+03 8.70555E-01 3.12380E-03 2.81255E-03
 -1   1000797 1.13899E+00 9.23934E-01-1.60307E+03-1.02306E+00-2.87618E-03-2.58987E-03
 -1   1000799 1.10490E+00 8.96432E-01-1.60329E+03-9.91708E-01-2.87941E-03-2.59276E-03
 -1   1000800-1.08825E+00-8.82828E-01-1.60329E+03 9.77215E-01 2.60168E-03 2.34241E-03
 -1   1000802-1.05459E+00-8.55678E-01-1.60307E+03 9.46262E-01 2.60365E-03 2.34420E-03
 -1   1000803 9.94086E-01 8.06464E-01-1.60308E+03-8.92549E-01-2.33923E-03-2.10639E-03
 -1   1000805 9.63068E-01 7.81443E-01-1.60328E+03-8.64023E-01-2.34076E-03-2.10775E-03
 -1   1000806-8.96503E-01-7.27308E-01-1.60327E+03 8.04892E-01 2.09976E-03 1.89049E-03
 -1   1000808-8.68458E-01-7.04684E-01-1.60309E+03 7.79101E-01 2.10105E-03 1.89168E-03
 -1   1000809 8.05438E-01 6.53432E-01-1.60310E+03-7.23119E-01-1.88351E-03-1.69609E-03
 -1   1000811 7.80222E-01 6.33091E-01-1.60326E+03-6.99929E-01-1.88466E-03-1.69712E-03
 -1   1000812-7.22806E-01-5.86396E-01-1.60325E+03 6.48928E-01 1.68958E-03 1.52110E-03
 -1   1000814-7.00173E-01-5.68138E-01-1.60311E+03 6.28113E-01 1.69060E-03 1.52204E-03
 -1   1000815 6.48438E-01 5.26063E-01-1.60312E+03-5.82160E-01-1.51519E-03-1.36447E-03
 -1   1000817 6.28132E-01 5.09683E-01-1.60325E+03-5.63485E-01-1.51612E-03-1.36529E-03
 -1   1000818-5.81670E-01-4.71896E-01-1.60324E+03 5.22216E-01 1.35907E-03 1.22358E-03
 -1   1000820-5.63454E-01-4.57202E-01-1.60312E+03 5.05464E-01 1.35988E-03 1.22434E-03
 -1   1000821 5.21771E-01 4.23301E-01-1.60313E+03-4.68439E-01-1.21879E-03-1.09747E-03
 -1   1000823 5.05431E-01 4.10120E-01-1.60323E+03-4.53411E-01-1.21955E-03-1.09812E-03
 -1   1000824-4.68046E-01-3.79715E-01-1.60323E+03 4.20205E-01 1.09308E-03 9.84149E-04
 -1   1000826-4.53388E-01-3.67891E-01-1.60313E+03 4.06725E-01 1.09373E-03 9.84764E-04
 -1   1000827 4.19864E-01 3.40626E-01-1.60314E+03-3.76948E-01-9.80216E-04-8.82640E-04
 -1   1000829 4.06715E-01 3.30019E-01-1.60322E+03-3.64855E-01-9.80827E-04-8.83157E-04
 -1   1000830-3.76654E-01-3.05571E-01-1.60322E+03 3.38155E-01 8.79083E-04 7.91491E-04
 -1   1000832-3.64859E-01-2.96056E-01-1.60314E+03 3.27307E-01 8.79597E-04 7.91991E-04
 -1   1000833 3.37907E-01 2.74136E-01-1.60315E+03-3.03368E-01-7.88231E-04-7.09805E-04
 -1   1000835 3.27325E-01 2.65600E-01-1.60321E+03-2.93636E-01-7.88728E-04-7.10214E-04
 -1   1000836-3.03162E-01-2.45948E-01-1.60321E+03 2.72174E-01 7.06862E-04 6.36361E-04
 -1   1000838-2.93667E-01-2.38289E-01-1.60315E+03 2.63443E-01 7.07272E-04 6.36768E-04
 -1   1000839 2.72007E-01 2.20674E-01-1.60315E+03-2.44204E-01-6.33694E-04-5.70672E-04
 -1   1000841 2.63489E-01 2.13802E-01-1.60321E+03-2.36370E-01-6.34098E-04-5.70995E-04
 -1   1000842-2.44075E-01-1.98013E-01-1.60321E+03 2.19127E-01 5.68214E-04 5.11536E-04
 -1   1000844-2.36432E-01-1.91847E-01-1.60316E+03 2.12098E-01 5.68537E-04 5.11871E-04
 -1   1000845 2.19034E-01 1.77698E-01-1.60316E+03-1.96646E-01-5.09299E-04-4.58691E-04
 -1   1000847 2.12175E-01 1.72164E-01-1.60320E+03-1.90338E-01-5.09630E-04-4.58945E-04
 -1   1000848-1.96588E-01-1.59487E-01-1.60320E+03 1.76494E-01 4.56613E-04 4.10989E-04
 -1   1000850-1.90431E-01-1.54521E-01-1.60316E+03 1.70832E-01 4.56867E-04 4.11264E-04
 -1   1000851 1.76470E-01 1.43166E-01-1.60316E+03-1.58432E-01-4.09069E-04-3.68430E-04
 -1   1000853 1.70944E-01 1.38708E-01-1.60320E+03-1.53350E-01-4.09341E-04-3.68625E-04
 -1   1000854-1.58443E-01-1.28541E-01-1.60320E+03 1.42248E-01 3.66611E-04 3.30056E-04
 -1   1000856-1.53481E-01-1.24538E-01-1.60316E+03 1.37684E-01 3.66808E-04 3.30287E-04
 -1   1000857 1.42292E-01 1.15438E-01-1.60317E+03-1.27748E-01-3.28350E-04-2.95713E-04
 -1   1000859 1.37836E-01 1.11844E-01-1.60320E+03-1.23650E-01-3.28574E-04-2.95866E-04
 -1   1000860-1.27827E-01-1.03703E-01-1.60319E+03 1.14761E-01 2.94092E-04 2.64686E-04
 -1   1000862-1.23824E-01-1.00474E-01-1.60317E+03 1.11080E-01 2.94248E-04 2.64872E-04
 -1   1000863 1.14876E-01 9.31963E-02-1.60317E+03-1.03134E-01-2.63160E-04-2.37060E-04
 -1   1000865 1.11278E-01 9.02942E-02-1.60319E+03-9.98253E-02-2.63343E-04-2.37177E-04
 -1   1000866-1.03285E-01-8.37930E-02-1.60319E+03 9.27283E-02 2.35561E-04 2.12006E-04
 -1   1000868-1.00051E-01-8.11838E-02-1.60317E+03 8.97536E-02 2.35682E-04 2.12159E-04
 -1   1000869 9.29185E-02 7.53828E-02-1.60317E+03-8.34209E-02-2.10524E-04-1.89683E-04
 -1   1000871 9.00087E-02 7.30355E-02-1.60319E+03-8.07448E-02-2.10677E-04-1.89772E-04
 -1   1000872-8.36523E-02-6.78653E-02-1.60319E+03 7.51020E-02 1.88180E-04 1.69355E-04
 -1   1000874-8.10326E-02-6.57519E-02-1.60317E+03 7.26928E-02 1.88266E-04 1.69488E-04
 -1   1000875 7.53771E-02 6.11519E-02-1.60317E+03-6.76724E-02-1.67904E-04-1.51270E-04
 -1   1000877 7.30166E-02 5.92477E-02-1.60319E+03-6.55016E-02-1.68036E-04-1.51327E-04
 -1   1000878-6.79947E-02-5.51624E-02-1.60319E+03 6.10447E-02 1.49785E-04 1.34733E-04
 -1   1000880-6.58653E-02-5.34446E-02-1.60317E+03 5.90864E-02 1.49847E-04 1.34848E-04
 -1   1000881 6.14176E-02 4.98269E-02-1.60317E+03-5.51398E-02-1.33222E-04-1.20079E-04
 -1   1000883 5.94942E-02 4.82753E-02-1.60319E+03-5.33710E-02-1.33334E-04-1.20117E-04
 -1   1000884-5.55683E-02-4.50812E-02-1.60319E+03 4.98885E-02 1.18470E-04 1.06580E-04
 -1   1000886-5.38280E-02-4.36773E-02-1.60318E+03 4.82880E-02 1.18509E-04 1.06683E-04
 -1   1000887 5.03768E-02 4.08697E-02-1.60318E+03-4.52276E-02-1.04897E-04-9.45288E-05
 -1   1000889 4.87992E-02 3.95971E-02-1.60319E+03-4.37768E-02-1.04996E-04-9.45472E-05
 -1   1000890-4.57825E-02-3.71422E-02-1.60319E+03 4.11029E-02 9.27800E-05 8.34492E-05
 -1   1000892-4.43486E-02-3.59856E-02-1.60318E+03 3.97842E-02 9.27992E-05 8.35405E-05
 -1   1000893 4.17301E-02 3.38548E-02-1.60318E+03-3.74647E-02-8.16161E-05-7.35563E-05
 -1   1000895 4.04234E-02 3.28007E-02-1.60318E+03-3.62630E-02-8.17069E-05-7.35542E-05
 -1   1000896-3.81725E-02-3.09684E-02-1.60318E+03 3.42707E-02 7.14882E-05 6.43217E-05
 -1   1000898-3.69769E-02-3.00039E-02-1.60318E+03 3.31711E-02 7.14885E-05 6.44100E-05
 -1   1000899 3.50664E-02 2.84487E-02-1.60318E+03-3.14822E-02-6.21396E-05-5.59980E-05
 -1   1000901 3.39684E-02 2.75630E-02-1.60318E+03-3.04724E-02-6.22237E-05-5.59788E-05
 -1   1000902-3.23764E-02-2.62660E-02-1.60318E+03 2.90669E-02 5.35972E-05 4.82519E-05
 -1   1000904-3.13622E-02-2.54479E-02-1.60318E+03 2.81343E-02 5.35801E-05 4.83375E-05
 -1   1000905 3.00689E-02 2.43945E-02-1.60318E+03-2.69957E-02-4.56727E-05-4.11142E-05
 -1   1000907 2.91275E-02 2.36350E-02-1.60318E+03-2.61299E-02-4.57510E-05-4.10829E-05
 -1   1000908-2.81189E-02-2.28121E-02-1.60318E+03 2.52446E-02 3.82641E-05 3.44714E-05
 -1   1000910-2.72380E-02-2.21015E-02-1.60318E+03 2.44345E-02 3.82359E-05 3.45522E-05
 -1   1000911 2.65006E-02 2.14995E-02-1.60318E+03-2.37921E-02-3.13299E-05-2.81975E-05
 -1   1000913 2.56710E-02 2.08303E-02-1.60318E+03-2.30292E-02-3.13999E-05-2.81523E-05
 -1   1000914-2.51976E-02-2.04420E-02-1.60318E+03 2.26216E-02 2.47503E-05 2.23076E-05
 -1   1000916-2.44081E-02-1.98052E-02-1.60318E+03 2.18956E-02 2.47146E-05 2.23824E-05
 -1   1000917 2.41908E-02 1.96256E-02-1.60318E+03-2.17187E-02-1.85434E-05-1.66263E-05
 -1   1000919 2.34336E-02 1.90148E-02-1.60318E+03-2.10223E-02-1.86097E-05-1.65743E-05
 -1   1000920-2.34716E-02-1.90418E-02-1.60318E+03 2.10718E-02 1.23908E-05 1.12475E-05
 -1   1000922-2.27360E-02-1.84485E-02-1.60318E+03 2.03954E-02 1.23466E-05 1.13153E-05
 -1   1000923 2.30231E-02 1.86783E-02-1.60318E+03-2.06707E-02-6.61972E-06-5.76467E-06
 -1   1000925 2.23028E-02 1.80973E-02-1.60318E+03-2.00082E-02-6.67334E-06-5.70715E-06
 -1   1000926-2.28332E-02-1.85238E-02-1.60318E+03 2.04982E-02 5.30279E-07 8.80297E-07
 -1   1000928-2.21180E-02-1.79468E-02-1.60318E+03 1.98405E-02 4.82173E-07 9.36129E-07
 -1   1000929 2.28457E-02 1.85344E-02-1.60318E+03-2.05112E-02 4.85020E-06 4.84831E-06
 -1   1000931 2.21328E-02 1.79593E-02-1.60318E+03-1.98556E-02 4.81356E-06 4.90415E-06
 -1   1000932 9.80114E+01 3.23881E+01-1.59241E+03-5.68314E+01-2.27687E-02-1.31457E-02
 -1   1000934 9.33890E+01 3.08955E+01-1.61396E+03-5.41209E+01-2.15429E-02-1.24380E-02
 -1   1000935-2.46082E+01-8.16121E+00-1.60595E+03 1.42435E+01 2.46674E-03 1.42401E-03
 -1   1000937-2.34202E+01-7.77755E+00-1.60041E+03 1.35469E+01 2.13585E-03 1.23297E-03
 -1   1000938 4.99922E+00 1.66283E+00-1.60256E+03-2.88940E+00 2.62498E-03 1.51540E-03
 -1   1000940 4.73074E+00 1.57611E+00-1.60380E+03-2.73199E+00 2.71569E-03 1.56778E-03
 -1   1000941 1.20582E-01 4.05938E-02-1.60324E+03-6.92720E-02-3.65752E-03-2.11180E-03
 -1   1000943 1.46614E-01 4.90111E-02-1.60312E+03-8.45268E-02-3.68364E-03-2.12687E-03
 -1   1000944-1.35001E+00-4.51282E-01-1.60326E+03 7.78324E-01 3.63169E-03 2.09662E-03
 -1   1000946-1.31549E+00-4.40138E-01-1.60310E+03 7.58075E-01 3.64030E-03 2.10160E-03
 -1   1000947 1.54581E+00 5.17113E-01-1.60307E+03-8.90879E-01-3.35178E-03-1.93532E-03
 -1   1000949 1.49925E+00 5.02079E-01-1.60329E+03-8.63575E-01-3.35553E-03-1.93748E-03
 -1   1000950-1.47684E+00-4.94239E-01-1.60329E+03 8.50955E-01 3.03188E-03 1.75027E-03
 -1   1000952-1.43087E+00-4.79397E-01-1.60307E+03 8.24001E-01 3.03417E-03 1.75160E-03
 -1   1000953 1.34901E+00 4.51542E-01-1.60308E+03-7.77228E-01-2.72601E-03-1.57404E-03
 -1   1000955 1.30665E+00 4.37864E-01-1.60328E+03-7.52388E-01-2.72779E-03-1.57506E-03
 -1   1000956-1.21657E+00-4.07242E-01-1.60327E+03 7.00897E-01 2.44696E-03 1.41255E-03
 -1   1000958-1.17827E+00-3.94875E-01-1.60309E+03 6.78438E-01 2.44847E-03 1.41343E-03
 -1   1000959 1.09299E+00 3.65884E-01-1.60310E+03-6.29689E-01-2.19496E-03-1.26749E-03
 -1   1000961 1.05855E+00 3.54764E-01-1.60326E+03-6.09495E-01-2.19630E-03-1.26826E-03
 -1   1000962-9.80853E-01-3.28350E-01-1.60325E+03 5.65084E-01 1.96894E-03 1.13654E-03
 -1   1000964-9.49942E-01-3.18369E-01-1.60311E+03 5.46958E-01 1.97013E-03 1.13724E-03
 -1   1000965 8.79934E-01 2.94568E-01-1.60312E+03-5.06942E-01-1.76576E-03-1.01968E-03
 -1   1000967 8.52201E-01 2.85613E-01-1.60325E+03-4.90680E-01-1.76684E-03-1.02029E-03
 -1   1000968-7.89329E-01-2.64237E-01-1.60324E+03 4.54743E-01 1.58381E-03 9.14235E-04
 -1   1000970-7.64452E-01-2.56204E-01-1.60312E+03 4.40156E-01 1.58476E-03 9.14803E-04
 -1   1000971 7.08045E-01 2.37026E-01-1.60313E+03-4.07914E-01-1.42027E-03-8.20113E-04
 -1   1000973 6.85730E-01 2.29821E-01-1.60323E+03-3.94829E-01-1.42114E-03-8.20593E-04
 -1   1000974-6.35141E-01-2.12621E-01-1.60323E+03 3.65913E-01 1.27383E-03 7.35335E-04
 -1   1000976-6.15123E-01-2.06157E-01-1.60313E+03 3.54175E-01 1.27459E-03 7.35798E-04
 -1   1000977 5.69757E-01 1.90733E-01-1.60314E+03-3.28245E-01-1.14230E-03-6.59615E-04
 -1   1000979 5.51800E-01 1.84935E-01-1.60322E+03-3.17715E-01-1.14301E-03-6.59998E-04
 -1   1000980-5.11122E-01-1.71104E-01-1.60322E+03 2.94464E-01 1.02446E-03 5.91368E-04
 -1   1000982-4.95013E-01-1.65902E-01-1.60314E+03 2.85018E-01 1.02507E-03 5.91745E-04
 -1   1000983 4.58541E-01 1.53502E-01-1.60315E+03-2.64171E-01-9.18558E-04-5.30446E-04
 -1   1000985 4.44089E-01 1.48835E-01-1.60321E+03-2.55697E-01-9.19126E-04-5.30749E-04
 -1   1000986-4.11392E-01-1.37718E-01-1.60321E+03 2.37008E-01 8.23736E-04 4.75478E-04
 -1   1000988-3.98426E-01-1.33531E-01-1.60315E+03 2.29405E-01 8.24223E-04 4.75787E-04
 -1   1000989 3.69115E-01 1.23566E-01-1.60315E+03-2.12652E-01-7.38500E-04-4.26448E-04
 -1   1000991 3.57482E-01 1.19809E-01-1.60321E+03-2.05830E-01-7.38961E-04-4.26683E-04
 -1   1000992-3.31211E-01-1.10877E-01-1.60321E+03 1.90815E-01 6.62136E-04 3.82253E-04
 -1   1000994-3.20772E-01-1.07506E-01-1.60316E+03 1.84694E-01 6.62523E-04 3.82512E-04
 -1   1000995 2.97230E-01 9.95014E-02-1.60316E+03-1.71238E-01-5.93549E-04-3.42719E-04
 -1   1000997 2.87863E-01 9.64766E-02-1.60320E+03-1.65745E-01-5.93923E-04-3.42901E-04
 -1   1000998-2.66771E-01-8.93045E-02-1.60320E+03 1.53690E-01 5.32054E-04 3.07101E-04
 -1   1001000-2.58363E-01-8.65896E-02-1.60316E+03 1.48760E-01 5.32363E-04 3.07312E-04
 -1   1001001 2.39471E-01 8.01656E-02-1.60316E+03-1.37962E-01-4.76759E-04-2.75341E-04
 -1   1001003 2.31923E-01 7.77286E-02-1.60320E+03-1.33536E-01-4.77063E-04-2.75483E-04
 -1   1001004-2.15007E-01-7.19762E-02-1.60320E+03 1.23868E-01 4.27273E-04 2.46618E-04
 -1   1001006-2.08231E-01-6.97880E-02-1.60316E+03 1.19895E-01 4.27518E-04 2.46792E-04
 -1   1001007 1.93091E-01 6.46394E-02-1.60317E+03-1.11242E-01-3.82656E-04-2.20997E-04
 -1   1001009 1.87005E-01 6.26743E-02-1.60320E+03-1.07674E-01-3.82902E-04-2.21104E-04
 -1   1001010-1.73462E-01-5.80682E-02-1.60319E+03 9.99334E-02 3.42695E-04 1.97750E-04
 -1   1001012-1.67994E-01-5.63029E-02-1.60317E+03 9.67276E-02 3.42888E-04 1.97895E-04
 -1   1001013 1.55887E-01 5.21850E-02-1.60317E+03-8.98085E-02-3.06661E-04-1.77197E-04
 -1   1001015 1.50974E-01 5.05986E-02-1.60319E+03-8.69276E-02-3.06859E-04-1.77283E-04
 -1   1001016-1.40159E-01-4.69198E-02-1.60319E+03 8.07473E-02 2.74509E-04 1.58344E-04
 -1   1001018-1.35741E-01-4.54933E-02-1.60317E+03 7.81569E-02 2.74662E-04 1.58462E-04
 -1   1001019 1.26091E-01 4.22105E-02-1.60317E+03-7.26426E-02-2.45372E-04-1.41789E-04
 -1   1001021 1.22117E-01 4.09273E-02-1.60319E+03-7.03124E-02-2.45532E-04-1.41855E-04
 -1   1001022-1.13517E-01-3.80010E-02-1.60319E+03 6.53985E-02 2.19287E-04 1.26536E-04
 -1   1001024-1.09939E-01-3.68457E-02-1.60317E+03 6.33004E-02 2.19407E-04 1.26637E-04
 -1   1001025 1.02287E-01 3.42419E-02-1.60317E+03-5.89289E-02-1.95642E-04-1.13021E-04
 -1   1001027 9.90633E-02 3.32009E-02-1.60319E+03-5.70386E-02-1.95775E-04-1.13067E-04
 -1   1001028-9.22692E-02-3.08881E-02-1.60319E+03 5.31574E-02 1.74510E-04 1.00657E-04
 -1   1001030-8.93609E-02-2.99490E-02-1.60317E+03 5.14521E-02 1.74603E-04 1.00741E-04
 -1   1001031 8.33438E-02 2.79004E-02-1.60317E+03-4.80156E-02-1.55286E-04-8.97504E-05
 -1   1001033 8.07173E-02 2.70523E-02-1.60319E+03-4.64754E-02-1.55390E-04-8.97847E-05
 -1   1001034-7.54065E-02-2.52431E-02-1.60319E+03 4.34426E-02 1.38037E-04 7.96230E-05
 -1   1001036-7.30296E-02-2.44756E-02-1.60318E+03 4.20488E-02 1.38108E-04 7.96917E-05
 -1   1001037 6.83615E-02 2.28848E-02-1.60318E+03-3.93840E-02-1.22282E-04-7.06642E-05
 -1   1001039 6.62072E-02 2.21892E-02-1.60319E+03-3.81207E-02-1.22367E-04-7.06854E-05
 -1   1001040-6.21272E-02-2.07978E-02-1.60319E+03 3.57922E-02 1.08094E-04 6.23566E-05
 -1   1001042-6.01688E-02-2.01654E-02-1.60318E+03 3.46439E-02 1.08145E-04 6.24177E-05
 -1   1001043 5.66278E-02 1.89569E-02-1.60318E+03-3.26241E-02-9.51369E-05-5.49183E-05
 -1   1001045 5.48434E-02 1.83807E-02-1.60318E+03-3.15777E-02-9.52091E-05-5.49236E-05
 -1   1001046-5.18003E-02-1.73407E-02-1.60318E+03 2.98427E-02 8.32662E-05 4.81412E-05
 -1   1001048-5.01673E-02-1.68134E-02-1.60318E+03 2.88851E-02 8.33041E-05 4.81990E-05
 -1   1001049 4.75851E-02 1.59297E-02-1.60318E+03-2.74146E-02-7.24872E-05-4.17594E-05
 -1   1001051 4.60858E-02 1.54456E-02-1.60318E+03-2.65354E-02-7.25441E-05-4.17585E-05
 -1   1001052-4.39349E-02-1.47077E-02-1.60318E+03 2.53113E-02 6.24231E-05 3.61428E-05
 -1   1001054-4.25497E-02-1.42604E-02-1.60318E+03 2.44991E-02 6.24488E-05 3.61875E-05
 -1   1001055 4.08037E-02 1.36595E-02-1.60318E+03-2.35078E-02-5.32499E-05-3.06755E-05
 -1   1001057 3.95182E-02 1.32444E-02-1.60318E+03-2.27539E-02-5.32911E-05-3.06756E-05
 -1   1001058-3.81575E-02-1.27737E-02-1.60318E+03 2.19828E-02 4.45633E-05 2.57768E-05
 -1   1001060-3.69543E-02-1.23852E-02-1.60318E+03 2.12773E-02 4.45845E-05 2.58060E-05
 -1   1001061 3.59614E-02 1.20384E-02-1.60318E+03-2.07181E-02-3.65085E-05-2.10539E-05
 -1   1001063 3.48286E-02 1.16727E-02-1.60318E+03-2.00538E-02-3.65327E-05-2.10566E-05
 -1   1001064-3.41931E-02-1.14467E-02-1.60318E+03 1.96988E-02 2.88508E-05 1.66885E-05
 -1   1001066-3.31147E-02-1.10985E-02-1.60318E+03 1.90665E-02 2.88682E-05 1.67028E-05
 -1   1001067 3.28271E-02 1.09891E-02-1.60318E+03-1.89125E-02-2.15994E-05-1.24034E-05
 -1   1001069 3.17933E-02 1.06552E-02-1.60318E+03-1.83063E-02-2.16106E-05-1.24106E-05
 -1   1001070-3.18508E-02-1.06627E-02-1.60318E+03 1.83493E-02 1.44585E-05 8.40875E-06
 -1   1001072-3.08461E-02-1.03383E-02-1.60318E+03 1.77602E-02 1.44732E-05 8.40830E-06
 -1   1001073 3.12429E-02 1.04586E-02-1.60318E+03-1.79999E-02-7.61056E-06-4.30177E-06
 -1   1001075 3.02593E-02 1.01410E-02-1.60318E+03-1.74231E-02-7.60272E-06-4.31879E-06
 -1   1001076-3.09839E-02-1.03728E-02-1.60318E+03 1.78498E-02 7.97847E-07 5.07041E-07
 -1   1001078-3.00071E-02-1.00573E-02-1.60318E+03 1.72770E-02 8.13462E-07 4.84632E-07
 -1   1001079 3.10023E-02 1.03782E-02-1.60318E+03-1.78608E-02 5.91353E-06 3.33823E-06
 -1   1001081 3.00287E-02 1.00638E-02-1.60318E+03-1.72899E-02 5.93639E-06 3.31374E-06
 -1   1001082 1.18290E+02 1.21094E+01-1.59241E+03-3.85724E+01-2.50044E-02-8.12448E-03
 -1   1001084 1.12701E+02 1.15840E+01-1.61396E+03-3.67327E+01-2.36582E-02-7.68707E-03
 -1   1001085-2.96905E+01-3.07882E+00-1.60595E+03 9.66728E+00 2.70889E-03 8.80106E-04
 -1   1001087-2.82540E+01-2.94371E+00-1.60041E+03 9.19451E+00 2.34552E-03 7.62048E-04
 -1   1001088 6.03022E+00 6.31829E-01-1.60256E+03-1.96108E+00 2.88268E-03 9.36554E-04
 -1   1001090 5.70557E+00 6.01273E-01-1.60380E+03-1.85424E+00 2.98230E-03 9.68932E-04
 -1   1001091 1.45300E-01 1.58760E-02-1.60324E+03-4.70160E-02-4.01666E-03-1.30521E-03
 -1   1001093 1.76775E-01 1.88501E-02-1.60312E+03-5.73697E-02-4.04535E-03-1.31452E-03
 -1   1001094-1.62774E+00-1.73559E-01-1.60326E+03 5.28261E-01 3.98827E-03 1.29572E-03
 -1   1001096-1.58599E+00-1.69640E-01-1.60310E+03 5.14518E-01 3.99773E-03 1.29880E-03
 -1   1001097 1.86370E+00 1.99227E-01-1.60307E+03-6.04654E-01-3.68090E-03-1.19619E-03
 -1   1001099 1.80739E+00 1.93937E-01-1.60329E+03-5.86122E-01-3.68502E-03-1.19752E-03
 -1   1001100-1.78048E+00-1.90599E-01-1.60329E+03 5.77556E-01 3.32951E-03 1.08161E-03
 -1   1001102-1.72489E+00-1.85375E-01-1.60307E+03 5.59262E-01 3.33203E-03 1.08244E-03
 -1   1001103 1.62634E+00 1.74210E-01-1.60308E+03-5.27517E-01-2.99366E-03-9.72910E-04
 -1   1001105 1.57512E+00 1.69395E-01-1.60328E+03-5.10658E-01-2.99561E-03-9.73540E-04
 -1   1001106-1.46666E+00-1.57147E-01-1.60327E+03 4.75710E-01 2.68719E-03 8.72905E-04
 -1   1001108-1.42035E+00-1.52793E-01-1.60309E+03 4.60466E-01 2.68886E-03 8.73449E-04
 -1   1001109 1.31767E+00 1.41197E-01-1.60310E+03-4.27380E-01-2.41056E-03-7.83452E-04
 -1   1001111 1.27603E+00 1.37283E-01-1.60326E+03-4.13674E-01-2.41203E-03-7.83927E-04
 -1   1001112-1.18249E+00-1.26716E-01-1.60325E+03 3.83531E-01 2.16222E-03 7.02359E-04
 -1   1001114-1.14511E+00-1.23202E-01-1.60311E+03 3.71229E-01 2.16353E-03 7.02792E-04
 -1   1001115 1.06082E+00 1.13679E-01-1.60312E+03-3.44070E-01-1.93918E-03-6.30253E-04
 -1   1001117 1.02729E+00 1.10527E-01-1.60325E+03-3.33032E-01-1.94036E-03-6.30629E-04
 -1   1001118-9.51592E-01-1.01975E-01-1.60324E+03 3.08641E-01 1.73927E-03 5.64957E-04
 -1   1001120-9.21509E-01-9.91470E-02-1.60312E+03 2.98740E-01 1.74032E-03 5.65305E-04
 -1   1001121 8.53598E-01 9.14735E-02-1.60313E+03-2.76858E-01-1.55974E-03-5.06922E-04
 -1   1001123 8.26613E-01 8.89370E-02-1.60323E+03-2.67977E-01-1.56069E-03-5.07222E-04
 -1   1001124-7.65707E-01-8.20550E-02-1.60323E+03 2.48351E-01 1.39889E-03 4.54398E-04
 -1   1001126-7.41500E-01-7.97797E-02-1.60313E+03 2.40384E-01 1.39974E-03 4.54684E-04
 -1   1001127 6.86882E-01 7.36078E-02-1.60314E+03-2.22785E-01-1.25444E-03-4.07739E-04
 -1   1001129 6.65167E-01 7.15668E-02-1.60322E+03-2.15638E-01-1.25521E-03-4.07975E-04
 -1   1001130-6.16193E-01-6.60328E-02-1.60322E+03 1.99857E-01 1.12502E-03 3.65397E-04
 -1   1001132-5.96713E-01-6.42018E-02-1.60314E+03 1.93446E-01 1.12570E-03 3.65631E-04
 -1   1001133 5.52803E-01 5.92397E-02-1.60315E+03-1.79297E-01-1.00877E-03-3.27906E-04
 -1   1001135 5.35327E-01 5.75970E-02-1.60321E+03-1.73546E-01-1.00939E-03-3.28091E-04
 -1   1001136-4.95961E-01-5.31485E-02-1.60321E+03 1.60861E-01 9.04595E-04 2.93808E-04
 -1   1001138-4.80282E-01-5.16747E-02-1.60315E+03 1.55701E-01 9.05139E-04 2.94001E-04
 -1   1001139 4.44994E-01 4.76866E-02-1.60315E+03-1.44331E-01-8.11027E-04-2.63584E-04
 -1   1001141 4.30927E-01 4.63643E-02-1.60321E+03-1.39701E-01-8.11525E-04-2.63728E-04
 -1   1001142-3.99298E-01-4.27898E-02-1.60321E+03 1.29509E-01 7.27147E-04 2.36249E-04
 -1   1001144-3.86675E-01-4.16033E-02-1.60316E+03 1.25355E-01 7.27583E-04 2.36410E-04
 -1   1001145 3.58332E-01 3.83997E-02-1.60316E+03-1.16222E-01-6.51838E-04-2.11822E-04
 -1   1001147 3.47004E-01 3.73349E-02-1.60320E+03-1.12494E-01-6.52238E-04-2.11933E-04
 -1   1001148-3.21611E-01-3.44646E-02-1.60320E+03 1.04312E-01 5.84286E-04 1.89757E-04
 -1   1001150-3.11443E-01-3.35089E-02-1.60316E+03 1.00966E-01 5.84637E-04 1.89887E-04
 -1   1001151 2.88698E-01 3.09376E-02-1.60316E+03-9.36372E-02-5.23572E-04-1.70233E-04
 -1   1001153 2.79572E-01 3.00797E-02-1.60320E+03-9.06334E-02-5.23893E-04-1.70323E-04
 -1   1001154-2.59206E-01-2.77773E-02-1.60320E+03 8.40715E-02 4.69175E-04 1.52314E-04
 -1   1001156-2.51012E-01-2.70070E-02-1.60316E+03 8.13745E-02 4.69455E-04 1.52418E-04
 -1   1001157 2.32784E-01 2.49456E-02-1.60317E+03-7.55018E-02-4.20201E-04-1.36650E-04
 -1   1001159 2.25425E-01 2.42539E-02-1.60320E+03-7.30798E-02-4.20461E-04-1.36719E-04
 -1   1001160-2.09120E-01-2.24099E-02-1.60319E+03 6.78264E-02 3.76374E-04 1.22177E-04
 -1   1001162-2.02509E-01-2.17885E-02-1.60317E+03 6.56505E-02 3.76598E-04 1.22266E-04
 -1   1001163 1.87932E-01 2.01392E-02-1.60317E+03-6.09545E-02-3.36847E-04-1.09569E-04
 -1   1001165 1.81991E-01 1.95807E-02-1.60319E+03-5.89992E-02-3.37057E-04-1.09623E-04
 -1   1001166-1.68971E-01-1.81075E-02-1.60319E+03 5.48045E-02 3.01414E-04 9.78485E-05
 -1   1001168-1.63629E-01-1.76053E-02-1.60317E+03 5.30463E-02 3.01594E-04 9.79207E-05
 -1   1001169 1.52011E-01 1.62898E-02-1.60317E+03-4.93038E-02-2.69496E-04-8.76294E-05
 -1   1001171 1.47206E-01 1.58381E-02-1.60319E+03-4.77222E-02-2.69664E-04-8.76700E-05
 -1   1001172-1.36852E-01-1.46655E-02-1.60319E+03 4.43869E-02 2.40810E-04 7.82092E-05
 -1   1001174-1.32526E-01-1.42588E-02-1.60317E+03 4.29629E-02 2.40953E-04 7.82673E-05
 -1   1001175 1.23314E-01 1.32146E-02-1.60317E+03-3.99961E-02-2.14899E-04-6.98512E-05
 -1   1001177 1.19416E-01 1.28482E-02-1.60319E+03-3.87131E-02-2.15032E-04-6.98869E-05
 -1   1001178-1.11237E-01-1.19205E-02-1.60319E+03 3.60788E-02 1.91585E-04 6.22312E-05
 -1   1001180-1.07720E-01-1.15900E-02-1.60317E+03 3.49213E-02 1.91702E-04 6.22744E-05
 -1   1001181 1.00477E-01 1.07673E-02-1.60317E+03-3.25890E-02-1.70561E-04-5.54578E-05
 -1   1001183 9.73008E-02 1.04687E-02-1.60319E+03-3.15437E-02-1.70664E-04-5.54888E-05
 -1   1001184-9.09078E-02-9.74193E-03-1.60319E+03 2.94852E-02 1.51553E-04 4.92060E-05
 -1   1001186-8.80335E-02-9.47175E-03-1.60318E+03 2.85392E-02 1.51647E-04 4.92360E-05
 -1   1001187 8.24144E-02 8.83163E-03-1.60318E+03-2.67306E-02-1.34321E-04-4.36719E-05
 -1   1001189 7.98095E-02 8.58678E-03-1.60319E+03-2.58732E-02-1.34402E-04-4.37011E-05
 -1   1001190-7.48987E-02-8.02644E-03-1.60319E+03 2.42927E-02 1.18697E-04 3.85615E-05
 -1   1001192-7.25304E-02-7.80383E-03-1.60318E+03 2.35132E-02 1.18771E-04 3.85798E-05
 -1   1001193 6.82688E-02 7.31576E-03-1.60318E+03-2.21426E-02-1.04468E-04-3.39025E-05
 -1   1001195 6.61112E-02 7.11296E-03-1.60318E+03-2.14324E-02-1.04528E-04-3.39278E-05
 -1   1001196-6.24489E-02-6.69233E-03-1.60318E+03 2.02547E-02 9.14673E-05 2.97568E-05
 -1   1001198-6.04740E-02-6.50670E-03-1.60318E+03 1.96047E-02 9.15275E-05 2.97653E-05
 -1   1001199 5.73672E-02 6.14743E-03-1.60318E+03-1.86068E-02-7.95714E-05-2.58385E-05
 -1   1001201 5.55543E-02 5.97703E-03-1.60318E+03-1.80101E-02-7.96125E-05-2.58692E-05
 -1   1001202-5.29666E-02-5.67624E-03-1.60318E+03 1.71792E-02 6.85809E-05 2.23080E-05
 -1   1001204-5.12915E-02-5.51878E-03-1.60318E+03 1.66278E-02 6.86287E-05 2.23011E-05
 -1   1001205 4.91918E-02 5.27127E-03-1.60318E+03-1.59551E-02-5.84359E-05-1.89677E-05
 -1   1001207 4.76374E-02 5.12518E-03-1.60318E+03-1.54435E-02-5.84603E-05-1.90066E-05
 -1   1001208-4.60015E-02-4.92987E-03-1.60318E+03 1.49201E-02 4.89786E-05 1.59395E-05
 -1   1001210-4.45464E-02-4.79309E-03-1.60318E+03 1.44412E-02 4.90202E-05 1.59156E-05
 -1   1001211 4.33540E-02 4.64564E-03-1.60318E+03-1.40617E-02-4.01202E-05-1.30316E-05
 -1   1001213 4.19843E-02 4.51690E-03-1.60318E+03-1.36109E-02-4.01293E-05-1.30821E-05
 -1   1001214-4.12220E-02-4.41778E-03-1.60318E+03 1.33699E-02 3.17105E-05 1.02981E-05
 -1   1001216-3.99180E-02-4.29519E-03-1.60318E+03 1.29407E-02 3.17469E-05 1.02547E-05
 -1   1001217 3.95757E-02 4.24066E-03-1.60318E+03-1.28362E-02-2.36506E-05-7.66124E-06
 -1   1001219 3.83255E-02 4.12317E-03-1.60318E+03-1.24247E-02-2.36441E-05-7.72124E-06
 -1   1001220-3.83981E-02-4.11518E-03-1.60318E+03 1.24541E-02 1.58907E-05 5.16637E-06
 -1   1001222-3.71833E-02-4.00097E-03-1.60318E+03 1.20542E-02 1.59237E-05 5.10733E-06
 -1   1001223 3.76659E-02 4.03599E-03-1.60318E+03-1.22167E-02-8.30097E-06-2.74438E-06
 -1   1001225 3.64764E-02 3.92420E-03-1.60318E+03-1.18252E-02-8.28248E-06-2.81658E-06
 -1   1001226-3.73531E-02-4.00321E-03-1.60318E+03 1.21152E-02 9.00140E-07 1.73390E-07
 -1   1001228-3.61720E-02-3.89217E-03-1.60318E+03 1.17264E-02 9.27093E-07 9.61148E-08
 -1   1001229 3.73754E-02 4.00540E-03-1.60318E+03-1.21221E-02 6.53076E-06 1.97888E-06
 -1   1001231 3.61979E-02 3.89475E-03-1.60318E+03-1.17346E-02 6.56654E-06 1.90206E-06
 -1   1001232 1.29389E+02 1.01052E+00-1.59241E+03-1.36438E+01-2.61471E-02-2.74821E-03
 -1   1001234 1.23270E+02 1.01439E+00-1.61396E+03-1.29931E+01-2.47394E-02-2.60024E-03
 -1   1001235-3.24722E+01-2.97140E-01-1.60595E+03 3.41951E+00 2.83270E-03 2.97671E-04
 -1   1001237-3.08997E+01-2.98061E-01-1.60041E+03 3.25229E+00 2.45272E-03 2.57744E-04
 -1   1001238 6.59450E+00 6.75442E-02-1.60256E+03-6.93674E-01 3.01440E-03 3.16725E-04
 -1   1001240 6.23911E+00 6.77292E-02-1.60380E+03-6.55884E-01 3.11857E-03 3.27682E-04
 -1   1001241 1.58828E-01 2.34745E-03-1.60324E+03-1.66306E-02-4.20025E-03-4.41606E-04
 -1   1001243 1.93283E-01 2.34234E-03-1.60312E+03-2.02929E-02-4.23024E-03-4.44753E-04
 -1   1001244-1.77974E+00-2.15559E-02-1.60326E+03 1.86857E-01 4.17053E-03 4.38166E-04
 -1   1001246-1.73403E+00-2.15914E-02-1.60310E+03 1.81995E-01 4.18041E-03 4.39206E-04
 -1   1001247 2.03768E+00 2.52427E-02-1.60307E+03-2.13878E-01-3.84917E-03-4.04761E-04
 -1   1001249 1.97604E+00 2.52845E-02-1.60329E+03-2.07323E-01-3.85348E-03-4.05215E-04
 -1   1001250-1.94666E+00-2.44120E-02-1.60329E+03 2.04294E-01 3.48164E-03 3.65730E-04
 -1   1001252-1.88582E+00-2.44520E-02-1.60307E+03 1.97823E-01 3.48428E-03 3.66005E-04
 -1   1001253 1.77813E+00 2.24211E-02-1.60308E+03-1.86594E-01-3.13053E-03-3.29246E-04
 -1   1001255 1.72205E+00 2.24576E-02-1.60328E+03-1.80630E-01-3.13257E-03-3.29465E-04
 -1   1001256-1.60355E+00-2.02651E-02-1.60327E+03 1.68268E-01 2.80994E-03 2.95133E-04
 -1   1001258-1.55284E+00-2.02979E-02-1.60309E+03 1.62876E-01 2.81168E-03 2.95313E-04
 -1   1001259 1.44065E+00 1.82218E-02-1.60310E+03-1.51173E-01-2.52077E-03-2.65117E-04
 -1   1001261 1.39506E+00 1.82513E-02-1.60326E+03-1.46325E-01-2.52231E-03-2.65280E-04
 -1   1001262-1.29285E+00-1.63576E-02-1.60325E+03 1.35663E-01 2.26101E-03 2.37494E-04
 -1   1001264-1.25193E+00-1.63840E-02-1.60311E+03 1.31311E-01 2.26239E-03 2.37637E-04
 -1   1001265 1.15983E+00 1.46760E-02-1.60312E+03-1.21705E-01-2.02781E-03-2.13265E-04
 -1   1001267 1.12311E+00 1.46998E-02-1.60325E+03-1.17800E-01-2.02904E-03-2.13395E-04
 -1   1001268-1.04040E+00-1.31656E-02-1.60324E+03 1.09173E-01 1.81869E-03 1.91018E-04
 -1   1001270-1.00747E+00-1.31868E-02-1.60312E+03 1.05671E-01 1.81979E-03 1.91132E-04
 -1   1001271 9.33262E-01 1.18098E-02-1.60313E+03-9.79303E-02-1.63110E-03-1.71563E-04
 -1   1001273 9.03722E-01 1.18289E-02-1.60323E+03-9.47888E-02-1.63208E-03-1.71668E-04
 -1   1001274-8.37168E-01-1.05939E-02-1.60323E+03 8.78468E-02 1.46282E-03 1.53617E-04
 -1   1001276-8.10669E-01-1.06110E-02-1.60313E+03 8.50287E-02 1.46371E-03 1.53710E-04
 -1   1001277 7.50986E-01 9.50329E-03-1.60314E+03-7.88035E-02-1.31181E-03-1.38023E-04
 -1   1001279 7.27216E-01 9.51865E-03-1.60322E+03-7.62756E-02-1.31260E-03-1.38108E-04
 -1   1001280-6.73701E-01-8.52540E-03-1.60322E+03 7.06937E-02 1.17643E-03 1.23499E-04
 -1   1001282-6.52376E-01-8.53917E-03-1.60314E+03 6.84259E-02 1.17714E-03 1.23573E-04
 -1   1001283 6.04394E-01 7.64820E-03-1.60315E+03-6.34212E-02-1.05490E-03-1.11008E-04
 -1   1001285 5.85264E-01 7.66056E-03-1.60321E+03-6.13867E-02-1.05553E-03-1.11074E-04
 -1   1001286-5.42248E-01-6.86195E-03-1.60321E+03 5.68999E-02 9.45907E-04 9.93078E-05
 -1   1001288-5.25084E-01-6.87304E-03-1.60315E+03 5.50746E-02 9.46481E-04 9.93695E-05
 -1   1001289 4.86524E-01 6.15660E-03-1.60315E+03-5.10526E-02-8.48103E-04-8.92267E-05
 -1   1001291 4.71125E-01 6.16655E-03-1.60321E+03-4.94149E-02-8.48618E-04-8.92791E-05
 -1   1001292-4.36564E-01-5.52459E-03-1.60321E+03 4.58101E-02 7.60386E-04 7.98536E-05
 -1   1001294-4.22745E-01-5.53352E-03-1.60316E+03 4.43405E-02 7.60847E-04 7.99049E-05
 -1   1001295 3.91774E-01 4.95759E-03-1.60316E+03-4.11102E-02-6.81612E-04-7.17007E-05
 -1   1001297 3.79373E-01 4.96560E-03-1.60320E+03-3.97915E-02-6.82025E-04-7.17425E-05
 -1   1001298-3.51626E-01-4.44973E-03-1.60320E+03 3.68972E-02 6.10968E-04 6.41327E-05
 -1   1001300-3.40495E-01-4.45692E-03-1.60316E+03 3.57136E-02 6.11339E-04 6.41687E-05
 -1   1001301 3.15642E-01 3.99415E-03-1.60316E+03-3.31214E-02-5.47519E-04-5.76300E-05
 -1   1001303 3.05651E-01 4.00061E-03-1.60320E+03-3.20589E-02-5.47851E-04-5.76688E-05
 -1   1001304-2.83397E-01-3.58639E-03-1.60320E+03 2.97378E-02 4.90563E-04 5.14679E-05
 -1   1001306-2.74427E-01-3.59218E-03-1.60316E+03 2.87838E-02 4.90863E-04 5.14943E-05
 -1   1001307 2.54509E-01 3.22056E-03-1.60317E+03-2.67065E-02-4.39421E-04-4.62764E-05
 -1   1001309 2.46453E-01 3.22577E-03-1.60320E+03-2.58499E-02-4.39686E-04-4.63104E-05
 -1   1001310-2.28637E-01-2.89343E-03-1.60319E+03 2.39916E-02 3.93572E-04 4.12876E-05
 -1   1001312-2.21399E-01-2.89810E-03-1.60317E+03 2.32219E-02 3.93810E-04 4.13065E-05
 -1   1001313 2.05472E-01 2.59993E-03-1.60317E+03-2.15608E-02-3.52298E-04-3.71001E-05
 -1   1001315 1.98968E-01 2.60414E-03-1.60319E+03-2.08692E-02-3.52510E-04-3.71276E-05
 -1   1001316-1.84741E-01-2.33801E-03-1.60319E+03 1.93855E-02 3.15197E-04 3.30575E-05
 -1   1001318-1.78893E-01-2.34178E-03-1.60317E+03 1.87635E-02 3.15389E-04 3.30726E-05
 -1   1001319 1.66198E-01 2.10292E-03-1.60317E+03-1.74398E-02-2.81788E-04-2.96837E-05
 -1   1001321 1.60938E-01 2.10632E-03-1.60319E+03-1.68804E-02-2.81958E-04-2.97083E-05
 -1   1001322-1.49624E-01-1.89367E-03-1.60319E+03 1.57006E-02 2.51792E-04 2.64089E-05
 -1   1001324-1.44888E-01-1.89672E-03-1.60317E+03 1.51968E-02 2.51946E-04 2.64153E-05
 -1   1001325 1.34822E-01 1.70583E-03-1.60317E+03-1.41474E-02-2.24743E-04-2.36814E-05
 -1   1001327 1.30555E-01 1.70859E-03-1.60319E+03-1.36936E-02-2.24879E-04-2.37072E-05
 -1   1001328-1.21619E-01-1.53925E-03-1.60319E+03 1.27618E-02 2.00355E-04 2.10078E-05
 -1   1001330-1.17768E-01-1.54173E-03-1.60317E+03 1.23523E-02 2.00478E-04 2.10092E-05
 -1   1001331 1.09854E-01 1.38990E-03-1.60317E+03-1.15274E-02-1.78356E-04-1.88227E-05
 -1   1001333 1.06377E-01 1.39216E-03-1.60319E+03-1.11577E-02-1.78462E-04-1.88502E-05
 -1   1001334-9.93920E-02-1.25796E-03-1.60319E+03 1.04295E-02 1.58487E-04 1.65736E-05
 -1   1001336-9.62454E-02-1.25999E-03-1.60318E+03 1.00948E-02 1.58585E-04 1.65622E-05
 -1   1001337 9.01060E-02 1.14002E-03-1.60318E+03-9.45519E-03-1.40474E-04-1.48478E-05
 -1   1001339 8.72544E-02 1.14187E-03-1.60319E+03-9.15194E-03-1.40556E-04-1.48847E-05
 -1   1001340-8.18887E-02-1.03653E-03-1.60319E+03 8.59282E-03 1.24105E-04 1.29795E-05
 -1   1001342-7.92960E-02-1.03819E-03-1.60318E+03 8.31710E-03 1.24186E-04 1.29538E-05
 -1   1001343 7.46401E-02 9.44243E-04-1.60318E+03-7.83228E-03-1.09212E-04-1.15206E-05
 -1   1001345 7.22782E-02 9.45778E-04-1.60318E+03-7.58109E-03-1.09275E-04-1.15660E-05
 -1   1001346-6.82770E-02-8.64333E-04-1.60318E+03 7.16450E-03 9.56676E-05 9.98842E-06
 -1   1001348-6.61151E-02-8.65719E-04-1.60318E+03 6.93459E-03 9.57314E-05 9.95031E-06
 -1   1001349 6.27212E-02 7.93362E-04-1.60318E+03-6.58156E-03-8.31799E-05-8.83655E-06
 -1   1001351 6.07366E-02 7.94656E-04-1.60318E+03-6.37051E-03-8.32274E-05-8.89176E-06
 -1   1001352-5.79098E-02-7.33182E-04-1.60318E+03 6.07665E-03 7.17482E-05 7.45413E-06
 -1   1001354-5.60760E-02-7.34354E-04-1.60318E+03 5.88163E-03 7.17984E-05 7.40507E-06
 -1   1001355 5.37828E-02 6.80250E-04-1.60318E+03-5.64363E-03-6.11049E-05-6.50401E-06
 -1   1001357 5.20812E-02 6.81363E-04-1.60318E+03-5.46267E-03-6.11347E-05-6.56764E-06
 -1   1001358-5.02945E-02-6.36788E-04-1.60318E+03 5.27758E-03 5.12437E-05 5.33592E-06
 -1   1001360-4.87017E-02-6.37801E-04-1.60318E+03 5.10819E-03 5.12814E-05 5.27611E-06
 -1   1001361 4.74002E-02 5.99499E-04-1.60318E+03-4.97384E-03-4.19613E-05-4.43797E-06
 -1   1001363 4.59007E-02 6.00483E-04-1.60318E+03-4.81437E-03-4.19793E-05-4.50745E-06
 -1   1001364-4.50690E-02-5.70616E-04-1.60318E+03 4.72930E-03 3.31345E-05 3.44871E-06
 -1   1001366-4.36416E-02-5.71523E-04-1.60318E+03 4.57749E-03 3.31621E-05 3.37883E-06
 -1   1001367 4.32693E-02 5.47343E-04-1.60318E+03-4.54031E-03-2.47102E-05-2.62109E-06
 -1   1001369 4.19006E-02 5.48244E-04-1.60318E+03-4.39475E-03-2.47184E-05-2.69690E-06
 -1   1001370-4.19815E-02-5.31389E-04-1.60318E+03 4.40537E-03 1.66114E-05 1.72097E-06
 -1   1001372-4.06519E-02-5.32231E-04-1.60318E+03 4.26396E-03 1.66306E-05 1.64505E-06
 -1   1001373 4.11812E-02 5.21059E-04-1.60318E+03-4.32114E-03-8.72041E-06-9.71173E-07
 -1   1001375 3.98788E-02 5.21917E-04-1.60318E+03-4.18264E-03-8.71827E-06-1.05445E-06
 -1   1001376-4.08390E-02-5.16928E-04-1.60318E+03 4.28552E-03 9.41471E-07 6.24180E-08
 -1   1001378-3.95464E-02-5.17747E-04-1.60318E+03 4.14805E-03 9.47737E-07-1.97445E-08
 -1   1001379 4.08636E-02 5.17681E-04-1.60318E+03-4.28771E-03 6.79021E-06 6.97356E-07
 -1   1001381 3.95742E-02 5.18530E-04-1.60318E+03-4.15060E-03 6.80406E-06 6.13013E-07
 -1   1001382 1.29389E+02 1.01052E+00-1.59241E+03 1.36438E+01-2.61471E-02 2.74805E-03
 -1   1001384 1.23270E+02 1.01439E+00-1.61396E+03 1.29931E+01-2.47394E-02 2.60010E-03
 -1   1001385-3.24722E+01-2.97140E-01-1.60595E+03-3.41951E+00 2.83268E-03-2.97878E-04
 -1   1001387-3.08997E+01-2.98061E-01-1.60041E+03-3.25229E+00 2.45270E-03-2.57939E-04
 -1   1001388 6.59450E+00 6.75441E-02-1.60256E+03 6.93674E-01 3.01438E-03-3.17004E-04
 -1   1001390 6.23911E+00 6.77290E-02-1.60380E+03 6.55884E-01 3.11856E-03-3.27953E-04
 -1   1001391 1.58828E-01 2.34732E-03-1.60324E+03 1.66305E-02-4.20030E-03 4.41277E-04
 -1   1001393 1.93283E-01 2.34221E-03-1.60312E+03 2.02928E-02-4.23029E-03 4.44426E-04
 -1   1001394-1.77974E+00-2.15560E-02-1.60326E+03-1.86857E-01 4.17049E-03-4.38539E-04
 -1   1001396-1.73403E+00-2.15915E-02-1.60310E+03-1.81995E-01 4.18037E-03-4.39584E-04
 -1   1001397 2.03768E+00 2.52426E-02-1.60307E+03 2.13878E-01-3.84923E-03 4.04379E-04
 -1   1001399 1.97604E+00 2.52844E-02-1.60329E+03 2.07323E-01-3.85354E-03 4.04826E-04
 -1   1001400-1.94666E+00-2.44121E-02-1.60329E+03-2.04294E-01 3.48161E-03-3.66124E-04
 -1   1001402-1.88582E+00-2.44520E-02-1.60307E+03-1.97823E-01 3.48425E-03-3.66407E-04
 -1   1001403 1.77813E+00 2.24212E-02-1.60308E+03 1.86594E-01-3.13060E-03 3.28827E-04
 -1   1001405 1.72205E+00 2.24576E-02-1.60328E+03 1.80630E-01-3.13264E-03 3.29034E-04
 -1   1001406-1.60355E+00-2.02651E-02-1.60327E+03-1.68268E-01 2.80989E-03-2.95532E-04
 -1   1001408-1.55284E+00-2.02979E-02-1.60309E+03-1.62876E-01 2.81164E-03-2.95722E-04
 -1   1001409 1.44065E+00 1.82219E-02-1.60310E+03 1.51173E-01-2.52077E-03 2.64776E-04
 -1   1001411 1.39506E+00 1.82514E-02-1.60326E+03 1.46325E-01-2.52231E-03 2.64932E-04
 -1   1001412-1.29285E+00-1.63575E-02-1.60325E+03-1.35663E-01 2.26096E-03-2.37789E-04
 -1   1001414-1.25193E+00-1.63840E-02-1.60311E+03-1.31311E-01 2.26233E-03-2.37940E-04
 -1   1001415 1.15983E+00 1.46761E-02-1.60312E+03 1.21705E-01-2.02786E-03 2.12993E-04
 -1   1001417 1.12311E+00 1.46999E-02-1.60325E+03 1.17800E-01-2.02909E-03 2.13116E-04
 -1   1001418-1.04040E+00-1.31655E-02-1.60324E+03-1.09173E-01 1.81866E-03-1.91287E-04
 -1   1001420-1.00747E+00-1.31867E-02-1.60312E+03-1.05671E-01 1.81976E-03-1.91408E-04
 -1   1001421 9.33262E-01 1.18099E-02-1.60313E+03 9.79303E-02-1.63108E-03 1.71282E-04
 -1   1001423 9.03722E-01 1.18290E-02-1.60323E+03 9.47888E-02-1.63207E-03 1.71379E-04
 -1   1001424-8.37168E-01-1.05939E-02-1.60323E+03-8.78469E-02 1.46279E-03-1.53904E-04
 -1   1001426-8.10669E-01-1.06110E-02-1.60313E+03-8.50288E-02 1.46367E-03-1.54009E-04
 -1   1001427 7.50986E-01 9.50335E-03-1.60314E+03 7.88035E-02-1.31188E-03 1.37725E-04
 -1   1001429 7.27216E-01 9.51871E-03-1.60322E+03 7.62756E-02-1.31268E-03 1.37794E-04
 -1   1001430-6.73701E-01-8.52533E-03-1.60322E+03-7.06937E-02 1.17640E-03-1.23800E-04
 -1   1001432-6.52376E-01-8.53910E-03-1.60314E+03-6.84258E-02 1.17711E-03-1.23891E-04
 -1   1001433 6.04395E-01 7.64830E-03-1.60315E+03 6.34212E-02-1.05490E-03 1.10744E-04
 -1   1001435 5.85264E-01 7.66066E-03-1.60321E+03 6.13867E-02-1.05554E-03 1.10796E-04
 -1   1001436-5.42248E-01-6.86189E-03-1.60321E+03-5.68999E-02 9.45852E-04-9.95355E-05
 -1   1001438-5.25084E-01-6.87298E-03-1.60315E+03-5.50746E-02 9.46424E-04-9.96104E-05
 -1   1001439 4.86524E-01 6.15667E-03-1.60315E+03 5.10527E-02-8.48125E-04 8.89893E-05
 -1   1001441 4.71124E-01 6.16662E-03-1.60321E+03 4.94149E-02-8.48640E-04 8.90255E-05
 -1   1001442-4.36564E-01-5.52458E-03-1.60321E+03-4.58101E-02 7.60393E-04-8.00802E-05
 -1   1001444-4.22745E-01-5.53351E-03-1.60316E+03-4.43405E-02 7.60853E-04-8.01485E-05
 -1   1001445 3.91774E-01 4.95756E-03-1.60316E+03 4.11102E-02-6.81630E-04 7.15204E-05
 -1   1001447 3.79373E-01 4.96557E-03-1.60320E+03 3.97914E-02-6.82046E-04 7.15448E-05
 -1   1001448-3.51626E-01-4.44977E-03-1.60320E+03-3.68972E-02 6.10922E-04-6.42979E-05
 -1   1001450-3.40495E-01-4.45696E-03-1.60316E+03-3.57136E-02 6.11291E-04-6.43567E-05
 -1   1001451 3.15642E-01 3.99417E-03-1.60316E+03 3.31214E-02-5.47552E-04 5.75001E-05
 -1   1001453 3.05651E-01 4.00063E-03-1.60320E+03 3.20589E-02-5.47885E-04 5.75156E-05
 -1   1001454-2.83397E-01-3.58637E-03-1.60320E+03-2.97378E-02 4.90588E-04-5.16045E-05
 -1   1001456-2.74427E-01-3.59217E-03-1.60316E+03-2.87838E-02 4.90884E-04-5.16563E-05
 -1   1001457 2.54509E-01 3.22055E-03-1.60317E+03 2.67065E-02-4.39451E-04 4.61289E-05
 -1   1001459 2.46453E-01 3.22576E-03-1.60320E+03 2.58498E-02-4.39720E-04 4.61328E-05
 -1   1001460-2.28637E-01-2.89342E-03-1.60319E+03-2.39916E-02 3.93486E-04-4.14183E-05
 -1   1001462-2.21399E-01-2.89809E-03-1.60317E+03-2.32219E-02 3.93723E-04-4.14680E-05
 -1   1001463 2.05471E-01 2.60002E-03-1.60317E+03 2.15609E-02-3.52279E-04 3.69622E-05
 -1   1001465 1.98968E-01 2.60422E-03-1.60319E+03 2.08692E-02-3.52494E-04 3.69599E-05
 -1   1001466-1.84741E-01-2.33795E-03-1.60319E+03-1.93855E-02 3.15194E-04-3.32254E-05
 -1   1001468-1.78893E-01-2.34172E-03-1.60317E+03-1.87635E-02 3.15384E-04-3.32736E-05
 -1   1001469 1.66198E-01 2.10297E-03-1.60317E+03 1.74398E-02-2.81823E-04 2.95178E-05
 -1   1001471 1.60938E-01 2.10638E-03-1.60319E+03 1.68804E-02-2.81997E-04 2.95068E-05
 -1   1001472-1.49624E-01-1.89357E-03-1.60319E+03-1.57005E-02 2.51753E-04-2.65481E-05
 -1   1001474-1.44888E-01-1.89662E-03-1.60317E+03-1.51968E-02 2.51903E-04-2.65935E-05
 -1   1001475 1.34822E-01 1.70588E-03-1.60317E+03 1.41474E-02-2.24758E-04 2.35520E-05
 -1   1001477 1.30555E-01 1.70864E-03-1.60319E+03 1.36937E-02-2.24896E-04 2.35351E-05
 -1   1001478-1.21619E-01-1.53926E-03-1.60319E+03-1.27618E-02 2.00393E-04-2.11024E-05
 -1   1001480-1.17768E-01-1.54174E-03-1.60317E+03-1.23523E-02 2.00511E-04-2.11463E-05
 -1   1001481 1.09854E-01 1.38989E-03-1.60317E+03 1.15274E-02-1.78368E-04 1.86890E-05
 -1   1001483 1.06377E-01 1.39215E-03-1.60319E+03 1.11577E-02-1.78479E-04 1.86651E-05
 -1   1001484-9.93920E-02-1.25808E-03-1.60319E+03-1.04295E-02 1.58496E-04-1.67091E-05
 -1   1001486-9.62454E-02-1.26011E-03-1.60318E+03-1.00948E-02 1.58588E-04-1.67581E-05
 -1   1001487 9.01060E-02 1.13998E-03-1.60318E+03 9.45518E-03-1.40491E-04 1.47255E-05
 -1   1001489 8.72545E-02 1.14183E-03-1.60319E+03 9.15192E-03-1.40578E-04 1.46923E-05
 -1   1001490-8.18886E-02-1.03650E-03-1.60319E+03-8.59281E-03 1.24096E-04-1.31051E-05
 -1   1001492-7.92960E-02-1.03817E-03-1.60318E+03-8.31710E-03 1.24166E-04-1.31618E-05
 -1   1001493 7.46402E-02 9.44286E-04-1.60318E+03 7.83230E-03-1.09211E-04 1.13948E-05
 -1   1001495 7.22782E-02 9.45820E-04-1.60318E+03 7.58111E-03-1.09283E-04 1.13457E-05
 -1   1001496-6.82770E-02-8.64222E-04-1.60318E+03-7.16444E-03 9.56286E-05-1.01495E-05
 -1   1001498-6.61152E-02-8.65610E-04-1.60318E+03-6.93455E-03 9.56801E-05-1.02174E-05
 -1   1001499 6.27212E-02 7.93489E-04-1.60318E+03 6.58167E-03-8.32153E-05 8.62376E-06
 -1   1001501 6.07365E-02 7.94779E-04-1.60318E+03 6.37060E-03-8.32721E-05 8.56448E-06
 -1   1001502-5.79097E-02-7.33021E-04-1.60318E+03-6.07653E-03 7.17455E-05-7.68148E-06
 -1   1001504-5.60761E-02-7.34197E-04-1.60318E+03-5.88154E-03 7.17838E-05-7.75259E-06
 -1   1001505 5.37828E-02 6.80379E-04-1.60318E+03 5.64376E-03-6.11425E-05 6.27303E-06
 -1   1001507 5.20810E-02 6.81488E-04-1.60318E+03 5.46277E-03-6.11872E-05 6.21039E-06
 -1   1001508-5.02944E-02-6.36589E-04-1.60318E+03-5.27739E-03 5.12120E-05-5.52179E-06
 -1   1001510-4.87018E-02-6.37609E-04-1.60318E+03-5.10804E-03 5.12347E-05-5.58901E-06
 -1   1001511 4.74003E-02 5.99723E-04-1.60318E+03 4.97403E-03-4.19458E-05 4.30121E-06
 -1   1001513 4.59006E-02 6.00701E-04-1.60318E+03 4.81452E-03-4.19809E-05 4.24300E-06
 -1   1001514-4.50689E-02-5.70405E-04-1.60318E+03-4.72911E-03 3.31183E-05-3.58599E-06
 -1   1001516-4.36418E-02-5.71319E-04-1.60318E+03-4.57735E-03 3.31323E-05-3.65042E-06
 -1   1001517 4.32694E-02 5.47545E-04-1.60318E+03 4.54054E-03-2.47299E-05 2.49940E-06
 -1   1001519 4.19004E-02 5.48437E-04-1.60318E+03 4.39493E-03-2.47513E-05 2.43995E-06
 -1   1001520-4.19814E-02-5.31079E-04-1.60318E+03-4.40513E-03 1.66140E-05-1.82375E-06
 -1   1001522-4.06521E-02-5.31930E-04-1.60318E+03-4.26377E-03 1.66137E-05-1.88350E-06
 -1   1001523 4.11813E-02 5.21264E-04-1.60318E+03 4.32142E-03-8.74595E-06 8.34841E-07
 -1   1001525 3.98785E-02 5.22112E-04-1.60318E+03 4.18286E-03-8.76009E-06 7.74367E-07
 -1   1001526-4.08388E-02-5.16657E-04-1.60318E+03-4.28523E-03 9.41314E-07-1.16403E-07
 -1   1001528-3.95466E-02-5.17486E-04-1.60318E+03-4.14781E-03 9.36275E-07-1.73871E-07
 -1   1001529 4.08638E-02 5.17995E-04-1.60318E+03 4.28801E-03 6.80936E-06-6.78496E-07
 -1   1001531 3.95740E-02 5.18833E-04-1.60318E+03 4.15084E-03 6.80981E-06-7.36862E-07
 -1   1001532 1.18290E+02 1.21094E+01-1.59241E+03 3.85724E+01-2.50045E-02 8.12415E-03
 -1   1001534 1.12701E+02 1.15840E+01-1.61396E+03 3.67327E+01-2.36583E-02 7.68674E-03
 -1   1001535-2.96905E+01-3.07882E+00-1.60595E+03-9.66728E+00 2.70879E-03-8.80432E-04
 -1   1001537-2.82540E+01-2.94371E+00-1.60041E+03-9.19451E+00 2.34542E-03-7.62374E-04
 -1   1001538 6.03022E+00 6.31829E-01-1.60256E+03 1.96108E+00 2.88258E-03-9.36888E-04
 -1   1001540 5.70557E+00 6.01273E-01-1.60380E+03 1.85424E+00 2.98219E-03-9.69266E-04
 -1   1001541 1.45300E-01 1.58759E-02-1.60324E+03 4.70160E-02-4.01677E-03 1.30488E-03
 -1   1001543 1.76775E-01 1.88499E-02-1.60312E+03 5.73697E-02-4.04546E-03 1.31419E-03
 -1   1001544-1.62774E+00-1.73559E-01-1.60326E+03-5.28261E-01 3.98814E-03-1.29604E-03
 -1   1001546-1.58599E+00-1.69640E-01-1.60310E+03-5.14518E-01 3.99759E-03-1.29912E-03
 -1   1001547 1.86370E+00 1.99227E-01-1.60307E+03 6.04654E-01-3.68101E-03 1.19586E-03
 -1   1001549 1.80739E+00 1.93936E-01-1.60329E+03 5.86122E-01-3.68513E-03 1.19719E-03
 -1   1001550-1.78048E+00-1.90599E-01-1.60329E+03-5.77556E-01 3.32942E-03-1.08196E-03
 -1   1001552-1.72489E+00-1.85375E-01-1.60307E+03-5.59262E-01 3.33194E-03-1.08279E-03
 -1   1001553 1.62634E+00 1.74210E-01-1.60308E+03 5.27517E-01-2.99381E-03 9.72568E-04
 -1   1001555 1.57512E+00 1.69395E-01-1.60328E+03 5.10658E-01-2.99577E-03 9.73195E-04
 -1   1001556-1.46666E+00-1.57147E-01-1.60327E+03-4.75710E-01 2.68706E-03-8.73264E-04
 -1   1001558-1.42035E+00-1.52793E-01-1.60309E+03-4.60466E-01 2.68873E-03-8.73813E-04
 -1   1001559 1.31767E+00 1.41197E-01-1.60310E+03 4.27380E-01-2.41063E-03 7.83090E-04
 -1   1001561 1.27603E+00 1.37283E-01-1.60326E+03 4.13674E-01-2.41211E-03 7.83560E-04
 -1   1001562-1.18249E+00-1.26716E-01-1.60325E+03-3.83531E-01 2.16211E-03-7.02678E-04
 -1   1001564-1.14511E+00-1.23202E-01-1.60311E+03-3.71229E-01 2.16342E-03-7.03114E-04
 -1   1001565 1.06082E+00 1.13680E-01-1.60312E+03 3.44070E-01-1.93929E-03 6.29950E-04
 -1   1001567 1.02729E+00 1.10527E-01-1.60325E+03 3.33032E-01-1.94047E-03 6.30321E-04
 -1   1001568-9.51592E-01-1.01975E-01-1.60324E+03-3.08642E-01 1.73918E-03-5.65256E-04
 -1   1001570-9.21509E-01-9.91470E-02-1.60312E+03-2.98741E-01 1.74023E-03-5.65612E-04
 -1   1001571 8.53598E-01 9.14736E-02-1.60313E+03 2.76858E-01-1.55982E-03 5.06634E-04
 -1   1001573 8.26613E-01 8.89371E-02-1.60323E+03 2.67977E-01-1.56077E-03 5.06923E-04
 -1   1001574-7.65707E-01-8.20550E-02-1.60323E+03-2.48351E-01 1.39880E-03-4.54661E-04
 -1   1001576-7.41500E-01-7.97797E-02-1.60313E+03-2.40384E-01 1.39964E-03-4.54956E-04
 -1   1001577 6.86882E-01 7.36079E-02-1.60314E+03 2.22785E-01-1.25455E-03 4.07479E-04
 -1   1001579 6.65167E-01 7.15668E-02-1.60322E+03 2.15638E-01-1.25532E-03 4.07705E-04
 -1   1001580-6.16193E-01-6.60328E-02-1.60322E+03-1.99857E-01 1.12493E-03-3.65668E-04
 -1   1001582-5.96713E-01-6.42017E-02-1.60314E+03-1.93446E-01 1.12561E-03-3.65915E-04
 -1   1001583 5.52803E-01 5.92397E-02-1.60315E+03 1.79297E-01-1.00884E-03 3.27651E-04
 -1   1001585 5.35327E-01 5.75971E-02-1.60321E+03 1.73546E-01-1.00946E-03 3.27823E-04
 -1   1001586-4.95961E-01-5.31484E-02-1.60321E+03-1.60861E-01 9.04543E-04-2.94043E-04
 -1   1001588-4.80282E-01-5.16747E-02-1.60315E+03-1.55701E-01 9.05082E-04-2.94249E-04
 -1   1001589 4.44994E-01 4.76866E-02-1.60315E+03 1.44330E-01-8.11105E-04 2.63345E-04
 -1   1001591 4.30927E-01 4.63643E-02-1.60321E+03 1.39700E-01-8.11608E-04 2.63471E-04
 -1   1001592-3.99298E-01-4.27898E-02-1.60321E+03-1.29509E-01 7.27056E-04-2.36481E-04
 -1   1001594-3.86675E-01-4.16033E-02-1.60316E+03-1.25355E-01 7.27485E-04-2.36662E-04
 -1   1001595 3.58332E-01 3.83997E-02-1.60316E+03 1.16222E-01-6.51884E-04 2.11596E-04
 -1   1001597 3.47004E-01 3.73349E-02-1.60320E+03 1.12494E-01-6.52290E-04 2.11690E-04
 -1   1001598-3.21611E-01-3.44646E-02-1.60320E+03-1.04312E-01 5.84200E-04-1.89974E-04
 -1   1001600-3.11443E-01-3.35089E-02-1.60316E+03-1.00965E-01 5.84545E-04-1.90122E-04
 -1   1001601 2.88698E-01 3.09376E-02-1.60316E+03 9.36372E-02-5.23635E-04 1.70019E-04
 -1   1001603 2.79572E-01 3.00797E-02-1.60320E+03 9.06334E-02-5.23964E-04 1.70091E-04
 -1   1001604-2.59206E-01-2.77773E-02-1.60320E+03-8.40715E-02 4.69128E-04-1.52554E-04
 -1   1001606-2.51012E-01-2.70070E-02-1.60316E+03-8.13745E-02 4.69402E-04-1.52680E-04
 -1   1001607 2.32784E-01 2.49456E-02-1.60317E+03 7.55018E-02-4.20303E-04 1.36456E-04
 -1   1001609 2.25425E-01 2.42539E-02-1.60320E+03 7.30798E-02-4.20569E-04 1.36504E-04
 -1   1001610-2.09120E-01-2.24099E-02-1.60319E+03-6.78264E-02 3.76299E-04-1.22320E-04
 -1   1001612-2.02509E-01-2.17884E-02-1.60317E+03-6.56505E-02 3.76516E-04-1.22428E-04
 -1   1001613 1.87932E-01 2.01392E-02-1.60317E+03 6.09544E-02-3.36849E-04 1.09414E-04
 -1   1001615 1.81991E-01 1.95808E-02-1.60319E+03 5.89991E-02-3.37066E-04 1.09443E-04
 -1   1001616-1.68971E-01-1.81074E-02-1.60319E+03-5.48045E-02 3.01372E-04-9.79862E-05
 -1   1001618-1.63629E-01-1.76053E-02-1.60317E+03-5.30463E-02 3.01542E-04-9.80878E-05
 -1   1001619 1.52011E-01 1.62899E-02-1.60317E+03 4.93038E-02-2.69514E-04 8.75066E-05
 -1   1001621 1.47206E-01 1.58382E-02-1.60319E+03 4.77222E-02-2.69692E-04 8.75164E-05
 -1   1001622-1.36852E-01-1.46655E-02-1.60319E+03-4.43869E-02 2.40786E-04-7.82966E-05
 -1   1001624-1.32526E-01-1.42588E-02-1.60317E+03-4.29629E-02 2.40919E-04-7.83875E-05
 -1   1001625 1.23314E-01 1.32145E-02-1.60317E+03 3.99961E-02-2.14946E-04 6.97803E-05
 -1   1001627 1.19416E-01 1.28481E-02-1.60319E+03 3.87131E-02-2.15092E-04 6.97766E-05
 -1   1001628-1.11237E-01-1.19205E-02-1.60319E+03-3.60787E-02 1.91612E-04-6.22893E-05
 -1   1001630-1.07720E-01-1.15900E-02-1.60317E+03-3.49212E-02 1.91714E-04-6.23733E-05
 -1   1001631 1.00477E-01 1.07672E-02-1.60317E+03 3.25890E-02-1.70581E-04 5.54034E-05
 -1   1001633 9.73006E-02 1.04687E-02-1.60319E+03 3.15437E-02-1.70699E-04 5.53886E-05
 -1   1001634-9.09078E-02-9.74196E-03-1.60319E+03-2.94850E-02 1.51545E-04-4.92425E-05
 -1   1001636-8.80336E-02-9.47179E-03-1.60318E+03-2.85391E-02 1.51623E-04-4.93201E-05
 -1   1001637 8.24145E-02 8.83165E-03-1.60318E+03 2.67307E-02-1.34293E-04 4.36473E-05
 -1   1001639 7.98095E-02 8.58678E-03-1.60319E+03 2.58733E-02-1.34391E-04 4.36275E-05
 -1   1001640-7.48985E-02-8.02648E-03-1.60319E+03-2.42926E-02 1.18685E-04-3.85687E-05
 -1   1001642-7.25304E-02-7.80388E-03-1.60318E+03-2.35132E-02 1.18741E-04-3.86397E-05
 -1   1001643 6.82689E-02 7.31576E-03-1.60318E+03 2.21426E-02-1.04490E-04 3.39094E-05
 -1   1001645 6.61110E-02 7.11293E-03-1.60318E+03 2.14324E-02-1.04571E-04 3.38780E-05
 -1   1001646-6.24488E-02-6.69219E-03-1.60318E+03-2.02547E-02 9.14420E-05-2.97828E-05
 -1   1001648-6.04743E-02-6.50659E-03-1.60318E+03-1.96048E-02 9.14813E-05-2.98549E-05
 -1   1001649 5.73674E-02 6.14762E-03-1.60318E+03 1.86068E-02-7.96035E-05 2.57500E-05
 -1   1001651 5.55541E-02 5.97718E-03-1.60318E+03 1.80100E-02-7.96697E-05 2.57098E-05
 -1   1001652-5.29665E-02-5.67594E-03-1.60318E+03-1.71791E-02 6.85572E-05-2.24265E-05
 -1   1001654-5.12917E-02-5.51852E-03-1.60318E+03-1.66279E-02 6.85786E-05-2.24960E-05
 -1   1001655 4.91919E-02 5.27166E-03-1.60318E+03 1.59552E-02-5.85110E-05 1.88552E-05
 -1   1001657 4.76371E-02 5.12551E-03-1.60318E+03 1.54434E-02-5.85648E-05 1.88126E-05
 -1   1001658-4.60012E-02-4.92950E-03-1.60318E+03-1.49200E-02 4.89287E-05-1.60618E-05
 -1   1001660-4.45467E-02-4.79279E-03-1.60318E+03-1.44413E-02 4.89420E-05-1.61219E-05
 -1   1001661 4.33543E-02 4.64607E-03-1.60318E+03 1.40618E-02-4.01039E-05 1.28715E-05
 -1   1001663 4.19840E-02 4.51726E-03-1.60318E+03 1.36108E-02-4.01440E-05 1.28328E-05
 -1   1001664-4.12217E-02-4.41732E-03-1.60318E+03-1.33698E-02 3.16309E-05-1.04358E-05
 -1   1001666-3.99183E-02-4.29481E-03-1.60318E+03-1.29408E-02 3.16370E-05-1.04852E-05
 -1   1001667 3.95761E-02 4.24120E-03-1.60318E+03 1.28363E-02-2.37161E-05 7.56502E-06
 -1   1001669 3.83252E-02 4.12362E-03-1.60318E+03 1.24246E-02-2.37462E-05 7.52912E-06
 -1   1001670-3.83978E-02-4.11465E-03-1.60318E+03-1.24539E-02 1.58941E-05-5.27158E-06
 -1   1001672-3.71838E-02-4.00054E-03-1.60318E+03-1.20544E-02 1.58929E-05-5.30867E-06
 -1   1001673 3.76662E-02 4.03655E-03-1.60318E+03 1.22168E-02-8.40840E-06 2.59309E-06
 -1   1001675 3.64758E-02 3.92466E-03-1.60318E+03 1.18250E-02-8.42536E-06 2.56046E-06
 -1   1001676-3.73527E-02-4.00273E-03-1.60318E+03-1.21150E-02 8.78136E-07-4.02050E-07
 -1   1001678-3.61724E-02-3.89180E-03-1.60318E+03-1.17265E-02 8.68918E-07-4.32458E-07
 -1   1001679 3.73758E-02 4.00593E-03-1.60318E+03 1.21224E-02 6.48395E-06-2.18062E-06
 -1   1001681 3.61974E-02 3.89516E-03-1.60318E+03 1.17345E-02 6.48113E-06-2.21236E-06
 -1   1001682 9.80114E+01 3.23881E+01-1.59241E+03 5.68314E+01-2.27690E-02 1.31453E-02
 -1   1001684 9.33890E+01 3.08955E+01-1.61396E+03 5.41209E+01-2.15432E-02 1.24375E-02
 -1   1001685-2.46082E+01-8.16121E+00-1.60595E+03-1.42435E+01 2.46651E-03-1.42442E-03
 -1   1001687-2.34202E+01-7.77755E+00-1.60041E+03-1.35469E+01 2.13562E-03-1.23340E-03
 -1   1001688 4.99922E+00 1.66283E+00-1.60256E+03 2.88940E+00 2.62478E-03-1.51577E-03
 -1   1001690 4.73074E+00 1.57611E+00-1.60380E+03 2.73199E+00 2.71548E-03-1.56816E-03
 -1   1001691 1.20582E-01 4.05938E-02-1.60324E+03 6.92720E-02-3.65769E-03 2.11149E-03
 -1   1001693 1.46614E-01 4.90111E-02-1.60312E+03 8.45268E-02-3.68381E-03 2.12655E-03
 -1   1001694-1.35001E+00-4.51282E-01-1.60326E+03-7.78324E-01 3.63153E-03-2.09686E-03
 -1   1001696-1.31549E+00-4.40138E-01-1.60310E+03-7.58075E-01 3.64013E-03-2.10184E-03
 -1   1001697 1.54581E+00 5.17113E-01-1.60307E+03 8.90879E-01-3.35191E-03 1.93508E-03
 -1   1001699 1.49925E+00 5.02079E-01-1.60329E+03 8.63575E-01-3.35567E-03 1.93724E-03
 -1   1001700-1.47684E+00-4.94239E-01-1.60329E+03-8.50955E-01 3.03175E-03-1.75052E-03
 -1   1001702-1.43087E+00-4.79397E-01-1.60307E+03-8.24001E-01 3.03404E-03-1.75185E-03
 -1   1001703 1.34901E+00 4.51542E-01-1.60308E+03 7.77228E-01-2.72614E-03 1.57381E-03
 -1   1001705 1.30665E+00 4.37864E-01-1.60328E+03 7.52388E-01-2.72793E-03 1.57482E-03
 -1   1001706-1.21657E+00-4.07242E-01-1.60327E+03-7.00897E-01 2.44681E-03-1.41280E-03
 -1   1001708-1.17827E+00-3.94875E-01-1.60309E+03-6.78437E-01 2.44832E-03-1.41369E-03
 -1   1001709 1.09299E+00 3.65884E-01-1.60310E+03 6.29689E-01-2.19514E-03 1.26723E-03
 -1   1001711 1.05855E+00 3.54764E-01-1.60326E+03 6.09495E-01-2.19648E-03 1.26799E-03
 -1   1001712-9.80853E-01-3.28350E-01-1.60325E+03-5.65084E-01 1.96880E-03-1.13684E-03
 -1   1001714-9.49942E-01-3.18369E-01-1.60311E+03-5.46958E-01 1.96999E-03-1.13755E-03
 -1   1001715 8.79934E-01 2.94568E-01-1.60312E+03 5.06942E-01-1.76590E-03 1.01938E-03
 -1   1001717 8.52202E-01 2.85613E-01-1.60325E+03 4.90680E-01-1.76698E-03 1.01998E-03
 -1   1001718-7.89329E-01-2.64237E-01-1.60324E+03-4.54743E-01 1.58364E-03-9.14492E-04
 -1   1001720-7.64452E-01-2.56204E-01-1.60312E+03-4.40155E-01 1.58458E-03-9.15067E-04
 -1   1001721 7.08045E-01 2.37026E-01-1.60313E+03 4.07914E-01-1.42044E-03 8.19880E-04
 -1   1001723 6.85730E-01 2.29821E-01-1.60323E+03 3.94829E-01-1.42132E-03 8.20353E-04
 -1   1001724-6.35141E-01-2.12621E-01-1.60323E+03-3.65913E-01 1.27373E-03-7.35551E-04
 -1   1001726-6.15123E-01-2.06157E-01-1.60313E+03-3.54175E-01 1.27449E-03-7.36021E-04
 -1   1001727 5.69757E-01 1.90733E-01-1.60314E+03 3.28245E-01-1.14238E-03 6.59435E-04
 -1   1001729 5.51800E-01 1.84934E-01-1.60322E+03 3.17715E-01-1.14309E-03 6.59812E-04
 -1   1001730-5.11122E-01-1.71104E-01-1.60322E+03-2.94464E-01 1.02433E-03-5.91524E-04
 -1   1001732-4.95013E-01-1.65902E-01-1.60314E+03-2.85018E-01 1.02493E-03-5.91908E-04
 -1   1001733 4.58541E-01 1.53502E-01-1.60315E+03 2.64172E-01-9.18677E-04 5.30245E-04
 -1   1001735 4.44089E-01 1.48835E-01-1.60321E+03 2.55697E-01-9.19251E-04 5.30538E-04
 -1   1001736-4.11392E-01-1.37718E-01-1.60321E+03-2.37008E-01 8.23647E-04-4.75722E-04
 -1   1001738-3.98426E-01-1.33531E-01-1.60315E+03-2.29405E-01 8.24128E-04-4.76042E-04
 -1   1001739 3.69115E-01 1.23566E-01-1.60315E+03 2.12652E-01-7.38657E-04 4.26223E-04
 -1   1001741 3.57482E-01 1.19809E-01-1.60321E+03 2.05831E-01-7.39125E-04 4.26446E-04
 -1   1001742-3.31211E-01-1.10877E-01-1.60321E+03-1.90815E-01 6.61967E-04-3.82473E-04
 -1   1001744-3.20772E-01-1.07506E-01-1.60316E+03-1.84694E-01 6.62347E-04-3.82742E-04
 -1   1001745 2.97230E-01 9.95014E-02-1.60316E+03 1.71238E-01-5.93676E-04 3.42477E-04
 -1   1001747 2.87863E-01 9.64765E-02-1.60320E+03 1.65745E-01-5.94058E-04 3.42645E-04
 -1   1001748-2.66771E-01-8.93045E-02-1.60320E+03-1.53690E-01 5.31922E-04-3.07352E-04
 -1   1001750-2.58363E-01-8.65896E-02-1.60316E+03-1.48760E-01 5.32222E-04-3.07576E-04
 -1   1001751 2.39471E-01 8.01656E-02-1.60316E+03 1.37962E-01-4.76872E-04 2.75097E-04
 -1   1001753 2.31923E-01 7.77286E-02-1.60320E+03 1.33537E-01-4.77181E-04 2.75226E-04
 -1   1001754-2.15007E-01-7.19762E-02-1.60320E+03-1.23868E-01 4.27111E-04-2.46812E-04
 -1   1001756-2.08231E-01-6.97880E-02-1.60316E+03-1.19895E-01 4.27347E-04-2.46999E-04
 -1   1001757 1.93091E-01 6.46394E-02-1.60317E+03 1.11242E-01-3.82763E-04 2.20817E-04
 -1   1001759 1.87005E-01 6.26743E-02-1.60320E+03 1.07674E-01-3.83016E-04 2.20915E-04
 -1   1001760-1.73461E-01-5.80683E-02-1.60319E+03-9.99334E-02 3.42641E-04-1.97938E-04
 -1   1001762-1.67994E-01-5.63029E-02-1.60317E+03-9.67275E-02 3.42828E-04-1.98094E-04
 -1   1001763 1.55887E-01 5.21849E-02-1.60317E+03 8.98085E-02-3.06773E-04 1.77025E-04
 -1   1001765 1.50974E-01 5.05985E-02-1.60319E+03 8.69276E-02-3.06981E-04 1.77092E-04
 -1   1001766-1.40159E-01-4.69198E-02-1.60319E+03-8.07473E-02 2.74391E-04-1.58488E-04
 -1   1001768-1.35741E-01-4.54934E-02-1.60317E+03-7.81569E-02 2.74534E-04-1.58626E-04
 -1   1001769 1.26091E-01 4.22104E-02-1.60317E+03 7.26427E-02-2.45436E-04 1.41651E-04
 -1   1001771 1.22117E-01 4.09272E-02-1.60319E+03 7.03124E-02-2.45608E-04 1.41695E-04
 -1   1001772-1.13517E-01-3.80010E-02-1.60319E+03-6.53984E-02 2.19224E-04-1.26651E-04
 -1   1001774-1.09939E-01-3.68457E-02-1.60317E+03-6.33004E-02 2.19332E-04-1.26772E-04
 -1   1001775 1.02287E-01 3.42418E-02-1.60317E+03 5.89290E-02-1.95774E-04 1.12901E-04
 -1   1001777 9.90632E-02 3.32009E-02-1.60319E+03 5.70386E-02-1.95918E-04 1.12924E-04
 -1   1001778-9.22692E-02-3.08881E-02-1.60319E+03-5.31574E-02 1.74439E-04-1.00853E-04
 -1   1001780-8.93610E-02-2.99491E-02-1.60317E+03-5.14521E-02 1.74517E-04-1.00960E-04
 -1   1001781 8.33439E-02 2.79005E-02-1.60317E+03 4.80156E-02-1.55391E-04 8.95889E-05
 -1   1001783 8.07172E-02 2.70523E-02-1.60319E+03 4.64753E-02-1.55513E-04 8.95980E-05
 -1   1001784-7.54064E-02-2.52430E-02-1.60319E+03-4.34425E-02 1.37935E-04-7.97333E-05
 -1   1001786-7.30297E-02-2.44756E-02-1.60318E+03-4.20489E-02 1.37993E-04-7.98269E-05
 -1   1001787 6.83615E-02 2.28850E-02-1.60318E+03 3.93841E-02-1.22317E-04 7.05215E-05
 -1   1001789 6.62070E-02 2.21893E-02-1.60319E+03 3.81207E-02-1.22417E-04 7.05202E-05
 -1   1001790-6.21271E-02-2.07976E-02-1.60319E+03-3.57921E-02 1.08035E-04-6.24739E-05
 -1   1001792-6.01690E-02-2.01653E-02-1.60318E+03-3.46438E-02 1.08077E-04-6.25510E-05
 -1   1001793 5.66279E-02 1.89570E-02-1.60318E+03 3.26243E-02-9.51775E-05 5.48345E-05
 -1   1001795 5.48432E-02 1.83807E-02-1.60318E+03 3.15777E-02-9.52573E-05 5.48300E-05
 -1   1001796-5.18002E-02-1.73406E-02-1.60318E+03-2.98427E-02 8.32504E-05-4.81736E-05
 -1   1001798-5.01675E-02-1.68134E-02-1.60318E+03-2.88853E-02 8.32802E-05-4.82389E-05
 -1   1001799 4.75853E-02 1.59299E-02-1.60318E+03 2.74146E-02-7.25079E-05 4.17761E-05
 -1   1001801 4.60856E-02 1.54456E-02-1.60318E+03 2.65352E-02-7.25728E-05 4.17681E-05
 -1   1001802-4.39347E-02-1.47075E-02-1.60318E+03-2.53113E-02 6.24028E-05-3.61104E-05
 -1   1001804-4.25499E-02-1.42603E-02-1.60318E+03-2.44993E-02 6.24213E-05-3.61680E-05
 -1   1001805 4.08040E-02 1.36598E-02-1.60318E+03 2.35078E-02-5.32514E-05 3.06728E-05
 -1   1001807 3.95180E-02 1.32446E-02-1.60318E+03 2.27537E-02-5.33053E-05 3.06565E-05
 -1   1001808-3.81571E-02-1.27733E-02-1.60318E+03-2.19828E-02 4.45709E-05-2.58176E-05
 -1   1001810-3.69545E-02-1.23850E-02-1.60318E+03-2.12776E-02 4.45776E-05-2.58692E-05
 -1   1001811 3.59617E-02 1.20388E-02-1.60318E+03 2.07181E-02-3.65271E-05 2.10123E-05
 -1   1001813 3.48283E-02 1.16728E-02-1.60318E+03 2.00535E-02-3.65709E-05 2.09892E-05
 -1   1001814-3.41927E-02-1.14461E-02-1.60318E+03-1.96987E-02 2.88289E-05-1.67107E-05
 -1   1001816-3.31150E-02-1.10982E-02-1.60318E+03-1.90668E-02 2.88258E-05-1.67539E-05
 -1   1001817 3.28278E-02 1.09897E-02-1.60318E+03 1.89126E-02-2.15802E-05 1.23896E-05
 -1   1001819 3.17931E-02 1.06556E-02-1.60318E+03 1.83059E-02-2.16095E-05 1.23659E-05
 -1   1001820-3.18503E-02-1.06621E-02-1.60318E+03-1.83493E-02 1.45059E-05-8.43220E-06
 -1   1001822-3.08466E-02-1.03380E-02-1.60318E+03-1.77607E-02 1.44978E-05-8.46436E-06
 -1   1001823 3.12434E-02 1.04592E-02-1.60318E+03 1.79999E-02-7.67061E-06 4.32028E-06
 -1   1001825 3.02589E-02 1.01413E-02-1.60318E+03 1.74226E-02-7.68824E-06 4.29647E-06
 -1   1001826-3.09834E-02-1.03719E-02-1.60318E+03-1.78498E-02 7.36827E-07-6.09522E-07
 -1   1001828-3.00075E-02-1.00569E-02-1.60318E+03-1.72776E-02 7.24464E-07-6.31549E-07
 -1   1001829 3.10026E-02 1.03789E-02-1.60318E+03 1.78608E-02 5.84410E-06-3.62032E-06
 -1   1001831 3.00280E-02 1.00642E-02-1.60318E+03 1.72893E-02 5.83904E-06-3.64475E-06
 -1   1001832 7.20592E+01 5.83403E+01-1.59241E+03 6.52638E+01-1.95383E-02 1.75920E-02
 -1   1001834 6.86746E+01 5.56099E+01-1.61396E+03 6.21511E+01-1.84864E-02 1.66449E-02
 -1   1001835-1.81039E+01-1.46655E+01-1.60595E+03-1.63569E+01 2.11651E-03-1.90608E-03
 -1   1001837-1.72340E+01-1.39638E+01-1.60041E+03-1.55569E+01 1.83257E-03-1.65043E-03
 -1   1001838 3.67977E+00 2.98228E+00-1.60256E+03 3.31811E+00 2.25229E-03-2.02832E-03
 -1   1001840 3.48317E+00 2.82367E+00-1.60380E+03 3.13735E+00 2.33012E-03-2.09842E-03
 -1   1001841 8.89490E-02 7.22269E-02-1.60324E+03 7.95502E-02-3.13873E-03 2.82586E-03
 -1   1001843 1.08015E-01 8.76104E-02-1.60312E+03 9.70684E-02-3.16115E-03 2.84603E-03
 -1   1001844-9.94590E-01-8.06704E-01-1.60326E+03-8.93808E-01 3.11626E-03-2.80608E-03
 -1   1001846-9.69312E-01-7.86314E-01-1.60310E+03-8.70555E-01 3.12364E-03-2.81274E-03
 -1   1001847 1.13899E+00 9.23934E-01-1.60307E+03 1.02306E+00-2.87633E-03 2.58971E-03
 -1   1001849 1.10490E+00 8.96432E-01-1.60329E+03 9.91708E-01-2.87956E-03 2.59260E-03
 -1   1001850-1.08825E+00-8.82828E-01-1.60329E+03-9.77215E-01 2.60154E-03-2.34257E-03
 -1   1001852-1.05459E+00-8.55678E-01-1.60307E+03-9.46262E-01 2.60350E-03-2.34436E-03
 -1   1001853 9.94086E-01 8.06464E-01-1.60308E+03 8.92549E-01-2.33933E-03 2.10622E-03
 -1   1001855 9.63068E-01 7.81443E-01-1.60328E+03 8.64023E-01-2.34087E-03 2.10758E-03
 -1   1001856-8.96503E-01-7.27308E-01-1.60327E+03-8.04892E-01 2.09963E-03-1.89062E-03
 -1   1001858-8.68458E-01-7.04684E-01-1.60309E+03-7.79101E-01 2.10092E-03-1.89181E-03
 -1   1001859 8.05438E-01 6.53432E-01-1.60310E+03 7.23119E-01-1.88368E-03 1.69597E-03
 -1   1001861 7.80222E-01 6.33091E-01-1.60326E+03 6.99929E-01-1.88485E-03 1.69699E-03
 -1   1001862-7.22806E-01-5.86396E-01-1.60325E+03-6.48928E-01 1.68942E-03-1.52132E-03
 -1   1001864-7.00173E-01-5.68138E-01-1.60311E+03-6.28113E-01 1.69043E-03-1.52227E-03
 -1   1001865 6.48438E-01 5.26063E-01-1.60312E+03 5.82160E-01-1.51537E-03 1.36425E-03
 -1   1001867 6.28132E-01 5.09683E-01-1.60325E+03 5.63485E-01-1.51631E-03 1.36506E-03
 -1   1001868-5.81671E-01-4.71896E-01-1.60324E+03-5.22216E-01 1.35890E-03-1.22376E-03
 -1   1001870-5.63455E-01-4.57202E-01-1.60312E+03-5.05463E-01 1.35970E-03-1.22452E-03
 -1   1001871 5.21771E-01 4.23301E-01-1.60313E+03 4.68439E-01-1.21895E-03 1.09730E-03
 -1   1001873 5.05431E-01 4.10120E-01-1.60323E+03 4.53412E-01-1.21971E-03 1.09794E-03
 -1   1001874-4.68046E-01-3.79715E-01-1.60323E+03-4.20205E-01 1.09296E-03-9.84310E-04
 -1   1001876-4.53388E-01-3.67891E-01-1.60313E+03-4.06725E-01 1.09360E-03-9.84928E-04
 -1   1001877 4.19864E-01 3.40626E-01-1.60314E+03 3.76948E-01-9.80309E-04 8.82524E-04
 -1   1001879 4.06715E-01 3.30019E-01-1.60322E+03 3.64856E-01-9.80922E-04 8.83039E-04
 -1   1001880-3.76655E-01-3.05571E-01-1.60322E+03-3.38155E-01 8.78976E-04-7.91566E-04
 -1   1001882-3.64859E-01-2.96056E-01-1.60314E+03-3.27307E-01 8.79489E-04-7.92068E-04
 -1   1001883 3.37907E-01 2.74136E-01-1.60315E+03 3.03368E-01-7.88353E-04 7.09661E-04
 -1   1001885 3.27325E-01 2.65600E-01-1.60321E+03 2.93636E-01-7.88853E-04 7.10068E-04
 -1   1001886-3.03162E-01-2.45948E-01-1.60321E+03-2.72174E-01 7.06710E-04-6.36564E-04
 -1   1001888-2.93668E-01-2.38290E-01-1.60315E+03-2.63443E-01 7.07114E-04-6.36977E-04
 -1   1001889 2.72007E-01 2.20674E-01-1.60315E+03 2.44204E-01-6.33881E-04 5.70482E-04
 -1   1001891 2.63489E-01 2.13802E-01-1.60321E+03 2.36371E-01-6.34290E-04 5.70802E-04
 -1   1001892-2.44075E-01-1.98013E-01-1.60321E+03-2.19127E-01 5.68016E-04-5.11741E-04
 -1   1001894-2.36432E-01-1.91847E-01-1.60316E+03-2.12098E-01 5.68335E-04-5.12079E-04
 -1   1001895 2.19034E-01 1.77698E-01-1.60316E+03 1.96646E-01-5.09488E-04 4.58431E-04
 -1   1001897 2.12175E-01 1.72164E-01-1.60320E+03 1.90338E-01-5.09824E-04 4.58680E-04
 -1   1001898-1.96588E-01-1.59487E-01-1.60320E+03-1.76494E-01 4.56383E-04-4.11219E-04
 -1   1001900-1.90431E-01-1.54521E-01-1.60316E+03-1.70832E-01 4.56632E-04-4.11501E-04
 -1   1001901 1.76470E-01 1.43166E-01-1.60316E+03 1.58432E-01-4.09281E-04 3.68237E-04
 -1   1001903 1.70943E-01 1.38708E-01-1.60320E+03 1.53350E-01-4.09561E-04 3.68429E-04
 -1   1001904-1.58443E-01-1.28541E-01-1.60320E+03-1.42247E-01 3.66448E-04-3.30242E-04
 -1   1001906-1.53481E-01-1.24538E-01-1.60316E+03-1.37684E-01 3.66639E-04-3.30476E-04
 -1   1001907 1.42292E-01 1.15438E-01-1.60317E+03 1.27748E-01-3.28503E-04 2.95523E-04
 -1   1001909 1.37836E-01 1.11844E-01-1.60320E+03 1.23650E-01-3.28732E-04 2.95669E-04
 -1   1001910-1.27827E-01-1.03703E-01-1.60319E+03-1.14761E-01 2.93955E-04-2.64929E-04
 -1   1001912-1.23824E-01-1.00474E-01-1.60317E+03-1.11079E-01 2.94104E-04-2.65122E-04
 -1   1001913 1.14876E-01 9.31962E-02-1.60317E+03 1.03134E-01-2.63342E-04 2.36879E-04
 -1   1001915 1.11278E-01 9.02941E-02-1.60319E+03 9.98254E-02-2.63530E-04 2.36988E-04
 -1   1001916-1.03286E-01-8.37931E-02-1.60319E+03-9.27282E-02 2.35388E-04-2.12149E-04
 -1   1001918-1.00051E-01-8.11838E-02-1.60317E+03-8.97535E-02 2.35501E-04-2.12307E-04
 -1   1001919 9.29185E-02 7.53829E-02-1.60317E+03 8.34211E-02-2.10686E-04 1.89505E-04
 -1   1001921 9.00086E-02 7.30355E-02-1.60319E+03 8.07449E-02-2.10840E-04 1.89590E-04
 -1   1001922-8.36524E-02-6.78652E-02-1.60319E+03-7.51019E-02 1.88018E-04-1.69549E-04
 -1   1001924-8.10327E-02-6.57520E-02-1.60317E+03-7.26928E-02 1.88104E-04-1.69681E-04
 -1   1001925 7.53771E-02 6.11519E-02-1.60317E+03 6.76725E-02-1.68094E-04 1.51049E-04
 -1   1001927 7.30165E-02 5.92476E-02-1.60319E+03 6.55015E-02-1.68227E-04 1.51108E-04
 -1   1001928-6.79947E-02-5.51624E-02-1.60319E+03-6.10447E-02 1.49583E-04-1.34984E-04
 -1   1001930-6.58654E-02-5.34447E-02-1.60317E+03-5.90864E-02 1.49644E-04-1.35097E-04
 -1   1001931 6.14176E-02 4.98270E-02-1.60317E+03 5.51399E-02-1.33423E-04 1.19861E-04
 -1   1001933 5.94942E-02 4.82753E-02-1.60319E+03 5.33710E-02-1.33534E-04 1.19902E-04
 -1   1001934-5.55681E-02-4.50810E-02-1.60319E+03-4.98884E-02 1.18279E-04-1.06759E-04
 -1   1001936-5.38280E-02-4.36773E-02-1.60318E+03-4.82881E-02 1.18322E-04-1.06854E-04
 -1   1001937 5.03769E-02 4.08699E-02-1.60318E+03 4.52276E-02-1.05113E-04 9.43521E-05
 -1   1001939 4.87992E-02 3.95971E-02-1.60319E+03 4.37766E-02-1.05206E-04 9.43794E-05
 -1   1001940-4.57824E-02-3.71420E-02-1.60319E+03-4.11029E-02 9.25955E-05-8.36599E-05
 -1   1001942-4.43487E-02-3.59855E-02-1.60318E+03-3.97844E-02 9.26268E-05-8.37402E-05
 -1   1001943 4.17302E-02 3.38551E-02-1.60318E+03 3.74648E-02-8.17368E-05 7.33299E-05
 -1   1001945 4.04233E-02 3.28007E-02-1.60318E+03 3.62628E-02-8.18125E-05 7.33480E-05
 -1   1001946-3.81723E-02-3.09681E-02-1.60318E+03-3.42706E-02 7.13833E-05-6.44708E-05
 -1   1001948-3.69770E-02-3.00038E-02-1.60318E+03-3.31713E-02 7.14047E-05-6.45317E-05
 -1   1001949 3.50665E-02 2.84490E-02-1.60318E+03 3.14823E-02-6.22293E-05 5.59274E-05
 -1   1001951 3.39683E-02 2.75630E-02-1.60318E+03 3.04722E-02-6.22837E-05 5.59423E-05
 -1   1001952-3.23761E-02-2.62658E-02-1.60318E+03-2.90669E-02 5.35739E-05-4.82819E-05
 -1   1001954-3.13623E-02-2.54480E-02-1.60318E+03-2.81345E-02 5.35897E-05-4.83300E-05
 -1   1001955 3.00693E-02 2.43947E-02-1.60318E+03 2.69957E-02-4.56618E-05 4.11186E-05
 -1   1001957 2.91275E-02 2.36349E-02-1.60318E+03 2.61296E-02-4.57058E-05 4.11260E-05
 -1   1001958-2.81185E-02-2.28118E-02-1.60318E+03-2.52445E-02 3.82749E-05-3.44345E-05
 -1   1001960-2.72381E-02-2.21016E-02-1.60318E+03-2.44348E-02 3.82780E-05-3.44803E-05
 -1   1001961 2.65010E-02 2.14998E-02-1.60318E+03 2.37921E-02-3.13293E-05 2.82480E-05
 -1   1001963 2.56709E-02 2.08302E-02-1.60318E+03 2.30288E-02-3.13717E-05 2.82410E-05
 -1   1001964-2.51970E-02-2.04416E-02-1.60318E+03-2.26216E-02 2.47794E-05-2.22715E-05
 -1   1001966-2.44081E-02-1.98052E-02-1.60318E+03-2.18960E-02 2.47706E-05-2.23099E-05
 -1   1001967 2.41915E-02 1.96262E-02-1.60318E+03 2.17187E-02-1.84854E-05 1.66578E-05
 -1   1001969 2.34337E-02 1.90149E-02-1.60318E+03 2.10218E-02-1.85198E-05 1.66400E-05
 -1   1001970-2.34710E-02-1.90413E-02-1.60318E+03-2.10719E-02 1.24506E-05-1.11951E-05
 -1   1001972-2.27362E-02-1.84485E-02-1.60318E+03-2.03961E-02 1.24330E-05-1.12330E-05
 -1   1001973 2.30238E-02 1.86790E-02-1.60318E+03 2.06706E-02-6.53029E-06 5.89382E-06
 -1   1001975 2.23028E-02 1.80973E-02-1.60318E+03 2.00075E-02-6.56232E-06 5.86866E-06
 -1   1001976-2.28322E-02-1.85231E-02-1.60318E+03-2.04983E-02 7.03171E-07-6.35885E-07
 -1   1001978-2.21178E-02-1.79468E-02-1.60318E+03-1.98413E-02 6.77100E-07-6.63804E-07
 -1   1001979 2.28464E-02 1.85350E-02-1.60318E+03 2.05109E-02 5.09581E-06-4.64471E-06
 -1   1001981 2.21326E-02 1.79592E-02-1.60318E+03 1.98545E-02 5.07396E-06-4.67604E-06
 -1   1001982 4.49211E+01 8.54784E+01-1.59241E+03 6.24114E+01-1.54536E-02 2.12699E-02
 -1   1001984 4.28307E+01 8.14538E+01-1.61396E+03 5.94348E+01-1.46217E-02 2.01248E-02
 -1   1001985-1.13023E+01-2.14671E+01-1.60595E+03-1.56420E+01 1.67408E-03-2.30440E-03
 -1   1001987-1.07650E+01-2.04327E+01-1.60041E+03-1.48770E+01 1.44950E-03-1.99530E-03
 -1   1001988 2.30002E+00 4.36202E+00-1.60256E+03 3.17309E+00 1.78145E-03-2.45220E-03
 -1   1001990 2.17859E+00 4.12825E+00-1.60380E+03 3.00023E+00 1.84301E-03-2.53695E-03
 -1   1001991 5.58702E-02 1.05306E-01-1.60324E+03 7.60736E-02-2.48255E-03 3.41674E-03
 -1   1001993 6.76516E-02 1.27974E-01-1.60312E+03 9.28262E-02-2.50028E-03 3.44113E-03
 -1   1001994-6.22924E-01-1.17837E+00-1.60326E+03-8.54744E-01 2.46479E-03-3.39264E-03
 -1   1001996-6.07315E-01-1.14831E+00-1.60310E+03-8.32507E-01 2.47063E-03-3.40070E-03
 -1   1001997 7.13576E-01 1.34935E+00-1.60307E+03 9.78351E-01-2.27500E-03 3.13115E-03
 -1   1001999 6.92522E-01 1.30881E+00-1.60329E+03 9.48365E-01-2.27756E-03 3.13464E-03
 -1   1002000-6.81898E-01-1.28918E+00-1.60329E+03-9.34506E-01 2.05766E-03-2.83223E-03
 -1   1002002-6.61112E-01-1.24916E+00-1.60307E+03-9.04905E-01 2.05921E-03-2.83438E-03
 -1   1002003 6.22943E-01 1.17761E+00-1.60308E+03 8.53541E-01-1.85028E-03 2.54660E-03
 -1   1002005 6.03787E-01 1.14072E+00-1.60328E+03 8.26261E-01-1.85151E-03 2.54825E-03
 -1   1002006-5.61810E-01-1.06200E+00-1.60327E+03-7.69715E-01 1.66069E-03-2.28583E-03
 -1   1002008-5.44490E-01-1.02865E+00-1.60309E+03-7.45050E-01 1.66170E-03-2.28726E-03
 -1   1002009 5.04748E-01 9.54122E-01-1.60310E+03 6.91515E-01-1.48986E-03 2.05053E-03
 -1   1002011 4.89175E-01 9.24138E-01-1.60326E+03 6.69339E-01-1.49079E-03 2.05177E-03
 -1   1002012-4.52967E-01-8.56236E-01-1.60325E+03-6.20567E-01 1.33622E-03-1.83929E-03
 -1   1002014-4.38989E-01-8.29322E-01-1.60311E+03-6.00661E-01 1.33701E-03-1.84043E-03
 -1   1002015 4.06363E-01 7.68139E-01-1.60312E+03 5.56716E-01-1.19860E-03 1.64955E-03
 -1   1002017 3.93822E-01 7.43993E-01-1.60325E+03 5.38858E-01-1.19935E-03 1.65054E-03
 -1   1002018-3.64521E-01-6.89046E-01-1.60324E+03-4.99393E-01 1.07481E-03-1.47955E-03
 -1   1002020-3.53271E-01-6.67385E-01-1.60312E+03-4.83372E-01 1.07544E-03-1.48046E-03
 -1   1002021 3.26983E-01 6.18089E-01-1.60313E+03 4.47966E-01-9.64134E-04 1.32676E-03
 -1   1002023 3.16892E-01 5.98659E-01-1.60323E+03 4.33595E-01-9.64741E-04 1.32755E-03
 -1   1002024-2.93315E-01-5.54446E-01-1.60323E+03-4.01840E-01 8.64434E-04-1.19003E-03
 -1   1002026-2.84262E-01-5.37017E-01-1.60313E+03-3.88949E-01 8.64936E-04-1.19077E-03
 -1   1002027 2.63120E-01 4.97370E-01-1.60314E+03 3.60473E-01-7.75405E-04 1.06706E-03
 -1   1002029 2.54999E-01 4.81735E-01-1.60322E+03 3.48910E-01-7.75897E-04 1.06769E-03
 -1   1002030-2.36042E-01-4.46184E-01-1.60322E+03-3.23376E-01 6.95218E-04-9.57039E-04
 -1   1002032-2.28757E-01-4.32158E-01-1.60314E+03-3.13002E-01 6.95618E-04-9.57636E-04
 -1   1002033 2.11759E-01 4.00284E-01-1.60315E+03 2.90109E-01-6.23558E-04 8.58093E-04
 -1   1002035 2.05224E-01 3.87700E-01-1.60321E+03 2.80803E-01-6.23958E-04 8.58598E-04
 -1   1002036-1.89985E-01-3.59125E-01-1.60321E+03-2.60279E-01 5.58947E-04-7.69521E-04
 -1   1002038-1.84122E-01-3.47835E-01-1.60315E+03-2.51929E-01 5.59264E-04-7.70004E-04
 -1   1002039 1.70461E-01 3.22220E-01-1.60315E+03 2.33532E-01-5.01335E-04 6.89834E-04
 -1   1002041 1.65201E-01 3.12090E-01-1.60321E+03 2.26040E-01-5.01662E-04 6.90236E-04
 -1   1002042-1.52957E-01-2.89131E-01-1.60321E+03-2.09550E-01 4.49302E-04-6.18612E-04
 -1   1002044-1.48236E-01-2.80042E-01-1.60316E+03-2.02828E-01 4.49551E-04-6.19002E-04
 -1   1002045 1.37264E-01 2.59468E-01-1.60316E+03 1.88052E-01-4.02965E-04 5.54405E-04
 -1   1002047 1.33028E-01 2.51311E-01-1.60320E+03 1.82019E-01-4.03234E-04 5.54724E-04
 -1   1002048-1.23198E-01-2.32877E-01-1.60320E+03-1.68780E-01 3.60997E-04-4.97080E-04
 -1   1002050-1.19395E-01-2.25557E-01-1.60316E+03-1.63366E-01 3.61190E-04-4.97400E-04
 -1   1002051 1.10590E-01 2.09046E-01-1.60316E+03 1.51508E-01-3.23714E-04 4.45341E-04
 -1   1002053 1.07177E-01 2.02475E-01-1.60320E+03 1.46648E-01-3.23938E-04 4.45593E-04
 -1   1002054-9.92927E-02-1.87691E-01-1.60320E+03-1.36031E-01 2.89820E-04-3.99174E-04
 -1   1002056-9.62283E-02-1.81791E-01-1.60316E+03-1.31667E-01 2.89965E-04-3.99438E-04
 -1   1002057 8.91714E-02 1.68559E-01-1.60317E+03 1.22164E-01-2.59850E-04 3.57380E-04
 -1   1002059 8.64193E-02 1.63260E-01-1.60320E+03 1.18245E-01-2.60038E-04 3.57574E-04
 -1   1002060-8.01064E-02-1.51423E-01-1.60319E+03-1.09745E-01 2.32451E-04-3.20211E-04
 -1   1002062-7.76342E-02-1.46663E-01-1.60317E+03-1.06225E-01 2.32563E-04-3.20427E-04
 -1   1002063 7.19902E-02 1.36082E-01-1.60317E+03 9.86264E-02-2.08319E-04 2.86460E-04
 -1   1002065 6.97683E-02 1.31804E-01-1.60319E+03 9.54624E-02-2.08474E-04 2.86613E-04
 -1   1002066-6.47268E-02-1.22351E-01-1.60319E+03-8.86755E-02 1.86155E-04-2.56482E-04
 -1   1002068-6.27293E-02-1.18505E-01-1.60317E+03-8.58310E-02 1.86245E-04-2.56656E-04
 -1   1002069 5.82302E-02 1.10071E-01-1.60317E+03 7.97751E-02-1.66686E-04 2.29154E-04
 -1   1002071 5.64330E-02 1.06611E-01-1.60319E+03 7.72158E-02-1.66810E-04 2.29277E-04
 -1   1002072-5.24232E-02-9.90943E-02-1.60319E+03-7.18196E-02 1.48660E-04-2.04964E-04
 -1   1002074-5.08054E-02-9.59794E-02-1.60317E+03-6.95158E-02 1.48726E-04-2.05106E-04
 -1   1002075 4.72373E-02 8.92917E-02-1.60317E+03 6.47149E-02-1.33032E-04 1.82692E-04
 -1   1002077 4.57794E-02 8.64846E-02-1.60319E+03 6.26387E-02-1.33138E-04 1.82785E-04
 -1   1002078-4.26108E-02-8.05461E-02-1.60319E+03-5.83767E-02 1.18225E-04-1.63133E-04
 -1   1002080-4.12958E-02-7.80143E-02-1.60317E+03-5.65041E-02 1.18271E-04-1.63250E-04
 -1   1002081 3.84893E-02 7.27555E-02-1.60317E+03 5.27300E-02-1.05587E-04 1.44968E-04
 -1   1002083 3.73013E-02 7.04681E-02-1.60319E+03 5.10383E-02-1.05675E-04 1.45041E-04
 -1   1002084-3.48234E-02-6.58258E-02-1.60319E+03-4.77080E-02 9.35025E-05-1.29026E-04
 -1   1002086-3.37487E-02-6.37567E-02-1.60318E+03-4.61777E-02 9.35366E-05-1.29119E-04
 -1   1002087 3.15702E-02 5.96766E-02-1.60318E+03 4.32510E-02-8.31900E-05 1.14129E-04
 -1   1002089 3.05958E-02 5.78003E-02-1.60319E+03 4.18634E-02-8.32650E-05 1.14180E-04
 -1   1002090-2.86908E-02-5.42336E-02-1.60319E+03-3.93064E-02 7.31934E-05-1.01079E-04
 -1   1002092-2.78054E-02-5.25290E-02-1.60318E+03-3.80457E-02 7.32140E-05-1.01156E-04
 -1   1002093 2.61516E-02 4.94338E-02-1.60318E+03 3.58274E-02-6.47225E-05 8.87609E-05
 -1   1002095 2.53443E-02 4.78795E-02-1.60318E+03 3.46779E-02-6.47851E-05 8.87995E-05
 -1   1002096-2.39217E-02-4.52185E-02-1.60318E+03-3.27728E-02 5.64065E-05-7.79016E-05
 -1   1002098-2.31836E-02-4.37973E-02-1.60318E+03-3.17216E-02 5.64201E-05-7.79644E-05
 -1   1002099 2.19756E-02 4.15401E-02-1.60318E+03 3.01064E-02-4.92434E-05 6.76123E-05
 -1   1002101 2.12972E-02 4.02340E-02-1.60318E+03 2.91404E-02-4.92893E-05 6.76406E-05
 -1   1002102-2.02894E-02-3.83525E-02-1.60318E+03-2.77965E-02 4.23581E-05-5.84036E-05
 -1   1002104-1.96633E-02-3.71471E-02-1.60318E+03-2.69050E-02 4.23683E-05-5.84496E-05
 -1   1002105 1.88438E-02 3.56202E-02-1.60318E+03 2.58160E-02-3.61113E-05 4.96884E-05
 -1   1002107 1.82621E-02 3.45002E-02-1.60318E+03 2.49876E-02-3.61496E-05 4.97061E-05
 -1   1002108-1.76212E-02-3.33090E-02-1.60318E+03-2.41411E-02 3.02848E-05-4.16292E-05
 -1   1002110-1.70775E-02-3.22622E-02-1.60318E+03-2.33669E-02 3.02877E-05-4.16638E-05
 -1   1002111 1.66077E-02 3.13932E-02-1.60318E+03 2.27524E-02-2.47694E-05 3.41570E-05
 -1   1002113 1.60950E-02 3.04060E-02-1.60318E+03 2.20223E-02-2.48028E-05 3.41629E-05
 -1   1002114-1.57904E-02-2.98482E-02-1.60318E+03-2.16329E-02 1.96250E-05-2.69569E-05
 -1   1002116-1.53032E-02-2.89102E-02-1.60318E+03-2.09391E-02 1.96151E-05-2.69903E-05
 -1   1002117 1.51604E-02 2.86573E-02-1.60318E+03 2.07695E-02-1.45926E-05 2.01503E-05
 -1   1002119 1.46923E-02 2.77561E-02-1.60318E+03 2.01030E-02-1.46303E-05 2.01412E-05
 -1   1002120-1.47087E-02-2.78035E-02-1.60318E+03-2.01509E-02 9.86826E-06-1.34914E-05
 -1   1002122-1.42549E-02-2.69298E-02-1.60318E+03-1.95048E-02 9.84327E-06-1.35246E-05
 -1   1002123 1.44287E-02 2.72743E-02-1.60318E+03 1.97672E-02-5.09443E-06 7.14629E-06
 -1   1002125 1.39833E-02 2.64168E-02-1.60318E+03 1.91330E-02-5.13174E-06 7.12574E-06
 -1   1002126-1.43084E-02-2.70467E-02-1.60318E+03-1.96024E-02 6.64321E-07-6.92570E-07
 -1   1002128-1.38673E-02-2.61974E-02-1.60318E+03-1.89742E-02 6.23852E-07-7.20485E-07
 -1   1002129 1.43175E-02 2.70641E-02-1.60318E+03 1.96144E-02 4.13211E-06-5.46382E-06
 -1   1002131 1.38766E-02 2.62151E-02-1.60318E+03 1.89865E-02 4.09169E-06-5.50260E-06
 -1   1002132 2.12892E+01 1.09110E+02-1.59241E+03 4.87676E+01-1.06936E-02 2.40181E-02
 -1   1002134 2.03259E+01 1.03959E+02-1.61396E+03 4.64417E+01-1.01178E-02 2.27250E-02
 -1   1002135-5.37953E+00-2.73898E+01-1.60595E+03-1.22225E+01 1.15852E-03-2.60205E-03
 -1   1002137-5.13190E+00-2.60658E+01-1.60041E+03-1.16247E+01 1.00312E-03-2.25301E-03
 -1   1002138 1.09854E+00 5.56350E+00-1.60256E+03 2.47942E+00 1.23280E-03-2.76894E-03
 -1   1002140 1.04256E+00 5.26428E+00-1.60380E+03 2.34435E+00 1.27540E-03-2.86463E-03
 -1   1002141 2.70652E-02 1.34111E-01-1.60324E+03 5.94431E-02-1.71783E-03 3.85826E-03
 -1   1002143 3.25033E-02 1.63122E-01-1.60312E+03 7.25333E-02-1.73010E-03 3.88580E-03
 -1   1002144-2.99279E-01-1.50202E+00-1.60326E+03-6.67887E-01 1.70561E-03-3.83092E-03
 -1   1002146-2.92089E-01-1.46354E+00-1.60310E+03-6.50512E-01 1.70965E-03-3.84000E-03
 -1   1002147 3.43128E-01 1.71980E+00-1.60307E+03 7.64472E-01-1.57424E-03 3.53576E-03
 -1   1002149 3.33427E-01 1.66790E+00-1.60329E+03 7.41042E-01-1.57601E-03 3.53971E-03
 -1   1002150-3.28051E-01-1.64302E+00-1.60329E+03-7.30212E-01 1.42392E-03-3.19815E-03
 -1   1002152-3.18474E-01-1.59179E+00-1.60307E+03-7.07083E-01 1.42499E-03-3.20058E-03
 -1   1002153 2.99753E-01 1.50080E+00-1.60308E+03 6.66947E-01-1.28033E-03 2.87570E-03
 -1   1002155 2.90926E-01 1.45358E+00-1.60328E+03 6.45631E-01-1.28118E-03 2.87757E-03
 -1   1002156-2.70360E-01-1.35345E+00-1.60327E+03-6.01446E-01 1.14920E-03-2.58113E-03
 -1   1002158-2.62379E-01-1.31076E+00-1.60309E+03-5.82174E-01 1.14990E-03-2.58274E-03
 -1   1002159 2.42909E-01 1.21596E+00-1.60310E+03 5.40342E-01-1.03092E-03 2.31548E-03
 -1   1002161 2.35733E-01 1.17758E+00-1.60326E+03 5.23014E-01-1.03156E-03 2.31689E-03
 -1   1002162-2.17992E-01-1.09121E+00-1.60325E+03-4.84904E-01 9.24656E-04-2.07686E-03
 -1   1002164-2.11551E-01-1.05676E+00-1.60311E+03-4.69350E-01 9.25204E-04-2.07813E-03
 -1   1002165 1.95564E-01 9.78937E-01-1.60312E+03 4.35012E-01-8.29368E-04 1.86273E-03
 -1   1002167 1.89786E-01 9.48029E-01-1.60325E+03 4.21057E-01-8.29886E-04 1.86385E-03
 -1   1002168-1.75428E-01-8.78139E-01-1.60324E+03-3.90220E-01 7.43775E-04-1.67065E-03
 -1   1002170-1.70244E-01-8.50412E-01-1.60312E+03-3.77702E-01 7.44210E-04-1.67167E-03
 -1   1002171 1.57363E-01 7.87709E-01-1.60313E+03 3.50035E-01-6.67158E-04 1.49825E-03
 -1   1002173 1.52713E-01 7.62838E-01-1.60323E+03 3.38806E-01-6.67583E-04 1.49915E-03
 -1   1002174-1.41160E-01-7.06601E-01-1.60323E+03-3.13993E-01 5.98162E-04-1.34373E-03
 -1   1002176-1.36988E-01-6.84291E-01-1.60313E+03-3.03921E-01 5.98504E-04-1.34455E-03
 -1   1002177 1.26628E-01 6.33862E-01-1.60314E+03 2.81670E-01-5.36591E-04 1.20498E-03
 -1   1002179 1.22886E-01 6.13848E-01-1.60322E+03 2.72634E-01-5.36937E-04 1.20570E-03
 -1   1002180-1.13597E-01-5.68629E-01-1.60322E+03-2.52683E-01 4.81064E-04-1.08066E-03
 -1   1002182-1.10240E-01-5.50675E-01-1.60314E+03-2.44577E-01 4.81337E-04-1.08132E-03
 -1   1002183 1.01911E-01 5.10133E-01-1.60315E+03 2.26688E-01-4.31468E-04 9.69004E-04
 -1   1002185 9.88991E-02 4.94025E-01-1.60321E+03 2.19416E-01-4.31747E-04 9.69585E-04
 -1   1002186-9.14315E-02-4.57678E-01-1.60321E+03-2.03379E-01 3.86822E-04-8.68895E-04
 -1   1002188-8.87297E-02-4.43227E-01-1.60315E+03-1.96855E-01 3.87040E-04-8.69429E-04
 -1   1002189 8.20358E-02 4.10645E-01-1.60315E+03 1.82479E-01-3.46884E-04 7.79025E-04
 -1   1002191 7.96115E-02 3.97679E-01-1.60321E+03 1.76625E-01-3.47110E-04 7.79490E-04
 -1   1002192-7.36115E-02-3.68476E-01-1.60321E+03-1.63740E-01 3.10941E-04-6.98461E-04
 -1   1002194-7.14362E-02-3.56842E-01-1.60316E+03-1.58488E-01 3.11114E-04-6.98892E-04
 -1   1002195 6.60594E-02 3.30673E-01-1.60316E+03 1.46941E-01-2.78819E-04 6.26119E-04
 -1   1002197 6.41073E-02 3.20232E-01-1.60320E+03 1.42227E-01-2.79004E-04 6.26492E-04
 -1   1002198-5.92895E-02-2.96785E-01-1.60320E+03-1.31883E-01 2.49824E-04-5.61252E-04
 -1   1002200-5.75375E-02-2.87415E-01-1.60316E+03-1.27652E-01 2.49959E-04-5.61599E-04
 -1   1002201 5.32224E-02 2.66414E-01-1.60316E+03 1.18387E-01-2.23980E-04 5.02922E-04
 -1   1002203 5.16496E-02 2.58002E-01-1.60320E+03 1.14589E-01-2.24131E-04 5.03220E-04
 -1   1002204-4.77851E-02-2.39198E-01-1.60320E+03-1.06293E-01 2.00559E-04-4.50659E-04
 -1   1002206-4.63731E-02-2.31646E-01-1.60316E+03-1.02883E-01 2.00663E-04-4.50940E-04
 -1   1002207 4.29145E-02 2.14816E-01-1.60317E+03 9.54579E-02-1.79797E-04 4.03647E-04
 -1   1002209 4.16463E-02 2.08033E-01-1.60320E+03 9.23956E-02-1.79925E-04 4.03884E-04
 -1   1002210-3.85515E-02-1.92978E-01-1.60319E+03-8.57539E-02 1.60862E-04-3.61481E-04
 -1   1002212-3.74123E-02-1.86885E-01-1.60317E+03-8.30031E-02 1.60939E-04-3.61708E-04
 -1   1002213 3.46460E-02 1.73426E-01-1.60317E+03 7.70655E-02-1.44151E-04 3.23530E-04
 -1   1002215 3.36221E-02 1.67950E-01-1.60319E+03 7.45931E-02-1.44261E-04 3.23717E-04
 -1   1002216-3.11501E-02-1.55928E-01-1.60319E+03-6.92901E-02 1.28803E-04-2.89582E-04
 -1   1002218-3.02296E-02-1.51005E-01-1.60317E+03-6.70675E-02 1.28860E-04-2.89769E-04
 -1   1002219 2.80238E-02 1.40278E-01-1.60317E+03 6.23354E-02-1.15358E-04 2.58806E-04
 -1   1002221 2.71956E-02 1.35848E-01-1.60319E+03 6.03355E-02-1.15447E-04 2.58955E-04
 -1   1002222-2.52289E-02-1.26288E-01-1.60319E+03-5.61191E-02 1.02843E-04-2.31361E-04
 -1   1002224-2.44835E-02-1.22301E-01-1.60317E+03-5.43190E-02 1.02885E-04-2.31511E-04
 -1   1002225 2.27333E-02 1.13796E-01-1.60317E+03 5.05675E-02-9.20660E-05 2.06414E-04
 -1   1002227 2.20614E-02 1.10202E-01-1.60319E+03 4.89451E-02-9.21408E-05 2.06530E-04
 -1   1002228-2.05067E-02-1.02650E-01-1.60319E+03-4.56149E-02 8.18133E-05-1.84115E-04
 -1   1002230-1.99008E-02-9.94094E-02-1.60317E+03-4.41517E-02 8.18442E-05-1.84234E-04
 -1   1002231 1.85233E-02 9.27215E-02-1.60317E+03 4.12027E-02-7.30533E-05 1.63773E-04
 -1   1002233 1.79758E-02 8.97935E-02-1.60319E+03 3.98808E-02-7.31139E-05 1.63866E-04
 -1   1002234-1.67590E-02-8.38902E-02-1.60319E+03-3.72784E-02 6.47495E-05-1.45618E-04
 -1   1002236-1.62638E-02-8.12418E-02-1.60318E+03-3.60827E-02 6.47744E-05-1.45712E-04
 -1   1002237 1.51934E-02 7.60534E-02-1.60318E+03 3.37959E-02-5.75107E-05 1.29006E-04
 -1   1002239 1.47443E-02 7.36517E-02-1.60319E+03 3.27116E-02-5.75615E-05 1.29076E-04
 -1   1002240-1.38076E-02-6.91167E-02-1.60319E+03-3.07136E-02 5.07082E-05-1.14021E-04
 -1   1002242-1.33997E-02-6.69348E-02-1.60318E+03-2.97285E-02 5.07248E-05-1.14096E-04
 -1   1002243 1.25856E-02 6.29997E-02-1.60318E+03 2.79952E-02-4.47466E-05 1.00325E-04
 -1   1002245 1.22136E-02 6.10100E-02-1.60318E+03 2.70969E-02-4.47884E-05 1.00377E-04
 -1   1002246-1.15124E-02-5.76278E-02-1.60318E+03-2.56082E-02 3.90344E-05-8.79014E-05
 -1   1002248-1.11723E-02-5.58087E-02-1.60318E+03-2.47869E-02 3.90416E-05-8.79601E-05
 -1   1002249 1.05759E-02 5.29398E-02-1.60318E+03 2.35248E-02-3.41131E-05 7.63634E-05
 -1   1002251 1.02633E-02 5.12678E-02-1.60318E+03 2.27700E-02-3.41501E-05 7.64053E-05
 -1   1002252-9.76440E-03-4.88774E-02-1.60318E+03-2.17198E-02 2.92355E-05-6.59528E-05
 -1   1002254-9.47594E-03-4.73346E-02-1.60318E+03-2.10232E-02 2.92358E-05-6.59994E-05
 -1   1002255 9.06874E-03 4.53955E-02-1.60318E+03 2.01723E-02-2.50593E-05 5.61040E-05
 -1   1002257 8.80066E-03 4.39617E-02-1.60318E+03 1.95250E-02-2.50883E-05 5.61334E-05
 -1   1002258-8.48037E-03-4.24498E-02-1.60318E+03-1.88636E-02 2.09431E-05-4.70510E-05
 -1   1002260-8.22987E-03-4.11100E-02-1.60318E+03-1.82586E-02 2.09450E-05-4.70868E-05
 -1   1002261 7.99256E-03 4.00083E-02-1.60318E+03 1.77785E-02-1.71358E-05 3.85225E-05
 -1   1002263 7.75628E-03 3.87446E-02-1.60318E+03 1.72080E-02-1.71571E-05 3.85429E-05
 -1   1002264-7.59920E-03-3.80394E-02-1.60318E+03-1.69037E-02 1.35576E-05-3.04546E-05
 -1   1002266-7.37474E-03-3.68388E-02-1.60318E+03-1.63616E-02 1.35505E-05-3.04774E-05
 -1   1002267 7.29601E-03 3.65216E-02-1.60318E+03 1.62291E-02-1.01178E-05 2.27345E-05
 -1   1002269 7.08031E-03 3.53680E-02-1.60318E+03 1.57083E-02-1.01422E-05 2.27411E-05
 -1   1002270-7.07856E-03-3.54334E-02-1.60318E+03-1.57457E-02 6.82103E-06-1.52576E-05
 -1   1002272-6.86950E-03-3.43152E-02-1.60318E+03-1.52408E-02 6.80675E-06-1.52748E-05
 -1   1002273 6.94404E-03 3.47592E-02-1.60318E+03 1.54459E-02-3.55480E-06 8.03512E-06
 -1   1002275 6.73877E-03 3.36613E-02-1.60318E+03 1.49502E-02-3.58046E-06 8.02726E-06
 -1   1002276-6.88591E-03-3.44690E-02-1.60318E+03-1.53171E-02 4.26730E-07-8.62250E-07
 -1   1002278-6.68268E-03-3.33820E-02-1.60318E+03-1.48263E-02 4.00637E-07-8.69656E-07
 -1   1002279 6.89104E-03 3.44912E-02-1.60318E+03 1.53264E-02 2.83286E-06-6.22486E-06
 -1   1002281 6.68782E-03 3.34043E-02-1.60318E+03 1.48357E-02 2.80499E-06-6.24204E-06
 -1   1002282 5.24993E+00 1.25150E+02-1.59241E+03 2.66914E+01-5.46614E-03 2.57166E-02
 -1   1002284 5.05160E+00 1.19233E+02-1.61396E+03 2.54184E+01-5.17185E-03 2.43321E-02
 -1   1002285-1.35965E+00-3.14097E+01-1.60595E+03-6.68958E+00 5.92311E-04-2.78605E-03
 -1   1002287-1.30861E+00-2.98891E+01-1.60041E+03-6.36243E+00 5.12877E-04-2.41232E-03
 -1   1002288 2.83082E-01 6.37896E+00-1.60256E+03 1.35703E+00 6.30263E-04-2.96472E-03
 -1   1002290 2.71525E-01 6.03532E+00-1.60380E+03 1.28310E+00 6.52045E-04-3.06718E-03
 -1   1002291 7.51492E-03 1.53661E-01-1.60324E+03 3.25342E-02-8.78028E-04 4.13111E-03
 -1   1002293 8.64776E-03 1.86978E-01-1.60312E+03 3.96988E-02-8.84295E-04 4.16061E-03
 -1   1002294-7.96157E-02-1.72168E+00-1.60326E+03-3.65547E-01 8.71924E-04-4.10180E-03
 -1   1002296-7.81408E-02-1.67748E+00-1.60310E+03-3.56037E-01 8.73994E-04-4.11153E-03
 -1   1002297 9.16990E-02 1.97122E+00-1.60307E+03 4.18409E-01-8.04660E-04 3.78585E-03
 -1   1002299 8.97040E-02 1.91162E+00-1.60329E+03 4.05586E-01-8.05559E-04 3.79008E-03
 -1   1002300-8.78898E-02-1.88319E+00-1.60329E+03-3.99659E-01 7.27929E-04-3.42433E-03
 -1   1002302-8.59190E-02-1.82435E+00-1.60307E+03-3.86999E-01 7.28483E-04-3.42693E-03
 -1   1002303 8.03995E-02 1.72015E+00-1.60308E+03 3.65032E-01-6.54394E-04 3.07907E-03
 -1   1002305 7.85830E-02 1.66593E+00-1.60328E+03 3.53366E-01-6.54818E-04 3.08107E-03
 -1   1002306-7.25491E-02-1.55126E+00-1.60327E+03-3.29183E-01 5.87487E-04-2.76364E-03
 -1   1002308-7.09065E-02-1.50224E+00-1.60309E+03-3.18634E-01 5.87852E-04-2.76535E-03
 -1   1002309 6.51944E-02 1.39368E+00-1.60310E+03 2.95739E-01-5.26940E-04 2.47923E-03
 -1   1002311 6.37175E-02 1.34960E+00-1.60326E+03 2.86255E-01-5.27264E-04 2.48074E-03
 -1   1002312-5.85105E-02-1.25069E+00-1.60325E+03-2.65397E-01 4.72710E-04-2.22372E-03
 -1   1002314-5.71848E-02-1.21113E+00-1.60311E+03-2.56884E-01 4.72997E-04-2.22507E-03
 -1   1002315 5.24922E-02 1.12201E+00-1.60312E+03 2.38090E-01-4.23891E-04 1.99444E-03
 -1   1002317 5.13028E-02 1.08651E+00-1.60325E+03 2.30452E-01-4.24150E-04 1.99565E-03
 -1   1002318-4.70874E-02-1.00648E+00-1.60324E+03-2.13574E-01 3.80243E-04-1.78875E-03
 -1   1002320-4.60205E-02-9.74636E-01-1.60312E+03-2.06723E-01 3.80470E-04-1.78983E-03
 -1   1002321 4.22388E-02 9.02833E-01-1.60313E+03 1.91581E-01-3.40992E-04 1.60426E-03
 -1   1002323 4.12818E-02 8.74269E-01-1.60323E+03 1.85435E-01-3.41205E-04 1.60523E-03
 -1   1002324-3.78894E-02-8.09872E-01-1.60323E+03-1.71854E-01 3.05792E-04-1.43871E-03
 -1   1002326-3.70309E-02-7.84249E-01-1.60313E+03-1.66341E-01 3.05970E-04-1.43959E-03
 -1   1002327 3.39893E-02 7.26501E-01-1.60314E+03 1.54163E-01-2.74280E-04 1.29022E-03
 -1   1002329 3.32192E-02 7.03515E-01-1.60322E+03 1.49218E-01-2.74454E-04 1.29101E-03
 -1   1002330-3.04910E-02-6.51735E-01-1.60322E+03-1.38298E-01 2.45905E-04-1.15704E-03
 -1   1002332-2.98001E-02-6.31115E-01-1.60314E+03-1.33861E-01 2.46046E-04-1.15774E-03
 -1   1002333 2.73547E-02 5.84689E-01-1.60315E+03 1.24071E-01-2.20519E-04 1.03752E-03
 -1   1002335 2.67349E-02 5.66190E-01-1.60321E+03 1.20090E-01-2.20659E-04 1.03815E-03
 -1   1002336-2.45415E-02-5.24568E-01-1.60321E+03-1.11313E-01 1.97792E-04-9.30319E-04
 -1   1002338-2.39854E-02-5.07972E-01-1.60315E+03-1.07742E-01 1.97907E-04-9.30884E-04
 -1   1002339 2.20200E-02 4.70661E-01-1.60315E+03 9.98740E-02-1.77255E-04 8.34178E-04
 -1   1002341 2.15210E-02 4.55770E-01-1.60321E+03 9.66700E-02-1.77367E-04 8.34682E-04
 -1   1002342-1.97583E-02-4.22329E-01-1.60321E+03-8.96181E-02 1.59013E-04-7.47869E-04
 -1   1002344-1.93106E-02-4.08968E-01-1.60316E+03-8.67433E-02 1.59105E-04-7.48323E-04
 -1   1002345 1.77317E-02 3.79001E-01-1.60316E+03 8.04237E-02-1.42489E-04 6.70418E-04
 -1   1002347 1.73299E-02 3.67009E-01-1.60320E+03 7.78436E-02-1.42579E-04 6.70824E-04
 -1   1002348-1.59141E-02-3.40161E-01-1.60320E+03-7.21819E-02 1.27709E-04-6.00908E-04
 -1   1002350-1.55535E-02-3.29399E-01-1.60316E+03-6.98664E-02 1.27782E-04-6.01272E-04
 -1   1002351 1.42860E-02 3.05351E-01-1.60316E+03 6.47952E-02-1.14487E-04 5.38494E-04
 -1   1002353 1.39622E-02 2.95689E-01-1.60320E+03 6.27165E-02-1.14559E-04 5.38821E-04
 -1   1002354-1.28261E-02-2.74157E-01-1.60320E+03-5.81760E-02 1.02527E-04-4.82534E-04
 -1   1002356-1.25355E-02-2.65483E-01-1.60316E+03-5.63098E-02 1.02586E-04-4.82826E-04
 -1   1002357 1.15191E-02 2.46211E-01-1.60317E+03 5.22459E-02-9.18861E-05 4.32220E-04
 -1   1002359 1.12581E-02 2.38421E-01-1.60320E+03 5.05698E-02-9.19445E-05 4.32480E-04
 -1   1002360-1.03477E-02-2.21182E-01-1.60319E+03-4.69346E-02 8.22665E-05-3.87023E-04
 -1   1002362-1.01132E-02-2.14184E-01-1.60317E+03-4.54290E-02 8.23128E-05-3.87259E-04
 -1   1002363 9.29975E-03 1.98772E-01-1.60317E+03 4.21794E-02-7.36816E-05 3.46461E-04
 -1   1002365 9.08902E-03 1.92483E-01-1.60319E+03 4.08262E-02-7.37364E-05 3.46670E-04
 -1   1002366-8.36100E-03-1.78717E-01-1.60319E+03-3.79237E-02 6.58267E-05-3.10000E-04
 -1   1002368-8.17157E-03-1.73063E-01-1.60317E+03-3.67072E-02 6.58519E-05-3.10191E-04
 -1   1002369 7.52226E-03 1.60780E-01-1.60317E+03 3.41173E-02-5.89630E-05 2.77133E-04
 -1   1002371 7.35180E-03 1.55692E-01-1.60319E+03 3.30227E-02-5.90131E-05 2.77297E-04
 -1   1002372-6.77169E-03-1.44746E-01-1.60319E+03-3.07150E-02 5.25746E-05-2.47652E-04
 -1   1002374-6.61828E-03-1.40167E-01-1.60317E+03-2.97298E-02 5.25925E-05-2.47803E-04
 -1   1002375 6.10222E-03 1.30427E-01-1.60317E+03 2.76765E-02-4.70287E-05 2.21053E-04
 -1   1002377 5.96394E-03 1.26300E-01-1.60319E+03 2.67885E-02-4.70673E-05 2.21185E-04
 -1   1002378-5.50416E-03-1.17653E-01-1.60319E+03-2.49659E-02 4.18376E-05-1.97094E-04
 -1   1002380-5.37947E-03-1.13931E-01-1.60317E+03-2.41651E-02 4.18528E-05-1.97215E-04
 -1   1002381 4.97210E-03 1.06273E-01-1.60317E+03 2.25510E-02-3.73457E-05 1.75417E-04
 -1   1002383 4.85942E-03 1.02910E-01-1.60319E+03 2.18274E-02-3.73787E-05 1.75524E-04
 -1   1002384-4.49822E-03-9.61507E-02-1.60319E+03-2.04032E-02 3.31013E-05-1.55896E-04
 -1   1002386-4.39632E-03-9.31091E-02-1.60318E+03-1.97488E-02 3.31143E-05-1.55993E-04
 -1   1002387 4.07826E-03 8.71687E-02-1.60318E+03 1.84971E-02-2.93972E-05 1.38167E-04
 -1   1002389 3.98583E-03 8.44102E-02-1.60319E+03 1.79036E-02-2.94206E-05 1.38251E-04
 -1   1002390-3.70604E-03-7.92181E-02-1.60319E+03-1.68101E-02 2.59400E-05-1.22065E-04
 -1   1002392-3.62210E-03-7.67123E-02-1.60318E+03-1.62710E-02 2.59526E-05-1.22139E-04
 -1   1002393 3.37836E-03 7.22071E-02-1.60318E+03 1.53223E-02-2.28409E-05 1.07418E-04
 -1   1002395 3.30179E-03 6.99220E-02-1.60318E+03 1.48306E-02-2.28595E-05 1.07481E-04
 -1   1002396-3.09002E-03-6.60501E-02-1.60318E+03-1.40158E-02 1.99721E-05-9.40511E-05
 -1   1002398-3.02003E-03-6.39610E-02-1.60318E+03-1.35663E-02 1.99771E-05-9.41105E-05
 -1   1002399 2.83886E-03 6.06769E-02-1.60318E+03 1.28756E-02-1.74354E-05 8.18077E-05
 -1   1002401 2.77450E-03 5.87565E-02-1.60318E+03 1.24624E-02-1.74558E-05 8.18567E-05
 -1   1002402-2.62077E-03-5.60209E-02-1.60318E+03-1.18877E-02 1.49104E-05-7.05692E-05
 -1   1002404-2.56141E-03-5.42491E-02-1.60318E+03-1.15065E-02 1.49075E-05-7.06145E-05
 -1   1002405 2.43433E-03 5.20300E-02-1.60318E+03 1.10407E-02-1.28614E-05 6.00947E-05
 -1   1002407 2.37915E-03 5.03832E-02-1.60318E+03 1.06864E-02-1.28791E-05 6.01306E-05
 -1   1002408-2.27616E-03-4.86538E-02-1.60318E+03-1.03244E-02 1.06424E-05-5.04274E-05
 -1   1002410-2.22461E-03-4.71151E-02-1.60318E+03-9.99332E-03 1.06426E-05-5.04596E-05
 -1   1002411 2.14541E-03 4.58555E-02-1.60318E+03 9.73044E-03-8.84224E-06 4.12228E-05
 -1   1002413 2.09677E-03 4.44040E-02-1.60318E+03 9.41815E-03-8.84904E-06 4.12472E-05
 -1   1002414-2.03974E-03-4.35989E-02-1.60318E+03-9.25171E-03 6.83549E-06-3.26311E-05
 -1   1002416-1.99356E-03-4.22201E-02-1.60318E+03-8.95506E-03 6.83963E-06-3.26491E-05
 -1   1002417 1.95845E-03 4.18594E-02-1.60318E+03 8.88245E-03-5.27497E-06 2.43448E-05
 -1   1002419 1.91404E-03 4.05343E-02-1.60318E+03 8.59736E-03-5.27504E-06 2.43620E-05
 -1   1002420-1.89987E-03-4.06120E-02-1.60318E+03-8.61794E-03 3.37374E-06-1.63944E-05
 -1   1002422-1.85685E-03-3.93279E-02-1.60318E+03-8.34165E-03 3.38392E-06-1.64012E-05
 -1   1002423 1.86398E-03 3.98392E-02-1.60318E+03 8.45380E-03-1.96019E-06 8.54663E-06
 -1   1002425 1.82172E-03 3.85782E-02-1.60318E+03 8.18249E-03-1.95219E-06 8.55546E-06
 -1   1002426-1.84815E-03-3.95065E-02-1.60318E+03-8.38334E-03 6.76432E-08-9.38426E-07
 -1   1002428-1.80634E-03-3.82583E-02-1.60318E+03-8.11476E-03 7.99229E-08-9.34076E-07
 -1   1002429 1.85042E-03 3.95320E-02-1.60318E+03 8.38844E-03 1.30796E-06-6.70712E-06
 -1   1002431 1.80858E-03 3.82836E-02-1.60318E+03 8.11984E-03 1.32338E-06-6.70924E-06
 -1   1002432-4.23502E-01 1.30823E+02-1.59241E+03-1.41820E-08 1.39710E-07 2.62911E-02
 -1   1002434-3.51242E-01 1.24636E+02-1.61396E+03-1.43087E-08 1.45231E-07 2.48757E-02
 -1   1002435 6.22656E-02-3.28316E+01-1.60595E+03-5.00163E-09 1.55984E-07-2.84833E-03
 -1   1002437 4.37680E-02-3.12415E+01-1.60041E+03-5.30796E-09 1.63492E-07-2.46625E-03
 -1   1002438-5.36384E-03 6.66741E+00-1.60256E+03-1.19605E-09 1.43337E-07-3.03097E-03
 -1   1002440-1.20704E-03 6.30805E+00-1.60380E+03-1.82634E-09 1.52570E-07-3.13572E-03
 -1   1002441 5.99513E-04 1.60576E-01-1.60324E+03 3.90995E-09 1.21537E-07 4.22339E-03
 -1   1002443 2.09481E-04 1.95416E-01-1.60312E+03 2.92274E-09 1.31217E-07 4.25355E-03
 -1   1002444-1.91645E-03-1.79938E+00-1.60326E+03 1.58339E-08 1.23442E-07-4.19347E-03
 -1   1002446-2.46290E-03-1.75316E+00-1.60310E+03 1.44255E-08 1.35381E-07-4.20341E-03
 -1   1002447 2.76321E-03 2.06016E+00-1.60307E+03 3.41089E-08 1.11162E-07 3.87041E-03
 -1   1002449 3.49398E-03 1.99783E+00-1.60329E+03 3.22532E-08 1.22673E-07 3.87475E-03
 -1   1002450-2.93985E-03-1.96814E+00-1.60329E+03 2.09609E-08 1.00320E-07-3.50082E-03
 -1   1002452-3.65992E-03-1.90661E+00-1.60307E+03 1.88953E-08 1.10807E-07-3.50347E-03
 -1   1002453 2.80942E-03 1.79774E+00-1.60308E+03 3.53996E-08 1.15963E-07 3.14779E-03
 -1   1002455 3.47264E-03 1.74104E+00-1.60328E+03 3.30744E-08 1.28255E-07 3.14984E-03
 -1   1002456-2.57931E-03-1.62123E+00-1.60327E+03 6.01697E-08 9.35191E-08-2.82538E-03
 -1   1002458-3.17884E-03-1.56996E+00-1.60309E+03 5.76155E-08 1.03136E-07-2.82713E-03
 -1   1002459 2.33296E-03 1.45654E+00-1.60310E+03 2.94288E-08 6.88908E-08 2.53464E-03
 -1   1002461 2.87196E-03 1.41044E+00-1.60326E+03 2.70779E-08 7.56137E-08 2.53619E-03
 -1   1002462-2.09883E-03-1.30710E+00-1.60325E+03 1.57283E-08 9.36088E-08-2.27344E-03
 -1   1002464-2.58264E-03-1.26573E+00-1.60311E+03 1.35852E-08 1.03597E-07-2.27482E-03
 -1   1002465 1.88442E-03 1.17262E+00-1.60312E+03-1.68129E-10 8.40612E-08 2.03902E-03
 -1   1002467 2.31847E-03 1.13550E+00-1.60325E+03-2.22750E-09 9.45778E-08 2.04026E-03
 -1   1002468-1.69098E-03-1.05188E+00-1.60324E+03-1.23208E-08 9.07173E-08-1.82874E-03
 -1   1002470-2.08034E-03-1.01858E+00-1.60312E+03-1.44920E-08 1.03831E-07-1.82985E-03
 -1   1002471 1.51696E-03 9.43555E-01-1.60313E+03 3.02736E-08 8.85713E-08 1.64010E-03
 -1   1002473 1.86623E-03 9.13684E-01-1.60323E+03 2.77116E-08 1.02952E-07 1.64109E-03
 -1   1002474-1.36082E-03-8.46400E-01-1.60323E+03 4.15742E-08 7.58524E-08-1.47086E-03
 -1   1002476-1.67413E-03-8.19605E-01-1.60313E+03 3.86348E-08 8.95502E-08-1.47175E-03
 -1   1002477 1.22078E-03 7.59269E-01-1.60314E+03 5.60584E-08 5.73598E-08 1.31906E-03
 -1   1002479 1.50184E-03 7.35232E-01-1.60322E+03 5.27678E-08 6.93073E-08 1.31986E-03
 -1   1002480-1.09508E-03-6.81131E-01-1.60322E+03 3.58705E-08 3.45496E-08-1.18285E-03
 -1   1002482-1.34721E-03-6.59568E-01-1.60314E+03 3.24701E-08 4.43983E-08-1.18356E-03
 -1   1002483 9.82535E-04 6.11061E-01-1.60315E+03 2.50308E-08 3.43508E-08 1.06066E-03
 -1   1002485 1.20873E-03 5.91716E-01-1.60321E+03 2.15806E-08 4.44212E-08 1.06131E-03
 -1   1002486-8.81358E-04-5.48228E-01-1.60321E+03 3.18789E-08 6.56637E-08-9.51106E-04
 -1   1002488-1.08429E-03-5.30873E-01-1.60315E+03 2.81912E-08 7.81805E-08-9.51683E-04
 -1   1002489 7.90993E-04 4.91890E-01-1.60315E+03 6.24543E-08 7.64289E-08 8.52823E-04
 -1   1002491 9.73074E-04 4.76318E-01-1.60321E+03 5.85023E-08 8.86104E-08 8.53341E-04
 -1   1002492-7.09495E-04-4.41378E-01-1.60321E+03 5.67467E-08 7.03336E-08-7.64589E-04
 -1   1002494-8.72881E-04-4.27406E-01-1.60316E+03 5.27278E-08 8.01204E-08-7.65053E-04
 -1   1002495 6.36963E-04 3.96095E-01-1.60316E+03 4.52796E-08 8.07280E-08 6.85394E-04
 -1   1002497 7.83584E-04 3.83555E-01-1.60320E+03 4.13274E-08 9.11322E-08 6.85810E-04
 -1   1002498-5.71404E-04-3.55503E-01-1.60320E+03 5.52891E-08 5.66236E-08-6.14313E-04
 -1   1002500-7.03002E-04-3.44249E-01-1.60316E+03 5.14349E-08 6.51748E-08-6.14686E-04
 -1   1002501 5.13227E-04 3.19123E-01-1.60316E+03 4.81836E-08 2.68357E-08 5.50524E-04
 -1   1002503 6.31355E-04 3.09020E-01-1.60320E+03 4.45335E-08 3.42657E-08 5.50859E-04
 -1   1002504-4.60564E-04-2.86523E-01-1.60320E+03 1.97711E-08 1.12184E-08-4.93277E-04
 -1   1002506-5.66626E-04-2.77452E-01-1.60316E+03 1.64436E-08 1.87480E-08-4.93576E-04
 -1   1002507 4.13837E-04 2.57317E-01-1.60317E+03-4.88396E-10 3.08289E-08 4.41872E-04
 -1   1002509 5.09087E-04 2.49170E-01-1.60320E+03-3.69937E-09 4.13722E-08 4.42140E-04
 -1   1002510-3.71588E-04-2.31158E-01-1.60319E+03 3.18457E-08 5.70215E-08-3.95737E-04
 -1   1002512-4.57156E-04-2.23840E-01-1.60317E+03 2.84209E-08 6.98553E-08-3.95976E-04
 -1   1002513 3.34101E-04 2.07738E-01-1.60317E+03 6.73193E-08 3.87977E-08 3.54210E-04
 -1   1002515 4.11000E-04 2.01161E-01-1.60319E+03 6.35970E-08 4.79525E-08 3.54425E-04
 -1   1002516-3.00167E-04-1.86778E-01-1.60319E+03 6.93366E-08 7.83555E-09-3.16862E-04
 -1   1002518-3.69307E-04-1.80865E-01-1.60317E+03 6.56733E-08 1.31509E-08-3.17052E-04
 -1   1002519 2.70296E-04 1.68031E-01-1.60317E+03 4.36660E-08 2.65410E-09 2.83355E-04
 -1   1002521 3.32494E-04 1.62711E-01-1.60319E+03 4.02614E-08 6.29748E-09 2.83527E-04
 -1   1002522-2.42993E-04-1.51274E-01-1.60319E+03 2.52841E-08 5.46862E-09-2.53169E-04
 -1   1002524-2.98993E-04-1.46486E-01-1.60317E+03 2.22035E-08 8.45808E-09-2.53322E-04
 -1   1002525 2.19369E-04 1.36310E-01-1.60317E+03 4.03479E-08 2.18024E-08 2.25975E-04
 -1   1002527 2.69825E-04 1.31994E-01-1.60319E+03 3.75440E-08 2.77480E-08 2.26113E-04
 -1   1002528-1.97486E-04-1.22959E-01-1.60319E+03 3.73777E-08-1.14664E-08-2.01470E-04
 -1   1002530-2.43003E-04-1.19067E-01-1.60317E+03 3.47721E-08-7.64438E-09-2.01590E-04
 -1   1002531 1.78846E-04 1.11066E-01-1.60317E+03 9.17819E-09-3.64804E-08 1.79366E-04
 -1   1002533 2.19956E-04 1.07550E-01-1.60319E+03 7.02163E-09-3.35680E-08 1.79475E-04
 -1   1002534-1.61344E-04-1.00488E-01-1.60319E+03 1.33529E-08-3.71960E-08-1.59366E-04
 -1   1002536-1.98544E-04-9.73070E-02-1.60318E+03 1.14951E-08-3.37099E-08-1.59463E-04
 -1   1002537 1.46701E-04 9.11004E-02-1.60318E+03 9.41466E-09-1.49597E-08 1.41226E-04
 -1   1002539 1.80421E-04 8.82157E-02-1.60319E+03 7.70350E-09-1.01720E-08 1.41314E-04
 -1   1002540-1.32887E-04-8.27912E-02-1.60319E+03 2.22198E-08 3.30240E-08-1.24807E-04
 -1   1002542-1.63535E-04-8.01708E-02-1.60318E+03 2.06229E-08 3.99189E-08-1.24883E-04
 -1   1002543 1.21521E-04 7.54640E-02-1.60318E+03 7.34461E-09 3.40995E-08 1.09820E-04
 -1   1002545 1.49454E-04 7.30743E-02-1.60318E+03 5.88921E-09 3.96770E-08 1.09885E-04
 -1   1002546-1.10769E-04-6.90293E-02-1.60318E+03 1.32540E-08 3.90316E-08-9.61753E-05
 -1   1002548-1.36322E-04-6.68446E-02-1.60318E+03 1.18679E-08 4.45844E-08-9.62326E-05
 -1   1002549 1.02151E-04 6.34137E-02-1.60318E+03 3.89795E-08 4.41092E-08 8.36519E-05
 -1   1002551 1.25624E-04 6.14055E-02-1.60318E+03 3.75909E-08 4.78763E-08 8.37048E-05
 -1   1002552-9.39096E-05-5.85477E-02-1.60318E+03 3.07296E-08 2.57021E-08-7.21166E-05
 -1   1002554-1.15584E-04-5.66949E-02-1.60318E+03 2.97334E-08 2.69724E-08-7.21591E-05
 -1   1002555 8.76827E-05 5.43768E-02-1.60318E+03 1.23531E-08 3.84543E-09 6.14635E-05
 -1   1002557 1.07808E-04 5.26547E-02-1.60318E+03 1.18234E-08 6.16224E-09 6.15022E-05
 -1   1002558-8.15204E-05-5.08484E-02-1.60318E+03-4.88424E-09-4.55732E-08-5.15164E-05
 -1   1002560-1.00346E-04-4.92394E-02-1.60318E+03-4.96274E-09-4.12873E-08-5.15452E-05
 -1   1002561 7.72971E-05 4.79238E-02-1.60318E+03-1.79477E-08-7.70555E-08 4.21374E-05
 -1   1002563 9.50346E-05 4.64058E-02-1.60318E+03-1.76369E-08-6.85118E-08 4.21628E-05
 -1   1002564-7.30063E-05-4.55653E-02-1.60318E+03-5.19989E-08-8.54318E-08-3.33084E-05
 -1   1002566-8.98750E-05-4.41236E-02-1.60318E+03-5.15583E-08-7.13500E-08-3.33291E-05
 -1   1002567 7.05750E-05 4.37474E-02-1.60318E+03-5.30858E-08-6.15018E-08 2.48939E-05
 -1   1002569 8.67649E-05 4.23617E-02-1.60318E+03-5.28670E-08-3.93035E-08 2.49098E-05
 -1   1002570-6.80244E-05-4.24439E-02-1.60318E+03-7.18194E-09-6.58925E-08-1.67667E-05
 -1   1002572-8.37380E-05-4.11010E-02-1.60318E+03-7.74350E-09-3.90317E-08-1.67757E-05
 -1   1002573 6.71361E-05 4.16362E-02-1.60318E+03-3.39476E-08-1.01339E-07 8.78161E-06
 -1   1002575 8.25438E-05 4.03175E-02-1.60318E+03-3.53603E-08-7.02230E-08 8.78726E-06
 -1   1002576-6.62911E-05-4.12885E-02-1.60318E+03-4.83287E-08-1.58143E-07-9.30687E-07
 -1   1002578-8.15676E-05-3.99832E-02-1.60318E+03-5.10415E-08-1.18150E-07-9.29335E-07
 -1   1002579 6.70901E-05 4.13148E-02-1.60318E+03 7.17059E-08-2.43006E-07-6.86021E-06
 -1   1002581 8.23421E-05 4.00093E-02-1.60318E+03 6.70216E-08-1.98889E-07-6.86500E-06
 -1   1002582 5.24993E+00 1.25150E+02-1.59241E+03-2.66914E+01 5.46638E-03 2.57166E-02
 -1   1002584 5.05160E+00 1.19233E+02-1.61396E+03-2.54184E+01 5.17209E-03 2.43321E-02
 -1   1002585-1.35965E+00-3.14097E+01-1.60595E+03 6.68958E+00-5.92056E-04-2.78611E-03
 -1   1002587-1.30861E+00-2.98891E+01-1.60041E+03 6.36243E+00-5.12613E-04-2.41239E-03
 -1   1002588 2.83082E-01 6.37896E+00-1.60256E+03-1.35703E+00-6.30029E-04-2.96478E-03
 -1   1002590 2.71525E-01 6.03532E+00-1.60380E+03-1.28310E+00-6.51799E-04-3.06724E-03
 -1   1002591 7.51481E-03 1.53661E-01-1.60324E+03-3.25343E-02 8.78227E-04 4.13109E-03
 -1   1002593 8.64766E-03 1.86978E-01-1.60312E+03-3.96988E-02 8.84505E-04 4.16058E-03
 -1   1002594-7.96159E-02-1.72168E+00-1.60326E+03 3.65547E-01-8.71732E-04-4.10187E-03
 -1   1002596-7.81409E-02-1.67748E+00-1.60310E+03 3.56037E-01-8.73786E-04-4.11160E-03
 -1   1002597 9.16988E-02 1.97122E+00-1.60307E+03-4.18409E-01 8.04842E-04 3.78580E-03
 -1   1002599 8.97038E-02 1.91162E+00-1.60329E+03-4.05586E-01 8.05758E-04 3.79003E-03
 -1   1002600-8.78900E-02-1.88319E+00-1.60329E+03 3.99659E-01-7.27754E-04-3.42434E-03
 -1   1002602-8.59193E-02-1.82435E+00-1.60307E+03 3.86999E-01-7.28292E-04-3.42694E-03
 -1   1002603 8.03993E-02 1.72015E+00-1.60308E+03-3.65032E-01 6.54576E-04 3.07897E-03
 -1   1002605 7.85827E-02 1.66593E+00-1.60328E+03-3.53366E-01 6.55019E-04 3.08098E-03
 -1   1002606-7.25493E-02-1.55126E+00-1.60327E+03 3.29183E-01-5.87312E-04-2.76367E-03
 -1   1002608-7.09067E-02-1.50224E+00-1.60309E+03 3.18634E-01-5.87658E-04-2.76539E-03
 -1   1002609 6.51942E-02 1.39368E+00-1.60310E+03-2.95739E-01 5.27089E-04 2.47926E-03
 -1   1002611 6.37173E-02 1.34960E+00-1.60326E+03-2.86255E-01 5.27428E-04 2.48077E-03
 -1   1002612-5.85106E-02-1.25069E+00-1.60325E+03 2.65397E-01-4.72547E-04-2.22377E-03
 -1   1002614-5.71850E-02-1.21113E+00-1.60311E+03 2.56884E-01-4.72814E-04-2.22513E-03
 -1   1002615 5.24920E-02 1.12201E+00-1.60312E+03-2.38090E-01 4.24052E-04 1.99444E-03
 -1   1002617 5.13027E-02 1.08651E+00-1.60325E+03-2.30452E-01 4.24332E-04 1.99564E-03
 -1   1002618-4.70876E-02-1.00648E+00-1.60324E+03 2.13574E-01-3.80093E-04-1.78881E-03
 -1   1002620-4.60207E-02-9.74636E-01-1.60312E+03 2.06723E-01-3.80300E-04-1.78990E-03
 -1   1002621 4.22387E-02 9.02833E-01-1.60313E+03-1.91581E-01 3.41140E-04 1.60421E-03
 -1   1002623 4.12816E-02 8.74269E-01-1.60323E+03-1.85435E-01 3.41374E-04 1.60517E-03
 -1   1002624-3.78896E-02-8.09872E-01-1.60323E+03 1.71854E-01-3.05662E-04-1.43875E-03
 -1   1002626-3.70311E-02-7.84248E-01-1.60313E+03 1.66341E-01-3.05820E-04-1.43963E-03
 -1   1002627 3.39891E-02 7.26501E-01-1.60314E+03-1.54163E-01 2.74380E-04 1.29020E-03
 -1   1002629 3.32189E-02 7.03515E-01-1.60322E+03-1.49218E-01 2.74574E-04 1.29098E-03
 -1   1002630-3.04912E-02-6.51735E-01-1.60322E+03 1.38298E-01-2.45822E-04-1.15702E-03
 -1   1002632-2.98004E-02-6.31115E-01-1.60314E+03 1.33861E-01-2.45945E-04-1.15773E-03
 -1   1002633 2.73544E-02 5.84689E-01-1.60315E+03-1.24071E-01 2.20597E-04 1.03752E-03
 -1   1002635 2.67346E-02 5.66190E-01-1.60321E+03-1.20090E-01 2.20753E-04 1.03815E-03
 -1   1002636-2.45418E-02-5.24568E-01-1.60321E+03 1.11313E-01-1.97684E-04-9.30372E-04
 -1   1002638-2.39857E-02-5.07971E-01-1.60315E+03 1.07742E-01-1.97779E-04-9.30941E-04
 -1   1002639 2.20196E-02 4.70661E-01-1.60315E+03-9.98740E-02 1.77380E-04 8.34124E-04
 -1   1002641 2.15207E-02 4.55770E-01-1.60321E+03-9.66700E-02 1.77514E-04 8.34624E-04
 -1   1002642-1.97586E-02-4.22329E-01-1.60321E+03 8.96181E-02-1.58883E-04-7.47865E-04
 -1   1002644-1.93109E-02-4.08968E-01-1.60316E+03 8.67432E-02-1.58957E-04-7.48323E-04
 -1   1002645 1.77314E-02 3.79001E-01-1.60316E+03-8.04236E-02 1.42615E-04 6.70378E-04
 -1   1002647 1.73296E-02 3.67009E-01-1.60320E+03-7.78437E-02 1.42726E-04 6.70780E-04
 -1   1002648-1.59144E-02-3.40161E-01-1.60320E+03 7.21819E-02-1.27606E-04-6.00924E-04
 -1   1002650-1.55538E-02-3.29399E-01-1.60316E+03 6.98664E-02-1.27660E-04-6.01294E-04
 -1   1002651 1.42857E-02 3.05351E-01-1.60316E+03-6.47951E-02 1.14571E-04 5.38485E-04
 -1   1002653 1.39620E-02 2.95689E-01-1.60320E+03-6.27165E-02 1.14662E-04 5.38808E-04
 -1   1002654-1.28263E-02-2.74157E-01-1.60320E+03 5.81760E-02-1.02444E-04-4.82508E-04
 -1   1002656-1.25357E-02-2.65483E-01-1.60316E+03 5.63098E-02-1.02484E-04-4.82806E-04
 -1   1002657 1.15189E-02 2.46211E-01-1.60317E+03-5.22459E-02 9.19715E-05 4.32176E-04
 -1   1002659 1.12579E-02 2.38421E-01-1.60320E+03-5.05698E-02 9.20494E-05 4.32434E-04
 -1   1002660-1.03479E-02-2.21182E-01-1.60319E+03 4.69346E-02-8.21834E-05-3.87114E-04
 -1   1002662-1.01134E-02-2.14184E-01-1.60317E+03 4.54291E-02-8.22098E-05-3.87353E-04
 -1   1002663 9.29951E-03 1.98772E-01-1.60317E+03-4.21793E-02 7.37374E-05 3.46459E-04
 -1   1002665 9.08879E-03 1.92483E-01-1.60319E+03-4.08262E-02 7.38089E-05 3.46664E-04
 -1   1002666-8.36124E-03-1.78717E-01-1.60319E+03 3.79237E-02-6.58195E-05-3.09981E-04
 -1   1002668-8.17180E-03-1.73063E-01-1.60317E+03 3.67072E-02-6.58312E-05-3.10174E-04
 -1   1002669 7.52204E-03 1.60780E-01-1.60317E+03-3.41172E-02 5.89584E-05 2.77169E-04
 -1   1002671 7.35159E-03 1.55692E-01-1.60319E+03-3.30227E-02 5.90213E-05 2.77331E-04
 -1   1002672-6.77184E-03-1.44746E-01-1.60319E+03 3.07150E-02-5.25932E-05-2.47643E-04
 -1   1002674-6.61842E-03-1.40166E-01-1.60317E+03 2.97298E-02-5.25998E-05-2.47798E-04
 -1   1002675 6.10204E-03 1.30427E-01-1.60317E+03-2.76765E-02 4.70455E-05 2.21006E-04
 -1   1002677 5.96377E-03 1.26300E-01-1.60319E+03-2.67885E-02 4.71000E-05 2.21135E-04
 -1   1002678-5.50426E-03-1.17653E-01-1.60319E+03 2.49659E-02-4.18410E-05-1.97069E-04
 -1   1002680-5.37956E-03-1.13931E-01-1.60317E+03 2.41651E-02-4.18426E-05-1.97194E-04
 -1   1002681 4.97203E-03 1.06273E-01-1.60317E+03-2.25509E-02 3.73143E-05 1.75440E-04
 -1   1002683 4.85936E-03 1.02910E-01-1.60319E+03-2.18274E-02 3.73587E-05 1.75546E-04
 -1   1002684-4.49828E-03-9.61507E-02-1.60319E+03 2.04032E-02-3.30983E-05-1.55889E-04
 -1   1002686-4.39638E-03-9.31091E-02-1.60318E+03 1.97488E-02-3.30999E-05-1.55987E-04
 -1   1002687 4.07830E-03 8.71687E-02-1.60318E+03-1.84971E-02 2.94435E-05 1.38135E-04
 -1   1002689 3.98587E-03 8.44103E-02-1.60319E+03-1.79036E-02 2.94792E-05 1.38217E-04
 -1   1002690-3.70605E-03-7.92181E-02-1.60319E+03 1.68101E-02-2.58404E-05-1.22104E-04
 -1   1002692-3.62210E-03-7.67123E-02-1.60318E+03 1.62710E-02-2.58368E-05-1.22183E-04
 -1   1002693 3.37833E-03 7.22071E-02-1.60318E+03-1.53222E-02 2.29336E-05 1.07411E-04
 -1   1002695 3.30177E-03 6.99220E-02-1.60318E+03-1.48306E-02 2.29652E-05 1.07470E-04
 -1   1002696-3.09001E-03-6.60501E-02-1.60318E+03 1.40159E-02-1.99076E-05-9.41010E-05
 -1   1002698-3.02002E-03-6.39609E-02-1.60318E+03 1.35664E-02-1.98996E-05-9.41608E-05
 -1   1002699 2.83888E-03 6.06768E-02-1.60318E+03-1.28755E-02 1.74506E-05 8.18093E-05
 -1   1002701 2.77453E-03 5.87565E-02-1.60318E+03-1.24624E-02 1.74814E-05 8.18567E-05
 -1   1002702-2.62077E-03-5.60210E-02-1.60318E+03 1.18877E-02-1.49667E-05-7.05286E-05
 -1   1002704-2.56141E-03-5.42491E-02-1.60318E+03 1.15065E-02-1.49547E-05-7.05750E-05
 -1   1002705 2.43437E-03 5.20300E-02-1.60318E+03-1.10406E-02 1.27909E-05 6.01189E-05
 -1   1002707 2.37919E-03 5.03832E-02-1.60318E+03-1.06863E-02 1.28205E-05 6.01493E-05
 -1   1002708-2.27604E-03-4.86539E-02-1.60318E+03 1.03244E-02-1.07014E-05-5.03839E-05
 -1   1002710-2.22450E-03-4.71151E-02-1.60318E+03 9.99337E-03-1.06875E-05-5.04169E-05
 -1   1002711 2.14558E-03 4.58555E-02-1.60318E+03-9.73040E-03 8.81402E-06 4.12369E-05
 -1   1002713 2.09694E-03 4.44040E-02-1.60318E+03-9.41812E-03 8.84283E-06 4.12570E-05
 -1   1002714-2.03949E-03-4.35989E-02-1.60318E+03 9.25176E-03-6.84064E-06-3.25834E-05
 -1   1002716-1.99331E-03-4.22201E-02-1.60318E+03 8.95511E-03-6.81716E-06-3.26085E-05
 -1   1002717 1.95866E-03 4.18594E-02-1.60318E+03-8.88240E-03 5.26911E-06 2.42763E-05
 -1   1002719 1.91425E-03 4.05344E-02-1.60318E+03-8.59731E-03 5.30223E-06 2.42861E-05
 -1   1002720-1.89971E-03-4.06121E-02-1.60318E+03 8.61799E-03-3.37821E-06-1.63975E-05
 -1   1002722-1.85670E-03-3.93279E-02-1.60318E+03 8.34168E-03-3.34929E-06-1.64148E-05
 -1   1002723 1.86411E-03 3.98392E-02-1.60318E+03-8.45376E-03 1.91540E-06 8.61923E-06
 -1   1002725 1.82185E-03 3.85783E-02-1.60318E+03-8.18247E-03 1.94889E-06 8.61582E-06
 -1   1002726-1.84819E-03-3.95067E-02-1.60318E+03 8.38340E-03-1.34320E-07-9.81412E-07
 -1   1002728-1.80638E-03-3.82583E-02-1.60318E+03 8.11480E-03-9.87836E-08-9.89191E-07
 -1   1002729 1.85003E-03 3.95316E-02-1.60318E+03-8.38835E-03-1.38266E-06-6.76881E-06
 -1   1002731 1.80820E-03 3.82834E-02-1.60318E+03-8.11980E-03-1.34912E-06-6.78398E-06
 -1   1002732 2.12892E+01 1.09110E+02-1.59241E+03-4.87676E+01 1.06937E-02 2.40181E-02
 -1   1002734 2.03259E+01 1.03959E+02-1.61396E+03-4.64417E+01 1.01180E-02 2.27250E-02
 -1   1002735-5.37953E+00-2.73898E+01-1.60595E+03 1.22225E+01-1.15842E-03-2.60210E-03
 -1   1002737-5.13190E+00-2.60658E+01-1.60041E+03 1.16247E+01-1.00301E-03-2.25306E-03
 -1   1002738 1.09854E+00 5.56350E+00-1.60256E+03-2.47942E+00-1.23270E-03-2.76900E-03
 -1   1002740 1.04256E+00 5.26428E+00-1.60380E+03-2.34435E+00-1.27530E-03-2.86469E-03
 -1   1002741 2.70652E-02 1.34111E-01-1.60324E+03-5.94430E-02 1.71792E-03 3.85824E-03
 -1   1002743 3.25034E-02 1.63122E-01-1.60312E+03-7.25333E-02 1.73019E-03 3.88578E-03
 -1   1002744-2.99279E-01-1.50202E+00-1.60326E+03 6.67887E-01-1.70552E-03-3.83097E-03
 -1   1002746-2.92089E-01-1.46354E+00-1.60310E+03 6.50512E-01-1.70956E-03-3.84006E-03
 -1   1002747 3.43128E-01 1.71980E+00-1.60307E+03-7.64472E-01 1.57434E-03 3.53571E-03
 -1   1002749 3.33427E-01 1.66790E+00-1.60329E+03-7.41042E-01 1.57611E-03 3.53966E-03
 -1   1002750-3.28051E-01-1.64302E+00-1.60329E+03 7.30212E-01-1.42381E-03-3.19817E-03
 -1   1002752-3.18474E-01-1.59179E+00-1.60307E+03 7.07083E-01-1.42488E-03-3.20061E-03
 -1   1002753 2.99753E-01 1.50080E+00-1.60308E+03-6.66947E-01 1.28043E-03 2.87563E-03
 -1   1002755 2.90926E-01 1.45358E+00-1.60328E+03-6.45631E-01 1.28128E-03 2.87750E-03
 -1   1002756-2.70360E-01-1.35345E+00-1.60327E+03 6.01446E-01-1.14908E-03-2.58120E-03
 -1   1002758-2.62379E-01-1.31076E+00-1.60309E+03 5.82174E-01-1.14977E-03-2.58281E-03
 -1   1002759 2.42909E-01 1.21596E+00-1.60310E+03-5.40342E-01 1.03107E-03 2.31548E-03
 -1   1002761 2.35733E-01 1.17758E+00-1.60326E+03-5.23014E-01 1.03172E-03 2.31688E-03
 -1   1002762-2.17992E-01-1.09121E+00-1.60325E+03 4.84904E-01-9.24539E-04-2.07694E-03
 -1   1002764-2.11551E-01-1.05676E+00-1.60311E+03 4.69350E-01-9.25072E-04-2.07821E-03
 -1   1002765 1.95564E-01 9.78937E-01-1.60312E+03-4.35012E-01 8.29461E-04 1.86266E-03
 -1   1002767 1.89785E-01 9.48029E-01-1.60325E+03-4.21057E-01 8.29991E-04 1.86378E-03
 -1   1002768-1.75428E-01-8.78139E-01-1.60324E+03 3.90220E-01-7.43671E-04-1.67068E-03
 -1   1002770-1.70244E-01-8.50412E-01-1.60312E+03 3.77702E-01-7.44095E-04-1.67170E-03
 -1   1002771 1.57363E-01 7.87709E-01-1.60313E+03-3.50035E-01 6.67243E-04 1.49821E-03
 -1   1002773 1.52713E-01 7.62838E-01-1.60323E+03-3.38806E-01 6.67677E-04 1.49910E-03
 -1   1002774-1.41160E-01-7.06602E-01-1.60323E+03 3.13993E-01-5.98087E-04-1.34378E-03
 -1   1002776-1.36988E-01-6.84291E-01-1.60313E+03 3.03921E-01-5.98419E-04-1.34461E-03
 -1   1002777 1.26628E-01 6.33862E-01-1.60314E+03-2.81670E-01 5.36680E-04 1.20493E-03
 -1   1002779 1.22886E-01 6.13848E-01-1.60322E+03-2.72634E-01 5.37038E-04 1.20564E-03
 -1   1002780-1.13597E-01-5.68629E-01-1.60322E+03 2.52683E-01-4.80941E-04-1.08069E-03
 -1   1002782-1.10240E-01-5.50675E-01-1.60314E+03 2.44577E-01-4.81199E-04-1.08136E-03
 -1   1002783 1.01911E-01 5.10132E-01-1.60315E+03-2.26688E-01 4.31577E-04 9.68980E-04
 -1   1002785 9.88990E-02 4.94025E-01-1.60321E+03-2.19416E-01 4.31868E-04 9.69555E-04
 -1   1002786-9.14316E-02-4.57678E-01-1.60321E+03 2.03379E-01-3.86746E-04-8.68961E-04
 -1   1002788-8.87298E-02-4.43227E-01-1.60315E+03 1.96855E-01-3.86952E-04-8.69500E-04
 -1   1002789 8.20357E-02 4.10645E-01-1.60315E+03-1.82479E-01 3.46973E-04 7.78989E-04
 -1   1002791 7.96115E-02 3.97679E-01-1.60321E+03-1.76625E-01 3.47213E-04 7.79449E-04
 -1   1002792-7.36116E-02-3.68476E-01-1.60321E+03 1.63740E-01-3.10854E-04-6.98498E-04
 -1   1002794-7.14363E-02-3.56842E-01-1.60316E+03 1.58488E-01-3.11014E-04-6.98935E-04
 -1   1002795 6.60593E-02 3.30673E-01-1.60316E+03-1.46941E-01 2.78899E-04 6.26067E-04
 -1   1002797 6.41072E-02 3.20232E-01-1.60320E+03-1.42228E-01 2.79101E-04 6.26432E-04
 -1   1002798-5.92897E-02-2.96785E-01-1.60320E+03 1.31883E-01-2.49734E-04-5.61276E-04
 -1   1002800-5.75376E-02-2.87415E-01-1.60316E+03 1.27652E-01-2.49852E-04-5.61631E-04
 -1   1002801 5.32222E-02 2.66414E-01-1.60316E+03-1.18387E-01 2.24076E-04 5.02878E-04
 -1   1002803 5.16494E-02 2.58002E-01-1.60320E+03-1.14589E-01 2.24245E-04 5.03168E-04
 -1   1002804-4.77853E-02-2.39198E-01-1.60320E+03 1.06293E-01-2.00455E-04-4.50688E-04
 -1   1002806-4.63733E-02-2.31646E-01-1.60316E+03 1.02883E-01-2.00542E-04-4.50977E-04
 -1   1002807 4.29143E-02 2.14816E-01-1.60317E+03-9.54580E-02 1.79874E-04 4.03615E-04
 -1   1002809 4.16461E-02 2.08033E-01-1.60320E+03-9.23957E-02 1.80015E-04 4.03846E-04
 -1   1002810-3.85517E-02-1.92978E-01-1.60319E+03 8.57538E-02-1.60830E-04-3.61558E-04
 -1   1002812-3.74125E-02-1.86885E-01-1.60317E+03 8.30029E-02-1.60895E-04-3.61791E-04
 -1   1002813 3.46458E-02 1.73426E-01-1.60317E+03-7.70655E-02 1.44203E-04 3.23523E-04
 -1   1002815 3.36220E-02 1.67950E-01-1.60319E+03-7.45932E-02 1.44328E-04 3.23702E-04
 -1   1002816-3.11502E-02-1.55928E-01-1.60319E+03 6.92901E-02-1.28765E-04-2.89575E-04
 -1   1002818-3.02297E-02-1.51005E-01-1.60317E+03 6.70674E-02-1.28803E-04-2.89769E-04
 -1   1002819 2.80236E-02 1.40278E-01-1.60317E+03-6.23353E-02 1.15380E-04 2.58798E-04
 -1   1002821 2.71955E-02 1.35848E-01-1.60319E+03-6.03356E-02 1.15492E-04 2.58937E-04
 -1   1002822-2.52290E-02-1.26289E-01-1.60319E+03 5.61191E-02-1.02848E-04-2.31332E-04
 -1   1002824-2.44835E-02-1.22301E-01-1.60317E+03 5.43189E-02-1.02871E-04-2.31490E-04
 -1   1002825 2.27332E-02 1.13796E-01-1.60317E+03-5.05675E-02 9.20512E-05 2.06386E-04
 -1   1002827 2.20614E-02 1.10203E-01-1.60319E+03-4.89452E-02 9.21474E-05 2.06494E-04
 -1   1002828-2.05068E-02-1.02650E-01-1.60319E+03 4.56150E-02-8.18099E-05-1.84138E-04
 -1   1002830-1.99009E-02-9.94094E-02-1.60317E+03 4.41517E-02-8.18199E-05-1.84266E-04
 -1   1002831 1.85232E-02 9.27215E-02-1.60317E+03-4.12026E-02 7.31033E-05 1.63774E-04
 -1   1002833 1.79758E-02 8.97936E-02-1.60319E+03-3.98808E-02 7.31863E-05 1.63857E-04
 -1   1002834-1.67590E-02-8.38901E-02-1.60319E+03 3.72785E-02-6.46761E-05-1.45627E-04
 -1   1002836-1.62638E-02-8.12416E-02-1.60318E+03 3.60827E-02-6.46803E-05-1.45729E-04
 -1   1002837 1.51934E-02 7.60535E-02-1.60318E+03-3.37958E-02 5.75731E-05 1.28993E-04
 -1   1002839 1.47444E-02 7.36519E-02-1.60319E+03-3.27116E-02 5.76416E-05 1.29056E-04
 -1   1002840-1.38076E-02-6.91167E-02-1.60319E+03 3.07136E-02-5.06425E-05-1.14087E-04
 -1   1002842-1.33997E-02-6.69347E-02-1.60318E+03 2.97285E-02-5.06419E-05-1.14169E-04
 -1   1002843 1.25856E-02 6.29997E-02-1.60318E+03-2.79951E-02 4.48082E-05 1.00282E-04
 -1   1002845 1.22137E-02 6.10102E-02-1.60318E+03-2.70969E-02 4.48666E-05 1.00329E-04
 -1   1002846-1.15124E-02-5.76278E-02-1.60318E+03 2.56083E-02-3.89752E-05-8.79134E-05
 -1   1002848-1.11723E-02-5.58086E-02-1.60318E+03 2.47869E-02-3.89674E-05-8.79798E-05
 -1   1002849 1.05760E-02 5.29396E-02-1.60318E+03-2.35247E-02 3.41178E-05 7.63677E-05
 -1   1002851 1.02634E-02 5.12677E-02-1.60318E+03-2.27699E-02 3.41727E-05 7.63982E-05
 -1   1002852-9.76435E-03-4.88775E-02-1.60318E+03 2.17199E-02-2.92723E-05-6.59216E-05
 -1   1002854-9.47587E-03-4.73346E-02-1.60318E+03 2.10233E-02-2.92552E-05-6.59773E-05
 -1   1002855 9.06880E-03 4.53954E-02-1.60318E+03-2.01723E-02 2.50534E-05 5.60862E-05
 -1   1002857 8.80074E-03 4.39617E-02-1.60318E+03-1.95250E-02 2.51041E-05 5.61054E-05
 -1   1002858-8.48027E-03-4.24498E-02-1.60318E+03 1.88636E-02-2.08541E-05-4.70678E-05
 -1   1002860-8.22975E-03-4.11099E-02-1.60318E+03 1.82587E-02-2.08321E-05-4.71109E-05
 -1   1002861 7.99263E-03 4.00083E-02-1.60318E+03-1.77784E-02 1.72902E-05 3.84636E-05
 -1   1002863 7.75637E-03 3.87447E-02-1.60318E+03-1.72079E-02 1.73364E-05 3.84723E-05
 -1   1002864-7.59920E-03-3.80393E-02-1.60318E+03 1.69038E-02-1.33904E-05-3.05371E-05
 -1   1002866-7.37471E-03-3.68387E-02-1.60318E+03 1.63617E-02-1.33637E-05-3.05725E-05
 -1   1002867 7.29603E-03 3.65217E-02-1.60318E+03-1.62290E-02 1.02761E-05 2.26596E-05
 -1   1002869 7.08035E-03 3.53682E-02-1.60318E+03-1.57082E-02 1.03147E-05 2.26581E-05
 -1   1002870-7.07859E-03-3.54335E-02-1.60318E+03 1.57458E-02-6.67751E-06-1.53308E-05
 -1   1002872-6.86950E-03-3.43152E-02-1.60318E+03 1.52409E-02-6.65122E-06-1.53530E-05
 -1   1002873 6.94394E-03 3.47592E-02-1.60318E+03-1.54457E-02 3.71443E-06 7.99154E-06
 -1   1002875 6.73870E-03 3.36615E-02-1.60318E+03-1.49501E-02 3.74421E-06 7.98388E-06
 -1   1002876-6.88603E-03-3.44690E-02-1.60318E+03 1.53172E-02-2.13960E-07-1.00378E-06
 -1   1002878-6.68277E-03-3.33818E-02-1.60318E+03 1.48264E-02-1.91458E-07-1.01398E-06
 -1   1002879 6.89087E-03 3.44909E-02-1.60318E+03-1.53264E-02-2.53741E-06-6.38499E-06
 -1   1002881 6.68771E-03 3.34043E-02-1.60318E+03-1.48358E-02-2.51788E-06-6.40365E-06
 -1   1002882 4.49211E+01 8.54784E+01-1.59241E+03-6.24114E+01 1.54536E-02 2.12700E-02
 -1   1002884 4.28307E+01 8.14538E+01-1.61396E+03-5.94348E+01 1.46216E-02 2.01248E-02
 -1   1002885-1.13023E+01-2.14671E+01-1.60595E+03 1.56420E+01-1.67413E-03-2.30435E-03
 -1   1002887-1.07650E+01-2.04327E+01-1.60041E+03 1.48770E+01-1.44955E-03-1.99524E-03
 -1   1002888 2.30002E+00 4.36202E+00-1.60256E+03-3.17309E+00-1.78151E-03-2.45218E-03
 -1   1002890 2.17859E+00 4.12825E+00-1.60380E+03-3.00023E+00-1.84307E-03-2.53693E-03
 -1   1002891 5.58702E-02 1.05306E-01-1.60324E+03-7.60736E-02 2.48253E-03 3.41676E-03
 -1   1002893 6.76516E-02 1.27974E-01-1.60312E+03-9.28262E-02 2.50026E-03 3.44115E-03
 -1   1002894-6.22924E-01-1.17837E+00-1.60326E+03 8.54744E-01-2.46477E-03-3.39263E-03
 -1   1002896-6.07315E-01-1.14831E+00-1.60310E+03 8.32507E-01-2.47061E-03-3.40068E-03
 -1   1002897 7.13576E-01 1.34935E+00-1.60307E+03-9.78351E-01 2.27502E-03 3.13114E-03
 -1   1002899 6.92522E-01 1.30881E+00-1.60329E+03-9.48365E-01 2.27757E-03 3.13463E-03
 -1   1002900-6.81898E-01-1.28918E+00-1.60329E+03 9.34506E-01-2.05764E-03-2.83224E-03
 -1   1002902-6.61112E-01-1.24916E+00-1.60307E+03 9.04905E-01-2.05919E-03-2.83439E-03
 -1   1002903 6.22943E-01 1.17761E+00-1.60308E+03-8.53541E-01 1.85031E-03 2.54660E-03
 -1   1002905 6.03787E-01 1.14072E+00-1.60328E+03-8.26261E-01 1.85154E-03 2.54824E-03
 -1   1002906-5.61810E-01-1.06200E+00-1.60327E+03 7.69715E-01-1.66067E-03-2.28587E-03
 -1   1002908-5.44489E-01-1.02865E+00-1.60309E+03 7.45050E-01-1.66168E-03-2.28730E-03
 -1   1002909 5.04748E-01 9.54122E-01-1.60310E+03-6.91515E-01 1.48993E-03 2.05051E-03
 -1   1002911 4.89175E-01 9.24138E-01-1.60326E+03-6.69339E-01 1.49086E-03 2.05175E-03
 -1   1002912-4.52967E-01-8.56236E-01-1.60325E+03 6.20567E-01-1.33620E-03-1.83933E-03
 -1   1002914-4.38989E-01-8.29322E-01-1.60311E+03 6.00661E-01-1.33698E-03-1.84047E-03
 -1   1002915 4.06363E-01 7.68139E-01-1.60312E+03-5.56716E-01 1.19858E-03 1.64954E-03
 -1   1002917 3.93822E-01 7.43993E-01-1.60325E+03-5.38858E-01 1.19933E-03 1.65052E-03
 -1   1002918-3.64521E-01-6.89046E-01-1.60324E+03 4.99393E-01-1.07477E-03-1.47951E-03
 -1   1002920-3.53271E-01-6.67385E-01-1.60312E+03 4.83372E-01-1.07540E-03-1.48042E-03
 -1   1002921 3.26983E-01 6.18089E-01-1.60313E+03-4.47966E-01 9.64127E-04 1.32676E-03
 -1   1002923 3.16892E-01 5.98659E-01-1.60323E+03-4.33595E-01 9.64738E-04 1.32754E-03
 -1   1002924-2.93315E-01-5.54446E-01-1.60323E+03 4.01840E-01-8.64438E-04-1.19004E-03
 -1   1002926-2.84262E-01-5.37017E-01-1.60313E+03 3.88949E-01-8.64936E-04-1.19078E-03
 -1   1002927 2.63120E-01 4.97370E-01-1.60314E+03-3.60473E-01 7.75451E-04 1.06703E-03
 -1   1002929 2.54999E-01 4.81735E-01-1.60322E+03-3.48910E-01 7.75949E-04 1.06766E-03
 -1   1002930-2.36042E-01-4.46184E-01-1.60322E+03 3.23376E-01-6.95128E-04-9.57105E-04
 -1   1002932-2.28757E-01-4.32158E-01-1.60314E+03 3.13002E-01-6.95518E-04-9.57708E-04
 -1   1002933 2.11759E-01 4.00284E-01-1.60315E+03-2.90109E-01 6.23641E-04 8.58046E-04
 -1   1002935 2.05224E-01 3.87701E-01-1.60321E+03-2.80803E-01 6.24050E-04 8.58543E-04
 -1   1002936-1.89985E-01-3.59125E-01-1.60321E+03 2.60279E-01-5.58916E-04-7.69558E-04
 -1   1002938-1.84122E-01-3.47835E-01-1.60315E+03 2.51929E-01-5.59224E-04-7.70046E-04
 -1   1002939 1.70461E-01 3.22219E-01-1.60315E+03-2.33531E-01 5.01373E-04 6.89842E-04
 -1   1002941 1.65201E-01 3.12090E-01-1.60321E+03-2.26040E-01 5.01707E-04 6.90239E-04
 -1   1002942-1.52957E-01-2.89131E-01-1.60321E+03 2.09550E-01-4.49299E-04-6.18600E-04
 -1   1002944-1.48236E-01-2.80042E-01-1.60316E+03 2.02828E-01-4.49542E-04-6.18996E-04
 -1   1002945 1.37264E-01 2.59468E-01-1.60316E+03-1.88052E-01 4.02952E-04 5.54400E-04
 -1   1002947 1.33028E-01 2.51311E-01-1.60320E+03-1.82019E-01 4.03229E-04 5.54712E-04
 -1   1002948-1.23198E-01-2.32878E-01-1.60320E+03 1.68780E-01-3.60996E-04-4.97090E-04
 -1   1002950-1.19395E-01-2.25557E-01-1.60316E+03 1.63366E-01-3.61180E-04-4.97416E-04
 -1   1002951 1.10590E-01 2.09046E-01-1.60316E+03-1.51508E-01 3.23735E-04 4.45311E-04
 -1   1002953 1.07177E-01 2.02475E-01-1.60320E+03-1.46648E-01 3.23967E-04 4.45554E-04
 -1   1002954-9.92927E-02-1.87691E-01-1.60320E+03 1.36031E-01-2.89775E-04-3.99204E-04
 -1   1002956-9.62283E-02-1.81791E-01-1.60316E+03 1.31667E-01-2.89911E-04-3.99474E-04
 -1   1002957 8.91714E-02 1.68559E-01-1.60317E+03-1.22164E-01 2.59882E-04 3.57379E-04
 -1   1002959 8.64193E-02 1.63260E-01-1.60320E+03-1.18245E-01 2.60079E-04 3.57567E-04
 -1   1002960-8.01064E-02-1.51423E-01-1.60319E+03 1.09745E-01-2.32429E-04-3.20192E-04
 -1   1002962-7.76341E-02-1.46663E-01-1.60317E+03 1.06225E-01-2.32532E-04-3.20414E-04
 -1   1002963 7.19902E-02 1.36082E-01-1.60317E+03-9.86263E-02 2.08345E-04 2.86420E-04
 -1   1002965 6.97684E-02 1.31804E-01-1.60319E+03-9.54624E-02 2.08511E-04 2.86565E-04
 -1   1002966-6.47269E-02-1.22352E-01-1.60319E+03 8.86756E-02-1.86099E-04-2.56547E-04
 -1   1002968-6.27292E-02-1.18505E-01-1.60317E+03 8.58309E-02-1.86170E-04-2.56733E-04
 -1   1002969 5.82301E-02 1.10071E-01-1.60317E+03-7.97750E-02 1.66763E-04 2.29093E-04
 -1   1002971 5.64330E-02 1.06611E-01-1.60319E+03-7.72159E-02 1.66907E-04 2.29201E-04
 -1   1002972-5.24233E-02-9.90944E-02-1.60319E+03 7.18197E-02-1.48606E-04-2.04964E-04
 -1   1002974-5.08054E-02-9.59793E-02-1.60317E+03 6.95158E-02-1.48652E-04-2.05120E-04
 -1   1002975 4.72372E-02 8.92917E-02-1.60317E+03-6.47149E-02 1.33020E-04 1.82670E-04
 -1   1002977 4.57794E-02 8.64847E-02-1.60319E+03-6.26388E-02 1.33145E-04 1.82749E-04
 -1   1002978-4.26109E-02-8.05463E-02-1.60319E+03 5.83768E-02-1.18230E-04-1.63148E-04
 -1   1002980-4.12959E-02-7.80143E-02-1.60317E+03 5.65041E-02-1.18257E-04-1.63278E-04
 -1   1002981 3.84891E-02 7.27554E-02-1.60317E+03-5.27300E-02 1.05628E-04 1.44948E-04
 -1   1002983 3.73012E-02 7.04682E-02-1.60319E+03-5.10385E-02 1.05738E-04 1.45002E-04
 -1   1002984-3.48235E-02-6.58259E-02-1.60319E+03 4.77080E-02-9.34749E-05-1.29046E-04
 -1   1002986-3.37488E-02-6.37566E-02-1.60318E+03 4.61776E-02-9.34869E-05-1.29157E-04
 -1   1002987 3.15701E-02 5.96766E-02-1.60318E+03-4.32510E-02 8.31842E-05 1.14143E-04
 -1   1002989 3.05957E-02 5.78005E-02-1.60319E+03-4.18635E-02 8.32788E-05 1.14180E-04
 -1   1002990-2.86909E-02-5.42335E-02-1.60319E+03 3.93065E-02-7.32117E-05-1.01092E-04
 -1   1002992-2.78055E-02-5.25287E-02-1.60318E+03 3.80456E-02-7.32135E-05-1.01181E-04
 -1   1002993 2.61514E-02 4.94337E-02-1.60318E+03-3.58273E-02 6.47233E-05 8.87784E-05
 -1   1002995 2.53443E-02 4.78796E-02-1.60318E+03-3.46780E-02 6.48042E-05 8.88026E-05
 -1   1002996-2.39218E-02-4.52186E-02-1.60318E+03 3.27728E-02-5.63668E-05-7.79094E-05
 -1   1002998-2.31835E-02-4.37972E-02-1.60318E+03 3.17216E-02-5.63577E-05-7.79873E-05
 -1   1002999 2.19755E-02 4.15399E-02-1.60318E+03-3.01062E-02 4.93123E-05 6.75614E-05
 -1   1003001 2.12972E-02 4.02340E-02-1.60318E+03-2.91403E-02 4.93825E-05 6.75727E-05
 -1   1003002-2.02895E-02-3.83525E-02-1.60318E+03 2.77966E-02-4.22343E-05-5.84615E-05
 -1   1003004-1.96633E-02-3.71470E-02-1.60318E+03 2.69050E-02-4.22206E-05-5.85274E-05
 -1   1003005 1.88438E-02 3.56202E-02-1.60318E+03-2.58159E-02 3.62838E-05 4.95853E-05
 -1   1003007 1.82622E-02 3.45004E-02-1.60318E+03-2.49876E-02 3.63452E-05 4.95893E-05
 -1   1003008-1.76213E-02-3.33089E-02-1.60318E+03 2.41412E-02-3.01120E-05-4.17648E-05
 -1   1003010-1.70775E-02-3.22620E-02-1.60318E+03 2.33668E-02-3.00930E-05-4.18171E-05
 -1   1003011 1.66076E-02 3.13932E-02-1.60318E+03-2.27523E-02 2.49140E-05 3.40052E-05
 -1   1003013 1.60950E-02 3.04062E-02-1.60318E+03-2.20223E-02 2.49638E-05 3.39994E-05
 -1   1003014-1.57906E-02-2.98482E-02-1.60318E+03 2.16330E-02-1.94823E-05-2.70634E-05
 -1   1003016-1.53033E-02-2.89100E-02-1.60318E+03 2.09391E-02-1.94640E-05-2.71043E-05
 -1   1003017 1.51601E-02 2.86572E-02-1.60318E+03-2.07695E-02 1.47527E-05 2.00540E-05
 -1   1003019 1.46922E-02 2.77563E-02-1.60318E+03-2.01031E-02 1.47923E-05 2.00466E-05
 -1   1003020-1.47089E-02-2.78035E-02-1.60318E+03 2.01510E-02-9.72399E-06-1.36516E-05
 -1   1003022-1.42550E-02-2.69297E-02-1.60318E+03 1.95047E-02-9.70205E-06-1.36792E-05
 -1   1003023 1.44285E-02 2.72743E-02-1.60318E+03-1.97671E-02 5.28336E-06 6.99950E-06
 -1   1003025 1.39832E-02 2.64169E-02-1.60318E+03-1.91330E-02 5.31449E-06 6.98330E-06
 -1   1003026-1.43085E-02-2.70467E-02-1.60318E+03 1.96024E-02-4.34874E-07-8.29048E-07
 -1   1003028-1.38673E-02-2.61972E-02-1.60318E+03 1.89741E-02-4.10313E-07-8.45001E-07
 -1   1003029 1.43176E-02 2.70640E-02-1.60318E+03-1.96143E-02-3.94397E-06-5.59240E-06
 -1   1003031 1.38768E-02 2.62153E-02-1.60318E+03-1.89866E-02-3.92370E-06-5.61442E-06
 -1   1003032 7.20592E+01 5.83403E+01-1.59241E+03-6.52638E+01 1.95382E-02 1.75922E-02
 -1   1003034 6.86746E+01 5.56099E+01-1.61396E+03-6.21511E+01 1.84863E-02 1.66451E-02
 -1   1003035-1.81039E+01-1.46655E+01-1.60595E+03 1.63569E+01-2.11665E-03-1.90592E-03
 -1   1003037-1.72340E+01-1.39638E+01-1.60041E+03 1.55569E+01-1.83271E-03-1.65026E-03
 -1   1003038 3.67977E+00 2.98228E+00-1.60256E+03-3.31811E+00-2.25242E-03-2.02820E-03
 -1   1003040 3.48317E+00 2.82367E+00-1.60380E+03-3.13735E+00-2.33026E-03-2.09829E-03
 -1   1003041 8.89491E-02 7.22269E-02-1.60324E+03-7.95503E-02 3.13866E-03 2.82595E-03
 -1   1003043 1.08015E-01 8.76103E-02-1.60312E+03-9.70685E-02 3.16107E-03 2.84612E-03
 -1   1003044-9.94590E-01-8.06704E-01-1.60326E+03 8.93808E-01-3.11629E-03-2.80603E-03
 -1   1003046-9.69312E-01-7.86314E-01-1.60310E+03 8.70555E-01-3.12367E-03-2.81269E-03
 -1   1003047 1.13899E+00 9.23934E-01-1.60307E+03-1.02306E+00 2.87631E-03 2.58975E-03
 -1   1003049 1.10490E+00 8.96432E-01-1.60329E+03-9.91708E-01 2.87954E-03 2.59264E-03
 -1   1003050-1.08825E+00-8.82828E-01-1.60329E+03 9.77215E-01-2.60157E-03-2.34255E-03
 -1   1003052-1.05459E+00-8.55678E-01-1.60307E+03 9.46262E-01-2.60353E-03-2.34434E-03
 -1   1003053 9.94086E-01 8.06464E-01-1.60308E+03-8.92549E-01 2.33933E-03 2.10625E-03
 -1   1003055 9.63068E-01 7.81443E-01-1.60328E+03-8.64023E-01 2.34086E-03 2.10762E-03
 -1   1003056-8.96503E-01-7.27308E-01-1.60327E+03 8.04892E-01-2.09965E-03-1.89059E-03
 -1   1003058-8.68458E-01-7.04684E-01-1.60309E+03 7.79101E-01-2.10095E-03-1.89177E-03
 -1   1003059 8.05438E-01 6.53432E-01-1.60310E+03-7.23119E-01 1.88363E-03 1.69598E-03
 -1   1003061 7.80222E-01 6.33091E-01-1.60326E+03-6.99929E-01 1.88479E-03 1.69700E-03
 -1   1003062-7.22806E-01-5.86396E-01-1.60325E+03 6.48928E-01-1.68948E-03-1.52125E-03
 -1   1003064-7.00173E-01-5.68138E-01-1.60311E+03 6.28113E-01-1.69049E-03-1.52219E-03
 -1   1003065 6.48438E-01 5.26063E-01-1.60312E+03-5.82160E-01 1.51529E-03 1.36437E-03
 -1   1003067 6.28132E-01 5.09682E-01-1.60325E+03-5.63485E-01 1.51622E-03 1.36518E-03
 -1   1003068-5.81670E-01-4.71896E-01-1.60324E+03 5.22216E-01-1.35896E-03-1.22367E-03
 -1   1003070-5.63455E-01-4.57202E-01-1.60312E+03 5.05464E-01-1.35977E-03-1.22443E-03
 -1   1003071 5.21771E-01 4.23301E-01-1.60313E+03-4.68439E-01 1.21886E-03 1.09737E-03
 -1   1003073 5.05431E-01 4.10120E-01-1.60323E+03-4.53412E-01 1.21961E-03 1.09801E-03
 -1   1003074-4.68046E-01-3.79715E-01-1.60323E+03 4.20205E-01-1.09299E-03-9.84226E-04
 -1   1003076-4.53388E-01-3.67891E-01-1.60313E+03 4.06725E-01-1.09364E-03-9.84841E-04
 -1   1003077 4.19864E-01 3.40626E-01-1.60314E+03-3.76948E-01 9.80297E-04 8.82559E-04
 -1   1003079 4.06715E-01 3.30019E-01-1.60322E+03-3.64856E-01 9.80909E-04 8.83074E-04
 -1   1003080-3.76655E-01-3.05571E-01-1.60322E+03 3.38155E-01-8.79001E-04-7.91607E-04
 -1   1003082-3.64859E-01-2.96056E-01-1.60314E+03 3.27307E-01-8.79512E-04-7.92110E-04
 -1   1003083 3.37907E-01 2.74136E-01-1.60315E+03-3.03368E-01 7.88362E-04 7.09671E-04
 -1   1003085 3.27325E-01 2.65600E-01-1.60321E+03-2.93636E-01 7.88865E-04 7.10075E-04
 -1   1003086-3.03162E-01-2.45948E-01-1.60321E+03 2.72174E-01-7.06736E-04-6.36508E-04
 -1   1003088-2.93667E-01-2.38290E-01-1.60315E+03 2.63443E-01-7.07139E-04-6.36923E-04
 -1   1003089 2.72007E-01 2.20674E-01-1.60315E+03-2.44204E-01 6.33821E-04 5.70537E-04
 -1   1003091 2.63489E-01 2.13802E-01-1.60321E+03-2.36371E-01 6.34233E-04 5.70853E-04
 -1   1003092-2.44075E-01-1.98013E-01-1.60321E+03 2.19127E-01-5.68077E-04-5.11649E-04
 -1   1003094-2.36432E-01-1.91847E-01-1.60316E+03 2.12098E-01-5.68394E-04-5.11991E-04
 -1   1003095 2.19034E-01 1.77698E-01-1.60316E+03-1.96646E-01 5.09413E-04 4.58530E-04
 -1   1003097 2.12175E-01 1.72164E-01-1.60320E+03-1.90338E-01 5.09750E-04 4.58778E-04
 -1   1003098-1.96588E-01-1.59487E-01-1.60320E+03 1.76494E-01-4.56491E-04-4.11158E-04
 -1   1003100-1.90431E-01-1.54521E-01-1.60316E+03 1.70832E-01-4.56740E-04-4.11441E-04
 -1   1003101 1.76470E-01 1.43166E-01-1.60316E+03-1.58432E-01 4.09241E-04 3.68291E-04
 -1   1003103 1.70944E-01 1.38708E-01-1.60320E+03-1.53350E-01 4.09521E-04 3.68479E-04
 -1   1003104-1.58443E-01-1.28541E-01-1.60320E+03 1.42248E-01-3.66452E-04-3.30213E-04
 -1   1003106-1.53481E-01-1.24538E-01-1.60316E+03 1.37684E-01-3.66639E-04-3.30454E-04
 -1   1003107 1.42292E-01 1.15438E-01-1.60317E+03-1.27748E-01 3.28479E-04 2.95540E-04
 -1   1003109 1.37836E-01 1.11844E-01-1.60320E+03-1.23650E-01 3.28715E-04 2.95681E-04
 -1   1003110-1.27827E-01-1.03703E-01-1.60319E+03 1.14761E-01-2.93945E-04-2.64857E-04
 -1   1003112-1.23824E-01-1.00474E-01-1.60317E+03 1.11080E-01-2.94089E-04-2.65056E-04
 -1   1003113 1.14876E-01 9.31962E-02-1.60317E+03-1.03134E-01 2.63319E-04 2.36906E-04
 -1   1003115 1.11278E-01 9.02942E-02-1.60319E+03-9.98253E-02 2.63514E-04 2.37011E-04
 -1   1003116-1.03285E-01-8.37931E-02-1.60319E+03 9.27282E-02-2.35405E-04-2.12183E-04
 -1   1003118-1.00051E-01-8.11837E-02-1.60317E+03 8.97535E-02-2.35514E-04-2.12347E-04
 -1   1003119 9.29184E-02 7.53828E-02-1.60317E+03-8.34209E-02 2.10728E-04 1.89469E-04
 -1   1003121 9.00086E-02 7.30355E-02-1.60319E+03-8.07449E-02 2.10891E-04 1.89544E-04
 -1   1003122-8.36525E-02-6.78653E-02-1.60319E+03 7.51020E-02-1.87996E-04-1.69558E-04
 -1   1003124-8.10327E-02-6.57519E-02-1.60317E+03 7.26927E-02-1.88073E-04-1.69700E-04
 -1   1003125 7.53770E-02 6.11518E-02-1.60317E+03-6.76725E-02 1.68079E-04 1.51048E-04
 -1   1003127 7.30165E-02 5.92477E-02-1.60319E+03-6.55017E-02 1.68216E-04 1.51099E-04
 -1   1003128-6.79948E-02-5.51625E-02-1.60319E+03 6.10447E-02-1.49573E-04-1.34957E-04
 -1   1003130-6.58653E-02-5.34447E-02-1.60317E+03 5.90863E-02-1.49626E-04-1.35080E-04
 -1   1003131 6.14175E-02 4.98268E-02-1.60317E+03-5.51399E-02 1.33412E-04 1.19843E-04
 -1   1003133 5.94942E-02 4.82753E-02-1.60319E+03-5.33711E-02 1.33530E-04 1.19873E-04
 -1   1003134-5.55683E-02-4.50812E-02-1.60319E+03 4.98884E-02-1.18282E-04-1.06780E-04
 -1   1003136-5.38280E-02-4.36773E-02-1.60318E+03 4.82879E-02-1.18313E-04-1.06891E-04
 -1   1003137 5.03768E-02 4.08698E-02-1.60318E+03-4.52276E-02 1.05103E-04 9.43604E-05
 -1   1003139 4.87992E-02 3.95972E-02-1.60319E+03-4.37769E-02 1.05208E-04 9.43707E-05
 -1   1003140-4.57826E-02-3.71422E-02-1.60319E+03 4.11029E-02-9.26128E-05-8.36380E-05
 -1   1003142-4.43487E-02-3.59855E-02-1.60318E+03 3.97842E-02-9.26272E-05-8.37322E-05
 -1   1003143 4.17300E-02 3.38549E-02-1.60318E+03-3.74647E-02 8.17632E-05 7.33731E-05
 -1   1003145 4.04233E-02 3.28007E-02-1.60318E+03-3.62630E-02 8.18553E-05 7.33694E-05
 -1   1003146-3.81725E-02-3.09682E-02-1.60318E+03 3.42706E-02-7.13501E-05-6.45107E-05
 -1   1003148-3.69769E-02-3.00038E-02-1.60318E+03 3.31711E-02-7.13537E-05-6.45960E-05
 -1   1003149 3.50663E-02 2.84488E-02-1.60318E+03-3.14822E-02 6.22975E-05 5.58097E-05
 -1   1003151 3.39683E-02 2.75630E-02-1.60318E+03-3.04723E-02 6.23735E-05 5.58016E-05
 -1   1003152-3.23764E-02-2.62659E-02-1.60318E+03 2.90669E-02-5.34273E-05-4.84306E-05
 -1   1003154-3.13623E-02-2.54479E-02-1.60318E+03 2.81344E-02-5.34217E-05-4.84994E-05
 -1   1003155 3.00691E-02 2.43947E-02-1.60318E+03-2.69957E-02 4.58161E-05 4.09463E-05
 -1   1003157 2.91275E-02 2.36352E-02-1.60318E+03-2.61298E-02 4.58783E-05 4.09319E-05
 -1   1003158-2.81188E-02-2.28118E-02-1.60318E+03 2.52445E-02-3.81646E-05-3.45956E-05
 -1   1003160-2.72381E-02-2.21013E-02-1.60318E+03 2.44346E-02-3.81556E-05-3.46502E-05
 -1   1003161 2.65008E-02 2.14998E-02-1.60318E+03-2.37921E-02 3.14143E-05 2.81112E-05
 -1   1003163 2.56709E-02 2.08304E-02-1.60318E+03-2.30290E-02 3.14603E-05 2.80965E-05
 -1   1003164-2.51973E-02-2.04417E-02-1.60318E+03 2.26217E-02-2.46837E-05-2.23779E-05
 -1   1003166-2.44081E-02-1.98051E-02-1.60318E+03 2.18959E-02-2.46716E-05-2.24184E-05
 -1   1003167 2.41912E-02 1.96261E-02-1.60318E+03-2.17186E-02 1.85777E-05 1.65680E-05
 -1   1003169 2.34338E-02 1.90150E-02-1.60318E+03-2.10220E-02 1.86136E-05 1.65501E-05
 -1   1003170-2.34712E-02-1.90414E-02-1.60318E+03 2.10720E-02-1.23641E-05-1.12799E-05
 -1   1003172-2.27361E-02-1.84484E-02-1.60318E+03 2.03960E-02-1.23507E-05-1.13110E-05
 -1   1003173 2.30237E-02 1.86788E-02-1.60318E+03-2.06705E-02 6.59133E-06 5.82015E-06
 -1   1003175 2.23029E-02 1.80973E-02-1.60318E+03-2.00076E-02 6.61827E-06 5.79765E-06
 -1   1003176-2.28323E-02-1.85231E-02-1.60318E+03 2.04984E-02-6.99358E-07-6.36081E-07
 -1   1003178-2.21177E-02-1.79466E-02-1.60318E+03 1.98412E-02-6.77713E-07-6.61764E-07
 -1   1003179 2.28463E-02 1.85351E-02-1.60318E+03-2.05107E-02-5.10948E-06-4.52772E-06
 -1   1003181 2.21328E-02 1.79595E-02-1.60318E+03-1.98545E-02-5.08849E-06-4.56274E-06
 -1   1003182 9.80114E+01 3.23881E+01-1.59241E+03-5.68314E+01 2.27688E-02 1.31455E-02
 -1   1003184 9.33890E+01 3.08955E+01-1.61396E+03-5.41209E+01 2.15430E-02 1.24378E-02
 -1   1003185-2.46082E+01-8.16121E+00-1.60595E+03 1.42435E+01-2.46661E-03-1.42422E-03
 -1   1003187-2.34202E+01-7.77755E+00-1.60041E+03 1.35469E+01-2.13573E-03-1.23318E-03
 -1   1003188 4.99922E+00 1.66283E+00-1.60256E+03-2.88940E+00-2.62487E-03-1.51559E-03
 -1   1003190 4.73074E+00 1.57611E+00-1.60380E+03-2.73199E+00-2.71559E-03-1.56797E-03
 -1   1003191 1.20582E-01 4.05937E-02-1.60324E+03-6.92720E-02 3.65762E-03 2.11163E-03
 -1   1003193 1.46614E-01 4.90111E-02-1.60312E+03-8.45268E-02 3.68373E-03 2.12670E-03
 -1   1003194-1.35001E+00-4.51282E-01-1.60326E+03 7.78324E-01-3.63160E-03-2.09680E-03
 -1   1003196-1.31549E+00-4.40138E-01-1.60310E+03 7.58075E-01-3.64021E-03-2.10177E-03
 -1   1003197 1.54581E+00 5.17113E-01-1.60307E+03-8.90879E-01 3.35190E-03 1.93515E-03
 -1   1003199 1.49925E+00 5.02079E-01-1.60329E+03-8.63575E-01 3.35565E-03 1.93731E-03
 -1   1003200-1.47684E+00-4.94239E-01-1.60329E+03 8.50955E-01-3.03179E-03-1.75045E-03
 -1   1003202-1.43087E+00-4.79397E-01-1.60307E+03 8.24001E-01-3.03408E-03-1.75178E-03
 -1   1003203 1.34901E+00 4.51542E-01-1.60308E+03-7.77228E-01 2.72610E-03 1.57387E-03
 -1   1003205 1.30665E+00 4.37864E-01-1.60328E+03-7.52388E-01 2.72787E-03 1.57489E-03
 -1   1003206-1.21657E+00-4.07242E-01-1.60327E+03 7.00897E-01-2.44684E-03-1.41269E-03
 -1   1003208-1.17827E+00-3.94875E-01-1.60309E+03 6.78437E-01-2.44835E-03-1.41357E-03
 -1   1003209 1.09299E+00 3.65884E-01-1.60310E+03-6.29689E-01 2.19505E-03 1.26733E-03
 -1   1003211 1.05855E+00 3.54764E-01-1.60326E+03-6.09495E-01 2.19639E-03 1.26810E-03
 -1   1003212-9.80853E-01-3.28350E-01-1.60325E+03 5.65084E-01-1.96887E-03-1.13670E-03
 -1   1003214-9.49942E-01-3.18369E-01-1.60311E+03 5.46958E-01-1.97007E-03-1.13739E-03
 -1   1003215 8.79934E-01 2.94568E-01-1.60312E+03-5.06942E-01 1.76582E-03 1.01955E-03
 -1   1003217 8.52201E-01 2.85613E-01-1.60325E+03-4.90680E-01 1.76690E-03 1.02016E-03
 -1   1003218-7.89329E-01-2.64237E-01-1.60324E+03 4.54743E-01-1.58373E-03-9.14373E-04
 -1   1003220-7.64452E-01-2.56204E-01-1.60312E+03 4.40155E-01-1.58468E-03-9.14939E-04
 -1   1003221 7.08045E-01 2.37026E-01-1.60313E+03-4.07914E-01 1.42035E-03 8.19996E-04
 -1   1003223 6.85730E-01 2.29821E-01-1.60323E+03-3.94829E-01 1.42122E-03 8.20479E-04
 -1   1003224-6.35141E-01-2.12621E-01-1.60323E+03 3.65913E-01-1.27375E-03-7.35442E-04
 -1   1003226-6.15123E-01-2.06157E-01-1.60313E+03 3.54175E-01-1.27452E-03-7.35903E-04
 -1   1003227 5.69757E-01 1.90733E-01-1.60314E+03-3.28245E-01 1.14237E-03 6.59516E-04
 -1   1003229 5.51800E-01 1.84934E-01-1.60322E+03-3.17715E-01 1.14307E-03 6.59899E-04
 -1   1003230-5.11122E-01-1.71104E-01-1.60322E+03 2.94464E-01-1.02440E-03-5.91484E-04
 -1   1003232-4.95013E-01-1.65902E-01-1.60314E+03 2.85018E-01-1.02502E-03-5.91860E-04
 -1   1003233 4.58541E-01 1.53502E-01-1.60315E+03-2.64172E-01 9.18647E-04 5.30305E-04
 -1   1003235 4.44089E-01 1.48835E-01-1.60321E+03-2.55697E-01 9.19217E-04 5.30604E-04
 -1   1003236-4.11392E-01-1.37718E-01-1.60321E+03 2.37008E-01-8.23668E-04-4.75623E-04
 -1   1003238-3.98426E-01-1.33532E-01-1.60315E+03 2.29405E-01-8.24154E-04-4.75937E-04
 -1   1003239 3.69115E-01 1.23566E-01-1.60315E+03-2.12652E-01 7.38553E-04 4.26310E-04
 -1   1003241 3.57482E-01 1.19809E-01-1.60321E+03-2.05831E-01 7.39018E-04 4.26538E-04
 -1   1003242-3.31211E-01-1.10877E-01-1.60321E+03 1.90815E-01-6.62055E-04-3.82354E-04
 -1   1003244-3.20772E-01-1.07506E-01-1.60316E+03 1.84694E-01-6.62438E-04-3.82619E-04
 -1   1003245 2.97230E-01 9.95013E-02-1.60316E+03-1.71238E-01 5.93623E-04 3.42620E-04
 -1   1003247 2.87863E-01 9.64765E-02-1.60320E+03-1.65745E-01 5.94001E-04 3.42795E-04
 -1   1003248-2.66771E-01-8.93046E-02-1.60320E+03 1.53690E-01-5.31990E-04-3.07218E-04
 -1   1003250-2.58363E-01-8.65896E-02-1.60316E+03 1.48760E-01-5.32295E-04-3.07435E-04
 -1   1003251 2.39471E-01 8.01655E-02-1.60316E+03-1.37962E-01 4.76843E-04 2.75203E-04
 -1   1003253 2.31923E-01 7.77285E-02-1.60320E+03-1.33537E-01 4.77151E-04 2.75334E-04
 -1   1003254-2.15007E-01-7.19763E-02-1.60320E+03 1.23869E-01-4.27166E-04-2.46741E-04
 -1   1003256-2.08231E-01-6.97881E-02-1.60316E+03 1.19895E-01-4.27403E-04-2.46929E-04
 -1   1003257 1.93090E-01 6.46393E-02-1.60317E+03-1.11242E-01 3.82692E-04 2.20882E-04
 -1   1003259 1.87005E-01 6.26743E-02-1.60320E+03-1.07674E-01 3.82946E-04 2.20977E-04
 -1   1003260-1.73462E-01-5.80683E-02-1.60319E+03 9.99334E-02-3.42667E-04-1.97885E-04
 -1   1003262-1.67994E-01-5.63029E-02-1.60317E+03 9.67274E-02-3.42854E-04-1.98045E-04
 -1   1003263 1.55887E-01 5.21849E-02-1.60317E+03-8.98085E-02 3.06762E-04 1.77073E-04
 -1   1003265 1.50974E-01 5.05985E-02-1.60319E+03-8.69276E-02 3.06970E-04 1.77142E-04
 -1   1003266-1.40159E-01-4.69198E-02-1.60319E+03 8.07473E-02-2.74404E-04-1.58488E-04
 -1   1003268-1.35741E-01-4.54933E-02-1.60317E+03 7.81568E-02-2.74548E-04-1.58622E-04
 -1   1003269 1.26091E-01 4.22104E-02-1.60317E+03-7.26426E-02 2.45462E-04 1.41583E-04
 -1   1003271 1.22117E-01 4.09272E-02-1.60319E+03-7.03125E-02 2.45634E-04 1.41628E-04
 -1   1003272-1.13517E-01-3.80010E-02-1.60319E+03 6.53985E-02-2.19212E-04-1.26701E-04
 -1   1003274-1.09939E-01-3.68457E-02-1.60317E+03 6.33004E-02-2.19322E-04-1.26818E-04
 -1   1003275 1.02287E-01 3.42418E-02-1.60317E+03-5.89289E-02 1.95755E-04 1.12906E-04
 -1   1003277 9.90633E-02 3.32009E-02-1.60319E+03-5.70387E-02 1.95896E-04 1.12934E-04
 -1   1003278-9.22693E-02-3.08882E-02-1.60319E+03 5.31575E-02-1.74414E-04-1.00820E-04
 -1   1003280-8.93609E-02-2.99491E-02-1.60317E+03 5.14520E-02-1.74496E-04-1.00924E-04
 -1   1003281 8.33438E-02 2.79004E-02-1.60317E+03-4.80156E-02 1.55381E-04 8.95559E-05
 -1   1003283 8.07173E-02 2.70523E-02-1.60319E+03-4.64755E-02 1.55502E-04 8.95668E-05
 -1   1003284-7.54065E-02-2.52431E-02-1.60319E+03 4.34426E-02-1.37928E-04-7.98078E-05
 -1   1003286-7.30296E-02-2.44756E-02-1.60318E+03 4.20488E-02-1.37985E-04-7.99017E-05
 -1   1003287 6.83614E-02 2.28848E-02-1.60318E+03-3.93841E-02 1.22381E-04 7.04768E-05
 -1   1003289 6.62072E-02 2.21892E-02-1.60319E+03-3.81208E-02 1.22483E-04 7.04715E-05
 -1   1003290-6.21272E-02-2.07977E-02-1.60319E+03 3.57922E-02-1.08004E-04-6.25375E-05
 -1   1003292-6.01687E-02-2.01654E-02-1.60318E+03 3.46438E-02-1.08039E-04-6.26248E-05
 -1   1003293 5.66278E-02 1.89569E-02-1.60318E+03-3.26242E-02 9.52198E-05 5.47608E-05
 -1   1003295 5.48434E-02 1.83807E-02-1.60318E+03-3.15779E-02 9.53050E-05 5.47418E-05
 -1   1003296-5.18004E-02-1.73407E-02-1.60318E+03 2.98426E-02-8.32063E-05-4.82589E-05
 -1   1003298-5.01673E-02-1.68134E-02-1.60318E+03 2.88851E-02-8.32283E-05-4.83380E-05
 -1   1003299 4.75851E-02 1.59298E-02-1.60318E+03-2.74146E-02 7.25348E-05 4.16844E-05
 -1   1003301 4.60857E-02 1.54456E-02-1.60318E+03-2.65354E-02 7.26060E-05 4.16622E-05
 -1   1003302-4.39350E-02-1.47077E-02-1.60318E+03 2.53113E-02-6.23555E-05-3.62035E-05
 -1   1003304-4.25498E-02-1.42604E-02-1.60318E+03 2.44991E-02-6.23663E-05-3.62714E-05
 -1   1003305 4.08037E-02 1.36596E-02-1.60318E+03-2.35078E-02 5.32784E-05 3.05717E-05
 -1   1003307 3.95181E-02 1.32445E-02-1.60318E+03-2.27539E-02 5.33354E-05 3.05455E-05
 -1   1003308-3.81574E-02-1.27735E-02-1.60318E+03 2.19828E-02-4.45203E-05-2.58642E-05
 -1   1003310-3.69543E-02-1.23851E-02-1.60318E+03 2.12773E-02-4.45244E-05-2.59202E-05
 -1   1003311 3.59615E-02 1.20387E-02-1.60318E+03-2.07181E-02 3.65789E-05 2.09920E-05
 -1   1003313 3.48285E-02 1.16728E-02-1.60318E+03-2.00537E-02 3.66253E-05 2.09672E-05
 -1   1003314-3.41929E-02-1.14463E-02-1.60318E+03 1.96988E-02-2.88149E-05-1.67405E-05
 -1   1003316-3.31148E-02-1.10982E-02-1.60318E+03 1.90667E-02-2.88127E-05-1.67863E-05
 -1   1003317 3.28274E-02 1.09896E-02-1.60318E+03-1.89125E-02 2.15895E-05 1.23817E-05
 -1   1003319 3.17932E-02 1.06556E-02-1.60318E+03-1.83061E-02 2.16232E-05 1.23538E-05
 -1   1003320-3.18506E-02-1.06621E-02-1.60318E+03 1.83494E-02-1.44688E-05-8.39245E-06
 -1   1003322-3.08464E-02-1.03379E-02-1.60318E+03 1.77606E-02-1.44579E-05-8.42999E-06
 -1   1003323 3.12432E-02 1.04592E-02-1.60318E+03-1.79997E-02 7.63412E-06 4.37936E-06
 -1   1003325 3.02590E-02 1.01414E-02-1.60318E+03-1.74226E-02 7.65739E-06 4.35104E-06
 -1   1003326-3.09837E-02-1.03720E-02-1.60318E+03 1.78500E-02-8.61565E-07-4.79855E-07
 -1   1003328-3.00074E-02-1.00568E-02-1.60318E+03 1.72775E-02-8.42417E-07-5.09283E-07
 -1   1003329 3.10023E-02 1.03789E-02-1.60318E+03-1.78607E-02-5.95904E-06-3.39825E-06
 -1   1003331 3.00281E-02 1.00643E-02-1.60318E+03-1.72894E-02-5.94821E-06-3.43313E-06
 -1   1003332 1.18290E+02 1.21094E+01-1.59241E+03-3.85724E+01 2.50044E-02 8.12429E-03
 -1   1003334 1.12701E+02 1.15840E+01-1.61396E+03-3.67327E+01 2.36582E-02 7.68689E-03
 -1   1003335-2.96905E+01-3.07882E+00-1.60595E+03 9.66728E+00-2.70882E-03-8.80306E-04
 -1   1003337-2.82540E+01-2.94371E+00-1.60041E+03 9.19451E+00-2.34545E-03-7.62242E-04
 -1   1003338 6.03022E+00 6.31829E-01-1.60256E+03-1.96108E+00-2.88261E-03-9.36748E-04
 -1   1003340 5.70557E+00 6.01273E-01-1.60380E+03-1.85424E+00-2.98223E-03-9.69119E-04
 -1   1003341 1.45300E-01 1.58760E-02-1.60324E+03-4.70160E-02 4.01673E-03 1.30503E-03
 -1   1003343 1.76775E-01 1.88500E-02-1.60312E+03-5.73697E-02 4.04541E-03 1.31435E-03
 -1   1003344-1.62774E+00-1.73559E-01-1.60326E+03 5.28261E-01-3.98821E-03-1.29591E-03
 -1   1003346-1.58599E+00-1.69640E-01-1.60310E+03 5.14518E-01-3.99767E-03-1.29899E-03
 -1   1003347 1.86370E+00 1.99227E-01-1.60307E+03-6.04654E-01 3.68098E-03 1.19598E-03
 -1   1003349 1.80739E+00 1.93937E-01-1.60329E+03-5.86122E-01 3.68509E-03 1.19732E-03
 -1   1003350-1.78048E+00-1.90599E-01-1.60329E+03 5.77556E-01-3.32947E-03-1.08181E-03
 -1   1003352-1.72489E+00-1.85375E-01-1.60307E+03 5.59262E-01-3.33199E-03-1.08263E-03
 -1   1003353 1.62634E+00 1.74210E-01-1.60308E+03-5.27517E-01 2.99375E-03 9.72713E-04
 -1   1003355 1.57512E+00 1.69395E-01-1.60328E+03-5.10658E-01 2.99569E-03 9.73352E-04
 -1   1003356-1.46666E+00-1.57147E-01-1.60327E+03 4.75710E-01-2.68710E-03-8.73103E-04
 -1   1003358-1.42035E+00-1.52793E-01-1.60309E+03 4.60466E-01-2.68877E-03-8.73639E-04
 -1   1003359 1.31767E+00 1.41197E-01-1.60310E+03-4.27380E-01 2.41059E-03 7.83251E-04
 -1   1003361 1.27603E+00 1.37283E-01-1.60326E+03-4.13674E-01 2.41206E-03 7.83737E-04
 -1   1003362-1.18249E+00-1.26716E-01-1.60325E+03 3.83531E-01-2.16217E-03-7.02535E-04
 -1   1003364-1.14511E+00-1.23202E-01-1.60311E+03 3.71229E-01-2.16349E-03-7.02956E-04
 -1   1003365 1.06082E+00 1.13679E-01-1.60312E+03-3.44070E-01 1.93924E-03 6.30095E-04
 -1   1003367 1.02729E+00 1.10527E-01-1.60325E+03-3.33032E-01 1.94042E-03 6.30483E-04
 -1   1003368-9.51592E-01-1.01975E-01-1.60324E+03 3.08642E-01-1.73922E-03-5.65140E-04
 -1   1003370-9.21509E-01-9.91470E-02-1.60312E+03 2.98741E-01-1.74028E-03-5.65480E-04
 -1   1003371 8.53598E-01 9.14735E-02-1.60313E+03-2.76858E-01 1.55982E-03 5.06774E-04
 -1   1003373 8.26613E-01 8.89370E-02-1.60323E+03-2.67977E-01 1.56076E-03 5.07080E-04
 -1   1003374-7.65706E-01-8.20550E-02-1.60323E+03 2.48351E-01-1.39886E-03-4.54557E-04
 -1   1003376-7.41500E-01-7.97797E-02-1.60313E+03 2.40384E-01-1.39970E-03-4.54839E-04
 -1   1003377 6.86882E-01 7.36079E-02-1.60314E+03-2.22785E-01 1.25451E-03 4.07594E-04
 -1   1003379 6.65167E-01 7.15668E-02-1.60322E+03-2.15638E-01 1.25528E-03 4.07834E-04
 -1   1003380-6.16193E-01-6.60328E-02-1.60322E+03 1.99857E-01-1.12497E-03-3.65536E-04
 -1   1003382-5.96713E-01-6.42018E-02-1.60314E+03 1.93446E-01-1.12565E-03-3.65764E-04
 -1   1003383 5.52803E-01 5.92397E-02-1.60315E+03-1.79297E-01 1.00880E-03 3.27735E-04
 -1   1003385 5.35327E-01 5.75970E-02-1.60321E+03-1.73546E-01 1.00942E-03 3.27923E-04
 -1   1003386-4.95961E-01-5.31485E-02-1.60321E+03 1.60861E-01-9.04528E-04-2.93961E-04
 -1   1003388-4.80282E-01-5.16747E-02-1.60315E+03 1.55701E-01-9.05073E-04-2.94151E-04
 -1   1003389 4.44994E-01 4.76866E-02-1.60315E+03-1.44330E-01 8.11053E-04 2.63445E-04
 -1   1003391 4.30927E-01 4.63643E-02-1.60321E+03-1.39700E-01 8.11549E-04 2.63591E-04
 -1   1003392-3.99298E-01-4.27899E-02-1.60321E+03 1.29509E-01-7.27124E-04-2.36381E-04
 -1   1003394-3.86675E-01-4.16034E-02-1.60316E+03 1.25355E-01-7.27561E-04-2.36542E-04
 -1   1003395 3.58332E-01 3.83996E-02-1.60316E+03-1.16222E-01 6.51871E-04 2.11677E-04
 -1   1003397 3.47004E-01 3.73348E-02-1.60320E+03-1.12494E-01 6.52273E-04 2.11784E-04
 -1   1003398-3.21611E-01-3.44647E-02-1.60320E+03 1.04312E-01-5.84190E-04-1.89886E-04
 -1   1003400-3.11443E-01-3.35090E-02-1.60316E+03 1.00966E-01-5.84539E-04-1.90022E-04
 -1   1003401 2.88698E-01 3.09375E-02-1.60316E+03-9.36372E-02 5.23599E-04 1.70092E-04
 -1   1003403 2.79572E-01 3.00796E-02-1.60320E+03-9.06335E-02 5.23924E-04 1.70174E-04
 -1   1003404-2.59207E-01-2.77774E-02-1.60320E+03 8.40715E-02-4.69175E-04-1.52445E-04
 -1   1003406-2.51012E-01-2.70071E-02-1.60316E+03 8.13744E-02-4.69453E-04-1.52559E-04
 -1   1003407 2.32784E-01 2.49455E-02-1.60317E+03-7.55018E-02 4.20250E-04 1.36598E-04
 -1   1003409 2.25425E-01 2.42538E-02-1.60320E+03-7.30799E-02 4.20511E-04 1.36660E-04
 -1   1003410-2.09120E-01-2.24100E-02-1.60319E+03 6.78264E-02-3.76360E-04-1.22225E-04
 -1   1003412-2.02509E-01-2.17886E-02-1.60317E+03 6.56504E-02-3.76581E-04-1.22322E-04
 -1   1003413 1.87932E-01 2.01390E-02-1.60317E+03-6.09545E-02 3.36859E-04 1.09493E-04
 -1   1003415 1.81992E-01 1.95806E-02-1.60319E+03-5.89992E-02 3.37071E-04 1.09532E-04
 -1   1003416-1.68971E-01-1.81076E-02-1.60319E+03 5.48044E-02-3.01366E-04-9.79110E-05
 -1   1003418-1.63629E-01-1.76055E-02-1.60317E+03 5.30462E-02-3.01539E-04-9.80006E-05
 -1   1003419 1.52011E-01 1.62897E-02-1.60317E+03-4.93038E-02 2.69495E-04 8.75528E-05
 -1   1003421 1.47206E-01 1.58381E-02-1.60319E+03-4.77223E-02 2.69670E-04 8.75724E-05
 -1   1003422-1.36853E-01-1.46656E-02-1.60319E+03 4.43869E-02-2.40782E-04-7.82307E-05
 -1   1003424-1.32526E-01-1.42589E-02-1.60317E+03 4.29629E-02-2.40918E-04-7.83101E-05
 -1   1003425 1.23314E-01 1.32144E-02-1.60317E+03-3.99960E-02 2.14946E-04 6.98429E-05
 -1   1003427 1.19416E-01 1.28481E-02-1.60319E+03-3.87132E-02 2.15088E-04 6.98542E-05
 -1   1003428-1.11237E-01-1.19206E-02-1.60319E+03 3.60788E-02-1.91603E-04-6.22709E-05
 -1   1003430-1.07720E-01-1.15900E-02-1.60317E+03 3.49212E-02-1.91710E-04-6.23414E-05
 -1   1003431 1.00477E-01 1.07672E-02-1.60317E+03-3.25890E-02 1.70573E-04 5.54050E-05
 -1   1003433 9.73009E-02 1.04687E-02-1.60319E+03-3.15437E-02 1.70685E-04 5.54056E-05
 -1   1003434-9.09079E-02-9.74206E-03-1.60319E+03 2.94851E-02-1.51526E-04-4.92773E-05
 -1   1003436-8.80334E-02-9.47186E-03-1.60318E+03 2.85391E-02-1.51608E-04-4.93402E-05
 -1   1003437 8.24144E-02 8.83157E-03-1.60318E+03-2.67306E-02 1.34355E-04 4.35584E-05
 -1   1003439 7.98097E-02 8.58674E-03-1.60319E+03-2.58733E-02 1.34449E-04 4.35505E-05
 -1   1003440-7.48987E-02-8.02656E-03-1.60319E+03 2.42927E-02-1.18647E-04-3.86872E-05
 -1   1003442-7.25303E-02-7.80392E-03-1.60318E+03 2.35132E-02-1.18709E-04-3.87463E-05
 -1   1003443 6.82687E-02 7.31563E-03-1.60318E+03-2.21426E-02 1.04486E-04 3.37879E-05
 -1   1003445 6.61112E-02 7.11284E-03-1.60318E+03-2.14325E-02 1.04562E-04 3.37701E-05
 -1   1003446-6.24489E-02-6.69239E-03-1.60318E+03 2.02547E-02-9.14486E-05-2.98572E-05
 -1   1003448-6.04740E-02-6.50674E-03-1.60318E+03 1.96047E-02-9.14908E-05-2.99144E-05
 -1   1003449 5.73671E-02 6.14733E-03-1.60318E+03-1.86068E-02 7.96187E-05 2.57500E-05
 -1   1003451 5.55542E-02 5.97694E-03-1.60318E+03-1.80101E-02 7.96770E-05 2.57268E-05
 -1   1003452-5.29667E-02-5.67622E-03-1.60318E+03 1.71791E-02-6.85802E-05-2.23996E-05
 -1   1003454-5.12914E-02-5.51875E-03-1.60318E+03 1.66278E-02-6.86084E-05-2.24551E-05
 -1   1003455 4.91917E-02 5.27127E-03-1.60318E+03-1.59551E-02 5.84656E-05 1.89011E-05
 -1   1003457 4.76374E-02 5.12518E-03-1.60318E+03-1.54436E-02 5.85137E-05 1.88708E-05
 -1   1003458-4.60015E-02-4.92983E-03-1.60318E+03 1.49200E-02-4.89370E-05-1.59989E-05
 -1   1003460-4.45464E-02-4.79305E-03-1.60318E+03 1.44411E-02-4.89531E-05-1.60521E-05
 -1   1003461 4.33540E-02 4.64577E-03-1.60318E+03-1.40618E-02 4.01375E-05 1.29512E-05
 -1   1003463 4.19843E-02 4.51702E-03-1.60318E+03-1.36109E-02 4.01748E-05 1.29160E-05
 -1   1003464-4.12221E-02-4.41763E-03-1.60318E+03 1.33698E-02-3.16858E-05-1.03667E-05
 -1   1003466-3.99181E-02-4.29505E-03-1.60318E+03 1.29407E-02-3.16930E-05-1.04149E-05
 -1   1003467 3.95757E-02 4.24090E-03-1.60318E+03-1.28363E-02 2.36743E-05 7.61858E-06
 -1   1003469 3.83255E-02 4.12339E-03-1.60318E+03-1.24248E-02 2.37001E-05 7.58133E-06
 -1   1003470-3.83983E-02-4.11496E-03-1.60318E+03 1.24540E-02-1.58572E-05-5.21648E-06
 -1   1003472-3.71836E-02-4.00079E-03-1.60318E+03 1.20542E-02-1.58551E-05-5.25998E-06
 -1   1003473 3.76656E-02 4.03627E-03-1.60318E+03-1.22168E-02 8.37105E-06 2.66425E-06
 -1   1003475 3.64759E-02 3.92444E-03-1.60318E+03-1.18252E-02 8.38895E-06 2.62796E-06
 -1   1003476-3.73531E-02-4.00295E-03-1.60318E+03 1.21150E-02-8.75698E-07-3.41300E-07
 -1   1003478-3.61723E-02-3.89195E-03-1.60318E+03 1.17263E-02-8.69242E-07-3.71908E-07
 -1   1003479 3.73753E-02 4.00561E-03-1.60318E+03-1.21224E-02-6.48718E-06-2.21716E-06
 -1   1003481 3.61976E-02 3.89491E-03-1.60318E+03-1.17347E-02-6.48385E-06-2.25015E-06
 -1   1003482 1.29389E+02 1.01052E+00-1.59241E+03-1.36438E+01 2.61471E-02 2.74801E-03
 -1   1003484 1.23270E+02 1.01439E+00-1.61396E+03-1.29931E+01 2.47394E-02 2.60005E-03
 -1   1003485-3.24722E+01-2.97140E-01-1.60595E+03 3.41951E+00-2.83268E-03-2.97888E-04
 -1   1003487-3.08997E+01-2.98061E-01-1.60041E+03 3.25229E+00-2.45270E-03-2.57955E-04
 -1   1003488 6.59450E+00 6.75442E-02-1.60256E+03-6.93674E-01-3.01438E-03-3.16946E-04
 -1   1003490 6.23911E+00 6.77291E-02-1.60380E+03-6.55884E-01-3.11855E-03-3.27896E-04
 -1   1003491 1.58828E-01 2.34744E-03-1.60324E+03-1.66306E-02 4.20027E-03 4.41399E-04
 -1   1003493 1.93283E-01 2.34233E-03-1.60312E+03-2.02929E-02 4.23026E-03 4.44555E-04
 -1   1003494-1.77974E+00-2.15559E-02-1.60326E+03 1.86857E-01-4.17050E-03-4.38372E-04
 -1   1003496-1.73403E+00-2.15914E-02-1.60310E+03 1.81995E-01-4.18039E-03-4.39405E-04
 -1   1003497 2.03768E+00 2.52427E-02-1.60307E+03-2.13878E-01 3.84918E-03 4.04543E-04
 -1   1003499 1.97604E+00 2.52845E-02-1.60329E+03-2.07323E-01 3.85349E-03 4.05004E-04
 -1   1003500-1.94666E+00-2.44120E-02-1.60329E+03 2.04294E-01-3.48161E-03-3.65942E-04
 -1   1003502-1.88582E+00-2.44519E-02-1.60307E+03 1.97823E-01-3.48425E-03-3.66208E-04
 -1   1003503 1.77813E+00 2.24212E-02-1.60308E+03-1.86594E-01 3.13056E-03 3.29002E-04
 -1   1003505 1.72205E+00 2.24576E-02-1.60328E+03-1.80630E-01 3.13260E-03 3.29227E-04
 -1   1003506-1.60355E+00-2.02650E-02-1.60327E+03 1.68268E-01-2.80993E-03-2.95382E-04
 -1   1003508-1.55284E+00-2.02978E-02-1.60309E+03 1.62876E-01-2.81167E-03-2.95554E-04
 -1   1003509 1.44065E+00 1.82219E-02-1.60310E+03-1.51173E-01 2.52080E-03 2.64900E-04
 -1   1003511 1.39506E+00 1.82514E-02-1.60326E+03-1.46325E-01 2.52233E-03 2.65075E-04
 -1   1003512-1.29285E+00-1.63575E-02-1.60325E+03 1.35663E-01-2.26099E-03-2.37692E-04
 -1   1003514-1.25193E+00-1.63839E-02-1.60311E+03 1.31311E-01-2.26236E-03-2.37822E-04
 -1   1003515 1.15983E+00 1.46762E-02-1.60312E+03-1.21704E-01 2.02787E-03 2.13086E-04
 -1   1003517 1.12311E+00 1.46999E-02-1.60325E+03-1.17800E-01 2.02910E-03 2.13229E-04
 -1   1003518-1.04040E+00-1.31655E-02-1.60324E+03 1.09173E-01-1.81870E-03-1.91213E-04
 -1   1003520-1.00747E+00-1.31867E-02-1.60312E+03 1.05671E-01-1.81980E-03-1.91317E-04
 -1   1003521 9.33262E-01 1.18099E-02-1.60313E+03-9.79303E-02 1.63112E-03 1.71366E-04
 -1   1003523 9.03722E-01 1.18290E-02-1.60323E+03-9.47888E-02 1.63210E-03 1.71481E-04
 -1   1003524-8.37168E-01-1.05938E-02-1.60323E+03 8.78468E-02-1.46282E-03-1.53818E-04
 -1   1003526-8.10669E-01-1.06110E-02-1.60313E+03 8.50288E-02-1.46371E-03-1.53901E-04
 -1   1003527 7.50987E-01 9.50332E-03-1.60314E+03-7.88035E-02 1.31181E-03 1.37821E-04
 -1   1003529 7.27216E-01 9.51868E-03-1.60322E+03-7.62756E-02 1.31260E-03 1.37915E-04
 -1   1003530-6.73701E-01-8.52536E-03-1.60322E+03 7.06937E-02-1.17637E-03-1.23675E-04
 -1   1003532-6.52376E-01-8.53914E-03-1.60314E+03 6.84259E-02-1.17708E-03-1.23740E-04
 -1   1003533 6.04395E-01 7.64824E-03-1.60315E+03-6.34212E-02 1.05489E-03 1.10831E-04
 -1   1003535 5.85264E-01 7.66060E-03-1.60321E+03-6.13867E-02 1.05553E-03 1.10908E-04
 -1   1003536-5.42248E-01-6.86193E-03-1.60321E+03 5.68999E-02-9.45906E-04-9.94791E-05
 -1   1003538-5.25084E-01-6.87302E-03-1.60315E+03 5.50746E-02-9.46481E-04-9.95300E-05
 -1   1003539 4.86524E-01 6.15664E-03-1.60315E+03-5.10526E-02 8.48156E-04 8.90577E-05
 -1   1003541 4.71124E-01 6.16659E-03-1.60321E+03-4.94149E-02 8.48669E-04 8.91216E-05
 -1   1003542-4.36564E-01-5.52456E-03-1.60321E+03 4.58101E-02-7.60354E-04-8.00397E-05
 -1   1003544-4.22745E-01-5.53348E-03-1.60316E+03 4.43405E-02-7.60817E-04-8.00809E-05
 -1   1003545 3.91774E-01 4.95756E-03-1.60316E+03-4.11101E-02 6.81594E-04 7.15149E-05
 -1   1003547 3.79373E-01 4.96558E-03-1.60320E+03-3.97914E-02 6.82008E-04 7.15627E-05
 -1   1003548-3.51626E-01-4.44977E-03-1.60320E+03 3.68973E-02-6.10910E-04-6.42883E-05
 -1   1003550-3.40495E-01-4.45696E-03-1.60316E+03 3.57136E-02-6.11280E-04-6.43231E-05
 -1   1003551 3.15642E-01 3.99409E-03-1.60316E+03-3.31214E-02 5.47516E-04 5.75360E-05
 -1   1003553 3.05651E-01 4.00055E-03-1.60320E+03-3.20589E-02 5.47846E-04 5.75778E-05
 -1   1003554-2.83397E-01-3.58647E-03-1.60320E+03 2.97379E-02-4.90620E-04-5.15297E-05
 -1   1003556-2.74427E-01-3.59226E-03-1.60316E+03 2.87838E-02-4.90919E-04-5.15535E-05
 -1   1003557 2.54509E-01 3.22041E-03-1.60317E+03-2.67065E-02 4.39483E-04 4.62361E-05
 -1   1003559 2.46453E-01 3.22562E-03-1.60320E+03-2.58498E-02 4.39747E-04 4.62693E-05
 -1   1003560-2.28637E-01-2.89352E-03-1.60319E+03 2.39916E-02-3.93544E-04-4.13241E-05
 -1   1003562-2.21399E-01-2.89819E-03-1.60317E+03 2.32219E-02-3.93784E-04-4.13464E-05
 -1   1003563 2.05471E-01 2.59987E-03-1.60317E+03-2.15608E-02 3.52280E-04 3.70557E-05
 -1   1003565 1.98968E-01 2.60408E-03-1.60319E+03-2.08692E-02 3.52494E-04 3.70755E-05
 -1   1003566-1.84741E-01-2.33812E-03-1.60319E+03 1.93855E-02-3.15192E-04-3.30855E-05
 -1   1003568-1.78893E-01-2.34189E-03-1.60317E+03 1.87636E-02-3.15384E-04-3.31115E-05
 -1   1003569 1.66198E-01 2.10280E-03-1.60317E+03-1.74397E-02 2.81745E-04 2.96760E-05
 -1   1003571 1.60938E-01 2.10621E-03-1.60319E+03-1.68803E-02 2.81916E-04 2.96861E-05
 -1   1003572-1.49625E-01-1.89379E-03-1.60319E+03 1.57006E-02-2.51759E-04-2.63924E-05
 -1   1003574-1.44888E-01-1.89684E-03-1.60317E+03 1.51969E-02-2.51909E-04-2.64177E-05
 -1   1003575 1.34822E-01 1.70575E-03-1.60317E+03-1.41474E-02 2.24739E-04 2.36880E-05
 -1   1003577 1.30556E-01 1.70851E-03-1.60319E+03-1.36936E-02 2.24876E-04 2.36909E-05
 -1   1003578-1.21619E-01-1.53937E-03-1.60319E+03 1.27618E-02-2.00380E-04-2.09936E-05
 -1   1003580-1.17768E-01-1.54185E-03-1.60317E+03 1.23523E-02-2.00500E-04-2.10182E-05
 -1   1003581 1.09854E-01 1.38977E-03-1.60317E+03-1.15274E-02 1.78377E-04 1.88257E-05
 -1   1003583 1.06377E-01 1.39203E-03-1.60319E+03-1.11577E-02 1.78485E-04 1.88265E-05
 -1   1003584-9.93920E-02-1.25810E-03-1.60319E+03 1.04295E-02-1.58504E-04-1.65792E-05
 -1   1003586-9.62452E-02-1.26012E-03-1.60318E+03 1.00948E-02-1.58599E-04-1.65999E-05
 -1   1003587 9.01060E-02 1.13992E-03-1.60318E+03-9.45518E-03 1.40472E-04 1.48308E-05
 -1   1003589 8.72547E-02 1.14177E-03-1.60319E+03-9.15195E-03 1.40557E-04 1.48283E-05
 -1   1003590-8.18888E-02-1.03656E-03-1.60319E+03 8.59282E-03-1.24089E-04-1.29873E-05
 -1   1003592-7.92959E-02-1.03823E-03-1.60318E+03 8.31708E-03-1.24162E-04-1.30061E-05
 -1   1003593 7.46400E-02 9.44232E-04-1.60318E+03-7.83227E-03 1.09209E-04 1.15288E-05
 -1   1003595 7.22783E-02 9.45770E-04-1.60318E+03-7.58110E-03 1.09276E-04 1.15242E-05
 -1   1003596-6.82771E-02-8.64379E-04-1.60318E+03 7.16451E-03-9.56596E-05-9.99929E-06
 -1   1003598-6.61150E-02-8.65762E-04-1.60318E+03 6.93458E-03-9.57169E-05-1.00183E-05
 -1   1003599 6.27210E-02 7.93355E-04-1.60318E+03-6.58157E-03 8.32137E-05 8.76246E-06
 -1   1003601 6.07367E-02 7.94651E-04-1.60318E+03-6.37054E-03 8.32648E-05 8.75046E-06
 -1   1003602-5.79099E-02-7.33226E-04-1.60318E+03 6.07662E-03-7.17264E-05-7.55380E-06
 -1   1003604-5.60759E-02-7.34396E-04-1.60318E+03 5.88158E-03-7.17675E-05-7.58066E-06
 -1   1003605 5.37826E-02 6.80197E-04-1.60318E+03-5.64364E-03 6.11303E-05 6.43509E-06
 -1   1003607 5.20813E-02 6.81311E-04-1.60318E+03-5.46271E-03 6.11690E-05 6.41366E-06
 -1   1003608-5.02946E-02-6.36875E-04-1.60318E+03 5.27752E-03-5.12449E-05-5.36712E-06
 -1   1003610-4.87016E-02-6.37888E-04-1.60318E+03 5.10811E-03-5.12727E-05-5.40062E-06
 -1   1003611 4.74001E-02 5.99387E-04-1.60318E+03-4.97394E-03 4.19387E-05 4.42313E-06
 -1   1003613 4.59008E-02 6.00372E-04-1.60318E+03-4.81449E-03 4.19657E-05 4.39219E-06
 -1   1003614-4.50692E-02-5.70786E-04-1.60318E+03 4.72917E-03-3.31082E-05-3.46648E-06
 -1   1003616-4.36415E-02-5.71692E-04-1.60318E+03 4.57735E-03-3.31269E-05-3.50383E-06
 -1   1003617 4.32692E-02 5.47121E-04-1.60318E+03-4.54046E-03 2.47250E-05 2.60494E-06
 -1   1003619 4.19008E-02 5.48022E-04-1.60318E+03-4.39492E-03 2.47464E-05 2.56903E-06
 -1   1003620-4.19819E-02-5.31679E-04-1.60318E+03 4.40519E-03-1.66346E-05-1.75369E-06
 -1   1003622-4.06519E-02-5.32521E-04-1.60318E+03 4.26376E-03-1.66414E-05-1.79446E-06
 -1   1003623 4.11808E-02 5.20654E-04-1.60318E+03-4.32139E-03 8.72300E-06 9.00259E-07
 -1   1003625 3.98787E-02 5.21513E-04-1.60318E+03-4.18290E-03 8.73393E-06 8.62751E-07
 -1   1003626-4.08391E-02-5.17247E-04-1.60318E+03 4.28523E-03-9.11701E-07-1.36493E-07
 -1   1003628-3.95462E-02-5.18065E-04-1.60318E+03 4.14774E-03-9.05479E-07-1.69260E-07
 -1   1003629 4.08635E-02 5.17265E-04-1.60318E+03-4.28801E-03-6.76065E-06-8.09448E-07
 -1   1003631 3.95744E-02 5.18114E-04-1.60318E+03-4.15092E-03-6.76149E-06-8.42172E-07
 -1   1003632 1.29389E+02 1.01052E+00-1.59241E+03 1.36438E+01 2.61471E-02-2.74832E-03
 -1   1003634 1.23270E+02 1.01439E+00-1.61396E+03 1.29931E+01 2.47394E-02-2.60036E-03
 -1   1003635-3.24722E+01-2.97140E-01-1.60595E+03-3.41951E+00-2.83272E-03 2.97618E-04
 -1   1003637-3.08997E+01-2.98061E-01-1.60041E+03-3.25229E+00-2.45274E-03 2.57681E-04
 -1   1003638 6.59450E+00 6.75442E-02-1.60256E+03 6.93674E-01-3.01441E-03 3.16740E-04
 -1   1003640 6.23911E+00 6.77291E-02-1.60380E+03 6.55884E-01-3.11859E-03 3.27694E-04
 -1   1003641 1.58828E-01 2.34739E-03-1.60324E+03 1.66305E-02 4.20029E-03-4.41533E-04
 -1   1003643 1.93283E-01 2.34229E-03-1.60312E+03 2.02928E-02 4.23028E-03-4.44676E-04
 -1   1003644-1.77974E+00-2.15559E-02-1.60326E+03-1.86857E-01-4.17051E-03 4.38288E-04
 -1   1003646-1.73403E+00-2.15914E-02-1.60310E+03-1.81995E-01-4.18039E-03 4.39338E-04
 -1   1003647 2.03768E+00 2.52427E-02-1.60307E+03 2.13878E-01 3.84917E-03-4.04620E-04
 -1   1003649 1.97604E+00 2.52845E-02-1.60329E+03 2.07323E-01 3.85348E-03-4.05062E-04
 -1   1003650-1.94666E+00-2.44120E-02-1.60329E+03-2.04294E-01-3.48160E-03 3.65873E-04
 -1   1003652-1.88582E+00-2.44520E-02-1.60307E+03-1.97823E-01-3.48424E-03 3.66161E-04
 -1   1003653 1.77813E+00 2.24212E-02-1.60308E+03 1.86594E-01 3.13054E-03-3.29096E-04
 -1   1003655 1.72205E+00 2.24576E-02-1.60328E+03 1.80630E-01 3.13258E-03-3.29299E-04
 -1   1003656-1.60355E+00-2.02650E-02-1.60327E+03-1.68268E-01-2.80993E-03 2.95254E-04
 -1   1003658-1.55284E+00-2.02978E-02-1.60309E+03-1.62876E-01-2.81167E-03 2.95448E-04
 -1   1003659 1.44065E+00 1.82219E-02-1.60310E+03 1.51173E-01 2.52076E-03-2.65045E-04
 -1   1003661 1.39506E+00 1.82514E-02-1.60326E+03 1.46325E-01 2.52230E-03-2.65195E-04
 -1   1003662-1.29285E+00-1.63575E-02-1.60325E+03-1.35663E-01-2.26100E-03 2.37530E-04
 -1   1003664-1.25193E+00-1.63839E-02-1.60311E+03-1.31311E-01-2.26237E-03 2.37688E-04
 -1   1003665 1.15983E+00 1.46762E-02-1.60312E+03 1.21704E-01 2.02788E-03-2.13262E-04
 -1   1003667 1.12311E+00 1.46999E-02-1.60325E+03 1.17800E-01 2.02911E-03-2.13376E-04
 -1   1003668-1.04040E+00-1.31654E-02-1.60324E+03-1.09173E-01-1.81873E-03 1.91036E-04
 -1   1003670-1.00747E+00-1.31867E-02-1.60312E+03-1.05671E-01-1.81983E-03 1.91171E-04
 -1   1003671 9.33262E-01 1.18099E-02-1.60313E+03 9.79303E-02 1.63105E-03-1.71550E-04
 -1   1003673 9.03722E-01 1.18290E-02-1.60323E+03 9.47888E-02 1.63204E-03-1.71632E-04
 -1   1003674-8.37168E-01-1.05939E-02-1.60323E+03-8.78468E-02-1.46278E-03 1.53634E-04
 -1   1003676-8.10669E-01-1.06110E-02-1.60313E+03-8.50288E-02-1.46367E-03 1.53753E-04
 -1   1003677 7.50987E-01 9.50335E-03-1.60314E+03 7.88036E-02 1.31182E-03-1.37971E-04
 -1   1003679 7.27216E-01 9.51871E-03-1.60322E+03 7.62756E-02 1.31262E-03-1.38027E-04
 -1   1003680-6.73701E-01-8.52533E-03-1.60322E+03-7.06936E-02-1.17641E-03 1.23572E-04
 -1   1003682-6.52376E-01-8.53911E-03-1.60314E+03-6.84258E-02-1.17713E-03 1.23675E-04
 -1   1003683 6.04395E-01 7.64825E-03-1.60315E+03 6.34212E-02 1.05488E-03-1.10941E-04
 -1   1003685 5.85264E-01 7.66061E-03-1.60321E+03 6.13867E-02 1.05552E-03-1.10979E-04
 -1   1003686-5.42248E-01-6.86192E-03-1.60321E+03-5.68999E-02-9.45910E-04 9.93389E-05
 -1   1003688-5.25084E-01-6.87301E-03-1.60315E+03-5.50745E-02-9.46481E-04 9.94282E-05
 -1   1003689 4.86524E-01 6.15665E-03-1.60315E+03 5.10527E-02 8.48130E-04-8.92200E-05
 -1   1003691 4.71124E-01 6.16660E-03-1.60321E+03 4.94150E-02 8.48648E-04-8.92457E-05
 -1   1003692-4.36564E-01-5.52458E-03-1.60321E+03-4.58101E-02-7.60377E-04 7.98693E-05
 -1   1003694-4.22745E-01-5.53350E-03-1.60316E+03-4.43405E-02-7.60835E-04 7.99480E-05
 -1   1003695 3.91774E-01 4.95761E-03-1.60316E+03 4.11102E-02 6.81606E-04-7.16719E-05
 -1   1003697 3.79373E-01 4.96563E-03-1.60320E+03 3.97914E-02 6.82022E-04-7.16837E-05
 -1   1003698-3.51626E-01-4.44973E-03-1.60320E+03-3.68972E-02-6.10974E-04 6.41694E-05
 -1   1003700-3.40495E-01-4.45692E-03-1.60316E+03-3.57135E-02-6.11342E-04 6.42386E-05
 -1   1003701 3.15642E-01 3.99420E-03-1.60316E+03 3.31214E-02 5.47540E-04-5.75737E-05
 -1   1003703 3.05651E-01 4.00066E-03-1.60320E+03 3.20589E-02 5.47873E-04-5.75760E-05
 -1   1003704-2.83397E-01-3.58632E-03-1.60320E+03-2.97378E-02-4.90572E-04 5.15425E-05
 -1   1003706-2.74427E-01-3.59212E-03-1.60316E+03-2.87838E-02-4.90866E-04 5.16067E-05
 -1   1003707 2.54509E-01 3.22062E-03-1.60317E+03 2.67066E-02 4.39443E-04-4.62217E-05
 -1   1003709 2.46453E-01 3.22583E-03-1.60320E+03 2.58499E-02 4.39712E-04-4.62194E-05
 -1   1003710-2.28637E-01-2.89335E-03-1.60319E+03-2.39915E-02-3.93512E-04 4.13311E-05
 -1   1003712-2.21399E-01-2.89803E-03-1.60317E+03-2.32219E-02-3.93748E-04 4.13855E-05
 -1   1003713 2.05471E-01 2.60001E-03-1.60317E+03 2.15609E-02 3.52271E-04-3.70464E-05
 -1   1003715 1.98968E-01 2.60421E-03-1.60319E+03 2.08693E-02 3.52487E-04-3.70408E-05
 -1   1003716-1.84741E-01-2.33791E-03-1.60319E+03-1.93854E-02-3.15198E-04 3.31511E-05
 -1   1003718-1.78893E-01-2.34169E-03-1.60317E+03-1.87635E-02-3.15386E-04 3.32011E-05
 -1   1003719 1.66198E-01 2.10295E-03-1.60317E+03 1.74399E-02 2.81818E-04-2.95789E-05
 -1   1003721 1.60938E-01 2.10635E-03-1.60319E+03 1.68804E-02 2.81990E-04-2.95682E-05
 -1   1003722-1.49625E-01-1.89363E-03-1.60319E+03-1.57005E-02-2.51766E-04 2.64860E-05
 -1   1003724-1.44888E-01-1.89668E-03-1.60317E+03-1.51968E-02-2.51918E-04 2.65255E-05
 -1   1003725 1.34822E-01 1.70585E-03-1.60317E+03 1.41475E-02 2.24736E-04-2.35911E-05
 -1   1003727 1.30555E-01 1.70861E-03-1.60319E+03 1.36937E-02 2.24874E-04-2.35836E-05
 -1   1003728-1.21619E-01-1.53933E-03-1.60319E+03-1.27617E-02-2.00384E-04 2.11015E-05
 -1   1003730-1.17768E-01-1.54181E-03-1.60317E+03-1.23523E-02-2.00504E-04 2.11345E-05
 -1   1003731 1.09854E-01 1.38983E-03-1.60317E+03 1.15275E-02 1.78385E-04-1.86750E-05
 -1   1003733 1.06377E-01 1.39208E-03-1.60319E+03 1.11577E-02 1.78495E-04-1.86671E-05
 -1   1003734-9.93920E-02-1.25814E-03-1.60319E+03-1.04294E-02-1.58466E-04 1.67707E-05
 -1   1003736-9.62453E-02-1.26017E-03-1.60318E+03-1.00948E-02-1.58562E-04 1.68003E-05
 -1   1003737 9.01060E-02 1.13987E-03-1.60318E+03 9.45524E-03 1.40479E-04-1.46213E-05
 -1   1003739 8.72546E-02 1.14172E-03-1.60319E+03 9.15200E-03 1.40567E-04-1.46132E-05
 -1   1003740-8.18887E-02-1.03661E-03-1.60319E+03-8.59279E-03-1.24091E-04 1.32396E-05
 -1   1003742-7.92959E-02-1.03828E-03-1.60318E+03-8.31706E-03-1.24165E-04 1.32652E-05
 -1   1003743 7.46400E-02 9.44118E-04-1.60318E+03 7.83230E-03 1.09251E-04-1.12427E-05
 -1   1003745 7.22782E-02 9.45655E-04-1.60318E+03 7.58112E-03 1.09317E-04-1.12294E-05
 -1   1003746-6.82771E-02-8.64415E-04-1.60318E+03-7.16443E-03-9.56164E-05 1.02690E-05
 -1   1003748-6.61150E-02-8.65800E-04-1.60318E+03-6.93451E-03-9.56732E-05 1.02936E-05
 -1   1003749 6.27211E-02 7.93326E-04-1.60318E+03 6.58167E-03 8.32168E-05-8.58603E-06
 -1   1003751 6.07367E-02 7.94619E-04-1.60318E+03 6.37063E-03 8.32684E-05-8.57910E-06
 -1   1003752-5.79099E-02-7.33259E-04-1.60318E+03-6.07654E-03-7.17323E-05 7.65216E-06
 -1   1003754-5.60759E-02-7.34432E-04-1.60318E+03-5.88152E-03-7.17761E-05 7.66311E-06
 -1   1003755 5.37826E-02 6.80182E-04-1.60318E+03 5.64371E-03 6.11421E-05-6.33400E-06
 -1   1003757 5.20812E-02 6.81294E-04-1.60318E+03 5.46276E-03 6.11792E-05-6.33615E-06
 -1   1003758-5.02946E-02-6.36856E-04-1.60318E+03-5.27745E-03-5.12202E-05 5.48207E-06
 -1   1003760-4.87016E-02-6.37872E-04-1.60318E+03-5.10805E-03-5.12554E-05 5.48201E-06
 -1   1003761 4.74001E-02 5.99388E-04-1.60318E+03 4.97399E-03 4.19109E-05-4.32936E-06
 -1   1003763 4.59008E-02 6.00372E-04-1.60318E+03 4.81454E-03 4.19354E-05-4.34155E-06
 -1   1003764-4.50692E-02-5.70714E-04-1.60318E+03-4.72917E-03-3.31188E-05 3.52094E-06
 -1   1003766-4.36415E-02-5.71620E-04-1.60318E+03-4.57735E-03-3.31410E-05 3.50789E-06
 -1   1003767 4.32692E-02 5.47115E-04-1.60318E+03 4.54048E-03 2.47418E-05-2.57664E-06
 -1   1003769 4.19008E-02 5.48015E-04-1.60318E+03 4.39494E-03 2.47540E-05-2.59678E-06
 -1   1003770-4.19818E-02-5.31641E-04-1.60318E+03-4.40519E-03-1.66750E-05 1.73222E-06
 -1   1003772-4.06519E-02-5.32483E-04-1.60318E+03-4.26377E-03-1.66857E-05 1.71016E-06
 -1   1003773 4.11809E-02 5.20686E-04-1.60318E+03 4.32134E-03 8.70485E-06-9.79713E-07
 -1   1003775 3.98788E-02 5.21546E-04-1.60318E+03 4.18286E-03 8.70677E-06-1.00754E-06
 -1   1003776-4.08391E-02-5.17297E-04-1.60318E+03-4.28529E-03-9.29896E-07 1.34604E-08
 -1   1003778-3.95461E-02-5.18113E-04-1.60318E+03-4.14779E-03-9.35111E-07-1.63162E-08
 -1   1003779 4.08635E-02 5.17315E-04-1.60318E+03 4.28792E-03-6.79637E-06 6.49872E-07
 -1   1003781 3.95746E-02 5.18166E-04-1.60318E+03 4.15084E-03-6.80331E-06 6.17628E-07
 -1   1003782 1.18290E+02 1.21094E+01-1.59241E+03 3.85724E+01 2.50043E-02-8.12447E-03
 -1   1003784 1.12701E+02 1.15840E+01-1.61396E+03 3.67327E+01 2.36582E-02-7.68706E-03
 -1   1003785-2.96905E+01-3.07882E+00-1.60595E+03-9.66728E+00-2.70889E-03 8.80142E-04
 -1   1003787-2.82540E+01-2.94371E+00-1.60041E+03-9.19451E+00-2.34552E-03 7.62081E-04
 -1   1003788 6.03022E+00 6.31829E-01-1.60256E+03 1.96108E+00-2.88267E-03 9.36595E-04
 -1   1003790 5.70557E+00 6.01273E-01-1.60380E+03 1.85424E+00-2.98229E-03 9.68971E-04
 -1   1003791 1.45300E-01 1.58759E-02-1.60324E+03 4.70160E-02 4.01668E-03-1.30518E-03
 -1   1003793 1.76775E-01 1.88500E-02-1.60312E+03 5.73697E-02 4.04536E-03-1.31449E-03
 -1   1003794-1.62774E+00-1.73559E-01-1.60326E+03-5.28261E-01-3.98821E-03 1.29575E-03
 -1   1003796-1.58599E+00-1.69640E-01-1.60310E+03-5.14518E-01-3.99767E-03 1.29883E-03
 -1   1003797 1.86370E+00 1.99227E-01-1.60307E+03 6.04654E-01 3.68092E-03-1.19612E-03
 -1   1003799 1.80739E+00 1.93937E-01-1.60329E+03 5.86122E-01 3.68504E-03-1.19745E-03
 -1   1003800-1.78048E+00-1.90599E-01-1.60329E+03-5.77556E-01-3.32952E-03 1.08170E-03
 -1   1003802-1.72489E+00-1.85375E-01-1.60307E+03-5.59262E-01-3.33204E-03 1.08253E-03
 -1   1003803 1.62634E+00 1.74210E-01-1.60308E+03 5.27517E-01 2.99371E-03-9.72854E-04
 -1   1003805 1.57512E+00 1.69395E-01-1.60328E+03 5.10658E-01 2.99566E-03-9.73476E-04
 -1   1003806-1.46666E+00-1.57147E-01-1.60327E+03-4.75710E-01-2.68716E-03 8.72952E-04
 -1   1003808-1.42035E+00-1.52793E-01-1.60309E+03-4.60466E-01-2.68883E-03 8.73505E-04
 -1   1003809 1.31767E+00 1.41197E-01-1.60310E+03 4.27380E-01 2.41053E-03-7.83412E-04
 -1   1003811 1.27603E+00 1.37283E-01-1.60326E+03 4.13674E-01 2.41201E-03-7.83878E-04
 -1   1003812-1.18249E+00-1.26716E-01-1.60325E+03-3.83531E-01-2.16223E-03 7.02351E-04
 -1   1003814-1.14511E+00-1.23202E-01-1.60311E+03-3.71229E-01-2.16354E-03 7.02791E-04
 -1   1003815 1.06082E+00 1.13679E-01-1.60312E+03 3.44070E-01 1.93916E-03-6.30302E-04
 -1   1003817 1.02729E+00 1.10527E-01-1.60325E+03 3.33032E-01 1.94034E-03-6.30670E-04
 -1   1003818-9.51592E-01-1.01975E-01-1.60324E+03-3.08642E-01-1.73928E-03 5.64925E-04
 -1   1003820-9.21509E-01-9.91471E-02-1.60312E+03-2.98741E-01-1.74033E-03 5.65289E-04
 -1   1003821 8.53598E-01 9.14736E-02-1.60313E+03 2.76858E-01 1.55974E-03-5.06970E-04
 -1   1003823 8.26613E-01 8.89371E-02-1.60323E+03 2.67977E-01 1.56070E-03-5.07251E-04
 -1   1003824-7.65706E-01-8.20549E-02-1.60323E+03-2.48351E-01-1.39890E-03 4.54356E-04
 -1   1003826-7.41500E-01-7.97796E-02-1.60313E+03-2.40384E-01-1.39974E-03 4.54659E-04
 -1   1003827 6.86882E-01 7.36079E-02-1.60314E+03 2.22785E-01 1.25446E-03-4.07752E-04
 -1   1003829 6.65167E-01 7.15669E-02-1.60322E+03 2.15638E-01 1.25523E-03-4.07967E-04
 -1   1003830-6.16193E-01-6.60327E-02-1.60322E+03-1.99857E-01-1.12503E-03 3.65417E-04
 -1   1003832-5.96713E-01-6.42017E-02-1.60314E+03-1.93446E-01-1.12570E-03 3.65675E-04
 -1   1003833 5.52803E-01 5.92398E-02-1.60315E+03 1.79297E-01 1.00875E-03-3.27885E-04
 -1   1003835 5.35327E-01 5.75971E-02-1.60321E+03 1.73546E-01 1.00938E-03-3.28045E-04
 -1   1003836-4.95961E-01-5.31483E-02-1.60321E+03-1.60861E-01-9.04575E-04 2.93787E-04
 -1   1003838-4.80282E-01-5.16746E-02-1.60315E+03-1.55701E-01-9.05113E-04 2.94003E-04
 -1   1003839 4.44994E-01 4.76867E-02-1.60315E+03 1.44330E-01 8.11009E-04-2.63588E-04
 -1   1003841 4.30927E-01 4.63644E-02-1.60321E+03 1.39700E-01 8.11513E-04-2.63707E-04
 -1   1003842-3.99298E-01-4.27897E-02-1.60321E+03-1.29509E-01-7.27146E-04 2.36266E-04
 -1   1003844-3.86675E-01-4.16032E-02-1.60316E+03-1.25355E-01-7.27572E-04 2.36454E-04
 -1   1003845 3.58332E-01 3.83998E-02-1.60316E+03 1.16222E-01 6.51853E-04-2.11778E-04
 -1   1003847 3.47004E-01 3.73350E-02-1.60320E+03 1.12494E-01 6.52263E-04-2.11860E-04
 -1   1003848-3.21611E-01-3.44645E-02-1.60320E+03-1.04312E-01-5.84276E-04 1.89823E-04
 -1   1003850-3.11443E-01-3.35088E-02-1.60316E+03-1.00966E-01-5.84616E-04 1.89984E-04
 -1   1003851 2.88698E-01 3.09377E-02-1.60316E+03 9.36372E-02 5.23600E-04-1.70167E-04
 -1   1003853 2.79572E-01 3.00798E-02-1.60320E+03 9.06334E-02 5.23933E-04-1.70224E-04
 -1   1003854-2.59206E-01-2.77771E-02-1.60320E+03-8.40715E-02-4.69154E-04 1.52384E-04
 -1   1003856-2.51012E-01-2.70069E-02-1.60316E+03-8.13745E-02-4.69425E-04 1.52523E-04
 -1   1003857 2.32784E-01 2.49457E-02-1.60317E+03 7.55018E-02 4.20217E-04-1.36621E-04
 -1   1003859 2.25425E-01 2.42540E-02-1.60320E+03 7.30798E-02 4.20487E-04-1.36656E-04
 -1   1003860-2.09120E-01-2.24098E-02-1.60319E+03-6.78263E-02-3.76355E-04 1.22180E-04
 -1   1003862-2.02509E-01-2.17884E-02-1.60317E+03-6.56505E-02-3.76568E-04 1.22303E-04
 -1   1003863 1.87932E-01 2.01393E-02-1.60317E+03 6.09545E-02 3.36820E-04-1.09537E-04
 -1   1003865 1.81991E-01 1.95809E-02-1.60319E+03 5.89991E-02 3.37040E-04-1.09553E-04
 -1   1003866-1.68971E-01-1.81073E-02-1.60319E+03-5.48044E-02-3.01388E-04 9.78977E-05
 -1   1003868-1.63629E-01-1.76052E-02-1.60317E+03-5.30463E-02-3.01553E-04 9.80125E-05
 -1   1003869 1.52011E-01 1.62899E-02-1.60317E+03 4.93038E-02 2.69501E-04-8.75579E-05
 -1   1003871 1.47206E-01 1.58382E-02-1.60319E+03 4.77222E-02 2.69680E-04-8.75547E-05
 -1   1003872-1.36853E-01-1.46655E-02-1.60319E+03-4.43869E-02-2.40806E-04 7.82442E-05
 -1   1003874-1.32526E-01-1.42588E-02-1.60317E+03-4.29629E-02-2.40936E-04 7.83458E-05
 -1   1003875 1.23314E-01 1.32146E-02-1.60317E+03 3.99961E-02 2.14928E-04-6.98258E-05
 -1   1003877 1.19416E-01 1.28482E-02-1.60319E+03 3.87131E-02 2.15076E-04-6.98135E-05
 -1   1003878-1.11237E-01-1.19205E-02-1.60319E+03-3.60787E-02-1.91612E-04 6.22662E-05
 -1   1003880-1.07720E-01-1.15899E-02-1.60317E+03-3.49212E-02-1.91715E-04 6.23579E-05
 -1   1003881 1.00477E-01 1.07672E-02-1.60317E+03 3.25891E-02 1.70592E-04-5.54043E-05
 -1   1003883 9.73006E-02 1.04687E-02-1.60319E+03 3.15437E-02 1.70711E-04-5.53851E-05
 -1   1003884-9.09078E-02-9.74199E-03-1.60319E+03-2.94850E-02-1.51532E-04 4.93148E-05
 -1   1003886-8.80336E-02-9.47182E-03-1.60318E+03-2.85390E-02-1.51609E-04 4.93963E-05
 -1   1003887 8.24145E-02 8.83155E-03-1.60318E+03 2.67308E-02 1.34345E-04-4.35338E-05
 -1   1003889 7.98095E-02 8.58669E-03-1.60319E+03 2.58734E-02 1.34444E-04-4.35110E-05
 -1   1003890-7.48987E-02-8.02658E-03-1.60319E+03-2.42926E-02-1.18679E-04 3.87162E-05
 -1   1003892-7.25305E-02-7.80397E-03-1.60318E+03-2.35131E-02-1.18738E-04 3.87889E-05
 -1   1003893 6.82687E-02 7.31559E-03-1.60318E+03 2.21427E-02 1.04530E-04-3.38024E-05
 -1   1003895 6.61110E-02 7.11278E-03-1.60318E+03 2.14325E-02 1.04607E-04-3.37762E-05
 -1   1003896-6.24488E-02-6.69239E-03-1.60318E+03-2.02545E-02-9.13987E-05 2.98244E-05
 -1   1003898-6.04741E-02-6.50678E-03-1.60318E+03-1.96046E-02-9.14389E-05 2.98857E-05
 -1   1003899 5.73672E-02 6.14736E-03-1.60318E+03 1.86069E-02 7.95971E-05-2.57520E-05
 -1   1003901 5.55542E-02 5.97694E-03-1.60318E+03 1.80102E-02 7.96570E-05-2.57289E-05
 -1   1003902-5.29666E-02-5.67621E-03-1.60318E+03-1.71790E-02-6.85733E-05 2.24142E-05
 -1   1003904-5.12916E-02-5.51877E-03-1.60318E+03-1.66277E-02-6.86036E-05 2.24617E-05
 -1   1003905 4.91917E-02 5.27129E-03-1.60318E+03 1.59552E-02 5.84897E-05-1.88669E-05
 -1   1003907 4.76372E-02 5.12517E-03-1.60318E+03 1.54436E-02 5.85323E-05-1.88480E-05
 -1   1003908-4.60014E-02-4.92987E-03-1.60318E+03-1.49199E-02-4.89275E-05 1.60206E-05
 -1   1003910-4.45465E-02-4.79311E-03-1.60318E+03-1.44411E-02-4.89500E-05 1.60584E-05
 -1   1003911 4.33541E-02 4.64574E-03-1.60318E+03 1.40619E-02 4.00882E-05-1.29568E-05
 -1   1003913 4.19843E-02 4.51698E-03-1.60318E+03 1.36110E-02 4.01167E-05-1.29408E-05
 -1   1003914-4.12220E-02-4.41770E-03-1.60318E+03-1.33698E-02-3.16985E-05 1.02977E-05
 -1   1003916-3.99181E-02-4.29513E-03-1.60318E+03-1.29406E-02-3.17126E-05 1.03195E-05
 -1   1003917 3.95758E-02 4.24077E-03-1.60318E+03 1.28364E-02 2.36759E-05-7.71009E-06
 -1   1003919 3.83255E-02 4.12326E-03-1.60318E+03 1.24248E-02 2.36951E-05-7.70336E-06
 -1   1003920-3.83982E-02-4.11508E-03-1.60318E+03-1.24539E-02-1.59370E-05 5.17185E-06
 -1   1003922-3.71835E-02-4.00090E-03-1.60318E+03-1.20541E-02-1.59449E-05 5.18091E-06
 -1   1003923 3.76656E-02 4.03609E-03-1.60318E+03 1.22168E-02 8.35322E-06-2.71146E-06
 -1   1003925 3.64760E-02 3.92428E-03-1.60318E+03 1.18253E-02 8.35685E-06-2.71420E-06
 -1   1003926-3.73531E-02-4.00318E-03-1.60318E+03-1.21149E-02-8.71084E-07 2.61360E-07
 -1   1003928-3.61721E-02-3.89216E-03-1.60318E+03-1.17262E-02-8.75808E-07 2.51246E-07
 -1   1003929 3.73754E-02 4.00548E-03-1.60318E+03 1.21224E-02-6.52395E-06 2.06476E-06
 -1   1003931 3.61978E-02 3.89480E-03-1.60318E+03 1.17349E-02-6.53527E-06 2.05059E-06
 -1   1003932 9.80114E+01 3.23881E+01-1.59241E+03 5.68314E+01 2.27688E-02-1.31455E-02
 -1   1003934 9.33890E+01 3.08955E+01-1.61396E+03 5.41209E+01 2.15430E-02-1.24378E-02
 -1   1003935-2.46082E+01-8.16121E+00-1.60595E+03-1.42435E+01-2.46667E-03 1.42417E-03
 -1   1003937-2.34202E+01-7.77755E+00-1.60041E+03-1.35469E+01-2.13578E-03 1.23314E-03
 -1   1003938 4.99922E+00 1.66283E+00-1.60256E+03 2.88940E+00-2.62492E-03 1.51549E-03
 -1   1003940 4.73074E+00 1.57611E+00-1.60380E+03 2.73199E+00-2.71563E-03 1.56787E-03
 -1   1003941 1.20582E-01 4.05938E-02-1.60324E+03 6.92720E-02 3.65754E-03-2.11177E-03
 -1   1003943 1.46614E-01 4.90111E-02-1.60312E+03 8.45268E-02 3.68366E-03-2.12684E-03
 -1   1003944-1.35001E+00-4.51282E-01-1.60326E+03-7.78324E-01-3.63171E-03 2.09662E-03
 -1   1003946-1.31549E+00-4.40138E-01-1.60310E+03-7.58075E-01-3.64032E-03 2.10160E-03
 -1   1003947 1.54581E+00 5.17112E-01-1.60307E+03 8.90879E-01 3.35178E-03-1.93533E-03
 -1   1003949 1.49925E+00 5.02079E-01-1.60329E+03 8.63575E-01 3.35554E-03-1.93749E-03
 -1   1003950-1.47684E+00-4.94239E-01-1.60329E+03-8.50955E-01-3.03187E-03 1.75025E-03
 -1   1003952-1.43087E+00-4.79397E-01-1.60307E+03-8.24001E-01-3.03417E-03 1.75159E-03
 -1   1003953 1.34901E+00 4.51542E-01-1.60308E+03 7.77228E-01 2.72599E-03-1.57406E-03
 -1   1003955 1.30665E+00 4.37864E-01-1.60328E+03 7.52388E-01 2.72777E-03-1.57508E-03
 -1   1003956-1.21657E+00-4.07242E-01-1.60327E+03-7.00897E-01-2.44696E-03 1.41252E-03
 -1   1003958-1.17827E+00-3.94875E-01-1.60309E+03-6.78437E-01-2.44847E-03 1.41340E-03
 -1   1003959 1.09299E+00 3.65884E-01-1.60310E+03 6.29689E-01 2.19496E-03-1.26751E-03
 -1   1003961 1.05855E+00 3.54764E-01-1.60326E+03 6.09495E-01 2.19631E-03-1.26827E-03
 -1   1003962-9.80853E-01-3.28350E-01-1.60325E+03-5.65084E-01-1.96897E-03 1.13654E-03
 -1   1003964-9.49942E-01-3.18369E-01-1.60311E+03-5.46958E-01-1.97015E-03 1.13725E-03
 -1   1003965 8.79934E-01 2.94568E-01-1.60312E+03 5.06942E-01 1.76571E-03-1.01969E-03
 -1   1003967 8.52201E-01 2.85613E-01-1.60325E+03 4.90680E-01 1.76679E-03-1.02029E-03
 -1   1003968-7.89329E-01-2.64237E-01-1.60324E+03-4.54743E-01-1.58381E-03 9.14179E-04
 -1   1003970-7.64452E-01-2.56204E-01-1.60312E+03-4.40155E-01-1.58476E-03 9.14751E-04
 -1   1003971 7.08046E-01 2.37026E-01-1.60313E+03 4.07914E-01 1.42028E-03-8.20228E-04
 -1   1003973 6.85730E-01 2.29821E-01-1.60323E+03 3.94829E-01 1.42115E-03-8.20705E-04
 -1   1003974-6.35141E-01-2.12621E-01-1.60323E+03-3.65913E-01-1.27392E-03 7.35257E-04
 -1   1003976-6.15123E-01-2.06157E-01-1.60313E+03-3.54175E-01-1.27468E-03 7.35725E-04
 -1   1003977 5.69757E-01 1.90733E-01-1.60314E+03 3.28245E-01 1.14222E-03-6.59703E-04
 -1   1003979 5.51800E-01 1.84934E-01-1.60322E+03 3.17715E-01 1.14293E-03-6.60078E-04
 -1   1003980-5.11122E-01-1.71104E-01-1.60322E+03-2.94464E-01-1.02449E-03 5.91260E-04
 -1   1003982-4.95013E-01-1.65902E-01-1.60314E+03-2.85018E-01-1.02509E-03 5.91648E-04
 -1   1003983 4.58541E-01 1.53502E-01-1.60315E+03 2.64172E-01 9.18538E-04-5.30521E-04
 -1   1003985 4.44089E-01 1.48836E-01-1.60321E+03 2.55697E-01 9.19115E-04-5.30811E-04
 -1   1003986-4.11392E-01-1.37718E-01-1.60321E+03-2.37008E-01-8.23784E-04 4.75437E-04
 -1   1003988-3.98426E-01-1.33531E-01-1.60315E+03-2.29405E-01-8.24264E-04 4.75760E-04
 -1   1003989 3.69115E-01 1.23566E-01-1.60315E+03 2.12652E-01 7.38487E-04-4.26469E-04
 -1   1003991 3.57482E-01 1.19809E-01-1.60321E+03 2.05830E-01 7.38957E-04-4.26689E-04
 -1   1003992-3.31211E-01-1.10877E-01-1.60321E+03-1.90815E-01-6.62135E-04 3.82255E-04
 -1   1003994-3.20772E-01-1.07506E-01-1.60316E+03-1.84694E-01-6.62511E-04 3.82531E-04
 -1   1003995 2.97230E-01 9.95015E-02-1.60316E+03 1.71238E-01 5.93542E-04-3.42694E-04
 -1   1003997 2.87862E-01 9.64766E-02-1.60320E+03 1.65745E-01 5.93929E-04-3.42854E-04
 -1   1003998-2.66771E-01-8.93045E-02-1.60320E+03-1.53690E-01-5.32041E-04 3.07121E-04
 -1   1004000-2.58363E-01-8.65896E-02-1.60316E+03-1.48760E-01-5.32335E-04 3.07354E-04
 -1   1004001 2.39471E-01 8.01657E-02-1.60316E+03 1.37962E-01 4.76761E-04-2.75325E-04
 -1   1004003 2.31923E-01 7.77286E-02-1.60320E+03 1.33536E-01 4.77076E-04-2.75444E-04
 -1   1004004-2.15007E-01-7.19761E-02-1.60320E+03-1.23868E-01-4.27247E-04 2.46589E-04
 -1   1004006-2.08231E-01-6.97880E-02-1.60316E+03-1.19895E-01-4.27476E-04 2.46789E-04
 -1   1004007 1.93091E-01 6.46395E-02-1.60317E+03 1.11242E-01 3.82622E-04-2.21030E-04
 -1   1004009 1.87005E-01 6.26744E-02-1.60320E+03 1.07674E-01 3.82884E-04-2.21113E-04
 -1   1004010-1.73461E-01-5.80681E-02-1.60319E+03-9.99333E-02-3.42741E-04 1.97734E-04
 -1   1004012-1.67994E-01-5.63028E-02-1.60317E+03-9.67276E-02-3.42918E-04 1.97906E-04
 -1   1004013 1.55887E-01 5.21850E-02-1.60317E+03 8.98085E-02 3.06682E-04-1.77197E-04
 -1   1004015 1.50974E-01 5.05986E-02-1.60319E+03 8.69274E-02 3.06899E-04-1.77248E-04
 -1   1004016-1.40159E-01-4.69197E-02-1.60319E+03-8.07473E-02-2.74464E-04 1.58370E-04
 -1   1004018-1.35741E-01-4.54933E-02-1.60317E+03-7.81570E-02-2.74595E-04 1.58526E-04
 -1   1004019 1.26091E-01 4.22105E-02-1.60317E+03 7.26427E-02 2.45365E-04-1.41724E-04
 -1   1004021 1.22117E-01 4.09273E-02-1.60319E+03 7.03123E-02 2.45551E-04-1.41746E-04
 -1   1004022-1.13517E-01-3.80009E-02-1.60319E+03-6.53984E-02-2.19276E-04 1.26538E-04
 -1   1004024-1.09939E-01-3.68457E-02-1.60317E+03-6.33005E-02-2.19370E-04 1.26682E-04
 -1   1004025 1.02287E-01 3.42419E-02-1.60317E+03 5.89290E-02 1.95686E-04-1.13018E-04
 -1   1004027 9.90631E-02 3.32009E-02-1.60319E+03 5.70385E-02 1.95842E-04-1.13019E-04
 -1   1004028-9.22692E-02-3.08880E-02-1.60319E+03-5.31574E-02-1.74517E-04 1.00718E-04
 -1   1004030-8.93611E-02-2.99490E-02-1.60317E+03-5.14521E-02-1.74583E-04 1.00848E-04
 -1   1004031 8.33438E-02 2.79005E-02-1.60317E+03 4.80156E-02 1.55316E-04-8.97154E-05
 -1   1004033 8.07171E-02 2.70523E-02-1.60319E+03 4.64753E-02 1.55449E-04-8.97035E-05
 -1   1004034-7.54065E-02-2.52430E-02-1.60319E+03-4.34425E-02-1.37987E-04 7.96749E-05
 -1   1004036-7.30298E-02-2.44756E-02-1.60318E+03-4.20489E-02-1.38033E-04 7.97943E-05
 -1   1004037 6.83615E-02 2.28851E-02-1.60318E+03 3.93841E-02 1.22304E-04-7.05777E-05
 -1   1004039 6.62070E-02 2.21893E-02-1.60319E+03 3.81207E-02 1.22419E-04-7.05508E-05
 -1   1004040-6.21272E-02-2.07976E-02-1.60319E+03-3.57921E-02-1.08066E-04 6.24136E-05
 -1   1004042-6.01691E-02-2.01653E-02-1.60318E+03-3.46438E-02-1.08092E-04 6.25190E-05
 -1   1004043 5.66278E-02 1.89571E-02-1.60318E+03 3.26243E-02 9.51340E-05-5.49398E-05
 -1   1004045 5.48431E-02 1.83808E-02-1.60318E+03 3.15778E-02 9.52283E-05-5.49101E-05
 -1   1004046-5.18002E-02-1.73405E-02-1.60318E+03-2.98425E-02-8.33057E-05 4.80759E-05
 -1   1004048-5.01675E-02-1.68133E-02-1.60318E+03-2.88851E-02-8.33253E-05 4.81654E-05
 -1   1004049 4.75852E-02 1.59299E-02-1.60318E+03 2.74147E-02 7.24641E-05-4.18313E-05
 -1   1004051 4.60856E-02 1.54457E-02-1.60318E+03 2.65353E-02 7.25404E-05-4.17993E-05
 -1   1004052-4.39349E-02-1.47076E-02-1.60318E+03-2.53112E-02-6.24408E-05 3.61136E-05
 -1   1004054-4.25500E-02-1.42604E-02-1.60318E+03-2.44992E-02-6.24438E-05 3.61959E-05
 -1   1004055 4.08037E-02 1.36597E-02-1.60318E+03 2.35079E-02 5.32203E-05-3.06477E-05
 -1   1004057 3.95179E-02 1.32444E-02-1.60318E+03 2.27539E-02 5.32855E-05-3.06053E-05
 -1   1004058-3.81573E-02-1.27735E-02-1.60318E+03-2.19826E-02-4.45547E-05 2.57918E-05
 -1   1004060-3.69545E-02-1.23851E-02-1.60318E+03-2.12773E-02-4.45478E-05 2.58677E-05
 -1   1004061 3.59615E-02 1.20386E-02-1.60318E+03 2.07183E-02 3.65463E-05-2.10360E-05
 -1   1004063 3.48284E-02 1.16727E-02-1.60318E+03 2.00538E-02 3.66005E-05-2.09897E-05
 -1   1004064-3.41929E-02-1.14464E-02-1.60318E+03-1.96986E-02-2.88534E-05 1.67058E-05
 -1   1004066-3.31150E-02-1.10983E-02-1.60318E+03-1.90665E-02-2.88414E-05 1.67678E-05
 -1   1004067 3.28274E-02 1.09894E-02-1.60318E+03 1.89127E-02 2.15876E-05-1.23859E-05
 -1   1004069 3.17931E-02 1.06554E-02-1.60318E+03 1.83062E-02 2.16284E-05-1.23433E-05
 -1   1004070-3.18508E-02-1.06624E-02-1.60318E+03-1.83492E-02-1.44311E-05 8.47008E-06
 -1   1004072-3.08466E-02-1.03382E-02-1.60318E+03-1.77604E-02-1.44180E-05 8.51943E-06
 -1   1004073 3.12429E-02 1.04589E-02-1.60318E+03 1.80000E-02 7.68132E-06-4.28201E-06
 -1   1004075 3.02588E-02 1.01411E-02-1.60318E+03 1.74229E-02 7.70491E-06-4.24749E-06
 -1   1004076-3.09838E-02-1.03723E-02-1.60318E+03-1.78497E-02-7.72774E-07 5.72642E-07
 -1   1004078-3.00075E-02-1.00570E-02-1.60318E+03-1.72772E-02-7.55293E-07 6.00094E-07
 -1   1004079 3.10024E-02 1.03787E-02-1.60318E+03 1.78610E-02-5.88915E-06 3.48539E-06
 -1   1004081 3.00283E-02 1.00642E-02-1.60318E+03 1.72898E-02-5.88663E-06 3.50996E-06
 -1   1004082 7.20592E+01 5.83403E+01-1.59241E+03 6.52638E+01 1.95381E-02-1.75922E-02
 -1   1004084 6.86746E+01 5.56099E+01-1.61396E+03 6.21511E+01 1.84863E-02-1.66451E-02
 -1   1004085-1.81039E+01-1.46655E+01-1.60595E+03-1.63569E+01-2.11668E-03 1.90590E-03
 -1   1004087-1.72340E+01-1.39638E+01-1.60041E+03-1.55569E+01-1.83274E-03 1.65025E-03
 -1   1004088 3.67977E+00 2.98228E+00-1.60256E+03 3.31811E+00-2.25247E-03 2.02811E-03
 -1   1004090 3.48317E+00 2.82367E+00-1.60380E+03 3.13735E+00-2.33031E-03 2.09821E-03
 -1   1004091 8.89491E-02 7.22269E-02-1.60324E+03 7.95503E-02 3.13855E-03-2.82606E-03
 -1   1004093 1.08015E-01 8.76104E-02-1.60312E+03 9.70685E-02 3.16096E-03-2.84624E-03
 -1   1004094-9.94590E-01-8.06704E-01-1.60326E+03-8.93808E-01-3.11645E-03 2.80590E-03
 -1   1004096-9.69312E-01-7.86314E-01-1.60310E+03-8.70555E-01-3.12383E-03 2.81255E-03
 -1   1004097 1.13899E+00 9.23934E-01-1.60307E+03 1.02306E+00 2.87615E-03-2.58991E-03
 -1   1004099 1.10490E+00 8.96432E-01-1.60329E+03 9.91708E-01 2.87937E-03-2.59280E-03
 -1   1004100-1.08825E+00-8.82828E-01-1.60329E+03-9.77215E-01-2.60172E-03 2.34235E-03
 -1   1004102-1.05459E+00-8.55678E-01-1.60307E+03-9.46262E-01-2.60369E-03 2.34413E-03
 -1   1004103 9.94086E-01 8.06464E-01-1.60308E+03 8.92549E-01 2.33915E-03-2.10644E-03
 -1   1004105 9.63068E-01 7.81443E-01-1.60328E+03 8.64024E-01 2.34068E-03-2.10780E-03
 -1   1004106-8.96503E-01-7.27308E-01-1.60327E+03-8.04892E-01-2.09981E-03 1.89040E-03
 -1   1004108-8.68458E-01-7.04684E-01-1.60309E+03-7.79101E-01-2.10110E-03 1.89158E-03
 -1   1004109 8.05438E-01 6.53432E-01-1.60310E+03 7.23119E-01 1.88349E-03-1.69615E-03
 -1   1004111 7.80222E-01 6.33091E-01-1.60326E+03 6.99929E-01 1.88465E-03-1.69718E-03
 -1   1004112-7.22806E-01-5.86396E-01-1.60325E+03-6.48928E-01-1.68961E-03 1.52112E-03
 -1   1004114-7.00173E-01-5.68138E-01-1.60311E+03-6.28113E-01-1.69062E-03 1.52205E-03
 -1   1004115 6.48438E-01 5.26063E-01-1.60312E+03 5.82160E-01 1.51517E-03-1.36449E-03
 -1   1004117 6.28132E-01 5.09683E-01-1.60325E+03 5.63485E-01 1.51610E-03-1.36531E-03
 -1   1004118-5.81670E-01-4.71896E-01-1.60324E+03-5.22216E-01-1.35911E-03 1.22353E-03
 -1   1004120-5.63455E-01-4.57202E-01-1.60312E+03-5.05464E-01-1.35993E-03 1.22429E-03
 -1   1004121 5.21771E-01 4.23301E-01-1.60313E+03 4.68439E-01 1.21870E-03-1.09755E-03
 -1   1004123 5.05431E-01 4.10120E-01-1.60323E+03 4.53411E-01 1.21945E-03-1.09820E-03
 -1   1004124-4.68046E-01-3.79715E-01-1.60323E+03-4.20205E-01-1.09317E-03 9.84069E-04
 -1   1004126-4.53388E-01-3.67891E-01-1.60313E+03-4.06725E-01-1.09382E-03 9.84680E-04
 -1   1004127 4.19864E-01 3.40626E-01-1.60314E+03 3.76948E-01 9.80112E-04-8.82749E-04
 -1   1004129 4.06715E-01 3.30019E-01-1.60322E+03 3.64856E-01 9.80720E-04-8.83269E-04
 -1   1004130-3.76654E-01-3.05571E-01-1.60322E+03-3.38155E-01-8.79173E-04 7.91330E-04
 -1   1004132-3.64859E-01-2.96056E-01-1.60314E+03-3.27307E-01-8.79692E-04 7.91825E-04
 -1   1004133 3.37907E-01 2.74136E-01-1.60315E+03 3.03368E-01 7.88159E-04-7.09923E-04
 -1   1004135 3.27325E-01 2.65600E-01-1.60321E+03 2.93636E-01 7.88654E-04-7.10334E-04
 -1   1004136-3.03162E-01-2.45948E-01-1.60321E+03-2.72174E-01-7.06950E-04 6.36334E-04
 -1   1004138-2.93667E-01-2.38290E-01-1.60315E+03-2.63443E-01-7.07359E-04 6.36741E-04
 -1   1004139 2.72007E-01 2.20674E-01-1.60315E+03 2.44204E-01 6.33666E-04-5.70709E-04
 -1   1004141 2.63489E-01 2.13802E-01-1.60321E+03 2.36370E-01 6.34075E-04-5.71029E-04
 -1   1004142-2.44075E-01-1.98013E-01-1.60321E+03-2.19127E-01-5.68201E-04 5.11523E-04
 -1   1004144-2.36432E-01-1.91847E-01-1.60316E+03-2.12098E-01-5.68517E-04 5.11865E-04
 -1   1004145 2.19034E-01 1.77698E-01-1.60316E+03 1.96646E-01 5.09309E-04-4.58632E-04
 -1   1004147 2.12175E-01 1.72164E-01-1.60320E+03 1.90338E-01 5.09650E-04-4.58877E-04
 -1   1004148-1.96588E-01-1.59487E-01-1.60320E+03-1.76494E-01-4.56571E-04 4.11009E-04
 -1   1004150-1.90431E-01-1.54521E-01-1.60316E+03-1.70832E-01-4.56816E-04 4.11293E-04
 -1   1004151 1.76470E-01 1.43166E-01-1.60316E+03 1.58432E-01 4.09078E-04-3.68446E-04
 -1   1004153 1.70943E-01 1.38708E-01-1.60320E+03 1.53350E-01 4.09361E-04-3.68632E-04
 -1   1004154-1.58442E-01-1.28541E-01-1.60320E+03-1.42248E-01-3.66640E-04 3.30014E-04
 -1   1004156-1.53481E-01-1.24538E-01-1.60316E+03-1.37684E-01-3.66827E-04 3.30255E-04
 -1   1004157 1.42292E-01 1.15438E-01-1.60317E+03 1.27748E-01 3.28329E-04-2.95735E-04
 -1   1004159 1.37836E-01 1.11844E-01-1.60320E+03 1.23649E-01 3.28566E-04-2.95873E-04
 -1   1004160-1.27827E-01-1.03703E-01-1.60319E+03-1.14761E-01-2.94103E-04 2.64728E-04
 -1   1004162-1.23824E-01-1.00474E-01-1.60317E+03-1.11080E-01-2.94241E-04 2.64932E-04
 -1   1004163 1.14876E-01 9.31963E-02-1.60317E+03 1.03134E-01 2.63176E-04-2.37039E-04
 -1   1004165 1.11278E-01 9.02941E-02-1.60319E+03 9.98251E-02 2.63376E-04-2.37136E-04
 -1   1004166-1.03285E-01-8.37930E-02-1.60319E+03-9.27282E-02-2.35547E-04 2.12006E-04
 -1   1004168-1.00051E-01-8.11838E-02-1.60317E+03-8.97537E-02-2.35645E-04 2.12184E-04
 -1   1004169 9.29187E-02 7.53830E-02-1.60317E+03 8.34210E-02 2.10554E-04-1.89652E-04
 -1   1004171 9.00086E-02 7.30355E-02-1.60319E+03 8.07448E-02 2.10728E-04-1.89716E-04
 -1   1004172-8.36523E-02-6.78651E-02-1.60319E+03-7.51020E-02-1.88165E-04 1.69366E-04
 -1   1004174-8.10328E-02-6.57520E-02-1.60317E+03-7.26929E-02-1.88230E-04 1.69521E-04
 -1   1004175 7.53772E-02 6.11520E-02-1.60317E+03 6.76725E-02 1.67931E-04-1.51240E-04
 -1   1004177 7.30164E-02 5.92476E-02-1.60319E+03 6.55014E-02 1.68085E-04-1.51274E-04
 -1   1004178-6.79946E-02-5.51622E-02-1.60319E+03-6.10447E-02-1.49757E-04 1.34784E-04
 -1   1004180-6.58654E-02-5.34447E-02-1.60317E+03-5.90866E-02-1.49793E-04 1.34923E-04
 -1   1004181 6.14177E-02 4.98271E-02-1.60317E+03 5.51399E-02 1.33226E-04-1.20054E-04
 -1   1004183 5.94941E-02 4.82753E-02-1.60319E+03 5.33708E-02 1.33360E-04-1.20068E-04
 -1   1004184-5.55681E-02-4.50809E-02-1.60319E+03-4.98884E-02-1.18456E-04 1.06578E-04
 -1   1004186-5.38281E-02-4.36773E-02-1.60318E+03-4.82882E-02-1.18471E-04 1.06702E-04
 -1   1004187 5.03770E-02 4.08700E-02-1.60318E+03 4.52276E-02 1.04916E-04-9.45682E-05
 -1   1004189 4.87991E-02 3.95972E-02-1.60319E+03 4.37766E-02 1.05037E-04-9.45624E-05
 -1   1004190-4.57824E-02-3.71418E-02-1.60319E+03-4.11029E-02-9.27764E-05 8.34114E-05
 -1   1004192-4.43488E-02-3.59854E-02-1.60318E+03-3.97845E-02-9.27752E-05 8.35245E-05
 -1   1004193 4.17303E-02 3.38552E-02-1.60318E+03 3.74647E-02 8.15652E-05-7.35666E-05
 -1   1004195 4.04232E-02 3.28008E-02-1.60318E+03 3.62627E-02 8.16726E-05-7.35483E-05
 -1   1004196-3.81722E-02-3.09679E-02-1.60318E+03-3.42706E-02-7.15472E-05 6.43368E-05
 -1   1004198-3.69770E-02-3.00037E-02-1.60318E+03-3.31714E-02-7.15309E-05 6.44403E-05
 -1   1004199 3.50666E-02 2.84491E-02-1.60318E+03 3.14822E-02 6.21392E-05-5.59998E-05
 -1   1004201 3.39682E-02 2.75630E-02-1.60318E+03 3.04721E-02 6.22365E-05-5.59666E-05
 -1   1004202-3.23762E-02-2.62657E-02-1.60318E+03-2.90669E-02-5.36005E-05 4.82374E-05
 -1   1004204-3.13624E-02-2.54480E-02-1.60318E+03-2.81346E-02-5.35676E-05 4.83391E-05
 -1   1004205 3.00692E-02 2.43949E-02-1.60318E+03 2.69957E-02 4.56411E-05-4.11442E-05
 -1   1004207 2.91273E-02 2.36351E-02-1.60318E+03 2.61296E-02 4.57351E-05-4.10941E-05
 -1   1004208-2.81187E-02-2.28116E-02-1.60318E+03-2.52444E-02-3.83063E-05 3.44210E-05
 -1   1004210-2.72382E-02-2.21014E-02-1.60318E+03-2.44347E-02-3.82609E-05 3.45189E-05
 -1   1004211 2.65008E-02 2.15000E-02-1.60318E+03 2.37923E-02 3.13420E-05-2.82467E-05
 -1   1004213 2.56708E-02 2.08303E-02-1.60318E+03 2.30289E-02 3.14295E-05-2.81866E-05
 -1   1004214-2.51973E-02-2.04415E-02-1.60318E+03-2.26215E-02-2.47511E-05 2.23106E-05
 -1   1004216-2.44083E-02-1.98051E-02-1.60318E+03-2.18959E-02-2.46971E-05 2.24049E-05
 -1   1004217 2.41911E-02 1.96262E-02-1.60318E+03 2.17188E-02 1.85248E-05-1.65825E-05
 -1   1004219 2.34334E-02 1.90150E-02-1.60318E+03 2.10220E-02 1.86049E-05-1.65137E-05
 -1   1004220-2.34714E-02-1.90413E-02-1.60318E+03-2.10718E-02-1.23619E-05 1.12452E-05
 -1   1004222-2.27364E-02-1.84484E-02-1.60318E+03-2.03959E-02-1.23006E-05 1.13325E-05
 -1   1004223 2.30234E-02 1.86790E-02-1.60318E+03 2.06707E-02 6.58008E-06-5.84083E-06
 -1   1004225 2.23025E-02 1.80974E-02-1.60318E+03 2.00077E-02 6.64815E-06-5.77074E-06
 -1   1004226-2.28326E-02-1.85231E-02-1.60318E+03-2.04982E-02-6.51536E-07 7.34898E-07
 -1   1004228-2.21180E-02-1.79467E-02-1.60318E+03-1.98410E-02-5.90688E-07 8.05408E-07
 -1   1004229 2.28461E-02 1.85350E-02-1.60318E+03 2.05112E-02-5.00460E-06 4.71168E-06
 -1   1004231 2.21326E-02 1.79594E-02-1.60318E+03 1.98549E-02-4.94916E-06 4.78608E-06
 -1   1004232 4.49211E+01 8.54784E+01-1.59241E+03 6.24114E+01 1.54535E-02-2.12700E-02
 -1   1004234 4.28307E+01 8.14538E+01-1.61396E+03 5.94348E+01 1.46215E-02-2.01249E-02
 -1   1004235-1.13023E+01-2.14671E+01-1.60595E+03-1.56420E+01-1.67422E-03 2.30429E-03
 -1   1004237-1.07650E+01-2.04327E+01-1.60041E+03-1.48770E+01-1.44964E-03 1.99519E-03
 -1   1004238 2.30002E+00 4.36202E+00-1.60256E+03 3.17309E+00-1.78163E-03 2.45209E-03
 -1   1004240 2.17859E+00 4.12825E+00-1.60380E+03 3.00023E+00-1.84319E-03 2.53683E-03
 -1   1004241 5.58702E-02 1.05306E-01-1.60324E+03 7.60736E-02 2.48237E-03-3.41686E-03
 -1   1004243 6.76516E-02 1.27974E-01-1.60312E+03 9.28262E-02 2.50010E-03-3.44125E-03
 -1   1004244-6.22924E-01-1.17837E+00-1.60326E+03-8.54744E-01-2.46495E-03 3.39252E-03
 -1   1004246-6.07315E-01-1.14831E+00-1.60310E+03-8.32507E-01-2.47079E-03 3.40056E-03
 -1   1004247 7.13576E-01 1.34935E+00-1.60307E+03 9.78351E-01 2.27484E-03-3.13129E-03
 -1   1004249 6.92522E-01 1.30881E+00-1.60329E+03 9.48365E-01 2.27739E-03-3.13479E-03
 -1   1004250-6.81898E-01-1.28918E+00-1.60329E+03-9.34506E-01-2.05787E-03 2.83211E-03
 -1   1004252-6.61112E-01-1.24916E+00-1.60307E+03-9.04905E-01-2.05942E-03 2.83426E-03
 -1   1004253 6.22943E-01 1.17761E+00-1.60308E+03 8.53541E-01 1.85010E-03-2.54675E-03
 -1   1004255 6.03787E-01 1.14072E+00-1.60328E+03 8.26262E-01 1.85131E-03-2.54841E-03
 -1   1004256-5.61810E-01-1.06200E+00-1.60327E+03-7.69715E-01-1.66087E-03 2.28569E-03
 -1   1004258-5.44490E-01-1.02865E+00-1.60309E+03-7.45050E-01-1.66189E-03 2.28711E-03
 -1   1004259 5.04748E-01 9.54122E-01-1.60310E+03 6.91515E-01 1.48970E-03-2.05064E-03
 -1   1004261 4.89175E-01 9.24138E-01-1.60326E+03 6.69339E-01 1.49061E-03-2.05188E-03
 -1   1004262-4.52967E-01-8.56236E-01-1.60325E+03-6.20567E-01-1.33638E-03 1.83917E-03
 -1   1004264-4.38989E-01-8.29322E-01-1.60311E+03-6.00661E-01-1.33718E-03 1.84029E-03
 -1   1004265 4.06363E-01 7.68139E-01-1.60312E+03 5.56716E-01 1.19842E-03-1.64971E-03
 -1   1004267 3.93822E-01 7.43993E-01-1.60325E+03 5.38858E-01 1.19915E-03-1.65071E-03
 -1   1004268-3.64521E-01-6.89046E-01-1.60324E+03-4.99392E-01-1.07500E-03 1.47941E-03
 -1   1004270-3.53271E-01-6.67385E-01-1.60312E+03-4.83372E-01-1.07564E-03 1.48031E-03
 -1   1004271 3.26983E-01 6.18089E-01-1.60313E+03 4.47966E-01 9.63902E-04-1.32688E-03
 -1   1004273 3.16892E-01 5.98659E-01-1.60323E+03 4.33595E-01 9.64496E-04-1.32768E-03
 -1   1004274-2.93315E-01-5.54446E-01-1.60323E+03-4.01840E-01-8.64623E-04 1.18986E-03
 -1   1004276-2.84262E-01-5.37017E-01-1.60313E+03-3.88949E-01-8.65138E-04 1.19059E-03
 -1   1004277 2.63120E-01 4.97370E-01-1.60314E+03 3.60473E-01 7.75228E-04-1.06720E-03
 -1   1004279 2.54999E-01 4.81735E-01-1.60322E+03 3.48910E-01 7.75707E-04-1.06784E-03
 -1   1004280-2.36042E-01-4.46184E-01-1.60322E+03-3.23376E-01-6.95400E-04 9.56906E-04
 -1   1004282-2.28757E-01-4.32158E-01-1.60314E+03-3.13002E-01-6.95813E-04 9.57493E-04
 -1   1004283 2.11759E-01 4.00284E-01-1.60315E+03 2.90109E-01 6.23373E-04-8.58223E-04
 -1   1004285 2.05224E-01 3.87700E-01-1.60321E+03 2.80803E-01 6.23761E-04-8.58737E-04
 -1   1004286-1.89985E-01-3.59125E-01-1.60321E+03-2.60279E-01-5.59124E-04 7.69417E-04
 -1   1004288-1.84122E-01-3.47835E-01-1.60315E+03-2.51929E-01-5.59450E-04 7.69892E-04
 -1   1004289 1.70461E-01 3.22219E-01-1.60315E+03 2.33531E-01 5.01196E-04-6.89946E-04
 -1   1004291 1.65201E-01 3.12090E-01-1.60321E+03 2.26040E-01 5.01516E-04-6.90352E-04
 -1   1004292-1.52957E-01-2.89131E-01-1.60321E+03-2.09550E-01-4.49429E-04 6.18492E-04
 -1   1004294-1.48236E-01-2.80042E-01-1.60316E+03-2.02828E-01-4.49683E-04 6.18879E-04
 -1   1004295 1.37264E-01 2.59468E-01-1.60316E+03 1.88052E-01 4.02818E-04-5.54535E-04
 -1   1004297 1.33028E-01 2.51311E-01-1.60320E+03 1.82019E-01 4.03084E-04-5.54856E-04
 -1   1004298-1.23197E-01-2.32877E-01-1.60320E+03-1.68780E-01-3.61180E-04 4.96950E-04
 -1   1004300-1.19395E-01-2.25557E-01-1.60316E+03-1.63366E-01-3.61376E-04 4.97268E-04
 -1   1004301 1.10590E-01 2.09046E-01-1.60316E+03 1.51508E-01 3.23511E-04-4.45456E-04
 -1   1004303 1.07177E-01 2.02475E-01-1.60320E+03 1.46648E-01 3.23733E-04-4.45708E-04
 -1   1004304-9.92926E-02-1.87691E-01-1.60320E+03-1.36031E-01-2.90028E-04 3.99016E-04
 -1   1004306-9.62282E-02-1.81791E-01-1.60316E+03-1.31667E-01-2.90174E-04 3.99279E-04
 -1   1004307 8.91715E-02 1.68559E-01-1.60317E+03 1.22164E-01 2.59660E-04-3.57544E-04
 -1   1004309 8.64194E-02 1.63260E-01-1.60320E+03 1.18245E-01 2.59849E-04-3.57738E-04
 -1   1004310-8.01062E-02-1.51423E-01-1.60319E+03-1.09745E-01-2.32628E-04 3.20094E-04
 -1   1004312-7.76340E-02-1.46663E-01-1.60317E+03-1.06225E-01-2.32735E-04 3.20313E-04
 -1   1004313 7.19904E-02 1.36082E-01-1.60317E+03 9.86263E-02 2.08147E-04-2.86548E-04
 -1   1004315 6.97685E-02 1.31804E-01-1.60319E+03 9.54622E-02 2.08312E-04-2.86695E-04
 -1   1004316-6.47267E-02-1.22351E-01-1.60319E+03-8.86756E-02-1.86312E-04 2.56350E-04
 -1   1004318-6.27292E-02-1.18506E-01-1.60317E+03-8.58311E-02-1.86386E-04 2.56532E-04
 -1   1004319 5.82304E-02 1.10072E-01-1.60317E+03 7.97751E-02 1.66526E-04-2.29303E-04
 -1   1004321 5.64331E-02 1.06611E-01-1.60319E+03 7.72157E-02 1.66666E-04-2.29415E-04
 -1   1004322-5.24231E-02-9.90942E-02-1.60319E+03-7.18197E-02-1.48857E-04 2.04811E-04
 -1   1004324-5.08053E-02-9.59795E-02-1.60317E+03-6.95160E-02-1.48905E-04 2.04964E-04
 -1   1004325 4.72375E-02 8.92918E-02-1.60317E+03 6.47148E-02 1.32828E-04-1.82826E-04
 -1   1004327 4.57795E-02 8.64846E-02-1.60319E+03 6.26386E-02 1.32956E-04-1.82905E-04
 -1   1004328-4.26106E-02-8.05460E-02-1.60319E+03-5.83767E-02-1.18434E-04 1.62976E-04
 -1   1004330-4.12957E-02-7.80144E-02-1.60317E+03-5.65043E-02-1.18455E-04 1.63110E-04
 -1   1004331 3.84894E-02 7.27556E-02-1.60317E+03 5.27300E-02 1.05330E-04-1.45124E-04
 -1   1004333 3.73014E-02 7.04681E-02-1.60319E+03 5.10381E-02 1.05445E-04-1.45177E-04
 -1   1004334-3.48232E-02-6.58256E-02-1.60319E+03-4.77081E-02-9.37703E-05 1.28835E-04
 -1   1004336-3.37487E-02-6.37567E-02-1.60318E+03-4.61779E-02-9.37744E-05 1.28950E-04
 -1   1004337 3.15705E-02 5.96768E-02-1.60318E+03 4.32510E-02 8.28921E-05-1.14393E-04
 -1   1004339 3.05959E-02 5.78004E-02-1.60319E+03 4.18632E-02 8.29961E-05-1.14423E-04
 -1   1004340-2.86906E-02-5.42334E-02-1.60319E+03-3.93065E-02-7.34946E-05 1.00855E-04
 -1   1004342-2.78053E-02-5.25290E-02-1.60318E+03-3.80459E-02-7.34811E-05 1.00956E-04
 -1   1004343 2.61518E-02 4.94339E-02-1.60318E+03 3.58273E-02 6.44635E-05-8.89302E-05
 -1   1004345 2.53445E-02 4.78794E-02-1.60318E+03 3.46776E-02 6.45665E-05-8.89388E-05
 -1   1004346-2.39215E-02-4.52184E-02-1.60318E+03-3.27728E-02-5.65881E-05 7.77920E-05
 -1   1004348-2.31834E-02-4.37974E-02-1.60318E+03-3.17218E-02-5.65483E-05 7.78930E-05
 -1   1004349 2.19758E-02 4.15403E-02-1.60318E+03 3.01063E-02 4.90898E-05-6.76841E-05
 -1   1004351 2.12973E-02 4.02340E-02-1.60318E+03 2.91401E-02 4.91980E-05-6.76689E-05
 -1   1004352-2.02892E-02-3.83522E-02-1.60318E+03-2.77965E-02-4.24717E-05 5.82702E-05
 -1   1004354-1.96632E-02-3.71471E-02-1.60318E+03-2.69052E-02-4.24145E-05 5.83655E-05
 -1   1004355 1.88441E-02 3.56205E-02-1.60318E+03 2.58158E-02 3.60074E-05-4.98047E-05
 -1   1004357 1.82622E-02 3.45002E-02-1.60318E+03 2.49873E-02 3.61166E-05-4.97723E-05
 -1   1004358-1.76211E-02-3.33086E-02-1.60318E+03-2.41412E-02-3.04184E-05 4.15584E-05
 -1   1004360-1.70775E-02-3.22621E-02-1.60318E+03-2.33671E-02-3.03459E-05 4.16500E-05
 -1   1004361 1.66078E-02 3.13936E-02-1.60318E+03 2.27523E-02 2.46556E-05-3.42302E-05
 -1   1004363 1.60950E-02 3.04062E-02-1.60318E+03 2.20220E-02 2.47675E-05-3.41799E-05
 -1   1004364-1.57903E-02-2.98479E-02-1.60318E+03-2.16330E-02-1.97051E-05 2.68910E-05
 -1   1004366-1.53032E-02-2.89101E-02-1.60318E+03-2.09394E-02-1.96144E-05 2.69812E-05
 -1   1004367 1.51604E-02 2.86576E-02-1.60318E+03 2.07694E-02 1.45125E-05-2.02009E-05
 -1   1004369 1.46922E-02 2.77562E-02-1.60318E+03 2.01028E-02 1.46307E-05-2.01342E-05
 -1   1004370-1.47087E-02-2.78031E-02-1.60318E+03-2.01510E-02-9.96032E-06 1.34238E-05
 -1   1004372-1.42550E-02-2.69297E-02-1.60318E+03-1.95050E-02-9.85324E-06 1.35164E-05
 -1   1004373 1.44287E-02 2.72746E-02-1.60318E+03 1.97671E-02 5.03944E-06-7.22365E-06
 -1   1004375 1.39832E-02 2.64169E-02-1.60318E+03 1.91327E-02 5.16212E-06-7.13959E-06
 -1   1004376-1.43086E-02-2.70465E-02-1.60318E+03-1.96025E-02-6.54386E-07 7.54868E-07
 -1   1004378-1.38676E-02-2.61973E-02-1.60318E+03-1.89744E-02-5.26836E-07 8.48451E-07
 -1   1004379 1.43174E-02 2.70644E-02-1.60318E+03 1.96145E-02-4.01314E-06 5.60660E-06
 -1   1004381 1.38764E-02 2.62154E-02-1.60318E+03 1.89866E-02-3.88537E-06 5.70926E-06
 -1   1004382 2.12892E+01 1.09110E+02-1.59241E+03 4.87676E+01 1.06934E-02-2.40182E-02
 -1   1004384 2.03259E+01 1.03959E+02-1.61396E+03 4.64417E+01 1.01177E-02-2.27251E-02
 -1   1004385-5.37953E+00-2.73898E+01-1.60595E+03-1.22225E+01-1.15863E-03 2.60199E-03
 -1   1004387-5.13190E+00-2.60658E+01-1.60041E+03-1.16247E+01-1.00323E-03 2.25295E-03
 -1   1004388 1.09854E+00 5.56350E+00-1.60256E+03 2.47942E+00-1.23293E-03 2.76888E-03
 -1   1004390 1.04256E+00 5.26428E+00-1.60380E+03 2.34435E+00-1.27553E-03 2.86458E-03
 -1   1004391 2.70652E-02 1.34111E-01-1.60324E+03 5.94430E-02 1.71771E-03-3.85832E-03
 -1   1004393 3.25034E-02 1.63122E-01-1.60312E+03 7.25333E-02 1.72998E-03-3.88587E-03
 -1   1004394-2.99279E-01-1.50202E+00-1.60326E+03-6.67887E-01-1.70573E-03 3.83088E-03
 -1   1004396-2.92089E-01-1.46354E+00-1.60310E+03-6.50512E-01-1.70977E-03 3.83996E-03
 -1   1004397 3.43128E-01 1.71980E+00-1.60307E+03 7.64472E-01 1.57412E-03-3.53582E-03
 -1   1004399 3.33427E-01 1.66790E+00-1.60329E+03 7.41042E-01 1.57589E-03-3.53977E-03
 -1   1004400-3.28051E-01-1.64302E+00-1.60329E+03-7.30212E-01-1.42403E-03 3.19808E-03
 -1   1004402-3.18474E-01-1.59179E+00-1.60307E+03-7.07083E-01-1.42511E-03 3.20051E-03
 -1   1004403 2.99753E-01 1.50080E+00-1.60308E+03 6.66947E-01 1.28021E-03-2.87572E-03
 -1   1004405 2.90926E-01 1.45358E+00-1.60328E+03 6.45631E-01 1.28105E-03-2.87760E-03
 -1   1004406-2.70360E-01-1.35345E+00-1.60327E+03-6.01446E-01-1.14930E-03 2.58111E-03
 -1   1004408-2.62379E-01-1.31076E+00-1.60309E+03-5.82174E-01-1.15001E-03 2.58271E-03
 -1   1004409 2.42909E-01 1.21596E+00-1.60310E+03 5.40342E-01 1.03087E-03-2.31555E-03
 -1   1004411 2.35733E-01 1.17758E+00-1.60326E+03 5.23014E-01 1.03150E-03-2.31696E-03
 -1   1004412-2.17992E-01-1.09121E+00-1.60325E+03-4.84904E-01-9.24751E-04 2.07683E-03
 -1   1004414-2.11551E-01-1.05676E+00-1.60311E+03-4.69350E-01-9.25310E-04 2.07810E-03
 -1   1004415 1.95564E-01 9.78937E-01-1.60312E+03 4.35012E-01 8.29240E-04-1.86278E-03
 -1   1004417 1.89785E-01 9.48029E-01-1.60325E+03 4.21057E-01 8.29744E-04-1.86391E-03
 -1   1004418-1.75428E-01-8.78139E-01-1.60324E+03-3.90220E-01-7.43870E-04 1.67058E-03
 -1   1004420-1.70244E-01-8.50412E-01-1.60312E+03-3.77702E-01-7.44317E-04 1.67160E-03
 -1   1004421 1.57363E-01 7.87709E-01-1.60313E+03 3.50035E-01 6.67040E-04-1.49830E-03
 -1   1004423 1.52713E-01 7.62838E-01-1.60323E+03 3.38806E-01 6.67451E-04-1.49921E-03
 -1   1004424-1.41160E-01-7.06602E-01-1.60323E+03-3.13993E-01-5.98285E-04 1.34367E-03
 -1   1004426-1.36988E-01-6.84291E-01-1.60313E+03-3.03921E-01-5.98643E-04 1.34449E-03
 -1   1004427 1.26628E-01 6.33862E-01-1.60314E+03 2.81670E-01 5.36493E-04-1.20504E-03
 -1   1004429 1.22886E-01 6.13848E-01-1.60322E+03 2.72634E-01 5.36822E-04-1.20577E-03
 -1   1004430-1.13597E-01-5.68629E-01-1.60322E+03-2.52682E-01-4.81162E-04 1.08063E-03
 -1   1004432-1.10240E-01-5.50675E-01-1.60314E+03-2.44577E-01-4.81450E-04 1.08128E-03
 -1   1004433 1.01911E-01 5.10132E-01-1.60315E+03 2.26688E-01 4.31379E-04-9.69020E-04
 -1   1004435 9.88990E-02 4.94025E-01-1.60321E+03 2.19416E-01 4.31643E-04-9.69607E-04
 -1   1004436-9.14316E-02-4.57678E-01-1.60321E+03-2.03379E-01-3.86878E-04 8.68861E-04
 -1   1004438-8.87298E-02-4.43227E-01-1.60315E+03-1.96855E-01-3.87110E-04 8.69389E-04
 -1   1004439 8.20357E-02 4.10645E-01-1.60315E+03 1.82479E-01 3.46831E-04-7.79067E-04
 -1   1004441 7.96115E-02 3.97679E-01-1.60321E+03 1.76625E-01 3.47044E-04-7.79539E-04
 -1   1004442-7.36115E-02-3.68476E-01-1.60321E+03-1.63740E-01-3.11029E-04 6.98446E-04
 -1   1004444-7.14363E-02-3.56842E-01-1.60316E+03-1.58488E-01-3.11216E-04 6.98870E-04
 -1   1004445 6.60594E-02 3.30673E-01-1.60316E+03 1.46941E-01 2.78701E-04-6.26177E-04
 -1   1004447 6.41073E-02 3.20232E-01-1.60320E+03 1.42228E-01 2.78872E-04-6.26555E-04
 -1   1004448-5.92896E-02-2.96785E-01-1.60320E+03-1.31883E-01-2.49963E-04 5.61158E-04
 -1   1004450-5.75375E-02-2.87415E-01-1.60316E+03-1.27652E-01-2.50111E-04 5.61500E-04
 -1   1004451 5.32223E-02 2.66414E-01-1.60316E+03 1.18387E-01 2.23832E-04-5.02972E-04
 -1   1004453 5.16495E-02 2.58002E-01-1.60320E+03 1.14589E-01 2.23974E-04-5.03275E-04
 -1   1004454-4.77851E-02-2.39198E-01-1.60320E+03-1.06293E-01-2.00728E-04 4.50581E-04
 -1   1004456-4.63731E-02-2.31646E-01-1.60316E+03-1.02883E-01-2.00841E-04 4.50858E-04
 -1   1004457 4.29145E-02 2.14816E-01-1.60317E+03 9.54579E-02 1.79621E-04-4.03723E-04
 -1   1004459 4.16463E-02 2.08033E-01-1.60320E+03 9.23956E-02 1.79739E-04-4.03964E-04
 -1   1004460-3.85515E-02-1.92978E-01-1.60319E+03-8.57538E-02-1.61025E-04 3.61463E-04
 -1   1004462-3.74123E-02-1.86885E-01-1.60317E+03-8.30030E-02-1.61108E-04 3.61689E-04
 -1   1004463 3.46460E-02 1.73426E-01-1.60317E+03 7.70655E-02 1.44025E-04-3.23599E-04
 -1   1004465 3.36221E-02 1.67950E-01-1.60319E+03 7.45931E-02 1.44130E-04-3.23788E-04
 -1   1004466-3.11500E-02-1.55928E-01-1.60319E+03-6.92901E-02-1.28943E-04 2.89472E-04
 -1   1004468-3.02296E-02-1.51005E-01-1.60317E+03-6.70675E-02-1.29004E-04 2.89654E-04
 -1   1004469 2.80239E-02 1.40278E-01-1.60317E+03 6.23354E-02 1.15194E-04-2.58888E-04
 -1   1004471 2.71957E-02 1.35848E-01-1.60319E+03 6.03355E-02 1.15280E-04-2.59039E-04
 -1   1004472-2.52287E-02-1.26289E-01-1.60319E+03-5.61191E-02-1.03030E-04 2.31281E-04
 -1   1004474-2.44833E-02-1.22302E-01-1.60317E+03-5.43190E-02-1.03073E-04 2.31432E-04
 -1   1004475 2.27335E-02 1.13796E-01-1.60317E+03 5.05675E-02 9.18954E-05-2.06474E-04
 -1   1004477 2.20617E-02 1.10202E-01-1.60319E+03 4.89451E-02 9.19757E-05-2.06589E-04
 -1   1004478-2.05064E-02-1.02650E-01-1.60319E+03-4.56148E-02-8.19902E-05 1.84043E-04
 -1   1004480-1.99006E-02-9.94095E-02-1.60317E+03-4.41518E-02-8.20115E-05 1.84167E-04
 -1   1004481 1.85235E-02 9.27216E-02-1.60317E+03 4.12027E-02 7.28555E-05-1.63907E-04
 -1   1004483 1.79761E-02 8.97935E-02-1.60319E+03 3.98807E-02 7.29292E-05-1.63995E-04
 -1   1004484-1.67587E-02-8.38901E-02-1.60319E+03-3.72785E-02-6.49524E-05 1.45494E-04
 -1   1004486-1.62635E-02-8.12419E-02-1.60318E+03-3.60829E-02-6.49598E-05 1.45594E-04
 -1   1004487 1.51937E-02 7.60536E-02-1.60318E+03 3.37959E-02 5.72815E-05-1.29085E-04
 -1   1004489 1.47446E-02 7.36516E-02-1.60319E+03 3.27114E-02 5.73511E-05-1.29149E-04
 -1   1004490-1.38073E-02-6.91167E-02-1.60319E+03-3.07136E-02-5.09239E-05 1.13956E-04
 -1   1004492-1.33994E-02-6.69350E-02-1.60318E+03-2.97286E-02-5.09154E-05 1.14042E-04
 -1   1004493 1.25860E-02 6.29997E-02-1.60318E+03 2.79951E-02 4.45227E-05-1.00382E-04
 -1   1004495 1.22139E-02 6.10098E-02-1.60318E+03 2.70968E-02 4.45993E-05-1.00422E-04
 -1   1004496-1.15121E-02-5.76277E-02-1.60318E+03-2.56082E-02-3.92195E-05 8.77880E-05
 -1   1004498-1.11720E-02-5.58089E-02-1.60318E+03-2.47871E-02-3.91824E-05 8.78679E-05
 -1   1004499 1.05763E-02 5.29400E-02-1.60318E+03 2.35248E-02 3.39154E-05-7.64832E-05
 -1   1004501 1.02636E-02 5.12677E-02-1.60318E+03 2.27698E-02 3.40027E-05-7.65016E-05
 -1   1004502-9.76400E-03-4.88772E-02-1.60318E+03-2.17199E-02-2.94920E-05 6.58433E-05
 -1   1004504-9.47562E-03-4.73347E-02-1.60318E+03-2.10235E-02-2.94399E-05 6.59124E-05
 -1   1004505 9.06915E-03 4.53957E-02-1.60318E+03 2.01722E-02 2.48251E-05-5.62318E-05
 -1   1004507 8.80100E-03 4.39615E-02-1.60318E+03 1.95247E-02 2.49129E-05-5.62348E-05
 -1   1004508-8.47986E-03-4.24496E-02-1.60318E+03-1.88637E-02-2.11289E-05 4.69439E-05
 -1   1004510-8.22944E-03-4.11101E-02-1.60318E+03-1.82589E-02-2.10641E-05 4.70059E-05
 -1   1004511 7.99309E-03 4.00086E-02-1.60318E+03 1.77784E-02 1.69629E-05-3.86095E-05
 -1   1004513 7.75672E-03 3.87444E-02-1.60318E+03 1.72076E-02 1.70609E-05-3.85948E-05
 -1   1004514-7.59869E-03-3.80390E-02-1.60318E+03-1.69038E-02-1.37513E-05 3.03657E-05
 -1   1004516-7.37432E-03-3.68390E-02-1.60318E+03-1.63620E-02-1.36598E-05 3.04263E-05
 -1   1004517 7.29655E-03 3.65220E-02-1.60318E+03 1.62290E-02 9.89995E-06-2.28426E-05
 -1   1004519 7.08074E-03 3.53678E-02-1.60318E+03 1.57079E-02 1.00194E-05-2.28083E-05
 -1   1004520-7.07806E-03-3.54330E-02-1.60318E+03-1.57458E-02-7.07323E-06 1.51674E-05
 -1   1004522-6.86910E-03-3.43153E-02-1.60318E+03-1.52412E-02-6.95397E-06 1.52309E-05
 -1   1004523 6.94439E-03 3.47595E-02-1.60318E+03 1.54457E-02 3.27900E-06-8.18082E-06
 -1   1004525 6.73902E-03 3.36610E-02-1.60318E+03 1.49498E-02 3.41833E-06-8.12312E-06
 -1   1004526-6.88543E-03-3.44686E-02-1.60318E+03-1.53173E-02-7.18635E-07 7.11953E-07
 -1   1004528-6.68230E-03-3.33822E-02-1.60318E+03-1.48268E-02-5.63181E-07 7.83719E-07
 -1   1004529 6.89120E-03 3.44918E-02-1.60318E+03 1.53263E-02-3.23101E-06 6.12805E-06
 -1   1004531 6.68788E-03 3.34044E-02-1.60318E+03 1.48354E-02-3.06328E-06 6.20764E-06
 -1   1004532 5.24993E+00 1.25150E+02-1.59241E+03 2.66914E+01 5.46607E-03-2.57166E-02
 -1   1004534 5.05160E+00 1.19233E+02-1.61396E+03 2.54184E+01 5.17177E-03-2.43321E-02
 -1   1004535-1.35965E+00-3.14097E+01-1.60595E+03-6.68958E+00-5.92386E-04 2.78601E-03
 -1   1004537-1.30861E+00-2.98891E+01-1.60041E+03-6.36243E+00-5.12954E-04 2.41229E-03
 -1   1004538 2.83082E-01 6.37896E+00-1.60256E+03 1.35703E+00-6.30350E-04 2.96469E-03
 -1   1004540 2.71525E-01 6.03532E+00-1.60380E+03 1.28310E+00-6.52134E-04 3.06715E-03
 -1   1004541 7.51495E-03 1.53661E-01-1.60324E+03 3.25342E-02 8.77971E-04-4.13114E-03
 -1   1004543 8.64779E-03 1.86978E-01-1.60312E+03 3.96988E-02 8.84237E-04-4.16064E-03
 -1   1004544-7.96157E-02-1.72168E+00-1.60326E+03-3.65547E-01-8.71946E-04 4.10182E-03
 -1   1004546-7.81408E-02-1.67748E+00-1.60310E+03-3.56037E-01-8.74013E-04 4.11154E-03
 -1   1004547 9.16990E-02 1.97122E+00-1.60307E+03 4.18409E-01 8.04626E-04-3.78583E-03
 -1   1004549 8.97040E-02 1.91162E+00-1.60329E+03 4.05586E-01 8.05526E-04-3.79007E-03
 -1   1004550-8.78898E-02-1.88319E+00-1.60329E+03-3.99659E-01-7.27952E-04 3.42427E-03
 -1   1004552-8.59191E-02-1.82435E+00-1.60307E+03-3.86999E-01-7.28506E-04 3.42686E-03
 -1   1004553 8.03995E-02 1.72015E+00-1.60308E+03 3.65032E-01 6.54396E-04-3.07903E-03
 -1   1004555 7.85830E-02 1.66593E+00-1.60328E+03 3.53366E-01 6.54822E-04-3.08103E-03
 -1   1004556-7.25491E-02-1.55126E+00-1.60327E+03-3.29183E-01-5.87476E-04 2.76367E-03
 -1   1004558-7.09065E-02-1.50224E+00-1.60309E+03-3.18634E-01-5.87838E-04 2.76539E-03
 -1   1004559 6.51943E-02 1.39368E+00-1.60310E+03 2.95739E-01 5.26952E-04-2.47929E-03
 -1   1004561 6.37175E-02 1.34960E+00-1.60326E+03 2.86255E-01 5.27274E-04-2.48080E-03
 -1   1004562-5.85105E-02-1.25069E+00-1.60325E+03-2.65397E-01-4.72726E-04 2.22374E-03
 -1   1004564-5.71848E-02-1.21113E+00-1.60311E+03-2.56884E-01-4.73015E-04 2.22509E-03
 -1   1004565 5.24921E-02 1.12201E+00-1.60312E+03 2.38090E-01 4.23845E-04-1.99443E-03
 -1   1004567 5.13027E-02 1.08651E+00-1.60325E+03 2.30452E-01 4.24099E-04-1.99564E-03
 -1   1004568-4.70875E-02-1.00648E+00-1.60324E+03-2.13574E-01-3.80265E-04 1.78872E-03
 -1   1004570-4.60206E-02-9.74636E-01-1.60312E+03-2.06723E-01-3.80498E-04 1.78981E-03
 -1   1004571 4.22387E-02 9.02833E-01-1.60313E+03 1.91581E-01 3.40974E-04-1.60428E-03
 -1   1004573 4.12817E-02 8.74269E-01-1.60323E+03 1.85435E-01 3.41179E-04-1.60525E-03
 -1   1004574-3.78895E-02-8.09872E-01-1.60323E+03-1.71854E-01-3.05808E-04 1.43874E-03
 -1   1004576-3.70310E-02-7.84249E-01-1.60313E+03-1.66341E-01-3.05995E-04 1.43961E-03
 -1   1004577 3.39892E-02 7.26501E-01-1.60314E+03 1.54163E-01 2.74286E-04-1.29022E-03
 -1   1004579 3.32190E-02 7.03515E-01-1.60322E+03 1.49218E-01 2.74452E-04-1.29101E-03
 -1   1004580-3.04911E-02-6.51735E-01-1.60322E+03-1.38298E-01-2.45885E-04 1.15705E-03
 -1   1004582-2.98003E-02-6.31115E-01-1.60314E+03-1.33861E-01-2.46034E-04 1.15775E-03
 -1   1004583 2.73545E-02 5.84689E-01-1.60315E+03 1.24071E-01 2.20553E-04-1.03753E-03
 -1   1004585 2.67347E-02 5.66190E-01-1.60321E+03 1.20090E-01 2.20684E-04-1.03816E-03
 -1   1004586-2.45417E-02-5.24568E-01-1.60321E+03-1.11313E-01-1.97754E-04 9.30336E-04
 -1   1004588-2.39857E-02-5.07971E-01-1.60315E+03-1.07742E-01-1.97880E-04 9.30899E-04
 -1   1004589 2.20197E-02 4.70661E-01-1.60315E+03 9.98740E-02 1.77270E-04-8.34160E-04
 -1   1004591 2.15208E-02 4.55770E-01-1.60321E+03 9.66701E-02 1.77370E-04-8.34667E-04
 -1   1004592-1.97586E-02-4.22329E-01-1.60321E+03-8.96181E-02-1.59023E-04 7.47823E-04
 -1   1004594-1.93109E-02-4.08968E-01-1.60316E+03-8.67432E-02-1.59131E-04 7.48274E-04
 -1   1004595 1.77314E-02 3.79001E-01-1.60316E+03 8.04237E-02 1.42424E-04-6.70402E-04
 -1   1004597 1.73297E-02 3.67009E-01-1.60320E+03 7.78437E-02 1.42497E-04-6.70812E-04
 -1   1004598-1.59143E-02-3.40161E-01-1.60320E+03-7.21819E-02-1.27793E-04 6.00882E-04
 -1   1004600-1.55537E-02-3.29399E-01-1.60316E+03-6.98664E-02-1.27886E-04 6.01242E-04
 -1   1004601 1.42857E-02 3.05350E-01-1.60316E+03 6.47952E-02 1.14426E-04-5.38532E-04
 -1   1004603 1.39620E-02 2.95689E-01-1.60320E+03 6.27166E-02 1.14481E-04-5.38862E-04
 -1   1004604-1.28263E-02-2.74157E-01-1.60320E+03-5.81759E-02-1.02614E-04 4.82516E-04
 -1   1004606-1.25357E-02-2.65483E-01-1.60316E+03-5.63097E-02-1.02690E-04 4.82805E-04
 -1   1004607 1.15190E-02 2.46211E-01-1.60317E+03 5.22459E-02 9.18045E-05-4.32222E-04
 -1   1004609 1.12580E-02 2.38421E-01-1.60320E+03 5.05699E-02 9.18464E-05-4.32487E-04
 -1   1004610-1.03479E-02-2.21182E-01-1.60319E+03-4.69346E-02-8.23188E-05 3.87023E-04
 -1   1004612-1.01134E-02-2.14184E-01-1.60317E+03-4.54290E-02-8.23799E-05 3.87255E-04
 -1   1004613 9.29957E-03 1.98772E-01-1.60317E+03 4.21794E-02 7.36042E-05-3.46502E-04
 -1   1004615 9.08884E-03 1.92483E-01-1.60319E+03 4.08262E-02 7.36389E-05-3.46716E-04
 -1   1004616-8.36110E-03-1.78717E-01-1.60319E+03-3.79236E-02-6.59506E-05 3.09960E-04
 -1   1004618-8.17167E-03-1.73063E-01-1.60317E+03-3.67071E-02-6.60023E-05 3.10146E-04
 -1   1004619 7.52215E-03 1.60780E-01-1.60317E+03 3.41174E-02 5.88478E-05-2.77140E-04
 -1   1004621 7.35170E-03 1.55692E-01-1.60319E+03 3.30228E-02 5.88734E-05-2.77309E-04
 -1   1004622-6.77175E-03-1.44746E-01-1.60319E+03-3.07149E-02-5.26936E-05 2.47648E-04
 -1   1004624-6.61833E-03-1.40167E-01-1.60317E+03-2.97297E-02-5.27330E-05 2.47795E-04
 -1   1004625 6.10212E-03 1.30427E-01-1.60317E+03 2.76766E-02 4.69105E-05-2.21094E-04
 -1   1004627 5.96384E-03 1.26300E-01-1.60319E+03 2.67886E-02 4.69319E-05-2.21230E-04
 -1   1004628-5.50420E-03-1.17653E-01-1.60319E+03-2.49658E-02-4.19950E-05 1.97051E-04
 -1   1004630-5.37950E-03-1.13931E-01-1.60317E+03-2.41650E-02-4.20253E-05 1.97167E-04
 -1   1004631 4.97218E-03 1.06273E-01-1.60317E+03 2.25510E-02 3.71687E-05-1.75463E-04
 -1   1004633 4.85950E-03 1.02910E-01-1.60319E+03 2.18275E-02 3.71863E-05-1.75571E-04
 -1   1004634-4.49814E-03-9.61508E-02-1.60319E+03-2.04031E-02-3.32476E-05 1.55846E-04
 -1   1004636-4.39624E-03-9.31093E-02-1.60318E+03-1.97487E-02-3.32696E-05 1.55939E-04
 -1   1004637 4.07837E-03 8.71686E-02-1.60318E+03 1.84972E-02 2.92423E-05-1.38140E-04
 -1   1004639 3.98593E-03 8.44101E-02-1.60319E+03 1.79037E-02 2.92653E-05-1.38225E-04
 -1   1004640-3.70597E-03-7.92182E-02-1.60319E+03-1.68100E-02-2.60743E-05 1.22064E-04
 -1   1004642-3.62203E-03-7.67125E-02-1.60318E+03-1.62709E-02-2.60794E-05 1.22138E-04
 -1   1004643 3.37840E-03 7.22070E-02-1.60318E+03 1.53223E-02 2.26929E-05-1.07450E-04
 -1   1004645 3.30183E-03 6.99218E-02-1.60318E+03 1.48306E-02 2.27207E-05-1.07511E-04
 -1   1004646-3.08993E-03-6.60501E-02-1.60318E+03-1.40158E-02-2.01447E-05 9.40122E-05
 -1   1004648-3.01994E-03-6.39611E-02-1.60318E+03-1.35663E-02-2.01400E-05 9.40723E-05
 -1   1004649 2.83905E-03 6.06770E-02-1.60318E+03 1.28756E-02 1.72538E-05-8.19016E-05
 -1   1004651 2.77469E-03 5.87564E-02-1.60318E+03 1.24624E-02 1.72837E-05-8.19506E-05
 -1   1004652-2.62049E-03-5.60208E-02-1.60318E+03-1.18876E-02-1.51068E-05 7.05255E-05
 -1   1004654-2.56115E-03-5.42492E-02-1.60318E+03-1.15065E-02-1.50923E-05 7.05722E-05
 -1   1004655 2.43464E-03 5.20302E-02-1.60318E+03 1.10407E-02 1.26783E-05-6.01077E-05
 -1   1004657 2.37944E-03 5.03830E-02-1.60318E+03 1.06863E-02 1.27124E-05-6.01412E-05
 -1   1004658-2.27582E-03-4.86537E-02-1.60318E+03-1.03243E-02-1.08335E-05 5.03753E-05
 -1   1004660-2.22429E-03-4.71154E-02-1.60318E+03-9.99334E-03-1.08093E-05 5.04092E-05
 -1   1004661 2.14588E-03 4.58558E-02-1.60318E+03 9.73056E-03 8.61107E-06-4.12499E-05
 -1   1004663 2.09721E-03 4.44038E-02-1.60318E+03 9.41817E-03 8.65550E-06-4.12683E-05
 -1   1004664-2.03919E-03-4.35985E-02-1.60318E+03-9.25163E-03-7.08228E-06 3.25638E-05
 -1   1004666-1.99303E-03-4.22204E-02-1.60318E+03-8.95511E-03-7.03640E-06 3.25915E-05
 -1   1004667 1.95898E-03 4.18596E-02-1.60318E+03 8.88252E-03 5.02065E-06-2.43890E-05
 -1   1004669 1.91454E-03 4.05339E-02-1.60318E+03 8.59729E-03 5.08423E-06-2.43943E-05
 -1   1004670-1.89937E-03-4.06116E-02-1.60318E+03-8.61785E-03-3.65645E-06 1.63528E-05
 -1   1004672-1.85638E-03-3.93282E-02-1.60318E+03-8.34172E-03-3.58785E-06 1.63781E-05
 -1   1004673 1.86470E-03 3.98396E-02-1.60318E+03 8.45379E-03 1.57447E-06-8.64470E-06
 -1   1004675 1.82240E-03 3.85779E-02-1.60318E+03 8.18232E-03 1.65799E-06-8.63753E-06
 -1   1004676-1.84761E-03-3.95062E-02-1.60318E+03-8.38334E-03-5.47153E-07 8.50669E-07
 -1   1004678-1.80583E-03-3.82588E-02-1.60318E+03-8.11494E-03-4.45954E-07 8.69115E-07
 -1   1004679 1.85094E-03 3.95329E-02-1.60318E+03 8.38839E-03-1.73434E-06 6.57074E-06
 -1   1004681 1.80906E-03 3.82835E-02-1.60318E+03 8.11959E-03-1.62073E-06 6.59803E-06
 -3
    1PSTEP                         3           1           1          
  100CL  101 1.000000000        3120                     0    1           1
 -4  FORC        4    1
 -5  F1          1    2    1    0
 -5  F2          1    2    2    0
 -5  F3          1    2    3    0
 -5  ALL         1    2    0    0    1ALL
 -1   1000002-2.84368E-01 6.68517E-10 1.66667E+01
 -1   1000004-2.84368E-01 6.59895E-10 1.66667E+01
 -1   1000005-1.00140E-09-5.60659E-10-1.66667E+01
 -1   1000007-1.31450E-09 5.69548E-10-1.66667E+01
 -1   1000008-2.78154E-01-5.91234E-02 1.66667E+01
 -1   1000010-2.78154E-01-5.91234E-02 1.66667E+01
 -1   1000011-2.59783E-01-1.15663E-01 1.66667E+01
 -1   1000013-2.59783E-01-1.15663E-01 1.66667E+01
 -1   1000014-2.30059E-01-1.67147E-01 1.66667E+01
 -1   1000016-2.30059E-01-1.67147E-01 1.66667E+01
 -1   1000017-1.90279E-01-2.11327E-01 1.66667E+01
 -1   1000019-1.90279E-01-2.11327E-01 1.66667E+01
 -1   1000020-1.42184E-01-2.46270E-01 1.66667E+01
 -1   1000022-1.42184E-01-2.46270E-01 1.66667E+01
 -1   1000023-8.78746E-02-2.70450E-01 1.66667E+01
 -1   1000025-8.78746E-02-2.70450E-01 1.66667E+01
 -1   1000026-2.97246E-02-2.82810E-01 1.66667E+01
 -1   1000028-2.97246E-02-2.82810E-01 1.66667E+01
 -1   1000029 2.97246E-02-2.82810E-01 1.66667E+01
 -1   1000031 2.97246E-02-2.82810E-01 1.66667E+01
 -1   1000032 8.78746E-02-2.70450E-01 1.66667E+01
 -1   1000034 8.78746E-02-2.70450E-01 1.66667E+01
 -1   1000035 1.42184E-01-2.46270E-01 1.66667E+01
 -1   1000037 1.42184E-01-2.46270E-01 1.66667E+01
 -1   1000038 1.90279E-01-2.11327E-01 1.66667E+01
 -1   1000040 1.90279E-01-2.11327E-01 1.66667E+01
 -1   1000041 2.30059E-01-1.67147E-01 1.66667E+01
 -1   1000043 2.30059E-01-1.67147E-01 1.66667E+01
 -1   1000044 2.59783E-01-1.15663E-01 1.66667E+01
 -1   1000046 2.59783E-01-1.15663E-01 1.66667E+01
 -1   1000047 2.78154E-01-5.91234E-02 1.66667E+01
 -1   1000049 2.78154E-01-5.91234E-02 1.66667E+01
 -1   1000050 2.84368E-01-8.47640E-10 1.66667E+01
 -1   1000052 2.84368E-01-8.39201E-10 1.66667E+01
 -1   1000053 2.78154E-01 5.91234E-02 1.66667E+01
 -1   1000055 2.78154E-01 5.91234E-02 1.66667E+01
 -1   1000056 2.59783E-01 1.15663E-01 1.66667E+01
 -1   1000058 2.59783E-01 1.15663E-01 1.66667E+01
 -1   1000059 2.30059E-01 1.67147E-01 1.66667E+01
 -1   1000061 2.30059E-01 1.67147E-01 1.66667E+01
 -1   1000062 1.90279E-01 2.11327E-01 1.66667E+01
 -1   1000064 1.90279E-01 2.11327E-01 1.66667E+01
 -1   1000065 1.42184E-01 2.46270E-01 1.66667E+01
 -1   1000067 1.42184E-01 2.46270E-01 1.66667E+01
 -1   1000068 8.78746E-02 2.70450E-01 1.66667E+01
 -1   1000070 8.78746E-02 2.70450E-01 1.66667E+01
 -1   1000071 2.97246E-02 2.82810E-01 1.66667E+01
 -1   1000073 2.97246E-02 2.82810E-01 1.66667E+01
 -1   1000074-2.97246E-02 2.82810E-01 1.66667E+01
 -1   1000076-2.97246E-02 2.82810E-01 1.66667E+01
 -1   1000077-8.78746E-02 2.70450E-01 1.66667E+01
 -1   1000079-8.78746E-02 2.70450E-01 1.66667E+01
 -1   1000080-1.42184E-01 2.46270E-01 1.66667E+01
 -1   1000082-1.42184E-01 2.46270E-01 1.66667E+01
 -1   1000083-1.90279E-01 2.11327E-01 1.66667E+01
 -1   1000085-1.90279E-01 2.11327E-01 1.66667E+01
 -1   1000086-2.30059E-01 1.67147E-01 1.66667E+01
 -1   1000088-2.30059E-01 1.67147E-01 1.66667E+01
 -1   1000089-2.59783E-01 1.15663E-01 1.66667E+01
 -1   1000091-2.59783E-01 1.15663E-01 1.66667E+01
 -1   1000092-2.78154E-01 5.91234E-02 1.66667E+01
 -1   1000094-2.78154E-01 5.91234E-02 1.66667E+01
 -1   1000095 2.40124E-10 2.18505E-11 1.03195E-11
 -1   1000097 3.66490E-10-5.36253E-12-7.33218E-11
 -1   1000098-4.19453E-10 8.30690E-13-2.42222E-10
 -1   1000100 8.51950E-11 5.74387E-12 8.84688E-11
 -1   1000101-5.01650E-10-7.36821E-11-3.25568E-10
 -1   1000103 5.73335E-11 2.17203E-11 2.67457E-10
 -1   1000104-2.31326E-10-4.81462E-11 9.40440E-11
 -1   1000106-3.80897E-10 1.62184E-11 1.90148E-10
 -1   1000107 1.04825E-10 1.05886E-11 8.10014E-10
 -1   1000109 1.16578E-10 1.14745E-11 7.07027E-10
 -1   1000110-1.76860E-10 3.39327E-11-2.59081E-10
 -1   1000112 1.48832E-10 2.57095E-11 1.14048E-10
 -1   1000113 4.40227E-10 4.35097E-12-3.93930E-10
 -1   1000115 3.18945E-10 3.38122E-11 3.05646E-10
 -1   1000116-3.66074E-10 2.49530E-12 9.56553E-10
 -1   1000118 1.15344E-10-1.27388E-10-9.32667E-11
 -1   1000119 5.70698E-10 3.95654E-11-8.59772E-11
 -1   1000121-1.69669E-10-1.85970E-11-1.31610E-10
 -1   1000122 1.00489E-10-1.12937E-11-5.66835E-10
 -1   1000124-3.00100E-10 1.49505E-10-9.42846E-10
 -1   1000125-6.84604E-10 7.64336E-11-7.37030E-10
 -1   1000127 7.25239E-10-2.01044E-11 2.38451E-10
 -1   1000128-4.00165E-10 2.94747E-11 2.47109E-09
 -1   1000130-1.24882E-10-3.91899E-12 3.23549E-10
 -1   1000131 9.42742E-10-5.37263E-11 8.11962E-10
 -1   1000133-5.11836E-10-3.17528E-11 7.51422E-10
 -1   1000134 1.05293E-10-8.72973E-11-5.73271E-10
 -1   1000136-1.26688E-10-2.86988E-11 6.64426E-10
 -1   1000137-9.83435E-11 2.82973E-10 1.85007E-10
 -1   1000139-2.78881E-10-3.91886E-11-4.11956E-10
 -1   1000140-4.63526E-10-2.31208E-11 3.46098E-10
 -1   1000142-4.19814E-10-1.11978E-10-4.72931E-10
 -1   1000143 2.31493E-10 1.30632E-10 3.27330E-09
 -1   1000145 1.09808E-10 1.05384E-10 1.25745E-09
 -1   1000146 4.96978E-10 8.92996E-11 4.13496E-11
 -1   1000148 6.63028E-11 6.39309E-12 5.39942E-10
 -1   1000149 1.88489E-10-1.18838E-11-1.22790E-09
 -1   1000151-5.27458E-10 5.00172E-11 1.02679E-09
 -1   1000152 1.56544E-10 2.37511E-10-5.55728E-10
 -1   1000154-8.11962E-11 1.38870E-11 7.29264E-10
 -1   1000155-3.82992E-10 1.12795E-10 3.56208E-10
 -1   1000157 2.09065E-10 4.78162E-11 1.30762E-09
 -1   1000158-9.67694E-11-2.88558E-10 5.97891E-10
 -1   1000160 4.28724E-10 4.86823E-10 1.87865E-09
 -1   1000161-4.46732E-10 1.54278E-11-5.87838E-10
 -1   1000163 7.77996E-11 3.05129E-11 1.90720E-09
 -1   1000164-8.78599E-10 1.18084E-10 6.51395E-10
 -1   1000166 3.13962E-10 2.90341E-11 2.25734E-09
 -1   1000167-3.02973E-10 2.69896E-10-5.46444E-10
 -1   1000169 1.01348E-10-6.49118E-10 2.78889E-09
 -1   1000170-5.38409E-10 2.67082E-10-1.50709E-09
 -1   1000172-8.57473E-10-1.58001E-10-8.01683E-11
 -1   1000173 5.06676E-10 4.35098E-10-1.58258E-09
 -1   1000175-1.75793E-10-5.36419E-10 1.38484E-09
 -1   1000176-2.98998E-10-2.52054E-12-1.42646E-09
 -1   1000178-4.97311E-10-1.75854E-11 3.49028E-09
 -1   1000179 4.45934E-10-1.75307E-10 7.10954E-10
 -1   1000181-1.96720E-10-5.75916E-12 1.10832E-09
 -1   1000182-7.50242E-10 2.19615E-12 1.07175E-10
 -1   1000184-1.94029E-10 5.90332E-11-1.23042E-09
 -1   1000185-1.67173E-10-2.60902E-10 3.39421E-09
 -1   1000187-1.43439E-10-1.76121E-11-1.25313E-10
 -1   1000188-5.35564E-10 3.96827E-10 3.42138E-09
 -1   1000190-3.97121E-10-5.87781E-10-1.93090E-09
 -1   1000191 1.75828E-10 9.05199E-11-1.78476E-09
 -1   1000193 6.96055E-10 2.26208E-11-1.63876E-09
 -1   1000194-3.17846E-10 9.83426E-11 3.97170E-09
 -1   1000196 1.23634E-09-7.92686E-10 1.85943E-09
 -1   1000197-1.02736E-09 2.31262E-10-2.37065E-09
 -1   1000199-5.07462E-10 1.89833E-12 5.73674E-09
 -1   1000200-9.63783E-10-1.74507E-10-1.32107E-10
 -1   1000202-2.48151E-11-5.73852E-10 1.19251E-09
 -1   1000203 1.65689E-11 2.08295E-10-1.06187E-09
 -1   1000205-5.35463E-10-2.74633E-10 2.19127E-09
 -1   1000206-3.02291E-10-3.62389E-10-1.07065E-10
 -1   1000208-7.82675E-10 2.61414E-10 3.77531E-09
 -1   1000209 9.56828E-10 1.16651E-10 2.91728E-10
 -1   1000211-8.76574E-10-1.57879E-12-4.30497E-09
 -1   1000212-4.51855E-10-5.42010E-11 2.06523E-09
 -1   1000214 6.21390E-10 1.29081E-10 3.39667E-10
 -1   1000215-5.17163E-10-9.98436E-11-4.31629E-10
 -1   1000217 6.78871E-10 1.41004E-10 8.98861E-10
 -1   1000218-3.54198E-11 5.05892E-12 5.19125E-09
 -1   1000220 6.64079E-10 7.67586E-12 6.50065E-09
 -1   1000221 3.91692E-10-8.54639E-11 2.14812E-09
 -1   1000223-1.93429E-10 2.38971E-10 7.91145E-10
 -1   1000224-3.68535E-10-3.60663E-10-9.40533E-10
 -1   1000226 7.02271E-11-3.11708E-10 9.27492E-10
 -1   1000227 3.66943E-10-2.96514E-11-7.17769E-09
 -1   1000229-5.22957E-10 7.45423E-12 3.88610E-09
 -1   1000230 2.32495E-10-5.03593E-10 1.01690E-09
 -1   1000232 2.83893E-10-4.83888E-11-3.13621E-10
 -1   1000233-6.16737E-11-5.21339E-11 4.76442E-10
 -1   1000235-1.07149E-10 2.13030E-10-2.87983E-10
 -1   1000236 2.44298E-10-7.86996E-10 4.43390E-09
 -1   1000238 8.68087E-10-2.74091E-10 2.84045E-09
 -1   1000239-1.13921E-09-2.74288E-10-3.46368E-09
 -1   1000241 9.71890E-10-1.17225E-10 2.00612E-09
 -1   1000242-3.02626E-10-7.43960E-11-1.93814E-08
 -1   1000244 8.08660E-10 2.00849E-10 1.81237E-08
 -1   1000245 3.47525E-10 2.35621E-11-1.66667E+01
 -1   1000247-6.27659E-10 4.74620E-10-1.66667E+01
 -1   1000248-3.28350E-11-2.11400E-10-1.66667E+01
 -1   1000250 9.67330E-10-7.39565E-11-1.66667E+01
 -1   1000251 3.71196E-10 9.03416E-11-1.66667E+01
 -1   1000253-1.16252E-09-8.41315E-10-1.66667E+01
 -1   1000254-6.53886E-10-2.62746E-10-1.66667E+01
 -1   1000256-5.45965E-10-6.07671E-10-1.66667E+01
 -1   1000257-6.62762E-10-7.82717E-10-1.66667E+01
 -1   1000259-3.95657E-10-8.69400E-10-1.66667E+01
 -1   1000260-4.16373E-10-9.72862E-10-1.66667E+01
 -1   1000262-3.58744E-11 2.42508E-10-1.66667E+01
 -1   1000263-6.72422E-10 6.45725E-10-1.66667E+01
 -1   1000265-4.70758E-10 2.38274E-10-1.66667E+01
 -1   1000266-4.00077E-10-4.31078E-10-1.66667E+01
 -1   1000268-4.19212E-10-6.43237E-11-1.66667E+01
 -1   1000269-6.49166E-10-3.55253E-10-1.66667E+01
 -1   1000271-4.90429E-10 2.77493E-10-1.66667E+01
 -1   1000272-3.63179E-10 6.25810E-11-1.66667E+01
 -1   1000274-3.30195E-10-8.16776E-10-1.66667E+01
 -1   1000275-6.02929E-10 2.09053E-10-1.66667E+01
 -1   1000277-3.74877E-10-2.19747E-10-1.66667E+01
 -1   1000278-7.41136E-11-2.97192E-10-1.66667E+01
 -1   1000280 3.53422E-10-2.41456E-10-1.66667E+01
 -1   1000281-8.21553E-10-5.04257E-11-1.66667E+01
 -1   1000283-1.20074E-09-3.23706E-10-1.66667E+01
 -1   1000284 4.19246E-10-1.09876E-10-1.66667E+01
 -1   1000286-1.03913E-09-1.38844E-10-1.66667E+01
 -1   1000287 3.55497E-11-4.78321E-12-1.66667E+01
 -1   1000289-1.20220E-09-2.68345E-11-1.66667E+01
 -1   1000290 2.59115E-10 2.24102E-10-1.66667E+01
 -1   1000292-3.34135E-10 1.20750E-10-1.66667E+01
 -1   1000293-9.42139E-10 1.88101E-10-1.66667E+01
 -1   1000295-1.60266E-09 1.68798E-10-1.66667E+01
 -1   1000296 8.98725E-11 3.78129E-10-1.66667E+01
 -1   1000298 1.23434E-10 5.77687E-10-1.66667E+01
 -1   1000299-5.60603E-10-4.86197E-11-1.66667E+01
 -1   1000301 5.16264E-11 4.48769E-10-1.66667E+01
 -1   1000302-3.87610E-10 4.46668E-12-1.66667E+01
 -1   1000304-3.39554E-10 1.10698E-10-1.66667E+01
 -1   1000305-1.36365E-10 2.30587E-10-1.66667E+01
 -1   1000307-1.42262E-10 1.20260E-10-1.66667E+01
 -1   1000308-4.52835E-10 2.08302E-10-1.66667E+01
 -1   1000310-4.49426E-10 7.20836E-10-1.66667E+01
 -1   1000311-5.38252E-10 1.08085E-10-1.66667E+01
 -1   1000313-6.90608E-10-3.00223E-11-1.66667E+01
 -1   1000314-4.25341E-10 2.25406E-10-1.66667E+01
 -1   1000316-6.67151E-10 5.36267E-10-1.66667E+01
 -1   1000317-1.91481E-10 2.23689E-10-1.66667E+01
 -1   1000319-3.39770E-10 4.98464E-10-1.66667E+01
 -1   1000320-2.17025E-10 2.20144E-10-1.66667E+01
 -1   1000322-9.90393E-10 1.97345E-10-1.66667E+01
 -1   1000323-4.83173E-10-2.74852E-10-1.66667E+01
 -1   1000325-2.80488E-10-3.93679E-10-1.66667E+01
 -1   1000326-2.17300E-10 1.56510E-10-1.66667E+01
 -1   1000328 7.51483E-10 2.57957E-10-1.66667E+01
 -1   1000329-2.64957E-10-1.04033E-10-1.66667E+01
 -1   1000331-2.12821E-10-2.37898E-11-1.66667E+01
 -1   1000332-1.16007E-10-1.16215E-10 9.68311E-11
 -1   1000334 5.89513E-10 3.25766E-11-3.22237E-11
 -1   1000335-2.06854E-11-9.83159E-12 2.83093E-10
 -1   1000337 2.81840E-10 5.01967E-11-2.09368E-10
 -1   1000338-2.30376E-10-4.32597E-11 7.80865E-11
 -1   1000340-6.48659E-11 4.64961E-11 7.92897E-11
 -1   1000341-8.78126E-10-4.32301E-11-3.30850E-10
 -1   1000343-2.15914E-10 3.97107E-11-1.04087E-10
 -1   1000344-1.95585E-10-5.45515E-11 3.99749E-10
 -1   1000346-1.51325E-10 6.95581E-11 1.73988E-10
 -1   1000347 1.74443E-12 6.53350E-11 2.12265E-10
 -1   1000349-1.39648E-10-3.31957E-11 7.26361E-10
 -1   1000350-1.46657E-10-8.01452E-11-3.99266E-10
 -1   1000352-2.57382E-10 3.05297E-11 1.32922E-09
 -1   1000353-9.04935E-11-4.88065E-11 2.92397E-10
 -1   1000355-4.54794E-10-1.43650E-14 4.15537E-10
 -1   1000356-1.74805E-10-2.82391E-11 4.74188E-11
 -1   1000358-4.83472E-11-3.12029E-11 3.20119E-10
 -1   1000359-9.91310E-11-8.25268E-11 1.02805E-10
 -1   1000361 3.00783E-10 2.39189E-11-1.01322E-09
 -1   1000362-4.86346E-10-3.58785E-11-1.96434E-11
 -1   1000364 9.24285E-10-1.91550E-11 8.40596E-11
 -1   1000365 5.95361E-11-5.11178E-11 8.05733E-10
 -1   1000367 2.64906E-10 2.29460E-11 2.50070E-10
 -1   1000368-1.06929E-10-2.91725E-11-4.62329E-10
 -1   1000370 2.08668E-11 4.64513E-11 1.06624E-09
 -1   1000371 1.93009E-10 2.79043E-11-8.06584E-10
 -1   1000373-6.70608E-10-2.44805E-11-1.84315E-10
 -1   1000374 2.75724E-10-3.73512E-11-3.34028E-10
 -1   1000376-4.21382E-10 7.52980E-12 5.10794E-10
 -1   1000377-6.47166E-11-3.54294E-11 1.70381E-09
 -1   1000379-4.58866E-10-1.06908E-10 7.24001E-10
 -1   1000380 1.07388E-11 8.31224E-11 3.07457E-09
 -1   1000382 1.81459E-10 5.73483E-11-6.33776E-10
 -1   1000383-3.33761E-10-3.87401E-11 1.12620E-09
 -1   1000385 4.20662E-10-2.20761E-11 8.85015E-11
 -1   1000386-7.95642E-10 8.14419E-11-7.52777E-10
 -1   1000388 3.93411E-10 1.60664E-10-2.77890E-10
 -1   1000389 2.81884E-10 5.76754E-11-1.57843E-09
 -1   1000391-5.82446E-10 3.64085E-11 6.95276E-10
 -1   1000392-1.77735E-10 6.75786E-11 1.21503E-09
 -1   1000394 4.72665E-10-5.94510E-11-2.16598E-10
 -1   1000395 3.61393E-10-1.98566E-11-8.26663E-10
 -1   1000397-3.77000E-10-8.35286E-13-1.42129E-09
 -1   1000398 6.80968E-11-1.36811E-11 1.15200E-09
 -1   1000400-1.91629E-10 1.18189E-11 3.39391E-10
 -1   1000401 1.47015E-10 3.64217E-11 1.77269E-09
 -1   1000403-7.10080E-10-2.22818E-11 1.09554E-09
 -1   1000404 8.76885E-11-3.10043E-11 1.10367E-09
 -1   1000406 1.11700E-10 7.21018E-11 1.03956E-09
 -1   1000407 4.43261E-10-2.36359E-11 4.79804E-09
 -1   1000409 5.90350E-11 7.16415E-11 1.20293E-09
 -1   1000410 2.03207E-10 3.05420E-11 3.74515E-10
 -1   1000412-3.79515E-10-1.56379E-11 1.67255E-09
 -1   1000413 1.17912E-10 8.45168E-11 1.11657E-09
 -1   1000415-4.93090E-10-3.47207E-11-9.09800E-11
 -1   1000416-5.79638E-10 3.81327E-10 2.09509E-09
 -1   1000418-5.49938E-11-9.73245E-11 3.33735E-09
 -1   1000419-2.95714E-10-5.40774E-11 2.64319E-09
 -1   1000421-7.13135E-12-1.10664E-11 1.02703E-09
 -1   1000422-6.34890E-11 4.97550E-11 1.36436E-09
 -1   1000424 2.39296E-10-7.22607E-12 6.46745E-10
 -1   1000425-6.75377E-11 3.33711E-10 4.45968E-09
 -1   1000427 2.08378E-10 1.74531E-10-5.88981E-10
 -1   1000428 3.86576E-11 2.96195E-10 4.81226E-09
 -1   1000430-2.21015E-10-6.79354E-11 2.71858E-09
 -1   1000431-4.18714E-10 1.95227E-10-8.28271E-10
 -1   1000433-3.98580E-10-5.14463E-10-3.28353E-10
 -1   1000434-5.68520E-11 4.44539E-11-3.30094E-09
 -1   1000436 1.39265E-10-5.17829E-11 2.07028E-09
 -1   1000437-9.87989E-11-5.39206E-12 2.68511E-10
 -1   1000439-1.26504E-10-1.51280E-12 4.72757E-09
 -1   1000440 3.28076E-11-1.34100E-10-1.97754E-09
 -1   1000442 2.29422E-10 8.76586E-11-1.67991E-09
 -1   1000443 2.09051E-11 4.71020E-11 6.83232E-10
 -1   1000445-1.94767E-10-1.56424E-11 6.99883E-10
 -1   1000446 4.90603E-10-3.81089E-11 3.33663E-09
 -1   1000448 4.87776E-10 3.87716E-10-3.38160E-10
 -1   1000449 7.57132E-11 1.52747E-10 6.20343E-09
 -1   1000451-4.10536E-11-3.62415E-10 4.71373E-10
 -1   1000452-9.49502E-11 6.59907E-11 6.11040E-09
 -1   1000454-2.50292E-10-1.27081E-10-7.46248E-12
 -1   1000455-2.69504E-11 2.51139E-10-4.10241E-09
 -1   1000457-2.79083E-10-2.87563E-10 5.05313E-10
 -1   1000458 4.85243E-10-2.03132E-12-5.90783E-09
 -1   1000460-1.02104E-10-1.23845E-10-1.13356E-09
 -1   1000461-1.12478E-10-3.89684E-11 4.03854E-10
 -1   1000463-2.34855E-10-9.07606E-11 5.10673E-10
 -1   1000464 2.75609E-10 7.55893E-11-5.76812E-10
 -1   1000466-1.03406E-09 9.92860E-11-1.86889E-09
 -1   1000467-8.61893E-11 3.86392E-10-5.18876E-10
 -1   1000469-3.19480E-10 9.71429E-11 6.66516E-11
 -1   1000470-1.38411E-10 1.03323E-10 1.25750E-09
 -1   1000472 1.42351E-10 8.99616E-12 2.24582E-09
 -1   1000473-4.95359E-10-1.02620E-10-2.30132E-09
 -1   1000475-8.44566E-11 9.66079E-11 3.47250E-09
 -1   1000476 1.53643E-10-4.76497E-11-2.24361E-09
 -1   1000478-2.67077E-10-1.86921E-10 1.65570E-09
 -1   1000479 2.02667E-10 1.92237E-11 3.64591E-09
 -1   1000481 2.49062E-10 9.81804E-11 3.53022E-09
 -1   1000482 5.90610E-10 3.32211E-11 3.93946E-11
 -1   1000484-2.65026E-10 2.89528E-10-1.35251E-10
 -1   1000485 1.14672E-10 7.75599E-11 7.11911E-11
 -1   1000487 4.97001E-10-2.75486E-11-9.88540E-11
 -1   1000488-1.97044E-10 1.00225E-10-4.53436E-11
 -1   1000490-4.97766E-11-2.00937E-11 2.23368E-10
 -1   1000491-3.93333E-10-7.08121E-11-1.93950E-10
 -1   1000493 4.48576E-11 9.69323E-11 1.50683E-10
 -1   1000494-9.99107E-11 1.51238E-10-8.58089E-11
 -1   1000496-3.69223E-10-8.08973E-11 6.61642E-11
 -1   1000497 3.93879E-10-1.87819E-10 4.42535E-12
 -1   1000499 1.14433E-10-9.72606E-11 1.37333E-10
 -1   1000500 2.20932E-10 1.16342E-11 5.11651E-10
 -1   1000502-5.34512E-10-1.55494E-10 2.13080E-10
 -1   1000503-1.96710E-10 6.11446E-11 1.06050E-09
 -1   1000505-8.37401E-10 1.67411E-11 9.89245E-10
 -1   1000506-1.08801E-10-3.07420E-10 5.72463E-10
 -1   1000508 8.21757E-12 3.45856E-10 9.17275E-10
 -1   1000509-2.83332E-11 8.58232E-11 5.09878E-10
 -1   1000511 2.08997E-10-1.42523E-10-8.79244E-11
 -1   1000512-1.30117E-10 1.41524E-10 6.65432E-10
 -1   1000514 9.50245E-11-1.72987E-10 1.06042E-09
 -1   1000515-2.88981E-10-2.75532E-10-8.12307E-10
 -1   1000517 4.71626E-11-8.65556E-12 1.70366E-09
 -1   1000518 4.06349E-10 1.53091E-11-5.27544E-10
 -1   1000520-6.92766E-10-1.33770E-10 1.93990E-09
 -1   1000521 2.63027E-10 4.49821E-11 4.19257E-10
 -1   1000523-8.68672E-10-1.57035E-11 9.33522E-10
 -1   1000524-5.22354E-10 3.14514E-10 1.71350E-09
 -1   1000526-1.32480E-10-2.55061E-10 5.45520E-10
 -1   1000527-2.64884E-10-8.18237E-12 9.80278E-10
 -1   1000529-4.62951E-11 6.11214E-11 9.43382E-10
 -1   1000530-1.26562E-10 8.04972E-11 1.17192E-09
 -1   1000532 3.65035E-10 1.61449E-10-9.48397E-10
 -1   1000533-1.40824E-10 4.96853E-11 1.67730E-09
 -1   1000535 5.52986E-10 3.56778E-11-5.90990E-10
 -1   1000536-8.66134E-11 1.43350E-10 6.37103E-11
 -1   1000538 6.90503E-11 8.98528E-11 8.18706E-10
 -1   1000539-5.66176E-11-1.84715E-10 3.91723E-10
 -1   1000541 1.55452E-10-9.52678E-11-8.88275E-10
 -1   1000542 9.86031E-11-1.34057E-10-5.21894E-10
 -1   1000544-9.65686E-11 1.50251E-10 1.52230E-10
 -1   1000545 1.36543E-10-1.40239E-10-3.42384E-09
 -1   1000547 4.46000E-10-1.93450E-10 1.08392E-10
 -1   1000548-1.66538E-10 7.21721E-13 1.19153E-09
 -1   1000550-4.89589E-10 7.02133E-12 3.52450E-09
 -1   1000551-3.04090E-10-1.46242E-10 3.94864E-10
 -1   1000553-2.65226E-10-1.17088E-12-1.79435E-09
 -1   1000554 2.16734E-10-9.33999E-11 4.71897E-10
 -1   1000556-1.25167E-10 1.74180E-10-2.85278E-09
 -1   1000557 3.96046E-11-3.43432E-10 1.70198E-09
 -1   1000559-2.35073E-10 2.28913E-10-1.48755E-09
 -1   1000560-1.10298E-10 1.71216E-10 2.13214E-09
 -1   1000562-4.89023E-10 1.17589E-10 4.97827E-10
 -1   1000563-3.58540E-10-1.12808E-10 3.45078E-09
 -1   1000565-2.46716E-10 1.63300E-10 2.91288E-10
 -1   1000566-8.18290E-12 5.00644E-11 3.00202E-09
 -1   1000568 4.22714E-10 2.10741E-10-1.15302E-09
 -1   1000569 1.01214E-10 1.61286E-11 4.45982E-10
 -1   1000571-7.95644E-11-1.53503E-10-4.96381E-10
 -1   1000572 2.00130E-10 1.83144E-10 5.29925E-10
 -1   1000574-3.86487E-10-1.01700E-10-1.22351E-09
 -1   1000575-4.26411E-10-7.51009E-11-2.98325E-10
 -1   1000577 4.85687E-10 1.47939E-10-1.87428E-10
 -1   1000578 6.97852E-12-2.27791E-10 2.88598E-09
 -1   1000580 6.12216E-11 3.57969E-11-3.34693E-10
 -1   1000581-3.44914E-10-1.05527E-10 4.68322E-09
 -1   1000583-5.59294E-11 7.14042E-11 1.41749E-09
 -1   1000584-1.81009E-11-1.68145E-10 3.73246E-10
 -1   1000586-1.17940E-10 1.30155E-10 2.29960E-09
 -1   1000587-1.24973E-10-1.61326E-10-4.00002E-09
 -1   1000589 2.63358E-10 2.09310E-11-1.15150E-09
 -1   1000590 5.16601E-10-5.55092E-10 4.02141E-09
 -1   1000592-2.70948E-10 4.60612E-10 2.55122E-09
 -1   1000593-2.09145E-10-6.56783E-11 2.94388E-09
 -1   1000595-2.98993E-10-3.88750E-10 7.34672E-10
 -1   1000596-3.55694E-10-1.49360E-10 6.88460E-09
 -1   1000598-5.42134E-10 1.29731E-10 4.95020E-09
 -1   1000599 5.15236E-11 1.71327E-11 3.33919E-09
 -1   1000601 3.97472E-11-9.93216E-11 1.59836E-09
 -1   1000602 3.30017E-11 1.52891E-10 6.76916E-10
 -1   1000604-8.40497E-12 1.30548E-11 1.51182E-09
 -1   1000605 4.67971E-11 7.74250E-11 4.38405E-09
 -1   1000607-4.89614E-10-8.03673E-11-2.01867E-09
 -1   1000608-3.95839E-10 4.48865E-11 2.01087E-11
 -1   1000610 2.10768E-10-8.63035E-11-1.46639E-09
 -1   1000611-5.82205E-12 5.24215E-12 1.24571E-09
 -1   1000613 3.02446E-10-4.49583E-11 3.60096E-09
 -1   1000614 2.23064E-10 3.20179E-10-4.20898E-09
 -1   1000616-3.92052E-10 2.45710E-10-8.14980E-10
 -1   1000617-5.28647E-10 8.76663E-11-1.06602E-09
 -1   1000619 5.02116E-12 1.42979E-10 3.16811E-09
 -1   1000620 5.11399E-10-9.79325E-11-9.20007E-10
 -1   1000622 2.61277E-10-9.05376E-11 3.94546E-09
 -1   1000623 2.95251E-10 8.20707E-10-1.87549E-09
 -1   1000625 1.63656E-10-3.44234E-10 4.05547E-10
 -1   1000626 4.33508E-10 6.20658E-11-4.46610E-09
 -1   1000628 1.84803E-11-1.54906E-10-3.35058E-09
 -1   1000629-4.99538E-11 6.30500E-11-1.68442E-09
 -1   1000631-5.80562E-10-1.26360E-10-5.08682E-10
 -1   1000632 3.89089E-11 3.37641E-11 8.96329E-11
 -1   1000634 8.98983E-11 1.30742E-10 1.09985E-10
 -1   1000635-4.23170E-10-8.84540E-11-2.38039E-11
 -1   1000637-1.99011E-10 1.47107E-10 5.39417E-11
 -1   1000638-5.09840E-10-2.49272E-10-2.72820E-10
 -1   1000640-1.34247E-10 5.03853E-11-1.51696E-10
 -1   1000641-1.86274E-10-1.14772E-10 4.16647E-12
 -1   1000643-2.26759E-10-2.06908E-10-1.69455E-10
 -1   1000644-2.62117E-10-3.09148E-11 8.39756E-11
 -1   1000646-4.17757E-10-2.22079E-10-3.90278E-11
 -1   1000647-7.99063E-11-1.48878E-10-1.14927E-10
 -1   1000649 3.84247E-10-5.68493E-11-5.33800E-10
 -1   1000650 2.21417E-10-9.83181E-12 7.48202E-11
 -1   1000652 9.39269E-11 1.90069E-10-2.82977E-10
 -1   1000653 3.50856E-12-8.92503E-12-6.14759E-10
 -1   1000655-5.43051E-11-9.13565E-12-2.60960E-10
 -1   1000656 2.72859E-11-1.95059E-11 2.34382E-10
 -1   1000658 1.55029E-10 1.14667E-10-8.22757E-11
 -1   1000659 4.46192E-11 2.15466E-12 1.84059E-10
 -1   1000661 2.17931E-10 6.69425E-11 5.03525E-10
 -1   1000662-1.12851E-10-7.78153E-11 8.54828E-10
 -1   1000664-1.08907E-10-1.20735E-10-5.93156E-10
 -1   1000665-1.42330E-10 1.58664E-10-2.02047E-10
 -1   1000667-1.52498E-10-1.50664E-10-7.22705E-10
 -1   1000668-2.84561E-10 4.38968E-11 8.70810E-10
 -1   1000670-5.19796E-10-2.79651E-10 1.30125E-09
 -1   1000671-5.85702E-11 2.42882E-10-3.55459E-10
 -1   1000673-3.80362E-10-2.93379E-10 1.00132E-09
 -1   1000674-2.38855E-10 1.32954E-10 1.16709E-09
 -1   1000676-1.20023E-10-1.44963E-10 9.30633E-10
 -1   1000677-1.44654E-10 1.86445E-10 8.17877E-10
 -1   1000679-3.86911E-10-4.24771E-11-1.35991E-09
 -1   1000680-1.82572E-11-2.85778E-10-6.10050E-10
 -1   1000682-3.22880E-11-7.88331E-11 1.90431E-10
 -1   1000683-1.45177E-11-1.40762E-10 2.57194E-09
 -1   1000685-7.65741E-11 6.48815E-12 1.74173E-09
 -1   1000686 1.18753E-10-3.22564E-10 4.77223E-10
 -1   1000688-2.56981E-10 2.52947E-10-3.25529E-10
 -1   1000689 4.12433E-10 3.64093E-11-7.29072E-11
 -1   1000691-4.08288E-10 1.76395E-10-2.28798E-10
 -1   1000692 4.18796E-11-3.24355E-11-1.25877E-09
 -1   1000694-5.56357E-11-1.31784E-10-1.24114E-09
 -1   1000695 1.15325E-10 6.94084E-11 5.98576E-10
 -1   1000697-5.20333E-11-1.15714E-10-1.06369E-09
 -1   1000698 3.06220E-10 3.79135E-11-1.23054E-09
 -1   1000700 4.48545E-10 7.71645E-11-3.73707E-09
 -1   1000701-1.21618E-10-4.03600E-10 9.85307E-10
 -1   1000703-1.05146E-10-8.46572E-11-1.76845E-09
 -1   1000704-8.04077E-11-5.74547E-11 9.34814E-10
 -1   1000706 2.68409E-11 1.78408E-10-1.27575E-09
 -1   1000707 1.13253E-10 1.59267E-10 2.13053E-09
 -1   1000709 2.32872E-10-4.64188E-11 1.49656E-09
 -1   1000710 2.10168E-10-7.87834E-11-7.52912E-10
 -1   1000712 3.44779E-10-9.65404E-11-5.68605E-10
 -1   1000713 1.59548E-10-2.17104E-11-9.97909E-10
 -1   1000715 3.01862E-10 1.14071E-10-2.01587E-09
 -1   1000716 1.67638E-10-1.63083E-10 5.72666E-09
 -1   1000718-1.81932E-11-1.02057E-10 3.16533E-09
 -1   1000719-3.27034E-10-5.77946E-10 1.83024E-09
 -1   1000721-9.88549E-12 1.23682E-10-3.96098E-09
 -1   1000722 4.24025E-11-9.46833E-11 3.41749E-10
 -1   1000724-4.10772E-10-1.04522E-10-1.48896E-09
 -1   1000725 1.18706E-09 2.96340E-10-1.21009E-09
 -1   1000727-7.58952E-11-9.60054E-10-6.76373E-11
 -1   1000728 4.36575E-10 3.79942E-10-4.44338E-09
 -1   1000730 6.47712E-10 1.68862E-10 1.75415E-09
 -1   1000731 1.90041E-10-3.59264E-10 1.34578E-10
 -1   1000733-1.58617E-10 3.59883E-11 4.68239E-09
 -1   1000734 1.77378E-10-3.64213E-10-5.90393E-10
 -1   1000736-1.64833E-10 1.20453E-10-3.59899E-10
 -1   1000737-5.56829E-11-3.43134E-11 3.59144E-09
 -1   1000739-1.20331E-10 4.76718E-12 5.27763E-10
 -1   1000740 1.25507E-10 8.98668E-11-1.08218E-09
 -1   1000742-3.93853E-10-3.86030E-10-1.30353E-09
 -1   1000743 1.99154E-10 8.11764E-11-5.08281E-10
 -1   1000745-1.27559E-10-2.17959E-10 2.02618E-09
 -1   1000746-8.09093E-10-2.66421E-10 8.01720E-10
 -1   1000748 1.89672E-10 4.27146E-10-7.21689E-10
 -1   1000749 7.49742E-11-3.70776E-11 2.72663E-09
 -1   1000751 4.19243E-10-5.69424E-11-2.81933E-09
 -1   1000752 1.20236E-10-3.74265E-10-7.97791E-10
 -1   1000754 2.01741E-10 2.43320E-11-9.38977E-10
 -1   1000755-3.84973E-10-1.33098E-10 8.05862E-09
 -1   1000757 8.40841E-10 2.13804E-10 1.23732E-10
 -1   1000758-7.82876E-10-2.90062E-10 4.16451E-09
 -1   1000760 1.82179E-11-7.63682E-11 7.37869E-09
 -1   1000761 1.65697E-10-3.95828E-10-1.16749E-09
 -1   1000763-1.80050E-10 3.21106E-10 2.10991E-09
 -1   1000764-3.80378E-11-1.11953E-10 2.24015E-09
 -1   1000766-1.84554E-10-4.73075E-11 3.51988E-11
 -1   1000767-1.00294E-09 6.30849E-11 1.48033E-09
 -1   1000769 1.97734E-10 4.22763E-10 1.63428E-09
 -1   1000770 1.71974E-10-5.49960E-10-7.79356E-10
 -1   1000772-7.17061E-11 1.91215E-10 1.04433E-08
 -1   1000773-1.44609E-10-8.81991E-10-5.58120E-09
 -1   1000775-5.73354E-10 3.42893E-11-2.07197E-09
 -1   1000776 2.51867E-10-2.92786E-10 2.89595E-10
 -1   1000778-1.00084E-10 2.67101E-10-3.55719E-09
 -1   1000779 4.91987E-10-5.01463E-11 1.12758E-08
 -1   1000781-4.15275E-10-1.80138E-10 5.14800E-09
 -1   1000782-2.91920E-10-7.31411E-11 4.68857E-11
 -1   1000784-6.75000E-11 1.33341E-10-3.88557E-11
 -1   1000785-1.32161E-10-2.54625E-10 1.09873E-10
 -1   1000787 1.30766E-10 2.77616E-10-5.37187E-11
 -1   1000788 1.07118E-10 1.93568E-10-1.95491E-10
 -1   1000790-6.43857E-11 1.16326E-10-1.04463E-10
 -1   1000791 2.55100E-10 2.28392E-10-5.28855E-11
 -1   1000793 7.08200E-11-4.37427E-10 1.30180E-10
 -1   1000794 3.64837E-11-1.14705E-10 1.75335E-10
 -1   1000796 2.91040E-10 2.68937E-10 1.30671E-10
 -1   1000797-2.50555E-10-5.95355E-10-6.66011E-10
 -1   1000799 1.83024E-10 4.52269E-10 6.43657E-11
 -1   1000800 4.53816E-11-1.06646E-10-6.43210E-10
 -1   1000802-6.32024E-11-3.33573E-10-1.67050E-10
 -1   1000803-6.17688E-11-8.29836E-11-7.09630E-11
 -1   1000805-8.96320E-11-1.20937E-10 1.26096E-10
 -1   1000806 2.70540E-10 1.24176E-10 1.50941E-09
 -1   1000808 2.41906E-10 1.68009E-10 2.39208E-10
 -1   1000809-8.21247E-11-1.56456E-10 2.76261E-10
 -1   1000811 1.16428E-10-8.92637E-11 2.53299E-10
 -1   1000812 2.41426E-10 5.69998E-11 1.05144E-09
 -1   1000814-6.73440E-11 1.16370E-10-1.13507E-09
 -1   1000815 2.96991E-10 7.19763E-11 1.15661E-09
 -1   1000817-1.96040E-10 1.47670E-10-1.41331E-09
 -1   1000818-5.33874E-11 1.73513E-10 3.42323E-10
 -1   1000820 5.92443E-11 4.46637E-11-5.50013E-10
 -1   1000821 3.15839E-11-1.20583E-10-1.00671E-09
 -1   1000823 1.62650E-10 8.57962E-11-7.69346E-10
 -1   1000824-1.06035E-10-2.48082E-10-6.04205E-11
 -1   1000826 4.26145E-11 5.03144E-10 4.36377E-10
 -1   1000827 1.26792E-11 2.61264E-10 1.04193E-09
 -1   1000829 1.46450E-11-9.54943E-13-7.29840E-10
 -1   1000830 1.00712E-10 1.67884E-10-1.19793E-09
 -1   1000832-1.26962E-10-3.42269E-11-7.54635E-10
 -1   1000833 8.37482E-11-1.08424E-10-1.05318E-09
 -1   1000835-7.98885E-11-2.55245E-10 2.06541E-10
 -1   1000836 1.83537E-10-1.93241E-11 4.70516E-10
 -1   1000838-9.11850E-11-6.83363E-11 6.68619E-10
 -1   1000839 4.78945E-10 1.30689E-10-1.59477E-09
 -1   1000841-2.09995E-10-1.27222E-10-1.88446E-09
 -1   1000842-3.61877E-12 1.17682E-10-3.50476E-10
 -1   1000844-5.39910E-10 2.72163E-10 6.72156E-10
 -1   1000845 1.19050E-11 1.70520E-10 3.16198E-10
 -1   1000847 2.64241E-11 1.13560E-10 2.95949E-10
 -1   1000848-1.03354E-11 2.96145E-10 9.00935E-10
 -1   1000850 4.94014E-10-3.98583E-11 6.86662E-10
 -1   1000851 1.74238E-10-7.60575E-11 2.13654E-09
 -1   1000853-2.77234E-10 1.12113E-10 1.93813E-10
 -1   1000854 3.29539E-10-1.98776E-11 9.70614E-10
 -1   1000856-3.21145E-11 1.42350E-11 1.50483E-09
 -1   1000857 1.77280E-10-6.66337E-11-5.87125E-10
 -1   1000859-2.67728E-10-3.70352E-10 3.46789E-10
 -1   1000860 1.79225E-12 6.69228E-11 5.88533E-10
 -1   1000862-7.76943E-11-3.83807E-10 2.71106E-09
 -1   1000863 3.89839E-10 2.61051E-10-1.45268E-09
 -1   1000865 3.10164E-11-3.22803E-11-1.80656E-09
 -1   1000866-1.41365E-11-2.09215E-10-1.13433E-09
 -1   1000868 6.44915E-11 1.10208E-10 2.93298E-10
 -1   1000869 6.94095E-11-3.05167E-11-2.05450E-09
 -1   1000871-1.41227E-10 1.17023E-10-8.52364E-10
 -1   1000872 3.47077E-10 1.88925E-10-1.63335E-09
 -1   1000874-1.10269E-10-2.64828E-10 1.77480E-10
 -1   1000875 5.65997E-10 3.80674E-11-1.84929E-09
 -1   1000877-4.16752E-10-5.18202E-10-5.24352E-10
 -1   1000878-5.70345E-11 2.88865E-10-2.58475E-09
 -1   1000880-1.78218E-10-5.02908E-11-1.23899E-09
 -1   1000881-6.33864E-11-5.26394E-10 2.02554E-09
 -1   1000883 1.15335E-10 8.46260E-11 3.66777E-10
 -1   1000884-2.95306E-11-1.80563E-10-8.68161E-10
 -1   1000886 2.26781E-10-1.34750E-11-2.05711E-10
 -1   1000887-6.12522E-10-9.73002E-11 1.22624E-09
 -1   1000889-3.73262E-11 1.16763E-11-1.51043E-09
 -1   1000890-5.17799E-10 3.95673E-11 8.00260E-10
 -1   1000892 2.82326E-10-6.01067E-10 4.52531E-09
 -1   1000893-3.62183E-10 1.47034E-10-4.63837E-09
 -1   1000895-1.49333E-10 1.20101E-10 4.41957E-10
 -1   1000896 1.46885E-10-1.34712E-10-1.01368E-09
 -1   1000898 3.88897E-10-8.53247E-11 1.76785E-09
 -1   1000899 8.05517E-11 1.72356E-10 2.87922E-09
 -1   1000901 7.79689E-11 5.66012E-11 5.45640E-09
 -1   1000902 2.81098E-10-1.69456E-10 6.95106E-10
 -1   1000904-1.35218E-10-8.76821E-11 2.39905E-09
 -1   1000905 2.12201E-10-2.62507E-11-7.05803E-10
 -1   1000907 2.76107E-11-1.03722E-10 4.30095E-09
 -1   1000908-1.04120E-10 2.20698E-10 4.96892E-09
 -1   1000910 7.07334E-11-7.39402E-11 6.57785E-09
 -1   1000911 1.93613E-10 3.68533E-11-1.71584E-10
 -1   1000913 2.18098E-10-1.43112E-10-4.68973E-10
 -1   1000914 1.09422E-10 1.10344E-10-3.10981E-09
 -1   1000916-5.95914E-10-2.33893E-10-1.15430E-10
 -1   1000917-1.26726E-10-1.77346E-10 6.25870E-10
 -1   1000919 1.68681E-10 9.94863E-11 1.67316E-10
 -1   1000920 3.64067E-10 7.99054E-11 1.68348E-09
 -1   1000922 1.59697E-10 4.35077E-11 5.24881E-10
 -1   1000923-9.29599E-11 4.00654E-10-5.57367E-10
 -1   1000925 1.21502E-11-2.07540E-11-2.69508E-09
 -1   1000926 1.67433E-10-4.45568E-10 3.81829E-09
 -1   1000928-3.10059E-11 2.31919E-10-2.54251E-10
 -1   1000929-5.69935E-11-7.17058E-11-4.37767E-09
 -1   1000931 1.71941E-10-2.16449E-10 7.29269E-10
 -1   1000932 4.85647E-11-3.23630E-10 1.05931E-11
 -1   1000934 1.80086E-10-4.59182E-11-6.11146E-11
 -1   1000935-1.24621E-10-2.66122E-10 1.38834E-10
 -1   1000937 1.74045E-10 2.01602E-10-6.75835E-11
 -1   1000938 1.18604E-10 2.80597E-10-2.39231E-10
 -1   1000940-1.07164E-11 7.97949E-11-7.89714E-11
 -1   1000941 1.62218E-10-9.66446E-11-7.74922E-11
 -1   1000943-1.79252E-10-3.35891E-10 1.83917E-10
 -1   1000944-1.91858E-12-3.27537E-11-2.74195E-11
 -1   1000946 1.95059E-11-1.25191E-10 1.99633E-10
 -1   1000947-1.18614E-10 1.57645E-10-5.38680E-11
 -1   1000949 4.48035E-10 2.45900E-10 5.53132E-10
 -1   1000950-5.58210E-11 4.34319E-10 6.45818E-11
 -1   1000952 1.99074E-10 9.08415E-12-5.53738E-10
 -1   1000953-3.74927E-11 1.46772E-10 7.22429E-10
 -1   1000955-5.91657E-12-4.57680E-10 4.77109E-10
 -1   1000956-3.03579E-11 2.09771E-10 2.58939E-10
 -1   1000958 1.35689E-10 1.06265E-11 2.45399E-10
 -1   1000959-2.56650E-10-6.18194E-11 2.20846E-10
 -1   1000961 2.07186E-10 1.24912E-10 5.96467E-10
 -1   1000962-8.14347E-11-3.00695E-10 5.86532E-10
 -1   1000964 1.87473E-10 5.75706E-12 6.87252E-10
 -1   1000965-1.10778E-10 1.18598E-10-2.56252E-10
 -1   1000967-7.93534E-11 8.23097E-11 8.71481E-10
 -1   1000968-1.80355E-10-2.80490E-11-1.09998E-09
 -1   1000970 9.69655E-12 1.12328E-10 1.78128E-10
 -1   1000971-9.69194E-11-2.47117E-10 1.00359E-11
 -1   1000973 1.44145E-10-2.38988E-10-6.74220E-10
 -1   1000974-1.72450E-10-3.60289E-10-5.51046E-10
 -1   1000976 7.76850E-11-4.72562E-10 8.74422E-10
 -1   1000977-3.33748E-10-6.31312E-11-2.47785E-09
 -1   1000979 1.23224E-10 2.98921E-10 5.95866E-10
 -1   1000980-1.59974E-12 1.72017E-10-6.17364E-10
 -1   1000982 3.86160E-10-1.90948E-10-3.77098E-10
 -1   1000983 9.19098E-11 1.72466E-10 4.56774E-10
 -1   1000985-1.60852E-10-2.96537E-10 7.14748E-11
 -1   1000986 9.64217E-11-1.65962E-10 1.02833E-09
 -1   1000988 2.29462E-10 1.88688E-10-1.06272E-09
 -1   1000989 2.40322E-10-1.37283E-10-1.50628E-09
 -1   1000991 1.39365E-10 6.53341E-11-1.53179E-09
 -1   1000992-5.00922E-11 2.51173E-10 1.39473E-09
 -1   1000994-3.16660E-10 4.56735E-11 3.23867E-09
 -1   1000995 6.11835E-11 3.64683E-10-9.47273E-10
 -1   1000997-3.55849E-10-1.46821E-10 1.09411E-09
 -1   1000998 1.31323E-11 4.76992E-10 1.18552E-09
 -1   1001000-1.64731E-10-2.84267E-10 8.32140E-10
 -1   1001001-1.91101E-10 2.41059E-10 6.00080E-10
 -1   1001003-3.27425E-11 1.10117E-11-1.77748E-09
 -1   1001004 4.41780E-13 1.68206E-10 1.16343E-09
 -1   1001006-1.07646E-10 1.96249E-10 1.33113E-09
 -1   1001007-1.31312E-10-7.88539E-10-1.38710E-09
 -1   1001009-1.79929E-10-5.37504E-10 2.33583E-09
 -1   1001010 5.65799E-10 3.50415E-10-8.02347E-10
 -1   1001012-1.66984E-10 3.83601E-10-1.30445E-09
 -1   1001013-5.02772E-10 4.26935E-10-8.38635E-11
 -1   1001015-8.52476E-11 1.61040E-11 3.85932E-10
 -1   1001016 2.50308E-10-6.03036E-11-2.51339E-09
 -1   1001018 4.47023E-11-2.79163E-10 2.12695E-09
 -1   1001019-9.11831E-11-1.06580E-11 1.57394E-09
 -1   1001021-1.77919E-10-4.36511E-10 5.40191E-10
 -1   1001022-1.28550E-11 4.88446E-10 1.60737E-09
 -1   1001024 8.83686E-11 5.72293E-10-9.15861E-10
 -1   1001025-1.67731E-10 1.10543E-10 2.03304E-09
 -1   1001027-3.83795E-11 1.42065E-10 2.15437E-09
 -1   1001028 2.09581E-10 6.63216E-11-1.69243E-09
 -1   1001030-2.26876E-10 2.20114E-10 6.78908E-10
 -1   1001031-3.89217E-10 2.52169E-10 1.73537E-09
 -1   1001033-1.92360E-12 7.11707E-11 2.23029E-09
 -1   1001034-6.20915E-11 1.09099E-11 9.88697E-10
 -1   1001036-3.22131E-11-1.63876E-10 1.13967E-09
 -1   1001037-2.06304E-11 1.06138E-10 2.72901E-11
 -1   1001039-6.82243E-11-7.13380E-12-1.45083E-09
 -1   1001040 6.28321E-11 2.66576E-10 2.51387E-09
 -1   1001042-3.54932E-11-1.68066E-10 3.50923E-09
 -1   1001043-1.65386E-11 4.40760E-10-4.35139E-10
 -1   1001045 8.88855E-11-1.41116E-10 2.19709E-09
 -1   1001046 1.50908E-10-3.19334E-10 1.17695E-09
 -1   1001048 2.89464E-10-1.13529E-11-1.95300E-09
 -1   1001049 7.77165E-11-9.00132E-12 1.46057E-09
 -1   1001051 2.14958E-10 2.84250E-10 4.67896E-09
 -1   1001052-1.52902E-10-8.72485E-11 7.83851E-10
 -1   1001054 9.25743E-11 2.17631E-10 3.49027E-09
 -1   1001055-1.12640E-10-3.87169E-10-1.32240E-09
 -1   1001057-4.04079E-11 2.59579E-10 2.01924E-09
 -1   1001058 1.09763E-09 4.01875E-11 2.77410E-09
 -1   1001060-6.74975E-10-7.20357E-10 2.79417E-09
 -1   1001061 4.33374E-10-1.99438E-10 8.24977E-10
 -1   1001063-1.53177E-10 2.07717E-10 4.49454E-10
 -1   1001064-1.12628E-10-1.85579E-10-2.21142E-09
 -1   1001066-3.18554E-10-4.32754E-10-3.84761E-09
 -1   1001067-8.32673E-11 4.15780E-10-3.45087E-09
 -1   1001069 8.58629E-11-2.46314E-10 2.64741E-10
 -1   1001070 1.51414E-10 4.79887E-10 2.96022E-09
 -1   1001072-3.56729E-10-2.54748E-10-1.42101E-09
 -1   1001073 9.34564E-12 3.44058E-10-1.80289E-09
 -1   1001075 2.79352E-10 5.43988E-10-1.36690E-09
 -1   1001076-9.20128E-10 3.06817E-11 5.74962E-09
 -1   1001078 3.71391E-10-3.42112E-11-3.32018E-09
 -1   1001079 2.95966E-10-3.96727E-10-5.90601E-09
 -1   1001081 3.75612E-10 2.22953E-10-4.60734E-09
 -1   1001082 1.19499E-10 1.41449E-10 6.31062E-11
 -1   1001084-4.99224E-11 1.14058E-10 1.20383E-11
 -1   1001085 1.38283E-11-5.04846E-13-1.02636E-11
 -1   1001087 1.53169E-11 3.98813E-10 5.24373E-11
 -1   1001088 3.61913E-11 2.86404E-11 7.30274E-11
 -1   1001090-8.83139E-11 3.11132E-10 2.08346E-10
 -1   1001091 9.40426E-11 1.17264E-11 2.53234E-10
 -1   1001093-3.01133E-11-2.20039E-10 4.18708E-10
 -1   1001094 8.62962E-13-2.51135E-11-2.04848E-10
 -1   1001096-1.37978E-10 1.00758E-10 6.11972E-11
 -1   1001097 1.07309E-10-2.37191E-10 4.27636E-11
 -1   1001099 1.61498E-10-6.80305E-10 3.13782E-10
 -1   1001100 3.43239E-13-1.38371E-10 4.49401E-10
 -1   1001102-7.94914E-11 2.17048E-10-7.93050E-10
 -1   1001103-1.40790E-11 1.49133E-10 8.38615E-10
 -1   1001105 1.31985E-10-3.61792E-10 4.34735E-10
 -1   1001106-2.92128E-11-5.97010E-11 9.32102E-10
 -1   1001108 7.55704E-11-3.39829E-10 9.85326E-10
 -1   1001109-9.01158E-11-5.94035E-10-5.18320E-10
 -1   1001111 1.49250E-11-7.37146E-11 8.80450E-10
 -1   1001112 1.06265E-10 1.99298E-10 8.81947E-10
 -1   1001114-1.12981E-10 1.05457E-10 8.88801E-10
 -1   1001115 9.33016E-11-5.19720E-11 8.96289E-10
 -1   1001117 8.25338E-11-1.81479E-10 6.98556E-10
 -1   1001118-1.06614E-10 5.65507E-10 1.26980E-09
 -1   1001120 1.39826E-10 6.23848E-10-2.36426E-10
 -1   1001121-3.80899E-11-3.86129E-10 1.04873E-09
 -1   1001123 1.06778E-10 2.40997E-11 4.37442E-10
 -1   1001124-1.29149E-11-6.08541E-10-3.51448E-10
 -1   1001126-1.68265E-11 1.59031E-10 8.30483E-10
 -1   1001127 6.99127E-13-3.67925E-10-5.00845E-10
 -1   1001129-1.54147E-10-1.36933E-10 5.74181E-10
 -1   1001130 6.69290E-11 2.02917E-10-1.47474E-09
 -1   1001132-1.79116E-10-6.06719E-10 1.12857E-09
 -1   1001133-2.14756E-11-5.38936E-10-8.72001E-10
 -1   1001135 9.77807E-11 2.85770E-10-1.02649E-09
 -1   1001136-6.71763E-11-5.81129E-10-2.54020E-09
 -1   1001138 7.24649E-11 7.07946E-10 1.41745E-09
 -1   1001139 6.47447E-11 5.07303E-10-4.02578E-10
 -1   1001141 8.47313E-11 1.83698E-10 1.57973E-09
 -1   1001142 5.03028E-11 4.23779E-11-2.48304E-10
 -1   1001144-1.73534E-10-2.92212E-10-7.29361E-12
 -1   1001145 1.44853E-10-3.95837E-10 6.72115E-10
 -1   1001147 2.11232E-10-5.17313E-10 1.06529E-09
 -1   1001148-2.07133E-10 5.27684E-10 9.61142E-10
 -1   1001150-2.60237E-10-4.25244E-10 5.44517E-10
 -1   1001151 1.73139E-10 3.76482E-10-6.35249E-10
 -1   1001153-9.64596E-11-3.60265E-10 6.68195E-10
 -1   1001154 3.62266E-10 7.67994E-10-1.27399E-09
 -1   1001156 7.84403E-12-4.11790E-10-1.09570E-09
 -1   1001157-1.48133E-11-3.71852E-10-1.45290E-09
 -1   1001159 1.02362E-10-4.72436E-11 4.41740E-09
 -1   1001160 4.26865E-11-5.37872E-10-4.59466E-09
 -1   1001162 3.85202E-11-4.62473E-10 1.98109E-09
 -1   1001163-4.55065E-11-4.41716E-10-1.64925E-10
 -1   1001165 1.20238E-10 6.83871E-11 2.59065E-09
 -1   1001166 4.46407E-12-1.36900E-10-1.54171E-09
 -1   1001168-6.30401E-11 2.93615E-10 2.91584E-09
 -1   1001169-5.41037E-11-3.24181E-11-3.41435E-09
 -1   1001171-1.27473E-10-8.11761E-11 1.91231E-10
 -1   1001172 4.56058E-11 6.90252E-10-1.95913E-10
 -1   1001174 3.67775E-11 3.50064E-11 1.03053E-09
 -1   1001175-4.69631E-11-3.25317E-10 6.65614E-10
 -1   1001177-2.47087E-10-4.42012E-10-3.50382E-10
 -1   1001178 1.79245E-11 4.62225E-13-4.70403E-10
 -1   1001180 8.36684E-12 1.38649E-10-6.53260E-10
 -1   1001181-6.26566E-11-3.56363E-11 1.61256E-09
 -1   1001183 1.01168E-10-2.84841E-10 3.58802E-09
 -1   1001184-5.61327E-11-3.69598E-10 2.94902E-10
 -1   1001186-3.07716E-10 3.92529E-10-9.56118E-10
 -1   1001187 1.03998E-10-1.33864E-10-1.37235E-09
 -1   1001189-1.85035E-10-2.50673E-10-4.21208E-09
 -1   1001190 1.32036E-10 4.24095E-10 5.05356E-09
 -1   1001192 1.67043E-10-2.86828E-10 3.93412E-09
 -1   1001193 2.25972E-11 2.23779E-10 2.26955E-09
 -1   1001195-3.05546E-10-3.07568E-11-4.42766E-11
 -1   1001196 1.00261E-10 2.73900E-10-2.83135E-09
 -1   1001198 6.05485E-12 1.32013E-10-1.81101E-10
 -1   1001199-3.89293E-10-4.78723E-10 1.22169E-09
 -1   1001201 2.39643E-10 4.09569E-10-2.18248E-09
 -1   1001202-4.55421E-10 6.74751E-10-2.07459E-10
 -1   1001204 7.76512E-10-4.65804E-10 6.64372E-10
 -1   1001205-1.39354E-10-4.35169E-10 3.13712E-09
 -1   1001207 5.15812E-10-3.05235E-10 1.48902E-09
 -1   1001208 5.63679E-11 3.29377E-11-2.00864E-10
 -1   1001210-6.83964E-11-1.07179E-10 2.59163E-09
 -1   1001211 1.81200E-10 7.22227E-11 2.79931E-10
 -1   1001213 3.92009E-12-5.13067E-10 9.77813E-10
 -1   1001214-2.08125E-10 3.69453E-10 2.28722E-09
 -1   1001216 9.33065E-11 5.28353E-10-9.82935E-10
 -1   1001217-7.58909E-11-6.48466E-10 8.75877E-10
 -1   1001219 6.06147E-11-2.33451E-10 2.75343E-09
 -1   1001220-2.41889E-10-2.05469E-10 3.57801E-09
 -1   1001222 4.02429E-10 4.70005E-10 6.82143E-10
 -1   1001223-3.14616E-10-2.84685E-10 1.67264E-09
 -1   1001225 1.03362E-10 7.70564E-10-8.63863E-10
 -1   1001226 4.44524E-11-9.75503E-11 3.69221E-09
 -1   1001228-1.66122E-10-6.14358E-11 5.95789E-11
 -1   1001229-2.68645E-11-4.97770E-11 5.45906E-09
 -1   1001231 1.18079E-10 6.56888E-10-3.66893E-09
 -1   1001232 1.41273E-11 7.64267E-11-3.84166E-11
 -1   1001234 3.09769E-12 4.66297E-11-3.13962E-11
 -1   1001235 9.70393E-12 4.31198E-10 1.19398E-11
 -1   1001237 2.07779E-11-2.56109E-10 1.91316E-11
 -1   1001238-7.00840E-12-1.06153E-10 2.30039E-10
 -1   1001240 8.78087E-13 6.35071E-11 6.07457E-11
 -1   1001241 1.83217E-11 2.74841E-10 5.04683E-10
 -1   1001243-3.24324E-11-7.87982E-12-2.53257E-10
 -1   1001244 4.26298E-11-4.54811E-11 5.79839E-10
 -1   1001246-3.73737E-11-4.79714E-10 4.20942E-11
 -1   1001247-9.41583E-11 2.88844E-10 4.29504E-10
 -1   1001249-3.81411E-11-1.18483E-10 3.26520E-10
 -1   1001250 2.19418E-11-3.94885E-12 2.59674E-10
 -1   1001252-3.63130E-11-1.70233E-10 1.92204E-10
 -1   1001253-1.22905E-13 1.28970E-10 6.77408E-10
 -1   1001255 1.81944E-11 2.83597E-11 1.02836E-10
 -1   1001256 5.37318E-11-1.36405E-10-7.23003E-11
 -1   1001258-5.03250E-11-3.57841E-10-7.02525E-10
 -1   1001259 2.24996E-10 4.42597E-10 4.40005E-10
 -1   1001261-1.22721E-10 1.59818E-10-3.19706E-10
 -1   1001262-2.66526E-11 1.99050E-10 8.67506E-10
 -1   1001264 6.74393E-12-4.37749E-13-1.55880E-10
 -1   1001265-2.00662E-11-1.34007E-10 4.06033E-10
 -1   1001267 7.27943E-12-5.34264E-11-4.54260E-10
 -1   1001268-1.94401E-11-6.25232E-10-5.25000E-11
 -1   1001270 1.76668E-11 7.48878E-11 1.69286E-09
 -1   1001271 5.97627E-11 1.40764E-10-8.91855E-10
 -1   1001273-8.19760E-12 1.90057E-10 1.13818E-10
 -1   1001274 1.96344E-10-1.07494E-11 3.17164E-10
 -1   1001276-4.93521E-11-7.63613E-11 4.43791E-10
 -1   1001277 3.01212E-11-3.54585E-10 1.37499E-09
 -1   1001279-4.24554E-11 3.71203E-10-5.57717E-10
 -1   1001280-9.56422E-12 1.81121E-11-1.70901E-10
 -1   1001282 1.22956E-10-1.55899E-10 2.43993E-10
 -1   1001283-1.47626E-11 8.89504E-11 1.40536E-09
 -1   1001285 4.15036E-11-2.74707E-10 1.37678E-11
 -1   1001286 5.32287E-11-1.43227E-10-1.71382E-12
 -1   1001288-1.13349E-11 4.27064E-10 1.01609E-09
 -1   1001289 4.11637E-11-5.42524E-11-4.48765E-10
 -1   1001291-1.10984E-10 2.57957E-10-3.52079E-11
 -1   1001292 9.30192E-11 2.88859E-10 4.02591E-10
 -1   1001294-1.72545E-10 9.75081E-11-3.26119E-10
 -1   1001295 5.09240E-11 1.66391E-11 2.13486E-09
 -1   1001297-1.11372E-10 1.25906E-10 1.01752E-09
 -1   1001298 8.33919E-12 1.40536E-10 1.15637E-09
 -1   1001300-1.55320E-11-3.37177E-10 2.19659E-09
 -1   1001301 3.86915E-11-4.45319E-11 4.96362E-10
 -1   1001303-1.62390E-11-2.79639E-10-8.94373E-12
 -1   1001304 3.91734E-11-4.76675E-11 1.62173E-09
 -1   1001306-1.16325E-11-3.43058E-10 1.30002E-09
 -1   1001307-1.23746E-10 8.49346E-11 3.62117E-09
 -1   1001309 8.03157E-11 6.37040E-10 2.53801E-09
 -1   1001310-2.63602E-10-2.75480E-10 7.42966E-10
 -1   1001312 3.73874E-10-1.51920E-11 4.96836E-10
 -1   1001313-1.17438E-10-4.18418E-11 1.18551E-09
 -1   1001315 2.03524E-11 1.34529E-10-1.02909E-10
 -1   1001316 2.38281E-10 3.21033E-10 8.75743E-10
 -1   1001318-1.30860E-10 2.28117E-10-1.54853E-10
 -1   1001319 5.43900E-10-3.16556E-10-5.05947E-10
 -1   1001321-2.06319E-10-1.05101E-10 1.96098E-09
 -1   1001322 1.27548E-10 2.05077E-10-8.88110E-10
 -1   1001324-2.01026E-10-3.73886E-11-2.28983E-10
 -1   1001325-3.65579E-11-6.11819E-10-2.35573E-10
 -1   1001327 8.03720E-12-1.51088E-10-1.08473E-09
 -1   1001328-5.43559E-12 7.29477E-10 1.64759E-09
 -1   1001330-3.05386E-11-4.02928E-10 7.64518E-10
 -1   1001331 4.90763E-12 2.67242E-10 3.43086E-09
 -1   1001333-1.06861E-11-3.17534E-10-3.67126E-09
 -1   1001334-4.51068E-11 3.23929E-10 4.42786E-09
 -1   1001336 3.10734E-11 7.22829E-11 1.48749E-10
 -1   1001337 3.08119E-11-7.16462E-11-6.34043E-10
 -1   1001339 2.42541E-11-1.39879E-10-3.85282E-09
 -1   1001340-2.73349E-11 2.79975E-10 2.81860E-09
 -1   1001342-1.60215E-11-7.96049E-11-2.16242E-09
 -1   1001343-2.38207E-11-4.10094E-10-4.29575E-10
 -1   1001345 4.26505E-11 3.13885E-10-1.26261E-09
 -1   1001346-1.60029E-10-5.40485E-11 4.60560E-09
 -1   1001348-3.96888E-11-3.47194E-10-1.05590E-09
 -1   1001349 1.44786E-12-5.31509E-11 3.45379E-09
 -1   1001351-1.15427E-11-5.84132E-12-8.55157E-10
 -1   1001352 3.67579E-11 3.06461E-10 3.64589E-09
 -1   1001354-4.01762E-11-4.07693E-10 1.53378E-10
 -1   1001355-2.66570E-10-2.84521E-10 5.61425E-09
 -1   1001357 6.08871E-11 1.44394E-10-4.65023E-09
 -1   1001358-5.78061E-10 9.27258E-10 9.99940E-10
 -1   1001360 3.91894E-10-1.09046E-09-3.04225E-09
 -1   1001361-3.15391E-10 9.03987E-11-1.59997E-09
 -1   1001363 2.89807E-10-1.36445E-09-1.94706E-09
 -1   1001364 6.58418E-11-7.91670E-11 3.40887E-09
 -1   1001366-8.57859E-11 8.28154E-11-1.12402E-09
 -1   1001367-1.12048E-10-1.31877E-10 4.37145E-09
 -1   1001369-7.97636E-11-2.86726E-10 2.79467E-09
 -1   1001370-1.49731E-12 1.69260E-10 2.82448E-10
 -1   1001372-5.42204E-12-9.72162E-11 3.05051E-10
 -1   1001373 4.14099E-10-9.11353E-11 1.04757E-09
 -1   1001375-2.66614E-10 3.60022E-10-3.97458E-09
 -1   1001376-3.92271E-13-5.75386E-10-2.06154E-09
 -1   1001378 1.25742E-11-3.15200E-10-5.56471E-10
 -1   1001379 3.93751E-10 1.74045E-10 4.30124E-09
 -1   1001381-1.33675E-10-8.90286E-11 8.19116E-09
 -1   1001382 2.09031E-11-1.99632E-10-6.58573E-11
 -1   1001384 3.24296E-11 2.96117E-11 5.73900E-11
 -1   1001385 3.19514E-12 1.65160E-10 1.22500E-10
 -1   1001387-4.85042E-12-2.90120E-10-5.22510E-11
 -1   1001388 9.16182E-12-4.90958E-10 1.91820E-10
 -1   1001390-1.60824E-11-2.16322E-10 1.43218E-10
 -1   1001391 5.14525E-11-1.26797E-09 1.33986E-10
 -1   1001393-6.60123E-11 4.79182E-10 2.19581E-10
 -1   1001394 6.44205E-11-3.24819E-11 4.27527E-10
 -1   1001396 7.17464E-12-5.59457E-10-1.38201E-10
 -1   1001397-2.37027E-11-2.90196E-10-7.89356E-10
 -1   1001399 1.68280E-11-5.49390E-10-5.17824E-10
 -1   1001400 3.36618E-11 1.75148E-10 4.20873E-10
 -1   1001402 8.41438E-12 3.68281E-10 8.75148E-11
 -1   1001403 1.24618E-10-5.91864E-10-2.54068E-10
 -1   1001405-7.77481E-11-3.68856E-10-3.96942E-10
 -1   1001406-1.26122E-11 4.89406E-10 3.02639E-10
 -1   1001408-7.34308E-11 2.80779E-10-9.67398E-10
 -1   1001409 1.41288E-12-2.42544E-10-1.23758E-10
 -1   1001411-7.59022E-12-2.37558E-10 1.13580E-10
 -1   1001412-6.07800E-11 3.92796E-10-7.61055E-10
 -1   1001414 9.90130E-11 9.47662E-11-8.15710E-10
 -1   1001415 6.52207E-12-2.38356E-10-5.69752E-11
 -1   1001417 1.34058E-10 7.32873E-13-8.05704E-10
 -1   1001418-2.04516E-10 8.37297E-10 9.56962E-10
 -1   1001420 9.20722E-11-1.30366E-10 4.06931E-11
 -1   1001421-4.40227E-11 1.00419E-09 1.27514E-09
 -1   1001423 5.58367E-11-4.44809E-10-3.98434E-10
 -1   1001424 8.75130E-11-5.17490E-10 7.27785E-10
 -1   1001426-1.04938E-10-2.20372E-10 8.67392E-10
 -1   1001427-5.37628E-11-5.00631E-10-1.20865E-09
 -1   1001429 5.44710E-11 3.33153E-10-2.71724E-09
 -1   1001430 1.68710E-10 3.20027E-11-3.09531E-10
 -1   1001432-1.06325E-10 6.78959E-10 1.24441E-09
 -1   1001433 3.74733E-11-6.03155E-11-8.04118E-10
 -1   1001435 5.07265E-11-2.03323E-10 1.31332E-09
 -1   1001436 1.81442E-10-2.46176E-10 1.60256E-09
 -1   1001438-3.36500E-10 6.46770E-10-2.04975E-09
 -1   1001439 2.33214E-11 2.28775E-10 1.45517E-09
 -1   1001441-1.83462E-10 1.36658E-09-2.53101E-09
 -1   1001442 2.08191E-10-1.96344E-10 1.20481E-09
 -1   1001444-1.55064E-10-6.64737E-11-1.82119E-09
 -1   1001445 1.65092E-11-6.54793E-10 1.38659E-09
 -1   1001447-1.92651E-11-4.87594E-10 1.52505E-10
 -1   1001448-4.74635E-10 2.25131E-10-4.98895E-10
 -1   1001450 2.08604E-10-9.45177E-10 1.81292E-09
 -1   1001451 2.25074E-10-4.00085E-10 1.25669E-09
 -1   1001453 6.39244E-12 9.58608E-10-1.44946E-09
 -1   1001454 5.32226E-10-8.39790E-11-1.35211E-09
 -1   1001456-4.61834E-11 5.98788E-10-3.31396E-10
 -1   1001457-9.32530E-12-8.14119E-11-1.60614E-09
 -1   1001459 6.78356E-11-3.34030E-10 1.88421E-09
 -1   1001460-3.14679E-10-7.36950E-10-2.45894E-09
 -1   1001462 4.56610E-11-5.97701E-11 1.24036E-09
 -1   1001463-1.99012E-10 3.65684E-10 1.60120E-09
 -1   1001465 5.60700E-11 5.13381E-10 3.21527E-09
 -1   1001466-1.98197E-11-3.34209E-10-1.02685E-09
 -1   1001468 2.21867E-10 1.88072E-11 5.56087E-10
 -1   1001469-1.39199E-10-5.27275E-10-1.23939E-09
 -1   1001471-5.26158E-10 3.13424E-10 3.52118E-09
 -1   1001472-2.06752E-10-5.26222E-10-2.39841E-09
 -1   1001474-1.09713E-10 7.44836E-10-1.00085E-09
 -1   1001475-3.66784E-10-1.87957E-10-3.37299E-09
 -1   1001477 4.45295E-10 8.97427E-10 2.44256E-09
 -1   1001478-5.31896E-11-2.88778E-10 1.43887E-09
 -1   1001480 2.31910E-10-1.22107E-10 8.59709E-09
 -1   1001481-2.48241E-10-1.48611E-10 8.88769E-10
 -1   1001483-5.31090E-10-8.40050E-10 5.13366E-09
 -1   1001484-6.41985E-11-9.05934E-10 3.30063E-09
 -1   1001486-2.32889E-11 5.20352E-11 4.82380E-09
 -1   1001487 1.44971E-10-4.49885E-10 2.65279E-09
 -1   1001489 1.35659E-11-3.49909E-10 7.18960E-09
 -1   1001490 4.53199E-10 4.63519E-10 1.66874E-09
 -1   1001492-1.88836E-10 7.26755E-10-6.73831E-11
 -1   1001493-2.56618E-11-7.53691E-11 8.06083E-09
 -1   1001495-1.34679E-10 3.78809E-10-2.47134E-09
 -1   1001496 3.12349E-10-9.88122E-12 6.14082E-09
 -1   1001498 7.67275E-13-3.56182E-10-5.34432E-09
 -1   1001499 2.66410E-10-1.60299E-10 3.65464E-09
 -1   1001501-2.23163E-10 4.07245E-10-1.35782E-09
 -1   1001502 1.74810E-10 1.60979E-10-5.33105E-10
 -1   1001504-5.25229E-10-3.15680E-10 1.12711E-09
 -1   1001505 6.35458E-11-6.56847E-10-1.21307E-11
 -1   1001507-1.17393E-10-3.66129E-10 1.37405E-09
 -1   1001508-4.22677E-11 1.96510E-10 1.48492E-09
 -1   1001510 2.23100E-11-3.74005E-12-6.27850E-10
 -1   1001511-5.85740E-12-2.84800E-10-3.48800E-09
 -1   1001513-1.75337E-12-4.38032E-11 6.07941E-10
 -1   1001514-1.95824E-10 7.17454E-11 1.63608E-09
 -1   1001516 6.51124E-11 9.20093E-10-2.87372E-11
 -1   1001517-2.70004E-11 2.49904E-10 6.04582E-09
 -1   1001519 3.78780E-10-3.88912E-10 4.13713E-09
 -1   1001520-3.15125E-10 5.22552E-10 3.83894E-09
 -1   1001522-1.22381E-10-4.52631E-10 4.21781E-10
 -1   1001523-2.88359E-10 9.03822E-10-1.50737E-09
 -1   1001525 8.02313E-11-5.03297E-10-9.58724E-09
 -1   1001526 1.01255E-11 6.24956E-10 4.62077E-09
 -1   1001528-4.42840E-11 3.78055E-11-1.66291E-10
 -1   1001529-9.14321E-12 3.90735E-10-2.40139E-09
 -1   1001531 2.39656E-11-2.88987E-10 5.50337E-09
 -1   1001532 1.23270E-11 3.97222E-10-5.12550E-11
 -1   1001534 1.01295E-11-6.04914E-10 8.78071E-11
 -1   1001535 8.60593E-11-5.78551E-11-2.25732E-10
 -1   1001537 2.64073E-11-2.88860E-10-8.03013E-11
 -1   1001538 4.57457E-11-2.09232E-10 2.44193E-10
 -1   1001540 3.42060E-11-1.58278E-10 1.49648E-10
 -1   1001541 6.96076E-12-5.70062E-10-2.14192E-11
 -1   1001543-1.08269E-10 8.62878E-11-9.43422E-11
 -1   1001544 1.29757E-10-3.48031E-10 3.18461E-10
 -1   1001546-9.46769E-12-1.43882E-10 7.70739E-12
 -1   1001547 3.77484E-11-2.18413E-10 1.74997E-11
 -1   1001549-1.07327E-10-6.81941E-11-1.45928E-10
 -1   1001550 1.14792E-10-3.52434E-10 1.12620E-09
 -1   1001552-6.66047E-11-3.84863E-11 1.98167E-10
 -1   1001553-5.05138E-12 1.11598E-11 1.12407E-09
 -1   1001555-8.47464E-11 3.62186E-12-9.04658E-10
 -1   1001556-8.04635E-12 3.85304E-10 1.15860E-10
 -1   1001558 7.93572E-11 8.53073E-11 7.49820E-10
 -1   1001559-5.33638E-11 2.36559E-10-2.24956E-10
 -1   1001561-4.89923E-11 7.67809E-11 7.00562E-11
 -1   1001562-1.19218E-10 3.00855E-10-2.45741E-10
 -1   1001564 5.17070E-11 1.67367E-10-4.87660E-10
 -1   1001565-3.29948E-12 8.65722E-11 1.22144E-09
 -1   1001567-2.79523E-11 5.85086E-10 2.03531E-10
 -1   1001568 4.21768E-12 7.38155E-11 1.20873E-11
 -1   1001570-2.74145E-10 7.82317E-10 1.02468E-09
 -1   1001571-3.68180E-11 3.92002E-11-7.57037E-11
 -1   1001573 3.11800E-10-2.96875E-10 8.35602E-10
 -1   1001574 1.47935E-12-1.39117E-10 7.07046E-11
 -1   1001576 3.03827E-10-4.80689E-10-1.30285E-10
 -1   1001577 4.55612E-11-1.17940E-10 1.13451E-09
 -1   1001579-2.56234E-11 2.48965E-10 1.90056E-09
 -1   1001580 7.45385E-11-2.11418E-10-1.30998E-09
 -1   1001582-1.02748E-10-4.38311E-11 8.54918E-10
 -1   1001583 8.86076E-11 2.21005E-10 1.35782E-09
 -1   1001585-7.63163E-11 4.70315E-10 7.58098E-10
 -1   1001586-3.87329E-10-6.65406E-11 9.98956E-10
 -1   1001588 8.95619E-12 4.03329E-11-1.44144E-10
 -1   1001589-8.75888E-12 3.49763E-10 1.97775E-09
 -1   1001591 6.73335E-11 1.37290E-11-1.00607E-09
 -1   1001592 4.09740E-11-3.67232E-11 1.04875E-10
 -1   1001594-9.27920E-11 1.94898E-10 3.05236E-10
 -1   1001595 4.81832E-12 3.52208E-10-8.43389E-10
 -1   1001597-1.56838E-10 8.22142E-11 4.68131E-10
 -1   1001598 3.99964E-12 5.98515E-11-7.57198E-10
 -1   1001600-6.01769E-11-6.50036E-10 1.57650E-09
 -1   1001601 1.00132E-10 2.57896E-11-9.50858E-10
 -1   1001603-9.61014E-11 5.79046E-10-2.82536E-10
 -1   1001604-2.06959E-11-3.17722E-10-6.36391E-10
 -1   1001606-9.96551E-11-3.94602E-10-2.29738E-09
 -1   1001607-7.60755E-11 2.47437E-10-2.94537E-10
 -1   1001609 5.27426E-11-3.55687E-10-6.06309E-10
 -1   1001610 8.25681E-11-2.02167E-10 1.75905E-09
 -1   1001612 7.66969E-11 9.26381E-11 1.54980E-09
 -1   1001613-1.10594E-10 3.98537E-10 3.76124E-09
 -1   1001615 1.08491E-11-1.61661E-10 2.42483E-09
 -1   1001616-1.29663E-10-1.41405E-10 1.95541E-09
 -1   1001618-1.33837E-10-3.27996E-10 2.67020E-09
 -1   1001619-1.38257E-11 6.53917E-10 2.32706E-09
 -1   1001621-3.24111E-11 3.25127E-10 1.37937E-09
 -1   1001622 5.55784E-11-4.07497E-10 3.27714E-09
 -1   1001624-4.95101E-11 4.77112E-10 1.35875E-09
 -1   1001625-5.89127E-10 1.53903E-10 2.69344E-09
 -1   1001627 2.02676E-10-1.99360E-10-1.65688E-09
 -1   1001628-1.28009E-10 7.16699E-10 7.82820E-10
 -1   1001630 2.46540E-10-5.87473E-10-1.64941E-10
 -1   1001631 3.51170E-11 2.04554E-10 3.41399E-09
 -1   1001633 5.02124E-11-2.96079E-10 2.81555E-09
 -1   1001634-4.90569E-11 4.93139E-11 2.02020E-09
 -1   1001636-2.10115E-11 8.60939E-11 4.65372E-09
 -1   1001637-2.64036E-11 1.35574E-10-8.62539E-11
 -1   1001639 6.81083E-11-1.61508E-10 9.94344E-10
 -1   1001640-1.25248E-10-2.39169E-10-9.06192E-10
 -1   1001642 2.20450E-10-5.45352E-10 1.59946E-09
 -1   1001643 5.56459E-11-2.23241E-10 3.15731E-09
 -1   1001645 3.07832E-11 2.46875E-10 1.16987E-09
 -1   1001646 2.04977E-10-1.14917E-10-3.07001E-10
 -1   1001648-1.15201E-10-6.10013E-11 1.79989E-09
 -1   1001649-1.00391E-10 5.76464E-10-2.53191E-10
 -1   1001651 1.02751E-10-1.32435E-10-3.36193E-10
 -1   1001652 9.60715E-11 3.19104E-11 1.77514E-09
 -1   1001654 3.83911E-11 2.24089E-10 1.26258E-09
 -1   1001655-1.29629E-10 4.21251E-10-3.37912E-09
 -1   1001657-3.70435E-11-4.16655E-10-5.07688E-10
 -1   1001658-7.51670E-11 2.87572E-10-2.57633E-09
 -1   1001660-2.40360E-10 3.60977E-10 2.62458E-09
 -1   1001661-6.23766E-11-6.41423E-11 1.56573E-09
 -1   1001663 1.34032E-10-2.63535E-10 1.83757E-09
 -1   1001664 1.81415E-10-7.02223E-10 1.72755E-09
 -1   1001666 1.21165E-11-3.48119E-11 6.08184E-10
 -1   1001667 4.45808E-11 1.63535E-10 4.89407E-09
 -1   1001669-4.11012E-11-9.67199E-11 1.30919E-09
 -1   1001670 5.34973E-11 4.17328E-10 9.14825E-10
 -1   1001672 1.02612E-10-1.60700E-10-1.88651E-09
 -1   1001673-3.04865E-11 1.83510E-10 2.76360E-09
 -1   1001675 9.90788E-12 2.75769E-10-2.49642E-09
 -1   1001676-1.52568E-10 3.90034E-10-6.66959E-10
 -1   1001678 6.54090E-11 5.78368E-11-3.37463E-09
 -1   1001679-1.86120E-12 2.96969E-10 1.46796E-09
 -1   1001681-5.58680E-11-2.52308E-10 4.60996E-09
 -1   1001682 6.05270E-11-4.21854E-10 1.71802E-10
 -1   1001684 2.15235E-11 1.23752E-10 8.74270E-11
 -1   1001685 7.67055E-11 2.34841E-10 1.72007E-10
 -1   1001687 7.25371E-11-3.25212E-11-1.34869E-11
 -1   1001688-1.29543E-10-4.37441E-11-9.72588E-11
 -1   1001690-3.22703E-11 2.16533E-10 2.89310E-11
 -1   1001691-9.64224E-11-3.64846E-10 9.15773E-11
 -1   1001693-4.08523E-11-4.95770E-10 2.36093E-10
 -1   1001694-8.03514E-11-5.27472E-11-8.17575E-11
 -1   1001696-2.04388E-10-3.81515E-10 2.50285E-10
 -1   1001697-4.81033E-10 5.63607E-10 1.26116E-10
 -1   1001699 1.42370E-10-9.07452E-11-1.94379E-10
 -1   1001700-2.38577E-10-3.53086E-10-1.14597E-11
 -1   1001702-5.78549E-11-2.72862E-10-6.52596E-10
 -1   1001703 6.40065E-11-1.56618E-10 9.19843E-10
 -1   1001705 3.13612E-11-3.28927E-10 3.53456E-10
 -1   1001706-2.07111E-10 1.28502E-10 9.76424E-10
 -1   1001708 6.12756E-11-4.29682E-11 5.09252E-10
 -1   1001709-4.40320E-11 1.78306E-10 4.20302E-10
 -1   1001711-1.07158E-10 2.37693E-10 6.43354E-11
 -1   1001712-1.04278E-10-9.61179E-11 3.72228E-10
 -1   1001714-3.04418E-10 2.81663E-11-6.88780E-10
 -1   1001715 6.70587E-11-1.03973E-10 9.76616E-10
 -1   1001717-2.46619E-11-3.01399E-10 1.60457E-09
 -1   1001718 1.96268E-11-4.52151E-10 1.49101E-09
 -1   1001720-1.25901E-10 4.48869E-11 6.50213E-10
 -1   1001721-1.28443E-10 1.20038E-10 2.84895E-10
 -1   1001723 4.15406E-11 1.13781E-10-7.51441E-10
 -1   1001724 2.29987E-11-3.53717E-11 5.90603E-11
 -1   1001726-1.17340E-11-1.86342E-10-1.09467E-09
 -1   1001727-8.24531E-11-4.65442E-11 2.41499E-09
 -1   1001729 2.11889E-10-2.68758E-10-6.64892E-10
 -1   1001730 2.53096E-10-3.17480E-10 3.31001E-10
 -1   1001732-2.93010E-10 2.20580E-10-1.78273E-10
 -1   1001733 1.42610E-10 1.95644E-10 1.05857E-09
 -1   1001735 4.11170E-11 3.09934E-10-5.66961E-11
 -1   1001736 7.36814E-11-2.97883E-10-9.46741E-10
 -1   1001738-2.05532E-10 2.14845E-10-8.64576E-10
 -1   1001739-1.01286E-10-2.40062E-10-1.44950E-09
 -1   1001741 1.54006E-10-4.14803E-11 2.17238E-10
 -1   1001742 3.55231E-11 2.09489E-11-9.29483E-10
 -1   1001744-8.87702E-11 4.11729E-10-7.95268E-10
 -1   1001745 1.09544E-10 3.75305E-10-1.40188E-09
 -1   1001747-1.55449E-10-7.30242E-11 1.79897E-09
 -1   1001748-2.44985E-10 4.79440E-10-2.26154E-09
 -1   1001750-1.54658E-11-1.49239E-10 1.64743E-09
 -1   1001751 1.56191E-10-1.92038E-11 2.17515E-11
 -1   1001753-7.39930E-11 3.49391E-10 1.45401E-09
 -1   1001754 5.14619E-11 1.01221E-10-1.25126E-10
 -1   1001756-3.92149E-11 1.10152E-11-1.05674E-09
 -1   1001757-1.47023E-10 1.69370E-10 1.61474E-09
 -1   1001759-1.45093E-10-1.19192E-10 1.76796E-09
 -1   1001760 1.34217E-10 5.32437E-10-2.13618E-09
 -1   1001762-1.80495E-11-1.83529E-11-2.60214E-09
 -1   1001763 3.06772E-12-5.09037E-12 2.46953E-09
 -1   1001765-4.57231E-10-2.24336E-10-2.68736E-10
 -1   1001766 1.14044E-10 4.79738E-11 2.34670E-10
 -1   1001768 2.54827E-11-4.74654E-10 1.09073E-09
 -1   1001769 1.80546E-10 2.79517E-10-2.62946E-09
 -1   1001771 1.60739E-10 7.35049E-11-1.85656E-09
 -1   1001772-3.74846E-11-1.17223E-10-6.29327E-10
 -1   1001774 8.98048E-11 1.32998E-10-4.56322E-10
 -1   1001775 2.37781E-11-2.37311E-10-5.56979E-10
 -1   1001777-2.45421E-12 1.61409E-10 1.43293E-10
 -1   1001778-1.51191E-10 4.24402E-10 1.37569E-09
 -1   1001780 2.90321E-10-2.63103E-10 1.35458E-09
 -1   1001781 4.66272E-10 2.80343E-10 1.36458E-09
 -1   1001783 4.31019E-11-9.87924E-10 3.45050E-09
 -1   1001784-4.60706E-11 7.46801E-10-2.01017E-09
 -1   1001786-2.71306E-10-5.35976E-10 1.58762E-09
 -1   1001787 4.94724E-11-1.89196E-10 3.62317E-10
 -1   1001789-1.23353E-10-9.40871E-11 1.39262E-09
 -1   1001790-1.56813E-10-6.79707E-10 7.00079E-10
 -1   1001792-1.63564E-10-1.70611E-10-6.81731E-10
 -1   1001793 2.03097E-10-2.35097E-10 1.06274E-09
 -1   1001795-1.03487E-10 4.00192E-10 7.16600E-10
 -1   1001796 6.08324E-11-5.61110E-10-4.33290E-09
 -1   1001798 2.37903E-10-5.09499E-10-2.82024E-10
 -1   1001799 4.15146E-10 3.69291E-10-4.84187E-09
 -1   1001801 1.71395E-11-7.65076E-10 2.02914E-09
 -1   1001802-3.48518E-10-5.81102E-11 1.48788E-10
 -1   1001804-1.14654E-10-6.00368E-10 2.80246E-09
 -1   1001805 3.17505E-10 1.45848E-10-3.66381E-09
 -1   1001807 3.19118E-11 8.30786E-11 2.87757E-09
 -1   1001808 1.09672E-10-3.95680E-10-1.79049E-09
 -1   1001810-6.76773E-10-3.06018E-10 5.22467E-09
 -1   1001811-2.40268E-10-1.42327E-10 4.21119E-09
 -1   1001813-1.74407E-10 9.31572E-11 2.34422E-09
 -1   1001814 9.78978E-11-5.41804E-10 6.49057E-09
 -1   1001816 2.09638E-10 7.19669E-10 2.99417E-09
 -1   1001817-5.82226E-10-2.95731E-10 1.65796E-09
 -1   1001819-3.96693E-10 4.73033E-10 3.00571E-09
 -1   1001820 3.64432E-10-1.95918E-10 8.11616E-10
 -1   1001822-3.70269E-10-4.00592E-10-4.23947E-09
 -1   1001823 1.07926E-10-4.53749E-10 6.32303E-09
 -1   1001825-1.51487E-10-1.75737E-10 1.57373E-09
 -1   1001826 6.80690E-12 4.72906E-10-2.46597E-10
 -1   1001828-2.88786E-11 2.91326E-11 2.50500E-09
 -1   1001829 3.08497E-10 1.09590E-10 1.87887E-10
 -1   1001831 2.78924E-10-2.95902E-10-3.00730E-09
 -1   1001832-1.42886E-12-4.60257E-10 1.08366E-10
 -1   1001834-9.83753E-11 3.33386E-10-2.96636E-11
 -1   1001835 2.84569E-11-4.62721E-11 3.18240E-11
 -1   1001837-1.48371E-11 3.63100E-10-1.54563E-10
 -1   1001838-2.10568E-10 5.63657E-11 2.82408E-10
 -1   1001840-1.24581E-10 3.19744E-11 2.35089E-10
 -1   1001841-2.80900E-10 4.97794E-10 2.67159E-10
 -1   1001843-2.24834E-10 5.94940E-11 3.38664E-10
 -1   1001844 2.04707E-12-6.46372E-11-9.49714E-11
 -1   1001846-1.45804E-10 2.10646E-10 2.33119E-10
 -1   1001847-9.17981E-11 2.03350E-10-4.70368E-10
 -1   1001849 4.01782E-11 2.15541E-10-1.29373E-10
 -1   1001850 4.65311E-11-1.26522E-10-4.49065E-10
 -1   1001852-2.16952E-10-1.00574E-10-6.65075E-10
 -1   1001853-9.64586E-11 1.71920E-11 6.13501E-10
 -1   1001855-8.77526E-11-2.67065E-11 7.02298E-10
 -1   1001856-1.54896E-10-9.65806E-11-5.51215E-10
 -1   1001858 2.71069E-10-1.45451E-10 3.43621E-11
 -1   1001859-9.25863E-11 1.53777E-11-1.13071E-09
 -1   1001861 2.69285E-11 2.15385E-10-3.82375E-10
 -1   1001862 5.78563E-11 5.40933E-11-1.94621E-10
 -1   1001864-5.04781E-10-3.94324E-11 5.39398E-10
 -1   1001865-8.27377E-11-3.64219E-10 1.17027E-09
 -1   1001867-5.44224E-11 1.91291E-10-2.76979E-10
 -1   1001868-2.72863E-10-4.74478E-10-9.40978E-11
 -1   1001870-1.15649E-10-3.41477E-11 2.86544E-10
 -1   1001871-1.10999E-10-3.81155E-11-2.69405E-10
 -1   1001873 3.82523E-10 7.82333E-11-8.32579E-10
 -1   1001874-1.84807E-10 2.22075E-10 2.01106E-10
 -1   1001876-8.68216E-11-3.11845E-10 9.35075E-11
 -1   1001877 3.75262E-10-1.07142E-10 1.78615E-11
 -1   1001879-8.60451E-11 1.26753E-10 8.63371E-10
 -1   1001880 9.24861E-11-3.10923E-10 6.10200E-10
 -1   1001882-7.40260E-11 1.53706E-10-1.07744E-09
 -1   1001883-3.18224E-10 3.84852E-10 7.49825E-10
 -1   1001885 1.74423E-10-6.77693E-11 1.64135E-10
 -1   1001886 9.81713E-11-2.09281E-10 1.23055E-09
 -1   1001888 1.70093E-10-2.25543E-10 2.45033E-10
 -1   1001889 4.01084E-11-1.41897E-10 1.26231E-09
 -1   1001891 1.64926E-11 4.25417E-12 2.14365E-10
 -1   1001892-2.24557E-11-2.55006E-10-4.93342E-10
 -1   1001894 4.72832E-11-3.58965E-11-1.64291E-09
 -1   1001895 5.77852E-12-2.79571E-11 2.55147E-09
 -1   1001897-8.36129E-11 2.63634E-10-2.05518E-09
 -1   1001898-2.45659E-11 2.66469E-10-8.79348E-10
 -1   1001900 1.44362E-10-3.32312E-10 3.01633E-10
 -1   1001901-2.03649E-10 3.10770E-10 7.24161E-10
 -1   1001903-3.52340E-10 1.40877E-10 3.04925E-09
 -1   1001904-6.05223E-11-8.97924E-11 2.30043E-10
 -1   1001906-2.82003E-10-1.20366E-10-5.41123E-10
 -1   1001907-2.10758E-10-6.78351E-11-2.02724E-09
 -1   1001909-5.34654E-10-7.79349E-11 2.54441E-09
 -1   1001910 2.93159E-10-4.79703E-11-3.67134E-10
 -1   1001912-2.54784E-10-2.98613E-10 7.75684E-11
 -1   1001913 7.68467E-11-1.08054E-10 3.54201E-09
 -1   1001915 1.56123E-10-2.15877E-10 1.49921E-09
 -1   1001916 2.69855E-10-2.09105E-10-5.74554E-10
 -1   1001918 7.86215E-11 1.82418E-10 3.67631E-10
 -1   1001919 2.27445E-10 1.45754E-10-1.16118E-09
 -1   1001921-6.07203E-11 1.49948E-10-1.14083E-09
 -1   1001922 4.44495E-10 2.77414E-10-1.12499E-09
 -1   1001924-5.53715E-11 3.53636E-10-3.78963E-10
 -1   1001925 2.53289E-10 1.50996E-10-2.39778E-09
 -1   1001927-2.46187E-10 2.60357E-10 1.81340E-09
 -1   1001928-1.72680E-10 4.27776E-10-3.03459E-09
 -1   1001930-1.76932E-10-1.12942E-10 4.69064E-09
 -1   1001931 2.24199E-10 6.43833E-11 4.49290E-10
 -1   1001933 9.21879E-11 2.95500E-11 5.48334E-09
 -1   1001934-1.43769E-10 2.32697E-10-5.09071E-10
 -1   1001936 1.06025E-10-2.56369E-10-1.28100E-09
 -1   1001937 1.39973E-10 2.96129E-10-6.66215E-10
 -1   1001939-1.02925E-10-3.89903E-10-3.49101E-09
 -1   1001940-4.96094E-10 6.14275E-10-6.47069E-10
 -1   1001942 1.51741E-10 1.16711E-10-4.50343E-10
 -1   1001943 7.73652E-11-1.36929E-10 1.50897E-09
 -1   1001945-6.86805E-10-4.01621E-11 3.88524E-09
 -1   1001946 2.03710E-10 1.50150E-10 1.01740E-09
 -1   1001948 2.35928E-10 1.39560E-10-1.85565E-09
 -1   1001949-3.33645E-11 3.06132E-10 7.40720E-10
 -1   1001951-3.23189E-11 1.02324E-11-1.55201E-09
 -1   1001952 1.25819E-10-2.70096E-10-2.95206E-10
 -1   1001954-1.74637E-10 1.96061E-10-1.49394E-09
 -1   1001955 2.33833E-11-3.55478E-10-4.23553E-09
 -1   1001957-2.33030E-10 1.92043E-11 3.92956E-09
 -1   1001958 1.44097E-10-8.28258E-11-1.86063E-09
 -1   1001960 8.68159E-11 3.48413E-10 3.27825E-09
 -1   1001961-1.18817E-11 1.40169E-10 2.83951E-09
 -1   1001963 1.67189E-10 1.64507E-10-2.18269E-09
 -1   1001964-2.12296E-10 2.18948E-10-2.12630E-09
 -1   1001966 4.11246E-11 1.04386E-10 4.99945E-09
 -1   1001967 2.91386E-13-3.87826E-11-2.02853E-09
 -1   1001969-1.88633E-10-2.00093E-10-1.97114E-09
 -1   1001970-4.91100E-10 1.97250E-10-2.68236E-09
 -1   1001972 1.55246E-10-5.60375E-11-7.19187E-10
 -1   1001973 1.76743E-10-2.76859E-10 9.00259E-10
 -1   1001975-9.44811E-11-8.38993E-11 1.74546E-09
 -1   1001976-9.23221E-11 1.69527E-10 3.89283E-09
 -1   1001978 8.44419E-11 1.22861E-10 1.26890E-10
 -1   1001979-2.73917E-10 2.08742E-10 3.52445E-09
 -1   1001981 8.46258E-12-2.61018E-10 1.24798E-09
 -1   1001982-7.35876E-11-6.48744E-11 9.82874E-11
 -1   1001984 3.34306E-11-1.24261E-10-8.48543E-12
 -1   1001985-2.58531E-10-1.07963E-10 8.51529E-11
 -1   1001987 3.97071E-10-1.17973E-10-1.25194E-11
 -1   1001988-2.63308E-10-2.61256E-12 3.36060E-10
 -1   1001990 8.34762E-11-6.63730E-11 3.72298E-11
 -1   1001991 3.57501E-11-1.88940E-10 3.72310E-10
 -1   1001993 9.76313E-11 4.12863E-12-1.70201E-11
 -1   1001994-1.12126E-10-1.98757E-10 2.52065E-10
 -1   1001996-2.16042E-10 1.14213E-11 2.75549E-10
 -1   1001997 1.40757E-11-1.29691E-10 9.27328E-10
 -1   1001999 2.86855E-10-2.94273E-10-1.57034E-10
 -1   1002000 5.83858E-10-5.30813E-11 3.42020E-10
 -1   1002002 2.16140E-10 7.06927E-11 5.60698E-10
 -1   1002003 3.88682E-10-1.94992E-10 3.26303E-10
 -1   1002005-1.86613E-10 1.75526E-10 3.22052E-11
 -1   1002006 9.37313E-11 1.34906E-10 4.57343E-10
 -1   1002008-9.96734E-11 1.14333E-10-8.35855E-10
 -1   1002009-1.24535E-10 1.25339E-10 1.53617E-09
 -1   1002011-1.77138E-10 2.30577E-10 2.54084E-10
 -1   1002012 5.63505E-10-1.70060E-10 9.33873E-10
 -1   1002014 3.45071E-10 1.40337E-10 5.14476E-10
 -1   1002015 1.07757E-10 1.92846E-11 9.23713E-10
 -1   1002017-1.73004E-10 7.54879E-11 2.58483E-10
 -1   1002018-1.16394E-10-1.33309E-10-5.30222E-10
 -1   1002020 4.85955E-10-7.19768E-11 1.20277E-09
 -1   1002021-4.55001E-10 1.68476E-10 4.11910E-10
 -1   1002023 3.48065E-10-1.20896E-10 6.57066E-10
 -1   1002024-4.96594E-11-9.24316E-12-7.08233E-10
 -1   1002026-7.58228E-11 8.39697E-11 3.96529E-10
 -1   1002027 1.28457E-10 1.79937E-10 1.83409E-10
 -1   1002029-1.98525E-10 6.15522E-11 1.55150E-09
 -1   1002030 5.21899E-11-3.98317E-11 6.03637E-10
 -1   1002032 9.75811E-11-2.53465E-10-1.89143E-09
 -1   1002033 3.63102E-10-1.89393E-11 6.24183E-10
 -1   1002035 3.27574E-10-9.75363E-11 1.02115E-09
 -1   1002036 2.35542E-10-1.53288E-10 3.64354E-10
 -1   1002038-1.30794E-10 1.49187E-10 9.97180E-10
 -1   1002039 2.07782E-10-1.77000E-10-2.78465E-10
 -1   1002041-5.92963E-10 2.40774E-10 1.39017E-09
 -1   1002042 2.00681E-10-6.41931E-10 1.02637E-09
 -1   1002044 3.26418E-10 9.31465E-10 2.08835E-09
 -1   1002045-4.45457E-10 1.90451E-10-7.26175E-10
 -1   1002047 2.59228E-10-8.96107E-12 1.36719E-09
 -1   1002048-4.84489E-10-5.21171E-12 3.85198E-09
 -1   1002050 3.57286E-10-4.28032E-10-1.58352E-09
 -1   1002051-3.95351E-10 2.43169E-10-6.66758E-10
 -1   1002053 2.51011E-10-1.02752E-11 3.41974E-09
 -1   1002054-8.97152E-11-5.43851E-11-1.85348E-10
 -1   1002056 2.04396E-10 1.54008E-10 4.85895E-09
 -1   1002057 6.05592E-10 6.59216E-11-2.59295E-09
 -1   1002059-6.14413E-10-2.93680E-10 1.82056E-09
 -1   1002060 1.92791E-10 5.71619E-12 1.22628E-09
 -1   1002062 2.62243E-10 3.40241E-11 1.25436E-09
 -1   1002063-1.17534E-10 1.48579E-10-2.58867E-10
 -1   1002065-3.11187E-10 2.86843E-10 1.67549E-09
 -1   1002066 2.14487E-10 7.84407E-11 5.69054E-09
 -1   1002068 8.97193E-11 3.35607E-10 7.05172E-10
 -1   1002069-5.86675E-11 1.54718E-10 2.16786E-09
 -1   1002071-6.35684E-10-1.09026E-10-7.59148E-10
 -1   1002072 1.34712E-10 1.67279E-10-1.94866E-09
 -1   1002074-3.72113E-11-6.31006E-11 3.40245E-09
 -1   1002075 3.78563E-10-2.22059E-10-1.74454E-10
 -1   1002077-1.95281E-11-4.87831E-11 1.52160E-09
 -1   1002078-2.94126E-10-8.11476E-11 7.59296E-10
 -1   1002080-1.41290E-10 1.44897E-10 4.16682E-09
 -1   1002081 2.22746E-10-4.43588E-10-1.91765E-09
 -1   1002083-4.68584E-10-2.79993E-10 4.49219E-09
 -1   1002084 3.54036E-10-8.24426E-11 1.71990E-09
 -1   1002086-8.51408E-10-8.32991E-11 2.85408E-10
 -1   1002087 5.50136E-11 4.59720E-12 1.40921E-09
 -1   1002089 9.41501E-11-1.29250E-10 9.59794E-11
 -1   1002090-5.00451E-10-5.10729E-10 3.00531E-09
 -1   1002092 3.19916E-10-1.09745E-10 4.13868E-09
 -1   1002093-2.17979E-10-2.97484E-11-1.35322E-10
 -1   1002095 3.40066E-11 1.94982E-10 2.22743E-09
 -1   1002096-2.13197E-10-2.47190E-10 6.75050E-10
 -1   1002098-3.45468E-10 4.55002E-11-2.25617E-09
 -1   1002099-2.49096E-10 1.66473E-10 1.57694E-09
 -1   1002101-1.36918E-10 2.71450E-10 2.07884E-09
 -1   1002102 3.89925E-10-2.70507E-10-1.54623E-09
 -1   1002104-5.10548E-10 5.89679E-10 1.69546E-09
 -1   1002105-3.14124E-11-6.37143E-10-2.69430E-10
 -1   1002107 1.40898E-10 3.00739E-10 2.69644E-09
 -1   1002108 4.24407E-11-1.07970E-09 1.44320E-09
 -1   1002110-2.16537E-11 9.13153E-11 2.75650E-09
 -1   1002111-1.84507E-10 4.04909E-10 9.09034E-10
 -1   1002113 5.83930E-10 2.30923E-10-2.96505E-09
 -1   1002114-3.47515E-10-2.75877E-10 1.72389E-09
 -1   1002116-9.52708E-11-3.28720E-10 6.36313E-10
 -1   1002117 7.44389E-11-3.94098E-11-1.87970E-09
 -1   1002119-6.93850E-11-1.30944E-10 2.79985E-09
 -1   1002120 1.20771E-11 4.37043E-10-2.28198E-09
 -1   1002122 4.17461E-11-1.73746E-11 5.39353E-10
 -1   1002123-2.38801E-10 1.40682E-10 2.22499E-09
 -1   1002125 6.97631E-11 2.27780E-10 1.12284E-09
 -1   1002126-1.52325E-10 1.22496E-10-1.91653E-09
 -1   1002128 4.41203E-10-3.77695E-11-1.78377E-09
 -1   1002129 4.13535E-10-1.13109E-11-3.15573E-09
 -1   1002131 2.88031E-10-1.20895E-10 4.10277E-09
 -1   1002132-4.85113E-10 5.72884E-11-6.92734E-11
 -1   1002134 3.04126E-10-1.03162E-10 1.33227E-10
 -1   1002135 4.06707E-10-4.22954E-11 1.84056E-10
 -1   1002137 6.16577E-11 3.31589E-11 3.27271E-10
 -1   1002138 1.38324E-10-1.46115E-10 9.93819E-11
 -1   1002140-4.71484E-10 8.62580E-11 2.88181E-11
 -1   1002141 6.30483E-11-9.45194E-11 1.71693E-10
 -1   1002143-2.05882E-10 1.53323E-10-1.01793E-10
 -1   1002144-1.43406E-10 8.82155E-11-1.53394E-10
 -1   1002146-1.25420E-11-2.44801E-10-3.81073E-12
 -1   1002147-7.03657E-12-1.26170E-10 3.43214E-10
 -1   1002149-1.08779E-10 7.35728E-12-2.61891E-10
 -1   1002150 3.28989E-10-2.82226E-11-5.62550E-10
 -1   1002152 7.80753E-11-1.59636E-12 6.93591E-10
 -1   1002153 2.89205E-10-1.50011E-10 1.31813E-10
 -1   1002155 4.47897E-11 3.09991E-11-3.56903E-10
 -1   1002156-1.20672E-10 4.83527E-11 2.34586E-10
 -1   1002158-1.34099E-10 2.63045E-11 1.46697E-10
 -1   1002159 1.14560E-10-1.63781E-11 1.94121E-09
 -1   1002161 1.86062E-10 6.56015E-11 3.27907E-10
 -1   1002162-1.33812E-10-2.52954E-11 2.13901E-10
 -1   1002164 4.68112E-10-7.74397E-11-9.65025E-10
 -1   1002165-1.24958E-10-1.80029E-10 8.43624E-10
 -1   1002167-4.56812E-10 2.76708E-10 5.37303E-10
 -1   1002168-2.11862E-10 1.78857E-11-1.54998E-09
 -1   1002170 2.45547E-10 1.16996E-10 9.89293E-10
 -1   1002171 2.60269E-10 1.32750E-10-2.90568E-10
 -1   1002173-2.50338E-10 2.42758E-10 2.59156E-09
 -1   1002174 3.20479E-11-1.72733E-11-8.91918E-10
 -1   1002176-2.42379E-12 2.93554E-11 8.96792E-10
 -1   1002177-2.45807E-10 2.82043E-11-1.21207E-09
 -1   1002179-3.48698E-11-3.03587E-10-5.20937E-10
 -1   1002180-1.02969E-10-7.69914E-13-3.77284E-10
 -1   1002182-2.27295E-11-1.27016E-10 8.07324E-10
 -1   1002183-5.35293E-11 2.94806E-11 3.02209E-10
 -1   1002185 2.04520E-10-1.44347E-10 1.88803E-09
 -1   1002186 3.73479E-10 8.90581E-12 8.22231E-13
 -1   1002188 3.32157E-11-1.34861E-10 1.62343E-10
 -1   1002189 1.26840E-10-4.87357E-11 2.56288E-09
 -1   1002191 3.33136E-10 7.46305E-12 1.06925E-09
 -1   1002192-4.66143E-11 7.01295E-11-3.04342E-10
 -1   1002194 6.73240E-10-1.44781E-10-7.91880E-11
 -1   1002195-1.88631E-10 1.49702E-10 1.22864E-09
 -1   1002197 2.47265E-11 1.40255E-10-2.75913E-09
 -1   1002198-1.36017E-10 3.51481E-11 2.16991E-10
 -1   1002200 6.03708E-11 1.14444E-10-9.19548E-10
 -1   1002201-1.88584E-10 7.11814E-11 4.65415E-10
 -1   1002203 3.39884E-10-1.19271E-10 6.33011E-10
 -1   1002204 1.94926E-10-3.90627E-11-2.42561E-09
 -1   1002206-9.90912E-11-1.13869E-11 3.61169E-10
 -1   1002207-4.22656E-10-4.47773E-11-4.72205E-10
 -1   1002209-6.43857E-10 1.65899E-10 9.83095E-10
 -1   1002210-3.03697E-10 2.59768E-10-9.06264E-10
 -1   1002212-7.47180E-11 1.16521E-11 3.35924E-10
 -1   1002213-6.87721E-10 2.35118E-10-7.20644E-10
 -1   1002215-4.11207E-10-2.06163E-10 3.69424E-10
 -1   1002216 5.34132E-10-3.39361E-11 2.20122E-09
 -1   1002218 1.07422E-10-3.18138E-11 1.28612E-09
 -1   1002219-4.28237E-11 2.71941E-11 1.15938E-09
 -1   1002221 9.22691E-11-4.72328E-11 1.97512E-09
 -1   1002222 7.39597E-11-7.06414E-11-1.93957E-10
 -1   1002224 9.14238E-10-5.00084E-11 6.95465E-10
 -1   1002225 1.72982E-10-1.64227E-10-7.53471E-10
 -1   1002227 1.55342E-10 3.29736E-11-1.73770E-10
 -1   1002228-2.29051E-10-1.73743E-10 3.86417E-09
 -1   1002230 8.51318E-11 9.25163E-11 1.27601E-09
 -1   1002231-4.90246E-11 8.51627E-11 4.01244E-09
 -1   1002233 2.57907E-10-2.53784E-11-1.15014E-09
 -1   1002234 6.80377E-10 1.82521E-11 2.52076E-09
 -1   1002236 2.36160E-10-1.08877E-10-7.59333E-10
 -1   1002237 3.37245E-10 5.21764E-11 2.02095E-09
 -1   1002239 3.69987E-10-2.72445E-10 2.03286E-09
 -1   1002240 5.80112E-10-2.23624E-10-4.07454E-10
 -1   1002242-4.22010E-11 9.22059E-11 2.74294E-09
 -1   1002243 1.45316E-10-2.35870E-10 1.16790E-09
 -1   1002245 1.41253E-10 1.36981E-10 5.44530E-10
 -1   1002246-5.09299E-10 9.41382E-11-2.20761E-10
 -1   1002248 1.61567E-10 2.06972E-10 6.05501E-09
 -1   1002249-2.32520E-10-5.06470E-10 1.35386E-09
 -1   1002251 1.19478E-10 8.12521E-10 2.06612E-09
 -1   1002252-3.99031E-10 5.03907E-11 3.83086E-09
 -1   1002254 6.32697E-11-6.76441E-10-5.22721E-10
 -1   1002255 1.64492E-10-1.09948E-10-2.09116E-10
 -1   1002257 2.04156E-10 9.97763E-11 1.12649E-09
 -1   1002258-2.12072E-10 2.96448E-11-2.04178E-09
 -1   1002260-4.32271E-11-2.18812E-11 1.68705E-09
 -1   1002261 3.04024E-10-1.01788E-10 3.94436E-09
 -1   1002263-5.25489E-11 2.52587E-12-1.05834E-09
 -1   1002264-4.02362E-10-2.40834E-10-2.39949E-09
 -1   1002266 5.55156E-11-2.04429E-10-1.43995E-09
 -1   1002267 6.97165E-10-1.04651E-10-1.93576E-10
 -1   1002269 2.68942E-11 1.40687E-10-2.24362E-09
 -1   1002270 1.96380E-10-3.49324E-10 4.64848E-10
 -1   1002272-1.49436E-10 2.23528E-10-1.57278E-09
 -1   1002273-2.03499E-10-1.50592E-10-5.71600E-09
 -1   1002275 2.28190E-10-1.66721E-10-4.30595E-09
 -1   1002276-7.55084E-11 3.48774E-11 6.54691E-10
 -1   1002278-1.03332E-10 1.27462E-12 1.53995E-10
 -1   1002279-2.02122E-11-8.19245E-11 4.34358E-09
 -1   1002281-3.17270E-11-8.01638E-11 3.26159E-09
 -1   1002282 7.85709E-11 3.81077E-11 5.90281E-12
 -1   1002284-2.14759E-11-5.69986E-11-3.21274E-11
 -1   1002285-8.74444E-11 1.96324E-12-1.26357E-10
 -1   1002287 1.43084E-10 1.88656E-11-3.61873E-11
 -1   1002288 3.03722E-10-9.57929E-12 9.43343E-11
 -1   1002290-1.81321E-10 7.20434E-11 1.28820E-10
 -1   1002291-5.45130E-10-5.53172E-11-1.27041E-11
 -1   1002293 1.25383E-10 6.54443E-12 3.87451E-10
 -1   1002294-1.03347E-10 2.59690E-11 1.88340E-10
 -1   1002296 1.82764E-10 1.05813E-11 5.42243E-10
 -1   1002297-8.20819E-10-2.32289E-11-1.48565E-11
 -1   1002299-4.46566E-11-1.04525E-11 7.77215E-10
 -1   1002300-1.51476E-10-8.69123E-11-1.07769E-10
 -1   1002302-4.43035E-10 1.47556E-10 5.53933E-10
 -1   1002303 6.13148E-10-1.81024E-10-6.61360E-10
 -1   1002305 2.95443E-11 1.61651E-10 6.81566E-10
 -1   1002306-1.12400E-09 1.54949E-10 2.36418E-10
 -1   1002308-4.24424E-10-1.00480E-10-6.01036E-10
 -1   1002309-2.44039E-10-2.48195E-11 1.41428E-09
 -1   1002311 1.40382E-10-3.88582E-11-4.42137E-10
 -1   1002312-2.20230E-10 4.25392E-11 7.94063E-10
 -1   1002314-2.54779E-10 8.98117E-11 7.52441E-10
 -1   1002315-5.46345E-10 6.41976E-11 9.35038E-12
 -1   1002317 2.30708E-10-4.27004E-11 1.25146E-09
 -1   1002318 2.10871E-10-1.00127E-10-1.98034E-09
 -1   1002320 9.71748E-10 7.83580E-12-7.75440E-10
 -1   1002321-2.77345E-10 4.21596E-11 2.51718E-09
 -1   1002323-3.19698E-10 6.75571E-11 1.79200E-09
 -1   1002324-4.65066E-10 1.42673E-11-5.89207E-10
 -1   1002326 1.21713E-10 2.98171E-11-1.24989E-10
 -1   1002327-5.93905E-10 1.36582E-10 2.22269E-10
 -1   1002329-6.37225E-10-1.25253E-10-1.60691E-09
 -1   1002330-3.12327E-10-3.96782E-11 1.81864E-09
 -1   1002332 6.81623E-12 1.11342E-10 1.22809E-09
 -1   1002333-7.82495E-10-9.07470E-11-1.85107E-09
 -1   1002335-4.41969E-11-7.62386E-11-2.09011E-10
 -1   1002336 3.45711E-10-1.20401E-10 3.54260E-10
 -1   1002338-1.80197E-10 4.94661E-11 1.49145E-09
 -1   1002339-7.83918E-10-1.09563E-11 1.34777E-09
 -1   1002341-9.74765E-11-1.84897E-10 6.58376E-10
 -1   1002342-3.65202E-11 2.91144E-10 3.06784E-09
 -1   1002344-1.41557E-10-3.10309E-11 9.74497E-10
 -1   1002345-1.99962E-10 1.55464E-10 3.08021E-10
 -1   1002347-1.88243E-10-4.26223E-11 1.11146E-09
 -1   1002348-4.86535E-10 1.60048E-10 2.89021E-10
 -1   1002350-1.48637E-10-1.10764E-10 1.40842E-09
 -1   1002351-3.49356E-10 1.25095E-10-2.21211E-09
 -1   1002353-5.52420E-11 2.09177E-12 3.42720E-09
 -1   1002354-4.24156E-10 8.65056E-11-6.62087E-11
 -1   1002356 2.45937E-10 1.15200E-10 6.98529E-10
 -1   1002357 6.65685E-10 3.63680E-11-1.96970E-09
 -1   1002359-1.30978E-11 1.01863E-10-2.53192E-10
 -1   1002360 5.04770E-10-4.63421E-11 5.13852E-10
 -1   1002362-2.55082E-10-1.53099E-11 1.02959E-09
 -1   1002363-2.75720E-10-9.07477E-11-1.53977E-09
 -1   1002365-7.37401E-11 3.50786E-11-2.61758E-09
 -1   1002366-1.56067E-10-4.59530E-11 1.79548E-09
 -1   1002368-3.68995E-10 2.31945E-10 3.78640E-09
 -1   1002369-3.68830E-10-1.58460E-11-1.19491E-09
 -1   1002371 8.49299E-11 1.45492E-10 3.26013E-09
 -1   1002372-9.72178E-11-3.26206E-11 6.89614E-10
 -1   1002374 3.71709E-10 1.49157E-10 1.95476E-09
 -1   1002375-6.36995E-10 2.99730E-11 1.45939E-10
 -1   1002377 1.48477E-10-2.01900E-11 8.70858E-10
 -1   1002378-2.44041E-10 4.80640E-11-7.20590E-11
 -1   1002380-2.14743E-10 8.94640E-11-2.45283E-09
 -1   1002381-2.69083E-10-8.93381E-11 3.40135E-09
 -1   1002383 5.48739E-11-7.67971E-11 6.28013E-10
 -1   1002384 3.09381E-11-1.67597E-10 9.50201E-10
 -1   1002386-4.32862E-10 9.72459E-11-5.50897E-09
 -1   1002387-1.29795E-10-2.64050E-10-1.17935E-09
 -1   1002389 5.47876E-10 7.85111E-11-1.10718E-10
 -1   1002390-1.64147E-10 1.19921E-10 1.49317E-09
 -1   1002392-5.87150E-10 3.68908E-10 2.39189E-09
 -1   1002393 3.44670E-10-1.59836E-10-1.19383E-09
 -1   1002395-2.38533E-10 5.27759E-10-1.20537E-09
 -1   1002396-3.27930E-10-1.75883E-11-1.88324E-09
 -1   1002398 5.25743E-10-1.20446E-10-1.06619E-09
 -1   1002399-2.11600E-10-6.17156E-11 4.03495E-09
 -1   1002401-2.21512E-10 4.01675E-11 1.71108E-09
 -1   1002402-1.91197E-10 3.37333E-12 4.54328E-09
 -1   1002404 1.14554E-10-3.04865E-11 6.20030E-09
 -1   1002405-7.69405E-10 1.30479E-11 2.50349E-09
 -1   1002407-1.86033E-10 8.50545E-11 2.48936E-10
 -1   1002408-2.21340E-11 1.58589E-10 2.80670E-09
 -1   1002410-3.01217E-10 5.22697E-11-2.84909E-10
 -1   1002411 6.95276E-10 8.68289E-10-1.72359E-09
 -1   1002413 1.79308E-11-1.00955E-09-1.81236E-09
 -1   1002414-6.61878E-11 6.10076E-11-1.44176E-09
 -1   1002416 2.53854E-10-1.30858E-10 1.68525E-09
 -1   1002417 3.34696E-10 4.03722E-11-4.78055E-09
 -1   1002419 1.76719E-10 8.05209E-11 9.28621E-09
 -1   1002420 3.13364E-11 2.18682E-10-2.13112E-10
 -1   1002422-7.03217E-10 1.28709E-10-4.22452E-09
 -1   1002423 5.25539E-10 8.10143E-10-6.13411E-09
 -1   1002425-3.08167E-10-3.95628E-10-8.26537E-10
 -1   1002426-7.21520E-10 5.09321E-11 3.60358E-10
 -1   1002428 4.94157E-11 1.50039E-10 5.46905E-09
 -1   1002429 3.87385E-10 4.94632E-10-2.69376E-09
 -1   1002431 2.31711E-10 4.82780E-11 3.92666E-09
 -1   1002432 1.02704E-10 5.71351E-12 5.01699E-12
 -1   1002434-7.46202E-10-2.80487E-11 2.97917E-12
 -1   1002435-8.55660E-11 1.04103E-11 2.24051E-10
 -1   1002437 1.06228E-10-3.91564E-12 2.92046E-11
 -1   1002438-8.60429E-11-3.40480E-11 1.60752E-10
 -1   1002440 1.91540E-10 1.91122E-12-3.23290E-10
 -1   1002441 3.27815E-11-4.05425E-11 4.32514E-10
 -1   1002443-5.66770E-10 4.26988E-12 2.63474E-10
 -1   1002444 3.26150E-11 5.82519E-13-2.15503E-12
 -1   1002446 9.05620E-11 2.44202E-11 4.13073E-10
 -1   1002447-2.66942E-11 2.42841E-11-1.23899E-10
 -1   1002449-1.05161E-10-2.12119E-11 1.77569E-12
 -1   1002450 3.24819E-10-2.29404E-12-2.19608E-10
 -1   1002452-2.93867E-10-1.15631E-11 4.81058E-10
 -1   1002453-1.98973E-10-3.09651E-11 6.37361E-10
 -1   1002455 2.99885E-10 3.77795E-11 1.09038E-10
 -1   1002456 1.82058E-10-8.07752E-11-1.78567E-10
 -1   1002458 4.47812E-10-8.46341E-12-5.51664E-10
 -1   1002459 4.27991E-10-3.69336E-11 4.27482E-10
 -1   1002461-4.18986E-10-6.57547E-11-1.72146E-09
 -1   1002462 6.36555E-10 3.45983E-11 8.53818E-11
 -1   1002464 5.55071E-10-2.78875E-11 4.09712E-10
 -1   1002465 2.95529E-10 2.25401E-10 1.02353E-09
 -1   1002467 2.60432E-10-2.21410E-10-1.14897E-09
 -1   1002468 1.29042E-10 1.64852E-10 1.22151E-09
 -1   1002470 6.45152E-10-1.66440E-10 1.54349E-09
 -1   1002471 7.87170E-10-3.51009E-11-9.72376E-10
 -1   1002473 2.16993E-10-1.08564E-10-5.72429E-10
 -1   1002474 7.81629E-11-2.32243E-12 1.23503E-09
 -1   1002476-8.37015E-12 6.86308E-11 6.90566E-10
 -1   1002477 7.97783E-10 6.52464E-11-1.41881E-09
 -1   1002479 1.71868E-10 2.05461E-11-1.03592E-10
 -1   1002480 5.17762E-11 7.10610E-11 1.14160E-09
 -1   1002482-4.17215E-10 1.93286E-10 1.87080E-10
 -1   1002483-1.28275E-11-1.22511E-11 8.38990E-10
 -1   1002485-3.29991E-11 5.30593E-11-5.24199E-10
 -1   1002486 4.86251E-10 3.19958E-12-1.66627E-10
 -1   1002488 5.01646E-10 4.31477E-11-1.01724E-09
 -1   1002489-4.98462E-10 8.46730E-11 8.52062E-10
 -1   1002491 1.73002E-11-5.54035E-12-2.03608E-09
 -1   1002492 2.00511E-10-8.07453E-11 6.60411E-11
 -1   1002494-1.50618E-10 2.66374E-10-2.15045E-09
 -1   1002495 2.97150E-10 3.25554E-11-1.08046E-09
 -1   1002497 1.77811E-10-8.79509E-11 2.01553E-09
 -1   1002498-1.24468E-10-6.52613E-11 1.69154E-09
 -1   1002500-3.05188E-10-4.61559E-11 2.14887E-09
 -1   1002501 2.20094E-10-1.33446E-10-2.10615E-09
 -1   1002503 1.27777E-11 8.80067E-12-1.43491E-09
 -1   1002504 2.82097E-10-4.16989E-10-3.38209E-10
 -1   1002506-3.52090E-11 4.22416E-11 2.37740E-09
 -1   1002507-8.81319E-10-4.32112E-11 4.64380E-10
 -1   1002509-5.57449E-11-7.96773E-11-8.65501E-10
 -1   1002510 1.96870E-10 9.26581E-11-7.42177E-10
 -1   1002512-2.55241E-10 1.27421E-10 1.30018E-09
 -1   1002513 5.95106E-10-2.71379E-10 2.90999E-10
 -1   1002515 4.51823E-10 2.35091E-10 2.31533E-09
 -1   1002516 6.24205E-10 3.49372E-10-2.80751E-09
 -1   1002518-5.72276E-10 1.39895E-10-9.37431E-10
 -1   1002519-2.49600E-10-1.08420E-10 2.61209E-09
 -1   1002521 3.22421E-11 1.00776E-10-2.73032E-09
 -1   1002522 4.44797E-10-1.66171E-10 1.20478E-09
 -1   1002524-2.20826E-10 1.01260E-10-4.21672E-10
 -1   1002525 2.19702E-11 6.26726E-10-3.16533E-09
 -1   1002527-1.51533E-10-4.67734E-10-1.34495E-09
 -1   1002528 4.10820E-10 3.08029E-11-2.19030E-10
 -1   1002530-3.10145E-10 1.04551E-10 1.40133E-09
 -1   1002531 4.74427E-12 2.59595E-10 8.60389E-10
 -1   1002533-4.60056E-10-5.10218E-11-1.52847E-09
 -1   1002534-1.64049E-13-5.30020E-10-1.49643E-09
 -1   1002536-1.76351E-10-5.05014E-11-7.73941E-10
 -1   1002537-7.84729E-11-2.54445E-10 3.50794E-09
 -1   1002539 9.23983E-11 6.20912E-11 4.70684E-09
 -1   1002540-2.97207E-10-2.61653E-10 1.41238E-09
 -1   1002542 6.00600E-10-5.84451E-10 1.34156E-09
 -1   1002543 4.58608E-10 1.13104E-10 6.61433E-09
 -1   1002545-3.49435E-10-8.84052E-11-1.54912E-09
 -1   1002546-3.51382E-10 2.27045E-11-7.83195E-10
 -1   1002548 9.28667E-12-1.99450E-11 1.39180E-09
 -1   1002549-3.44102E-11 1.00459E-10 9.76015E-10
 -1   1002551-5.34701E-10-1.94987E-10 9.83294E-10
 -1   1002552-1.70925E-11 2.59525E-10 1.85769E-09
 -1   1002554-5.50331E-11 3.81662E-11 1.56723E-09
 -1   1002555-2.92600E-10-8.40345E-11-2.65750E-11
 -1   1002557 2.81912E-10-6.13787E-12 7.36464E-10
 -1   1002558-2.30671E-10-1.70299E-11-1.17126E-09
 -1   1002560-1.23671E-10 5.73360E-12 2.94494E-09
 -1   1002561-1.15694E-10 3.66230E-11 3.46614E-09
 -1   1002563 1.32416E-10-9.10715E-12 2.48294E-09
 -1   1002564 1.71091E-10-2.34072E-10 1.85423E-09
 -1   1002566 2.43756E-10-2.20012E-10 1.61198E-09
 -1   1002567-1.16817E-11-1.93589E-11 5.13193E-09
 -1   1002569-8.24997E-11 2.06357E-11 9.35419E-10
 -1   1002570 1.22752E-10-3.58290E-12 7.02235E-10
 -1   1002572-7.68289E-11-5.37612E-12 4.05722E-09
 -1   1002573 4.79544E-10 1.45082E-11 1.90532E-09
 -1   1002575 2.08417E-10-3.53809E-12 2.85128E-09
 -1   1002576 2.96495E-10-8.44363E-12-3.44440E-09
 -1   1002578-9.06094E-11-1.23129E-11 1.99633E-09
 -1   1002579 4.63570E-10 1.42206E-11 4.42096E-10
 -1   1002581-4.89299E-10-1.94116E-11 4.61170E-09
 -1   1002582 1.65696E-10 1.18544E-10 4.77580E-11
 -1   1002584-5.23350E-10-5.34289E-11 8.75776E-11
 -1   1002585 2.25368E-10-8.24202E-12 1.54970E-10
 -1   1002587-1.05071E-11-9.26481E-11-5.90991E-11
 -1   1002588 3.17614E-10-5.47850E-11 2.08966E-10
 -1   1002590 2.48719E-10-6.56154E-12 6.11431E-11
 -1   1002591-4.83431E-10-7.00924E-11-5.12252E-11
 -1   1002593 5.52617E-10 3.60645E-11 2.72988E-11
 -1   1002594 2.30273E-10-6.57620E-12 4.96742E-10
 -1   1002596 2.59227E-10-8.31444E-12 1.06837E-10
 -1   1002597 6.57692E-11-3.05550E-11-2.28916E-10
 -1   1002599 3.33575E-10 6.06551E-11-1.05001E-10
 -1   1002600-3.02724E-10-3.85209E-11 1.67138E-10
 -1   1002602 1.47261E-11 7.06202E-11 4.52633E-10
 -1   1002603-2.12332E-10-2.86745E-11-9.98338E-12
 -1   1002605 1.23351E-09-2.95091E-11 2.57872E-10
 -1   1002606 3.80180E-10-2.26462E-11 5.91421E-10
 -1   1002608-1.17737E-11 3.59818E-11 1.91907E-10
 -1   1002609 2.00530E-10 2.06575E-10 5.52894E-12
 -1   1002611-3.13723E-10-1.07203E-10-3.42842E-10
 -1   1002612-2.35323E-10 1.20771E-10-5.47283E-10
 -1   1002614-1.71459E-10-6.22023E-11-7.80156E-10
 -1   1002615-3.57323E-10 1.28507E-10 9.74919E-10
 -1   1002617 4.07954E-12 9.26305E-11 7.07729E-10
 -1   1002618 2.62709E-10-8.34976E-12 1.45673E-09
 -1   1002620-2.89790E-10-1.96525E-10 7.80200E-10
 -1   1002621-1.05464E-10 2.71983E-10 1.70764E-09
 -1   1002623 2.56527E-10 1.87695E-10-8.02268E-10
 -1   1002624-3.10479E-10 4.84008E-11 5.53194E-10
 -1   1002626-2.16593E-10-1.94821E-10 8.29530E-10
 -1   1002627 4.57591E-10 6.33430E-11-8.04571E-10
 -1   1002629-1.26864E-10-7.69192E-11 9.63624E-10
 -1   1002630 3.70681E-10-1.89363E-11 6.94288E-10
 -1   1002632-5.92771E-10-7.52428E-11-8.65813E-10
 -1   1002633-3.86451E-11 1.10828E-10-1.92432E-09
 -1   1002635-1.63197E-10-2.63481E-12 1.35375E-09
 -1   1002636-1.79543E-10 1.49615E-12-1.39324E-10
 -1   1002638 2.79806E-10-3.98767E-11 7.47543E-10
 -1   1002639 1.44862E-10 5.05339E-11 2.41517E-09
 -1   1002641 6.42797E-10-4.38603E-11-3.04150E-10
 -1   1002642 3.20681E-10 6.78354E-13 3.82751E-09
 -1   1002644-1.52169E-10 2.99456E-10 1.82090E-09
 -1   1002645-2.72921E-10-8.76433E-11-6.68812E-10
 -1   1002647 3.79392E-10 2.03737E-10-1.66285E-09
 -1   1002648-2.28469E-10-1.79436E-10 2.05329E-09
 -1   1002650 5.64400E-10 3.13484E-10-3.33673E-10
 -1   1002651 1.01944E-10 5.30522E-11 1.90109E-09
 -1   1002653 1.57291E-10-1.16751E-10-3.20688E-10
 -1   1002654 1.79121E-10 4.63810E-11 3.26659E-09
 -1   1002656-2.40262E-10-1.15604E-10-1.04233E-09
 -1   1002657-7.95783E-10-3.71387E-11 2.45779E-09
 -1   1002659 8.32524E-11 1.05628E-11 2.35507E-10
 -1   1002660-4.45254E-10-1.18656E-10-1.40373E-09
 -1   1002662 6.54371E-10-1.88945E-11 3.75584E-09
 -1   1002663 1.92691E-10 3.41704E-10-2.61162E-09
 -1   1002665-1.62861E-12 1.52579E-10 9.54026E-10
 -1   1002666 6.03039E-10 1.84313E-10-1.84279E-09
 -1   1002668-5.13760E-10 1.54956E-10 1.07030E-09
 -1   1002669 3.04287E-10-3.21865E-10 2.11420E-09
 -1   1002671 2.22861E-10-2.20043E-10 3.92035E-11
 -1   1002672 4.58346E-13 8.77777E-13-6.53443E-11
 -1   1002674 1.22822E-12-4.66728E-11-4.10624E-10
 -1   1002675 2.15192E-10 9.01130E-11 8.76666E-10
 -1   1002677 2.90581E-11-1.19477E-11-2.24935E-09
 -1   1002678 4.76204E-10 3.24940E-11-5.59430E-10
 -1   1002680-2.38385E-10-1.85454E-10 1.63061E-09
 -1   1002681-4.65417E-10-1.07891E-10 4.58371E-10
 -1   1002683 3.71336E-10-2.77427E-10 4.51796E-10
 -1   1002684-2.87541E-10 2.16250E-12 2.30890E-09
 -1   1002686 2.54451E-10-5.31806E-11-6.85652E-11
 -1   1002687-1.46357E-10 3.84001E-11 4.32898E-09
 -1   1002689 4.17624E-10-5.29838E-13 1.16085E-09
 -1   1002690-5.61826E-10 3.28319E-10 1.73636E-09
 -1   1002692 1.05879E-10-3.64215E-10 5.80678E-10
 -1   1002693-1.18473E-11 2.43954E-10 3.54964E-09
 -1   1002695 4.97767E-12-1.75221E-10-8.10027E-10
 -1   1002696 3.18820E-10 2.94433E-10 1.72797E-09
 -1   1002698-3.46753E-10 7.86979E-11-3.79200E-09
 -1   1002699 1.18825E-10 2.10442E-10-5.57689E-10
 -1   1002701 4.02562E-10-3.25562E-10 9.22109E-10
 -1   1002702 1.00959E-10-1.60996E-10-4.65033E-10
 -1   1002704 1.98049E-10 4.20712E-10-5.70623E-09
 -1   1002705-3.42655E-10-2.59036E-10 1.40812E-09
 -1   1002707-3.65362E-10 2.23949E-10-3.22013E-09
 -1   1002708 2.42537E-10-2.00864E-10-2.64487E-09
 -1   1002710-5.97558E-10 2.55135E-10 1.14429E-09
 -1   1002711 4.12526E-10 1.93681E-10 3.09485E-09
 -1   1002713-1.08331E-10 4.24616E-10 3.69618E-10
 -1   1002714-7.69487E-11 4.48193E-11 2.98202E-10
 -1   1002716-3.63262E-10-6.98807E-11 5.21606E-09
 -1   1002717-7.10658E-10-3.96810E-10 7.34277E-09
 -1   1002719-3.37774E-10-1.47048E-10 4.84734E-09
 -1   1002720 1.99478E-10-9.67930E-11 3.85394E-09
 -1   1002722 2.05980E-10 2.69190E-10-1.44820E-09
 -1   1002723-1.90946E-11 2.25661E-11 8.79229E-10
 -1   1002725-4.55372E-10-6.23014E-10-2.63428E-09
 -1   1002726-9.31886E-11 6.57585E-11 4.74952E-09
 -1   1002728-2.21526E-10 9.02494E-11-1.44451E-10
 -1   1002729 1.38122E-09 2.21682E-10 8.28802E-09
 -1   1002731-5.08240E-10 4.48986E-11 6.87645E-09
 -1   1002732 1.27256E-10 2.28355E-11 6.19458E-11
 -1   1002734-3.28052E-10-2.30349E-10 6.21567E-11
 -1   1002735 2.64376E-10-3.06246E-11 3.47380E-11
 -1   1002737-3.30844E-10-3.03599E-11-6.77542E-11
 -1   1002738 4.95556E-10 2.53647E-11-1.09127E-10
 -1   1002740-9.28596E-13 6.11225E-11 1.94832E-11
 -1   1002741-3.02349E-10 7.99230E-11 9.19913E-11
 -1   1002743-2.82835E-10-1.61109E-10-6.54098E-11
 -1   1002744 8.32470E-11-7.37971E-11 4.86716E-11
 -1   1002746-3.61333E-10-2.43339E-10-4.36282E-10
 -1   1002747 3.39569E-10 2.83110E-10-5.78072E-10
 -1   1002749-8.32927E-10-6.85426E-11-7.72389E-10
 -1   1002750 1.08376E-10-4.42766E-11 3.18845E-10
 -1   1002752 4.52213E-10-5.39046E-11 8.29090E-11
 -1   1002753-5.65221E-10 2.95413E-11 6.59882E-11
 -1   1002755 2.00479E-10 1.27369E-11 6.55944E-10
 -1   1002756 1.11457E-10 7.02647E-11 1.50489E-10
 -1   1002758 1.70354E-11-1.72049E-10 1.08243E-09
 -1   1002759 1.06888E-10 4.64981E-11-1.57588E-10
 -1   1002761 2.82695E-13-3.17109E-12-4.93331E-10
 -1   1002762 8.92220E-11-2.84732E-11 4.08077E-10
 -1   1002764-1.60342E-10-1.82962E-10-4.16990E-10
 -1   1002765-3.14407E-10 8.40317E-12 3.54781E-10
 -1   1002767 4.42539E-10-1.06635E-10 8.05582E-11
 -1   1002768 1.60060E-10 9.29681E-11 1.35547E-09
 -1   1002770 4.05399E-10 2.74671E-10 1.72979E-09
 -1   1002771 1.52250E-10 1.37014E-11-3.20905E-10
 -1   1002773 7.57683E-11-2.56826E-10 8.12311E-10
 -1   1002774 3.42739E-10 2.46469E-11 1.17474E-09
 -1   1002776-1.14282E-10 3.49358E-11-5.50857E-10
 -1   1002777 4.92930E-10 2.30568E-10 6.97416E-10
 -1   1002779-6.11067E-10-9.08658E-11 6.89973E-10
 -1   1002780 3.81894E-10-1.40685E-11-2.90223E-10
 -1   1002782-7.89438E-11-1.82723E-10 1.49990E-09
 -1   1002783-1.05529E-10 8.41985E-12-1.04533E-09
 -1   1002785-4.06064E-10 5.69716E-11 2.04073E-09
 -1   1002786-4.40281E-10-2.58424E-10-1.67369E-10
 -1   1002788-4.65229E-11 1.86565E-10 2.33403E-09
 -1   1002789-2.34867E-10 9.76557E-11 1.04083E-09
 -1   1002791 2.97981E-10-5.15141E-11 3.27368E-10
 -1   1002792-1.85003E-10-9.53633E-11 3.17509E-10
 -1   1002794 1.81684E-10-3.86431E-11-4.37736E-10
 -1   1002795-2.78296E-10-6.70313E-12-1.43488E-09
 -1   1002797 2.18347E-10 5.89391E-11-1.14238E-10
 -1   1002798-3.59821E-10-4.41195E-11 1.25255E-09
 -1   1002800 3.40012E-10-5.75668E-11 6.34723E-10
 -1   1002801 2.01616E-10 2.73025E-10-1.45264E-09
 -1   1002803-4.02966E-11-1.09592E-10-2.09929E-09
 -1   1002804 2.71736E-10-7.38862E-11-1.22560E-09
 -1   1002806 1.77234E-10-1.88483E-11 1.91685E-09
 -1   1002807-5.19814E-10 1.16889E-11-3.36095E-09
 -1   1002809-2.85251E-10-5.51116E-11 7.67183E-11
 -1   1002810-8.94720E-11-1.53726E-10 2.59138E-09
 -1   1002812 6.48486E-10 1.56450E-10-5.53305E-10
 -1   1002813 1.81777E-11-4.38538E-11 2.21491E-09
 -1   1002815 3.23394E-10-4.15177E-11 3.30298E-10
 -1   1002816-6.05138E-11-6.52221E-11-6.17094E-11
 -1   1002818 1.40031E-10-9.96484E-11 1.14828E-09
 -1   1002819 6.04747E-11-6.00923E-11 2.62458E-09
 -1   1002821 1.62760E-10-1.92430E-10 2.18940E-09
 -1   1002822 3.73660E-10 3.94171E-11 2.20586E-09
 -1   1002824-1.15848E-10-8.32543E-11 9.31341E-10
 -1   1002825 1.77351E-10-2.24885E-11-3.10836E-09
 -1   1002827-2.21423E-10-1.39331E-10-6.14924E-10
 -1   1002828 3.68535E-10 1.58117E-10 2.31509E-09
 -1   1002830-7.66230E-11-1.25454E-10 1.03019E-09
 -1   1002831 2.25231E-10 1.52432E-10 4.13299E-09
 -1   1002833 1.80329E-10-1.18657E-10 1.96913E-09
 -1   1002834-3.50155E-10-4.90559E-11 3.91437E-09
 -1   1002836 1.15664E-10 1.15849E-11 8.35641E-10
 -1   1002837-3.09724E-10 2.28385E-10-6.21676E-10
 -1   1002839-2.34524E-12-3.26614E-10-2.95342E-10
 -1   1002840-9.51678E-11-2.09681E-11 2.97771E-09
 -1   1002842-1.14642E-10-1.06349E-10 8.63517E-10
 -1   1002843 2.36756E-10 4.23298E-12 1.62984E-09
 -1   1002845 2.49183E-10 7.22271E-11-1.07931E-09
 -1   1002846 3.80561E-10 2.70623E-10 7.39544E-10
 -1   1002848-8.22063E-10-2.56802E-10 1.94117E-09
 -1   1002849-3.29146E-10 5.02257E-11 3.02679E-09
 -1   1002851 2.65359E-10 4.76019E-11-1.27389E-09
 -1   1002852-4.12622E-10-2.60445E-10 2.20786E-09
 -1   1002854 3.97235E-10 9.55254E-11-2.38578E-11
 -1   1002855-1.94094E-10-2.70820E-11 5.12888E-09
 -1   1002857 7.60868E-10 1.31421E-10-1.26526E-10
 -1   1002858 3.11925E-10-7.43264E-11 1.50045E-09
 -1   1002860-1.79469E-11-1.35729E-10 9.92684E-10
 -1   1002861 9.49075E-11 8.62332E-11 1.34639E-09
 -1   1002863-5.22189E-10 4.28125E-12 7.07758E-10
 -1   1002864 1.12707E-10 3.64478E-11-1.26154E-09
 -1   1002866-9.68305E-11 2.07269E-10-2.24879E-09
 -1   1002867-2.13613E-11-5.78638E-11 2.28860E-09
 -1   1002869 3.13748E-10 1.12529E-10-9.95509E-10
 -1   1002870-1.80284E-10 4.22457E-11 8.76421E-10
 -1   1002872-1.02884E-10 1.75649E-10 2.63277E-09
 -1   1002873 1.53588E-10-2.71722E-11 1.99463E-09
 -1   1002875-3.06066E-10 4.19337E-11-3.12799E-09
 -1   1002876-6.04513E-11-8.74133E-11 8.31992E-09
 -1   1002878-3.96308E-10-5.93795E-11-6.49039E-09
 -1   1002879 5.58891E-10-1.26939E-10 4.39702E-09
 -1   1002881 4.77482E-11 4.99315E-11-2.43895E-10
 -1   1002882 1.87482E-10-2.16764E-10-1.10750E-10
 -1   1002884 6.42236E-11 1.30079E-10 1.03766E-10
 -1   1002885-8.57822E-11-1.91715E-10-2.41898E-11
 -1   1002887 1.47933E-10 1.44021E-10 1.49509E-10
 -1   1002888 1.81374E-10 1.73947E-10-4.58780E-11
 -1   1002890-2.75698E-10 3.37597E-11 1.64097E-10
 -1   1002891 1.17950E-10 2.97516E-10-8.04031E-11
 -1   1002893-1.68671E-10 1.44605E-11 6.27710E-11
 -1   1002894 2.15738E-10 2.54506E-10 2.34457E-10
 -1   1002896-4.42005E-10-5.75975E-11 2.72421E-10
 -1   1002897-3.49884E-11 3.25230E-10 1.75550E-10
 -1   1002899-2.72185E-11-1.50133E-10 1.16208E-10
 -1   1002900 1.85771E-10 2.26591E-10 4.53409E-10
 -1   1002902 1.62969E-12 8.76941E-11-4.33210E-10
 -1   1002903 4.74821E-11 3.94708E-11 1.25167E-10
 -1   1002905-4.72255E-10-3.20643E-10 4.75784E-10
 -1   1002906 7.61263E-11-1.08768E-10-2.67846E-10
 -1   1002908 1.79040E-10 1.52801E-10 9.79368E-10
 -1   1002909-4.13876E-11 2.95956E-11 3.35862E-11
 -1   1002911-2.27155E-10-5.63757E-11-9.51020E-10
 -1   1002912-3.03522E-10 2.81135E-10-4.36886E-10
 -1   1002914-2.16119E-11 1.27683E-10 9.64923E-10
 -1   1002915 6.95193E-10 1.23354E-11-5.79311E-10
 -1   1002917 1.32712E-10-1.75803E-10-3.85444E-10
 -1   1002918-1.57989E-10-2.94936E-10-3.44039E-10
 -1   1002920 4.22306E-10 1.32466E-10-2.95022E-10
 -1   1002921-1.48465E-10-3.68706E-11-9.99780E-10
 -1   1002923-4.31176E-10 7.86170E-11 1.18203E-09
 -1   1002924 1.23142E-10-1.53056E-10 6.16237E-10
 -1   1002926 2.66685E-11 1.47857E-10 7.77884E-10
 -1   1002927-1.94803E-10 2.93160E-11-2.28437E-09
 -1   1002929 1.38015E-10-3.65979E-11 5.96712E-10
 -1   1002930 1.25401E-10 3.34316E-11-1.28368E-09
 -1   1002932 3.60510E-10 3.74983E-12-4.29827E-10
 -1   1002933 4.51166E-10 3.57184E-13-1.15752E-09
 -1   1002935-7.53080E-11 1.05811E-10 2.51499E-10
 -1   1002936-3.62196E-11 1.36803E-10-9.16326E-10
 -1   1002938 1.23760E-10-1.21853E-10 5.65789E-10
 -1   1002939 1.17758E-10 1.82284E-12-1.20500E-09
 -1   1002941 2.83944E-11-5.58509E-11 3.10493E-10
 -1   1002942-3.46811E-10-4.79634E-10-6.63455E-10
 -1   1002944 3.46832E-11 2.04406E-10-1.15471E-09
 -1   1002945-1.46379E-10-4.37632E-10 1.94217E-09
 -1   1002947 9.47475E-11 2.04443E-10-6.39896E-10
 -1   1002948-3.33311E-10 9.29204E-12-3.91043E-10
 -1   1002950 3.83632E-11 3.65465E-10-6.14216E-10
 -1   1002951 3.01039E-10 1.34236E-10-2.71733E-10
 -1   1002953 2.16277E-12-2.53505E-10 1.82073E-09
 -1   1002954 2.34346E-10 2.25080E-11 1.03388E-09
 -1   1002956-1.93981E-10-1.85818E-10 5.21050E-11
 -1   1002957 3.06294E-10-2.81192E-10 4.76648E-10
 -1   1002959 1.47751E-11 9.20891E-11 1.12199E-09
 -1   1002960-2.95517E-10-2.44994E-10-1.85927E-09
 -1   1002962-1.40304E-10 3.25023E-11 6.75190E-11
 -1   1002963 8.54597E-12-2.38488E-10 2.42500E-10
 -1   1002965-9.97834E-11 9.66414E-12-4.25849E-10
 -1   1002966 2.38129E-10 4.73730E-10 3.24101E-09
 -1   1002968 9.74940E-11-8.23184E-11 4.44295E-09
 -1   1002969 9.56727E-11 1.31111E-10 1.14290E-09
 -1   1002971 2.55155E-11 1.68187E-10 1.13924E-09
 -1   1002972 9.22816E-11-2.23328E-10 1.58931E-09
 -1   1002974-1.34814E-10 5.99014E-10 1.22608E-09
 -1   1002975-2.32848E-10-2.84320E-10 1.61364E-09
 -1   1002977 2.59071E-11 4.00856E-10 3.78601E-09
 -1   1002978 4.04775E-12 1.98634E-10-3.14119E-09
 -1   1002980-1.35673E-10 1.19010E-10 3.66962E-10
 -1   1002981 4.57079E-11-2.01153E-11-1.60720E-09
 -1   1002983-2.60824E-10 1.24528E-10 3.16556E-09
 -1   1002984-2.92718E-10 1.77019E-10-1.23621E-09
 -1   1002986 3.76581E-10 1.92204E-10 3.08062E-10
 -1   1002987 8.16280E-11 2.71545E-11 1.28853E-08
 -1   1002989 2.64595E-10-1.76606E-10-2.10473E-09
 -1   1002990 3.39545E-10-3.30381E-10 5.60406E-09
 -1   1002992-2.75083E-10-1.30028E-10-2.91428E-09
 -1   1002993-1.40860E-10 3.19121E-10-2.34461E-09
 -1   1002995 1.38223E-10 8.90486E-12-2.97300E-10
 -1   1002996-1.64449E-10-3.32292E-10-1.33444E-10
 -1   1002998 2.24316E-10-2.09073E-10-3.25883E-10
 -1   1002999 3.19739E-10 4.57642E-10 7.41445E-10
 -1   1003001-3.29644E-10 4.46860E-10-2.91308E-10
 -1   1003002-8.25476E-11-5.89429E-10 3.17053E-09
 -1   1003004 4.04087E-10 1.73528E-10 1.43777E-09
 -1   1003005-1.45354E-10 2.16455E-10 1.11920E-09
 -1   1003007-4.10557E-10-3.84705E-10 1.81053E-09
 -1   1003008-2.42588E-10 6.37061E-10 3.01470E-10
 -1   1003010-5.92430E-10-7.37474E-10 3.50299E-10
 -1   1003011-1.22304E-10 1.84574E-10-1.72765E-09
 -1   1003013-2.59399E-10-5.99146E-10-1.17854E-10
 -1   1003014 4.36998E-11 7.93513E-11-8.09674E-10
 -1   1003016-1.85215E-10 4.34970E-10-5.06227E-09
 -1   1003017 3.97833E-10 7.86749E-11-1.75328E-09
 -1   1003019 1.52961E-10-1.74032E-10 9.57009E-10
 -1   1003020 4.78217E-10 2.81709E-10 5.80196E-09
 -1   1003022-1.99612E-11 1.36998E-10 4.90915E-09
 -1   1003023 9.87688E-10 7.71512E-10 2.99567E-09
 -1   1003025-7.36942E-11-2.90168E-10 2.68097E-09
 -1   1003026 5.85440E-10 1.81185E-10 1.97162E-10
 -1   1003028-8.73833E-10-3.24076E-11 1.89155E-09
 -1   1003029 4.26775E-10 2.30531E-10 8.18754E-10
 -1   1003031-4.39490E-11-2.76044E-10 3.54181E-09
 -1   1003032 1.32551E-10-2.41791E-10 2.38914E-11
 -1   1003034-1.79285E-10-1.32004E-10 1.21395E-10
 -1   1003035-1.33601E-10-2.10360E-10 2.21087E-10
 -1   1003037 3.08694E-10 8.18496E-11 3.90324E-11
 -1   1003038 2.94770E-11-5.63885E-11 4.82718E-10
 -1   1003040 2.75099E-10 2.49657E-10 1.18114E-10
 -1   1003041 9.81576E-11-1.26416E-10-1.74569E-10
 -1   1003043-3.57518E-10-4.11267E-11 2.06758E-10
 -1   1003044-8.46618E-11 1.81877E-10 7.87098E-11
 -1   1003046-2.26911E-10 4.53767E-11-1.41332E-10
 -1   1003047 7.82320E-11-2.75719E-11 1.72334E-11
 -1   1003049 8.55460E-11-1.03733E-10-3.91873E-10
 -1   1003050-4.34185E-11-2.38300E-11 3.85397E-10
 -1   1003052-2.92138E-11 3.53394E-10 4.12800E-10
 -1   1003053 2.36198E-10 2.10140E-10 7.61278E-10
 -1   1003055-4.88575E-11 9.11411E-12 6.92995E-10
 -1   1003056-4.02053E-10-2.41038E-10 1.36232E-09
 -1   1003058 5.28307E-11 3.76243E-11-6.73715E-10
 -1   1003059-7.06642E-11 7.18621E-12-6.10383E-11
 -1   1003061-1.34280E-10-2.75893E-11-1.06954E-10
 -1   1003062 1.35395E-11 4.22575E-10-8.99273E-10
 -1   1003064-1.25761E-10-4.20583E-10 6.13133E-10
 -1   1003065 7.17835E-12 1.63340E-10 1.35523E-11
 -1   1003067 2.21961E-10 1.58770E-10-7.76728E-10
 -1   1003068 4.17493E-12-7.34047E-11-1.59427E-09
 -1   1003070-1.81971E-10-8.93114E-11 8.21300E-10
 -1   1003071-2.37311E-10-1.33209E-10-7.16031E-10
 -1   1003073 8.05149E-11 2.79578E-10 3.17669E-10
 -1   1003074-2.10935E-10 5.10916E-11-1.22264E-11
 -1   1003076-7.66542E-11-1.25042E-10 4.37722E-10
 -1   1003077-2.33294E-11 3.19859E-11 1.20499E-09
 -1   1003079-3.11988E-10-4.79128E-10-1.25174E-09
 -1   1003080-1.90766E-10-1.79916E-10-3.28271E-09
 -1   1003082 4.11971E-10 2.71911E-10 4.44839E-10
 -1   1003083-1.91541E-10-1.80007E-10-2.11825E-10
 -1   1003085 2.81334E-10 8.53719E-10 8.35645E-10
 -1   1003086-2.89440E-10 1.05977E-11-3.49730E-09
 -1   1003088 5.07920E-11 1.19150E-10 1.27452E-10
 -1   1003089-2.61775E-10 6.15080E-11-5.04488E-10
 -1   1003091 2.98322E-12 6.30686E-10-1.31026E-09
 -1   1003092-1.93880E-10-2.70516E-10-1.39589E-09
 -1   1003094 2.27327E-10 8.80475E-11 1.08641E-09
 -1   1003095-2.53001E-10 2.13669E-10 7.80958E-10
 -1   1003097-3.80938E-11-5.22323E-10-2.14105E-11
 -1   1003098 7.23480E-11-1.64066E-10 1.08268E-09
 -1   1003100-9.91307E-11-2.69791E-10-1.58814E-09
 -1   1003101 2.35803E-10-9.72683E-12 1.83605E-09
 -1   1003103-2.49018E-10-8.81688E-12 5.31810E-10
 -1   1003104-5.32848E-10-3.62875E-10 7.98620E-11
 -1   1003106-1.92735E-10 1.60399E-10-4.67199E-10
 -1   1003107 2.00682E-10 1.96207E-10-3.43463E-09
 -1   1003109-1.66753E-10 1.01425E-10-1.26013E-09
 -1   1003110 1.01036E-10 2.78925E-10 1.28806E-09
 -1   1003112-1.43659E-10-4.69466E-11 2.87169E-10
 -1   1003113-2.24630E-10 7.77896E-11-2.19797E-09
 -1   1003115-2.02612E-10-3.09171E-10-1.05920E-09
 -1   1003116-2.22010E-10 1.87770E-11-1.88963E-09
 -1   1003118-1.55482E-10-2.06857E-10-2.25731E-10
 -1   1003119-2.28972E-10 8.38576E-11-1.26657E-09
 -1   1003121 1.09391E-10 3.08011E-10-1.19223E-09
 -1   1003122-3.13233E-10-2.09686E-10 9.92125E-10
 -1   1003124 4.58716E-11 1.20723E-10-9.10151E-10
 -1   1003125-1.38960E-10 1.28984E-10-2.59208E-09
 -1   1003127 1.11438E-10 1.10612E-10 3.65516E-10
 -1   1003128-9.55772E-11 8.96621E-12-4.23166E-09
 -1   1003130 2.61024E-11 2.10734E-11-1.14556E-09
 -1   1003131-1.43401E-10-2.35552E-10 9.10548E-10
 -1   1003133 3.49104E-10 3.33764E-10 1.68804E-09
 -1   1003134-1.57887E-10-2.19561E-11 3.85608E-10
 -1   1003136 2.67941E-10 4.86624E-10 1.42005E-09
 -1   1003137 4.53976E-11 1.78441E-10 1.30824E-09
 -1   1003139-1.64347E-10-2.58809E-10-1.84855E-09
 -1   1003140 4.53300E-11 2.77667E-10 2.50150E-09
 -1   1003142 1.25466E-10-5.28431E-11-2.79702E-09
 -1   1003143-9.79879E-11-1.21055E-10 2.73607E-09
 -1   1003145-1.07768E-10-2.96512E-11-2.27274E-09
 -1   1003146-8.59785E-11-4.38467E-10 4.81154E-09
 -1   1003148 2.32048E-10-6.59472E-11 3.94500E-09
 -1   1003149-1.09913E-10-1.47578E-10 2.30505E-09
 -1   1003151 1.89014E-10 1.11109E-10 1.70519E-10
 -1   1003152 9.96077E-11-1.28064E-10 1.57732E-09
 -1   1003154 9.28978E-11-7.84116E-11 5.82003E-10
 -1   1003155-1.65284E-10-1.46455E-11-3.76882E-11
 -1   1003157-1.24575E-10 3.75358E-11-5.18824E-10
 -1   1003158 4.01788E-11-1.61980E-10 1.74297E-09
 -1   1003160-1.66631E-10 4.06019E-12-1.85666E-10
 -1   1003161-1.19226E-10-1.69698E-10-8.69077E-10
 -1   1003163-1.93216E-11 1.69356E-10 8.45027E-10
 -1   1003164-1.43636E-10 2.92578E-11 4.15685E-10
 -1   1003166 2.83681E-10 5.85658E-11-3.94646E-09
 -1   1003167-2.18931E-11-2.25354E-10 1.28746E-09
 -1   1003169-3.11013E-10-1.40035E-10-2.73644E-09
 -1   1003170 4.10943E-11 2.07202E-10-2.20589E-09
 -1   1003172-1.54636E-10 3.62016E-11-1.62217E-09
 -1   1003173-1.52589E-10-3.21915E-10-3.81443E-09
 -1   1003175-9.71287E-11 1.12749E-10 2.67165E-09
 -1   1003176-2.17048E-10-6.55713E-11-2.36960E-10
 -1   1003178 2.74749E-11 3.66579E-10-5.55918E-10
 -1   1003179-5.51693E-11-2.29605E-10-5.98051E-09
 -1   1003181-1.02635E-10 7.01925E-10 4.16898E-09
 -1   1003182 1.40812E-10 6.62235E-11-9.50667E-11
 -1   1003184 1.82263E-11 1.76173E-10-1.15420E-10
 -1   1003185 2.26744E-10-2.53446E-10 1.50490E-10
 -1   1003187-2.16505E-11-8.88282E-11-7.44187E-11
 -1   1003188 1.09133E-10-2.10210E-10 1.97529E-10
 -1   1003190-8.33289E-11-1.89888E-10 6.84115E-11
 -1   1003191 1.46074E-10 1.61586E-11-7.49135E-11
 -1   1003193-4.45339E-11-1.47896E-10 2.31217E-10
 -1   1003194 1.90135E-11 2.27590E-11 4.55854E-10
 -1   1003196-1.29108E-11-2.83287E-10 9.70038E-11
 -1   1003197 1.28374E-11-9.75623E-11 8.17130E-10
 -1   1003199 8.79797E-11 6.51202E-11 8.88829E-10
 -1   1003200 9.51087E-11-7.98091E-11-4.11773E-10
 -1   1003202-8.32937E-11-4.10773E-10 1.78831E-10
 -1   1003203 1.75858E-10 5.53016E-10-6.84770E-10
 -1   1003205-2.66032E-10 4.32758E-10-5.63060E-10
 -1   1003206 2.52938E-10 4.90556E-11 2.56863E-10
 -1   1003208-3.05031E-11-2.51546E-11-7.22652E-10
 -1   1003209-5.41008E-11-4.77571E-10 7.05486E-10
 -1   1003211 2.02715E-10 8.31454E-11 1.30880E-09
 -1   1003212-1.84917E-11-3.43920E-10 1.05537E-09
 -1   1003214 3.38439E-10 4.64486E-10 5.11831E-10
 -1   1003215 6.41228E-11 9.55367E-11 1.70789E-09
 -1   1003217-1.55386E-10 3.52420E-10 4.91356E-11
 -1   1003218-1.01995E-10 1.16947E-10 6.58930E-10
 -1   1003220 1.43122E-10 1.61500E-10 2.30162E-09
 -1   1003221 2.09496E-10-5.90577E-11 4.81800E-10
 -1   1003223 1.85918E-10 4.48600E-11 6.61340E-10
 -1   1003224 7.48945E-11 3.19109E-10 8.44178E-10
 -1   1003226-1.42658E-10 2.88417E-10 9.63526E-10
 -1   1003227 8.66765E-11 1.26866E-10 2.77786E-10
 -1   1003229 1.21788E-10-7.49878E-10-1.28276E-09
 -1   1003230 3.12194E-10 1.58695E-10-1.56749E-09
 -1   1003232-4.33029E-10-4.52144E-10-3.87424E-10
 -1   1003233 5.18062E-11-2.62981E-10-4.78555E-11
 -1   1003235 4.09374E-11 1.34226E-10 1.45884E-09
 -1   1003236-9.14008E-11-5.08756E-11-4.04365E-10
 -1   1003238-1.05065E-10 2.11173E-10-2.13182E-09
 -1   1003239 5.80912E-11 1.78779E-10 1.96396E-09
 -1   1003241 3.69671E-10 5.27208E-10-1.13153E-10
 -1   1003242-4.98511E-11 4.02283E-11-1.75738E-09
 -1   1003244-1.14907E-10 2.83233E-10-1.21722E-09
 -1   1003245-4.98535E-10-6.35546E-11-1.51522E-10
 -1   1003247 6.44403E-10-2.42046E-10 1.19218E-09
 -1   1003248 2.54290E-10-2.34229E-10-2.70064E-10
 -1   1003250 2.53263E-11-2.69634E-10 8.81059E-10
 -1   1003251-4.14395E-11-4.72636E-10 8.06079E-11
 -1   1003253 7.64184E-11 6.64594E-11-1.17311E-09
 -1   1003254 2.25751E-11-4.35725E-10 1.50662E-09
 -1   1003256 1.22051E-10-1.72343E-10 2.45619E-09
 -1   1003257-1.34042E-10-5.02989E-12-4.35631E-10
 -1   1003259 1.22340E-10 4.92630E-10-1.76861E-10
 -1   1003260-8.02923E-11-4.08304E-10-2.36855E-10
 -1   1003262-2.01676E-10 8.29906E-11-3.05956E-09
 -1   1003263 6.10396E-10-3.24629E-11 9.07258E-10
 -1   1003265-4.45468E-10 4.48646E-10 3.46249E-10
 -1   1003266 3.85294E-11-5.27746E-10 1.99342E-09
 -1   1003268-1.41595E-10 4.12912E-11-2.04012E-09
 -1   1003269-2.92290E-10-1.10928E-10 4.94318E-09
 -1   1003271 1.56234E-10 2.30691E-10 2.14842E-09
 -1   1003272-4.82208E-11 6.88674E-11 4.26543E-09
 -1   1003274-1.13771E-10-4.35433E-10-3.06923E-09
 -1   1003275 2.79282E-10 2.20719E-10 2.53325E-09
 -1   1003277 1.52518E-10-2.55285E-10-6.63180E-10
 -1   1003278 1.61607E-10-7.58417E-13-1.95414E-09
 -1   1003280 6.48519E-11-6.30763E-10-3.93478E-09
 -1   1003281 1.46404E-10-2.67698E-10 1.05487E-09
 -1   1003283 9.03093E-11-2.25591E-10 3.28146E-09
 -1   1003284-7.81707E-11 2.06027E-10-7.47789E-10
 -1   1003286-1.02870E-10-5.57068E-10 3.17556E-10
 -1   1003287-1.17331E-10 2.09972E-10 2.99738E-09
 -1   1003289 2.10126E-10 8.64006E-13 1.83715E-10
 -1   1003290-5.32089E-11-8.57147E-11 8.01214E-09
 -1   1003292-1.78823E-10-9.80131E-12 1.61898E-09
 -1   1003293 1.23080E-11-2.32185E-10 1.09191E-09
 -1   1003295-4.38181E-10 2.42931E-10-9.03397E-10
 -1   1003296 3.86129E-10 7.84173E-11 4.81352E-09
 -1   1003298-6.56494E-11-2.60926E-10 1.17331E-09
 -1   1003299-2.03580E-10 3.42196E-11 3.52846E-10
 -1   1003301 5.84461E-11 3.09840E-10 2.75264E-09
 -1   1003302 8.61682E-11 8.18698E-11-2.94270E-09
 -1   1003304 8.53233E-11 9.59799E-11-1.23682E-09
 -1   1003305 2.47378E-11 3.92050E-11 8.16663E-10
 -1   1003307-9.75510E-12-3.53977E-10-5.09896E-10
 -1   1003308-1.62432E-11 1.42767E-10 7.06438E-12
 -1   1003310 2.13524E-10 5.35634E-10 3.53248E-09
 -1   1003311-4.91180E-11-9.48498E-11-5.36120E-10
 -1   1003313 5.91521E-11-4.01412E-10 1.10801E-09
 -1   1003314 9.76340E-12 9.31253E-11-1.68298E-10
 -1   1003316 1.59095E-10 1.29740E-10-2.28671E-09
 -1   1003317-2.63740E-10 1.49828E-11 1.48618E-09
 -1   1003319 1.00671E-10-5.97189E-10-2.37538E-09
 -1   1003320 1.86725E-10-3.47552E-11 4.28698E-10
 -1   1003322 2.00563E-10 3.02375E-10 1.65753E-09
 -1   1003323-7.83272E-10 2.60640E-10-6.08406E-09
 -1   1003325 6.77282E-10-1.80323E-10 4.91857E-09
 -1   1003326-5.93343E-10 1.73952E-10-4.07479E-10
 -1   1003328 9.46470E-10-5.33681E-12 3.57435E-09
 -1   1003329-5.13737E-11 1.87987E-10 8.42617E-10
 -1   1003331 8.31852E-11 2.72037E-10 1.04124E-09
 -1   1003332-6.44922E-11 1.69546E-10 5.30972E-11
 -1   1003334-5.13184E-11 4.38582E-11-4.71552E-11
 -1   1003335-6.94156E-11-1.13069E-10 2.43763E-10
 -1   1003337 9.61874E-11 1.30213E-10-9.49245E-11
 -1   1003338-2.25421E-11 4.74540E-10 2.74332E-10
 -1   1003340-1.11573E-10 3.14349E-10-1.22388E-10
 -1   1003341 9.80462E-11-1.90486E-10-7.33633E-11
 -1   1003343-1.16090E-10-2.27148E-10 2.00774E-10
 -1   1003344 1.69980E-10-5.97438E-11-3.67414E-10
 -1   1003346 9.25540E-11-1.32231E-10 6.69216E-11
 -1   1003347 3.57777E-11 2.25351E-10-6.57529E-10
 -1   1003349 4.44152E-11 3.17743E-10 4.88056E-11
 -1   1003350 9.49607E-11 6.96709E-10-7.70720E-10
 -1   1003352-1.61838E-11-6.28214E-10 4.31085E-10
 -1   1003353 1.31077E-10 1.96276E-10-2.85613E-10
 -1   1003355-7.38269E-11-7.59779E-11 9.33136E-10
 -1   1003356-2.64504E-11-3.13993E-10 8.87381E-10
 -1   1003358 8.54638E-11 8.60132E-11 2.07052E-10
 -1   1003359 1.09319E-10-3.84900E-11 5.78961E-10
 -1   1003361-9.57789E-11-8.61093E-11 8.88969E-10
 -1   1003362-5.47301E-11 1.80652E-10 2.96961E-11
 -1   1003364 1.38638E-10 3.53255E-10 6.03234E-10
 -1   1003365 3.33227E-11 2.13714E-10 1.27342E-09
 -1   1003367-1.33499E-10-2.73093E-10 1.02717E-09
 -1   1003368 2.00631E-11-4.07342E-10 5.76324E-10
 -1   1003370-6.22311E-11-8.81951E-10-4.30494E-10
 -1   1003371-8.02265E-11 5.50576E-10-1.19915E-10
 -1   1003373-1.11988E-10-3.04313E-11 1.40450E-09
 -1   1003374 1.98969E-10 5.07693E-10 9.70744E-10
 -1   1003376-7.92420E-11-8.39904E-10 1.63071E-09
 -1   1003377 7.31565E-11 1.51209E-10-3.22755E-09
 -1   1003379-4.64482E-11 3.92624E-10 1.02526E-09
 -1   1003380-1.33348E-10-5.76298E-10-5.10816E-10
 -1   1003382-2.22642E-11 3.60325E-11 1.07224E-09
 -1   1003383-3.39401E-11 5.31918E-10 4.94379E-10
 -1   1003385 9.52661E-11 1.56194E-10-8.22497E-10
 -1   1003386-2.85043E-12 5.48777E-11-1.04815E-10
 -1   1003388-1.02726E-11-6.51412E-10 2.30277E-10
 -1   1003389 5.23610E-11-4.05866E-10 7.77587E-10
 -1   1003391-5.66162E-11-3.11657E-10-3.71765E-10
 -1   1003392-3.80463E-11-1.94660E-10 1.74367E-09
 -1   1003394 1.16948E-10 2.24258E-10 1.89904E-09
 -1   1003395-4.42947E-11 4.98020E-10 5.19648E-10
 -1   1003397-9.72518E-11 4.29092E-10 1.72328E-09
 -1   1003398-1.82350E-12 2.58163E-10 1.20062E-09
 -1   1003400-5.26259E-11 1.33652E-10-2.67010E-10
 -1   1003401-1.97627E-10-5.12718E-10 1.18754E-09
 -1   1003403 1.49861E-10-4.41087E-10-4.78367E-10
 -1   1003404-4.52951E-10-8.35977E-11-1.73007E-09
 -1   1003406 2.73092E-10 4.33693E-10 1.45302E-09
 -1   1003407 8.13044E-11-5.85252E-11 2.62846E-10
 -1   1003409 2.79007E-10 3.41527E-10 1.35434E-09
 -1   1003410-1.83698E-11 4.94918E-10-7.07672E-10
 -1   1003412-9.65753E-11-1.22548E-10 3.70265E-10
 -1   1003413-2.12786E-10 3.53437E-13-1.48960E-09
 -1   1003415 1.14311E-10 3.30457E-10 1.38262E-09
 -1   1003416-8.51687E-11-4.18592E-10 5.06104E-10
 -1   1003418 8.42962E-11 1.41354E-10 5.12842E-10
 -1   1003419 1.49840E-10-3.98682E-10-1.73406E-09
 -1   1003421 6.08362E-11-3.69797E-10 1.55973E-10
 -1   1003422-4.30307E-11-1.69080E-11-3.00555E-09
 -1   1003424 6.16841E-11 2.33578E-10-1.14367E-09
 -1   1003425 5.34455E-11 3.78496E-10 5.49622E-10
 -1   1003427-2.31425E-11-9.40666E-11-4.53514E-10
 -1   1003428 1.15138E-10 1.56654E-10-5.58691E-10
 -1   1003430-3.60551E-12-4.12494E-10 1.33236E-09
 -1   1003431-3.60856E-11 3.40364E-10 1.27043E-09
 -1   1003433 9.78066E-11 1.26855E-10-2.21885E-09
 -1   1003434 1.29657E-10 3.96387E-10 2.82742E-10
 -1   1003436-2.44355E-10-1.67377E-10-9.97649E-10
 -1   1003437-2.29708E-11-3.37291E-11-1.08783E-09
 -1   1003439 4.44589E-12 5.13752E-11-1.47951E-09
 -1   1003440-1.08462E-10 1.21365E-11 3.28381E-09
 -1   1003442 3.14234E-11 2.67485E-10-2.12300E-10
 -1   1003443-4.83372E-11-2.67836E-10 3.32101E-09
 -1   1003445 3.66082E-11 3.00613E-10 2.85602E-09
 -1   1003446-2.34688E-10-9.30487E-11 2.10639E-09
 -1   1003448 1.21710E-10 7.53969E-10-1.48753E-09
 -1   1003449 1.40805E-11 9.48610E-11 4.89886E-10
 -1   1003451-8.83036E-11 3.09161E-10 5.51738E-09
 -1   1003452 1.24374E-10-5.31800E-12 2.15546E-09
 -1   1003454-1.27474E-10-8.50782E-11 4.57727E-09
 -1   1003455 1.37921E-10 8.01455E-10-2.95877E-09
 -1   1003457-9.01806E-11 9.45623E-11 5.01866E-10
 -1   1003458 5.14069E-11 1.32342E-10 2.06215E-09
 -1   1003460-4.67302E-11-4.33163E-10 3.29935E-09
 -1   1003461-1.10881E-10 6.64886E-11-1.98190E-09
 -1   1003463 4.17493E-11-1.87564E-11-1.04629E-09
 -1   1003464 4.74955E-11 1.43914E-11 5.47681E-09
 -1   1003466-3.94707E-11-3.40387E-10-7.53049E-10
 -1   1003467-2.18344E-14 5.30711E-10-9.48222E-10
 -1   1003469-4.33154E-11 2.28183E-10 1.26500E-09
 -1   1003470-1.70949E-10 1.76190E-10-1.58288E-09
 -1   1003472-8.46461E-11 3.12582E-10-3.65939E-10
 -1   1003473 7.87578E-11-1.85763E-10-1.34330E-09
 -1   1003475-1.00138E-10-2.53869E-10-1.53330E-09
 -1   1003476-9.12396E-11-8.58254E-11-4.03418E-09
 -1   1003478 3.69020E-10 9.06372E-11 1.09496E-09
 -1   1003479 5.68155E-11-4.27162E-10 5.53581E-09
 -1   1003481-3.73201E-10 4.78305E-10-1.02200E-08
 -1   1003482 1.53313E-11-1.95221E-10 9.40723E-11
 -1   1003484 7.22002E-12-3.87936E-10-5.15364E-11
 -1   1003485-3.83645E-11-4.10430E-10 1.83589E-10
 -1   1003487 1.64106E-12 1.89531E-10-5.10801E-11
 -1   1003488 1.48987E-11-9.11095E-11 2.83759E-10
 -1   1003490 4.03764E-12 1.70261E-10 8.19536E-11
 -1   1003491 2.58186E-11 8.99003E-11 4.55265E-10
 -1   1003493-1.87552E-12-9.80956E-11-1.56378E-10
 -1   1003494-4.28451E-11 1.32321E-10 2.75396E-10
 -1   1003496 4.00595E-11 1.65973E-10 3.41919E-10
 -1   1003497 2.94854E-11-2.45937E-10 1.17399E-10
 -1   1003499-3.03761E-11 1.43848E-10 3.85945E-10
 -1   1003500 1.01230E-12 4.72505E-10 4.53211E-10
 -1   1003502-1.75053E-11-1.15186E-10-2.45812E-10
 -1   1003503 5.27499E-11 5.27983E-10 3.21965E-10
 -1   1003505-1.37044E-10-6.27673E-10 1.36636E-10
 -1   1003506-2.66078E-11 4.14940E-10-1.91580E-10
 -1   1003508-5.55686E-11 4.17596E-10 1.55063E-10
 -1   1003509-2.95580E-11-5.26143E-10 4.92187E-10
 -1   1003511 3.76211E-11 3.50751E-10-9.34646E-11
 -1   1003512-1.19142E-10-3.00038E-11 8.74517E-10
 -1   1003514 1.50548E-10-1.40942E-10-8.34942E-10
 -1   1003515 5.92426E-11 5.17298E-10 1.22858E-10
 -1   1003517-1.42118E-11 1.76790E-11-2.11194E-09
 -1   1003518 7.61164E-11 8.37191E-11 7.83538E-10
 -1   1003520-1.82070E-11-1.50546E-10-2.92327E-11
 -1   1003521 2.03261E-11 6.94233E-10 2.49780E-09
 -1   1003523-2.57923E-10-9.44577E-10 2.42767E-09
 -1   1003524-7.64403E-12-2.08102E-10 1.66581E-09
 -1   1003526-3.33418E-11-1.07145E-09-6.71159E-10
 -1   1003527-2.18217E-10 4.83321E-10 2.09574E-09
 -1   1003529-1.49172E-10 2.31378E-10-4.68304E-10
 -1   1003530 2.32102E-11-2.75236E-10 4.27495E-10
 -1   1003532-2.87641E-11-5.11362E-10-1.20597E-09
 -1   1003533 3.12240E-10 5.62319E-11 2.01025E-09
 -1   1003535-5.19841E-10-4.29042E-10-1.10373E-09
 -1   1003536-2.73436E-10 1.37025E-10 8.62276E-10
 -1   1003538-3.03080E-11-9.56996E-11-1.45290E-09
 -1   1003539-1.90831E-10-3.83504E-10-3.35164E-11
 -1   1003541 1.35449E-11 7.36898E-10 1.11894E-09
 -1   1003542 1.52947E-11-5.22364E-10-1.92179E-09
 -1   1003544-3.73151E-10-6.42845E-10-2.42030E-10
 -1   1003545 1.74468E-10 2.29340E-10-4.34003E-10
 -1   1003547-1.67805E-10-3.80297E-10 4.83400E-10
 -1   1003548 1.80834E-10 3.00142E-10 4.24692E-10
 -1   1003550 2.79787E-11-4.48244E-12-9.87191E-11
 -1   1003551-1.54073E-10-2.29213E-10 3.23189E-09
 -1   1003553 9.92814E-11-5.83630E-10-2.94784E-09
 -1   1003554-2.29257E-10 9.47759E-10 4.01455E-09
 -1   1003556 7.51431E-11 3.53544E-10 6.34984E-10
 -1   1003557-2.91717E-11 3.26589E-10 2.34619E-09
 -1   1003559-2.53346E-11 2.98852E-10-5.59507E-10
 -1   1003560-1.63493E-10-2.03059E-11 4.32320E-09
 -1   1003562-1.44770E-10-1.60021E-10 3.46658E-09
 -1   1003563-2.66205E-10-4.61409E-10-5.28647E-10
 -1   1003565 1.80395E-10 4.63277E-10-1.34802E-09
 -1   1003566-2.24202E-10-5.78281E-10 9.49967E-10
 -1   1003568 2.04226E-10-5.97203E-10 5.31731E-09
 -1   1003569-5.27704E-10 2.98659E-10 2.59117E-09
 -1   1003571 2.83724E-10 6.05806E-10 2.00762E-09
 -1   1003572-1.04239E-11 8.56072E-10 3.37695E-09
 -1   1003574 4.82328E-10-1.41472E-11 4.75601E-09
 -1   1003575-2.19412E-10 2.51181E-10-3.43279E-10
 -1   1003577-2.95895E-10-3.99298E-10 1.83466E-09
 -1   1003578 2.48443E-10 1.99949E-10 3.63542E-10
 -1   1003580 1.40305E-10 1.43935E-10 1.46433E-09
 -1   1003581 4.44714E-10-2.40553E-10-9.57713E-10
 -1   1003583-1.51646E-10-2.99741E-10-1.11639E-10
 -1   1003584 2.02227E-10-4.98801E-10 5.68310E-09
 -1   1003586-3.48123E-10 8.39735E-11 9.95675E-11
 -1   1003587-2.91114E-10-5.94722E-11 1.24027E-10
 -1   1003589 1.11114E-10-1.08069E-10-1.63253E-09
 -1   1003590 3.41440E-10-3.60872E-10-1.42409E-09
 -1   1003592-7.15961E-11-4.04698E-10 1.58169E-09
 -1   1003593-2.61228E-10-1.20755E-09-8.74622E-09
 -1   1003595 5.62807E-10 3.45001E-10-6.78279E-10
 -1   1003596 8.28201E-11 2.23813E-10-1.19556E-09
 -1   1003598 1.59856E-10 2.97811E-10-2.36940E-09
 -1   1003599 8.79883E-10 1.01339E-10 1.16302E-09
 -1   1003601-3.76192E-13-3.92192E-10-3.86501E-09
 -1   1003602 9.25177E-11-3.95110E-11-3.35731E-09
 -1   1003604-1.57223E-10 3.55119E-10 1.67254E-09
 -1   1003605-1.45623E-10-3.07422E-10 3.70777E-09
 -1   1003607 4.17386E-10 1.06334E-10 6.50987E-10
 -1   1003608-3.97743E-10-6.45900E-10 1.62594E-09
 -1   1003610 2.36243E-10 7.49378E-10-3.75644E-09
 -1   1003611 3.26720E-10 1.01276E-09 2.70506E-09
 -1   1003613-3.53656E-10 1.27552E-10-9.83548E-10
 -1   1003614-3.05850E-11-1.05155E-10-4.81427E-09
 -1   1003616 5.18306E-11 3.20919E-10 1.87860E-09
 -1   1003617 2.65127E-10 2.55802E-10 2.39661E-09
 -1   1003619-7.13237E-10-3.06066E-11 3.10352E-09
 -1   1003620 1.21831E-10 3.39422E-10-4.63048E-09
 -1   1003622-7.26768E-11 4.90954E-10-3.83688E-09
 -1   1003623 2.09811E-10 5.41338E-10-2.14892E-09
 -1   1003625-8.60058E-10 5.97618E-10 4.61053E-09
 -1   1003626-1.13902E-10 4.32006E-10 8.62932E-10
 -1   1003628-1.38513E-10 6.37861E-10-2.30166E-09
 -1   1003629 3.73285E-11 7.68709E-11-1.37861E-09
 -1   1003631-1.98265E-11-5.67722E-10 9.37037E-11
 -1   1003632-3.61040E-11-1.16580E-10 8.14353E-11
 -1   1003634-1.33916E-11-3.22324E-10 7.80548E-11
 -1   1003635 5.41880E-11 1.05400E-10 1.02672E-10
 -1   1003637-1.18428E-11 1.35847E-10 1.77857E-10
 -1   1003638 2.30530E-11 5.47769E-10 1.46014E-10
 -1   1003640-5.95443E-11 6.79002E-10-1.27404E-10
 -1   1003641 2.23290E-11 1.85336E-10 3.88904E-10
 -1   1003643 1.52843E-11 2.52835E-10 1.87300E-10
 -1   1003644-3.14966E-11 5.62335E-11 2.63004E-10
 -1   1003646 1.68695E-11-2.17221E-11 1.91888E-10
 -1   1003647 1.43175E-11 7.56548E-10 3.07538E-10
 -1   1003649-4.47597E-11 9.04095E-10-4.16069E-10
 -1   1003650 2.94194E-11 1.59895E-11-1.27653E-11
 -1   1003652-1.03990E-12 2.21339E-10 2.30718E-10
 -1   1003653 3.12057E-11-2.63723E-10 3.00998E-10
 -1   1003655-2.99633E-11 1.40729E-11 3.86472E-10
 -1   1003656-2.31190E-11-1.43872E-10 8.39237E-10
 -1   1003658-7.90676E-11 4.17043E-10 2.41629E-10
 -1   1003659 2.56152E-11-3.95974E-10 4.96808E-10
 -1   1003661-2.91270E-11-7.19290E-11-1.13551E-10
 -1   1003662 5.89259E-12-2.28402E-10-6.89383E-10
 -1   1003664-7.59840E-11 6.85661E-10-5.21014E-10
 -1   1003665-6.17888E-11-1.65156E-10 8.11625E-10
 -1   1003667-1.83601E-11-1.89345E-10 5.06917E-10
 -1   1003668 3.92453E-11-1.61796E-09 1.05708E-09
 -1   1003670-1.28119E-10-5.80592E-11 1.33982E-09
 -1   1003671-1.77896E-11 7.70731E-11 1.11221E-09
 -1   1003673-1.32962E-10 1.16573E-10 2.13466E-10
 -1   1003674 2.05387E-11 7.44895E-11 7.35740E-10
 -1   1003676-3.29841E-11 3.07522E-10-4.70937E-10
 -1   1003677 3.57295E-12 1.55036E-11 6.14905E-10
 -1   1003679-6.30569E-12-5.60419E-11-1.83991E-09
 -1   1003680 6.54132E-11 2.70449E-10-9.19011E-10
 -1   1003682-5.44260E-12-6.42184E-11 1.21506E-10
 -1   1003683 1.90103E-10 7.86318E-12 1.30773E-09
 -1   1003685-5.54858E-11 1.49259E-10 7.69911E-10
 -1   1003686 3.46099E-11 1.38148E-10 3.09034E-09
 -1   1003688-6.38282E-11 2.99597E-11-2.05521E-10
 -1   1003689-2.13880E-11-4.38671E-10-1.45485E-09
 -1   1003691-4.04085E-11-5.29066E-11-4.66369E-10
 -1   1003692 5.77853E-12-3.24155E-10-2.21496E-09
 -1   1003694-2.06380E-12 2.23866E-12-1.59787E-09
 -1   1003695 2.73245E-11-9.21483E-11-1.93411E-10
 -1   1003697-3.22365E-11 7.09631E-10 6.35656E-10
 -1   1003698-3.62129E-11 7.48933E-10-3.84724E-10
 -1   1003700-1.18821E-11 2.85747E-10 6.34054E-10
 -1   1003701-1.69748E-10 6.27159E-10 2.11080E-09
 -1   1003703-5.07968E-11-2.00989E-10 8.65604E-10
 -1   1003704-2.02475E-10 3.49780E-10 8.00937E-10
 -1   1003706 2.49996E-10-5.42029E-10-1.55963E-09
 -1   1003707-1.08036E-10-2.01168E-10 1.66853E-09
 -1   1003709 9.96143E-11 1.83325E-11 1.94069E-09
 -1   1003710 1.38677E-10 2.72360E-10-9.54065E-10
 -1   1003712 2.84248E-11-1.46285E-10-3.32307E-10
 -1   1003713-3.01944E-11-5.78376E-10 1.88628E-09
 -1   1003715 8.21125E-11-3.10696E-10 2.42326E-09
 -1   1003716-6.20404E-11-2.82174E-10 3.48880E-10
 -1   1003718-4.77341E-11-5.62635E-11 9.67823E-10
 -1   1003719-2.22793E-11-2.18608E-10-2.36090E-09
 -1   1003721-2.93983E-11 1.00591E-10 1.15366E-09
 -1   1003722 2.22381E-12 8.04281E-12 1.54484E-09
 -1   1003724 2.03985E-11-1.99063E-10 4.23667E-09
 -1   1003725 4.75824E-10 2.14932E-10 1.81133E-09
 -1   1003727 1.77901E-10-5.96717E-11 9.46167E-10
 -1   1003728 1.38301E-10 5.01510E-10 5.00244E-09
 -1   1003730-2.46130E-11-6.14536E-11 2.46793E-09
 -1   1003731 8.21951E-12-1.21124E-10 2.48189E-09
 -1   1003733-1.67616E-10 7.90322E-10-1.32156E-10
 -1   1003734 1.67104E-10 2.53295E-12 1.08753E-09
 -1   1003736 1.71326E-10 8.93084E-11 6.52775E-10
 -1   1003737-7.85162E-12-4.36413E-11 3.84663E-09
 -1   1003739 9.67970E-12 2.14480E-10 3.75274E-10
 -1   1003740 4.04849E-12 1.25806E-10 1.95331E-09
 -1   1003742 2.65141E-11-4.39623E-10-1.99972E-09
 -1   1003743 4.51270E-11 2.36580E-10-2.24157E-09
 -1   1003745-8.93387E-12-3.21452E-10-2.03013E-09
 -1   1003746 2.82328E-10 4.42202E-10 5.07419E-10
 -1   1003748-1.01513E-10-3.50531E-10 2.67885E-09
 -1   1003749 7.64410E-12-5.37774E-11-2.12786E-09
 -1   1003751-9.82218E-12-1.20697E-10 1.58160E-09
 -1   1003752 2.98466E-11-3.12543E-11-1.99298E-09
 -1   1003754-3.54421E-11 2.58042E-10 1.87672E-09
 -1   1003755-1.52037E-11 2.52494E-10 2.41045E-09
 -1   1003757-1.73740E-10 6.05031E-10 2.47370E-09
 -1   1003758 3.36812E-10-6.08094E-10-1.73969E-11
 -1   1003760-3.70229E-10 1.86998E-10 2.00971E-09
 -1   1003761 4.79839E-11-1.58837E-10 6.55620E-09
 -1   1003763-5.97848E-11 3.79527E-10 1.68327E-09
 -1   1003764 3.60765E-11-5.75987E-10 5.06751E-09
 -1   1003766 1.11121E-10 1.42865E-10 9.36559E-10
 -1   1003767 1.32487E-11-2.52955E-10-2.37094E-10
 -1   1003769-1.81135E-11 1.42634E-10 4.26463E-09
 -1   1003770 3.48648E-11-2.54188E-11 4.10518E-09
 -1   1003772-2.49247E-11 1.13778E-10 2.31807E-09
 -1   1003773-1.51085E-12-4.72192E-10-1.47155E-09
 -1   1003775-2.59541E-11 3.85932E-10-1.20366E-09
 -1   1003776 1.28592E-10-2.10065E-10 4.62884E-09
 -1   1003778-1.06871E-11-1.59959E-10 1.75983E-09
 -1   1003779-6.22793E-12 1.59679E-10 5.66738E-09
 -1   1003781-4.59990E-12-2.47337E-10-2.22737E-09
 -1   1003782-3.43361E-11-2.37882E-10-6.47372E-11
 -1   1003784-4.71926E-11 2.42327E-10 2.85461E-12
 -1   1003785-8.48996E-11 2.85245E-10-2.61788E-10
 -1   1003787 4.04723E-11-1.71472E-10-5.27085E-11
 -1   1003788-1.06128E-10 1.81429E-10 2.47395E-10
 -1   1003790-1.01476E-10 2.03702E-10-1.70766E-10
 -1   1003791 3.94809E-11 2.53682E-10 3.25893E-10
 -1   1003793 6.35927E-11 3.42997E-10-1.09837E-10
 -1   1003794-8.29097E-11-1.42467E-11 5.52913E-12
 -1   1003796 1.58854E-12 8.52578E-11 5.16555E-10
 -1   1003797 6.86908E-11-6.36978E-10-3.24634E-10
 -1   1003799 7.55345E-11-1.97414E-10-7.00106E-11
 -1   1003800 1.17768E-10-3.61077E-10 1.03931E-09
 -1   1003802-4.95679E-11 5.35439E-10-5.19773E-12
 -1   1003803 3.36590E-12-1.32735E-10 9.44146E-10
 -1   1003805 4.55861E-11 1.74655E-10-3.49169E-10
 -1   1003806-4.14648E-11-1.00213E-10 1.81334E-09
 -1   1003808-3.05317E-11 1.21784E-10 1.40012E-09
 -1   1003809-3.32984E-11-4.02647E-11 9.54460E-10
 -1   1003811 1.22516E-10 6.65703E-11-2.14544E-10
 -1   1003812-2.64592E-11-1.52987E-10 1.19077E-09
 -1   1003814 5.02271E-11 2.58457E-10 5.45753E-10
 -1   1003815-2.97550E-12 1.13838E-10 1.77592E-09
 -1   1003817 1.36172E-11 1.61420E-10-1.41834E-10
 -1   1003818 3.53380E-11-3.78115E-10 4.22333E-10
 -1   1003820 3.71534E-11 1.90592E-10 1.91194E-09
 -1   1003821-5.91116E-11 1.28482E-10 8.65984E-10
 -1   1003823-1.03746E-10-1.23662E-10 8.58220E-10
 -1   1003824-1.46370E-12 1.67618E-11 3.22993E-10
 -1   1003826-1.25423E-10 2.95971E-11-2.78079E-10
 -1   1003827 1.49237E-11-2.52780E-10 1.24790E-09
 -1   1003829-8.12177E-11 1.49421E-10 7.98165E-10
 -1   1003830-5.53078E-11-5.84414E-10 3.69584E-10
 -1   1003832-5.64292E-11-1.04406E-10-1.49256E-09
 -1   1003833-6.47662E-13-2.66919E-10 2.94505E-09
 -1   1003835-7.05752E-11-2.23659E-10 5.91671E-12
 -1   1003836 1.19874E-10-2.78552E-10 4.83268E-11
 -1   1003838-9.42950E-11 1.36745E-10 9.07430E-11
 -1   1003839-9.45547E-12-5.62553E-10 2.02196E-11
 -1   1003841-2.65828E-10-2.58165E-10-2.42757E-09
 -1   1003842 2.24913E-10 4.39101E-10-3.11894E-10
 -1   1003844-2.67912E-10 2.20840E-10 3.76665E-12
 -1   1003845 2.78231E-10-5.47246E-10 1.92072E-09
 -1   1003847-9.91025E-11 3.38170E-10 4.35695E-10
 -1   1003848-3.35242E-11 1.48868E-10 1.02474E-09
 -1   1003850 1.52022E-10 1.49768E-10 2.03557E-10
 -1   1003851-3.25972E-11 8.64323E-11 2.61915E-10
 -1   1003853 6.20386E-11-4.47341E-10-5.98607E-10
 -1   1003854-7.56880E-11 1.00648E-10 1.31628E-09
 -1   1003856 9.29713E-11 2.34841E-10-1.60964E-09
 -1   1003857-1.86633E-10 4.48689E-10-4.31420E-11
 -1   1003859 1.26520E-11-4.29304E-10-1.01704E-09
 -1   1003860-1.49417E-10 3.51663E-10 1.59768E-09
 -1   1003862-6.76012E-12-2.46781E-10 1.71078E-09
 -1   1003863 1.03143E-10-4.26332E-10 2.35608E-09
 -1   1003865-2.59110E-12 1.91099E-10 3.83221E-09
 -1   1003866 2.47055E-10-1.28681E-10-1.87282E-10
 -1   1003868-1.73449E-10 5.01176E-10 1.35332E-09
 -1   1003869-2.35589E-10-8.86690E-11 2.56574E-09
 -1   1003871 1.16540E-10-8.98550E-10 4.99986E-10
 -1   1003872-2.37778E-10 6.38176E-10 1.70388E-09
 -1   1003874 8.38663E-11-3.28985E-10 3.10742E-09
 -1   1003875-6.35709E-11 1.57230E-10 3.52242E-09
 -1   1003877-5.00813E-11-3.42962E-10 1.86383E-09
 -1   1003878 8.76823E-11-3.04666E-10 3.49340E-10
 -1   1003880-2.72553E-10 3.03726E-10-4.65642E-09
 -1   1003881 1.36310E-11-2.66886E-10 2.80286E-09
 -1   1003883-9.33412E-11 3.70126E-10 3.42853E-09
 -1   1003884 2.00163E-10-2.43898E-10 3.08975E-09
 -1   1003886-8.34060E-11 3.09537E-10 8.41595E-10
 -1   1003887 4.24986E-12 3.40807E-10-2.63738E-09
 -1   1003889 1.70952E-10-2.11786E-11 3.64435E-09
 -1   1003890 3.39381E-10 1.82682E-10 2.18302E-09
 -1   1003892 2.56634E-10 6.70271E-10 1.47584E-09
 -1   1003893-9.08704E-11 5.21385E-10 2.30788E-09
 -1   1003895 1.96667E-10 6.58259E-10-1.05287E-09
 -1   1003896 4.90025E-11 6.52417E-10-4.31266E-10
 -1   1003898 2.33110E-10-6.03380E-10 2.70585E-10
 -1   1003899-5.13307E-10-1.91891E-10-1.12680E-10
 -1   1003901-3.15886E-10-8.86347E-11-8.97635E-10
 -1   1003902 1.91828E-10-7.28374E-10 2.11948E-09
 -1   1003904-2.87336E-10 3.31601E-10 3.46184E-09
 -1   1003905 4.41091E-11-1.79994E-10-3.22477E-09
 -1   1003907-6.43941E-11 6.72349E-10-9.26627E-10
 -1   1003908-7.67492E-12-6.21782E-10 1.97307E-09
 -1   1003910-6.03789E-11 3.82021E-11 4.78136E-09
 -1   1003911-1.21095E-10-7.01819E-11 5.01002E-09
 -1   1003913 7.68118E-11 1.05170E-10-2.29943E-09
 -1   1003914-2.46015E-10-1.65414E-10 9.01354E-09
 -1   1003916 2.00023E-10 3.98576E-10-4.46304E-09
 -1   1003917-1.88195E-10-9.65147E-10 6.68812E-10
 -1   1003919 6.27599E-10 8.18506E-10-1.53359E-09
 -1   1003920-1.07180E-10-6.87514E-10 1.30454E-09
 -1   1003922 8.55576E-11 1.32347E-10-3.34154E-09
 -1   1003923-6.53461E-11 3.36127E-10-4.36082E-09
 -1   1003925 2.57123E-11 2.50784E-10-6.10499E-09
 -1   1003926 1.26726E-10-6.26234E-10 9.74043E-10
 -1   1003928-3.98451E-11 3.17744E-10-1.94530E-09
 -1   1003929 4.69862E-12-1.84521E-10 5.72425E-09
 -1   1003931-2.75883E-11 1.36824E-10 1.82681E-09
 -1   1003932 8.31707E-11 4.16305E-10-7.61274E-12
 -1   1003934 1.44963E-10 3.12277E-10-3.96148E-11
 -1   1003935 7.76979E-12 5.26591E-10 1.02463E-10
 -1   1003937-1.64957E-11 2.24257E-10-1.63238E-11
 -1   1003938 5.82153E-11 1.74945E-10 8.59701E-11
 -1   1003940-2.39401E-10 5.87773E-10-9.55473E-11
 -1   1003941 2.07163E-10-1.74672E-10-4.80770E-10
 -1   1003943-2.87842E-11 5.35975E-10-3.78461E-10
 -1   1003944 1.08393E-10 1.46013E-10 9.98620E-11
 -1   1003946-1.57026E-10-8.85655E-11 2.73098E-10
 -1   1003947-2.82499E-10 6.02632E-10-1.42038E-10
 -1   1003949-6.76820E-11 6.78739E-11-1.56319E-10
 -1   1003950 1.73366E-10-3.71058E-10-6.38132E-10
 -1   1003952-5.56358E-11 3.51274E-10 3.21699E-10
 -1   1003953-1.42249E-10-1.01399E-10-1.95928E-10
 -1   1003955 4.52680E-11-3.58952E-11-1.72793E-10
 -1   1003956 9.30618E-13 1.00204E-10 4.85734E-10
 -1   1003958 3.62698E-11-4.56636E-10 4.21635E-10
 -1   1003959-7.92778E-12-1.21108E-10 1.52883E-10
 -1   1003961 2.78356E-10-1.59713E-10-1.10550E-11
 -1   1003962-2.42767E-10 2.87128E-10 8.37010E-10
 -1   1003964 4.72879E-10 1.87934E-10-2.71491E-10
 -1   1003965-8.72713E-11 1.33329E-10-5.62836E-10
 -1   1003967 1.91530E-10 5.34491E-11 4.49709E-10
 -1   1003968-3.26092E-10 6.18720E-10 2.97265E-10
 -1   1003970 5.53406E-11-3.26280E-10-4.62764E-10
 -1   1003971-5.26074E-11-1.57336E-10-7.52191E-10
 -1   1003973 1.42307E-10-3.76997E-10-5.73050E-10
 -1   1003974 1.23151E-10-4.61231E-10-2.23813E-10
 -1   1003976-1.98938E-10 3.33164E-10 1.26101E-11
 -1   1003977 1.42720E-10 2.84218E-10 1.34603E-09
 -1   1003979-2.75989E-10 3.02157E-10-1.38673E-09
 -1   1003980-1.53892E-10-1.27009E-11 7.89270E-11
 -1   1003982 1.85173E-10 3.09411E-10 1.71021E-09
 -1   1003983-3.46935E-10 8.36348E-11 1.17902E-09
 -1   1003985-3.54465E-10-6.35531E-10 6.61533E-10
 -1   1003986 2.05667E-10-4.94296E-10 9.24995E-10
 -1   1003988-1.21112E-10-9.07412E-11-2.26745E-09
 -1   1003989-6.01576E-11 4.72391E-10 4.99248E-10
 -1   1003991-3.88326E-11-8.56044E-12-5.89555E-10
 -1   1003992 9.39935E-11-6.11704E-10 1.60633E-09
 -1   1003994-2.51242E-10-2.90307E-10 1.56738E-09
 -1   1003995 3.55864E-11-4.77686E-11 2.23951E-10
 -1   1003997-1.58230E-10 4.18796E-10 1.36963E-09
 -1   1003998 3.31095E-10 4.28414E-10 4.76982E-10
 -1   1004000-1.92994E-10-1.09554E-11 8.71798E-10
 -1   1004001-1.46570E-10 7.17887E-10 2.37585E-09
 -1   1004003 2.90013E-10-2.00567E-10-8.62966E-10
 -1   1004004-1.86831E-10 2.44099E-10 1.74904E-10
 -1   1004006 4.25156E-10-1.24476E-10 1.97512E-10
 -1   1004007-1.42380E-10 7.54759E-10-1.29165E-09
 -1   1004009 8.33519E-11 1.56814E-10 1.30133E-09
 -1   1004010-5.53730E-11-2.57245E-10-2.45115E-09
 -1   1004012 1.54765E-10-1.49852E-10 4.27914E-10
 -1   1004013-2.38736E-10 3.62977E-10-6.28444E-10
 -1   1004015 3.40012E-10 2.88292E-10 9.37362E-10
 -1   1004016-2.06562E-10 7.31884E-11-1.23389E-09
 -1   1004018 1.88484E-10-7.10477E-11 5.10983E-10
 -1   1004019-5.75557E-10 1.28877E-10 2.13157E-09
 -1   1004021 4.60090E-10-2.97173E-10-2.88876E-09
 -1   1004022-8.38247E-11 2.23996E-10-2.72034E-09
 -1   1004024-2.31657E-10-1.13018E-10 1.29420E-09
 -1   1004025 8.77605E-11 4.02458E-10 2.86232E-09
 -1   1004027-4.98308E-11-1.03674E-10 3.14345E-09
 -1   1004028 1.32255E-10 3.10390E-10 2.44264E-09
 -1   1004030-1.83064E-10 1.41298E-10 2.15854E-09
 -1   1004031-1.51816E-10 1.52993E-11 2.26874E-09
 -1   1004033-1.75520E-10 4.33583E-10 9.40413E-10
 -1   1004034-1.92936E-11 5.30891E-11-1.67198E-09
 -1   1004036-5.85887E-11-4.47835E-11 3.26106E-09
 -1   1004037-3.87118E-11 1.48894E-10 3.76129E-11
 -1   1004039 1.12578E-11 2.19482E-10 1.35438E-09
 -1   1004040 1.29720E-11 8.99187E-10-2.54905E-09
 -1   1004042 3.08438E-10-5.30495E-11 2.57283E-09
 -1   1004043-8.21568E-11-3.06839E-10 7.32531E-10
 -1   1004045-7.69703E-11-3.32196E-11 1.91127E-09
 -1   1004046 2.22226E-10-3.00728E-10-2.41197E-10
 -1   1004048 4.89911E-11 8.97437E-12-3.34300E-09
 -1   1004049-3.26229E-11 9.75676E-11 5.70151E-10
 -1   1004051-3.84215E-11-2.88649E-10 7.61546E-10
 -1   1004052-1.50688E-10 8.93598E-11-1.71190E-09
 -1   1004054 2.05752E-10-2.74572E-10 1.23724E-09
 -1   1004055-2.85106E-10-1.38969E-10 1.56852E-09
 -1   1004057 2.67630E-10 8.00836E-10 9.37926E-09
 -1   1004058 1.72379E-11 2.41579E-11-8.30342E-10
 -1   1004060 6.73270E-10 7.09681E-10 2.45204E-09
 -1   1004061 2.71616E-10-8.90744E-10-7.99455E-10
 -1   1004063 2.56074E-10 1.17496E-10 3.48325E-09
 -1   1004064-2.47511E-10 2.39462E-10 1.84035E-09
 -1   1004066 1.31562E-10-3.45730E-10 1.68062E-09
 -1   1004067 1.12865E-11-3.55188E-12-9.78079E-09
 -1   1004069 9.37783E-11 2.45802E-10-1.84821E-09
 -1   1004070-5.40046E-10 7.55487E-10-2.08558E-09
 -1   1004072 3.46749E-10 1.61207E-10-2.51864E-09
 -1   1004073 5.36807E-10 3.54842E-10 2.19127E-09
 -1   1004075-1.65383E-10-1.28517E-10-3.92649E-09
 -1   1004076 1.07213E-09 1.52964E-10 2.95258E-09
 -1   1004078-1.48642E-10-4.43499E-10 4.61838E-09
 -1   1004079 2.30920E-10 2.80446E-12-3.46495E-09
 -1   1004081 3.41585E-10 9.47999E-11 3.91033E-09
 -1   1004082 1.47100E-10-3.19052E-10 4.12758E-11
 -1   1004084-7.29901E-11 1.97915E-10-1.22132E-10
 -1   1004085 1.75994E-10-2.94723E-10 1.31796E-10
 -1   1004087-1.77240E-10 5.51407E-11-2.52303E-10
 -1   1004088 6.05864E-11-2.71417E-10-1.49588E-11
 -1   1004090-6.23968E-13 7.99471E-11-3.03466E-11
 -1   1004091-1.23149E-10-4.32351E-10 1.21030E-10
 -1   1004093 9.88176E-11-1.85650E-10 2.29328E-10
 -1   1004094-4.73614E-11 1.88751E-10 1.24178E-10
 -1   1004096 3.45412E-10-3.34998E-10 2.05813E-11
 -1   1004097-3.54050E-10 2.48636E-11-2.18515E-11
 -1   1004099-6.11151E-11 1.05459E-10 3.74551E-10
 -1   1004100 2.51708E-11 2.17458E-10-5.84670E-10
 -1   1004102 2.38079E-10-1.41954E-11 1.88806E-10
 -1   1004103-8.21669E-12-1.26944E-10 2.04890E-10
 -1   1004105 2.27921E-10-1.94631E-10 7.03475E-10
 -1   1004106-5.63541E-12 1.46359E-10-7.42825E-10
 -1   1004108-6.43674E-11-1.52543E-10 2.49940E-10
 -1   1004109 3.10911E-10-3.20949E-11-4.80490E-10
 -1   1004111 7.08141E-11-3.08554E-10 6.52780E-10
 -1   1004112 2.47335E-10-3.98472E-11 3.48424E-10
 -1   1004114 1.96401E-10 2.63400E-11-4.41269E-12
 -1   1004115 6.65901E-11 3.45242E-10 1.36837E-09
 -1   1004117 8.98665E-11-2.88681E-10 2.57520E-10
 -1   1004118 1.67972E-10 2.59023E-10-9.53326E-10
 -1   1004120 2.75942E-10-5.05573E-10 1.82086E-09
 -1   1004121-9.45076E-12 8.96422E-11-2.21711E-10
 -1   1004123 6.52162E-11-3.70135E-10 3.55000E-10
 -1   1004124 8.85438E-11 4.85153E-11-9.91329E-10
 -1   1004126 4.74117E-11 1.98012E-10 2.86419E-10
 -1   1004127 1.38163E-10 5.59837E-11-7.26110E-10
 -1   1004129-3.12515E-10 2.91253E-10-9.50351E-12
 -1   1004130-1.47463E-10 2.77869E-11-3.99240E-10
 -1   1004132 1.96097E-10 1.69271E-10-4.89709E-10
 -1   1004133 1.34759E-10 1.98277E-11-4.32525E-10
 -1   1004135 2.95510E-10-6.32134E-10-1.14995E-09
 -1   1004136-8.97192E-11 1.66317E-10 5.61135E-10
 -1   1004138 1.57936E-12-2.20182E-10-2.13831E-10
 -1   1004139-3.24650E-11 5.67397E-10 1.33338E-09
 -1   1004141-5.15511E-10 1.48226E-10 1.96660E-10
 -1   1004142-1.35642E-10 3.40503E-10-5.31925E-10
 -1   1004144 2.28088E-10-8.93432E-11-3.18646E-10
 -1   1004145-1.38111E-10 1.18193E-10-4.43545E-10
 -1   1004147 5.61927E-12 5.83526E-11 3.57548E-10
 -1   1004148-5.57008E-11 1.80600E-10-9.87798E-10
 -1   1004150 4.95483E-11-6.36308E-11-1.13160E-09
 -1   1004151 7.48923E-11 3.48264E-10 2.85543E-10
 -1   1004153 3.71708E-10-2.66864E-10 1.20045E-09
 -1   1004154 2.27001E-10 2.84286E-10 4.09142E-10
 -1   1004156 2.66303E-10 6.11502E-11 1.07716E-09
 -1   1004157 2.02922E-10-2.45558E-10-2.92628E-09
 -1   1004159 7.78065E-12-3.81450E-10-3.37906E-10
 -1   1004160-2.26804E-10-5.80715E-11-2.70815E-10
 -1   1004162 1.68173E-10-1.13214E-10 3.09049E-10
 -1   1004163 5.25399E-11-3.40987E-11 8.06872E-10
 -1   1004165-3.68732E-10-1.21707E-10 8.11505E-11
 -1   1004166-4.62159E-11 5.23781E-10 4.46592E-10
 -1   1004168 7.93815E-11-1.09986E-11-1.42649E-09
 -1   1004169-1.11796E-10-3.49980E-11-1.93781E-09
 -1   1004171 7.68337E-11-1.27690E-10-9.01625E-10
 -1   1004172 7.71830E-11-1.63957E-10-3.13076E-09
 -1   1004174-1.60731E-10 2.14511E-10 1.37386E-09
 -1   1004175 2.31683E-10-5.90154E-10-2.59796E-09
 -1   1004177-2.69266E-10 4.22697E-10-5.27294E-10
 -1   1004178 3.12545E-10-3.09368E-10-2.72475E-09
 -1   1004180-2.53006E-10 3.31325E-10-5.63805E-11
 -1   1004181 5.52951E-13 8.65592E-11 3.17446E-09
 -1   1004183-9.00510E-10-6.99578E-11 7.68850E-10
 -1   1004184 2.74042E-10 5.41339E-11 2.97736E-09
 -1   1004186-3.74067E-10 2.29766E-10 3.17011E-10
 -1   1004187-1.20766E-10-2.83547E-10 1.24619E-09
 -1   1004189 3.23971E-10 3.63955E-10-1.08446E-09
 -1   1004190 5.87492E-11-5.70273E-11-7.93848E-10
 -1   1004192-3.32623E-10-6.52981E-10 1.76101E-09
 -1   1004193 1.04184E-09-4.71463E-11-4.73174E-09
 -1   1004195 2.61614E-11-3.19381E-10-3.40176E-10
 -1   1004196 8.41420E-11-3.48394E-11 2.16782E-09
 -1   1004198-3.14986E-10-1.91075E-10-1.32016E-09
 -1   1004199-1.71200E-10-1.89213E-10-1.04244E-09
 -1   1004201 1.51324E-10-3.49541E-10 2.14246E-10
 -1   1004202 5.26553E-11 1.56334E-10 1.91530E-09
 -1   1004204-2.22974E-10-6.40925E-11-1.28942E-11
 -1   1004205 9.89242E-11 2.40513E-10-2.84300E-09
 -1   1004207 2.41078E-10 4.28533E-11 2.04124E-09
 -1   1004208 1.00692E-10 2.30206E-10-1.73506E-09
 -1   1004210-2.01451E-10-3.49252E-11 1.08726E-09
 -1   1004211-2.08093E-11 3.61839E-10 1.17058E-09
 -1   1004213 3.09497E-10-4.22182E-10-7.82759E-11
 -1   1004214-1.12204E-10-3.57051E-10-1.07612E-09
 -1   1004216-9.32378E-11-1.23259E-10 1.77001E-09
 -1   1004217 1.28525E-10-1.04178E-10-1.71441E-09
 -1   1004219-1.58494E-10 1.53024E-10-1.64644E-09
 -1   1004220-1.11881E-10-1.09212E-10-1.01535E-09
 -1   1004222-6.87464E-10 3.17570E-10-7.37956E-10
 -1   1004223 1.12755E-10 1.69949E-10 1.18627E-10
 -1   1004225-3.43223E-10 3.70483E-11 2.08058E-09
 -1   1004226-1.76269E-11-5.37318E-11-3.28281E-10
 -1   1004228-3.00791E-10-1.06474E-11-1.22341E-09
 -1   1004229 2.37808E-10-6.37748E-11 5.96930E-10
 -1   1004231 1.73590E-10-4.85070E-11 3.85297E-10
 -1   1004232-1.03184E-10-3.36840E-10 8.67833E-11
 -1   1004234-3.08517E-10 3.42220E-10 2.79032E-12
 -1   1004235 4.29730E-10-1.21522E-10 8.55706E-11
 -1   1004237-4.17809E-10 2.24173E-10 3.56126E-12
 -1   1004238 4.69922E-10-5.80231E-11 2.02789E-10
 -1   1004240-2.90848E-10 1.25957E-10 1.69733E-10
 -1   1004241 3.88067E-10 1.02131E-10 3.32363E-10
 -1   1004243-2.19894E-10 8.56358E-11 1.82625E-10
 -1   1004244 6.53678E-14 9.43813E-11 2.17014E-10
 -1   1004246 3.81900E-10-7.06375E-11 2.35676E-10
 -1   1004247 1.47366E-11 2.40253E-10 5.25528E-10
 -1   1004249 1.14883E-10 8.70916E-11 1.52459E-10
 -1   1004250-1.90156E-10 1.20176E-10 2.33707E-10
 -1   1004252 1.46664E-11-5.02126E-11 2.20255E-10
 -1   1004253-5.60130E-10 1.04667E-10-5.07928E-10
 -1   1004255 2.60067E-11-2.05451E-10 5.58968E-10
 -1   1004256 6.60048E-11-7.48571E-11-6.36907E-10
 -1   1004258 1.08180E-10-2.02627E-10 8.87767E-11
 -1   1004259-2.29214E-10-6.09325E-11 3.07265E-10
 -1   1004261-1.87752E-10-2.03734E-11 3.13681E-10
 -1   1004262-2.19536E-10 1.94856E-11 1.48903E-10
 -1   1004264-6.85476E-10 1.02239E-11 1.30134E-09
 -1   1004265 2.48194E-11 3.22622E-11-2.75368E-10
 -1   1004267-1.69911E-11 1.21603E-10 1.92338E-10
 -1   1004268 2.24050E-10 1.14944E-10-4.22066E-10
 -1   1004270 3.40930E-10-1.98625E-10 1.39003E-10
 -1   1004271-2.65231E-10 1.15592E-10 1.98530E-09
 -1   1004273 1.76394E-10 1.72990E-11 6.56808E-10
 -1   1004274-5.70927E-11-2.77137E-10-4.09859E-10
 -1   1004276-1.70813E-10 5.10136E-11-1.44254E-10
 -1   1004277-2.02002E-10 1.07012E-10 6.01128E-11
 -1   1004279 3.24180E-10-5.13455E-10 1.30062E-09
 -1   1004280-3.03593E-11 4.99854E-12 1.09909E-10
 -1   1004282-2.45125E-10 1.38649E-10-1.22198E-09
 -1   1004283-1.06633E-10 1.04939E-10 1.25775E-09
 -1   1004285 6.65843E-11 6.11897E-11-8.31148E-10
 -1   1004286-1.26572E-10 6.27390E-10 2.98861E-10
 -1   1004288 1.82375E-10-2.41408E-10-6.44785E-10
 -1   1004289-5.98444E-10-2.66865E-11-2.40417E-10
 -1   1004291-1.53680E-10 1.74009E-10-1.86002E-09
 -1   1004292-4.97193E-10 7.66379E-10 6.29698E-10
 -1   1004294-2.45001E-10-5.33829E-10-8.56602E-10
 -1   1004295 1.49859E-10 1.23455E-10-2.44440E-10
 -1   1004297 2.22859E-10-2.11421E-10-7.69355E-10
 -1   1004298-1.19214E-10 4.53142E-10 1.59757E-09
 -1   1004300 2.29931E-10 3.25556E-11 2.22808E-09
 -1   1004301-5.52025E-10-1.28697E-10-9.28424E-10
 -1   1004303 3.85853E-10-5.90156E-11 2.94146E-09
 -1   1004304-7.67500E-11 3.14709E-10-7.47606E-10
 -1   1004306-3.01579E-10 1.94087E-10-4.59990E-10
 -1   1004307-1.99089E-10 5.52981E-11 2.56359E-09
 -1   1004309-2.22883E-10 1.33640E-10 1.22664E-09
 -1   1004310 1.08525E-10 1.22821E-10 2.69515E-09
 -1   1004312-7.55218E-12-1.03524E-10-2.95270E-10
 -1   1004313-1.84627E-11 4.19357E-11 6.25550E-11
 -1   1004315 1.73217E-10-1.68786E-10 1.95772E-09
 -1   1004316-1.13290E-10 2.97739E-10 1.33915E-09
 -1   1004318-4.23666E-10 1.12053E-10-1.69394E-09
 -1   1004319 1.02456E-10-2.75680E-10-6.17219E-10
 -1   1004321 2.49470E-10-4.32231E-11-3.90699E-09
 -1   1004322-2.25239E-10 9.57914E-11 3.59052E-10
 -1   1004324 2.07507E-10 4.01040E-10 5.10193E-10
 -1   1004325-2.72699E-10 3.41197E-10-2.32021E-10
 -1   1004327 5.92969E-11-9.42743E-11-1.94040E-11
 -1   1004328 2.84824E-10 1.69634E-10-5.28733E-10
 -1   1004330 2.72954E-10-6.28480E-11 2.74816E-09
 -1   1004331-9.16153E-11-1.78558E-10 2.42209E-09
 -1   1004333-7.27671E-11-2.45453E-10 2.98577E-09
 -1   1004334-5.98133E-10 2.36818E-10 1.56131E-10
 -1   1004336-3.11384E-10 6.15438E-11 2.06366E-09
 -1   1004337-1.46109E-10 1.48659E-10 1.43906E-10
 -1   1004339-1.93627E-11 5.73023E-11-1.83046E-09
 -1   1004340-2.63510E-10 1.69736E-10 1.17141E-10
 -1   1004342 5.88323E-12-3.00289E-11 1.88743E-09
 -1   1004343 2.56209E-10-2.19196E-10-1.74926E-09
 -1   1004345-3.71654E-10 8.18718E-11 9.62857E-10
 -1   1004346 2.11951E-12-3.65828E-11-5.25999E-12
 -1   1004348 2.74983E-10-1.03632E-10 3.11945E-09
 -1   1004349-2.95203E-10 9.37039E-11 2.60702E-09
 -1   1004351 1.39233E-10 7.45609E-11 2.35911E-09
 -1   1004352-2.44668E-10 3.34129E-10 1.08679E-09
 -1   1004354-3.14303E-10-1.61843E-10 3.39368E-09
 -1   1004355 9.27702E-11-3.70286E-10-2.70554E-10
 -1   1004357 1.11656E-10-2.34911E-10-1.67137E-09
 -1   1004358 5.35992E-11 1.87563E-11-4.20512E-10
 -1   1004360-2.62499E-10 1.99123E-11 2.04725E-09
 -1   1004361 1.39140E-10-1.28880E-10 2.20974E-09
 -1   1004363 1.55678E-10-2.87370E-10 6.99640E-12
 -1   1004364-1.14679E-10 4.96409E-10-1.00220E-09
 -1   1004366 3.14807E-10-7.10143E-11 2.31863E-09
 -1   1004367-5.23844E-10 2.27241E-11 4.45070E-11
 -1   1004369 2.59871E-11 3.90012E-11 2.64682E-09
 -1   1004370 2.76993E-10-2.83758E-11 3.83547E-10
 -1   1004372-1.73969E-10-3.27937E-11 4.56803E-09
 -1   1004373 2.07247E-10 1.77597E-10-1.65082E-09
 -1   1004375 3.36076E-10-4.42180E-10 2.62396E-09
 -1   1004376-2.45146E-10 2.75847E-10-2.43152E-09
 -1   1004378 2.30332E-10-2.32194E-11-2.59254E-09
 -1   1004379-4.34511E-10 2.80920E-11-9.02454E-10
 -1   1004381-1.47626E-10-8.99573E-11 7.39793E-10
 -1   1004382-1.50357E-10 5.36763E-11 8.30772E-11
 -1   1004384-1.29333E-10-6.72890E-11 2.83977E-11
 -1   1004385 3.98514E-11-2.09629E-11-1.53852E-11
 -1   1004387-1.91192E-10 8.47927E-12-8.89183E-11
 -1   1004388 1.79110E-10 1.04817E-10-9.22625E-11
 -1   1004390-4.54043E-10-2.33322E-11-1.05806E-11
 -1   1004391 3.12877E-10 9.16762E-11 2.45067E-10
 -1   1004393-3.74317E-11 7.58097E-11-6.59773E-11
 -1   1004394 3.62913E-10-7.58103E-11-6.90498E-12
 -1   1004396-1.15301E-10 2.87788E-10-6.20654E-10
 -1   1004397 1.69537E-10 2.71652E-10 3.87524E-10
 -1   1004399-1.39403E-10 9.78672E-11-6.85955E-10
 -1   1004400 6.08234E-11-1.08450E-10 1.02616E-09
 -1   1004402 1.94603E-10 2.93380E-10 1.12453E-09
 -1   1004403 2.75247E-10 2.87512E-11 3.84338E-10
 -1   1004405 2.79069E-10-1.49895E-10 4.73517E-10
 -1   1004406 7.25306E-11-1.07949E-10 1.43011E-10
 -1   1004408-5.55925E-12 3.74832E-11-1.12645E-09
 -1   1004409-3.24576E-10-1.43422E-10 4.75284E-10
 -1   1004411-2.22449E-10-1.09482E-10-7.18451E-10
 -1   1004412 1.90366E-10 1.28364E-10-1.12496E-09
 -1   1004414-2.19872E-10 1.58061E-10 5.25560E-10
 -1   1004415 6.40080E-10-1.12517E-10-5.40800E-10
 -1   1004417-6.55960E-10 3.15391E-10 1.73294E-09
 -1   1004418 1.39493E-10-1.52148E-10 6.05302E-10
 -1   1004420-1.60047E-10-3.00811E-10 1.06001E-09
 -1   1004421 1.02896E-10-3.06615E-11-2.62983E-10
 -1   1004423 4.59728E-10-1.21526E-10 6.06181E-10
 -1   1004424 1.08400E-10-9.74511E-11-1.79651E-10
 -1   1004426-4.86450E-10 8.41658E-11-6.42307E-10
 -1   1004427-8.50462E-11-1.14636E-10 7.80128E-10
 -1   1004429-1.52155E-11 2.46696E-10-1.98257E-10
 -1   1004430 5.49225E-10-2.46356E-10-1.86233E-10
 -1   1004432-2.11211E-10 3.00623E-10 3.48339E-10
 -1   1004433 3.84110E-10-1.00983E-10-5.34497E-10
 -1   1004435-6.12915E-10 9.88745E-11 1.85511E-09
 -1   1004436-2.15199E-10-7.50243E-11 1.30113E-09
 -1   1004438-4.52231E-10 2.64020E-10-4.25612E-10
 -1   1004439-3.53652E-10 1.14430E-10 2.49159E-09
 -1   1004441 1.74417E-10 7.12939E-12 7.12362E-10
 -1   1004442-1.21772E-10-1.54788E-10 1.36549E-09
 -1   1004444-2.91086E-10 1.24227E-10 8.20618E-10
 -1   1004445-2.37431E-10 1.06259E-10-1.29942E-10
 -1   1004447-1.51949E-12-1.68861E-11-8.79796E-10
 -1   1004448-4.30079E-10-1.48857E-10-5.64002E-10
 -1   1004450 4.01451E-10-2.27336E-10-1.69024E-09
 -1   1004451-2.86291E-10 5.66331E-11 1.15299E-09
 -1   1004453 1.22163E-10-1.11133E-11-5.45050E-11
 -1   1004454 8.43874E-12 2.31702E-11-1.28418E-09
 -1   1004456-4.84126E-10-4.98823E-11 1.00949E-09
 -1   1004457 4.70041E-10-1.70288E-10-1.36613E-09
 -1   1004459-4.26559E-11-1.44197E-10 1.49059E-09
 -1   1004460 1.11568E-10-2.73747E-10 1.65103E-09
 -1   1004462-4.09847E-10 1.06826E-10-1.43868E-09
 -1   1004463 1.98117E-10 3.20710E-10 1.29951E-09
 -1   1004465-1.24911E-10 2.30993E-11 1.88969E-09
 -1   1004466 2.71708E-10-5.16493E-11-1.14504E-09
 -1   1004468-6.44094E-10 1.40938E-10-1.54856E-10
 -1   1004469 3.76610E-10-2.66759E-11-5.48144E-10
 -1   1004471 1.42129E-10 1.56083E-10 8.84468E-10
 -1   1004472 3.28157E-10-9.65898E-11-4.65165E-10
 -1   1004474-8.43511E-10 1.81946E-10-1.36303E-09
 -1   1004475 2.01462E-11 4.96549E-11-1.01208E-09
 -1   1004477-2.93453E-10-1.30204E-11-1.15514E-09
 -1   1004478-5.05678E-10 1.05354E-10 2.87096E-09
 -1   1004480 6.34776E-10-9.19118E-11 2.39251E-10
 -1   1004481-2.54747E-11 2.00643E-10 1.96680E-09
 -1   1004483 9.34611E-11 3.12462E-10 3.74566E-09
 -1   1004484 5.34170E-10-2.09909E-11-2.11202E-09
 -1   1004486-1.84216E-10 2.50942E-10-1.43110E-09
 -1   1004487 3.66849E-10-1.24798E-10-3.42021E-09
 -1   1004489-7.35157E-11 2.10801E-10 5.24795E-09
 -1   1004490-1.07925E-10 2.52241E-11-6.17348E-10
 -1   1004492-1.61284E-10 5.18593E-11 6.23507E-11
 -1   1004493-6.45876E-11 1.73431E-10 2.26795E-10
 -1   1004495-3.60763E-10-2.67961E-11 2.74404E-09
 -1   1004496-7.76468E-10 5.47862E-12 2.20654E-09
 -1   1004498 1.47936E-10-2.52361E-10 3.37098E-09
 -1   1004499-1.59849E-10-3.22528E-10 3.19770E-09
 -1   1004501 1.32509E-09-6.68273E-10 3.31014E-09
 -1   1004502-4.17887E-10 2.47147E-10-2.02900E-09
 -1   1004504 4.37258E-10-8.79827E-11-3.61659E-10
 -1   1004505-5.18781E-10-4.00134E-10-2.36230E-09
 -1   1004507-9.87900E-12-5.42152E-10-2.21213E-09
 -1   1004508 3.38125E-10-6.91323E-11-3.62562E-09
 -1   1004510 1.29217E-10 3.32536E-10-5.20409E-10
 -1   1004511-1.03895E-10-2.89632E-10-4.18879E-09
 -1   1004513 6.75979E-10 1.45676E-10 4.74462E-09
 -1   1004514-2.99478E-10-6.06533E-11-1.53978E-09
 -1   1004516 6.25140E-10-2.30056E-11-4.92840E-10
 -1   1004517 1.72713E-10-2.58654E-10 5.20387E-10
 -1   1004519 5.88519E-10 2.70956E-10-4.26084E-10
 -1   1004520-1.15238E-10-2.54473E-10-3.79718E-09
 -1   1004522 2.20879E-10-2.91901E-10-2.63506E-10
 -1   1004523-3.62581E-10 4.48078E-10-4.23218E-09
 -1   1004525-1.30299E-10 5.48020E-11-2.07297E-09
 -1   1004526 1.56581E-10-6.57873E-10 1.46690E-09
 -1   1004528 9.29003E-11 1.80455E-10 9.74128E-10
 -1   1004529-1.56100E-10-4.79272E-11-6.52597E-09
 -1   1004531 5.01354E-10-3.73470E-11 1.75316E-09
 -1   1004532-1.95119E-10-1.03393E-10 2.77924E-11
 -1   1004534-2.50880E-10 7.03621E-11 1.72647E-11
 -1   1004535 2.94846E-10-3.96158E-11-3.69890E-11
 -1   1004537-1.26175E-10 2.34831E-13 1.91501E-11
 -1   1004538 2.20476E-10-3.84164E-11 4.81418E-10
 -1   1004540-3.77023E-12 2.13701E-11 2.85581E-10
 -1   1004541 8.90312E-10-7.57252E-11 3.97015E-10
 -1   1004543-2.28048E-10 1.07671E-11-1.44025E-10
 -1   1004544 3.61237E-10 3.33529E-12-2.55841E-11
 -1   1004546-3.56330E-11 7.55509E-11-2.46065E-10
 -1   1004547 2.16255E-10-9.56866E-11-2.40808E-10
 -1   1004549 6.20663E-11 7.41015E-11-2.13927E-10
 -1   1004550 4.23820E-11-6.06863E-11-2.72356E-10
 -1   1004552-1.75132E-11 3.54634E-11 4.09378E-10
 -1   1004553-6.32812E-10 7.01083E-11 7.91018E-10
 -1   1004555 9.13038E-10-5.73015E-11 6.07998E-10
 -1   1004556-8.47857E-11-4.04985E-11 3.21903E-10
 -1   1004558-2.04760E-10 3.89816E-11-1.77946E-10
 -1   1004559 1.06254E-10 6.05912E-11 1.01581E-09
 -1   1004561 1.52243E-11 3.70429E-11-1.09897E-10
 -1   1004562 7.20455E-10-6.96269E-11-1.47183E-10
 -1   1004564 4.06855E-11 6.43714E-11 1.42683E-09
 -1   1004565 1.56546E-10 6.64265E-11 1.45809E-09
 -1   1004567-1.16705E-10-3.99576E-11 4.15671E-10
 -1   1004568-4.62347E-10 4.49912E-12 9.92504E-10
 -1   1004570-7.85363E-10-1.50462E-10 2.33135E-11
 -1   1004571 3.93080E-10-8.49026E-11 3.65770E-10
 -1   1004573 2.32940E-11-9.46942E-11 1.32454E-09
 -1   1004574 3.33613E-10-1.76201E-10 9.95872E-10
 -1   1004576-5.25574E-11-3.23777E-11 2.54964E-09
 -1   1004577 5.65314E-11-5.85624E-11-3.61810E-10
 -1   1004579 1.02795E-10-2.83914E-11 4.42798E-10
 -1   1004580-8.54620E-11-7.63366E-12 1.72691E-09
 -1   1004582 4.22180E-10 5.12244E-12 2.20165E-09
 -1   1004583 1.45609E-10-2.55981E-11-3.97089E-10
 -1   1004585-1.36154E-10 1.27139E-10 4.73748E-10
 -1   1004586-2.77715E-10-2.28581E-10-1.05907E-10
 -1   1004588 1.93509E-11 3.60188E-10-3.38037E-10
 -1   1004589-5.06531E-10 1.18376E-10 1.29230E-09
 -1   1004591-4.08703E-10 1.73466E-10 2.59201E-10
 -1   1004592-3.26802E-10 8.31652E-11 1.84167E-09
 -1   1004594 2.21680E-10-5.53356E-11-7.12291E-10
 -1   1004595 2.34041E-10-9.31617E-11 1.90623E-09
 -1   1004597 1.58661E-10 1.63425E-10 8.17086E-10
 -1   1004598-5.74860E-10 1.88942E-11 9.36227E-10
 -1   1004600 1.42076E-10-7.94390E-11-6.41937E-10
 -1   1004601 3.51528E-11 1.16277E-10 7.79142E-11
 -1   1004603 4.10967E-10-1.87256E-10 1.70971E-09
 -1   1004604-8.72802E-11 1.38200E-10-2.02610E-10
 -1   1004606 7.89161E-11-2.12474E-10 2.34256E-09
 -1   1004607-3.86566E-10-2.40968E-11-5.27770E-10
 -1   1004609 2.87947E-10-6.13186E-11-2.26681E-09
 -1   1004610-6.78392E-11 2.32531E-11-1.04893E-09
 -1   1004612-7.36698E-10-5.38079E-11-1.31995E-09
 -1   1004613-1.66421E-10-3.48139E-11-1.17587E-09
 -1   1004615 1.69650E-10 5.33431E-12 9.86598E-10
 -1   1004616 6.07056E-10-9.01636E-11 8.43070E-10
 -1   1004618-2.76754E-10 3.53015E-11 2.43653E-09
 -1   1004619 5.11547E-10 5.91674E-11-1.79785E-09
 -1   1004621 6.40788E-11-5.81377E-11 1.43112E-09
 -1   1004622-4.49307E-10 6.36858E-10 1.62183E-09
 -1   1004624-5.90140E-10-5.62902E-10 1.13195E-09
 -1   1004625 4.34632E-11 1.03581E-10 3.61149E-09
 -1   1004627-5.45184E-11-1.38789E-10-3.14677E-09
 -1   1004628-1.74639E-12 8.84431E-11 5.17459E-09
 -1   1004630 6.99247E-10 1.76552E-11 4.19146E-09
 -1   1004631-3.80992E-10-5.33190E-12 1.34746E-09
 -1   1004633 4.40488E-10-9.83689E-11 4.31635E-09
 -1   1004634 6.48274E-10-1.13389E-10-3.25713E-09
 -1   1004636 2.44130E-10-5.18984E-11-1.05482E-09
 -1   1004637-2.39358E-11-2.40247E-11 2.81362E-10
 -1   1004639 2.72289E-10 3.63278E-11 4.14814E-09
 -1   1004640-9.68601E-11-8.34637E-11 3.60625E-09
 -1   1004642-1.81820E-10-4.86337E-12 4.70339E-09
 -1   1004643-3.76127E-10 4.16351E-11-1.54186E-09
 -1   1004645 1.21814E-10-2.41453E-10 2.51733E-09
 -1   1004646-2.85216E-10-5.35715E-11-7.01472E-10
 -1   1004648-5.68813E-10 5.12110E-11-6.37266E-10
 -1   1004649-9.08659E-11 9.66093E-11-9.74852E-10
 -1   1004651 4.69681E-10-9.99117E-11 5.26041E-09
 -1   1004652-1.21078E-11 9.53393E-11 6.85292E-11
 -1   1004654 3.63946E-10-5.98663E-11 2.59189E-09
 -1   1004655 2.63599E-10-5.82543E-10-2.71509E-10
 -1   1004657 3.56425E-10 4.24715E-10-2.86126E-09
 -1   1004658-2.38912E-10 9.30917E-11 2.72046E-09
 -1   1004660 2.60361E-10 5.84793E-11 2.04174E-09
 -1   1004661-6.05738E-10 1.03040E-10 4.54258E-09
 -1   1004663 6.86248E-10-1.05860E-10 3.44774E-09
 -1   1004664-8.56364E-10 2.49317E-10-2.23475E-09
 -1   1004666 1.06640E-10-1.18622E-12 8.61866E-10
 -1   1004667 2.49813E-10-5.58097E-11-2.28417E-09
 -1   1004669-4.70635E-10 1.61645E-11-7.70650E-10
 -1   1004670 1.26161E-10-3.25963E-12-3.87138E-11
 -1   1004672 2.10968E-10 4.85469E-12 7.69863E-10
 -1   1004673-8.16026E-11-2.47436E-11 4.76598E-09
 -1   1004675 2.96046E-12 1.10157E-10 1.01872E-09
 -1   1004676 3.10015E-10 3.93961E-11-2.23977E-09
 -1   1004678-4.46222E-10 5.11028E-11-5.43415E-09
 -1   1004679 6.40597E-10 3.52357E-10-5.03923E-09
 -1   1004681-8.75259E-11 7.80424E-11 9.06072E-09
 -3
    1PSTEP                         4           1           1          
  100CL  101 1.000000000        3120                     0    1           1
 -4  ERROR       1    1
 -5  STR(%)      1    1    0    0
 -1   1000002 5.64991E-01
 -1   1000004 5.64991E-01
 -1   1000005 1.39804E-04
 -1   1000007 1.39804E-04
 -1   1000008 5.64991E-01
 -1   1000010 5.64991E-01
 -1   1000011 5.64991E-01
 -1   1000013 5.64991E-01
 -1   1000014 5.64991E-01
 -1   1000016 5.64991E-01
 -1   1000017 5.64991E-01
 -1   1000019 5.64991E-01
 -1   1000020 5.64991E-01
 -1   1000022 5.64991E-01
 -1   1000023 5.64991E-01
 -1   1000025 5.64991E-01
 -1   1000026 5.64991E-01
 -1   1000028 5.64991E-01
 -1   1000029 5.64991E-01
 -1   1000031 5.64991E-01
 -1   1000032 5.64991E-01
 -1   1000034 5.64991E-01
 -1   1000035 5.64991E-01
 -1   1000037 5.64991E-01
 -1   1000038 5.64991E-01
 -1   1000040 5.64991E-01
 -1   1000041 5.64991E-01
 -1   1000043 5.64991E-01
 -1   1000044 5.64991E-01
 -1   1000046 5.64991E-01
 -1   1000047 5.64991E-01
 -1   1000049 5.64991E-01
 -1   1000050 5.64991E-01
 -1   1000052 5.64991E-01
 -1   1000053 5.64991E-01
 -1   1000055 5.64991E-01
 -1   1000056 5.64991E-01
 -1   1000058 5.64991E-01
 -1   1000059 5.64991E-01
 -1   1000061 5.64991E-01
 -1   1000062 5.64991E-01
 -1   1000064 5.64991E-01
 -1   1000065 5.64991E-01
 -1   1000067 5.64991E-01
 -1   1000068 5.64991E-01
 -1   1000070 5.64991E-01
 -1   1000071 5.64991E-01
 -1   1000073 5.64991E-01
 -1   1000074 5.64991E-01
 -1   1000076 5.64991E-01
 -1   1000077 5.64991E-01
 -1   1000079 5.64991E-01
 -1   1000080 5.64991E-01
 -1   1000082 5.64991E-01
 -1   1000083 5.64991E-01
 -1   1000085 5.64991E-01
 -1   1000086 5.64991E-01
 -1   1000088 5.64991E-01
 -1   1000089 5.64991E-01
 -1   1000091 5.64991E-01
 -1   1000092 5.64991E-01
 -1   1000094 5.64991E-01
 -1   1000095 5.64991E-01
 -1   1000097 5.64991E-01
 -1   1000098 9.55286E-02
 -1   1000100 9.55286E-02
 -1   1000101 5.36961E-02
 -1   1000103 5.36961E-02
 -1   1000104 5.62594E-02
 -1   1000106 5.62594E-02
 -1   1000107 5.62594E-02
 -1   1000109 5.62594E-02
 -1   1000110 5.26526E-02
 -1   1000112 5.26526E-02
 -1   1000113 4.78184E-02
 -1   1000115 4.78184E-02
 -1   1000116 4.30510E-02
 -1   1000118 4.30510E-02
 -1   1000119 3.86581E-02
 -1   1000121 3.86581E-02
 -1   1000122 3.46860E-02
 -1   1000124 3.46860E-02
 -1   1000125 3.11143E-02
 -1   1000127 3.11143E-02
 -1   1000128 2.79080E-02
 -1   1000130 2.79080E-02
 -1   1000131 2.50311E-02
 -1   1000133 2.50311E-02
 -1   1000134 2.24502E-02
 -1   1000136 2.24502E-02
 -1   1000137 2.01348E-02
 -1   1000139 2.01348E-02
 -1   1000140 1.80577E-02
 -1   1000142 1.80577E-02
 -1   1000143 1.61943E-02
 -1   1000145 1.61943E-02
 -1   1000146 1.45225E-02
 -1   1000148 1.45225E-02
 -1   1000149 1.30227E-02
 -1   1000151 1.30227E-02
 -1   1000152 1.16770E-02
 -1   1000154 1.16770E-02
 -1   1000155 1.04696E-02
 -1   1000157 1.04696E-02
 -1   1000158 9.38608E-03
 -1   1000160 9.38608E-03
 -1   1000161 8.41371E-03
 -1   1000163 8.41371E-03
 -1   1000164 7.54097E-03
 -1   1000166 7.54097E-03
 -1   1000167 6.75751E-03
 -1   1000169 6.75751E-03
 -1   1000170 6.05408E-03
 -1   1000172 6.05408E-03
 -1   1000173 5.42232E-03
 -1   1000175 5.42232E-03
 -1   1000176 4.85479E-03
 -1   1000178 4.85479E-03
 -1   1000179 4.34475E-03
 -1   1000181 4.34475E-03
 -1   1000182 3.88616E-03
 -1   1000184 3.88616E-03
 -1   1000185 3.47359E-03
 -1   1000187 3.47359E-03
 -1   1000188 3.10217E-03
 -1   1000190 3.10217E-03
 -1   1000191 2.76748E-03
 -1   1000193 2.76748E-03
 -1   1000194 2.46557E-03
 -1   1000196 2.46557E-03
 -1   1000197 2.19286E-03
 -1   1000199 2.19286E-03
 -1   1000200 1.94613E-03
 -1   1000202 1.94613E-03
 -1   1000203 1.72244E-03
 -1   1000205 1.72244E-03
 -1   1000206 1.51915E-03
 -1   1000208 1.51915E-03
 -1   1000209 1.33385E-03
 -1   1000211 1.33385E-03
 -1   1000212 1.16436E-03
 -1   1000214 1.16436E-03
 -1   1000215 1.00865E-03
 -1   1000217 1.00865E-03
 -1   1000218 8.64903E-04
 -1   1000220 8.64903E-04
 -1   1000221 7.31389E-04
 -1   1000223 7.31389E-04
 -1   1000224 6.06542E-04
 -1   1000226 6.06542E-04
 -1   1000227 4.88863E-04
 -1   1000229 4.88863E-04
 -1   1000230 3.76994E-04
 -1   1000232 3.76994E-04
 -1   1000233 2.69583E-04
 -1   1000235 2.69583E-04
 -1   1000236 1.65386E-04
 -1   1000238 1.65386E-04
 -1   1000239 6.31745E-05
 -1   1000241 6.31745E-05
 -1   1000242 1.39804E-04
 -1   1000244 1.39804E-04
 -1   1000245 1.39804E-04
 -1   1000247 1.39804E-04
 -1   1000248 1.39779E-04
 -1   1000250 1.39779E-04
 -1   1000251 1.39763E-04
 -1   1000253 1.39763E-04
 -1   1000254 1.39727E-04
 -1   1000256 1.39727E-04
 -1   1000257 1.39720E-04
 -1   1000259 1.39720E-04
 -1   1000260 1.39720E-04
 -1   1000262 1.39720E-04
 -1   1000263 1.39729E-04
 -1   1000265 1.39729E-04
 -1   1000266 1.39729E-04
 -1   1000268 1.39729E-04
 -1   1000269 1.39726E-04
 -1   1000271 1.39726E-04
 -1   1000272 1.39726E-04
 -1   1000274 1.39726E-04
 -1   1000275 1.39722E-04
 -1   1000277 1.39722E-04
 -1   1000278 1.39722E-04
 -1   1000280 1.39722E-04
 -1   1000281 1.39720E-04
 -1   1000283 1.39720E-04
 -1   1000284 1.39720E-04
 -1   1000286 1.39720E-04
 -1   1000287 1.39715E-04
 -1   1000289 1.39715E-04
 -1   1000290 1.39727E-04
 -1   1000292 1.39727E-04
 -1   1000293 1.39727E-04
 -1   1000295 1.39727E-04
 -1   1000296 1.39721E-04
 -1   1000298 1.39721E-04
 -1   1000299 1.39720E-04
 -1   1000301 1.39720E-04
 -1   1000302 1.39720E-04
 -1   1000304 1.39720E-04
 -1   1000305 1.39724E-04
 -1   1000307 1.39724E-04
 -1   1000308 1.39724E-04
 -1   1000310 1.39724E-04
 -1   1000311 1.39712E-04
 -1   1000313 1.39712E-04
 -1   1000314 1.39719E-04
 -1   1000316 1.39719E-04
 -1   1000317 1.39733E-04
 -1   1000319 1.39733E-04
 -1   1000320 1.39733E-04
 -1   1000322 1.39733E-04
 -1   1000323 1.39749E-04
 -1   1000325 1.39749E-04
 -1   1000326 1.39772E-04
 -1   1000328 1.39772E-04
 -1   1000329 1.39772E-04
 -1   1000331 1.39772E-04
 -1   1000332 5.64991E-01
 -1   1000334 5.64991E-01
 -1   1000335 9.55286E-02
 -1   1000337 9.55286E-02
 -1   1000338 5.36961E-02
 -1   1000340 5.36961E-02
 -1   1000341 5.62594E-02
 -1   1000343 5.62594E-02
 -1   1000344 5.62594E-02
 -1   1000346 5.62594E-02
 -1   1000347 5.26526E-02
 -1   1000349 5.26526E-02
 -1   1000350 4.78184E-02
 -1   1000352 4.78184E-02
 -1   1000353 4.30510E-02
 -1   1000355 4.30510E-02
 -1   1000356 3.86581E-02
 -1   1000358 3.86581E-02
 -1   1000359 3.46860E-02
 -1   1000361 3.46860E-02
 -1   1000362 3.11143E-02
 -1   1000364 3.11143E-02
 -1   1000365 2.79080E-02
 -1   1000367 2.79080E-02
 -1   1000368 2.50311E-02
 -1   1000370 2.50311E-02
 -1   1000371 2.24502E-02
 -1   1000373 2.24502E-02
 -1   1000374 2.01348E-02
 -1   1000376 2.01348E-02
 -1   1000377 1.80577E-02
 -1   1000379 1.80577E-02
 -1   1000380 1.61943E-02
 -1   1000382 1.61943E-02
 -1   1000383 1.45225E-02
 -1   1000385 1.45225E-02
 -1   1000386 1.30227E-02
 -1   1000388 1.30227E-02
 -1   1000389 1.16770E-02
 -1   1000391 1.16770E-02
 -1   1000392 1.04696E-02
 -1   1000394 1.04696E-02
 -1   1000395 9.38608E-03
 -1   1000397 9.38608E-03
 -1   1000398 8.41372E-03
 -1   1000400 8.41372E-03
 -1   1000401 7.54097E-03
 -1   1000403 7.54097E-03
 -1   1000404 6.75752E-03
 -1   1000406 6.75752E-03
 -1   1000407 6.05408E-03
 -1   1000409 6.05408E-03
 -1   1000410 5.42233E-03
 -1   1000412 5.42233E-03
 -1   1000413 4.85480E-03
 -1   1000415 4.85480E-03
 -1   1000416 4.34475E-03
 -1   1000418 4.34475E-03
 -1   1000419 3.88616E-03
 -1   1000421 3.88616E-03
 -1   1000422 3.47360E-03
 -1   1000424 3.47360E-03
 -1   1000425 3.10217E-03
 -1   1000427 3.10217E-03
 -1   1000428 2.76748E-03
 -1   1000430 2.76748E-03
 -1   1000431 2.46557E-03
 -1   1000433 2.46557E-03
 -1   1000434 2.19286E-03
 -1   1000436 2.19286E-03
 -1   1000437 1.94612E-03
 -1   1000439 1.94612E-03
 -1   1000440 1.72244E-03
 -1   1000442 1.72244E-03
 -1   1000443 1.51914E-03
 -1   1000445 1.51914E-03
 -1   1000446 1.33385E-03
 -1   1000448 1.33385E-03
 -1   1000449 1.16435E-03
 -1   1000451 1.16435E-03
 -1   1000452 1.00865E-03
 -1   1000454 1.00865E-03
 -1   1000455 8.64903E-04
 -1   1000457 8.64903E-04
 -1   1000458 7.31374E-04
 -1   1000460 7.31374E-04
 -1   1000461 6.06526E-04
 -1   1000463 6.06526E-04
 -1   1000464 4.88857E-04
 -1   1000466 4.88857E-04
 -1   1000467 3.76988E-04
 -1   1000469 3.76988E-04
 -1   1000470 2.69572E-04
 -1   1000472 2.69572E-04
 -1   1000473 1.65380E-04
 -1   1000475 1.65380E-04
 -1   1000476 6.31618E-05
 -1   1000478 6.31618E-05
 -1   1000479 1.39804E-04
 -1   1000481 1.39804E-04
 -1   1000482 5.64991E-01
 -1   1000484 5.64991E-01
 -1   1000485 9.55286E-02
 -1   1000487 9.55286E-02
 -1   1000488 5.36961E-02
 -1   1000490 5.36961E-02
 -1   1000491 5.62594E-02
 -1   1000493 5.62594E-02
 -1   1000494 5.62594E-02
 -1   1000496 5.62594E-02
 -1   1000497 5.26526E-02
 -1   1000499 5.26526E-02
 -1   1000500 4.78185E-02
 -1   1000502 4.78185E-02
 -1   1000503 4.30510E-02
 -1   1000505 4.30510E-02
 -1   1000506 3.86581E-02
 -1   1000508 3.86581E-02
 -1   1000509 3.46860E-02
 -1   1000511 3.46860E-02
 -1   1000512 3.11143E-02
 -1   1000514 3.11143E-02
 -1   1000515 2.79080E-02
 -1   1000517 2.79080E-02
 -1   1000518 2.50311E-02
 -1   1000520 2.50311E-02
 -1   1000521 2.24502E-02
 -1   1000523 2.24502E-02
 -1   1000524 2.01348E-02
 -1   1000526 2.01348E-02
 -1   1000527 1.80577E-02
 -1   1000529 1.80577E-02
 -1   1000530 1.61943E-02
 -1   1000532 1.61943E-02
 -1   1000533 1.45226E-02
 -1   1000535 1.45226E-02
 -1   1000536 1.30227E-02
 -1   1000538 1.30227E-02
 -1   1000539 1.16770E-02
 -1   1000541 1.16770E-02
 -1   1000542 1.04696E-02
 -1   1000544 1.04696E-02
 -1   1000545 9.38608E-03
 -1   1000547 9.38608E-03
 -1   1000548 8.41372E-03
 -1   1000550 8.41372E-03
 -1   1000551 7.54097E-03
 -1   1000553 7.54097E-03
 -1   1000554 6.75752E-03
 -1   1000556 6.75752E-03
 -1   1000557 6.05408E-03
 -1   1000559 6.05408E-03
 -1   1000560 5.42233E-03
 -1   1000562 5.42233E-03
 -1   1000563 4.85480E-03
 -1   1000565 4.85480E-03
 -1   1000566 4.34476E-03
 -1   1000568 4.34476E-03
 -1   1000569 3.88616E-03
 -1   1000571 3.88616E-03
 -1   1000572 3.47360E-03
 -1   1000574 3.47360E-03
 -1   1000575 3.10217E-03
 -1   1000577 3.10217E-03
 -1   1000578 2.76748E-03
 -1   1000580 2.76748E-03
 -1   1000581 2.46557E-03
 -1   1000583 2.46557E-03
 -1   1000584 2.19286E-03
 -1   1000586 2.19286E-03
 -1   1000587 1.94613E-03
 -1   1000589 1.94613E-03
 -1   1000590 1.72244E-03
 -1   1000592 1.72244E-03
 -1   1000593 1.51915E-03
 -1   1000595 1.51915E-03
 -1   1000596 1.33385E-03
 -1   1000598 1.33385E-03
 -1   1000599 1.16436E-03
 -1   1000601 1.16436E-03
 -1   1000602 1.00866E-03
 -1   1000604 1.00866E-03
 -1   1000605 8.64900E-04
 -1   1000607 8.64900E-04
 -1   1000608 7.31382E-04
 -1   1000610 7.31382E-04
 -1   1000611 6.06524E-04
 -1   1000613 6.06524E-04
 -1   1000614 4.88860E-04
 -1   1000616 4.88860E-04
 -1   1000617 3.76980E-04
 -1   1000619 3.76980E-04
 -1   1000620 2.69571E-04
 -1   1000622 2.69571E-04
 -1   1000623 1.65371E-04
 -1   1000625 1.65371E-04
 -1   1000626 6.31617E-05
 -1   1000628 6.31617E-05
 -1   1000629 1.39779E-04
 -1   1000631 1.39779E-04
 -1   1000632 5.64991E-01
 -1   1000634 5.64991E-01
 -1   1000635 9.55286E-02
 -1   1000637 9.55286E-02
 -1   1000638 5.36961E-02
 -1   1000640 5.36961E-02
 -1   1000641 5.62594E-02
 -1   1000643 5.62594E-02
 -1   1000644 5.62594E-02
 -1   1000646 5.62594E-02
 -1   1000647 5.26526E-02
 -1   1000649 5.26526E-02
 -1   1000650 4.78185E-02
 -1   1000652 4.78185E-02
 -1   1000653 4.30510E-02
 -1   1000655 4.30510E-02
 -1   1000656 3.86581E-02
 -1   1000658 3.86581E-02
 -1   1000659 3.46860E-02
 -1   1000661 3.46860E-02
 -1   1000662 3.11143E-02
 -1   1000664 3.11143E-02
 -1   1000665 2.79080E-02
 -1   1000667 2.79080E-02
 -1   1000668 2.50311E-02
 -1   1000670 2.50311E-02
 -1   1000671 2.24502E-02
 -1   1000673 2.24502E-02
 -1   1000674 2.01348E-02
 -1   1000676 2.01348E-02
 -1   1000677 1.80577E-02
 -1   1000679 1.80577E-02
 -1   1000680 1.61943E-02
 -1   1000682 1.61943E-02
 -1   1000683 1.45226E-02
 -1   1000685 1.45226E-02
 -1   1000686 1.30227E-02
 -1   1000688 1.30227E-02
 -1   1000689 1.16770E-02
 -1   1000691 1.16770E-02
 -1   1000692 1.04696E-02
 -1   1000694 1.04696E-02
 -1   1000695 9.38608E-03
 -1   1000697 9.38608E-03
 -1   1000698 8.41372E-03
 -1   1000700 8.41372E-03
 -1   1000701 7.54097E-03
 -1   1000703 7.54097E-03
 -1   1000704 6.75752E-03
 -1   1000706 6.75752E-03
 -1   1000707 6.05408E-03
 -1   1000709 6.05408E-03
 -1   1000710 5.42233E-03
 -1   1000712 5.42233E-03
 -1   1000713 4.85480E-03
 -1   1000715 4.85480E-03
 -1   1000716 4.34476E-03
 -1   1000718 4.34476E-03
 -1   1000719 3.88616E-03
 -1   1000721 3.88616E-03
 -1   1000722 3.47360E-03
 -1   1000724 3.47360E-03
 -1   1000725 3.10217E-03
 -1   1000727 3.10217E-03
 -1   1000728 2.76748E-03
 -1   1000730 2.76748E-03
 -1   1000731 2.46557E-03
 -1   1000733 2.46557E-03
 -1   1000734 2.19286E-03
 -1   1000736 2.19286E-03
 -1   1000737 1.94613E-03
 -1   1000739 1.94613E-03
 -1   1000740 1.72244E-03
 -1   1000742 1.72244E-03
 -1   1000743 1.51915E-03
 -1   1000745 1.51915E-03
 -1   1000746 1.33386E-03
 -1   1000748 1.33386E-03
 -1   1000749 1.16436E-03
 -1   1000751 1.16436E-03
 -1   1000752 1.00866E-03
 -1   1000754 1.00866E-03
 -1   1000755 8.64900E-04
 -1   1000757 8.64900E-04
 -1   1000758 7.31382E-04
 -1   1000760 7.31382E-04
 -1   1000761 6.06523E-04
 -1   1000763 6.06523E-04
 -1   1000764 4.88860E-04
 -1   1000766 4.88860E-04
 -1   1000767 3.76977E-04
 -1   1000769 3.76977E-04
 -1   1000770 2.69575E-04
 -1   1000772 2.69575E-04
 -1   1000773 1.65371E-04
 -1   1000775 1.65371E-04
 -1   1000776 6.31766E-05
 -1   1000778 6.31766E-05
 -1   1000779 1.39763E-04
 -1   1000781 1.39763E-04
 -1   1000782 5.64991E-01
 -1   1000784 5.64991E-01
 -1   1000785 9.55286E-02
 -1   1000787 9.55286E-02
 -1   1000788 5.36961E-02
 -1   1000790 5.36961E-02
 -1   1000791 5.62594E-02
 -1   1000793 5.62594E-02
 -1   1000794 5.62594E-02
 -1   1000796 5.62594E-02
 -1   1000797 5.26526E-02
 -1   1000799 5.26526E-02
 -1   1000800 4.78185E-02
 -1   1000802 4.78185E-02
 -1   1000803 4.30510E-02
 -1   1000805 4.30510E-02
 -1   1000806 3.86581E-02
 -1   1000808 3.86581E-02
 -1   1000809 3.46860E-02
 -1   1000811 3.46860E-02
 -1   1000812 3.11143E-02
 -1   1000814 3.11143E-02
 -1   1000815 2.79080E-02
 -1   1000817 2.79080E-02
 -1   1000818 2.50311E-02
 -1   1000820 2.50311E-02
 -1   1000821 2.24502E-02
 -1   1000823 2.24502E-02
 -1   1000824 2.01348E-02
 -1   1000826 2.01348E-02
 -1   1000827 1.80577E-02
 -1   1000829 1.80577E-02
 -1   1000830 1.61943E-02
 -1   1000832 1.61943E-02
 -1   1000833 1.45226E-02
 -1   1000835 1.45226E-02
 -1   1000836 1.30227E-02
 -1   1000838 1.30227E-02
 -1   1000839 1.16770E-02
 -1   1000841 1.16770E-02
 -1   1000842 1.04696E-02
 -1   1000844 1.04696E-02
 -1   1000845 9.38608E-03
 -1   1000847 9.38608E-03
 -1   1000848 8.41372E-03
 -1   1000850 8.41372E-03
 -1   1000851 7.54096E-03
 -1   1000853 7.54096E-03
 -1   1000854 6.75751E-03
 -1   1000856 6.75751E-03
 -1   1000857 6.05407E-03
 -1   1000859 6.05407E-03
 -1   1000860 5.42233E-03
 -1   1000862 5.42233E-03
 -1   1000863 4.85479E-03
 -1   1000865 4.85479E-03
 -1   1000866 4.34475E-03
 -1   1000868 4.34475E-03
 -1   1000869 3.88616E-03
 -1   1000871 3.88616E-03
 -1   1000872 3.47360E-03
 -1   1000874 3.47360E-03
 -1   1000875 3.10217E-03
 -1   1000877 3.10217E-03
 -1   1000878 2.76748E-03
 -1   1000880 2.76748E-03
 -1   1000881 2.46557E-03
 -1   1000883 2.46557E-03
 -1   1000884 2.19286E-03
 -1   1000886 2.19286E-03
 -1   1000887 1.94612E-03
 -1   1000889 1.94612E-03
 -1   1000890 1.72244E-03
 -1   1000892 1.72244E-03
 -1   1000893 1.51914E-03
 -1   1000895 1.51914E-03
 -1   1000896 1.33386E-03
 -1   1000898 1.33386E-03
 -1   1000899 1.16436E-03
 -1   1000901 1.16436E-03
 -1   1000902 1.00865E-03
 -1   1000904 1.00865E-03
 -1   1000905 8.64888E-04
 -1   1000907 8.64888E-04
 -1   1000908 7.31378E-04
 -1   1000910 7.31378E-04
 -1   1000911 6.06523E-04
 -1   1000913 6.06523E-04
 -1   1000914 4.88860E-04
 -1   1000916 4.88860E-04
 -1   1000917 3.76979E-04
 -1   1000919 3.76979E-04
 -1   1000920 2.69575E-04
 -1   1000922 2.69575E-04
 -1   1000923 1.65368E-04
 -1   1000925 1.65368E-04
 -1   1000926 6.31766E-05
 -1   1000928 6.31766E-05
 -1   1000929 1.39727E-04
 -1   1000931 1.39727E-04
 -1   1000932 5.64991E-01
 -1   1000934 5.64991E-01
 -1   1000935 9.55286E-02
 -1   1000937 9.55286E-02
 -1   1000938 5.36961E-02
 -1   1000940 5.36961E-02
 -1   1000941 5.62594E-02
 -1   1000943 5.62594E-02
 -1   1000944 5.62594E-02
 -1   1000946 5.62594E-02
 -1   1000947 5.26526E-02
 -1   1000949 5.26526E-02
 -1   1000950 4.78184E-02
 -1   1000952 4.78184E-02
 -1   1000953 4.30510E-02
 -1   1000955 4.30510E-02
 -1   1000956 3.86581E-02
 -1   1000958 3.86581E-02
 -1   1000959 3.46860E-02
 -1   1000961 3.46860E-02
 -1   1000962 3.11143E-02
 -1   1000964 3.11143E-02
 -1   1000965 2.79080E-02
 -1   1000967 2.79080E-02
 -1   1000968 2.50311E-02
 -1   1000970 2.50311E-02
 -1   1000971 2.24502E-02
 -1   1000973 2.24502E-02
 -1   1000974 2.01348E-02
 -1   1000976 2.01348E-02
 -1   1000977 1.80577E-02
 -1   1000979 1.80577E-02
 -1   1000980 1.61943E-02
 -1   1000982 1.61943E-02
 -1   1000983 1.45225E-02
 -1   1000985 1.45225E-02
 -1   1000986 1.30227E-02
 -1   1000988 1.30227E-02
 -1   1000989 1.16770E-02
 -1   1000991 1.16770E-02
 -1   1000992 1.04696E-02
 -1   1000994 1.04696E-02
 -1   1000995 9.38608E-03
 -1   1000997 9.38608E-03
 -1   1000998 8.41371E-03
 -1   1001000 8.41371E-03
 -1   1001001 7.54096E-03
 -1   1001003 7.54096E-03
 -1   1001004 6.75751E-03
 -1   1001006 6.75751E-03
 -1   1001007 6.05407E-03
 -1   1001009 6.05407E-03
 -1   1001010 5.42232E-03
 -1   1001012 5.42232E-03
 -1   1001013 4.85479E-03
 -1   1001015 4.85479E-03
 -1   1001016 4.34474E-03
 -1   1001018 4.34474E-03
 -1   1001019 3.88615E-03
 -1   1001021 3.88615E-03
 -1   1001022 3.47359E-03
 -1   1001024 3.47359E-03
 -1   1001025 3.10216E-03
 -1   1001027 3.10216E-03
 -1   1001028 2.76747E-03
 -1   1001030 2.76747E-03
 -1   1001031 2.46556E-03
 -1   1001033 2.46556E-03
 -1   1001034 2.19286E-03
 -1   1001036 2.19286E-03
 -1   1001037 1.94611E-03
 -1   1001039 1.94611E-03
 -1   1001040 1.72243E-03
 -1   1001042 1.72243E-03
 -1   1001043 1.51914E-03
 -1   1001045 1.51914E-03
 -1   1001046 1.33385E-03
 -1   1001048 1.33385E-03
 -1   1001049 1.16435E-03
 -1   1001051 1.16435E-03
 -1   1001052 1.00865E-03
 -1   1001054 1.00865E-03
 -1   1001055 8.64887E-04
 -1   1001057 8.64887E-04
 -1   1001058 7.31382E-04
 -1   1001060 7.31382E-04
 -1   1001061 6.06522E-04
 -1   1001063 6.06522E-04
 -1   1001064 4.88860E-04
 -1   1001066 4.88860E-04
 -1   1001067 3.76979E-04
 -1   1001069 3.76979E-04
 -1   1001070 2.69576E-04
 -1   1001072 2.69576E-04
 -1   1001073 1.65368E-04
 -1   1001075 1.65368E-04
 -1   1001076 6.31737E-05
 -1   1001078 6.31737E-05
 -1   1001079 1.39720E-04
 -1   1001081 1.39720E-04
 -1   1001082 5.64991E-01
 -1   1001084 5.64991E-01
 -1   1001085 9.55286E-02
 -1   1001087 9.55286E-02
 -1   1001088 5.36961E-02
 -1   1001090 5.36961E-02
 -1   1001091 5.62594E-02
 -1   1001093 5.62594E-02
 -1   1001094 5.62594E-02
 -1   1001096 5.62594E-02
 -1   1001097 5.26526E-02
 -1   1001099 5.26526E-02
 -1   1001100 4.78184E-02
 -1   1001102 4.78184E-02
 -1   1001103 4.30510E-02
 -1   1001105 4.30510E-02
 -1   1001106 3.86581E-02
 -1   1001108 3.86581E-02
 -1   1001109 3.46860E-02
 -1   1001111 3.46860E-02
 -1   1001112 3.11143E-02
 -1   1001114 3.11143E-02
 -1   1001115 2.79080E-02
 -1   1001117 2.79080E-02
 -1   1001118 2.50311E-02
 -1   1001120 2.50311E-02
 -1   1001121 2.24502E-02
 -1   1001123 2.24502E-02
 -1   1001124 2.01348E-02
 -1   1001126 2.01348E-02
 -1   1001127 1.80577E-02
 -1   1001129 1.80577E-02
 -1   1001130 1.61943E-02
 -1   1001132 1.61943E-02
 -1   1001133 1.45225E-02
 -1   1001135 1.45225E-02
 -1   1001136 1.30227E-02
 -1   1001138 1.30227E-02
 -1   1001139 1.16770E-02
 -1   1001141 1.16770E-02
 -1   1001142 1.04696E-02
 -1   1001144 1.04696E-02
 -1   1001145 9.38607E-03
 -1   1001147 9.38607E-03
 -1   1001148 8.41371E-03
 -1   1001150 8.41371E-03
 -1   1001151 7.54096E-03
 -1   1001153 7.54096E-03
 -1   1001154 6.75751E-03
 -1   1001156 6.75751E-03
 -1   1001157 6.05407E-03
 -1   1001159 6.05407E-03
 -1   1001160 5.42232E-03
 -1   1001162 5.42232E-03
 -1   1001163 4.85479E-03
 -1   1001165 4.85479E-03
 -1   1001166 4.34474E-03
 -1   1001168 4.34474E-03
 -1   1001169 3.88615E-03
 -1   1001171 3.88615E-03
 -1   1001172 3.47359E-03
 -1   1001174 3.47359E-03
 -1   1001175 3.10216E-03
 -1   1001177 3.10216E-03
 -1   1001178 2.76748E-03
 -1   1001180 2.76748E-03
 -1   1001181 2.46556E-03
 -1   1001183 2.46556E-03
 -1   1001184 2.19286E-03
 -1   1001186 2.19286E-03
 -1   1001187 1.94612E-03
 -1   1001189 1.94612E-03
 -1   1001190 1.72244E-03
 -1   1001192 1.72244E-03
 -1   1001193 1.51914E-03
 -1   1001195 1.51914E-03
 -1   1001196 1.33385E-03
 -1   1001198 1.33385E-03
 -1   1001199 1.16435E-03
 -1   1001201 1.16435E-03
 -1   1001202 1.00865E-03
 -1   1001204 1.00865E-03
 -1   1001205 8.64891E-04
 -1   1001207 8.64891E-04
 -1   1001208 7.31382E-04
 -1   1001210 7.31382E-04
 -1   1001211 6.06522E-04
 -1   1001213 6.06522E-04
 -1   1001214 4.88858E-04
 -1   1001216 4.88858E-04
 -1   1001217 3.76977E-04
 -1   1001219 3.76977E-04
 -1   1001220 2.69576E-04
 -1   1001222 2.69576E-04
 -1   1001223 1.65367E-04
 -1   1001225 1.65367E-04
 -1   1001226 6.31726E-05
 -1   1001228 6.31726E-05
 -1   1001229 1.39720E-04
 -1   1001231 1.39720E-04
 -1   1001232 5.64991E-01
 -1   1001234 5.64991E-01
 -1   1001235 9.55286E-02
 -1   1001237 9.55286E-02
 -1   1001238 5.36961E-02
 -1   1001240 5.36961E-02
 -1   1001241 5.62594E-02
 -1   1001243 5.62594E-02
 -1   1001244 5.62594E-02
 -1   1001246 5.62594E-02
 -1   1001247 5.26526E-02
 -1   1001249 5.26526E-02
 -1   1001250 4.78184E-02
 -1   1001252 4.78184E-02
 -1   1001253 4.30510E-02
 -1   1001255 4.30510E-02
 -1   1001256 3.86581E-02
 -1   1001258 3.86581E-02
 -1   1001259 3.46860E-02
 -1   1001261 3.46860E-02
 -1   1001262 3.11143E-02
 -1   1001264 3.11143E-02
 -1   1001265 2.79080E-02
 -1   1001267 2.79080E-02
 -1   1001268 2.50311E-02
 -1   1001270 2.50311E-02
 -1   1001271 2.24502E-02
 -1   1001273 2.24502E-02
 -1   1001274 2.01348E-02
 -1   1001276 2.01348E-02
 -1   1001277 1.80577E-02
 -1   1001279 1.80577E-02
 -1   1001280 1.61943E-02
 -1   1001282 1.61943E-02
 -1   1001283 1.45225E-02
 -1   1001285 1.45225E-02
 -1   1001286 1.30227E-02
 -1   1001288 1.30227E-02
 -1   1001289 1.16770E-02
 -1   1001291 1.16770E-02
 -1   1001292 1.04696E-02
 -1   1001294 1.04696E-02
 -1   1001295 9.38607E-03
 -1   1001297 9.38607E-03
 -1   1001298 8.41371E-03
 -1   1001300 8.41371E-03
 -1   1001301 7.54096E-03
 -1   1001303 7.54096E-03
 -1   1001304 6.75751E-03
 -1   1001306 6.75751E-03
 -1   1001307 6.05407E-03
 -1   1001309 6.05407E-03
 -1   1001310 5.42232E-03
 -1   1001312 5.42232E-03
 -1   1001313 4.85479E-03
 -1   1001315 4.85479E-03
 -1   1001316 4.34474E-03
 -1   1001318 4.34474E-03
 -1   1001319 3.88615E-03
 -1   1001321 3.88615E-03
 -1   1001322 3.47359E-03
 -1   1001324 3.47359E-03
 -1   1001325 3.10216E-03
 -1   1001327 3.10216E-03
 -1   1001328 2.76748E-03
 -1   1001330 2.76748E-03
 -1   1001331 2.46556E-03
 -1   1001333 2.46556E-03
 -1   1001334 2.19286E-03
 -1   1001336 2.19286E-03
 -1   1001337 1.94612E-03
 -1   1001339 1.94612E-03
 -1   1001340 1.72244E-03
 -1   1001342 1.72244E-03
 -1   1001343 1.51914E-03
 -1   1001345 1.51914E-03
 -1   1001346 1.33385E-03
 -1   1001348 1.33385E-03
 -1   1001349 1.16435E-03
 -1   1001351 1.16435E-03
 -1   1001352 1.00865E-03
 -1   1001354 1.00865E-03
 -1   1001355 8.64891E-04
 -1   1001357 8.64891E-04
 -1   1001358 7.31378E-04
 -1   1001360 7.31378E-04
 -1   1001361 6.06522E-04
 -1   1001363 6.06522E-04
 -1   1001364 4.88862E-04
 -1   1001366 4.88862E-04
 -1   1001367 3.76983E-04
 -1   1001369 3.76983E-04
 -1   1001370 2.69580E-04
 -1   1001372 2.69580E-04
 -1   1001373 1.65369E-04
 -1   1001375 1.65369E-04
 -1   1001376 6.31776E-05
 -1   1001378 6.31776E-05
 -1   1001379 1.39729E-04
 -1   1001381 1.39729E-04
 -1   1001382 5.64991E-01
 -1   1001384 5.64991E-01
 -1   1001385 9.55286E-02
 -1   1001387 9.55286E-02
 -1   1001388 5.36961E-02
 -1   1001390 5.36961E-02
 -1   1001391 5.62594E-02
 -1   1001393 5.62594E-02
 -1   1001394 5.62594E-02
 -1   1001396 5.62594E-02
 -1   1001397 5.26526E-02
 -1   1001399 5.26526E-02
 -1   1001400 4.78184E-02
 -1   1001402 4.78184E-02
 -1   1001403 4.30510E-02
 -1   1001405 4.30510E-02
 -1   1001406 3.86581E-02
 -1   1001408 3.86581E-02
 -1   1001409 3.46860E-02
 -1   1001411 3.46860E-02
 -1   1001412 3.11143E-02
 -1   1001414 3.11143E-02
 -1   1001415 2.79080E-02
 -1   1001417 2.79080E-02
 -1   1001418 2.50311E-02
 -1   1001420 2.50311E-02
 -1   1001421 2.24502E-02
 -1   1001423 2.24502E-02
 -1   1001424 2.01348E-02
 -1   1001426 2.01348E-02
 -1   1001427 1.80577E-02
 -1   1001429 1.80577E-02
 -1   1001430 1.61943E-02
 -1   1001432 1.61943E-02
 -1   1001433 1.45225E-02
 -1   1001435 1.45225E-02
 -1   1001436 1.30227E-02
 -1   1001438 1.30227E-02
 -1   1001439 1.16770E-02
 -1   1001441 1.16770E-02
 -1   1001442 1.04696E-02
 -1   1001444 1.04696E-02
 -1   1001445 9.38607E-03
 -1   1001447 9.38607E-03
 -1   1001448 8.41371E-03
 -1   1001450 8.41371E-03
 -1   1001451 7.54096E-03
 -1   1001453 7.54096E-03
 -1   1001454 6.75751E-03
 -1   1001456 6.75751E-03
 -1   1001457 6.05407E-03
 -1   1001459 6.05407E-03
 -1   1001460 5.42232E-03
 -1   1001462 5.42232E-03
 -1   1001463 4.85478E-03
 -1   1001465 4.85478E-03
 -1   1001466 4.34474E-03
 -1   1001468 4.34474E-03
 -1   1001469 3.88615E-03
 -1   1001471 3.88615E-03
 -1   1001472 3.47359E-03
 -1   1001474 3.47359E-03
 -1   1001475 3.10216E-03
 -1   1001477 3.10216E-03
 -1   1001478 2.76747E-03
 -1   1001480 2.76747E-03
 -1   1001481 2.46556E-03
 -1   1001483 2.46556E-03
 -1   1001484 2.19286E-03
 -1   1001486 2.19286E-03
 -1   1001487 1.94611E-03
 -1   1001489 1.94611E-03
 -1   1001490 1.72244E-03
 -1   1001492 1.72244E-03
 -1   1001493 1.51914E-03
 -1   1001495 1.51914E-03
 -1   1001496 1.33385E-03
 -1   1001498 1.33385E-03
 -1   1001499 1.16435E-03
 -1   1001501 1.16435E-03
 -1   1001502 1.00865E-03
 -1   1001504 1.00865E-03
 -1   1001505 8.64891E-04
 -1   1001507 8.64891E-04
 -1   1001508 7.31386E-04
 -1   1001510 7.31386E-04
 -1   1001511 6.06532E-04
 -1   1001513 6.06532E-04
 -1   1001514 4.88864E-04
 -1   1001516 4.88864E-04
 -1   1001517 3.76985E-04
 -1   1001519 3.76985E-04
 -1   1001520 2.69582E-04
 -1   1001522 2.69582E-04
 -1   1001523 1.65379E-04
 -1   1001525 1.65379E-04
 -1   1001526 6.31776E-05
 -1   1001528 6.31776E-05
 -1   1001529 1.39729E-04
 -1   1001531 1.39729E-04
 -1   1001532 5.64991E-01
 -1   1001534 5.64991E-01
 -1   1001535 9.55286E-02
 -1   1001537 9.55286E-02
 -1   1001538 5.36961E-02
 -1   1001540 5.36961E-02
 -1   1001541 5.62594E-02
 -1   1001543 5.62594E-02
 -1   1001544 5.62594E-02
 -1   1001546 5.62594E-02
 -1   1001547 5.26526E-02
 -1   1001549 5.26526E-02
 -1   1001550 4.78184E-02
 -1   1001552 4.78184E-02
 -1   1001553 4.30510E-02
 -1   1001555 4.30510E-02
 -1   1001556 3.86581E-02
 -1   1001558 3.86581E-02
 -1   1001559 3.46860E-02
 -1   1001561 3.46860E-02
 -1   1001562 3.11143E-02
 -1   1001564 3.11143E-02
 -1   1001565 2.79080E-02
 -1   1001567 2.79080E-02
 -1   1001568 2.50311E-02
 -1   1001570 2.50311E-02
 -1   1001571 2.24502E-02
 -1   1001573 2.24502E-02
 -1   1001574 2.01348E-02
 -1   1001576 2.01348E-02
 -1   1001577 1.80577E-02
 -1   1001579 1.80577E-02
 -1   1001580 1.61943E-02
 -1   1001582 1.61943E-02
 -1   1001583 1.45225E-02
 -1   1001585 1.45225E-02
 -1   1001586 1.30227E-02
 -1   1001588 1.30227E-02
 -1   1001589 1.16770E-02
 -1   1001591 1.16770E-02
 -1   1001592 1.04696E-02
 -1   1001594 1.04696E-02
 -1   1001595 9.38607E-03
 -1   1001597 9.38607E-03
 -1   1001598 8.41371E-03
 -1   1001600 8.41371E-03
 -1   1001601 7.54096E-03
 -1   1001603 7.54096E-03
 -1   1001604 6.75751E-03
 -1   1001606 6.75751E-03
 -1   1001607 6.05407E-03
 -1   1001609 6.05407E-03
 -1   1001610 5.42232E-03
 -1   1001612 5.42232E-03
 -1   1001613 4.85478E-03
 -1   1001615 4.85478E-03
 -1   1001616 4.34474E-03
 -1   1001618 4.34474E-03
 -1   1001619 3.88615E-03
 -1   1001621 3.88615E-03
 -1   1001622 3.47359E-03
 -1   1001624 3.47359E-03
 -1   1001625 3.10216E-03
 -1   1001627 3.10216E-03
 -1   1001628 2.76748E-03
 -1   1001630 2.76748E-03
 -1   1001631 2.46556E-03
 -1   1001633 2.46556E-03
 -1   1001634 2.19286E-03
 -1   1001636 2.19286E-03
 -1   1001637 1.94612E-03
 -1   1001639 1.94612E-03
 -1   1001640 1.72243E-03
 -1   1001642 1.72243E-03
 -1   1001643 1.51915E-03
 -1   1001645 1.51915E-03
 -1   1001646 1.33385E-03
 -1   1001648 1.33385E-03
 -1   1001649 1.16436E-03
 -1   1001651 1.16436E-03
 -1   1001652 1.00865E-03
 -1   1001654 1.00865E-03
 -1   1001655 8.64896E-04
 -1   1001657 8.64896E-04
 -1   1001658 7.31386E-04
 -1   1001660 7.31386E-04
 -1   1001661 6.06532E-04
 -1   1001663 6.06532E-04
 -1   1001664 4.88866E-04
 -1   1001666 4.88866E-04
 -1   1001667 3.76986E-04
 -1   1001669 3.76986E-04
 -1   1001670 2.69582E-04
 -1   1001672 2.69582E-04
 -1   1001673 1.65379E-04
 -1   1001675 1.65379E-04
 -1   1001676 6.31721E-05
 -1   1001678 6.31721E-05
 -1   1001679 1.39726E-04
 -1   1001681 1.39726E-04
 -1   1001682 5.64991E-01
 -1   1001684 5.64991E-01
 -1   1001685 9.55286E-02
 -1   1001687 9.55286E-02
 -1   1001688 5.36961E-02
 -1   1001690 5.36961E-02
 -1   1001691 5.62594E-02
 -1   1001693 5.62594E-02
 -1   1001694 5.62594E-02
 -1   1001696 5.62594E-02
 -1   1001697 5.26526E-02
 -1   1001699 5.26526E-02
 -1   1001700 4.78184E-02
 -1   1001702 4.78184E-02
 -1   1001703 4.30510E-02
 -1   1001705 4.30510E-02
 -1   1001706 3.86581E-02
 -1   1001708 3.86581E-02
 -1   1001709 3.46860E-02
 -1   1001711 3.46860E-02
 -1   1001712 3.11143E-02
 -1   1001714 3.11143E-02
 -1   1001715 2.79080E-02
 -1   1001717 2.79080E-02
 -1   1001718 2.50311E-02
 -1   1001720 2.50311E-02
 -1   1001721 2.24502E-02
 -1   1001723 2.24502E-02
 -1   1001724 2.01348E-02
 -1   1001726 2.01348E-02
 -1   1001727 1.80577E-02
 -1   1001729 1.80577E-02
 -1   1001730 1.61943E-02
 -1   1001732 1.61943E-02
 -1   1001733 1.45225E-02
 -1   1001735 1.45225E-02
 -1   1001736 1.30227E-02
 -1   1001738 1.30227E-02
 -1   1001739 1.16770E-02
 -1   1001741 1.16770E-02
 -1   1001742 1.04696E-02
 -1   1001744 1.04696E-02
 -1   1001745 9.38607E-03
 -1   1001747 9.38607E-03
 -1   1001748 8.41371E-03
 -1   1001750 8.41371E-03
 -1   1001751 7.54096E-03
 -1   1001753 7.54096E-03
 -1   1001754 6.75750E-03
 -1   1001756 6.75750E-03
 -1   1001757 6.05407E-03
 -1   1001759 6.05407E-03
 -1   1001760 5.42232E-03
 -1   1001762 5.42232E-03
 -1   1001763 4.85479E-03
 -1   1001765 4.85479E-03
 -1   1001766 4.34474E-03
 -1   1001768 4.34474E-03
 -1   1001769 3.88616E-03
 -1   1001771 3.88616E-03
 -1   1001772 3.47359E-03
 -1   1001774 3.47359E-03
 -1   1001775 3.10216E-03
 -1   1001777 3.10216E-03
 -1   1001778 2.76748E-03
 -1   1001780 2.76748E-03
 -1   1001781 2.46557E-03
 -1   1001783 2.46557E-03
 -1   1001784 2.19286E-03
 -1   1001786 2.19286E-03
 -1   1001787 1.94612E-03
 -1   1001789 1.94612E-03
 -1   1001790 1.72244E-03
 -1   1001792 1.72244E-03
 -1   1001793 1.51915E-03
 -1   1001795 1.51915E-03
 -1   1001796 1.33386E-03
 -1   1001798 1.33386E-03
 -1   1001799 1.16436E-03
 -1   1001801 1.16436E-03
 -1   1001802 1.00865E-03
 -1   1001804 1.00865E-03
 -1   1001805 8.64896E-04
 -1   1001807 8.64896E-04
 -1   1001808 7.31383E-04
 -1   1001810 7.31383E-04
 -1   1001811 6.06531E-04
 -1   1001813 6.06531E-04
 -1   1001814 4.88866E-04
 -1   1001816 4.88866E-04
 -1   1001817 3.76987E-04
 -1   1001819 3.76987E-04
 -1   1001820 2.69581E-04
 -1   1001822 2.69581E-04
 -1   1001823 1.65379E-04
 -1   1001825 1.65379E-04
 -1   1001826 6.31737E-05
 -1   1001828 6.31737E-05
 -1   1001829 1.39726E-04
 -1   1001831 1.39726E-04
 -1   1001832 5.64991E-01
 -1   1001834 5.64991E-01
 -1   1001835 9.55286E-02
 -1   1001837 9.55286E-02
 -1   1001838 5.36961E-02
 -1   1001840 5.36961E-02
 -1   1001841 5.62594E-02
 -1   1001843 5.62594E-02
 -1   1001844 5.62594E-02
 -1   1001846 5.62594E-02
 -1   1001847 5.26526E-02
 -1   1001849 5.26526E-02
 -1   1001850 4.78184E-02
 -1   1001852 4.78184E-02
 -1   1001853 4.30510E-02
 -1   1001855 4.30510E-02
 -1   1001856 3.86581E-02
 -1   1001858 3.86581E-02
 -1   1001859 3.46860E-02
 -1   1001861 3.46860E-02
 -1   1001862 3.11143E-02
 -1   1001864 3.11143E-02
 -1   1001865 2.79080E-02
 -1   1001867 2.79080E-02
 -1   1001868 2.50311E-02
 -1   1001870 2.50311E-02
 -1   1001871 2.24502E-02
 -1   1001873 2.24502E-02
 -1   1001874 2.01348E-02
 -1   1001876 2.01348E-02
 -1   1001877 1.80577E-02
 -1   1001879 1.80577E-02
 -1   1001880 1.61943E-02
 -1   1001882 1.61943E-02
 -1   1001883 1.45225E-02
 -1   1001885 1.45225E-02
 -1   1001886 1.30227E-02
 -1   1001888 1.30227E-02
 -1   1001889 1.16770E-02
 -1   1001891 1.16770E-02
 -1   1001892 1.04696E-02
 -1   1001894 1.04696E-02
 -1   1001895 9.38607E-03
 -1   1001897 9.38607E-03
 -1   1001898 8.41371E-03
 -1   1001900 8.41371E-03
 -1   1001901 7.54096E-03
 -1   1001903 7.54096E-03
 -1   1001904 6.75751E-03
 -1   1001906 6.75751E-03
 -1   1001907 6.05407E-03
 -1   1001909 6.05407E-03
 -1   1001910 5.42232E-03
 -1   1001912 5.42232E-03
 -1   1001913 4.85479E-03
 -1   1001915 4.85479E-03
 -1   1001916 4.34475E-03
 -1   1001918 4.34475E-03
 -1   1001919 3.88616E-03
 -1   1001921 3.88616E-03
 -1   1001922 3.47359E-03
 -1   1001924 3.47359E-03
 -1   1001925 3.10216E-03
 -1   1001927 3.10216E-03
 -1   1001928 2.76748E-03
 -1   1001930 2.76748E-03
 -1   1001931 2.46557E-03
 -1   1001933 2.46557E-03
 -1   1001934 2.19286E-03
 -1   1001936 2.19286E-03
 -1   1001937 1.94612E-03
 -1   1001939 1.94612E-03
 -1   1001940 1.72244E-03
 -1   1001942 1.72244E-03
 -1   1001943 1.51915E-03
 -1   1001945 1.51915E-03
 -1   1001946 1.33386E-03
 -1   1001948 1.33386E-03
 -1   1001949 1.16436E-03
 -1   1001951 1.16436E-03
 -1   1001952 1.00865E-03
 -1   1001954 1.00865E-03
 -1   1001955 8.64895E-04
 -1   1001957 8.64895E-04
 -1   1001958 7.31377E-04
 -1   1001960 7.31377E-04
 -1   1001961 6.06527E-04
 -1   1001963 6.06527E-04
 -1   1001964 4.88859E-04
 -1   1001966 4.88859E-04
 -1   1001967 3.76987E-04
 -1   1001969 3.76987E-04
 -1   1001970 2.69581E-04
 -1   1001972 2.69581E-04
 -1   1001973 1.65374E-04
 -1   1001975 1.65374E-04
 -1   1001976 6.31737E-05
 -1   1001978 6.31737E-05
 -1   1001979 1.39722E-04
 -1   1001981 1.39722E-04
 -1   1001982 5.64991E-01
 -1   1001984 5.64991E-01
 -1   1001985 9.55286E-02
 -1   1001987 9.55286E-02
 -1   1001988 5.36961E-02
 -1   1001990 5.36961E-02
 -1   1001991 5.62594E-02
 -1   1001993 5.62594E-02
 -1   1001994 5.62594E-02
 -1   1001996 5.62594E-02
 -1   1001997 5.26526E-02
 -1   1001999 5.26526E-02
 -1   1002000 4.78184E-02
 -1   1002002 4.78184E-02
 -1   1002003 4.30510E-02
 -1   1002005 4.30510E-02
 -1   1002006 3.86581E-02
 -1   1002008 3.86581E-02
 -1   1002009 3.46860E-02
 -1   1002011 3.46860E-02
 -1   1002012 3.11143E-02
 -1   1002014 3.11143E-02
 -1   1002015 2.79080E-02
 -1   1002017 2.79080E-02
 -1   1002018 2.50311E-02
 -1   1002020 2.50311E-02
 -1   1002021 2.24502E-02
 -1   1002023 2.24502E-02
 -1   1002024 2.01348E-02
 -1   1002026 2.01348E-02
 -1   1002027 1.80577E-02
 -1   1002029 1.80577E-02
 -1   1002030 1.61943E-02
 -1   1002032 1.61943E-02
 -1   1002033 1.45225E-02
 -1   1002035 1.45225E-02
 -1   1002036 1.30227E-02
 -1   1002038 1.30227E-02
 -1   1002039 1.16770E-02
 -1   1002041 1.16770E-02
 -1   1002042 1.04696E-02
 -1   1002044 1.04696E-02
 -1   1002045 9.38607E-03
 -1   1002047 9.38607E-03
 -1   1002048 8.41371E-03
 -1   1002050 8.41371E-03
 -1   1002051 7.54096E-03
 -1   1002053 7.54096E-03
 -1   1002054 6.75751E-03
 -1   1002056 6.75751E-03
 -1   1002057 6.05407E-03
 -1   1002059 6.05407E-03
 -1   1002060 5.42232E-03
 -1   1002062 5.42232E-03
 -1   1002063 4.85479E-03
 -1   1002065 4.85479E-03
 -1   1002066 4.34475E-03
 -1   1002068 4.34475E-03
 -1   1002069 3.88616E-03
 -1   1002071 3.88616E-03
 -1   1002072 3.47359E-03
 -1   1002074 3.47359E-03
 -1   1002075 3.10216E-03
 -1   1002077 3.10216E-03
 -1   1002078 2.76748E-03
 -1   1002080 2.76748E-03
 -1   1002081 2.46557E-03
 -1   1002083 2.46557E-03
 -1   1002084 2.19286E-03
 -1   1002086 2.19286E-03
 -1   1002087 1.94612E-03
 -1   1002089 1.94612E-03
 -1   1002090 1.72243E-03
 -1   1002092 1.72243E-03
 -1   1002093 1.51915E-03
 -1   1002095 1.51915E-03
 -1   1002096 1.33385E-03
 -1   1002098 1.33385E-03
 -1   1002099 1.16436E-03
 -1   1002101 1.16436E-03
 -1   1002102 1.00865E-03
 -1   1002104 1.00865E-03
 -1   1002105 8.64892E-04
 -1   1002107 8.64892E-04
 -1   1002108 7.31375E-04
 -1   1002110 7.31375E-04
 -1   1002111 6.06529E-04
 -1   1002113 6.06529E-04
 -1   1002114 4.88858E-04
 -1   1002116 4.88858E-04
 -1   1002117 3.76984E-04
 -1   1002119 3.76984E-04
 -1   1002120 2.69571E-04
 -1   1002122 2.69571E-04
 -1   1002123 1.65373E-04
 -1   1002125 1.65373E-04
 -1   1002126 6.31678E-05
 -1   1002128 6.31678E-05
 -1   1002129 1.39722E-04
 -1   1002131 1.39722E-04
 -1   1002132 5.64991E-01
 -1   1002134 5.64991E-01
 -1   1002135 9.55286E-02
 -1   1002137 9.55286E-02
 -1   1002138 5.36961E-02
 -1   1002140 5.36961E-02
 -1   1002141 5.62594E-02
 -1   1002143 5.62594E-02
 -1   1002144 5.62594E-02
 -1   1002146 5.62594E-02
 -1   1002147 5.26526E-02
 -1   1002149 5.26526E-02
 -1   1002150 4.78184E-02
 -1   1002152 4.78184E-02
 -1   1002153 4.30510E-02
 -1   1002155 4.30510E-02
 -1   1002156 3.86581E-02
 -1   1002158 3.86581E-02
 -1   1002159 3.46860E-02
 -1   1002161 3.46860E-02
 -1   1002162 3.11143E-02
 -1   1002164 3.11143E-02
 -1   1002165 2.79080E-02
 -1   1002167 2.79080E-02
 -1   1002168 2.50311E-02
 -1   1002170 2.50311E-02
 -1   1002171 2.24502E-02
 -1   1002173 2.24502E-02
 -1   1002174 2.01348E-02
 -1   1002176 2.01348E-02
 -1   1002177 1.80577E-02
 -1   1002179 1.80577E-02
 -1   1002180 1.61943E-02
 -1   1002182 1.61943E-02
 -1   1002183 1.45225E-02
 -1   1002185 1.45225E-02
 -1   1002186 1.30227E-02
 -1   1002188 1.30227E-02
 -1   1002189 1.16770E-02
 -1   1002191 1.16770E-02
 -1   1002192 1.04696E-02
 -1   1002194 1.04696E-02
 -1   1002195 9.38607E-03
 -1   1002197 9.38607E-03
 -1   1002198 8.41371E-03
 -1   1002200 8.41371E-03
 -1   1002201 7.54096E-03
 -1   1002203 7.54096E-03
 -1   1002204 6.75750E-03
 -1   1002206 6.75750E-03
 -1   1002207 6.05407E-03
 -1   1002209 6.05407E-03
 -1   1002210 5.42232E-03
 -1   1002212 5.42232E-03
 -1   1002213 4.85479E-03
 -1   1002215 4.85479E-03
 -1   1002216 4.34474E-03
 -1   1002218 4.34474E-03
 -1   1002219 3.88616E-03
 -1   1002221 3.88616E-03
 -1   1002222 3.47359E-03
 -1   1002224 3.47359E-03
 -1   1002225 3.10216E-03
 -1   1002227 3.10216E-03
 -1   1002228 2.76748E-03
 -1   1002230 2.76748E-03
 -1   1002231 2.46557E-03
 -1   1002233 2.46557E-03
 -1   1002234 2.19286E-03
 -1   1002236 2.19286E-03
 -1   1002237 1.94612E-03
 -1   1002239 1.94612E-03
 -1   1002240 1.72243E-03
 -1   1002242 1.72243E-03
 -1   1002243 1.51915E-03
 -1   1002245 1.51915E-03
 -1   1002246 1.33385E-03
 -1   1002248 1.33385E-03
 -1   1002249 1.16436E-03
 -1   1002251 1.16436E-03
 -1   1002252 1.00865E-03
 -1   1002254 1.00865E-03
 -1   1002255 8.64893E-04
 -1   1002257 8.64893E-04
 -1   1002258 7.31376E-04
 -1   1002260 7.31376E-04
 -1   1002261 6.06529E-04
 -1   1002263 6.06529E-04
 -1   1002264 4.88862E-04
 -1   1002266 4.88862E-04
 -1   1002267 3.76986E-04
 -1   1002269 3.76986E-04
 -1   1002270 2.69571E-04
 -1   1002272 2.69571E-04
 -1   1002273 1.65375E-04
 -1   1002275 1.65375E-04
 -1   1002276 6.31678E-05
 -1   1002278 6.31678E-05
 -1   1002279 1.39720E-04
 -1   1002281 1.39720E-04
 -1   1002282 5.64991E-01
 -1   1002284 5.64991E-01
 -1   1002285 9.55286E-02
 -1   1002287 9.55286E-02
 -1   1002288 5.36961E-02
 -1   1002290 5.36961E-02
 -1   1002291 5.62594E-02
 -1   1002293 5.62594E-02
 -1   1002294 5.62594E-02
 -1   1002296 5.62594E-02
 -1   1002297 5.26526E-02
 -1   1002299 5.26526E-02
 -1   1002300 4.78184E-02
 -1   1002302 4.78184E-02
 -1   1002303 4.30510E-02
 -1   1002305 4.30510E-02
 -1   1002306 3.86581E-02
 -1   1002308 3.86581E-02
 -1   1002309 3.46860E-02
 -1   1002311 3.46860E-02
 -1   1002312 3.11143E-02
 -1   1002314 3.11143E-02
 -1   1002315 2.79080E-02
 -1   1002317 2.79080E-02
 -1   1002318 2.50311E-02
 -1   1002320 2.50311E-02
 -1   1002321 2.24502E-02
 -1   1002323 2.24502E-02
 -1   1002324 2.01348E-02
 -1   1002326 2.01348E-02
 -1   1002327 1.80577E-02
 -1   1002329 1.80577E-02
 -1   1002330 1.61943E-02
 -1   1002332 1.61943E-02
 -1   1002333 1.45225E-02
 -1   1002335 1.45225E-02
 -1   1002336 1.30227E-02
 -1   1002338 1.30227E-02
 -1   1002339 1.16770E-02
 -1   1002341 1.16770E-02
 -1   1002342 1.04696E-02
 -1   1002344 1.04696E-02
 -1   1002345 9.38607E-03
 -1   1002347 9.38607E-03
 -1   1002348 8.41371E-03
 -1   1002350 8.41371E-03
 -1   1002351 7.54096E-03
 -1   1002353 7.54096E-03
 -1   1002354 6.75750E-03
 -1   1002356 6.75750E-03
 -1   1002357 6.05407E-03
 -1   1002359 6.05407E-03
 -1   1002360 5.42232E-03
 -1   1002362 5.42232E-03
 -1   1002363 4.85479E-03
 -1   1002365 4.85479E-03
 -1   1002366 4.34475E-03
 -1   1002368 4.34475E-03
 -1   1002369 3.88615E-03
 -1   1002371 3.88615E-03
 -1   1002372 3.47359E-03
 -1   1002374 3.47359E-03
 -1   1002375 3.10216E-03
 -1   1002377 3.10216E-03
 -1   1002378 2.76747E-03
 -1   1002380 2.76747E-03
 -1   1002381 2.46557E-03
 -1   1002383 2.46557E-03
 -1   1002384 2.19285E-03
 -1   1002386 2.19285E-03
 -1   1002387 1.94612E-03
 -1   1002389 1.94612E-03
 -1   1002390 1.72243E-03
 -1   1002392 1.72243E-03
 -1   1002393 1.51914E-03
 -1   1002395 1.51914E-03
 -1   1002396 1.33385E-03
 -1   1002398 1.33385E-03
 -1   1002399 1.16436E-03
 -1   1002401 1.16436E-03
 -1   1002402 1.00865E-03
 -1   1002404 1.00865E-03
 -1   1002405 8.64893E-04
 -1   1002407 8.64893E-04
 -1   1002408 7.31376E-04
 -1   1002410 7.31376E-04
 -1   1002411 6.06534E-04
 -1   1002413 6.06534E-04
 -1   1002414 4.88862E-04
 -1   1002416 4.88862E-04
 -1   1002417 3.76987E-04
 -1   1002419 3.76987E-04
 -1   1002420 2.69577E-04
 -1   1002422 2.69577E-04
 -1   1002423 1.65375E-04
 -1   1002425 1.65375E-04
 -1   1002426 6.31626E-05
 -1   1002428 6.31626E-05
 -1   1002429 1.39720E-04
 -1   1002431 1.39720E-04
 -1   1002432 5.64991E-01
 -1   1002434 5.64991E-01
 -1   1002435 9.55286E-02
 -1   1002437 9.55286E-02
 -1   1002438 5.36961E-02
 -1   1002440 5.36961E-02
 -1   1002441 5.62594E-02
 -1   1002443 5.62594E-02
 -1   1002444 5.62594E-02
 -1   1002446 5.62594E-02
 -1   1002447 5.26526E-02
 -1   1002449 5.26526E-02
 -1   1002450 4.78184E-02
 -1   1002452 4.78184E-02
 -1   1002453 4.30510E-02
 -1   1002455 4.30510E-02
 -1   1002456 3.86581E-02
 -1   1002458 3.86581E-02
 -1   1002459 3.46860E-02
 -1   1002461 3.46860E-02
 -1   1002462 3.11143E-02
 -1   1002464 3.11143E-02
 -1   1002465 2.79080E-02
 -1   1002467 2.79080E-02
 -1   1002468 2.50311E-02
 -1   1002470 2.50311E-02
 -1   1002471 2.24502E-02
 -1   1002473 2.24502E-02
 -1   1002474 2.01348E-02
 -1   1002476 2.01348E-02
 -1   1002477 1.80577E-02
 -1   1002479 1.80577E-02
 -1   1002480 1.61943E-02
 -1   1002482 1.61943E-02
 -1   1002483 1.45225E-02
 -1   1002485 1.45225E-02
 -1   1002486 1.30227E-02
 -1   1002488 1.30227E-02
 -1   1002489 1.16770E-02
 -1   1002491 1.16770E-02
 -1   1002492 1.04696E-02
 -1   1002494 1.04696E-02
 -1   1002495 9.38608E-03
 -1   1002497 9.38608E-03
 -1   1002498 8.41371E-03
 -1   1002500 8.41371E-03
 -1   1002501 7.54096E-03
 -1   1002503 7.54096E-03
 -1   1002504 6.75751E-03
 -1   1002506 6.75751E-03
 -1   1002507 6.05407E-03
 -1   1002509 6.05407E-03
 -1   1002510 5.42232E-03
 -1   1002512 5.42232E-03
 -1   1002513 4.85479E-03
 -1   1002515 4.85479E-03
 -1   1002516 4.34475E-03
 -1   1002518 4.34475E-03
 -1   1002519 3.88616E-03
 -1   1002521 3.88616E-03
 -1   1002522 3.47359E-03
 -1   1002524 3.47359E-03
 -1   1002525 3.10216E-03
 -1   1002527 3.10216E-03
 -1   1002528 2.76747E-03
 -1   1002530 2.76747E-03
 -1   1002531 2.46556E-03
 -1   1002533 2.46556E-03
 -1   1002534 2.19285E-03
 -1   1002536 2.19285E-03
 -1   1002537 1.94612E-03
 -1   1002539 1.94612E-03
 -1   1002540 1.72243E-03
 -1   1002542 1.72243E-03
 -1   1002543 1.51914E-03
 -1   1002545 1.51914E-03
 -1   1002546 1.33385E-03
 -1   1002548 1.33385E-03
 -1   1002549 1.16435E-03
 -1   1002551 1.16435E-03
 -1   1002552 1.00865E-03
 -1   1002554 1.00865E-03
 -1   1002555 8.64893E-04
 -1   1002557 8.64893E-04
 -1   1002558 7.31376E-04
 -1   1002560 7.31376E-04
 -1   1002561 6.06534E-04
 -1   1002563 6.06534E-04
 -1   1002564 4.88857E-04
 -1   1002566 4.88857E-04
 -1   1002567 3.76987E-04
 -1   1002569 3.76987E-04
 -1   1002570 2.69577E-04
 -1   1002572 2.69577E-04
 -1   1002573 1.65373E-04
 -1   1002575 1.65373E-04
 -1   1002576 6.31641E-05
 -1   1002578 6.31641E-05
 -1   1002579 1.39715E-04
 -1   1002581 1.39715E-04
 -1   1002582 5.64991E-01
 -1   1002584 5.64991E-01
 -1   1002585 9.55286E-02
 -1   1002587 9.55286E-02
 -1   1002588 5.36961E-02
 -1   1002590 5.36961E-02
 -1   1002591 5.62594E-02
 -1   1002593 5.62594E-02
 -1   1002594 5.62594E-02
 -1   1002596 5.62594E-02
 -1   1002597 5.26526E-02
 -1   1002599 5.26526E-02
 -1   1002600 4.78184E-02
 -1   1002602 4.78184E-02
 -1   1002603 4.30510E-02
 -1   1002605 4.30510E-02
 -1   1002606 3.86581E-02
 -1   1002608 3.86581E-02
 -1   1002609 3.46860E-02
 -1   1002611 3.46860E-02
 -1   1002612 3.11143E-02
 -1   1002614 3.11143E-02
 -1   1002615 2.79080E-02
 -1   1002617 2.79080E-02
 -1   1002618 2.50311E-02
 -1   1002620 2.50311E-02
 -1   1002621 2.24502E-02
 -1   1002623 2.24502E-02
 -1   1002624 2.01348E-02
 -1   1002626 2.01348E-02
 -1   1002627 1.80577E-02
 -1   1002629 1.80577E-02
 -1   1002630 1.61943E-02
 -1   1002632 1.61943E-02
 -1   1002633 1.45225E-02
 -1   1002635 1.45225E-02
 -1   1002636 1.30227E-02
 -1   1002638 1.30227E-02
 -1   1002639 1.16770E-02
 -1   1002641 1.16770E-02
 -1   1002642 1.04696E-02
 -1   1002644 1.04696E-02
 -1   1002645 9.38608E-03
 -1   1002647 9.38608E-03
 -1   1002648 8.41371E-03
 -1   1002650 8.41371E-03
 -1   1002651 7.54096E-03
 -1   1002653 7.54096E-03
 -1   1002654 6.75751E-03
 -1   1002656 6.75751E-03
 -1   1002657 6.05407E-03
 -1   1002659 6.05407E-03
 -1   1002660 5.42232E-03
 -1   1002662 5.42232E-03
 -1   1002663 4.85479E-03
 -1   1002665 4.85479E-03
 -1   1002666 4.34474E-03
 -1   1002668 4.34474E-03
 -1   1002669 3.88616E-03
 -1   1002671 3.88616E-03
 -1   1002672 3.47359E-03
 -1   1002674 3.47359E-03
 -1   1002675 3.10217E-03
 -1   1002677 3.10217E-03
 -1   1002678 2.76747E-03
 -1   1002680 2.76747E-03
 -1   1002681 2.46557E-03
 -1   1002683 2.46557E-03
 -1   1002684 2.19286E-03
 -1   1002686 2.19286E-03
 -1   1002687 1.94612E-03
 -1   1002689 1.94612E-03
 -1   1002690 1.72243E-03
 -1   1002692 1.72243E-03
 -1   1002693 1.51915E-03
 -1   1002695 1.51915E-03
 -1   1002696 1.33385E-03
 -1   1002698 1.33385E-03
 -1   1002699 1.16436E-03
 -1   1002701 1.16436E-03
 -1   1002702 1.00865E-03
 -1   1002704 1.00865E-03
 -1   1002705 8.64894E-04
 -1   1002707 8.64894E-04
 -1   1002708 7.31378E-04
 -1   1002710 7.31378E-04
 -1   1002711 6.06532E-04
 -1   1002713 6.06532E-04
 -1   1002714 4.88862E-04
 -1   1002716 4.88862E-04
 -1   1002717 3.76987E-04
 -1   1002719 3.76987E-04
 -1   1002720 2.69570E-04
 -1   1002722 2.69570E-04
 -1   1002723 1.65374E-04
 -1   1002725 1.65374E-04
 -1   1002726 6.31693E-05
 -1   1002728 6.31693E-05
 -1   1002729 1.39727E-04
 -1   1002731 1.39727E-04
 -1   1002732 5.64991E-01
 -1   1002734 5.64991E-01
 -1   1002735 9.55286E-02
 -1   1002737 9.55286E-02
 -1   1002738 5.36961E-02
 -1   1002740 5.36961E-02
 -1   1002741 5.62594E-02
 -1   1002743 5.62594E-02
 -1   1002744 5.62594E-02
 -1   1002746 5.62594E-02
 -1   1002747 5.26526E-02
 -1   1002749 5.26526E-02
 -1   1002750 4.78184E-02
 -1   1002752 4.78184E-02
 -1   1002753 4.30510E-02
 -1   1002755 4.30510E-02
 -1   1002756 3.86581E-02
 -1   1002758 3.86581E-02
 -1   1002759 3.46860E-02
 -1   1002761 3.46860E-02
 -1   1002762 3.11143E-02
 -1   1002764 3.11143E-02
 -1   1002765 2.79080E-02
 -1   1002767 2.79080E-02
 -1   1002768 2.50311E-02
 -1   1002770 2.50311E-02
 -1   1002771 2.24502E-02
 -1   1002773 2.24502E-02
 -1   1002774 2.01348E-02
 -1   1002776 2.01348E-02
 -1   1002777 1.80577E-02
 -1   1002779 1.80577E-02
 -1   1002780 1.61943E-02
 -1   1002782 1.61943E-02
 -1   1002783 1.45225E-02
 -1   1002785 1.45225E-02
 -1   1002786 1.30227E-02
 -1   1002788 1.30227E-02
 -1   1002789 1.16770E-02
 -1   1002791 1.16770E-02
 -1   1002792 1.04696E-02
 -1   1002794 1.04696E-02
 -1   1002795 9.38608E-03
 -1   1002797 9.38608E-03
 -1   1002798 8.41371E-03
 -1   1002800 8.41371E-03
 -1   1002801 7.54096E-03
 -1   1002803 7.54096E-03
 -1   1002804 6.75750E-03
 -1   1002806 6.75750E-03
 -1   1002807 6.05407E-03
 -1   1002809 6.05407E-03
 -1   1002810 5.42232E-03
 -1   1002812 5.42232E-03
 -1   1002813 4.85479E-03
 -1   1002815 4.85479E-03
 -1   1002816 4.34474E-03
 -1   1002818 4.34474E-03
 -1   1002819 3.88616E-03
 -1   1002821 3.88616E-03
 -1   1002822 3.47359E-03
 -1   1002824 3.47359E-03
 -1   1002825 3.10217E-03
 -1   1002827 3.10217E-03
 -1   1002828 2.76748E-03
 -1   1002830 2.76748E-03
 -1   1002831 2.46557E-03
 -1   1002833 2.46557E-03
 -1   1002834 2.19286E-03
 -1   1002836 2.19286E-03
 -1   1002837 1.94612E-03
 -1   1002839 1.94612E-03
 -1   1002840 1.72244E-03
 -1   1002842 1.72244E-03
 -1   1002843 1.51915E-03
 -1   1002845 1.51915E-03
 -1   1002846 1.33385E-03
 -1   1002848 1.33385E-03
 -1   1002849 1.16436E-03
 -1   1002851 1.16436E-03
 -1   1002852 1.00865E-03
 -1   1002854 1.00865E-03
 -1   1002855 8.64899E-04
 -1   1002857 8.64899E-04
 -1   1002858 7.31384E-04
 -1   1002860 7.31384E-04
 -1   1002861 6.06536E-04
 -1   1002863 6.06536E-04
 -1   1002864 4.88866E-04
 -1   1002866 4.88866E-04
 -1   1002867 3.76992E-04
 -1   1002869 3.76992E-04
 -1   1002870 2.69578E-04
 -1   1002872 2.69578E-04
 -1   1002873 1.65381E-04
 -1   1002875 1.65381E-04
 -1   1002876 6.31770E-05
 -1   1002878 6.31770E-05
 -1   1002879 1.39727E-04
 -1   1002881 1.39727E-04
 -1   1002882 5.64991E-01
 -1   1002884 5.64991E-01
 -1   1002885 9.55286E-02
 -1   1002887 9.55286E-02
 -1   1002888 5.36961E-02
 -1   1002890 5.36961E-02
 -1   1002891 5.62594E-02
 -1   1002893 5.62594E-02
 -1   1002894 5.62594E-02
 -1   1002896 5.62594E-02
 -1   1002897 5.26526E-02
 -1   1002899 5.26526E-02
 -1   1002900 4.78184E-02
 -1   1002902 4.78184E-02
 -1   1002903 4.30510E-02
 -1   1002905 4.30510E-02
 -1   1002906 3.86581E-02
 -1   1002908 3.86581E-02
 -1   1002909 3.46860E-02
 -1   1002911 3.46860E-02
 -1   1002912 3.11143E-02
 -1   1002914 3.11143E-02
 -1   1002915 2.79080E-02
 -1   1002917 2.79080E-02
 -1   1002918 2.50311E-02
 -1   1002920 2.50311E-02
 -1   1002921 2.24502E-02
 -1   1002923 2.24502E-02
 -1   1002924 2.01348E-02
 -1   1002926 2.01348E-02
 -1   1002927 1.80577E-02
 -1   1002929 1.80577E-02
 -1   1002930 1.61943E-02
 -1   1002932 1.61943E-02
 -1   1002933 1.45225E-02
 -1   1002935 1.45225E-02
 -1   1002936 1.30227E-02
 -1   1002938 1.30227E-02
 -1   1002939 1.16770E-02
 -1   1002941 1.16770E-02
 -1   1002942 1.04696E-02
 -1   1002944 1.04696E-02
 -1   1002945 9.38608E-03
 -1   1002947 9.38608E-03
 -1   1002948 8.41371E-03
 -1   1002950 8.41371E-03
 -1   1002951 7.54096E-03
 -1   1002953 7.54096E-03
 -1   1002954 6.75750E-03
 -1   1002956 6.75750E-03
 -1   1002957 6.05407E-03
 -1   1002959 6.05407E-03
 -1   1002960 5.42232E-03
 -1   1002962 5.42232E-03
 -1   1002963 4.85479E-03
 -1   1002965 4.85479E-03
 -1   1002966 4.34475E-03
 -1   1002968 4.34475E-03
 -1   1002969 3.88616E-03
 -1   1002971 3.88616E-03
 -1   1002972 3.47359E-03
 -1   1002974 3.47359E-03
 -1   1002975 3.10216E-03
 -1   1002977 3.10216E-03
 -1   1002978 2.76748E-03
 -1   1002980 2.76748E-03
 -1   1002981 2.46557E-03
 -1   1002983 2.46557E-03
 -1   1002984 2.19286E-03
 -1   1002986 2.19286E-03
 -1   1002987 1.94612E-03
 -1   1002989 1.94612E-03
 -1   1002990 1.72244E-03
 -1   1002992 1.72244E-03
 -1   1002993 1.51915E-03
 -1   1002995 1.51915E-03
 -1   1002996 1.33385E-03
 -1   1002998 1.33385E-03
 -1   1002999 1.16436E-03
 -1   1003001 1.16436E-03
 -1   1003002 1.00866E-03
 -1   1003004 1.00866E-03
 -1   1003005 8.64902E-04
 -1   1003007 8.64902E-04
 -1   1003008 7.31386E-04
 -1   1003010 7.31386E-04
 -1   1003011 6.06537E-04
 -1   1003013 6.06537E-04
 -1   1003014 4.88871E-04
 -1   1003016 4.88871E-04
 -1   1003017 3.76996E-04
 -1   1003019 3.76996E-04
 -1   1003020 2.69590E-04
 -1   1003022 2.69590E-04
 -1   1003023 1.65381E-04
 -1   1003025 1.65381E-04
 -1   1003026 6.31770E-05
 -1   1003028 6.31770E-05
 -1   1003029 1.39721E-04
 -1   1003031 1.39721E-04
 -1   1003032 5.64991E-01
 -1   1003034 5.64991E-01
 -1   1003035 9.55286E-02
 -1   1003037 9.55286E-02
 -1   1003038 5.36961E-02
 -1   1003040 5.36961E-02
 -1   1003041 5.62594E-02
 -1   1003043 5.62594E-02
 -1   1003044 5.62594E-02
 -1   1003046 5.62594E-02
 -1   1003047 5.26526E-02
 -1   1003049 5.26526E-02
 -1   1003050 4.78184E-02
 -1   1003052 4.78184E-02
 -1   1003053 4.30510E-02
 -1   1003055 4.30510E-02
 -1   1003056 3.86581E-02
 -1   1003058 3.86581E-02
 -1   1003059 3.46860E-02
 -1   1003061 3.46860E-02
 -1   1003062 3.11143E-02
 -1   1003064 3.11143E-02
 -1   1003065 2.79080E-02
 -1   1003067 2.79080E-02
 -1   1003068 2.50311E-02
 -1   1003070 2.50311E-02
 -1   1003071 2.24502E-02
 -1   1003073 2.24502E-02
 -1   1003074 2.01348E-02
 -1   1003076 2.01348E-02
 -1   1003077 1.80577E-02
 -1   1003079 1.80577E-02
 -1   1003080 1.61943E-02
 -1   1003082 1.61943E-02
 -1   1003083 1.45225E-02
 -1   1003085 1.45225E-02
 -1   1003086 1.30227E-02
 -1   1003088 1.30227E-02
 -1   1003089 1.16770E-02
 -1   1003091 1.16770E-02
 -1   1003092 1.04696E-02
 -1   1003094 1.04696E-02
 -1   1003095 9.38608E-03
 -1   1003097 9.38608E-03
 -1   1003098 8.41371E-03
 -1   1003100 8.41371E-03
 -1   1003101 7.54096E-03
 -1   1003103 7.54096E-03
 -1   1003104 6.75751E-03
 -1   1003106 6.75751E-03
 -1   1003107 6.05407E-03
 -1   1003109 6.05407E-03
 -1   1003110 5.42232E-03
 -1   1003112 5.42232E-03
 -1   1003113 4.85479E-03
 -1   1003115 4.85479E-03
 -1   1003116 4.34475E-03
 -1   1003118 4.34475E-03
 -1   1003119 3.88615E-03
 -1   1003121 3.88615E-03
 -1   1003122 3.47359E-03
 -1   1003124 3.47359E-03
 -1   1003125 3.10216E-03
 -1   1003127 3.10216E-03
 -1   1003128 2.76748E-03
 -1   1003130 2.76748E-03
 -1   1003131 2.46556E-03
 -1   1003133 2.46556E-03
 -1   1003134 2.19286E-03
 -1   1003136 2.19286E-03
 -1   1003137 1.94612E-03
 -1   1003139 1.94612E-03
 -1   1003140 1.72243E-03
 -1   1003142 1.72243E-03
 -1   1003143 1.51915E-03
 -1   1003145 1.51915E-03
 -1   1003146 1.33386E-03
 -1   1003148 1.33386E-03
 -1   1003149 1.16436E-03
 -1   1003151 1.16436E-03
 -1   1003152 1.00866E-03
 -1   1003154 1.00866E-03
 -1   1003155 8.64902E-04
 -1   1003157 8.64902E-04
 -1   1003158 7.31390E-04
 -1   1003160 7.31390E-04
 -1   1003161 6.06537E-04
 -1   1003163 6.06537E-04
 -1   1003164 4.88873E-04
 -1   1003166 4.88873E-04
 -1   1003167 3.76996E-04
 -1   1003169 3.76996E-04
 -1   1003170 2.69590E-04
 -1   1003172 2.69590E-04
 -1   1003173 1.65382E-04
 -1   1003175 1.65382E-04
 -1   1003176 6.31746E-05
 -1   1003178 6.31746E-05
 -1   1003179 1.39720E-04
 -1   1003181 1.39720E-04
 -1   1003182 5.64991E-01
 -1   1003184 5.64991E-01
 -1   1003185 9.55286E-02
 -1   1003187 9.55286E-02
 -1   1003188 5.36961E-02
 -1   1003190 5.36961E-02
 -1   1003191 5.62594E-02
 -1   1003193 5.62594E-02
 -1   1003194 5.62594E-02
 -1   1003196 5.62594E-02
 -1   1003197 5.26526E-02
 -1   1003199 5.26526E-02
 -1   1003200 4.78184E-02
 -1   1003202 4.78184E-02
 -1   1003203 4.30510E-02
 -1   1003205 4.30510E-02
 -1   1003206 3.86581E-02
 -1   1003208 3.86581E-02
 -1   1003209 3.46860E-02
 -1   1003211 3.46860E-02
 -1   1003212 3.11143E-02
 -1   1003214 3.11143E-02
 -1   1003215 2.79080E-02
 -1   1003217 2.79080E-02
 -1   1003218 2.50311E-02
 -1   1003220 2.50311E-02
 -1   1003221 2.24502E-02
 -1   1003223 2.24502E-02
 -1   1003224 2.01348E-02
 -1   1003226 2.01348E-02
 -1   1003227 1.80577E-02
 -1   1003229 1.80577E-02
 -1   1003230 1.61943E-02
 -1   1003232 1.61943E-02
 -1   1003233 1.45225E-02
 -1   1003235 1.45225E-02
 -1   1003236 1.30227E-02
 -1   1003238 1.30227E-02
 -1   1003239 1.16770E-02
 -1   1003241 1.16770E-02
 -1   1003242 1.04696E-02
 -1   1003244 1.04696E-02
 -1   1003245 9.38608E-03
 -1   1003247 9.38608E-03
 -1   1003248 8.41371E-03
 -1   1003250 8.41371E-03
 -1   1003251 7.54096E-03
 -1   1003253 7.54096E-03
 -1   1003254 6.75751E-03
 -1   1003256 6.75751E-03
 -1   1003257 6.05407E-03
 -1   1003259 6.05407E-03
 -1   1003260 5.42232E-03
 -1   1003262 5.42232E-03
 -1   1003263 4.85478E-03
 -1   1003265 4.85478E-03
 -1   1003266 4.34475E-03
 -1   1003268 4.34475E-03
 -1   1003269 3.88616E-03
 -1   1003271 3.88616E-03
 -1   1003272 3.47359E-03
 -1   1003274 3.47359E-03
 -1   1003275 3.10216E-03
 -1   1003277 3.10216E-03
 -1   1003278 2.76748E-03
 -1   1003280 2.76748E-03
 -1   1003281 2.46557E-03
 -1   1003283 2.46557E-03
 -1   1003284 2.19286E-03
 -1   1003286 2.19286E-03
 -1   1003287 1.94612E-03
 -1   1003289 1.94612E-03
 -1   1003290 1.72244E-03
 -1   1003292 1.72244E-03
 -1   1003293 1.51915E-03
 -1   1003295 1.51915E-03
 -1   1003296 1.33386E-03
 -1   1003298 1.33386E-03
 -1   1003299 1.16436E-03
 -1   1003301 1.16436E-03
 -1   1003302 1.00866E-03
 -1   1003304 1.00866E-03
 -1   1003305 8.64899E-04
 -1   1003307 8.64899E-04
 -1   1003308 7.31390E-04
 -1   1003310 7.31390E-04
 -1   1003311 6.06536E-04
 -1   1003313 6.06536E-04
 -1   1003314 4.88873E-04
 -1   1003316 4.88873E-04
 -1   1003317 3.76993E-04
 -1   1003319 3.76993E-04
 -1   1003320 2.69589E-04
 -1   1003322 2.69589E-04
 -1   1003323 1.65382E-04
 -1   1003325 1.65382E-04
 -1   1003326 6.31803E-05
 -1   1003328 6.31803E-05
 -1   1003329 1.39720E-04
 -1   1003331 1.39720E-04
 -1   1003332 5.64991E-01
 -1   1003334 5.64991E-01
 -1   1003335 9.55286E-02
 -1   1003337 9.55286E-02
 -1   1003338 5.36961E-02
 -1   1003340 5.36961E-02
 -1   1003341 5.62594E-02
 -1   1003343 5.62594E-02
 -1   1003344 5.62594E-02
 -1   1003346 5.62594E-02
 -1   1003347 5.26526E-02
 -1   1003349 5.26526E-02
 -1   1003350 4.78184E-02
 -1   1003352 4.78184E-02
 -1   1003353 4.30510E-02
 -1   1003355 4.30510E-02
 -1   1003356 3.86581E-02
 -1   1003358 3.86581E-02
 -1   1003359 3.46860E-02
 -1   1003361 3.46860E-02
 -1   1003362 3.11143E-02
 -1   1003364 3.11143E-02
 -1   1003365 2.79080E-02
 -1   1003367 2.79080E-02
 -1   1003368 2.50311E-02
 -1   1003370 2.50311E-02
 -1   1003371 2.24502E-02
 -1   1003373 2.24502E-02
 -1   1003374 2.01348E-02
 -1   1003376 2.01348E-02
 -1   1003377 1.80577E-02
 -1   1003379 1.80577E-02
 -1   1003380 1.61943E-02
 -1   1003382 1.61943E-02
 -1   1003383 1.45225E-02
 -1   1003385 1.45225E-02
 -1   1003386 1.30227E-02
 -1   1003388 1.30227E-02
 -1   1003389 1.16770E-02
 -1   1003391 1.16770E-02
 -1   1003392 1.04696E-02
 -1   1003394 1.04696E-02
 -1   1003395 9.38607E-03
 -1   1003397 9.38607E-03
 -1   1003398 8.41371E-03
 -1   1003400 8.41371E-03
 -1   1003401 7.54096E-03
 -1   1003403 7.54096E-03
 -1   1003404 6.75751E-03
 -1   1003406 6.75751E-03
 -1   1003407 6.05407E-03
 -1   1003409 6.05407E-03
 -1   1003410 5.42233E-03
 -1   1003412 5.42233E-03
 -1   1003413 4.85478E-03
 -1   1003415 4.85478E-03
 -1   1003416 4.34475E-03
 -1   1003418 4.34475E-03
 -1   1003419 3.88616E-03
 -1   1003421 3.88616E-03
 -1   1003422 3.47359E-03
 -1   1003424 3.47359E-03
 -1   1003425 3.10216E-03
 -1   1003427 3.10216E-03
 -1   1003428 2.76748E-03
 -1   1003430 2.76748E-03
 -1   1003431 2.46557E-03
 -1   1003433 2.46557E-03
 -1   1003434 2.19286E-03
 -1   1003436 2.19286E-03
 -1   1003437 1.94612E-03
 -1   1003439 1.94612E-03
 -1   1003440 1.72244E-03
 -1   1003442 1.72244E-03
 -1   1003443 1.51914E-03
 -1   1003445 1.51914E-03
 -1   1003446 1.33386E-03
 -1   1003448 1.33386E-03
 -1   1003449 1.16435E-03
 -1   1003451 1.16435E-03
 -1   1003452 1.00865E-03
 -1   1003454 1.00865E-03
 -1   1003455 8.64899E-04
 -1   1003457 8.64899E-04
 -1   1003458 7.31385E-04
 -1   1003460 7.31385E-04
 -1   1003461 6.06532E-04
 -1   1003463 6.06532E-04
 -1   1003464 4.88867E-04
 -1   1003466 4.88867E-04
 -1   1003467 3.76993E-04
 -1   1003469 3.76993E-04
 -1   1003470 2.69589E-04
 -1   1003472 2.69589E-04
 -1   1003473 1.65379E-04
 -1   1003475 1.65379E-04
 -1   1003476 6.31803E-05
 -1   1003478 6.31803E-05
 -1   1003479 1.39724E-04
 -1   1003481 1.39724E-04
 -1   1003482 5.64991E-01
 -1   1003484 5.64991E-01
 -1   1003485 9.55286E-02
 -1   1003487 9.55286E-02
 -1   1003488 5.36961E-02
 -1   1003490 5.36961E-02
 -1   1003491 5.62594E-02
 -1   1003493 5.62594E-02
 -1   1003494 5.62594E-02
 -1   1003496 5.62594E-02
 -1   1003497 5.26526E-02
 -1   1003499 5.26526E-02
 -1   1003500 4.78184E-02
 -1   1003502 4.78184E-02
 -1   1003503 4.30510E-02
 -1   1003505 4.30510E-02
 -1   1003506 3.86581E-02
 -1   1003508 3.86581E-02
 -1   1003509 3.46860E-02
 -1   1003511 3.46860E-02
 -1   1003512 3.11143E-02
 -1   1003514 3.11143E-02
 -1   1003515 2.79080E-02
 -1   1003517 2.79080E-02
 -1   1003518 2.50311E-02
 -1   1003520 2.50311E-02
 -1   1003521 2.24502E-02
 -1   1003523 2.24502E-02
 -1   1003524 2.01348E-02
 -1   1003526 2.01348E-02
 -1   1003527 1.80577E-02
 -1   1003529 1.80577E-02
 -1   1003530 1.61943E-02
 -1   1003532 1.61943E-02
 -1   1003533 1.45225E-02
 -1   1003535 1.45225E-02
 -1   1003536 1.30227E-02
 -1   1003538 1.30227E-02
 -1   1003539 1.16770E-02
 -1   1003541 1.16770E-02
 -1   1003542 1.04696E-02
 -1   1003544 1.04696E-02
 -1   1003545 9.38607E-03
 -1   1003547 9.38607E-03
 -1   1003548 8.41371E-03
 -1   1003550 8.41371E-03
 -1   1003551 7.54096E-03
 -1   1003553 7.54096E-03
 -1   1003554 6.75751E-03
 -1   1003556 6.75751E-03
 -1   1003557 6.05407E-03
 -1   1003559 6.05407E-03
 -1   1003560 5.42233E-03
 -1   1003562 5.42233E-03
 -1   1003563 4.85479E-03
 -1   1003565 4.85479E-03
 -1   1003566 4.34475E-03
 -1   1003568 4.34475E-03
 -1   1003569 3.88615E-03
 -1   1003571 3.88615E-03
 -1   1003572 3.47359E-03
 -1   1003574 3.47359E-03
 -1   1003575 3.10216E-03
 -1   1003577 3.10216E-03
 -1   1003578 2.76748E-03
 -1   1003580 2.76748E-03
 -1   1003581 2.46556E-03
 -1   1003583 2.46556E-03
 -1   1003584 2.19286E-03
 -1   1003586 2.19286E-03
 -1   1003587 1.94612E-03
 -1   1003589 1.94612E-03
 -1   1003590 1.72243E-03
 -1   1003592 1.72243E-03
 -1   1003593 1.51914E-03
 -1   1003595 1.51914E-03
 -1   1003596 1.33385E-03
 -1   1003598 1.33385E-03
 -1   1003599 1.16435E-03
 -1   1003601 1.16435E-03
 -1   1003602 1.00865E-03
 -1   1003604 1.00865E-03
 -1   1003605 8.64889E-04
 -1   1003607 8.64889E-04
 -1   1003608 7.31383E-04
 -1   1003610 7.31383E-04
 -1   1003611 6.06524E-04
 -1   1003613 6.06524E-04
 -1   1003614 4.88866E-04
 -1   1003616 4.88866E-04
 -1   1003617 3.76977E-04
 -1   1003619 3.76977E-04
 -1   1003620 2.69585E-04
 -1   1003622 2.69585E-04
 -1   1003623 1.65368E-04
 -1   1003625 1.65368E-04
 -1   1003626 6.31777E-05
 -1   1003628 6.31777E-05
 -1   1003629 1.39724E-04
 -1   1003631 1.39724E-04
 -1   1003632 5.64991E-01
 -1   1003634 5.64991E-01
 -1   1003635 9.55286E-02
 -1   1003637 9.55286E-02
 -1   1003638 5.36961E-02
 -1   1003640 5.36961E-02
 -1   1003641 5.62594E-02
 -1   1003643 5.62594E-02
 -1   1003644 5.62594E-02
 -1   1003646 5.62594E-02
 -1   1003647 5.26526E-02
 -1   1003649 5.26526E-02
 -1   1003650 4.78184E-02
 -1   1003652 4.78184E-02
 -1   1003653 4.30510E-02
 -1   1003655 4.30510E-02
 -1   1003656 3.86581E-02
 -1   1003658 3.86581E-02
 -1   1003659 3.46860E-02
 -1   1003661 3.46860E-02
 -1   1003662 3.11143E-02
 -1   1003664 3.11143E-02
 -1   1003665 2.79080E-02
 -1   1003667 2.79080E-02
 -1   1003668 2.50311E-02
 -1   1003670 2.50311E-02
 -1   1003671 2.24502E-02
 -1   1003673 2.24502E-02
 -1   1003674 2.01348E-02
 -1   1003676 2.01348E-02
 -1   1003677 1.80577E-02
 -1   1003679 1.80577E-02
 -1   1003680 1.61943E-02
 -1   1003682 1.61943E-02
 -1   1003683 1.45225E-02
 -1   1003685 1.45225E-02
 -1   1003686 1.30227E-02
 -1   1003688 1.30227E-02
 -1   1003689 1.16770E-02
 -1   1003691 1.16770E-02
 -1   1003692 1.04696E-02
 -1   1003694 1.04696E-02
 -1   1003695 9.38608E-03
 -1   1003697 9.38608E-03
 -1   1003698 8.41371E-03
 -1   1003700 8.41371E-03
 -1   1003701 7.54096E-03
 -1   1003703 7.54096E-03
 -1   1003704 6.75751E-03
 -1   1003706 6.75751E-03
 -1   1003707 6.05407E-03
 -1   1003709 6.05407E-03
 -1   1003710 5.42232E-03
 -1   1003712 5.42232E-03
 -1   1003713 4.85479E-03
 -1   1003715 4.85479E-03
 -1   1003716 4.34474E-03
 -1   1003718 4.34474E-03
 -1   1003719 3.88615E-03
 -1   1003721 3.88615E-03
 -1   1003722 3.47359E-03
 -1   1003724 3.47359E-03
 -1   1003725 3.10216E-03
 -1   1003727 3.10216E-03
 -1   1003728 2.76748E-03
 -1   1003730 2.76748E-03
 -1   1003731 2.46557E-03
 -1   1003733 2.46557E-03
 -1   1003734 2.19286E-03
 -1   1003736 2.19286E-03
 -1   1003737 1.94612E-03
 -1   1003739 1.94612E-03
 -1   1003740 1.72244E-03
 -1   1003742 1.72244E-03
 -1   1003743 1.51914E-03
 -1   1003745 1.51914E-03
 -1   1003746 1.33385E-03
 -1   1003748 1.33385E-03
 -1   1003749 1.16436E-03
 -1   1003751 1.16436E-03
 -1   1003752 1.00866E-03
 -1   1003754 1.00866E-03
 -1   1003755 8.64891E-04
 -1   1003757 8.64891E-04
 -1   1003758 7.31392E-04
 -1   1003760 7.31392E-04
 -1   1003761 6.06528E-04
 -1   1003763 6.06528E-04
 -1   1003764 4.88870E-04
 -1   1003766 4.88870E-04
 -1   1003767 3.76987E-04
 -1   1003769 3.76987E-04
 -1   1003770 2.69583E-04
 -1   1003772 2.69583E-04
 -1   1003773 1.65376E-04
 -1   1003775 1.65376E-04
 -1   1003776 6.31769E-05
 -1   1003778 6.31769E-05
 -1   1003779 1.39712E-04
 -1   1003781 1.39712E-04
 -1   1003782 5.64991E-01
 -1   1003784 5.64991E-01
 -1   1003785 9.55286E-02
 -1   1003787 9.55286E-02
 -1   1003788 5.36961E-02
 -1   1003790 5.36961E-02
 -1   1003791 5.62594E-02
 -1   1003793 5.62594E-02
 -1   1003794 5.62594E-02
 -1   1003796 5.62594E-02
 -1   1003797 5.26526E-02
 -1   1003799 5.26526E-02
 -1   1003800 4.78184E-02
 -1   1003802 4.78184E-02
 -1   1003803 4.30510E-02
 -1   1003805 4.30510E-02
 -1   1003806 3.86581E-02
 -1   1003808 3.86581E-02
 -1   1003809 3.46860E-02
 -1   1003811 3.46860E-02
 -1   1003812 3.11143E-02
 -1   1003814 3.11143E-02
 -1   1003815 2.79080E-02
 -1   1003817 2.79080E-02
 -1   1003818 2.50311E-02
 -1   1003820 2.50311E-02
 -1   1003821 2.24502E-02
 -1   1003823 2.24502E-02
 -1   1003824 2.01348E-02
 -1   1003826 2.01348E-02
 -1   1003827 1.80577E-02
 -1   1003829 1.80577E-02
 -1   1003830 1.61943E-02
 -1   1003832 1.61943E-02
 -1   1003833 1.45226E-02
 -1   1003835 1.45226E-02
 -1   1003836 1.30227E-02
 -1   1003838 1.30227E-02
 -1   1003839 1.16770E-02
 -1   1003841 1.16770E-02
 -1   1003842 1.04696E-02
 -1   1003844 1.04696E-02
 -1   1003845 9.38608E-03
 -1   1003847 9.38608E-03
 -1   1003848 8.41371E-03
 -1   1003850 8.41371E-03
 -1   1003851 7.54096E-03
 -1   1003853 7.54096E-03
 -1   1003854 6.75751E-03
 -1   1003856 6.75751E-03
 -1   1003857 6.05407E-03
 -1   1003859 6.05407E-03
 -1   1003860 5.42233E-03
 -1   1003862 5.42233E-03
 -1   1003863 4.85479E-03
 -1   1003865 4.85479E-03
 -1   1003866 4.34474E-03
 -1   1003868 4.34474E-03
 -1   1003869 3.88615E-03
 -1   1003871 3.88615E-03
 -1   1003872 3.47359E-03
 -1   1003874 3.47359E-03
 -1   1003875 3.10216E-03
 -1   1003877 3.10216E-03
 -1   1003878 2.76748E-03
 -1   1003880 2.76748E-03
 -1   1003881 2.46557E-03
 -1   1003883 2.46557E-03
 -1   1003884 2.19286E-03
 -1   1003886 2.19286E-03
 -1   1003887 1.94612E-03
 -1   1003889 1.94612E-03
 -1   1003890 1.72244E-03
 -1   1003892 1.72244E-03
 -1   1003893 1.51915E-03
 -1   1003895 1.51915E-03
 -1   1003896 1.33386E-03
 -1   1003898 1.33386E-03
 -1   1003899 1.16436E-03
 -1   1003901 1.16436E-03
 -1   1003902 1.00866E-03
 -1   1003904 1.00866E-03
 -1   1003905 8.64905E-04
 -1   1003907 8.64905E-04
 -1   1003908 7.31392E-04
 -1   1003910 7.31392E-04
 -1   1003911 6.06536E-04
 -1   1003913 6.06536E-04
 -1   1003914 4.88872E-04
 -1   1003916 4.88872E-04
 -1   1003917 3.76991E-04
 -1   1003919 3.76991E-04
 -1   1003920 2.69595E-04
 -1   1003922 2.69595E-04
 -1   1003923 1.65386E-04
 -1   1003925 1.65386E-04
 -1   1003926 6.31836E-05
 -1   1003928 6.31836E-05
 -1   1003929 1.39719E-04
 -1   1003931 1.39719E-04
 -1   1003932 5.64991E-01
 -1   1003934 5.64991E-01
 -1   1003935 9.55286E-02
 -1   1003937 9.55286E-02
 -1   1003938 5.36961E-02
 -1   1003940 5.36961E-02
 -1   1003941 5.62594E-02
 -1   1003943 5.62594E-02
 -1   1003944 5.62594E-02
 -1   1003946 5.62594E-02
 -1   1003947 5.26526E-02
 -1   1003949 5.26526E-02
 -1   1003950 4.78184E-02
 -1   1003952 4.78184E-02
 -1   1003953 4.30510E-02
 -1   1003955 4.30510E-02
 -1   1003956 3.86581E-02
 -1   1003958 3.86581E-02
 -1   1003959 3.46860E-02
 -1   1003961 3.46860E-02
 -1   1003962 3.11143E-02
 -1   1003964 3.11143E-02
 -1   1003965 2.79080E-02
 -1   1003967 2.79080E-02
 -1   1003968 2.50311E-02
 -1   1003970 2.50311E-02
 -1   1003971 2.24502E-02
 -1   1003973 2.24502E-02
 -1   1003974 2.01348E-02
 -1   1003976 2.01348E-02
 -1   1003977 1.80577E-02
 -1   1003979 1.80577E-02
 -1   1003980 1.61943E-02
 -1   1003982 1.61943E-02
 -1   1003983 1.45226E-02
 -1   1003985 1.45226E-02
 -1   1003986 1.30227E-02
 -1   1003988 1.30227E-02
 -1   1003989 1.16770E-02
 -1   1003991 1.16770E-02
 -1   1003992 1.04696E-02
 -1   1003994 1.04696E-02
 -1   1003995 9.38608E-03
 -1   1003997 9.38608E-03
 -1   1003998 8.41372E-03
 -1   1004000 8.41372E-03
 -1   1004001 7.54097E-03
 -1   1004003 7.54097E-03
 -1   1004004 6.75751E-03
 -1   1004006 6.75751E-03
 -1   1004007 6.05408E-03
 -1   1004009 6.05408E-03
 -1   1004010 5.42233E-03
 -1   1004012 5.42233E-03
 -1   1004013 4.85479E-03
 -1   1004015 4.85479E-03
 -1   1004016 4.34475E-03
 -1   1004018 4.34475E-03
 -1   1004019 3.88616E-03
 -1   1004021 3.88616E-03
 -1   1004022 3.47359E-03
 -1   1004024 3.47359E-03
 -1   1004025 3.10216E-03
 -1   1004027 3.10216E-03
 -1   1004028 2.76748E-03
 -1   1004030 2.76748E-03
 -1   1004031 2.46557E-03
 -1   1004033 2.46557E-03
 -1   1004034 2.19286E-03
 -1   1004036 2.19286E-03
 -1   1004037 1.94612E-03
 -1   1004039 1.94612E-03
 -1   1004040 1.72244E-03
 -1   1004042 1.72244E-03
 -1   1004043 1.51915E-03
 -1   1004045 1.51915E-03
 -1   1004046 1.33386E-03
 -1   1004048 1.33386E-03
 -1   1004049 1.16436E-03
 -1   1004051 1.16436E-03
 -1   1004052 1.00866E-03
 -1   1004054 1.00866E-03
 -1   1004055 8.64905E-04
 -1   1004057 8.64905E-04
 -1   1004058 7.31387E-04
 -1   1004060 7.31387E-04
 -1   1004061 6.06536E-04
 -1   1004063 6.06536E-04
 -1   1004064 4.88872E-04
 -1   1004066 4.88872E-04
 -1   1004067 3.76999E-04
 -1   1004069 3.76999E-04
 -1   1004070 2.69595E-04
 -1   1004072 2.69595E-04
 -1   1004073 1.65386E-04
 -1   1004075 1.65386E-04
 -1   1004076 6.31836E-05
 -1   1004078 6.31836E-05
 -1   1004079 1.39733E-04
 -1   1004081 1.39733E-04
 -1   1004082 5.64991E-01
 -1   1004084 5.64991E-01
 -1   1004085 9.55286E-02
 -1   1004087 9.55286E-02
 -1   1004088 5.36961E-02
 -1   1004090 5.36961E-02
 -1   1004091 5.62594E-02
 -1   1004093 5.62594E-02
 -1   1004094 5.62594E-02
 -1   1004096 5.62594E-02
 -1   1004097 5.26526E-02
 -1   1004099 5.26526E-02
 -1   1004100 4.78184E-02
 -1   1004102 4.78184E-02
 -1   1004103 4.30510E-02
 -1   1004105 4.30510E-02
 -1   1004106 3.86581E-02
 -1   1004108 3.86581E-02
 -1   1004109 3.46860E-02
 -1   1004111 3.46860E-02
 -1   1004112 3.11143E-02
 -1   1004114 3.11143E-02
 -1   1004115 2.79080E-02
 -1   1004117 2.79080E-02
 -1   1004118 2.50311E-02
 -1   1004120 2.50311E-02
 -1   1004121 2.24502E-02
 -1   1004123 2.24502E-02
 -1   1004124 2.01348E-02
 -1   1004126 2.01348E-02
 -1   1004127 1.80577E-02
 -1   1004129 1.80577E-02
 -1   1004130 1.61943E-02
 -1   1004132 1.61943E-02
 -1   1004133 1.45226E-02
 -1   1004135 1.45226E-02
 -1   1004136 1.30227E-02
 -1   1004138 1.30227E-02
 -1   1004139 1.16770E-02
 -1   1004141 1.16770E-02
 -1   1004142 1.04696E-02
 -1   1004144 1.04696E-02
 -1   1004145 9.38608E-03
 -1   1004147 9.38608E-03
 -1   1004148 8.41372E-03
 -1   1004150 8.41372E-03
 -1   1004151 7.54097E-03
 -1   1004153 7.54097E-03
 -1   1004154 6.75751E-03
 -1   1004156 6.75751E-03
 -1   1004157 6.05408E-03
 -1   1004159 6.05408E-03
 -1   1004160 5.42233E-03
 -1   1004162 5.42233E-03
 -1   1004163 4.85479E-03
 -1   1004165 4.85479E-03
 -1   1004166 4.34475E-03
 -1   1004168 4.34475E-03
 -1   1004169 3.88616E-03
 -1   1004171 3.88616E-03
 -1   1004172 3.47359E-03
 -1   1004174 3.47359E-03
 -1   1004175 3.10216E-03
 -1   1004177 3.10216E-03
 -1   1004178 2.76747E-03
 -1   1004180 2.76747E-03
 -1   1004181 2.46557E-03
 -1   1004183 2.46557E-03
 -1   1004184 2.19285E-03
 -1   1004186 2.19285E-03
 -1   1004187 1.94612E-03
 -1   1004189 1.94612E-03
 -1   1004190 1.72243E-03
 -1   1004192 1.72243E-03
 -1   1004193 1.51915E-03
 -1   1004195 1.51915E-03
 -1   1004196 1.33386E-03
 -1   1004198 1.33386E-03
 -1   1004199 1.16436E-03
 -1   1004201 1.16436E-03
 -1   1004202 1.00865E-03
 -1   1004204 1.00865E-03
 -1   1004205 8.64891E-04
 -1   1004207 8.64891E-04
 -1   1004208 7.31387E-04
 -1   1004210 7.31387E-04
 -1   1004211 6.06535E-04
 -1   1004213 6.06535E-04
 -1   1004214 4.88870E-04
 -1   1004216 4.88870E-04
 -1   1004217 3.76999E-04
 -1   1004219 3.76999E-04
 -1   1004220 2.69588E-04
 -1   1004222 2.69588E-04
 -1   1004223 1.65384E-04
 -1   1004225 1.65384E-04
 -1   1004226 6.31807E-05
 -1   1004228 6.31807E-05
 -1   1004229 1.39733E-04
 -1   1004231 1.39733E-04
 -1   1004232 5.64991E-01
 -1   1004234 5.64991E-01
 -1   1004235 9.55286E-02
 -1   1004237 9.55286E-02
 -1   1004238 5.36961E-02
 -1   1004240 5.36961E-02
 -1   1004241 5.62594E-02
 -1   1004243 5.62594E-02
 -1   1004244 5.62594E-02
 -1   1004246 5.62594E-02
 -1   1004247 5.26526E-02
 -1   1004249 5.26526E-02
 -1   1004250 4.78184E-02
 -1   1004252 4.78184E-02
 -1   1004253 4.30510E-02
 -1   1004255 4.30510E-02
 -1   1004256 3.86581E-02
 -1   1004258 3.86581E-02
 -1   1004259 3.46860E-02
 -1   1004261 3.46860E-02
 -1   1004262 3.11143E-02
 -1   1004264 3.11143E-02
 -1   1004265 2.79080E-02
 -1   1004267 2.79080E-02
 -1   1004268 2.50311E-02
 -1   1004270 2.50311E-02
 -1   1004271 2.24502E-02
 -1   1004273 2.24502E-02
 -1   1004274 2.01348E-02
 -1   1004276 2.01348E-02
 -1   1004277 1.80577E-02
 -1   1004279 1.80577E-02
 -1   1004280 1.61943E-02
 -1   1004282 1.61943E-02
 -1   1004283 1.45226E-02
 -1   1004285 1.45226E-02
 -1   1004286 1.30227E-02
 -1   1004288 1.30227E-02
 -1   1004289 1.16770E-02
 -1   1004291 1.16770E-02
 -1   1004292 1.04696E-02
 -1   1004294 1.04696E-02
 -1   1004295 9.38608E-03
 -1   1004297 9.38608E-03
 -1   1004298 8.41372E-03
 -1   1004300 8.41372E-03
 -1   1004301 7.54097E-03
 -1   1004303 7.54097E-03
 -1   1004304 6.75751E-03
 -1   1004306 6.75751E-03
 -1   1004307 6.05408E-03
 -1   1004309 6.05408E-03
 -1   1004310 5.42233E-03
 -1   1004312 5.42233E-03
 -1   1004313 4.85479E-03
 -1   1004315 4.85479E-03
 -1   1004316 4.34475E-03
 -1   1004318 4.34475E-03
 -1   1004319 3.88616E-03
 -1   1004321 3.88616E-03
 -1   1004322 3.47360E-03
 -1   1004324 3.47360E-03
 -1   1004325 3.10217E-03
 -1   1004327 3.10217E-03
 -1   1004328 2.76748E-03
 -1   1004330 2.76748E-03
 -1   1004331 2.46557E-03
 -1   1004333 2.46557E-03
 -1   1004334 2.19286E-03
 -1   1004336 2.19286E-03
 -1   1004337 1.94612E-03
 -1   1004339 1.94612E-03
 -1   1004340 1.72243E-03
 -1   1004342 1.72243E-03
 -1   1004343 1.51915E-03
 -1   1004345 1.51915E-03
 -1   1004346 1.33385E-03
 -1   1004348 1.33385E-03
 -1   1004349 1.16436E-03
 -1   1004351 1.16436E-03
 -1   1004352 1.00865E-03
 -1   1004354 1.00865E-03
 -1   1004355 8.64896E-04
 -1   1004357 8.64896E-04
 -1   1004358 7.31377E-04
 -1   1004360 7.31377E-04
 -1   1004361 6.06529E-04
 -1   1004363 6.06529E-04
 -1   1004364 4.88860E-04
 -1   1004366 4.88860E-04
 -1   1004367 3.76990E-04
 -1   1004369 3.76990E-04
 -1   1004370 2.69579E-04
 -1   1004372 2.69579E-04
 -1   1004373 1.65377E-04
 -1   1004375 1.65377E-04
 -1   1004376 6.31748E-05
 -1   1004378 6.31748E-05
 -1   1004379 1.39749E-04
 -1   1004381 1.39749E-04
 -1   1004382 5.64991E-01
 -1   1004384 5.64991E-01
 -1   1004385 9.55286E-02
 -1   1004387 9.55286E-02
 -1   1004388 5.36961E-02
 -1   1004390 5.36961E-02
 -1   1004391 5.62594E-02
 -1   1004393 5.62594E-02
 -1   1004394 5.62594E-02
 -1   1004396 5.62594E-02
 -1   1004397 5.26526E-02
 -1   1004399 5.26526E-02
 -1   1004400 4.78184E-02
 -1   1004402 4.78184E-02
 -1   1004403 4.30510E-02
 -1   1004405 4.30510E-02
 -1   1004406 3.86581E-02
 -1   1004408 3.86581E-02
 -1   1004409 3.46860E-02
 -1   1004411 3.46860E-02
 -1   1004412 3.11143E-02
 -1   1004414 3.11143E-02
 -1   1004415 2.79080E-02
 -1   1004417 2.79080E-02
 -1   1004418 2.50311E-02
 -1   1004420 2.50311E-02
 -1   1004421 2.24502E-02
 -1   1004423 2.24502E-02
 -1   1004424 2.01348E-02
 -1   1004426 2.01348E-02
 -1   1004427 1.80577E-02
 -1   1004429 1.80577E-02
 -1   1004430 1.61943E-02
 -1   1004432 1.61943E-02
 -1   1004433 1.45225E-02
 -1   1004435 1.45225E-02
 -1   1004436 1.30227E-02
 -1   1004438 1.30227E-02
 -1   1004439 1.16770E-02
 -1   1004441 1.16770E-02
 -1   1004442 1.04696E-02
 -1   1004444 1.04696E-02
 -1   1004445 9.38608E-03
 -1   1004447 9.38608E-03
 -1   1004448 8.41372E-03
 -1   1004450 8.41372E-03
 -1   1004451 7.54097E-03
 -1   1004453 7.54097E-03
 -1   1004454 6.75751E-03
 -1   1004456 6.75751E-03
 -1   1004457 6.05408E-03
 -1   1004459 6.05408E-03
 -1   1004460 5.42233E-03
 -1   1004462 5.42233E-03
 -1   1004463 4.85479E-03
 -1   1004465 4.85479E-03
 -1   1004466 4.34475E-03
 -1   1004468 4.34475E-03
 -1   1004469 3.88616E-03
 -1   1004471 3.88616E-03
 -1   1004472 3.47360E-03
 -1   1004474 3.47360E-03
 -1   1004475 3.10217E-03
 -1   1004477 3.10217E-03
 -1   1004478 2.76748E-03
 -1   1004480 2.76748E-03
 -1   1004481 2.46558E-03
 -1   1004483 2.46558E-03
 -1   1004484 2.19286E-03
 -1   1004486 2.19286E-03
 -1   1004487 1.94613E-03
 -1   1004489 1.94613E-03
 -1   1004490 1.72244E-03
 -1   1004492 1.72244E-03
 -1   1004493 1.51916E-03
 -1   1004495 1.51916E-03
 -1   1004496 1.33386E-03
 -1   1004498 1.33386E-03
 -1   1004499 1.16436E-03
 -1   1004501 1.16436E-03
 -1   1004502 1.00865E-03
 -1   1004504 1.00865E-03
 -1   1004505 8.64903E-04
 -1   1004507 8.64903E-04
 -1   1004508 7.31379E-04
 -1   1004510 7.31379E-04
 -1   1004511 6.06541E-04
 -1   1004513 6.06541E-04
 -1   1004514 4.88869E-04
 -1   1004516 4.88869E-04
 -1   1004517 3.76999E-04
 -1   1004519 3.76999E-04
 -1   1004520 2.69576E-04
 -1   1004522 2.69576E-04
 -1   1004523 1.65385E-04
 -1   1004525 1.65385E-04
 -1   1004526 6.31777E-05
 -1   1004528 6.31777E-05
 -1   1004529 1.39772E-04
 -1   1004531 1.39772E-04
 -1   1004532 5.64991E-01
 -1   1004534 5.64991E-01
 -1   1004535 9.55286E-02
 -1   1004537 9.55286E-02
 -1   1004538 5.36961E-02
 -1   1004540 5.36961E-02
 -1   1004541 5.62594E-02
 -1   1004543 5.62594E-02
 -1   1004544 5.62594E-02
 -1   1004546 5.62594E-02
 -1   1004547 5.26526E-02
 -1   1004549 5.26526E-02
 -1   1004550 4.78184E-02
 -1   1004552 4.78184E-02
 -1   1004553 4.30510E-02
 -1   1004555 4.30510E-02
 -1   1004556 3.86581E-02
 -1   1004558 3.86581E-02
 -1   1004559 3.46860E-02
 -1   1004561 3.46860E-02
 -1   1004562 3.11143E-02
 -1   1004564 3.11143E-02
 -1   1004565 2.79080E-02
 -1   1004567 2.79080E-02
 -1   1004568 2.50311E-02
 -1   1004570 2.50311E-02
 -1   1004571 2.24502E-02
 -1   1004573 2.24502E-02
 -1   1004574 2.01348E-02
 -1   1004576 2.01348E-02
 -1   1004577 1.80577E-02
 -1   1004579 1.80577E-02
 -1   1004580 1.61943E-02
 -1   1004582 1.61943E-02
 -1   1004583 1.45225E-02
 -1   1004585 1.45225E-02
 -1   1004586 1.30227E-02
 -1   1004588 1.30227E-02
 -1   1004589 1.16770E-02
 -1   1004591 1.16770E-02
 -1   1004592 1.04696E-02
 -1   1004594 1.04696E-02
 -1   1004595 9.38607E-03
 -1   1004597 9.38607E-03
 -1   1004598 8.41371E-03
 -1   1004600 8.41371E-03
 -1   1004601 7.54096E-03
 -1   1004603 7.54096E-03
 -1   1004604 6.75751E-03
 -1   1004606 6.75751E-03
 -1   1004607 6.05408E-03
 -1   1004609 6.05408E-03
 -1   1004610 5.42233E-03
 -1   1004612 5.42233E-03
 -1   1004613 4.85479E-03
 -1   1004615 4.85479E-03
 -1   1004616 4.34475E-03
 -1   1004618 4.34475E-03
 -1   1004619 3.88616E-03
 -1   1004621 3.88616E-03
 -1   1004622 3.47359E-03
 -1   1004624 3.47359E-03
 -1   1004625 3.10217E-03
 -1   1004627 3.10217E-03
 -1   1004628 2.76748E-03
 -1   1004630 2.76748E-03
 -1   1004631 2.46558E-03
 -1   1004633 2.46558E-03
 -1   1004634 2.19286E-03
 -1   1004636 2.19286E-03
 -1   1004637 1.94613E-03
 -1   1004639 1.94613E-03
 -1   1004640 1.72244E-03
 -1   1004642 1.72244E-03
 -1   1004643 1.51916E-03
 -1   1004645 1.51916E-03
 -1   1004646 1.33386E-03
 -1   1004648 1.33386E-03
 -1   1004649 1.16436E-03
 -1   1004651 1.16436E-03
 -1   1004652 1.00865E-03
 -1   1004654 1.00865E-03
 -1   1004655 8.64903E-04
 -1   1004657 8.64903E-04
 -1   1004658 7.31389E-04
 -1   1004660 7.31389E-04
 -1   1004661 6.06542E-04
 -1   1004663 6.06542E-04
 -1   1004664 4.88869E-04
 -1   1004666 4.88869E-04
 -1   1004667 3.76999E-04
 -1   1004669 3.76999E-04
 -1   1004670 2.69583E-04
 -1   1004672 2.69583E-04
 -1   1004673 1.65386E-04
 -1   1004675 1.65386E-04
 -1   1004676 6.31777E-05
 -1   1004678 6.31777E-05
 -1   1004679 1.39772E-04
 -1   1004681 1.39772E-04
 -3
 9999
