    1C
    1U disc.inp                                                         
    1UUSER                                                              
    1UDATE              25.february.2021                                
    1UTIME              09:40:12                                        
    1UHOST                                                              
    1UPGM               CalculiX                                        
    1UVERSION           Version 2.17                             
    1UCOMPILETIME       Thu Jul 23 21:29:36 CEST 2020                    
    1UDIR                                                               
    1UDBN                                                               
    1UMAT    1STEEL                                                     
    2C                          4092                                     1
 -1         1 2.50000E+01 0.00000E+00 0.00000E+00
 -1         2 1.00000E+02 0.00000E+00 0.00000E+00
 -1         3 6.12323E-15 1.00000E+02 0.00000E+00
 -1         4 1.53081E-15 2.50000E+01 0.00000E+00
 -1         5 2.50000E+01 0.00000E+00 1.00000E+01
 -1         6 1.00000E+02 0.00000E+00 1.00000E+01
 -1         7 6.12323E-15 1.00000E+02 1.00000E+01
 -1         8 1.53081E-15 2.50000E+01 1.00000E+01
 -1         9 2.75000E+01 0.00000E+00 0.00000E+00
 -1        10 3.00000E+01 0.00000E+00 0.00000E+00
 -1        11 3.25000E+01 0.00000E+00 0.00000E+00
 -1        12 3.50000E+01 0.00000E+00 0.00000E+00
 -1        13 3.75000E+01 0.00000E+00 0.00000E+00
 -1        14 4.00000E+01 0.00000E+00 0.00000E+00
 -1        15 4.25000E+01 0.00000E+00 0.00000E+00
 -1        16 4.50000E+01 0.00000E+00 0.00000E+00
 -1        17 4.75000E+01 0.00000E+00 0.00000E+00
 -1        18 5.00000E+01 0.00000E+00 0.00000E+00
 -1        19 5.25000E+01 0.00000E+00 0.00000E+00
 -1        20 5.50000E+01 0.00000E+00 0.00000E+00
 -1        21 5.75000E+01 0.00000E+00 0.00000E+00
 -1        22 6.00000E+01 0.00000E+00 0.00000E+00
 -1        23 6.25000E+01 0.00000E+00 0.00000E+00
 -1        24 6.50000E+01 0.00000E+00 0.00000E+00
 -1        25 6.75000E+01 0.00000E+00 0.00000E+00
 -1        26 7.00000E+01 0.00000E+00 0.00000E+00
 -1        27 7.25000E+01 0.00000E+00 0.00000E+00
 -1        28 7.50000E+01 0.00000E+00 0.00000E+00
 -1        29 7.75000E+01 0.00000E+00 0.00000E+00
 -1        30 8.00000E+01 0.00000E+00 0.00000E+00
 -1        31 8.25000E+01 0.00000E+00 0.00000E+00
 -1        32 8.50000E+01 0.00000E+00 0.00000E+00
 -1        33 8.75000E+01 0.00000E+00 0.00000E+00
 -1        34 9.00000E+01 0.00000E+00 0.00000E+00
 -1        35 9.25000E+01 0.00000E+00 0.00000E+00
 -1        36 9.50000E+01 0.00000E+00 0.00000E+00
 -1        37 9.75000E+01 0.00000E+00 0.00000E+00
 -1        38 9.87688E+01 1.56434E+01 0.00000E+00
 -1        39 9.51057E+01 3.09017E+01 0.00000E+00
 -1        40 8.91007E+01 4.53991E+01 0.00000E+00
 -1        41 8.09017E+01 5.87785E+01 0.00000E+00
 -1        42 7.07107E+01 7.07107E+01 0.00000E+00
 -1        43 5.87785E+01 8.09017E+01 0.00000E+00
 -1        44 4.53991E+01 8.91007E+01 0.00000E+00
 -1        45 3.09017E+01 9.51057E+01 0.00000E+00
 -1        46 1.56434E+01 9.87688E+01 0.00000E+00
 -1        47 5.97015E-15 9.75000E+01 0.00000E+00
 -1        48 5.81707E-15 9.50000E+01 0.00000E+00
 -1        49 5.66399E-15 9.25000E+01 0.00000E+00
 -1        50 5.51091E-15 9.00000E+01 0.00000E+00
 -1        51 5.35783E-15 8.75000E+01 0.00000E+00
 -1        52 5.20475E-15 8.50000E+01 0.00000E+00
 -1        53 5.05167E-15 8.25000E+01 0.00000E+00
 -1        54 4.89859E-15 8.00000E+01 0.00000E+00
 -1        55 4.74551E-15 7.75000E+01 0.00000E+00
 -1        56 4.59243E-15 7.50000E+01 0.00000E+00
 -1        57 4.43934E-15 7.25000E+01 0.00000E+00
 -1        58 4.28626E-15 7.00000E+01 0.00000E+00
 -1        59 4.13318E-15 6.75000E+01 0.00000E+00
 -1        60 3.98010E-15 6.50000E+01 0.00000E+00
 -1        61 3.82702E-15 6.25000E+01 0.00000E+00
 -1        62 3.67394E-15 6.00000E+01 0.00000E+00
 -1        63 3.52086E-15 5.75000E+01 0.00000E+00
 -1        64 3.36778E-15 5.50000E+01 0.00000E+00
 -1        65 3.21470E-15 5.25000E+01 0.00000E+00
 -1        66 3.06162E-15 5.00000E+01 0.00000E+00
 -1        67 2.90854E-15 4.75000E+01 0.00000E+00
 -1        68 2.75546E-15 4.50000E+01 0.00000E+00
 -1        69 2.60237E-15 4.25000E+01 0.00000E+00
 -1        70 2.44929E-15 4.00000E+01 0.00000E+00
 -1        71 2.29621E-15 3.75000E+01 0.00000E+00
 -1        72 2.14313E-15 3.50000E+01 0.00000E+00
 -1        73 1.99005E-15 3.25000E+01 0.00000E+00
 -1        74 1.83697E-15 3.00000E+01 0.00000E+00
 -1        75 1.68389E-15 2.75000E+01 0.00000E+00
 -1        76 3.91086E+00 2.46922E+01 0.00000E+00
 -1        77 7.72542E+00 2.37764E+01 0.00000E+00
 -1        78 1.13498E+01 2.22752E+01 0.00000E+00
 -1        79 1.46946E+01 2.02254E+01 0.00000E+00
 -1        80 1.76777E+01 1.76777E+01 0.00000E+00
 -1        81 2.02254E+01 1.46946E+01 0.00000E+00
 -1        82 2.22752E+01 1.13498E+01 0.00000E+00
 -1        83 2.37764E+01 7.72542E+00 0.00000E+00
 -1        84 2.46922E+01 3.91086E+00 0.00000E+00
 -1        85 2.75000E+01 0.00000E+00 1.00000E+01
 -1        86 3.00000E+01 0.00000E+00 1.00000E+01
 -1        87 3.25000E+01 0.00000E+00 1.00000E+01
 -1        88 3.50000E+01 0.00000E+00 1.00000E+01
 -1        89 3.75000E+01 0.00000E+00 1.00000E+01
 -1        90 4.00000E+01 0.00000E+00 1.00000E+01
 -1        91 4.25000E+01 0.00000E+00 1.00000E+01
 -1        92 4.50000E+01 0.00000E+00 1.00000E+01
 -1        93 4.75000E+01 0.00000E+00 1.00000E+01
 -1        94 5.00000E+01 0.00000E+00 1.00000E+01
 -1        95 5.25000E+01 0.00000E+00 1.00000E+01
 -1        96 5.50000E+01 0.00000E+00 1.00000E+01
 -1        97 5.75000E+01 0.00000E+00 1.00000E+01
 -1        98 6.00000E+01 0.00000E+00 1.00000E+01
 -1        99 6.25000E+01 0.00000E+00 1.00000E+01
 -1       100 6.50000E+01 0.00000E+00 1.00000E+01
 -1       101 6.75000E+01 0.00000E+00 1.00000E+01
 -1       102 7.00000E+01 0.00000E+00 1.00000E+01
 -1       103 7.25000E+01 0.00000E+00 1.00000E+01
 -1       104 7.50000E+01 0.00000E+00 1.00000E+01
 -1       105 7.75000E+01 0.00000E+00 1.00000E+01
 -1       106 8.00000E+01 0.00000E+00 1.00000E+01
 -1       107 8.25000E+01 0.00000E+00 1.00000E+01
 -1       108 8.50000E+01 0.00000E+00 1.00000E+01
 -1       109 8.75000E+01 0.00000E+00 1.00000E+01
 -1       110 9.00000E+01 0.00000E+00 1.00000E+01
 -1       111 9.25000E+01 0.00000E+00 1.00000E+01
 -1       112 9.50000E+01 0.00000E+00 1.00000E+01
 -1       113 9.75000E+01 0.00000E+00 1.00000E+01
 -1       114 9.87688E+01 1.56434E+01 1.00000E+01
 -1       115 9.51057E+01 3.09017E+01 1.00000E+01
 -1       116 8.91007E+01 4.53991E+01 1.00000E+01
 -1       117 8.09017E+01 5.87785E+01 1.00000E+01
 -1       118 7.07107E+01 7.07107E+01 1.00000E+01
 -1       119 5.87785E+01 8.09017E+01 1.00000E+01
 -1       120 4.53991E+01 8.91007E+01 1.00000E+01
 -1       121 3.09017E+01 9.51057E+01 1.00000E+01
 -1       122 1.56434E+01 9.87688E+01 1.00000E+01
 -1       123 5.97015E-15 9.75000E+01 1.00000E+01
 -1       124 5.81707E-15 9.50000E+01 1.00000E+01
 -1       125 5.66399E-15 9.25000E+01 1.00000E+01
 -1       126 5.51091E-15 9.00000E+01 1.00000E+01
 -1       127 5.35783E-15 8.75000E+01 1.00000E+01
 -1       128 5.20475E-15 8.50000E+01 1.00000E+01
 -1       129 5.05167E-15 8.25000E+01 1.00000E+01
 -1       130 4.89859E-15 8.00000E+01 1.00000E+01
 -1       131 4.74551E-15 7.75000E+01 1.00000E+01
 -1       132 4.59243E-15 7.50000E+01 1.00000E+01
 -1       133 4.43934E-15 7.25000E+01 1.00000E+01
 -1       134 4.28626E-15 7.00000E+01 1.00000E+01
 -1       135 4.13318E-15 6.75000E+01 1.00000E+01
 -1       136 3.98010E-15 6.50000E+01 1.00000E+01
 -1       137 3.82702E-15 6.25000E+01 1.00000E+01
 -1       138 3.67394E-15 6.00000E+01 1.00000E+01
 -1       139 3.52086E-15 5.75000E+01 1.00000E+01
 -1       140 3.36778E-15 5.50000E+01 1.00000E+01
 -1       141 3.21470E-15 5.25000E+01 1.00000E+01
 -1       142 3.06162E-15 5.00000E+01 1.00000E+01
 -1       143 2.90854E-15 4.75000E+01 1.00000E+01
 -1       144 2.75546E-15 4.50000E+01 1.00000E+01
 -1       145 2.60237E-15 4.25000E+01 1.00000E+01
 -1       146 2.44929E-15 4.00000E+01 1.00000E+01
 -1       147 2.29621E-15 3.75000E+01 1.00000E+01
 -1       148 2.14313E-15 3.50000E+01 1.00000E+01
 -1       149 1.99005E-15 3.25000E+01 1.00000E+01
 -1       150 1.83697E-15 3.00000E+01 1.00000E+01
 -1       151 1.68389E-15 2.75000E+01 1.00000E+01
 -1       152 3.91086E+00 2.46922E+01 1.00000E+01
 -1       153 7.72542E+00 2.37764E+01 1.00000E+01
 -1       154 1.13498E+01 2.22752E+01 1.00000E+01
 -1       155 1.46946E+01 2.02254E+01 1.00000E+01
 -1       156 1.76777E+01 1.76777E+01 1.00000E+01
 -1       157 2.02254E+01 1.46946E+01 1.00000E+01
 -1       158 2.22752E+01 1.13498E+01 1.00000E+01
 -1       159 2.37764E+01 7.72542E+00 1.00000E+01
 -1       160 2.46922E+01 3.91086E+00 1.00000E+01
 -1       161 2.50000E+01 0.00000E+00 9.09091E-01
 -1       162 2.50000E+01 0.00000E+00 1.81818E+00
 -1       163 2.50000E+01 0.00000E+00 2.72727E+00
 -1       164 2.50000E+01 0.00000E+00 3.63636E+00
 -1       165 2.50000E+01 0.00000E+00 4.54545E+00
 -1       166 2.50000E+01 0.00000E+00 5.45455E+00
 -1       167 2.50000E+01 0.00000E+00 6.36364E+00
 -1       168 2.50000E+01 0.00000E+00 7.27273E+00
 -1       169 2.50000E+01 0.00000E+00 8.18182E+00
 -1       170 2.50000E+01 0.00000E+00 9.09091E+00
 -1       171 1.00000E+02 0.00000E+00 9.09091E-01
 -1       172 1.00000E+02 0.00000E+00 1.81818E+00
 -1       173 1.00000E+02 0.00000E+00 2.72727E+00
 -1       174 1.00000E+02 0.00000E+00 3.63636E+00
 -1       175 1.00000E+02 0.00000E+00 4.54545E+00
 -1       176 1.00000E+02 0.00000E+00 5.45455E+00
 -1       177 1.00000E+02 0.00000E+00 6.36364E+00
 -1       178 1.00000E+02 0.00000E+00 7.27273E+00
 -1       179 1.00000E+02 0.00000E+00 8.18182E+00
 -1       180 1.00000E+02 0.00000E+00 9.09091E+00
 -1       181 6.12323E-15 1.00000E+02 9.09091E-01
 -1       182 6.12323E-15 1.00000E+02 1.81818E+00
 -1       183 6.12323E-15 1.00000E+02 2.72727E+00
 -1       184 6.12323E-15 1.00000E+02 3.63636E+00
 -1       185 6.12323E-15 1.00000E+02 4.54545E+00
 -1       186 6.12323E-15 1.00000E+02 5.45455E+00
 -1       187 6.12323E-15 1.00000E+02 6.36364E+00
 -1       188 6.12323E-15 1.00000E+02 7.27273E+00
 -1       189 6.12323E-15 1.00000E+02 8.18182E+00
 -1       190 6.12323E-15 1.00000E+02 9.09091E+00
 -1       191 1.53081E-15 2.50000E+01 9.09091E-01
 -1       192 1.53081E-15 2.50000E+01 1.81818E+00
 -1       193 1.53081E-15 2.50000E+01 2.72727E+00
 -1       194 1.53081E-15 2.50000E+01 3.63636E+00
 -1       195 1.53081E-15 2.50000E+01 4.54545E+00
 -1       196 1.53081E-15 2.50000E+01 5.45455E+00
 -1       197 1.53081E-15 2.50000E+01 6.36364E+00
 -1       198 1.53081E-15 2.50000E+01 7.27273E+00
 -1       199 1.53081E-15 2.50000E+01 8.18182E+00
 -1       200 1.53081E-15 2.50000E+01 9.09091E+00
 -1       201 2.71614E+01 4.30195E+00 0.00000E+00
 -1       202 2.61541E+01 8.49797E+00 0.00000E+00
 -1       203 2.45027E+01 1.24847E+01 0.00000E+00
 -1       204 2.22480E+01 1.61641E+01 0.00000E+00
 -1       205 1.94454E+01 1.94454E+01 0.00000E+00
 -1       206 1.61641E+01 2.22480E+01 0.00000E+00
 -1       207 1.24847E+01 2.45027E+01 0.00000E+00
 -1       208 8.49797E+00 2.61541E+01 0.00000E+00
 -1       209 4.30195E+00 2.71614E+01 0.00000E+00
 -1       210 2.96306E+01 4.69303E+00 0.00000E+00
 -1       211 2.85317E+01 9.27051E+00 0.00000E+00
 -1       212 2.67302E+01 1.36197E+01 0.00000E+00
 -1       213 2.42705E+01 1.76336E+01 0.00000E+00
 -1       214 2.12132E+01 2.12132E+01 0.00000E+00
 -1       215 1.76336E+01 2.42705E+01 0.00000E+00
 -1       216 1.36197E+01 2.67302E+01 0.00000E+00
 -1       217 9.27051E+00 2.85317E+01 0.00000E+00
 -1       218 4.69303E+00 2.96306E+01 0.00000E+00
 -1       219 3.20999E+01 5.08412E+00 0.00000E+00
 -1       220 3.09093E+01 1.00431E+01 0.00000E+00
 -1       221 2.89577E+01 1.47547E+01 0.00000E+00
 -1       222 2.62931E+01 1.91030E+01 0.00000E+00
 -1       223 2.29810E+01 2.29810E+01 0.00000E+00
 -1       224 1.91030E+01 2.62931E+01 0.00000E+00
 -1       225 1.47547E+01 2.89577E+01 0.00000E+00
 -1       226 1.00431E+01 3.09093E+01 0.00000E+00
 -1       227 5.08412E+00 3.20999E+01 0.00000E+00
 -1       228 3.45691E+01 5.47521E+00 0.00000E+00
 -1       229 3.32870E+01 1.08156E+01 0.00000E+00
 -1       230 3.11852E+01 1.58897E+01 0.00000E+00
 -1       231 2.83156E+01 2.05725E+01 0.00000E+00
 -1       232 2.47487E+01 2.47487E+01 0.00000E+00
 -1       233 2.05725E+01 2.83156E+01 0.00000E+00
 -1       234 1.58897E+01 3.11852E+01 0.00000E+00
 -1       235 1.08156E+01 3.32870E+01 0.00000E+00
 -1       236 5.47521E+00 3.45691E+01 0.00000E+00
 -1       237 3.70383E+01 5.86629E+00 0.00000E+00
 -1       238 3.56646E+01 1.15881E+01 0.00000E+00
 -1       239 3.34127E+01 1.70246E+01 0.00000E+00
 -1       240 3.03381E+01 2.20419E+01 0.00000E+00
 -1       241 2.65165E+01 2.65165E+01 0.00000E+00
 -1       242 2.20419E+01 3.03381E+01 0.00000E+00
 -1       243 1.70246E+01 3.34127E+01 0.00000E+00
 -1       244 1.15881E+01 3.56646E+01 0.00000E+00
 -1       245 5.86629E+00 3.70383E+01 0.00000E+00
 -1       246 3.95075E+01 6.25738E+00 0.00000E+00
 -1       247 3.80423E+01 1.23607E+01 0.00000E+00
 -1       248 3.56403E+01 1.81596E+01 0.00000E+00
 -1       249 3.23607E+01 2.35114E+01 0.00000E+00
 -1       250 2.82843E+01 2.82843E+01 0.00000E+00
 -1       251 2.35114E+01 3.23607E+01 0.00000E+00
 -1       252 1.81596E+01 3.56403E+01 0.00000E+00
 -1       253 1.23607E+01 3.80423E+01 0.00000E+00
 -1       254 6.25738E+00 3.95075E+01 0.00000E+00
 -1       255 4.19768E+01 6.64846E+00 0.00000E+00
 -1       256 4.04199E+01 1.31332E+01 0.00000E+00
 -1       257 3.78678E+01 1.92946E+01 0.00000E+00
 -1       258 3.43832E+01 2.49809E+01 0.00000E+00
 -1       259 3.00520E+01 3.00520E+01 0.00000E+00
 -1       260 2.49809E+01 3.43832E+01 0.00000E+00
 -1       261 1.92946E+01 3.78678E+01 0.00000E+00
 -1       262 1.31332E+01 4.04199E+01 0.00000E+00
 -1       263 6.64846E+00 4.19768E+01 0.00000E+00
 -1       264 4.44460E+01 7.03955E+00 0.00000E+00
 -1       265 4.27975E+01 1.39058E+01 0.00000E+00
 -1       266 4.00953E+01 2.04296E+01 0.00000E+00
 -1       267 3.64058E+01 2.64503E+01 0.00000E+00
 -1       268 3.18198E+01 3.18198E+01 0.00000E+00
 -1       269 2.64503E+01 3.64058E+01 0.00000E+00
 -1       270 2.04296E+01 4.00953E+01 0.00000E+00
 -1       271 1.39058E+01 4.27975E+01 0.00000E+00
 -1       272 7.03955E+00 4.44460E+01 0.00000E+00
 -1       273 4.69152E+01 7.43064E+00 0.00000E+00
 -1       274 4.51752E+01 1.46783E+01 0.00000E+00
 -1       275 4.23228E+01 2.15645E+01 0.00000E+00
 -1       276 3.84283E+01 2.79198E+01 0.00000E+00
 -1       277 3.35876E+01 3.35876E+01 0.00000E+00
 -1       278 2.79198E+01 3.84283E+01 0.00000E+00
 -1       279 2.15645E+01 4.23228E+01 0.00000E+00
 -1       280 1.46783E+01 4.51752E+01 0.00000E+00
 -1       281 7.43064E+00 4.69152E+01 0.00000E+00
 -1       282 4.93844E+01 7.82172E+00 0.00000E+00
 -1       283 4.75528E+01 1.54508E+01 0.00000E+00
 -1       284 4.45503E+01 2.26995E+01 0.00000E+00
 -1       285 4.04509E+01 2.93893E+01 0.00000E+00
 -1       286 3.53553E+01 3.53553E+01 0.00000E+00
 -1       287 2.93893E+01 4.04509E+01 0.00000E+00
 -1       288 2.26995E+01 4.45503E+01 0.00000E+00
 -1       289 1.54508E+01 4.75528E+01 0.00000E+00
 -1       290 7.82172E+00 4.93844E+01 0.00000E+00
 -1       291 5.18536E+01 8.21281E+00 0.00000E+00
 -1       292 4.99305E+01 1.62234E+01 0.00000E+00
 -1       293 4.67778E+01 2.38345E+01 0.00000E+00
 -1       294 4.24734E+01 3.08587E+01 0.00000E+00
 -1       295 3.71231E+01 3.71231E+01 0.00000E+00
 -1       296 3.08587E+01 4.24734E+01 0.00000E+00
 -1       297 2.38345E+01 4.67778E+01 0.00000E+00
 -1       298 1.62234E+01 4.99305E+01 0.00000E+00
 -1       299 8.21281E+00 5.18536E+01 0.00000E+00
 -1       300 5.43229E+01 8.60390E+00 0.00000E+00
 -1       301 5.23081E+01 1.69959E+01 0.00000E+00
 -1       302 4.90054E+01 2.49695E+01 0.00000E+00
 -1       303 4.44959E+01 3.23282E+01 0.00000E+00
 -1       304 3.88909E+01 3.88909E+01 0.00000E+00
 -1       305 3.23282E+01 4.44959E+01 0.00000E+00
 -1       306 2.49695E+01 4.90054E+01 0.00000E+00
 -1       307 1.69959E+01 5.23081E+01 0.00000E+00
 -1       308 8.60390E+00 5.43229E+01 0.00000E+00
 -1       309 5.67921E+01 8.99498E+00 0.00000E+00
 -1       310 5.46857E+01 1.77685E+01 0.00000E+00
 -1       311 5.12329E+01 2.61045E+01 0.00000E+00
 -1       312 4.65185E+01 3.37977E+01 0.00000E+00
 -1       313 4.06586E+01 4.06586E+01 0.00000E+00
 -1       314 3.37977E+01 4.65185E+01 0.00000E+00
 -1       315 2.61045E+01 5.12329E+01 0.00000E+00
 -1       316 1.77685E+01 5.46857E+01 0.00000E+00
 -1       317 8.99498E+00 5.67921E+01 0.00000E+00
 -1       318 5.92613E+01 9.38607E+00 0.00000E+00
 -1       319 5.70634E+01 1.85410E+01 0.00000E+00
 -1       320 5.34604E+01 2.72394E+01 0.00000E+00
 -1       321 4.85410E+01 3.52671E+01 0.00000E+00
 -1       322 4.24264E+01 4.24264E+01 0.00000E+00
 -1       323 3.52671E+01 4.85410E+01 0.00000E+00
 -1       324 2.72394E+01 5.34604E+01 0.00000E+00
 -1       325 1.85410E+01 5.70634E+01 0.00000E+00
 -1       326 9.38607E+00 5.92613E+01 0.00000E+00
 -1       327 6.17305E+01 9.77715E+00 0.00000E+00
 -1       328 5.94410E+01 1.93136E+01 0.00000E+00
 -1       329 5.56879E+01 2.83744E+01 0.00000E+00
 -1       330 5.05636E+01 3.67366E+01 0.00000E+00
 -1       331 4.41942E+01 4.41942E+01 0.00000E+00
 -1       332 3.67366E+01 5.05636E+01 0.00000E+00
 -1       333 2.83744E+01 5.56879E+01 0.00000E+00
 -1       334 1.93136E+01 5.94410E+01 0.00000E+00
 -1       335 9.77715E+00 6.17305E+01 0.00000E+00
 -1       336 6.41997E+01 1.01682E+01 0.00000E+00
 -1       337 6.18187E+01 2.00861E+01 0.00000E+00
 -1       338 5.79154E+01 2.95094E+01 0.00000E+00
 -1       339 5.25861E+01 3.82060E+01 0.00000E+00
 -1       340 4.59619E+01 4.59619E+01 0.00000E+00
 -1       341 3.82060E+01 5.25861E+01 0.00000E+00
 -1       342 2.95094E+01 5.79154E+01 0.00000E+00
 -1       343 2.00861E+01 6.18187E+01 0.00000E+00
 -1       344 1.01682E+01 6.41997E+01 0.00000E+00
 -1       345 6.66690E+01 1.05593E+01 0.00000E+00
 -1       346 6.41963E+01 2.08586E+01 0.00000E+00
 -1       347 6.01429E+01 3.06444E+01 0.00000E+00
 -1       348 5.46086E+01 3.96755E+01 0.00000E+00
 -1       349 4.77297E+01 4.77297E+01 0.00000E+00
 -1       350 3.96755E+01 5.46086E+01 0.00000E+00
 -1       351 3.06444E+01 6.01429E+01 0.00000E+00
 -1       352 2.08586E+01 6.41963E+01 0.00000E+00
 -1       353 1.05593E+01 6.66690E+01 0.00000E+00
 -1       354 6.91382E+01 1.09504E+01 0.00000E+00
 -1       355 6.65740E+01 2.16312E+01 0.00000E+00
 -1       356 6.23705E+01 3.17793E+01 0.00000E+00
 -1       357 5.66312E+01 4.11450E+01 0.00000E+00
 -1       358 4.94975E+01 4.94975E+01 0.00000E+00
 -1       359 4.11450E+01 5.66312E+01 0.00000E+00
 -1       360 3.17793E+01 6.23705E+01 0.00000E+00
 -1       361 2.16312E+01 6.65740E+01 0.00000E+00
 -1       362 1.09504E+01 6.91382E+01 0.00000E+00
 -1       363 7.16074E+01 1.13415E+01 0.00000E+00
 -1       364 6.89516E+01 2.24037E+01 0.00000E+00
 -1       365 6.45980E+01 3.29143E+01 0.00000E+00
 -1       366 5.86537E+01 4.26144E+01 0.00000E+00
 -1       367 5.12652E+01 5.12652E+01 0.00000E+00
 -1       368 4.26144E+01 5.86537E+01 0.00000E+00
 -1       369 3.29143E+01 6.45980E+01 0.00000E+00
 -1       370 2.24037E+01 6.89516E+01 0.00000E+00
 -1       371 1.13415E+01 7.16074E+01 0.00000E+00
 -1       372 7.40766E+01 1.17326E+01 0.00000E+00
 -1       373 7.13292E+01 2.31763E+01 0.00000E+00
 -1       374 6.68255E+01 3.40493E+01 0.00000E+00
 -1       375 6.06763E+01 4.40839E+01 0.00000E+00
 -1       376 5.30330E+01 5.30330E+01 0.00000E+00
 -1       377 4.40839E+01 6.06763E+01 0.00000E+00
 -1       378 3.40493E+01 6.68255E+01 0.00000E+00
 -1       379 2.31763E+01 7.13292E+01 0.00000E+00
 -1       380 1.17326E+01 7.40766E+01 0.00000E+00
 -1       381 7.65458E+01 1.21237E+01 0.00000E+00
 -1       382 7.37069E+01 2.39488E+01 0.00000E+00
 -1       383 6.90530E+01 3.51843E+01 0.00000E+00
 -1       384 6.26988E+01 4.55534E+01 0.00000E+00
 -1       385 5.48008E+01 5.48008E+01 0.00000E+00
 -1       386 4.55534E+01 6.26988E+01 0.00000E+00
 -1       387 3.51843E+01 6.90530E+01 0.00000E+00
 -1       388 2.39488E+01 7.37069E+01 0.00000E+00
 -1       389 1.21237E+01 7.65458E+01 0.00000E+00
 -1       390 7.90151E+01 1.25148E+01 0.00000E+00
 -1       391 7.60845E+01 2.47214E+01 0.00000E+00
 -1       392 7.12805E+01 3.63192E+01 0.00000E+00
 -1       393 6.47214E+01 4.70228E+01 0.00000E+00
 -1       394 5.65685E+01 5.65685E+01 0.00000E+00
 -1       395 4.70228E+01 6.47214E+01 0.00000E+00
 -1       396 3.63192E+01 7.12805E+01 0.00000E+00
 -1       397 2.47214E+01 7.60845E+01 0.00000E+00
 -1       398 1.25148E+01 7.90151E+01 0.00000E+00
 -1       399 8.14843E+01 1.29058E+01 0.00000E+00
 -1       400 7.84622E+01 2.54939E+01 0.00000E+00
 -1       401 7.35080E+01 3.74542E+01 0.00000E+00
 -1       402 6.67439E+01 4.84923E+01 0.00000E+00
 -1       403 5.83363E+01 5.83363E+01 0.00000E+00
 -1       404 4.84923E+01 6.67439E+01 0.00000E+00
 -1       405 3.74542E+01 7.35080E+01 0.00000E+00
 -1       406 2.54939E+01 7.84622E+01 0.00000E+00
 -1       407 1.29058E+01 8.14843E+01 0.00000E+00
 -1       408 8.39535E+01 1.32969E+01 0.00000E+00
 -1       409 8.08398E+01 2.62664E+01 0.00000E+00
 -1       410 7.57356E+01 3.85892E+01 0.00000E+00
 -1       411 6.87664E+01 4.99617E+01 0.00000E+00
 -1       412 6.01041E+01 6.01041E+01 0.00000E+00
 -1       413 4.99617E+01 6.87664E+01 0.00000E+00
 -1       414 3.85892E+01 7.57356E+01 0.00000E+00
 -1       415 2.62664E+01 8.08398E+01 0.00000E+00
 -1       416 1.32969E+01 8.39535E+01 0.00000E+00
 -1       417 8.64227E+01 1.36880E+01 0.00000E+00
 -1       418 8.32174E+01 2.70390E+01 0.00000E+00
 -1       419 7.79631E+01 3.97242E+01 0.00000E+00
 -1       420 7.07890E+01 5.14312E+01 0.00000E+00
 -1       421 6.18718E+01 6.18718E+01 0.00000E+00
 -1       422 5.14312E+01 7.07890E+01 0.00000E+00
 -1       423 3.97242E+01 7.79631E+01 0.00000E+00
 -1       424 2.70390E+01 8.32174E+01 0.00000E+00
 -1       425 1.36880E+01 8.64227E+01 0.00000E+00
 -1       426 8.88920E+01 1.40791E+01 0.00000E+00
 -1       427 8.55951E+01 2.78115E+01 0.00000E+00
 -1       428 8.01906E+01 4.08591E+01 0.00000E+00
 -1       429 7.28115E+01 5.29007E+01 0.00000E+00
 -1       430 6.36396E+01 6.36396E+01 0.00000E+00
 -1       431 5.29007E+01 7.28115E+01 0.00000E+00
 -1       432 4.08591E+01 8.01906E+01 0.00000E+00
 -1       433 2.78115E+01 8.55951E+01 0.00000E+00
 -1       434 1.40791E+01 8.88920E+01 0.00000E+00
 -1       435 9.13612E+01 1.44702E+01 0.00000E+00
 -1       436 8.79727E+01 2.85841E+01 0.00000E+00
 -1       437 8.24181E+01 4.19941E+01 0.00000E+00
 -1       438 7.48341E+01 5.43701E+01 0.00000E+00
 -1       439 6.54074E+01 6.54074E+01 0.00000E+00
 -1       440 5.43701E+01 7.48341E+01 0.00000E+00
 -1       441 4.19941E+01 8.24181E+01 0.00000E+00
 -1       442 2.85841E+01 8.79727E+01 0.00000E+00
 -1       443 1.44702E+01 9.13612E+01 0.00000E+00
 -1       444 9.38304E+01 1.48613E+01 0.00000E+00
 -1       445 9.03504E+01 2.93566E+01 0.00000E+00
 -1       446 8.46456E+01 4.31291E+01 0.00000E+00
 -1       447 7.68566E+01 5.58396E+01 0.00000E+00
 -1       448 6.71751E+01 6.71751E+01 0.00000E+00
 -1       449 5.58396E+01 7.68566E+01 0.00000E+00
 -1       450 4.31291E+01 8.46456E+01 0.00000E+00
 -1       451 2.93566E+01 9.03504E+01 0.00000E+00
 -1       452 1.48613E+01 9.38304E+01 0.00000E+00
 -1       453 9.62996E+01 1.52524E+01 0.00000E+00
 -1       454 9.27280E+01 3.01292E+01 0.00000E+00
 -1       455 8.68731E+01 4.42641E+01 0.00000E+00
 -1       456 7.88792E+01 5.73091E+01 0.00000E+00
 -1       457 6.89429E+01 6.89429E+01 0.00000E+00
 -1       458 5.73091E+01 7.88792E+01 0.00000E+00
 -1       459 4.42641E+01 8.68731E+01 0.00000E+00
 -1       460 3.01292E+01 9.27280E+01 0.00000E+00
 -1       461 1.52524E+01 9.62996E+01 0.00000E+00
 -1       462 2.75000E+01 0.00000E+00 9.09091E-01
 -1       463 2.75000E+01 0.00000E+00 1.81818E+00
 -1       464 2.75000E+01 0.00000E+00 2.72727E+00
 -1       465 2.75000E+01 0.00000E+00 3.63636E+00
 -1       466 2.75000E+01 0.00000E+00 4.54545E+00
 -1       467 2.75000E+01 0.00000E+00 5.45455E+00
 -1       468 2.75000E+01 0.00000E+00 6.36364E+00
 -1       469 2.75000E+01 0.00000E+00 7.27273E+00
 -1       470 2.75000E+01 0.00000E+00 8.18182E+00
 -1       471 2.75000E+01 0.00000E+00 9.09091E+00
 -1       472 3.00000E+01 0.00000E+00 9.09091E-01
 -1       473 3.00000E+01 0.00000E+00 1.81818E+00
 -1       474 3.00000E+01 0.00000E+00 2.72727E+00
 -1       475 3.00000E+01 0.00000E+00 3.63636E+00
 -1       476 3.00000E+01 0.00000E+00 4.54545E+00
 -1       477 3.00000E+01 0.00000E+00 5.45455E+00
 -1       478 3.00000E+01 0.00000E+00 6.36364E+00
 -1       479 3.00000E+01 0.00000E+00 7.27273E+00
 -1       480 3.00000E+01 0.00000E+00 8.18182E+00
 -1       481 3.00000E+01 0.00000E+00 9.09091E+00
 -1       482 3.25000E+01 0.00000E+00 9.09091E-01
 -1       483 3.25000E+01 0.00000E+00 1.81818E+00
 -1       484 3.25000E+01 0.00000E+00 2.72727E+00
 -1       485 3.25000E+01 0.00000E+00 3.63636E+00
 -1       486 3.25000E+01 0.00000E+00 4.54545E+00
 -1       487 3.25000E+01 0.00000E+00 5.45455E+00
 -1       488 3.25000E+01 0.00000E+00 6.36364E+00
 -1       489 3.25000E+01 0.00000E+00 7.27273E+00
 -1       490 3.25000E+01 0.00000E+00 8.18182E+00
 -1       491 3.25000E+01 0.00000E+00 9.09091E+00
 -1       492 3.50000E+01 0.00000E+00 9.09091E-01
 -1       493 3.50000E+01 0.00000E+00 1.81818E+00
 -1       494 3.50000E+01 0.00000E+00 2.72727E+00
 -1       495 3.50000E+01 0.00000E+00 3.63636E+00
 -1       496 3.50000E+01 0.00000E+00 4.54545E+00
 -1       497 3.50000E+01 0.00000E+00 5.45455E+00
 -1       498 3.50000E+01 0.00000E+00 6.36364E+00
 -1       499 3.50000E+01 0.00000E+00 7.27273E+00
 -1       500 3.50000E+01 0.00000E+00 8.18182E+00
 -1       501 3.50000E+01 0.00000E+00 9.09091E+00
 -1       502 3.75000E+01 0.00000E+00 9.09091E-01
 -1       503 3.75000E+01 0.00000E+00 1.81818E+00
 -1       504 3.75000E+01 0.00000E+00 2.72727E+00
 -1       505 3.75000E+01 0.00000E+00 3.63636E+00
 -1       506 3.75000E+01 0.00000E+00 4.54545E+00
 -1       507 3.75000E+01 0.00000E+00 5.45455E+00
 -1       508 3.75000E+01 0.00000E+00 6.36364E+00
 -1       509 3.75000E+01 0.00000E+00 7.27273E+00
 -1       510 3.75000E+01 0.00000E+00 8.18182E+00
 -1       511 3.75000E+01 0.00000E+00 9.09091E+00
 -1       512 4.00000E+01 0.00000E+00 9.09091E-01
 -1       513 4.00000E+01 0.00000E+00 1.81818E+00
 -1       514 4.00000E+01 0.00000E+00 2.72727E+00
 -1       515 4.00000E+01 0.00000E+00 3.63636E+00
 -1       516 4.00000E+01 0.00000E+00 4.54545E+00
 -1       517 4.00000E+01 0.00000E+00 5.45455E+00
 -1       518 4.00000E+01 0.00000E+00 6.36364E+00
 -1       519 4.00000E+01 0.00000E+00 7.27273E+00
 -1       520 4.00000E+01 0.00000E+00 8.18182E+00
 -1       521 4.00000E+01 0.00000E+00 9.09091E+00
 -1       522 4.25000E+01 0.00000E+00 9.09091E-01
 -1       523 4.25000E+01 0.00000E+00 1.81818E+00
 -1       524 4.25000E+01 0.00000E+00 2.72727E+00
 -1       525 4.25000E+01 0.00000E+00 3.63636E+00
 -1       526 4.25000E+01 0.00000E+00 4.54545E+00
 -1       527 4.25000E+01 0.00000E+00 5.45455E+00
 -1       528 4.25000E+01 0.00000E+00 6.36364E+00
 -1       529 4.25000E+01 0.00000E+00 7.27273E+00
 -1       530 4.25000E+01 0.00000E+00 8.18182E+00
 -1       531 4.25000E+01 0.00000E+00 9.09091E+00
 -1       532 4.50000E+01 0.00000E+00 9.09091E-01
 -1       533 4.50000E+01 0.00000E+00 1.81818E+00
 -1       534 4.50000E+01 0.00000E+00 2.72727E+00
 -1       535 4.50000E+01 0.00000E+00 3.63636E+00
 -1       536 4.50000E+01 0.00000E+00 4.54545E+00
 -1       537 4.50000E+01 0.00000E+00 5.45455E+00
 -1       538 4.50000E+01 0.00000E+00 6.36364E+00
 -1       539 4.50000E+01 0.00000E+00 7.27273E+00
 -1       540 4.50000E+01 0.00000E+00 8.18182E+00
 -1       541 4.50000E+01 0.00000E+00 9.09091E+00
 -1       542 4.75000E+01 0.00000E+00 9.09091E-01
 -1       543 4.75000E+01 0.00000E+00 1.81818E+00
 -1       544 4.75000E+01 0.00000E+00 2.72727E+00
 -1       545 4.75000E+01 0.00000E+00 3.63636E+00
 -1       546 4.75000E+01 0.00000E+00 4.54545E+00
 -1       547 4.75000E+01 0.00000E+00 5.45455E+00
 -1       548 4.75000E+01 0.00000E+00 6.36364E+00
 -1       549 4.75000E+01 0.00000E+00 7.27273E+00
 -1       550 4.75000E+01 0.00000E+00 8.18182E+00
 -1       551 4.75000E+01 0.00000E+00 9.09091E+00
 -1       552 5.00000E+01 0.00000E+00 9.09091E-01
 -1       553 5.00000E+01 0.00000E+00 1.81818E+00
 -1       554 5.00000E+01 0.00000E+00 2.72727E+00
 -1       555 5.00000E+01 0.00000E+00 3.63636E+00
 -1       556 5.00000E+01 0.00000E+00 4.54545E+00
 -1       557 5.00000E+01 0.00000E+00 5.45455E+00
 -1       558 5.00000E+01 0.00000E+00 6.36364E+00
 -1       559 5.00000E+01 0.00000E+00 7.27273E+00
 -1       560 5.00000E+01 0.00000E+00 8.18182E+00
 -1       561 5.00000E+01 0.00000E+00 9.09091E+00
 -1       562 5.25000E+01 0.00000E+00 9.09091E-01
 -1       563 5.25000E+01 0.00000E+00 1.81818E+00
 -1       564 5.25000E+01 0.00000E+00 2.72727E+00
 -1       565 5.25000E+01 0.00000E+00 3.63636E+00
 -1       566 5.25000E+01 0.00000E+00 4.54545E+00
 -1       567 5.25000E+01 0.00000E+00 5.45455E+00
 -1       568 5.25000E+01 0.00000E+00 6.36364E+00
 -1       569 5.25000E+01 0.00000E+00 7.27273E+00
 -1       570 5.25000E+01 0.00000E+00 8.18182E+00
 -1       571 5.25000E+01 0.00000E+00 9.09091E+00
 -1       572 5.50000E+01 0.00000E+00 9.09091E-01
 -1       573 5.50000E+01 0.00000E+00 1.81818E+00
 -1       574 5.50000E+01 0.00000E+00 2.72727E+00
 -1       575 5.50000E+01 0.00000E+00 3.63636E+00
 -1       576 5.50000E+01 0.00000E+00 4.54545E+00
 -1       577 5.50000E+01 0.00000E+00 5.45455E+00
 -1       578 5.50000E+01 0.00000E+00 6.36364E+00
 -1       579 5.50000E+01 0.00000E+00 7.27273E+00
 -1       580 5.50000E+01 0.00000E+00 8.18182E+00
 -1       581 5.50000E+01 0.00000E+00 9.09091E+00
 -1       582 5.75000E+01 0.00000E+00 9.09091E-01
 -1       583 5.75000E+01 0.00000E+00 1.81818E+00
 -1       584 5.75000E+01 0.00000E+00 2.72727E+00
 -1       585 5.75000E+01 0.00000E+00 3.63636E+00
 -1       586 5.75000E+01 0.00000E+00 4.54545E+00
 -1       587 5.75000E+01 0.00000E+00 5.45455E+00
 -1       588 5.75000E+01 0.00000E+00 6.36364E+00
 -1       589 5.75000E+01 0.00000E+00 7.27273E+00
 -1       590 5.75000E+01 0.00000E+00 8.18182E+00
 -1       591 5.75000E+01 0.00000E+00 9.09091E+00
 -1       592 6.00000E+01 0.00000E+00 9.09091E-01
 -1       593 6.00000E+01 0.00000E+00 1.81818E+00
 -1       594 6.00000E+01 0.00000E+00 2.72727E+00
 -1       595 6.00000E+01 0.00000E+00 3.63636E+00
 -1       596 6.00000E+01 0.00000E+00 4.54545E+00
 -1       597 6.00000E+01 0.00000E+00 5.45455E+00
 -1       598 6.00000E+01 0.00000E+00 6.36364E+00
 -1       599 6.00000E+01 0.00000E+00 7.27273E+00
 -1       600 6.00000E+01 0.00000E+00 8.18182E+00
 -1       601 6.00000E+01 0.00000E+00 9.09091E+00
 -1       602 6.25000E+01 0.00000E+00 9.09091E-01
 -1       603 6.25000E+01 0.00000E+00 1.81818E+00
 -1       604 6.25000E+01 0.00000E+00 2.72727E+00
 -1       605 6.25000E+01 0.00000E+00 3.63636E+00
 -1       606 6.25000E+01 0.00000E+00 4.54545E+00
 -1       607 6.25000E+01 0.00000E+00 5.45455E+00
 -1       608 6.25000E+01 0.00000E+00 6.36364E+00
 -1       609 6.25000E+01 0.00000E+00 7.27273E+00
 -1       610 6.25000E+01 0.00000E+00 8.18182E+00
 -1       611 6.25000E+01 0.00000E+00 9.09091E+00
 -1       612 6.50000E+01 0.00000E+00 9.09091E-01
 -1       613 6.50000E+01 0.00000E+00 1.81818E+00
 -1       614 6.50000E+01 0.00000E+00 2.72727E+00
 -1       615 6.50000E+01 0.00000E+00 3.63636E+00
 -1       616 6.50000E+01 0.00000E+00 4.54545E+00
 -1       617 6.50000E+01 0.00000E+00 5.45455E+00
 -1       618 6.50000E+01 0.00000E+00 6.36364E+00
 -1       619 6.50000E+01 0.00000E+00 7.27273E+00
 -1       620 6.50000E+01 0.00000E+00 8.18182E+00
 -1       621 6.50000E+01 0.00000E+00 9.09091E+00
 -1       622 6.75000E+01 0.00000E+00 9.09091E-01
 -1       623 6.75000E+01 0.00000E+00 1.81818E+00
 -1       624 6.75000E+01 0.00000E+00 2.72727E+00
 -1       625 6.75000E+01 0.00000E+00 3.63636E+00
 -1       626 6.75000E+01 0.00000E+00 4.54545E+00
 -1       627 6.75000E+01 0.00000E+00 5.45455E+00
 -1       628 6.75000E+01 0.00000E+00 6.36364E+00
 -1       629 6.75000E+01 0.00000E+00 7.27273E+00
 -1       630 6.75000E+01 0.00000E+00 8.18182E+00
 -1       631 6.75000E+01 0.00000E+00 9.09091E+00
 -1       632 7.00000E+01 0.00000E+00 9.09091E-01
 -1       633 7.00000E+01 0.00000E+00 1.81818E+00
 -1       634 7.00000E+01 0.00000E+00 2.72727E+00
 -1       635 7.00000E+01 0.00000E+00 3.63636E+00
 -1       636 7.00000E+01 0.00000E+00 4.54545E+00
 -1       637 7.00000E+01 0.00000E+00 5.45455E+00
 -1       638 7.00000E+01 0.00000E+00 6.36364E+00
 -1       639 7.00000E+01 0.00000E+00 7.27273E+00
 -1       640 7.00000E+01 0.00000E+00 8.18182E+00
 -1       641 7.00000E+01 0.00000E+00 9.09091E+00
 -1       642 7.25000E+01 0.00000E+00 9.09091E-01
 -1       643 7.25000E+01 0.00000E+00 1.81818E+00
 -1       644 7.25000E+01 0.00000E+00 2.72727E+00
 -1       645 7.25000E+01 0.00000E+00 3.63636E+00
 -1       646 7.25000E+01 0.00000E+00 4.54545E+00
 -1       647 7.25000E+01 0.00000E+00 5.45455E+00
 -1       648 7.25000E+01 0.00000E+00 6.36364E+00
 -1       649 7.25000E+01 0.00000E+00 7.27273E+00
 -1       650 7.25000E+01 0.00000E+00 8.18182E+00
 -1       651 7.25000E+01 0.00000E+00 9.09091E+00
 -1       652 7.50000E+01 0.00000E+00 9.09091E-01
 -1       653 7.50000E+01 0.00000E+00 1.81818E+00
 -1       654 7.50000E+01 0.00000E+00 2.72727E+00
 -1       655 7.50000E+01 0.00000E+00 3.63636E+00
 -1       656 7.50000E+01 0.00000E+00 4.54545E+00
 -1       657 7.50000E+01 0.00000E+00 5.45455E+00
 -1       658 7.50000E+01 0.00000E+00 6.36364E+00
 -1       659 7.50000E+01 0.00000E+00 7.27273E+00
 -1       660 7.50000E+01 0.00000E+00 8.18182E+00
 -1       661 7.50000E+01 0.00000E+00 9.09091E+00
 -1       662 7.75000E+01 0.00000E+00 9.09091E-01
 -1       663 7.75000E+01 0.00000E+00 1.81818E+00
 -1       664 7.75000E+01 0.00000E+00 2.72727E+00
 -1       665 7.75000E+01 0.00000E+00 3.63636E+00
 -1       666 7.75000E+01 0.00000E+00 4.54545E+00
 -1       667 7.75000E+01 0.00000E+00 5.45455E+00
 -1       668 7.75000E+01 0.00000E+00 6.36364E+00
 -1       669 7.75000E+01 0.00000E+00 7.27273E+00
 -1       670 7.75000E+01 0.00000E+00 8.18182E+00
 -1       671 7.75000E+01 0.00000E+00 9.09091E+00
 -1       672 8.00000E+01 0.00000E+00 9.09091E-01
 -1       673 8.00000E+01 0.00000E+00 1.81818E+00
 -1       674 8.00000E+01 0.00000E+00 2.72727E+00
 -1       675 8.00000E+01 0.00000E+00 3.63636E+00
 -1       676 8.00000E+01 0.00000E+00 4.54545E+00
 -1       677 8.00000E+01 0.00000E+00 5.45455E+00
 -1       678 8.00000E+01 0.00000E+00 6.36364E+00
 -1       679 8.00000E+01 0.00000E+00 7.27273E+00
 -1       680 8.00000E+01 0.00000E+00 8.18182E+00
 -1       681 8.00000E+01 0.00000E+00 9.09091E+00
 -1       682 8.25000E+01 0.00000E+00 9.09091E-01
 -1       683 8.25000E+01 0.00000E+00 1.81818E+00
 -1       684 8.25000E+01 0.00000E+00 2.72727E+00
 -1       685 8.25000E+01 0.00000E+00 3.63636E+00
 -1       686 8.25000E+01 0.00000E+00 4.54545E+00
 -1       687 8.25000E+01 0.00000E+00 5.45455E+00
 -1       688 8.25000E+01 0.00000E+00 6.36364E+00
 -1       689 8.25000E+01 0.00000E+00 7.27273E+00
 -1       690 8.25000E+01 0.00000E+00 8.18182E+00
 -1       691 8.25000E+01 0.00000E+00 9.09091E+00
 -1       692 8.50000E+01 0.00000E+00 9.09091E-01
 -1       693 8.50000E+01 0.00000E+00 1.81818E+00
 -1       694 8.50000E+01 0.00000E+00 2.72727E+00
 -1       695 8.50000E+01 0.00000E+00 3.63636E+00
 -1       696 8.50000E+01 0.00000E+00 4.54545E+00
 -1       697 8.50000E+01 0.00000E+00 5.45455E+00
 -1       698 8.50000E+01 0.00000E+00 6.36364E+00
 -1       699 8.50000E+01 0.00000E+00 7.27273E+00
 -1       700 8.50000E+01 0.00000E+00 8.18182E+00
 -1       701 8.50000E+01 0.00000E+00 9.09091E+00
 -1       702 8.75000E+01 0.00000E+00 9.09091E-01
 -1       703 8.75000E+01 0.00000E+00 1.81818E+00
 -1       704 8.75000E+01 0.00000E+00 2.72727E+00
 -1       705 8.75000E+01 0.00000E+00 3.63636E+00
 -1       706 8.75000E+01 0.00000E+00 4.54545E+00
 -1       707 8.75000E+01 0.00000E+00 5.45455E+00
 -1       708 8.75000E+01 0.00000E+00 6.36364E+00
 -1       709 8.75000E+01 0.00000E+00 7.27273E+00
 -1       710 8.75000E+01 0.00000E+00 8.18182E+00
 -1       711 8.75000E+01 0.00000E+00 9.09091E+00
 -1       712 9.00000E+01 0.00000E+00 9.09091E-01
 -1       713 9.00000E+01 0.00000E+00 1.81818E+00
 -1       714 9.00000E+01 0.00000E+00 2.72727E+00
 -1       715 9.00000E+01 0.00000E+00 3.63636E+00
 -1       716 9.00000E+01 0.00000E+00 4.54545E+00
 -1       717 9.00000E+01 0.00000E+00 5.45455E+00
 -1       718 9.00000E+01 0.00000E+00 6.36364E+00
 -1       719 9.00000E+01 0.00000E+00 7.27273E+00
 -1       720 9.00000E+01 0.00000E+00 8.18182E+00
 -1       721 9.00000E+01 0.00000E+00 9.09091E+00
 -1       722 9.25000E+01 0.00000E+00 9.09091E-01
 -1       723 9.25000E+01 0.00000E+00 1.81818E+00
 -1       724 9.25000E+01 0.00000E+00 2.72727E+00
 -1       725 9.25000E+01 0.00000E+00 3.63636E+00
 -1       726 9.25000E+01 0.00000E+00 4.54545E+00
 -1       727 9.25000E+01 0.00000E+00 5.45455E+00
 -1       728 9.25000E+01 0.00000E+00 6.36364E+00
 -1       729 9.25000E+01 0.00000E+00 7.27273E+00
 -1       730 9.25000E+01 0.00000E+00 8.18182E+00
 -1       731 9.25000E+01 0.00000E+00 9.09091E+00
 -1       732 9.50000E+01 0.00000E+00 9.09091E-01
 -1       733 9.50000E+01 0.00000E+00 1.81818E+00
 -1       734 9.50000E+01 0.00000E+00 2.72727E+00
 -1       735 9.50000E+01 0.00000E+00 3.63636E+00
 -1       736 9.50000E+01 0.00000E+00 4.54545E+00
 -1       737 9.50000E+01 0.00000E+00 5.45455E+00
 -1       738 9.50000E+01 0.00000E+00 6.36364E+00
 -1       739 9.50000E+01 0.00000E+00 7.27273E+00
 -1       740 9.50000E+01 0.00000E+00 8.18182E+00
 -1       741 9.50000E+01 0.00000E+00 9.09091E+00
 -1       742 9.75000E+01 0.00000E+00 9.09091E-01
 -1       743 9.75000E+01 0.00000E+00 1.81818E+00
 -1       744 9.75000E+01 0.00000E+00 2.72727E+00
 -1       745 9.75000E+01 0.00000E+00 3.63636E+00
 -1       746 9.75000E+01 0.00000E+00 4.54545E+00
 -1       747 9.75000E+01 0.00000E+00 5.45455E+00
 -1       748 9.75000E+01 0.00000E+00 6.36364E+00
 -1       749 9.75000E+01 0.00000E+00 7.27273E+00
 -1       750 9.75000E+01 0.00000E+00 8.18182E+00
 -1       751 9.75000E+01 0.00000E+00 9.09091E+00
 -1       752 9.87688E+01 1.56434E+01 9.09091E-01
 -1       753 9.87688E+01 1.56434E+01 1.81818E+00
 -1       754 9.87688E+01 1.56434E+01 2.72727E+00
 -1       755 9.87688E+01 1.56434E+01 3.63636E+00
 -1       756 9.87688E+01 1.56434E+01 4.54545E+00
 -1       757 9.87688E+01 1.56434E+01 5.45455E+00
 -1       758 9.87688E+01 1.56434E+01 6.36364E+00
 -1       759 9.87688E+01 1.56434E+01 7.27273E+00
 -1       760 9.87688E+01 1.56434E+01 8.18182E+00
 -1       761 9.87688E+01 1.56434E+01 9.09091E+00
 -1       762 9.51057E+01 3.09017E+01 9.09091E-01
 -1       763 9.51057E+01 3.09017E+01 1.81818E+00
 -1       764 9.51057E+01 3.09017E+01 2.72727E+00
 -1       765 9.51057E+01 3.09017E+01 3.63636E+00
 -1       766 9.51057E+01 3.09017E+01 4.54545E+00
 -1       767 9.51057E+01 3.09017E+01 5.45455E+00
 -1       768 9.51057E+01 3.09017E+01 6.36364E+00
 -1       769 9.51057E+01 3.09017E+01 7.27273E+00
 -1       770 9.51057E+01 3.09017E+01 8.18182E+00
 -1       771 9.51057E+01 3.09017E+01 9.09091E+00
 -1       772 8.91007E+01 4.53991E+01 9.09091E-01
 -1       773 8.91007E+01 4.53991E+01 1.81818E+00
 -1       774 8.91007E+01 4.53991E+01 2.72727E+00
 -1       775 8.91007E+01 4.53991E+01 3.63636E+00
 -1       776 8.91007E+01 4.53991E+01 4.54545E+00
 -1       777 8.91007E+01 4.53991E+01 5.45455E+00
 -1       778 8.91007E+01 4.53991E+01 6.36364E+00
 -1       779 8.91007E+01 4.53991E+01 7.27273E+00
 -1       780 8.91007E+01 4.53991E+01 8.18182E+00
 -1       781 8.91007E+01 4.53991E+01 9.09091E+00
 -1       782 8.09017E+01 5.87785E+01 9.09091E-01
 -1       783 8.09017E+01 5.87785E+01 1.81818E+00
 -1       784 8.09017E+01 5.87785E+01 2.72727E+00
 -1       785 8.09017E+01 5.87785E+01 3.63636E+00
 -1       786 8.09017E+01 5.87785E+01 4.54545E+00
 -1       787 8.09017E+01 5.87785E+01 5.45455E+00
 -1       788 8.09017E+01 5.87785E+01 6.36364E+00
 -1       789 8.09017E+01 5.87785E+01 7.27273E+00
 -1       790 8.09017E+01 5.87785E+01 8.18182E+00
 -1       791 8.09017E+01 5.87785E+01 9.09091E+00
 -1       792 7.07107E+01 7.07107E+01 9.09091E-01
 -1       793 7.07107E+01 7.07107E+01 1.81818E+00
 -1       794 7.07107E+01 7.07107E+01 2.72727E+00
 -1       795 7.07107E+01 7.07107E+01 3.63636E+00
 -1       796 7.07107E+01 7.07107E+01 4.54545E+00
 -1       797 7.07107E+01 7.07107E+01 5.45455E+00
 -1       798 7.07107E+01 7.07107E+01 6.36364E+00
 -1       799 7.07107E+01 7.07107E+01 7.27273E+00
 -1       800 7.07107E+01 7.07107E+01 8.18182E+00
 -1       801 7.07107E+01 7.07107E+01 9.09091E+00
 -1       802 5.87785E+01 8.09017E+01 9.09091E-01
 -1       803 5.87785E+01 8.09017E+01 1.81818E+00
 -1       804 5.87785E+01 8.09017E+01 2.72727E+00
 -1       805 5.87785E+01 8.09017E+01 3.63636E+00
 -1       806 5.87785E+01 8.09017E+01 4.54545E+00
 -1       807 5.87785E+01 8.09017E+01 5.45455E+00
 -1       808 5.87785E+01 8.09017E+01 6.36364E+00
 -1       809 5.87785E+01 8.09017E+01 7.27273E+00
 -1       810 5.87785E+01 8.09017E+01 8.18182E+00
 -1       811 5.87785E+01 8.09017E+01 9.09091E+00
 -1       812 4.53991E+01 8.91007E+01 9.09091E-01
 -1       813 4.53991E+01 8.91007E+01 1.81818E+00
 -1       814 4.53991E+01 8.91007E+01 2.72727E+00
 -1       815 4.53991E+01 8.91007E+01 3.63636E+00
 -1       816 4.53991E+01 8.91007E+01 4.54545E+00
 -1       817 4.53991E+01 8.91007E+01 5.45455E+00
 -1       818 4.53991E+01 8.91007E+01 6.36364E+00
 -1       819 4.53991E+01 8.91007E+01 7.27273E+00
 -1       820 4.53991E+01 8.91007E+01 8.18182E+00
 -1       821 4.53991E+01 8.91007E+01 9.09091E+00
 -1       822 3.09017E+01 9.51057E+01 9.09091E-01
 -1       823 3.09017E+01 9.51057E+01 1.81818E+00
 -1       824 3.09017E+01 9.51057E+01 2.72727E+00
 -1       825 3.09017E+01 9.51057E+01 3.63636E+00
 -1       826 3.09017E+01 9.51057E+01 4.54545E+00
 -1       827 3.09017E+01 9.51057E+01 5.45455E+00
 -1       828 3.09017E+01 9.51057E+01 6.36364E+00
 -1       829 3.09017E+01 9.51057E+01 7.27273E+00
 -1       830 3.09017E+01 9.51057E+01 8.18182E+00
 -1       831 3.09017E+01 9.51057E+01 9.09091E+00
 -1       832 1.56434E+01 9.87688E+01 9.09091E-01
 -1       833 1.56434E+01 9.87688E+01 1.81818E+00
 -1       834 1.56434E+01 9.87688E+01 2.72727E+00
 -1       835 1.56434E+01 9.87688E+01 3.63636E+00
 -1       836 1.56434E+01 9.87688E+01 4.54545E+00
 -1       837 1.56434E+01 9.87688E+01 5.45455E+00
 -1       838 1.56434E+01 9.87688E+01 6.36364E+00
 -1       839 1.56434E+01 9.87688E+01 7.27273E+00
 -1       840 1.56434E+01 9.87688E+01 8.18182E+00
 -1       841 1.56434E+01 9.87688E+01 9.09091E+00
 -1       842 5.97015E-15 9.75000E+01 9.09091E-01
 -1       843 5.97015E-15 9.75000E+01 1.81818E+00
 -1       844 5.97015E-15 9.75000E+01 2.72727E+00
 -1       845 5.97015E-15 9.75000E+01 3.63636E+00
 -1       846 5.97015E-15 9.75000E+01 4.54545E+00
 -1       847 5.97015E-15 9.75000E+01 5.45455E+00
 -1       848 5.97015E-15 9.75000E+01 6.36364E+00
 -1       849 5.97015E-15 9.75000E+01 7.27273E+00
 -1       850 5.97015E-15 9.75000E+01 8.18182E+00
 -1       851 5.97015E-15 9.75000E+01 9.09091E+00
 -1       852 5.81707E-15 9.50000E+01 9.09091E-01
 -1       853 5.81707E-15 9.50000E+01 1.81818E+00
 -1       854 5.81707E-15 9.50000E+01 2.72727E+00
 -1       855 5.81707E-15 9.50000E+01 3.63636E+00
 -1       856 5.81707E-15 9.50000E+01 4.54545E+00
 -1       857 5.81707E-15 9.50000E+01 5.45455E+00
 -1       858 5.81707E-15 9.50000E+01 6.36364E+00
 -1       859 5.81707E-15 9.50000E+01 7.27273E+00
 -1       860 5.81707E-15 9.50000E+01 8.18182E+00
 -1       861 5.81707E-15 9.50000E+01 9.09091E+00
 -1       862 5.66399E-15 9.25000E+01 9.09091E-01
 -1       863 5.66399E-15 9.25000E+01 1.81818E+00
 -1       864 5.66399E-15 9.25000E+01 2.72727E+00
 -1       865 5.66399E-15 9.25000E+01 3.63636E+00
 -1       866 5.66399E-15 9.25000E+01 4.54545E+00
 -1       867 5.66399E-15 9.25000E+01 5.45455E+00
 -1       868 5.66399E-15 9.25000E+01 6.36364E+00
 -1       869 5.66399E-15 9.25000E+01 7.27273E+00
 -1       870 5.66399E-15 9.25000E+01 8.18182E+00
 -1       871 5.66399E-15 9.25000E+01 9.09091E+00
 -1       872 5.51091E-15 9.00000E+01 9.09091E-01
 -1       873 5.51091E-15 9.00000E+01 1.81818E+00
 -1       874 5.51091E-15 9.00000E+01 2.72727E+00
 -1       875 5.51091E-15 9.00000E+01 3.63636E+00
 -1       876 5.51091E-15 9.00000E+01 4.54545E+00
 -1       877 5.51091E-15 9.00000E+01 5.45455E+00
 -1       878 5.51091E-15 9.00000E+01 6.36364E+00
 -1       879 5.51091E-15 9.00000E+01 7.27273E+00
 -1       880 5.51091E-15 9.00000E+01 8.18182E+00
 -1       881 5.51091E-15 9.00000E+01 9.09091E+00
 -1       882 5.35783E-15 8.75000E+01 9.09091E-01
 -1       883 5.35783E-15 8.75000E+01 1.81818E+00
 -1       884 5.35783E-15 8.75000E+01 2.72727E+00
 -1       885 5.35783E-15 8.75000E+01 3.63636E+00
 -1       886 5.35783E-15 8.75000E+01 4.54545E+00
 -1       887 5.35783E-15 8.75000E+01 5.45455E+00
 -1       888 5.35783E-15 8.75000E+01 6.36364E+00
 -1       889 5.35783E-15 8.75000E+01 7.27273E+00
 -1       890 5.35783E-15 8.75000E+01 8.18182E+00
 -1       891 5.35783E-15 8.75000E+01 9.09091E+00
 -1       892 5.20475E-15 8.50000E+01 9.09091E-01
 -1       893 5.20475E-15 8.50000E+01 1.81818E+00
 -1       894 5.20475E-15 8.50000E+01 2.72727E+00
 -1       895 5.20475E-15 8.50000E+01 3.63636E+00
 -1       896 5.20475E-15 8.50000E+01 4.54545E+00
 -1       897 5.20475E-15 8.50000E+01 5.45455E+00
 -1       898 5.20475E-15 8.50000E+01 6.36364E+00
 -1       899 5.20475E-15 8.50000E+01 7.27273E+00
 -1       900 5.20475E-15 8.50000E+01 8.18182E+00
 -1       901 5.20475E-15 8.50000E+01 9.09091E+00
 -1       902 5.05167E-15 8.25000E+01 9.09091E-01
 -1       903 5.05167E-15 8.25000E+01 1.81818E+00
 -1       904 5.05167E-15 8.25000E+01 2.72727E+00
 -1       905 5.05167E-15 8.25000E+01 3.63636E+00
 -1       906 5.05167E-15 8.25000E+01 4.54545E+00
 -1       907 5.05167E-15 8.25000E+01 5.45455E+00
 -1       908 5.05167E-15 8.25000E+01 6.36364E+00
 -1       909 5.05167E-15 8.25000E+01 7.27273E+00
 -1       910 5.05167E-15 8.25000E+01 8.18182E+00
 -1       911 5.05167E-15 8.25000E+01 9.09091E+00
 -1       912 4.89859E-15 8.00000E+01 9.09091E-01
 -1       913 4.89859E-15 8.00000E+01 1.81818E+00
 -1       914 4.89859E-15 8.00000E+01 2.72727E+00
 -1       915 4.89859E-15 8.00000E+01 3.63636E+00
 -1       916 4.89859E-15 8.00000E+01 4.54545E+00
 -1       917 4.89859E-15 8.00000E+01 5.45455E+00
 -1       918 4.89859E-15 8.00000E+01 6.36364E+00
 -1       919 4.89859E-15 8.00000E+01 7.27273E+00
 -1       920 4.89859E-15 8.00000E+01 8.18182E+00
 -1       921 4.89859E-15 8.00000E+01 9.09091E+00
 -1       922 4.74551E-15 7.75000E+01 9.09091E-01
 -1       923 4.74551E-15 7.75000E+01 1.81818E+00
 -1       924 4.74551E-15 7.75000E+01 2.72727E+00
 -1       925 4.74551E-15 7.75000E+01 3.63636E+00
 -1       926 4.74551E-15 7.75000E+01 4.54545E+00
 -1       927 4.74551E-15 7.75000E+01 5.45455E+00
 -1       928 4.74551E-15 7.75000E+01 6.36364E+00
 -1       929 4.74551E-15 7.75000E+01 7.27273E+00
 -1       930 4.74551E-15 7.75000E+01 8.18182E+00
 -1       931 4.74551E-15 7.75000E+01 9.09091E+00
 -1       932 4.59243E-15 7.50000E+01 9.09091E-01
 -1       933 4.59243E-15 7.50000E+01 1.81818E+00
 -1       934 4.59243E-15 7.50000E+01 2.72727E+00
 -1       935 4.59243E-15 7.50000E+01 3.63636E+00
 -1       936 4.59243E-15 7.50000E+01 4.54545E+00
 -1       937 4.59243E-15 7.50000E+01 5.45455E+00
 -1       938 4.59243E-15 7.50000E+01 6.36364E+00
 -1       939 4.59243E-15 7.50000E+01 7.27273E+00
 -1       940 4.59243E-15 7.50000E+01 8.18182E+00
 -1       941 4.59243E-15 7.50000E+01 9.09091E+00
 -1       942 4.43934E-15 7.25000E+01 9.09091E-01
 -1       943 4.43934E-15 7.25000E+01 1.81818E+00
 -1       944 4.43934E-15 7.25000E+01 2.72727E+00
 -1       945 4.43934E-15 7.25000E+01 3.63636E+00
 -1       946 4.43934E-15 7.25000E+01 4.54545E+00
 -1       947 4.43934E-15 7.25000E+01 5.45455E+00
 -1       948 4.43934E-15 7.25000E+01 6.36364E+00
 -1       949 4.43934E-15 7.25000E+01 7.27273E+00
 -1       950 4.43934E-15 7.25000E+01 8.18182E+00
 -1       951 4.43934E-15 7.25000E+01 9.09091E+00
 -1       952 4.28626E-15 7.00000E+01 9.09091E-01
 -1       953 4.28626E-15 7.00000E+01 1.81818E+00
 -1       954 4.28626E-15 7.00000E+01 2.72727E+00
 -1       955 4.28626E-15 7.00000E+01 3.63636E+00
 -1       956 4.28626E-15 7.00000E+01 4.54545E+00
 -1       957 4.28626E-15 7.00000E+01 5.45455E+00
 -1       958 4.28626E-15 7.00000E+01 6.36364E+00
 -1       959 4.28626E-15 7.00000E+01 7.27273E+00
 -1       960 4.28626E-15 7.00000E+01 8.18182E+00
 -1       961 4.28626E-15 7.00000E+01 9.09091E+00
 -1       962 4.13318E-15 6.75000E+01 9.09091E-01
 -1       963 4.13318E-15 6.75000E+01 1.81818E+00
 -1       964 4.13318E-15 6.75000E+01 2.72727E+00
 -1       965 4.13318E-15 6.75000E+01 3.63636E+00
 -1       966 4.13318E-15 6.75000E+01 4.54545E+00
 -1       967 4.13318E-15 6.75000E+01 5.45455E+00
 -1       968 4.13318E-15 6.75000E+01 6.36364E+00
 -1       969 4.13318E-15 6.75000E+01 7.27273E+00
 -1       970 4.13318E-15 6.75000E+01 8.18182E+00
 -1       971 4.13318E-15 6.75000E+01 9.09091E+00
 -1       972 3.98010E-15 6.50000E+01 9.09091E-01
 -1       973 3.98010E-15 6.50000E+01 1.81818E+00
 -1       974 3.98010E-15 6.50000E+01 2.72727E+00
 -1       975 3.98010E-15 6.50000E+01 3.63636E+00
 -1       976 3.98010E-15 6.50000E+01 4.54545E+00
 -1       977 3.98010E-15 6.50000E+01 5.45455E+00
 -1       978 3.98010E-15 6.50000E+01 6.36364E+00
 -1       979 3.98010E-15 6.50000E+01 7.27273E+00
 -1       980 3.98010E-15 6.50000E+01 8.18182E+00
 -1       981 3.98010E-15 6.50000E+01 9.09091E+00
 -1       982 3.82702E-15 6.25000E+01 9.09091E-01
 -1       983 3.82702E-15 6.25000E+01 1.81818E+00
 -1       984 3.82702E-15 6.25000E+01 2.72727E+00
 -1       985 3.82702E-15 6.25000E+01 3.63636E+00
 -1       986 3.82702E-15 6.25000E+01 4.54545E+00
 -1       987 3.82702E-15 6.25000E+01 5.45455E+00
 -1       988 3.82702E-15 6.25000E+01 6.36364E+00
 -1       989 3.82702E-15 6.25000E+01 7.27273E+00
 -1       990 3.82702E-15 6.25000E+01 8.18182E+00
 -1       991 3.82702E-15 6.25000E+01 9.09091E+00
 -1       992 3.67394E-15 6.00000E+01 9.09091E-01
 -1       993 3.67394E-15 6.00000E+01 1.81818E+00
 -1       994 3.67394E-15 6.00000E+01 2.72727E+00
 -1       995 3.67394E-15 6.00000E+01 3.63636E+00
 -1       996 3.67394E-15 6.00000E+01 4.54545E+00
 -1       997 3.67394E-15 6.00000E+01 5.45455E+00
 -1       998 3.67394E-15 6.00000E+01 6.36364E+00
 -1       999 3.67394E-15 6.00000E+01 7.27273E+00
 -1      1000 3.67394E-15 6.00000E+01 8.18182E+00
 -1      1001 3.67394E-15 6.00000E+01 9.09091E+00
 -1      1002 3.52086E-15 5.75000E+01 9.09091E-01
 -1      1003 3.52086E-15 5.75000E+01 1.81818E+00
 -1      1004 3.52086E-15 5.75000E+01 2.72727E+00
 -1      1005 3.52086E-15 5.75000E+01 3.63636E+00
 -1      1006 3.52086E-15 5.75000E+01 4.54545E+00
 -1      1007 3.52086E-15 5.75000E+01 5.45455E+00
 -1      1008 3.52086E-15 5.75000E+01 6.36364E+00
 -1      1009 3.52086E-15 5.75000E+01 7.27273E+00
 -1      1010 3.52086E-15 5.75000E+01 8.18182E+00
 -1      1011 3.52086E-15 5.75000E+01 9.09091E+00
 -1      1012 3.36778E-15 5.50000E+01 9.09091E-01
 -1      1013 3.36778E-15 5.50000E+01 1.81818E+00
 -1      1014 3.36778E-15 5.50000E+01 2.72727E+00
 -1      1015 3.36778E-15 5.50000E+01 3.63636E+00
 -1      1016 3.36778E-15 5.50000E+01 4.54545E+00
 -1      1017 3.36778E-15 5.50000E+01 5.45455E+00
 -1      1018 3.36778E-15 5.50000E+01 6.36364E+00
 -1      1019 3.36778E-15 5.50000E+01 7.27273E+00
 -1      1020 3.36778E-15 5.50000E+01 8.18182E+00
 -1      1021 3.36778E-15 5.50000E+01 9.09091E+00
 -1      1022 3.21470E-15 5.25000E+01 9.09091E-01
 -1      1023 3.21470E-15 5.25000E+01 1.81818E+00
 -1      1024 3.21470E-15 5.25000E+01 2.72727E+00
 -1      1025 3.21470E-15 5.25000E+01 3.63636E+00
 -1      1026 3.21470E-15 5.25000E+01 4.54545E+00
 -1      1027 3.21470E-15 5.25000E+01 5.45455E+00
 -1      1028 3.21470E-15 5.25000E+01 6.36364E+00
 -1      1029 3.21470E-15 5.25000E+01 7.27273E+00
 -1      1030 3.21470E-15 5.25000E+01 8.18182E+00
 -1      1031 3.21470E-15 5.25000E+01 9.09091E+00
 -1      1032 3.06162E-15 5.00000E+01 9.09091E-01
 -1      1033 3.06162E-15 5.00000E+01 1.81818E+00
 -1      1034 3.06162E-15 5.00000E+01 2.72727E+00
 -1      1035 3.06162E-15 5.00000E+01 3.63636E+00
 -1      1036 3.06162E-15 5.00000E+01 4.54545E+00
 -1      1037 3.06162E-15 5.00000E+01 5.45455E+00
 -1      1038 3.06162E-15 5.00000E+01 6.36364E+00
 -1      1039 3.06162E-15 5.00000E+01 7.27273E+00
 -1      1040 3.06162E-15 5.00000E+01 8.18182E+00
 -1      1041 3.06162E-15 5.00000E+01 9.09091E+00
 -1      1042 2.90854E-15 4.75000E+01 9.09091E-01
 -1      1043 2.90854E-15 4.75000E+01 1.81818E+00
 -1      1044 2.90854E-15 4.75000E+01 2.72727E+00
 -1      1045 2.90854E-15 4.75000E+01 3.63636E+00
 -1      1046 2.90854E-15 4.75000E+01 4.54545E+00
 -1      1047 2.90854E-15 4.75000E+01 5.45455E+00
 -1      1048 2.90854E-15 4.75000E+01 6.36364E+00
 -1      1049 2.90854E-15 4.75000E+01 7.27273E+00
 -1      1050 2.90854E-15 4.75000E+01 8.18182E+00
 -1      1051 2.90854E-15 4.75000E+01 9.09091E+00
 -1      1052 2.75546E-15 4.50000E+01 9.09091E-01
 -1      1053 2.75546E-15 4.50000E+01 1.81818E+00
 -1      1054 2.75546E-15 4.50000E+01 2.72727E+00
 -1      1055 2.75546E-15 4.50000E+01 3.63636E+00
 -1      1056 2.75546E-15 4.50000E+01 4.54545E+00
 -1      1057 2.75546E-15 4.50000E+01 5.45455E+00
 -1      1058 2.75546E-15 4.50000E+01 6.36364E+00
 -1      1059 2.75546E-15 4.50000E+01 7.27273E+00
 -1      1060 2.75546E-15 4.50000E+01 8.18182E+00
 -1      1061 2.75546E-15 4.50000E+01 9.09091E+00
 -1      1062 2.60237E-15 4.25000E+01 9.09091E-01
 -1      1063 2.60237E-15 4.25000E+01 1.81818E+00
 -1      1064 2.60237E-15 4.25000E+01 2.72727E+00
 -1      1065 2.60237E-15 4.25000E+01 3.63636E+00
 -1      1066 2.60237E-15 4.25000E+01 4.54545E+00
 -1      1067 2.60237E-15 4.25000E+01 5.45455E+00
 -1      1068 2.60237E-15 4.25000E+01 6.36364E+00
 -1      1069 2.60237E-15 4.25000E+01 7.27273E+00
 -1      1070 2.60237E-15 4.25000E+01 8.18182E+00
 -1      1071 2.60237E-15 4.25000E+01 9.09091E+00
 -1      1072 2.44929E-15 4.00000E+01 9.09091E-01
 -1      1073 2.44929E-15 4.00000E+01 1.81818E+00
 -1      1074 2.44929E-15 4.00000E+01 2.72727E+00
 -1      1075 2.44929E-15 4.00000E+01 3.63636E+00
 -1      1076 2.44929E-15 4.00000E+01 4.54545E+00
 -1      1077 2.44929E-15 4.00000E+01 5.45455E+00
 -1      1078 2.44929E-15 4.00000E+01 6.36364E+00
 -1      1079 2.44929E-15 4.00000E+01 7.27273E+00
 -1      1080 2.44929E-15 4.00000E+01 8.18182E+00
 -1      1081 2.44929E-15 4.00000E+01 9.09091E+00
 -1      1082 2.29621E-15 3.75000E+01 9.09091E-01
 -1      1083 2.29621E-15 3.75000E+01 1.81818E+00
 -1      1084 2.29621E-15 3.75000E+01 2.72727E+00
 -1      1085 2.29621E-15 3.75000E+01 3.63636E+00
 -1      1086 2.29621E-15 3.75000E+01 4.54545E+00
 -1      1087 2.29621E-15 3.75000E+01 5.45455E+00
 -1      1088 2.29621E-15 3.75000E+01 6.36364E+00
 -1      1089 2.29621E-15 3.75000E+01 7.27273E+00
 -1      1090 2.29621E-15 3.75000E+01 8.18182E+00
 -1      1091 2.29621E-15 3.75000E+01 9.09091E+00
 -1      1092 2.14313E-15 3.50000E+01 9.09091E-01
 -1      1093 2.14313E-15 3.50000E+01 1.81818E+00
 -1      1094 2.14313E-15 3.50000E+01 2.72727E+00
 -1      1095 2.14313E-15 3.50000E+01 3.63636E+00
 -1      1096 2.14313E-15 3.50000E+01 4.54545E+00
 -1      1097 2.14313E-15 3.50000E+01 5.45455E+00
 -1      1098 2.14313E-15 3.50000E+01 6.36364E+00
 -1      1099 2.14313E-15 3.50000E+01 7.27273E+00
 -1      1100 2.14313E-15 3.50000E+01 8.18182E+00
 -1      1101 2.14313E-15 3.50000E+01 9.09091E+00
 -1      1102 1.99005E-15 3.25000E+01 9.09091E-01
 -1      1103 1.99005E-15 3.25000E+01 1.81818E+00
 -1      1104 1.99005E-15 3.25000E+01 2.72727E+00
 -1      1105 1.99005E-15 3.25000E+01 3.63636E+00
 -1      1106 1.99005E-15 3.25000E+01 4.54545E+00
 -1      1107 1.99005E-15 3.25000E+01 5.45455E+00
 -1      1108 1.99005E-15 3.25000E+01 6.36364E+00
 -1      1109 1.99005E-15 3.25000E+01 7.27273E+00
 -1      1110 1.99005E-15 3.25000E+01 8.18182E+00
 -1      1111 1.99005E-15 3.25000E+01 9.09091E+00
 -1      1112 1.83697E-15 3.00000E+01 9.09091E-01
 -1      1113 1.83697E-15 3.00000E+01 1.81818E+00
 -1      1114 1.83697E-15 3.00000E+01 2.72727E+00
 -1      1115 1.83697E-15 3.00000E+01 3.63636E+00
 -1      1116 1.83697E-15 3.00000E+01 4.54545E+00
 -1      1117 1.83697E-15 3.00000E+01 5.45455E+00
 -1      1118 1.83697E-15 3.00000E+01 6.36364E+00
 -1      1119 1.83697E-15 3.00000E+01 7.27273E+00
 -1      1120 1.83697E-15 3.00000E+01 8.18182E+00
 -1      1121 1.83697E-15 3.00000E+01 9.09091E+00
 -1      1122 1.68389E-15 2.75000E+01 9.09091E-01
 -1      1123 1.68389E-15 2.75000E+01 1.81818E+00
 -1      1124 1.68389E-15 2.75000E+01 2.72727E+00
 -1      1125 1.68389E-15 2.75000E+01 3.63636E+00
 -1      1126 1.68389E-15 2.75000E+01 4.54545E+00
 -1      1127 1.68389E-15 2.75000E+01 5.45455E+00
 -1      1128 1.68389E-15 2.75000E+01 6.36364E+00
 -1      1129 1.68389E-15 2.75000E+01 7.27273E+00
 -1      1130 1.68389E-15 2.75000E+01 8.18182E+00
 -1      1131 1.68389E-15 2.75000E+01 9.09091E+00
 -1      1132 3.91086E+00 2.46922E+01 9.09091E-01
 -1      1133 3.91086E+00 2.46922E+01 1.81818E+00
 -1      1134 3.91086E+00 2.46922E+01 2.72727E+00
 -1      1135 3.91086E+00 2.46922E+01 3.63636E+00
 -1      1136 3.91086E+00 2.46922E+01 4.54545E+00
 -1      1137 3.91086E+00 2.46922E+01 5.45455E+00
 -1      1138 3.91086E+00 2.46922E+01 6.36364E+00
 -1      1139 3.91086E+00 2.46922E+01 7.27273E+00
 -1      1140 3.91086E+00 2.46922E+01 8.18182E+00
 -1      1141 3.91086E+00 2.46922E+01 9.09091E+00
 -1      1142 7.72542E+00 2.37764E+01 9.09091E-01
 -1      1143 7.72542E+00 2.37764E+01 1.81818E+00
 -1      1144 7.72542E+00 2.37764E+01 2.72727E+00
 -1      1145 7.72542E+00 2.37764E+01 3.63636E+00
 -1      1146 7.72542E+00 2.37764E+01 4.54545E+00
 -1      1147 7.72542E+00 2.37764E+01 5.45455E+00
 -1      1148 7.72542E+00 2.37764E+01 6.36364E+00
 -1      1149 7.72542E+00 2.37764E+01 7.27273E+00
 -1      1150 7.72542E+00 2.37764E+01 8.18182E+00
 -1      1151 7.72542E+00 2.37764E+01 9.09091E+00
 -1      1152 1.13498E+01 2.22752E+01 9.09091E-01
 -1      1153 1.13498E+01 2.22752E+01 1.81818E+00
 -1      1154 1.13498E+01 2.22752E+01 2.72727E+00
 -1      1155 1.13498E+01 2.22752E+01 3.63636E+00
 -1      1156 1.13498E+01 2.22752E+01 4.54545E+00
 -1      1157 1.13498E+01 2.22752E+01 5.45455E+00
 -1      1158 1.13498E+01 2.22752E+01 6.36364E+00
 -1      1159 1.13498E+01 2.22752E+01 7.27273E+00
 -1      1160 1.13498E+01 2.22752E+01 8.18182E+00
 -1      1161 1.13498E+01 2.22752E+01 9.09091E+00
 -1      1162 1.46946E+01 2.02254E+01 9.09091E-01
 -1      1163 1.46946E+01 2.02254E+01 1.81818E+00
 -1      1164 1.46946E+01 2.02254E+01 2.72727E+00
 -1      1165 1.46946E+01 2.02254E+01 3.63636E+00
 -1      1166 1.46946E+01 2.02254E+01 4.54545E+00
 -1      1167 1.46946E+01 2.02254E+01 5.45455E+00
 -1      1168 1.46946E+01 2.02254E+01 6.36364E+00
 -1      1169 1.46946E+01 2.02254E+01 7.27273E+00
 -1      1170 1.46946E+01 2.02254E+01 8.18182E+00
 -1      1171 1.46946E+01 2.02254E+01 9.09091E+00
 -1      1172 1.76777E+01 1.76777E+01 9.09091E-01
 -1      1173 1.76777E+01 1.76777E+01 1.81818E+00
 -1      1174 1.76777E+01 1.76777E+01 2.72727E+00
 -1      1175 1.76777E+01 1.76777E+01 3.63636E+00
 -1      1176 1.76777E+01 1.76777E+01 4.54545E+00
 -1      1177 1.76777E+01 1.76777E+01 5.45455E+00
 -1      1178 1.76777E+01 1.76777E+01 6.36364E+00
 -1      1179 1.76777E+01 1.76777E+01 7.27273E+00
 -1      1180 1.76777E+01 1.76777E+01 8.18182E+00
 -1      1181 1.76777E+01 1.76777E+01 9.09091E+00
 -1      1182 2.02254E+01 1.46946E+01 9.09091E-01
 -1      1183 2.02254E+01 1.46946E+01 1.81818E+00
 -1      1184 2.02254E+01 1.46946E+01 2.72727E+00
 -1      1185 2.02254E+01 1.46946E+01 3.63636E+00
 -1      1186 2.02254E+01 1.46946E+01 4.54545E+00
 -1      1187 2.02254E+01 1.46946E+01 5.45455E+00
 -1      1188 2.02254E+01 1.46946E+01 6.36364E+00
 -1      1189 2.02254E+01 1.46946E+01 7.27273E+00
 -1      1190 2.02254E+01 1.46946E+01 8.18182E+00
 -1      1191 2.02254E+01 1.46946E+01 9.09091E+00
 -1      1192 2.22752E+01 1.13498E+01 9.09091E-01
 -1      1193 2.22752E+01 1.13498E+01 1.81818E+00
 -1      1194 2.22752E+01 1.13498E+01 2.72727E+00
 -1      1195 2.22752E+01 1.13498E+01 3.63636E+00
 -1      1196 2.22752E+01 1.13498E+01 4.54545E+00
 -1      1197 2.22752E+01 1.13498E+01 5.45455E+00
 -1      1198 2.22752E+01 1.13498E+01 6.36364E+00
 -1      1199 2.22752E+01 1.13498E+01 7.27273E+00
 -1      1200 2.22752E+01 1.13498E+01 8.18182E+00
 -1      1201 2.22752E+01 1.13498E+01 9.09091E+00
 -1      1202 2.37764E+01 7.72542E+00 9.09091E-01
 -1      1203 2.37764E+01 7.72542E+00 1.81818E+00
 -1      1204 2.37764E+01 7.72542E+00 2.72727E+00
 -1      1205 2.37764E+01 7.72542E+00 3.63636E+00
 -1      1206 2.37764E+01 7.72542E+00 4.54545E+00
 -1      1207 2.37764E+01 7.72542E+00 5.45455E+00
 -1      1208 2.37764E+01 7.72542E+00 6.36364E+00
 -1      1209 2.37764E+01 7.72542E+00 7.27273E+00
 -1      1210 2.37764E+01 7.72542E+00 8.18182E+00
 -1      1211 2.37764E+01 7.72542E+00 9.09091E+00
 -1      1212 2.46922E+01 3.91086E+00 9.09091E-01
 -1      1213 2.46922E+01 3.91086E+00 1.81818E+00
 -1      1214 2.46922E+01 3.91086E+00 2.72727E+00
 -1      1215 2.46922E+01 3.91086E+00 3.63636E+00
 -1      1216 2.46922E+01 3.91086E+00 4.54545E+00
 -1      1217 2.46922E+01 3.91086E+00 5.45455E+00
 -1      1218 2.46922E+01 3.91086E+00 6.36364E+00
 -1      1219 2.46922E+01 3.91086E+00 7.27273E+00
 -1      1220 2.46922E+01 3.91086E+00 8.18182E+00
 -1      1221 2.46922E+01 3.91086E+00 9.09091E+00
 -1      1222 2.71614E+01 4.30195E+00 1.00000E+01
 -1      1223 2.61541E+01 8.49797E+00 1.00000E+01
 -1      1224 2.45027E+01 1.24847E+01 1.00000E+01
 -1      1225 2.22480E+01 1.61641E+01 1.00000E+01
 -1      1226 1.94454E+01 1.94454E+01 1.00000E+01
 -1      1227 1.61641E+01 2.22480E+01 1.00000E+01
 -1      1228 1.24847E+01 2.45027E+01 1.00000E+01
 -1      1229 8.49797E+00 2.61541E+01 1.00000E+01
 -1      1230 4.30195E+00 2.71614E+01 1.00000E+01
 -1      1231 2.96306E+01 4.69303E+00 1.00000E+01
 -1      1232 2.85317E+01 9.27051E+00 1.00000E+01
 -1      1233 2.67302E+01 1.36197E+01 1.00000E+01
 -1      1234 2.42705E+01 1.76336E+01 1.00000E+01
 -1      1235 2.12132E+01 2.12132E+01 1.00000E+01
 -1      1236 1.76336E+01 2.42705E+01 1.00000E+01
 -1      1237 1.36197E+01 2.67302E+01 1.00000E+01
 -1      1238 9.27051E+00 2.85317E+01 1.00000E+01
 -1      1239 4.69303E+00 2.96306E+01 1.00000E+01
 -1      1240 3.20999E+01 5.08412E+00 1.00000E+01
 -1      1241 3.09093E+01 1.00431E+01 1.00000E+01
 -1      1242 2.89577E+01 1.47547E+01 1.00000E+01
 -1      1243 2.62931E+01 1.91030E+01 1.00000E+01
 -1      1244 2.29810E+01 2.29810E+01 1.00000E+01
 -1      1245 1.91030E+01 2.62931E+01 1.00000E+01
 -1      1246 1.47547E+01 2.89577E+01 1.00000E+01
 -1      1247 1.00431E+01 3.09093E+01 1.00000E+01
 -1      1248 5.08412E+00 3.20999E+01 1.00000E+01
 -1      1249 3.45691E+01 5.47521E+00 1.00000E+01
 -1      1250 3.32870E+01 1.08156E+01 1.00000E+01
 -1      1251 3.11852E+01 1.58897E+01 1.00000E+01
 -1      1252 2.83156E+01 2.05725E+01 1.00000E+01
 -1      1253 2.47487E+01 2.47487E+01 1.00000E+01
 -1      1254 2.05725E+01 2.83156E+01 1.00000E+01
 -1      1255 1.58897E+01 3.11852E+01 1.00000E+01
 -1      1256 1.08156E+01 3.32870E+01 1.00000E+01
 -1      1257 5.47521E+00 3.45691E+01 1.00000E+01
 -1      1258 3.70383E+01 5.86629E+00 1.00000E+01
 -1      1259 3.56646E+01 1.15881E+01 1.00000E+01
 -1      1260 3.34127E+01 1.70246E+01 1.00000E+01
 -1      1261 3.03381E+01 2.20419E+01 1.00000E+01
 -1      1262 2.65165E+01 2.65165E+01 1.00000E+01
 -1      1263 2.20419E+01 3.03381E+01 1.00000E+01
 -1      1264 1.70246E+01 3.34127E+01 1.00000E+01
 -1      1265 1.15881E+01 3.56646E+01 1.00000E+01
 -1      1266 5.86629E+00 3.70383E+01 1.00000E+01
 -1      1267 3.95075E+01 6.25738E+00 1.00000E+01
 -1      1268 3.80423E+01 1.23607E+01 1.00000E+01
 -1      1269 3.56403E+01 1.81596E+01 1.00000E+01
 -1      1270 3.23607E+01 2.35114E+01 1.00000E+01
 -1      1271 2.82843E+01 2.82843E+01 1.00000E+01
 -1      1272 2.35114E+01 3.23607E+01 1.00000E+01
 -1      1273 1.81596E+01 3.56403E+01 1.00000E+01
 -1      1274 1.23607E+01 3.80423E+01 1.00000E+01
 -1      1275 6.25738E+00 3.95075E+01 1.00000E+01
 -1      1276 4.19768E+01 6.64846E+00 1.00000E+01
 -1      1277 4.04199E+01 1.31332E+01 1.00000E+01
 -1      1278 3.78678E+01 1.92946E+01 1.00000E+01
 -1      1279 3.43832E+01 2.49809E+01 1.00000E+01
 -1      1280 3.00520E+01 3.00520E+01 1.00000E+01
 -1      1281 2.49809E+01 3.43832E+01 1.00000E+01
 -1      1282 1.92946E+01 3.78678E+01 1.00000E+01
 -1      1283 1.31332E+01 4.04199E+01 1.00000E+01
 -1      1284 6.64846E+00 4.19768E+01 1.00000E+01
 -1      1285 4.44460E+01 7.03955E+00 1.00000E+01
 -1      1286 4.27975E+01 1.39058E+01 1.00000E+01
 -1      1287 4.00953E+01 2.04296E+01 1.00000E+01
 -1      1288 3.64058E+01 2.64503E+01 1.00000E+01
 -1      1289 3.18198E+01 3.18198E+01 1.00000E+01
 -1      1290 2.64503E+01 3.64058E+01 1.00000E+01
 -1      1291 2.04296E+01 4.00953E+01 1.00000E+01
 -1      1292 1.39058E+01 4.27975E+01 1.00000E+01
 -1      1293 7.03955E+00 4.44460E+01 1.00000E+01
 -1      1294 4.69152E+01 7.43064E+00 1.00000E+01
 -1      1295 4.51752E+01 1.46783E+01 1.00000E+01
 -1      1296 4.23228E+01 2.15645E+01 1.00000E+01
 -1      1297 3.84283E+01 2.79198E+01 1.00000E+01
 -1      1298 3.35876E+01 3.35876E+01 1.00000E+01
 -1      1299 2.79198E+01 3.84283E+01 1.00000E+01
 -1      1300 2.15645E+01 4.23228E+01 1.00000E+01
 -1      1301 1.46783E+01 4.51752E+01 1.00000E+01
 -1      1302 7.43064E+00 4.69152E+01 1.00000E+01
 -1      1303 4.93844E+01 7.82172E+00 1.00000E+01
 -1      1304 4.75528E+01 1.54508E+01 1.00000E+01
 -1      1305 4.45503E+01 2.26995E+01 1.00000E+01
 -1      1306 4.04509E+01 2.93893E+01 1.00000E+01
 -1      1307 3.53553E+01 3.53553E+01 1.00000E+01
 -1      1308 2.93893E+01 4.04509E+01 1.00000E+01
 -1      1309 2.26995E+01 4.45503E+01 1.00000E+01
 -1      1310 1.54508E+01 4.75528E+01 1.00000E+01
 -1      1311 7.82172E+00 4.93844E+01 1.00000E+01
 -1      1312 5.18536E+01 8.21281E+00 1.00000E+01
 -1      1313 4.99305E+01 1.62234E+01 1.00000E+01
 -1      1314 4.67778E+01 2.38345E+01 1.00000E+01
 -1      1315 4.24734E+01 3.08587E+01 1.00000E+01
 -1      1316 3.71231E+01 3.71231E+01 1.00000E+01
 -1      1317 3.08587E+01 4.24734E+01 1.00000E+01
 -1      1318 2.38345E+01 4.67778E+01 1.00000E+01
 -1      1319 1.62234E+01 4.99305E+01 1.00000E+01
 -1      1320 8.21281E+00 5.18536E+01 1.00000E+01
 -1      1321 5.43229E+01 8.60390E+00 1.00000E+01
 -1      1322 5.23081E+01 1.69959E+01 1.00000E+01
 -1      1323 4.90054E+01 2.49695E+01 1.00000E+01
 -1      1324 4.44959E+01 3.23282E+01 1.00000E+01
 -1      1325 3.88909E+01 3.88909E+01 1.00000E+01
 -1      1326 3.23282E+01 4.44959E+01 1.00000E+01
 -1      1327 2.49695E+01 4.90054E+01 1.00000E+01
 -1      1328 1.69959E+01 5.23081E+01 1.00000E+01
 -1      1329 8.60390E+00 5.43229E+01 1.00000E+01
 -1      1330 5.67921E+01 8.99498E+00 1.00000E+01
 -1      1331 5.46857E+01 1.77685E+01 1.00000E+01
 -1      1332 5.12329E+01 2.61045E+01 1.00000E+01
 -1      1333 4.65185E+01 3.37977E+01 1.00000E+01
 -1      1334 4.06586E+01 4.06586E+01 1.00000E+01
 -1      1335 3.37977E+01 4.65185E+01 1.00000E+01
 -1      1336 2.61045E+01 5.12329E+01 1.00000E+01
 -1      1337 1.77685E+01 5.46857E+01 1.00000E+01
 -1      1338 8.99498E+00 5.67921E+01 1.00000E+01
 -1      1339 5.92613E+01 9.38607E+00 1.00000E+01
 -1      1340 5.70634E+01 1.85410E+01 1.00000E+01
 -1      1341 5.34604E+01 2.72394E+01 1.00000E+01
 -1      1342 4.85410E+01 3.52671E+01 1.00000E+01
 -1      1343 4.24264E+01 4.24264E+01 1.00000E+01
 -1      1344 3.52671E+01 4.85410E+01 1.00000E+01
 -1      1345 2.72394E+01 5.34604E+01 1.00000E+01
 -1      1346 1.85410E+01 5.70634E+01 1.00000E+01
 -1      1347 9.38607E+00 5.92613E+01 1.00000E+01
 -1      1348 6.17305E+01 9.77715E+00 1.00000E+01
 -1      1349 5.94410E+01 1.93136E+01 1.00000E+01
 -1      1350 5.56879E+01 2.83744E+01 1.00000E+01
 -1      1351 5.05636E+01 3.67366E+01 1.00000E+01
 -1      1352 4.41942E+01 4.41942E+01 1.00000E+01
 -1      1353 3.67366E+01 5.05636E+01 1.00000E+01
 -1      1354 2.83744E+01 5.56879E+01 1.00000E+01
 -1      1355 1.93136E+01 5.94410E+01 1.00000E+01
 -1      1356 9.77715E+00 6.17305E+01 1.00000E+01
 -1      1357 6.41997E+01 1.01682E+01 1.00000E+01
 -1      1358 6.18187E+01 2.00861E+01 1.00000E+01
 -1      1359 5.79154E+01 2.95094E+01 1.00000E+01
 -1      1360 5.25861E+01 3.82060E+01 1.00000E+01
 -1      1361 4.59619E+01 4.59619E+01 1.00000E+01
 -1      1362 3.82060E+01 5.25861E+01 1.00000E+01
 -1      1363 2.95094E+01 5.79154E+01 1.00000E+01
 -1      1364 2.00861E+01 6.18187E+01 1.00000E+01
 -1      1365 1.01682E+01 6.41997E+01 1.00000E+01
 -1      1366 6.66690E+01 1.05593E+01 1.00000E+01
 -1      1367 6.41963E+01 2.08586E+01 1.00000E+01
 -1      1368 6.01429E+01 3.06444E+01 1.00000E+01
 -1      1369 5.46086E+01 3.96755E+01 1.00000E+01
 -1      1370 4.77297E+01 4.77297E+01 1.00000E+01
 -1      1371 3.96755E+01 5.46086E+01 1.00000E+01
 -1      1372 3.06444E+01 6.01429E+01 1.00000E+01
 -1      1373 2.08586E+01 6.41963E+01 1.00000E+01
 -1      1374 1.05593E+01 6.66690E+01 1.00000E+01
 -1      1375 6.91382E+01 1.09504E+01 1.00000E+01
 -1      1376 6.65740E+01 2.16312E+01 1.00000E+01
 -1      1377 6.23705E+01 3.17793E+01 1.00000E+01
 -1      1378 5.66312E+01 4.11450E+01 1.00000E+01
 -1      1379 4.94975E+01 4.94975E+01 1.00000E+01
 -1      1380 4.11450E+01 5.66312E+01 1.00000E+01
 -1      1381 3.17793E+01 6.23705E+01 1.00000E+01
 -1      1382 2.16312E+01 6.65740E+01 1.00000E+01
 -1      1383 1.09504E+01 6.91382E+01 1.00000E+01
 -1      1384 7.16074E+01 1.13415E+01 1.00000E+01
 -1      1385 6.89516E+01 2.24037E+01 1.00000E+01
 -1      1386 6.45980E+01 3.29143E+01 1.00000E+01
 -1      1387 5.86537E+01 4.26144E+01 1.00000E+01
 -1      1388 5.12652E+01 5.12652E+01 1.00000E+01
 -1      1389 4.26144E+01 5.86537E+01 1.00000E+01
 -1      1390 3.29143E+01 6.45980E+01 1.00000E+01
 -1      1391 2.24037E+01 6.89516E+01 1.00000E+01
 -1      1392 1.13415E+01 7.16074E+01 1.00000E+01
 -1      1393 7.40766E+01 1.17326E+01 1.00000E+01
 -1      1394 7.13292E+01 2.31763E+01 1.00000E+01
 -1      1395 6.68255E+01 3.40493E+01 1.00000E+01
 -1      1396 6.06763E+01 4.40839E+01 1.00000E+01
 -1      1397 5.30330E+01 5.30330E+01 1.00000E+01
 -1      1398 4.40839E+01 6.06763E+01 1.00000E+01
 -1      1399 3.40493E+01 6.68255E+01 1.00000E+01
 -1      1400 2.31763E+01 7.13292E+01 1.00000E+01
 -1      1401 1.17326E+01 7.40766E+01 1.00000E+01
 -1      1402 7.65458E+01 1.21237E+01 1.00000E+01
 -1      1403 7.37069E+01 2.39488E+01 1.00000E+01
 -1      1404 6.90530E+01 3.51843E+01 1.00000E+01
 -1      1405 6.26988E+01 4.55534E+01 1.00000E+01
 -1      1406 5.48008E+01 5.48008E+01 1.00000E+01
 -1      1407 4.55534E+01 6.26988E+01 1.00000E+01
 -1      1408 3.51843E+01 6.90530E+01 1.00000E+01
 -1      1409 2.39488E+01 7.37069E+01 1.00000E+01
 -1      1410 1.21237E+01 7.65458E+01 1.00000E+01
 -1      1411 7.90151E+01 1.25148E+01 1.00000E+01
 -1      1412 7.60845E+01 2.47214E+01 1.00000E+01
 -1      1413 7.12805E+01 3.63192E+01 1.00000E+01
 -1      1414 6.47214E+01 4.70228E+01 1.00000E+01
 -1      1415 5.65685E+01 5.65685E+01 1.00000E+01
 -1      1416 4.70228E+01 6.47214E+01 1.00000E+01
 -1      1417 3.63192E+01 7.12805E+01 1.00000E+01
 -1      1418 2.47214E+01 7.60845E+01 1.00000E+01
 -1      1419 1.25148E+01 7.90151E+01 1.00000E+01
 -1      1420 8.14843E+01 1.29058E+01 1.00000E+01
 -1      1421 7.84622E+01 2.54939E+01 1.00000E+01
 -1      1422 7.35080E+01 3.74542E+01 1.00000E+01
 -1      1423 6.67439E+01 4.84923E+01 1.00000E+01
 -1      1424 5.83363E+01 5.83363E+01 1.00000E+01
 -1      1425 4.84923E+01 6.67439E+01 1.00000E+01
 -1      1426 3.74542E+01 7.35080E+01 1.00000E+01
 -1      1427 2.54939E+01 7.84622E+01 1.00000E+01
 -1      1428 1.29058E+01 8.14843E+01 1.00000E+01
 -1      1429 8.39535E+01 1.32969E+01 1.00000E+01
 -1      1430 8.08398E+01 2.62664E+01 1.00000E+01
 -1      1431 7.57356E+01 3.85892E+01 1.00000E+01
 -1      1432 6.87664E+01 4.99617E+01 1.00000E+01
 -1      1433 6.01041E+01 6.01041E+01 1.00000E+01
 -1      1434 4.99617E+01 6.87664E+01 1.00000E+01
 -1      1435 3.85892E+01 7.57356E+01 1.00000E+01
 -1      1436 2.62664E+01 8.08398E+01 1.00000E+01
 -1      1437 1.32969E+01 8.39535E+01 1.00000E+01
 -1      1438 8.64227E+01 1.36880E+01 1.00000E+01
 -1      1439 8.32174E+01 2.70390E+01 1.00000E+01
 -1      1440 7.79631E+01 3.97242E+01 1.00000E+01
 -1      1441 7.07890E+01 5.14312E+01 1.00000E+01
 -1      1442 6.18718E+01 6.18718E+01 1.00000E+01
 -1      1443 5.14312E+01 7.07890E+01 1.00000E+01
 -1      1444 3.97242E+01 7.79631E+01 1.00000E+01
 -1      1445 2.70390E+01 8.32174E+01 1.00000E+01
 -1      1446 1.36880E+01 8.64227E+01 1.00000E+01
 -1      1447 8.88920E+01 1.40791E+01 1.00000E+01
 -1      1448 8.55951E+01 2.78115E+01 1.00000E+01
 -1      1449 8.01906E+01 4.08591E+01 1.00000E+01
 -1      1450 7.28115E+01 5.29007E+01 1.00000E+01
 -1      1451 6.36396E+01 6.36396E+01 1.00000E+01
 -1      1452 5.29007E+01 7.28115E+01 1.00000E+01
 -1      1453 4.08591E+01 8.01906E+01 1.00000E+01
 -1      1454 2.78115E+01 8.55951E+01 1.00000E+01
 -1      1455 1.40791E+01 8.88920E+01 1.00000E+01
 -1      1456 9.13612E+01 1.44702E+01 1.00000E+01
 -1      1457 8.79727E+01 2.85841E+01 1.00000E+01
 -1      1458 8.24181E+01 4.19941E+01 1.00000E+01
 -1      1459 7.48341E+01 5.43701E+01 1.00000E+01
 -1      1460 6.54074E+01 6.54074E+01 1.00000E+01
 -1      1461 5.43701E+01 7.48341E+01 1.00000E+01
 -1      1462 4.19941E+01 8.24181E+01 1.00000E+01
 -1      1463 2.85841E+01 8.79727E+01 1.00000E+01
 -1      1464 1.44702E+01 9.13612E+01 1.00000E+01
 -1      1465 9.38304E+01 1.48613E+01 1.00000E+01
 -1      1466 9.03504E+01 2.93566E+01 1.00000E+01
 -1      1467 8.46456E+01 4.31291E+01 1.00000E+01
 -1      1468 7.68566E+01 5.58396E+01 1.00000E+01
 -1      1469 6.71751E+01 6.71751E+01 1.00000E+01
 -1      1470 5.58396E+01 7.68566E+01 1.00000E+01
 -1      1471 4.31291E+01 8.46456E+01 1.00000E+01
 -1      1472 2.93566E+01 9.03504E+01 1.00000E+01
 -1      1473 1.48613E+01 9.38304E+01 1.00000E+01
 -1      1474 9.62996E+01 1.52524E+01 1.00000E+01
 -1      1475 9.27280E+01 3.01292E+01 1.00000E+01
 -1      1476 8.68731E+01 4.42641E+01 1.00000E+01
 -1      1477 7.88792E+01 5.73091E+01 1.00000E+01
 -1      1478 6.89429E+01 6.89429E+01 1.00000E+01
 -1      1479 5.73091E+01 7.88792E+01 1.00000E+01
 -1      1480 4.42641E+01 8.68731E+01 1.00000E+01
 -1      1481 3.01292E+01 9.27280E+01 1.00000E+01
 -1      1482 1.52524E+01 9.62996E+01 1.00000E+01
 -1      1483 2.71614E+01 4.30195E+00 9.09091E-01
 -1      1484 2.71614E+01 4.30195E+00 1.81818E+00
 -1      1485 2.71614E+01 4.30195E+00 2.72727E+00
 -1      1486 2.71614E+01 4.30195E+00 3.63636E+00
 -1      1487 2.71614E+01 4.30195E+00 4.54545E+00
 -1      1488 2.71614E+01 4.30195E+00 5.45455E+00
 -1      1489 2.71614E+01 4.30195E+00 6.36364E+00
 -1      1490 2.71614E+01 4.30195E+00 7.27273E+00
 -1      1491 2.71614E+01 4.30195E+00 8.18182E+00
 -1      1492 2.71614E+01 4.30195E+00 9.09091E+00
 -1      1493 2.61541E+01 8.49797E+00 9.09091E-01
 -1      1494 2.61541E+01 8.49797E+00 1.81818E+00
 -1      1495 2.61541E+01 8.49797E+00 2.72727E+00
 -1      1496 2.61541E+01 8.49797E+00 3.63636E+00
 -1      1497 2.61541E+01 8.49797E+00 4.54545E+00
 -1      1498 2.61541E+01 8.49797E+00 5.45455E+00
 -1      1499 2.61541E+01 8.49797E+00 6.36364E+00
 -1      1500 2.61541E+01 8.49797E+00 7.27273E+00
 -1      1501 2.61541E+01 8.49797E+00 8.18182E+00
 -1      1502 2.61541E+01 8.49797E+00 9.09091E+00
 -1      1503 2.45027E+01 1.24847E+01 9.09091E-01
 -1      1504 2.45027E+01 1.24847E+01 1.81818E+00
 -1      1505 2.45027E+01 1.24847E+01 2.72727E+00
 -1      1506 2.45027E+01 1.24847E+01 3.63636E+00
 -1      1507 2.45027E+01 1.24847E+01 4.54545E+00
 -1      1508 2.45027E+01 1.24847E+01 5.45455E+00
 -1      1509 2.45027E+01 1.24847E+01 6.36364E+00
 -1      1510 2.45027E+01 1.24847E+01 7.27273E+00
 -1      1511 2.45027E+01 1.24847E+01 8.18182E+00
 -1      1512 2.45027E+01 1.24847E+01 9.09091E+00
 -1      1513 2.22480E+01 1.61641E+01 9.09091E-01
 -1      1514 2.22480E+01 1.61641E+01 1.81818E+00
 -1      1515 2.22480E+01 1.61641E+01 2.72727E+00
 -1      1516 2.22480E+01 1.61641E+01 3.63636E+00
 -1      1517 2.22480E+01 1.61641E+01 4.54545E+00
 -1      1518 2.22480E+01 1.61641E+01 5.45455E+00
 -1      1519 2.22480E+01 1.61641E+01 6.36364E+00
 -1      1520 2.22480E+01 1.61641E+01 7.27273E+00
 -1      1521 2.22480E+01 1.61641E+01 8.18182E+00
 -1      1522 2.22480E+01 1.61641E+01 9.09091E+00
 -1      1523 1.94454E+01 1.94454E+01 9.09091E-01
 -1      1524 1.94454E+01 1.94454E+01 1.81818E+00
 -1      1525 1.94454E+01 1.94454E+01 2.72727E+00
 -1      1526 1.94454E+01 1.94454E+01 3.63636E+00
 -1      1527 1.94454E+01 1.94454E+01 4.54545E+00
 -1      1528 1.94454E+01 1.94454E+01 5.45455E+00
 -1      1529 1.94454E+01 1.94454E+01 6.36364E+00
 -1      1530 1.94454E+01 1.94454E+01 7.27273E+00
 -1      1531 1.94454E+01 1.94454E+01 8.18182E+00
 -1      1532 1.94454E+01 1.94454E+01 9.09091E+00
 -1      1533 1.61641E+01 2.22480E+01 9.09091E-01
 -1      1534 1.61641E+01 2.22480E+01 1.81818E+00
 -1      1535 1.61641E+01 2.22480E+01 2.72727E+00
 -1      1536 1.61641E+01 2.22480E+01 3.63636E+00
 -1      1537 1.61641E+01 2.22480E+01 4.54545E+00
 -1      1538 1.61641E+01 2.22480E+01 5.45455E+00
 -1      1539 1.61641E+01 2.22480E+01 6.36364E+00
 -1      1540 1.61641E+01 2.22480E+01 7.27273E+00
 -1      1541 1.61641E+01 2.22480E+01 8.18182E+00
 -1      1542 1.61641E+01 2.22480E+01 9.09091E+00
 -1      1543 1.24847E+01 2.45027E+01 9.09091E-01
 -1      1544 1.24847E+01 2.45027E+01 1.81818E+00
 -1      1545 1.24847E+01 2.45027E+01 2.72727E+00
 -1      1546 1.24847E+01 2.45027E+01 3.63636E+00
 -1      1547 1.24847E+01 2.45027E+01 4.54545E+00
 -1      1548 1.24847E+01 2.45027E+01 5.45455E+00
 -1      1549 1.24847E+01 2.45027E+01 6.36364E+00
 -1      1550 1.24847E+01 2.45027E+01 7.27273E+00
 -1      1551 1.24847E+01 2.45027E+01 8.18182E+00
 -1      1552 1.24847E+01 2.45027E+01 9.09091E+00
 -1      1553 8.49797E+00 2.61541E+01 9.09091E-01
 -1      1554 8.49797E+00 2.61541E+01 1.81818E+00
 -1      1555 8.49797E+00 2.61541E+01 2.72727E+00
 -1      1556 8.49797E+00 2.61541E+01 3.63636E+00
 -1      1557 8.49797E+00 2.61541E+01 4.54545E+00
 -1      1558 8.49797E+00 2.61541E+01 5.45455E+00
 -1      1559 8.49797E+00 2.61541E+01 6.36364E+00
 -1      1560 8.49797E+00 2.61541E+01 7.27273E+00
 -1      1561 8.49797E+00 2.61541E+01 8.18182E+00
 -1      1562 8.49797E+00 2.61541E+01 9.09091E+00
 -1      1563 4.30195E+00 2.71614E+01 9.09091E-01
 -1      1564 4.30195E+00 2.71614E+01 1.81818E+00
 -1      1565 4.30195E+00 2.71614E+01 2.72727E+00
 -1      1566 4.30195E+00 2.71614E+01 3.63636E+00
 -1      1567 4.30195E+00 2.71614E+01 4.54545E+00
 -1      1568 4.30195E+00 2.71614E+01 5.45455E+00
 -1      1569 4.30195E+00 2.71614E+01 6.36364E+00
 -1      1570 4.30195E+00 2.71614E+01 7.27273E+00
 -1      1571 4.30195E+00 2.71614E+01 8.18182E+00
 -1      1572 4.30195E+00 2.71614E+01 9.09091E+00
 -1      1573 2.96306E+01 4.69303E+00 9.09091E-01
 -1      1574 2.96306E+01 4.69303E+00 1.81818E+00
 -1      1575 2.96306E+01 4.69303E+00 2.72727E+00
 -1      1576 2.96306E+01 4.69303E+00 3.63636E+00
 -1      1577 2.96306E+01 4.69303E+00 4.54545E+00
 -1      1578 2.96306E+01 4.69303E+00 5.45455E+00
 -1      1579 2.96306E+01 4.69303E+00 6.36364E+00
 -1      1580 2.96306E+01 4.69303E+00 7.27273E+00
 -1      1581 2.96306E+01 4.69303E+00 8.18182E+00
 -1      1582 2.96306E+01 4.69303E+00 9.09091E+00
 -1      1583 2.85317E+01 9.27051E+00 9.09091E-01
 -1      1584 2.85317E+01 9.27051E+00 1.81818E+00
 -1      1585 2.85317E+01 9.27051E+00 2.72727E+00
 -1      1586 2.85317E+01 9.27051E+00 3.63636E+00
 -1      1587 2.85317E+01 9.27051E+00 4.54545E+00
 -1      1588 2.85317E+01 9.27051E+00 5.45455E+00
 -1      1589 2.85317E+01 9.27051E+00 6.36364E+00
 -1      1590 2.85317E+01 9.27051E+00 7.27273E+00
 -1      1591 2.85317E+01 9.27051E+00 8.18182E+00
 -1      1592 2.85317E+01 9.27051E+00 9.09091E+00
 -1      1593 2.67302E+01 1.36197E+01 9.09091E-01
 -1      1594 2.67302E+01 1.36197E+01 1.81818E+00
 -1      1595 2.67302E+01 1.36197E+01 2.72727E+00
 -1      1596 2.67302E+01 1.36197E+01 3.63636E+00
 -1      1597 2.67302E+01 1.36197E+01 4.54545E+00
 -1      1598 2.67302E+01 1.36197E+01 5.45455E+00
 -1      1599 2.67302E+01 1.36197E+01 6.36364E+00
 -1      1600 2.67302E+01 1.36197E+01 7.27273E+00
 -1      1601 2.67302E+01 1.36197E+01 8.18182E+00
 -1      1602 2.67302E+01 1.36197E+01 9.09091E+00
 -1      1603 2.42705E+01 1.76336E+01 9.09091E-01
 -1      1604 2.42705E+01 1.76336E+01 1.81818E+00
 -1      1605 2.42705E+01 1.76336E+01 2.72727E+00
 -1      1606 2.42705E+01 1.76336E+01 3.63636E+00
 -1      1607 2.42705E+01 1.76336E+01 4.54545E+00
 -1      1608 2.42705E+01 1.76336E+01 5.45455E+00
 -1      1609 2.42705E+01 1.76336E+01 6.36364E+00
 -1      1610 2.42705E+01 1.76336E+01 7.27273E+00
 -1      1611 2.42705E+01 1.76336E+01 8.18182E+00
 -1      1612 2.42705E+01 1.76336E+01 9.09091E+00
 -1      1613 2.12132E+01 2.12132E+01 9.09091E-01
 -1      1614 2.12132E+01 2.12132E+01 1.81818E+00
 -1      1615 2.12132E+01 2.12132E+01 2.72727E+00
 -1      1616 2.12132E+01 2.12132E+01 3.63636E+00
 -1      1617 2.12132E+01 2.12132E+01 4.54545E+00
 -1      1618 2.12132E+01 2.12132E+01 5.45455E+00
 -1      1619 2.12132E+01 2.12132E+01 6.36364E+00
 -1      1620 2.12132E+01 2.12132E+01 7.27273E+00
 -1      1621 2.12132E+01 2.12132E+01 8.18182E+00
 -1      1622 2.12132E+01 2.12132E+01 9.09091E+00
 -1      1623 1.76336E+01 2.42705E+01 9.09091E-01
 -1      1624 1.76336E+01 2.42705E+01 1.81818E+00
 -1      1625 1.76336E+01 2.42705E+01 2.72727E+00
 -1      1626 1.76336E+01 2.42705E+01 3.63636E+00
 -1      1627 1.76336E+01 2.42705E+01 4.54545E+00
 -1      1628 1.76336E+01 2.42705E+01 5.45455E+00
 -1      1629 1.76336E+01 2.42705E+01 6.36364E+00
 -1      1630 1.76336E+01 2.42705E+01 7.27273E+00
 -1      1631 1.76336E+01 2.42705E+01 8.18182E+00
 -1      1632 1.76336E+01 2.42705E+01 9.09091E+00
 -1      1633 1.36197E+01 2.67302E+01 9.09091E-01
 -1      1634 1.36197E+01 2.67302E+01 1.81818E+00
 -1      1635 1.36197E+01 2.67302E+01 2.72727E+00
 -1      1636 1.36197E+01 2.67302E+01 3.63636E+00
 -1      1637 1.36197E+01 2.67302E+01 4.54545E+00
 -1      1638 1.36197E+01 2.67302E+01 5.45455E+00
 -1      1639 1.36197E+01 2.67302E+01 6.36364E+00
 -1      1640 1.36197E+01 2.67302E+01 7.27273E+00
 -1      1641 1.36197E+01 2.67302E+01 8.18182E+00
 -1      1642 1.36197E+01 2.67302E+01 9.09091E+00
 -1      1643 9.27051E+00 2.85317E+01 9.09091E-01
 -1      1644 9.27051E+00 2.85317E+01 1.81818E+00
 -1      1645 9.27051E+00 2.85317E+01 2.72727E+00
 -1      1646 9.27051E+00 2.85317E+01 3.63636E+00
 -1      1647 9.27051E+00 2.85317E+01 4.54545E+00
 -1      1648 9.27051E+00 2.85317E+01 5.45455E+00
 -1      1649 9.27051E+00 2.85317E+01 6.36364E+00
 -1      1650 9.27051E+00 2.85317E+01 7.27273E+00
 -1      1651 9.27051E+00 2.85317E+01 8.18182E+00
 -1      1652 9.27051E+00 2.85317E+01 9.09091E+00
 -1      1653 4.69303E+00 2.96306E+01 9.09091E-01
 -1      1654 4.69303E+00 2.96306E+01 1.81818E+00
 -1      1655 4.69303E+00 2.96306E+01 2.72727E+00
 -1      1656 4.69303E+00 2.96306E+01 3.63636E+00
 -1      1657 4.69303E+00 2.96306E+01 4.54545E+00
 -1      1658 4.69303E+00 2.96306E+01 5.45455E+00
 -1      1659 4.69303E+00 2.96306E+01 6.36364E+00
 -1      1660 4.69303E+00 2.96306E+01 7.27273E+00
 -1      1661 4.69303E+00 2.96306E+01 8.18182E+00
 -1      1662 4.69303E+00 2.96306E+01 9.09091E+00
 -1      1663 3.20999E+01 5.08412E+00 9.09091E-01
 -1      1664 3.20999E+01 5.08412E+00 1.81818E+00
 -1      1665 3.20999E+01 5.08412E+00 2.72727E+00
 -1      1666 3.20999E+01 5.08412E+00 3.63636E+00
 -1      1667 3.20999E+01 5.08412E+00 4.54545E+00
 -1      1668 3.20999E+01 5.08412E+00 5.45455E+00
 -1      1669 3.20999E+01 5.08412E+00 6.36364E+00
 -1      1670 3.20999E+01 5.08412E+00 7.27273E+00
 -1      1671 3.20999E+01 5.08412E+00 8.18182E+00
 -1      1672 3.20999E+01 5.08412E+00 9.09091E+00
 -1      1673 3.09093E+01 1.00431E+01 9.09091E-01
 -1      1674 3.09093E+01 1.00431E+01 1.81818E+00
 -1      1675 3.09093E+01 1.00431E+01 2.72727E+00
 -1      1676 3.09093E+01 1.00431E+01 3.63636E+00
 -1      1677 3.09093E+01 1.00431E+01 4.54545E+00
 -1      1678 3.09093E+01 1.00431E+01 5.45455E+00
 -1      1679 3.09093E+01 1.00431E+01 6.36364E+00
 -1      1680 3.09093E+01 1.00431E+01 7.27273E+00
 -1      1681 3.09093E+01 1.00431E+01 8.18182E+00
 -1      1682 3.09093E+01 1.00431E+01 9.09091E+00
 -1      1683 2.89577E+01 1.47547E+01 9.09091E-01
 -1      1684 2.89577E+01 1.47547E+01 1.81818E+00
 -1      1685 2.89577E+01 1.47547E+01 2.72727E+00
 -1      1686 2.89577E+01 1.47547E+01 3.63636E+00
 -1      1687 2.89577E+01 1.47547E+01 4.54545E+00
 -1      1688 2.89577E+01 1.47547E+01 5.45455E+00
 -1      1689 2.89577E+01 1.47547E+01 6.36364E+00
 -1      1690 2.89577E+01 1.47547E+01 7.27273E+00
 -1      1691 2.89577E+01 1.47547E+01 8.18182E+00
 -1      1692 2.89577E+01 1.47547E+01 9.09091E+00
 -1      1693 2.62931E+01 1.91030E+01 9.09091E-01
 -1      1694 2.62931E+01 1.91030E+01 1.81818E+00
 -1      1695 2.62931E+01 1.91030E+01 2.72727E+00
 -1      1696 2.62931E+01 1.91030E+01 3.63636E+00
 -1      1697 2.62931E+01 1.91030E+01 4.54545E+00
 -1      1698 2.62931E+01 1.91030E+01 5.45455E+00
 -1      1699 2.62931E+01 1.91030E+01 6.36364E+00
 -1      1700 2.62931E+01 1.91030E+01 7.27273E+00
 -1      1701 2.62931E+01 1.91030E+01 8.18182E+00
 -1      1702 2.62931E+01 1.91030E+01 9.09091E+00
 -1      1703 2.29810E+01 2.29810E+01 9.09091E-01
 -1      1704 2.29810E+01 2.29810E+01 1.81818E+00
 -1      1705 2.29810E+01 2.29810E+01 2.72727E+00
 -1      1706 2.29810E+01 2.29810E+01 3.63636E+00
 -1      1707 2.29810E+01 2.29810E+01 4.54545E+00
 -1      1708 2.29810E+01 2.29810E+01 5.45455E+00
 -1      1709 2.29810E+01 2.29810E+01 6.36364E+00
 -1      1710 2.29810E+01 2.29810E+01 7.27273E+00
 -1      1711 2.29810E+01 2.29810E+01 8.18182E+00
 -1      1712 2.29810E+01 2.29810E+01 9.09091E+00
 -1      1713 1.91030E+01 2.62931E+01 9.09091E-01
 -1      1714 1.91030E+01 2.62931E+01 1.81818E+00
 -1      1715 1.91030E+01 2.62931E+01 2.72727E+00
 -1      1716 1.91030E+01 2.62931E+01 3.63636E+00
 -1      1717 1.91030E+01 2.62931E+01 4.54545E+00
 -1      1718 1.91030E+01 2.62931E+01 5.45455E+00
 -1      1719 1.91030E+01 2.62931E+01 6.36364E+00
 -1      1720 1.91030E+01 2.62931E+01 7.27273E+00
 -1      1721 1.91030E+01 2.62931E+01 8.18182E+00
 -1      1722 1.91030E+01 2.62931E+01 9.09091E+00
 -1      1723 1.47547E+01 2.89577E+01 9.09091E-01
 -1      1724 1.47547E+01 2.89577E+01 1.81818E+00
 -1      1725 1.47547E+01 2.89577E+01 2.72727E+00
 -1      1726 1.47547E+01 2.89577E+01 3.63636E+00
 -1      1727 1.47547E+01 2.89577E+01 4.54545E+00
 -1      1728 1.47547E+01 2.89577E+01 5.45455E+00
 -1      1729 1.47547E+01 2.89577E+01 6.36364E+00
 -1      1730 1.47547E+01 2.89577E+01 7.27273E+00
 -1      1731 1.47547E+01 2.89577E+01 8.18182E+00
 -1      1732 1.47547E+01 2.89577E+01 9.09091E+00
 -1      1733 1.00431E+01 3.09093E+01 9.09091E-01
 -1      1734 1.00431E+01 3.09093E+01 1.81818E+00
 -1      1735 1.00431E+01 3.09093E+01 2.72727E+00
 -1      1736 1.00431E+01 3.09093E+01 3.63636E+00
 -1      1737 1.00431E+01 3.09093E+01 4.54545E+00
 -1      1738 1.00431E+01 3.09093E+01 5.45455E+00
 -1      1739 1.00431E+01 3.09093E+01 6.36364E+00
 -1      1740 1.00431E+01 3.09093E+01 7.27273E+00
 -1      1741 1.00431E+01 3.09093E+01 8.18182E+00
 -1      1742 1.00431E+01 3.09093E+01 9.09091E+00
 -1      1743 5.08412E+00 3.20999E+01 9.09091E-01
 -1      1744 5.08412E+00 3.20999E+01 1.81818E+00
 -1      1745 5.08412E+00 3.20999E+01 2.72727E+00
 -1      1746 5.08412E+00 3.20999E+01 3.63636E+00
 -1      1747 5.08412E+00 3.20999E+01 4.54545E+00
 -1      1748 5.08412E+00 3.20999E+01 5.45455E+00
 -1      1749 5.08412E+00 3.20999E+01 6.36364E+00
 -1      1750 5.08412E+00 3.20999E+01 7.27273E+00
 -1      1751 5.08412E+00 3.20999E+01 8.18182E+00
 -1      1752 5.08412E+00 3.20999E+01 9.09091E+00
 -1      1753 3.45691E+01 5.47521E+00 9.09091E-01
 -1      1754 3.45691E+01 5.47521E+00 1.81818E+00
 -1      1755 3.45691E+01 5.47521E+00 2.72727E+00
 -1      1756 3.45691E+01 5.47521E+00 3.63636E+00
 -1      1757 3.45691E+01 5.47521E+00 4.54545E+00
 -1      1758 3.45691E+01 5.47521E+00 5.45455E+00
 -1      1759 3.45691E+01 5.47521E+00 6.36364E+00
 -1      1760 3.45691E+01 5.47521E+00 7.27273E+00
 -1      1761 3.45691E+01 5.47521E+00 8.18182E+00
 -1      1762 3.45691E+01 5.47521E+00 9.09091E+00
 -1      1763 3.32870E+01 1.08156E+01 9.09091E-01
 -1      1764 3.32870E+01 1.08156E+01 1.81818E+00
 -1      1765 3.32870E+01 1.08156E+01 2.72727E+00
 -1      1766 3.32870E+01 1.08156E+01 3.63636E+00
 -1      1767 3.32870E+01 1.08156E+01 4.54545E+00
 -1      1768 3.32870E+01 1.08156E+01 5.45455E+00
 -1      1769 3.32870E+01 1.08156E+01 6.36364E+00
 -1      1770 3.32870E+01 1.08156E+01 7.27273E+00
 -1      1771 3.32870E+01 1.08156E+01 8.18182E+00
 -1      1772 3.32870E+01 1.08156E+01 9.09091E+00
 -1      1773 3.11852E+01 1.58897E+01 9.09091E-01
 -1      1774 3.11852E+01 1.58897E+01 1.81818E+00
 -1      1775 3.11852E+01 1.58897E+01 2.72727E+00
 -1      1776 3.11852E+01 1.58897E+01 3.63636E+00
 -1      1777 3.11852E+01 1.58897E+01 4.54545E+00
 -1      1778 3.11852E+01 1.58897E+01 5.45455E+00
 -1      1779 3.11852E+01 1.58897E+01 6.36364E+00
 -1      1780 3.11852E+01 1.58897E+01 7.27273E+00
 -1      1781 3.11852E+01 1.58897E+01 8.18182E+00
 -1      1782 3.11852E+01 1.58897E+01 9.09091E+00
 -1      1783 2.83156E+01 2.05725E+01 9.09091E-01
 -1      1784 2.83156E+01 2.05725E+01 1.81818E+00
 -1      1785 2.83156E+01 2.05725E+01 2.72727E+00
 -1      1786 2.83156E+01 2.05725E+01 3.63636E+00
 -1      1787 2.83156E+01 2.05725E+01 4.54545E+00
 -1      1788 2.83156E+01 2.05725E+01 5.45455E+00
 -1      1789 2.83156E+01 2.05725E+01 6.36364E+00
 -1      1790 2.83156E+01 2.05725E+01 7.27273E+00
 -1      1791 2.83156E+01 2.05725E+01 8.18182E+00
 -1      1792 2.83156E+01 2.05725E+01 9.09091E+00
 -1      1793 2.47487E+01 2.47487E+01 9.09091E-01
 -1      1794 2.47487E+01 2.47487E+01 1.81818E+00
 -1      1795 2.47487E+01 2.47487E+01 2.72727E+00
 -1      1796 2.47487E+01 2.47487E+01 3.63636E+00
 -1      1797 2.47487E+01 2.47487E+01 4.54545E+00
 -1      1798 2.47487E+01 2.47487E+01 5.45455E+00
 -1      1799 2.47487E+01 2.47487E+01 6.36364E+00
 -1      1800 2.47487E+01 2.47487E+01 7.27273E+00
 -1      1801 2.47487E+01 2.47487E+01 8.18182E+00
 -1      1802 2.47487E+01 2.47487E+01 9.09091E+00
 -1      1803 2.05725E+01 2.83156E+01 9.09091E-01
 -1      1804 2.05725E+01 2.83156E+01 1.81818E+00
 -1      1805 2.05725E+01 2.83156E+01 2.72727E+00
 -1      1806 2.05725E+01 2.83156E+01 3.63636E+00
 -1      1807 2.05725E+01 2.83156E+01 4.54545E+00
 -1      1808 2.05725E+01 2.83156E+01 5.45455E+00
 -1      1809 2.05725E+01 2.83156E+01 6.36364E+00
 -1      1810 2.05725E+01 2.83156E+01 7.27273E+00
 -1      1811 2.05725E+01 2.83156E+01 8.18182E+00
 -1      1812 2.05725E+01 2.83156E+01 9.09091E+00
 -1      1813 1.58897E+01 3.11852E+01 9.09091E-01
 -1      1814 1.58897E+01 3.11852E+01 1.81818E+00
 -1      1815 1.58897E+01 3.11852E+01 2.72727E+00
 -1      1816 1.58897E+01 3.11852E+01 3.63636E+00
 -1      1817 1.58897E+01 3.11852E+01 4.54545E+00
 -1      1818 1.58897E+01 3.11852E+01 5.45455E+00
 -1      1819 1.58897E+01 3.11852E+01 6.36364E+00
 -1      1820 1.58897E+01 3.11852E+01 7.27273E+00
 -1      1821 1.58897E+01 3.11852E+01 8.18182E+00
 -1      1822 1.58897E+01 3.11852E+01 9.09091E+00
 -1      1823 1.08156E+01 3.32870E+01 9.09091E-01
 -1      1824 1.08156E+01 3.32870E+01 1.81818E+00
 -1      1825 1.08156E+01 3.32870E+01 2.72727E+00
 -1      1826 1.08156E+01 3.32870E+01 3.63636E+00
 -1      1827 1.08156E+01 3.32870E+01 4.54545E+00
 -1      1828 1.08156E+01 3.32870E+01 5.45455E+00
 -1      1829 1.08156E+01 3.32870E+01 6.36364E+00
 -1      1830 1.08156E+01 3.32870E+01 7.27273E+00
 -1      1831 1.08156E+01 3.32870E+01 8.18182E+00
 -1      1832 1.08156E+01 3.32870E+01 9.09091E+00
 -1      1833 5.47521E+00 3.45691E+01 9.09091E-01
 -1      1834 5.47521E+00 3.45691E+01 1.81818E+00
 -1      1835 5.47521E+00 3.45691E+01 2.72727E+00
 -1      1836 5.47521E+00 3.45691E+01 3.63636E+00
 -1      1837 5.47521E+00 3.45691E+01 4.54545E+00
 -1      1838 5.47521E+00 3.45691E+01 5.45455E+00
 -1      1839 5.47521E+00 3.45691E+01 6.36364E+00
 -1      1840 5.47521E+00 3.45691E+01 7.27273E+00
 -1      1841 5.47521E+00 3.45691E+01 8.18182E+00
 -1      1842 5.47521E+00 3.45691E+01 9.09091E+00
 -1      1843 3.70383E+01 5.86629E+00 9.09091E-01
 -1      1844 3.70383E+01 5.86629E+00 1.81818E+00
 -1      1845 3.70383E+01 5.86629E+00 2.72727E+00
 -1      1846 3.70383E+01 5.86629E+00 3.63636E+00
 -1      1847 3.70383E+01 5.86629E+00 4.54545E+00
 -1      1848 3.70383E+01 5.86629E+00 5.45455E+00
 -1      1849 3.70383E+01 5.86629E+00 6.36364E+00
 -1      1850 3.70383E+01 5.86629E+00 7.27273E+00
 -1      1851 3.70383E+01 5.86629E+00 8.18182E+00
 -1      1852 3.70383E+01 5.86629E+00 9.09091E+00
 -1      1853 3.56646E+01 1.15881E+01 9.09091E-01
 -1      1854 3.56646E+01 1.15881E+01 1.81818E+00
 -1      1855 3.56646E+01 1.15881E+01 2.72727E+00
 -1      1856 3.56646E+01 1.15881E+01 3.63636E+00
 -1      1857 3.56646E+01 1.15881E+01 4.54545E+00
 -1      1858 3.56646E+01 1.15881E+01 5.45455E+00
 -1      1859 3.56646E+01 1.15881E+01 6.36364E+00
 -1      1860 3.56646E+01 1.15881E+01 7.27273E+00
 -1      1861 3.56646E+01 1.15881E+01 8.18182E+00
 -1      1862 3.56646E+01 1.15881E+01 9.09091E+00
 -1      1863 3.34127E+01 1.70246E+01 9.09091E-01
 -1      1864 3.34127E+01 1.70246E+01 1.81818E+00
 -1      1865 3.34127E+01 1.70246E+01 2.72727E+00
 -1      1866 3.34127E+01 1.70246E+01 3.63636E+00
 -1      1867 3.34127E+01 1.70246E+01 4.54545E+00
 -1      1868 3.34127E+01 1.70246E+01 5.45455E+00
 -1      1869 3.34127E+01 1.70246E+01 6.36364E+00
 -1      1870 3.34127E+01 1.70246E+01 7.27273E+00
 -1      1871 3.34127E+01 1.70246E+01 8.18182E+00
 -1      1872 3.34127E+01 1.70246E+01 9.09091E+00
 -1      1873 3.03381E+01 2.20419E+01 9.09091E-01
 -1      1874 3.03381E+01 2.20419E+01 1.81818E+00
 -1      1875 3.03381E+01 2.20419E+01 2.72727E+00
 -1      1876 3.03381E+01 2.20419E+01 3.63636E+00
 -1      1877 3.03381E+01 2.20419E+01 4.54545E+00
 -1      1878 3.03381E+01 2.20419E+01 5.45455E+00
 -1      1879 3.03381E+01 2.20419E+01 6.36364E+00
 -1      1880 3.03381E+01 2.20419E+01 7.27273E+00
 -1      1881 3.03381E+01 2.20419E+01 8.18182E+00
 -1      1882 3.03381E+01 2.20419E+01 9.09091E+00
 -1      1883 2.65165E+01 2.65165E+01 9.09091E-01
 -1      1884 2.65165E+01 2.65165E+01 1.81818E+00
 -1      1885 2.65165E+01 2.65165E+01 2.72727E+00
 -1      1886 2.65165E+01 2.65165E+01 3.63636E+00
 -1      1887 2.65165E+01 2.65165E+01 4.54545E+00
 -1      1888 2.65165E+01 2.65165E+01 5.45455E+00
 -1      1889 2.65165E+01 2.65165E+01 6.36364E+00
 -1      1890 2.65165E+01 2.65165E+01 7.27273E+00
 -1      1891 2.65165E+01 2.65165E+01 8.18182E+00
 -1      1892 2.65165E+01 2.65165E+01 9.09091E+00
 -1      1893 2.20419E+01 3.03381E+01 9.09091E-01
 -1      1894 2.20419E+01 3.03381E+01 1.81818E+00
 -1      1895 2.20419E+01 3.03381E+01 2.72727E+00
 -1      1896 2.20419E+01 3.03381E+01 3.63636E+00
 -1      1897 2.20419E+01 3.03381E+01 4.54545E+00
 -1      1898 2.20419E+01 3.03381E+01 5.45455E+00
 -1      1899 2.20419E+01 3.03381E+01 6.36364E+00
 -1      1900 2.20419E+01 3.03381E+01 7.27273E+00
 -1      1901 2.20419E+01 3.03381E+01 8.18182E+00
 -1      1902 2.20419E+01 3.03381E+01 9.09091E+00
 -1      1903 1.70246E+01 3.34127E+01 9.09091E-01
 -1      1904 1.70246E+01 3.34127E+01 1.81818E+00
 -1      1905 1.70246E+01 3.34127E+01 2.72727E+00
 -1      1906 1.70246E+01 3.34127E+01 3.63636E+00
 -1      1907 1.70246E+01 3.34127E+01 4.54545E+00
 -1      1908 1.70246E+01 3.34127E+01 5.45455E+00
 -1      1909 1.70246E+01 3.34127E+01 6.36364E+00
 -1      1910 1.70246E+01 3.34127E+01 7.27273E+00
 -1      1911 1.70246E+01 3.34127E+01 8.18182E+00
 -1      1912 1.70246E+01 3.34127E+01 9.09091E+00
 -1      1913 1.15881E+01 3.56646E+01 9.09091E-01
 -1      1914 1.15881E+01 3.56646E+01 1.81818E+00
 -1      1915 1.15881E+01 3.56646E+01 2.72727E+00
 -1      1916 1.15881E+01 3.56646E+01 3.63636E+00
 -1      1917 1.15881E+01 3.56646E+01 4.54545E+00
 -1      1918 1.15881E+01 3.56646E+01 5.45455E+00
 -1      1919 1.15881E+01 3.56646E+01 6.36364E+00
 -1      1920 1.15881E+01 3.56646E+01 7.27273E+00
 -1      1921 1.15881E+01 3.56646E+01 8.18182E+00
 -1      1922 1.15881E+01 3.56646E+01 9.09091E+00
 -1      1923 5.86629E+00 3.70383E+01 9.09091E-01
 -1      1924 5.86629E+00 3.70383E+01 1.81818E+00
 -1      1925 5.86629E+00 3.70383E+01 2.72727E+00
 -1      1926 5.86629E+00 3.70383E+01 3.63636E+00
 -1      1927 5.86629E+00 3.70383E+01 4.54545E+00
 -1      1928 5.86629E+00 3.70383E+01 5.45455E+00
 -1      1929 5.86629E+00 3.70383E+01 6.36364E+00
 -1      1930 5.86629E+00 3.70383E+01 7.27273E+00
 -1      1931 5.86629E+00 3.70383E+01 8.18182E+00
 -1      1932 5.86629E+00 3.70383E+01 9.09091E+00
 -1      1933 3.95075E+01 6.25738E+00 9.09091E-01
 -1      1934 3.95075E+01 6.25738E+00 1.81818E+00
 -1      1935 3.95075E+01 6.25738E+00 2.72727E+00
 -1      1936 3.95075E+01 6.25738E+00 3.63636E+00
 -1      1937 3.95075E+01 6.25738E+00 4.54545E+00
 -1      1938 3.95075E+01 6.25738E+00 5.45455E+00
 -1      1939 3.95075E+01 6.25738E+00 6.36364E+00
 -1      1940 3.95075E+01 6.25738E+00 7.27273E+00
 -1      1941 3.95075E+01 6.25738E+00 8.18182E+00
 -1      1942 3.95075E+01 6.25738E+00 9.09091E+00
 -1      1943 3.80423E+01 1.23607E+01 9.09091E-01
 -1      1944 3.80423E+01 1.23607E+01 1.81818E+00
 -1      1945 3.80423E+01 1.23607E+01 2.72727E+00
 -1      1946 3.80423E+01 1.23607E+01 3.63636E+00
 -1      1947 3.80423E+01 1.23607E+01 4.54545E+00
 -1      1948 3.80423E+01 1.23607E+01 5.45455E+00
 -1      1949 3.80423E+01 1.23607E+01 6.36364E+00
 -1      1950 3.80423E+01 1.23607E+01 7.27273E+00
 -1      1951 3.80423E+01 1.23607E+01 8.18182E+00
 -1      1952 3.80423E+01 1.23607E+01 9.09091E+00
 -1      1953 3.56403E+01 1.81596E+01 9.09091E-01
 -1      1954 3.56403E+01 1.81596E+01 1.81818E+00
 -1      1955 3.56403E+01 1.81596E+01 2.72727E+00
 -1      1956 3.56403E+01 1.81596E+01 3.63636E+00
 -1      1957 3.56403E+01 1.81596E+01 4.54545E+00
 -1      1958 3.56403E+01 1.81596E+01 5.45455E+00
 -1      1959 3.56403E+01 1.81596E+01 6.36364E+00
 -1      1960 3.56403E+01 1.81596E+01 7.27273E+00
 -1      1961 3.56403E+01 1.81596E+01 8.18182E+00
 -1      1962 3.56403E+01 1.81596E+01 9.09091E+00
 -1      1963 3.23607E+01 2.35114E+01 9.09091E-01
 -1      1964 3.23607E+01 2.35114E+01 1.81818E+00
 -1      1965 3.23607E+01 2.35114E+01 2.72727E+00
 -1      1966 3.23607E+01 2.35114E+01 3.63636E+00
 -1      1967 3.23607E+01 2.35114E+01 4.54545E+00
 -1      1968 3.23607E+01 2.35114E+01 5.45455E+00
 -1      1969 3.23607E+01 2.35114E+01 6.36364E+00
 -1      1970 3.23607E+01 2.35114E+01 7.27273E+00
 -1      1971 3.23607E+01 2.35114E+01 8.18182E+00
 -1      1972 3.23607E+01 2.35114E+01 9.09091E+00
 -1      1973 2.82843E+01 2.82843E+01 9.09091E-01
 -1      1974 2.82843E+01 2.82843E+01 1.81818E+00
 -1      1975 2.82843E+01 2.82843E+01 2.72727E+00
 -1      1976 2.82843E+01 2.82843E+01 3.63636E+00
 -1      1977 2.82843E+01 2.82843E+01 4.54545E+00
 -1      1978 2.82843E+01 2.82843E+01 5.45455E+00
 -1      1979 2.82843E+01 2.82843E+01 6.36364E+00
 -1      1980 2.82843E+01 2.82843E+01 7.27273E+00
 -1      1981 2.82843E+01 2.82843E+01 8.18182E+00
 -1      1982 2.82843E+01 2.82843E+01 9.09091E+00
 -1      1983 2.35114E+01 3.23607E+01 9.09091E-01
 -1      1984 2.35114E+01 3.23607E+01 1.81818E+00
 -1      1985 2.35114E+01 3.23607E+01 2.72727E+00
 -1      1986 2.35114E+01 3.23607E+01 3.63636E+00
 -1      1987 2.35114E+01 3.23607E+01 4.54545E+00
 -1      1988 2.35114E+01 3.23607E+01 5.45455E+00
 -1      1989 2.35114E+01 3.23607E+01 6.36364E+00
 -1      1990 2.35114E+01 3.23607E+01 7.27273E+00
 -1      1991 2.35114E+01 3.23607E+01 8.18182E+00
 -1      1992 2.35114E+01 3.23607E+01 9.09091E+00
 -1      1993 1.81596E+01 3.56403E+01 9.09091E-01
 -1      1994 1.81596E+01 3.56403E+01 1.81818E+00
 -1      1995 1.81596E+01 3.56403E+01 2.72727E+00
 -1      1996 1.81596E+01 3.56403E+01 3.63636E+00
 -1      1997 1.81596E+01 3.56403E+01 4.54545E+00
 -1      1998 1.81596E+01 3.56403E+01 5.45455E+00
 -1      1999 1.81596E+01 3.56403E+01 6.36364E+00
 -1      2000 1.81596E+01 3.56403E+01 7.27273E+00
 -1      2001 1.81596E+01 3.56403E+01 8.18182E+00
 -1      2002 1.81596E+01 3.56403E+01 9.09091E+00
 -1      2003 1.23607E+01 3.80423E+01 9.09091E-01
 -1      2004 1.23607E+01 3.80423E+01 1.81818E+00
 -1      2005 1.23607E+01 3.80423E+01 2.72727E+00
 -1      2006 1.23607E+01 3.80423E+01 3.63636E+00
 -1      2007 1.23607E+01 3.80423E+01 4.54545E+00
 -1      2008 1.23607E+01 3.80423E+01 5.45455E+00
 -1      2009 1.23607E+01 3.80423E+01 6.36364E+00
 -1      2010 1.23607E+01 3.80423E+01 7.27273E+00
 -1      2011 1.23607E+01 3.80423E+01 8.18182E+00
 -1      2012 1.23607E+01 3.80423E+01 9.09091E+00
 -1      2013 6.25738E+00 3.95075E+01 9.09091E-01
 -1      2014 6.25738E+00 3.95075E+01 1.81818E+00
 -1      2015 6.25738E+00 3.95075E+01 2.72727E+00
 -1      2016 6.25738E+00 3.95075E+01 3.63636E+00
 -1      2017 6.25738E+00 3.95075E+01 4.54545E+00
 -1      2018 6.25738E+00 3.95075E+01 5.45455E+00
 -1      2019 6.25738E+00 3.95075E+01 6.36364E+00
 -1      2020 6.25738E+00 3.95075E+01 7.27273E+00
 -1      2021 6.25738E+00 3.95075E+01 8.18182E+00
 -1      2022 6.25738E+00 3.95075E+01 9.09091E+00
 -1      2023 4.19768E+01 6.64846E+00 9.09091E-01
 -1      2024 4.19768E+01 6.64846E+00 1.81818E+00
 -1      2025 4.19768E+01 6.64846E+00 2.72727E+00
 -1      2026 4.19768E+01 6.64846E+00 3.63636E+00
 -1      2027 4.19768E+01 6.64846E+00 4.54545E+00
 -1      2028 4.19768E+01 6.64846E+00 5.45455E+00
 -1      2029 4.19768E+01 6.64846E+00 6.36364E+00
 -1      2030 4.19768E+01 6.64846E+00 7.27273E+00
 -1      2031 4.19768E+01 6.64846E+00 8.18182E+00
 -1      2032 4.19768E+01 6.64846E+00 9.09091E+00
 -1      2033 4.04199E+01 1.31332E+01 9.09091E-01
 -1      2034 4.04199E+01 1.31332E+01 1.81818E+00
 -1      2035 4.04199E+01 1.31332E+01 2.72727E+00
 -1      2036 4.04199E+01 1.31332E+01 3.63636E+00
 -1      2037 4.04199E+01 1.31332E+01 4.54545E+00
 -1      2038 4.04199E+01 1.31332E+01 5.45455E+00
 -1      2039 4.04199E+01 1.31332E+01 6.36364E+00
 -1      2040 4.04199E+01 1.31332E+01 7.27273E+00
 -1      2041 4.04199E+01 1.31332E+01 8.18182E+00
 -1      2042 4.04199E+01 1.31332E+01 9.09091E+00
 -1      2043 3.78678E+01 1.92946E+01 9.09091E-01
 -1      2044 3.78678E+01 1.92946E+01 1.81818E+00
 -1      2045 3.78678E+01 1.92946E+01 2.72727E+00
 -1      2046 3.78678E+01 1.92946E+01 3.63636E+00
 -1      2047 3.78678E+01 1.92946E+01 4.54545E+00
 -1      2048 3.78678E+01 1.92946E+01 5.45455E+00
 -1      2049 3.78678E+01 1.92946E+01 6.36364E+00
 -1      2050 3.78678E+01 1.92946E+01 7.27273E+00
 -1      2051 3.78678E+01 1.92946E+01 8.18182E+00
 -1      2052 3.78678E+01 1.92946E+01 9.09091E+00
 -1      2053 3.43832E+01 2.49809E+01 9.09091E-01
 -1      2054 3.43832E+01 2.49809E+01 1.81818E+00
 -1      2055 3.43832E+01 2.49809E+01 2.72727E+00
 -1      2056 3.43832E+01 2.49809E+01 3.63636E+00
 -1      2057 3.43832E+01 2.49809E+01 4.54545E+00
 -1      2058 3.43832E+01 2.49809E+01 5.45455E+00
 -1      2059 3.43832E+01 2.49809E+01 6.36364E+00
 -1      2060 3.43832E+01 2.49809E+01 7.27273E+00
 -1      2061 3.43832E+01 2.49809E+01 8.18182E+00
 -1      2062 3.43832E+01 2.49809E+01 9.09091E+00
 -1      2063 3.00520E+01 3.00520E+01 9.09091E-01
 -1      2064 3.00520E+01 3.00520E+01 1.81818E+00
 -1      2065 3.00520E+01 3.00520E+01 2.72727E+00
 -1      2066 3.00520E+01 3.00520E+01 3.63636E+00
 -1      2067 3.00520E+01 3.00520E+01 4.54545E+00
 -1      2068 3.00520E+01 3.00520E+01 5.45455E+00
 -1      2069 3.00520E+01 3.00520E+01 6.36364E+00
 -1      2070 3.00520E+01 3.00520E+01 7.27273E+00
 -1      2071 3.00520E+01 3.00520E+01 8.18182E+00
 -1      2072 3.00520E+01 3.00520E+01 9.09091E+00
 -1      2073 2.49809E+01 3.43832E+01 9.09091E-01
 -1      2074 2.49809E+01 3.43832E+01 1.81818E+00
 -1      2075 2.49809E+01 3.43832E+01 2.72727E+00
 -1      2076 2.49809E+01 3.43832E+01 3.63636E+00
 -1      2077 2.49809E+01 3.43832E+01 4.54545E+00
 -1      2078 2.49809E+01 3.43832E+01 5.45455E+00
 -1      2079 2.49809E+01 3.43832E+01 6.36364E+00
 -1      2080 2.49809E+01 3.43832E+01 7.27273E+00
 -1      2081 2.49809E+01 3.43832E+01 8.18182E+00
 -1      2082 2.49809E+01 3.43832E+01 9.09091E+00
 -1      2083 1.92946E+01 3.78678E+01 9.09091E-01
 -1      2084 1.92946E+01 3.78678E+01 1.81818E+00
 -1      2085 1.92946E+01 3.78678E+01 2.72727E+00
 -1      2086 1.92946E+01 3.78678E+01 3.63636E+00
 -1      2087 1.92946E+01 3.78678E+01 4.54545E+00
 -1      2088 1.92946E+01 3.78678E+01 5.45455E+00
 -1      2089 1.92946E+01 3.78678E+01 6.36364E+00
 -1      2090 1.92946E+01 3.78678E+01 7.27273E+00
 -1      2091 1.92946E+01 3.78678E+01 8.18182E+00
 -1      2092 1.92946E+01 3.78678E+01 9.09091E+00
 -1      2093 1.31332E+01 4.04199E+01 9.09091E-01
 -1      2094 1.31332E+01 4.04199E+01 1.81818E+00
 -1      2095 1.31332E+01 4.04199E+01 2.72727E+00
 -1      2096 1.31332E+01 4.04199E+01 3.63636E+00
 -1      2097 1.31332E+01 4.04199E+01 4.54545E+00
 -1      2098 1.31332E+01 4.04199E+01 5.45455E+00
 -1      2099 1.31332E+01 4.04199E+01 6.36364E+00
 -1      2100 1.31332E+01 4.04199E+01 7.27273E+00
 -1      2101 1.31332E+01 4.04199E+01 8.18182E+00
 -1      2102 1.31332E+01 4.04199E+01 9.09091E+00
 -1      2103 6.64846E+00 4.19768E+01 9.09091E-01
 -1      2104 6.64846E+00 4.19768E+01 1.81818E+00
 -1      2105 6.64846E+00 4.19768E+01 2.72727E+00
 -1      2106 6.64846E+00 4.19768E+01 3.63636E+00
 -1      2107 6.64846E+00 4.19768E+01 4.54545E+00
 -1      2108 6.64846E+00 4.19768E+01 5.45455E+00
 -1      2109 6.64846E+00 4.19768E+01 6.36364E+00
 -1      2110 6.64846E+00 4.19768E+01 7.27273E+00
 -1      2111 6.64846E+00 4.19768E+01 8.18182E+00
 -1      2112 6.64846E+00 4.19768E+01 9.09091E+00
 -1      2113 4.44460E+01 7.03955E+00 9.09091E-01
 -1      2114 4.44460E+01 7.03955E+00 1.81818E+00
 -1      2115 4.44460E+01 7.03955E+00 2.72727E+00
 -1      2116 4.44460E+01 7.03955E+00 3.63636E+00
 -1      2117 4.44460E+01 7.03955E+00 4.54545E+00
 -1      2118 4.44460E+01 7.03955E+00 5.45455E+00
 -1      2119 4.44460E+01 7.03955E+00 6.36364E+00
 -1      2120 4.44460E+01 7.03955E+00 7.27273E+00
 -1      2121 4.44460E+01 7.03955E+00 8.18182E+00
 -1      2122 4.44460E+01 7.03955E+00 9.09091E+00
 -1      2123 4.27975E+01 1.39058E+01 9.09091E-01
 -1      2124 4.27975E+01 1.39058E+01 1.81818E+00
 -1      2125 4.27975E+01 1.39058E+01 2.72727E+00
 -1      2126 4.27975E+01 1.39058E+01 3.63636E+00
 -1      2127 4.27975E+01 1.39058E+01 4.54545E+00
 -1      2128 4.27975E+01 1.39058E+01 5.45455E+00
 -1      2129 4.27975E+01 1.39058E+01 6.36364E+00
 -1      2130 4.27975E+01 1.39058E+01 7.27273E+00
 -1      2131 4.27975E+01 1.39058E+01 8.18182E+00
 -1      2132 4.27975E+01 1.39058E+01 9.09091E+00
 -1      2133 4.00953E+01 2.04296E+01 9.09091E-01
 -1      2134 4.00953E+01 2.04296E+01 1.81818E+00
 -1      2135 4.00953E+01 2.04296E+01 2.72727E+00
 -1      2136 4.00953E+01 2.04296E+01 3.63636E+00
 -1      2137 4.00953E+01 2.04296E+01 4.54545E+00
 -1      2138 4.00953E+01 2.04296E+01 5.45455E+00
 -1      2139 4.00953E+01 2.04296E+01 6.36364E+00
 -1      2140 4.00953E+01 2.04296E+01 7.27273E+00
 -1      2141 4.00953E+01 2.04296E+01 8.18182E+00
 -1      2142 4.00953E+01 2.04296E+01 9.09091E+00
 -1      2143 3.64058E+01 2.64503E+01 9.09091E-01
 -1      2144 3.64058E+01 2.64503E+01 1.81818E+00
 -1      2145 3.64058E+01 2.64503E+01 2.72727E+00
 -1      2146 3.64058E+01 2.64503E+01 3.63636E+00
 -1      2147 3.64058E+01 2.64503E+01 4.54545E+00
 -1      2148 3.64058E+01 2.64503E+01 5.45455E+00
 -1      2149 3.64058E+01 2.64503E+01 6.36364E+00
 -1      2150 3.64058E+01 2.64503E+01 7.27273E+00
 -1      2151 3.64058E+01 2.64503E+01 8.18182E+00
 -1      2152 3.64058E+01 2.64503E+01 9.09091E+00
 -1      2153 3.18198E+01 3.18198E+01 9.09091E-01
 -1      2154 3.18198E+01 3.18198E+01 1.81818E+00
 -1      2155 3.18198E+01 3.18198E+01 2.72727E+00
 -1      2156 3.18198E+01 3.18198E+01 3.63636E+00
 -1      2157 3.18198E+01 3.18198E+01 4.54545E+00
 -1      2158 3.18198E+01 3.18198E+01 5.45455E+00
 -1      2159 3.18198E+01 3.18198E+01 6.36364E+00
 -1      2160 3.18198E+01 3.18198E+01 7.27273E+00
 -1      2161 3.18198E+01 3.18198E+01 8.18182E+00
 -1      2162 3.18198E+01 3.18198E+01 9.09091E+00
 -1      2163 2.64503E+01 3.64058E+01 9.09091E-01
 -1      2164 2.64503E+01 3.64058E+01 1.81818E+00
 -1      2165 2.64503E+01 3.64058E+01 2.72727E+00
 -1      2166 2.64503E+01 3.64058E+01 3.63636E+00
 -1      2167 2.64503E+01 3.64058E+01 4.54545E+00
 -1      2168 2.64503E+01 3.64058E+01 5.45455E+00
 -1      2169 2.64503E+01 3.64058E+01 6.36364E+00
 -1      2170 2.64503E+01 3.64058E+01 7.27273E+00
 -1      2171 2.64503E+01 3.64058E+01 8.18182E+00
 -1      2172 2.64503E+01 3.64058E+01 9.09091E+00
 -1      2173 2.04296E+01 4.00953E+01 9.09091E-01
 -1      2174 2.04296E+01 4.00953E+01 1.81818E+00
 -1      2175 2.04296E+01 4.00953E+01 2.72727E+00
 -1      2176 2.04296E+01 4.00953E+01 3.63636E+00
 -1      2177 2.04296E+01 4.00953E+01 4.54545E+00
 -1      2178 2.04296E+01 4.00953E+01 5.45455E+00
 -1      2179 2.04296E+01 4.00953E+01 6.36364E+00
 -1      2180 2.04296E+01 4.00953E+01 7.27273E+00
 -1      2181 2.04296E+01 4.00953E+01 8.18182E+00
 -1      2182 2.04296E+01 4.00953E+01 9.09091E+00
 -1      2183 1.39058E+01 4.27975E+01 9.09091E-01
 -1      2184 1.39058E+01 4.27975E+01 1.81818E+00
 -1      2185 1.39058E+01 4.27975E+01 2.72727E+00
 -1      2186 1.39058E+01 4.27975E+01 3.63636E+00
 -1      2187 1.39058E+01 4.27975E+01 4.54545E+00
 -1      2188 1.39058E+01 4.27975E+01 5.45455E+00
 -1      2189 1.39058E+01 4.27975E+01 6.36364E+00
 -1      2190 1.39058E+01 4.27975E+01 7.27273E+00
 -1      2191 1.39058E+01 4.27975E+01 8.18182E+00
 -1      2192 1.39058E+01 4.27975E+01 9.09091E+00
 -1      2193 7.03955E+00 4.44460E+01 9.09091E-01
 -1      2194 7.03955E+00 4.44460E+01 1.81818E+00
 -1      2195 7.03955E+00 4.44460E+01 2.72727E+00
 -1      2196 7.03955E+00 4.44460E+01 3.63636E+00
 -1      2197 7.03955E+00 4.44460E+01 4.54545E+00
 -1      2198 7.03955E+00 4.44460E+01 5.45455E+00
 -1      2199 7.03955E+00 4.44460E+01 6.36364E+00
 -1      2200 7.03955E+00 4.44460E+01 7.27273E+00
 -1      2201 7.03955E+00 4.44460E+01 8.18182E+00
 -1      2202 7.03955E+00 4.44460E+01 9.09091E+00
 -1      2203 4.69152E+01 7.43064E+00 9.09091E-01
 -1      2204 4.69152E+01 7.43064E+00 1.81818E+00
 -1      2205 4.69152E+01 7.43064E+00 2.72727E+00
 -1      2206 4.69152E+01 7.43064E+00 3.63636E+00
 -1      2207 4.69152E+01 7.43064E+00 4.54545E+00
 -1      2208 4.69152E+01 7.43064E+00 5.45455E+00
 -1      2209 4.69152E+01 7.43064E+00 6.36364E+00
 -1      2210 4.69152E+01 7.43064E+00 7.27273E+00
 -1      2211 4.69152E+01 7.43064E+00 8.18182E+00
 -1      2212 4.69152E+01 7.43064E+00 9.09091E+00
 -1      2213 4.51752E+01 1.46783E+01 9.09091E-01
 -1      2214 4.51752E+01 1.46783E+01 1.81818E+00
 -1      2215 4.51752E+01 1.46783E+01 2.72727E+00
 -1      2216 4.51752E+01 1.46783E+01 3.63636E+00
 -1      2217 4.51752E+01 1.46783E+01 4.54545E+00
 -1      2218 4.51752E+01 1.46783E+01 5.45455E+00
 -1      2219 4.51752E+01 1.46783E+01 6.36364E+00
 -1      2220 4.51752E+01 1.46783E+01 7.27273E+00
 -1      2221 4.51752E+01 1.46783E+01 8.18182E+00
 -1      2222 4.51752E+01 1.46783E+01 9.09091E+00
 -1      2223 4.23228E+01 2.15645E+01 9.09091E-01
 -1      2224 4.23228E+01 2.15645E+01 1.81818E+00
 -1      2225 4.23228E+01 2.15645E+01 2.72727E+00
 -1      2226 4.23228E+01 2.15645E+01 3.63636E+00
 -1      2227 4.23228E+01 2.15645E+01 4.54545E+00
 -1      2228 4.23228E+01 2.15645E+01 5.45455E+00
 -1      2229 4.23228E+01 2.15645E+01 6.36364E+00
 -1      2230 4.23228E+01 2.15645E+01 7.27273E+00
 -1      2231 4.23228E+01 2.15645E+01 8.18182E+00
 -1      2232 4.23228E+01 2.15645E+01 9.09091E+00
 -1      2233 3.84283E+01 2.79198E+01 9.09091E-01
 -1      2234 3.84283E+01 2.79198E+01 1.81818E+00
 -1      2235 3.84283E+01 2.79198E+01 2.72727E+00
 -1      2236 3.84283E+01 2.79198E+01 3.63636E+00
 -1      2237 3.84283E+01 2.79198E+01 4.54545E+00
 -1      2238 3.84283E+01 2.79198E+01 5.45455E+00
 -1      2239 3.84283E+01 2.79198E+01 6.36364E+00
 -1      2240 3.84283E+01 2.79198E+01 7.27273E+00
 -1      2241 3.84283E+01 2.79198E+01 8.18182E+00
 -1      2242 3.84283E+01 2.79198E+01 9.09091E+00
 -1      2243 3.35876E+01 3.35876E+01 9.09091E-01
 -1      2244 3.35876E+01 3.35876E+01 1.81818E+00
 -1      2245 3.35876E+01 3.35876E+01 2.72727E+00
 -1      2246 3.35876E+01 3.35876E+01 3.63636E+00
 -1      2247 3.35876E+01 3.35876E+01 4.54545E+00
 -1      2248 3.35876E+01 3.35876E+01 5.45455E+00
 -1      2249 3.35876E+01 3.35876E+01 6.36364E+00
 -1      2250 3.35876E+01 3.35876E+01 7.27273E+00
 -1      2251 3.35876E+01 3.35876E+01 8.18182E+00
 -1      2252 3.35876E+01 3.35876E+01 9.09091E+00
 -1      2253 2.79198E+01 3.84283E+01 9.09091E-01
 -1      2254 2.79198E+01 3.84283E+01 1.81818E+00
 -1      2255 2.79198E+01 3.84283E+01 2.72727E+00
 -1      2256 2.79198E+01 3.84283E+01 3.63636E+00
 -1      2257 2.79198E+01 3.84283E+01 4.54545E+00
 -1      2258 2.79198E+01 3.84283E+01 5.45455E+00
 -1      2259 2.79198E+01 3.84283E+01 6.36364E+00
 -1      2260 2.79198E+01 3.84283E+01 7.27273E+00
 -1      2261 2.79198E+01 3.84283E+01 8.18182E+00
 -1      2262 2.79198E+01 3.84283E+01 9.09091E+00
 -1      2263 2.15645E+01 4.23228E+01 9.09091E-01
 -1      2264 2.15645E+01 4.23228E+01 1.81818E+00
 -1      2265 2.15645E+01 4.23228E+01 2.72727E+00
 -1      2266 2.15645E+01 4.23228E+01 3.63636E+00
 -1      2267 2.15645E+01 4.23228E+01 4.54545E+00
 -1      2268 2.15645E+01 4.23228E+01 5.45455E+00
 -1      2269 2.15645E+01 4.23228E+01 6.36364E+00
 -1      2270 2.15645E+01 4.23228E+01 7.27273E+00
 -1      2271 2.15645E+01 4.23228E+01 8.18182E+00
 -1      2272 2.15645E+01 4.23228E+01 9.09091E+00
 -1      2273 1.46783E+01 4.51752E+01 9.09091E-01
 -1      2274 1.46783E+01 4.51752E+01 1.81818E+00
 -1      2275 1.46783E+01 4.51752E+01 2.72727E+00
 -1      2276 1.46783E+01 4.51752E+01 3.63636E+00
 -1      2277 1.46783E+01 4.51752E+01 4.54545E+00
 -1      2278 1.46783E+01 4.51752E+01 5.45455E+00
 -1      2279 1.46783E+01 4.51752E+01 6.36364E+00
 -1      2280 1.46783E+01 4.51752E+01 7.27273E+00
 -1      2281 1.46783E+01 4.51752E+01 8.18182E+00
 -1      2282 1.46783E+01 4.51752E+01 9.09091E+00
 -1      2283 7.43064E+00 4.69152E+01 9.09091E-01
 -1      2284 7.43064E+00 4.69152E+01 1.81818E+00
 -1      2285 7.43064E+00 4.69152E+01 2.72727E+00
 -1      2286 7.43064E+00 4.69152E+01 3.63636E+00
 -1      2287 7.43064E+00 4.69152E+01 4.54545E+00
 -1      2288 7.43064E+00 4.69152E+01 5.45455E+00
 -1      2289 7.43064E+00 4.69152E+01 6.36364E+00
 -1      2290 7.43064E+00 4.69152E+01 7.27273E+00
 -1      2291 7.43064E+00 4.69152E+01 8.18182E+00
 -1      2292 7.43064E+00 4.69152E+01 9.09091E+00
 -1      2293 4.93844E+01 7.82172E+00 9.09091E-01
 -1      2294 4.93844E+01 7.82172E+00 1.81818E+00
 -1      2295 4.93844E+01 7.82172E+00 2.72727E+00
 -1      2296 4.93844E+01 7.82172E+00 3.63636E+00
 -1      2297 4.93844E+01 7.82172E+00 4.54545E+00
 -1      2298 4.93844E+01 7.82172E+00 5.45455E+00
 -1      2299 4.93844E+01 7.82172E+00 6.36364E+00
 -1      2300 4.93844E+01 7.82172E+00 7.27273E+00
 -1      2301 4.93844E+01 7.82172E+00 8.18182E+00
 -1      2302 4.93844E+01 7.82172E+00 9.09091E+00
 -1      2303 4.75528E+01 1.54508E+01 9.09091E-01
 -1      2304 4.75528E+01 1.54508E+01 1.81818E+00
 -1      2305 4.75528E+01 1.54508E+01 2.72727E+00
 -1      2306 4.75528E+01 1.54508E+01 3.63636E+00
 -1      2307 4.75528E+01 1.54508E+01 4.54545E+00
 -1      2308 4.75528E+01 1.54508E+01 5.45455E+00
 -1      2309 4.75528E+01 1.54508E+01 6.36364E+00
 -1      2310 4.75528E+01 1.54508E+01 7.27273E+00
 -1      2311 4.75528E+01 1.54508E+01 8.18182E+00
 -1      2312 4.75528E+01 1.54508E+01 9.09091E+00
 -1      2313 4.45503E+01 2.26995E+01 9.09091E-01
 -1      2314 4.45503E+01 2.26995E+01 1.81818E+00
 -1      2315 4.45503E+01 2.26995E+01 2.72727E+00
 -1      2316 4.45503E+01 2.26995E+01 3.63636E+00
 -1      2317 4.45503E+01 2.26995E+01 4.54545E+00
 -1      2318 4.45503E+01 2.26995E+01 5.45455E+00
 -1      2319 4.45503E+01 2.26995E+01 6.36364E+00
 -1      2320 4.45503E+01 2.26995E+01 7.27273E+00
 -1      2321 4.45503E+01 2.26995E+01 8.18182E+00
 -1      2322 4.45503E+01 2.26995E+01 9.09091E+00
 -1      2323 4.04509E+01 2.93893E+01 9.09091E-01
 -1      2324 4.04509E+01 2.93893E+01 1.81818E+00
 -1      2325 4.04509E+01 2.93893E+01 2.72727E+00
 -1      2326 4.04509E+01 2.93893E+01 3.63636E+00
 -1      2327 4.04509E+01 2.93893E+01 4.54545E+00
 -1      2328 4.04509E+01 2.93893E+01 5.45455E+00
 -1      2329 4.04509E+01 2.93893E+01 6.36364E+00
 -1      2330 4.04509E+01 2.93893E+01 7.27273E+00
 -1      2331 4.04509E+01 2.93893E+01 8.18182E+00
 -1      2332 4.04509E+01 2.93893E+01 9.09091E+00
 -1      2333 3.53553E+01 3.53553E+01 9.09091E-01
 -1      2334 3.53553E+01 3.53553E+01 1.81818E+00
 -1      2335 3.53553E+01 3.53553E+01 2.72727E+00
 -1      2336 3.53553E+01 3.53553E+01 3.63636E+00
 -1      2337 3.53553E+01 3.53553E+01 4.54545E+00
 -1      2338 3.53553E+01 3.53553E+01 5.45455E+00
 -1      2339 3.53553E+01 3.53553E+01 6.36364E+00
 -1      2340 3.53553E+01 3.53553E+01 7.27273E+00
 -1      2341 3.53553E+01 3.53553E+01 8.18182E+00
 -1      2342 3.53553E+01 3.53553E+01 9.09091E+00
 -1      2343 2.93893E+01 4.04509E+01 9.09091E-01
 -1      2344 2.93893E+01 4.04509E+01 1.81818E+00
 -1      2345 2.93893E+01 4.04509E+01 2.72727E+00
 -1      2346 2.93893E+01 4.04509E+01 3.63636E+00
 -1      2347 2.93893E+01 4.04509E+01 4.54545E+00
 -1      2348 2.93893E+01 4.04509E+01 5.45455E+00
 -1      2349 2.93893E+01 4.04509E+01 6.36364E+00
 -1      2350 2.93893E+01 4.04509E+01 7.27273E+00
 -1      2351 2.93893E+01 4.04509E+01 8.18182E+00
 -1      2352 2.93893E+01 4.04509E+01 9.09091E+00
 -1      2353 2.26995E+01 4.45503E+01 9.09091E-01
 -1      2354 2.26995E+01 4.45503E+01 1.81818E+00
 -1      2355 2.26995E+01 4.45503E+01 2.72727E+00
 -1      2356 2.26995E+01 4.45503E+01 3.63636E+00
 -1      2357 2.26995E+01 4.45503E+01 4.54545E+00
 -1      2358 2.26995E+01 4.45503E+01 5.45455E+00
 -1      2359 2.26995E+01 4.45503E+01 6.36364E+00
 -1      2360 2.26995E+01 4.45503E+01 7.27273E+00
 -1      2361 2.26995E+01 4.45503E+01 8.18182E+00
 -1      2362 2.26995E+01 4.45503E+01 9.09091E+00
 -1      2363 1.54508E+01 4.75528E+01 9.09091E-01
 -1      2364 1.54508E+01 4.75528E+01 1.81818E+00
 -1      2365 1.54508E+01 4.75528E+01 2.72727E+00
 -1      2366 1.54508E+01 4.75528E+01 3.63636E+00
 -1      2367 1.54508E+01 4.75528E+01 4.54545E+00
 -1      2368 1.54508E+01 4.75528E+01 5.45455E+00
 -1      2369 1.54508E+01 4.75528E+01 6.36364E+00
 -1      2370 1.54508E+01 4.75528E+01 7.27273E+00
 -1      2371 1.54508E+01 4.75528E+01 8.18182E+00
 -1      2372 1.54508E+01 4.75528E+01 9.09091E+00
 -1      2373 7.82172E+00 4.93844E+01 9.09091E-01
 -1      2374 7.82172E+00 4.93844E+01 1.81818E+00
 -1      2375 7.82172E+00 4.93844E+01 2.72727E+00
 -1      2376 7.82172E+00 4.93844E+01 3.63636E+00
 -1      2377 7.82172E+00 4.93844E+01 4.54545E+00
 -1      2378 7.82172E+00 4.93844E+01 5.45455E+00
 -1      2379 7.82172E+00 4.93844E+01 6.36364E+00
 -1      2380 7.82172E+00 4.93844E+01 7.27273E+00
 -1      2381 7.82172E+00 4.93844E+01 8.18182E+00
 -1      2382 7.82172E+00 4.93844E+01 9.09091E+00
 -1      2383 5.18536E+01 8.21281E+00 9.09091E-01
 -1      2384 5.18536E+01 8.21281E+00 1.81818E+00
 -1      2385 5.18536E+01 8.21281E+00 2.72727E+00
 -1      2386 5.18536E+01 8.21281E+00 3.63636E+00
 -1      2387 5.18536E+01 8.21281E+00 4.54545E+00
 -1      2388 5.18536E+01 8.21281E+00 5.45455E+00
 -1      2389 5.18536E+01 8.21281E+00 6.36364E+00
 -1      2390 5.18536E+01 8.21281E+00 7.27273E+00
 -1      2391 5.18536E+01 8.21281E+00 8.18182E+00
 -1      2392 5.18536E+01 8.21281E+00 9.09091E+00
 -1      2393 4.99305E+01 1.62234E+01 9.09091E-01
 -1      2394 4.99305E+01 1.62234E+01 1.81818E+00
 -1      2395 4.99305E+01 1.62234E+01 2.72727E+00
 -1      2396 4.99305E+01 1.62234E+01 3.63636E+00
 -1      2397 4.99305E+01 1.62234E+01 4.54545E+00
 -1      2398 4.99305E+01 1.62234E+01 5.45455E+00
 -1      2399 4.99305E+01 1.62234E+01 6.36364E+00
 -1      2400 4.99305E+01 1.62234E+01 7.27273E+00
 -1      2401 4.99305E+01 1.62234E+01 8.18182E+00
 -1      2402 4.99305E+01 1.62234E+01 9.09091E+00
 -1      2403 4.67778E+01 2.38345E+01 9.09091E-01
 -1      2404 4.67778E+01 2.38345E+01 1.81818E+00
 -1      2405 4.67778E+01 2.38345E+01 2.72727E+00
 -1      2406 4.67778E+01 2.38345E+01 3.63636E+00
 -1      2407 4.67778E+01 2.38345E+01 4.54545E+00
 -1      2408 4.67778E+01 2.38345E+01 5.45455E+00
 -1      2409 4.67778E+01 2.38345E+01 6.36364E+00
 -1      2410 4.67778E+01 2.38345E+01 7.27273E+00
 -1      2411 4.67778E+01 2.38345E+01 8.18182E+00
 -1      2412 4.67778E+01 2.38345E+01 9.09091E+00
 -1      2413 4.24734E+01 3.08587E+01 9.09091E-01
 -1      2414 4.24734E+01 3.08587E+01 1.81818E+00
 -1      2415 4.24734E+01 3.08587E+01 2.72727E+00
 -1      2416 4.24734E+01 3.08587E+01 3.63636E+00
 -1      2417 4.24734E+01 3.08587E+01 4.54545E+00
 -1      2418 4.24734E+01 3.08587E+01 5.45455E+00
 -1      2419 4.24734E+01 3.08587E+01 6.36364E+00
 -1      2420 4.24734E+01 3.08587E+01 7.27273E+00
 -1      2421 4.24734E+01 3.08587E+01 8.18182E+00
 -1      2422 4.24734E+01 3.08587E+01 9.09091E+00
 -1      2423 3.71231E+01 3.71231E+01 9.09091E-01
 -1      2424 3.71231E+01 3.71231E+01 1.81818E+00
 -1      2425 3.71231E+01 3.71231E+01 2.72727E+00
 -1      2426 3.71231E+01 3.71231E+01 3.63636E+00
 -1      2427 3.71231E+01 3.71231E+01 4.54545E+00
 -1      2428 3.71231E+01 3.71231E+01 5.45455E+00
 -1      2429 3.71231E+01 3.71231E+01 6.36364E+00
 -1      2430 3.71231E+01 3.71231E+01 7.27273E+00
 -1      2431 3.71231E+01 3.71231E+01 8.18182E+00
 -1      2432 3.71231E+01 3.71231E+01 9.09091E+00
 -1      2433 3.08587E+01 4.24734E+01 9.09091E-01
 -1      2434 3.08587E+01 4.24734E+01 1.81818E+00
 -1      2435 3.08587E+01 4.24734E+01 2.72727E+00
 -1      2436 3.08587E+01 4.24734E+01 3.63636E+00
 -1      2437 3.08587E+01 4.24734E+01 4.54545E+00
 -1      2438 3.08587E+01 4.24734E+01 5.45455E+00
 -1      2439 3.08587E+01 4.24734E+01 6.36364E+00
 -1      2440 3.08587E+01 4.24734E+01 7.27273E+00
 -1      2441 3.08587E+01 4.24734E+01 8.18182E+00
 -1      2442 3.08587E+01 4.24734E+01 9.09091E+00
 -1      2443 2.38345E+01 4.67778E+01 9.09091E-01
 -1      2444 2.38345E+01 4.67778E+01 1.81818E+00
 -1      2445 2.38345E+01 4.67778E+01 2.72727E+00
 -1      2446 2.38345E+01 4.67778E+01 3.63636E+00
 -1      2447 2.38345E+01 4.67778E+01 4.54545E+00
 -1      2448 2.38345E+01 4.67778E+01 5.45455E+00
 -1      2449 2.38345E+01 4.67778E+01 6.36364E+00
 -1      2450 2.38345E+01 4.67778E+01 7.27273E+00
 -1      2451 2.38345E+01 4.67778E+01 8.18182E+00
 -1      2452 2.38345E+01 4.67778E+01 9.09091E+00
 -1      2453 1.62234E+01 4.99305E+01 9.09091E-01
 -1      2454 1.62234E+01 4.99305E+01 1.81818E+00
 -1      2455 1.62234E+01 4.99305E+01 2.72727E+00
 -1      2456 1.62234E+01 4.99305E+01 3.63636E+00
 -1      2457 1.62234E+01 4.99305E+01 4.54545E+00
 -1      2458 1.62234E+01 4.99305E+01 5.45455E+00
 -1      2459 1.62234E+01 4.99305E+01 6.36364E+00
 -1      2460 1.62234E+01 4.99305E+01 7.27273E+00
 -1      2461 1.62234E+01 4.99305E+01 8.18182E+00
 -1      2462 1.62234E+01 4.99305E+01 9.09091E+00
 -1      2463 8.21281E+00 5.18536E+01 9.09091E-01
 -1      2464 8.21281E+00 5.18536E+01 1.81818E+00
 -1      2465 8.21281E+00 5.18536E+01 2.72727E+00
 -1      2466 8.21281E+00 5.18536E+01 3.63636E+00
 -1      2467 8.21281E+00 5.18536E+01 4.54545E+00
 -1      2468 8.21281E+00 5.18536E+01 5.45455E+00
 -1      2469 8.21281E+00 5.18536E+01 6.36364E+00
 -1      2470 8.21281E+00 5.18536E+01 7.27273E+00
 -1      2471 8.21281E+00 5.18536E+01 8.18182E+00
 -1      2472 8.21281E+00 5.18536E+01 9.09091E+00
 -1      2473 5.43229E+01 8.60390E+00 9.09091E-01
 -1      2474 5.43229E+01 8.60390E+00 1.81818E+00
 -1      2475 5.43229E+01 8.60390E+00 2.72727E+00
 -1      2476 5.43229E+01 8.60390E+00 3.63636E+00
 -1      2477 5.43229E+01 8.60390E+00 4.54545E+00
 -1      2478 5.43229E+01 8.60390E+00 5.45455E+00
 -1      2479 5.43229E+01 8.60390E+00 6.36364E+00
 -1      2480 5.43229E+01 8.60390E+00 7.27273E+00
 -1      2481 5.43229E+01 8.60390E+00 8.18182E+00
 -1      2482 5.43229E+01 8.60390E+00 9.09091E+00
 -1      2483 5.23081E+01 1.69959E+01 9.09091E-01
 -1      2484 5.23081E+01 1.69959E+01 1.81818E+00
 -1      2485 5.23081E+01 1.69959E+01 2.72727E+00
 -1      2486 5.23081E+01 1.69959E+01 3.63636E+00
 -1      2487 5.23081E+01 1.69959E+01 4.54545E+00
 -1      2488 5.23081E+01 1.69959E+01 5.45455E+00
 -1      2489 5.23081E+01 1.69959E+01 6.36364E+00
 -1      2490 5.23081E+01 1.69959E+01 7.27273E+00
 -1      2491 5.23081E+01 1.69959E+01 8.18182E+00
 -1      2492 5.23081E+01 1.69959E+01 9.09091E+00
 -1      2493 4.90054E+01 2.49695E+01 9.09091E-01
 -1      2494 4.90054E+01 2.49695E+01 1.81818E+00
 -1      2495 4.90054E+01 2.49695E+01 2.72727E+00
 -1      2496 4.90054E+01 2.49695E+01 3.63636E+00
 -1      2497 4.90054E+01 2.49695E+01 4.54545E+00
 -1      2498 4.90054E+01 2.49695E+01 5.45455E+00
 -1      2499 4.90054E+01 2.49695E+01 6.36364E+00
 -1      2500 4.90054E+01 2.49695E+01 7.27273E+00
 -1      2501 4.90054E+01 2.49695E+01 8.18182E+00
 -1      2502 4.90054E+01 2.49695E+01 9.09091E+00
 -1      2503 4.44959E+01 3.23282E+01 9.09091E-01
 -1      2504 4.44959E+01 3.23282E+01 1.81818E+00
 -1      2505 4.44959E+01 3.23282E+01 2.72727E+00
 -1      2506 4.44959E+01 3.23282E+01 3.63636E+00
 -1      2507 4.44959E+01 3.23282E+01 4.54545E+00
 -1      2508 4.44959E+01 3.23282E+01 5.45455E+00
 -1      2509 4.44959E+01 3.23282E+01 6.36364E+00
 -1      2510 4.44959E+01 3.23282E+01 7.27273E+00
 -1      2511 4.44959E+01 3.23282E+01 8.18182E+00
 -1      2512 4.44959E+01 3.23282E+01 9.09091E+00
 -1      2513 3.88909E+01 3.88909E+01 9.09091E-01
 -1      2514 3.88909E+01 3.88909E+01 1.81818E+00
 -1      2515 3.88909E+01 3.88909E+01 2.72727E+00
 -1      2516 3.88909E+01 3.88909E+01 3.63636E+00
 -1      2517 3.88909E+01 3.88909E+01 4.54545E+00
 -1      2518 3.88909E+01 3.88909E+01 5.45455E+00
 -1      2519 3.88909E+01 3.88909E+01 6.36364E+00
 -1      2520 3.88909E+01 3.88909E+01 7.27273E+00
 -1      2521 3.88909E+01 3.88909E+01 8.18182E+00
 -1      2522 3.88909E+01 3.88909E+01 9.09091E+00
 -1      2523 3.23282E+01 4.44959E+01 9.09091E-01
 -1      2524 3.23282E+01 4.44959E+01 1.81818E+00
 -1      2525 3.23282E+01 4.44959E+01 2.72727E+00
 -1      2526 3.23282E+01 4.44959E+01 3.63636E+00
 -1      2527 3.23282E+01 4.44959E+01 4.54545E+00
 -1      2528 3.23282E+01 4.44959E+01 5.45455E+00
 -1      2529 3.23282E+01 4.44959E+01 6.36364E+00
 -1      2530 3.23282E+01 4.44959E+01 7.27273E+00
 -1      2531 3.23282E+01 4.44959E+01 8.18182E+00
 -1      2532 3.23282E+01 4.44959E+01 9.09091E+00
 -1      2533 2.49695E+01 4.90054E+01 9.09091E-01
 -1      2534 2.49695E+01 4.90054E+01 1.81818E+00
 -1      2535 2.49695E+01 4.90054E+01 2.72727E+00
 -1      2536 2.49695E+01 4.90054E+01 3.63636E+00
 -1      2537 2.49695E+01 4.90054E+01 4.54545E+00
 -1      2538 2.49695E+01 4.90054E+01 5.45455E+00
 -1      2539 2.49695E+01 4.90054E+01 6.36364E+00
 -1      2540 2.49695E+01 4.90054E+01 7.27273E+00
 -1      2541 2.49695E+01 4.90054E+01 8.18182E+00
 -1      2542 2.49695E+01 4.90054E+01 9.09091E+00
 -1      2543 1.69959E+01 5.23081E+01 9.09091E-01
 -1      2544 1.69959E+01 5.23081E+01 1.81818E+00
 -1      2545 1.69959E+01 5.23081E+01 2.72727E+00
 -1      2546 1.69959E+01 5.23081E+01 3.63636E+00
 -1      2547 1.69959E+01 5.23081E+01 4.54545E+00
 -1      2548 1.69959E+01 5.23081E+01 5.45455E+00
 -1      2549 1.69959E+01 5.23081E+01 6.36364E+00
 -1      2550 1.69959E+01 5.23081E+01 7.27273E+00
 -1      2551 1.69959E+01 5.23081E+01 8.18182E+00
 -1      2552 1.69959E+01 5.23081E+01 9.09091E+00
 -1      2553 8.60390E+00 5.43229E+01 9.09091E-01
 -1      2554 8.60390E+00 5.43229E+01 1.81818E+00
 -1      2555 8.60390E+00 5.43229E+01 2.72727E+00
 -1      2556 8.60390E+00 5.43229E+01 3.63636E+00
 -1      2557 8.60390E+00 5.43229E+01 4.54545E+00
 -1      2558 8.60390E+00 5.43229E+01 5.45455E+00
 -1      2559 8.60390E+00 5.43229E+01 6.36364E+00
 -1      2560 8.60390E+00 5.43229E+01 7.27273E+00
 -1      2561 8.60390E+00 5.43229E+01 8.18182E+00
 -1      2562 8.60390E+00 5.43229E+01 9.09091E+00
 -1      2563 5.67921E+01 8.99498E+00 9.09091E-01
 -1      2564 5.67921E+01 8.99498E+00 1.81818E+00
 -1      2565 5.67921E+01 8.99498E+00 2.72727E+00
 -1      2566 5.67921E+01 8.99498E+00 3.63636E+00
 -1      2567 5.67921E+01 8.99498E+00 4.54545E+00
 -1      2568 5.67921E+01 8.99498E+00 5.45455E+00
 -1      2569 5.67921E+01 8.99498E+00 6.36364E+00
 -1      2570 5.67921E+01 8.99498E+00 7.27273E+00
 -1      2571 5.67921E+01 8.99498E+00 8.18182E+00
 -1      2572 5.67921E+01 8.99498E+00 9.09091E+00
 -1      2573 5.46857E+01 1.77685E+01 9.09091E-01
 -1      2574 5.46857E+01 1.77685E+01 1.81818E+00
 -1      2575 5.46857E+01 1.77685E+01 2.72727E+00
 -1      2576 5.46857E+01 1.77685E+01 3.63636E+00
 -1      2577 5.46857E+01 1.77685E+01 4.54545E+00
 -1      2578 5.46857E+01 1.77685E+01 5.45455E+00
 -1      2579 5.46857E+01 1.77685E+01 6.36364E+00
 -1      2580 5.46857E+01 1.77685E+01 7.27273E+00
 -1      2581 5.46857E+01 1.77685E+01 8.18182E+00
 -1      2582 5.46857E+01 1.77685E+01 9.09091E+00
 -1      2583 5.12329E+01 2.61045E+01 9.09091E-01
 -1      2584 5.12329E+01 2.61045E+01 1.81818E+00
 -1      2585 5.12329E+01 2.61045E+01 2.72727E+00
 -1      2586 5.12329E+01 2.61045E+01 3.63636E+00
 -1      2587 5.12329E+01 2.61045E+01 4.54545E+00
 -1      2588 5.12329E+01 2.61045E+01 5.45455E+00
 -1      2589 5.12329E+01 2.61045E+01 6.36364E+00
 -1      2590 5.12329E+01 2.61045E+01 7.27273E+00
 -1      2591 5.12329E+01 2.61045E+01 8.18182E+00
 -1      2592 5.12329E+01 2.61045E+01 9.09091E+00
 -1      2593 4.65185E+01 3.37977E+01 9.09091E-01
 -1      2594 4.65185E+01 3.37977E+01 1.81818E+00
 -1      2595 4.65185E+01 3.37977E+01 2.72727E+00
 -1      2596 4.65185E+01 3.37977E+01 3.63636E+00
 -1      2597 4.65185E+01 3.37977E+01 4.54545E+00
 -1      2598 4.65185E+01 3.37977E+01 5.45455E+00
 -1      2599 4.65185E+01 3.37977E+01 6.36364E+00
 -1      2600 4.65185E+01 3.37977E+01 7.27273E+00
 -1      2601 4.65185E+01 3.37977E+01 8.18182E+00
 -1      2602 4.65185E+01 3.37977E+01 9.09091E+00
 -1      2603 4.06586E+01 4.06586E+01 9.09091E-01
 -1      2604 4.06586E+01 4.06586E+01 1.81818E+00
 -1      2605 4.06586E+01 4.06586E+01 2.72727E+00
 -1      2606 4.06586E+01 4.06586E+01 3.63636E+00
 -1      2607 4.06586E+01 4.06586E+01 4.54545E+00
 -1      2608 4.06586E+01 4.06586E+01 5.45455E+00
 -1      2609 4.06586E+01 4.06586E+01 6.36364E+00
 -1      2610 4.06586E+01 4.06586E+01 7.27273E+00
 -1      2611 4.06586E+01 4.06586E+01 8.18182E+00
 -1      2612 4.06586E+01 4.06586E+01 9.09091E+00
 -1      2613 3.37977E+01 4.65185E+01 9.09091E-01
 -1      2614 3.37977E+01 4.65185E+01 1.81818E+00
 -1      2615 3.37977E+01 4.65185E+01 2.72727E+00
 -1      2616 3.37977E+01 4.65185E+01 3.63636E+00
 -1      2617 3.37977E+01 4.65185E+01 4.54545E+00
 -1      2618 3.37977E+01 4.65185E+01 5.45455E+00
 -1      2619 3.37977E+01 4.65185E+01 6.36364E+00
 -1      2620 3.37977E+01 4.65185E+01 7.27273E+00
 -1      2621 3.37977E+01 4.65185E+01 8.18182E+00
 -1      2622 3.37977E+01 4.65185E+01 9.09091E+00
 -1      2623 2.61045E+01 5.12329E+01 9.09091E-01
 -1      2624 2.61045E+01 5.12329E+01 1.81818E+00
 -1      2625 2.61045E+01 5.12329E+01 2.72727E+00
 -1      2626 2.61045E+01 5.12329E+01 3.63636E+00
 -1      2627 2.61045E+01 5.12329E+01 4.54545E+00
 -1      2628 2.61045E+01 5.12329E+01 5.45455E+00
 -1      2629 2.61045E+01 5.12329E+01 6.36364E+00
 -1      2630 2.61045E+01 5.12329E+01 7.27273E+00
 -1      2631 2.61045E+01 5.12329E+01 8.18182E+00
 -1      2632 2.61045E+01 5.12329E+01 9.09091E+00
 -1      2633 1.77685E+01 5.46857E+01 9.09091E-01
 -1      2634 1.77685E+01 5.46857E+01 1.81818E+00
 -1      2635 1.77685E+01 5.46857E+01 2.72727E+00
 -1      2636 1.77685E+01 5.46857E+01 3.63636E+00
 -1      2637 1.77685E+01 5.46857E+01 4.54545E+00
 -1      2638 1.77685E+01 5.46857E+01 5.45455E+00
 -1      2639 1.77685E+01 5.46857E+01 6.36364E+00
 -1      2640 1.77685E+01 5.46857E+01 7.27273E+00
 -1      2641 1.77685E+01 5.46857E+01 8.18182E+00
 -1      2642 1.77685E+01 5.46857E+01 9.09091E+00
 -1      2643 8.99498E+00 5.67921E+01 9.09091E-01
 -1      2644 8.99498E+00 5.67921E+01 1.81818E+00
 -1      2645 8.99498E+00 5.67921E+01 2.72727E+00
 -1      2646 8.99498E+00 5.67921E+01 3.63636E+00
 -1      2647 8.99498E+00 5.67921E+01 4.54545E+00
 -1      2648 8.99498E+00 5.67921E+01 5.45455E+00
 -1      2649 8.99498E+00 5.67921E+01 6.36364E+00
 -1      2650 8.99498E+00 5.67921E+01 7.27273E+00
 -1      2651 8.99498E+00 5.67921E+01 8.18182E+00
 -1      2652 8.99498E+00 5.67921E+01 9.09091E+00
 -1      2653 5.92613E+01 9.38607E+00 9.09091E-01
 -1      2654 5.92613E+01 9.38607E+00 1.81818E+00
 -1      2655 5.92613E+01 9.38607E+00 2.72727E+00
 -1      2656 5.92613E+01 9.38607E+00 3.63636E+00
 -1      2657 5.92613E+01 9.38607E+00 4.54545E+00
 -1      2658 5.92613E+01 9.38607E+00 5.45455E+00
 -1      2659 5.92613E+01 9.38607E+00 6.36364E+00
 -1      2660 5.92613E+01 9.38607E+00 7.27273E+00
 -1      2661 5.92613E+01 9.38607E+00 8.18182E+00
 -1      2662 5.92613E+01 9.38607E+00 9.09091E+00
 -1      2663 5.70634E+01 1.85410E+01 9.09091E-01
 -1      2664 5.70634E+01 1.85410E+01 1.81818E+00
 -1      2665 5.70634E+01 1.85410E+01 2.72727E+00
 -1      2666 5.70634E+01 1.85410E+01 3.63636E+00
 -1      2667 5.70634E+01 1.85410E+01 4.54545E+00
 -1      2668 5.70634E+01 1.85410E+01 5.45455E+00
 -1      2669 5.70634E+01 1.85410E+01 6.36364E+00
 -1      2670 5.70634E+01 1.85410E+01 7.27273E+00
 -1      2671 5.70634E+01 1.85410E+01 8.18182E+00
 -1      2672 5.70634E+01 1.85410E+01 9.09091E+00
 -1      2673 5.34604E+01 2.72394E+01 9.09091E-01
 -1      2674 5.34604E+01 2.72394E+01 1.81818E+00
 -1      2675 5.34604E+01 2.72394E+01 2.72727E+00
 -1      2676 5.34604E+01 2.72394E+01 3.63636E+00
 -1      2677 5.34604E+01 2.72394E+01 4.54545E+00
 -1      2678 5.34604E+01 2.72394E+01 5.45455E+00
 -1      2679 5.34604E+01 2.72394E+01 6.36364E+00
 -1      2680 5.34604E+01 2.72394E+01 7.27273E+00
 -1      2681 5.34604E+01 2.72394E+01 8.18182E+00
 -1      2682 5.34604E+01 2.72394E+01 9.09091E+00
 -1      2683 4.85410E+01 3.52671E+01 9.09091E-01
 -1      2684 4.85410E+01 3.52671E+01 1.81818E+00
 -1      2685 4.85410E+01 3.52671E+01 2.72727E+00
 -1      2686 4.85410E+01 3.52671E+01 3.63636E+00
 -1      2687 4.85410E+01 3.52671E+01 4.54545E+00
 -1      2688 4.85410E+01 3.52671E+01 5.45455E+00
 -1      2689 4.85410E+01 3.52671E+01 6.36364E+00
 -1      2690 4.85410E+01 3.52671E+01 7.27273E+00
 -1      2691 4.85410E+01 3.52671E+01 8.18182E+00
 -1      2692 4.85410E+01 3.52671E+01 9.09091E+00
 -1      2693 4.24264E+01 4.24264E+01 9.09091E-01
 -1      2694 4.24264E+01 4.24264E+01 1.81818E+00
 -1      2695 4.24264E+01 4.24264E+01 2.72727E+00
 -1      2696 4.24264E+01 4.24264E+01 3.63636E+00
 -1      2697 4.24264E+01 4.24264E+01 4.54545E+00
 -1      2698 4.24264E+01 4.24264E+01 5.45455E+00
 -1      2699 4.24264E+01 4.24264E+01 6.36364E+00
 -1      2700 4.24264E+01 4.24264E+01 7.27273E+00
 -1      2701 4.24264E+01 4.24264E+01 8.18182E+00
 -1      2702 4.24264E+01 4.24264E+01 9.09091E+00
 -1      2703 3.52671E+01 4.85410E+01 9.09091E-01
 -1      2704 3.52671E+01 4.85410E+01 1.81818E+00
 -1      2705 3.52671E+01 4.85410E+01 2.72727E+00
 -1      2706 3.52671E+01 4.85410E+01 3.63636E+00
 -1      2707 3.52671E+01 4.85410E+01 4.54545E+00
 -1      2708 3.52671E+01 4.85410E+01 5.45455E+00
 -1      2709 3.52671E+01 4.85410E+01 6.36364E+00
 -1      2710 3.52671E+01 4.85410E+01 7.27273E+00
 -1      2711 3.52671E+01 4.85410E+01 8.18182E+00
 -1      2712 3.52671E+01 4.85410E+01 9.09091E+00
 -1      2713 2.72394E+01 5.34604E+01 9.09091E-01
 -1      2714 2.72394E+01 5.34604E+01 1.81818E+00
 -1      2715 2.72394E+01 5.34604E+01 2.72727E+00
 -1      2716 2.72394E+01 5.34604E+01 3.63636E+00
 -1      2717 2.72394E+01 5.34604E+01 4.54545E+00
 -1      2718 2.72394E+01 5.34604E+01 5.45455E+00
 -1      2719 2.72394E+01 5.34604E+01 6.36364E+00
 -1      2720 2.72394E+01 5.34604E+01 7.27273E+00
 -1      2721 2.72394E+01 5.34604E+01 8.18182E+00
 -1      2722 2.72394E+01 5.34604E+01 9.09091E+00
 -1      2723 1.85410E+01 5.70634E+01 9.09091E-01
 -1      2724 1.85410E+01 5.70634E+01 1.81818E+00
 -1      2725 1.85410E+01 5.70634E+01 2.72727E+00
 -1      2726 1.85410E+01 5.70634E+01 3.63636E+00
 -1      2727 1.85410E+01 5.70634E+01 4.54545E+00
 -1      2728 1.85410E+01 5.70634E+01 5.45455E+00
 -1      2729 1.85410E+01 5.70634E+01 6.36364E+00
 -1      2730 1.85410E+01 5.70634E+01 7.27273E+00
 -1      2731 1.85410E+01 5.70634E+01 8.18182E+00
 -1      2732 1.85410E+01 5.70634E+01 9.09091E+00
 -1      2733 9.38607E+00 5.92613E+01 9.09091E-01
 -1      2734 9.38607E+00 5.92613E+01 1.81818E+00
 -1      2735 9.38607E+00 5.92613E+01 2.72727E+00
 -1      2736 9.38607E+00 5.92613E+01 3.63636E+00
 -1      2737 9.38607E+00 5.92613E+01 4.54545E+00
 -1      2738 9.38607E+00 5.92613E+01 5.45455E+00
 -1      2739 9.38607E+00 5.92613E+01 6.36364E+00
 -1      2740 9.38607E+00 5.92613E+01 7.27273E+00
 -1      2741 9.38607E+00 5.92613E+01 8.18182E+00
 -1      2742 9.38607E+00 5.92613E+01 9.09091E+00
 -1      2743 6.17305E+01 9.77715E+00 9.09091E-01
 -1      2744 6.17305E+01 9.77715E+00 1.81818E+00
 -1      2745 6.17305E+01 9.77715E+00 2.72727E+00
 -1      2746 6.17305E+01 9.77715E+00 3.63636E+00
 -1      2747 6.17305E+01 9.77715E+00 4.54545E+00
 -1      2748 6.17305E+01 9.77715E+00 5.45455E+00
 -1      2749 6.17305E+01 9.77715E+00 6.36364E+00
 -1      2750 6.17305E+01 9.77715E+00 7.27273E+00
 -1      2751 6.17305E+01 9.77715E+00 8.18182E+00
 -1      2752 6.17305E+01 9.77715E+00 9.09091E+00
 -1      2753 5.94410E+01 1.93136E+01 9.09091E-01
 -1      2754 5.94410E+01 1.93136E+01 1.81818E+00
 -1      2755 5.94410E+01 1.93136E+01 2.72727E+00
 -1      2756 5.94410E+01 1.93136E+01 3.63636E+00
 -1      2757 5.94410E+01 1.93136E+01 4.54545E+00
 -1      2758 5.94410E+01 1.93136E+01 5.45455E+00
 -1      2759 5.94410E+01 1.93136E+01 6.36364E+00
 -1      2760 5.94410E+01 1.93136E+01 7.27273E+00
 -1      2761 5.94410E+01 1.93136E+01 8.18182E+00
 -1      2762 5.94410E+01 1.93136E+01 9.09091E+00
 -1      2763 5.56879E+01 2.83744E+01 9.09091E-01
 -1      2764 5.56879E+01 2.83744E+01 1.81818E+00
 -1      2765 5.56879E+01 2.83744E+01 2.72727E+00
 -1      2766 5.56879E+01 2.83744E+01 3.63636E+00
 -1      2767 5.56879E+01 2.83744E+01 4.54545E+00
 -1      2768 5.56879E+01 2.83744E+01 5.45455E+00
 -1      2769 5.56879E+01 2.83744E+01 6.36364E+00
 -1      2770 5.56879E+01 2.83744E+01 7.27273E+00
 -1      2771 5.56879E+01 2.83744E+01 8.18182E+00
 -1      2772 5.56879E+01 2.83744E+01 9.09091E+00
 -1      2773 5.05636E+01 3.67366E+01 9.09091E-01
 -1      2774 5.05636E+01 3.67366E+01 1.81818E+00
 -1      2775 5.05636E+01 3.67366E+01 2.72727E+00
 -1      2776 5.05636E+01 3.67366E+01 3.63636E+00
 -1      2777 5.05636E+01 3.67366E+01 4.54545E+00
 -1      2778 5.05636E+01 3.67366E+01 5.45455E+00
 -1      2779 5.05636E+01 3.67366E+01 6.36364E+00
 -1      2780 5.05636E+01 3.67366E+01 7.27273E+00
 -1      2781 5.05636E+01 3.67366E+01 8.18182E+00
 -1      2782 5.05636E+01 3.67366E+01 9.09091E+00
 -1      2783 4.41942E+01 4.41942E+01 9.09091E-01
 -1      2784 4.41942E+01 4.41942E+01 1.81818E+00
 -1      2785 4.41942E+01 4.41942E+01 2.72727E+00
 -1      2786 4.41942E+01 4.41942E+01 3.63636E+00
 -1      2787 4.41942E+01 4.41942E+01 4.54545E+00
 -1      2788 4.41942E+01 4.41942E+01 5.45455E+00
 -1      2789 4.41942E+01 4.41942E+01 6.36364E+00
 -1      2790 4.41942E+01 4.41942E+01 7.27273E+00
 -1      2791 4.41942E+01 4.41942E+01 8.18182E+00
 -1      2792 4.41942E+01 4.41942E+01 9.09091E+00
 -1      2793 3.67366E+01 5.05636E+01 9.09091E-01
 -1      2794 3.67366E+01 5.05636E+01 1.81818E+00
 -1      2795 3.67366E+01 5.05636E+01 2.72727E+00
 -1      2796 3.67366E+01 5.05636E+01 3.63636E+00
 -1      2797 3.67366E+01 5.05636E+01 4.54545E+00
 -1      2798 3.67366E+01 5.05636E+01 5.45455E+00
 -1      2799 3.67366E+01 5.05636E+01 6.36364E+00
 -1      2800 3.67366E+01 5.05636E+01 7.27273E+00
 -1      2801 3.67366E+01 5.05636E+01 8.18182E+00
 -1      2802 3.67366E+01 5.05636E+01 9.09091E+00
 -1      2803 2.83744E+01 5.56879E+01 9.09091E-01
 -1      2804 2.83744E+01 5.56879E+01 1.81818E+00
 -1      2805 2.83744E+01 5.56879E+01 2.72727E+00
 -1      2806 2.83744E+01 5.56879E+01 3.63636E+00
 -1      2807 2.83744E+01 5.56879E+01 4.54545E+00
 -1      2808 2.83744E+01 5.56879E+01 5.45455E+00
 -1      2809 2.83744E+01 5.56879E+01 6.36364E+00
 -1      2810 2.83744E+01 5.56879E+01 7.27273E+00
 -1      2811 2.83744E+01 5.56879E+01 8.18182E+00
 -1      2812 2.83744E+01 5.56879E+01 9.09091E+00
 -1      2813 1.93136E+01 5.94410E+01 9.09091E-01
 -1      2814 1.93136E+01 5.94410E+01 1.81818E+00
 -1      2815 1.93136E+01 5.94410E+01 2.72727E+00
 -1      2816 1.93136E+01 5.94410E+01 3.63636E+00
 -1      2817 1.93136E+01 5.94410E+01 4.54545E+00
 -1      2818 1.93136E+01 5.94410E+01 5.45455E+00
 -1      2819 1.93136E+01 5.94410E+01 6.36364E+00
 -1      2820 1.93136E+01 5.94410E+01 7.27273E+00
 -1      2821 1.93136E+01 5.94410E+01 8.18182E+00
 -1      2822 1.93136E+01 5.94410E+01 9.09091E+00
 -1      2823 9.77715E+00 6.17305E+01 9.09091E-01
 -1      2824 9.77715E+00 6.17305E+01 1.81818E+00
 -1      2825 9.77715E+00 6.17305E+01 2.72727E+00
 -1      2826 9.77715E+00 6.17305E+01 3.63636E+00
 -1      2827 9.77715E+00 6.17305E+01 4.54545E+00
 -1      2828 9.77715E+00 6.17305E+01 5.45455E+00
 -1      2829 9.77715E+00 6.17305E+01 6.36364E+00
 -1      2830 9.77715E+00 6.17305E+01 7.27273E+00
 -1      2831 9.77715E+00 6.17305E+01 8.18182E+00
 -1      2832 9.77715E+00 6.17305E+01 9.09091E+00
 -1      2833 6.41997E+01 1.01682E+01 9.09091E-01
 -1      2834 6.41997E+01 1.01682E+01 1.81818E+00
 -1      2835 6.41997E+01 1.01682E+01 2.72727E+00
 -1      2836 6.41997E+01 1.01682E+01 3.63636E+00
 -1      2837 6.41997E+01 1.01682E+01 4.54545E+00
 -1      2838 6.41997E+01 1.01682E+01 5.45455E+00
 -1      2839 6.41997E+01 1.01682E+01 6.36364E+00
 -1      2840 6.41997E+01 1.01682E+01 7.27273E+00
 -1      2841 6.41997E+01 1.01682E+01 8.18182E+00
 -1      2842 6.41997E+01 1.01682E+01 9.09091E+00
 -1      2843 6.18187E+01 2.00861E+01 9.09091E-01
 -1      2844 6.18187E+01 2.00861E+01 1.81818E+00
 -1      2845 6.18187E+01 2.00861E+01 2.72727E+00
 -1      2846 6.18187E+01 2.00861E+01 3.63636E+00
 -1      2847 6.18187E+01 2.00861E+01 4.54545E+00
 -1      2848 6.18187E+01 2.00861E+01 5.45455E+00
 -1      2849 6.18187E+01 2.00861E+01 6.36364E+00
 -1      2850 6.18187E+01 2.00861E+01 7.27273E+00
 -1      2851 6.18187E+01 2.00861E+01 8.18182E+00
 -1      2852 6.18187E+01 2.00861E+01 9.09091E+00
 -1      2853 5.79154E+01 2.95094E+01 9.09091E-01
 -1      2854 5.79154E+01 2.95094E+01 1.81818E+00
 -1      2855 5.79154E+01 2.95094E+01 2.72727E+00
 -1      2856 5.79154E+01 2.95094E+01 3.63636E+00
 -1      2857 5.79154E+01 2.95094E+01 4.54545E+00
 -1      2858 5.79154E+01 2.95094E+01 5.45455E+00
 -1      2859 5.79154E+01 2.95094E+01 6.36364E+00
 -1      2860 5.79154E+01 2.95094E+01 7.27273E+00
 -1      2861 5.79154E+01 2.95094E+01 8.18182E+00
 -1      2862 5.79154E+01 2.95094E+01 9.09091E+00
 -1      2863 5.25861E+01 3.82060E+01 9.09091E-01
 -1      2864 5.25861E+01 3.82060E+01 1.81818E+00
 -1      2865 5.25861E+01 3.82060E+01 2.72727E+00
 -1      2866 5.25861E+01 3.82060E+01 3.63636E+00
 -1      2867 5.25861E+01 3.82060E+01 4.54545E+00
 -1      2868 5.25861E+01 3.82060E+01 5.45455E+00
 -1      2869 5.25861E+01 3.82060E+01 6.36364E+00
 -1      2870 5.25861E+01 3.82060E+01 7.27273E+00
 -1      2871 5.25861E+01 3.82060E+01 8.18182E+00
 -1      2872 5.25861E+01 3.82060E+01 9.09091E+00
 -1      2873 4.59619E+01 4.59619E+01 9.09091E-01
 -1      2874 4.59619E+01 4.59619E+01 1.81818E+00
 -1      2875 4.59619E+01 4.59619E+01 2.72727E+00
 -1      2876 4.59619E+01 4.59619E+01 3.63636E+00
 -1      2877 4.59619E+01 4.59619E+01 4.54545E+00
 -1      2878 4.59619E+01 4.59619E+01 5.45455E+00
 -1      2879 4.59619E+01 4.59619E+01 6.36364E+00
 -1      2880 4.59619E+01 4.59619E+01 7.27273E+00
 -1      2881 4.59619E+01 4.59619E+01 8.18182E+00
 -1      2882 4.59619E+01 4.59619E+01 9.09091E+00
 -1      2883 3.82060E+01 5.25861E+01 9.09091E-01
 -1      2884 3.82060E+01 5.25861E+01 1.81818E+00
 -1      2885 3.82060E+01 5.25861E+01 2.72727E+00
 -1      2886 3.82060E+01 5.25861E+01 3.63636E+00
 -1      2887 3.82060E+01 5.25861E+01 4.54545E+00
 -1      2888 3.82060E+01 5.25861E+01 5.45455E+00
 -1      2889 3.82060E+01 5.25861E+01 6.36364E+00
 -1      2890 3.82060E+01 5.25861E+01 7.27273E+00
 -1      2891 3.82060E+01 5.25861E+01 8.18182E+00
 -1      2892 3.82060E+01 5.25861E+01 9.09091E+00
 -1      2893 2.95094E+01 5.79154E+01 9.09091E-01
 -1      2894 2.95094E+01 5.79154E+01 1.81818E+00
 -1      2895 2.95094E+01 5.79154E+01 2.72727E+00
 -1      2896 2.95094E+01 5.79154E+01 3.63636E+00
 -1      2897 2.95094E+01 5.79154E+01 4.54545E+00
 -1      2898 2.95094E+01 5.79154E+01 5.45455E+00
 -1      2899 2.95094E+01 5.79154E+01 6.36364E+00
 -1      2900 2.95094E+01 5.79154E+01 7.27273E+00
 -1      2901 2.95094E+01 5.79154E+01 8.18182E+00
 -1      2902 2.95094E+01 5.79154E+01 9.09091E+00
 -1      2903 2.00861E+01 6.18187E+01 9.09091E-01
 -1      2904 2.00861E+01 6.18187E+01 1.81818E+00
 -1      2905 2.00861E+01 6.18187E+01 2.72727E+00
 -1      2906 2.00861E+01 6.18187E+01 3.63636E+00
 -1      2907 2.00861E+01 6.18187E+01 4.54545E+00
 -1      2908 2.00861E+01 6.18187E+01 5.45455E+00
 -1      2909 2.00861E+01 6.18187E+01 6.36364E+00
 -1      2910 2.00861E+01 6.18187E+01 7.27273E+00
 -1      2911 2.00861E+01 6.18187E+01 8.18182E+00
 -1      2912 2.00861E+01 6.18187E+01 9.09091E+00
 -1      2913 1.01682E+01 6.41997E+01 9.09091E-01
 -1      2914 1.01682E+01 6.41997E+01 1.81818E+00
 -1      2915 1.01682E+01 6.41997E+01 2.72727E+00
 -1      2916 1.01682E+01 6.41997E+01 3.63636E+00
 -1      2917 1.01682E+01 6.41997E+01 4.54545E+00
 -1      2918 1.01682E+01 6.41997E+01 5.45455E+00
 -1      2919 1.01682E+01 6.41997E+01 6.36364E+00
 -1      2920 1.01682E+01 6.41997E+01 7.27273E+00
 -1      2921 1.01682E+01 6.41997E+01 8.18182E+00
 -1      2922 1.01682E+01 6.41997E+01 9.09091E+00
 -1      2923 6.66690E+01 1.05593E+01 9.09091E-01
 -1      2924 6.66690E+01 1.05593E+01 1.81818E+00
 -1      2925 6.66690E+01 1.05593E+01 2.72727E+00
 -1      2926 6.66690E+01 1.05593E+01 3.63636E+00
 -1      2927 6.66690E+01 1.05593E+01 4.54545E+00
 -1      2928 6.66690E+01 1.05593E+01 5.45455E+00
 -1      2929 6.66690E+01 1.05593E+01 6.36364E+00
 -1      2930 6.66690E+01 1.05593E+01 7.27273E+00
 -1      2931 6.66690E+01 1.05593E+01 8.18182E+00
 -1      2932 6.66690E+01 1.05593E+01 9.09091E+00
 -1      2933 6.41963E+01 2.08586E+01 9.09091E-01
 -1      2934 6.41963E+01 2.08586E+01 1.81818E+00
 -1      2935 6.41963E+01 2.08586E+01 2.72727E+00
 -1      2936 6.41963E+01 2.08586E+01 3.63636E+00
 -1      2937 6.41963E+01 2.08586E+01 4.54545E+00
 -1      2938 6.41963E+01 2.08586E+01 5.45455E+00
 -1      2939 6.41963E+01 2.08586E+01 6.36364E+00
 -1      2940 6.41963E+01 2.08586E+01 7.27273E+00
 -1      2941 6.41963E+01 2.08586E+01 8.18182E+00
 -1      2942 6.41963E+01 2.08586E+01 9.09091E+00
 -1      2943 6.01429E+01 3.06444E+01 9.09091E-01
 -1      2944 6.01429E+01 3.06444E+01 1.81818E+00
 -1      2945 6.01429E+01 3.06444E+01 2.72727E+00
 -1      2946 6.01429E+01 3.06444E+01 3.63636E+00
 -1      2947 6.01429E+01 3.06444E+01 4.54545E+00
 -1      2948 6.01429E+01 3.06444E+01 5.45455E+00
 -1      2949 6.01429E+01 3.06444E+01 6.36364E+00
 -1      2950 6.01429E+01 3.06444E+01 7.27273E+00
 -1      2951 6.01429E+01 3.06444E+01 8.18182E+00
 -1      2952 6.01429E+01 3.06444E+01 9.09091E+00
 -1      2953 5.46086E+01 3.96755E+01 9.09091E-01
 -1      2954 5.46086E+01 3.96755E+01 1.81818E+00
 -1      2955 5.46086E+01 3.96755E+01 2.72727E+00
 -1      2956 5.46086E+01 3.96755E+01 3.63636E+00
 -1      2957 5.46086E+01 3.96755E+01 4.54545E+00
 -1      2958 5.46086E+01 3.96755E+01 5.45455E+00
 -1      2959 5.46086E+01 3.96755E+01 6.36364E+00
 -1      2960 5.46086E+01 3.96755E+01 7.27273E+00
 -1      2961 5.46086E+01 3.96755E+01 8.18182E+00
 -1      2962 5.46086E+01 3.96755E+01 9.09091E+00
 -1      2963 4.77297E+01 4.77297E+01 9.09091E-01
 -1      2964 4.77297E+01 4.77297E+01 1.81818E+00
 -1      2965 4.77297E+01 4.77297E+01 2.72727E+00
 -1      2966 4.77297E+01 4.77297E+01 3.63636E+00
 -1      2967 4.77297E+01 4.77297E+01 4.54545E+00
 -1      2968 4.77297E+01 4.77297E+01 5.45455E+00
 -1      2969 4.77297E+01 4.77297E+01 6.36364E+00
 -1      2970 4.77297E+01 4.77297E+01 7.27273E+00
 -1      2971 4.77297E+01 4.77297E+01 8.18182E+00
 -1      2972 4.77297E+01 4.77297E+01 9.09091E+00
 -1      2973 3.96755E+01 5.46086E+01 9.09091E-01
 -1      2974 3.96755E+01 5.46086E+01 1.81818E+00
 -1      2975 3.96755E+01 5.46086E+01 2.72727E+00
 -1      2976 3.96755E+01 5.46086E+01 3.63636E+00
 -1      2977 3.96755E+01 5.46086E+01 4.54545E+00
 -1      2978 3.96755E+01 5.46086E+01 5.45455E+00
 -1      2979 3.96755E+01 5.46086E+01 6.36364E+00
 -1      2980 3.96755E+01 5.46086E+01 7.27273E+00
 -1      2981 3.96755E+01 5.46086E+01 8.18182E+00
 -1      2982 3.96755E+01 5.46086E+01 9.09091E+00
 -1      2983 3.06444E+01 6.01429E+01 9.09091E-01
 -1      2984 3.06444E+01 6.01429E+01 1.81818E+00
 -1      2985 3.06444E+01 6.01429E+01 2.72727E+00
 -1      2986 3.06444E+01 6.01429E+01 3.63636E+00
 -1      2987 3.06444E+01 6.01429E+01 4.54545E+00
 -1      2988 3.06444E+01 6.01429E+01 5.45455E+00
 -1      2989 3.06444E+01 6.01429E+01 6.36364E+00
 -1      2990 3.06444E+01 6.01429E+01 7.27273E+00
 -1      2991 3.06444E+01 6.01429E+01 8.18182E+00
 -1      2992 3.06444E+01 6.01429E+01 9.09091E+00
 -1      2993 2.08586E+01 6.41963E+01 9.09091E-01
 -1      2994 2.08586E+01 6.41963E+01 1.81818E+00
 -1      2995 2.08586E+01 6.41963E+01 2.72727E+00
 -1      2996 2.08586E+01 6.41963E+01 3.63636E+00
 -1      2997 2.08586E+01 6.41963E+01 4.54545E+00
 -1      2998 2.08586E+01 6.41963E+01 5.45455E+00
 -1      2999 2.08586E+01 6.41963E+01 6.36364E+00
 -1      3000 2.08586E+01 6.41963E+01 7.27273E+00
 -1      3001 2.08586E+01 6.41963E+01 8.18182E+00
 -1      3002 2.08586E+01 6.41963E+01 9.09091E+00
 -1      3003 1.05593E+01 6.66690E+01 9.09091E-01
 -1      3004 1.05593E+01 6.66690E+01 1.81818E+00
 -1      3005 1.05593E+01 6.66690E+01 2.72727E+00
 -1      3006 1.05593E+01 6.66690E+01 3.63636E+00
 -1      3007 1.05593E+01 6.66690E+01 4.54545E+00
 -1      3008 1.05593E+01 6.66690E+01 5.45455E+00
 -1      3009 1.05593E+01 6.66690E+01 6.36364E+00
 -1      3010 1.05593E+01 6.66690E+01 7.27273E+00
 -1      3011 1.05593E+01 6.66690E+01 8.18182E+00
 -1      3012 1.05593E+01 6.66690E+01 9.09091E+00
 -1      3013 6.91382E+01 1.09504E+01 9.09091E-01
 -1      3014 6.91382E+01 1.09504E+01 1.81818E+00
 -1      3015 6.91382E+01 1.09504E+01 2.72727E+00
 -1      3016 6.91382E+01 1.09504E+01 3.63636E+00
 -1      3017 6.91382E+01 1.09504E+01 4.54545E+00
 -1      3018 6.91382E+01 1.09504E+01 5.45455E+00
 -1      3019 6.91382E+01 1.09504E+01 6.36364E+00
 -1      3020 6.91382E+01 1.09504E+01 7.27273E+00
 -1      3021 6.91382E+01 1.09504E+01 8.18182E+00
 -1      3022 6.91382E+01 1.09504E+01 9.09091E+00
 -1      3023 6.65740E+01 2.16312E+01 9.09091E-01
 -1      3024 6.65740E+01 2.16312E+01 1.81818E+00
 -1      3025 6.65740E+01 2.16312E+01 2.72727E+00
 -1      3026 6.65740E+01 2.16312E+01 3.63636E+00
 -1      3027 6.65740E+01 2.16312E+01 4.54545E+00
 -1      3028 6.65740E+01 2.16312E+01 5.45455E+00
 -1      3029 6.65740E+01 2.16312E+01 6.36364E+00
 -1      3030 6.65740E+01 2.16312E+01 7.27273E+00
 -1      3031 6.65740E+01 2.16312E+01 8.18182E+00
 -1      3032 6.65740E+01 2.16312E+01 9.09091E+00
 -1      3033 6.23705E+01 3.17793E+01 9.09091E-01
 -1      3034 6.23705E+01 3.17793E+01 1.81818E+00
 -1      3035 6.23705E+01 3.17793E+01 2.72727E+00
 -1      3036 6.23705E+01 3.17793E+01 3.63636E+00
 -1      3037 6.23705E+01 3.17793E+01 4.54545E+00
 -1      3038 6.23705E+01 3.17793E+01 5.45455E+00
 -1      3039 6.23705E+01 3.17793E+01 6.36364E+00
 -1      3040 6.23705E+01 3.17793E+01 7.27273E+00
 -1      3041 6.23705E+01 3.17793E+01 8.18182E+00
 -1      3042 6.23705E+01 3.17793E+01 9.09091E+00
 -1      3043 5.66312E+01 4.11450E+01 9.09091E-01
 -1      3044 5.66312E+01 4.11450E+01 1.81818E+00
 -1      3045 5.66312E+01 4.11450E+01 2.72727E+00
 -1      3046 5.66312E+01 4.11450E+01 3.63636E+00
 -1      3047 5.66312E+01 4.11450E+01 4.54545E+00
 -1      3048 5.66312E+01 4.11450E+01 5.45455E+00
 -1      3049 5.66312E+01 4.11450E+01 6.36364E+00
 -1      3050 5.66312E+01 4.11450E+01 7.27273E+00
 -1      3051 5.66312E+01 4.11450E+01 8.18182E+00
 -1      3052 5.66312E+01 4.11450E+01 9.09091E+00
 -1      3053 4.94975E+01 4.94975E+01 9.09091E-01
 -1      3054 4.94975E+01 4.94975E+01 1.81818E+00
 -1      3055 4.94975E+01 4.94975E+01 2.72727E+00
 -1      3056 4.94975E+01 4.94975E+01 3.63636E+00
 -1      3057 4.94975E+01 4.94975E+01 4.54545E+00
 -1      3058 4.94975E+01 4.94975E+01 5.45455E+00
 -1      3059 4.94975E+01 4.94975E+01 6.36364E+00
 -1      3060 4.94975E+01 4.94975E+01 7.27273E+00
 -1      3061 4.94975E+01 4.94975E+01 8.18182E+00
 -1      3062 4.94975E+01 4.94975E+01 9.09091E+00
 -1      3063 4.11450E+01 5.66312E+01 9.09091E-01
 -1      3064 4.11450E+01 5.66312E+01 1.81818E+00
 -1      3065 4.11450E+01 5.66312E+01 2.72727E+00
 -1      3066 4.11450E+01 5.66312E+01 3.63636E+00
 -1      3067 4.11450E+01 5.66312E+01 4.54545E+00
 -1      3068 4.11450E+01 5.66312E+01 5.45455E+00
 -1      3069 4.11450E+01 5.66312E+01 6.36364E+00
 -1      3070 4.11450E+01 5.66312E+01 7.27273E+00
 -1      3071 4.11450E+01 5.66312E+01 8.18182E+00
 -1      3072 4.11450E+01 5.66312E+01 9.09091E+00
 -1      3073 3.17793E+01 6.23705E+01 9.09091E-01
 -1      3074 3.17793E+01 6.23705E+01 1.81818E+00
 -1      3075 3.17793E+01 6.23705E+01 2.72727E+00
 -1      3076 3.17793E+01 6.23705E+01 3.63636E+00
 -1      3077 3.17793E+01 6.23705E+01 4.54545E+00
 -1      3078 3.17793E+01 6.23705E+01 5.45455E+00
 -1      3079 3.17793E+01 6.23705E+01 6.36364E+00
 -1      3080 3.17793E+01 6.23705E+01 7.27273E+00
 -1      3081 3.17793E+01 6.23705E+01 8.18182E+00
 -1      3082 3.17793E+01 6.23705E+01 9.09091E+00
 -1      3083 2.16312E+01 6.65740E+01 9.09091E-01
 -1      3084 2.16312E+01 6.65740E+01 1.81818E+00
 -1      3085 2.16312E+01 6.65740E+01 2.72727E+00
 -1      3086 2.16312E+01 6.65740E+01 3.63636E+00
 -1      3087 2.16312E+01 6.65740E+01 4.54545E+00
 -1      3088 2.16312E+01 6.65740E+01 5.45455E+00
 -1      3089 2.16312E+01 6.65740E+01 6.36364E+00
 -1      3090 2.16312E+01 6.65740E+01 7.27273E+00
 -1      3091 2.16312E+01 6.65740E+01 8.18182E+00
 -1      3092 2.16312E+01 6.65740E+01 9.09091E+00
 -1      3093 1.09504E+01 6.91382E+01 9.09091E-01
 -1      3094 1.09504E+01 6.91382E+01 1.81818E+00
 -1      3095 1.09504E+01 6.91382E+01 2.72727E+00
 -1      3096 1.09504E+01 6.91382E+01 3.63636E+00
 -1      3097 1.09504E+01 6.91382E+01 4.54545E+00
 -1      3098 1.09504E+01 6.91382E+01 5.45455E+00
 -1      3099 1.09504E+01 6.91382E+01 6.36364E+00
 -1      3100 1.09504E+01 6.91382E+01 7.27273E+00
 -1      3101 1.09504E+01 6.91382E+01 8.18182E+00
 -1      3102 1.09504E+01 6.91382E+01 9.09091E+00
 -1      3103 7.16074E+01 1.13415E+01 9.09091E-01
 -1      3104 7.16074E+01 1.13415E+01 1.81818E+00
 -1      3105 7.16074E+01 1.13415E+01 2.72727E+00
 -1      3106 7.16074E+01 1.13415E+01 3.63636E+00
 -1      3107 7.16074E+01 1.13415E+01 4.54545E+00
 -1      3108 7.16074E+01 1.13415E+01 5.45455E+00
 -1      3109 7.16074E+01 1.13415E+01 6.36364E+00
 -1      3110 7.16074E+01 1.13415E+01 7.27273E+00
 -1      3111 7.16074E+01 1.13415E+01 8.18182E+00
 -1      3112 7.16074E+01 1.13415E+01 9.09091E+00
 -1      3113 6.89516E+01 2.24037E+01 9.09091E-01
 -1      3114 6.89516E+01 2.24037E+01 1.81818E+00
 -1      3115 6.89516E+01 2.24037E+01 2.72727E+00
 -1      3116 6.89516E+01 2.24037E+01 3.63636E+00
 -1      3117 6.89516E+01 2.24037E+01 4.54545E+00
 -1      3118 6.89516E+01 2.24037E+01 5.45455E+00
 -1      3119 6.89516E+01 2.24037E+01 6.36364E+00
 -1      3120 6.89516E+01 2.24037E+01 7.27273E+00
 -1      3121 6.89516E+01 2.24037E+01 8.18182E+00
 -1      3122 6.89516E+01 2.24037E+01 9.09091E+00
 -1      3123 6.45980E+01 3.29143E+01 9.09091E-01
 -1      3124 6.45980E+01 3.29143E+01 1.81818E+00
 -1      3125 6.45980E+01 3.29143E+01 2.72727E+00
 -1      3126 6.45980E+01 3.29143E+01 3.63636E+00
 -1      3127 6.45980E+01 3.29143E+01 4.54545E+00
 -1      3128 6.45980E+01 3.29143E+01 5.45455E+00
 -1      3129 6.45980E+01 3.29143E+01 6.36364E+00
 -1      3130 6.45980E+01 3.29143E+01 7.27273E+00
 -1      3131 6.45980E+01 3.29143E+01 8.18182E+00
 -1      3132 6.45980E+01 3.29143E+01 9.09091E+00
 -1      3133 5.86537E+01 4.26144E+01 9.09091E-01
 -1      3134 5.86537E+01 4.26144E+01 1.81818E+00
 -1      3135 5.86537E+01 4.26144E+01 2.72727E+00
 -1      3136 5.86537E+01 4.26144E+01 3.63636E+00
 -1      3137 5.86537E+01 4.26144E+01 4.54545E+00
 -1      3138 5.86537E+01 4.26144E+01 5.45455E+00
 -1      3139 5.86537E+01 4.26144E+01 6.36364E+00
 -1      3140 5.86537E+01 4.26144E+01 7.27273E+00
 -1      3141 5.86537E+01 4.26144E+01 8.18182E+00
 -1      3142 5.86537E+01 4.26144E+01 9.09091E+00
 -1      3143 5.12652E+01 5.12652E+01 9.09091E-01
 -1      3144 5.12652E+01 5.12652E+01 1.81818E+00
 -1      3145 5.12652E+01 5.12652E+01 2.72727E+00
 -1      3146 5.12652E+01 5.12652E+01 3.63636E+00
 -1      3147 5.12652E+01 5.12652E+01 4.54545E+00
 -1      3148 5.12652E+01 5.12652E+01 5.45455E+00
 -1      3149 5.12652E+01 5.12652E+01 6.36364E+00
 -1      3150 5.12652E+01 5.12652E+01 7.27273E+00
 -1      3151 5.12652E+01 5.12652E+01 8.18182E+00
 -1      3152 5.12652E+01 5.12652E+01 9.09091E+00
 -1      3153 4.26144E+01 5.86537E+01 9.09091E-01
 -1      3154 4.26144E+01 5.86537E+01 1.81818E+00
 -1      3155 4.26144E+01 5.86537E+01 2.72727E+00
 -1      3156 4.26144E+01 5.86537E+01 3.63636E+00
 -1      3157 4.26144E+01 5.86537E+01 4.54545E+00
 -1      3158 4.26144E+01 5.86537E+01 5.45455E+00
 -1      3159 4.26144E+01 5.86537E+01 6.36364E+00
 -1      3160 4.26144E+01 5.86537E+01 7.27273E+00
 -1      3161 4.26144E+01 5.86537E+01 8.18182E+00
 -1      3162 4.26144E+01 5.86537E+01 9.09091E+00
 -1      3163 3.29143E+01 6.45980E+01 9.09091E-01
 -1      3164 3.29143E+01 6.45980E+01 1.81818E+00
 -1      3165 3.29143E+01 6.45980E+01 2.72727E+00
 -1      3166 3.29143E+01 6.45980E+01 3.63636E+00
 -1      3167 3.29143E+01 6.45980E+01 4.54545E+00
 -1      3168 3.29143E+01 6.45980E+01 5.45455E+00
 -1      3169 3.29143E+01 6.45980E+01 6.36364E+00
 -1      3170 3.29143E+01 6.45980E+01 7.27273E+00
 -1      3171 3.29143E+01 6.45980E+01 8.18182E+00
 -1      3172 3.29143E+01 6.45980E+01 9.09091E+00
 -1      3173 2.24037E+01 6.89516E+01 9.09091E-01
 -1      3174 2.24037E+01 6.89516E+01 1.81818E+00
 -1      3175 2.24037E+01 6.89516E+01 2.72727E+00
 -1      3176 2.24037E+01 6.89516E+01 3.63636E+00
 -1      3177 2.24037E+01 6.89516E+01 4.54545E+00
 -1      3178 2.24037E+01 6.89516E+01 5.45455E+00
 -1      3179 2.24037E+01 6.89516E+01 6.36364E+00
 -1      3180 2.24037E+01 6.89516E+01 7.27273E+00
 -1      3181 2.24037E+01 6.89516E+01 8.18182E+00
 -1      3182 2.24037E+01 6.89516E+01 9.09091E+00
 -1      3183 1.13415E+01 7.16074E+01 9.09091E-01
 -1      3184 1.13415E+01 7.16074E+01 1.81818E+00
 -1      3185 1.13415E+01 7.16074E+01 2.72727E+00
 -1      3186 1.13415E+01 7.16074E+01 3.63636E+00
 -1      3187 1.13415E+01 7.16074E+01 4.54545E+00
 -1      3188 1.13415E+01 7.16074E+01 5.45455E+00
 -1      3189 1.13415E+01 7.16074E+01 6.36364E+00
 -1      3190 1.13415E+01 7.16074E+01 7.27273E+00
 -1      3191 1.13415E+01 7.16074E+01 8.18182E+00
 -1      3192 1.13415E+01 7.16074E+01 9.09091E+00
 -1      3193 7.40766E+01 1.17326E+01 9.09091E-01
 -1      3194 7.40766E+01 1.17326E+01 1.81818E+00
 -1      3195 7.40766E+01 1.17326E+01 2.72727E+00
 -1      3196 7.40766E+01 1.17326E+01 3.63636E+00
 -1      3197 7.40766E+01 1.17326E+01 4.54545E+00
 -1      3198 7.40766E+01 1.17326E+01 5.45455E+00
 -1      3199 7.40766E+01 1.17326E+01 6.36364E+00
 -1      3200 7.40766E+01 1.17326E+01 7.27273E+00
 -1      3201 7.40766E+01 1.17326E+01 8.18182E+00
 -1      3202 7.40766E+01 1.17326E+01 9.09091E+00
 -1      3203 7.13292E+01 2.31763E+01 9.09091E-01
 -1      3204 7.13292E+01 2.31763E+01 1.81818E+00
 -1      3205 7.13292E+01 2.31763E+01 2.72727E+00
 -1      3206 7.13292E+01 2.31763E+01 3.63636E+00
 -1      3207 7.13292E+01 2.31763E+01 4.54545E+00
 -1      3208 7.13292E+01 2.31763E+01 5.45455E+00
 -1      3209 7.13292E+01 2.31763E+01 6.36364E+00
 -1      3210 7.13292E+01 2.31763E+01 7.27273E+00
 -1      3211 7.13292E+01 2.31763E+01 8.18182E+00
 -1      3212 7.13292E+01 2.31763E+01 9.09091E+00
 -1      3213 6.68255E+01 3.40493E+01 9.09091E-01
 -1      3214 6.68255E+01 3.40493E+01 1.81818E+00
 -1      3215 6.68255E+01 3.40493E+01 2.72727E+00
 -1      3216 6.68255E+01 3.40493E+01 3.63636E+00
 -1      3217 6.68255E+01 3.40493E+01 4.54545E+00
 -1      3218 6.68255E+01 3.40493E+01 5.45455E+00
 -1      3219 6.68255E+01 3.40493E+01 6.36364E+00
 -1      3220 6.68255E+01 3.40493E+01 7.27273E+00
 -1      3221 6.68255E+01 3.40493E+01 8.18182E+00
 -1      3222 6.68255E+01 3.40493E+01 9.09091E+00
 -1      3223 6.06763E+01 4.40839E+01 9.09091E-01
 -1      3224 6.06763E+01 4.40839E+01 1.81818E+00
 -1      3225 6.06763E+01 4.40839E+01 2.72727E+00
 -1      3226 6.06763E+01 4.40839E+01 3.63636E+00
 -1      3227 6.06763E+01 4.40839E+01 4.54545E+00
 -1      3228 6.06763E+01 4.40839E+01 5.45455E+00
 -1      3229 6.06763E+01 4.40839E+01 6.36364E+00
 -1      3230 6.06763E+01 4.40839E+01 7.27273E+00
 -1      3231 6.06763E+01 4.40839E+01 8.18182E+00
 -1      3232 6.06763E+01 4.40839E+01 9.09091E+00
 -1      3233 5.30330E+01 5.30330E+01 9.09091E-01
 -1      3234 5.30330E+01 5.30330E+01 1.81818E+00
 -1      3235 5.30330E+01 5.30330E+01 2.72727E+00
 -1      3236 5.30330E+01 5.30330E+01 3.63636E+00
 -1      3237 5.30330E+01 5.30330E+01 4.54545E+00
 -1      3238 5.30330E+01 5.30330E+01 5.45455E+00
 -1      3239 5.30330E+01 5.30330E+01 6.36364E+00
 -1      3240 5.30330E+01 5.30330E+01 7.27273E+00
 -1      3241 5.30330E+01 5.30330E+01 8.18182E+00
 -1      3242 5.30330E+01 5.30330E+01 9.09091E+00
 -1      3243 4.40839E+01 6.06763E+01 9.09091E-01
 -1      3244 4.40839E+01 6.06763E+01 1.81818E+00
 -1      3245 4.40839E+01 6.06763E+01 2.72727E+00
 -1      3246 4.40839E+01 6.06763E+01 3.63636E+00
 -1      3247 4.40839E+01 6.06763E+01 4.54545E+00
 -1      3248 4.40839E+01 6.06763E+01 5.45455E+00
 -1      3249 4.40839E+01 6.06763E+01 6.36364E+00
 -1      3250 4.40839E+01 6.06763E+01 7.27273E+00
 -1      3251 4.40839E+01 6.06763E+01 8.18182E+00
 -1      3252 4.40839E+01 6.06763E+01 9.09091E+00
 -1      3253 3.40493E+01 6.68255E+01 9.09091E-01
 -1      3254 3.40493E+01 6.68255E+01 1.81818E+00
 -1      3255 3.40493E+01 6.68255E+01 2.72727E+00
 -1      3256 3.40493E+01 6.68255E+01 3.63636E+00
 -1      3257 3.40493E+01 6.68255E+01 4.54545E+00
 -1      3258 3.40493E+01 6.68255E+01 5.45455E+00
 -1      3259 3.40493E+01 6.68255E+01 6.36364E+00
 -1      3260 3.40493E+01 6.68255E+01 7.27273E+00
 -1      3261 3.40493E+01 6.68255E+01 8.18182E+00
 -1      3262 3.40493E+01 6.68255E+01 9.09091E+00
 -1      3263 2.31763E+01 7.13292E+01 9.09091E-01
 -1      3264 2.31763E+01 7.13292E+01 1.81818E+00
 -1      3265 2.31763E+01 7.13292E+01 2.72727E+00
 -1      3266 2.31763E+01 7.13292E+01 3.63636E+00
 -1      3267 2.31763E+01 7.13292E+01 4.54545E+00
 -1      3268 2.31763E+01 7.13292E+01 5.45455E+00
 -1      3269 2.31763E+01 7.13292E+01 6.36364E+00
 -1      3270 2.31763E+01 7.13292E+01 7.27273E+00
 -1      3271 2.31763E+01 7.13292E+01 8.18182E+00
 -1      3272 2.31763E+01 7.13292E+01 9.09091E+00
 -1      3273 1.17326E+01 7.40766E+01 9.09091E-01
 -1      3274 1.17326E+01 7.40766E+01 1.81818E+00
 -1      3275 1.17326E+01 7.40766E+01 2.72727E+00
 -1      3276 1.17326E+01 7.40766E+01 3.63636E+00
 -1      3277 1.17326E+01 7.40766E+01 4.54545E+00
 -1      3278 1.17326E+01 7.40766E+01 5.45455E+00
 -1      3279 1.17326E+01 7.40766E+01 6.36364E+00
 -1      3280 1.17326E+01 7.40766E+01 7.27273E+00
 -1      3281 1.17326E+01 7.40766E+01 8.18182E+00
 -1      3282 1.17326E+01 7.40766E+01 9.09091E+00
 -1      3283 7.65458E+01 1.21237E+01 9.09091E-01
 -1      3284 7.65458E+01 1.21237E+01 1.81818E+00
 -1      3285 7.65458E+01 1.21237E+01 2.72727E+00
 -1      3286 7.65458E+01 1.21237E+01 3.63636E+00
 -1      3287 7.65458E+01 1.21237E+01 4.54545E+00
 -1      3288 7.65458E+01 1.21237E+01 5.45455E+00
 -1      3289 7.65458E+01 1.21237E+01 6.36364E+00
 -1      3290 7.65458E+01 1.21237E+01 7.27273E+00
 -1      3291 7.65458E+01 1.21237E+01 8.18182E+00
 -1      3292 7.65458E+01 1.21237E+01 9.09091E+00
 -1      3293 7.37069E+01 2.39488E+01 9.09091E-01
 -1      3294 7.37069E+01 2.39488E+01 1.81818E+00
 -1      3295 7.37069E+01 2.39488E+01 2.72727E+00
 -1      3296 7.37069E+01 2.39488E+01 3.63636E+00
 -1      3297 7.37069E+01 2.39488E+01 4.54545E+00
 -1      3298 7.37069E+01 2.39488E+01 5.45455E+00
 -1      3299 7.37069E+01 2.39488E+01 6.36364E+00
 -1      3300 7.37069E+01 2.39488E+01 7.27273E+00
 -1      3301 7.37069E+01 2.39488E+01 8.18182E+00
 -1      3302 7.37069E+01 2.39488E+01 9.09091E+00
 -1      3303 6.90530E+01 3.51843E+01 9.09091E-01
 -1      3304 6.90530E+01 3.51843E+01 1.81818E+00
 -1      3305 6.90530E+01 3.51843E+01 2.72727E+00
 -1      3306 6.90530E+01 3.51843E+01 3.63636E+00
 -1      3307 6.90530E+01 3.51843E+01 4.54545E+00
 -1      3308 6.90530E+01 3.51843E+01 5.45455E+00
 -1      3309 6.90530E+01 3.51843E+01 6.36364E+00
 -1      3310 6.90530E+01 3.51843E+01 7.27273E+00
 -1      3311 6.90530E+01 3.51843E+01 8.18182E+00
 -1      3312 6.90530E+01 3.51843E+01 9.09091E+00
 -1      3313 6.26988E+01 4.55534E+01 9.09091E-01
 -1      3314 6.26988E+01 4.55534E+01 1.81818E+00
 -1      3315 6.26988E+01 4.55534E+01 2.72727E+00
 -1      3316 6.26988E+01 4.55534E+01 3.63636E+00
 -1      3317 6.26988E+01 4.55534E+01 4.54545E+00
 -1      3318 6.26988E+01 4.55534E+01 5.45455E+00
 -1      3319 6.26988E+01 4.55534E+01 6.36364E+00
 -1      3320 6.26988E+01 4.55534E+01 7.27273E+00
 -1      3321 6.26988E+01 4.55534E+01 8.18182E+00
 -1      3322 6.26988E+01 4.55534E+01 9.09091E+00
 -1      3323 5.48008E+01 5.48008E+01 9.09091E-01
 -1      3324 5.48008E+01 5.48008E+01 1.81818E+00
 -1      3325 5.48008E+01 5.48008E+01 2.72727E+00
 -1      3326 5.48008E+01 5.48008E+01 3.63636E+00
 -1      3327 5.48008E+01 5.48008E+01 4.54545E+00
 -1      3328 5.48008E+01 5.48008E+01 5.45455E+00
 -1      3329 5.48008E+01 5.48008E+01 6.36364E+00
 -1      3330 5.48008E+01 5.48008E+01 7.27273E+00
 -1      3331 5.48008E+01 5.48008E+01 8.18182E+00
 -1      3332 5.48008E+01 5.48008E+01 9.09091E+00
 -1      3333 4.55534E+01 6.26988E+01 9.09091E-01
 -1      3334 4.55534E+01 6.26988E+01 1.81818E+00
 -1      3335 4.55534E+01 6.26988E+01 2.72727E+00
 -1      3336 4.55534E+01 6.26988E+01 3.63636E+00
 -1      3337 4.55534E+01 6.26988E+01 4.54545E+00
 -1      3338 4.55534E+01 6.26988E+01 5.45455E+00
 -1      3339 4.55534E+01 6.26988E+01 6.36364E+00
 -1      3340 4.55534E+01 6.26988E+01 7.27273E+00
 -1      3341 4.55534E+01 6.26988E+01 8.18182E+00
 -1      3342 4.55534E+01 6.26988E+01 9.09091E+00
 -1      3343 3.51843E+01 6.90530E+01 9.09091E-01
 -1      3344 3.51843E+01 6.90530E+01 1.81818E+00
 -1      3345 3.51843E+01 6.90530E+01 2.72727E+00
 -1      3346 3.51843E+01 6.90530E+01 3.63636E+00
 -1      3347 3.51843E+01 6.90530E+01 4.54545E+00
 -1      3348 3.51843E+01 6.90530E+01 5.45455E+00
 -1      3349 3.51843E+01 6.90530E+01 6.36364E+00
 -1      3350 3.51843E+01 6.90530E+01 7.27273E+00
 -1      3351 3.51843E+01 6.90530E+01 8.18182E+00
 -1      3352 3.51843E+01 6.90530E+01 9.09091E+00
 -1      3353 2.39488E+01 7.37069E+01 9.09091E-01
 -1      3354 2.39488E+01 7.37069E+01 1.81818E+00
 -1      3355 2.39488E+01 7.37069E+01 2.72727E+00
 -1      3356 2.39488E+01 7.37069E+01 3.63636E+00
 -1      3357 2.39488E+01 7.37069E+01 4.54545E+00
 -1      3358 2.39488E+01 7.37069E+01 5.45455E+00
 -1      3359 2.39488E+01 7.37069E+01 6.36364E+00
 -1      3360 2.39488E+01 7.37069E+01 7.27273E+00
 -1      3361 2.39488E+01 7.37069E+01 8.18182E+00
 -1      3362 2.39488E+01 7.37069E+01 9.09091E+00
 -1      3363 1.21237E+01 7.65458E+01 9.09091E-01
 -1      3364 1.21237E+01 7.65458E+01 1.81818E+00
 -1      3365 1.21237E+01 7.65458E+01 2.72727E+00
 -1      3366 1.21237E+01 7.65458E+01 3.63636E+00
 -1      3367 1.21237E+01 7.65458E+01 4.54545E+00
 -1      3368 1.21237E+01 7.65458E+01 5.45455E+00
 -1      3369 1.21237E+01 7.65458E+01 6.36364E+00
 -1      3370 1.21237E+01 7.65458E+01 7.27273E+00
 -1      3371 1.21237E+01 7.65458E+01 8.18182E+00
 -1      3372 1.21237E+01 7.65458E+01 9.09091E+00
 -1      3373 7.90151E+01 1.25148E+01 9.09091E-01
 -1      3374 7.90151E+01 1.25148E+01 1.81818E+00
 -1      3375 7.90151E+01 1.25148E+01 2.72727E+00
 -1      3376 7.90151E+01 1.25148E+01 3.63636E+00
 -1      3377 7.90151E+01 1.25148E+01 4.54545E+00
 -1      3378 7.90151E+01 1.25148E+01 5.45455E+00
 -1      3379 7.90151E+01 1.25148E+01 6.36364E+00
 -1      3380 7.90151E+01 1.25148E+01 7.27273E+00
 -1      3381 7.90151E+01 1.25148E+01 8.18182E+00
 -1      3382 7.90151E+01 1.25148E+01 9.09091E+00
 -1      3383 7.60845E+01 2.47214E+01 9.09091E-01
 -1      3384 7.60845E+01 2.47214E+01 1.81818E+00
 -1      3385 7.60845E+01 2.47214E+01 2.72727E+00
 -1      3386 7.60845E+01 2.47214E+01 3.63636E+00
 -1      3387 7.60845E+01 2.47214E+01 4.54545E+00
 -1      3388 7.60845E+01 2.47214E+01 5.45455E+00
 -1      3389 7.60845E+01 2.47214E+01 6.36364E+00
 -1      3390 7.60845E+01 2.47214E+01 7.27273E+00
 -1      3391 7.60845E+01 2.47214E+01 8.18182E+00
 -1      3392 7.60845E+01 2.47214E+01 9.09091E+00
 -1      3393 7.12805E+01 3.63192E+01 9.09091E-01
 -1      3394 7.12805E+01 3.63192E+01 1.81818E+00
 -1      3395 7.12805E+01 3.63192E+01 2.72727E+00
 -1      3396 7.12805E+01 3.63192E+01 3.63636E+00
 -1      3397 7.12805E+01 3.63192E+01 4.54545E+00
 -1      3398 7.12805E+01 3.63192E+01 5.45455E+00
 -1      3399 7.12805E+01 3.63192E+01 6.36364E+00
 -1      3400 7.12805E+01 3.63192E+01 7.27273E+00
 -1      3401 7.12805E+01 3.63192E+01 8.18182E+00
 -1      3402 7.12805E+01 3.63192E+01 9.09091E+00
 -1      3403 6.47214E+01 4.70228E+01 9.09091E-01
 -1      3404 6.47214E+01 4.70228E+01 1.81818E+00
 -1      3405 6.47214E+01 4.70228E+01 2.72727E+00
 -1      3406 6.47214E+01 4.70228E+01 3.63636E+00
 -1      3407 6.47214E+01 4.70228E+01 4.54545E+00
 -1      3408 6.47214E+01 4.70228E+01 5.45455E+00
 -1      3409 6.47214E+01 4.70228E+01 6.36364E+00
 -1      3410 6.47214E+01 4.70228E+01 7.27273E+00
 -1      3411 6.47214E+01 4.70228E+01 8.18182E+00
 -1      3412 6.47214E+01 4.70228E+01 9.09091E+00
 -1      3413 5.65685E+01 5.65685E+01 9.09091E-01
 -1      3414 5.65685E+01 5.65685E+01 1.81818E+00
 -1      3415 5.65685E+01 5.65685E+01 2.72727E+00
 -1      3416 5.65685E+01 5.65685E+01 3.63636E+00
 -1      3417 5.65685E+01 5.65685E+01 4.54545E+00
 -1      3418 5.65685E+01 5.65685E+01 5.45455E+00
 -1      3419 5.65685E+01 5.65685E+01 6.36364E+00
 -1      3420 5.65685E+01 5.65685E+01 7.27273E+00
 -1      3421 5.65685E+01 5.65685E+01 8.18182E+00
 -1      3422 5.65685E+01 5.65685E+01 9.09091E+00
 -1      3423 4.70228E+01 6.47214E+01 9.09091E-01
 -1      3424 4.70228E+01 6.47214E+01 1.81818E+00
 -1      3425 4.70228E+01 6.47214E+01 2.72727E+00
 -1      3426 4.70228E+01 6.47214E+01 3.63636E+00
 -1      3427 4.70228E+01 6.47214E+01 4.54545E+00
 -1      3428 4.70228E+01 6.47214E+01 5.45455E+00
 -1      3429 4.70228E+01 6.47214E+01 6.36364E+00
 -1      3430 4.70228E+01 6.47214E+01 7.27273E+00
 -1      3431 4.70228E+01 6.47214E+01 8.18182E+00
 -1      3432 4.70228E+01 6.47214E+01 9.09091E+00
 -1      3433 3.63192E+01 7.12805E+01 9.09091E-01
 -1      3434 3.63192E+01 7.12805E+01 1.81818E+00
 -1      3435 3.63192E+01 7.12805E+01 2.72727E+00
 -1      3436 3.63192E+01 7.12805E+01 3.63636E+00
 -1      3437 3.63192E+01 7.12805E+01 4.54545E+00
 -1      3438 3.63192E+01 7.12805E+01 5.45455E+00
 -1      3439 3.63192E+01 7.12805E+01 6.36364E+00
 -1      3440 3.63192E+01 7.12805E+01 7.27273E+00
 -1      3441 3.63192E+01 7.12805E+01 8.18182E+00
 -1      3442 3.63192E+01 7.12805E+01 9.09091E+00
 -1      3443 2.47214E+01 7.60845E+01 9.09091E-01
 -1      3444 2.47214E+01 7.60845E+01 1.81818E+00
 -1      3445 2.47214E+01 7.60845E+01 2.72727E+00
 -1      3446 2.47214E+01 7.60845E+01 3.63636E+00
 -1      3447 2.47214E+01 7.60845E+01 4.54545E+00
 -1      3448 2.47214E+01 7.60845E+01 5.45455E+00
 -1      3449 2.47214E+01 7.60845E+01 6.36364E+00
 -1      3450 2.47214E+01 7.60845E+01 7.27273E+00
 -1      3451 2.47214E+01 7.60845E+01 8.18182E+00
 -1      3452 2.47214E+01 7.60845E+01 9.09091E+00
 -1      3453 1.25148E+01 7.90151E+01 9.09091E-01
 -1      3454 1.25148E+01 7.90151E+01 1.81818E+00
 -1      3455 1.25148E+01 7.90151E+01 2.72727E+00
 -1      3456 1.25148E+01 7.90151E+01 3.63636E+00
 -1      3457 1.25148E+01 7.90151E+01 4.54545E+00
 -1      3458 1.25148E+01 7.90151E+01 5.45455E+00
 -1      3459 1.25148E+01 7.90151E+01 6.36364E+00
 -1      3460 1.25148E+01 7.90151E+01 7.27273E+00
 -1      3461 1.25148E+01 7.90151E+01 8.18182E+00
 -1      3462 1.25148E+01 7.90151E+01 9.09091E+00
 -1      3463 8.14843E+01 1.29058E+01 9.09091E-01
 -1      3464 8.14843E+01 1.29058E+01 1.81818E+00
 -1      3465 8.14843E+01 1.29058E+01 2.72727E+00
 -1      3466 8.14843E+01 1.29058E+01 3.63636E+00
 -1      3467 8.14843E+01 1.29058E+01 4.54545E+00
 -1      3468 8.14843E+01 1.29058E+01 5.45455E+00
 -1      3469 8.14843E+01 1.29058E+01 6.36364E+00
 -1      3470 8.14843E+01 1.29058E+01 7.27273E+00
 -1      3471 8.14843E+01 1.29058E+01 8.18182E+00
 -1      3472 8.14843E+01 1.29058E+01 9.09091E+00
 -1      3473 7.84622E+01 2.54939E+01 9.09091E-01
 -1      3474 7.84622E+01 2.54939E+01 1.81818E+00
 -1      3475 7.84622E+01 2.54939E+01 2.72727E+00
 -1      3476 7.84622E+01 2.54939E+01 3.63636E+00
 -1      3477 7.84622E+01 2.54939E+01 4.54545E+00
 -1      3478 7.84622E+01 2.54939E+01 5.45455E+00
 -1      3479 7.84622E+01 2.54939E+01 6.36364E+00
 -1      3480 7.84622E+01 2.54939E+01 7.27273E+00
 -1      3481 7.84622E+01 2.54939E+01 8.18182E+00
 -1      3482 7.84622E+01 2.54939E+01 9.09091E+00
 -1      3483 7.35080E+01 3.74542E+01 9.09091E-01
 -1      3484 7.35080E+01 3.74542E+01 1.81818E+00
 -1      3485 7.35080E+01 3.74542E+01 2.72727E+00
 -1      3486 7.35080E+01 3.74542E+01 3.63636E+00
 -1      3487 7.35080E+01 3.74542E+01 4.54545E+00
 -1      3488 7.35080E+01 3.74542E+01 5.45455E+00
 -1      3489 7.35080E+01 3.74542E+01 6.36364E+00
 -1      3490 7.35080E+01 3.74542E+01 7.27273E+00
 -1      3491 7.35080E+01 3.74542E+01 8.18182E+00
 -1      3492 7.35080E+01 3.74542E+01 9.09091E+00
 -1      3493 6.67439E+01 4.84923E+01 9.09091E-01
 -1      3494 6.67439E+01 4.84923E+01 1.81818E+00
 -1      3495 6.67439E+01 4.84923E+01 2.72727E+00
 -1      3496 6.67439E+01 4.84923E+01 3.63636E+00
 -1      3497 6.67439E+01 4.84923E+01 4.54545E+00
 -1      3498 6.67439E+01 4.84923E+01 5.45455E+00
 -1      3499 6.67439E+01 4.84923E+01 6.36364E+00
 -1      3500 6.67439E+01 4.84923E+01 7.27273E+00
 -1      3501 6.67439E+01 4.84923E+01 8.18182E+00
 -1      3502 6.67439E+01 4.84923E+01 9.09091E+00
 -1      3503 5.83363E+01 5.83363E+01 9.09091E-01
 -1      3504 5.83363E+01 5.83363E+01 1.81818E+00
 -1      3505 5.83363E+01 5.83363E+01 2.72727E+00
 -1      3506 5.83363E+01 5.83363E+01 3.63636E+00
 -1      3507 5.83363E+01 5.83363E+01 4.54545E+00
 -1      3508 5.83363E+01 5.83363E+01 5.45455E+00
 -1      3509 5.83363E+01 5.83363E+01 6.36364E+00
 -1      3510 5.83363E+01 5.83363E+01 7.27273E+00
 -1      3511 5.83363E+01 5.83363E+01 8.18182E+00
 -1      3512 5.83363E+01 5.83363E+01 9.09091E+00
 -1      3513 4.84923E+01 6.67439E+01 9.09091E-01
 -1      3514 4.84923E+01 6.67439E+01 1.81818E+00
 -1      3515 4.84923E+01 6.67439E+01 2.72727E+00
 -1      3516 4.84923E+01 6.67439E+01 3.63636E+00
 -1      3517 4.84923E+01 6.67439E+01 4.54545E+00
 -1      3518 4.84923E+01 6.67439E+01 5.45455E+00
 -1      3519 4.84923E+01 6.67439E+01 6.36364E+00
 -1      3520 4.84923E+01 6.67439E+01 7.27273E+00
 -1      3521 4.84923E+01 6.67439E+01 8.18182E+00
 -1      3522 4.84923E+01 6.67439E+01 9.09091E+00
 -1      3523 3.74542E+01 7.35080E+01 9.09091E-01
 -1      3524 3.74542E+01 7.35080E+01 1.81818E+00
 -1      3525 3.74542E+01 7.35080E+01 2.72727E+00
 -1      3526 3.74542E+01 7.35080E+01 3.63636E+00
 -1      3527 3.74542E+01 7.35080E+01 4.54545E+00
 -1      3528 3.74542E+01 7.35080E+01 5.45455E+00
 -1      3529 3.74542E+01 7.35080E+01 6.36364E+00
 -1      3530 3.74542E+01 7.35080E+01 7.27273E+00
 -1      3531 3.74542E+01 7.35080E+01 8.18182E+00
 -1      3532 3.74542E+01 7.35080E+01 9.09091E+00
 -1      3533 2.54939E+01 7.84622E+01 9.09091E-01
 -1      3534 2.54939E+01 7.84622E+01 1.81818E+00
 -1      3535 2.54939E+01 7.84622E+01 2.72727E+00
 -1      3536 2.54939E+01 7.84622E+01 3.63636E+00
 -1      3537 2.54939E+01 7.84622E+01 4.54545E+00
 -1      3538 2.54939E+01 7.84622E+01 5.45455E+00
 -1      3539 2.54939E+01 7.84622E+01 6.36364E+00
 -1      3540 2.54939E+01 7.84622E+01 7.27273E+00
 -1      3541 2.54939E+01 7.84622E+01 8.18182E+00
 -1      3542 2.54939E+01 7.84622E+01 9.09091E+00
 -1      3543 1.29058E+01 8.14843E+01 9.09091E-01
 -1      3544 1.29058E+01 8.14843E+01 1.81818E+00
 -1      3545 1.29058E+01 8.14843E+01 2.72727E+00
 -1      3546 1.29058E+01 8.14843E+01 3.63636E+00
 -1      3547 1.29058E+01 8.14843E+01 4.54545E+00
 -1      3548 1.29058E+01 8.14843E+01 5.45455E+00
 -1      3549 1.29058E+01 8.14843E+01 6.36364E+00
 -1      3550 1.29058E+01 8.14843E+01 7.27273E+00
 -1      3551 1.29058E+01 8.14843E+01 8.18182E+00
 -1      3552 1.29058E+01 8.14843E+01 9.09091E+00
 -1      3553 8.39535E+01 1.32969E+01 9.09091E-01
 -1      3554 8.39535E+01 1.32969E+01 1.81818E+00
 -1      3555 8.39535E+01 1.32969E+01 2.72727E+00
 -1      3556 8.39535E+01 1.32969E+01 3.63636E+00
 -1      3557 8.39535E+01 1.32969E+01 4.54545E+00
 -1      3558 8.39535E+01 1.32969E+01 5.45455E+00
 -1      3559 8.39535E+01 1.32969E+01 6.36364E+00
 -1      3560 8.39535E+01 1.32969E+01 7.27273E+00
 -1      3561 8.39535E+01 1.32969E+01 8.18182E+00
 -1      3562 8.39535E+01 1.32969E+01 9.09091E+00
 -1      3563 8.08398E+01 2.62664E+01 9.09091E-01
 -1      3564 8.08398E+01 2.62664E+01 1.81818E+00
 -1      3565 8.08398E+01 2.62664E+01 2.72727E+00
 -1      3566 8.08398E+01 2.62664E+01 3.63636E+00
 -1      3567 8.08398E+01 2.62664E+01 4.54545E+00
 -1      3568 8.08398E+01 2.62664E+01 5.45455E+00
 -1      3569 8.08398E+01 2.62664E+01 6.36364E+00
 -1      3570 8.08398E+01 2.62664E+01 7.27273E+00
 -1      3571 8.08398E+01 2.62664E+01 8.18182E+00
 -1      3572 8.08398E+01 2.62664E+01 9.09091E+00
 -1      3573 7.57356E+01 3.85892E+01 9.09091E-01
 -1      3574 7.57356E+01 3.85892E+01 1.81818E+00
 -1      3575 7.57356E+01 3.85892E+01 2.72727E+00
 -1      3576 7.57356E+01 3.85892E+01 3.63636E+00
 -1      3577 7.57356E+01 3.85892E+01 4.54545E+00
 -1      3578 7.57356E+01 3.85892E+01 5.45455E+00
 -1      3579 7.57356E+01 3.85892E+01 6.36364E+00
 -1      3580 7.57356E+01 3.85892E+01 7.27273E+00
 -1      3581 7.57356E+01 3.85892E+01 8.18182E+00
 -1      3582 7.57356E+01 3.85892E+01 9.09091E+00
 -1      3583 6.87664E+01 4.99617E+01 9.09091E-01
 -1      3584 6.87664E+01 4.99617E+01 1.81818E+00
 -1      3585 6.87664E+01 4.99617E+01 2.72727E+00
 -1      3586 6.87664E+01 4.99617E+01 3.63636E+00
 -1      3587 6.87664E+01 4.99617E+01 4.54545E+00
 -1      3588 6.87664E+01 4.99617E+01 5.45455E+00
 -1      3589 6.87664E+01 4.99617E+01 6.36364E+00
 -1      3590 6.87664E+01 4.99617E+01 7.27273E+00
 -1      3591 6.87664E+01 4.99617E+01 8.18182E+00
 -1      3592 6.87664E+01 4.99617E+01 9.09091E+00
 -1      3593 6.01041E+01 6.01041E+01 9.09091E-01
 -1      3594 6.01041E+01 6.01041E+01 1.81818E+00
 -1      3595 6.01041E+01 6.01041E+01 2.72727E+00
 -1      3596 6.01041E+01 6.01041E+01 3.63636E+00
 -1      3597 6.01041E+01 6.01041E+01 4.54545E+00
 -1      3598 6.01041E+01 6.01041E+01 5.45455E+00
 -1      3599 6.01041E+01 6.01041E+01 6.36364E+00
 -1      3600 6.01041E+01 6.01041E+01 7.27273E+00
 -1      3601 6.01041E+01 6.01041E+01 8.18182E+00
 -1      3602 6.01041E+01 6.01041E+01 9.09091E+00
 -1      3603 4.99617E+01 6.87664E+01 9.09091E-01
 -1      3604 4.99617E+01 6.87664E+01 1.81818E+00
 -1      3605 4.99617E+01 6.87664E+01 2.72727E+00
 -1      3606 4.99617E+01 6.87664E+01 3.63636E+00
 -1      3607 4.99617E+01 6.87664E+01 4.54545E+00
 -1      3608 4.99617E+01 6.87664E+01 5.45455E+00
 -1      3609 4.99617E+01 6.87664E+01 6.36364E+00
 -1      3610 4.99617E+01 6.87664E+01 7.27273E+00
 -1      3611 4.99617E+01 6.87664E+01 8.18182E+00
 -1      3612 4.99617E+01 6.87664E+01 9.09091E+00
 -1      3613 3.85892E+01 7.57356E+01 9.09091E-01
 -1      3614 3.85892E+01 7.57356E+01 1.81818E+00
 -1      3615 3.85892E+01 7.57356E+01 2.72727E+00
 -1      3616 3.85892E+01 7.57356E+01 3.63636E+00
 -1      3617 3.85892E+01 7.57356E+01 4.54545E+00
 -1      3618 3.85892E+01 7.57356E+01 5.45455E+00
 -1      3619 3.85892E+01 7.57356E+01 6.36364E+00
 -1      3620 3.85892E+01 7.57356E+01 7.27273E+00
 -1      3621 3.85892E+01 7.57356E+01 8.18182E+00
 -1      3622 3.85892E+01 7.57356E+01 9.09091E+00
 -1      3623 2.62664E+01 8.08398E+01 9.09091E-01
 -1      3624 2.62664E+01 8.08398E+01 1.81818E+00
 -1      3625 2.62664E+01 8.08398E+01 2.72727E+00
 -1      3626 2.62664E+01 8.08398E+01 3.63636E+00
 -1      3627 2.62664E+01 8.08398E+01 4.54545E+00
 -1      3628 2.62664E+01 8.08398E+01 5.45455E+00
 -1      3629 2.62664E+01 8.08398E+01 6.36364E+00
 -1      3630 2.62664E+01 8.08398E+01 7.27273E+00
 -1      3631 2.62664E+01 8.08398E+01 8.18182E+00
 -1      3632 2.62664E+01 8.08398E+01 9.09091E+00
 -1      3633 1.32969E+01 8.39535E+01 9.09091E-01
 -1      3634 1.32969E+01 8.39535E+01 1.81818E+00
 -1      3635 1.32969E+01 8.39535E+01 2.72727E+00
 -1      3636 1.32969E+01 8.39535E+01 3.63636E+00
 -1      3637 1.32969E+01 8.39535E+01 4.54545E+00
 -1      3638 1.32969E+01 8.39535E+01 5.45455E+00
 -1      3639 1.32969E+01 8.39535E+01 6.36364E+00
 -1      3640 1.32969E+01 8.39535E+01 7.27273E+00
 -1      3641 1.32969E+01 8.39535E+01 8.18182E+00
 -1      3642 1.32969E+01 8.39535E+01 9.09091E+00
 -1      3643 8.64227E+01 1.36880E+01 9.09091E-01
 -1      3644 8.64227E+01 1.36880E+01 1.81818E+00
 -1      3645 8.64227E+01 1.36880E+01 2.72727E+00
 -1      3646 8.64227E+01 1.36880E+01 3.63636E+00
 -1      3647 8.64227E+01 1.36880E+01 4.54545E+00
 -1      3648 8.64227E+01 1.36880E+01 5.45455E+00
 -1      3649 8.64227E+01 1.36880E+01 6.36364E+00
 -1      3650 8.64227E+01 1.36880E+01 7.27273E+00
 -1      3651 8.64227E+01 1.36880E+01 8.18182E+00
 -1      3652 8.64227E+01 1.36880E+01 9.09091E+00
 -1      3653 8.32174E+01 2.70390E+01 9.09091E-01
 -1      3654 8.32174E+01 2.70390E+01 1.81818E+00
 -1      3655 8.32174E+01 2.70390E+01 2.72727E+00
 -1      3656 8.32174E+01 2.70390E+01 3.63636E+00
 -1      3657 8.32174E+01 2.70390E+01 4.54545E+00
 -1      3658 8.32174E+01 2.70390E+01 5.45455E+00
 -1      3659 8.32174E+01 2.70390E+01 6.36364E+00
 -1      3660 8.32174E+01 2.70390E+01 7.27273E+00
 -1      3661 8.32174E+01 2.70390E+01 8.18182E+00
 -1      3662 8.32174E+01 2.70390E+01 9.09091E+00
 -1      3663 7.79631E+01 3.97242E+01 9.09091E-01
 -1      3664 7.79631E+01 3.97242E+01 1.81818E+00
 -1      3665 7.79631E+01 3.97242E+01 2.72727E+00
 -1      3666 7.79631E+01 3.97242E+01 3.63636E+00
 -1      3667 7.79631E+01 3.97242E+01 4.54545E+00
 -1      3668 7.79631E+01 3.97242E+01 5.45455E+00
 -1      3669 7.79631E+01 3.97242E+01 6.36364E+00
 -1      3670 7.79631E+01 3.97242E+01 7.27273E+00
 -1      3671 7.79631E+01 3.97242E+01 8.18182E+00
 -1      3672 7.79631E+01 3.97242E+01 9.09091E+00
 -1      3673 7.07890E+01 5.14312E+01 9.09091E-01
 -1      3674 7.07890E+01 5.14312E+01 1.81818E+00
 -1      3675 7.07890E+01 5.14312E+01 2.72727E+00
 -1      3676 7.07890E+01 5.14312E+01 3.63636E+00
 -1      3677 7.07890E+01 5.14312E+01 4.54545E+00
 -1      3678 7.07890E+01 5.14312E+01 5.45455E+00
 -1      3679 7.07890E+01 5.14312E+01 6.36364E+00
 -1      3680 7.07890E+01 5.14312E+01 7.27273E+00
 -1      3681 7.07890E+01 5.14312E+01 8.18182E+00
 -1      3682 7.07890E+01 5.14312E+01 9.09091E+00
 -1      3683 6.18718E+01 6.18718E+01 9.09091E-01
 -1      3684 6.18718E+01 6.18718E+01 1.81818E+00
 -1      3685 6.18718E+01 6.18718E+01 2.72727E+00
 -1      3686 6.18718E+01 6.18718E+01 3.63636E+00
 -1      3687 6.18718E+01 6.18718E+01 4.54545E+00
 -1      3688 6.18718E+01 6.18718E+01 5.45455E+00
 -1      3689 6.18718E+01 6.18718E+01 6.36364E+00
 -1      3690 6.18718E+01 6.18718E+01 7.27273E+00
 -1      3691 6.18718E+01 6.18718E+01 8.18182E+00
 -1      3692 6.18718E+01 6.18718E+01 9.09091E+00
 -1      3693 5.14312E+01 7.07890E+01 9.09091E-01
 -1      3694 5.14312E+01 7.07890E+01 1.81818E+00
 -1      3695 5.14312E+01 7.07890E+01 2.72727E+00
 -1      3696 5.14312E+01 7.07890E+01 3.63636E+00
 -1      3697 5.14312E+01 7.07890E+01 4.54545E+00
 -1      3698 5.14312E+01 7.07890E+01 5.45455E+00
 -1      3699 5.14312E+01 7.07890E+01 6.36364E+00
 -1      3700 5.14312E+01 7.07890E+01 7.27273E+00
 -1      3701 5.14312E+01 7.07890E+01 8.18182E+00
 -1      3702 5.14312E+01 7.07890E+01 9.09091E+00
 -1      3703 3.97242E+01 7.79631E+01 9.09091E-01
 -1      3704 3.97242E+01 7.79631E+01 1.81818E+00
 -1      3705 3.97242E+01 7.79631E+01 2.72727E+00
 -1      3706 3.97242E+01 7.79631E+01 3.63636E+00
 -1      3707 3.97242E+01 7.79631E+01 4.54545E+00
 -1      3708 3.97242E+01 7.79631E+01 5.45455E+00
 -1      3709 3.97242E+01 7.79631E+01 6.36364E+00
 -1      3710 3.97242E+01 7.79631E+01 7.27273E+00
 -1      3711 3.97242E+01 7.79631E+01 8.18182E+00
 -1      3712 3.97242E+01 7.79631E+01 9.09091E+00
 -1      3713 2.70390E+01 8.32174E+01 9.09091E-01
 -1      3714 2.70390E+01 8.32174E+01 1.81818E+00
 -1      3715 2.70390E+01 8.32174E+01 2.72727E+00
 -1      3716 2.70390E+01 8.32174E+01 3.63636E+00
 -1      3717 2.70390E+01 8.32174E+01 4.54545E+00
 -1      3718 2.70390E+01 8.32174E+01 5.45455E+00
 -1      3719 2.70390E+01 8.32174E+01 6.36364E+00
 -1      3720 2.70390E+01 8.32174E+01 7.27273E+00
 -1      3721 2.70390E+01 8.32174E+01 8.18182E+00
 -1      3722 2.70390E+01 8.32174E+01 9.09091E+00
 -1      3723 1.36880E+01 8.64227E+01 9.09091E-01
 -1      3724 1.36880E+01 8.64227E+01 1.81818E+00
 -1      3725 1.36880E+01 8.64227E+01 2.72727E+00
 -1      3726 1.36880E+01 8.64227E+01 3.63636E+00
 -1      3727 1.36880E+01 8.64227E+01 4.54545E+00
 -1      3728 1.36880E+01 8.64227E+01 5.45455E+00
 -1      3729 1.36880E+01 8.64227E+01 6.36364E+00
 -1      3730 1.36880E+01 8.64227E+01 7.27273E+00
 -1      3731 1.36880E+01 8.64227E+01 8.18182E+00
 -1      3732 1.36880E+01 8.64227E+01 9.09091E+00
 -1      3733 8.88920E+01 1.40791E+01 9.09091E-01
 -1      3734 8.88920E+01 1.40791E+01 1.81818E+00
 -1      3735 8.88920E+01 1.40791E+01 2.72727E+00
 -1      3736 8.88920E+01 1.40791E+01 3.63636E+00
 -1      3737 8.88920E+01 1.40791E+01 4.54545E+00
 -1      3738 8.88920E+01 1.40791E+01 5.45455E+00
 -1      3739 8.88920E+01 1.40791E+01 6.36364E+00
 -1      3740 8.88920E+01 1.40791E+01 7.27273E+00
 -1      3741 8.88920E+01 1.40791E+01 8.18182E+00
 -1      3742 8.88920E+01 1.40791E+01 9.09091E+00
 -1      3743 8.55951E+01 2.78115E+01 9.09091E-01
 -1      3744 8.55951E+01 2.78115E+01 1.81818E+00
 -1      3745 8.55951E+01 2.78115E+01 2.72727E+00
 -1      3746 8.55951E+01 2.78115E+01 3.63636E+00
 -1      3747 8.55951E+01 2.78115E+01 4.54545E+00
 -1      3748 8.55951E+01 2.78115E+01 5.45455E+00
 -1      3749 8.55951E+01 2.78115E+01 6.36364E+00
 -1      3750 8.55951E+01 2.78115E+01 7.27273E+00
 -1      3751 8.55951E+01 2.78115E+01 8.18182E+00
 -1      3752 8.55951E+01 2.78115E+01 9.09091E+00
 -1      3753 8.01906E+01 4.08591E+01 9.09091E-01
 -1      3754 8.01906E+01 4.08591E+01 1.81818E+00
 -1      3755 8.01906E+01 4.08591E+01 2.72727E+00
 -1      3756 8.01906E+01 4.08591E+01 3.63636E+00
 -1      3757 8.01906E+01 4.08591E+01 4.54545E+00
 -1      3758 8.01906E+01 4.08591E+01 5.45455E+00
 -1      3759 8.01906E+01 4.08591E+01 6.36364E+00
 -1      3760 8.01906E+01 4.08591E+01 7.27273E+00
 -1      3761 8.01906E+01 4.08591E+01 8.18182E+00
 -1      3762 8.01906E+01 4.08591E+01 9.09091E+00
 -1      3763 7.28115E+01 5.29007E+01 9.09091E-01
 -1      3764 7.28115E+01 5.29007E+01 1.81818E+00
 -1      3765 7.28115E+01 5.29007E+01 2.72727E+00
 -1      3766 7.28115E+01 5.29007E+01 3.63636E+00
 -1      3767 7.28115E+01 5.29007E+01 4.54545E+00
 -1      3768 7.28115E+01 5.29007E+01 5.45455E+00
 -1      3769 7.28115E+01 5.29007E+01 6.36364E+00
 -1      3770 7.28115E+01 5.29007E+01 7.27273E+00
 -1      3771 7.28115E+01 5.29007E+01 8.18182E+00
 -1      3772 7.28115E+01 5.29007E+01 9.09091E+00
 -1      3773 6.36396E+01 6.36396E+01 9.09091E-01
 -1      3774 6.36396E+01 6.36396E+01 1.81818E+00
 -1      3775 6.36396E+01 6.36396E+01 2.72727E+00
 -1      3776 6.36396E+01 6.36396E+01 3.63636E+00
 -1      3777 6.36396E+01 6.36396E+01 4.54545E+00
 -1      3778 6.36396E+01 6.36396E+01 5.45455E+00
 -1      3779 6.36396E+01 6.36396E+01 6.36364E+00
 -1      3780 6.36396E+01 6.36396E+01 7.27273E+00
 -1      3781 6.36396E+01 6.36396E+01 8.18182E+00
 -1      3782 6.36396E+01 6.36396E+01 9.09091E+00
 -1      3783 5.29007E+01 7.28115E+01 9.09091E-01
 -1      3784 5.29007E+01 7.28115E+01 1.81818E+00
 -1      3785 5.29007E+01 7.28115E+01 2.72727E+00
 -1      3786 5.29007E+01 7.28115E+01 3.63636E+00
 -1      3787 5.29007E+01 7.28115E+01 4.54545E+00
 -1      3788 5.29007E+01 7.28115E+01 5.45455E+00
 -1      3789 5.29007E+01 7.28115E+01 6.36364E+00
 -1      3790 5.29007E+01 7.28115E+01 7.27273E+00
 -1      3791 5.29007E+01 7.28115E+01 8.18182E+00
 -1      3792 5.29007E+01 7.28115E+01 9.09091E+00
 -1      3793 4.08591E+01 8.01906E+01 9.09091E-01
 -1      3794 4.08591E+01 8.01906E+01 1.81818E+00
 -1      3795 4.08591E+01 8.01906E+01 2.72727E+00
 -1      3796 4.08591E+01 8.01906E+01 3.63636E+00
 -1      3797 4.08591E+01 8.01906E+01 4.54545E+00
 -1      3798 4.08591E+01 8.01906E+01 5.45455E+00
 -1      3799 4.08591E+01 8.01906E+01 6.36364E+00
 -1      3800 4.08591E+01 8.01906E+01 7.27273E+00
 -1      3801 4.08591E+01 8.01906E+01 8.18182E+00
 -1      3802 4.08591E+01 8.01906E+01 9.09091E+00
 -1      3803 2.78115E+01 8.55951E+01 9.09091E-01
 -1      3804 2.78115E+01 8.55951E+01 1.81818E+00
 -1      3805 2.78115E+01 8.55951E+01 2.72727E+00
 -1      3806 2.78115E+01 8.55951E+01 3.63636E+00
 -1      3807 2.78115E+01 8.55951E+01 4.54545E+00
 -1      3808 2.78115E+01 8.55951E+01 5.45455E+00
 -1      3809 2.78115E+01 8.55951E+01 6.36364E+00
 -1      3810 2.78115E+01 8.55951E+01 7.27273E+00
 -1      3811 2.78115E+01 8.55951E+01 8.18182E+00
 -1      3812 2.78115E+01 8.55951E+01 9.09091E+00
 -1      3813 1.40791E+01 8.88920E+01 9.09091E-01
 -1      3814 1.40791E+01 8.88920E+01 1.81818E+00
 -1      3815 1.40791E+01 8.88920E+01 2.72727E+00
 -1      3816 1.40791E+01 8.88920E+01 3.63636E+00
 -1      3817 1.40791E+01 8.88920E+01 4.54545E+00
 -1      3818 1.40791E+01 8.88920E+01 5.45455E+00
 -1      3819 1.40791E+01 8.88920E+01 6.36364E+00
 -1      3820 1.40791E+01 8.88920E+01 7.27273E+00
 -1      3821 1.40791E+01 8.88920E+01 8.18182E+00
 -1      3822 1.40791E+01 8.88920E+01 9.09091E+00
 -1      3823 9.13612E+01 1.44702E+01 9.09091E-01
 -1      3824 9.13612E+01 1.44702E+01 1.81818E+00
 -1      3825 9.13612E+01 1.44702E+01 2.72727E+00
 -1      3826 9.13612E+01 1.44702E+01 3.63636E+00
 -1      3827 9.13612E+01 1.44702E+01 4.54545E+00
 -1      3828 9.13612E+01 1.44702E+01 5.45455E+00
 -1      3829 9.13612E+01 1.44702E+01 6.36364E+00
 -1      3830 9.13612E+01 1.44702E+01 7.27273E+00
 -1      3831 9.13612E+01 1.44702E+01 8.18182E+00
 -1      3832 9.13612E+01 1.44702E+01 9.09091E+00
 -1      3833 8.79727E+01 2.85841E+01 9.09091E-01
 -1      3834 8.79727E+01 2.85841E+01 1.81818E+00
 -1      3835 8.79727E+01 2.85841E+01 2.72727E+00
 -1      3836 8.79727E+01 2.85841E+01 3.63636E+00
 -1      3837 8.79727E+01 2.85841E+01 4.54545E+00
 -1      3838 8.79727E+01 2.85841E+01 5.45455E+00
 -1      3839 8.79727E+01 2.85841E+01 6.36364E+00
 -1      3840 8.79727E+01 2.85841E+01 7.27273E+00
 -1      3841 8.79727E+01 2.85841E+01 8.18182E+00
 -1      3842 8.79727E+01 2.85841E+01 9.09091E+00
 -1      3843 8.24181E+01 4.19941E+01 9.09091E-01
 -1      3844 8.24181E+01 4.19941E+01 1.81818E+00
 -1      3845 8.24181E+01 4.19941E+01 2.72727E+00
 -1      3846 8.24181E+01 4.19941E+01 3.63636E+00
 -1      3847 8.24181E+01 4.19941E+01 4.54545E+00
 -1      3848 8.24181E+01 4.19941E+01 5.45455E+00
 -1      3849 8.24181E+01 4.19941E+01 6.36364E+00
 -1      3850 8.24181E+01 4.19941E+01 7.27273E+00
 -1      3851 8.24181E+01 4.19941E+01 8.18182E+00
 -1      3852 8.24181E+01 4.19941E+01 9.09091E+00
 -1      3853 7.48341E+01 5.43701E+01 9.09091E-01
 -1      3854 7.48341E+01 5.43701E+01 1.81818E+00
 -1      3855 7.48341E+01 5.43701E+01 2.72727E+00
 -1      3856 7.48341E+01 5.43701E+01 3.63636E+00
 -1      3857 7.48341E+01 5.43701E+01 4.54545E+00
 -1      3858 7.48341E+01 5.43701E+01 5.45455E+00
 -1      3859 7.48341E+01 5.43701E+01 6.36364E+00
 -1      3860 7.48341E+01 5.43701E+01 7.27273E+00
 -1      3861 7.48341E+01 5.43701E+01 8.18182E+00
 -1      3862 7.48341E+01 5.43701E+01 9.09091E+00
 -1      3863 6.54074E+01 6.54074E+01 9.09091E-01
 -1      3864 6.54074E+01 6.54074E+01 1.81818E+00
 -1      3865 6.54074E+01 6.54074E+01 2.72727E+00
 -1      3866 6.54074E+01 6.54074E+01 3.63636E+00
 -1      3867 6.54074E+01 6.54074E+01 4.54545E+00
 -1      3868 6.54074E+01 6.54074E+01 5.45455E+00
 -1      3869 6.54074E+01 6.54074E+01 6.36364E+00
 -1      3870 6.54074E+01 6.54074E+01 7.27273E+00
 -1      3871 6.54074E+01 6.54074E+01 8.18182E+00
 -1      3872 6.54074E+01 6.54074E+01 9.09091E+00
 -1      3873 5.43701E+01 7.48341E+01 9.09091E-01
 -1      3874 5.43701E+01 7.48341E+01 1.81818E+00
 -1      3875 5.43701E+01 7.48341E+01 2.72727E+00
 -1      3876 5.43701E+01 7.48341E+01 3.63636E+00
 -1      3877 5.43701E+01 7.48341E+01 4.54545E+00
 -1      3878 5.43701E+01 7.48341E+01 5.45455E+00
 -1      3879 5.43701E+01 7.48341E+01 6.36364E+00
 -1      3880 5.43701E+01 7.48341E+01 7.27273E+00
 -1      3881 5.43701E+01 7.48341E+01 8.18182E+00
 -1      3882 5.43701E+01 7.48341E+01 9.09091E+00
 -1      3883 4.19941E+01 8.24181E+01 9.09091E-01
 -1      3884 4.19941E+01 8.24181E+01 1.81818E+00
 -1      3885 4.19941E+01 8.24181E+01 2.72727E+00
 -1      3886 4.19941E+01 8.24181E+01 3.63636E+00
 -1      3887 4.19941E+01 8.24181E+01 4.54545E+00
 -1      3888 4.19941E+01 8.24181E+01 5.45455E+00
 -1      3889 4.19941E+01 8.24181E+01 6.36364E+00
 -1      3890 4.19941E+01 8.24181E+01 7.27273E+00
 -1      3891 4.19941E+01 8.24181E+01 8.18182E+00
 -1      3892 4.19941E+01 8.24181E+01 9.09091E+00
 -1      3893 2.85841E+01 8.79727E+01 9.09091E-01
 -1      3894 2.85841E+01 8.79727E+01 1.81818E+00
 -1      3895 2.85841E+01 8.79727E+01 2.72727E+00
 -1      3896 2.85841E+01 8.79727E+01 3.63636E+00
 -1      3897 2.85841E+01 8.79727E+01 4.54545E+00
 -1      3898 2.85841E+01 8.79727E+01 5.45455E+00
 -1      3899 2.85841E+01 8.79727E+01 6.36364E+00
 -1      3900 2.85841E+01 8.79727E+01 7.27273E+00
 -1      3901 2.85841E+01 8.79727E+01 8.18182E+00
 -1      3902 2.85841E+01 8.79727E+01 9.09091E+00
 -1      3903 1.44702E+01 9.13612E+01 9.09091E-01
 -1      3904 1.44702E+01 9.13612E+01 1.81818E+00
 -1      3905 1.44702E+01 9.13612E+01 2.72727E+00
 -1      3906 1.44702E+01 9.13612E+01 3.63636E+00
 -1      3907 1.44702E+01 9.13612E+01 4.54545E+00
 -1      3908 1.44702E+01 9.13612E+01 5.45455E+00
 -1      3909 1.44702E+01 9.13612E+01 6.36364E+00
 -1      3910 1.44702E+01 9.13612E+01 7.27273E+00
 -1      3911 1.44702E+01 9.13612E+01 8.18182E+00
 -1      3912 1.44702E+01 9.13612E+01 9.09091E+00
 -1      3913 9.38304E+01 1.48613E+01 9.09091E-01
 -1      3914 9.38304E+01 1.48613E+01 1.81818E+00
 -1      3915 9.38304E+01 1.48613E+01 2.72727E+00
 -1      3916 9.38304E+01 1.48613E+01 3.63636E+00
 -1      3917 9.38304E+01 1.48613E+01 4.54545E+00
 -1      3918 9.38304E+01 1.48613E+01 5.45455E+00
 -1      3919 9.38304E+01 1.48613E+01 6.36364E+00
 -1      3920 9.38304E+01 1.48613E+01 7.27273E+00
 -1      3921 9.38304E+01 1.48613E+01 8.18182E+00
 -1      3922 9.38304E+01 1.48613E+01 9.09091E+00
 -1      3923 9.03504E+01 2.93566E+01 9.09091E-01
 -1      3924 9.03504E+01 2.93566E+01 1.81818E+00
 -1      3925 9.03504E+01 2.93566E+01 2.72727E+00
 -1      3926 9.03504E+01 2.93566E+01 3.63636E+00
 -1      3927 9.03504E+01 2.93566E+01 4.54545E+00
 -1      3928 9.03504E+01 2.93566E+01 5.45455E+00
 -1      3929 9.03504E+01 2.93566E+01 6.36364E+00
 -1      3930 9.03504E+01 2.93566E+01 7.27273E+00
 -1      3931 9.03504E+01 2.93566E+01 8.18182E+00
 -1      3932 9.03504E+01 2.93566E+01 9.09091E+00
 -1      3933 8.46456E+01 4.31291E+01 9.09091E-01
 -1      3934 8.46456E+01 4.31291E+01 1.81818E+00
 -1      3935 8.46456E+01 4.31291E+01 2.72727E+00
 -1      3936 8.46456E+01 4.31291E+01 3.63636E+00
 -1      3937 8.46456E+01 4.31291E+01 4.54545E+00
 -1      3938 8.46456E+01 4.31291E+01 5.45455E+00
 -1      3939 8.46456E+01 4.31291E+01 6.36364E+00
 -1      3940 8.46456E+01 4.31291E+01 7.27273E+00
 -1      3941 8.46456E+01 4.31291E+01 8.18182E+00
 -1      3942 8.46456E+01 4.31291E+01 9.09091E+00
 -1      3943 7.68566E+01 5.58396E+01 9.09091E-01
 -1      3944 7.68566E+01 5.58396E+01 1.81818E+00
 -1      3945 7.68566E+01 5.58396E+01 2.72727E+00
 -1      3946 7.68566E+01 5.58396E+01 3.63636E+00
 -1      3947 7.68566E+01 5.58396E+01 4.54545E+00
 -1      3948 7.68566E+01 5.58396E+01 5.45455E+00
 -1      3949 7.68566E+01 5.58396E+01 6.36364E+00
 -1      3950 7.68566E+01 5.58396E+01 7.27273E+00
 -1      3951 7.68566E+01 5.58396E+01 8.18182E+00
 -1      3952 7.68566E+01 5.58396E+01 9.09091E+00
 -1      3953 6.71751E+01 6.71751E+01 9.09091E-01
 -1      3954 6.71751E+01 6.71751E+01 1.81818E+00
 -1      3955 6.71751E+01 6.71751E+01 2.72727E+00
 -1      3956 6.71751E+01 6.71751E+01 3.63636E+00
 -1      3957 6.71751E+01 6.71751E+01 4.54545E+00
 -1      3958 6.71751E+01 6.71751E+01 5.45455E+00
 -1      3959 6.71751E+01 6.71751E+01 6.36364E+00
 -1      3960 6.71751E+01 6.71751E+01 7.27273E+00
 -1      3961 6.71751E+01 6.71751E+01 8.18182E+00
 -1      3962 6.71751E+01 6.71751E+01 9.09091E+00
 -1      3963 5.58396E+01 7.68566E+01 9.09091E-01
 -1      3964 5.58396E+01 7.68566E+01 1.81818E+00
 -1      3965 5.58396E+01 7.68566E+01 2.72727E+00
 -1      3966 5.58396E+01 7.68566E+01 3.63636E+00
 -1      3967 5.58396E+01 7.68566E+01 4.54545E+00
 -1      3968 5.58396E+01 7.68566E+01 5.45455E+00
 -1      3969 5.58396E+01 7.68566E+01 6.36364E+00
 -1      3970 5.58396E+01 7.68566E+01 7.27273E+00
 -1      3971 5.58396E+01 7.68566E+01 8.18182E+00
 -1      3972 5.58396E+01 7.68566E+01 9.09091E+00
 -1      3973 4.31291E+01 8.46456E+01 9.09091E-01
 -1      3974 4.31291E+01 8.46456E+01 1.81818E+00
 -1      3975 4.31291E+01 8.46456E+01 2.72727E+00
 -1      3976 4.31291E+01 8.46456E+01 3.63636E+00
 -1      3977 4.31291E+01 8.46456E+01 4.54545E+00
 -1      3978 4.31291E+01 8.46456E+01 5.45455E+00
 -1      3979 4.31291E+01 8.46456E+01 6.36364E+00
 -1      3980 4.31291E+01 8.46456E+01 7.27273E+00
 -1      3981 4.31291E+01 8.46456E+01 8.18182E+00
 -1      3982 4.31291E+01 8.46456E+01 9.09091E+00
 -1      3983 2.93566E+01 9.03504E+01 9.09091E-01
 -1      3984 2.93566E+01 9.03504E+01 1.81818E+00
 -1      3985 2.93566E+01 9.03504E+01 2.72727E+00
 -1      3986 2.93566E+01 9.03504E+01 3.63636E+00
 -1      3987 2.93566E+01 9.03504E+01 4.54545E+00
 -1      3988 2.93566E+01 9.03504E+01 5.45455E+00
 -1      3989 2.93566E+01 9.03504E+01 6.36364E+00
 -1      3990 2.93566E+01 9.03504E+01 7.27273E+00
 -1      3991 2.93566E+01 9.03504E+01 8.18182E+00
 -1      3992 2.93566E+01 9.03504E+01 9.09091E+00
 -1      3993 1.48613E+01 9.38304E+01 9.09091E-01
 -1      3994 1.48613E+01 9.38304E+01 1.81818E+00
 -1      3995 1.48613E+01 9.38304E+01 2.72727E+00
 -1      3996 1.48613E+01 9.38304E+01 3.63636E+00
 -1      3997 1.48613E+01 9.38304E+01 4.54545E+00
 -1      3998 1.48613E+01 9.38304E+01 5.45455E+00
 -1      3999 1.48613E+01 9.38304E+01 6.36364E+00
 -1      4000 1.48613E+01 9.38304E+01 7.27273E+00
 -1      4001 1.48613E+01 9.38304E+01 8.18182E+00
 -1      4002 1.48613E+01 9.38304E+01 9.09091E+00
 -1      4003 9.62996E+01 1.52524E+01 9.09091E-01
 -1      4004 9.62996E+01 1.52524E+01 1.81818E+00
 -1      4005 9.62996E+01 1.52524E+01 2.72727E+00
 -1      4006 9.62996E+01 1.52524E+01 3.63636E+00
 -1      4007 9.62996E+01 1.52524E+01 4.54545E+00
 -1      4008 9.62996E+01 1.52524E+01 5.45455E+00
 -1      4009 9.62996E+01 1.52524E+01 6.36364E+00
 -1      4010 9.62996E+01 1.52524E+01 7.27273E+00
 -1      4011 9.62996E+01 1.52524E+01 8.18182E+00
 -1      4012 9.62996E+01 1.52524E+01 9.09091E+00
 -1      4013 9.27280E+01 3.01292E+01 9.09091E-01
 -1      4014 9.27280E+01 3.01292E+01 1.81818E+00
 -1      4015 9.27280E+01 3.01292E+01 2.72727E+00
 -1      4016 9.27280E+01 3.01292E+01 3.63636E+00
 -1      4017 9.27280E+01 3.01292E+01 4.54545E+00
 -1      4018 9.27280E+01 3.01292E+01 5.45455E+00
 -1      4019 9.27280E+01 3.01292E+01 6.36364E+00
 -1      4020 9.27280E+01 3.01292E+01 7.27273E+00
 -1      4021 9.27280E+01 3.01292E+01 8.18182E+00
 -1      4022 9.27280E+01 3.01292E+01 9.09091E+00
 -1      4023 8.68731E+01 4.42641E+01 9.09091E-01
 -1      4024 8.68731E+01 4.42641E+01 1.81818E+00
 -1      4025 8.68731E+01 4.42641E+01 2.72727E+00
 -1      4026 8.68731E+01 4.42641E+01 3.63636E+00
 -1      4027 8.68731E+01 4.42641E+01 4.54545E+00
 -1      4028 8.68731E+01 4.42641E+01 5.45455E+00
 -1      4029 8.68731E+01 4.42641E+01 6.36364E+00
 -1      4030 8.68731E+01 4.42641E+01 7.27273E+00
 -1      4031 8.68731E+01 4.42641E+01 8.18182E+00
 -1      4032 8.68731E+01 4.42641E+01 9.09091E+00
 -1      4033 7.88792E+01 5.73091E+01 9.09091E-01
 -1      4034 7.88792E+01 5.73091E+01 1.81818E+00
 -1      4035 7.88792E+01 5.73091E+01 2.72727E+00
 -1      4036 7.88792E+01 5.73091E+01 3.63636E+00
 -1      4037 7.88792E+01 5.73091E+01 4.54545E+00
 -1      4038 7.88792E+01 5.73091E+01 5.45455E+00
 -1      4039 7.88792E+01 5.73091E+01 6.36364E+00
 -1      4040 7.88792E+01 5.73091E+01 7.27273E+00
 -1      4041 7.88792E+01 5.73091E+01 8.18182E+00
 -1      4042 7.88792E+01 5.73091E+01 9.09091E+00
 -1      4043 6.89429E+01 6.89429E+01 9.09091E-01
 -1      4044 6.89429E+01 6.89429E+01 1.81818E+00
 -1      4045 6.89429E+01 6.89429E+01 2.72727E+00
 -1      4046 6.89429E+01 6.89429E+01 3.63636E+00
 -1      4047 6.89429E+01 6.89429E+01 4.54545E+00
 -1      4048 6.89429E+01 6.89429E+01 5.45455E+00
 -1      4049 6.89429E+01 6.89429E+01 6.36364E+00
 -1      4050 6.89429E+01 6.89429E+01 7.27273E+00
 -1      4051 6.89429E+01 6.89429E+01 8.18182E+00
 -1      4052 6.89429E+01 6.89429E+01 9.09091E+00
 -1      4053 5.73091E+01 7.88792E+01 9.09091E-01
 -1      4054 5.73091E+01 7.88792E+01 1.81818E+00
 -1      4055 5.73091E+01 7.88792E+01 2.72727E+00
 -1      4056 5.73091E+01 7.88792E+01 3.63636E+00
 -1      4057 5.73091E+01 7.88792E+01 4.54545E+00
 -1      4058 5.73091E+01 7.88792E+01 5.45455E+00
 -1      4059 5.73091E+01 7.88792E+01 6.36364E+00
 -1      4060 5.73091E+01 7.88792E+01 7.27273E+00
 -1      4061 5.73091E+01 7.88792E+01 8.18182E+00
 -1      4062 5.73091E+01 7.88792E+01 9.09091E+00
 -1      4063 4.42641E+01 8.68731E+01 9.09091E-01
 -1      4064 4.42641E+01 8.68731E+01 1.81818E+00
 -1      4065 4.42641E+01 8.68731E+01 2.72727E+00
 -1      4066 4.42641E+01 8.68731E+01 3.63636E+00
 -1      4067 4.42641E+01 8.68731E+01 4.54545E+00
 -1      4068 4.42641E+01 8.68731E+01 5.45455E+00
 -1      4069 4.42641E+01 8.68731E+01 6.36364E+00
 -1      4070 4.42641E+01 8.68731E+01 7.27273E+00
 -1      4071 4.42641E+01 8.68731E+01 8.18182E+00
 -1      4072 4.42641E+01 8.68731E+01 9.09091E+00
 -1      4073 3.01292E+01 9.27280E+01 9.09091E-01
 -1      4074 3.01292E+01 9.27280E+01 1.81818E+00
 -1      4075 3.01292E+01 9.27280E+01 2.72727E+00
 -1      4076 3.01292E+01 9.27280E+01 3.63636E+00
 -1      4077 3.01292E+01 9.27280E+01 4.54545E+00
 -1      4078 3.01292E+01 9.27280E+01 5.45455E+00
 -1      4079 3.01292E+01 9.27280E+01 6.36364E+00
 -1      4080 3.01292E+01 9.27280E+01 7.27273E+00
 -1      4081 3.01292E+01 9.27280E+01 8.18182E+00
 -1      4082 3.01292E+01 9.27280E+01 9.09091E+00
 -1      4083 1.52524E+01 9.62996E+01 9.09091E-01
 -1      4084 1.52524E+01 9.62996E+01 1.81818E+00
 -1      4085 1.52524E+01 9.62996E+01 2.72727E+00
 -1      4086 1.52524E+01 9.62996E+01 3.63636E+00
 -1      4087 1.52524E+01 9.62996E+01 4.54545E+00
 -1      4088 1.52524E+01 9.62996E+01 5.45455E+00
 -1      4089 1.52524E+01 9.62996E+01 6.36364E+00
 -1      4090 1.52524E+01 9.62996E+01 7.27273E+00
 -1      4091 1.52524E+01 9.62996E+01 8.18182E+00
 -1      4092 1.52524E+01 9.62996E+01 9.09091E+00
 -3
    3C                          3300                                     1
 -1       771    1    0    1
 -2         1         9       201        84       161       462      1483      1212
 -1       772    1    0    1
 -2       161       462      1483      1212       162       463      1484      1213
 -1       773    1    0    1
 -2       162       463      1484      1213       163       464      1485      1214
 -1       774    1    0    1
 -2       163       464      1485      1214       164       465      1486      1215
 -1       775    1    0    1
 -2       164       465      1486      1215       165       466      1487      1216
 -1       776    1    0    1
 -2       165       466      1487      1216       166       467      1488      1217
 -1       777    1    0    1
 -2       166       467      1488      1217       167       468      1489      1218
 -1       778    1    0    1
 -2       167       468      1489      1218       168       469      1490      1219
 -1       779    1    0    1
 -2       168       469      1490      1219       169       470      1491      1220
 -1       780    1    0    1
 -2       169       470      1491      1220       170       471      1492      1221
 -1       781    1    0    1
 -2       170       471      1492      1221         5        85      1222       160
 -1       782    1    0    1
 -2        84       201       202        83      1212      1483      1493      1202
 -1       783    1    0    1
 -2      1212      1483      1493      1202      1213      1484      1494      1203
 -1       784    1    0    1
 -2      1213      1484      1494      1203      1214      1485      1495      1204
 -1       785    1    0    1
 -2      1214      1485      1495      1204      1215      1486      1496      1205
 -1       786    1    0    1
 -2      1215      1486      1496      1205      1216      1487      1497      1206
 -1       787    1    0    1
 -2      1216      1487      1497      1206      1217      1488      1498      1207
 -1       788    1    0    1
 -2      1217      1488      1498      1207      1218      1489      1499      1208
 -1       789    1    0    1
 -2      1218      1489      1499      1208      1219      1490      1500      1209
 -1       790    1    0    1
 -2      1219      1490      1500      1209      1220      1491      1501      1210
 -1       791    1    0    1
 -2      1220      1491      1501      1210      1221      1492      1502      1211
 -1       792    1    0    1
 -2      1221      1492      1502      1211       160      1222      1223       159
 -1       793    1    0    1
 -2        83       202       203        82      1202      1493      1503      1192
 -1       794    1    0    1
 -2      1202      1493      1503      1192      1203      1494      1504      1193
 -1       795    1    0    1
 -2      1203      1494      1504      1193      1204      1495      1505      1194
 -1       796    1    0    1
 -2      1204      1495      1505      1194      1205      1496      1506      1195
 -1       797    1    0    1
 -2      1205      1496      1506      1195      1206      1497      1507      1196
 -1       798    1    0    1
 -2      1206      1497      1507      1196      1207      1498      1508      1197
 -1       799    1    0    1
 -2      1207      1498      1508      1197      1208      1499      1509      1198
 -1       800    1    0    1
 -2      1208      1499      1509      1198      1209      1500      1510      1199
 -1       801    1    0    1
 -2      1209      1500      1510      1199      1210      1501      1511      1200
 -1       802    1    0    1
 -2      1210      1501      1511      1200      1211      1502      1512      1201
 -1       803    1    0    1
 -2      1211      1502      1512      1201       159      1223      1224       158
 -1       804    1    0    1
 -2        82       203       204        81      1192      1503      1513      1182
 -1       805    1    0    1
 -2      1192      1503      1513      1182      1193      1504      1514      1183
 -1       806    1    0    1
 -2      1193      1504      1514      1183      1194      1505      1515      1184
 -1       807    1    0    1
 -2      1194      1505      1515      1184      1195      1506      1516      1185
 -1       808    1    0    1
 -2      1195      1506      1516      1185      1196      1507      1517      1186
 -1       809    1    0    1
 -2      1196      1507      1517      1186      1197      1508      1518      1187
 -1       810    1    0    1
 -2      1197      1508      1518      1187      1198      1509      1519      1188
 -1       811    1    0    1
 -2      1198      1509      1519      1188      1199      1510      1520      1189
 -1       812    1    0    1
 -2      1199      1510      1520      1189      1200      1511      1521      1190
 -1       813    1    0    1
 -2      1200      1511      1521      1190      1201      1512      1522      1191
 -1       814    1    0    1
 -2      1201      1512      1522      1191       158      1224      1225       157
 -1       815    1    0    1
 -2        81       204       205        80      1182      1513      1523      1172
 -1       816    1    0    1
 -2      1182      1513      1523      1172      1183      1514      1524      1173
 -1       817    1    0    1
 -2      1183      1514      1524      1173      1184      1515      1525      1174
 -1       818    1    0    1
 -2      1184      1515      1525      1174      1185      1516      1526      1175
 -1       819    1    0    1
 -2      1185      1516      1526      1175      1186      1517      1527      1176
 -1       820    1    0    1
 -2      1186      1517      1527      1176      1187      1518      1528      1177
 -1       821    1    0    1
 -2      1187      1518      1528      1177      1188      1519      1529      1178
 -1       822    1    0    1
 -2      1188      1519      1529      1178      1189      1520      1530      1179
 -1       823    1    0    1
 -2      1189      1520      1530      1179      1190      1521      1531      1180
 -1       824    1    0    1
 -2      1190      1521      1531      1180      1191      1522      1532      1181
 -1       825    1    0    1
 -2      1191      1522      1532      1181       157      1225      1226       156
 -1       826    1    0    1
 -2        80       205       206        79      1172      1523      1533      1162
 -1       827    1    0    1
 -2      1172      1523      1533      1162      1173      1524      1534      1163
 -1       828    1    0    1
 -2      1173      1524      1534      1163      1174      1525      1535      1164
 -1       829    1    0    1
 -2      1174      1525      1535      1164      1175      1526      1536      1165
 -1       830    1    0    1
 -2      1175      1526      1536      1165      1176      1527      1537      1166
 -1       831    1    0    1
 -2      1176      1527      1537      1166      1177      1528      1538      1167
 -1       832    1    0    1
 -2      1177      1528      1538      1167      1178      1529      1539      1168
 -1       833    1    0    1
 -2      1178      1529      1539      1168      1179      1530      1540      1169
 -1       834    1    0    1
 -2      1179      1530      1540      1169      1180      1531      1541      1170
 -1       835    1    0    1
 -2      1180      1531      1541      1170      1181      1532      1542      1171
 -1       836    1    0    1
 -2      1181      1532      1542      1171       156      1226      1227       155
 -1       837    1    0    1
 -2        79       206       207        78      1162      1533      1543      1152
 -1       838    1    0    1
 -2      1162      1533      1543      1152      1163      1534      1544      1153
 -1       839    1    0    1
 -2      1163      1534      1544      1153      1164      1535      1545      1154
 -1       840    1    0    1
 -2      1164      1535      1545      1154      1165      1536      1546      1155
 -1       841    1    0    1
 -2      1165      1536      1546      1155      1166      1537      1547      1156
 -1       842    1    0    1
 -2      1166      1537      1547      1156      1167      1538      1548      1157
 -1       843    1    0    1
 -2      1167      1538      1548      1157      1168      1539      1549      1158
 -1       844    1    0    1
 -2      1168      1539      1549      1158      1169      1540      1550      1159
 -1       845    1    0    1
 -2      1169      1540      1550      1159      1170      1541      1551      1160
 -1       846    1    0    1
 -2      1170      1541      1551      1160      1171      1542      1552      1161
 -1       847    1    0    1
 -2      1171      1542      1552      1161       155      1227      1228       154
 -1       848    1    0    1
 -2        78       207       208        77      1152      1543      1553      1142
 -1       849    1    0    1
 -2      1152      1543      1553      1142      1153      1544      1554      1143
 -1       850    1    0    1
 -2      1153      1544      1554      1143      1154      1545      1555      1144
 -1       851    1    0    1
 -2      1154      1545      1555      1144      1155      1546      1556      1145
 -1       852    1    0    1
 -2      1155      1546      1556      1145      1156      1547      1557      1146
 -1       853    1    0    1
 -2      1156      1547      1557      1146      1157      1548      1558      1147
 -1       854    1    0    1
 -2      1157      1548      1558      1147      1158      1549      1559      1148
 -1       855    1    0    1
 -2      1158      1549      1559      1148      1159      1550      1560      1149
 -1       856    1    0    1
 -2      1159      1550      1560      1149      1160      1551      1561      1150
 -1       857    1    0    1
 -2      1160      1551      1561      1150      1161      1552      1562      1151
 -1       858    1    0    1
 -2      1161      1552      1562      1151       154      1228      1229       153
 -1       859    1    0    1
 -2        77       208       209        76      1142      1553      1563      1132
 -1       860    1    0    1
 -2      1142      1553      1563      1132      1143      1554      1564      1133
 -1       861    1    0    1
 -2      1143      1554      1564      1133      1144      1555      1565      1134
 -1       862    1    0    1
 -2      1144      1555      1565      1134      1145      1556      1566      1135
 -1       863    1    0    1
 -2      1145      1556      1566      1135      1146      1557      1567      1136
 -1       864    1    0    1
 -2      1146      1557      1567      1136      1147      1558      1568      1137
 -1       865    1    0    1
 -2      1147      1558      1568      1137      1148      1559      1569      1138
 -1       866    1    0    1
 -2      1148      1559      1569      1138      1149      1560      1570      1139
 -1       867    1    0    1
 -2      1149      1560      1570      1139      1150      1561      1571      1140
 -1       868    1    0    1
 -2      1150      1561      1571      1140      1151      1562      1572      1141
 -1       869    1    0    1
 -2      1151      1562      1572      1141       153      1229      1230       152
 -1       870    1    0    1
 -2        76       209        75         4      1132      1563      1122       191
 -1       871    1    0    1
 -2      1132      1563      1122       191      1133      1564      1123       192
 -1       872    1    0    1
 -2      1133      1564      1123       192      1134      1565      1124       193
 -1       873    1    0    1
 -2      1134      1565      1124       193      1135      1566      1125       194
 -1       874    1    0    1
 -2      1135      1566      1125       194      1136      1567      1126       195
 -1       875    1    0    1
 -2      1136      1567      1126       195      1137      1568      1127       196
 -1       876    1    0    1
 -2      1137      1568      1127       196      1138      1569      1128       197
 -1       877    1    0    1
 -2      1138      1569      1128       197      1139      1570      1129       198
 -1       878    1    0    1
 -2      1139      1570      1129       198      1140      1571      1130       199
 -1       879    1    0    1
 -2      1140      1571      1130       199      1141      1572      1131       200
 -1       880    1    0    1
 -2      1141      1572      1131       200       152      1230       151         8
 -1       881    1    0    1
 -2         9        10       210       201       462       472      1573      1483
 -1       882    1    0    1
 -2       462       472      1573      1483       463       473      1574      1484
 -1       883    1    0    1
 -2       463       473      1574      1484       464       474      1575      1485
 -1       884    1    0    1
 -2       464       474      1575      1485       465       475      1576      1486
 -1       885    1    0    1
 -2       465       475      1576      1486       466       476      1577      1487
 -1       886    1    0    1
 -2       466       476      1577      1487       467       477      1578      1488
 -1       887    1    0    1
 -2       467       477      1578      1488       468       478      1579      1489
 -1       888    1    0    1
 -2       468       478      1579      1489       469       479      1580      1490
 -1       889    1    0    1
 -2       469       479      1580      1490       470       480      1581      1491
 -1       890    1    0    1
 -2       470       480      1581      1491       471       481      1582      1492
 -1       891    1    0    1
 -2       471       481      1582      1492        85        86      1231      1222
 -1       892    1    0    1
 -2       201       210       211       202      1483      1573      1583      1493
 -1       893    1    0    1
 -2      1483      1573      1583      1493      1484      1574      1584      1494
 -1       894    1    0    1
 -2      1484      1574      1584      1494      1485      1575      1585      1495
 -1       895    1    0    1
 -2      1485      1575      1585      1495      1486      1576      1586      1496
 -1       896    1    0    1
 -2      1486      1576      1586      1496      1487      1577      1587      1497
 -1       897    1    0    1
 -2      1487      1577      1587      1497      1488      1578      1588      1498
 -1       898    1    0    1
 -2      1488      1578      1588      1498      1489      1579      1589      1499
 -1       899    1    0    1
 -2      1489      1579      1589      1499      1490      1580      1590      1500
 -1       900    1    0    1
 -2      1490      1580      1590      1500      1491      1581      1591      1501
 -1       901    1    0    1
 -2      1491      1581      1591      1501      1492      1582      1592      1502
 -1       902    1    0    1
 -2      1492      1582      1592      1502      1222      1231      1232      1223
 -1       903    1    0    1
 -2       202       211       212       203      1493      1583      1593      1503
 -1       904    1    0    1
 -2      1493      1583      1593      1503      1494      1584      1594      1504
 -1       905    1    0    1
 -2      1494      1584      1594      1504      1495      1585      1595      1505
 -1       906    1    0    1
 -2      1495      1585      1595      1505      1496      1586      1596      1506
 -1       907    1    0    1
 -2      1496      1586      1596      1506      1497      1587      1597      1507
 -1       908    1    0    1
 -2      1497      1587      1597      1507      1498      1588      1598      1508
 -1       909    1    0    1
 -2      1498      1588      1598      1508      1499      1589      1599      1509
 -1       910    1    0    1
 -2      1499      1589      1599      1509      1500      1590      1600      1510
 -1       911    1    0    1
 -2      1500      1590      1600      1510      1501      1591      1601      1511
 -1       912    1    0    1
 -2      1501      1591      1601      1511      1502      1592      1602      1512
 -1       913    1    0    1
 -2      1502      1592      1602      1512      1223      1232      1233      1224
 -1       914    1    0    1
 -2       203       212       213       204      1503      1593      1603      1513
 -1       915    1    0    1
 -2      1503      1593      1603      1513      1504      1594      1604      1514
 -1       916    1    0    1
 -2      1504      1594      1604      1514      1505      1595      1605      1515
 -1       917    1    0    1
 -2      1505      1595      1605      1515      1506      1596      1606      1516
 -1       918    1    0    1
 -2      1506      1596      1606      1516      1507      1597      1607      1517
 -1       919    1    0    1
 -2      1507      1597      1607      1517      1508      1598      1608      1518
 -1       920    1    0    1
 -2      1508      1598      1608      1518      1509      1599      1609      1519
 -1       921    1    0    1
 -2      1509      1599      1609      1519      1510      1600      1610      1520
 -1       922    1    0    1
 -2      1510      1600      1610      1520      1511      1601      1611      1521
 -1       923    1    0    1
 -2      1511      1601      1611      1521      1512      1602      1612      1522
 -1       924    1    0    1
 -2      1512      1602      1612      1522      1224      1233      1234      1225
 -1       925    1    0    1
 -2       204       213       214       205      1513      1603      1613      1523
 -1       926    1    0    1
 -2      1513      1603      1613      1523      1514      1604      1614      1524
 -1       927    1    0    1
 -2      1514      1604      1614      1524      1515      1605      1615      1525
 -1       928    1    0    1
 -2      1515      1605      1615      1525      1516      1606      1616      1526
 -1       929    1    0    1
 -2      1516      1606      1616      1526      1517      1607      1617      1527
 -1       930    1    0    1
 -2      1517      1607      1617      1527      1518      1608      1618      1528
 -1       931    1    0    1
 -2      1518      1608      1618      1528      1519      1609      1619      1529
 -1       932    1    0    1
 -2      1519      1609      1619      1529      1520      1610      1620      1530
 -1       933    1    0    1
 -2      1520      1610      1620      1530      1521      1611      1621      1531
 -1       934    1    0    1
 -2      1521      1611      1621      1531      1522      1612      1622      1532
 -1       935    1    0    1
 -2      1522      1612      1622      1532      1225      1234      1235      1226
 -1       936    1    0    1
 -2       205       214       215       206      1523      1613      1623      1533
 -1       937    1    0    1
 -2      1523      1613      1623      1533      1524      1614      1624      1534
 -1       938    1    0    1
 -2      1524      1614      1624      1534      1525      1615      1625      1535
 -1       939    1    0    1
 -2      1525      1615      1625      1535      1526      1616      1626      1536
 -1       940    1    0    1
 -2      1526      1616      1626      1536      1527      1617      1627      1537
 -1       941    1    0    1
 -2      1527      1617      1627      1537      1528      1618      1628      1538
 -1       942    1    0    1
 -2      1528      1618      1628      1538      1529      1619      1629      1539
 -1       943    1    0    1
 -2      1529      1619      1629      1539      1530      1620      1630      1540
 -1       944    1    0    1
 -2      1530      1620      1630      1540      1531      1621      1631      1541
 -1       945    1    0    1
 -2      1531      1621      1631      1541      1532      1622      1632      1542
 -1       946    1    0    1
 -2      1532      1622      1632      1542      1226      1235      1236      1227
 -1       947    1    0    1
 -2       206       215       216       207      1533      1623      1633      1543
 -1       948    1    0    1
 -2      1533      1623      1633      1543      1534      1624      1634      1544
 -1       949    1    0    1
 -2      1534      1624      1634      1544      1535      1625      1635      1545
 -1       950    1    0    1
 -2      1535      1625      1635      1545      1536      1626      1636      1546
 -1       951    1    0    1
 -2      1536      1626      1636      1546      1537      1627      1637      1547
 -1       952    1    0    1
 -2      1537      1627      1637      1547      1538      1628      1638      1548
 -1       953    1    0    1
 -2      1538      1628      1638      1548      1539      1629      1639      1549
 -1       954    1    0    1
 -2      1539      1629      1639      1549      1540      1630      1640      1550
 -1       955    1    0    1
 -2      1540      1630      1640      1550      1541      1631      1641      1551
 -1       956    1    0    1
 -2      1541      1631      1641      1551      1542      1632      1642      1552
 -1       957    1    0    1
 -2      1542      1632      1642      1552      1227      1236      1237      1228
 -1       958    1    0    1
 -2       207       216       217       208      1543      1633      1643      1553
 -1       959    1    0    1
 -2      1543      1633      1643      1553      1544      1634      1644      1554
 -1       960    1    0    1
 -2      1544      1634      1644      1554      1545      1635      1645      1555
 -1       961    1    0    1
 -2      1545      1635      1645      1555      1546      1636      1646      1556
 -1       962    1    0    1
 -2      1546      1636      1646      1556      1547      1637      1647      1557
 -1       963    1    0    1
 -2      1547      1637      1647      1557      1548      1638      1648      1558
 -1       964    1    0    1
 -2      1548      1638      1648      1558      1549      1639      1649      1559
 -1       965    1    0    1
 -2      1549      1639      1649      1559      1550      1640      1650      1560
 -1       966    1    0    1
 -2      1550      1640      1650      1560      1551      1641      1651      1561
 -1       967    1    0    1
 -2      1551      1641      1651      1561      1552      1642      1652      1562
 -1       968    1    0    1
 -2      1552      1642      1652      1562      1228      1237      1238      1229
 -1       969    1    0    1
 -2       208       217       218       209      1553      1643      1653      1563
 -1       970    1    0    1
 -2      1553      1643      1653      1563      1554      1644      1654      1564
 -1       971    1    0    1
 -2      1554      1644      1654      1564      1555      1645      1655      1565
 -1       972    1    0    1
 -2      1555      1645      1655      1565      1556      1646      1656      1566
 -1       973    1    0    1
 -2      1556      1646      1656      1566      1557      1647      1657      1567
 -1       974    1    0    1
 -2      1557      1647      1657      1567      1558      1648      1658      1568
 -1       975    1    0    1
 -2      1558      1648      1658      1568      1559      1649      1659      1569
 -1       976    1    0    1
 -2      1559      1649      1659      1569      1560      1650      1660      1570
 -1       977    1    0    1
 -2      1560      1650      1660      1570      1561      1651      1661      1571
 -1       978    1    0    1
 -2      1561      1651      1661      1571      1562      1652      1662      1572
 -1       979    1    0    1
 -2      1562      1652      1662      1572      1229      1238      1239      1230
 -1       980    1    0    1
 -2       209       218        74        75      1563      1653      1112      1122
 -1       981    1    0    1
 -2      1563      1653      1112      1122      1564      1654      1113      1123
 -1       982    1    0    1
 -2      1564      1654      1113      1123      1565      1655      1114      1124
 -1       983    1    0    1
 -2      1565      1655      1114      1124      1566      1656      1115      1125
 -1       984    1    0    1
 -2      1566      1656      1115      1125      1567      1657      1116      1126
 -1       985    1    0    1
 -2      1567      1657      1116      1126      1568      1658      1117      1127
 -1       986    1    0    1
 -2      1568      1658      1117      1127      1569      1659      1118      1128
 -1       987    1    0    1
 -2      1569      1659      1118      1128      1570      1660      1119      1129
 -1       988    1    0    1
 -2      1570      1660      1119      1129      1571      1661      1120      1130
 -1       989    1    0    1
 -2      1571      1661      1120      1130      1572      1662      1121      1131
 -1       990    1    0    1
 -2      1572      1662      1121      1131      1230      1239       150       151
 -1       991    1    0    1
 -2        10        11       219       210       472       482      1663      1573
 -1       992    1    0    1
 -2       472       482      1663      1573       473       483      1664      1574
 -1       993    1    0    1
 -2       473       483      1664      1574       474       484      1665      1575
 -1       994    1    0    1
 -2       474       484      1665      1575       475       485      1666      1576
 -1       995    1    0    1
 -2       475       485      1666      1576       476       486      1667      1577
 -1       996    1    0    1
 -2       476       486      1667      1577       477       487      1668      1578
 -1       997    1    0    1
 -2       477       487      1668      1578       478       488      1669      1579
 -1       998    1    0    1
 -2       478       488      1669      1579       479       489      1670      1580
 -1       999    1    0    1
 -2       479       489      1670      1580       480       490      1671      1581
 -1      1000    1    0    1
 -2       480       490      1671      1581       481       491      1672      1582
 -1      1001    1    0    1
 -2       481       491      1672      1582        86        87      1240      1231
 -1      1002    1    0    1
 -2       210       219       220       211      1573      1663      1673      1583
 -1      1003    1    0    1
 -2      1573      1663      1673      1583      1574      1664      1674      1584
 -1      1004    1    0    1
 -2      1574      1664      1674      1584      1575      1665      1675      1585
 -1      1005    1    0    1
 -2      1575      1665      1675      1585      1576      1666      1676      1586
 -1      1006    1    0    1
 -2      1576      1666      1676      1586      1577      1667      1677      1587
 -1      1007    1    0    1
 -2      1577      1667      1677      1587      1578      1668      1678      1588
 -1      1008    1    0    1
 -2      1578      1668      1678      1588      1579      1669      1679      1589
 -1      1009    1    0    1
 -2      1579      1669      1679      1589      1580      1670      1680      1590
 -1      1010    1    0    1
 -2      1580      1670      1680      1590      1581      1671      1681      1591
 -1      1011    1    0    1
 -2      1581      1671      1681      1591      1582      1672      1682      1592
 -1      1012    1    0    1
 -2      1582      1672      1682      1592      1231      1240      1241      1232
 -1      1013    1    0    1
 -2       211       220       221       212      1583      1673      1683      1593
 -1      1014    1    0    1
 -2      1583      1673      1683      1593      1584      1674      1684      1594
 -1      1015    1    0    1
 -2      1584      1674      1684      1594      1585      1675      1685      1595
 -1      1016    1    0    1
 -2      1585      1675      1685      1595      1586      1676      1686      1596
 -1      1017    1    0    1
 -2      1586      1676      1686      1596      1587      1677      1687      1597
 -1      1018    1    0    1
 -2      1587      1677      1687      1597      1588      1678      1688      1598
 -1      1019    1    0    1
 -2      1588      1678      1688      1598      1589      1679      1689      1599
 -1      1020    1    0    1
 -2      1589      1679      1689      1599      1590      1680      1690      1600
 -1      1021    1    0    1
 -2      1590      1680      1690      1600      1591      1681      1691      1601
 -1      1022    1    0    1
 -2      1591      1681      1691      1601      1592      1682      1692      1602
 -1      1023    1    0    1
 -2      1592      1682      1692      1602      1232      1241      1242      1233
 -1      1024    1    0    1
 -2       212       221       222       213      1593      1683      1693      1603
 -1      1025    1    0    1
 -2      1593      1683      1693      1603      1594      1684      1694      1604
 -1      1026    1    0    1
 -2      1594      1684      1694      1604      1595      1685      1695      1605
 -1      1027    1    0    1
 -2      1595      1685      1695      1605      1596      1686      1696      1606
 -1      1028    1    0    1
 -2      1596      1686      1696      1606      1597      1687      1697      1607
 -1      1029    1    0    1
 -2      1597      1687      1697      1607      1598      1688      1698      1608
 -1      1030    1    0    1
 -2      1598      1688      1698      1608      1599      1689      1699      1609
 -1      1031    1    0    1
 -2      1599      1689      1699      1609      1600      1690      1700      1610
 -1      1032    1    0    1
 -2      1600      1690      1700      1610      1601      1691      1701      1611
 -1      1033    1    0    1
 -2      1601      1691      1701      1611      1602      1692      1702      1612
 -1      1034    1    0    1
 -2      1602      1692      1702      1612      1233      1242      1243      1234
 -1      1035    1    0    1
 -2       213       222       223       214      1603      1693      1703      1613
 -1      1036    1    0    1
 -2      1603      1693      1703      1613      1604      1694      1704      1614
 -1      1037    1    0    1
 -2      1604      1694      1704      1614      1605      1695      1705      1615
 -1      1038    1    0    1
 -2      1605      1695      1705      1615      1606      1696      1706      1616
 -1      1039    1    0    1
 -2      1606      1696      1706      1616      1607      1697      1707      1617
 -1      1040    1    0    1
 -2      1607      1697      1707      1617      1608      1698      1708      1618
 -1      1041    1    0    1
 -2      1608      1698      1708      1618      1609      1699      1709      1619
 -1      1042    1    0    1
 -2      1609      1699      1709      1619      1610      1700      1710      1620
 -1      1043    1    0    1
 -2      1610      1700      1710      1620      1611      1701      1711      1621
 -1      1044    1    0    1
 -2      1611      1701      1711      1621      1612      1702      1712      1622
 -1      1045    1    0    1
 -2      1612      1702      1712      1622      1234      1243      1244      1235
 -1      1046    1    0    1
 -2       214       223       224       215      1613      1703      1713      1623
 -1      1047    1    0    1
 -2      1613      1703      1713      1623      1614      1704      1714      1624
 -1      1048    1    0    1
 -2      1614      1704      1714      1624      1615      1705      1715      1625
 -1      1049    1    0    1
 -2      1615      1705      1715      1625      1616      1706      1716      1626
 -1      1050    1    0    1
 -2      1616      1706      1716      1626      1617      1707      1717      1627
 -1      1051    1    0    1
 -2      1617      1707      1717      1627      1618      1708      1718      1628
 -1      1052    1    0    1
 -2      1618      1708      1718      1628      1619      1709      1719      1629
 -1      1053    1    0    1
 -2      1619      1709      1719      1629      1620      1710      1720      1630
 -1      1054    1    0    1
 -2      1620      1710      1720      1630      1621      1711      1721      1631
 -1      1055    1    0    1
 -2      1621      1711      1721      1631      1622      1712      1722      1632
 -1      1056    1    0    1
 -2      1622      1712      1722      1632      1235      1244      1245      1236
 -1      1057    1    0    1
 -2       215       224       225       216      1623      1713      1723      1633
 -1      1058    1    0    1
 -2      1623      1713      1723      1633      1624      1714      1724      1634
 -1      1059    1    0    1
 -2      1624      1714      1724      1634      1625      1715      1725      1635
 -1      1060    1    0    1
 -2      1625      1715      1725      1635      1626      1716      1726      1636
 -1      1061    1    0    1
 -2      1626      1716      1726      1636      1627      1717      1727      1637
 -1      1062    1    0    1
 -2      1627      1717      1727      1637      1628      1718      1728      1638
 -1      1063    1    0    1
 -2      1628      1718      1728      1638      1629      1719      1729      1639
 -1      1064    1    0    1
 -2      1629      1719      1729      1639      1630      1720      1730      1640
 -1      1065    1    0    1
 -2      1630      1720      1730      1640      1631      1721      1731      1641
 -1      1066    1    0    1
 -2      1631      1721      1731      1641      1632      1722      1732      1642
 -1      1067    1    0    1
 -2      1632      1722      1732      1642      1236      1245      1246      1237
 -1      1068    1    0    1
 -2       216       225       226       217      1633      1723      1733      1643
 -1      1069    1    0    1
 -2      1633      1723      1733      1643      1634      1724      1734      1644
 -1      1070    1    0    1
 -2      1634      1724      1734      1644      1635      1725      1735      1645
 -1      1071    1    0    1
 -2      1635      1725      1735      1645      1636      1726      1736      1646
 -1      1072    1    0    1
 -2      1636      1726      1736      1646      1637      1727      1737      1647
 -1      1073    1    0    1
 -2      1637      1727      1737      1647      1638      1728      1738      1648
 -1      1074    1    0    1
 -2      1638      1728      1738      1648      1639      1729      1739      1649
 -1      1075    1    0    1
 -2      1639      1729      1739      1649      1640      1730      1740      1650
 -1      1076    1    0    1
 -2      1640      1730      1740      1650      1641      1731      1741      1651
 -1      1077    1    0    1
 -2      1641      1731      1741      1651      1642      1732      1742      1652
 -1      1078    1    0    1
 -2      1642      1732      1742      1652      1237      1246      1247      1238
 -1      1079    1    0    1
 -2       217       226       227       218      1643      1733      1743      1653
 -1      1080    1    0    1
 -2      1643      1733      1743      1653      1644      1734      1744      1654
 -1      1081    1    0    1
 -2      1644      1734      1744      1654      1645      1735      1745      1655
 -1      1082    1    0    1
 -2      1645      1735      1745      1655      1646      1736      1746      1656
 -1      1083    1    0    1
 -2      1646      1736      1746      1656      1647      1737      1747      1657
 -1      1084    1    0    1
 -2      1647      1737      1747      1657      1648      1738      1748      1658
 -1      1085    1    0    1
 -2      1648      1738      1748      1658      1649      1739      1749      1659
 -1      1086    1    0    1
 -2      1649      1739      1749      1659      1650      1740      1750      1660
 -1      1087    1    0    1
 -2      1650      1740      1750      1660      1651      1741      1751      1661
 -1      1088    1    0    1
 -2      1651      1741      1751      1661      1652      1742      1752      1662
 -1      1089    1    0    1
 -2      1652      1742      1752      1662      1238      1247      1248      1239
 -1      1090    1    0    1
 -2       218       227        73        74      1653      1743      1102      1112
 -1      1091    1    0    1
 -2      1653      1743      1102      1112      1654      1744      1103      1113
 -1      1092    1    0    1
 -2      1654      1744      1103      1113      1655      1745      1104      1114
 -1      1093    1    0    1
 -2      1655      1745      1104      1114      1656      1746      1105      1115
 -1      1094    1    0    1
 -2      1656      1746      1105      1115      1657      1747      1106      1116
 -1      1095    1    0    1
 -2      1657      1747      1106      1116      1658      1748      1107      1117
 -1      1096    1    0    1
 -2      1658      1748      1107      1117      1659      1749      1108      1118
 -1      1097    1    0    1
 -2      1659      1749      1108      1118      1660      1750      1109      1119
 -1      1098    1    0    1
 -2      1660      1750      1109      1119      1661      1751      1110      1120
 -1      1099    1    0    1
 -2      1661      1751      1110      1120      1662      1752      1111      1121
 -1      1100    1    0    1
 -2      1662      1752      1111      1121      1239      1248       149       150
 -1      1101    1    0    1
 -2        11        12       228       219       482       492      1753      1663
 -1      1102    1    0    1
 -2       482       492      1753      1663       483       493      1754      1664
 -1      1103    1    0    1
 -2       483       493      1754      1664       484       494      1755      1665
 -1      1104    1    0    1
 -2       484       494      1755      1665       485       495      1756      1666
 -1      1105    1    0    1
 -2       485       495      1756      1666       486       496      1757      1667
 -1      1106    1    0    1
 -2       486       496      1757      1667       487       497      1758      1668
 -1      1107    1    0    1
 -2       487       497      1758      1668       488       498      1759      1669
 -1      1108    1    0    1
 -2       488       498      1759      1669       489       499      1760      1670
 -1      1109    1    0    1
 -2       489       499      1760      1670       490       500      1761      1671
 -1      1110    1    0    1
 -2       490       500      1761      1671       491       501      1762      1672
 -1      1111    1    0    1
 -2       491       501      1762      1672        87        88      1249      1240
 -1      1112    1    0    1
 -2       219       228       229       220      1663      1753      1763      1673
 -1      1113    1    0    1
 -2      1663      1753      1763      1673      1664      1754      1764      1674
 -1      1114    1    0    1
 -2      1664      1754      1764      1674      1665      1755      1765      1675
 -1      1115    1    0    1
 -2      1665      1755      1765      1675      1666      1756      1766      1676
 -1      1116    1    0    1
 -2      1666      1756      1766      1676      1667      1757      1767      1677
 -1      1117    1    0    1
 -2      1667      1757      1767      1677      1668      1758      1768      1678
 -1      1118    1    0    1
 -2      1668      1758      1768      1678      1669      1759      1769      1679
 -1      1119    1    0    1
 -2      1669      1759      1769      1679      1670      1760      1770      1680
 -1      1120    1    0    1
 -2      1670      1760      1770      1680      1671      1761      1771      1681
 -1      1121    1    0    1
 -2      1671      1761      1771      1681      1672      1762      1772      1682
 -1      1122    1    0    1
 -2      1672      1762      1772      1682      1240      1249      1250      1241
 -1      1123    1    0    1
 -2       220       229       230       221      1673      1763      1773      1683
 -1      1124    1    0    1
 -2      1673      1763      1773      1683      1674      1764      1774      1684
 -1      1125    1    0    1
 -2      1674      1764      1774      1684      1675      1765      1775      1685
 -1      1126    1    0    1
 -2      1675      1765      1775      1685      1676      1766      1776      1686
 -1      1127    1    0    1
 -2      1676      1766      1776      1686      1677      1767      1777      1687
 -1      1128    1    0    1
 -2      1677      1767      1777      1687      1678      1768      1778      1688
 -1      1129    1    0    1
 -2      1678      1768      1778      1688      1679      1769      1779      1689
 -1      1130    1    0    1
 -2      1679      1769      1779      1689      1680      1770      1780      1690
 -1      1131    1    0    1
 -2      1680      1770      1780      1690      1681      1771      1781      1691
 -1      1132    1    0    1
 -2      1681      1771      1781      1691      1682      1772      1782      1692
 -1      1133    1    0    1
 -2      1682      1772      1782      1692      1241      1250      1251      1242
 -1      1134    1    0    1
 -2       221       230       231       222      1683      1773      1783      1693
 -1      1135    1    0    1
 -2      1683      1773      1783      1693      1684      1774      1784      1694
 -1      1136    1    0    1
 -2      1684      1774      1784      1694      1685      1775      1785      1695
 -1      1137    1    0    1
 -2      1685      1775      1785      1695      1686      1776      1786      1696
 -1      1138    1    0    1
 -2      1686      1776      1786      1696      1687      1777      1787      1697
 -1      1139    1    0    1
 -2      1687      1777      1787      1697      1688      1778      1788      1698
 -1      1140    1    0    1
 -2      1688      1778      1788      1698      1689      1779      1789      1699
 -1      1141    1    0    1
 -2      1689      1779      1789      1699      1690      1780      1790      1700
 -1      1142    1    0    1
 -2      1690      1780      1790      1700      1691      1781      1791      1701
 -1      1143    1    0    1
 -2      1691      1781      1791      1701      1692      1782      1792      1702
 -1      1144    1    0    1
 -2      1692      1782      1792      1702      1242      1251      1252      1243
 -1      1145    1    0    1
 -2       222       231       232       223      1693      1783      1793      1703
 -1      1146    1    0    1
 -2      1693      1783      1793      1703      1694      1784      1794      1704
 -1      1147    1    0    1
 -2      1694      1784      1794      1704      1695      1785      1795      1705
 -1      1148    1    0    1
 -2      1695      1785      1795      1705      1696      1786      1796      1706
 -1      1149    1    0    1
 -2      1696      1786      1796      1706      1697      1787      1797      1707
 -1      1150    1    0    1
 -2      1697      1787      1797      1707      1698      1788      1798      1708
 -1      1151    1    0    1
 -2      1698      1788      1798      1708      1699      1789      1799      1709
 -1      1152    1    0    1
 -2      1699      1789      1799      1709      1700      1790      1800      1710
 -1      1153    1    0    1
 -2      1700      1790      1800      1710      1701      1791      1801      1711
 -1      1154    1    0    1
 -2      1701      1791      1801      1711      1702      1792      1802      1712
 -1      1155    1    0    1
 -2      1702      1792      1802      1712      1243      1252      1253      1244
 -1      1156    1    0    1
 -2       223       232       233       224      1703      1793      1803      1713
 -1      1157    1    0    1
 -2      1703      1793      1803      1713      1704      1794      1804      1714
 -1      1158    1    0    1
 -2      1704      1794      1804      1714      1705      1795      1805      1715
 -1      1159    1    0    1
 -2      1705      1795      1805      1715      1706      1796      1806      1716
 -1      1160    1    0    1
 -2      1706      1796      1806      1716      1707      1797      1807      1717
 -1      1161    1    0    1
 -2      1707      1797      1807      1717      1708      1798      1808      1718
 -1      1162    1    0    1
 -2      1708      1798      1808      1718      1709      1799      1809      1719
 -1      1163    1    0    1
 -2      1709      1799      1809      1719      1710      1800      1810      1720
 -1      1164    1    0    1
 -2      1710      1800      1810      1720      1711      1801      1811      1721
 -1      1165    1    0    1
 -2      1711      1801      1811      1721      1712      1802      1812      1722
 -1      1166    1    0    1
 -2      1712      1802      1812      1722      1244      1253      1254      1245
 -1      1167    1    0    1
 -2       224       233       234       225      1713      1803      1813      1723
 -1      1168    1    0    1
 -2      1713      1803      1813      1723      1714      1804      1814      1724
 -1      1169    1    0    1
 -2      1714      1804      1814      1724      1715      1805      1815      1725
 -1      1170    1    0    1
 -2      1715      1805      1815      1725      1716      1806      1816      1726
 -1      1171    1    0    1
 -2      1716      1806      1816      1726      1717      1807      1817      1727
 -1      1172    1    0    1
 -2      1717      1807      1817      1727      1718      1808      1818      1728
 -1      1173    1    0    1
 -2      1718      1808      1818      1728      1719      1809      1819      1729
 -1      1174    1    0    1
 -2      1719      1809      1819      1729      1720      1810      1820      1730
 -1      1175    1    0    1
 -2      1720      1810      1820      1730      1721      1811      1821      1731
 -1      1176    1    0    1
 -2      1721      1811      1821      1731      1722      1812      1822      1732
 -1      1177    1    0    1
 -2      1722      1812      1822      1732      1245      1254      1255      1246
 -1      1178    1    0    1
 -2       225       234       235       226      1723      1813      1823      1733
 -1      1179    1    0    1
 -2      1723      1813      1823      1733      1724      1814      1824      1734
 -1      1180    1    0    1
 -2      1724      1814      1824      1734      1725      1815      1825      1735
 -1      1181    1    0    1
 -2      1725      1815      1825      1735      1726      1816      1826      1736
 -1      1182    1    0    1
 -2      1726      1816      1826      1736      1727      1817      1827      1737
 -1      1183    1    0    1
 -2      1727      1817      1827      1737      1728      1818      1828      1738
 -1      1184    1    0    1
 -2      1728      1818      1828      1738      1729      1819      1829      1739
 -1      1185    1    0    1
 -2      1729      1819      1829      1739      1730      1820      1830      1740
 -1      1186    1    0    1
 -2      1730      1820      1830      1740      1731      1821      1831      1741
 -1      1187    1    0    1
 -2      1731      1821      1831      1741      1732      1822      1832      1742
 -1      1188    1    0    1
 -2      1732      1822      1832      1742      1246      1255      1256      1247
 -1      1189    1    0    1
 -2       226       235       236       227      1733      1823      1833      1743
 -1      1190    1    0    1
 -2      1733      1823      1833      1743      1734      1824      1834      1744
 -1      1191    1    0    1
 -2      1734      1824      1834      1744      1735      1825      1835      1745
 -1      1192    1    0    1
 -2      1735      1825      1835      1745      1736      1826      1836      1746
 -1      1193    1    0    1
 -2      1736      1826      1836      1746      1737      1827      1837      1747
 -1      1194    1    0    1
 -2      1737      1827      1837      1747      1738      1828      1838      1748
 -1      1195    1    0    1
 -2      1738      1828      1838      1748      1739      1829      1839      1749
 -1      1196    1    0    1
 -2      1739      1829      1839      1749      1740      1830      1840      1750
 -1      1197    1    0    1
 -2      1740      1830      1840      1750      1741      1831      1841      1751
 -1      1198    1    0    1
 -2      1741      1831      1841      1751      1742      1832      1842      1752
 -1      1199    1    0    1
 -2      1742      1832      1842      1752      1247      1256      1257      1248
 -1      1200    1    0    1
 -2       227       236        72        73      1743      1833      1092      1102
 -1      1201    1    0    1
 -2      1743      1833      1092      1102      1744      1834      1093      1103
 -1      1202    1    0    1
 -2      1744      1834      1093      1103      1745      1835      1094      1104
 -1      1203    1    0    1
 -2      1745      1835      1094      1104      1746      1836      1095      1105
 -1      1204    1    0    1
 -2      1746      1836      1095      1105      1747      1837      1096      1106
 -1      1205    1    0    1
 -2      1747      1837      1096      1106      1748      1838      1097      1107
 -1      1206    1    0    1
 -2      1748      1838      1097      1107      1749      1839      1098      1108
 -1      1207    1    0    1
 -2      1749      1839      1098      1108      1750      1840      1099      1109
 -1      1208    1    0    1
 -2      1750      1840      1099      1109      1751      1841      1100      1110
 -1      1209    1    0    1
 -2      1751      1841      1100      1110      1752      1842      1101      1111
 -1      1210    1    0    1
 -2      1752      1842      1101      1111      1248      1257       148       149
 -1      1211    1    0    1
 -2        12        13       237       228       492       502      1843      1753
 -1      1212    1    0    1
 -2       492       502      1843      1753       493       503      1844      1754
 -1      1213    1    0    1
 -2       493       503      1844      1754       494       504      1845      1755
 -1      1214    1    0    1
 -2       494       504      1845      1755       495       505      1846      1756
 -1      1215    1    0    1
 -2       495       505      1846      1756       496       506      1847      1757
 -1      1216    1    0    1
 -2       496       506      1847      1757       497       507      1848      1758
 -1      1217    1    0    1
 -2       497       507      1848      1758       498       508      1849      1759
 -1      1218    1    0    1
 -2       498       508      1849      1759       499       509      1850      1760
 -1      1219    1    0    1
 -2       499       509      1850      1760       500       510      1851      1761
 -1      1220    1    0    1
 -2       500       510      1851      1761       501       511      1852      1762
 -1      1221    1    0    1
 -2       501       511      1852      1762        88        89      1258      1249
 -1      1222    1    0    1
 -2       228       237       238       229      1753      1843      1853      1763
 -1      1223    1    0    1
 -2      1753      1843      1853      1763      1754      1844      1854      1764
 -1      1224    1    0    1
 -2      1754      1844      1854      1764      1755      1845      1855      1765
 -1      1225    1    0    1
 -2      1755      1845      1855      1765      1756      1846      1856      1766
 -1      1226    1    0    1
 -2      1756      1846      1856      1766      1757      1847      1857      1767
 -1      1227    1    0    1
 -2      1757      1847      1857      1767      1758      1848      1858      1768
 -1      1228    1    0    1
 -2      1758      1848      1858      1768      1759      1849      1859      1769
 -1      1229    1    0    1
 -2      1759      1849      1859      1769      1760      1850      1860      1770
 -1      1230    1    0    1
 -2      1760      1850      1860      1770      1761      1851      1861      1771
 -1      1231    1    0    1
 -2      1761      1851      1861      1771      1762      1852      1862      1772
 -1      1232    1    0    1
 -2      1762      1852      1862      1772      1249      1258      1259      1250
 -1      1233    1    0    1
 -2       229       238       239       230      1763      1853      1863      1773
 -1      1234    1    0    1
 -2      1763      1853      1863      1773      1764      1854      1864      1774
 -1      1235    1    0    1
 -2      1764      1854      1864      1774      1765      1855      1865      1775
 -1      1236    1    0    1
 -2      1765      1855      1865      1775      1766      1856      1866      1776
 -1      1237    1    0    1
 -2      1766      1856      1866      1776      1767      1857      1867      1777
 -1      1238    1    0    1
 -2      1767      1857      1867      1777      1768      1858      1868      1778
 -1      1239    1    0    1
 -2      1768      1858      1868      1778      1769      1859      1869      1779
 -1      1240    1    0    1
 -2      1769      1859      1869      1779      1770      1860      1870      1780
 -1      1241    1    0    1
 -2      1770      1860      1870      1780      1771      1861      1871      1781
 -1      1242    1    0    1
 -2      1771      1861      1871      1781      1772      1862      1872      1782
 -1      1243    1    0    1
 -2      1772      1862      1872      1782      1250      1259      1260      1251
 -1      1244    1    0    1
 -2       230       239       240       231      1773      1863      1873      1783
 -1      1245    1    0    1
 -2      1773      1863      1873      1783      1774      1864      1874      1784
 -1      1246    1    0    1
 -2      1774      1864      1874      1784      1775      1865      1875      1785
 -1      1247    1    0    1
 -2      1775      1865      1875      1785      1776      1866      1876      1786
 -1      1248    1    0    1
 -2      1776      1866      1876      1786      1777      1867      1877      1787
 -1      1249    1    0    1
 -2      1777      1867      1877      1787      1778      1868      1878      1788
 -1      1250    1    0    1
 -2      1778      1868      1878      1788      1779      1869      1879      1789
 -1      1251    1    0    1
 -2      1779      1869      1879      1789      1780      1870      1880      1790
 -1      1252    1    0    1
 -2      1780      1870      1880      1790      1781      1871      1881      1791
 -1      1253    1    0    1
 -2      1781      1871      1881      1791      1782      1872      1882      1792
 -1      1254    1    0    1
 -2      1782      1872      1882      1792      1251      1260      1261      1252
 -1      1255    1    0    1
 -2       231       240       241       232      1783      1873      1883      1793
 -1      1256    1    0    1
 -2      1783      1873      1883      1793      1784      1874      1884      1794
 -1      1257    1    0    1
 -2      1784      1874      1884      1794      1785      1875      1885      1795
 -1      1258    1    0    1
 -2      1785      1875      1885      1795      1786      1876      1886      1796
 -1      1259    1    0    1
 -2      1786      1876      1886      1796      1787      1877      1887      1797
 -1      1260    1    0    1
 -2      1787      1877      1887      1797      1788      1878      1888      1798
 -1      1261    1    0    1
 -2      1788      1878      1888      1798      1789      1879      1889      1799
 -1      1262    1    0    1
 -2      1789      1879      1889      1799      1790      1880      1890      1800
 -1      1263    1    0    1
 -2      1790      1880      1890      1800      1791      1881      1891      1801
 -1      1264    1    0    1
 -2      1791      1881      1891      1801      1792      1882      1892      1802
 -1      1265    1    0    1
 -2      1792      1882      1892      1802      1252      1261      1262      1253
 -1      1266    1    0    1
 -2       232       241       242       233      1793      1883      1893      1803
 -1      1267    1    0    1
 -2      1793      1883      1893      1803      1794      1884      1894      1804
 -1      1268    1    0    1
 -2      1794      1884      1894      1804      1795      1885      1895      1805
 -1      1269    1    0    1
 -2      1795      1885      1895      1805      1796      1886      1896      1806
 -1      1270    1    0    1
 -2      1796      1886      1896      1806      1797      1887      1897      1807
 -1      1271    1    0    1
 -2      1797      1887      1897      1807      1798      1888      1898      1808
 -1      1272    1    0    1
 -2      1798      1888      1898      1808      1799      1889      1899      1809
 -1      1273    1    0    1
 -2      1799      1889      1899      1809      1800      1890      1900      1810
 -1      1274    1    0    1
 -2      1800      1890      1900      1810      1801      1891      1901      1811
 -1      1275    1    0    1
 -2      1801      1891      1901      1811      1802      1892      1902      1812
 -1      1276    1    0    1
 -2      1802      1892      1902      1812      1253      1262      1263      1254
 -1      1277    1    0    1
 -2       233       242       243       234      1803      1893      1903      1813
 -1      1278    1    0    1
 -2      1803      1893      1903      1813      1804      1894      1904      1814
 -1      1279    1    0    1
 -2      1804      1894      1904      1814      1805      1895      1905      1815
 -1      1280    1    0    1
 -2      1805      1895      1905      1815      1806      1896      1906      1816
 -1      1281    1    0    1
 -2      1806      1896      1906      1816      1807      1897      1907      1817
 -1      1282    1    0    1
 -2      1807      1897      1907      1817      1808      1898      1908      1818
 -1      1283    1    0    1
 -2      1808      1898      1908      1818      1809      1899      1909      1819
 -1      1284    1    0    1
 -2      1809      1899      1909      1819      1810      1900      1910      1820
 -1      1285    1    0    1
 -2      1810      1900      1910      1820      1811      1901      1911      1821
 -1      1286    1    0    1
 -2      1811      1901      1911      1821      1812      1902      1912      1822
 -1      1287    1    0    1
 -2      1812      1902      1912      1822      1254      1263      1264      1255
 -1      1288    1    0    1
 -2       234       243       244       235      1813      1903      1913      1823
 -1      1289    1    0    1
 -2      1813      1903      1913      1823      1814      1904      1914      1824
 -1      1290    1    0    1
 -2      1814      1904      1914      1824      1815      1905      1915      1825
 -1      1291    1    0    1
 -2      1815      1905      1915      1825      1816      1906      1916      1826
 -1      1292    1    0    1
 -2      1816      1906      1916      1826      1817      1907      1917      1827
 -1      1293    1    0    1
 -2      1817      1907      1917      1827      1818      1908      1918      1828
 -1      1294    1    0    1
 -2      1818      1908      1918      1828      1819      1909      1919      1829
 -1      1295    1    0    1
 -2      1819      1909      1919      1829      1820      1910      1920      1830
 -1      1296    1    0    1
 -2      1820      1910      1920      1830      1821      1911      1921      1831
 -1      1297    1    0    1
 -2      1821      1911      1921      1831      1822      1912      1922      1832
 -1      1298    1    0    1
 -2      1822      1912      1922      1832      1255      1264      1265      1256
 -1      1299    1    0    1
 -2       235       244       245       236      1823      1913      1923      1833
 -1      1300    1    0    1
 -2      1823      1913      1923      1833      1824      1914      1924      1834
 -1      1301    1    0    1
 -2      1824      1914      1924      1834      1825      1915      1925      1835
 -1      1302    1    0    1
 -2      1825      1915      1925      1835      1826      1916      1926      1836
 -1      1303    1    0    1
 -2      1826      1916      1926      1836      1827      1917      1927      1837
 -1      1304    1    0    1
 -2      1827      1917      1927      1837      1828      1918      1928      1838
 -1      1305    1    0    1
 -2      1828      1918      1928      1838      1829      1919      1929      1839
 -1      1306    1    0    1
 -2      1829      1919      1929      1839      1830      1920      1930      1840
 -1      1307    1    0    1
 -2      1830      1920      1930      1840      1831      1921      1931      1841
 -1      1308    1    0    1
 -2      1831      1921      1931      1841      1832      1922      1932      1842
 -1      1309    1    0    1
 -2      1832      1922      1932      1842      1256      1265      1266      1257
 -1      1310    1    0    1
 -2       236       245        71        72      1833      1923      1082      1092
 -1      1311    1    0    1
 -2      1833      1923      1082      1092      1834      1924      1083      1093
 -1      1312    1    0    1
 -2      1834      1924      1083      1093      1835      1925      1084      1094
 -1      1313    1    0    1
 -2      1835      1925      1084      1094      1836      1926      1085      1095
 -1      1314    1    0    1
 -2      1836      1926      1085      1095      1837      1927      1086      1096
 -1      1315    1    0    1
 -2      1837      1927      1086      1096      1838      1928      1087      1097
 -1      1316    1    0    1
 -2      1838      1928      1087      1097      1839      1929      1088      1098
 -1      1317    1    0    1
 -2      1839      1929      1088      1098      1840      1930      1089      1099
 -1      1318    1    0    1
 -2      1840      1930      1089      1099      1841      1931      1090      1100
 -1      1319    1    0    1
 -2      1841      1931      1090      1100      1842      1932      1091      1101
 -1      1320    1    0    1
 -2      1842      1932      1091      1101      1257      1266       147       148
 -1      1321    1    0    1
 -2        13        14       246       237       502       512      1933      1843
 -1      1322    1    0    1
 -2       502       512      1933      1843       503       513      1934      1844
 -1      1323    1    0    1
 -2       503       513      1934      1844       504       514      1935      1845
 -1      1324    1    0    1
 -2       504       514      1935      1845       505       515      1936      1846
 -1      1325    1    0    1
 -2       505       515      1936      1846       506       516      1937      1847
 -1      1326    1    0    1
 -2       506       516      1937      1847       507       517      1938      1848
 -1      1327    1    0    1
 -2       507       517      1938      1848       508       518      1939      1849
 -1      1328    1    0    1
 -2       508       518      1939      1849       509       519      1940      1850
 -1      1329    1    0    1
 -2       509       519      1940      1850       510       520      1941      1851
 -1      1330    1    0    1
 -2       510       520      1941      1851       511       521      1942      1852
 -1      1331    1    0    1
 -2       511       521      1942      1852        89        90      1267      1258
 -1      1332    1    0    1
 -2       237       246       247       238      1843      1933      1943      1853
 -1      1333    1    0    1
 -2      1843      1933      1943      1853      1844      1934      1944      1854
 -1      1334    1    0    1
 -2      1844      1934      1944      1854      1845      1935      1945      1855
 -1      1335    1    0    1
 -2      1845      1935      1945      1855      1846      1936      1946      1856
 -1      1336    1    0    1
 -2      1846      1936      1946      1856      1847      1937      1947      1857
 -1      1337    1    0    1
 -2      1847      1937      1947      1857      1848      1938      1948      1858
 -1      1338    1    0    1
 -2      1848      1938      1948      1858      1849      1939      1949      1859
 -1      1339    1    0    1
 -2      1849      1939      1949      1859      1850      1940      1950      1860
 -1      1340    1    0    1
 -2      1850      1940      1950      1860      1851      1941      1951      1861
 -1      1341    1    0    1
 -2      1851      1941      1951      1861      1852      1942      1952      1862
 -1      1342    1    0    1
 -2      1852      1942      1952      1862      1258      1267      1268      1259
 -1      1343    1    0    1
 -2       238       247       248       239      1853      1943      1953      1863
 -1      1344    1    0    1
 -2      1853      1943      1953      1863      1854      1944      1954      1864
 -1      1345    1    0    1
 -2      1854      1944      1954      1864      1855      1945      1955      1865
 -1      1346    1    0    1
 -2      1855      1945      1955      1865      1856      1946      1956      1866
 -1      1347    1    0    1
 -2      1856      1946      1956      1866      1857      1947      1957      1867
 -1      1348    1    0    1
 -2      1857      1947      1957      1867      1858      1948      1958      1868
 -1      1349    1    0    1
 -2      1858      1948      1958      1868      1859      1949      1959      1869
 -1      1350    1    0    1
 -2      1859      1949      1959      1869      1860      1950      1960      1870
 -1      1351    1    0    1
 -2      1860      1950      1960      1870      1861      1951      1961      1871
 -1      1352    1    0    1
 -2      1861      1951      1961      1871      1862      1952      1962      1872
 -1      1353    1    0    1
 -2      1862      1952      1962      1872      1259      1268      1269      1260
 -1      1354    1    0    1
 -2       239       248       249       240      1863      1953      1963      1873
 -1      1355    1    0    1
 -2      1863      1953      1963      1873      1864      1954      1964      1874
 -1      1356    1    0    1
 -2      1864      1954      1964      1874      1865      1955      1965      1875
 -1      1357    1    0    1
 -2      1865      1955      1965      1875      1866      1956      1966      1876
 -1      1358    1    0    1
 -2      1866      1956      1966      1876      1867      1957      1967      1877
 -1      1359    1    0    1
 -2      1867      1957      1967      1877      1868      1958      1968      1878
 -1      1360    1    0    1
 -2      1868      1958      1968      1878      1869      1959      1969      1879
 -1      1361    1    0    1
 -2      1869      1959      1969      1879      1870      1960      1970      1880
 -1      1362    1    0    1
 -2      1870      1960      1970      1880      1871      1961      1971      1881
 -1      1363    1    0    1
 -2      1871      1961      1971      1881      1872      1962      1972      1882
 -1      1364    1    0    1
 -2      1872      1962      1972      1882      1260      1269      1270      1261
 -1      1365    1    0    1
 -2       240       249       250       241      1873      1963      1973      1883
 -1      1366    1    0    1
 -2      1873      1963      1973      1883      1874      1964      1974      1884
 -1      1367    1    0    1
 -2      1874      1964      1974      1884      1875      1965      1975      1885
 -1      1368    1    0    1
 -2      1875      1965      1975      1885      1876      1966      1976      1886
 -1      1369    1    0    1
 -2      1876      1966      1976      1886      1877      1967      1977      1887
 -1      1370    1    0    1
 -2      1877      1967      1977      1887      1878      1968      1978      1888
 -1      1371    1    0    1
 -2      1878      1968      1978      1888      1879      1969      1979      1889
 -1      1372    1    0    1
 -2      1879      1969      1979      1889      1880      1970      1980      1890
 -1      1373    1    0    1
 -2      1880      1970      1980      1890      1881      1971      1981      1891
 -1      1374    1    0    1
 -2      1881      1971      1981      1891      1882      1972      1982      1892
 -1      1375    1    0    1
 -2      1882      1972      1982      1892      1261      1270      1271      1262
 -1      1376    1    0    1
 -2       241       250       251       242      1883      1973      1983      1893
 -1      1377    1    0    1
 -2      1883      1973      1983      1893      1884      1974      1984      1894
 -1      1378    1    0    1
 -2      1884      1974      1984      1894      1885      1975      1985      1895
 -1      1379    1    0    1
 -2      1885      1975      1985      1895      1886      1976      1986      1896
 -1      1380    1    0    1
 -2      1886      1976      1986      1896      1887      1977      1987      1897
 -1      1381    1    0    1
 -2      1887      1977      1987      1897      1888      1978      1988      1898
 -1      1382    1    0    1
 -2      1888      1978      1988      1898      1889      1979      1989      1899
 -1      1383    1    0    1
 -2      1889      1979      1989      1899      1890      1980      1990      1900
 -1      1384    1    0    1
 -2      1890      1980      1990      1900      1891      1981      1991      1901
 -1      1385    1    0    1
 -2      1891      1981      1991      1901      1892      1982      1992      1902
 -1      1386    1    0    1
 -2      1892      1982      1992      1902      1262      1271      1272      1263
 -1      1387    1    0    1
 -2       242       251       252       243      1893      1983      1993      1903
 -1      1388    1    0    1
 -2      1893      1983      1993      1903      1894      1984      1994      1904
 -1      1389    1    0    1
 -2      1894      1984      1994      1904      1895      1985      1995      1905
 -1      1390    1    0    1
 -2      1895      1985      1995      1905      1896      1986      1996      1906
 -1      1391    1    0    1
 -2      1896      1986      1996      1906      1897      1987      1997      1907
 -1      1392    1    0    1
 -2      1897      1987      1997      1907      1898      1988      1998      1908
 -1      1393    1    0    1
 -2      1898      1988      1998      1908      1899      1989      1999      1909
 -1      1394    1    0    1
 -2      1899      1989      1999      1909      1900      1990      2000      1910
 -1      1395    1    0    1
 -2      1900      1990      2000      1910      1901      1991      2001      1911
 -1      1396    1    0    1
 -2      1901      1991      2001      1911      1902      1992      2002      1912
 -1      1397    1    0    1
 -2      1902      1992      2002      1912      1263      1272      1273      1264
 -1      1398    1    0    1
 -2       243       252       253       244      1903      1993      2003      1913
 -1      1399    1    0    1
 -2      1903      1993      2003      1913      1904      1994      2004      1914
 -1      1400    1    0    1
 -2      1904      1994      2004      1914      1905      1995      2005      1915
 -1      1401    1    0    1
 -2      1905      1995      2005      1915      1906      1996      2006      1916
 -1      1402    1    0    1
 -2      1906      1996      2006      1916      1907      1997      2007      1917
 -1      1403    1    0    1
 -2      1907      1997      2007      1917      1908      1998      2008      1918
 -1      1404    1    0    1
 -2      1908      1998      2008      1918      1909      1999      2009      1919
 -1      1405    1    0    1
 -2      1909      1999      2009      1919      1910      2000      2010      1920
 -1      1406    1    0    1
 -2      1910      2000      2010      1920      1911      2001      2011      1921
 -1      1407    1    0    1
 -2      1911      2001      2011      1921      1912      2002      2012      1922
 -1      1408    1    0    1
 -2      1912      2002      2012      1922      1264      1273      1274      1265
 -1      1409    1    0    1
 -2       244       253       254       245      1913      2003      2013      1923
 -1      1410    1    0    1
 -2      1913      2003      2013      1923      1914      2004      2014      1924
 -1      1411    1    0    1
 -2      1914      2004      2014      1924      1915      2005      2015      1925
 -1      1412    1    0    1
 -2      1915      2005      2015      1925      1916      2006      2016      1926
 -1      1413    1    0    1
 -2      1916      2006      2016      1926      1917      2007      2017      1927
 -1      1414    1    0    1
 -2      1917      2007      2017      1927      1918      2008      2018      1928
 -1      1415    1    0    1
 -2      1918      2008      2018      1928      1919      2009      2019      1929
 -1      1416    1    0    1
 -2      1919      2009      2019      1929      1920      2010      2020      1930
 -1      1417    1    0    1
 -2      1920      2010      2020      1930      1921      2011      2021      1931
 -1      1418    1    0    1
 -2      1921      2011      2021      1931      1922      2012      2022      1932
 -1      1419    1    0    1
 -2      1922      2012      2022      1932      1265      1274      1275      1266
 -1      1420    1    0    1
 -2       245       254        70        71      1923      2013      1072      1082
 -1      1421    1    0    1
 -2      1923      2013      1072      1082      1924      2014      1073      1083
 -1      1422    1    0    1
 -2      1924      2014      1073      1083      1925      2015      1074      1084
 -1      1423    1    0    1
 -2      1925      2015      1074      1084      1926      2016      1075      1085
 -1      1424    1    0    1
 -2      1926      2016      1075      1085      1927      2017      1076      1086
 -1      1425    1    0    1
 -2      1927      2017      1076      1086      1928      2018      1077      1087
 -1      1426    1    0    1
 -2      1928      2018      1077      1087      1929      2019      1078      1088
 -1      1427    1    0    1
 -2      1929      2019      1078      1088      1930      2020      1079      1089
 -1      1428    1    0    1
 -2      1930      2020      1079      1089      1931      2021      1080      1090
 -1      1429    1    0    1
 -2      1931      2021      1080      1090      1932      2022      1081      1091
 -1      1430    1    0    1
 -2      1932      2022      1081      1091      1266      1275       146       147
 -1      1431    1    0    1
 -2        14        15       255       246       512       522      2023      1933
 -1      1432    1    0    1
 -2       512       522      2023      1933       513       523      2024      1934
 -1      1433    1    0    1
 -2       513       523      2024      1934       514       524      2025      1935
 -1      1434    1    0    1
 -2       514       524      2025      1935       515       525      2026      1936
 -1      1435    1    0    1
 -2       515       525      2026      1936       516       526      2027      1937
 -1      1436    1    0    1
 -2       516       526      2027      1937       517       527      2028      1938
 -1      1437    1    0    1
 -2       517       527      2028      1938       518       528      2029      1939
 -1      1438    1    0    1
 -2       518       528      2029      1939       519       529      2030      1940
 -1      1439    1    0    1
 -2       519       529      2030      1940       520       530      2031      1941
 -1      1440    1    0    1
 -2       520       530      2031      1941       521       531      2032      1942
 -1      1441    1    0    1
 -2       521       531      2032      1942        90        91      1276      1267
 -1      1442    1    0    1
 -2       246       255       256       247      1933      2023      2033      1943
 -1      1443    1    0    1
 -2      1933      2023      2033      1943      1934      2024      2034      1944
 -1      1444    1    0    1
 -2      1934      2024      2034      1944      1935      2025      2035      1945
 -1      1445    1    0    1
 -2      1935      2025      2035      1945      1936      2026      2036      1946
 -1      1446    1    0    1
 -2      1936      2026      2036      1946      1937      2027      2037      1947
 -1      1447    1    0    1
 -2      1937      2027      2037      1947      1938      2028      2038      1948
 -1      1448    1    0    1
 -2      1938      2028      2038      1948      1939      2029      2039      1949
 -1      1449    1    0    1
 -2      1939      2029      2039      1949      1940      2030      2040      1950
 -1      1450    1    0    1
 -2      1940      2030      2040      1950      1941      2031      2041      1951
 -1      1451    1    0    1
 -2      1941      2031      2041      1951      1942      2032      2042      1952
 -1      1452    1    0    1
 -2      1942      2032      2042      1952      1267      1276      1277      1268
 -1      1453    1    0    1
 -2       247       256       257       248      1943      2033      2043      1953
 -1      1454    1    0    1
 -2      1943      2033      2043      1953      1944      2034      2044      1954
 -1      1455    1    0    1
 -2      1944      2034      2044      1954      1945      2035      2045      1955
 -1      1456    1    0    1
 -2      1945      2035      2045      1955      1946      2036      2046      1956
 -1      1457    1    0    1
 -2      1946      2036      2046      1956      1947      2037      2047      1957
 -1      1458    1    0    1
 -2      1947      2037      2047      1957      1948      2038      2048      1958
 -1      1459    1    0    1
 -2      1948      2038      2048      1958      1949      2039      2049      1959
 -1      1460    1    0    1
 -2      1949      2039      2049      1959      1950      2040      2050      1960
 -1      1461    1    0    1
 -2      1950      2040      2050      1960      1951      2041      2051      1961
 -1      1462    1    0    1
 -2      1951      2041      2051      1961      1952      2042      2052      1962
 -1      1463    1    0    1
 -2      1952      2042      2052      1962      1268      1277      1278      1269
 -1      1464    1    0    1
 -2       248       257       258       249      1953      2043      2053      1963
 -1      1465    1    0    1
 -2      1953      2043      2053      1963      1954      2044      2054      1964
 -1      1466    1    0    1
 -2      1954      2044      2054      1964      1955      2045      2055      1965
 -1      1467    1    0    1
 -2      1955      2045      2055      1965      1956      2046      2056      1966
 -1      1468    1    0    1
 -2      1956      2046      2056      1966      1957      2047      2057      1967
 -1      1469    1    0    1
 -2      1957      2047      2057      1967      1958      2048      2058      1968
 -1      1470    1    0    1
 -2      1958      2048      2058      1968      1959      2049      2059      1969
 -1      1471    1    0    1
 -2      1959      2049      2059      1969      1960      2050      2060      1970
 -1      1472    1    0    1
 -2      1960      2050      2060      1970      1961      2051      2061      1971
 -1      1473    1    0    1
 -2      1961      2051      2061      1971      1962      2052      2062      1972
 -1      1474    1    0    1
 -2      1962      2052      2062      1972      1269      1278      1279      1270
 -1      1475    1    0    1
 -2       249       258       259       250      1963      2053      2063      1973
 -1      1476    1    0    1
 -2      1963      2053      2063      1973      1964      2054      2064      1974
 -1      1477    1    0    1
 -2      1964      2054      2064      1974      1965      2055      2065      1975
 -1      1478    1    0    1
 -2      1965      2055      2065      1975      1966      2056      2066      1976
 -1      1479    1    0    1
 -2      1966      2056      2066      1976      1967      2057      2067      1977
 -1      1480    1    0    1
 -2      1967      2057      2067      1977      1968      2058      2068      1978
 -1      1481    1    0    1
 -2      1968      2058      2068      1978      1969      2059      2069      1979
 -1      1482    1    0    1
 -2      1969      2059      2069      1979      1970      2060      2070      1980
 -1      1483    1    0    1
 -2      1970      2060      2070      1980      1971      2061      2071      1981
 -1      1484    1    0    1
 -2      1971      2061      2071      1981      1972      2062      2072      1982
 -1      1485    1    0    1
 -2      1972      2062      2072      1982      1270      1279      1280      1271
 -1      1486    1    0    1
 -2       250       259       260       251      1973      2063      2073      1983
 -1      1487    1    0    1
 -2      1973      2063      2073      1983      1974      2064      2074      1984
 -1      1488    1    0    1
 -2      1974      2064      2074      1984      1975      2065      2075      1985
 -1      1489    1    0    1
 -2      1975      2065      2075      1985      1976      2066      2076      1986
 -1      1490    1    0    1
 -2      1976      2066      2076      1986      1977      2067      2077      1987
 -1      1491    1    0    1
 -2      1977      2067      2077      1987      1978      2068      2078      1988
 -1      1492    1    0    1
 -2      1978      2068      2078      1988      1979      2069      2079      1989
 -1      1493    1    0    1
 -2      1979      2069      2079      1989      1980      2070      2080      1990
 -1      1494    1    0    1
 -2      1980      2070      2080      1990      1981      2071      2081      1991
 -1      1495    1    0    1
 -2      1981      2071      2081      1991      1982      2072      2082      1992
 -1      1496    1    0    1
 -2      1982      2072      2082      1992      1271      1280      1281      1272
 -1      1497    1    0    1
 -2       251       260       261       252      1983      2073      2083      1993
 -1      1498    1    0    1
 -2      1983      2073      2083      1993      1984      2074      2084      1994
 -1      1499    1    0    1
 -2      1984      2074      2084      1994      1985      2075      2085      1995
 -1      1500    1    0    1
 -2      1985      2075      2085      1995      1986      2076      2086      1996
 -1      1501    1    0    1
 -2      1986      2076      2086      1996      1987      2077      2087      1997
 -1      1502    1    0    1
 -2      1987      2077      2087      1997      1988      2078      2088      1998
 -1      1503    1    0    1
 -2      1988      2078      2088      1998      1989      2079      2089      1999
 -1      1504    1    0    1
 -2      1989      2079      2089      1999      1990      2080      2090      2000
 -1      1505    1    0    1
 -2      1990      2080      2090      2000      1991      2081      2091      2001
 -1      1506    1    0    1
 -2      1991      2081      2091      2001      1992      2082      2092      2002
 -1      1507    1    0    1
 -2      1992      2082      2092      2002      1272      1281      1282      1273
 -1      1508    1    0    1
 -2       252       261       262       253      1993      2083      2093      2003
 -1      1509    1    0    1
 -2      1993      2083      2093      2003      1994      2084      2094      2004
 -1      1510    1    0    1
 -2      1994      2084      2094      2004      1995      2085      2095      2005
 -1      1511    1    0    1
 -2      1995      2085      2095      2005      1996      2086      2096      2006
 -1      1512    1    0    1
 -2      1996      2086      2096      2006      1997      2087      2097      2007
 -1      1513    1    0    1
 -2      1997      2087      2097      2007      1998      2088      2098      2008
 -1      1514    1    0    1
 -2      1998      2088      2098      2008      1999      2089      2099      2009
 -1      1515    1    0    1
 -2      1999      2089      2099      2009      2000      2090      2100      2010
 -1      1516    1    0    1
 -2      2000      2090      2100      2010      2001      2091      2101      2011
 -1      1517    1    0    1
 -2      2001      2091      2101      2011      2002      2092      2102      2012
 -1      1518    1    0    1
 -2      2002      2092      2102      2012      1273      1282      1283      1274
 -1      1519    1    0    1
 -2       253       262       263       254      2003      2093      2103      2013
 -1      1520    1    0    1
 -2      2003      2093      2103      2013      2004      2094      2104      2014
 -1      1521    1    0    1
 -2      2004      2094      2104      2014      2005      2095      2105      2015
 -1      1522    1    0    1
 -2      2005      2095      2105      2015      2006      2096      2106      2016
 -1      1523    1    0    1
 -2      2006      2096      2106      2016      2007      2097      2107      2017
 -1      1524    1    0    1
 -2      2007      2097      2107      2017      2008      2098      2108      2018
 -1      1525    1    0    1
 -2      2008      2098      2108      2018      2009      2099      2109      2019
 -1      1526    1    0    1
 -2      2009      2099      2109      2019      2010      2100      2110      2020
 -1      1527    1    0    1
 -2      2010      2100      2110      2020      2011      2101      2111      2021
 -1      1528    1    0    1
 -2      2011      2101      2111      2021      2012      2102      2112      2022
 -1      1529    1    0    1
 -2      2012      2102      2112      2022      1274      1283      1284      1275
 -1      1530    1    0    1
 -2       254       263        69        70      2013      2103      1062      1072
 -1      1531    1    0    1
 -2      2013      2103      1062      1072      2014      2104      1063      1073
 -1      1532    1    0    1
 -2      2014      2104      1063      1073      2015      2105      1064      1074
 -1      1533    1    0    1
 -2      2015      2105      1064      1074      2016      2106      1065      1075
 -1      1534    1    0    1
 -2      2016      2106      1065      1075      2017      2107      1066      1076
 -1      1535    1    0    1
 -2      2017      2107      1066      1076      2018      2108      1067      1077
 -1      1536    1    0    1
 -2      2018      2108      1067      1077      2019      2109      1068      1078
 -1      1537    1    0    1
 -2      2019      2109      1068      1078      2020      2110      1069      1079
 -1      1538    1    0    1
 -2      2020      2110      1069      1079      2021      2111      1070      1080
 -1      1539    1    0    1
 -2      2021      2111      1070      1080      2022      2112      1071      1081
 -1      1540    1    0    1
 -2      2022      2112      1071      1081      1275      1284       145       146
 -1      1541    1    0    1
 -2        15        16       264       255       522       532      2113      2023
 -1      1542    1    0    1
 -2       522       532      2113      2023       523       533      2114      2024
 -1      1543    1    0    1
 -2       523       533      2114      2024       524       534      2115      2025
 -1      1544    1    0    1
 -2       524       534      2115      2025       525       535      2116      2026
 -1      1545    1    0    1
 -2       525       535      2116      2026       526       536      2117      2027
 -1      1546    1    0    1
 -2       526       536      2117      2027       527       537      2118      2028
 -1      1547    1    0    1
 -2       527       537      2118      2028       528       538      2119      2029
 -1      1548    1    0    1
 -2       528       538      2119      2029       529       539      2120      2030
 -1      1549    1    0    1
 -2       529       539      2120      2030       530       540      2121      2031
 -1      1550    1    0    1
 -2       530       540      2121      2031       531       541      2122      2032
 -1      1551    1    0    1
 -2       531       541      2122      2032        91        92      1285      1276
 -1      1552    1    0    1
 -2       255       264       265       256      2023      2113      2123      2033
 -1      1553    1    0    1
 -2      2023      2113      2123      2033      2024      2114      2124      2034
 -1      1554    1    0    1
 -2      2024      2114      2124      2034      2025      2115      2125      2035
 -1      1555    1    0    1
 -2      2025      2115      2125      2035      2026      2116      2126      2036
 -1      1556    1    0    1
 -2      2026      2116      2126      2036      2027      2117      2127      2037
 -1      1557    1    0    1
 -2      2027      2117      2127      2037      2028      2118      2128      2038
 -1      1558    1    0    1
 -2      2028      2118      2128      2038      2029      2119      2129      2039
 -1      1559    1    0    1
 -2      2029      2119      2129      2039      2030      2120      2130      2040
 -1      1560    1    0    1
 -2      2030      2120      2130      2040      2031      2121      2131      2041
 -1      1561    1    0    1
 -2      2031      2121      2131      2041      2032      2122      2132      2042
 -1      1562    1    0    1
 -2      2032      2122      2132      2042      1276      1285      1286      1277
 -1      1563    1    0    1
 -2       256       265       266       257      2033      2123      2133      2043
 -1      1564    1    0    1
 -2      2033      2123      2133      2043      2034      2124      2134      2044
 -1      1565    1    0    1
 -2      2034      2124      2134      2044      2035      2125      2135      2045
 -1      1566    1    0    1
 -2      2035      2125      2135      2045      2036      2126      2136      2046
 -1      1567    1    0    1
 -2      2036      2126      2136      2046      2037      2127      2137      2047
 -1      1568    1    0    1
 -2      2037      2127      2137      2047      2038      2128      2138      2048
 -1      1569    1    0    1
 -2      2038      2128      2138      2048      2039      2129      2139      2049
 -1      1570    1    0    1
 -2      2039      2129      2139      2049      2040      2130      2140      2050
 -1      1571    1    0    1
 -2      2040      2130      2140      2050      2041      2131      2141      2051
 -1      1572    1    0    1
 -2      2041      2131      2141      2051      2042      2132      2142      2052
 -1      1573    1    0    1
 -2      2042      2132      2142      2052      1277      1286      1287      1278
 -1      1574    1    0    1
 -2       257       266       267       258      2043      2133      2143      2053
 -1      1575    1    0    1
 -2      2043      2133      2143      2053      2044      2134      2144      2054
 -1      1576    1    0    1
 -2      2044      2134      2144      2054      2045      2135      2145      2055
 -1      1577    1    0    1
 -2      2045      2135      2145      2055      2046      2136      2146      2056
 -1      1578    1    0    1
 -2      2046      2136      2146      2056      2047      2137      2147      2057
 -1      1579    1    0    1
 -2      2047      2137      2147      2057      2048      2138      2148      2058
 -1      1580    1    0    1
 -2      2048      2138      2148      2058      2049      2139      2149      2059
 -1      1581    1    0    1
 -2      2049      2139      2149      2059      2050      2140      2150      2060
 -1      1582    1    0    1
 -2      2050      2140      2150      2060      2051      2141      2151      2061
 -1      1583    1    0    1
 -2      2051      2141      2151      2061      2052      2142      2152      2062
 -1      1584    1    0    1
 -2      2052      2142      2152      2062      1278      1287      1288      1279
 -1      1585    1    0    1
 -2       258       267       268       259      2053      2143      2153      2063
 -1      1586    1    0    1
 -2      2053      2143      2153      2063      2054      2144      2154      2064
 -1      1587    1    0    1
 -2      2054      2144      2154      2064      2055      2145      2155      2065
 -1      1588    1    0    1
 -2      2055      2145      2155      2065      2056      2146      2156      2066
 -1      1589    1    0    1
 -2      2056      2146      2156      2066      2057      2147      2157      2067
 -1      1590    1    0    1
 -2      2057      2147      2157      2067      2058      2148      2158      2068
 -1      1591    1    0    1
 -2      2058      2148      2158      2068      2059      2149      2159      2069
 -1      1592    1    0    1
 -2      2059      2149      2159      2069      2060      2150      2160      2070
 -1      1593    1    0    1
 -2      2060      2150      2160      2070      2061      2151      2161      2071
 -1      1594    1    0    1
 -2      2061      2151      2161      2071      2062      2152      2162      2072
 -1      1595    1    0    1
 -2      2062      2152      2162      2072      1279      1288      1289      1280
 -1      1596    1    0    1
 -2       259       268       269       260      2063      2153      2163      2073
 -1      1597    1    0    1
 -2      2063      2153      2163      2073      2064      2154      2164      2074
 -1      1598    1    0    1
 -2      2064      2154      2164      2074      2065      2155      2165      2075
 -1      1599    1    0    1
 -2      2065      2155      2165      2075      2066      2156      2166      2076
 -1      1600    1    0    1
 -2      2066      2156      2166      2076      2067      2157      2167      2077
 -1      1601    1    0    1
 -2      2067      2157      2167      2077      2068      2158      2168      2078
 -1      1602    1    0    1
 -2      2068      2158      2168      2078      2069      2159      2169      2079
 -1      1603    1    0    1
 -2      2069      2159      2169      2079      2070      2160      2170      2080
 -1      1604    1    0    1
 -2      2070      2160      2170      2080      2071      2161      2171      2081
 -1      1605    1    0    1
 -2      2071      2161      2171      2081      2072      2162      2172      2082
 -1      1606    1    0    1
 -2      2072      2162      2172      2082      1280      1289      1290      1281
 -1      1607    1    0    1
 -2       260       269       270       261      2073      2163      2173      2083
 -1      1608    1    0    1
 -2      2073      2163      2173      2083      2074      2164      2174      2084
 -1      1609    1    0    1
 -2      2074      2164      2174      2084      2075      2165      2175      2085
 -1      1610    1    0    1
 -2      2075      2165      2175      2085      2076      2166      2176      2086
 -1      1611    1    0    1
 -2      2076      2166      2176      2086      2077      2167      2177      2087
 -1      1612    1    0    1
 -2      2077      2167      2177      2087      2078      2168      2178      2088
 -1      1613    1    0    1
 -2      2078      2168      2178      2088      2079      2169      2179      2089
 -1      1614    1    0    1
 -2      2079      2169      2179      2089      2080      2170      2180      2090
 -1      1615    1    0    1
 -2      2080      2170      2180      2090      2081      2171      2181      2091
 -1      1616    1    0    1
 -2      2081      2171      2181      2091      2082      2172      2182      2092
 -1      1617    1    0    1
 -2      2082      2172      2182      2092      1281      1290      1291      1282
 -1      1618    1    0    1
 -2       261       270       271       262      2083      2173      2183      2093
 -1      1619    1    0    1
 -2      2083      2173      2183      2093      2084      2174      2184      2094
 -1      1620    1    0    1
 -2      2084      2174      2184      2094      2085      2175      2185      2095
 -1      1621    1    0    1
 -2      2085      2175      2185      2095      2086      2176      2186      2096
 -1      1622    1    0    1
 -2      2086      2176      2186      2096      2087      2177      2187      2097
 -1      1623    1    0    1
 -2      2087      2177      2187      2097      2088      2178      2188      2098
 -1      1624    1    0    1
 -2      2088      2178      2188      2098      2089      2179      2189      2099
 -1      1625    1    0    1
 -2      2089      2179      2189      2099      2090      2180      2190      2100
 -1      1626    1    0    1
 -2      2090      2180      2190      2100      2091      2181      2191      2101
 -1      1627    1    0    1
 -2      2091      2181      2191      2101      2092      2182      2192      2102
 -1      1628    1    0    1
 -2      2092      2182      2192      2102      1282      1291      1292      1283
 -1      1629    1    0    1
 -2       262       271       272       263      2093      2183      2193      2103
 -1      1630    1    0    1
 -2      2093      2183      2193      2103      2094      2184      2194      2104
 -1      1631    1    0    1
 -2      2094      2184      2194      2104      2095      2185      2195      2105
 -1      1632    1    0    1
 -2      2095      2185      2195      2105      2096      2186      2196      2106
 -1      1633    1    0    1
 -2      2096      2186      2196      2106      2097      2187      2197      2107
 -1      1634    1    0    1
 -2      2097      2187      2197      2107      2098      2188      2198      2108
 -1      1635    1    0    1
 -2      2098      2188      2198      2108      2099      2189      2199      2109
 -1      1636    1    0    1
 -2      2099      2189      2199      2109      2100      2190      2200      2110
 -1      1637    1    0    1
 -2      2100      2190      2200      2110      2101      2191      2201      2111
 -1      1638    1    0    1
 -2      2101      2191      2201      2111      2102      2192      2202      2112
 -1      1639    1    0    1
 -2      2102      2192      2202      2112      1283      1292      1293      1284
 -1      1640    1    0    1
 -2       263       272        68        69      2103      2193      1052      1062
 -1      1641    1    0    1
 -2      2103      2193      1052      1062      2104      2194      1053      1063
 -1      1642    1    0    1
 -2      2104      2194      1053      1063      2105      2195      1054      1064
 -1      1643    1    0    1
 -2      2105      2195      1054      1064      2106      2196      1055      1065
 -1      1644    1    0    1
 -2      2106      2196      1055      1065      2107      2197      1056      1066
 -1      1645    1    0    1
 -2      2107      2197      1056      1066      2108      2198      1057      1067
 -1      1646    1    0    1
 -2      2108      2198      1057      1067      2109      2199      1058      1068
 -1      1647    1    0    1
 -2      2109      2199      1058      1068      2110      2200      1059      1069
 -1      1648    1    0    1
 -2      2110      2200      1059      1069      2111      2201      1060      1070
 -1      1649    1    0    1
 -2      2111      2201      1060      1070      2112      2202      1061      1071
 -1      1650    1    0    1
 -2      2112      2202      1061      1071      1284      1293       144       145
 -1      1651    1    0    1
 -2        16        17       273       264       532       542      2203      2113
 -1      1652    1    0    1
 -2       532       542      2203      2113       533       543      2204      2114
 -1      1653    1    0    1
 -2       533       543      2204      2114       534       544      2205      2115
 -1      1654    1    0    1
 -2       534       544      2205      2115       535       545      2206      2116
 -1      1655    1    0    1
 -2       535       545      2206      2116       536       546      2207      2117
 -1      1656    1    0    1
 -2       536       546      2207      2117       537       547      2208      2118
 -1      1657    1    0    1
 -2       537       547      2208      2118       538       548      2209      2119
 -1      1658    1    0    1
 -2       538       548      2209      2119       539       549      2210      2120
 -1      1659    1    0    1
 -2       539       549      2210      2120       540       550      2211      2121
 -1      1660    1    0    1
 -2       540       550      2211      2121       541       551      2212      2122
 -1      1661    1    0    1
 -2       541       551      2212      2122        92        93      1294      1285
 -1      1662    1    0    1
 -2       264       273       274       265      2113      2203      2213      2123
 -1      1663    1    0    1
 -2      2113      2203      2213      2123      2114      2204      2214      2124
 -1      1664    1    0    1
 -2      2114      2204      2214      2124      2115      2205      2215      2125
 -1      1665    1    0    1
 -2      2115      2205      2215      2125      2116      2206      2216      2126
 -1      1666    1    0    1
 -2      2116      2206      2216      2126      2117      2207      2217      2127
 -1      1667    1    0    1
 -2      2117      2207      2217      2127      2118      2208      2218      2128
 -1      1668    1    0    1
 -2      2118      2208      2218      2128      2119      2209      2219      2129
 -1      1669    1    0    1
 -2      2119      2209      2219      2129      2120      2210      2220      2130
 -1      1670    1    0    1
 -2      2120      2210      2220      2130      2121      2211      2221      2131
 -1      1671    1    0    1
 -2      2121      2211      2221      2131      2122      2212      2222      2132
 -1      1672    1    0    1
 -2      2122      2212      2222      2132      1285      1294      1295      1286
 -1      1673    1    0    1
 -2       265       274       275       266      2123      2213      2223      2133
 -1      1674    1    0    1
 -2      2123      2213      2223      2133      2124      2214      2224      2134
 -1      1675    1    0    1
 -2      2124      2214      2224      2134      2125      2215      2225      2135
 -1      1676    1    0    1
 -2      2125      2215      2225      2135      2126      2216      2226      2136
 -1      1677    1    0    1
 -2      2126      2216      2226      2136      2127      2217      2227      2137
 -1      1678    1    0    1
 -2      2127      2217      2227      2137      2128      2218      2228      2138
 -1      1679    1    0    1
 -2      2128      2218      2228      2138      2129      2219      2229      2139
 -1      1680    1    0    1
 -2      2129      2219      2229      2139      2130      2220      2230      2140
 -1      1681    1    0    1
 -2      2130      2220      2230      2140      2131      2221      2231      2141
 -1      1682    1    0    1
 -2      2131      2221      2231      2141      2132      2222      2232      2142
 -1      1683    1    0    1
 -2      2132      2222      2232      2142      1286      1295      1296      1287
 -1      1684    1    0    1
 -2       266       275       276       267      2133      2223      2233      2143
 -1      1685    1    0    1
 -2      2133      2223      2233      2143      2134      2224      2234      2144
 -1      1686    1    0    1
 -2      2134      2224      2234      2144      2135      2225      2235      2145
 -1      1687    1    0    1
 -2      2135      2225      2235      2145      2136      2226      2236      2146
 -1      1688    1    0    1
 -2      2136      2226      2236      2146      2137      2227      2237      2147
 -1      1689    1    0    1
 -2      2137      2227      2237      2147      2138      2228      2238      2148
 -1      1690    1    0    1
 -2      2138      2228      2238      2148      2139      2229      2239      2149
 -1      1691    1    0    1
 -2      2139      2229      2239      2149      2140      2230      2240      2150
 -1      1692    1    0    1
 -2      2140      2230      2240      2150      2141      2231      2241      2151
 -1      1693    1    0    1
 -2      2141      2231      2241      2151      2142      2232      2242      2152
 -1      1694    1    0    1
 -2      2142      2232      2242      2152      1287      1296      1297      1288
 -1      1695    1    0    1
 -2       267       276       277       268      2143      2233      2243      2153
 -1      1696    1    0    1
 -2      2143      2233      2243      2153      2144      2234      2244      2154
 -1      1697    1    0    1
 -2      2144      2234      2244      2154      2145      2235      2245      2155
 -1      1698    1    0    1
 -2      2145      2235      2245      2155      2146      2236      2246      2156
 -1      1699    1    0    1
 -2      2146      2236      2246      2156      2147      2237      2247      2157
 -1      1700    1    0    1
 -2      2147      2237      2247      2157      2148      2238      2248      2158
 -1      1701    1    0    1
 -2      2148      2238      2248      2158      2149      2239      2249      2159
 -1      1702    1    0    1
 -2      2149      2239      2249      2159      2150      2240      2250      2160
 -1      1703    1    0    1
 -2      2150      2240      2250      2160      2151      2241      2251      2161
 -1      1704    1    0    1
 -2      2151      2241      2251      2161      2152      2242      2252      2162
 -1      1705    1    0    1
 -2      2152      2242      2252      2162      1288      1297      1298      1289
 -1      1706    1    0    1
 -2       268       277       278       269      2153      2243      2253      2163
 -1      1707    1    0    1
 -2      2153      2243      2253      2163      2154      2244      2254      2164
 -1      1708    1    0    1
 -2      2154      2244      2254      2164      2155      2245      2255      2165
 -1      1709    1    0    1
 -2      2155      2245      2255      2165      2156      2246      2256      2166
 -1      1710    1    0    1
 -2      2156      2246      2256      2166      2157      2247      2257      2167
 -1      1711    1    0    1
 -2      2157      2247      2257      2167      2158      2248      2258      2168
 -1      1712    1    0    1
 -2      2158      2248      2258      2168      2159      2249      2259      2169
 -1      1713    1    0    1
 -2      2159      2249      2259      2169      2160      2250      2260      2170
 -1      1714    1    0    1
 -2      2160      2250      2260      2170      2161      2251      2261      2171
 -1      1715    1    0    1
 -2      2161      2251      2261      2171      2162      2252      2262      2172
 -1      1716    1    0    1
 -2      2162      2252      2262      2172      1289      1298      1299      1290
 -1      1717    1    0    1
 -2       269       278       279       270      2163      2253      2263      2173
 -1      1718    1    0    1
 -2      2163      2253      2263      2173      2164      2254      2264      2174
 -1      1719    1    0    1
 -2      2164      2254      2264      2174      2165      2255      2265      2175
 -1      1720    1    0    1
 -2      2165      2255      2265      2175      2166      2256      2266      2176
 -1      1721    1    0    1
 -2      2166      2256      2266      2176      2167      2257      2267      2177
 -1      1722    1    0    1
 -2      2167      2257      2267      2177      2168      2258      2268      2178
 -1      1723    1    0    1
 -2      2168      2258      2268      2178      2169      2259      2269      2179
 -1      1724    1    0    1
 -2      2169      2259      2269      2179      2170      2260      2270      2180
 -1      1725    1    0    1
 -2      2170      2260      2270      2180      2171      2261      2271      2181
 -1      1726    1    0    1
 -2      2171      2261      2271      2181      2172      2262      2272      2182
 -1      1727    1    0    1
 -2      2172      2262      2272      2182      1290      1299      1300      1291
 -1      1728    1    0    1
 -2       270       279       280       271      2173      2263      2273      2183
 -1      1729    1    0    1
 -2      2173      2263      2273      2183      2174      2264      2274      2184
 -1      1730    1    0    1
 -2      2174      2264      2274      2184      2175      2265      2275      2185
 -1      1731    1    0    1
 -2      2175      2265      2275      2185      2176      2266      2276      2186
 -1      1732    1    0    1
 -2      2176      2266      2276      2186      2177      2267      2277      2187
 -1      1733    1    0    1
 -2      2177      2267      2277      2187      2178      2268      2278      2188
 -1      1734    1    0    1
 -2      2178      2268      2278      2188      2179      2269      2279      2189
 -1      1735    1    0    1
 -2      2179      2269      2279      2189      2180      2270      2280      2190
 -1      1736    1    0    1
 -2      2180      2270      2280      2190      2181      2271      2281      2191
 -1      1737    1    0    1
 -2      2181      2271      2281      2191      2182      2272      2282      2192
 -1      1738    1    0    1
 -2      2182      2272      2282      2192      1291      1300      1301      1292
 -1      1739    1    0    1
 -2       271       280       281       272      2183      2273      2283      2193
 -1      1740    1    0    1
 -2      2183      2273      2283      2193      2184      2274      2284      2194
 -1      1741    1    0    1
 -2      2184      2274      2284      2194      2185      2275      2285      2195
 -1      1742    1    0    1
 -2      2185      2275      2285      2195      2186      2276      2286      2196
 -1      1743    1    0    1
 -2      2186      2276      2286      2196      2187      2277      2287      2197
 -1      1744    1    0    1
 -2      2187      2277      2287      2197      2188      2278      2288      2198
 -1      1745    1    0    1
 -2      2188      2278      2288      2198      2189      2279      2289      2199
 -1      1746    1    0    1
 -2      2189      2279      2289      2199      2190      2280      2290      2200
 -1      1747    1    0    1
 -2      2190      2280      2290      2200      2191      2281      2291      2201
 -1      1748    1    0    1
 -2      2191      2281      2291      2201      2192      2282      2292      2202
 -1      1749    1    0    1
 -2      2192      2282      2292      2202      1292      1301      1302      1293
 -1      1750    1    0    1
 -2       272       281        67        68      2193      2283      1042      1052
 -1      1751    1    0    1
 -2      2193      2283      1042      1052      2194      2284      1043      1053
 -1      1752    1    0    1
 -2      2194      2284      1043      1053      2195      2285      1044      1054
 -1      1753    1    0    1
 -2      2195      2285      1044      1054      2196      2286      1045      1055
 -1      1754    1    0    1
 -2      2196      2286      1045      1055      2197      2287      1046      1056
 -1      1755    1    0    1
 -2      2197      2287      1046      1056      2198      2288      1047      1057
 -1      1756    1    0    1
 -2      2198      2288      1047      1057      2199      2289      1048      1058
 -1      1757    1    0    1
 -2      2199      2289      1048      1058      2200      2290      1049      1059
 -1      1758    1    0    1
 -2      2200      2290      1049      1059      2201      2291      1050      1060
 -1      1759    1    0    1
 -2      2201      2291      1050      1060      2202      2292      1051      1061
 -1      1760    1    0    1
 -2      2202      2292      1051      1061      1293      1302       143       144
 -1      1761    1    0    1
 -2        17        18       282       273       542       552      2293      2203
 -1      1762    1    0    1
 -2       542       552      2293      2203       543       553      2294      2204
 -1      1763    1    0    1
 -2       543       553      2294      2204       544       554      2295      2205
 -1      1764    1    0    1
 -2       544       554      2295      2205       545       555      2296      2206
 -1      1765    1    0    1
 -2       545       555      2296      2206       546       556      2297      2207
 -1      1766    1    0    1
 -2       546       556      2297      2207       547       557      2298      2208
 -1      1767    1    0    1
 -2       547       557      2298      2208       548       558      2299      2209
 -1      1768    1    0    1
 -2       548       558      2299      2209       549       559      2300      2210
 -1      1769    1    0    1
 -2       549       559      2300      2210       550       560      2301      2211
 -1      1770    1    0    1
 -2       550       560      2301      2211       551       561      2302      2212
 -1      1771    1    0    1
 -2       551       561      2302      2212        93        94      1303      1294
 -1      1772    1    0    1
 -2       273       282       283       274      2203      2293      2303      2213
 -1      1773    1    0    1
 -2      2203      2293      2303      2213      2204      2294      2304      2214
 -1      1774    1    0    1
 -2      2204      2294      2304      2214      2205      2295      2305      2215
 -1      1775    1    0    1
 -2      2205      2295      2305      2215      2206      2296      2306      2216
 -1      1776    1    0    1
 -2      2206      2296      2306      2216      2207      2297      2307      2217
 -1      1777    1    0    1
 -2      2207      2297      2307      2217      2208      2298      2308      2218
 -1      1778    1    0    1
 -2      2208      2298      2308      2218      2209      2299      2309      2219
 -1      1779    1    0    1
 -2      2209      2299      2309      2219      2210      2300      2310      2220
 -1      1780    1    0    1
 -2      2210      2300      2310      2220      2211      2301      2311      2221
 -1      1781    1    0    1
 -2      2211      2301      2311      2221      2212      2302      2312      2222
 -1      1782    1    0    1
 -2      2212      2302      2312      2222      1294      1303      1304      1295
 -1      1783    1    0    1
 -2       274       283       284       275      2213      2303      2313      2223
 -1      1784    1    0    1
 -2      2213      2303      2313      2223      2214      2304      2314      2224
 -1      1785    1    0    1
 -2      2214      2304      2314      2224      2215      2305      2315      2225
 -1      1786    1    0    1
 -2      2215      2305      2315      2225      2216      2306      2316      2226
 -1      1787    1    0    1
 -2      2216      2306      2316      2226      2217      2307      2317      2227
 -1      1788    1    0    1
 -2      2217      2307      2317      2227      2218      2308      2318      2228
 -1      1789    1    0    1
 -2      2218      2308      2318      2228      2219      2309      2319      2229
 -1      1790    1    0    1
 -2      2219      2309      2319      2229      2220      2310      2320      2230
 -1      1791    1    0    1
 -2      2220      2310      2320      2230      2221      2311      2321      2231
 -1      1792    1    0    1
 -2      2221      2311      2321      2231      2222      2312      2322      2232
 -1      1793    1    0    1
 -2      2222      2312      2322      2232      1295      1304      1305      1296
 -1      1794    1    0    1
 -2       275       284       285       276      2223      2313      2323      2233
 -1      1795    1    0    1
 -2      2223      2313      2323      2233      2224      2314      2324      2234
 -1      1796    1    0    1
 -2      2224      2314      2324      2234      2225      2315      2325      2235
 -1      1797    1    0    1
 -2      2225      2315      2325      2235      2226      2316      2326      2236
 -1      1798    1    0    1
 -2      2226      2316      2326      2236      2227      2317      2327      2237
 -1      1799    1    0    1
 -2      2227      2317      2327      2237      2228      2318      2328      2238
 -1      1800    1    0    1
 -2      2228      2318      2328      2238      2229      2319      2329      2239
 -1      1801    1    0    1
 -2      2229      2319      2329      2239      2230      2320      2330      2240
 -1      1802    1    0    1
 -2      2230      2320      2330      2240      2231      2321      2331      2241
 -1      1803    1    0    1
 -2      2231      2321      2331      2241      2232      2322      2332      2242
 -1      1804    1    0    1
 -2      2232      2322      2332      2242      1296      1305      1306      1297
 -1      1805    1    0    1
 -2       276       285       286       277      2233      2323      2333      2243
 -1      1806    1    0    1
 -2      2233      2323      2333      2243      2234      2324      2334      2244
 -1      1807    1    0    1
 -2      2234      2324      2334      2244      2235      2325      2335      2245
 -1      1808    1    0    1
 -2      2235      2325      2335      2245      2236      2326      2336      2246
 -1      1809    1    0    1
 -2      2236      2326      2336      2246      2237      2327      2337      2247
 -1      1810    1    0    1
 -2      2237      2327      2337      2247      2238      2328      2338      2248
 -1      1811    1    0    1
 -2      2238      2328      2338      2248      2239      2329      2339      2249
 -1      1812    1    0    1
 -2      2239      2329      2339      2249      2240      2330      2340      2250
 -1      1813    1    0    1
 -2      2240      2330      2340      2250      2241      2331      2341      2251
 -1      1814    1    0    1
 -2      2241      2331      2341      2251      2242      2332      2342      2252
 -1      1815    1    0    1
 -2      2242      2332      2342      2252      1297      1306      1307      1298
 -1      1816    1    0    1
 -2       277       286       287       278      2243      2333      2343      2253
 -1      1817    1    0    1
 -2      2243      2333      2343      2253      2244      2334      2344      2254
 -1      1818    1    0    1
 -2      2244      2334      2344      2254      2245      2335      2345      2255
 -1      1819    1    0    1
 -2      2245      2335      2345      2255      2246      2336      2346      2256
 -1      1820    1    0    1
 -2      2246      2336      2346      2256      2247      2337      2347      2257
 -1      1821    1    0    1
 -2      2247      2337      2347      2257      2248      2338      2348      2258
 -1      1822    1    0    1
 -2      2248      2338      2348      2258      2249      2339      2349      2259
 -1      1823    1    0    1
 -2      2249      2339      2349      2259      2250      2340      2350      2260
 -1      1824    1    0    1
 -2      2250      2340      2350      2260      2251      2341      2351      2261
 -1      1825    1    0    1
 -2      2251      2341      2351      2261      2252      2342      2352      2262
 -1      1826    1    0    1
 -2      2252      2342      2352      2262      1298      1307      1308      1299
 -1      1827    1    0    1
 -2       278       287       288       279      2253      2343      2353      2263
 -1      1828    1    0    1
 -2      2253      2343      2353      2263      2254      2344      2354      2264
 -1      1829    1    0    1
 -2      2254      2344      2354      2264      2255      2345      2355      2265
 -1      1830    1    0    1
 -2      2255      2345      2355      2265      2256      2346      2356      2266
 -1      1831    1    0    1
 -2      2256      2346      2356      2266      2257      2347      2357      2267
 -1      1832    1    0    1
 -2      2257      2347      2357      2267      2258      2348      2358      2268
 -1      1833    1    0    1
 -2      2258      2348      2358      2268      2259      2349      2359      2269
 -1      1834    1    0    1
 -2      2259      2349      2359      2269      2260      2350      2360      2270
 -1      1835    1    0    1
 -2      2260      2350      2360      2270      2261      2351      2361      2271
 -1      1836    1    0    1
 -2      2261      2351      2361      2271      2262      2352      2362      2272
 -1      1837    1    0    1
 -2      2262      2352      2362      2272      1299      1308      1309      1300
 -1      1838    1    0    1
 -2       279       288       289       280      2263      2353      2363      2273
 -1      1839    1    0    1
 -2      2263      2353      2363      2273      2264      2354      2364      2274
 -1      1840    1    0    1
 -2      2264      2354      2364      2274      2265      2355      2365      2275
 -1      1841    1    0    1
 -2      2265      2355      2365      2275      2266      2356      2366      2276
 -1      1842    1    0    1
 -2      2266      2356      2366      2276      2267      2357      2367      2277
 -1      1843    1    0    1
 -2      2267      2357      2367      2277      2268      2358      2368      2278
 -1      1844    1    0    1
 -2      2268      2358      2368      2278      2269      2359      2369      2279
 -1      1845    1    0    1
 -2      2269      2359      2369      2279      2270      2360      2370      2280
 -1      1846    1    0    1
 -2      2270      2360      2370      2280      2271      2361      2371      2281
 -1      1847    1    0    1
 -2      2271      2361      2371      2281      2272      2362      2372      2282
 -1      1848    1    0    1
 -2      2272      2362      2372      2282      1300      1309      1310      1301
 -1      1849    1    0    1
 -2       280       289       290       281      2273      2363      2373      2283
 -1      1850    1    0    1
 -2      2273      2363      2373      2283      2274      2364      2374      2284
 -1      1851    1    0    1
 -2      2274      2364      2374      2284      2275      2365      2375      2285
 -1      1852    1    0    1
 -2      2275      2365      2375      2285      2276      2366      2376      2286
 -1      1853    1    0    1
 -2      2276      2366      2376      2286      2277      2367      2377      2287
 -1      1854    1    0    1
 -2      2277      2367      2377      2287      2278      2368      2378      2288
 -1      1855    1    0    1
 -2      2278      2368      2378      2288      2279      2369      2379      2289
 -1      1856    1    0    1
 -2      2279      2369      2379      2289      2280      2370      2380      2290
 -1      1857    1    0    1
 -2      2280      2370      2380      2290      2281      2371      2381      2291
 -1      1858    1    0    1
 -2      2281      2371      2381      2291      2282      2372      2382      2292
 -1      1859    1    0    1
 -2      2282      2372      2382      2292      1301      1310      1311      1302
 -1      1860    1    0    1
 -2       281       290        66        67      2283      2373      1032      1042
 -1      1861    1    0    1
 -2      2283      2373      1032      1042      2284      2374      1033      1043
 -1      1862    1    0    1
 -2      2284      2374      1033      1043      2285      2375      1034      1044
 -1      1863    1    0    1
 -2      2285      2375      1034      1044      2286      2376      1035      1045
 -1      1864    1    0    1
 -2      2286      2376      1035      1045      2287      2377      1036      1046
 -1      1865    1    0    1
 -2      2287      2377      1036      1046      2288      2378      1037      1047
 -1      1866    1    0    1
 -2      2288      2378      1037      1047      2289      2379      1038      1048
 -1      1867    1    0    1
 -2      2289      2379      1038      1048      2290      2380      1039      1049
 -1      1868    1    0    1
 -2      2290      2380      1039      1049      2291      2381      1040      1050
 -1      1869    1    0    1
 -2      2291      2381      1040      1050      2292      2382      1041      1051
 -1      1870    1    0    1
 -2      2292      2382      1041      1051      1302      1311       142       143
 -1      1871    1    0    1
 -2        18        19       291       282       552       562      2383      2293
 -1      1872    1    0    1
 -2       552       562      2383      2293       553       563      2384      2294
 -1      1873    1    0    1
 -2       553       563      2384      2294       554       564      2385      2295
 -1      1874    1    0    1
 -2       554       564      2385      2295       555       565      2386      2296
 -1      1875    1    0    1
 -2       555       565      2386      2296       556       566      2387      2297
 -1      1876    1    0    1
 -2       556       566      2387      2297       557       567      2388      2298
 -1      1877    1    0    1
 -2       557       567      2388      2298       558       568      2389      2299
 -1      1878    1    0    1
 -2       558       568      2389      2299       559       569      2390      2300
 -1      1879    1    0    1
 -2       559       569      2390      2300       560       570      2391      2301
 -1      1880    1    0    1
 -2       560       570      2391      2301       561       571      2392      2302
 -1      1881    1    0    1
 -2       561       571      2392      2302        94        95      1312      1303
 -1      1882    1    0    1
 -2       282       291       292       283      2293      2383      2393      2303
 -1      1883    1    0    1
 -2      2293      2383      2393      2303      2294      2384      2394      2304
 -1      1884    1    0    1
 -2      2294      2384      2394      2304      2295      2385      2395      2305
 -1      1885    1    0    1
 -2      2295      2385      2395      2305      2296      2386      2396      2306
 -1      1886    1    0    1
 -2      2296      2386      2396      2306      2297      2387      2397      2307
 -1      1887    1    0    1
 -2      2297      2387      2397      2307      2298      2388      2398      2308
 -1      1888    1    0    1
 -2      2298      2388      2398      2308      2299      2389      2399      2309
 -1      1889    1    0    1
 -2      2299      2389      2399      2309      2300      2390      2400      2310
 -1      1890    1    0    1
 -2      2300      2390      2400      2310      2301      2391      2401      2311
 -1      1891    1    0    1
 -2      2301      2391      2401      2311      2302      2392      2402      2312
 -1      1892    1    0    1
 -2      2302      2392      2402      2312      1303      1312      1313      1304
 -1      1893    1    0    1
 -2       283       292       293       284      2303      2393      2403      2313
 -1      1894    1    0    1
 -2      2303      2393      2403      2313      2304      2394      2404      2314
 -1      1895    1    0    1
 -2      2304      2394      2404      2314      2305      2395      2405      2315
 -1      1896    1    0    1
 -2      2305      2395      2405      2315      2306      2396      2406      2316
 -1      1897    1    0    1
 -2      2306      2396      2406      2316      2307      2397      2407      2317
 -1      1898    1    0    1
 -2      2307      2397      2407      2317      2308      2398      2408      2318
 -1      1899    1    0    1
 -2      2308      2398      2408      2318      2309      2399      2409      2319
 -1      1900    1    0    1
 -2      2309      2399      2409      2319      2310      2400      2410      2320
 -1      1901    1    0    1
 -2      2310      2400      2410      2320      2311      2401      2411      2321
 -1      1902    1    0    1
 -2      2311      2401      2411      2321      2312      2402      2412      2322
 -1      1903    1    0    1
 -2      2312      2402      2412      2322      1304      1313      1314      1305
 -1      1904    1    0    1
 -2       284       293       294       285      2313      2403      2413      2323
 -1      1905    1    0    1
 -2      2313      2403      2413      2323      2314      2404      2414      2324
 -1      1906    1    0    1
 -2      2314      2404      2414      2324      2315      2405      2415      2325
 -1      1907    1    0    1
 -2      2315      2405      2415      2325      2316      2406      2416      2326
 -1      1908    1    0    1
 -2      2316      2406      2416      2326      2317      2407      2417      2327
 -1      1909    1    0    1
 -2      2317      2407      2417      2327      2318      2408      2418      2328
 -1      1910    1    0    1
 -2      2318      2408      2418      2328      2319      2409      2419      2329
 -1      1911    1    0    1
 -2      2319      2409      2419      2329      2320      2410      2420      2330
 -1      1912    1    0    1
 -2      2320      2410      2420      2330      2321      2411      2421      2331
 -1      1913    1    0    1
 -2      2321      2411      2421      2331      2322      2412      2422      2332
 -1      1914    1    0    1
 -2      2322      2412      2422      2332      1305      1314      1315      1306
 -1      1915    1    0    1
 -2       285       294       295       286      2323      2413      2423      2333
 -1      1916    1    0    1
 -2      2323      2413      2423      2333      2324      2414      2424      2334
 -1      1917    1    0    1
 -2      2324      2414      2424      2334      2325      2415      2425      2335
 -1      1918    1    0    1
 -2      2325      2415      2425      2335      2326      2416      2426      2336
 -1      1919    1    0    1
 -2      2326      2416      2426      2336      2327      2417      2427      2337
 -1      1920    1    0    1
 -2      2327      2417      2427      2337      2328      2418      2428      2338
 -1      1921    1    0    1
 -2      2328      2418      2428      2338      2329      2419      2429      2339
 -1      1922    1    0    1
 -2      2329      2419      2429      2339      2330      2420      2430      2340
 -1      1923    1    0    1
 -2      2330      2420      2430      2340      2331      2421      2431      2341
 -1      1924    1    0    1
 -2      2331      2421      2431      2341      2332      2422      2432      2342
 -1      1925    1    0    1
 -2      2332      2422      2432      2342      1306      1315      1316      1307
 -1      1926    1    0    1
 -2       286       295       296       287      2333      2423      2433      2343
 -1      1927    1    0    1
 -2      2333      2423      2433      2343      2334      2424      2434      2344
 -1      1928    1    0    1
 -2      2334      2424      2434      2344      2335      2425      2435      2345
 -1      1929    1    0    1
 -2      2335      2425      2435      2345      2336      2426      2436      2346
 -1      1930    1    0    1
 -2      2336      2426      2436      2346      2337      2427      2437      2347
 -1      1931    1    0    1
 -2      2337      2427      2437      2347      2338      2428      2438      2348
 -1      1932    1    0    1
 -2      2338      2428      2438      2348      2339      2429      2439      2349
 -1      1933    1    0    1
 -2      2339      2429      2439      2349      2340      2430      2440      2350
 -1      1934    1    0    1
 -2      2340      2430      2440      2350      2341      2431      2441      2351
 -1      1935    1    0    1
 -2      2341      2431      2441      2351      2342      2432      2442      2352
 -1      1936    1    0    1
 -2      2342      2432      2442      2352      1307      1316      1317      1308
 -1      1937    1    0    1
 -2       287       296       297       288      2343      2433      2443      2353
 -1      1938    1    0    1
 -2      2343      2433      2443      2353      2344      2434      2444      2354
 -1      1939    1    0    1
 -2      2344      2434      2444      2354      2345      2435      2445      2355
 -1      1940    1    0    1
 -2      2345      2435      2445      2355      2346      2436      2446      2356
 -1      1941    1    0    1
 -2      2346      2436      2446      2356      2347      2437      2447      2357
 -1      1942    1    0    1
 -2      2347      2437      2447      2357      2348      2438      2448      2358
 -1      1943    1    0    1
 -2      2348      2438      2448      2358      2349      2439      2449      2359
 -1      1944    1    0    1
 -2      2349      2439      2449      2359      2350      2440      2450      2360
 -1      1945    1    0    1
 -2      2350      2440      2450      2360      2351      2441      2451      2361
 -1      1946    1    0    1
 -2      2351      2441      2451      2361      2352      2442      2452      2362
 -1      1947    1    0    1
 -2      2352      2442      2452      2362      1308      1317      1318      1309
 -1      1948    1    0    1
 -2       288       297       298       289      2353      2443      2453      2363
 -1      1949    1    0    1
 -2      2353      2443      2453      2363      2354      2444      2454      2364
 -1      1950    1    0    1
 -2      2354      2444      2454      2364      2355      2445      2455      2365
 -1      1951    1    0    1
 -2      2355      2445      2455      2365      2356      2446      2456      2366
 -1      1952    1    0    1
 -2      2356      2446      2456      2366      2357      2447      2457      2367
 -1      1953    1    0    1
 -2      2357      2447      2457      2367      2358      2448      2458      2368
 -1      1954    1    0    1
 -2      2358      2448      2458      2368      2359      2449      2459      2369
 -1      1955    1    0    1
 -2      2359      2449      2459      2369      2360      2450      2460      2370
 -1      1956    1    0    1
 -2      2360      2450      2460      2370      2361      2451      2461      2371
 -1      1957    1    0    1
 -2      2361      2451      2461      2371      2362      2452      2462      2372
 -1      1958    1    0    1
 -2      2362      2452      2462      2372      1309      1318      1319      1310
 -1      1959    1    0    1
 -2       289       298       299       290      2363      2453      2463      2373
 -1      1960    1    0    1
 -2      2363      2453      2463      2373      2364      2454      2464      2374
 -1      1961    1    0    1
 -2      2364      2454      2464      2374      2365      2455      2465      2375
 -1      1962    1    0    1
 -2      2365      2455      2465      2375      2366      2456      2466      2376
 -1      1963    1    0    1
 -2      2366      2456      2466      2376      2367      2457      2467      2377
 -1      1964    1    0    1
 -2      2367      2457      2467      2377      2368      2458      2468      2378
 -1      1965    1    0    1
 -2      2368      2458      2468      2378      2369      2459      2469      2379
 -1      1966    1    0    1
 -2      2369      2459      2469      2379      2370      2460      2470      2380
 -1      1967    1    0    1
 -2      2370      2460      2470      2380      2371      2461      2471      2381
 -1      1968    1    0    1
 -2      2371      2461      2471      2381      2372      2462      2472      2382
 -1      1969    1    0    1
 -2      2372      2462      2472      2382      1310      1319      1320      1311
 -1      1970    1    0    1
 -2       290       299        65        66      2373      2463      1022      1032
 -1      1971    1    0    1
 -2      2373      2463      1022      1032      2374      2464      1023      1033
 -1      1972    1    0    1
 -2      2374      2464      1023      1033      2375      2465      1024      1034
 -1      1973    1    0    1
 -2      2375      2465      1024      1034      2376      2466      1025      1035
 -1      1974    1    0    1
 -2      2376      2466      1025      1035      2377      2467      1026      1036
 -1      1975    1    0    1
 -2      2377      2467      1026      1036      2378      2468      1027      1037
 -1      1976    1    0    1
 -2      2378      2468      1027      1037      2379      2469      1028      1038
 -1      1977    1    0    1
 -2      2379      2469      1028      1038      2380      2470      1029      1039
 -1      1978    1    0    1
 -2      2380      2470      1029      1039      2381      2471      1030      1040
 -1      1979    1    0    1
 -2      2381      2471      1030      1040      2382      2472      1031      1041
 -1      1980    1    0    1
 -2      2382      2472      1031      1041      1311      1320       141       142
 -1      1981    1    0    1
 -2        19        20       300       291       562       572      2473      2383
 -1      1982    1    0    1
 -2       562       572      2473      2383       563       573      2474      2384
 -1      1983    1    0    1
 -2       563       573      2474      2384       564       574      2475      2385
 -1      1984    1    0    1
 -2       564       574      2475      2385       565       575      2476      2386
 -1      1985    1    0    1
 -2       565       575      2476      2386       566       576      2477      2387
 -1      1986    1    0    1
 -2       566       576      2477      2387       567       577      2478      2388
 -1      1987    1    0    1
 -2       567       577      2478      2388       568       578      2479      2389
 -1      1988    1    0    1
 -2       568       578      2479      2389       569       579      2480      2390
 -1      1989    1    0    1
 -2       569       579      2480      2390       570       580      2481      2391
 -1      1990    1    0    1
 -2       570       580      2481      2391       571       581      2482      2392
 -1      1991    1    0    1
 -2       571       581      2482      2392        95        96      1321      1312
 -1      1992    1    0    1
 -2       291       300       301       292      2383      2473      2483      2393
 -1      1993    1    0    1
 -2      2383      2473      2483      2393      2384      2474      2484      2394
 -1      1994    1    0    1
 -2      2384      2474      2484      2394      2385      2475      2485      2395
 -1      1995    1    0    1
 -2      2385      2475      2485      2395      2386      2476      2486      2396
 -1      1996    1    0    1
 -2      2386      2476      2486      2396      2387      2477      2487      2397
 -1      1997    1    0    1
 -2      2387      2477      2487      2397      2388      2478      2488      2398
 -1      1998    1    0    1
 -2      2388      2478      2488      2398      2389      2479      2489      2399
 -1      1999    1    0    1
 -2      2389      2479      2489      2399      2390      2480      2490      2400
 -1      2000    1    0    1
 -2      2390      2480      2490      2400      2391      2481      2491      2401
 -1      2001    1    0    1
 -2      2391      2481      2491      2401      2392      2482      2492      2402
 -1      2002    1    0    1
 -2      2392      2482      2492      2402      1312      1321      1322      1313
 -1      2003    1    0    1
 -2       292       301       302       293      2393      2483      2493      2403
 -1      2004    1    0    1
 -2      2393      2483      2493      2403      2394      2484      2494      2404
 -1      2005    1    0    1
 -2      2394      2484      2494      2404      2395      2485      2495      2405
 -1      2006    1    0    1
 -2      2395      2485      2495      2405      2396      2486      2496      2406
 -1      2007    1    0    1
 -2      2396      2486      2496      2406      2397      2487      2497      2407
 -1      2008    1    0    1
 -2      2397      2487      2497      2407      2398      2488      2498      2408
 -1      2009    1    0    1
 -2      2398      2488      2498      2408      2399      2489      2499      2409
 -1      2010    1    0    1
 -2      2399      2489      2499      2409      2400      2490      2500      2410
 -1      2011    1    0    1
 -2      2400      2490      2500      2410      2401      2491      2501      2411
 -1      2012    1    0    1
 -2      2401      2491      2501      2411      2402      2492      2502      2412
 -1      2013    1    0    1
 -2      2402      2492      2502      2412      1313      1322      1323      1314
 -1      2014    1    0    1
 -2       293       302       303       294      2403      2493      2503      2413
 -1      2015    1    0    1
 -2      2403      2493      2503      2413      2404      2494      2504      2414
 -1      2016    1    0    1
 -2      2404      2494      2504      2414      2405      2495      2505      2415
 -1      2017    1    0    1
 -2      2405      2495      2505      2415      2406      2496      2506      2416
 -1      2018    1    0    1
 -2      2406      2496      2506      2416      2407      2497      2507      2417
 -1      2019    1    0    1
 -2      2407      2497      2507      2417      2408      2498      2508      2418
 -1      2020    1    0    1
 -2      2408      2498      2508      2418      2409      2499      2509      2419
 -1      2021    1    0    1
 -2      2409      2499      2509      2419      2410      2500      2510      2420
 -1      2022    1    0    1
 -2      2410      2500      2510      2420      2411      2501      2511      2421
 -1      2023    1    0    1
 -2      2411      2501      2511      2421      2412      2502      2512      2422
 -1      2024    1    0    1
 -2      2412      2502      2512      2422      1314      1323      1324      1315
 -1      2025    1    0    1
 -2       294       303       304       295      2413      2503      2513      2423
 -1      2026    1    0    1
 -2      2413      2503      2513      2423      2414      2504      2514      2424
 -1      2027    1    0    1
 -2      2414      2504      2514      2424      2415      2505      2515      2425
 -1      2028    1    0    1
 -2      2415      2505      2515      2425      2416      2506      2516      2426
 -1      2029    1    0    1
 -2      2416      2506      2516      2426      2417      2507      2517      2427
 -1      2030    1    0    1
 -2      2417      2507      2517      2427      2418      2508      2518      2428
 -1      2031    1    0    1
 -2      2418      2508      2518      2428      2419      2509      2519      2429
 -1      2032    1    0    1
 -2      2419      2509      2519      2429      2420      2510      2520      2430
 -1      2033    1    0    1
 -2      2420      2510      2520      2430      2421      2511      2521      2431
 -1      2034    1    0    1
 -2      2421      2511      2521      2431      2422      2512      2522      2432
 -1      2035    1    0    1
 -2      2422      2512      2522      2432      1315      1324      1325      1316
 -1      2036    1    0    1
 -2       295       304       305       296      2423      2513      2523      2433
 -1      2037    1    0    1
 -2      2423      2513      2523      2433      2424      2514      2524      2434
 -1      2038    1    0    1
 -2      2424      2514      2524      2434      2425      2515      2525      2435
 -1      2039    1    0    1
 -2      2425      2515      2525      2435      2426      2516      2526      2436
 -1      2040    1    0    1
 -2      2426      2516      2526      2436      2427      2517      2527      2437
 -1      2041    1    0    1
 -2      2427      2517      2527      2437      2428      2518      2528      2438
 -1      2042    1    0    1
 -2      2428      2518      2528      2438      2429      2519      2529      2439
 -1      2043    1    0    1
 -2      2429      2519      2529      2439      2430      2520      2530      2440
 -1      2044    1    0    1
 -2      2430      2520      2530      2440      2431      2521      2531      2441
 -1      2045    1    0    1
 -2      2431      2521      2531      2441      2432      2522      2532      2442
 -1      2046    1    0    1
 -2      2432      2522      2532      2442      1316      1325      1326      1317
 -1      2047    1    0    1
 -2       296       305       306       297      2433      2523      2533      2443
 -1      2048    1    0    1
 -2      2433      2523      2533      2443      2434      2524      2534      2444
 -1      2049    1    0    1
 -2      2434      2524      2534      2444      2435      2525      2535      2445
 -1      2050    1    0    1
 -2      2435      2525      2535      2445      2436      2526      2536      2446
 -1      2051    1    0    1
 -2      2436      2526      2536      2446      2437      2527      2537      2447
 -1      2052    1    0    1
 -2      2437      2527      2537      2447      2438      2528      2538      2448
 -1      2053    1    0    1
 -2      2438      2528      2538      2448      2439      2529      2539      2449
 -1      2054    1    0    1
 -2      2439      2529      2539      2449      2440      2530      2540      2450
 -1      2055    1    0    1
 -2      2440      2530      2540      2450      2441      2531      2541      2451
 -1      2056    1    0    1
 -2      2441      2531      2541      2451      2442      2532      2542      2452
 -1      2057    1    0    1
 -2      2442      2532      2542      2452      1317      1326      1327      1318
 -1      2058    1    0    1
 -2       297       306       307       298      2443      2533      2543      2453
 -1      2059    1    0    1
 -2      2443      2533      2543      2453      2444      2534      2544      2454
 -1      2060    1    0    1
 -2      2444      2534      2544      2454      2445      2535      2545      2455
 -1      2061    1    0    1
 -2      2445      2535      2545      2455      2446      2536      2546      2456
 -1      2062    1    0    1
 -2      2446      2536      2546      2456      2447      2537      2547      2457
 -1      2063    1    0    1
 -2      2447      2537      2547      2457      2448      2538      2548      2458
 -1      2064    1    0    1
 -2      2448      2538      2548      2458      2449      2539      2549      2459
 -1      2065    1    0    1
 -2      2449      2539      2549      2459      2450      2540      2550      2460
 -1      2066    1    0    1
 -2      2450      2540      2550      2460      2451      2541      2551      2461
 -1      2067    1    0    1
 -2      2451      2541      2551      2461      2452      2542      2552      2462
 -1      2068    1    0    1
 -2      2452      2542      2552      2462      1318      1327      1328      1319
 -1      2069    1    0    1
 -2       298       307       308       299      2453      2543      2553      2463
 -1      2070    1    0    1
 -2      2453      2543      2553      2463      2454      2544      2554      2464
 -1      2071    1    0    1
 -2      2454      2544      2554      2464      2455      2545      2555      2465
 -1      2072    1    0    1
 -2      2455      2545      2555      2465      2456      2546      2556      2466
 -1      2073    1    0    1
 -2      2456      2546      2556      2466      2457      2547      2557      2467
 -1      2074    1    0    1
 -2      2457      2547      2557      2467      2458      2548      2558      2468
 -1      2075    1    0    1
 -2      2458      2548      2558      2468      2459      2549      2559      2469
 -1      2076    1    0    1
 -2      2459      2549      2559      2469      2460      2550      2560      2470
 -1      2077    1    0    1
 -2      2460      2550      2560      2470      2461      2551      2561      2471
 -1      2078    1    0    1
 -2      2461      2551      2561      2471      2462      2552      2562      2472
 -1      2079    1    0    1
 -2      2462      2552      2562      2472      1319      1328      1329      1320
 -1      2080    1    0    1
 -2       299       308        64        65      2463      2553      1012      1022
 -1      2081    1    0    1
 -2      2463      2553      1012      1022      2464      2554      1013      1023
 -1      2082    1    0    1
 -2      2464      2554      1013      1023      2465      2555      1014      1024
 -1      2083    1    0    1
 -2      2465      2555      1014      1024      2466      2556      1015      1025
 -1      2084    1    0    1
 -2      2466      2556      1015      1025      2467      2557      1016      1026
 -1      2085    1    0    1
 -2      2467      2557      1016      1026      2468      2558      1017      1027
 -1      2086    1    0    1
 -2      2468      2558      1017      1027      2469      2559      1018      1028
 -1      2087    1    0    1
 -2      2469      2559      1018      1028      2470      2560      1019      1029
 -1      2088    1    0    1
 -2      2470      2560      1019      1029      2471      2561      1020      1030
 -1      2089    1    0    1
 -2      2471      2561      1020      1030      2472      2562      1021      1031
 -1      2090    1    0    1
 -2      2472      2562      1021      1031      1320      1329       140       141
 -1      2091    1    0    1
 -2        20        21       309       300       572       582      2563      2473
 -1      2092    1    0    1
 -2       572       582      2563      2473       573       583      2564      2474
 -1      2093    1    0    1
 -2       573       583      2564      2474       574       584      2565      2475
 -1      2094    1    0    1
 -2       574       584      2565      2475       575       585      2566      2476
 -1      2095    1    0    1
 -2       575       585      2566      2476       576       586      2567      2477
 -1      2096    1    0    1
 -2       576       586      2567      2477       577       587      2568      2478
 -1      2097    1    0    1
 -2       577       587      2568      2478       578       588      2569      2479
 -1      2098    1    0    1
 -2       578       588      2569      2479       579       589      2570      2480
 -1      2099    1    0    1
 -2       579       589      2570      2480       580       590      2571      2481
 -1      2100    1    0    1
 -2       580       590      2571      2481       581       591      2572      2482
 -1      2101    1    0    1
 -2       581       591      2572      2482        96        97      1330      1321
 -1      2102    1    0    1
 -2       300       309       310       301      2473      2563      2573      2483
 -1      2103    1    0    1
 -2      2473      2563      2573      2483      2474      2564      2574      2484
 -1      2104    1    0    1
 -2      2474      2564      2574      2484      2475      2565      2575      2485
 -1      2105    1    0    1
 -2      2475      2565      2575      2485      2476      2566      2576      2486
 -1      2106    1    0    1
 -2      2476      2566      2576      2486      2477      2567      2577      2487
 -1      2107    1    0    1
 -2      2477      2567      2577      2487      2478      2568      2578      2488
 -1      2108    1    0    1
 -2      2478      2568      2578      2488      2479      2569      2579      2489
 -1      2109    1    0    1
 -2      2479      2569      2579      2489      2480      2570      2580      2490
 -1      2110    1    0    1
 -2      2480      2570      2580      2490      2481      2571      2581      2491
 -1      2111    1    0    1
 -2      2481      2571      2581      2491      2482      2572      2582      2492
 -1      2112    1    0    1
 -2      2482      2572      2582      2492      1321      1330      1331      1322
 -1      2113    1    0    1
 -2       301       310       311       302      2483      2573      2583      2493
 -1      2114    1    0    1
 -2      2483      2573      2583      2493      2484      2574      2584      2494
 -1      2115    1    0    1
 -2      2484      2574      2584      2494      2485      2575      2585      2495
 -1      2116    1    0    1
 -2      2485      2575      2585      2495      2486      2576      2586      2496
 -1      2117    1    0    1
 -2      2486      2576      2586      2496      2487      2577      2587      2497
 -1      2118    1    0    1
 -2      2487      2577      2587      2497      2488      2578      2588      2498
 -1      2119    1    0    1
 -2      2488      2578      2588      2498      2489      2579      2589      2499
 -1      2120    1    0    1
 -2      2489      2579      2589      2499      2490      2580      2590      2500
 -1      2121    1    0    1
 -2      2490      2580      2590      2500      2491      2581      2591      2501
 -1      2122    1    0    1
 -2      2491      2581      2591      2501      2492      2582      2592      2502
 -1      2123    1    0    1
 -2      2492      2582      2592      2502      1322      1331      1332      1323
 -1      2124    1    0    1
 -2       302       311       312       303      2493      2583      2593      2503
 -1      2125    1    0    1
 -2      2493      2583      2593      2503      2494      2584      2594      2504
 -1      2126    1    0    1
 -2      2494      2584      2594      2504      2495      2585      2595      2505
 -1      2127    1    0    1
 -2      2495      2585      2595      2505      2496      2586      2596      2506
 -1      2128    1    0    1
 -2      2496      2586      2596      2506      2497      2587      2597      2507
 -1      2129    1    0    1
 -2      2497      2587      2597      2507      2498      2588      2598      2508
 -1      2130    1    0    1
 -2      2498      2588      2598      2508      2499      2589      2599      2509
 -1      2131    1    0    1
 -2      2499      2589      2599      2509      2500      2590      2600      2510
 -1      2132    1    0    1
 -2      2500      2590      2600      2510      2501      2591      2601      2511
 -1      2133    1    0    1
 -2      2501      2591      2601      2511      2502      2592      2602      2512
 -1      2134    1    0    1
 -2      2502      2592      2602      2512      1323      1332      1333      1324
 -1      2135    1    0    1
 -2       303       312       313       304      2503      2593      2603      2513
 -1      2136    1    0    1
 -2      2503      2593      2603      2513      2504      2594      2604      2514
 -1      2137    1    0    1
 -2      2504      2594      2604      2514      2505      2595      2605      2515
 -1      2138    1    0    1
 -2      2505      2595      2605      2515      2506      2596      2606      2516
 -1      2139    1    0    1
 -2      2506      2596      2606      2516      2507      2597      2607      2517
 -1      2140    1    0    1
 -2      2507      2597      2607      2517      2508      2598      2608      2518
 -1      2141    1    0    1
 -2      2508      2598      2608      2518      2509      2599      2609      2519
 -1      2142    1    0    1
 -2      2509      2599      2609      2519      2510      2600      2610      2520
 -1      2143    1    0    1
 -2      2510      2600      2610      2520      2511      2601      2611      2521
 -1      2144    1    0    1
 -2      2511      2601      2611      2521      2512      2602      2612      2522
 -1      2145    1    0    1
 -2      2512      2602      2612      2522      1324      1333      1334      1325
 -1      2146    1    0    1
 -2       304       313       314       305      2513      2603      2613      2523
 -1      2147    1    0    1
 -2      2513      2603      2613      2523      2514      2604      2614      2524
 -1      2148    1    0    1
 -2      2514      2604      2614      2524      2515      2605      2615      2525
 -1      2149    1    0    1
 -2      2515      2605      2615      2525      2516      2606      2616      2526
 -1      2150    1    0    1
 -2      2516      2606      2616      2526      2517      2607      2617      2527
 -1      2151    1    0    1
 -2      2517      2607      2617      2527      2518      2608      2618      2528
 -1      2152    1    0    1
 -2      2518      2608      2618      2528      2519      2609      2619      2529
 -1      2153    1    0    1
 -2      2519      2609      2619      2529      2520      2610      2620      2530
 -1      2154    1    0    1
 -2      2520      2610      2620      2530      2521      2611      2621      2531
 -1      2155    1    0    1
 -2      2521      2611      2621      2531      2522      2612      2622      2532
 -1      2156    1    0    1
 -2      2522      2612      2622      2532      1325      1334      1335      1326
 -1      2157    1    0    1
 -2       305       314       315       306      2523      2613      2623      2533
 -1      2158    1    0    1
 -2      2523      2613      2623      2533      2524      2614      2624      2534
 -1      2159    1    0    1
 -2      2524      2614      2624      2534      2525      2615      2625      2535
 -1      2160    1    0    1
 -2      2525      2615      2625      2535      2526      2616      2626      2536
 -1      2161    1    0    1
 -2      2526      2616      2626      2536      2527      2617      2627      2537
 -1      2162    1    0    1
 -2      2527      2617      2627      2537      2528      2618      2628      2538
 -1      2163    1    0    1
 -2      2528      2618      2628      2538      2529      2619      2629      2539
 -1      2164    1    0    1
 -2      2529      2619      2629      2539      2530      2620      2630      2540
 -1      2165    1    0    1
 -2      2530      2620      2630      2540      2531      2621      2631      2541
 -1      2166    1    0    1
 -2      2531      2621      2631      2541      2532      2622      2632      2542
 -1      2167    1    0    1
 -2      2532      2622      2632      2542      1326      1335      1336      1327
 -1      2168    1    0    1
 -2       306       315       316       307      2533      2623      2633      2543
 -1      2169    1    0    1
 -2      2533      2623      2633      2543      2534      2624      2634      2544
 -1      2170    1    0    1
 -2      2534      2624      2634      2544      2535      2625      2635      2545
 -1      2171    1    0    1
 -2      2535      2625      2635      2545      2536      2626      2636      2546
 -1      2172    1    0    1
 -2      2536      2626      2636      2546      2537      2627      2637      2547
 -1      2173    1    0    1
 -2      2537      2627      2637      2547      2538      2628      2638      2548
 -1      2174    1    0    1
 -2      2538      2628      2638      2548      2539      2629      2639      2549
 -1      2175    1    0    1
 -2      2539      2629      2639      2549      2540      2630      2640      2550
 -1      2176    1    0    1
 -2      2540      2630      2640      2550      2541      2631      2641      2551
 -1      2177    1    0    1
 -2      2541      2631      2641      2551      2542      2632      2642      2552
 -1      2178    1    0    1
 -2      2542      2632      2642      2552      1327      1336      1337      1328
 -1      2179    1    0    1
 -2       307       316       317       308      2543      2633      2643      2553
 -1      2180    1    0    1
 -2      2543      2633      2643      2553      2544      2634      2644      2554
 -1      2181    1    0    1
 -2      2544      2634      2644      2554      2545      2635      2645      2555
 -1      2182    1    0    1
 -2      2545      2635      2645      2555      2546      2636      2646      2556
 -1      2183    1    0    1
 -2      2546      2636      2646      2556      2547      2637      2647      2557
 -1      2184    1    0    1
 -2      2547      2637      2647      2557      2548      2638      2648      2558
 -1      2185    1    0    1
 -2      2548      2638      2648      2558      2549      2639      2649      2559
 -1      2186    1    0    1
 -2      2549      2639      2649      2559      2550      2640      2650      2560
 -1      2187    1    0    1
 -2      2550      2640      2650      2560      2551      2641      2651      2561
 -1      2188    1    0    1
 -2      2551      2641      2651      2561      2552      2642      2652      2562
 -1      2189    1    0    1
 -2      2552      2642      2652      2562      1328      1337      1338      1329
 -1      2190    1    0    1
 -2       308       317        63        64      2553      2643      1002      1012
 -1      2191    1    0    1
 -2      2553      2643      1002      1012      2554      2644      1003      1013
 -1      2192    1    0    1
 -2      2554      2644      1003      1013      2555      2645      1004      1014
 -1      2193    1    0    1
 -2      2555      2645      1004      1014      2556      2646      1005      1015
 -1      2194    1    0    1
 -2      2556      2646      1005      1015      2557      2647      1006      1016
 -1      2195    1    0    1
 -2      2557      2647      1006      1016      2558      2648      1007      1017
 -1      2196    1    0    1
 -2      2558      2648      1007      1017      2559      2649      1008      1018
 -1      2197    1    0    1
 -2      2559      2649      1008      1018      2560      2650      1009      1019
 -1      2198    1    0    1
 -2      2560      2650      1009      1019      2561      2651      1010      1020
 -1      2199    1    0    1
 -2      2561      2651      1010      1020      2562      2652      1011      1021
 -1      2200    1    0    1
 -2      2562      2652      1011      1021      1329      1338       139       140
 -1      2201    1    0    1
 -2        21        22       318       309       582       592      2653      2563
 -1      2202    1    0    1
 -2       582       592      2653      2563       583       593      2654      2564
 -1      2203    1    0    1
 -2       583       593      2654      2564       584       594      2655      2565
 -1      2204    1    0    1
 -2       584       594      2655      2565       585       595      2656      2566
 -1      2205    1    0    1
 -2       585       595      2656      2566       586       596      2657      2567
 -1      2206    1    0    1
 -2       586       596      2657      2567       587       597      2658      2568
 -1      2207    1    0    1
 -2       587       597      2658      2568       588       598      2659      2569
 -1      2208    1    0    1
 -2       588       598      2659      2569       589       599      2660      2570
 -1      2209    1    0    1
 -2       589       599      2660      2570       590       600      2661      2571
 -1      2210    1    0    1
 -2       590       600      2661      2571       591       601      2662      2572
 -1      2211    1    0    1
 -2       591       601      2662      2572        97        98      1339      1330
 -1      2212    1    0    1
 -2       309       318       319       310      2563      2653      2663      2573
 -1      2213    1    0    1
 -2      2563      2653      2663      2573      2564      2654      2664      2574
 -1      2214    1    0    1
 -2      2564      2654      2664      2574      2565      2655      2665      2575
 -1      2215    1    0    1
 -2      2565      2655      2665      2575      2566      2656      2666      2576
 -1      2216    1    0    1
 -2      2566      2656      2666      2576      2567      2657      2667      2577
 -1      2217    1    0    1
 -2      2567      2657      2667      2577      2568      2658      2668      2578
 -1      2218    1    0    1
 -2      2568      2658      2668      2578      2569      2659      2669      2579
 -1      2219    1    0    1
 -2      2569      2659      2669      2579      2570      2660      2670      2580
 -1      2220    1    0    1
 -2      2570      2660      2670      2580      2571      2661      2671      2581
 -1      2221    1    0    1
 -2      2571      2661      2671      2581      2572      2662      2672      2582
 -1      2222    1    0    1
 -2      2572      2662      2672      2582      1330      1339      1340      1331
 -1      2223    1    0    1
 -2       310       319       320       311      2573      2663      2673      2583
 -1      2224    1    0    1
 -2      2573      2663      2673      2583      2574      2664      2674      2584
 -1      2225    1    0    1
 -2      2574      2664      2674      2584      2575      2665      2675      2585
 -1      2226    1    0    1
 -2      2575      2665      2675      2585      2576      2666      2676      2586
 -1      2227    1    0    1
 -2      2576      2666      2676      2586      2577      2667      2677      2587
 -1      2228    1    0    1
 -2      2577      2667      2677      2587      2578      2668      2678      2588
 -1      2229    1    0    1
 -2      2578      2668      2678      2588      2579      2669      2679      2589
 -1      2230    1    0    1
 -2      2579      2669      2679      2589      2580      2670      2680      2590
 -1      2231    1    0    1
 -2      2580      2670      2680      2590      2581      2671      2681      2591
 -1      2232    1    0    1
 -2      2581      2671      2681      2591      2582      2672      2682      2592
 -1      2233    1    0    1
 -2      2582      2672      2682      2592      1331      1340      1341      1332
 -1      2234    1    0    1
 -2       311       320       321       312      2583      2673      2683      2593
 -1      2235    1    0    1
 -2      2583      2673      2683      2593      2584      2674      2684      2594
 -1      2236    1    0    1
 -2      2584      2674      2684      2594      2585      2675      2685      2595
 -1      2237    1    0    1
 -2      2585      2675      2685      2595      2586      2676      2686      2596
 -1      2238    1    0    1
 -2      2586      2676      2686      2596      2587      2677      2687      2597
 -1      2239    1    0    1
 -2      2587      2677      2687      2597      2588      2678      2688      2598
 -1      2240    1    0    1
 -2      2588      2678      2688      2598      2589      2679      2689      2599
 -1      2241    1    0    1
 -2      2589      2679      2689      2599      2590      2680      2690      2600
 -1      2242    1    0    1
 -2      2590      2680      2690      2600      2591      2681      2691      2601
 -1      2243    1    0    1
 -2      2591      2681      2691      2601      2592      2682      2692      2602
 -1      2244    1    0    1
 -2      2592      2682      2692      2602      1332      1341      1342      1333
 -1      2245    1    0    1
 -2       312       321       322       313      2593      2683      2693      2603
 -1      2246    1    0    1
 -2      2593      2683      2693      2603      2594      2684      2694      2604
 -1      2247    1    0    1
 -2      2594      2684      2694      2604      2595      2685      2695      2605
 -1      2248    1    0    1
 -2      2595      2685      2695      2605      2596      2686      2696      2606
 -1      2249    1    0    1
 -2      2596      2686      2696      2606      2597      2687      2697      2607
 -1      2250    1    0    1
 -2      2597      2687      2697      2607      2598      2688      2698      2608
 -1      2251    1    0    1
 -2      2598      2688      2698      2608      2599      2689      2699      2609
 -1      2252    1    0    1
 -2      2599      2689      2699      2609      2600      2690      2700      2610
 -1      2253    1    0    1
 -2      2600      2690      2700      2610      2601      2691      2701      2611
 -1      2254    1    0    1
 -2      2601      2691      2701      2611      2602      2692      2702      2612
 -1      2255    1    0    1
 -2      2602      2692      2702      2612      1333      1342      1343      1334
 -1      2256    1    0    1
 -2       313       322       323       314      2603      2693      2703      2613
 -1      2257    1    0    1
 -2      2603      2693      2703      2613      2604      2694      2704      2614
 -1      2258    1    0    1
 -2      2604      2694      2704      2614      2605      2695      2705      2615
 -1      2259    1    0    1
 -2      2605      2695      2705      2615      2606      2696      2706      2616
 -1      2260    1    0    1
 -2      2606      2696      2706      2616      2607      2697      2707      2617
 -1      2261    1    0    1
 -2      2607      2697      2707      2617      2608      2698      2708      2618
 -1      2262    1    0    1
 -2      2608      2698      2708      2618      2609      2699      2709      2619
 -1      2263    1    0    1
 -2      2609      2699      2709      2619      2610      2700      2710      2620
 -1      2264    1    0    1
 -2      2610      2700      2710      2620      2611      2701      2711      2621
 -1      2265    1    0    1
 -2      2611      2701      2711      2621      2612      2702      2712      2622
 -1      2266    1    0    1
 -2      2612      2702      2712      2622      1334      1343      1344      1335
 -1      2267    1    0    1
 -2       314       323       324       315      2613      2703      2713      2623
 -1      2268    1    0    1
 -2      2613      2703      2713      2623      2614      2704      2714      2624
 -1      2269    1    0    1
 -2      2614      2704      2714      2624      2615      2705      2715      2625
 -1      2270    1    0    1
 -2      2615      2705      2715      2625      2616      2706      2716      2626
 -1      2271    1    0    1
 -2      2616      2706      2716      2626      2617      2707      2717      2627
 -1      2272    1    0    1
 -2      2617      2707      2717      2627      2618      2708      2718      2628
 -1      2273    1    0    1
 -2      2618      2708      2718      2628      2619      2709      2719      2629
 -1      2274    1    0    1
 -2      2619      2709      2719      2629      2620      2710      2720      2630
 -1      2275    1    0    1
 -2      2620      2710      2720      2630      2621      2711      2721      2631
 -1      2276    1    0    1
 -2      2621      2711      2721      2631      2622      2712      2722      2632
 -1      2277    1    0    1
 -2      2622      2712      2722      2632      1335      1344      1345      1336
 -1      2278    1    0    1
 -2       315       324       325       316      2623      2713      2723      2633
 -1      2279    1    0    1
 -2      2623      2713      2723      2633      2624      2714      2724      2634
 -1      2280    1    0    1
 -2      2624      2714      2724      2634      2625      2715      2725      2635
 -1      2281    1    0    1
 -2      2625      2715      2725      2635      2626      2716      2726      2636
 -1      2282    1    0    1
 -2      2626      2716      2726      2636      2627      2717      2727      2637
 -1      2283    1    0    1
 -2      2627      2717      2727      2637      2628      2718      2728      2638
 -1      2284    1    0    1
 -2      2628      2718      2728      2638      2629      2719      2729      2639
 -1      2285    1    0    1
 -2      2629      2719      2729      2639      2630      2720      2730      2640
 -1      2286    1    0    1
 -2      2630      2720      2730      2640      2631      2721      2731      2641
 -1      2287    1    0    1
 -2      2631      2721      2731      2641      2632      2722      2732      2642
 -1      2288    1    0    1
 -2      2632      2722      2732      2642      1336      1345      1346      1337
 -1      2289    1    0    1
 -2       316       325       326       317      2633      2723      2733      2643
 -1      2290    1    0    1
 -2      2633      2723      2733      2643      2634      2724      2734      2644
 -1      2291    1    0    1
 -2      2634      2724      2734      2644      2635      2725      2735      2645
 -1      2292    1    0    1
 -2      2635      2725      2735      2645      2636      2726      2736      2646
 -1      2293    1    0    1
 -2      2636      2726      2736      2646      2637      2727      2737      2647
 -1      2294    1    0    1
 -2      2637      2727      2737      2647      2638      2728      2738      2648
 -1      2295    1    0    1
 -2      2638      2728      2738      2648      2639      2729      2739      2649
 -1      2296    1    0    1
 -2      2639      2729      2739      2649      2640      2730      2740      2650
 -1      2297    1    0    1
 -2      2640      2730      2740      2650      2641      2731      2741      2651
 -1      2298    1    0    1
 -2      2641      2731      2741      2651      2642      2732      2742      2652
 -1      2299    1    0    1
 -2      2642      2732      2742      2652      1337      1346      1347      1338
 -1      2300    1    0    1
 -2       317       326        62        63      2643      2733       992      1002
 -1      2301    1    0    1
 -2      2643      2733       992      1002      2644      2734       993      1003
 -1      2302    1    0    1
 -2      2644      2734       993      1003      2645      2735       994      1004
 -1      2303    1    0    1
 -2      2645      2735       994      1004      2646      2736       995      1005
 -1      2304    1    0    1
 -2      2646      2736       995      1005      2647      2737       996      1006
 -1      2305    1    0    1
 -2      2647      2737       996      1006      2648      2738       997      1007
 -1      2306    1    0    1
 -2      2648      2738       997      1007      2649      2739       998      1008
 -1      2307    1    0    1
 -2      2649      2739       998      1008      2650      2740       999      1009
 -1      2308    1    0    1
 -2      2650      2740       999      1009      2651      2741      1000      1010
 -1      2309    1    0    1
 -2      2651      2741      1000      1010      2652      2742      1001      1011
 -1      2310    1    0    1
 -2      2652      2742      1001      1011      1338      1347       138       139
 -1      2311    1    0    1
 -2        22        23       327       318       592       602      2743      2653
 -1      2312    1    0    1
 -2       592       602      2743      2653       593       603      2744      2654
 -1      2313    1    0    1
 -2       593       603      2744      2654       594       604      2745      2655
 -1      2314    1    0    1
 -2       594       604      2745      2655       595       605      2746      2656
 -1      2315    1    0    1
 -2       595       605      2746      2656       596       606      2747      2657
 -1      2316    1    0    1
 -2       596       606      2747      2657       597       607      2748      2658
 -1      2317    1    0    1
 -2       597       607      2748      2658       598       608      2749      2659
 -1      2318    1    0    1
 -2       598       608      2749      2659       599       609      2750      2660
 -1      2319    1    0    1
 -2       599       609      2750      2660       600       610      2751      2661
 -1      2320    1    0    1
 -2       600       610      2751      2661       601       611      2752      2662
 -1      2321    1    0    1
 -2       601       611      2752      2662        98        99      1348      1339
 -1      2322    1    0    1
 -2       318       327       328       319      2653      2743      2753      2663
 -1      2323    1    0    1
 -2      2653      2743      2753      2663      2654      2744      2754      2664
 -1      2324    1    0    1
 -2      2654      2744      2754      2664      2655      2745      2755      2665
 -1      2325    1    0    1
 -2      2655      2745      2755      2665      2656      2746      2756      2666
 -1      2326    1    0    1
 -2      2656      2746      2756      2666      2657      2747      2757      2667
 -1      2327    1    0    1
 -2      2657      2747      2757      2667      2658      2748      2758      2668
 -1      2328    1    0    1
 -2      2658      2748      2758      2668      2659      2749      2759      2669
 -1      2329    1    0    1
 -2      2659      2749      2759      2669      2660      2750      2760      2670
 -1      2330    1    0    1
 -2      2660      2750      2760      2670      2661      2751      2761      2671
 -1      2331    1    0    1
 -2      2661      2751      2761      2671      2662      2752      2762      2672
 -1      2332    1    0    1
 -2      2662      2752      2762      2672      1339      1348      1349      1340
 -1      2333    1    0    1
 -2       319       328       329       320      2663      2753      2763      2673
 -1      2334    1    0    1
 -2      2663      2753      2763      2673      2664      2754      2764      2674
 -1      2335    1    0    1
 -2      2664      2754      2764      2674      2665      2755      2765      2675
 -1      2336    1    0    1
 -2      2665      2755      2765      2675      2666      2756      2766      2676
 -1      2337    1    0    1
 -2      2666      2756      2766      2676      2667      2757      2767      2677
 -1      2338    1    0    1
 -2      2667      2757      2767      2677      2668      2758      2768      2678
 -1      2339    1    0    1
 -2      2668      2758      2768      2678      2669      2759      2769      2679
 -1      2340    1    0    1
 -2      2669      2759      2769      2679      2670      2760      2770      2680
 -1      2341    1    0    1
 -2      2670      2760      2770      2680      2671      2761      2771      2681
 -1      2342    1    0    1
 -2      2671      2761      2771      2681      2672      2762      2772      2682
 -1      2343    1    0    1
 -2      2672      2762      2772      2682      1340      1349      1350      1341
 -1      2344    1    0    1
 -2       320       329       330       321      2673      2763      2773      2683
 -1      2345    1    0    1
 -2      2673      2763      2773      2683      2674      2764      2774      2684
 -1      2346    1    0    1
 -2      2674      2764      2774      2684      2675      2765      2775      2685
 -1      2347    1    0    1
 -2      2675      2765      2775      2685      2676      2766      2776      2686
 -1      2348    1    0    1
 -2      2676      2766      2776      2686      2677      2767      2777      2687
 -1      2349    1    0    1
 -2      2677      2767      2777      2687      2678      2768      2778      2688
 -1      2350    1    0    1
 -2      2678      2768      2778      2688      2679      2769      2779      2689
 -1      2351    1    0    1
 -2      2679      2769      2779      2689      2680      2770      2780      2690
 -1      2352    1    0    1
 -2      2680      2770      2780      2690      2681      2771      2781      2691
 -1      2353    1    0    1
 -2      2681      2771      2781      2691      2682      2772      2782      2692
 -1      2354    1    0    1
 -2      2682      2772      2782      2692      1341      1350      1351      1342
 -1      2355    1    0    1
 -2       321       330       331       322      2683      2773      2783      2693
 -1      2356    1    0    1
 -2      2683      2773      2783      2693      2684      2774      2784      2694
 -1      2357    1    0    1
 -2      2684      2774      2784      2694      2685      2775      2785      2695
 -1      2358    1    0    1
 -2      2685      2775      2785      2695      2686      2776      2786      2696
 -1      2359    1    0    1
 -2      2686      2776      2786      2696      2687      2777      2787      2697
 -1      2360    1    0    1
 -2      2687      2777      2787      2697      2688      2778      2788      2698
 -1      2361    1    0    1
 -2      2688      2778      2788      2698      2689      2779      2789      2699
 -1      2362    1    0    1
 -2      2689      2779      2789      2699      2690      2780      2790      2700
 -1      2363    1    0    1
 -2      2690      2780      2790      2700      2691      2781      2791      2701
 -1      2364    1    0    1
 -2      2691      2781      2791      2701      2692      2782      2792      2702
 -1      2365    1    0    1
 -2      2692      2782      2792      2702      1342      1351      1352      1343
 -1      2366    1    0    1
 -2       322       331       332       323      2693      2783      2793      2703
 -1      2367    1    0    1
 -2      2693      2783      2793      2703      2694      2784      2794      2704
 -1      2368    1    0    1
 -2      2694      2784      2794      2704      2695      2785      2795      2705
 -1      2369    1    0    1
 -2      2695      2785      2795      2705      2696      2786      2796      2706
 -1      2370    1    0    1
 -2      2696      2786      2796      2706      2697      2787      2797      2707
 -1      2371    1    0    1
 -2      2697      2787      2797      2707      2698      2788      2798      2708
 -1      2372    1    0    1
 -2      2698      2788      2798      2708      2699      2789      2799      2709
 -1      2373    1    0    1
 -2      2699      2789      2799      2709      2700      2790      2800      2710
 -1      2374    1    0    1
 -2      2700      2790      2800      2710      2701      2791      2801      2711
 -1      2375    1    0    1
 -2      2701      2791      2801      2711      2702      2792      2802      2712
 -1      2376    1    0    1
 -2      2702      2792      2802      2712      1343      1352      1353      1344
 -1      2377    1    0    1
 -2       323       332       333       324      2703      2793      2803      2713
 -1      2378    1    0    1
 -2      2703      2793      2803      2713      2704      2794      2804      2714
 -1      2379    1    0    1
 -2      2704      2794      2804      2714      2705      2795      2805      2715
 -1      2380    1    0    1
 -2      2705      2795      2805      2715      2706      2796      2806      2716
 -1      2381    1    0    1
 -2      2706      2796      2806      2716      2707      2797      2807      2717
 -1      2382    1    0    1
 -2      2707      2797      2807      2717      2708      2798      2808      2718
 -1      2383    1    0    1
 -2      2708      2798      2808      2718      2709      2799      2809      2719
 -1      2384    1    0    1
 -2      2709      2799      2809      2719      2710      2800      2810      2720
 -1      2385    1    0    1
 -2      2710      2800      2810      2720      2711      2801      2811      2721
 -1      2386    1    0    1
 -2      2711      2801      2811      2721      2712      2802      2812      2722
 -1      2387    1    0    1
 -2      2712      2802      2812      2722      1344      1353      1354      1345
 -1      2388    1    0    1
 -2       324       333       334       325      2713      2803      2813      2723
 -1      2389    1    0    1
 -2      2713      2803      2813      2723      2714      2804      2814      2724
 -1      2390    1    0    1
 -2      2714      2804      2814      2724      2715      2805      2815      2725
 -1      2391    1    0    1
 -2      2715      2805      2815      2725      2716      2806      2816      2726
 -1      2392    1    0    1
 -2      2716      2806      2816      2726      2717      2807      2817      2727
 -1      2393    1    0    1
 -2      2717      2807      2817      2727      2718      2808      2818      2728
 -1      2394    1    0    1
 -2      2718      2808      2818      2728      2719      2809      2819      2729
 -1      2395    1    0    1
 -2      2719      2809      2819      2729      2720      2810      2820      2730
 -1      2396    1    0    1
 -2      2720      2810      2820      2730      2721      2811      2821      2731
 -1      2397    1    0    1
 -2      2721      2811      2821      2731      2722      2812      2822      2732
 -1      2398    1    0    1
 -2      2722      2812      2822      2732      1345      1354      1355      1346
 -1      2399    1    0    1
 -2       325       334       335       326      2723      2813      2823      2733
 -1      2400    1    0    1
 -2      2723      2813      2823      2733      2724      2814      2824      2734
 -1      2401    1    0    1
 -2      2724      2814      2824      2734      2725      2815      2825      2735
 -1      2402    1    0    1
 -2      2725      2815      2825      2735      2726      2816      2826      2736
 -1      2403    1    0    1
 -2      2726      2816      2826      2736      2727      2817      2827      2737
 -1      2404    1    0    1
 -2      2727      2817      2827      2737      2728      2818      2828      2738
 -1      2405    1    0    1
 -2      2728      2818      2828      2738      2729      2819      2829      2739
 -1      2406    1    0    1
 -2      2729      2819      2829      2739      2730      2820      2830      2740
 -1      2407    1    0    1
 -2      2730      2820      2830      2740      2731      2821      2831      2741
 -1      2408    1    0    1
 -2      2731      2821      2831      2741      2732      2822      2832      2742
 -1      2409    1    0    1
 -2      2732      2822      2832      2742      1346      1355      1356      1347
 -1      2410    1    0    1
 -2       326       335        61        62      2733      2823       982       992
 -1      2411    1    0    1
 -2      2733      2823       982       992      2734      2824       983       993
 -1      2412    1    0    1
 -2      2734      2824       983       993      2735      2825       984       994
 -1      2413    1    0    1
 -2      2735      2825       984       994      2736      2826       985       995
 -1      2414    1    0    1
 -2      2736      2826       985       995      2737      2827       986       996
 -1      2415    1    0    1
 -2      2737      2827       986       996      2738      2828       987       997
 -1      2416    1    0    1
 -2      2738      2828       987       997      2739      2829       988       998
 -1      2417    1    0    1
 -2      2739      2829       988       998      2740      2830       989       999
 -1      2418    1    0    1
 -2      2740      2830       989       999      2741      2831       990      1000
 -1      2419    1    0    1
 -2      2741      2831       990      1000      2742      2832       991      1001
 -1      2420    1    0    1
 -2      2742      2832       991      1001      1347      1356       137       138
 -1      2421    1    0    1
 -2        23        24       336       327       602       612      2833      2743
 -1      2422    1    0    1
 -2       602       612      2833      2743       603       613      2834      2744
 -1      2423    1    0    1
 -2       603       613      2834      2744       604       614      2835      2745
 -1      2424    1    0    1
 -2       604       614      2835      2745       605       615      2836      2746
 -1      2425    1    0    1
 -2       605       615      2836      2746       606       616      2837      2747
 -1      2426    1    0    1
 -2       606       616      2837      2747       607       617      2838      2748
 -1      2427    1    0    1
 -2       607       617      2838      2748       608       618      2839      2749
 -1      2428    1    0    1
 -2       608       618      2839      2749       609       619      2840      2750
 -1      2429    1    0    1
 -2       609       619      2840      2750       610       620      2841      2751
 -1      2430    1    0    1
 -2       610       620      2841      2751       611       621      2842      2752
 -1      2431    1    0    1
 -2       611       621      2842      2752        99       100      1357      1348
 -1      2432    1    0    1
 -2       327       336       337       328      2743      2833      2843      2753
 -1      2433    1    0    1
 -2      2743      2833      2843      2753      2744      2834      2844      2754
 -1      2434    1    0    1
 -2      2744      2834      2844      2754      2745      2835      2845      2755
 -1      2435    1    0    1
 -2      2745      2835      2845      2755      2746      2836      2846      2756
 -1      2436    1    0    1
 -2      2746      2836      2846      2756      2747      2837      2847      2757
 -1      2437    1    0    1
 -2      2747      2837      2847      2757      2748      2838      2848      2758
 -1      2438    1    0    1
 -2      2748      2838      2848      2758      2749      2839      2849      2759
 -1      2439    1    0    1
 -2      2749      2839      2849      2759      2750      2840      2850      2760
 -1      2440    1    0    1
 -2      2750      2840      2850      2760      2751      2841      2851      2761
 -1      2441    1    0    1
 -2      2751      2841      2851      2761      2752      2842      2852      2762
 -1      2442    1    0    1
 -2      2752      2842      2852      2762      1348      1357      1358      1349
 -1      2443    1    0    1
 -2       328       337       338       329      2753      2843      2853      2763
 -1      2444    1    0    1
 -2      2753      2843      2853      2763      2754      2844      2854      2764
 -1      2445    1    0    1
 -2      2754      2844      2854      2764      2755      2845      2855      2765
 -1      2446    1    0    1
 -2      2755      2845      2855      2765      2756      2846      2856      2766
 -1      2447    1    0    1
 -2      2756      2846      2856      2766      2757      2847      2857      2767
 -1      2448    1    0    1
 -2      2757      2847      2857      2767      2758      2848      2858      2768
 -1      2449    1    0    1
 -2      2758      2848      2858      2768      2759      2849      2859      2769
 -1      2450    1    0    1
 -2      2759      2849      2859      2769      2760      2850      2860      2770
 -1      2451    1    0    1
 -2      2760      2850      2860      2770      2761      2851      2861      2771
 -1      2452    1    0    1
 -2      2761      2851      2861      2771      2762      2852      2862      2772
 -1      2453    1    0    1
 -2      2762      2852      2862      2772      1349      1358      1359      1350
 -1      2454    1    0    1
 -2       329       338       339       330      2763      2853      2863      2773
 -1      2455    1    0    1
 -2      2763      2853      2863      2773      2764      2854      2864      2774
 -1      2456    1    0    1
 -2      2764      2854      2864      2774      2765      2855      2865      2775
 -1      2457    1    0    1
 -2      2765      2855      2865      2775      2766      2856      2866      2776
 -1      2458    1    0    1
 -2      2766      2856      2866      2776      2767      2857      2867      2777
 -1      2459    1    0    1
 -2      2767      2857      2867      2777      2768      2858      2868      2778
 -1      2460    1    0    1
 -2      2768      2858      2868      2778      2769      2859      2869      2779
 -1      2461    1    0    1
 -2      2769      2859      2869      2779      2770      2860      2870      2780
 -1      2462    1    0    1
 -2      2770      2860      2870      2780      2771      2861      2871      2781
 -1      2463    1    0    1
 -2      2771      2861      2871      2781      2772      2862      2872      2782
 -1      2464    1    0    1
 -2      2772      2862      2872      2782      1350      1359      1360      1351
 -1      2465    1    0    1
 -2       330       339       340       331      2773      2863      2873      2783
 -1      2466    1    0    1
 -2      2773      2863      2873      2783      2774      2864      2874      2784
 -1      2467    1    0    1
 -2      2774      2864      2874      2784      2775      2865      2875      2785
 -1      2468    1    0    1
 -2      2775      2865      2875      2785      2776      2866      2876      2786
 -1      2469    1    0    1
 -2      2776      2866      2876      2786      2777      2867      2877      2787
 -1      2470    1    0    1
 -2      2777      2867      2877      2787      2778      2868      2878      2788
 -1      2471    1    0    1
 -2      2778      2868      2878      2788      2779      2869      2879      2789
 -1      2472    1    0    1
 -2      2779      2869      2879      2789      2780      2870      2880      2790
 -1      2473    1    0    1
 -2      2780      2870      2880      2790      2781      2871      2881      2791
 -1      2474    1    0    1
 -2      2781      2871      2881      2791      2782      2872      2882      2792
 -1      2475    1    0    1
 -2      2782      2872      2882      2792      1351      1360      1361      1352
 -1      2476    1    0    1
 -2       331       340       341       332      2783      2873      2883      2793
 -1      2477    1    0    1
 -2      2783      2873      2883      2793      2784      2874      2884      2794
 -1      2478    1    0    1
 -2      2784      2874      2884      2794      2785      2875      2885      2795
 -1      2479    1    0    1
 -2      2785      2875      2885      2795      2786      2876      2886      2796
 -1      2480    1    0    1
 -2      2786      2876      2886      2796      2787      2877      2887      2797
 -1      2481    1    0    1
 -2      2787      2877      2887      2797      2788      2878      2888      2798
 -1      2482    1    0    1
 -2      2788      2878      2888      2798      2789      2879      2889      2799
 -1      2483    1    0    1
 -2      2789      2879      2889      2799      2790      2880      2890      2800
 -1      2484    1    0    1
 -2      2790      2880      2890      2800      2791      2881      2891      2801
 -1      2485    1    0    1
 -2      2791      2881      2891      2801      2792      2882      2892      2802
 -1      2486    1    0    1
 -2      2792      2882      2892      2802      1352      1361      1362      1353
 -1      2487    1    0    1
 -2       332       341       342       333      2793      2883      2893      2803
 -1      2488    1    0    1
 -2      2793      2883      2893      2803      2794      2884      2894      2804
 -1      2489    1    0    1
 -2      2794      2884      2894      2804      2795      2885      2895      2805
 -1      2490    1    0    1
 -2      2795      2885      2895      2805      2796      2886      2896      2806
 -1      2491    1    0    1
 -2      2796      2886      2896      2806      2797      2887      2897      2807
 -1      2492    1    0    1
 -2      2797      2887      2897      2807      2798      2888      2898      2808
 -1      2493    1    0    1
 -2      2798      2888      2898      2808      2799      2889      2899      2809
 -1      2494    1    0    1
 -2      2799      2889      2899      2809      2800      2890      2900      2810
 -1      2495    1    0    1
 -2      2800      2890      2900      2810      2801      2891      2901      2811
 -1      2496    1    0    1
 -2      2801      2891      2901      2811      2802      2892      2902      2812
 -1      2497    1    0    1
 -2      2802      2892      2902      2812      1353      1362      1363      1354
 -1      2498    1    0    1
 -2       333       342       343       334      2803      2893      2903      2813
 -1      2499    1    0    1
 -2      2803      2893      2903      2813      2804      2894      2904      2814
 -1      2500    1    0    1
 -2      2804      2894      2904      2814      2805      2895      2905      2815
 -1      2501    1    0    1
 -2      2805      2895      2905      2815      2806      2896      2906      2816
 -1      2502    1    0    1
 -2      2806      2896      2906      2816      2807      2897      2907      2817
 -1      2503    1    0    1
 -2      2807      2897      2907      2817      2808      2898      2908      2818
 -1      2504    1    0    1
 -2      2808      2898      2908      2818      2809      2899      2909      2819
 -1      2505    1    0    1
 -2      2809      2899      2909      2819      2810      2900      2910      2820
 -1      2506    1    0    1
 -2      2810      2900      2910      2820      2811      2901      2911      2821
 -1      2507    1    0    1
 -2      2811      2901      2911      2821      2812      2902      2912      2822
 -1      2508    1    0    1
 -2      2812      2902      2912      2822      1354      1363      1364      1355
 -1      2509    1    0    1
 -2       334       343       344       335      2813      2903      2913      2823
 -1      2510    1    0    1
 -2      2813      2903      2913      2823      2814      2904      2914      2824
 -1      2511    1    0    1
 -2      2814      2904      2914      2824      2815      2905      2915      2825
 -1      2512    1    0    1
 -2      2815      2905      2915      2825      2816      2906      2916      2826
 -1      2513    1    0    1
 -2      2816      2906      2916      2826      2817      2907      2917      2827
 -1      2514    1    0    1
 -2      2817      2907      2917      2827      2818      2908      2918      2828
 -1      2515    1    0    1
 -2      2818      2908      2918      2828      2819      2909      2919      2829
 -1      2516    1    0    1
 -2      2819      2909      2919      2829      2820      2910      2920      2830
 -1      2517    1    0    1
 -2      2820      2910      2920      2830      2821      2911      2921      2831
 -1      2518    1    0    1
 -2      2821      2911      2921      2831      2822      2912      2922      2832
 -1      2519    1    0    1
 -2      2822      2912      2922      2832      1355      1364      1365      1356
 -1      2520    1    0    1
 -2       335       344        60        61      2823      2913       972       982
 -1      2521    1    0    1
 -2      2823      2913       972       982      2824      2914       973       983
 -1      2522    1    0    1
 -2      2824      2914       973       983      2825      2915       974       984
 -1      2523    1    0    1
 -2      2825      2915       974       984      2826      2916       975       985
 -1      2524    1    0    1
 -2      2826      2916       975       985      2827      2917       976       986
 -1      2525    1    0    1
 -2      2827      2917       976       986      2828      2918       977       987
 -1      2526    1    0    1
 -2      2828      2918       977       987      2829      2919       978       988
 -1      2527    1    0    1
 -2      2829      2919       978       988      2830      2920       979       989
 -1      2528    1    0    1
 -2      2830      2920       979       989      2831      2921       980       990
 -1      2529    1    0    1
 -2      2831      2921       980       990      2832      2922       981       991
 -1      2530    1    0    1
 -2      2832      2922       981       991      1356      1365       136       137
 -1      2531    1    0    1
 -2        24        25       345       336       612       622      2923      2833
 -1      2532    1    0    1
 -2       612       622      2923      2833       613       623      2924      2834
 -1      2533    1    0    1
 -2       613       623      2924      2834       614       624      2925      2835
 -1      2534    1    0    1
 -2       614       624      2925      2835       615       625      2926      2836
 -1      2535    1    0    1
 -2       615       625      2926      2836       616       626      2927      2837
 -1      2536    1    0    1
 -2       616       626      2927      2837       617       627      2928      2838
 -1      2537    1    0    1
 -2       617       627      2928      2838       618       628      2929      2839
 -1      2538    1    0    1
 -2       618       628      2929      2839       619       629      2930      2840
 -1      2539    1    0    1
 -2       619       629      2930      2840       620       630      2931      2841
 -1      2540    1    0    1
 -2       620       630      2931      2841       621       631      2932      2842
 -1      2541    1    0    1
 -2       621       631      2932      2842       100       101      1366      1357
 -1      2542    1    0    1
 -2       336       345       346       337      2833      2923      2933      2843
 -1      2543    1    0    1
 -2      2833      2923      2933      2843      2834      2924      2934      2844
 -1      2544    1    0    1
 -2      2834      2924      2934      2844      2835      2925      2935      2845
 -1      2545    1    0    1
 -2      2835      2925      2935      2845      2836      2926      2936      2846
 -1      2546    1    0    1
 -2      2836      2926      2936      2846      2837      2927      2937      2847
 -1      2547    1    0    1
 -2      2837      2927      2937      2847      2838      2928      2938      2848
 -1      2548    1    0    1
 -2      2838      2928      2938      2848      2839      2929      2939      2849
 -1      2549    1    0    1
 -2      2839      2929      2939      2849      2840      2930      2940      2850
 -1      2550    1    0    1
 -2      2840      2930      2940      2850      2841      2931      2941      2851
 -1      2551    1    0    1
 -2      2841      2931      2941      2851      2842      2932      2942      2852
 -1      2552    1    0    1
 -2      2842      2932      2942      2852      1357      1366      1367      1358
 -1      2553    1    0    1
 -2       337       346       347       338      2843      2933      2943      2853
 -1      2554    1    0    1
 -2      2843      2933      2943      2853      2844      2934      2944      2854
 -1      2555    1    0    1
 -2      2844      2934      2944      2854      2845      2935      2945      2855
 -1      2556    1    0    1
 -2      2845      2935      2945      2855      2846      2936      2946      2856
 -1      2557    1    0    1
 -2      2846      2936      2946      2856      2847      2937      2947      2857
 -1      2558    1    0    1
 -2      2847      2937      2947      2857      2848      2938      2948      2858
 -1      2559    1    0    1
 -2      2848      2938      2948      2858      2849      2939      2949      2859
 -1      2560    1    0    1
 -2      2849      2939      2949      2859      2850      2940      2950      2860
 -1      2561    1    0    1
 -2      2850      2940      2950      2860      2851      2941      2951      2861
 -1      2562    1    0    1
 -2      2851      2941      2951      2861      2852      2942      2952      2862
 -1      2563    1    0    1
 -2      2852      2942      2952      2862      1358      1367      1368      1359
 -1      2564    1    0    1
 -2       338       347       348       339      2853      2943      2953      2863
 -1      2565    1    0    1
 -2      2853      2943      2953      2863      2854      2944      2954      2864
 -1      2566    1    0    1
 -2      2854      2944      2954      2864      2855      2945      2955      2865
 -1      2567    1    0    1
 -2      2855      2945      2955      2865      2856      2946      2956      2866
 -1      2568    1    0    1
 -2      2856      2946      2956      2866      2857      2947      2957      2867
 -1      2569    1    0    1
 -2      2857      2947      2957      2867      2858      2948      2958      2868
 -1      2570    1    0    1
 -2      2858      2948      2958      2868      2859      2949      2959      2869
 -1      2571    1    0    1
 -2      2859      2949      2959      2869      2860      2950      2960      2870
 -1      2572    1    0    1
 -2      2860      2950      2960      2870      2861      2951      2961      2871
 -1      2573    1    0    1
 -2      2861      2951      2961      2871      2862      2952      2962      2872
 -1      2574    1    0    1
 -2      2862      2952      2962      2872      1359      1368      1369      1360
 -1      2575    1    0    1
 -2       339       348       349       340      2863      2953      2963      2873
 -1      2576    1    0    1
 -2      2863      2953      2963      2873      2864      2954      2964      2874
 -1      2577    1    0    1
 -2      2864      2954      2964      2874      2865      2955      2965      2875
 -1      2578    1    0    1
 -2      2865      2955      2965      2875      2866      2956      2966      2876
 -1      2579    1    0    1
 -2      2866      2956      2966      2876      2867      2957      2967      2877
 -1      2580    1    0    1
 -2      2867      2957      2967      2877      2868      2958      2968      2878
 -1      2581    1    0    1
 -2      2868      2958      2968      2878      2869      2959      2969      2879
 -1      2582    1    0    1
 -2      2869      2959      2969      2879      2870      2960      2970      2880
 -1      2583    1    0    1
 -2      2870      2960      2970      2880      2871      2961      2971      2881
 -1      2584    1    0    1
 -2      2871      2961      2971      2881      2872      2962      2972      2882
 -1      2585    1    0    1
 -2      2872      2962      2972      2882      1360      1369      1370      1361
 -1      2586    1    0    1
 -2       340       349       350       341      2873      2963      2973      2883
 -1      2587    1    0    1
 -2      2873      2963      2973      2883      2874      2964      2974      2884
 -1      2588    1    0    1
 -2      2874      2964      2974      2884      2875      2965      2975      2885
 -1      2589    1    0    1
 -2      2875      2965      2975      2885      2876      2966      2976      2886
 -1      2590    1    0    1
 -2      2876      2966      2976      2886      2877      2967      2977      2887
 -1      2591    1    0    1
 -2      2877      2967      2977      2887      2878      2968      2978      2888
 -1      2592    1    0    1
 -2      2878      2968      2978      2888      2879      2969      2979      2889
 -1      2593    1    0    1
 -2      2879      2969      2979      2889      2880      2970      2980      2890
 -1      2594    1    0    1
 -2      2880      2970      2980      2890      2881      2971      2981      2891
 -1      2595    1    0    1
 -2      2881      2971      2981      2891      2882      2972      2982      2892
 -1      2596    1    0    1
 -2      2882      2972      2982      2892      1361      1370      1371      1362
 -1      2597    1    0    1
 -2       341       350       351       342      2883      2973      2983      2893
 -1      2598    1    0    1
 -2      2883      2973      2983      2893      2884      2974      2984      2894
 -1      2599    1    0    1
 -2      2884      2974      2984      2894      2885      2975      2985      2895
 -1      2600    1    0    1
 -2      2885      2975      2985      2895      2886      2976      2986      2896
 -1      2601    1    0    1
 -2      2886      2976      2986      2896      2887      2977      2987      2897
 -1      2602    1    0    1
 -2      2887      2977      2987      2897      2888      2978      2988      2898
 -1      2603    1    0    1
 -2      2888      2978      2988      2898      2889      2979      2989      2899
 -1      2604    1    0    1
 -2      2889      2979      2989      2899      2890      2980      2990      2900
 -1      2605    1    0    1
 -2      2890      2980      2990      2900      2891      2981      2991      2901
 -1      2606    1    0    1
 -2      2891      2981      2991      2901      2892      2982      2992      2902
 -1      2607    1    0    1
 -2      2892      2982      2992      2902      1362      1371      1372      1363
 -1      2608    1    0    1
 -2       342       351       352       343      2893      2983      2993      2903
 -1      2609    1    0    1
 -2      2893      2983      2993      2903      2894      2984      2994      2904
 -1      2610    1    0    1
 -2      2894      2984      2994      2904      2895      2985      2995      2905
 -1      2611    1    0    1
 -2      2895      2985      2995      2905      2896      2986      2996      2906
 -1      2612    1    0    1
 -2      2896      2986      2996      2906      2897      2987      2997      2907
 -1      2613    1    0    1
 -2      2897      2987      2997      2907      2898      2988      2998      2908
 -1      2614    1    0    1
 -2      2898      2988      2998      2908      2899      2989      2999      2909
 -1      2615    1    0    1
 -2      2899      2989      2999      2909      2900      2990      3000      2910
 -1      2616    1    0    1
 -2      2900      2990      3000      2910      2901      2991      3001      2911
 -1      2617    1    0    1
 -2      2901      2991      3001      2911      2902      2992      3002      2912
 -1      2618    1    0    1
 -2      2902      2992      3002      2912      1363      1372      1373      1364
 -1      2619    1    0    1
 -2       343       352       353       344      2903      2993      3003      2913
 -1      2620    1    0    1
 -2      2903      2993      3003      2913      2904      2994      3004      2914
 -1      2621    1    0    1
 -2      2904      2994      3004      2914      2905      2995      3005      2915
 -1      2622    1    0    1
 -2      2905      2995      3005      2915      2906      2996      3006      2916
 -1      2623    1    0    1
 -2      2906      2996      3006      2916      2907      2997      3007      2917
 -1      2624    1    0    1
 -2      2907      2997      3007      2917      2908      2998      3008      2918
 -1      2625    1    0    1
 -2      2908      2998      3008      2918      2909      2999      3009      2919
 -1      2626    1    0    1
 -2      2909      2999      3009      2919      2910      3000      3010      2920
 -1      2627    1    0    1
 -2      2910      3000      3010      2920      2911      3001      3011      2921
 -1      2628    1    0    1
 -2      2911      3001      3011      2921      2912      3002      3012      2922
 -1      2629    1    0    1
 -2      2912      3002      3012      2922      1364      1373      1374      1365
 -1      2630    1    0    1
 -2       344       353        59        60      2913      3003       962       972
 -1      2631    1    0    1
 -2      2913      3003       962       972      2914      3004       963       973
 -1      2632    1    0    1
 -2      2914      3004       963       973      2915      3005       964       974
 -1      2633    1    0    1
 -2      2915      3005       964       974      2916      3006       965       975
 -1      2634    1    0    1
 -2      2916      3006       965       975      2917      3007       966       976
 -1      2635    1    0    1
 -2      2917      3007       966       976      2918      3008       967       977
 -1      2636    1    0    1
 -2      2918      3008       967       977      2919      3009       968       978
 -1      2637    1    0    1
 -2      2919      3009       968       978      2920      3010       969       979
 -1      2638    1    0    1
 -2      2920      3010       969       979      2921      3011       970       980
 -1      2639    1    0    1
 -2      2921      3011       970       980      2922      3012       971       981
 -1      2640    1    0    1
 -2      2922      3012       971       981      1365      1374       135       136
 -1      2641    1    0    1
 -2        25        26       354       345       622       632      3013      2923
 -1      2642    1    0    1
 -2       622       632      3013      2923       623       633      3014      2924
 -1      2643    1    0    1
 -2       623       633      3014      2924       624       634      3015      2925
 -1      2644    1    0    1
 -2       624       634      3015      2925       625       635      3016      2926
 -1      2645    1    0    1
 -2       625       635      3016      2926       626       636      3017      2927
 -1      2646    1    0    1
 -2       626       636      3017      2927       627       637      3018      2928
 -1      2647    1    0    1
 -2       627       637      3018      2928       628       638      3019      2929
 -1      2648    1    0    1
 -2       628       638      3019      2929       629       639      3020      2930
 -1      2649    1    0    1
 -2       629       639      3020      2930       630       640      3021      2931
 -1      2650    1    0    1
 -2       630       640      3021      2931       631       641      3022      2932
 -1      2651    1    0    1
 -2       631       641      3022      2932       101       102      1375      1366
 -1      2652    1    0    1
 -2       345       354       355       346      2923      3013      3023      2933
 -1      2653    1    0    1
 -2      2923      3013      3023      2933      2924      3014      3024      2934
 -1      2654    1    0    1
 -2      2924      3014      3024      2934      2925      3015      3025      2935
 -1      2655    1    0    1
 -2      2925      3015      3025      2935      2926      3016      3026      2936
 -1      2656    1    0    1
 -2      2926      3016      3026      2936      2927      3017      3027      2937
 -1      2657    1    0    1
 -2      2927      3017      3027      2937      2928      3018      3028      2938
 -1      2658    1    0    1
 -2      2928      3018      3028      2938      2929      3019      3029      2939
 -1      2659    1    0    1
 -2      2929      3019      3029      2939      2930      3020      3030      2940
 -1      2660    1    0    1
 -2      2930      3020      3030      2940      2931      3021      3031      2941
 -1      2661    1    0    1
 -2      2931      3021      3031      2941      2932      3022      3032      2942
 -1      2662    1    0    1
 -2      2932      3022      3032      2942      1366      1375      1376      1367
 -1      2663    1    0    1
 -2       346       355       356       347      2933      3023      3033      2943
 -1      2664    1    0    1
 -2      2933      3023      3033      2943      2934      3024      3034      2944
 -1      2665    1    0    1
 -2      2934      3024      3034      2944      2935      3025      3035      2945
 -1      2666    1    0    1
 -2      2935      3025      3035      2945      2936      3026      3036      2946
 -1      2667    1    0    1
 -2      2936      3026      3036      2946      2937      3027      3037      2947
 -1      2668    1    0    1
 -2      2937      3027      3037      2947      2938      3028      3038      2948
 -1      2669    1    0    1
 -2      2938      3028      3038      2948      2939      3029      3039      2949
 -1      2670    1    0    1
 -2      2939      3029      3039      2949      2940      3030      3040      2950
 -1      2671    1    0    1
 -2      2940      3030      3040      2950      2941      3031      3041      2951
 -1      2672    1    0    1
 -2      2941      3031      3041      2951      2942      3032      3042      2952
 -1      2673    1    0    1
 -2      2942      3032      3042      2952      1367      1376      1377      1368
 -1      2674    1    0    1
 -2       347       356       357       348      2943      3033      3043      2953
 -1      2675    1    0    1
 -2      2943      3033      3043      2953      2944      3034      3044      2954
 -1      2676    1    0    1
 -2      2944      3034      3044      2954      2945      3035      3045      2955
 -1      2677    1    0    1
 -2      2945      3035      3045      2955      2946      3036      3046      2956
 -1      2678    1    0    1
 -2      2946      3036      3046      2956      2947      3037      3047      2957
 -1      2679    1    0    1
 -2      2947      3037      3047      2957      2948      3038      3048      2958
 -1      2680    1    0    1
 -2      2948      3038      3048      2958      2949      3039      3049      2959
 -1      2681    1    0    1
 -2      2949      3039      3049      2959      2950      3040      3050      2960
 -1      2682    1    0    1
 -2      2950      3040      3050      2960      2951      3041      3051      2961
 -1      2683    1    0    1
 -2      2951      3041      3051      2961      2952      3042      3052      2962
 -1      2684    1    0    1
 -2      2952      3042      3052      2962      1368      1377      1378      1369
 -1      2685    1    0    1
 -2       348       357       358       349      2953      3043      3053      2963
 -1      2686    1    0    1
 -2      2953      3043      3053      2963      2954      3044      3054      2964
 -1      2687    1    0    1
 -2      2954      3044      3054      2964      2955      3045      3055      2965
 -1      2688    1    0    1
 -2      2955      3045      3055      2965      2956      3046      3056      2966
 -1      2689    1    0    1
 -2      2956      3046      3056      2966      2957      3047      3057      2967
 -1      2690    1    0    1
 -2      2957      3047      3057      2967      2958      3048      3058      2968
 -1      2691    1    0    1
 -2      2958      3048      3058      2968      2959      3049      3059      2969
 -1      2692    1    0    1
 -2      2959      3049      3059      2969      2960      3050      3060      2970
 -1      2693    1    0    1
 -2      2960      3050      3060      2970      2961      3051      3061      2971
 -1      2694    1    0    1
 -2      2961      3051      3061      2971      2962      3052      3062      2972
 -1      2695    1    0    1
 -2      2962      3052      3062      2972      1369      1378      1379      1370
 -1      2696    1    0    1
 -2       349       358       359       350      2963      3053      3063      2973
 -1      2697    1    0    1
 -2      2963      3053      3063      2973      2964      3054      3064      2974
 -1      2698    1    0    1
 -2      2964      3054      3064      2974      2965      3055      3065      2975
 -1      2699    1    0    1
 -2      2965      3055      3065      2975      2966      3056      3066      2976
 -1      2700    1    0    1
 -2      2966      3056      3066      2976      2967      3057      3067      2977
 -1      2701    1    0    1
 -2      2967      3057      3067      2977      2968      3058      3068      2978
 -1      2702    1    0    1
 -2      2968      3058      3068      2978      2969      3059      3069      2979
 -1      2703    1    0    1
 -2      2969      3059      3069      2979      2970      3060      3070      2980
 -1      2704    1    0    1
 -2      2970      3060      3070      2980      2971      3061      3071      2981
 -1      2705    1    0    1
 -2      2971      3061      3071      2981      2972      3062      3072      2982
 -1      2706    1    0    1
 -2      2972      3062      3072      2982      1370      1379      1380      1371
 -1      2707    1    0    1
 -2       350       359       360       351      2973      3063      3073      2983
 -1      2708    1    0    1
 -2      2973      3063      3073      2983      2974      3064      3074      2984
 -1      2709    1    0    1
 -2      2974      3064      3074      2984      2975      3065      3075      2985
 -1      2710    1    0    1
 -2      2975      3065      3075      2985      2976      3066      3076      2986
 -1      2711    1    0    1
 -2      2976      3066      3076      2986      2977      3067      3077      2987
 -1      2712    1    0    1
 -2      2977      3067      3077      2987      2978      3068      3078      2988
 -1      2713    1    0    1
 -2      2978      3068      3078      2988      2979      3069      3079      2989
 -1      2714    1    0    1
 -2      2979      3069      3079      2989      2980      3070      3080      2990
 -1      2715    1    0    1
 -2      2980      3070      3080      2990      2981      3071      3081      2991
 -1      2716    1    0    1
 -2      2981      3071      3081      2991      2982      3072      3082      2992
 -1      2717    1    0    1
 -2      2982      3072      3082      2992      1371      1380      1381      1372
 -1      2718    1    0    1
 -2       351       360       361       352      2983      3073      3083      2993
 -1      2719    1    0    1
 -2      2983      3073      3083      2993      2984      3074      3084      2994
 -1      2720    1    0    1
 -2      2984      3074      3084      2994      2985      3075      3085      2995
 -1      2721    1    0    1
 -2      2985      3075      3085      2995      2986      3076      3086      2996
 -1      2722    1    0    1
 -2      2986      3076      3086      2996      2987      3077      3087      2997
 -1      2723    1    0    1
 -2      2987      3077      3087      2997      2988      3078      3088      2998
 -1      2724    1    0    1
 -2      2988      3078      3088      2998      2989      3079      3089      2999
 -1      2725    1    0    1
 -2      2989      3079      3089      2999      2990      3080      3090      3000
 -1      2726    1    0    1
 -2      2990      3080      3090      3000      2991      3081      3091      3001
 -1      2727    1    0    1
 -2      2991      3081      3091      3001      2992      3082      3092      3002
 -1      2728    1    0    1
 -2      2992      3082      3092      3002      1372      1381      1382      1373
 -1      2729    1    0    1
 -2       352       361       362       353      2993      3083      3093      3003
 -1      2730    1    0    1
 -2      2993      3083      3093      3003      2994      3084      3094      3004
 -1      2731    1    0    1
 -2      2994      3084      3094      3004      2995      3085      3095      3005
 -1      2732    1    0    1
 -2      2995      3085      3095      3005      2996      3086      3096      3006
 -1      2733    1    0    1
 -2      2996      3086      3096      3006      2997      3087      3097      3007
 -1      2734    1    0    1
 -2      2997      3087      3097      3007      2998      3088      3098      3008
 -1      2735    1    0    1
 -2      2998      3088      3098      3008      2999      3089      3099      3009
 -1      2736    1    0    1
 -2      2999      3089      3099      3009      3000      3090      3100      3010
 -1      2737    1    0    1
 -2      3000      3090      3100      3010      3001      3091      3101      3011
 -1      2738    1    0    1
 -2      3001      3091      3101      3011      3002      3092      3102      3012
 -1      2739    1    0    1
 -2      3002      3092      3102      3012      1373      1382      1383      1374
 -1      2740    1    0    1
 -2       353       362        58        59      3003      3093       952       962
 -1      2741    1    0    1
 -2      3003      3093       952       962      3004      3094       953       963
 -1      2742    1    0    1
 -2      3004      3094       953       963      3005      3095       954       964
 -1      2743    1    0    1
 -2      3005      3095       954       964      3006      3096       955       965
 -1      2744    1    0    1
 -2      3006      3096       955       965      3007      3097       956       966
 -1      2745    1    0    1
 -2      3007      3097       956       966      3008      3098       957       967
 -1      2746    1    0    1
 -2      3008      3098       957       967      3009      3099       958       968
 -1      2747    1    0    1
 -2      3009      3099       958       968      3010      3100       959       969
 -1      2748    1    0    1
 -2      3010      3100       959       969      3011      3101       960       970
 -1      2749    1    0    1
 -2      3011      3101       960       970      3012      3102       961       971
 -1      2750    1    0    1
 -2      3012      3102       961       971      1374      1383       134       135
 -1      2751    1    0    1
 -2        26        27       363       354       632       642      3103      3013
 -1      2752    1    0    1
 -2       632       642      3103      3013       633       643      3104      3014
 -1      2753    1    0    1
 -2       633       643      3104      3014       634       644      3105      3015
 -1      2754    1    0    1
 -2       634       644      3105      3015       635       645      3106      3016
 -1      2755    1    0    1
 -2       635       645      3106      3016       636       646      3107      3017
 -1      2756    1    0    1
 -2       636       646      3107      3017       637       647      3108      3018
 -1      2757    1    0    1
 -2       637       647      3108      3018       638       648      3109      3019
 -1      2758    1    0    1
 -2       638       648      3109      3019       639       649      3110      3020
 -1      2759    1    0    1
 -2       639       649      3110      3020       640       650      3111      3021
 -1      2760    1    0    1
 -2       640       650      3111      3021       641       651      3112      3022
 -1      2761    1    0    1
 -2       641       651      3112      3022       102       103      1384      1375
 -1      2762    1    0    1
 -2       354       363       364       355      3013      3103      3113      3023
 -1      2763    1    0    1
 -2      3013      3103      3113      3023      3014      3104      3114      3024
 -1      2764    1    0    1
 -2      3014      3104      3114      3024      3015      3105      3115      3025
 -1      2765    1    0    1
 -2      3015      3105      3115      3025      3016      3106      3116      3026
 -1      2766    1    0    1
 -2      3016      3106      3116      3026      3017      3107      3117      3027
 -1      2767    1    0    1
 -2      3017      3107      3117      3027      3018      3108      3118      3028
 -1      2768    1    0    1
 -2      3018      3108      3118      3028      3019      3109      3119      3029
 -1      2769    1    0    1
 -2      3019      3109      3119      3029      3020      3110      3120      3030
 -1      2770    1    0    1
 -2      3020      3110      3120      3030      3021      3111      3121      3031
 -1      2771    1    0    1
 -2      3021      3111      3121      3031      3022      3112      3122      3032
 -1      2772    1    0    1
 -2      3022      3112      3122      3032      1375      1384      1385      1376
 -1      2773    1    0    1
 -2       355       364       365       356      3023      3113      3123      3033
 -1      2774    1    0    1
 -2      3023      3113      3123      3033      3024      3114      3124      3034
 -1      2775    1    0    1
 -2      3024      3114      3124      3034      3025      3115      3125      3035
 -1      2776    1    0    1
 -2      3025      3115      3125      3035      3026      3116      3126      3036
 -1      2777    1    0    1
 -2      3026      3116      3126      3036      3027      3117      3127      3037
 -1      2778    1    0    1
 -2      3027      3117      3127      3037      3028      3118      3128      3038
 -1      2779    1    0    1
 -2      3028      3118      3128      3038      3029      3119      3129      3039
 -1      2780    1    0    1
 -2      3029      3119      3129      3039      3030      3120      3130      3040
 -1      2781    1    0    1
 -2      3030      3120      3130      3040      3031      3121      3131      3041
 -1      2782    1    0    1
 -2      3031      3121      3131      3041      3032      3122      3132      3042
 -1      2783    1    0    1
 -2      3032      3122      3132      3042      1376      1385      1386      1377
 -1      2784    1    0    1
 -2       356       365       366       357      3033      3123      3133      3043
 -1      2785    1    0    1
 -2      3033      3123      3133      3043      3034      3124      3134      3044
 -1      2786    1    0    1
 -2      3034      3124      3134      3044      3035      3125      3135      3045
 -1      2787    1    0    1
 -2      3035      3125      3135      3045      3036      3126      3136      3046
 -1      2788    1    0    1
 -2      3036      3126      3136      3046      3037      3127      3137      3047
 -1      2789    1    0    1
 -2      3037      3127      3137      3047      3038      3128      3138      3048
 -1      2790    1    0    1
 -2      3038      3128      3138      3048      3039      3129      3139      3049
 -1      2791    1    0    1
 -2      3039      3129      3139      3049      3040      3130      3140      3050
 -1      2792    1    0    1
 -2      3040      3130      3140      3050      3041      3131      3141      3051
 -1      2793    1    0    1
 -2      3041      3131      3141      3051      3042      3132      3142      3052
 -1      2794    1    0    1
 -2      3042      3132      3142      3052      1377      1386      1387      1378
 -1      2795    1    0    1
 -2       357       366       367       358      3043      3133      3143      3053
 -1      2796    1    0    1
 -2      3043      3133      3143      3053      3044      3134      3144      3054
 -1      2797    1    0    1
 -2      3044      3134      3144      3054      3045      3135      3145      3055
 -1      2798    1    0    1
 -2      3045      3135      3145      3055      3046      3136      3146      3056
 -1      2799    1    0    1
 -2      3046      3136      3146      3056      3047      3137      3147      3057
 -1      2800    1    0    1
 -2      3047      3137      3147      3057      3048      3138      3148      3058
 -1      2801    1    0    1
 -2      3048      3138      3148      3058      3049      3139      3149      3059
 -1      2802    1    0    1
 -2      3049      3139      3149      3059      3050      3140      3150      3060
 -1      2803    1    0    1
 -2      3050      3140      3150      3060      3051      3141      3151      3061
 -1      2804    1    0    1
 -2      3051      3141      3151      3061      3052      3142      3152      3062
 -1      2805    1    0    1
 -2      3052      3142      3152      3062      1378      1387      1388      1379
 -1      2806    1    0    1
 -2       358       367       368       359      3053      3143      3153      3063
 -1      2807    1    0    1
 -2      3053      3143      3153      3063      3054      3144      3154      3064
 -1      2808    1    0    1
 -2      3054      3144      3154      3064      3055      3145      3155      3065
 -1      2809    1    0    1
 -2      3055      3145      3155      3065      3056      3146      3156      3066
 -1      2810    1    0    1
 -2      3056      3146      3156      3066      3057      3147      3157      3067
 -1      2811    1    0    1
 -2      3057      3147      3157      3067      3058      3148      3158      3068
 -1      2812    1    0    1
 -2      3058      3148      3158      3068      3059      3149      3159      3069
 -1      2813    1    0    1
 -2      3059      3149      3159      3069      3060      3150      3160      3070
 -1      2814    1    0    1
 -2      3060      3150      3160      3070      3061      3151      3161      3071
 -1      2815    1    0    1
 -2      3061      3151      3161      3071      3062      3152      3162      3072
 -1      2816    1    0    1
 -2      3062      3152      3162      3072      1379      1388      1389      1380
 -1      2817    1    0    1
 -2       359       368       369       360      3063      3153      3163      3073
 -1      2818    1    0    1
 -2      3063      3153      3163      3073      3064      3154      3164      3074
 -1      2819    1    0    1
 -2      3064      3154      3164      3074      3065      3155      3165      3075
 -1      2820    1    0    1
 -2      3065      3155      3165      3075      3066      3156      3166      3076
 -1      2821    1    0    1
 -2      3066      3156      3166      3076      3067      3157      3167      3077
 -1      2822    1    0    1
 -2      3067      3157      3167      3077      3068      3158      3168      3078
 -1      2823    1    0    1
 -2      3068      3158      3168      3078      3069      3159      3169      3079
 -1      2824    1    0    1
 -2      3069      3159      3169      3079      3070      3160      3170      3080
 -1      2825    1    0    1
 -2      3070      3160      3170      3080      3071      3161      3171      3081
 -1      2826    1    0    1
 -2      3071      3161      3171      3081      3072      3162      3172      3082
 -1      2827    1    0    1
 -2      3072      3162      3172      3082      1380      1389      1390      1381
 -1      2828    1    0    1
 -2       360       369       370       361      3073      3163      3173      3083
 -1      2829    1    0    1
 -2      3073      3163      3173      3083      3074      3164      3174      3084
 -1      2830    1    0    1
 -2      3074      3164      3174      3084      3075      3165      3175      3085
 -1      2831    1    0    1
 -2      3075      3165      3175      3085      3076      3166      3176      3086
 -1      2832    1    0    1
 -2      3076      3166      3176      3086      3077      3167      3177      3087
 -1      2833    1    0    1
 -2      3077      3167      3177      3087      3078      3168      3178      3088
 -1      2834    1    0    1
 -2      3078      3168      3178      3088      3079      3169      3179      3089
 -1      2835    1    0    1
 -2      3079      3169      3179      3089      3080      3170      3180      3090
 -1      2836    1    0    1
 -2      3080      3170      3180      3090      3081      3171      3181      3091
 -1      2837    1    0    1
 -2      3081      3171      3181      3091      3082      3172      3182      3092
 -1      2838    1    0    1
 -2      3082      3172      3182      3092      1381      1390      1391      1382
 -1      2839    1    0    1
 -2       361       370       371       362      3083      3173      3183      3093
 -1      2840    1    0    1
 -2      3083      3173      3183      3093      3084      3174      3184      3094
 -1      2841    1    0    1
 -2      3084      3174      3184      3094      3085      3175      3185      3095
 -1      2842    1    0    1
 -2      3085      3175      3185      3095      3086      3176      3186      3096
 -1      2843    1    0    1
 -2      3086      3176      3186      3096      3087      3177      3187      3097
 -1      2844    1    0    1
 -2      3087      3177      3187      3097      3088      3178      3188      3098
 -1      2845    1    0    1
 -2      3088      3178      3188      3098      3089      3179      3189      3099
 -1      2846    1    0    1
 -2      3089      3179      3189      3099      3090      3180      3190      3100
 -1      2847    1    0    1
 -2      3090      3180      3190      3100      3091      3181      3191      3101
 -1      2848    1    0    1
 -2      3091      3181      3191      3101      3092      3182      3192      3102
 -1      2849    1    0    1
 -2      3092      3182      3192      3102      1382      1391      1392      1383
 -1      2850    1    0    1
 -2       362       371        57        58      3093      3183       942       952
 -1      2851    1    0    1
 -2      3093      3183       942       952      3094      3184       943       953
 -1      2852    1    0    1
 -2      3094      3184       943       953      3095      3185       944       954
 -1      2853    1    0    1
 -2      3095      3185       944       954      3096      3186       945       955
 -1      2854    1    0    1
 -2      3096      3186       945       955      3097      3187       946       956
 -1      2855    1    0    1
 -2      3097      3187       946       956      3098      3188       947       957
 -1      2856    1    0    1
 -2      3098      3188       947       957      3099      3189       948       958
 -1      2857    1    0    1
 -2      3099      3189       948       958      3100      3190       949       959
 -1      2858    1    0    1
 -2      3100      3190       949       959      3101      3191       950       960
 -1      2859    1    0    1
 -2      3101      3191       950       960      3102      3192       951       961
 -1      2860    1    0    1
 -2      3102      3192       951       961      1383      1392       133       134
 -1      2861    1    0    1
 -2        27        28       372       363       642       652      3193      3103
 -1      2862    1    0    1
 -2       642       652      3193      3103       643       653      3194      3104
 -1      2863    1    0    1
 -2       643       653      3194      3104       644       654      3195      3105
 -1      2864    1    0    1
 -2       644       654      3195      3105       645       655      3196      3106
 -1      2865    1    0    1
 -2       645       655      3196      3106       646       656      3197      3107
 -1      2866    1    0    1
 -2       646       656      3197      3107       647       657      3198      3108
 -1      2867    1    0    1
 -2       647       657      3198      3108       648       658      3199      3109
 -1      2868    1    0    1
 -2       648       658      3199      3109       649       659      3200      3110
 -1      2869    1    0    1
 -2       649       659      3200      3110       650       660      3201      3111
 -1      2870    1    0    1
 -2       650       660      3201      3111       651       661      3202      3112
 -1      2871    1    0    1
 -2       651       661      3202      3112       103       104      1393      1384
 -1      2872    1    0    1
 -2       363       372       373       364      3103      3193      3203      3113
 -1      2873    1    0    1
 -2      3103      3193      3203      3113      3104      3194      3204      3114
 -1      2874    1    0    1
 -2      3104      3194      3204      3114      3105      3195      3205      3115
 -1      2875    1    0    1
 -2      3105      3195      3205      3115      3106      3196      3206      3116
 -1      2876    1    0    1
 -2      3106      3196      3206      3116      3107      3197      3207      3117
 -1      2877    1    0    1
 -2      3107      3197      3207      3117      3108      3198      3208      3118
 -1      2878    1    0    1
 -2      3108      3198      3208      3118      3109      3199      3209      3119
 -1      2879    1    0    1
 -2      3109      3199      3209      3119      3110      3200      3210      3120
 -1      2880    1    0    1
 -2      3110      3200      3210      3120      3111      3201      3211      3121
 -1      2881    1    0    1
 -2      3111      3201      3211      3121      3112      3202      3212      3122
 -1      2882    1    0    1
 -2      3112      3202      3212      3122      1384      1393      1394      1385
 -1      2883    1    0    1
 -2       364       373       374       365      3113      3203      3213      3123
 -1      2884    1    0    1
 -2      3113      3203      3213      3123      3114      3204      3214      3124
 -1      2885    1    0    1
 -2      3114      3204      3214      3124      3115      3205      3215      3125
 -1      2886    1    0    1
 -2      3115      3205      3215      3125      3116      3206      3216      3126
 -1      2887    1    0    1
 -2      3116      3206      3216      3126      3117      3207      3217      3127
 -1      2888    1    0    1
 -2      3117      3207      3217      3127      3118      3208      3218      3128
 -1      2889    1    0    1
 -2      3118      3208      3218      3128      3119      3209      3219      3129
 -1      2890    1    0    1
 -2      3119      3209      3219      3129      3120      3210      3220      3130
 -1      2891    1    0    1
 -2      3120      3210      3220      3130      3121      3211      3221      3131
 -1      2892    1    0    1
 -2      3121      3211      3221      3131      3122      3212      3222      3132
 -1      2893    1    0    1
 -2      3122      3212      3222      3132      1385      1394      1395      1386
 -1      2894    1    0    1
 -2       365       374       375       366      3123      3213      3223      3133
 -1      2895    1    0    1
 -2      3123      3213      3223      3133      3124      3214      3224      3134
 -1      2896    1    0    1
 -2      3124      3214      3224      3134      3125      3215      3225      3135
 -1      2897    1    0    1
 -2      3125      3215      3225      3135      3126      3216      3226      3136
 -1      2898    1    0    1
 -2      3126      3216      3226      3136      3127      3217      3227      3137
 -1      2899    1    0    1
 -2      3127      3217      3227      3137      3128      3218      3228      3138
 -1      2900    1    0    1
 -2      3128      3218      3228      3138      3129      3219      3229      3139
 -1      2901    1    0    1
 -2      3129      3219      3229      3139      3130      3220      3230      3140
 -1      2902    1    0    1
 -2      3130      3220      3230      3140      3131      3221      3231      3141
 -1      2903    1    0    1
 -2      3131      3221      3231      3141      3132      3222      3232      3142
 -1      2904    1    0    1
 -2      3132      3222      3232      3142      1386      1395      1396      1387
 -1      2905    1    0    1
 -2       366       375       376       367      3133      3223      3233      3143
 -1      2906    1    0    1
 -2      3133      3223      3233      3143      3134      3224      3234      3144
 -1      2907    1    0    1
 -2      3134      3224      3234      3144      3135      3225      3235      3145
 -1      2908    1    0    1
 -2      3135      3225      3235      3145      3136      3226      3236      3146
 -1      2909    1    0    1
 -2      3136      3226      3236      3146      3137      3227      3237      3147
 -1      2910    1    0    1
 -2      3137      3227      3237      3147      3138      3228      3238      3148
 -1      2911    1    0    1
 -2      3138      3228      3238      3148      3139      3229      3239      3149
 -1      2912    1    0    1
 -2      3139      3229      3239      3149      3140      3230      3240      3150
 -1      2913    1    0    1
 -2      3140      3230      3240      3150      3141      3231      3241      3151
 -1      2914    1    0    1
 -2      3141      3231      3241      3151      3142      3232      3242      3152
 -1      2915    1    0    1
 -2      3142      3232      3242      3152      1387      1396      1397      1388
 -1      2916    1    0    1
 -2       367       376       377       368      3143      3233      3243      3153
 -1      2917    1    0    1
 -2      3143      3233      3243      3153      3144      3234      3244      3154
 -1      2918    1    0    1
 -2      3144      3234      3244      3154      3145      3235      3245      3155
 -1      2919    1    0    1
 -2      3145      3235      3245      3155      3146      3236      3246      3156
 -1      2920    1    0    1
 -2      3146      3236      3246      3156      3147      3237      3247      3157
 -1      2921    1    0    1
 -2      3147      3237      3247      3157      3148      3238      3248      3158
 -1      2922    1    0    1
 -2      3148      3238      3248      3158      3149      3239      3249      3159
 -1      2923    1    0    1
 -2      3149      3239      3249      3159      3150      3240      3250      3160
 -1      2924    1    0    1
 -2      3150      3240      3250      3160      3151      3241      3251      3161
 -1      2925    1    0    1
 -2      3151      3241      3251      3161      3152      3242      3252      3162
 -1      2926    1    0    1
 -2      3152      3242      3252      3162      1388      1397      1398      1389
 -1      2927    1    0    1
 -2       368       377       378       369      3153      3243      3253      3163
 -1      2928    1    0    1
 -2      3153      3243      3253      3163      3154      3244      3254      3164
 -1      2929    1    0    1
 -2      3154      3244      3254      3164      3155      3245      3255      3165
 -1      2930    1    0    1
 -2      3155      3245      3255      3165      3156      3246      3256      3166
 -1      2931    1    0    1
 -2      3156      3246      3256      3166      3157      3247      3257      3167
 -1      2932    1    0    1
 -2      3157      3247      3257      3167      3158      3248      3258      3168
 -1      2933    1    0    1
 -2      3158      3248      3258      3168      3159      3249      3259      3169
 -1      2934    1    0    1
 -2      3159      3249      3259      3169      3160      3250      3260      3170
 -1      2935    1    0    1
 -2      3160      3250      3260      3170      3161      3251      3261      3171
 -1      2936    1    0    1
 -2      3161      3251      3261      3171      3162      3252      3262      3172
 -1      2937    1    0    1
 -2      3162      3252      3262      3172      1389      1398      1399      1390
 -1      2938    1    0    1
 -2       369       378       379       370      3163      3253      3263      3173
 -1      2939    1    0    1
 -2      3163      3253      3263      3173      3164      3254      3264      3174
 -1      2940    1    0    1
 -2      3164      3254      3264      3174      3165      3255      3265      3175
 -1      2941    1    0    1
 -2      3165      3255      3265      3175      3166      3256      3266      3176
 -1      2942    1    0    1
 -2      3166      3256      3266      3176      3167      3257      3267      3177
 -1      2943    1    0    1
 -2      3167      3257      3267      3177      3168      3258      3268      3178
 -1      2944    1    0    1
 -2      3168      3258      3268      3178      3169      3259      3269      3179
 -1      2945    1    0    1
 -2      3169      3259      3269      3179      3170      3260      3270      3180
 -1      2946    1    0    1
 -2      3170      3260      3270      3180      3171      3261      3271      3181
 -1      2947    1    0    1
 -2      3171      3261      3271      3181      3172      3262      3272      3182
 -1      2948    1    0    1
 -2      3172      3262      3272      3182      1390      1399      1400      1391
 -1      2949    1    0    1
 -2       370       379       380       371      3173      3263      3273      3183
 -1      2950    1    0    1
 -2      3173      3263      3273      3183      3174      3264      3274      3184
 -1      2951    1    0    1
 -2      3174      3264      3274      3184      3175      3265      3275      3185
 -1      2952    1    0    1
 -2      3175      3265      3275      3185      3176      3266      3276      3186
 -1      2953    1    0    1
 -2      3176      3266      3276      3186      3177      3267      3277      3187
 -1      2954    1    0    1
 -2      3177      3267      3277      3187      3178      3268      3278      3188
 -1      2955    1    0    1
 -2      3178      3268      3278      3188      3179      3269      3279      3189
 -1      2956    1    0    1
 -2      3179      3269      3279      3189      3180      3270      3280      3190
 -1      2957    1    0    1
 -2      3180      3270      3280      3190      3181      3271      3281      3191
 -1      2958    1    0    1
 -2      3181      3271      3281      3191      3182      3272      3282      3192
 -1      2959    1    0    1
 -2      3182      3272      3282      3192      1391      1400      1401      1392
 -1      2960    1    0    1
 -2       371       380        56        57      3183      3273       932       942
 -1      2961    1    0    1
 -2      3183      3273       932       942      3184      3274       933       943
 -1      2962    1    0    1
 -2      3184      3274       933       943      3185      3275       934       944
 -1      2963    1    0    1
 -2      3185      3275       934       944      3186      3276       935       945
 -1      2964    1    0    1
 -2      3186      3276       935       945      3187      3277       936       946
 -1      2965    1    0    1
 -2      3187      3277       936       946      3188      3278       937       947
 -1      2966    1    0    1
 -2      3188      3278       937       947      3189      3279       938       948
 -1      2967    1    0    1
 -2      3189      3279       938       948      3190      3280       939       949
 -1      2968    1    0    1
 -2      3190      3280       939       949      3191      3281       940       950
 -1      2969    1    0    1
 -2      3191      3281       940       950      3192      3282       941       951
 -1      2970    1    0    1
 -2      3192      3282       941       951      1392      1401       132       133
 -1      2971    1    0    1
 -2        28        29       381       372       652       662      3283      3193
 -1      2972    1    0    1
 -2       652       662      3283      3193       653       663      3284      3194
 -1      2973    1    0    1
 -2       653       663      3284      3194       654       664      3285      3195
 -1      2974    1    0    1
 -2       654       664      3285      3195       655       665      3286      3196
 -1      2975    1    0    1
 -2       655       665      3286      3196       656       666      3287      3197
 -1      2976    1    0    1
 -2       656       666      3287      3197       657       667      3288      3198
 -1      2977    1    0    1
 -2       657       667      3288      3198       658       668      3289      3199
 -1      2978    1    0    1
 -2       658       668      3289      3199       659       669      3290      3200
 -1      2979    1    0    1
 -2       659       669      3290      3200       660       670      3291      3201
 -1      2980    1    0    1
 -2       660       670      3291      3201       661       671      3292      3202
 -1      2981    1    0    1
 -2       661       671      3292      3202       104       105      1402      1393
 -1      2982    1    0    1
 -2       372       381       382       373      3193      3283      3293      3203
 -1      2983    1    0    1
 -2      3193      3283      3293      3203      3194      3284      3294      3204
 -1      2984    1    0    1
 -2      3194      3284      3294      3204      3195      3285      3295      3205
 -1      2985    1    0    1
 -2      3195      3285      3295      3205      3196      3286      3296      3206
 -1      2986    1    0    1
 -2      3196      3286      3296      3206      3197      3287      3297      3207
 -1      2987    1    0    1
 -2      3197      3287      3297      3207      3198      3288      3298      3208
 -1      2988    1    0    1
 -2      3198      3288      3298      3208      3199      3289      3299      3209
 -1      2989    1    0    1
 -2      3199      3289      3299      3209      3200      3290      3300      3210
 -1      2990    1    0    1
 -2      3200      3290      3300      3210      3201      3291      3301      3211
 -1      2991    1    0    1
 -2      3201      3291      3301      3211      3202      3292      3302      3212
 -1      2992    1    0    1
 -2      3202      3292      3302      3212      1393      1402      1403      1394
 -1      2993    1    0    1
 -2       373       382       383       374      3203      3293      3303      3213
 -1      2994    1    0    1
 -2      3203      3293      3303      3213      3204      3294      3304      3214
 -1      2995    1    0    1
 -2      3204      3294      3304      3214      3205      3295      3305      3215
 -1      2996    1    0    1
 -2      3205      3295      3305      3215      3206      3296      3306      3216
 -1      2997    1    0    1
 -2      3206      3296      3306      3216      3207      3297      3307      3217
 -1      2998    1    0    1
 -2      3207      3297      3307      3217      3208      3298      3308      3218
 -1      2999    1    0    1
 -2      3208      3298      3308      3218      3209      3299      3309      3219
 -1      3000    1    0    1
 -2      3209      3299      3309      3219      3210      3300      3310      3220
 -1      3001    1    0    1
 -2      3210      3300      3310      3220      3211      3301      3311      3221
 -1      3002    1    0    1
 -2      3211      3301      3311      3221      3212      3302      3312      3222
 -1      3003    1    0    1
 -2      3212      3302      3312      3222      1394      1403      1404      1395
 -1      3004    1    0    1
 -2       374       383       384       375      3213      3303      3313      3223
 -1      3005    1    0    1
 -2      3213      3303      3313      3223      3214      3304      3314      3224
 -1      3006    1    0    1
 -2      3214      3304      3314      3224      3215      3305      3315      3225
 -1      3007    1    0    1
 -2      3215      3305      3315      3225      3216      3306      3316      3226
 -1      3008    1    0    1
 -2      3216      3306      3316      3226      3217      3307      3317      3227
 -1      3009    1    0    1
 -2      3217      3307      3317      3227      3218      3308      3318      3228
 -1      3010    1    0    1
 -2      3218      3308      3318      3228      3219      3309      3319      3229
 -1      3011    1    0    1
 -2      3219      3309      3319      3229      3220      3310      3320      3230
 -1      3012    1    0    1
 -2      3220      3310      3320      3230      3221      3311      3321      3231
 -1      3013    1    0    1
 -2      3221      3311      3321      3231      3222      3312      3322      3232
 -1      3014    1    0    1
 -2      3222      3312      3322      3232      1395      1404      1405      1396
 -1      3015    1    0    1
 -2       375       384       385       376      3223      3313      3323      3233
 -1      3016    1    0    1
 -2      3223      3313      3323      3233      3224      3314      3324      3234
 -1      3017    1    0    1
 -2      3224      3314      3324      3234      3225      3315      3325      3235
 -1      3018    1    0    1
 -2      3225      3315      3325      3235      3226      3316      3326      3236
 -1      3019    1    0    1
 -2      3226      3316      3326      3236      3227      3317      3327      3237
 -1      3020    1    0    1
 -2      3227      3317      3327      3237      3228      3318      3328      3238
 -1      3021    1    0    1
 -2      3228      3318      3328      3238      3229      3319      3329      3239
 -1      3022    1    0    1
 -2      3229      3319      3329      3239      3230      3320      3330      3240
 -1      3023    1    0    1
 -2      3230      3320      3330      3240      3231      3321      3331      3241
 -1      3024    1    0    1
 -2      3231      3321      3331      3241      3232      3322      3332      3242
 -1      3025    1    0    1
 -2      3232      3322      3332      3242      1396      1405      1406      1397
 -1      3026    1    0    1
 -2       376       385       386       377      3233      3323      3333      3243
 -1      3027    1    0    1
 -2      3233      3323      3333      3243      3234      3324      3334      3244
 -1      3028    1    0    1
 -2      3234      3324      3334      3244      3235      3325      3335      3245
 -1      3029    1    0    1
 -2      3235      3325      3335      3245      3236      3326      3336      3246
 -1      3030    1    0    1
 -2      3236      3326      3336      3246      3237      3327      3337      3247
 -1      3031    1    0    1
 -2      3237      3327      3337      3247      3238      3328      3338      3248
 -1      3032    1    0    1
 -2      3238      3328      3338      3248      3239      3329      3339      3249
 -1      3033    1    0    1
 -2      3239      3329      3339      3249      3240      3330      3340      3250
 -1      3034    1    0    1
 -2      3240      3330      3340      3250      3241      3331      3341      3251
 -1      3035    1    0    1
 -2      3241      3331      3341      3251      3242      3332      3342      3252
 -1      3036    1    0    1
 -2      3242      3332      3342      3252      1397      1406      1407      1398
 -1      3037    1    0    1
 -2       377       386       387       378      3243      3333      3343      3253
 -1      3038    1    0    1
 -2      3243      3333      3343      3253      3244      3334      3344      3254
 -1      3039    1    0    1
 -2      3244      3334      3344      3254      3245      3335      3345      3255
 -1      3040    1    0    1
 -2      3245      3335      3345      3255      3246      3336      3346      3256
 -1      3041    1    0    1
 -2      3246      3336      3346      3256      3247      3337      3347      3257
 -1      3042    1    0    1
 -2      3247      3337      3347      3257      3248      3338      3348      3258
 -1      3043    1    0    1
 -2      3248      3338      3348      3258      3249      3339      3349      3259
 -1      3044    1    0    1
 -2      3249      3339      3349      3259      3250      3340      3350      3260
 -1      3045    1    0    1
 -2      3250      3340      3350      3260      3251      3341      3351      3261
 -1      3046    1    0    1
 -2      3251      3341      3351      3261      3252      3342      3352      3262
 -1      3047    1    0    1
 -2      3252      3342      3352      3262      1398      1407      1408      1399
 -1      3048    1    0    1
 -2       378       387       388       379      3253      3343      3353      3263
 -1      3049    1    0    1
 -2      3253      3343      3353      3263      3254      3344      3354      3264
 -1      3050    1    0    1
 -2      3254      3344      3354      3264      3255      3345      3355      3265
 -1      3051    1    0    1
 -2      3255      3345      3355      3265      3256      3346      3356      3266
 -1      3052    1    0    1
 -2      3256      3346      3356      3266      3257      3347      3357      3267
 -1      3053    1    0    1
 -2      3257      3347      3357      3267      3258      3348      3358      3268
 -1      3054    1    0    1
 -2      3258      3348      3358      3268      3259      3349      3359      3269
 -1      3055    1    0    1
 -2      3259      3349      3359      3269      3260      3350      3360      3270
 -1      3056    1    0    1
 -2      3260      3350      3360      3270      3261      3351      3361      3271
 -1      3057    1    0    1
 -2      3261      3351      3361      3271      3262      3352      3362      3272
 -1      3058    1    0    1
 -2      3262      3352      3362      3272      1399      1408      1409      1400
 -1      3059    1    0    1
 -2       379       388       389       380      3263      3353      3363      3273
 -1      3060    1    0    1
 -2      3263      3353      3363      3273      3264      3354      3364      3274
 -1      3061    1    0    1
 -2      3264      3354      3364      3274      3265      3355      3365      3275
 -1      3062    1    0    1
 -2      3265      3355      3365      3275      3266      3356      3366      3276
 -1      3063    1    0    1
 -2      3266      3356      3366      3276      3267      3357      3367      3277
 -1      3064    1    0    1
 -2      3267      3357      3367      3277      3268      3358      3368      3278
 -1      3065    1    0    1
 -2      3268      3358      3368      3278      3269      3359      3369      3279
 -1      3066    1    0    1
 -2      3269      3359      3369      3279      3270      3360      3370      3280
 -1      3067    1    0    1
 -2      3270      3360      3370      3280      3271      3361      3371      3281
 -1      3068    1    0    1
 -2      3271      3361      3371      3281      3272      3362      3372      3282
 -1      3069    1    0    1
 -2      3272      3362      3372      3282      1400      1409      1410      1401
 -1      3070    1    0    1
 -2       380       389        55        56      3273      3363       922       932
 -1      3071    1    0    1
 -2      3273      3363       922       932      3274      3364       923       933
 -1      3072    1    0    1
 -2      3274      3364       923       933      3275      3365       924       934
 -1      3073    1    0    1
 -2      3275      3365       924       934      3276      3366       925       935
 -1      3074    1    0    1
 -2      3276      3366       925       935      3277      3367       926       936
 -1      3075    1    0    1
 -2      3277      3367       926       936      3278      3368       927       937
 -1      3076    1    0    1
 -2      3278      3368       927       937      3279      3369       928       938
 -1      3077    1    0    1
 -2      3279      3369       928       938      3280      3370       929       939
 -1      3078    1    0    1
 -2      3280      3370       929       939      3281      3371       930       940
 -1      3079    1    0    1
 -2      3281      3371       930       940      3282      3372       931       941
 -1      3080    1    0    1
 -2      3282      3372       931       941      1401      1410       131       132
 -1      3081    1    0    1
 -2        29        30       390       381       662       672      3373      3283
 -1      3082    1    0    1
 -2       662       672      3373      3283       663       673      3374      3284
 -1      3083    1    0    1
 -2       663       673      3374      3284       664       674      3375      3285
 -1      3084    1    0    1
 -2       664       674      3375      3285       665       675      3376      3286
 -1      3085    1    0    1
 -2       665       675      3376      3286       666       676      3377      3287
 -1      3086    1    0    1
 -2       666       676      3377      3287       667       677      3378      3288
 -1      3087    1    0    1
 -2       667       677      3378      3288       668       678      3379      3289
 -1      3088    1    0    1
 -2       668       678      3379      3289       669       679      3380      3290
 -1      3089    1    0    1
 -2       669       679      3380      3290       670       680      3381      3291
 -1      3090    1    0    1
 -2       670       680      3381      3291       671       681      3382      3292
 -1      3091    1    0    1
 -2       671       681      3382      3292       105       106      1411      1402
 -1      3092    1    0    1
 -2       381       390       391       382      3283      3373      3383      3293
 -1      3093    1    0    1
 -2      3283      3373      3383      3293      3284      3374      3384      3294
 -1      3094    1    0    1
 -2      3284      3374      3384      3294      3285      3375      3385      3295
 -1      3095    1    0    1
 -2      3285      3375      3385      3295      3286      3376      3386      3296
 -1      3096    1    0    1
 -2      3286      3376      3386      3296      3287      3377      3387      3297
 -1      3097    1    0    1
 -2      3287      3377      3387      3297      3288      3378      3388      3298
 -1      3098    1    0    1
 -2      3288      3378      3388      3298      3289      3379      3389      3299
 -1      3099    1    0    1
 -2      3289      3379      3389      3299      3290      3380      3390      3300
 -1      3100    1    0    1
 -2      3290      3380      3390      3300      3291      3381      3391      3301
 -1      3101    1    0    1
 -2      3291      3381      3391      3301      3292      3382      3392      3302
 -1      3102    1    0    1
 -2      3292      3382      3392      3302      1402      1411      1412      1403
 -1      3103    1    0    1
 -2       382       391       392       383      3293      3383      3393      3303
 -1      3104    1    0    1
 -2      3293      3383      3393      3303      3294      3384      3394      3304
 -1      3105    1    0    1
 -2      3294      3384      3394      3304      3295      3385      3395      3305
 -1      3106    1    0    1
 -2      3295      3385      3395      3305      3296      3386      3396      3306
 -1      3107    1    0    1
 -2      3296      3386      3396      3306      3297      3387      3397      3307
 -1      3108    1    0    1
 -2      3297      3387      3397      3307      3298      3388      3398      3308
 -1      3109    1    0    1
 -2      3298      3388      3398      3308      3299      3389      3399      3309
 -1      3110    1    0    1
 -2      3299      3389      3399      3309      3300      3390      3400      3310
 -1      3111    1    0    1
 -2      3300      3390      3400      3310      3301      3391      3401      3311
 -1      3112    1    0    1
 -2      3301      3391      3401      3311      3302      3392      3402      3312
 -1      3113    1    0    1
 -2      3302      3392      3402      3312      1403      1412      1413      1404
 -1      3114    1    0    1
 -2       383       392       393       384      3303      3393      3403      3313
 -1      3115    1    0    1
 -2      3303      3393      3403      3313      3304      3394      3404      3314
 -1      3116    1    0    1
 -2      3304      3394      3404      3314      3305      3395      3405      3315
 -1      3117    1    0    1
 -2      3305      3395      3405      3315      3306      3396      3406      3316
 -1      3118    1    0    1
 -2      3306      3396      3406      3316      3307      3397      3407      3317
 -1      3119    1    0    1
 -2      3307      3397      3407      3317      3308      3398      3408      3318
 -1      3120    1    0    1
 -2      3308      3398      3408      3318      3309      3399      3409      3319
 -1      3121    1    0    1
 -2      3309      3399      3409      3319      3310      3400      3410      3320
 -1      3122    1    0    1
 -2      3310      3400      3410      3320      3311      3401      3411      3321
 -1      3123    1    0    1
 -2      3311      3401      3411      3321      3312      3402      3412      3322
 -1      3124    1    0    1
 -2      3312      3402      3412      3322      1404      1413      1414      1405
 -1      3125    1    0    1
 -2       384       393       394       385      3313      3403      3413      3323
 -1      3126    1    0    1
 -2      3313      3403      3413      3323      3314      3404      3414      3324
 -1      3127    1    0    1
 -2      3314      3404      3414      3324      3315      3405      3415      3325
 -1      3128    1    0    1
 -2      3315      3405      3415      3325      3316      3406      3416      3326
 -1      3129    1    0    1
 -2      3316      3406      3416      3326      3317      3407      3417      3327
 -1      3130    1    0    1
 -2      3317      3407      3417      3327      3318      3408      3418      3328
 -1      3131    1    0    1
 -2      3318      3408      3418      3328      3319      3409      3419      3329
 -1      3132    1    0    1
 -2      3319      3409      3419      3329      3320      3410      3420      3330
 -1      3133    1    0    1
 -2      3320      3410      3420      3330      3321      3411      3421      3331
 -1      3134    1    0    1
 -2      3321      3411      3421      3331      3322      3412      3422      3332
 -1      3135    1    0    1
 -2      3322      3412      3422      3332      1405      1414      1415      1406
 -1      3136    1    0    1
 -2       385       394       395       386      3323      3413      3423      3333
 -1      3137    1    0    1
 -2      3323      3413      3423      3333      3324      3414      3424      3334
 -1      3138    1    0    1
 -2      3324      3414      3424      3334      3325      3415      3425      3335
 -1      3139    1    0    1
 -2      3325      3415      3425      3335      3326      3416      3426      3336
 -1      3140    1    0    1
 -2      3326      3416      3426      3336      3327      3417      3427      3337
 -1      3141    1    0    1
 -2      3327      3417      3427      3337      3328      3418      3428      3338
 -1      3142    1    0    1
 -2      3328      3418      3428      3338      3329      3419      3429      3339
 -1      3143    1    0    1
 -2      3329      3419      3429      3339      3330      3420      3430      3340
 -1      3144    1    0    1
 -2      3330      3420      3430      3340      3331      3421      3431      3341
 -1      3145    1    0    1
 -2      3331      3421      3431      3341      3332      3422      3432      3342
 -1      3146    1    0    1
 -2      3332      3422      3432      3342      1406      1415      1416      1407
 -1      3147    1    0    1
 -2       386       395       396       387      3333      3423      3433      3343
 -1      3148    1    0    1
 -2      3333      3423      3433      3343      3334      3424      3434      3344
 -1      3149    1    0    1
 -2      3334      3424      3434      3344      3335      3425      3435      3345
 -1      3150    1    0    1
 -2      3335      3425      3435      3345      3336      3426      3436      3346
 -1      3151    1    0    1
 -2      3336      3426      3436      3346      3337      3427      3437      3347
 -1      3152    1    0    1
 -2      3337      3427      3437      3347      3338      3428      3438      3348
 -1      3153    1    0    1
 -2      3338      3428      3438      3348      3339      3429      3439      3349
 -1      3154    1    0    1
 -2      3339      3429      3439      3349      3340      3430      3440      3350
 -1      3155    1    0    1
 -2      3340      3430      3440      3350      3341      3431      3441      3351
 -1      3156    1    0    1
 -2      3341      3431      3441      3351      3342      3432      3442      3352
 -1      3157    1    0    1
 -2      3342      3432      3442      3352      1407      1416      1417      1408
 -1      3158    1    0    1
 -2       387       396       397       388      3343      3433      3443      3353
 -1      3159    1    0    1
 -2      3343      3433      3443      3353      3344      3434      3444      3354
 -1      3160    1    0    1
 -2      3344      3434      3444      3354      3345      3435      3445      3355
 -1      3161    1    0    1
 -2      3345      3435      3445      3355      3346      3436      3446      3356
 -1      3162    1    0    1
 -2      3346      3436      3446      3356      3347      3437      3447      3357
 -1      3163    1    0    1
 -2      3347      3437      3447      3357      3348      3438      3448      3358
 -1      3164    1    0    1
 -2      3348      3438      3448      3358      3349      3439      3449      3359
 -1      3165    1    0    1
 -2      3349      3439      3449      3359      3350      3440      3450      3360
 -1      3166    1    0    1
 -2      3350      3440      3450      3360      3351      3441      3451      3361
 -1      3167    1    0    1
 -2      3351      3441      3451      3361      3352      3442      3452      3362
 -1      3168    1    0    1
 -2      3352      3442      3452      3362      1408      1417      1418      1409
 -1      3169    1    0    1
 -2       388       397       398       389      3353      3443      3453      3363
 -1      3170    1    0    1
 -2      3353      3443      3453      3363      3354      3444      3454      3364
 -1      3171    1    0    1
 -2      3354      3444      3454      3364      3355      3445      3455      3365
 -1      3172    1    0    1
 -2      3355      3445      3455      3365      3356      3446      3456      3366
 -1      3173    1    0    1
 -2      3356      3446      3456      3366      3357      3447      3457      3367
 -1      3174    1    0    1
 -2      3357      3447      3457      3367      3358      3448      3458      3368
 -1      3175    1    0    1
 -2      3358      3448      3458      3368      3359      3449      3459      3369
 -1      3176    1    0    1
 -2      3359      3449      3459      3369      3360      3450      3460      3370
 -1      3177    1    0    1
 -2      3360      3450      3460      3370      3361      3451      3461      3371
 -1      3178    1    0    1
 -2      3361      3451      3461      3371      3362      3452      3462      3372
 -1      3179    1    0    1
 -2      3362      3452      3462      3372      1409      1418      1419      1410
 -1      3180    1    0    1
 -2       389       398        54        55      3363      3453       912       922
 -1      3181    1    0    1
 -2      3363      3453       912       922      3364      3454       913       923
 -1      3182    1    0    1
 -2      3364      3454       913       923      3365      3455       914       924
 -1      3183    1    0    1
 -2      3365      3455       914       924      3366      3456       915       925
 -1      3184    1    0    1
 -2      3366      3456       915       925      3367      3457       916       926
 -1      3185    1    0    1
 -2      3367      3457       916       926      3368      3458       917       927
 -1      3186    1    0    1
 -2      3368      3458       917       927      3369      3459       918       928
 -1      3187    1    0    1
 -2      3369      3459       918       928      3370      3460       919       929
 -1      3188    1    0    1
 -2      3370      3460       919       929      3371      3461       920       930
 -1      3189    1    0    1
 -2      3371      3461       920       930      3372      3462       921       931
 -1      3190    1    0    1
 -2      3372      3462       921       931      1410      1419       130       131
 -1      3191    1    0    1
 -2        30        31       399       390       672       682      3463      3373
 -1      3192    1    0    1
 -2       672       682      3463      3373       673       683      3464      3374
 -1      3193    1    0    1
 -2       673       683      3464      3374       674       684      3465      3375
 -1      3194    1    0    1
 -2       674       684      3465      3375       675       685      3466      3376
 -1      3195    1    0    1
 -2       675       685      3466      3376       676       686      3467      3377
 -1      3196    1    0    1
 -2       676       686      3467      3377       677       687      3468      3378
 -1      3197    1    0    1
 -2       677       687      3468      3378       678       688      3469      3379
 -1      3198    1    0    1
 -2       678       688      3469      3379       679       689      3470      3380
 -1      3199    1    0    1
 -2       679       689      3470      3380       680       690      3471      3381
 -1      3200    1    0    1
 -2       680       690      3471      3381       681       691      3472      3382
 -1      3201    1    0    1
 -2       681       691      3472      3382       106       107      1420      1411
 -1      3202    1    0    1
 -2       390       399       400       391      3373      3463      3473      3383
 -1      3203    1    0    1
 -2      3373      3463      3473      3383      3374      3464      3474      3384
 -1      3204    1    0    1
 -2      3374      3464      3474      3384      3375      3465      3475      3385
 -1      3205    1    0    1
 -2      3375      3465      3475      3385      3376      3466      3476      3386
 -1      3206    1    0    1
 -2      3376      3466      3476      3386      3377      3467      3477      3387
 -1      3207    1    0    1
 -2      3377      3467      3477      3387      3378      3468      3478      3388
 -1      3208    1    0    1
 -2      3378      3468      3478      3388      3379      3469      3479      3389
 -1      3209    1    0    1
 -2      3379      3469      3479      3389      3380      3470      3480      3390
 -1      3210    1    0    1
 -2      3380      3470      3480      3390      3381      3471      3481      3391
 -1      3211    1    0    1
 -2      3381      3471      3481      3391      3382      3472      3482      3392
 -1      3212    1    0    1
 -2      3382      3472      3482      3392      1411      1420      1421      1412
 -1      3213    1    0    1
 -2       391       400       401       392      3383      3473      3483      3393
 -1      3214    1    0    1
 -2      3383      3473      3483      3393      3384      3474      3484      3394
 -1      3215    1    0    1
 -2      3384      3474      3484      3394      3385      3475      3485      3395
 -1      3216    1    0    1
 -2      3385      3475      3485      3395      3386      3476      3486      3396
 -1      3217    1    0    1
 -2      3386      3476      3486      3396      3387      3477      3487      3397
 -1      3218    1    0    1
 -2      3387      3477      3487      3397      3388      3478      3488      3398
 -1      3219    1    0    1
 -2      3388      3478      3488      3398      3389      3479      3489      3399
 -1      3220    1    0    1
 -2      3389      3479      3489      3399      3390      3480      3490      3400
 -1      3221    1    0    1
 -2      3390      3480      3490      3400      3391      3481      3491      3401
 -1      3222    1    0    1
 -2      3391      3481      3491      3401      3392      3482      3492      3402
 -1      3223    1    0    1
 -2      3392      3482      3492      3402      1412      1421      1422      1413
 -1      3224    1    0    1
 -2       392       401       402       393      3393      3483      3493      3403
 -1      3225    1    0    1
 -2      3393      3483      3493      3403      3394      3484      3494      3404
 -1      3226    1    0    1
 -2      3394      3484      3494      3404      3395      3485      3495      3405
 -1      3227    1    0    1
 -2      3395      3485      3495      3405      3396      3486      3496      3406
 -1      3228    1    0    1
 -2      3396      3486      3496      3406      3397      3487      3497      3407
 -1      3229    1    0    1
 -2      3397      3487      3497      3407      3398      3488      3498      3408
 -1      3230    1    0    1
 -2      3398      3488      3498      3408      3399      3489      3499      3409
 -1      3231    1    0    1
 -2      3399      3489      3499      3409      3400      3490      3500      3410
 -1      3232    1    0    1
 -2      3400      3490      3500      3410      3401      3491      3501      3411
 -1      3233    1    0    1
 -2      3401      3491      3501      3411      3402      3492      3502      3412
 -1      3234    1    0    1
 -2      3402      3492      3502      3412      1413      1422      1423      1414
 -1      3235    1    0    1
 -2       393       402       403       394      3403      3493      3503      3413
 -1      3236    1    0    1
 -2      3403      3493      3503      3413      3404      3494      3504      3414
 -1      3237    1    0    1
 -2      3404      3494      3504      3414      3405      3495      3505      3415
 -1      3238    1    0    1
 -2      3405      3495      3505      3415      3406      3496      3506      3416
 -1      3239    1    0    1
 -2      3406      3496      3506      3416      3407      3497      3507      3417
 -1      3240    1    0    1
 -2      3407      3497      3507      3417      3408      3498      3508      3418
 -1      3241    1    0    1
 -2      3408      3498      3508      3418      3409      3499      3509      3419
 -1      3242    1    0    1
 -2      3409      3499      3509      3419      3410      3500      3510      3420
 -1      3243    1    0    1
 -2      3410      3500      3510      3420      3411      3501      3511      3421
 -1      3244    1    0    1
 -2      3411      3501      3511      3421      3412      3502      3512      3422
 -1      3245    1    0    1
 -2      3412      3502      3512      3422      1414      1423      1424      1415
 -1      3246    1    0    1
 -2       394       403       404       395      3413      3503      3513      3423
 -1      3247    1    0    1
 -2      3413      3503      3513      3423      3414      3504      3514      3424
 -1      3248    1    0    1
 -2      3414      3504      3514      3424      3415      3505      3515      3425
 -1      3249    1    0    1
 -2      3415      3505      3515      3425      3416      3506      3516      3426
 -1      3250    1    0    1
 -2      3416      3506      3516      3426      3417      3507      3517      3427
 -1      3251    1    0    1
 -2      3417      3507      3517      3427      3418      3508      3518      3428
 -1      3252    1    0    1
 -2      3418      3508      3518      3428      3419      3509      3519      3429
 -1      3253    1    0    1
 -2      3419      3509      3519      3429      3420      3510      3520      3430
 -1      3254    1    0    1
 -2      3420      3510      3520      3430      3421      3511      3521      3431
 -1      3255    1    0    1
 -2      3421      3511      3521      3431      3422      3512      3522      3432
 -1      3256    1    0    1
 -2      3422      3512      3522      3432      1415      1424      1425      1416
 -1      3257    1    0    1
 -2       395       404       405       396      3423      3513      3523      3433
 -1      3258    1    0    1
 -2      3423      3513      3523      3433      3424      3514      3524      3434
 -1      3259    1    0    1
 -2      3424      3514      3524      3434      3425      3515      3525      3435
 -1      3260    1    0    1
 -2      3425      3515      3525      3435      3426      3516      3526      3436
 -1      3261    1    0    1
 -2      3426      3516      3526      3436      3427      3517      3527      3437
 -1      3262    1    0    1
 -2      3427      3517      3527      3437      3428      3518      3528      3438
 -1      3263    1    0    1
 -2      3428      3518      3528      3438      3429      3519      3529      3439
 -1      3264    1    0    1
 -2      3429      3519      3529      3439      3430      3520      3530      3440
 -1      3265    1    0    1
 -2      3430      3520      3530      3440      3431      3521      3531      3441
 -1      3266    1    0    1
 -2      3431      3521      3531      3441      3432      3522      3532      3442
 -1      3267    1    0    1
 -2      3432      3522      3532      3442      1416      1425      1426      1417
 -1      3268    1    0    1
 -2       396       405       406       397      3433      3523      3533      3443
 -1      3269    1    0    1
 -2      3433      3523      3533      3443      3434      3524      3534      3444
 -1      3270    1    0    1
 -2      3434      3524      3534      3444      3435      3525      3535      3445
 -1      3271    1    0    1
 -2      3435      3525      3535      3445      3436      3526      3536      3446
 -1      3272    1    0    1
 -2      3436      3526      3536      3446      3437      3527      3537      3447
 -1      3273    1    0    1
 -2      3437      3527      3537      3447      3438      3528      3538      3448
 -1      3274    1    0    1
 -2      3438      3528      3538      3448      3439      3529      3539      3449
 -1      3275    1    0    1
 -2      3439      3529      3539      3449      3440      3530      3540      3450
 -1      3276    1    0    1
 -2      3440      3530      3540      3450      3441      3531      3541      3451
 -1      3277    1    0    1
 -2      3441      3531      3541      3451      3442      3532      3542      3452
 -1      3278    1    0    1
 -2      3442      3532      3542      3452      1417      1426      1427      1418
 -1      3279    1    0    1
 -2       397       406       407       398      3443      3533      3543      3453
 -1      3280    1    0    1
 -2      3443      3533      3543      3453      3444      3534      3544      3454
 -1      3281    1    0    1
 -2      3444      3534      3544      3454      3445      3535      3545      3455
 -1      3282    1    0    1
 -2      3445      3535      3545      3455      3446      3536      3546      3456
 -1      3283    1    0    1
 -2      3446      3536      3546      3456      3447      3537      3547      3457
 -1      3284    1    0    1
 -2      3447      3537      3547      3457      3448      3538      3548      3458
 -1      3285    1    0    1
 -2      3448      3538      3548      3458      3449      3539      3549      3459
 -1      3286    1    0    1
 -2      3449      3539      3549      3459      3450      3540      3550      3460
 -1      3287    1    0    1
 -2      3450      3540      3550      3460      3451      3541      3551      3461
 -1      3288    1    0    1
 -2      3451      3541      3551      3461      3452      3542      3552      3462
 -1      3289    1    0    1
 -2      3452      3542      3552      3462      1418      1427      1428      1419
 -1      3290    1    0    1
 -2       398       407        53        54      3453      3543       902       912
 -1      3291    1    0    1
 -2      3453      3543       902       912      3454      3544       903       913
 -1      3292    1    0    1
 -2      3454      3544       903       913      3455      3545       904       914
 -1      3293    1    0    1
 -2      3455      3545       904       914      3456      3546       905       915
 -1      3294    1    0    1
 -2      3456      3546       905       915      3457      3547       906       916
 -1      3295    1    0    1
 -2      3457      3547       906       916      3458      3548       907       917
 -1      3296    1    0    1
 -2      3458      3548       907       917      3459      3549       908       918
 -1      3297    1    0    1
 -2      3459      3549       908       918      3460      3550       909       919
 -1      3298    1    0    1
 -2      3460      3550       909       919      3461      3551       910       920
 -1      3299    1    0    1
 -2      3461      3551       910       920      3462      3552       911       921
 -1      3300    1    0    1
 -2      3462      3552       911       921      1419      1428       129       130
 -1      3301    1    0    1
 -2        31        32       408       399       682       692      3553      3463
 -1      3302    1    0    1
 -2       682       692      3553      3463       683       693      3554      3464
 -1      3303    1    0    1
 -2       683       693      3554      3464       684       694      3555      3465
 -1      3304    1    0    1
 -2       684       694      3555      3465       685       695      3556      3466
 -1      3305    1    0    1
 -2       685       695      3556      3466       686       696      3557      3467
 -1      3306    1    0    1
 -2       686       696      3557      3467       687       697      3558      3468
 -1      3307    1    0    1
 -2       687       697      3558      3468       688       698      3559      3469
 -1      3308    1    0    1
 -2       688       698      3559      3469       689       699      3560      3470
 -1      3309    1    0    1
 -2       689       699      3560      3470       690       700      3561      3471
 -1      3310    1    0    1
 -2       690       700      3561      3471       691       701      3562      3472
 -1      3311    1    0    1
 -2       691       701      3562      3472       107       108      1429      1420
 -1      3312    1    0    1
 -2       399       408       409       400      3463      3553      3563      3473
 -1      3313    1    0    1
 -2      3463      3553      3563      3473      3464      3554      3564      3474
 -1      3314    1    0    1
 -2      3464      3554      3564      3474      3465      3555      3565      3475
 -1      3315    1    0    1
 -2      3465      3555      3565      3475      3466      3556      3566      3476
 -1      3316    1    0    1
 -2      3466      3556      3566      3476      3467      3557      3567      3477
 -1      3317    1    0    1
 -2      3467      3557      3567      3477      3468      3558      3568      3478
 -1      3318    1    0    1
 -2      3468      3558      3568      3478      3469      3559      3569      3479
 -1      3319    1    0    1
 -2      3469      3559      3569      3479      3470      3560      3570      3480
 -1      3320    1    0    1
 -2      3470      3560      3570      3480      3471      3561      3571      3481
 -1      3321    1    0    1
 -2      3471      3561      3571      3481      3472      3562      3572      3482
 -1      3322    1    0    1
 -2      3472      3562      3572      3482      1420      1429      1430      1421
 -1      3323    1    0    1
 -2       400       409       410       401      3473      3563      3573      3483
 -1      3324    1    0    1
 -2      3473      3563      3573      3483      3474      3564      3574      3484
 -1      3325    1    0    1
 -2      3474      3564      3574      3484      3475      3565      3575      3485
 -1      3326    1    0    1
 -2      3475      3565      3575      3485      3476      3566      3576      3486
 -1      3327    1    0    1
 -2      3476      3566      3576      3486      3477      3567      3577      3487
 -1      3328    1    0    1
 -2      3477      3567      3577      3487      3478      3568      3578      3488
 -1      3329    1    0    1
 -2      3478      3568      3578      3488      3479      3569      3579      3489
 -1      3330    1    0    1
 -2      3479      3569      3579      3489      3480      3570      3580      3490
 -1      3331    1    0    1
 -2      3480      3570      3580      3490      3481      3571      3581      3491
 -1      3332    1    0    1
 -2      3481      3571      3581      3491      3482      3572      3582      3492
 -1      3333    1    0    1
 -2      3482      3572      3582      3492      1421      1430      1431      1422
 -1      3334    1    0    1
 -2       401       410       411       402      3483      3573      3583      3493
 -1      3335    1    0    1
 -2      3483      3573      3583      3493      3484      3574      3584      3494
 -1      3336    1    0    1
 -2      3484      3574      3584      3494      3485      3575      3585      3495
 -1      3337    1    0    1
 -2      3485      3575      3585      3495      3486      3576      3586      3496
 -1      3338    1    0    1
 -2      3486      3576      3586      3496      3487      3577      3587      3497
 -1      3339    1    0    1
 -2      3487      3577      3587      3497      3488      3578      3588      3498
 -1      3340    1    0    1
 -2      3488      3578      3588      3498      3489      3579      3589      3499
 -1      3341    1    0    1
 -2      3489      3579      3589      3499      3490      3580      3590      3500
 -1      3342    1    0    1
 -2      3490      3580      3590      3500      3491      3581      3591      3501
 -1      3343    1    0    1
 -2      3491      3581      3591      3501      3492      3582      3592      3502
 -1      3344    1    0    1
 -2      3492      3582      3592      3502      1422      1431      1432      1423
 -1      3345    1    0    1
 -2       402       411       412       403      3493      3583      3593      3503
 -1      3346    1    0    1
 -2      3493      3583      3593      3503      3494      3584      3594      3504
 -1      3347    1    0    1
 -2      3494      3584      3594      3504      3495      3585      3595      3505
 -1      3348    1    0    1
 -2      3495      3585      3595      3505      3496      3586      3596      3506
 -1      3349    1    0    1
 -2      3496      3586      3596      3506      3497      3587      3597      3507
 -1      3350    1    0    1
 -2      3497      3587      3597      3507      3498      3588      3598      3508
 -1      3351    1    0    1
 -2      3498      3588      3598      3508      3499      3589      3599      3509
 -1      3352    1    0    1
 -2      3499      3589      3599      3509      3500      3590      3600      3510
 -1      3353    1    0    1
 -2      3500      3590      3600      3510      3501      3591      3601      3511
 -1      3354    1    0    1
 -2      3501      3591      3601      3511      3502      3592      3602      3512
 -1      3355    1    0    1
 -2      3502      3592      3602      3512      1423      1432      1433      1424
 -1      3356    1    0    1
 -2       403       412       413       404      3503      3593      3603      3513
 -1      3357    1    0    1
 -2      3503      3593      3603      3513      3504      3594      3604      3514
 -1      3358    1    0    1
 -2      3504      3594      3604      3514      3505      3595      3605      3515
 -1      3359    1    0    1
 -2      3505      3595      3605      3515      3506      3596      3606      3516
 -1      3360    1    0    1
 -2      3506      3596      3606      3516      3507      3597      3607      3517
 -1      3361    1    0    1
 -2      3507      3597      3607      3517      3508      3598      3608      3518
 -1      3362    1    0    1
 -2      3508      3598      3608      3518      3509      3599      3609      3519
 -1      3363    1    0    1
 -2      3509      3599      3609      3519      3510      3600      3610      3520
 -1      3364    1    0    1
 -2      3510      3600      3610      3520      3511      3601      3611      3521
 -1      3365    1    0    1
 -2      3511      3601      3611      3521      3512      3602      3612      3522
 -1      3366    1    0    1
 -2      3512      3602      3612      3522      1424      1433      1434      1425
 -1      3367    1    0    1
 -2       404       413       414       405      3513      3603      3613      3523
 -1      3368    1    0    1
 -2      3513      3603      3613      3523      3514      3604      3614      3524
 -1      3369    1    0    1
 -2      3514      3604      3614      3524      3515      3605      3615      3525
 -1      3370    1    0    1
 -2      3515      3605      3615      3525      3516      3606      3616      3526
 -1      3371    1    0    1
 -2      3516      3606      3616      3526      3517      3607      3617      3527
 -1      3372    1    0    1
 -2      3517      3607      3617      3527      3518      3608      3618      3528
 -1      3373    1    0    1
 -2      3518      3608      3618      3528      3519      3609      3619      3529
 -1      3374    1    0    1
 -2      3519      3609      3619      3529      3520      3610      3620      3530
 -1      3375    1    0    1
 -2      3520      3610      3620      3530      3521      3611      3621      3531
 -1      3376    1    0    1
 -2      3521      3611      3621      3531      3522      3612      3622      3532
 -1      3377    1    0    1
 -2      3522      3612      3622      3532      1425      1434      1435      1426
 -1      3378    1    0    1
 -2       405       414       415       406      3523      3613      3623      3533
 -1      3379    1    0    1
 -2      3523      3613      3623      3533      3524      3614      3624      3534
 -1      3380    1    0    1
 -2      3524      3614      3624      3534      3525      3615      3625      3535
 -1      3381    1    0    1
 -2      3525      3615      3625      3535      3526      3616      3626      3536
 -1      3382    1    0    1
 -2      3526      3616      3626      3536      3527      3617      3627      3537
 -1      3383    1    0    1
 -2      3527      3617      3627      3537      3528      3618      3628      3538
 -1      3384    1    0    1
 -2      3528      3618      3628      3538      3529      3619      3629      3539
 -1      3385    1    0    1
 -2      3529      3619      3629      3539      3530      3620      3630      3540
 -1      3386    1    0    1
 -2      3530      3620      3630      3540      3531      3621      3631      3541
 -1      3387    1    0    1
 -2      3531      3621      3631      3541      3532      3622      3632      3542
 -1      3388    1    0    1
 -2      3532      3622      3632      3542      1426      1435      1436      1427
 -1      3389    1    0    1
 -2       406       415       416       407      3533      3623      3633      3543
 -1      3390    1    0    1
 -2      3533      3623      3633      3543      3534      3624      3634      3544
 -1      3391    1    0    1
 -2      3534      3624      3634      3544      3535      3625      3635      3545
 -1      3392    1    0    1
 -2      3535      3625      3635      3545      3536      3626      3636      3546
 -1      3393    1    0    1
 -2      3536      3626      3636      3546      3537      3627      3637      3547
 -1      3394    1    0    1
 -2      3537      3627      3637      3547      3538      3628      3638      3548
 -1      3395    1    0    1
 -2      3538      3628      3638      3548      3539      3629      3639      3549
 -1      3396    1    0    1
 -2      3539      3629      3639      3549      3540      3630      3640      3550
 -1      3397    1    0    1
 -2      3540      3630      3640      3550      3541      3631      3641      3551
 -1      3398    1    0    1
 -2      3541      3631      3641      3551      3542      3632      3642      3552
 -1      3399    1    0    1
 -2      3542      3632      3642      3552      1427      1436      1437      1428
 -1      3400    1    0    1
 -2       407       416        52        53      3543      3633       892       902
 -1      3401    1    0    1
 -2      3543      3633       892       902      3544      3634       893       903
 -1      3402    1    0    1
 -2      3544      3634       893       903      3545      3635       894       904
 -1      3403    1    0    1
 -2      3545      3635       894       904      3546      3636       895       905
 -1      3404    1    0    1
 -2      3546      3636       895       905      3547      3637       896       906
 -1      3405    1    0    1
 -2      3547      3637       896       906      3548      3638       897       907
 -1      3406    1    0    1
 -2      3548      3638       897       907      3549      3639       898       908
 -1      3407    1    0    1
 -2      3549      3639       898       908      3550      3640       899       909
 -1      3408    1    0    1
 -2      3550      3640       899       909      3551      3641       900       910
 -1      3409    1    0    1
 -2      3551      3641       900       910      3552      3642       901       911
 -1      3410    1    0    1
 -2      3552      3642       901       911      1428      1437       128       129
 -1      3411    1    0    1
 -2        32        33       417       408       692       702      3643      3553
 -1      3412    1    0    1
 -2       692       702      3643      3553       693       703      3644      3554
 -1      3413    1    0    1
 -2       693       703      3644      3554       694       704      3645      3555
 -1      3414    1    0    1
 -2       694       704      3645      3555       695       705      3646      3556
 -1      3415    1    0    1
 -2       695       705      3646      3556       696       706      3647      3557
 -1      3416    1    0    1
 -2       696       706      3647      3557       697       707      3648      3558
 -1      3417    1    0    1
 -2       697       707      3648      3558       698       708      3649      3559
 -1      3418    1    0    1
 -2       698       708      3649      3559       699       709      3650      3560
 -1      3419    1    0    1
 -2       699       709      3650      3560       700       710      3651      3561
 -1      3420    1    0    1
 -2       700       710      3651      3561       701       711      3652      3562
 -1      3421    1    0    1
 -2       701       711      3652      3562       108       109      1438      1429
 -1      3422    1    0    1
 -2       408       417       418       409      3553      3643      3653      3563
 -1      3423    1    0    1
 -2      3553      3643      3653      3563      3554      3644      3654      3564
 -1      3424    1    0    1
 -2      3554      3644      3654      3564      3555      3645      3655      3565
 -1      3425    1    0    1
 -2      3555      3645      3655      3565      3556      3646      3656      3566
 -1      3426    1    0    1
 -2      3556      3646      3656      3566      3557      3647      3657      3567
 -1      3427    1    0    1
 -2      3557      3647      3657      3567      3558      3648      3658      3568
 -1      3428    1    0    1
 -2      3558      3648      3658      3568      3559      3649      3659      3569
 -1      3429    1    0    1
 -2      3559      3649      3659      3569      3560      3650      3660      3570
 -1      3430    1    0    1
 -2      3560      3650      3660      3570      3561      3651      3661      3571
 -1      3431    1    0    1
 -2      3561      3651      3661      3571      3562      3652      3662      3572
 -1      3432    1    0    1
 -2      3562      3652      3662      3572      1429      1438      1439      1430
 -1      3433    1    0    1
 -2       409       418       419       410      3563      3653      3663      3573
 -1      3434    1    0    1
 -2      3563      3653      3663      3573      3564      3654      3664      3574
 -1      3435    1    0    1
 -2      3564      3654      3664      3574      3565      3655      3665      3575
 -1      3436    1    0    1
 -2      3565      3655      3665      3575      3566      3656      3666      3576
 -1      3437    1    0    1
 -2      3566      3656      3666      3576      3567      3657      3667      3577
 -1      3438    1    0    1
 -2      3567      3657      3667      3577      3568      3658      3668      3578
 -1      3439    1    0    1
 -2      3568      3658      3668      3578      3569      3659      3669      3579
 -1      3440    1    0    1
 -2      3569      3659      3669      3579      3570      3660      3670      3580
 -1      3441    1    0    1
 -2      3570      3660      3670      3580      3571      3661      3671      3581
 -1      3442    1    0    1
 -2      3571      3661      3671      3581      3572      3662      3672      3582
 -1      3443    1    0    1
 -2      3572      3662      3672      3582      1430      1439      1440      1431
 -1      3444    1    0    1
 -2       410       419       420       411      3573      3663      3673      3583
 -1      3445    1    0    1
 -2      3573      3663      3673      3583      3574      3664      3674      3584
 -1      3446    1    0    1
 -2      3574      3664      3674      3584      3575      3665      3675      3585
 -1      3447    1    0    1
 -2      3575      3665      3675      3585      3576      3666      3676      3586
 -1      3448    1    0    1
 -2      3576      3666      3676      3586      3577      3667      3677      3587
 -1      3449    1    0    1
 -2      3577      3667      3677      3587      3578      3668      3678      3588
 -1      3450    1    0    1
 -2      3578      3668      3678      3588      3579      3669      3679      3589
 -1      3451    1    0    1
 -2      3579      3669      3679      3589      3580      3670      3680      3590
 -1      3452    1    0    1
 -2      3580      3670      3680      3590      3581      3671      3681      3591
 -1      3453    1    0    1
 -2      3581      3671      3681      3591      3582      3672      3682      3592
 -1      3454    1    0    1
 -2      3582      3672      3682      3592      1431      1440      1441      1432
 -1      3455    1    0    1
 -2       411       420       421       412      3583      3673      3683      3593
 -1      3456    1    0    1
 -2      3583      3673      3683      3593      3584      3674      3684      3594
 -1      3457    1    0    1
 -2      3584      3674      3684      3594      3585      3675      3685      3595
 -1      3458    1    0    1
 -2      3585      3675      3685      3595      3586      3676      3686      3596
 -1      3459    1    0    1
 -2      3586      3676      3686      3596      3587      3677      3687      3597
 -1      3460    1    0    1
 -2      3587      3677      3687      3597      3588      3678      3688      3598
 -1      3461    1    0    1
 -2      3588      3678      3688      3598      3589      3679      3689      3599
 -1      3462    1    0    1
 -2      3589      3679      3689      3599      3590      3680      3690      3600
 -1      3463    1    0    1
 -2      3590      3680      3690      3600      3591      3681      3691      3601
 -1      3464    1    0    1
 -2      3591      3681      3691      3601      3592      3682      3692      3602
 -1      3465    1    0    1
 -2      3592      3682      3692      3602      1432      1441      1442      1433
 -1      3466    1    0    1
 -2       412       421       422       413      3593      3683      3693      3603
 -1      3467    1    0    1
 -2      3593      3683      3693      3603      3594      3684      3694      3604
 -1      3468    1    0    1
 -2      3594      3684      3694      3604      3595      3685      3695      3605
 -1      3469    1    0    1
 -2      3595      3685      3695      3605      3596      3686      3696      3606
 -1      3470    1    0    1
 -2      3596      3686      3696      3606      3597      3687      3697      3607
 -1      3471    1    0    1
 -2      3597      3687      3697      3607      3598      3688      3698      3608
 -1      3472    1    0    1
 -2      3598      3688      3698      3608      3599      3689      3699      3609
 -1      3473    1    0    1
 -2      3599      3689      3699      3609      3600      3690      3700      3610
 -1      3474    1    0    1
 -2      3600      3690      3700      3610      3601      3691      3701      3611
 -1      3475    1    0    1
 -2      3601      3691      3701      3611      3602      3692      3702      3612
 -1      3476    1    0    1
 -2      3602      3692      3702      3612      1433      1442      1443      1434
 -1      3477    1    0    1
 -2       413       422       423       414      3603      3693      3703      3613
 -1      3478    1    0    1
 -2      3603      3693      3703      3613      3604      3694      3704      3614
 -1      3479    1    0    1
 -2      3604      3694      3704      3614      3605      3695      3705      3615
 -1      3480    1    0    1
 -2      3605      3695      3705      3615      3606      3696      3706      3616
 -1      3481    1    0    1
 -2      3606      3696      3706      3616      3607      3697      3707      3617
 -1      3482    1    0    1
 -2      3607      3697      3707      3617      3608      3698      3708      3618
 -1      3483    1    0    1
 -2      3608      3698      3708      3618      3609      3699      3709      3619
 -1      3484    1    0    1
 -2      3609      3699      3709      3619      3610      3700      3710      3620
 -1      3485    1    0    1
 -2      3610      3700      3710      3620      3611      3701      3711      3621
 -1      3486    1    0    1
 -2      3611      3701      3711      3621      3612      3702      3712      3622
 -1      3487    1    0    1
 -2      3612      3702      3712      3622      1434      1443      1444      1435
 -1      3488    1    0    1
 -2       414       423       424       415      3613      3703      3713      3623
 -1      3489    1    0    1
 -2      3613      3703      3713      3623      3614      3704      3714      3624
 -1      3490    1    0    1
 -2      3614      3704      3714      3624      3615      3705      3715      3625
 -1      3491    1    0    1
 -2      3615      3705      3715      3625      3616      3706      3716      3626
 -1      3492    1    0    1
 -2      3616      3706      3716      3626      3617      3707      3717      3627
 -1      3493    1    0    1
 -2      3617      3707      3717      3627      3618      3708      3718      3628
 -1      3494    1    0    1
 -2      3618      3708      3718      3628      3619      3709      3719      3629
 -1      3495    1    0    1
 -2      3619      3709      3719      3629      3620      3710      3720      3630
 -1      3496    1    0    1
 -2      3620      3710      3720      3630      3621      3711      3721      3631
 -1      3497    1    0    1
 -2      3621      3711      3721      3631      3622      3712      3722      3632
 -1      3498    1    0    1
 -2      3622      3712      3722      3632      1435      1444      1445      1436
 -1      3499    1    0    1
 -2       415       424       425       416      3623      3713      3723      3633
 -1      3500    1    0    1
 -2      3623      3713      3723      3633      3624      3714      3724      3634
 -1      3501    1    0    1
 -2      3624      3714      3724      3634      3625      3715      3725      3635
 -1      3502    1    0    1
 -2      3625      3715      3725      3635      3626      3716      3726      3636
 -1      3503    1    0    1
 -2      3626      3716      3726      3636      3627      3717      3727      3637
 -1      3504    1    0    1
 -2      3627      3717      3727      3637      3628      3718      3728      3638
 -1      3505    1    0    1
 -2      3628      3718      3728      3638      3629      3719      3729      3639
 -1      3506    1    0    1
 -2      3629      3719      3729      3639      3630      3720      3730      3640
 -1      3507    1    0    1
 -2      3630      3720      3730      3640      3631      3721      3731      3641
 -1      3508    1    0    1
 -2      3631      3721      3731      3641      3632      3722      3732      3642
 -1      3509    1    0    1
 -2      3632      3722      3732      3642      1436      1445      1446      1437
 -1      3510    1    0    1
 -2       416       425        51        52      3633      3723       882       892
 -1      3511    1    0    1
 -2      3633      3723       882       892      3634      3724       883       893
 -1      3512    1    0    1
 -2      3634      3724       883       893      3635      3725       884       894
 -1      3513    1    0    1
 -2      3635      3725       884       894      3636      3726       885       895
 -1      3514    1    0    1
 -2      3636      3726       885       895      3637      3727       886       896
 -1      3515    1    0    1
 -2      3637      3727       886       896      3638      3728       887       897
 -1      3516    1    0    1
 -2      3638      3728       887       897      3639      3729       888       898
 -1      3517    1    0    1
 -2      3639      3729       888       898      3640      3730       889       899
 -1      3518    1    0    1
 -2      3640      3730       889       899      3641      3731       890       900
 -1      3519    1    0    1
 -2      3641      3731       890       900      3642      3732       891       901
 -1      3520    1    0    1
 -2      3642      3732       891       901      1437      1446       127       128
 -1      3521    1    0    1
 -2        33        34       426       417       702       712      3733      3643
 -1      3522    1    0    1
 -2       702       712      3733      3643       703       713      3734      3644
 -1      3523    1    0    1
 -2       703       713      3734      3644       704       714      3735      3645
 -1      3524    1    0    1
 -2       704       714      3735      3645       705       715      3736      3646
 -1      3525    1    0    1
 -2       705       715      3736      3646       706       716      3737      3647
 -1      3526    1    0    1
 -2       706       716      3737      3647       707       717      3738      3648
 -1      3527    1    0    1
 -2       707       717      3738      3648       708       718      3739      3649
 -1      3528    1    0    1
 -2       708       718      3739      3649       709       719      3740      3650
 -1      3529    1    0    1
 -2       709       719      3740      3650       710       720      3741      3651
 -1      3530    1    0    1
 -2       710       720      3741      3651       711       721      3742      3652
 -1      3531    1    0    1
 -2       711       721      3742      3652       109       110      1447      1438
 -1      3532    1    0    1
 -2       417       426       427       418      3643      3733      3743      3653
 -1      3533    1    0    1
 -2      3643      3733      3743      3653      3644      3734      3744      3654
 -1      3534    1    0    1
 -2      3644      3734      3744      3654      3645      3735      3745      3655
 -1      3535    1    0    1
 -2      3645      3735      3745      3655      3646      3736      3746      3656
 -1      3536    1    0    1
 -2      3646      3736      3746      3656      3647      3737      3747      3657
 -1      3537    1    0    1
 -2      3647      3737      3747      3657      3648      3738      3748      3658
 -1      3538    1    0    1
 -2      3648      3738      3748      3658      3649      3739      3749      3659
 -1      3539    1    0    1
 -2      3649      3739      3749      3659      3650      3740      3750      3660
 -1      3540    1    0    1
 -2      3650      3740      3750      3660      3651      3741      3751      3661
 -1      3541    1    0    1
 -2      3651      3741      3751      3661      3652      3742      3752      3662
 -1      3542    1    0    1
 -2      3652      3742      3752      3662      1438      1447      1448      1439
 -1      3543    1    0    1
 -2       418       427       428       419      3653      3743      3753      3663
 -1      3544    1    0    1
 -2      3653      3743      3753      3663      3654      3744      3754      3664
 -1      3545    1    0    1
 -2      3654      3744      3754      3664      3655      3745      3755      3665
 -1      3546    1    0    1
 -2      3655      3745      3755      3665      3656      3746      3756      3666
 -1      3547    1    0    1
 -2      3656      3746      3756      3666      3657      3747      3757      3667
 -1      3548    1    0    1
 -2      3657      3747      3757      3667      3658      3748      3758      3668
 -1      3549    1    0    1
 -2      3658      3748      3758      3668      3659      3749      3759      3669
 -1      3550    1    0    1
 -2      3659      3749      3759      3669      3660      3750      3760      3670
 -1      3551    1    0    1
 -2      3660      3750      3760      3670      3661      3751      3761      3671
 -1      3552    1    0    1
 -2      3661      3751      3761      3671      3662      3752      3762      3672
 -1      3553    1    0    1
 -2      3662      3752      3762      3672      1439      1448      1449      1440
 -1      3554    1    0    1
 -2       419       428       429       420      3663      3753      3763      3673
 -1      3555    1    0    1
 -2      3663      3753      3763      3673      3664      3754      3764      3674
 -1      3556    1    0    1
 -2      3664      3754      3764      3674      3665      3755      3765      3675
 -1      3557    1    0    1
 -2      3665      3755      3765      3675      3666      3756      3766      3676
 -1      3558    1    0    1
 -2      3666      3756      3766      3676      3667      3757      3767      3677
 -1      3559    1    0    1
 -2      3667      3757      3767      3677      3668      3758      3768      3678
 -1      3560    1    0    1
 -2      3668      3758      3768      3678      3669      3759      3769      3679
 -1      3561    1    0    1
 -2      3669      3759      3769      3679      3670      3760      3770      3680
 -1      3562    1    0    1
 -2      3670      3760      3770      3680      3671      3761      3771      3681
 -1      3563    1    0    1
 -2      3671      3761      3771      3681      3672      3762      3772      3682
 -1      3564    1    0    1
 -2      3672      3762      3772      3682      1440      1449      1450      1441
 -1      3565    1    0    1
 -2       420       429       430       421      3673      3763      3773      3683
 -1      3566    1    0    1
 -2      3673      3763      3773      3683      3674      3764      3774      3684
 -1      3567    1    0    1
 -2      3674      3764      3774      3684      3675      3765      3775      3685
 -1      3568    1    0    1
 -2      3675      3765      3775      3685      3676      3766      3776      3686
 -1      3569    1    0    1
 -2      3676      3766      3776      3686      3677      3767      3777      3687
 -1      3570    1    0    1
 -2      3677      3767      3777      3687      3678      3768      3778      3688
 -1      3571    1    0    1
 -2      3678      3768      3778      3688      3679      3769      3779      3689
 -1      3572    1    0    1
 -2      3679      3769      3779      3689      3680      3770      3780      3690
 -1      3573    1    0    1
 -2      3680      3770      3780      3690      3681      3771      3781      3691
 -1      3574    1    0    1
 -2      3681      3771      3781      3691      3682      3772      3782      3692
 -1      3575    1    0    1
 -2      3682      3772      3782      3692      1441      1450      1451      1442
 -1      3576    1    0    1
 -2       421       430       431       422      3683      3773      3783      3693
 -1      3577    1    0    1
 -2      3683      3773      3783      3693      3684      3774      3784      3694
 -1      3578    1    0    1
 -2      3684      3774      3784      3694      3685      3775      3785      3695
 -1      3579    1    0    1
 -2      3685      3775      3785      3695      3686      3776      3786      3696
 -1      3580    1    0    1
 -2      3686      3776      3786      3696      3687      3777      3787      3697
 -1      3581    1    0    1
 -2      3687      3777      3787      3697      3688      3778      3788      3698
 -1      3582    1    0    1
 -2      3688      3778      3788      3698      3689      3779      3789      3699
 -1      3583    1    0    1
 -2      3689      3779      3789      3699      3690      3780      3790      3700
 -1      3584    1    0    1
 -2      3690      3780      3790      3700      3691      3781      3791      3701
 -1      3585    1    0    1
 -2      3691      3781      3791      3701      3692      3782      3792      3702
 -1      3586    1    0    1
 -2      3692      3782      3792      3702      1442      1451      1452      1443
 -1      3587    1    0    1
 -2       422       431       432       423      3693      3783      3793      3703
 -1      3588    1    0    1
 -2      3693      3783      3793      3703      3694      3784      3794      3704
 -1      3589    1    0    1
 -2      3694      3784      3794      3704      3695      3785      3795      3705
 -1      3590    1    0    1
 -2      3695      3785      3795      3705      3696      3786      3796      3706
 -1      3591    1    0    1
 -2      3696      3786      3796      3706      3697      3787      3797      3707
 -1      3592    1    0    1
 -2      3697      3787      3797      3707      3698      3788      3798      3708
 -1      3593    1    0    1
 -2      3698      3788      3798      3708      3699      3789      3799      3709
 -1      3594    1    0    1
 -2      3699      3789      3799      3709      3700      3790      3800      3710
 -1      3595    1    0    1
 -2      3700      3790      3800      3710      3701      3791      3801      3711
 -1      3596    1    0    1
 -2      3701      3791      3801      3711      3702      3792      3802      3712
 -1      3597    1    0    1
 -2      3702      3792      3802      3712      1443      1452      1453      1444
 -1      3598    1    0    1
 -2       423       432       433       424      3703      3793      3803      3713
 -1      3599    1    0    1
 -2      3703      3793      3803      3713      3704      3794      3804      3714
 -1      3600    1    0    1
 -2      3704      3794      3804      3714      3705      3795      3805      3715
 -1      3601    1    0    1
 -2      3705      3795      3805      3715      3706      3796      3806      3716
 -1      3602    1    0    1
 -2      3706      3796      3806      3716      3707      3797      3807      3717
 -1      3603    1    0    1
 -2      3707      3797      3807      3717      3708      3798      3808      3718
 -1      3604    1    0    1
 -2      3708      3798      3808      3718      3709      3799      3809      3719
 -1      3605    1    0    1
 -2      3709      3799      3809      3719      3710      3800      3810      3720
 -1      3606    1    0    1
 -2      3710      3800      3810      3720      3711      3801      3811      3721
 -1      3607    1    0    1
 -2      3711      3801      3811      3721      3712      3802      3812      3722
 -1      3608    1    0    1
 -2      3712      3802      3812      3722      1444      1453      1454      1445
 -1      3609    1    0    1
 -2       424       433       434       425      3713      3803      3813      3723
 -1      3610    1    0    1
 -2      3713      3803      3813      3723      3714      3804      3814      3724
 -1      3611    1    0    1
 -2      3714      3804      3814      3724      3715      3805      3815      3725
 -1      3612    1    0    1
 -2      3715      3805      3815      3725      3716      3806      3816      3726
 -1      3613    1    0    1
 -2      3716      3806      3816      3726      3717      3807      3817      3727
 -1      3614    1    0    1
 -2      3717      3807      3817      3727      3718      3808      3818      3728
 -1      3615    1    0    1
 -2      3718      3808      3818      3728      3719      3809      3819      3729
 -1      3616    1    0    1
 -2      3719      3809      3819      3729      3720      3810      3820      3730
 -1      3617    1    0    1
 -2      3720      3810      3820      3730      3721      3811      3821      3731
 -1      3618    1    0    1
 -2      3721      3811      3821      3731      3722      3812      3822      3732
 -1      3619    1    0    1
 -2      3722      3812      3822      3732      1445      1454      1455      1446
 -1      3620    1    0    1
 -2       425       434        50        51      3723      3813       872       882
 -1      3621    1    0    1
 -2      3723      3813       872       882      3724      3814       873       883
 -1      3622    1    0    1
 -2      3724      3814       873       883      3725      3815       874       884
 -1      3623    1    0    1
 -2      3725      3815       874       884      3726      3816       875       885
 -1      3624    1    0    1
 -2      3726      3816       875       885      3727      3817       876       886
 -1      3625    1    0    1
 -2      3727      3817       876       886      3728      3818       877       887
 -1      3626    1    0    1
 -2      3728      3818       877       887      3729      3819       878       888
 -1      3627    1    0    1
 -2      3729      3819       878       888      3730      3820       879       889
 -1      3628    1    0    1
 -2      3730      3820       879       889      3731      3821       880       890
 -1      3629    1    0    1
 -2      3731      3821       880       890      3732      3822       881       891
 -1      3630    1    0    1
 -2      3732      3822       881       891      1446      1455       126       127
 -1      3631    1    0    1
 -2        34        35       435       426       712       722      3823      3733
 -1      3632    1    0    1
 -2       712       722      3823      3733       713       723      3824      3734
 -1      3633    1    0    1
 -2       713       723      3824      3734       714       724      3825      3735
 -1      3634    1    0    1
 -2       714       724      3825      3735       715       725      3826      3736
 -1      3635    1    0    1
 -2       715       725      3826      3736       716       726      3827      3737
 -1      3636    1    0    1
 -2       716       726      3827      3737       717       727      3828      3738
 -1      3637    1    0    1
 -2       717       727      3828      3738       718       728      3829      3739
 -1      3638    1    0    1
 -2       718       728      3829      3739       719       729      3830      3740
 -1      3639    1    0    1
 -2       719       729      3830      3740       720       730      3831      3741
 -1      3640    1    0    1
 -2       720       730      3831      3741       721       731      3832      3742
 -1      3641    1    0    1
 -2       721       731      3832      3742       110       111      1456      1447
 -1      3642    1    0    1
 -2       426       435       436       427      3733      3823      3833      3743
 -1      3643    1    0    1
 -2      3733      3823      3833      3743      3734      3824      3834      3744
 -1      3644    1    0    1
 -2      3734      3824      3834      3744      3735      3825      3835      3745
 -1      3645    1    0    1
 -2      3735      3825      3835      3745      3736      3826      3836      3746
 -1      3646    1    0    1
 -2      3736      3826      3836      3746      3737      3827      3837      3747
 -1      3647    1    0    1
 -2      3737      3827      3837      3747      3738      3828      3838      3748
 -1      3648    1    0    1
 -2      3738      3828      3838      3748      3739      3829      3839      3749
 -1      3649    1    0    1
 -2      3739      3829      3839      3749      3740      3830      3840      3750
 -1      3650    1    0    1
 -2      3740      3830      3840      3750      3741      3831      3841      3751
 -1      3651    1    0    1
 -2      3741      3831      3841      3751      3742      3832      3842      3752
 -1      3652    1    0    1
 -2      3742      3832      3842      3752      1447      1456      1457      1448
 -1      3653    1    0    1
 -2       427       436       437       428      3743      3833      3843      3753
 -1      3654    1    0    1
 -2      3743      3833      3843      3753      3744      3834      3844      3754
 -1      3655    1    0    1
 -2      3744      3834      3844      3754      3745      3835      3845      3755
 -1      3656    1    0    1
 -2      3745      3835      3845      3755      3746      3836      3846      3756
 -1      3657    1    0    1
 -2      3746      3836      3846      3756      3747      3837      3847      3757
 -1      3658    1    0    1
 -2      3747      3837      3847      3757      3748      3838      3848      3758
 -1      3659    1    0    1
 -2      3748      3838      3848      3758      3749      3839      3849      3759
 -1      3660    1    0    1
 -2      3749      3839      3849      3759      3750      3840      3850      3760
 -1      3661    1    0    1
 -2      3750      3840      3850      3760      3751      3841      3851      3761
 -1      3662    1    0    1
 -2      3751      3841      3851      3761      3752      3842      3852      3762
 -1      3663    1    0    1
 -2      3752      3842      3852      3762      1448      1457      1458      1449
 -1      3664    1    0    1
 -2       428       437       438       429      3753      3843      3853      3763
 -1      3665    1    0    1
 -2      3753      3843      3853      3763      3754      3844      3854      3764
 -1      3666    1    0    1
 -2      3754      3844      3854      3764      3755      3845      3855      3765
 -1      3667    1    0    1
 -2      3755      3845      3855      3765      3756      3846      3856      3766
 -1      3668    1    0    1
 -2      3756      3846      3856      3766      3757      3847      3857      3767
 -1      3669    1    0    1
 -2      3757      3847      3857      3767      3758      3848      3858      3768
 -1      3670    1    0    1
 -2      3758      3848      3858      3768      3759      3849      3859      3769
 -1      3671    1    0    1
 -2      3759      3849      3859      3769      3760      3850      3860      3770
 -1      3672    1    0    1
 -2      3760      3850      3860      3770      3761      3851      3861      3771
 -1      3673    1    0    1
 -2      3761      3851      3861      3771      3762      3852      3862      3772
 -1      3674    1    0    1
 -2      3762      3852      3862      3772      1449      1458      1459      1450
 -1      3675    1    0    1
 -2       429       438       439       430      3763      3853      3863      3773
 -1      3676    1    0    1
 -2      3763      3853      3863      3773      3764      3854      3864      3774
 -1      3677    1    0    1
 -2      3764      3854      3864      3774      3765      3855      3865      3775
 -1      3678    1    0    1
 -2      3765      3855      3865      3775      3766      3856      3866      3776
 -1      3679    1    0    1
 -2      3766      3856      3866      3776      3767      3857      3867      3777
 -1      3680    1    0    1
 -2      3767      3857      3867      3777      3768      3858      3868      3778
 -1      3681    1    0    1
 -2      3768      3858      3868      3778      3769      3859      3869      3779
 -1      3682    1    0    1
 -2      3769      3859      3869      3779      3770      3860      3870      3780
 -1      3683    1    0    1
 -2      3770      3860      3870      3780      3771      3861      3871      3781
 -1      3684    1    0    1
 -2      3771      3861      3871      3781      3772      3862      3872      3782
 -1      3685    1    0    1
 -2      3772      3862      3872      3782      1450      1459      1460      1451
 -1      3686    1    0    1
 -2       430       439       440       431      3773      3863      3873      3783
 -1      3687    1    0    1
 -2      3773      3863      3873      3783      3774      3864      3874      3784
 -1      3688    1    0    1
 -2      3774      3864      3874      3784      3775      3865      3875      3785
 -1      3689    1    0    1
 -2      3775      3865      3875      3785      3776      3866      3876      3786
 -1      3690    1    0    1
 -2      3776      3866      3876      3786      3777      3867      3877      3787
 -1      3691    1    0    1
 -2      3777      3867      3877      3787      3778      3868      3878      3788
 -1      3692    1    0    1
 -2      3778      3868      3878      3788      3779      3869      3879      3789
 -1      3693    1    0    1
 -2      3779      3869      3879      3789      3780      3870      3880      3790
 -1      3694    1    0    1
 -2      3780      3870      3880      3790      3781      3871      3881      3791
 -1      3695    1    0    1
 -2      3781      3871      3881      3791      3782      3872      3882      3792
 -1      3696    1    0    1
 -2      3782      3872      3882      3792      1451      1460      1461      1452
 -1      3697    1    0    1
 -2       431       440       441       432      3783      3873      3883      3793
 -1      3698    1    0    1
 -2      3783      3873      3883      3793      3784      3874      3884      3794
 -1      3699    1    0    1
 -2      3784      3874      3884      3794      3785      3875      3885      3795
 -1      3700    1    0    1
 -2      3785      3875      3885      3795      3786      3876      3886      3796
 -1      3701    1    0    1
 -2      3786      3876      3886      3796      3787      3877      3887      3797
 -1      3702    1    0    1
 -2      3787      3877      3887      3797      3788      3878      3888      3798
 -1      3703    1    0    1
 -2      3788      3878      3888      3798      3789      3879      3889      3799
 -1      3704    1    0    1
 -2      3789      3879      3889      3799      3790      3880      3890      3800
 -1      3705    1    0    1
 -2      3790      3880      3890      3800      3791      3881      3891      3801
 -1      3706    1    0    1
 -2      3791      3881      3891      3801      3792      3882      3892      3802
 -1      3707    1    0    1
 -2      3792      3882      3892      3802      1452      1461      1462      1453
 -1      3708    1    0    1
 -2       432       441       442       433      3793      3883      3893      3803
 -1      3709    1    0    1
 -2      3793      3883      3893      3803      3794      3884      3894      3804
 -1      3710    1    0    1
 -2      3794      3884      3894      3804      3795      3885      3895      3805
 -1      3711    1    0    1
 -2      3795      3885      3895      3805      3796      3886      3896      3806
 -1      3712    1    0    1
 -2      3796      3886      3896      3806      3797      3887      3897      3807
 -1      3713    1    0    1
 -2      3797      3887      3897      3807      3798      3888      3898      3808
 -1      3714    1    0    1
 -2      3798      3888      3898      3808      3799      3889      3899      3809
 -1      3715    1    0    1
 -2      3799      3889      3899      3809      3800      3890      3900      3810
 -1      3716    1    0    1
 -2      3800      3890      3900      3810      3801      3891      3901      3811
 -1      3717    1    0    1
 -2      3801      3891      3901      3811      3802      3892      3902      3812
 -1      3718    1    0    1
 -2      3802      3892      3902      3812      1453      1462      1463      1454
 -1      3719    1    0    1
 -2       433       442       443       434      3803      3893      3903      3813
 -1      3720    1    0    1
 -2      3803      3893      3903      3813      3804      3894      3904      3814
 -1      3721    1    0    1
 -2      3804      3894      3904      3814      3805      3895      3905      3815
 -1      3722    1    0    1
 -2      3805      3895      3905      3815      3806      3896      3906      3816
 -1      3723    1    0    1
 -2      3806      3896      3906      3816      3807      3897      3907      3817
 -1      3724    1    0    1
 -2      3807      3897      3907      3817      3808      3898      3908      3818
 -1      3725    1    0    1
 -2      3808      3898      3908      3818      3809      3899      3909      3819
 -1      3726    1    0    1
 -2      3809      3899      3909      3819      3810      3900      3910      3820
 -1      3727    1    0    1
 -2      3810      3900      3910      3820      3811      3901      3911      3821
 -1      3728    1    0    1
 -2      3811      3901      3911      3821      3812      3902      3912      3822
 -1      3729    1    0    1
 -2      3812      3902      3912      3822      1454      1463      1464      1455
 -1      3730    1    0    1
 -2       434       443        49        50      3813      3903       862       872
 -1      3731    1    0    1
 -2      3813      3903       862       872      3814      3904       863       873
 -1      3732    1    0    1
 -2      3814      3904       863       873      3815      3905       864       874
 -1      3733    1    0    1
 -2      3815      3905       864       874      3816      3906       865       875
 -1      3734    1    0    1
 -2      3816      3906       865       875      3817      3907       866       876
 -1      3735    1    0    1
 -2      3817      3907       866       876      3818      3908       867       877
 -1      3736    1    0    1
 -2      3818      3908       867       877      3819      3909       868       878
 -1      3737    1    0    1
 -2      3819      3909       868       878      3820      3910       869       879
 -1      3738    1    0    1
 -2      3820      3910       869       879      3821      3911       870       880
 -1      3739    1    0    1
 -2      3821      3911       870       880      3822      3912       871       881
 -1      3740    1    0    1
 -2      3822      3912       871       881      1455      1464       125       126
 -1      3741    1    0    1
 -2        35        36       444       435       722       732      3913      3823
 -1      3742    1    0    1
 -2       722       732      3913      3823       723       733      3914      3824
 -1      3743    1    0    1
 -2       723       733      3914      3824       724       734      3915      3825
 -1      3744    1    0    1
 -2       724       734      3915      3825       725       735      3916      3826
 -1      3745    1    0    1
 -2       725       735      3916      3826       726       736      3917      3827
 -1      3746    1    0    1
 -2       726       736      3917      3827       727       737      3918      3828
 -1      3747    1    0    1
 -2       727       737      3918      3828       728       738      3919      3829
 -1      3748    1    0    1
 -2       728       738      3919      3829       729       739      3920      3830
 -1      3749    1    0    1
 -2       729       739      3920      3830       730       740      3921      3831
 -1      3750    1    0    1
 -2       730       740      3921      3831       731       741      3922      3832
 -1      3751    1    0    1
 -2       731       741      3922      3832       111       112      1465      1456
 -1      3752    1    0    1
 -2       435       444       445       436      3823      3913      3923      3833
 -1      3753    1    0    1
 -2      3823      3913      3923      3833      3824      3914      3924      3834
 -1      3754    1    0    1
 -2      3824      3914      3924      3834      3825      3915      3925      3835
 -1      3755    1    0    1
 -2      3825      3915      3925      3835      3826      3916      3926      3836
 -1      3756    1    0    1
 -2      3826      3916      3926      3836      3827      3917      3927      3837
 -1      3757    1    0    1
 -2      3827      3917      3927      3837      3828      3918      3928      3838
 -1      3758    1    0    1
 -2      3828      3918      3928      3838      3829      3919      3929      3839
 -1      3759    1    0    1
 -2      3829      3919      3929      3839      3830      3920      3930      3840
 -1      3760    1    0    1
 -2      3830      3920      3930      3840      3831      3921      3931      3841
 -1      3761    1    0    1
 -2      3831      3921      3931      3841      3832      3922      3932      3842
 -1      3762    1    0    1
 -2      3832      3922      3932      3842      1456      1465      1466      1457
 -1      3763    1    0    1
 -2       436       445       446       437      3833      3923      3933      3843
 -1      3764    1    0    1
 -2      3833      3923      3933      3843      3834      3924      3934      3844
 -1      3765    1    0    1
 -2      3834      3924      3934      3844      3835      3925      3935      3845
 -1      3766    1    0    1
 -2      3835      3925      3935      3845      3836      3926      3936      3846
 -1      3767    1    0    1
 -2      3836      3926      3936      3846      3837      3927      3937      3847
 -1      3768    1    0    1
 -2      3837      3927      3937      3847      3838      3928      3938      3848
 -1      3769    1    0    1
 -2      3838      3928      3938      3848      3839      3929      3939      3849
 -1      3770    1    0    1
 -2      3839      3929      3939      3849      3840      3930      3940      3850
 -1      3771    1    0    1
 -2      3840      3930      3940      3850      3841      3931      3941      3851
 -1      3772    1    0    1
 -2      3841      3931      3941      3851      3842      3932      3942      3852
 -1      3773    1    0    1
 -2      3842      3932      3942      3852      1457      1466      1467      1458
 -1      3774    1    0    1
 -2       437       446       447       438      3843      3933      3943      3853
 -1      3775    1    0    1
 -2      3843      3933      3943      3853      3844      3934      3944      3854
 -1      3776    1    0    1
 -2      3844      3934      3944      3854      3845      3935      3945      3855
 -1      3777    1    0    1
 -2      3845      3935      3945      3855      3846      3936      3946      3856
 -1      3778    1    0    1
 -2      3846      3936      3946      3856      3847      3937      3947      3857
 -1      3779    1    0    1
 -2      3847      3937      3947      3857      3848      3938      3948      3858
 -1      3780    1    0    1
 -2      3848      3938      3948      3858      3849      3939      3949      3859
 -1      3781    1    0    1
 -2      3849      3939      3949      3859      3850      3940      3950      3860
 -1      3782    1    0    1
 -2      3850      3940      3950      3860      3851      3941      3951      3861
 -1      3783    1    0    1
 -2      3851      3941      3951      3861      3852      3942      3952      3862
 -1      3784    1    0    1
 -2      3852      3942      3952      3862      1458      1467      1468      1459
 -1      3785    1    0    1
 -2       438       447       448       439      3853      3943      3953      3863
 -1      3786    1    0    1
 -2      3853      3943      3953      3863      3854      3944      3954      3864
 -1      3787    1    0    1
 -2      3854      3944      3954      3864      3855      3945      3955      3865
 -1      3788    1    0    1
 -2      3855      3945      3955      3865      3856      3946      3956      3866
 -1      3789    1    0    1
 -2      3856      3946      3956      3866      3857      3947      3957      3867
 -1      3790    1    0    1
 -2      3857      3947      3957      3867      3858      3948      3958      3868
 -1      3791    1    0    1
 -2      3858      3948      3958      3868      3859      3949      3959      3869
 -1      3792    1    0    1
 -2      3859      3949      3959      3869      3860      3950      3960      3870
 -1      3793    1    0    1
 -2      3860      3950      3960      3870      3861      3951      3961      3871
 -1      3794    1    0    1
 -2      3861      3951      3961      3871      3862      3952      3962      3872
 -1      3795    1    0    1
 -2      3862      3952      3962      3872      1459      1468      1469      1460
 -1      3796    1    0    1
 -2       439       448       449       440      3863      3953      3963      3873
 -1      3797    1    0    1
 -2      3863      3953      3963      3873      3864      3954      3964      3874
 -1      3798    1    0    1
 -2      3864      3954      3964      3874      3865      3955      3965      3875
 -1      3799    1    0    1
 -2      3865      3955      3965      3875      3866      3956      3966      3876
 -1      3800    1    0    1
 -2      3866      3956      3966      3876      3867      3957      3967      3877
 -1      3801    1    0    1
 -2      3867      3957      3967      3877      3868      3958      3968      3878
 -1      3802    1    0    1
 -2      3868      3958      3968      3878      3869      3959      3969      3879
 -1      3803    1    0    1
 -2      3869      3959      3969      3879      3870      3960      3970      3880
 -1      3804    1    0    1
 -2      3870      3960      3970      3880      3871      3961      3971      3881
 -1      3805    1    0    1
 -2      3871      3961      3971      3881      3872      3962      3972      3882
 -1      3806    1    0    1
 -2      3872      3962      3972      3882      1460      1469      1470      1461
 -1      3807    1    0    1
 -2       440       449       450       441      3873      3963      3973      3883
 -1      3808    1    0    1
 -2      3873      3963      3973      3883      3874      3964      3974      3884
 -1      3809    1    0    1
 -2      3874      3964      3974      3884      3875      3965      3975      3885
 -1      3810    1    0    1
 -2      3875      3965      3975      3885      3876      3966      3976      3886
 -1      3811    1    0    1
 -2      3876      3966      3976      3886      3877      3967      3977      3887
 -1      3812    1    0    1
 -2      3877      3967      3977      3887      3878      3968      3978      3888
 -1      3813    1    0    1
 -2      3878      3968      3978      3888      3879      3969      3979      3889
 -1      3814    1    0    1
 -2      3879      3969      3979      3889      3880      3970      3980      3890
 -1      3815    1    0    1
 -2      3880      3970      3980      3890      3881      3971      3981      3891
 -1      3816    1    0    1
 -2      3881      3971      3981      3891      3882      3972      3982      3892
 -1      3817    1    0    1
 -2      3882      3972      3982      3892      1461      1470      1471      1462
 -1      3818    1    0    1
 -2       441       450       451       442      3883      3973      3983      3893
 -1      3819    1    0    1
 -2      3883      3973      3983      3893      3884      3974      3984      3894
 -1      3820    1    0    1
 -2      3884      3974      3984      3894      3885      3975      3985      3895
 -1      3821    1    0    1
 -2      3885      3975      3985      3895      3886      3976      3986      3896
 -1      3822    1    0    1
 -2      3886      3976      3986      3896      3887      3977      3987      3897
 -1      3823    1    0    1
 -2      3887      3977      3987      3897      3888      3978      3988      3898
 -1      3824    1    0    1
 -2      3888      3978      3988      3898      3889      3979      3989      3899
 -1      3825    1    0    1
 -2      3889      3979      3989      3899      3890      3980      3990      3900
 -1      3826    1    0    1
 -2      3890      3980      3990      3900      3891      3981      3991      3901
 -1      3827    1    0    1
 -2      3891      3981      3991      3901      3892      3982      3992      3902
 -1      3828    1    0    1
 -2      3892      3982      3992      3902      1462      1471      1472      1463
 -1      3829    1    0    1
 -2       442       451       452       443      3893      3983      3993      3903
 -1      3830    1    0    1
 -2      3893      3983      3993      3903      3894      3984      3994      3904
 -1      3831    1    0    1
 -2      3894      3984      3994      3904      3895      3985      3995      3905
 -1      3832    1    0    1
 -2      3895      3985      3995      3905      3896      3986      3996      3906
 -1      3833    1    0    1
 -2      3896      3986      3996      3906      3897      3987      3997      3907
 -1      3834    1    0    1
 -2      3897      3987      3997      3907      3898      3988      3998      3908
 -1      3835    1    0    1
 -2      3898      3988      3998      3908      3899      3989      3999      3909
 -1      3836    1    0    1
 -2      3899      3989      3999      3909      3900      3990      4000      3910
 -1      3837    1    0    1
 -2      3900      3990      4000      3910      3901      3991      4001      3911
 -1      3838    1    0    1
 -2      3901      3991      4001      3911      3902      3992      4002      3912
 -1      3839    1    0    1
 -2      3902      3992      4002      3912      1463      1472      1473      1464
 -1      3840    1    0    1
 -2       443       452        48        49      3903      3993       852       862
 -1      3841    1    0    1
 -2      3903      3993       852       862      3904      3994       853       863
 -1      3842    1    0    1
 -2      3904      3994       853       863      3905      3995       854       864
 -1      3843    1    0    1
 -2      3905      3995       854       864      3906      3996       855       865
 -1      3844    1    0    1
 -2      3906      3996       855       865      3907      3997       856       866
 -1      3845    1    0    1
 -2      3907      3997       856       866      3908      3998       857       867
 -1      3846    1    0    1
 -2      3908      3998       857       867      3909      3999       858       868
 -1      3847    1    0    1
 -2      3909      3999       858       868      3910      4000       859       869
 -1      3848    1    0    1
 -2      3910      4000       859       869      3911      4001       860       870
 -1      3849    1    0    1
 -2      3911      4001       860       870      3912      4002       861       871
 -1      3850    1    0    1
 -2      3912      4002       861       871      1464      1473       124       125
 -1      3851    1    0    1
 -2        36        37       453       444       732       742      4003      3913
 -1      3852    1    0    1
 -2       732       742      4003      3913       733       743      4004      3914
 -1      3853    1    0    1
 -2       733       743      4004      3914       734       744      4005      3915
 -1      3854    1    0    1
 -2       734       744      4005      3915       735       745      4006      3916
 -1      3855    1    0    1
 -2       735       745      4006      3916       736       746      4007      3917
 -1      3856    1    0    1
 -2       736       746      4007      3917       737       747      4008      3918
 -1      3857    1    0    1
 -2       737       747      4008      3918       738       748      4009      3919
 -1      3858    1    0    1
 -2       738       748      4009      3919       739       749      4010      3920
 -1      3859    1    0    1
 -2       739       749      4010      3920       740       750      4011      3921
 -1      3860    1    0    1
 -2       740       750      4011      3921       741       751      4012      3922
 -1      3861    1    0    1
 -2       741       751      4012      3922       112       113      1474      1465
 -1      3862    1    0    1
 -2       444       453       454       445      3913      4003      4013      3923
 -1      3863    1    0    1
 -2      3913      4003      4013      3923      3914      4004      4014      3924
 -1      3864    1    0    1
 -2      3914      4004      4014      3924      3915      4005      4015      3925
 -1      3865    1    0    1
 -2      3915      4005      4015      3925      3916      4006      4016      3926
 -1      3866    1    0    1
 -2      3916      4006      4016      3926      3917      4007      4017      3927
 -1      3867    1    0    1
 -2      3917      4007      4017      3927      3918      4008      4018      3928
 -1      3868    1    0    1
 -2      3918      4008      4018      3928      3919      4009      4019      3929
 -1      3869    1    0    1
 -2      3919      4009      4019      3929      3920      4010      4020      3930
 -1      3870    1    0    1
 -2      3920      4010      4020      3930      3921      4011      4021      3931
 -1      3871    1    0    1
 -2      3921      4011      4021      3931      3922      4012      4022      3932
 -1      3872    1    0    1
 -2      3922      4012      4022      3932      1465      1474      1475      1466
 -1      3873    1    0    1
 -2       445       454       455       446      3923      4013      4023      3933
 -1      3874    1    0    1
 -2      3923      4013      4023      3933      3924      4014      4024      3934
 -1      3875    1    0    1
 -2      3924      4014      4024      3934      3925      4015      4025      3935
 -1      3876    1    0    1
 -2      3925      4015      4025      3935      3926      4016      4026      3936
 -1      3877    1    0    1
 -2      3926      4016      4026      3936      3927      4017      4027      3937
 -1      3878    1    0    1
 -2      3927      4017      4027      3937      3928      4018      4028      3938
 -1      3879    1    0    1
 -2      3928      4018      4028      3938      3929      4019      4029      3939
 -1      3880    1    0    1
 -2      3929      4019      4029      3939      3930      4020      4030      3940
 -1      3881    1    0    1
 -2      3930      4020      4030      3940      3931      4021      4031      3941
 -1      3882    1    0    1
 -2      3931      4021      4031      3941      3932      4022      4032      3942
 -1      3883    1    0    1
 -2      3932      4022      4032      3942      1466      1475      1476      1467
 -1      3884    1    0    1
 -2       446       455       456       447      3933      4023      4033      3943
 -1      3885    1    0    1
 -2      3933      4023      4033      3943      3934      4024      4034      3944
 -1      3886    1    0    1
 -2      3934      4024      4034      3944      3935      4025      4035      3945
 -1      3887    1    0    1
 -2      3935      4025      4035      3945      3936      4026      4036      3946
 -1      3888    1    0    1
 -2      3936      4026      4036      3946      3937      4027      4037      3947
 -1      3889    1    0    1
 -2      3937      4027      4037      3947      3938      4028      4038      3948
 -1      3890    1    0    1
 -2      3938      4028      4038      3948      3939      4029      4039      3949
 -1      3891    1    0    1
 -2      3939      4029      4039      3949      3940      4030      4040      3950
 -1      3892    1    0    1
 -2      3940      4030      4040      3950      3941      4031      4041      3951
 -1      3893    1    0    1
 -2      3941      4031      4041      3951      3942      4032      4042      3952
 -1      3894    1    0    1
 -2      3942      4032      4042      3952      1467      1476      1477      1468
 -1      3895    1    0    1
 -2       447       456       457       448      3943      4033      4043      3953
 -1      3896    1    0    1
 -2      3943      4033      4043      3953      3944      4034      4044      3954
 -1      3897    1    0    1
 -2      3944      4034      4044      3954      3945      4035      4045      3955
 -1      3898    1    0    1
 -2      3945      4035      4045      3955      3946      4036      4046      3956
 -1      3899    1    0    1
 -2      3946      4036      4046      3956      3947      4037      4047      3957
 -1      3900    1    0    1
 -2      3947      4037      4047      3957      3948      4038      4048      3958
 -1      3901    1    0    1
 -2      3948      4038      4048      3958      3949      4039      4049      3959
 -1      3902    1    0    1
 -2      3949      4039      4049      3959      3950      4040      4050      3960
 -1      3903    1    0    1
 -2      3950      4040      4050      3960      3951      4041      4051      3961
 -1      3904    1    0    1
 -2      3951      4041      4051      3961      3952      4042      4052      3962
 -1      3905    1    0    1
 -2      3952      4042      4052      3962      1468      1477      1478      1469
 -1      3906    1    0    1
 -2       448       457       458       449      3953      4043      4053      3963
 -1      3907    1    0    1
 -2      3953      4043      4053      3963      3954      4044      4054      3964
 -1      3908    1    0    1
 -2      3954      4044      4054      3964      3955      4045      4055      3965
 -1      3909    1    0    1
 -2      3955      4045      4055      3965      3956      4046      4056      3966
 -1      3910    1    0    1
 -2      3956      4046      4056      3966      3957      4047      4057      3967
 -1      3911    1    0    1
 -2      3957      4047      4057      3967      3958      4048      4058      3968
 -1      3912    1    0    1
 -2      3958      4048      4058      3968      3959      4049      4059      3969
 -1      3913    1    0    1
 -2      3959      4049      4059      3969      3960      4050      4060      3970
 -1      3914    1    0    1
 -2      3960      4050      4060      3970      3961      4051      4061      3971
 -1      3915    1    0    1
 -2      3961      4051      4061      3971      3962      4052      4062      3972
 -1      3916    1    0    1
 -2      3962      4052      4062      3972      1469      1478      1479      1470
 -1      3917    1    0    1
 -2       449       458       459       450      3963      4053      4063      3973
 -1      3918    1    0    1
 -2      3963      4053      4063      3973      3964      4054      4064      3974
 -1      3919    1    0    1
 -2      3964      4054      4064      3974      3965      4055      4065      3975
 -1      3920    1    0    1
 -2      3965      4055      4065      3975      3966      4056      4066      3976
 -1      3921    1    0    1
 -2      3966      4056      4066      3976      3967      4057      4067      3977
 -1      3922    1    0    1
 -2      3967      4057      4067      3977      3968      4058      4068      3978
 -1      3923    1    0    1
 -2      3968      4058      4068      3978      3969      4059      4069      3979
 -1      3924    1    0    1
 -2      3969      4059      4069      3979      3970      4060      4070      3980
 -1      3925    1    0    1
 -2      3970      4060      4070      3980      3971      4061      4071      3981
 -1      3926    1    0    1
 -2      3971      4061      4071      3981      3972      4062      4072      3982
 -1      3927    1    0    1
 -2      3972      4062      4072      3982      1470      1479      1480      1471
 -1      3928    1    0    1
 -2       450       459       460       451      3973      4063      4073      3983
 -1      3929    1    0    1
 -2      3973      4063      4073      3983      3974      4064      4074      3984
 -1      3930    1    0    1
 -2      3974      4064      4074      3984      3975      4065      4075      3985
 -1      3931    1    0    1
 -2      3975      4065      4075      3985      3976      4066      4076      3986
 -1      3932    1    0    1
 -2      3976      4066      4076      3986      3977      4067      4077      3987
 -1      3933    1    0    1
 -2      3977      4067      4077      3987      3978      4068      4078      3988
 -1      3934    1    0    1
 -2      3978      4068      4078      3988      3979      4069      4079      3989
 -1      3935    1    0    1
 -2      3979      4069      4079      3989      3980      4070      4080      3990
 -1      3936    1    0    1
 -2      3980      4070      4080      3990      3981      4071      4081      3991
 -1      3937    1    0    1
 -2      3981      4071      4081      3991      3982      4072      4082      3992
 -1      3938    1    0    1
 -2      3982      4072      4082      3992      1471      1480      1481      1472
 -1      3939    1    0    1
 -2       451       460       461       452      3983      4073      4083      3993
 -1      3940    1    0    1
 -2      3983      4073      4083      3993      3984      4074      4084      3994
 -1      3941    1    0    1
 -2      3984      4074      4084      3994      3985      4075      4085      3995
 -1      3942    1    0    1
 -2      3985      4075      4085      3995      3986      4076      4086      3996
 -1      3943    1    0    1
 -2      3986      4076      4086      3996      3987      4077      4087      3997
 -1      3944    1    0    1
 -2      3987      4077      4087      3997      3988      4078      4088      3998
 -1      3945    1    0    1
 -2      3988      4078      4088      3998      3989      4079      4089      3999
 -1      3946    1    0    1
 -2      3989      4079      4089      3999      3990      4080      4090      4000
 -1      3947    1    0    1
 -2      3990      4080      4090      4000      3991      4081      4091      4001
 -1      3948    1    0    1
 -2      3991      4081      4091      4001      3992      4082      4092      4002
 -1      3949    1    0    1
 -2      3992      4082      4092      4002      1472      1481      1482      1473
 -1      3950    1    0    1
 -2       452       461        47        48      3993      4083       842       852
 -1      3951    1    0    1
 -2      3993      4083       842       852      3994      4084       843       853
 -1      3952    1    0    1
 -2      3994      4084       843       853      3995      4085       844       854
 -1      3953    1    0    1
 -2      3995      4085       844       854      3996      4086       845       855
 -1      3954    1    0    1
 -2      3996      4086       845       855      3997      4087       846       856
 -1      3955    1    0    1
 -2      3997      4087       846       856      3998      4088       847       857
 -1      3956    1    0    1
 -2      3998      4088       847       857      3999      4089       848       858
 -1      3957    1    0    1
 -2      3999      4089       848       858      4000      4090       849       859
 -1      3958    1    0    1
 -2      4000      4090       849       859      4001      4091       850       860
 -1      3959    1    0    1
 -2      4001      4091       850       860      4002      4092       851       861
 -1      3960    1    0    1
 -2      4002      4092       851       861      1473      1482       123       124
 -1      3961    1    0    1
 -2        37         2        38       453       742       171       752      4003
 -1      3962    1    0    1
 -2       742       171       752      4003       743       172       753      4004
 -1      3963    1    0    1
 -2       743       172       753      4004       744       173       754      4005
 -1      3964    1    0    1
 -2       744       173       754      4005       745       174       755      4006
 -1      3965    1    0    1
 -2       745       174       755      4006       746       175       756      4007
 -1      3966    1    0    1
 -2       746       175       756      4007       747       176       757      4008
 -1      3967    1    0    1
 -2       747       176       757      4008       748       177       758      4009
 -1      3968    1    0    1
 -2       748       177       758      4009       749       178       759      4010
 -1      3969    1    0    1
 -2       749       178       759      4010       750       179       760      4011
 -1      3970    1    0    1
 -2       750       179       760      4011       751       180       761      4012
 -1      3971    1    0    1
 -2       751       180       761      4012       113         6       114      1474
 -1      3972    1    0    1
 -2       453        38        39       454      4003       752       762      4013
 -1      3973    1    0    1
 -2      4003       752       762      4013      4004       753       763      4014
 -1      3974    1    0    1
 -2      4004       753       763      4014      4005       754       764      4015
 -1      3975    1    0    1
 -2      4005       754       764      4015      4006       755       765      4016
 -1      3976    1    0    1
 -2      4006       755       765      4016      4007       756       766      4017
 -1      3977    1    0    1
 -2      4007       756       766      4017      4008       757       767      4018
 -1      3978    1    0    1
 -2      4008       757       767      4018      4009       758       768      4019
 -1      3979    1    0    1
 -2      4009       758       768      4019      4010       759       769      4020
 -1      3980    1    0    1
 -2      4010       759       769      4020      4011       760       770      4021
 -1      3981    1    0    1
 -2      4011       760       770      4021      4012       761       771      4022
 -1      3982    1    0    1
 -2      4012       761       771      4022      1474       114       115      1475
 -1      3983    1    0    1
 -2       454        39        40       455      4013       762       772      4023
 -1      3984    1    0    1
 -2      4013       762       772      4023      4014       763       773      4024
 -1      3985    1    0    1
 -2      4014       763       773      4024      4015       764       774      4025
 -1      3986    1    0    1
 -2      4015       764       774      4025      4016       765       775      4026
 -1      3987    1    0    1
 -2      4016       765       775      4026      4017       766       776      4027
 -1      3988    1    0    1
 -2      4017       766       776      4027      4018       767       777      4028
 -1      3989    1    0    1
 -2      4018       767       777      4028      4019       768       778      4029
 -1      3990    1    0    1
 -2      4019       768       778      4029      4020       769       779      4030
 -1      3991    1    0    1
 -2      4020       769       779      4030      4021       770       780      4031
 -1      3992    1    0    1
 -2      4021       770       780      4031      4022       771       781      4032
 -1      3993    1    0    1
 -2      4022       771       781      4032      1475       115       116      1476
 -1      3994    1    0    1
 -2       455        40        41       456      4023       772       782      4033
 -1      3995    1    0    1
 -2      4023       772       782      4033      4024       773       783      4034
 -1      3996    1    0    1
 -2      4024       773       783      4034      4025       774       784      4035
 -1      3997    1    0    1
 -2      4025       774       784      4035      4026       775       785      4036
 -1      3998    1    0    1
 -2      4026       775       785      4036      4027       776       786      4037
 -1      3999    1    0    1
 -2      4027       776       786      4037      4028       777       787      4038
 -1      4000    1    0    1
 -2      4028       777       787      4038      4029       778       788      4039
 -1      4001    1    0    1
 -2      4029       778       788      4039      4030       779       789      4040
 -1      4002    1    0    1
 -2      4030       779       789      4040      4031       780       790      4041
 -1      4003    1    0    1
 -2      4031       780       790      4041      4032       781       791      4042
 -1      4004    1    0    1
 -2      4032       781       791      4042      1476       116       117      1477
 -1      4005    1    0    1
 -2       456        41        42       457      4033       782       792      4043
 -1      4006    1    0    1
 -2      4033       782       792      4043      4034       783       793      4044
 -1      4007    1    0    1
 -2      4034       783       793      4044      4035       784       794      4045
 -1      4008    1    0    1
 -2      4035       784       794      4045      4036       785       795      4046
 -1      4009    1    0    1
 -2      4036       785       795      4046      4037       786       796      4047
 -1      4010    1    0    1
 -2      4037       786       796      4047      4038       787       797      4048
 -1      4011    1    0    1
 -2      4038       787       797      4048      4039       788       798      4049
 -1      4012    1    0    1
 -2      4039       788       798      4049      4040       789       799      4050
 -1      4013    1    0    1
 -2      4040       789       799      4050      4041       790       800      4051
 -1      4014    1    0    1
 -2      4041       790       800      4051      4042       791       801      4052
 -1      4015    1    0    1
 -2      4042       791       801      4052      1477       117       118      1478
 -1      4016    1    0    1
 -2       457        42        43       458      4043       792       802      4053
 -1      4017    1    0    1
 -2      4043       792       802      4053      4044       793       803      4054
 -1      4018    1    0    1
 -2      4044       793       803      4054      4045       794       804      4055
 -1      4019    1    0    1
 -2      4045       794       804      4055      4046       795       805      4056
 -1      4020    1    0    1
 -2      4046       795       805      4056      4047       796       806      4057
 -1      4021    1    0    1
 -2      4047       796       806      4057      4048       797       807      4058
 -1      4022    1    0    1
 -2      4048       797       807      4058      4049       798       808      4059
 -1      4023    1    0    1
 -2      4049       798       808      4059      4050       799       809      4060
 -1      4024    1    0    1
 -2      4050       799       809      4060      4051       800       810      4061
 -1      4025    1    0    1
 -2      4051       800       810      4061      4052       801       811      4062
 -1      4026    1    0    1
 -2      4052       801       811      4062      1478       118       119      1479
 -1      4027    1    0    1
 -2       458        43        44       459      4053       802       812      4063
 -1      4028    1    0    1
 -2      4053       802       812      4063      4054       803       813      4064
 -1      4029    1    0    1
 -2      4054       803       813      4064      4055       804       814      4065
 -1      4030    1    0    1
 -2      4055       804       814      4065      4056       805       815      4066
 -1      4031    1    0    1
 -2      4056       805       815      4066      4057       806       816      4067
 -1      4032    1    0    1
 -2      4057       806       816      4067      4058       807       817      4068
 -1      4033    1    0    1
 -2      4058       807       817      4068      4059       808       818      4069
 -1      4034    1    0    1
 -2      4059       808       818      4069      4060       809       819      4070
 -1      4035    1    0    1
 -2      4060       809       819      4070      4061       810       820      4071
 -1      4036    1    0    1
 -2      4061       810       820      4071      4062       811       821      4072
 -1      4037    1    0    1
 -2      4062       811       821      4072      1479       119       120      1480
 -1      4038    1    0    1
 -2       459        44        45       460      4063       812       822      4073
 -1      4039    1    0    1
 -2      4063       812       822      4073      4064       813       823      4074
 -1      4040    1    0    1
 -2      4064       813       823      4074      4065       814       824      4075
 -1      4041    1    0    1
 -2      4065       814       824      4075      4066       815       825      4076
 -1      4042    1    0    1
 -2      4066       815       825      4076      4067       816       826      4077
 -1      4043    1    0    1
 -2      4067       816       826      4077      4068       817       827      4078
 -1      4044    1    0    1
 -2      4068       817       827      4078      4069       818       828      4079
 -1      4045    1    0    1
 -2      4069       818       828      4079      4070       819       829      4080
 -1      4046    1    0    1
 -2      4070       819       829      4080      4071       820       830      4081
 -1      4047    1    0    1
 -2      4071       820       830      4081      4072       821       831      4082
 -1      4048    1    0    1
 -2      4072       821       831      4082      1480       120       121      1481
 -1      4049    1    0    1
 -2       460        45        46       461      4073       822       832      4083
 -1      4050    1    0    1
 -2      4073       822       832      4083      4074       823       833      4084
 -1      4051    1    0    1
 -2      4074       823       833      4084      4075       824       834      4085
 -1      4052    1    0    1
 -2      4075       824       834      4085      4076       825       835      4086
 -1      4053    1    0    1
 -2      4076       825       835      4086      4077       826       836      4087
 -1      4054    1    0    1
 -2      4077       826       836      4087      4078       827       837      4088
 -1      4055    1    0    1
 -2      4078       827       837      4088      4079       828       838      4089
 -1      4056    1    0    1
 -2      4079       828       838      4089      4080       829       839      4090
 -1      4057    1    0    1
 -2      4080       829       839      4090      4081       830       840      4091
 -1      4058    1    0    1
 -2      4081       830       840      4091      4082       831       841      4092
 -1      4059    1    0    1
 -2      4082       831       841      4092      1481       121       122      1482
 -1      4060    1    0    1
 -2       461        46         3        47      4083       832       181       842
 -1      4061    1    0    1
 -2      4083       832       181       842      4084       833       182       843
 -1      4062    1    0    1
 -2      4084       833       182       843      4085       834       183       844
 -1      4063    1    0    1
 -2      4085       834       183       844      4086       835       184       845
 -1      4064    1    0    1
 -2      4086       835       184       845      4087       836       185       846
 -1      4065    1    0    1
 -2      4087       836       185       846      4088       837       186       847
 -1      4066    1    0    1
 -2      4088       837       186       847      4089       838       187       848
 -1      4067    1    0    1
 -2      4089       838       187       848      4090       839       188       849
 -1      4068    1    0    1
 -2      4090       839       188       849      4091       840       189       850
 -1      4069    1    0    1
 -2      4091       840       189       850      4092       841       190       851
 -1      4070    1    0    1
 -2      4092       841       190       851      1482       122         7       123
 -3
    1PSTEP                         1           1           1          
  100CL  101 1.000000000        4092                     0    1           1
 -4  DISP        4    1
 -5  D1          1    2    1    0
 -5  D2          1    2    2    0
 -5  D3          1    2    3    0
 -5  ALL         1    2    0    0    1ALL
 -1         1 1.69803E-04 0.00000E+00 1.26364E-05
 -1         2 6.33404E-05 0.00000E+00 1.20991E-05
 -1         3 0.00000E+00 6.33404E-05 1.20991E-05
 -1         4 0.00000E+00 1.69803E-04 1.26364E-05
 -1         5 1.69803E-04 0.00000E+00 9.67794E-06
 -1         6 6.33404E-05 0.00000E+00 1.02152E-05
 -1         7 0.00000E+00 6.33404E-05 1.02152E-05
 -1         8 0.00000E+00 1.69803E-04 9.67794E-06
 -1         9 1.55571E-04 0.00000E+00 1.21083E-05
 -1        10 1.43759E-04 0.00000E+00 1.20782E-05
 -1        11 1.33799E-04 0.00000E+00 1.20806E-05
 -1        12 1.25320E-04 0.00000E+00 1.20917E-05
 -1        13 1.18040E-04 0.00000E+00 1.20984E-05
 -1        14 1.11738E-04 0.00000E+00 1.21019E-05
 -1        15 1.06242E-04 0.00000E+00 1.21036E-05
 -1        16 1.01419E-04 0.00000E+00 1.21046E-05
 -1        17 9.71624E-05 0.00000E+00 1.21054E-05
 -1        18 9.33868E-05 0.00000E+00 1.21060E-05
 -1        19 9.00237E-05 0.00000E+00 1.21064E-05
 -1        20 8.70167E-05 0.00000E+00 1.21068E-05
 -1        21 8.43194E-05 0.00000E+00 1.21071E-05
 -1        22 8.18932E-05 0.00000E+00 1.21074E-05
 -1        23 7.97054E-05 0.00000E+00 1.21076E-05
 -1        24 7.77287E-05 0.00000E+00 1.21077E-05
 -1        25 7.59394E-05 0.00000E+00 1.21078E-05
 -1        26 7.43176E-05 0.00000E+00 1.21080E-05
 -1        27 7.28460E-05 0.00000E+00 1.21080E-05
 -1        28 7.15094E-05 0.00000E+00 1.21081E-05
 -1        29 7.02949E-05 0.00000E+00 1.21082E-05
 -1        30 6.91909E-05 0.00000E+00 1.21082E-05
 -1        31 6.81875E-05 0.00000E+00 1.21083E-05
 -1        32 6.72758E-05 0.00000E+00 1.21083E-05
 -1        33 6.64479E-05 0.00000E+00 1.21084E-05
 -1        34 6.56968E-05 0.00000E+00 1.21085E-05
 -1        35 6.50162E-05 0.00000E+00 1.21087E-05
 -1        36 6.44001E-05 0.00000E+00 1.21087E-05
 -1        37 6.38430E-05 0.00000E+00 1.21080E-05
 -1        38 6.25606E-05 9.90863E-06 1.20991E-05
 -1        39 6.02403E-05 1.95733E-05 1.20991E-05
 -1        40 5.64367E-05 2.87560E-05 1.20991E-05
 -1        41 5.12435E-05 3.72306E-05 1.20991E-05
 -1        42 4.47884E-05 4.47885E-05 1.20991E-05
 -1        43 3.72306E-05 5.12435E-05 1.20991E-05
 -1        44 2.87560E-05 5.64367E-05 1.20991E-05
 -1        45 1.95733E-05 6.02403E-05 1.20991E-05
 -1        46 9.90863E-06 6.25606E-05 1.20991E-05
 -1        47 0.00000E+00 6.38430E-05 1.21080E-05
 -1        48 0.00000E+00 6.44001E-05 1.21087E-05
 -1        49 0.00000E+00 6.50162E-05 1.21087E-05
 -1        50 0.00000E+00 6.56968E-05 1.21085E-05
 -1        51 0.00000E+00 6.64479E-05 1.21084E-05
 -1        52 0.00000E+00 6.72758E-05 1.21083E-05
 -1        53 0.00000E+00 6.81875E-05 1.21083E-05
 -1        54 0.00000E+00 6.91909E-05 1.21082E-05
 -1        55 0.00000E+00 7.02949E-05 1.21082E-05
 -1        56 0.00000E+00 7.15094E-05 1.21081E-05
 -1        57 0.00000E+00 7.28460E-05 1.21080E-05
 -1        58 0.00000E+00 7.43176E-05 1.21080E-05
 -1        59 0.00000E+00 7.59394E-05 1.21078E-05
 -1        60 0.00000E+00 7.77287E-05 1.21077E-05
 -1        61 0.00000E+00 7.97054E-05 1.21076E-05
 -1        62 0.00000E+00 8.18932E-05 1.21074E-05
 -1        63 0.00000E+00 8.43194E-05 1.21071E-05
 -1        64 0.00000E+00 8.70167E-05 1.21068E-05
 -1        65 0.00000E+00 9.00237E-05 1.21064E-05
 -1        66 0.00000E+00 9.33868E-05 1.21060E-05
 -1        67 0.00000E+00 9.71624E-05 1.21054E-05
 -1        68 0.00000E+00 1.01419E-04 1.21046E-05
 -1        69 0.00000E+00 1.06242E-04 1.21036E-05
 -1        70 0.00000E+00 1.11738E-04 1.21019E-05
 -1        71 0.00000E+00 1.18040E-04 1.20984E-05
 -1        72 0.00000E+00 1.25320E-04 1.20917E-05
 -1        73 0.00000E+00 1.33799E-04 1.20806E-05
 -1        74 0.00000E+00 1.43759E-04 1.20782E-05
 -1        75 0.00000E+00 1.55571E-04 1.21083E-05
 -1        76 2.65631E-05 1.67713E-04 1.26364E-05
 -1        77 5.24720E-05 1.61492E-04 1.26364E-05
 -1        78 7.70890E-05 1.51296E-04 1.26364E-05
 -1        79 9.98077E-05 1.37374E-04 1.26364E-05
 -1        80 1.20069E-04 1.20069E-04 1.26364E-05
 -1        81 1.37374E-04 9.98077E-05 1.26364E-05
 -1        82 1.51296E-04 7.70890E-05 1.26364E-05
 -1        83 1.61492E-04 5.24720E-05 1.26364E-05
 -1        84 1.67713E-04 2.65631E-05 1.26364E-05
 -1        85 1.55571E-04 0.00000E+00 1.02060E-05
 -1        86 1.43759E-04 0.00000E+00 1.02361E-05
 -1        87 1.33799E-04 0.00000E+00 1.02337E-05
 -1        88 1.25320E-04 0.00000E+00 1.02226E-05
 -1        89 1.18040E-04 0.00000E+00 1.02159E-05
 -1        90 1.11738E-04 0.00000E+00 1.02125E-05
 -1        91 1.06242E-04 0.00000E+00 1.02107E-05
 -1        92 1.01419E-04 0.00000E+00 1.02097E-05
 -1        93 9.71624E-05 0.00000E+00 1.02089E-05
 -1        94 9.33868E-05 0.00000E+00 1.02083E-05
 -1        95 9.00237E-05 0.00000E+00 1.02079E-05
 -1        96 8.70167E-05 0.00000E+00 1.02075E-05
 -1        97 8.43194E-05 0.00000E+00 1.02072E-05
 -1        98 8.18932E-05 0.00000E+00 1.02070E-05
 -1        99 7.97054E-05 0.00000E+00 1.02068E-05
 -1       100 7.77287E-05 0.00000E+00 1.02066E-05
 -1       101 7.59394E-05 0.00000E+00 1.02065E-05
 -1       102 7.43176E-05 0.00000E+00 1.02064E-05
 -1       103 7.28460E-05 0.00000E+00 1.02063E-05
 -1       104 7.15094E-05 0.00000E+00 1.02062E-05
 -1       105 7.02949E-05 0.00000E+00 1.02061E-05
 -1       106 6.91909E-05 0.00000E+00 1.02061E-05
 -1       107 6.81875E-05 0.00000E+00 1.02060E-05
 -1       108 6.72758E-05 0.00000E+00 1.02060E-05
 -1       109 6.64479E-05 0.00000E+00 1.02059E-05
 -1       110 6.56968E-05 0.00000E+00 1.02058E-05
 -1       111 6.50162E-05 0.00000E+00 1.02056E-05
 -1       112 6.44001E-05 0.00000E+00 1.02057E-05
 -1       113 6.38430E-05 0.00000E+00 1.02063E-05
 -1       114 6.25606E-05 9.90863E-06 1.02152E-05
 -1       115 6.02403E-05 1.95733E-05 1.02152E-05
 -1       116 5.64367E-05 2.87560E-05 1.02152E-05
 -1       117 5.12435E-05 3.72306E-05 1.02152E-05
 -1       118 4.47884E-05 4.47885E-05 1.02152E-05
 -1       119 3.72306E-05 5.12435E-05 1.02152E-05
 -1       120 2.87560E-05 5.64367E-05 1.02152E-05
 -1       121 1.95733E-05 6.02403E-05 1.02152E-05
 -1       122 9.90863E-06 6.25606E-05 1.02152E-05
 -1       123 0.00000E+00 6.38430E-05 1.02063E-05
 -1       124 0.00000E+00 6.44001E-05 1.02057E-05
 -1       125 0.00000E+00 6.50162E-05 1.02056E-05
 -1       126 0.00000E+00 6.56968E-05 1.02058E-05
 -1       127 0.00000E+00 6.64479E-05 1.02059E-05
 -1       128 0.00000E+00 6.72758E-05 1.02060E-05
 -1       129 0.00000E+00 6.81875E-05 1.02060E-05
 -1       130 0.00000E+00 6.91909E-05 1.02061E-05
 -1       131 0.00000E+00 7.02949E-05 1.02061E-05
 -1       132 0.00000E+00 7.15094E-05 1.02062E-05
 -1       133 0.00000E+00 7.28460E-05 1.02063E-05
 -1       134 0.00000E+00 7.43176E-05 1.02064E-05
 -1       135 0.00000E+00 7.59394E-05 1.02065E-05
 -1       136 0.00000E+00 7.77287E-05 1.02066E-05
 -1       137 0.00000E+00 7.97054E-05 1.02068E-05
 -1       138 0.00000E+00 8.18932E-05 1.02070E-05
 -1       139 0.00000E+00 8.43194E-05 1.02072E-05
 -1       140 0.00000E+00 8.70167E-05 1.02075E-05
 -1       141 0.00000E+00 9.00237E-05 1.02079E-05
 -1       142 0.00000E+00 9.33868E-05 1.02083E-05
 -1       143 0.00000E+00 9.71624E-05 1.02089E-05
 -1       144 0.00000E+00 1.01419E-04 1.02097E-05
 -1       145 0.00000E+00 1.06242E-04 1.02107E-05
 -1       146 0.00000E+00 1.11738E-04 1.02125E-05
 -1       147 0.00000E+00 1.18040E-04 1.02159E-05
 -1       148 0.00000E+00 1.25320E-04 1.02226E-05
 -1       149 0.00000E+00 1.33799E-04 1.02337E-05
 -1       150 0.00000E+00 1.43759E-04 1.02361E-05
 -1       151 0.00000E+00 1.55571E-04 1.02060E-05
 -1       152 2.65631E-05 1.67713E-04 9.67794E-06
 -1       153 5.24720E-05 1.61492E-04 9.67794E-06
 -1       154 7.70890E-05 1.51296E-04 9.67794E-06
 -1       155 9.98077E-05 1.37374E-04 9.67794E-06
 -1       156 1.20069E-04 1.20069E-04 9.67794E-06
 -1       157 1.37374E-04 9.98077E-05 9.67794E-06
 -1       158 1.51296E-04 7.70890E-05 9.67794E-06
 -1       159 1.61492E-04 5.24720E-05 9.67794E-06
 -1       160 1.67713E-04 2.65631E-05 9.67794E-06
 -1       161 1.69970E-04 0.00000E+00 1.23218E-05
 -1       162 1.70050E-04 0.00000E+00 1.20355E-05
 -1       163 1.70091E-04 0.00000E+00 1.17704E-05
 -1       164 1.70112E-04 0.00000E+00 1.15197E-05
 -1       165 1.70121E-04 0.00000E+00 1.12771E-05
 -1       166 1.70121E-04 0.00000E+00 1.10372E-05
 -1       167 1.70112E-04 0.00000E+00 1.07946E-05
 -1       168 1.70091E-04 0.00000E+00 1.05439E-05
 -1       169 1.70050E-04 0.00000E+00 1.02788E-05
 -1       170 1.69970E-04 0.00000E+00 9.99251E-06
 -1       171 6.33432E-05 0.00000E+00 1.19286E-05
 -1       172 6.33446E-05 0.00000E+00 1.17576E-05
 -1       173 6.33453E-05 0.00000E+00 1.15863E-05
 -1       174 6.33457E-05 0.00000E+00 1.14147E-05
 -1       175 6.33458E-05 0.00000E+00 1.12430E-05
 -1       176 6.33458E-05 0.00000E+00 1.10713E-05
 -1       177 6.33457E-05 0.00000E+00 1.08996E-05
 -1       178 6.33453E-05 0.00000E+00 1.07280E-05
 -1       179 6.33446E-05 0.00000E+00 1.05567E-05
 -1       180 6.33432E-05 0.00000E+00 1.03857E-05
 -1       181 0.00000E+00 6.33432E-05 1.19286E-05
 -1       182 0.00000E+00 6.33446E-05 1.17576E-05
 -1       183 0.00000E+00 6.33453E-05 1.15863E-05
 -1       184 0.00000E+00 6.33457E-05 1.14147E-05
 -1       185 0.00000E+00 6.33458E-05 1.12430E-05
 -1       186 0.00000E+00 6.33458E-05 1.10713E-05
 -1       187 0.00000E+00 6.33457E-05 1.08996E-05
 -1       188 0.00000E+00 6.33453E-05 1.07280E-05
 -1       189 0.00000E+00 6.33446E-05 1.05567E-05
 -1       190 0.00000E+00 6.33432E-05 1.03857E-05
 -1       191 0.00000E+00 1.69970E-04 1.23218E-05
 -1       192 0.00000E+00 1.70050E-04 1.20355E-05
 -1       193 0.00000E+00 1.70091E-04 1.17704E-05
 -1       194 0.00000E+00 1.70112E-04 1.15197E-05
 -1       195 0.00000E+00 1.70121E-04 1.12771E-05
 -1       196 0.00000E+00 1.70121E-04 1.10372E-05
 -1       197 0.00000E+00 1.70112E-04 1.07946E-05
 -1       198 0.00000E+00 1.70091E-04 1.05439E-05
 -1       199 0.00000E+00 1.70050E-04 1.02788E-05
 -1       200 0.00000E+00 1.69970E-04 9.99251E-06
 -1       201 1.53655E-04 2.43366E-05 1.21083E-05
 -1       202 1.47956E-04 4.80739E-05 1.21083E-05
 -1       203 1.38614E-04 7.06275E-05 1.21083E-05
 -1       204 1.25859E-04 9.14421E-05 1.21083E-05
 -1       205 1.10005E-04 1.10005E-04 1.21083E-05
 -1       206 9.14421E-05 1.25859E-04 1.21083E-05
 -1       207 7.06275E-05 1.38614E-04 1.21083E-05
 -1       208 4.80739E-05 1.47956E-04 1.21083E-05
 -1       209 2.43366E-05 1.53655E-04 1.21083E-05
 -1       210 1.41989E-04 2.24889E-05 1.20782E-05
 -1       211 1.36723E-04 4.44241E-05 1.20782E-05
 -1       212 1.28091E-04 6.52654E-05 1.20782E-05
 -1       213 1.16304E-04 8.44996E-05 1.20782E-05
 -1       214 1.01653E-04 1.01653E-04 1.20782E-05
 -1       215 8.44996E-05 1.16304E-04 1.20782E-05
 -1       216 6.52654E-05 1.28091E-04 1.20782E-05
 -1       217 4.44241E-05 1.36723E-04 1.20782E-05
 -1       218 2.24889E-05 1.41989E-04 1.20782E-05
 -1       219 1.32151E-04 2.09307E-05 1.20806E-05
 -1       220 1.27250E-04 4.13460E-05 1.20806E-05
 -1       221 1.19215E-04 6.07433E-05 1.20806E-05
 -1       222 1.08245E-04 7.86448E-05 1.20806E-05
 -1       223 9.46098E-05 9.46098E-05 1.20806E-05
 -1       224 7.86448E-05 1.08245E-04 1.20806E-05
 -1       225 6.07433E-05 1.19215E-04 1.20806E-05
 -1       226 4.13460E-05 1.27250E-04 1.20806E-05
 -1       227 2.09307E-05 1.32151E-04 1.20806E-05
 -1       228 1.23777E-04 1.96044E-05 1.20917E-05
 -1       229 1.19187E-04 3.87261E-05 1.20917E-05
 -1       230 1.11661E-04 5.68942E-05 1.20917E-05
 -1       231 1.01386E-04 7.36614E-05 1.20917E-05
 -1       232 8.86148E-05 8.86148E-05 1.20917E-05
 -1       233 7.36614E-05 1.01386E-04 1.20917E-05
 -1       234 5.68942E-05 1.11661E-04 1.20917E-05
 -1       235 3.87261E-05 1.19187E-04 1.20917E-05
 -1       236 1.96044E-05 1.23777E-04 1.20917E-05
 -1       237 1.16587E-04 1.84655E-05 1.20984E-05
 -1       238 1.12263E-04 3.64764E-05 1.20984E-05
 -1       239 1.05174E-04 5.35890E-05 1.20984E-05
 -1       240 9.54963E-05 6.93821E-05 1.20984E-05
 -1       241 8.34669E-05 8.34669E-05 1.20984E-05
 -1       242 6.93821E-05 9.54963E-05 1.20984E-05
 -1       243 5.35890E-05 1.05174E-04 1.20984E-05
 -1       244 3.64764E-05 1.12263E-04 1.20984E-05
 -1       245 1.84655E-05 1.16587E-04 1.20984E-05
 -1       246 1.10362E-04 1.74796E-05 1.21019E-05
 -1       247 1.06269E-04 3.45288E-05 1.21019E-05
 -1       248 9.95590E-05 5.07278E-05 1.21019E-05
 -1       249 9.03976E-05 6.56777E-05 1.21019E-05
 -1       250 7.90104E-05 7.90104E-05 1.21019E-05
 -1       251 6.56777E-05 9.03976E-05 1.21019E-05
 -1       252 5.07278E-05 9.95590E-05 1.21019E-05
 -1       253 3.45288E-05 1.06269E-04 1.21019E-05
 -1       254 1.74796E-05 1.10362E-04 1.21019E-05
 -1       255 1.04934E-04 1.66199E-05 1.21036E-05
 -1       256 1.01042E-04 3.28306E-05 1.21036E-05
 -1       257 9.46624E-05 4.82329E-05 1.21036E-05
 -1       258 8.59517E-05 6.24476E-05 1.21036E-05
 -1       259 7.51245E-05 7.51245E-05 1.21036E-05
 -1       260 6.24476E-05 8.59517E-05 1.21036E-05
 -1       261 4.82329E-05 9.46624E-05 1.21036E-05
 -1       262 3.28306E-05 1.01042E-04 1.21036E-05
 -1       263 1.66199E-05 1.04934E-04 1.21036E-05
 -1       264 1.00171E-04 1.58655E-05 1.21046E-05
 -1       265 9.64554E-05 3.13402E-05 1.21046E-05
 -1       266 9.03651E-05 4.60433E-05 1.21046E-05
 -1       267 8.20498E-05 5.96127E-05 1.21046E-05
 -1       268 7.17142E-05 7.17142E-05 1.21046E-05
 -1       269 5.96127E-05 8.20498E-05 1.21046E-05
 -1       270 4.60433E-05 9.03651E-05 1.21046E-05
 -1       271 3.13402E-05 9.64554E-05 1.21046E-05
 -1       272 1.58655E-05 1.00171E-04 1.21046E-05
 -1       273 9.59662E-05 1.51995E-05 1.21054E-05
 -1       274 9.24069E-05 3.00248E-05 1.21054E-05
 -1       275 8.65723E-05 4.41108E-05 1.21054E-05
 -1       276 7.86060E-05 5.71106E-05 1.21054E-05
 -1       277 6.87042E-05 6.87042E-05 1.21054E-05
 -1       278 5.71106E-05 7.86060E-05 1.21054E-05
 -1       279 4.41108E-05 8.65723E-05 1.21054E-05
 -1       280 3.00248E-05 9.24069E-05 1.21054E-05
 -1       281 1.51995E-05 9.59662E-05 1.21054E-05
 -1       282 9.22371E-05 1.46089E-05 1.21060E-05
 -1       283 8.88161E-05 2.88581E-05 1.21060E-05
 -1       284 8.32083E-05 4.23967E-05 1.21060E-05
 -1       285 7.55515E-05 5.48914E-05 1.21060E-05
 -1       286 6.60344E-05 6.60344E-05 1.21060E-05
 -1       287 5.48914E-05 7.55515E-05 1.21060E-05
 -1       288 4.23967E-05 8.32083E-05 1.21060E-05
 -1       289 2.88581E-05 8.88161E-05 1.21060E-05
 -1       290 1.46089E-05 9.22371E-05 1.21060E-05
 -1       291 8.89153E-05 1.40828E-05 1.21064E-05
 -1       292 8.56176E-05 2.78188E-05 1.21064E-05
 -1       293 8.02117E-05 4.08699E-05 1.21064E-05
 -1       294 7.28307E-05 5.29146E-05 1.21064E-05
 -1       295 6.36563E-05 6.36563E-05 1.21064E-05
 -1       296 5.29146E-05 7.28307E-05 1.21064E-05
 -1       297 4.08699E-05 8.02117E-05 1.21064E-05
 -1       298 2.78188E-05 8.56176E-05 1.21064E-05
 -1       299 1.40828E-05 8.89153E-05 1.21064E-05
 -1       300 8.59454E-05 1.36124E-05 1.21068E-05
 -1       301 8.27578E-05 2.68896E-05 1.21068E-05
 -1       302 7.75324E-05 3.95047E-05 1.21068E-05
 -1       303 7.03980E-05 5.11471E-05 1.21068E-05
 -1       304 6.15301E-05 6.15301E-05 1.21068E-05
 -1       305 5.11471E-05 7.03980E-05 1.21068E-05
 -1       306 3.95047E-05 7.75324E-05 1.21068E-05
 -1       307 2.68896E-05 8.27578E-05 1.21068E-05
 -1       308 1.36124E-05 8.59454E-05 1.21068E-05
 -1       309 8.32813E-05 1.31905E-05 1.21071E-05
 -1       310 8.01925E-05 2.60561E-05 1.21071E-05
 -1       311 7.51292E-05 3.82802E-05 1.21071E-05
 -1       312 6.82159E-05 4.95617E-05 1.21071E-05
 -1       313 5.96228E-05 5.96228E-05 1.21071E-05
 -1       314 4.95617E-05 6.82159E-05 1.21071E-05
 -1       315 3.82802E-05 7.51292E-05 1.21071E-05
 -1       316 2.60561E-05 8.01925E-05 1.21071E-05
 -1       317 1.31905E-05 8.32813E-05 1.21071E-05
 -1       318 8.08850E-05 1.28109E-05 1.21074E-05
 -1       319 7.78851E-05 2.53064E-05 1.21074E-05
 -1       320 7.29674E-05 3.71787E-05 1.21074E-05
 -1       321 6.62530E-05 4.81356E-05 1.21074E-05
 -1       322 5.79072E-05 5.79072E-05 1.21074E-05
 -1       323 4.81356E-05 6.62530E-05 1.21074E-05
 -1       324 3.71787E-05 7.29674E-05 1.21074E-05
 -1       325 2.53064E-05 7.78851E-05 1.21074E-05
 -1       326 1.28109E-05 8.08850E-05 1.21074E-05
 -1       327 7.87241E-05 1.24687E-05 1.21076E-05
 -1       328 7.58044E-05 2.46303E-05 1.21076E-05
 -1       329 7.10181E-05 3.61855E-05 1.21076E-05
 -1       330 6.44831E-05 4.68497E-05 1.21076E-05
 -1       331 5.63603E-05 5.63603E-05 1.21076E-05
 -1       332 4.68497E-05 6.44831E-05 1.21076E-05
 -1       333 3.61855E-05 7.10181E-05 1.21076E-05
 -1       334 2.46303E-05 7.58044E-05 1.21076E-05
 -1       335 1.24687E-05 7.87241E-05 1.21076E-05
 -1       336 7.67717E-05 1.21594E-05 1.21077E-05
 -1       337 7.39244E-05 2.40195E-05 1.21077E-05
 -1       338 6.92568E-05 3.52881E-05 1.21077E-05
 -1       339 6.28838E-05 4.56878E-05 1.21077E-05
 -1       340 5.49625E-05 5.49625E-05 1.21077E-05
 -1       341 4.56878E-05 6.28838E-05 1.21077E-05
 -1       342 3.52881E-05 6.92568E-05 1.21077E-05
 -1       343 2.40195E-05 7.39244E-05 1.21077E-05
 -1       344 1.21594E-05 7.67717E-05 1.21077E-05
 -1       345 7.50045E-05 1.18795E-05 1.21078E-05
 -1       346 7.22227E-05 2.34666E-05 1.21078E-05
 -1       347 6.76625E-05 3.44758E-05 1.21078E-05
 -1       348 6.14363E-05 4.46361E-05 1.21078E-05
 -1       349 5.36973E-05 5.36973E-05 1.21078E-05
 -1       350 4.46361E-05 6.14363E-05 1.21078E-05
 -1       351 3.44758E-05 6.76625E-05 1.21078E-05
 -1       352 2.34666E-05 7.22227E-05 1.21078E-05
 -1       353 1.18795E-05 7.50045E-05 1.21078E-05
 -1       354 7.34027E-05 1.16258E-05 1.21080E-05
 -1       355 7.06803E-05 2.29654E-05 1.21080E-05
 -1       356 6.62175E-05 3.37395E-05 1.21080E-05
 -1       357 6.01242E-05 4.36828E-05 1.21080E-05
 -1       358 5.25505E-05 5.25505E-05 1.21080E-05
 -1       359 4.36828E-05 6.01242E-05 1.21080E-05
 -1       360 3.37395E-05 6.62175E-05 1.21080E-05
 -1       361 2.29654E-05 7.06803E-05 1.21080E-05
 -1       362 1.16258E-05 7.34027E-05 1.21080E-05
 -1       363 7.19491E-05 1.13956E-05 1.21080E-05
 -1       364 6.92806E-05 2.25106E-05 1.21080E-05
 -1       365 6.49062E-05 3.30714E-05 1.21080E-05
 -1       366 5.89336E-05 4.28178E-05 1.21080E-05
 -1       367 5.15099E-05 5.15099E-05 1.21080E-05
 -1       368 4.28178E-05 5.89336E-05 1.21080E-05
 -1       369 3.30714E-05 6.49062E-05 1.21080E-05
 -1       370 2.25106E-05 6.92806E-05 1.21080E-05
 -1       371 1.13956E-05 7.19491E-05 1.21080E-05
 -1       372 7.06290E-05 1.11865E-05 1.21081E-05
 -1       373 6.80095E-05 2.20976E-05 1.21081E-05
 -1       374 6.37153E-05 3.24646E-05 1.21081E-05
 -1       375 5.78523E-05 4.20322E-05 1.21081E-05
 -1       376 5.05648E-05 5.05648E-05 1.21081E-05
 -1       377 4.20322E-05 5.78523E-05 1.21081E-05
 -1       378 3.24646E-05 6.37153E-05 1.21081E-05
 -1       379 2.20976E-05 6.80095E-05 1.21081E-05
 -1       380 1.11865E-05 7.06290E-05 1.21081E-05
 -1       381 6.94294E-05 1.09965E-05 1.21082E-05
 -1       382 6.68544E-05 2.17223E-05 1.21082E-05
 -1       383 6.26332E-05 3.19132E-05 1.21082E-05
 -1       384 5.68697E-05 4.13183E-05 1.21082E-05
 -1       385 4.97060E-05 4.97060E-05 1.21082E-05
 -1       386 4.13183E-05 5.68697E-05 1.21082E-05
 -1       387 3.19132E-05 6.26332E-05 1.21082E-05
 -1       388 2.17223E-05 6.68544E-05 1.21082E-05
 -1       389 1.09965E-05 6.94294E-05 1.21082E-05
 -1       390 6.83391E-05 1.08238E-05 1.21082E-05
 -1       391 6.58045E-05 2.13812E-05 1.21082E-05
 -1       392 6.16496E-05 3.14120E-05 1.21082E-05
 -1       393 5.59766E-05 4.06694E-05 1.21082E-05
 -1       394 4.89254E-05 4.89254E-05 1.21082E-05
 -1       395 4.06694E-05 5.59766E-05 1.21082E-05
 -1       396 3.14120E-05 6.16496E-05 1.21082E-05
 -1       397 2.13812E-05 6.58045E-05 1.21082E-05
 -1       398 1.08238E-05 6.83391E-05 1.21082E-05
 -1       399 6.73480E-05 1.06669E-05 1.21083E-05
 -1       400 6.48502E-05 2.10711E-05 1.21083E-05
 -1       401 6.07555E-05 3.09565E-05 1.21083E-05
 -1       402 5.51649E-05 4.00796E-05 1.21083E-05
 -1       403 4.82159E-05 4.82159E-05 1.21083E-05
 -1       404 4.00796E-05 5.51649E-05 1.21083E-05
 -1       405 3.09565E-05 6.07555E-05 1.21083E-05
 -1       406 2.10711E-05 6.48502E-05 1.21083E-05
 -1       407 1.06669E-05 6.73480E-05 1.21083E-05
 -1       408 6.64475E-05 1.05243E-05 1.21083E-05
 -1       409 6.39831E-05 2.07894E-05 1.21083E-05
 -1       410 5.99432E-05 3.05426E-05 1.21083E-05
 -1       411 5.44273E-05 3.95437E-05 1.21083E-05
 -1       412 4.75712E-05 4.75712E-05 1.21083E-05
 -1       413 3.95437E-05 5.44273E-05 1.21083E-05
 -1       414 3.05426E-05 5.99432E-05 1.21083E-05
 -1       415 2.07894E-05 6.39831E-05 1.21083E-05
 -1       416 1.05243E-05 6.64475E-05 1.21083E-05
 -1       417 6.56298E-05 1.03947E-05 1.21084E-05
 -1       418 6.31957E-05 2.05335E-05 1.21084E-05
 -1       419 5.92055E-05 3.01667E-05 1.21084E-05
 -1       420 5.37575E-05 3.90571E-05 1.21084E-05
 -1       421 4.69858E-05 4.69858E-05 1.21084E-05
 -1       422 3.90571E-05 5.37575E-05 1.21084E-05
 -1       423 3.01667E-05 5.92055E-05 1.21084E-05
 -1       424 2.05335E-05 6.31957E-05 1.21084E-05
 -1       425 1.03947E-05 6.56298E-05 1.21084E-05
 -1       426 6.48880E-05 1.02772E-05 1.21085E-05
 -1       427 6.24814E-05 2.03014E-05 1.21085E-05
 -1       428 5.85363E-05 2.98257E-05 1.21085E-05
 -1       429 5.31498E-05 3.86156E-05 1.21085E-05
 -1       430 4.64547E-05 4.64547E-05 1.21085E-05
 -1       431 3.86156E-05 5.31498E-05 1.21085E-05
 -1       432 2.98257E-05 5.85363E-05 1.21085E-05
 -1       433 2.03014E-05 6.24814E-05 1.21085E-05
 -1       434 1.02772E-05 6.48880E-05 1.21085E-05
 -1       435 6.42157E-05 1.01708E-05 1.21087E-05
 -1       436 6.18340E-05 2.00911E-05 1.21087E-05
 -1       437 5.79298E-05 2.95167E-05 1.21087E-05
 -1       438 5.25992E-05 3.82155E-05 1.21087E-05
 -1       439 4.59734E-05 4.59734E-05 1.21087E-05
 -1       440 3.82155E-05 5.25992E-05 1.21087E-05
 -1       441 2.95167E-05 5.79298E-05 1.21087E-05
 -1       442 2.00911E-05 6.18340E-05 1.21087E-05
 -1       443 1.01708E-05 6.42157E-05 1.21087E-05
 -1       444 6.36072E-05 1.00744E-05 1.21087E-05
 -1       445 6.12482E-05 1.99007E-05 1.21087E-05
 -1       446 5.73809E-05 2.92370E-05 1.21087E-05
 -1       447 5.21008E-05 3.78534E-05 1.21087E-05
 -1       448 4.55378E-05 4.55378E-05 1.21087E-05
 -1       449 3.78534E-05 5.21008E-05 1.21087E-05
 -1       450 2.92370E-05 5.73809E-05 1.21087E-05
 -1       451 1.99007E-05 6.12482E-05 1.21087E-05
 -1       452 1.00744E-05 6.36072E-05 1.21087E-05
 -1       453 6.30570E-05 9.98725E-06 1.21080E-05
 -1       454 6.07183E-05 1.97286E-05 1.21080E-05
 -1       455 5.68845E-05 2.89841E-05 1.21080E-05
 -1       456 5.16501E-05 3.75260E-05 1.21080E-05
 -1       457 4.51438E-05 4.51438E-05 1.21080E-05
 -1       458 3.75260E-05 5.16501E-05 1.21080E-05
 -1       459 2.89841E-05 5.68845E-05 1.21080E-05
 -1       460 1.97286E-05 6.07183E-05 1.21080E-05
 -1       461 9.98725E-06 6.30570E-05 1.21080E-05
 -1       462 1.55652E-04 0.00000E+00 1.19535E-05
 -1       463 1.55706E-04 0.00000E+00 1.17906E-05
 -1       464 1.55737E-04 0.00000E+00 1.16172E-05
 -1       465 1.55755E-04 0.00000E+00 1.14361E-05
 -1       466 1.55762E-04 0.00000E+00 1.12506E-05
 -1       467 1.55762E-04 0.00000E+00 1.10637E-05
 -1       468 1.55755E-04 0.00000E+00 1.08782E-05
 -1       469 1.55737E-04 0.00000E+00 1.06971E-05
 -1       470 1.55706E-04 0.00000E+00 1.05237E-05
 -1       471 1.55652E-04 0.00000E+00 1.03608E-05
 -1       472 1.43766E-04 0.00000E+00 1.18986E-05
 -1       473 1.43789E-04 0.00000E+00 1.17295E-05
 -1       474 1.43811E-04 0.00000E+00 1.15652E-05
 -1       475 1.43826E-04 0.00000E+00 1.14020E-05
 -1       476 1.43834E-04 0.00000E+00 1.12388E-05
 -1       477 1.43834E-04 0.00000E+00 1.10755E-05
 -1       478 1.43826E-04 0.00000E+00 1.09123E-05
 -1       479 1.43811E-04 0.00000E+00 1.07492E-05
 -1       480 1.43789E-04 0.00000E+00 1.05848E-05
 -1       481 1.43766E-04 0.00000E+00 1.04157E-05
 -1       482 1.33798E-04 0.00000E+00 1.19093E-05
 -1       483 1.33801E-04 0.00000E+00 1.17382E-05
 -1       484 1.33807E-04 0.00000E+00 1.15697E-05
 -1       485 1.33813E-04 0.00000E+00 1.14037E-05
 -1       486 1.33816E-04 0.00000E+00 1.12392E-05
 -1       487 1.33816E-04 0.00000E+00 1.10751E-05
 -1       488 1.33813E-04 0.00000E+00 1.09106E-05
 -1       489 1.33807E-04 0.00000E+00 1.07446E-05
 -1       490 1.33801E-04 0.00000E+00 1.05761E-05
 -1       491 1.33798E-04 0.00000E+00 1.04050E-05
 -1       492 1.25318E-04 0.00000E+00 1.19203E-05
 -1       493 1.25317E-04 0.00000E+00 1.17495E-05
 -1       494 1.25318E-04 0.00000E+00 1.15794E-05
 -1       495 1.25319E-04 0.00000E+00 1.14100E-05
 -1       496 1.25319E-04 0.00000E+00 1.12414E-05
 -1       497 1.25319E-04 0.00000E+00 1.10730E-05
 -1       498 1.25319E-04 0.00000E+00 1.09043E-05
 -1       499 1.25318E-04 0.00000E+00 1.07350E-05
 -1       500 1.25317E-04 0.00000E+00 1.05648E-05
 -1       501 1.25318E-04 0.00000E+00 1.03940E-05
 -1       502 1.18038E-04 0.00000E+00 1.19270E-05
 -1       503 1.18037E-04 0.00000E+00 1.17557E-05
 -1       504 1.18037E-04 0.00000E+00 1.15845E-05
 -1       505 1.18036E-04 0.00000E+00 1.14134E-05
 -1       506 1.18036E-04 0.00000E+00 1.12426E-05
 -1       507 1.18036E-04 0.00000E+00 1.10717E-05
 -1       508 1.18036E-04 0.00000E+00 1.09009E-05
 -1       509 1.18037E-04 0.00000E+00 1.07298E-05
 -1       510 1.18037E-04 0.00000E+00 1.05586E-05
 -1       511 1.18038E-04 0.00000E+00 1.03873E-05
 -1       512 1.11737E-04 0.00000E+00 1.19301E-05
 -1       513 1.11736E-04 0.00000E+00 1.17584E-05
 -1       514 1.11735E-04 0.00000E+00 1.15866E-05
 -1       515 1.11735E-04 0.00000E+00 1.14148E-05
 -1       516 1.11735E-04 0.00000E+00 1.12430E-05
 -1       517 1.11735E-04 0.00000E+00 1.10713E-05
 -1       518 1.11735E-04 0.00000E+00 1.08995E-05
 -1       519 1.11735E-04 0.00000E+00 1.07277E-05
 -1       520 1.11736E-04 0.00000E+00 1.05559E-05
 -1       521 1.11737E-04 0.00000E+00 1.03842E-05
 -1       522 1.06242E-04 0.00000E+00 1.19316E-05
 -1       523 1.06241E-04 0.00000E+00 1.17595E-05
 -1       524 1.06241E-04 0.00000E+00 1.15875E-05
 -1       525 1.06241E-04 0.00000E+00 1.14154E-05
 -1       526 1.06240E-04 0.00000E+00 1.12432E-05
 -1       527 1.06240E-04 0.00000E+00 1.10711E-05
 -1       528 1.06241E-04 0.00000E+00 1.08990E-05
 -1       529 1.06241E-04 0.00000E+00 1.07268E-05
 -1       530 1.06241E-04 0.00000E+00 1.05548E-05
 -1       531 1.06242E-04 0.00000E+00 1.03827E-05
 -1       532 1.01419E-04 0.00000E+00 1.19324E-05
 -1       533 1.01419E-04 0.00000E+00 1.17602E-05
 -1       534 1.01418E-04 0.00000E+00 1.15879E-05
 -1       535 1.01418E-04 0.00000E+00 1.14156E-05
 -1       536 1.01418E-04 0.00000E+00 1.12433E-05
 -1       537 1.01418E-04 0.00000E+00 1.10710E-05
 -1       538 1.01418E-04 0.00000E+00 1.08987E-05
 -1       539 1.01418E-04 0.00000E+00 1.07264E-05
 -1       540 1.01419E-04 0.00000E+00 1.05541E-05
 -1       541 1.01419E-04 0.00000E+00 1.03819E-05
 -1       542 9.71622E-05 0.00000E+00 1.19330E-05
 -1       543 9.71620E-05 0.00000E+00 1.17606E-05
 -1       544 9.71618E-05 0.00000E+00 1.15882E-05
 -1       545 9.71617E-05 0.00000E+00 1.14158E-05
 -1       546 9.71616E-05 0.00000E+00 1.12434E-05
 -1       547 9.71616E-05 0.00000E+00 1.10709E-05
 -1       548 9.71617E-05 0.00000E+00 1.08985E-05
 -1       549 9.71618E-05 0.00000E+00 1.07261E-05
 -1       550 9.71620E-05 0.00000E+00 1.05537E-05
 -1       551 9.71622E-05 0.00000E+00 1.03813E-05
 -1       552 9.33866E-05 0.00000E+00 1.19335E-05
 -1       553 9.33865E-05 0.00000E+00 1.17610E-05
 -1       554 9.33864E-05 0.00000E+00 1.15885E-05
 -1       555 9.33863E-05 0.00000E+00 1.14159E-05
 -1       556 9.33863E-05 0.00000E+00 1.12434E-05
 -1       557 9.33863E-05 0.00000E+00 1.10709E-05
 -1       558 9.33863E-05 0.00000E+00 1.08984E-05
 -1       559 9.33864E-05 0.00000E+00 1.07259E-05
 -1       560 9.33865E-05 0.00000E+00 1.05533E-05
 -1       561 9.33866E-05 0.00000E+00 1.03808E-05
 -1       562 9.00235E-05 0.00000E+00 1.19339E-05
 -1       563 9.00234E-05 0.00000E+00 1.17613E-05
 -1       564 9.00233E-05 0.00000E+00 1.15887E-05
 -1       565 9.00233E-05 0.00000E+00 1.14161E-05
 -1       566 9.00232E-05 0.00000E+00 1.12435E-05
 -1       567 9.00232E-05 0.00000E+00 1.10709E-05
 -1       568 9.00233E-05 0.00000E+00 1.08983E-05
 -1       569 9.00233E-05 0.00000E+00 1.07257E-05
 -1       570 9.00234E-05 0.00000E+00 1.05531E-05
 -1       571 9.00235E-05 0.00000E+00 1.03805E-05
 -1       572 8.70166E-05 0.00000E+00 1.19342E-05
 -1       573 8.70165E-05 0.00000E+00 1.17615E-05
 -1       574 8.70164E-05 0.00000E+00 1.15888E-05
 -1       575 8.70164E-05 0.00000E+00 1.14162E-05
 -1       576 8.70163E-05 0.00000E+00 1.12435E-05
 -1       577 8.70163E-05 0.00000E+00 1.10708E-05
 -1       578 8.70164E-05 0.00000E+00 1.08982E-05
 -1       579 8.70164E-05 0.00000E+00 1.07255E-05
 -1       580 8.70165E-05 0.00000E+00 1.05528E-05
 -1       581 8.70166E-05 0.00000E+00 1.03802E-05
 -1       582 8.43193E-05 0.00000E+00 1.19344E-05
 -1       583 8.43193E-05 0.00000E+00 1.17617E-05
 -1       584 8.43192E-05 0.00000E+00 1.15890E-05
 -1       585 8.43192E-05 0.00000E+00 1.14162E-05
 -1       586 8.43192E-05 0.00000E+00 1.12435E-05
 -1       587 8.43192E-05 0.00000E+00 1.10708E-05
 -1       588 8.43192E-05 0.00000E+00 1.08981E-05
 -1       589 8.43192E-05 0.00000E+00 1.07253E-05
 -1       590 8.43193E-05 0.00000E+00 1.05526E-05
 -1       591 8.43193E-05 0.00000E+00 1.03799E-05
 -1       592 8.18931E-05 0.00000E+00 1.19346E-05
 -1       593 8.18931E-05 0.00000E+00 1.17618E-05
 -1       594 8.18930E-05 0.00000E+00 1.15891E-05
 -1       595 8.18930E-05 0.00000E+00 1.14163E-05
 -1       596 8.18930E-05 0.00000E+00 1.12435E-05
 -1       597 8.18930E-05 0.00000E+00 1.10708E-05
 -1       598 8.18930E-05 0.00000E+00 1.08980E-05
 -1       599 8.18930E-05 0.00000E+00 1.07252E-05
 -1       600 8.18931E-05 0.00000E+00 1.05525E-05
 -1       601 8.18931E-05 0.00000E+00 1.03797E-05
 -1       602 7.97054E-05 0.00000E+00 1.19348E-05
 -1       603 7.97053E-05 0.00000E+00 1.17620E-05
 -1       604 7.97053E-05 0.00000E+00 1.15892E-05
 -1       605 7.97053E-05 0.00000E+00 1.14164E-05
 -1       606 7.97053E-05 0.00000E+00 1.12436E-05
 -1       607 7.97053E-05 0.00000E+00 1.10708E-05
 -1       608 7.97053E-05 0.00000E+00 1.08980E-05
 -1       609 7.97053E-05 0.00000E+00 1.07252E-05
 -1       610 7.97053E-05 0.00000E+00 1.05524E-05
 -1       611 7.97054E-05 0.00000E+00 1.03796E-05
 -1       612 7.77286E-05 0.00000E+00 1.19349E-05
 -1       613 7.77286E-05 0.00000E+00 1.17621E-05
 -1       614 7.77286E-05 0.00000E+00 1.15892E-05
 -1       615 7.77285E-05 0.00000E+00 1.14164E-05
 -1       616 7.77285E-05 0.00000E+00 1.12436E-05
 -1       617 7.77285E-05 0.00000E+00 1.10707E-05
 -1       618 7.77285E-05 0.00000E+00 1.08979E-05
 -1       619 7.77286E-05 0.00000E+00 1.07251E-05
 -1       620 7.77286E-05 0.00000E+00 1.05523E-05
 -1       621 7.77286E-05 0.00000E+00 1.03794E-05
 -1       622 7.59394E-05 0.00000E+00 1.19350E-05
 -1       623 7.59394E-05 0.00000E+00 1.17621E-05
 -1       624 7.59393E-05 0.00000E+00 1.15893E-05
 -1       625 7.59393E-05 0.00000E+00 1.14164E-05
 -1       626 7.59393E-05 0.00000E+00 1.12436E-05
 -1       627 7.59393E-05 0.00000E+00 1.10707E-05
 -1       628 7.59393E-05 0.00000E+00 1.08979E-05
 -1       629 7.59393E-05 0.00000E+00 1.07250E-05
 -1       630 7.59394E-05 0.00000E+00 1.05522E-05
 -1       631 7.59394E-05 0.00000E+00 1.03793E-05
 -1       632 7.43176E-05 0.00000E+00 1.19351E-05
 -1       633 7.43176E-05 0.00000E+00 1.17622E-05
 -1       634 7.43176E-05 0.00000E+00 1.15893E-05
 -1       635 7.43175E-05 0.00000E+00 1.14165E-05
 -1       636 7.43175E-05 0.00000E+00 1.12436E-05
 -1       637 7.43175E-05 0.00000E+00 1.10707E-05
 -1       638 7.43175E-05 0.00000E+00 1.08978E-05
 -1       639 7.43176E-05 0.00000E+00 1.07250E-05
 -1       640 7.43176E-05 0.00000E+00 1.05521E-05
 -1       641 7.43176E-05 0.00000E+00 1.03792E-05
 -1       642 7.28459E-05 0.00000E+00 1.19352E-05
 -1       643 7.28459E-05 0.00000E+00 1.17623E-05
 -1       644 7.28459E-05 0.00000E+00 1.15894E-05
 -1       645 7.28459E-05 0.00000E+00 1.14165E-05
 -1       646 7.28459E-05 0.00000E+00 1.12436E-05
 -1       647 7.28459E-05 0.00000E+00 1.10707E-05
 -1       648 7.28459E-05 0.00000E+00 1.08978E-05
 -1       649 7.28459E-05 0.00000E+00 1.07249E-05
 -1       650 7.28459E-05 0.00000E+00 1.05520E-05
 -1       651 7.28459E-05 0.00000E+00 1.03792E-05
 -1       652 7.15094E-05 0.00000E+00 1.19352E-05
 -1       653 7.15093E-05 0.00000E+00 1.17623E-05
 -1       654 7.15093E-05 0.00000E+00 1.15894E-05
 -1       655 7.15093E-05 0.00000E+00 1.14165E-05
 -1       656 7.15093E-05 0.00000E+00 1.12436E-05
 -1       657 7.15093E-05 0.00000E+00 1.10707E-05
 -1       658 7.15093E-05 0.00000E+00 1.08978E-05
 -1       659 7.15093E-05 0.00000E+00 1.07249E-05
 -1       660 7.15093E-05 0.00000E+00 1.05520E-05
 -1       661 7.15094E-05 0.00000E+00 1.03791E-05
 -1       662 7.02948E-05 0.00000E+00 1.19353E-05
 -1       663 7.02948E-05 0.00000E+00 1.17624E-05
 -1       664 7.02948E-05 0.00000E+00 1.15894E-05
 -1       665 7.02948E-05 0.00000E+00 1.14165E-05
 -1       666 7.02948E-05 0.00000E+00 1.12436E-05
 -1       667 7.02948E-05 0.00000E+00 1.10707E-05
 -1       668 7.02948E-05 0.00000E+00 1.08978E-05
 -1       669 7.02948E-05 0.00000E+00 1.07249E-05
 -1       670 7.02948E-05 0.00000E+00 1.05520E-05
 -1       671 7.02948E-05 0.00000E+00 1.03790E-05
 -1       672 6.91909E-05 0.00000E+00 1.19353E-05
 -1       673 6.91909E-05 0.00000E+00 1.17624E-05
 -1       674 6.91909E-05 0.00000E+00 1.15895E-05
 -1       675 6.91909E-05 0.00000E+00 1.14165E-05
 -1       676 6.91909E-05 0.00000E+00 1.12436E-05
 -1       677 6.91909E-05 0.00000E+00 1.10707E-05
 -1       678 6.91909E-05 0.00000E+00 1.08978E-05
 -1       679 6.91909E-05 0.00000E+00 1.07248E-05
 -1       680 6.91909E-05 0.00000E+00 1.05519E-05
 -1       681 6.91909E-05 0.00000E+00 1.03790E-05
 -1       682 6.81875E-05 0.00000E+00 1.19354E-05
 -1       683 6.81875E-05 0.00000E+00 1.17624E-05
 -1       684 6.81875E-05 0.00000E+00 1.15895E-05
 -1       685 6.81875E-05 0.00000E+00 1.14166E-05
 -1       686 6.81875E-05 0.00000E+00 1.12436E-05
 -1       687 6.81875E-05 0.00000E+00 1.10707E-05
 -1       688 6.81875E-05 0.00000E+00 1.08978E-05
 -1       689 6.81875E-05 0.00000E+00 1.07248E-05
 -1       690 6.81875E-05 0.00000E+00 1.05519E-05
 -1       691 6.81875E-05 0.00000E+00 1.03790E-05
 -1       692 6.72758E-05 0.00000E+00 1.19354E-05
 -1       693 6.72758E-05 0.00000E+00 1.17625E-05
 -1       694 6.72758E-05 0.00000E+00 1.15895E-05
 -1       695 6.72758E-05 0.00000E+00 1.14166E-05
 -1       696 6.72757E-05 0.00000E+00 1.12436E-05
 -1       697 6.72757E-05 0.00000E+00 1.10707E-05
 -1       698 6.72758E-05 0.00000E+00 1.08977E-05
 -1       699 6.72758E-05 0.00000E+00 1.07248E-05
 -1       700 6.72758E-05 0.00000E+00 1.05519E-05
 -1       701 6.72758E-05 0.00000E+00 1.03789E-05
 -1       702 6.64479E-05 0.00000E+00 1.19355E-05
 -1       703 6.64479E-05 0.00000E+00 1.17625E-05
 -1       704 6.64479E-05 0.00000E+00 1.15896E-05
 -1       705 6.64479E-05 0.00000E+00 1.14166E-05
 -1       706 6.64478E-05 0.00000E+00 1.12436E-05
 -1       707 6.64478E-05 0.00000E+00 1.10707E-05
 -1       708 6.64479E-05 0.00000E+00 1.08977E-05
 -1       709 6.64479E-05 0.00000E+00 1.07248E-05
 -1       710 6.64479E-05 0.00000E+00 1.05518E-05
 -1       711 6.64479E-05 0.00000E+00 1.03789E-05
 -1       712 6.56968E-05 0.00000E+00 1.19356E-05
 -1       713 6.56968E-05 0.00000E+00 1.17626E-05
 -1       714 6.56968E-05 0.00000E+00 1.15897E-05
 -1       715 6.56968E-05 0.00000E+00 1.14167E-05
 -1       716 6.56968E-05 0.00000E+00 1.12437E-05
 -1       717 6.56968E-05 0.00000E+00 1.10707E-05
 -1       718 6.56968E-05 0.00000E+00 1.08976E-05
 -1       719 6.56968E-05 0.00000E+00 1.07247E-05
 -1       720 6.56968E-05 0.00000E+00 1.05517E-05
 -1       721 6.56968E-05 0.00000E+00 1.03787E-05
 -1       722 6.50162E-05 0.00000E+00 1.19358E-05
 -1       723 6.50162E-05 0.00000E+00 1.17628E-05
 -1       724 6.50164E-05 0.00000E+00 1.15898E-05
 -1       725 6.50165E-05 0.00000E+00 1.14168E-05
 -1       726 6.50166E-05 0.00000E+00 1.12437E-05
 -1       727 6.50166E-05 0.00000E+00 1.10706E-05
 -1       728 6.50165E-05 0.00000E+00 1.08975E-05
 -1       729 6.50164E-05 0.00000E+00 1.07245E-05
 -1       730 6.50162E-05 0.00000E+00 1.05515E-05
 -1       731 6.50162E-05 0.00000E+00 1.03786E-05
 -1       732 6.44003E-05 0.00000E+00 1.19359E-05
 -1       733 6.44007E-05 0.00000E+00 1.17629E-05
 -1       734 6.44011E-05 0.00000E+00 1.15899E-05
 -1       735 6.44014E-05 0.00000E+00 1.14168E-05
 -1       736 6.44016E-05 0.00000E+00 1.12437E-05
 -1       737 6.44016E-05 0.00000E+00 1.10706E-05
 -1       738 6.44014E-05 0.00000E+00 1.08975E-05
 -1       739 6.44011E-05 0.00000E+00 1.07244E-05
 -1       740 6.44007E-05 0.00000E+00 1.05514E-05
 -1       741 6.44003E-05 0.00000E+00 1.03784E-05
 -1       742 6.38445E-05 0.00000E+00 1.19348E-05
 -1       743 6.38454E-05 0.00000E+00 1.17618E-05
 -1       744 6.38460E-05 0.00000E+00 1.15889E-05
 -1       745 6.38463E-05 0.00000E+00 1.14162E-05
 -1       746 6.38465E-05 0.00000E+00 1.12435E-05
 -1       747 6.38465E-05 0.00000E+00 1.10708E-05
 -1       748 6.38463E-05 0.00000E+00 1.08981E-05
 -1       749 6.38460E-05 0.00000E+00 1.07254E-05
 -1       750 6.38454E-05 0.00000E+00 1.05525E-05
 -1       751 6.38445E-05 0.00000E+00 1.03795E-05
 -1       752 6.25634E-05 9.90906E-06 1.19286E-05
 -1       753 6.25647E-05 9.90928E-06 1.17576E-05
 -1       754 6.25654E-05 9.90939E-06 1.15863E-05
 -1       755 6.25658E-05 9.90945E-06 1.14147E-05
 -1       756 6.25660E-05 9.90947E-06 1.12430E-05
 -1       757 6.25660E-05 9.90947E-06 1.10713E-05
 -1       758 6.25658E-05 9.90945E-06 1.08996E-05
 -1       759 6.25654E-05 9.90939E-06 1.07280E-05
 -1       760 6.25647E-05 9.90928E-06 1.05567E-05
 -1       761 6.25634E-05 9.90906E-06 1.03857E-05
 -1       762 6.02430E-05 1.95741E-05 1.19286E-05
 -1       763 6.02443E-05 1.95746E-05 1.17576E-05
 -1       764 6.02450E-05 1.95748E-05 1.15863E-05
 -1       765 6.02453E-05 1.95749E-05 1.14147E-05
 -1       766 6.02455E-05 1.95749E-05 1.12430E-05
 -1       767 6.02455E-05 1.95749E-05 1.10713E-05
 -1       768 6.02453E-05 1.95749E-05 1.08996E-05
 -1       769 6.02450E-05 1.95748E-05 1.07280E-05
 -1       770 6.02443E-05 1.95746E-05 1.05567E-05
 -1       771 6.02430E-05 1.95741E-05 1.03857E-05
 -1       772 5.64392E-05 2.87572E-05 1.19286E-05
 -1       773 5.64404E-05 2.87578E-05 1.17576E-05
 -1       774 5.64411E-05 2.87582E-05 1.15863E-05
 -1       775 5.64414E-05 2.87583E-05 1.14147E-05
 -1       776 5.64416E-05 2.87584E-05 1.12430E-05
 -1       777 5.64416E-05 2.87584E-05 1.10713E-05
 -1       778 5.64414E-05 2.87583E-05 1.08996E-05
 -1       779 5.64411E-05 2.87582E-05 1.07280E-05
 -1       780 5.64404E-05 2.87578E-05 1.05567E-05
 -1       781 5.64392E-05 2.87572E-05 1.03857E-05
 -1       782 5.12457E-05 3.72322E-05 1.19286E-05
 -1       783 5.12469E-05 3.72330E-05 1.17576E-05
 -1       784 5.12474E-05 3.72334E-05 1.15863E-05
 -1       785 5.12477E-05 3.72337E-05 1.14147E-05
 -1       786 5.12479E-05 3.72338E-05 1.12430E-05
 -1       787 5.12479E-05 3.72338E-05 1.10713E-05
 -1       788 5.12477E-05 3.72337E-05 1.08996E-05
 -1       789 5.12474E-05 3.72334E-05 1.07280E-05
 -1       790 5.12469E-05 3.72330E-05 1.05567E-05
 -1       791 5.12457E-05 3.72322E-05 1.03857E-05
 -1       792 4.47904E-05 4.47904E-05 1.19286E-05
 -1       793 4.47914E-05 4.47914E-05 1.17576E-05
 -1       794 4.47919E-05 4.47919E-05 1.15863E-05
 -1       795 4.47922E-05 4.47922E-05 1.14147E-05
 -1       796 4.47923E-05 4.47923E-05 1.12430E-05
 -1       797 4.47923E-05 4.47923E-05 1.10713E-05
 -1       798 4.47922E-05 4.47922E-05 1.08996E-05
 -1       799 4.47919E-05 4.47919E-05 1.07280E-05
 -1       800 4.47914E-05 4.47914E-05 1.05567E-05
 -1       801 4.47904E-05 4.47904E-05 1.03857E-05
 -1       802 3.72322E-05 5.12457E-05 1.19286E-05
 -1       803 3.72330E-05 5.12469E-05 1.17576E-05
 -1       804 3.72334E-05 5.12474E-05 1.15863E-05
 -1       805 3.72337E-05 5.12477E-05 1.14147E-05
 -1       806 3.72338E-05 5.12479E-05 1.12430E-05
 -1       807 3.72338E-05 5.12479E-05 1.10713E-05
 -1       808 3.72337E-05 5.12477E-05 1.08996E-05
 -1       809 3.72334E-05 5.12474E-05 1.07280E-05
 -1       810 3.72330E-05 5.12469E-05 1.05567E-05
 -1       811 3.72322E-05 5.12457E-05 1.03857E-05
 -1       812 2.87572E-05 5.64392E-05 1.19286E-05
 -1       813 2.87578E-05 5.64404E-05 1.17576E-05
 -1       814 2.87582E-05 5.64411E-05 1.15863E-05
 -1       815 2.87583E-05 5.64414E-05 1.14147E-05
 -1       816 2.87584E-05 5.64416E-05 1.12430E-05
 -1       817 2.87584E-05 5.64416E-05 1.10713E-05
 -1       818 2.87583E-05 5.64414E-05 1.08996E-05
 -1       819 2.87582E-05 5.64411E-05 1.07280E-05
 -1       820 2.87578E-05 5.64404E-05 1.05567E-05
 -1       821 2.87572E-05 5.64392E-05 1.03857E-05
 -1       822 1.95741E-05 6.02430E-05 1.19286E-05
 -1       823 1.95746E-05 6.02443E-05 1.17576E-05
 -1       824 1.95748E-05 6.02450E-05 1.15863E-05
 -1       825 1.95749E-05 6.02453E-05 1.14147E-05
 -1       826 1.95749E-05 6.02455E-05 1.12430E-05
 -1       827 1.95749E-05 6.02455E-05 1.10713E-05
 -1       828 1.95749E-05 6.02453E-05 1.08996E-05
 -1       829 1.95748E-05 6.02450E-05 1.07280E-05
 -1       830 1.95746E-05 6.02443E-05 1.05567E-05
 -1       831 1.95741E-05 6.02430E-05 1.03857E-05
 -1       832 9.90906E-06 6.25634E-05 1.19286E-05
 -1       833 9.90928E-06 6.25647E-05 1.17576E-05
 -1       834 9.90939E-06 6.25654E-05 1.15863E-05
 -1       835 9.90945E-06 6.25658E-05 1.14147E-05
 -1       836 9.90947E-06 6.25660E-05 1.12430E-05
 -1       837 9.90947E-06 6.25660E-05 1.10713E-05
 -1       838 9.90945E-06 6.25658E-05 1.08996E-05
 -1       839 9.90939E-06 6.25654E-05 1.07280E-05
 -1       840 9.90928E-06 6.25647E-05 1.05567E-05
 -1       841 9.90906E-06 6.25634E-05 1.03857E-05
 -1       842 0.00000E+00 6.38445E-05 1.19348E-05
 -1       843 0.00000E+00 6.38454E-05 1.17618E-05
 -1       844 0.00000E+00 6.38460E-05 1.15889E-05
 -1       845 0.00000E+00 6.38463E-05 1.14162E-05
 -1       846 0.00000E+00 6.38465E-05 1.12435E-05
 -1       847 0.00000E+00 6.38465E-05 1.10708E-05
 -1       848 0.00000E+00 6.38463E-05 1.08981E-05
 -1       849 0.00000E+00 6.38460E-05 1.07254E-05
 -1       850 0.00000E+00 6.38454E-05 1.05525E-05
 -1       851 0.00000E+00 6.38445E-05 1.03795E-05
 -1       852 0.00000E+00 6.44003E-05 1.19359E-05
 -1       853 0.00000E+00 6.44007E-05 1.17629E-05
 -1       854 0.00000E+00 6.44011E-05 1.15899E-05
 -1       855 0.00000E+00 6.44014E-05 1.14168E-05
 -1       856 0.00000E+00 6.44016E-05 1.12437E-05
 -1       857 0.00000E+00 6.44016E-05 1.10706E-05
 -1       858 0.00000E+00 6.44014E-05 1.08975E-05
 -1       859 0.00000E+00 6.44011E-05 1.07244E-05
 -1       860 0.00000E+00 6.44007E-05 1.05514E-05
 -1       861 0.00000E+00 6.44003E-05 1.03784E-05
 -1       862 0.00000E+00 6.50162E-05 1.19358E-05
 -1       863 0.00000E+00 6.50162E-05 1.17628E-05
 -1       864 0.00000E+00 6.50164E-05 1.15898E-05
 -1       865 0.00000E+00 6.50165E-05 1.14168E-05
 -1       866 0.00000E+00 6.50166E-05 1.12437E-05
 -1       867 0.00000E+00 6.50166E-05 1.10706E-05
 -1       868 0.00000E+00 6.50165E-05 1.08975E-05
 -1       869 0.00000E+00 6.50164E-05 1.07245E-05
 -1       870 0.00000E+00 6.50162E-05 1.05515E-05
 -1       871 0.00000E+00 6.50162E-05 1.03786E-05
 -1       872 0.00000E+00 6.56968E-05 1.19356E-05
 -1       873 0.00000E+00 6.56968E-05 1.17626E-05
 -1       874 0.00000E+00 6.56968E-05 1.15897E-05
 -1       875 0.00000E+00 6.56968E-05 1.14167E-05
 -1       876 0.00000E+00 6.56968E-05 1.12437E-05
 -1       877 0.00000E+00 6.56968E-05 1.10707E-05
 -1       878 0.00000E+00 6.56968E-05 1.08976E-05
 -1       879 0.00000E+00 6.56968E-05 1.07247E-05
 -1       880 0.00000E+00 6.56968E-05 1.05517E-05
 -1       881 0.00000E+00 6.56968E-05 1.03787E-05
 -1       882 0.00000E+00 6.64479E-05 1.19355E-05
 -1       883 0.00000E+00 6.64479E-05 1.17625E-05
 -1       884 0.00000E+00 6.64479E-05 1.15896E-05
 -1       885 0.00000E+00 6.64479E-05 1.14166E-05
 -1       886 0.00000E+00 6.64478E-05 1.12436E-05
 -1       887 0.00000E+00 6.64478E-05 1.10707E-05
 -1       888 0.00000E+00 6.64479E-05 1.08977E-05
 -1       889 0.00000E+00 6.64479E-05 1.07248E-05
 -1       890 0.00000E+00 6.64479E-05 1.05518E-05
 -1       891 0.00000E+00 6.64479E-05 1.03789E-05
 -1       892 0.00000E+00 6.72758E-05 1.19354E-05
 -1       893 0.00000E+00 6.72758E-05 1.17625E-05
 -1       894 0.00000E+00 6.72758E-05 1.15895E-05
 -1       895 0.00000E+00 6.72758E-05 1.14166E-05
 -1       896 0.00000E+00 6.72757E-05 1.12436E-05
 -1       897 0.00000E+00 6.72757E-05 1.10707E-05
 -1       898 0.00000E+00 6.72758E-05 1.08977E-05
 -1       899 0.00000E+00 6.72758E-05 1.07248E-05
 -1       900 0.00000E+00 6.72758E-05 1.05519E-05
 -1       901 0.00000E+00 6.72758E-05 1.03789E-05
 -1       902 0.00000E+00 6.81875E-05 1.19354E-05
 -1       903 0.00000E+00 6.81875E-05 1.17624E-05
 -1       904 0.00000E+00 6.81875E-05 1.15895E-05
 -1       905 0.00000E+00 6.81875E-05 1.14166E-05
 -1       906 0.00000E+00 6.81875E-05 1.12436E-05
 -1       907 0.00000E+00 6.81875E-05 1.10707E-05
 -1       908 0.00000E+00 6.81875E-05 1.08978E-05
 -1       909 0.00000E+00 6.81875E-05 1.07248E-05
 -1       910 0.00000E+00 6.81875E-05 1.05519E-05
 -1       911 0.00000E+00 6.81875E-05 1.03790E-05
 -1       912 0.00000E+00 6.91909E-05 1.19353E-05
 -1       913 0.00000E+00 6.91909E-05 1.17624E-05
 -1       914 0.00000E+00 6.91909E-05 1.15895E-05
 -1       915 0.00000E+00 6.91909E-05 1.14165E-05
 -1       916 0.00000E+00 6.91909E-05 1.12436E-05
 -1       917 0.00000E+00 6.91909E-05 1.10707E-05
 -1       918 0.00000E+00 6.91909E-05 1.08978E-05
 -1       919 0.00000E+00 6.91909E-05 1.07248E-05
 -1       920 0.00000E+00 6.91909E-05 1.05519E-05
 -1       921 0.00000E+00 6.91909E-05 1.03790E-05
 -1       922 0.00000E+00 7.02948E-05 1.19353E-05
 -1       923 0.00000E+00 7.02948E-05 1.17624E-05
 -1       924 0.00000E+00 7.02948E-05 1.15894E-05
 -1       925 0.00000E+00 7.02948E-05 1.14165E-05
 -1       926 0.00000E+00 7.02948E-05 1.12436E-05
 -1       927 0.00000E+00 7.02948E-05 1.10707E-05
 -1       928 0.00000E+00 7.02948E-05 1.08978E-05
 -1       929 0.00000E+00 7.02948E-05 1.07249E-05
 -1       930 0.00000E+00 7.02948E-05 1.05520E-05
 -1       931 0.00000E+00 7.02948E-05 1.03790E-05
 -1       932 0.00000E+00 7.15094E-05 1.19352E-05
 -1       933 0.00000E+00 7.15093E-05 1.17623E-05
 -1       934 0.00000E+00 7.15093E-05 1.15894E-05
 -1       935 0.00000E+00 7.15093E-05 1.14165E-05
 -1       936 0.00000E+00 7.15093E-05 1.12436E-05
 -1       937 0.00000E+00 7.15093E-05 1.10707E-05
 -1       938 0.00000E+00 7.15093E-05 1.08978E-05
 -1       939 0.00000E+00 7.15093E-05 1.07249E-05
 -1       940 0.00000E+00 7.15093E-05 1.05520E-05
 -1       941 0.00000E+00 7.15094E-05 1.03791E-05
 -1       942 0.00000E+00 7.28459E-05 1.19352E-05
 -1       943 0.00000E+00 7.28459E-05 1.17623E-05
 -1       944 0.00000E+00 7.28459E-05 1.15894E-05
 -1       945 0.00000E+00 7.28459E-05 1.14165E-05
 -1       946 0.00000E+00 7.28459E-05 1.12436E-05
 -1       947 0.00000E+00 7.28459E-05 1.10707E-05
 -1       948 0.00000E+00 7.28459E-05 1.08978E-05
 -1       949 0.00000E+00 7.28459E-05 1.07249E-05
 -1       950 0.00000E+00 7.28459E-05 1.05520E-05
 -1       951 0.00000E+00 7.28459E-05 1.03792E-05
 -1       952 0.00000E+00 7.43176E-05 1.19351E-05
 -1       953 0.00000E+00 7.43176E-05 1.17622E-05
 -1       954 0.00000E+00 7.43176E-05 1.15893E-05
 -1       955 0.00000E+00 7.43175E-05 1.14165E-05
 -1       956 0.00000E+00 7.43175E-05 1.12436E-05
 -1       957 0.00000E+00 7.43175E-05 1.10707E-05
 -1       958 0.00000E+00 7.43175E-05 1.08978E-05
 -1       959 0.00000E+00 7.43176E-05 1.07250E-05
 -1       960 0.00000E+00 7.43176E-05 1.05521E-05
 -1       961 0.00000E+00 7.43176E-05 1.03792E-05
 -1       962 0.00000E+00 7.59394E-05 1.19350E-05
 -1       963 0.00000E+00 7.59394E-05 1.17621E-05
 -1       964 0.00000E+00 7.59393E-05 1.15893E-05
 -1       965 0.00000E+00 7.59393E-05 1.14164E-05
 -1       966 0.00000E+00 7.59393E-05 1.12436E-05
 -1       967 0.00000E+00 7.59393E-05 1.10707E-05
 -1       968 0.00000E+00 7.59393E-05 1.08979E-05
 -1       969 0.00000E+00 7.59393E-05 1.07250E-05
 -1       970 0.00000E+00 7.59394E-05 1.05522E-05
 -1       971 0.00000E+00 7.59394E-05 1.03793E-05
 -1       972 0.00000E+00 7.77286E-05 1.19349E-05
 -1       973 0.00000E+00 7.77286E-05 1.17621E-05
 -1       974 0.00000E+00 7.77286E-05 1.15892E-05
 -1       975 0.00000E+00 7.77285E-05 1.14164E-05
 -1       976 0.00000E+00 7.77285E-05 1.12436E-05
 -1       977 0.00000E+00 7.77285E-05 1.10707E-05
 -1       978 0.00000E+00 7.77285E-05 1.08979E-05
 -1       979 0.00000E+00 7.77286E-05 1.07251E-05
 -1       980 0.00000E+00 7.77286E-05 1.05523E-05
 -1       981 0.00000E+00 7.77286E-05 1.03794E-05
 -1       982 0.00000E+00 7.97054E-05 1.19348E-05
 -1       983 0.00000E+00 7.97053E-05 1.17620E-05
 -1       984 0.00000E+00 7.97053E-05 1.15892E-05
 -1       985 0.00000E+00 7.97053E-05 1.14164E-05
 -1       986 0.00000E+00 7.97053E-05 1.12436E-05
 -1       987 0.00000E+00 7.97053E-05 1.10708E-05
 -1       988 0.00000E+00 7.97053E-05 1.08980E-05
 -1       989 0.00000E+00 7.97053E-05 1.07252E-05
 -1       990 0.00000E+00 7.97053E-05 1.05524E-05
 -1       991 0.00000E+00 7.97054E-05 1.03796E-05
 -1       992 0.00000E+00 8.18931E-05 1.19346E-05
 -1       993 0.00000E+00 8.18931E-05 1.17618E-05
 -1       994 0.00000E+00 8.18930E-05 1.15891E-05
 -1       995 0.00000E+00 8.18930E-05 1.14163E-05
 -1       996 0.00000E+00 8.18930E-05 1.12435E-05
 -1       997 0.00000E+00 8.18930E-05 1.10708E-05
 -1       998 0.00000E+00 8.18930E-05 1.08980E-05
 -1       999 0.00000E+00 8.18930E-05 1.07252E-05
 -1      1000 0.00000E+00 8.18931E-05 1.05525E-05
 -1      1001 0.00000E+00 8.18931E-05 1.03797E-05
 -1      1002 0.00000E+00 8.43193E-05 1.19344E-05
 -1      1003 0.00000E+00 8.43193E-05 1.17617E-05
 -1      1004 0.00000E+00 8.43192E-05 1.15890E-05
 -1      1005 0.00000E+00 8.43192E-05 1.14162E-05
 -1      1006 0.00000E+00 8.43192E-05 1.12435E-05
 -1      1007 0.00000E+00 8.43192E-05 1.10708E-05
 -1      1008 0.00000E+00 8.43192E-05 1.08981E-05
 -1      1009 0.00000E+00 8.43192E-05 1.07253E-05
 -1      1010 0.00000E+00 8.43193E-05 1.05526E-05
 -1      1011 0.00000E+00 8.43193E-05 1.03799E-05
 -1      1012 0.00000E+00 8.70166E-05 1.19342E-05
 -1      1013 0.00000E+00 8.70165E-05 1.17615E-05
 -1      1014 0.00000E+00 8.70164E-05 1.15888E-05
 -1      1015 0.00000E+00 8.70164E-05 1.14162E-05
 -1      1016 0.00000E+00 8.70163E-05 1.12435E-05
 -1      1017 0.00000E+00 8.70163E-05 1.10708E-05
 -1      1018 0.00000E+00 8.70164E-05 1.08982E-05
 -1      1019 0.00000E+00 8.70164E-05 1.07255E-05
 -1      1020 0.00000E+00 8.70165E-05 1.05528E-05
 -1      1021 0.00000E+00 8.70166E-05 1.03802E-05
 -1      1022 0.00000E+00 9.00235E-05 1.19339E-05
 -1      1023 0.00000E+00 9.00234E-05 1.17613E-05
 -1      1024 0.00000E+00 9.00233E-05 1.15887E-05
 -1      1025 0.00000E+00 9.00233E-05 1.14161E-05
 -1      1026 0.00000E+00 9.00232E-05 1.12435E-05
 -1      1027 0.00000E+00 9.00232E-05 1.10709E-05
 -1      1028 0.00000E+00 9.00233E-05 1.08983E-05
 -1      1029 0.00000E+00 9.00233E-05 1.07257E-05
 -1      1030 0.00000E+00 9.00234E-05 1.05531E-05
 -1      1031 0.00000E+00 9.00235E-05 1.03805E-05
 -1      1032 0.00000E+00 9.33866E-05 1.19335E-05
 -1      1033 0.00000E+00 9.33865E-05 1.17610E-05
 -1      1034 0.00000E+00 9.33864E-05 1.15885E-05
 -1      1035 0.00000E+00 9.33863E-05 1.14159E-05
 -1      1036 0.00000E+00 9.33863E-05 1.12434E-05
 -1      1037 0.00000E+00 9.33863E-05 1.10709E-05
 -1      1038 0.00000E+00 9.33863E-05 1.08984E-05
 -1      1039 0.00000E+00 9.33864E-05 1.07259E-05
 -1      1040 0.00000E+00 9.33865E-05 1.05533E-05
 -1      1041 0.00000E+00 9.33866E-05 1.03808E-05
 -1      1042 0.00000E+00 9.71622E-05 1.19330E-05
 -1      1043 0.00000E+00 9.71620E-05 1.17606E-05
 -1      1044 0.00000E+00 9.71618E-05 1.15882E-05
 -1      1045 0.00000E+00 9.71617E-05 1.14158E-05
 -1      1046 0.00000E+00 9.71616E-05 1.12434E-05
 -1      1047 0.00000E+00 9.71616E-05 1.10709E-05
 -1      1048 0.00000E+00 9.71617E-05 1.08985E-05
 -1      1049 0.00000E+00 9.71618E-05 1.07261E-05
 -1      1050 0.00000E+00 9.71620E-05 1.05537E-05
 -1      1051 0.00000E+00 9.71622E-05 1.03813E-05
 -1      1052 0.00000E+00 1.01419E-04 1.19324E-05
 -1      1053 0.00000E+00 1.01419E-04 1.17602E-05
 -1      1054 0.00000E+00 1.01418E-04 1.15879E-05
 -1      1055 0.00000E+00 1.01418E-04 1.14156E-05
 -1      1056 0.00000E+00 1.01418E-04 1.12433E-05
 -1      1057 0.00000E+00 1.01418E-04 1.10710E-05
 -1      1058 0.00000E+00 1.01418E-04 1.08987E-05
 -1      1059 0.00000E+00 1.01418E-04 1.07264E-05
 -1      1060 0.00000E+00 1.01419E-04 1.05541E-05
 -1      1061 0.00000E+00 1.01419E-04 1.03819E-05
 -1      1062 0.00000E+00 1.06242E-04 1.19316E-05
 -1      1063 0.00000E+00 1.06241E-04 1.17595E-05
 -1      1064 0.00000E+00 1.06241E-04 1.15875E-05
 -1      1065 0.00000E+00 1.06241E-04 1.14154E-05
 -1      1066 0.00000E+00 1.06240E-04 1.12432E-05
 -1      1067 0.00000E+00 1.06240E-04 1.10711E-05
 -1      1068 0.00000E+00 1.06241E-04 1.08990E-05
 -1      1069 0.00000E+00 1.06241E-04 1.07268E-05
 -1      1070 0.00000E+00 1.06241E-04 1.05548E-05
 -1      1071 0.00000E+00 1.06242E-04 1.03827E-05
 -1      1072 0.00000E+00 1.11737E-04 1.19301E-05
 -1      1073 0.00000E+00 1.11736E-04 1.17584E-05
 -1      1074 0.00000E+00 1.11735E-04 1.15866E-05
 -1      1075 0.00000E+00 1.11735E-04 1.14148E-05
 -1      1076 0.00000E+00 1.11735E-04 1.12430E-05
 -1      1077 0.00000E+00 1.11735E-04 1.10713E-05
 -1      1078 0.00000E+00 1.11735E-04 1.08995E-05
 -1      1079 0.00000E+00 1.11735E-04 1.07277E-05
 -1      1080 0.00000E+00 1.11736E-04 1.05559E-05
 -1      1081 0.00000E+00 1.11737E-04 1.03842E-05
 -1      1082 0.00000E+00 1.18038E-04 1.19270E-05
 -1      1083 0.00000E+00 1.18037E-04 1.17557E-05
 -1      1084 0.00000E+00 1.18037E-04 1.15845E-05
 -1      1085 0.00000E+00 1.18036E-04 1.14134E-05
 -1      1086 0.00000E+00 1.18036E-04 1.12426E-05
 -1      1087 0.00000E+00 1.18036E-04 1.10717E-05
 -1      1088 0.00000E+00 1.18036E-04 1.09009E-05
 -1      1089 0.00000E+00 1.18037E-04 1.07298E-05
 -1      1090 0.00000E+00 1.18037E-04 1.05586E-05
 -1      1091 0.00000E+00 1.18038E-04 1.03873E-05
 -1      1092 0.00000E+00 1.25318E-04 1.19203E-05
 -1      1093 0.00000E+00 1.25317E-04 1.17495E-05
 -1      1094 0.00000E+00 1.25318E-04 1.15794E-05
 -1      1095 0.00000E+00 1.25319E-04 1.14100E-05
 -1      1096 0.00000E+00 1.25319E-04 1.12414E-05
 -1      1097 0.00000E+00 1.25319E-04 1.10730E-05
 -1      1098 0.00000E+00 1.25319E-04 1.09043E-05
 -1      1099 0.00000E+00 1.25318E-04 1.07350E-05
 -1      1100 0.00000E+00 1.25317E-04 1.05648E-05
 -1      1101 0.00000E+00 1.25318E-04 1.03940E-05
 -1      1102 0.00000E+00 1.33798E-04 1.19093E-05
 -1      1103 0.00000E+00 1.33801E-04 1.17382E-05
 -1      1104 0.00000E+00 1.33807E-04 1.15697E-05
 -1      1105 0.00000E+00 1.33813E-04 1.14037E-05
 -1      1106 0.00000E+00 1.33816E-04 1.12392E-05
 -1      1107 0.00000E+00 1.33816E-04 1.10751E-05
 -1      1108 0.00000E+00 1.33813E-04 1.09106E-05
 -1      1109 0.00000E+00 1.33807E-04 1.07446E-05
 -1      1110 0.00000E+00 1.33801E-04 1.05761E-05
 -1      1111 0.00000E+00 1.33798E-04 1.04050E-05
 -1      1112 0.00000E+00 1.43766E-04 1.18986E-05
 -1      1113 0.00000E+00 1.43789E-04 1.17295E-05
 -1      1114 0.00000E+00 1.43811E-04 1.15652E-05
 -1      1115 0.00000E+00 1.43826E-04 1.14020E-05
 -1      1116 0.00000E+00 1.43834E-04 1.12388E-05
 -1      1117 0.00000E+00 1.43834E-04 1.10755E-05
 -1      1118 0.00000E+00 1.43826E-04 1.09123E-05
 -1      1119 0.00000E+00 1.43811E-04 1.07492E-05
 -1      1120 0.00000E+00 1.43789E-04 1.05848E-05
 -1      1121 0.00000E+00 1.43766E-04 1.04157E-05
 -1      1122 0.00000E+00 1.55652E-04 1.19535E-05
 -1      1123 0.00000E+00 1.55706E-04 1.17906E-05
 -1      1124 0.00000E+00 1.55737E-04 1.16172E-05
 -1      1125 0.00000E+00 1.55755E-04 1.14361E-05
 -1      1126 0.00000E+00 1.55762E-04 1.12506E-05
 -1      1127 0.00000E+00 1.55762E-04 1.10637E-05
 -1      1128 0.00000E+00 1.55755E-04 1.08782E-05
 -1      1129 0.00000E+00 1.55737E-04 1.06971E-05
 -1      1130 0.00000E+00 1.55706E-04 1.05237E-05
 -1      1131 0.00000E+00 1.55652E-04 1.03608E-05
 -1      1132 2.65891E-05 1.67877E-04 1.23218E-05
 -1      1133 2.66017E-05 1.67957E-04 1.20355E-05
 -1      1134 2.66081E-05 1.67997E-04 1.17704E-05
 -1      1135 2.66114E-05 1.68018E-04 1.15197E-05
 -1      1136 2.66128E-05 1.68027E-04 1.12771E-05
 -1      1137 2.66128E-05 1.68027E-04 1.10372E-05
 -1      1138 2.66114E-05 1.68018E-04 1.07946E-05
 -1      1139 2.66081E-05 1.67997E-04 1.05439E-05
 -1      1140 2.66017E-05 1.67957E-04 1.02788E-05
 -1      1141 2.65891E-05 1.67877E-04 9.99251E-06
 -1      1142 5.25236E-05 1.61651E-04 1.23218E-05
 -1      1143 5.25484E-05 1.61727E-04 1.20355E-05
 -1      1144 5.25611E-05 1.61766E-04 1.17704E-05
 -1      1145 5.25676E-05 1.61786E-04 1.15197E-05
 -1      1146 5.25703E-05 1.61795E-04 1.12771E-05
 -1      1147 5.25703E-05 1.61795E-04 1.10372E-05
 -1      1148 5.25676E-05 1.61786E-04 1.07946E-05
 -1      1149 5.25611E-05 1.61766E-04 1.05439E-05
 -1      1150 5.25484E-05 1.61727E-04 1.02788E-05
 -1      1151 5.25236E-05 1.61651E-04 9.99251E-06
 -1      1152 7.71647E-05 1.51444E-04 1.23218E-05
 -1      1153 7.72012E-05 1.51516E-04 1.20355E-05
 -1      1154 7.72199E-05 1.51553E-04 1.17704E-05
 -1      1155 7.72293E-05 1.51571E-04 1.15197E-05
 -1      1156 7.72333E-05 1.51579E-04 1.12771E-05
 -1      1157 7.72333E-05 1.51579E-04 1.10372E-05
 -1      1158 7.72293E-05 1.51571E-04 1.07946E-05
 -1      1159 7.72199E-05 1.51553E-04 1.05439E-05
 -1      1160 7.72012E-05 1.51516E-04 1.02788E-05
 -1      1161 7.71647E-05 1.51444E-04 9.99251E-06
 -1      1162 9.99058E-05 1.37509E-04 1.23218E-05
 -1      1163 9.99530E-05 1.37574E-04 1.20355E-05
 -1      1164 9.99772E-05 1.37607E-04 1.17704E-05
 -1      1165 9.99894E-05 1.37624E-04 1.15197E-05
 -1      1166 9.99946E-05 1.37631E-04 1.12771E-05
 -1      1167 9.99946E-05 1.37631E-04 1.10372E-05
 -1      1168 9.99894E-05 1.37624E-04 1.07946E-05
 -1      1169 9.99772E-05 1.37607E-04 1.05439E-05
 -1      1170 9.99530E-05 1.37574E-04 1.02788E-05
 -1      1171 9.99058E-05 1.37509E-04 9.99251E-06
 -1      1172 1.20187E-04 1.20187E-04 1.23218E-05
 -1      1173 1.20244E-04 1.20244E-04 1.20355E-05
 -1      1174 1.20273E-04 1.20273E-04 1.17704E-05
 -1      1175 1.20287E-04 1.20287E-04 1.15197E-05
 -1      1176 1.20294E-04 1.20294E-04 1.12771E-05
 -1      1177 1.20294E-04 1.20294E-04 1.10372E-05
 -1      1178 1.20287E-04 1.20287E-04 1.07946E-05
 -1      1179 1.20273E-04 1.20273E-04 1.05439E-05
 -1      1180 1.20244E-04 1.20244E-04 1.02788E-05
 -1      1181 1.20187E-04 1.20187E-04 9.99251E-06
 -1      1182 1.37509E-04 9.99058E-05 1.23218E-05
 -1      1183 1.37574E-04 9.99530E-05 1.20355E-05
 -1      1184 1.37607E-04 9.99772E-05 1.17704E-05
 -1      1185 1.37624E-04 9.99894E-05 1.15197E-05
 -1      1186 1.37631E-04 9.99946E-05 1.12771E-05
 -1      1187 1.37631E-04 9.99946E-05 1.10372E-05
 -1      1188 1.37624E-04 9.99894E-05 1.07946E-05
 -1      1189 1.37607E-04 9.99772E-05 1.05439E-05
 -1      1190 1.37574E-04 9.99530E-05 1.02788E-05
 -1      1191 1.37509E-04 9.99058E-05 9.99251E-06
 -1      1192 1.51444E-04 7.71647E-05 1.23218E-05
 -1      1193 1.51516E-04 7.72012E-05 1.20355E-05
 -1      1194 1.51553E-04 7.72199E-05 1.17704E-05
 -1      1195 1.51571E-04 7.72293E-05 1.15197E-05
 -1      1196 1.51579E-04 7.72333E-05 1.12771E-05
 -1      1197 1.51579E-04 7.72333E-05 1.10372E-05
 -1      1198 1.51571E-04 7.72293E-05 1.07946E-05
 -1      1199 1.51553E-04 7.72199E-05 1.05439E-05
 -1      1200 1.51516E-04 7.72012E-05 1.02788E-05
 -1      1201 1.51444E-04 7.71647E-05 9.99251E-06
 -1      1202 1.61651E-04 5.25236E-05 1.23218E-05
 -1      1203 1.61727E-04 5.25484E-05 1.20355E-05
 -1      1204 1.61766E-04 5.25611E-05 1.17704E-05
 -1      1205 1.61786E-04 5.25676E-05 1.15197E-05
 -1      1206 1.61795E-04 5.25703E-05 1.12771E-05
 -1      1207 1.61795E-04 5.25703E-05 1.10372E-05
 -1      1208 1.61786E-04 5.25676E-05 1.07946E-05
 -1      1209 1.61766E-04 5.25611E-05 1.05439E-05
 -1      1210 1.61727E-04 5.25484E-05 1.02788E-05
 -1      1211 1.61651E-04 5.25236E-05 9.99251E-06
 -1      1212 1.67877E-04 2.65891E-05 1.23218E-05
 -1      1213 1.67957E-04 2.66017E-05 1.20355E-05
 -1      1214 1.67997E-04 2.66081E-05 1.17704E-05
 -1      1215 1.68018E-04 2.66114E-05 1.15197E-05
 -1      1216 1.68027E-04 2.66128E-05 1.12771E-05
 -1      1217 1.68027E-04 2.66128E-05 1.10372E-05
 -1      1218 1.68018E-04 2.66114E-05 1.07946E-05
 -1      1219 1.67997E-04 2.66081E-05 1.05439E-05
 -1      1220 1.67957E-04 2.66017E-05 1.02788E-05
 -1      1221 1.67877E-04 2.65891E-05 9.99251E-06
 -1      1222 1.53655E-04 2.43366E-05 1.02060E-05
 -1      1223 1.47956E-04 4.80739E-05 1.02060E-05
 -1      1224 1.38614E-04 7.06275E-05 1.02060E-05
 -1      1225 1.25859E-04 9.14421E-05 1.02060E-05
 -1      1226 1.10005E-04 1.10005E-04 1.02060E-05
 -1      1227 9.14421E-05 1.25859E-04 1.02060E-05
 -1      1228 7.06275E-05 1.38614E-04 1.02060E-05
 -1      1229 4.80739E-05 1.47956E-04 1.02060E-05
 -1      1230 2.43366E-05 1.53655E-04 1.02060E-05
 -1      1231 1.41989E-04 2.24889E-05 1.02361E-05
 -1      1232 1.36723E-04 4.44241E-05 1.02361E-05
 -1      1233 1.28091E-04 6.52654E-05 1.02361E-05
 -1      1234 1.16304E-04 8.44996E-05 1.02361E-05
 -1      1235 1.01653E-04 1.01653E-04 1.02361E-05
 -1      1236 8.44996E-05 1.16304E-04 1.02361E-05
 -1      1237 6.52654E-05 1.28091E-04 1.02361E-05
 -1      1238 4.44241E-05 1.36723E-04 1.02361E-05
 -1      1239 2.24889E-05 1.41989E-04 1.02361E-05
 -1      1240 1.32151E-04 2.09307E-05 1.02337E-05
 -1      1241 1.27250E-04 4.13460E-05 1.02337E-05
 -1      1242 1.19215E-04 6.07433E-05 1.02337E-05
 -1      1243 1.08245E-04 7.86448E-05 1.02337E-05
 -1      1244 9.46098E-05 9.46098E-05 1.02337E-05
 -1      1245 7.86448E-05 1.08245E-04 1.02337E-05
 -1      1246 6.07433E-05 1.19215E-04 1.02337E-05
 -1      1247 4.13460E-05 1.27250E-04 1.02337E-05
 -1      1248 2.09307E-05 1.32151E-04 1.02337E-05
 -1      1249 1.23777E-04 1.96044E-05 1.02226E-05
 -1      1250 1.19187E-04 3.87261E-05 1.02226E-05
 -1      1251 1.11661E-04 5.68942E-05 1.02226E-05
 -1      1252 1.01386E-04 7.36614E-05 1.02226E-05
 -1      1253 8.86148E-05 8.86148E-05 1.02226E-05
 -1      1254 7.36614E-05 1.01386E-04 1.02226E-05
 -1      1255 5.68942E-05 1.11661E-04 1.02226E-05
 -1      1256 3.87261E-05 1.19187E-04 1.02226E-05
 -1      1257 1.96044E-05 1.23777E-04 1.02226E-05
 -1      1258 1.16587E-04 1.84655E-05 1.02159E-05
 -1      1259 1.12263E-04 3.64764E-05 1.02159E-05
 -1      1260 1.05174E-04 5.35890E-05 1.02159E-05
 -1      1261 9.54963E-05 6.93821E-05 1.02159E-05
 -1      1262 8.34669E-05 8.34669E-05 1.02159E-05
 -1      1263 6.93821E-05 9.54963E-05 1.02159E-05
 -1      1264 5.35890E-05 1.05174E-04 1.02159E-05
 -1      1265 3.64764E-05 1.12263E-04 1.02159E-05
 -1      1266 1.84655E-05 1.16587E-04 1.02159E-05
 -1      1267 1.10362E-04 1.74796E-05 1.02125E-05
 -1      1268 1.06269E-04 3.45288E-05 1.02125E-05
 -1      1269 9.95590E-05 5.07278E-05 1.02125E-05
 -1      1270 9.03976E-05 6.56777E-05 1.02125E-05
 -1      1271 7.90104E-05 7.90104E-05 1.02125E-05
 -1      1272 6.56777E-05 9.03976E-05 1.02125E-05
 -1      1273 5.07278E-05 9.95590E-05 1.02125E-05
 -1      1274 3.45288E-05 1.06269E-04 1.02125E-05
 -1      1275 1.74796E-05 1.10362E-04 1.02125E-05
 -1      1276 1.04934E-04 1.66199E-05 1.02107E-05
 -1      1277 1.01042E-04 3.28306E-05 1.02107E-05
 -1      1278 9.46624E-05 4.82329E-05 1.02107E-05
 -1      1279 8.59517E-05 6.24476E-05 1.02107E-05
 -1      1280 7.51245E-05 7.51245E-05 1.02107E-05
 -1      1281 6.24476E-05 8.59517E-05 1.02107E-05
 -1      1282 4.82329E-05 9.46624E-05 1.02107E-05
 -1      1283 3.28306E-05 1.01042E-04 1.02107E-05
 -1      1284 1.66199E-05 1.04934E-04 1.02107E-05
 -1      1285 1.00171E-04 1.58655E-05 1.02097E-05
 -1      1286 9.64554E-05 3.13402E-05 1.02097E-05
 -1      1287 9.03651E-05 4.60433E-05 1.02097E-05
 -1      1288 8.20498E-05 5.96127E-05 1.02097E-05
 -1      1289 7.17142E-05 7.17142E-05 1.02097E-05
 -1      1290 5.96127E-05 8.20498E-05 1.02097E-05
 -1      1291 4.60433E-05 9.03651E-05 1.02097E-05
 -1      1292 3.13402E-05 9.64554E-05 1.02097E-05
 -1      1293 1.58655E-05 1.00171E-04 1.02097E-05
 -1      1294 9.59662E-05 1.51995E-05 1.02089E-05
 -1      1295 9.24069E-05 3.00248E-05 1.02089E-05
 -1      1296 8.65723E-05 4.41108E-05 1.02089E-05
 -1      1297 7.86060E-05 5.71106E-05 1.02089E-05
 -1      1298 6.87042E-05 6.87042E-05 1.02089E-05
 -1      1299 5.71106E-05 7.86060E-05 1.02089E-05
 -1      1300 4.41108E-05 8.65723E-05 1.02089E-05
 -1      1301 3.00248E-05 9.24069E-05 1.02089E-05
 -1      1302 1.51995E-05 9.59662E-05 1.02089E-05
 -1      1303 9.22371E-05 1.46089E-05 1.02083E-05
 -1      1304 8.88161E-05 2.88581E-05 1.02083E-05
 -1      1305 8.32083E-05 4.23967E-05 1.02083E-05
 -1      1306 7.55515E-05 5.48914E-05 1.02083E-05
 -1      1307 6.60344E-05 6.60344E-05 1.02083E-05
 -1      1308 5.48914E-05 7.55515E-05 1.02083E-05
 -1      1309 4.23967E-05 8.32083E-05 1.02083E-05
 -1      1310 2.88581E-05 8.88161E-05 1.02083E-05
 -1      1311 1.46089E-05 9.22371E-05 1.02083E-05
 -1      1312 8.89153E-05 1.40828E-05 1.02079E-05
 -1      1313 8.56176E-05 2.78188E-05 1.02079E-05
 -1      1314 8.02117E-05 4.08699E-05 1.02079E-05
 -1      1315 7.28307E-05 5.29146E-05 1.02079E-05
 -1      1316 6.36563E-05 6.36563E-05 1.02079E-05
 -1      1317 5.29146E-05 7.28307E-05 1.02079E-05
 -1      1318 4.08699E-05 8.02117E-05 1.02079E-05
 -1      1319 2.78188E-05 8.56176E-05 1.02079E-05
 -1      1320 1.40828E-05 8.89153E-05 1.02079E-05
 -1      1321 8.59454E-05 1.36124E-05 1.02075E-05
 -1      1322 8.27578E-05 2.68896E-05 1.02075E-05
 -1      1323 7.75324E-05 3.95047E-05 1.02075E-05
 -1      1324 7.03980E-05 5.11471E-05 1.02075E-05
 -1      1325 6.15301E-05 6.15301E-05 1.02075E-05
 -1      1326 5.11471E-05 7.03980E-05 1.02075E-05
 -1      1327 3.95047E-05 7.75324E-05 1.02075E-05
 -1      1328 2.68896E-05 8.27578E-05 1.02075E-05
 -1      1329 1.36124E-05 8.59454E-05 1.02075E-05
 -1      1330 8.32813E-05 1.31905E-05 1.02072E-05
 -1      1331 8.01925E-05 2.60561E-05 1.02072E-05
 -1      1332 7.51292E-05 3.82802E-05 1.02072E-05
 -1      1333 6.82159E-05 4.95617E-05 1.02072E-05
 -1      1334 5.96228E-05 5.96228E-05 1.02072E-05
 -1      1335 4.95617E-05 6.82159E-05 1.02072E-05
 -1      1336 3.82802E-05 7.51292E-05 1.02072E-05
 -1      1337 2.60561E-05 8.01925E-05 1.02072E-05
 -1      1338 1.31905E-05 8.32813E-05 1.02072E-05
 -1      1339 8.08850E-05 1.28109E-05 1.02070E-05
 -1      1340 7.78851E-05 2.53064E-05 1.02070E-05
 -1      1341 7.29674E-05 3.71787E-05 1.02070E-05
 -1      1342 6.62530E-05 4.81356E-05 1.02070E-05
 -1      1343 5.79072E-05 5.79072E-05 1.02070E-05
 -1      1344 4.81356E-05 6.62530E-05 1.02070E-05
 -1      1345 3.71787E-05 7.29674E-05 1.02070E-05
 -1      1346 2.53064E-05 7.78851E-05 1.02070E-05
 -1      1347 1.28109E-05 8.08850E-05 1.02070E-05
 -1      1348 7.87241E-05 1.24687E-05 1.02068E-05
 -1      1349 7.58044E-05 2.46303E-05 1.02068E-05
 -1      1350 7.10181E-05 3.61855E-05 1.02068E-05
 -1      1351 6.44831E-05 4.68497E-05 1.02068E-05
 -1      1352 5.63603E-05 5.63603E-05 1.02068E-05
 -1      1353 4.68497E-05 6.44831E-05 1.02068E-05
 -1      1354 3.61855E-05 7.10181E-05 1.02068E-05
 -1      1355 2.46303E-05 7.58044E-05 1.02068E-05
 -1      1356 1.24687E-05 7.87241E-05 1.02068E-05
 -1      1357 7.67717E-05 1.21594E-05 1.02066E-05
 -1      1358 7.39244E-05 2.40195E-05 1.02066E-05
 -1      1359 6.92568E-05 3.52881E-05 1.02066E-05
 -1      1360 6.28838E-05 4.56878E-05 1.02066E-05
 -1      1361 5.49625E-05 5.49625E-05 1.02066E-05
 -1      1362 4.56878E-05 6.28838E-05 1.02066E-05
 -1      1363 3.52881E-05 6.92568E-05 1.02066E-05
 -1      1364 2.40195E-05 7.39244E-05 1.02066E-05
 -1      1365 1.21594E-05 7.67717E-05 1.02066E-05
 -1      1366 7.50045E-05 1.18795E-05 1.02065E-05
 -1      1367 7.22227E-05 2.34666E-05 1.02065E-05
 -1      1368 6.76625E-05 3.44758E-05 1.02065E-05
 -1      1369 6.14363E-05 4.46361E-05 1.02065E-05
 -1      1370 5.36973E-05 5.36973E-05 1.02065E-05
 -1      1371 4.46361E-05 6.14363E-05 1.02065E-05
 -1      1372 3.44758E-05 6.76625E-05 1.02065E-05
 -1      1373 2.34666E-05 7.22227E-05 1.02065E-05
 -1      1374 1.18795E-05 7.50045E-05 1.02065E-05
 -1      1375 7.34027E-05 1.16258E-05 1.02064E-05
 -1      1376 7.06803E-05 2.29654E-05 1.02064E-05
 -1      1377 6.62175E-05 3.37395E-05 1.02064E-05
 -1      1378 6.01242E-05 4.36828E-05 1.02064E-05
 -1      1379 5.25505E-05 5.25505E-05 1.02064E-05
 -1      1380 4.36828E-05 6.01242E-05 1.02064E-05
 -1      1381 3.37395E-05 6.62175E-05 1.02064E-05
 -1      1382 2.29654E-05 7.06803E-05 1.02064E-05
 -1      1383 1.16258E-05 7.34027E-05 1.02064E-05
 -1      1384 7.19491E-05 1.13956E-05 1.02063E-05
 -1      1385 6.92806E-05 2.25106E-05 1.02063E-05
 -1      1386 6.49062E-05 3.30714E-05 1.02063E-05
 -1      1387 5.89336E-05 4.28178E-05 1.02063E-05
 -1      1388 5.15099E-05 5.15099E-05 1.02063E-05
 -1      1389 4.28178E-05 5.89336E-05 1.02063E-05
 -1      1390 3.30714E-05 6.49062E-05 1.02063E-05
 -1      1391 2.25106E-05 6.92806E-05 1.02063E-05
 -1      1392 1.13956E-05 7.19491E-05 1.02063E-05
 -1      1393 7.06290E-05 1.11865E-05 1.02062E-05
 -1      1394 6.80095E-05 2.20976E-05 1.02062E-05
 -1      1395 6.37153E-05 3.24646E-05 1.02062E-05
 -1      1396 5.78523E-05 4.20322E-05 1.02062E-05
 -1      1397 5.05648E-05 5.05648E-05 1.02062E-05
 -1      1398 4.20322E-05 5.78523E-05 1.02062E-05
 -1      1399 3.24646E-05 6.37153E-05 1.02062E-05
 -1      1400 2.20976E-05 6.80095E-05 1.02062E-05
 -1      1401 1.11865E-05 7.06290E-05 1.02062E-05
 -1      1402 6.94294E-05 1.09965E-05 1.02061E-05
 -1      1403 6.68544E-05 2.17223E-05 1.02061E-05
 -1      1404 6.26332E-05 3.19132E-05 1.02061E-05
 -1      1405 5.68697E-05 4.13183E-05 1.02061E-05
 -1      1406 4.97060E-05 4.97060E-05 1.02061E-05
 -1      1407 4.13183E-05 5.68697E-05 1.02061E-05
 -1      1408 3.19132E-05 6.26332E-05 1.02061E-05
 -1      1409 2.17223E-05 6.68544E-05 1.02061E-05
 -1      1410 1.09965E-05 6.94294E-05 1.02061E-05
 -1      1411 6.83391E-05 1.08238E-05 1.02061E-05
 -1      1412 6.58045E-05 2.13812E-05 1.02061E-05
 -1      1413 6.16496E-05 3.14120E-05 1.02061E-05
 -1      1414 5.59766E-05 4.06694E-05 1.02061E-05
 -1      1415 4.89254E-05 4.89254E-05 1.02061E-05
 -1      1416 4.06694E-05 5.59766E-05 1.02061E-05
 -1      1417 3.14120E-05 6.16496E-05 1.02061E-05
 -1      1418 2.13812E-05 6.58045E-05 1.02061E-05
 -1      1419 1.08238E-05 6.83391E-05 1.02061E-05
 -1      1420 6.73480E-05 1.06669E-05 1.02060E-05
 -1      1421 6.48502E-05 2.10711E-05 1.02060E-05
 -1      1422 6.07555E-05 3.09565E-05 1.02060E-05
 -1      1423 5.51649E-05 4.00796E-05 1.02060E-05
 -1      1424 4.82159E-05 4.82159E-05 1.02060E-05
 -1      1425 4.00796E-05 5.51649E-05 1.02060E-05
 -1      1426 3.09565E-05 6.07555E-05 1.02060E-05
 -1      1427 2.10711E-05 6.48502E-05 1.02060E-05
 -1      1428 1.06669E-05 6.73480E-05 1.02060E-05
 -1      1429 6.64475E-05 1.05243E-05 1.02060E-05
 -1      1430 6.39831E-05 2.07894E-05 1.02060E-05
 -1      1431 5.99432E-05 3.05426E-05 1.02060E-05
 -1      1432 5.44273E-05 3.95437E-05 1.02060E-05
 -1      1433 4.75712E-05 4.75712E-05 1.02060E-05
 -1      1434 3.95437E-05 5.44273E-05 1.02060E-05
 -1      1435 3.05426E-05 5.99432E-05 1.02060E-05
 -1      1436 2.07894E-05 6.39831E-05 1.02060E-05
 -1      1437 1.05243E-05 6.64475E-05 1.02060E-05
 -1      1438 6.56298E-05 1.03947E-05 1.02059E-05
 -1      1439 6.31957E-05 2.05335E-05 1.02059E-05
 -1      1440 5.92055E-05 3.01667E-05 1.02059E-05
 -1      1441 5.37575E-05 3.90571E-05 1.02059E-05
 -1      1442 4.69858E-05 4.69858E-05 1.02059E-05
 -1      1443 3.90571E-05 5.37575E-05 1.02059E-05
 -1      1444 3.01667E-05 5.92055E-05 1.02059E-05
 -1      1445 2.05335E-05 6.31957E-05 1.02059E-05
 -1      1446 1.03947E-05 6.56298E-05 1.02059E-05
 -1      1447 6.48880E-05 1.02772E-05 1.02058E-05
 -1      1448 6.24814E-05 2.03014E-05 1.02058E-05
 -1      1449 5.85363E-05 2.98257E-05 1.02058E-05
 -1      1450 5.31498E-05 3.86156E-05 1.02058E-05
 -1      1451 4.64547E-05 4.64547E-05 1.02058E-05
 -1      1452 3.86156E-05 5.31498E-05 1.02058E-05
 -1      1453 2.98257E-05 5.85363E-05 1.02058E-05
 -1      1454 2.03014E-05 6.24814E-05 1.02058E-05
 -1      1455 1.02772E-05 6.48880E-05 1.02058E-05
 -1      1456 6.42157E-05 1.01708E-05 1.02056E-05
 -1      1457 6.18340E-05 2.00911E-05 1.02056E-05
 -1      1458 5.79298E-05 2.95167E-05 1.02056E-05
 -1      1459 5.25992E-05 3.82155E-05 1.02056E-05
 -1      1460 4.59734E-05 4.59734E-05 1.02056E-05
 -1      1461 3.82155E-05 5.25992E-05 1.02056E-05
 -1      1462 2.95167E-05 5.79298E-05 1.02056E-05
 -1      1463 2.00911E-05 6.18340E-05 1.02056E-05
 -1      1464 1.01708E-05 6.42157E-05 1.02056E-05
 -1      1465 6.36072E-05 1.00744E-05 1.02057E-05
 -1      1466 6.12482E-05 1.99007E-05 1.02057E-05
 -1      1467 5.73809E-05 2.92370E-05 1.02057E-05
 -1      1468 5.21008E-05 3.78534E-05 1.02057E-05
 -1      1469 4.55378E-05 4.55378E-05 1.02057E-05
 -1      1470 3.78534E-05 5.21008E-05 1.02057E-05
 -1      1471 2.92370E-05 5.73809E-05 1.02057E-05
 -1      1472 1.99007E-05 6.12482E-05 1.02057E-05
 -1      1473 1.00744E-05 6.36072E-05 1.02057E-05
 -1      1474 6.30570E-05 9.98725E-06 1.02063E-05
 -1      1475 6.07183E-05 1.97286E-05 1.02063E-05
 -1      1476 5.68845E-05 2.89841E-05 1.02063E-05
 -1      1477 5.16501E-05 3.75260E-05 1.02063E-05
 -1      1478 4.51438E-05 4.51438E-05 1.02063E-05
 -1      1479 3.75260E-05 5.16501E-05 1.02063E-05
 -1      1480 2.89841E-05 5.68845E-05 1.02063E-05
 -1      1481 1.97286E-05 6.07183E-05 1.02063E-05
 -1      1482 9.98725E-06 6.30570E-05 1.02063E-05
 -1      1483 1.53736E-04 2.43494E-05 1.19535E-05
 -1      1484 1.53789E-04 2.43578E-05 1.17906E-05
 -1      1485 1.53820E-04 2.43627E-05 1.16172E-05
 -1      1486 1.53837E-04 2.43654E-05 1.14361E-05
 -1      1487 1.53845E-04 2.43666E-05 1.12506E-05
 -1      1488 1.53845E-04 2.43666E-05 1.10637E-05
 -1      1489 1.53837E-04 2.43654E-05 1.08782E-05
 -1      1490 1.53820E-04 2.43627E-05 1.06971E-05
 -1      1491 1.53789E-04 2.43578E-05 1.05237E-05
 -1      1492 1.53736E-04 2.43494E-05 1.03608E-05
 -1      1493 1.48034E-04 4.80993E-05 1.19535E-05
 -1      1494 1.48085E-04 4.81157E-05 1.17906E-05
 -1      1495 1.48115E-04 4.81255E-05 1.16172E-05
 -1      1496 1.48132E-04 4.81309E-05 1.14361E-05
 -1      1497 1.48139E-04 4.81332E-05 1.12506E-05
 -1      1498 1.48139E-04 4.81332E-05 1.10637E-05
 -1      1499 1.48132E-04 4.81309E-05 1.08782E-05
 -1      1500 1.48115E-04 4.81255E-05 1.06971E-05
 -1      1501 1.48085E-04 4.81157E-05 1.05237E-05
 -1      1502 1.48034E-04 4.80993E-05 1.03608E-05
 -1      1503 1.38687E-04 7.06647E-05 1.19535E-05
 -1      1504 1.38735E-04 7.06889E-05 1.17906E-05
 -1      1505 1.38763E-04 7.07033E-05 1.16172E-05
 -1      1506 1.38778E-04 7.07112E-05 1.14361E-05
 -1      1507 1.38785E-04 7.07146E-05 1.12506E-05
 -1      1508 1.38785E-04 7.07146E-05 1.10637E-05
 -1      1509 1.38778E-04 7.07112E-05 1.08782E-05
 -1      1510 1.38763E-04 7.07033E-05 1.06971E-05
 -1      1511 1.38735E-04 7.06889E-05 1.05237E-05
 -1      1512 1.38687E-04 7.06647E-05 1.03608E-05
 -1      1513 1.25925E-04 9.14902E-05 1.19535E-05
 -1      1514 1.25969E-04 9.15216E-05 1.17906E-05
 -1      1515 1.25994E-04 9.15402E-05 1.16172E-05
 -1      1516 1.26008E-04 9.15503E-05 1.14361E-05
 -1      1517 1.26014E-04 9.15548E-05 1.12506E-05
 -1      1518 1.26014E-04 9.15548E-05 1.10637E-05
 -1      1519 1.26008E-04 9.15503E-05 1.08782E-05
 -1      1520 1.25994E-04 9.15402E-05 1.06971E-05
 -1      1521 1.25969E-04 9.15216E-05 1.05237E-05
 -1      1522 1.25925E-04 9.14902E-05 1.03608E-05
 -1      1523 1.10063E-04 1.10063E-04 1.19535E-05
 -1      1524 1.10101E-04 1.10101E-04 1.17906E-05
 -1      1525 1.10123E-04 1.10123E-04 1.16172E-05
 -1      1526 1.10135E-04 1.10135E-04 1.14361E-05
 -1      1527 1.10141E-04 1.10141E-04 1.12506E-05
 -1      1528 1.10141E-04 1.10141E-04 1.10637E-05
 -1      1529 1.10135E-04 1.10135E-04 1.08782E-05
 -1      1530 1.10123E-04 1.10123E-04 1.06971E-05
 -1      1531 1.10101E-04 1.10101E-04 1.05237E-05
 -1      1532 1.10063E-04 1.10063E-04 1.03608E-05
 -1      1533 9.14902E-05 1.25925E-04 1.19535E-05
 -1      1534 9.15216E-05 1.25969E-04 1.17906E-05
 -1      1535 9.15402E-05 1.25994E-04 1.16172E-05
 -1      1536 9.15503E-05 1.26008E-04 1.14361E-05
 -1      1537 9.15548E-05 1.26014E-04 1.12506E-05
 -1      1538 9.15548E-05 1.26014E-04 1.10637E-05
 -1      1539 9.15503E-05 1.26008E-04 1.08782E-05
 -1      1540 9.15402E-05 1.25994E-04 1.06971E-05
 -1      1541 9.15216E-05 1.25969E-04 1.05237E-05
 -1      1542 9.14902E-05 1.25925E-04 1.03608E-05
 -1      1543 7.06647E-05 1.38687E-04 1.19535E-05
 -1      1544 7.06889E-05 1.38735E-04 1.17906E-05
 -1      1545 7.07033E-05 1.38763E-04 1.16172E-05
 -1      1546 7.07112E-05 1.38778E-04 1.14361E-05
 -1      1547 7.07146E-05 1.38785E-04 1.12506E-05
 -1      1548 7.07146E-05 1.38785E-04 1.10637E-05
 -1      1549 7.07112E-05 1.38778E-04 1.08782E-05
 -1      1550 7.07033E-05 1.38763E-04 1.06971E-05
 -1      1551 7.06889E-05 1.38735E-04 1.05237E-05
 -1      1552 7.06647E-05 1.38687E-04 1.03608E-05
 -1      1553 4.80993E-05 1.48034E-04 1.19535E-05
 -1      1554 4.81157E-05 1.48085E-04 1.17906E-05
 -1      1555 4.81255E-05 1.48115E-04 1.16172E-05
 -1      1556 4.81309E-05 1.48132E-04 1.14361E-05
 -1      1557 4.81332E-05 1.48139E-04 1.12506E-05
 -1      1558 4.81332E-05 1.48139E-04 1.10637E-05
 -1      1559 4.81309E-05 1.48132E-04 1.08782E-05
 -1      1560 4.81255E-05 1.48115E-04 1.06971E-05
 -1      1561 4.81157E-05 1.48085E-04 1.05237E-05
 -1      1562 4.80993E-05 1.48034E-04 1.03608E-05
 -1      1563 2.43494E-05 1.53736E-04 1.19535E-05
 -1      1564 2.43578E-05 1.53789E-04 1.17906E-05
 -1      1565 2.43627E-05 1.53820E-04 1.16172E-05
 -1      1566 2.43654E-05 1.53837E-04 1.14361E-05
 -1      1567 2.43666E-05 1.53845E-04 1.12506E-05
 -1      1568 2.43666E-05 1.53845E-04 1.10637E-05
 -1      1569 2.43654E-05 1.53837E-04 1.08782E-05
 -1      1570 2.43627E-05 1.53820E-04 1.06971E-05
 -1      1571 2.43578E-05 1.53789E-04 1.05237E-05
 -1      1572 2.43494E-05 1.53736E-04 1.03608E-05
 -1      1573 1.41996E-04 2.24899E-05 1.18986E-05
 -1      1574 1.42019E-04 2.24936E-05 1.17295E-05
 -1      1575 1.42041E-04 2.24970E-05 1.15652E-05
 -1      1576 1.42056E-04 2.24994E-05 1.14020E-05
 -1      1577 1.42063E-04 2.25006E-05 1.12388E-05
 -1      1578 1.42063E-04 2.25006E-05 1.10755E-05
 -1      1579 1.42056E-04 2.24994E-05 1.09123E-05
 -1      1580 1.42041E-04 2.24970E-05 1.07492E-05
 -1      1581 1.42019E-04 2.24936E-05 1.05848E-05
 -1      1582 1.41996E-04 2.24899E-05 1.04157E-05
 -1      1583 1.36729E-04 4.44261E-05 1.18986E-05
 -1      1584 1.36752E-04 4.44333E-05 1.17295E-05
 -1      1585 1.36772E-04 4.44401E-05 1.15652E-05
 -1      1586 1.36787E-04 4.44448E-05 1.14020E-05
 -1      1587 1.36794E-04 4.44471E-05 1.12388E-05
 -1      1588 1.36794E-04 4.44471E-05 1.10755E-05
 -1      1589 1.36787E-04 4.44448E-05 1.09123E-05
 -1      1590 1.36772E-04 4.44401E-05 1.07492E-05
 -1      1591 1.36752E-04 4.44333E-05 1.05848E-05
 -1      1592 1.36729E-04 4.44261E-05 1.04157E-05
 -1      1593 1.28096E-04 6.52683E-05 1.18986E-05
 -1      1594 1.28117E-04 6.52789E-05 1.17295E-05
 -1      1595 1.28137E-04 6.52889E-05 1.15652E-05
 -1      1596 1.28150E-04 6.52958E-05 1.14020E-05
 -1      1597 1.28157E-04 6.52992E-05 1.12388E-05
 -1      1598 1.28157E-04 6.52992E-05 1.10755E-05
 -1      1599 1.28150E-04 6.52958E-05 1.09123E-05
 -1      1600 1.28137E-04 6.52889E-05 1.07492E-05
 -1      1601 1.28117E-04 6.52789E-05 1.05848E-05
 -1      1602 1.28096E-04 6.52683E-05 1.04157E-05
 -1      1603 1.16309E-04 8.45034E-05 1.18986E-05
 -1      1604 1.16328E-04 8.45171E-05 1.17295E-05
 -1      1605 1.16346E-04 8.45300E-05 1.15652E-05
 -1      1606 1.16358E-04 8.45390E-05 1.14020E-05
 -1      1607 1.16364E-04 8.45434E-05 1.12388E-05
 -1      1608 1.16364E-04 8.45434E-05 1.10755E-05
 -1      1609 1.16358E-04 8.45390E-05 1.09123E-05
 -1      1610 1.16346E-04 8.45300E-05 1.07492E-05
 -1      1611 1.16328E-04 8.45171E-05 1.05848E-05
 -1      1612 1.16309E-04 8.45034E-05 1.04157E-05
 -1      1613 1.01658E-04 1.01658E-04 1.18986E-05
 -1      1614 1.01674E-04 1.01674E-04 1.17295E-05
 -1      1615 1.01690E-04 1.01690E-04 1.15652E-05
 -1      1616 1.01701E-04 1.01701E-04 1.14020E-05
 -1      1617 1.01706E-04 1.01706E-04 1.12388E-05
 -1      1618 1.01706E-04 1.01706E-04 1.10755E-05
 -1      1619 1.01701E-04 1.01701E-04 1.09123E-05
 -1      1620 1.01690E-04 1.01690E-04 1.07492E-05
 -1      1621 1.01674E-04 1.01674E-04 1.05848E-05
 -1      1622 1.01658E-04 1.01658E-04 1.04157E-05
 -1      1623 8.45034E-05 1.16309E-04 1.18986E-05
 -1      1624 8.45171E-05 1.16328E-04 1.17295E-05
 -1      1625 8.45300E-05 1.16346E-04 1.15652E-05
 -1      1626 8.45390E-05 1.16358E-04 1.14020E-05
 -1      1627 8.45434E-05 1.16364E-04 1.12388E-05
 -1      1628 8.45434E-05 1.16364E-04 1.10755E-05
 -1      1629 8.45390E-05 1.16358E-04 1.09123E-05
 -1      1630 8.45300E-05 1.16346E-04 1.07492E-05
 -1      1631 8.45171E-05 1.16328E-04 1.05848E-05
 -1      1632 8.45034E-05 1.16309E-04 1.04157E-05
 -1      1633 6.52683E-05 1.28096E-04 1.18986E-05
 -1      1634 6.52789E-05 1.28117E-04 1.17295E-05
 -1      1635 6.52889E-05 1.28137E-04 1.15652E-05
 -1      1636 6.52958E-05 1.28150E-04 1.14020E-05
 -1      1637 6.52992E-05 1.28157E-04 1.12388E-05
 -1      1638 6.52992E-05 1.28157E-04 1.10755E-05
 -1      1639 6.52958E-05 1.28150E-04 1.09123E-05
 -1      1640 6.52889E-05 1.28137E-04 1.07492E-05
 -1      1641 6.52789E-05 1.28117E-04 1.05848E-05
 -1      1642 6.52683E-05 1.28096E-04 1.04157E-05
 -1      1643 4.44261E-05 1.36729E-04 1.18986E-05
 -1      1644 4.44333E-05 1.36752E-04 1.17295E-05
 -1      1645 4.44401E-05 1.36772E-04 1.15652E-05
 -1      1646 4.44448E-05 1.36787E-04 1.14020E-05
 -1      1647 4.44471E-05 1.36794E-04 1.12388E-05
 -1      1648 4.44471E-05 1.36794E-04 1.10755E-05
 -1      1649 4.44448E-05 1.36787E-04 1.09123E-05
 -1      1650 4.44401E-05 1.36772E-04 1.07492E-05
 -1      1651 4.44333E-05 1.36752E-04 1.05848E-05
 -1      1652 4.44261E-05 1.36729E-04 1.04157E-05
 -1      1653 2.24899E-05 1.41996E-04 1.18986E-05
 -1      1654 2.24936E-05 1.42019E-04 1.17295E-05
 -1      1655 2.24970E-05 1.42041E-04 1.15652E-05
 -1      1656 2.24994E-05 1.42056E-04 1.14020E-05
 -1      1657 2.25006E-05 1.42063E-04 1.12388E-05
 -1      1658 2.25006E-05 1.42063E-04 1.10755E-05
 -1      1659 2.24994E-05 1.42056E-04 1.09123E-05
 -1      1660 2.24970E-05 1.42041E-04 1.07492E-05
 -1      1661 2.24936E-05 1.42019E-04 1.05848E-05
 -1      1662 2.24899E-05 1.41996E-04 1.04157E-05
 -1      1663 1.32151E-04 2.09306E-05 1.19093E-05
 -1      1664 1.32153E-04 2.09310E-05 1.17382E-05
 -1      1665 1.32159E-04 2.09320E-05 1.15697E-05
 -1      1666 1.32165E-04 2.09330E-05 1.14037E-05
 -1      1667 1.32169E-04 2.09335E-05 1.12392E-05
 -1      1668 1.32169E-04 2.09335E-05 1.10751E-05
 -1      1669 1.32165E-04 2.09330E-05 1.09106E-05
 -1      1670 1.32159E-04 2.09320E-05 1.07446E-05
 -1      1671 1.32153E-04 2.09310E-05 1.05761E-05
 -1      1672 1.32151E-04 2.09306E-05 1.04050E-05
 -1      1673 1.27249E-04 4.13458E-05 1.19093E-05
 -1      1674 1.27252E-04 4.13467E-05 1.17382E-05
 -1      1675 1.27258E-04 4.13486E-05 1.15697E-05
 -1      1676 1.27264E-04 4.13505E-05 1.14037E-05
 -1      1677 1.27267E-04 4.13516E-05 1.12392E-05
 -1      1678 1.27267E-04 4.13516E-05 1.10751E-05
 -1      1679 1.27264E-04 4.13505E-05 1.09106E-05
 -1      1680 1.27258E-04 4.13486E-05 1.07446E-05
 -1      1681 1.27252E-04 4.13467E-05 1.05761E-05
 -1      1682 1.27249E-04 4.13458E-05 1.04050E-05
 -1      1683 1.19215E-04 6.07430E-05 1.19093E-05
 -1      1684 1.19217E-04 6.07442E-05 1.17382E-05
 -1      1685 1.19223E-04 6.07470E-05 1.15697E-05
 -1      1686 1.19228E-04 6.07498E-05 1.14037E-05
 -1      1687 1.19231E-04 6.07514E-05 1.12392E-05
 -1      1688 1.19231E-04 6.07514E-05 1.10751E-05
 -1      1689 1.19228E-04 6.07498E-05 1.09106E-05
 -1      1690 1.19223E-04 6.07470E-05 1.07446E-05
 -1      1691 1.19217E-04 6.07442E-05 1.05761E-05
 -1      1692 1.19215E-04 6.07430E-05 1.04050E-05
 -1      1693 1.08245E-04 7.86445E-05 1.19093E-05
 -1      1694 1.08247E-04 7.86461E-05 1.17382E-05
 -1      1695 1.08252E-04 7.86497E-05 1.15697E-05
 -1      1696 1.08257E-04 7.86533E-05 1.14037E-05
 -1      1697 1.08260E-04 7.86554E-05 1.12392E-05
 -1      1698 1.08260E-04 7.86554E-05 1.10751E-05
 -1      1699 1.08257E-04 7.86533E-05 1.09106E-05
 -1      1700 1.08252E-04 7.86497E-05 1.07446E-05
 -1      1701 1.08247E-04 7.86461E-05 1.05761E-05
 -1      1702 1.08245E-04 7.86445E-05 1.04050E-05
 -1      1703 9.46094E-05 9.46094E-05 1.19093E-05
 -1      1704 9.46114E-05 9.46114E-05 1.17382E-05
 -1      1705 9.46157E-05 9.46157E-05 1.15697E-05
 -1      1706 9.46200E-05 9.46200E-05 1.14037E-05
 -1      1707 9.46225E-05 9.46225E-05 1.12392E-05
 -1      1708 9.46225E-05 9.46225E-05 1.10751E-05
 -1      1709 9.46200E-05 9.46200E-05 1.09106E-05
 -1      1710 9.46157E-05 9.46157E-05 1.07446E-05
 -1      1711 9.46114E-05 9.46114E-05 1.05761E-05
 -1      1712 9.46094E-05 9.46094E-05 1.04050E-05
 -1      1713 7.86445E-05 1.08245E-04 1.19093E-05
 -1      1714 7.86461E-05 1.08247E-04 1.17382E-05
 -1      1715 7.86497E-05 1.08252E-04 1.15697E-05
 -1      1716 7.86533E-05 1.08257E-04 1.14037E-05
 -1      1717 7.86554E-05 1.08260E-04 1.12392E-05
 -1      1718 7.86554E-05 1.08260E-04 1.10751E-05
 -1      1719 7.86533E-05 1.08257E-04 1.09106E-05
 -1      1720 7.86497E-05 1.08252E-04 1.07446E-05
 -1      1721 7.86461E-05 1.08247E-04 1.05761E-05
 -1      1722 7.86445E-05 1.08245E-04 1.04050E-05
 -1      1723 6.07430E-05 1.19215E-04 1.19093E-05
 -1      1724 6.07442E-05 1.19217E-04 1.17382E-05
 -1      1725 6.07470E-05 1.19223E-04 1.15697E-05
 -1      1726 6.07498E-05 1.19228E-04 1.14037E-05
 -1      1727 6.07514E-05 1.19231E-04 1.12392E-05
 -1      1728 6.07514E-05 1.19231E-04 1.10751E-05
 -1      1729 6.07498E-05 1.19228E-04 1.09106E-05
 -1      1730 6.07470E-05 1.19223E-04 1.07446E-05
 -1      1731 6.07442E-05 1.19217E-04 1.05761E-05
 -1      1732 6.07430E-05 1.19215E-04 1.04050E-05
 -1      1733 4.13458E-05 1.27249E-04 1.19093E-05
 -1      1734 4.13467E-05 1.27252E-04 1.17382E-05
 -1      1735 4.13486E-05 1.27258E-04 1.15697E-05
 -1      1736 4.13505E-05 1.27264E-04 1.14037E-05
 -1      1737 4.13516E-05 1.27267E-04 1.12392E-05
 -1      1738 4.13516E-05 1.27267E-04 1.10751E-05
 -1      1739 4.13505E-05 1.27264E-04 1.09106E-05
 -1      1740 4.13486E-05 1.27258E-04 1.07446E-05
 -1      1741 4.13467E-05 1.27252E-04 1.05761E-05
 -1      1742 4.13458E-05 1.27249E-04 1.04050E-05
 -1      1743 2.09306E-05 1.32151E-04 1.19093E-05
 -1      1744 2.09310E-05 1.32153E-04 1.17382E-05
 -1      1745 2.09320E-05 1.32159E-04 1.15697E-05
 -1      1746 2.09330E-05 1.32165E-04 1.14037E-05
 -1      1747 2.09335E-05 1.32169E-04 1.12392E-05
 -1      1748 2.09335E-05 1.32169E-04 1.10751E-05
 -1      1749 2.09330E-05 1.32165E-04 1.09106E-05
 -1      1750 2.09320E-05 1.32159E-04 1.07446E-05
 -1      1751 2.09310E-05 1.32153E-04 1.05761E-05
 -1      1752 2.09306E-05 1.32151E-04 1.04050E-05
 -1      1753 1.23775E-04 1.96040E-05 1.19203E-05
 -1      1754 1.23775E-04 1.96040E-05 1.17495E-05
 -1      1755 1.23775E-04 1.96040E-05 1.15794E-05
 -1      1756 1.23776E-04 1.96042E-05 1.14100E-05
 -1      1757 1.23776E-04 1.96043E-05 1.12414E-05
 -1      1758 1.23776E-04 1.96043E-05 1.10730E-05
 -1      1759 1.23776E-04 1.96042E-05 1.09043E-05
 -1      1760 1.23775E-04 1.96040E-05 1.07350E-05
 -1      1761 1.23775E-04 1.96040E-05 1.05648E-05
 -1      1762 1.23775E-04 1.96040E-05 1.03940E-05
 -1      1763 1.19184E-04 3.87254E-05 1.19203E-05
 -1      1764 1.19184E-04 3.87252E-05 1.17495E-05
 -1      1765 1.19184E-04 3.87253E-05 1.15794E-05
 -1      1766 1.19185E-04 3.87256E-05 1.14100E-05
 -1      1767 1.19186E-04 3.87258E-05 1.12414E-05
 -1      1768 1.19186E-04 3.87258E-05 1.10730E-05
 -1      1769 1.19185E-04 3.87256E-05 1.09043E-05
 -1      1770 1.19184E-04 3.87253E-05 1.07350E-05
 -1      1771 1.19184E-04 3.87252E-05 1.05648E-05
 -1      1772 1.19184E-04 3.87254E-05 1.03940E-05
 -1      1773 1.11659E-04 5.68932E-05 1.19203E-05
 -1      1774 1.11659E-04 5.68929E-05 1.17495E-05
 -1      1775 1.11659E-04 5.68931E-05 1.15794E-05
 -1      1776 1.11660E-04 5.68935E-05 1.14100E-05
 -1      1777 1.11660E-04 5.68938E-05 1.12414E-05
 -1      1778 1.11660E-04 5.68938E-05 1.10730E-05
 -1      1779 1.11660E-04 5.68935E-05 1.09043E-05
 -1      1780 1.11659E-04 5.68931E-05 1.07350E-05
 -1      1781 1.11659E-04 5.68929E-05 1.05648E-05
 -1      1782 1.11659E-04 5.68932E-05 1.03940E-05
 -1      1783 1.01384E-04 7.36600E-05 1.19203E-05
 -1      1784 1.01384E-04 7.36598E-05 1.17495E-05
 -1      1785 1.01384E-04 7.36600E-05 1.15794E-05
 -1      1786 1.01385E-04 7.36604E-05 1.14100E-05
 -1      1787 1.01385E-04 7.36608E-05 1.12414E-05
 -1      1788 1.01385E-04 7.36608E-05 1.10730E-05
 -1      1789 1.01385E-04 7.36604E-05 1.09043E-05
 -1      1790 1.01384E-04 7.36600E-05 1.07350E-05
 -1      1791 1.01384E-04 7.36598E-05 1.05648E-05
 -1      1792 1.01384E-04 7.36600E-05 1.03940E-05
 -1      1793 8.86132E-05 8.86132E-05 1.19203E-05
 -1      1794 8.86128E-05 8.86128E-05 1.17495E-05
 -1      1795 8.86131E-05 8.86131E-05 1.15794E-05
 -1      1796 8.86137E-05 8.86137E-05 1.14100E-05
 -1      1797 8.86141E-05 8.86141E-05 1.12414E-05
 -1      1798 8.86141E-05 8.86141E-05 1.10730E-05
 -1      1799 8.86137E-05 8.86137E-05 1.09043E-05
 -1      1800 8.86131E-05 8.86131E-05 1.07350E-05
 -1      1801 8.86128E-05 8.86128E-05 1.05648E-05
 -1      1802 8.86132E-05 8.86132E-05 1.03940E-05
 -1      1803 7.36600E-05 1.01384E-04 1.19203E-05
 -1      1804 7.36598E-05 1.01384E-04 1.17495E-05
 -1      1805 7.36600E-05 1.01384E-04 1.15794E-05
 -1      1806 7.36604E-05 1.01385E-04 1.14100E-05
 -1      1807 7.36608E-05 1.01385E-04 1.12414E-05
 -1      1808 7.36608E-05 1.01385E-04 1.10730E-05
 -1      1809 7.36604E-05 1.01385E-04 1.09043E-05
 -1      1810 7.36600E-05 1.01384E-04 1.07350E-05
 -1      1811 7.36598E-05 1.01384E-04 1.05648E-05
 -1      1812 7.36600E-05 1.01384E-04 1.03940E-05
 -1      1813 5.68932E-05 1.11659E-04 1.19203E-05
 -1      1814 5.68929E-05 1.11659E-04 1.17495E-05
 -1      1815 5.68931E-05 1.11659E-04 1.15794E-05
 -1      1816 5.68935E-05 1.11660E-04 1.14100E-05
 -1      1817 5.68938E-05 1.11660E-04 1.12414E-05
 -1      1818 5.68938E-05 1.11660E-04 1.10730E-05
 -1      1819 5.68935E-05 1.11660E-04 1.09043E-05
 -1      1820 5.68931E-05 1.11659E-04 1.07350E-05
 -1      1821 5.68929E-05 1.11659E-04 1.05648E-05
 -1      1822 5.68932E-05 1.11659E-04 1.03940E-05
 -1      1823 3.87254E-05 1.19184E-04 1.19203E-05
 -1      1824 3.87252E-05 1.19184E-04 1.17495E-05
 -1      1825 3.87253E-05 1.19184E-04 1.15794E-05
 -1      1826 3.87256E-05 1.19185E-04 1.14100E-05
 -1      1827 3.87258E-05 1.19186E-04 1.12414E-05
 -1      1828 3.87258E-05 1.19186E-04 1.10730E-05
 -1      1829 3.87256E-05 1.19185E-04 1.09043E-05
 -1      1830 3.87253E-05 1.19184E-04 1.07350E-05
 -1      1831 3.87252E-05 1.19184E-04 1.05648E-05
 -1      1832 3.87254E-05 1.19184E-04 1.03940E-05
 -1      1833 1.96040E-05 1.23775E-04 1.19203E-05
 -1      1834 1.96040E-05 1.23775E-04 1.17495E-05
 -1      1835 1.96040E-05 1.23775E-04 1.15794E-05
 -1      1836 1.96042E-05 1.23776E-04 1.14100E-05
 -1      1837 1.96043E-05 1.23776E-04 1.12414E-05
 -1      1838 1.96043E-05 1.23776E-04 1.10730E-05
 -1      1839 1.96042E-05 1.23776E-04 1.09043E-05
 -1      1840 1.96040E-05 1.23775E-04 1.07350E-05
 -1      1841 1.96040E-05 1.23775E-04 1.05648E-05
 -1      1842 1.96040E-05 1.23775E-04 1.03940E-05
 -1      1843 1.16585E-04 1.84653E-05 1.19270E-05
 -1      1844 1.16584E-04 1.84651E-05 1.17557E-05
 -1      1845 1.16583E-04 1.84650E-05 1.15845E-05
 -1      1846 1.16583E-04 1.84649E-05 1.14134E-05
 -1      1847 1.16583E-04 1.84649E-05 1.12426E-05
 -1      1848 1.16583E-04 1.84649E-05 1.10717E-05
 -1      1849 1.16583E-04 1.84649E-05 1.09009E-05
 -1      1850 1.16583E-04 1.84650E-05 1.07298E-05
 -1      1851 1.16584E-04 1.84651E-05 1.05586E-05
 -1      1852 1.16585E-04 1.84653E-05 1.03873E-05
 -1      1853 1.12261E-04 3.64759E-05 1.19270E-05
 -1      1854 1.12260E-04 3.64755E-05 1.17557E-05
 -1      1855 1.12259E-04 3.64753E-05 1.15845E-05
 -1      1856 1.12259E-04 3.64752E-05 1.14134E-05
 -1      1857 1.12259E-04 3.64751E-05 1.12426E-05
 -1      1858 1.12259E-04 3.64751E-05 1.10717E-05
 -1      1859 1.12259E-04 3.64752E-05 1.09009E-05
 -1      1860 1.12259E-04 3.64753E-05 1.07298E-05
 -1      1861 1.12260E-04 3.64755E-05 1.05586E-05
 -1      1862 1.12261E-04 3.64759E-05 1.03873E-05
 -1      1863 1.05173E-04 5.35883E-05 1.19270E-05
 -1      1864 1.05172E-04 5.35878E-05 1.17557E-05
 -1      1865 1.05171E-04 5.35875E-05 1.15845E-05
 -1      1866 1.05171E-04 5.35873E-05 1.14134E-05
 -1      1867 1.05171E-04 5.35872E-05 1.12426E-05
 -1      1868 1.05171E-04 5.35872E-05 1.10717E-05
 -1      1869 1.05171E-04 5.35873E-05 1.09009E-05
 -1      1870 1.05171E-04 5.35875E-05 1.07298E-05
 -1      1871 1.05172E-04 5.35878E-05 1.05586E-05
 -1      1872 1.05173E-04 5.35883E-05 1.03873E-05
 -1      1873 9.54950E-05 6.93812E-05 1.19270E-05
 -1      1874 9.54941E-05 6.93805E-05 1.17557E-05
 -1      1875 9.54935E-05 6.93801E-05 1.15845E-05
 -1      1876 9.54932E-05 6.93799E-05 1.14134E-05
 -1      1877 9.54931E-05 6.93798E-05 1.12426E-05
 -1      1878 9.54931E-05 6.93798E-05 1.10717E-05
 -1      1879 9.54932E-05 6.93799E-05 1.09009E-05
 -1      1880 9.54935E-05 6.93801E-05 1.07298E-05
 -1      1881 9.54941E-05 6.93805E-05 1.05586E-05
 -1      1882 9.54950E-05 6.93812E-05 1.03873E-05
 -1      1883 8.34657E-05 8.34657E-05 1.19270E-05
 -1      1884 8.34649E-05 8.34649E-05 1.17557E-05
 -1      1885 8.34644E-05 8.34644E-05 1.15845E-05
 -1      1886 8.34641E-05 8.34641E-05 1.14134E-05
 -1      1887 8.34640E-05 8.34640E-05 1.12426E-05
 -1      1888 8.34640E-05 8.34640E-05 1.10717E-05
 -1      1889 8.34641E-05 8.34641E-05 1.09009E-05
 -1      1890 8.34644E-05 8.34644E-05 1.07298E-05
 -1      1891 8.34649E-05 8.34649E-05 1.05586E-05
 -1      1892 8.34657E-05 8.34657E-05 1.03873E-05
 -1      1893 6.93812E-05 9.54950E-05 1.19270E-05
 -1      1894 6.93805E-05 9.54941E-05 1.17557E-05
 -1      1895 6.93801E-05 9.54935E-05 1.15845E-05
 -1      1896 6.93799E-05 9.54932E-05 1.14134E-05
 -1      1897 6.93798E-05 9.54931E-05 1.12426E-05
 -1      1898 6.93798E-05 9.54931E-05 1.10717E-05
 -1      1899 6.93799E-05 9.54932E-05 1.09009E-05
 -1      1900 6.93801E-05 9.54935E-05 1.07298E-05
 -1      1901 6.93805E-05 9.54941E-05 1.05586E-05
 -1      1902 6.93812E-05 9.54950E-05 1.03873E-05
 -1      1903 5.35883E-05 1.05173E-04 1.19270E-05
 -1      1904 5.35878E-05 1.05172E-04 1.17557E-05
 -1      1905 5.35875E-05 1.05171E-04 1.15845E-05
 -1      1906 5.35873E-05 1.05171E-04 1.14134E-05
 -1      1907 5.35872E-05 1.05171E-04 1.12426E-05
 -1      1908 5.35872E-05 1.05171E-04 1.10717E-05
 -1      1909 5.35873E-05 1.05171E-04 1.09009E-05
 -1      1910 5.35875E-05 1.05171E-04 1.07298E-05
 -1      1911 5.35878E-05 1.05172E-04 1.05586E-05
 -1      1912 5.35883E-05 1.05173E-04 1.03873E-05
 -1      1913 3.64759E-05 1.12261E-04 1.19270E-05
 -1      1914 3.64755E-05 1.12260E-04 1.17557E-05
 -1      1915 3.64753E-05 1.12259E-04 1.15845E-05
 -1      1916 3.64752E-05 1.12259E-04 1.14134E-05
 -1      1917 3.64751E-05 1.12259E-04 1.12426E-05
 -1      1918 3.64751E-05 1.12259E-04 1.10717E-05
 -1      1919 3.64752E-05 1.12259E-04 1.09009E-05
 -1      1920 3.64753E-05 1.12259E-04 1.07298E-05
 -1      1921 3.64755E-05 1.12260E-04 1.05586E-05
 -1      1922 3.64759E-05 1.12261E-04 1.03873E-05
 -1      1923 1.84653E-05 1.16585E-04 1.19270E-05
 -1      1924 1.84651E-05 1.16584E-04 1.17557E-05
 -1      1925 1.84650E-05 1.16583E-04 1.15845E-05
 -1      1926 1.84649E-05 1.16583E-04 1.14134E-05
 -1      1927 1.84649E-05 1.16583E-04 1.12426E-05
 -1      1928 1.84649E-05 1.16583E-04 1.10717E-05
 -1      1929 1.84649E-05 1.16583E-04 1.09009E-05
 -1      1930 1.84650E-05 1.16583E-04 1.07298E-05
 -1      1931 1.84651E-05 1.16584E-04 1.05586E-05
 -1      1932 1.84653E-05 1.16585E-04 1.03873E-05
 -1      1933 1.10361E-04 1.74795E-05 1.19301E-05
 -1      1934 1.10360E-04 1.74794E-05 1.17584E-05
 -1      1935 1.10360E-04 1.74793E-05 1.15866E-05
 -1      1936 1.10359E-04 1.74792E-05 1.14148E-05
 -1      1937 1.10359E-04 1.74792E-05 1.12430E-05
 -1      1938 1.10359E-04 1.74792E-05 1.10713E-05
 -1      1939 1.10359E-04 1.74792E-05 1.08995E-05
 -1      1940 1.10360E-04 1.74793E-05 1.07277E-05
 -1      1941 1.10360E-04 1.74794E-05 1.05559E-05
 -1      1942 1.10361E-04 1.74795E-05 1.03842E-05
 -1      1943 1.06268E-04 3.45286E-05 1.19301E-05
 -1      1944 1.06267E-04 3.45283E-05 1.17584E-05
 -1      1945 1.06267E-04 3.45281E-05 1.15866E-05
 -1      1946 1.06266E-04 3.45280E-05 1.14148E-05
 -1      1947 1.06266E-04 3.45279E-05 1.12430E-05
 -1      1948 1.06266E-04 3.45279E-05 1.10713E-05
 -1      1949 1.06266E-04 3.45280E-05 1.08995E-05
 -1      1950 1.06267E-04 3.45281E-05 1.07277E-05
 -1      1951 1.06267E-04 3.45283E-05 1.05559E-05
 -1      1952 1.06268E-04 3.45286E-05 1.03842E-05
 -1      1953 9.95582E-05 5.07274E-05 1.19301E-05
 -1      1954 9.95575E-05 5.07271E-05 1.17584E-05
 -1      1955 9.95569E-05 5.07268E-05 1.15866E-05
 -1      1956 9.95565E-05 5.07266E-05 1.14148E-05
 -1      1957 9.95563E-05 5.07265E-05 1.12430E-05
 -1      1958 9.95563E-05 5.07265E-05 1.10713E-05
 -1      1959 9.95565E-05 5.07266E-05 1.08995E-05
 -1      1960 9.95569E-05 5.07268E-05 1.07277E-05
 -1      1961 9.95575E-05 5.07271E-05 1.05559E-05
 -1      1962 9.95582E-05 5.07274E-05 1.03842E-05
 -1      1963 9.03969E-05 6.56772E-05 1.19301E-05
 -1      1964 9.03963E-05 6.56768E-05 1.17584E-05
 -1      1965 9.03958E-05 6.56764E-05 1.15866E-05
 -1      1966 9.03954E-05 6.56761E-05 1.14148E-05
 -1      1967 9.03953E-05 6.56760E-05 1.12430E-05
 -1      1968 9.03953E-05 6.56760E-05 1.10713E-05
 -1      1969 9.03954E-05 6.56761E-05 1.08995E-05
 -1      1970 9.03958E-05 6.56764E-05 1.07277E-05
 -1      1971 9.03963E-05 6.56768E-05 1.05559E-05
 -1      1972 9.03969E-05 6.56772E-05 1.03842E-05
 -1      1973 7.90098E-05 7.90098E-05 1.19301E-05
 -1      1974 7.90093E-05 7.90093E-05 1.17584E-05
 -1      1975 7.90088E-05 7.90088E-05 1.15866E-05
 -1      1976 7.90085E-05 7.90085E-05 1.14148E-05
 -1      1977 7.90084E-05 7.90084E-05 1.12430E-05
 -1      1978 7.90084E-05 7.90084E-05 1.10713E-05
 -1      1979 7.90085E-05 7.90085E-05 1.08995E-05
 -1      1980 7.90088E-05 7.90088E-05 1.07277E-05
 -1      1981 7.90093E-05 7.90093E-05 1.05559E-05
 -1      1982 7.90098E-05 7.90098E-05 1.03842E-05
 -1      1983 6.56772E-05 9.03969E-05 1.19301E-05
 -1      1984 6.56768E-05 9.03963E-05 1.17584E-05
 -1      1985 6.56764E-05 9.03958E-05 1.15866E-05
 -1      1986 6.56761E-05 9.03954E-05 1.14148E-05
 -1      1987 6.56760E-05 9.03953E-05 1.12430E-05
 -1      1988 6.56760E-05 9.03953E-05 1.10713E-05
 -1      1989 6.56761E-05 9.03954E-05 1.08995E-05
 -1      1990 6.56764E-05 9.03958E-05 1.07277E-05
 -1      1991 6.56768E-05 9.03963E-05 1.05559E-05
 -1      1992 6.56772E-05 9.03969E-05 1.03842E-05
 -1      1993 5.07274E-05 9.95582E-05 1.19301E-05
 -1      1994 5.07271E-05 9.95575E-05 1.17584E-05
 -1      1995 5.07268E-05 9.95569E-05 1.15866E-05
 -1      1996 5.07266E-05 9.95565E-05 1.14148E-05
 -1      1997 5.07265E-05 9.95563E-05 1.12430E-05
 -1      1998 5.07265E-05 9.95563E-05 1.10713E-05
 -1      1999 5.07266E-05 9.95565E-05 1.08995E-05
 -1      2000 5.07268E-05 9.95569E-05 1.07277E-05
 -1      2001 5.07271E-05 9.95575E-05 1.05559E-05
 -1      2002 5.07274E-05 9.95582E-05 1.03842E-05
 -1      2003 3.45286E-05 1.06268E-04 1.19301E-05
 -1      2004 3.45283E-05 1.06267E-04 1.17584E-05
 -1      2005 3.45281E-05 1.06267E-04 1.15866E-05
 -1      2006 3.45280E-05 1.06266E-04 1.14148E-05
 -1      2007 3.45279E-05 1.06266E-04 1.12430E-05
 -1      2008 3.45279E-05 1.06266E-04 1.10713E-05
 -1      2009 3.45280E-05 1.06266E-04 1.08995E-05
 -1      2010 3.45281E-05 1.06267E-04 1.07277E-05
 -1      2011 3.45283E-05 1.06267E-04 1.05559E-05
 -1      2012 3.45286E-05 1.06268E-04 1.03842E-05
 -1      2013 1.74795E-05 1.10361E-04 1.19301E-05
 -1      2014 1.74794E-05 1.10360E-04 1.17584E-05
 -1      2015 1.74793E-05 1.10360E-04 1.15866E-05
 -1      2016 1.74792E-05 1.10359E-04 1.14148E-05
 -1      2017 1.74792E-05 1.10359E-04 1.12430E-05
 -1      2018 1.74792E-05 1.10359E-04 1.10713E-05
 -1      2019 1.74792E-05 1.10359E-04 1.08995E-05
 -1      2020 1.74793E-05 1.10360E-04 1.07277E-05
 -1      2021 1.74794E-05 1.10360E-04 1.05559E-05
 -1      2022 1.74795E-05 1.10361E-04 1.03842E-05
 -1      2023 1.04934E-04 1.66199E-05 1.19316E-05
 -1      2024 1.04933E-04 1.66198E-05 1.17595E-05
 -1      2025 1.04933E-04 1.66197E-05 1.15875E-05
 -1      2026 1.04933E-04 1.66197E-05 1.14154E-05
 -1      2027 1.04932E-04 1.66197E-05 1.12432E-05
 -1      2028 1.04932E-04 1.66197E-05 1.10711E-05
 -1      2029 1.04933E-04 1.66197E-05 1.08990E-05
 -1      2030 1.04933E-04 1.66197E-05 1.07268E-05
 -1      2031 1.04933E-04 1.66198E-05 1.05548E-05
 -1      2032 1.04934E-04 1.66199E-05 1.03827E-05
 -1      2033 1.01042E-04 3.28305E-05 1.19316E-05
 -1      2034 1.01041E-04 3.28303E-05 1.17595E-05
 -1      2035 1.01041E-04 3.28302E-05 1.15875E-05
 -1      2036 1.01041E-04 3.28301E-05 1.14154E-05
 -1      2037 1.01041E-04 3.28301E-05 1.12432E-05
 -1      2038 1.01041E-04 3.28301E-05 1.10711E-05
 -1      2039 1.01041E-04 3.28301E-05 1.08990E-05
 -1      2040 1.01041E-04 3.28302E-05 1.07268E-05
 -1      2041 1.01041E-04 3.28303E-05 1.05548E-05
 -1      2042 1.01042E-04 3.28305E-05 1.03827E-05
 -1      2043 9.46620E-05 4.82327E-05 1.19316E-05
 -1      2044 9.46616E-05 4.82325E-05 1.17595E-05
 -1      2045 9.46612E-05 4.82323E-05 1.15875E-05
 -1      2046 9.46610E-05 4.82322E-05 1.14154E-05
 -1      2047 9.46609E-05 4.82321E-05 1.12432E-05
 -1      2048 9.46609E-05 4.82321E-05 1.10711E-05
 -1      2049 9.46610E-05 4.82322E-05 1.08990E-05
 -1      2050 9.46612E-05 4.82323E-05 1.07268E-05
 -1      2051 9.46616E-05 4.82325E-05 1.05548E-05
 -1      2052 9.46620E-05 4.82327E-05 1.03827E-05
 -1      2053 8.59513E-05 6.24473E-05 1.19316E-05
 -1      2054 8.59509E-05 6.24470E-05 1.17595E-05
 -1      2055 8.59506E-05 6.24468E-05 1.15875E-05
 -1      2056 8.59504E-05 6.24466E-05 1.14154E-05
 -1      2057 8.59503E-05 6.24465E-05 1.12432E-05
 -1      2058 8.59503E-05 6.24465E-05 1.10711E-05
 -1      2059 8.59504E-05 6.24466E-05 1.08990E-05
 -1      2060 8.59506E-05 6.24468E-05 1.07268E-05
 -1      2061 8.59509E-05 6.24470E-05 1.05548E-05
 -1      2062 8.59513E-05 6.24473E-05 1.03827E-05
 -1      2063 7.51242E-05 7.51242E-05 1.19316E-05
 -1      2064 7.51239E-05 7.51239E-05 1.17595E-05
 -1      2065 7.51236E-05 7.51236E-05 1.15875E-05
 -1      2066 7.51234E-05 7.51234E-05 1.14154E-05
 -1      2067 7.51233E-05 7.51233E-05 1.12432E-05
 -1      2068 7.51233E-05 7.51233E-05 1.10711E-05
 -1      2069 7.51234E-05 7.51234E-05 1.08990E-05
 -1      2070 7.51236E-05 7.51236E-05 1.07268E-05
 -1      2071 7.51239E-05 7.51239E-05 1.05548E-05
 -1      2072 7.51242E-05 7.51242E-05 1.03827E-05
 -1      2073 6.24473E-05 8.59513E-05 1.19316E-05
 -1      2074 6.24470E-05 8.59509E-05 1.17595E-05
 -1      2075 6.24468E-05 8.59506E-05 1.15875E-05
 -1      2076 6.24466E-05 8.59504E-05 1.14154E-05
 -1      2077 6.24465E-05 8.59503E-05 1.12432E-05
 -1      2078 6.24465E-05 8.59503E-05 1.10711E-05
 -1      2079 6.24466E-05 8.59504E-05 1.08990E-05
 -1      2080 6.24468E-05 8.59506E-05 1.07268E-05
 -1      2081 6.24470E-05 8.59509E-05 1.05548E-05
 -1      2082 6.24473E-05 8.59513E-05 1.03827E-05
 -1      2083 4.82327E-05 9.46620E-05 1.19316E-05
 -1      2084 4.82325E-05 9.46616E-05 1.17595E-05
 -1      2085 4.82323E-05 9.46612E-05 1.15875E-05
 -1      2086 4.82322E-05 9.46610E-05 1.14154E-05
 -1      2087 4.82321E-05 9.46609E-05 1.12432E-05
 -1      2088 4.82321E-05 9.46609E-05 1.10711E-05
 -1      2089 4.82322E-05 9.46610E-05 1.08990E-05
 -1      2090 4.82323E-05 9.46612E-05 1.07268E-05
 -1      2091 4.82325E-05 9.46616E-05 1.05548E-05
 -1      2092 4.82327E-05 9.46620E-05 1.03827E-05
 -1      2093 3.28305E-05 1.01042E-04 1.19316E-05
 -1      2094 3.28303E-05 1.01041E-04 1.17595E-05
 -1      2095 3.28302E-05 1.01041E-04 1.15875E-05
 -1      2096 3.28301E-05 1.01041E-04 1.14154E-05
 -1      2097 3.28301E-05 1.01041E-04 1.12432E-05
 -1      2098 3.28301E-05 1.01041E-04 1.10711E-05
 -1      2099 3.28301E-05 1.01041E-04 1.08990E-05
 -1      2100 3.28302E-05 1.01041E-04 1.07268E-05
 -1      2101 3.28303E-05 1.01041E-04 1.05548E-05
 -1      2102 3.28305E-05 1.01042E-04 1.03827E-05
 -1      2103 1.66199E-05 1.04934E-04 1.19316E-05
 -1      2104 1.66198E-05 1.04933E-04 1.17595E-05
 -1      2105 1.66197E-05 1.04933E-04 1.15875E-05
 -1      2106 1.66197E-05 1.04933E-04 1.14154E-05
 -1      2107 1.66197E-05 1.04932E-04 1.12432E-05
 -1      2108 1.66197E-05 1.04932E-04 1.10711E-05
 -1      2109 1.66197E-05 1.04933E-04 1.08990E-05
 -1      2110 1.66197E-05 1.04933E-04 1.07268E-05
 -1      2111 1.66198E-05 1.04933E-04 1.05548E-05
 -1      2112 1.66199E-05 1.04934E-04 1.03827E-05
 -1      2113 1.00170E-04 1.58654E-05 1.19324E-05
 -1      2114 1.00170E-04 1.58654E-05 1.17602E-05
 -1      2115 1.00170E-04 1.58653E-05 1.15879E-05
 -1      2116 1.00170E-04 1.58653E-05 1.14156E-05
 -1      2117 1.00169E-04 1.58653E-05 1.12433E-05
 -1      2118 1.00169E-04 1.58653E-05 1.10710E-05
 -1      2119 1.00170E-04 1.58653E-05 1.08987E-05
 -1      2120 1.00170E-04 1.58653E-05 1.07264E-05
 -1      2121 1.00170E-04 1.58654E-05 1.05541E-05
 -1      2122 1.00170E-04 1.58654E-05 1.03819E-05
 -1      2123 9.64551E-05 3.13402E-05 1.19324E-05
 -1      2124 9.64548E-05 3.13401E-05 1.17602E-05
 -1      2125 9.64546E-05 3.13400E-05 1.15879E-05
 -1      2126 9.64544E-05 3.13399E-05 1.14156E-05
 -1      2127 9.64543E-05 3.13399E-05 1.12433E-05
 -1      2128 9.64543E-05 3.13399E-05 1.10710E-05
 -1      2129 9.64544E-05 3.13399E-05 1.08987E-05
 -1      2130 9.64546E-05 3.13400E-05 1.07264E-05
 -1      2131 9.64548E-05 3.13401E-05 1.05541E-05
 -1      2132 9.64551E-05 3.13402E-05 1.03819E-05
 -1      2133 9.03649E-05 4.60432E-05 1.19324E-05
 -1      2134 9.03646E-05 4.60431E-05 1.17602E-05
 -1      2135 9.03644E-05 4.60430E-05 1.15879E-05
 -1      2136 9.03642E-05 4.60429E-05 1.14156E-05
 -1      2137 9.03642E-05 4.60428E-05 1.12433E-05
 -1      2138 9.03642E-05 4.60428E-05 1.10710E-05
 -1      2139 9.03642E-05 4.60429E-05 1.08987E-05
 -1      2140 9.03644E-05 4.60430E-05 1.07264E-05
 -1      2141 9.03646E-05 4.60431E-05 1.05541E-05
 -1      2142 9.03649E-05 4.60432E-05 1.03819E-05
 -1      2143 8.20496E-05 5.96125E-05 1.19324E-05
 -1      2144 8.20494E-05 5.96123E-05 1.17602E-05
 -1      2145 8.20492E-05 5.96122E-05 1.15879E-05
 -1      2146 8.20490E-05 5.96121E-05 1.14156E-05
 -1      2147 8.20489E-05 5.96120E-05 1.12433E-05
 -1      2148 8.20489E-05 5.96120E-05 1.10710E-05
 -1      2149 8.20490E-05 5.96121E-05 1.08987E-05
 -1      2150 8.20492E-05 5.96122E-05 1.07264E-05
 -1      2151 8.20494E-05 5.96123E-05 1.05541E-05
 -1      2152 8.20496E-05 5.96125E-05 1.03819E-05
 -1      2153 7.17140E-05 7.17140E-05 1.19324E-05
 -1      2154 7.17138E-05 7.17138E-05 1.17602E-05
 -1      2155 7.17136E-05 7.17136E-05 1.15879E-05
 -1      2156 7.17135E-05 7.17135E-05 1.14156E-05
 -1      2157 7.17134E-05 7.17134E-05 1.12433E-05
 -1      2158 7.17134E-05 7.17134E-05 1.10710E-05
 -1      2159 7.17135E-05 7.17135E-05 1.08987E-05
 -1      2160 7.17136E-05 7.17136E-05 1.07264E-05
 -1      2161 7.17138E-05 7.17138E-05 1.05541E-05
 -1      2162 7.17140E-05 7.17140E-05 1.03819E-05
 -1      2163 5.96125E-05 8.20496E-05 1.19324E-05
 -1      2164 5.96123E-05 8.20494E-05 1.17602E-05
 -1      2165 5.96122E-05 8.20492E-05 1.15879E-05
 -1      2166 5.96121E-05 8.20490E-05 1.14156E-05
 -1      2167 5.96120E-05 8.20489E-05 1.12433E-05
 -1      2168 5.96120E-05 8.20489E-05 1.10710E-05
 -1      2169 5.96121E-05 8.20490E-05 1.08987E-05
 -1      2170 5.96122E-05 8.20492E-05 1.07264E-05
 -1      2171 5.96123E-05 8.20494E-05 1.05541E-05
 -1      2172 5.96125E-05 8.20496E-05 1.03819E-05
 -1      2173 4.60432E-05 9.03649E-05 1.19324E-05
 -1      2174 4.60431E-05 9.03646E-05 1.17602E-05
 -1      2175 4.60430E-05 9.03644E-05 1.15879E-05
 -1      2176 4.60429E-05 9.03642E-05 1.14156E-05
 -1      2177 4.60428E-05 9.03642E-05 1.12433E-05
 -1      2178 4.60428E-05 9.03642E-05 1.10710E-05
 -1      2179 4.60429E-05 9.03642E-05 1.08987E-05
 -1      2180 4.60430E-05 9.03644E-05 1.07264E-05
 -1      2181 4.60431E-05 9.03646E-05 1.05541E-05
 -1      2182 4.60432E-05 9.03649E-05 1.03819E-05
 -1      2183 3.13402E-05 9.64551E-05 1.19324E-05
 -1      2184 3.13401E-05 9.64548E-05 1.17602E-05
 -1      2185 3.13400E-05 9.64546E-05 1.15879E-05
 -1      2186 3.13399E-05 9.64544E-05 1.14156E-05
 -1      2187 3.13399E-05 9.64543E-05 1.12433E-05
 -1      2188 3.13399E-05 9.64543E-05 1.10710E-05
 -1      2189 3.13399E-05 9.64544E-05 1.08987E-05
 -1      2190 3.13400E-05 9.64546E-05 1.07264E-05
 -1      2191 3.13401E-05 9.64548E-05 1.05541E-05
 -1      2192 3.13402E-05 9.64551E-05 1.03819E-05
 -1      2193 1.58654E-05 1.00170E-04 1.19324E-05
 -1      2194 1.58654E-05 1.00170E-04 1.17602E-05
 -1      2195 1.58653E-05 1.00170E-04 1.15879E-05
 -1      2196 1.58653E-05 1.00170E-04 1.14156E-05
 -1      2197 1.58653E-05 1.00169E-04 1.12433E-05
 -1      2198 1.58653E-05 1.00169E-04 1.10710E-05
 -1      2199 1.58653E-05 1.00170E-04 1.08987E-05
 -1      2200 1.58653E-05 1.00170E-04 1.07264E-05
 -1      2201 1.58654E-05 1.00170E-04 1.05541E-05
 -1      2202 1.58654E-05 1.00170E-04 1.03819E-05
 -1      2203 9.59659E-05 1.51995E-05 1.19330E-05
 -1      2204 9.59657E-05 1.51995E-05 1.17606E-05
 -1      2205 9.59656E-05 1.51995E-05 1.15882E-05
 -1      2206 9.59655E-05 1.51994E-05 1.14158E-05
 -1      2207 9.59654E-05 1.51994E-05 1.12434E-05
 -1      2208 9.59654E-05 1.51994E-05 1.10709E-05
 -1      2209 9.59655E-05 1.51994E-05 1.08985E-05
 -1      2210 9.59656E-05 1.51995E-05 1.07261E-05
 -1      2211 9.59657E-05 1.51995E-05 1.05537E-05
 -1      2212 9.59659E-05 1.51995E-05 1.03813E-05
 -1      2213 9.24067E-05 3.00248E-05 1.19330E-05
 -1      2214 9.24065E-05 3.00247E-05 1.17606E-05
 -1      2215 9.24064E-05 3.00247E-05 1.15882E-05
 -1      2216 9.24063E-05 3.00246E-05 1.14158E-05
 -1      2217 9.24062E-05 3.00246E-05 1.12434E-05
 -1      2218 9.24062E-05 3.00246E-05 1.10709E-05
 -1      2219 9.24063E-05 3.00246E-05 1.08985E-05
 -1      2220 9.24064E-05 3.00247E-05 1.07261E-05
 -1      2221 9.24065E-05 3.00247E-05 1.05537E-05
 -1      2222 9.24067E-05 3.00248E-05 1.03813E-05
 -1      2223 8.65721E-05 4.41107E-05 1.19330E-05
 -1      2224 8.65719E-05 4.41106E-05 1.17606E-05
 -1      2225 8.65718E-05 4.41105E-05 1.15882E-05
 -1      2226 8.65717E-05 4.41105E-05 1.14158E-05
 -1      2227 8.65717E-05 4.41105E-05 1.12434E-05
 -1      2228 8.65717E-05 4.41105E-05 1.10709E-05
 -1      2229 8.65717E-05 4.41105E-05 1.08985E-05
 -1      2230 8.65718E-05 4.41105E-05 1.07261E-05
 -1      2231 8.65719E-05 4.41106E-05 1.05537E-05
 -1      2232 8.65721E-05 4.41107E-05 1.03813E-05
 -1      2233 7.86058E-05 5.71105E-05 1.19330E-05
 -1      2234 7.86057E-05 5.71104E-05 1.17606E-05
 -1      2235 7.86056E-05 5.71103E-05 1.15882E-05
 -1      2236 7.86055E-05 5.71102E-05 1.14158E-05
 -1      2237 7.86054E-05 5.71102E-05 1.12434E-05
 -1      2238 7.86054E-05 5.71102E-05 1.10709E-05
 -1      2239 7.86055E-05 5.71102E-05 1.08985E-05
 -1      2240 7.86056E-05 5.71103E-05 1.07261E-05
 -1      2241 7.86057E-05 5.71104E-05 1.05537E-05
 -1      2242 7.86058E-05 5.71105E-05 1.03813E-05
 -1      2243 6.87040E-05 6.87040E-05 1.19330E-05
 -1      2244 6.87039E-05 6.87039E-05 1.17606E-05
 -1      2245 6.87038E-05 6.87038E-05 1.15882E-05
 -1      2246 6.87037E-05 6.87037E-05 1.14158E-05
 -1      2247 6.87037E-05 6.87037E-05 1.12434E-05
 -1      2248 6.87037E-05 6.87037E-05 1.10709E-05
 -1      2249 6.87037E-05 6.87037E-05 1.08985E-05
 -1      2250 6.87038E-05 6.87038E-05 1.07261E-05
 -1      2251 6.87039E-05 6.87039E-05 1.05537E-05
 -1      2252 6.87040E-05 6.87040E-05 1.03813E-05
 -1      2253 5.71105E-05 7.86058E-05 1.19330E-05
 -1      2254 5.71104E-05 7.86057E-05 1.17606E-05
 -1      2255 5.71103E-05 7.86056E-05 1.15882E-05
 -1      2256 5.71102E-05 7.86055E-05 1.14158E-05
 -1      2257 5.71102E-05 7.86054E-05 1.12434E-05
 -1      2258 5.71102E-05 7.86054E-05 1.10709E-05
 -1      2259 5.71102E-05 7.86055E-05 1.08985E-05
 -1      2260 5.71103E-05 7.86056E-05 1.07261E-05
 -1      2261 5.71104E-05 7.86057E-05 1.05537E-05
 -1      2262 5.71105E-05 7.86058E-05 1.03813E-05
 -1      2263 4.41107E-05 8.65721E-05 1.19330E-05
 -1      2264 4.41106E-05 8.65719E-05 1.17606E-05
 -1      2265 4.41105E-05 8.65718E-05 1.15882E-05
 -1      2266 4.41105E-05 8.65717E-05 1.14158E-05
 -1      2267 4.41105E-05 8.65717E-05 1.12434E-05
 -1      2268 4.41105E-05 8.65717E-05 1.10709E-05
 -1      2269 4.41105E-05 8.65717E-05 1.08985E-05
 -1      2270 4.41105E-05 8.65718E-05 1.07261E-05
 -1      2271 4.41106E-05 8.65719E-05 1.05537E-05
 -1      2272 4.41107E-05 8.65721E-05 1.03813E-05
 -1      2273 3.00248E-05 9.24067E-05 1.19330E-05
 -1      2274 3.00247E-05 9.24065E-05 1.17606E-05
 -1      2275 3.00247E-05 9.24064E-05 1.15882E-05
 -1      2276 3.00246E-05 9.24063E-05 1.14158E-05
 -1      2277 3.00246E-05 9.24062E-05 1.12434E-05
 -1      2278 3.00246E-05 9.24062E-05 1.10709E-05
 -1      2279 3.00246E-05 9.24063E-05 1.08985E-05
 -1      2280 3.00247E-05 9.24064E-05 1.07261E-05
 -1      2281 3.00247E-05 9.24065E-05 1.05537E-05
 -1      2282 3.00248E-05 9.24067E-05 1.03813E-05
 -1      2283 1.51995E-05 9.59659E-05 1.19330E-05
 -1      2284 1.51995E-05 9.59657E-05 1.17606E-05
 -1      2285 1.51995E-05 9.59656E-05 1.15882E-05
 -1      2286 1.51994E-05 9.59655E-05 1.14158E-05
 -1      2287 1.51994E-05 9.59654E-05 1.12434E-05
 -1      2288 1.51994E-05 9.59654E-05 1.10709E-05
 -1      2289 1.51994E-05 9.59655E-05 1.08985E-05
 -1      2290 1.51995E-05 9.59656E-05 1.07261E-05
 -1      2291 1.51995E-05 9.59657E-05 1.05537E-05
 -1      2292 1.51995E-05 9.59659E-05 1.03813E-05
 -1      2293 9.22369E-05 1.46089E-05 1.19335E-05
 -1      2294 9.22367E-05 1.46089E-05 1.17610E-05
 -1      2295 9.22366E-05 1.46088E-05 1.15885E-05
 -1      2296 9.22366E-05 1.46088E-05 1.14159E-05
 -1      2297 9.22365E-05 1.46088E-05 1.12434E-05
 -1      2298 9.22365E-05 1.46088E-05 1.10709E-05
 -1      2299 9.22366E-05 1.46088E-05 1.08984E-05
 -1      2300 9.22366E-05 1.46088E-05 1.07259E-05
 -1      2301 9.22367E-05 1.46089E-05 1.05533E-05
 -1      2302 9.22369E-05 1.46089E-05 1.03808E-05
 -1      2303 8.88160E-05 2.88581E-05 1.19335E-05
 -1      2304 8.88158E-05 2.88580E-05 1.17610E-05
 -1      2305 8.88157E-05 2.88580E-05 1.15885E-05
 -1      2306 8.88157E-05 2.88580E-05 1.14159E-05
 -1      2307 8.88156E-05 2.88579E-05 1.12434E-05
 -1      2308 8.88156E-05 2.88579E-05 1.10709E-05
 -1      2309 8.88157E-05 2.88580E-05 1.08984E-05
 -1      2310 8.88157E-05 2.88580E-05 1.07259E-05
 -1      2311 8.88158E-05 2.88580E-05 1.05533E-05
 -1      2312 8.88160E-05 2.88581E-05 1.03808E-05
 -1      2313 8.32081E-05 4.23966E-05 1.19335E-05
 -1      2314 8.32080E-05 4.23966E-05 1.17610E-05
 -1      2315 8.32079E-05 4.23965E-05 1.15885E-05
 -1      2316 8.32078E-05 4.23965E-05 1.14159E-05
 -1      2317 8.32078E-05 4.23965E-05 1.12434E-05
 -1      2318 8.32078E-05 4.23965E-05 1.10709E-05
 -1      2319 8.32078E-05 4.23965E-05 1.08984E-05
 -1      2320 8.32079E-05 4.23965E-05 1.07259E-05
 -1      2321 8.32080E-05 4.23966E-05 1.05533E-05
 -1      2322 8.32081E-05 4.23966E-05 1.03808E-05
 -1      2323 7.55514E-05 5.48913E-05 1.19335E-05
 -1      2324 7.55513E-05 5.48912E-05 1.17610E-05
 -1      2325 7.55512E-05 5.48911E-05 1.15885E-05
 -1      2326 7.55511E-05 5.48911E-05 1.14159E-05
 -1      2327 7.55511E-05 5.48911E-05 1.12434E-05
 -1      2328 7.55511E-05 5.48911E-05 1.10709E-05
 -1      2329 7.55511E-05 5.48911E-05 1.08984E-05
 -1      2330 7.55512E-05 5.48911E-05 1.07259E-05
 -1      2331 7.55513E-05 5.48912E-05 1.05533E-05
 -1      2332 7.55514E-05 5.48913E-05 1.03808E-05
 -1      2333 6.60343E-05 6.60343E-05 1.19335E-05
 -1      2334 6.60342E-05 6.60342E-05 1.17610E-05
 -1      2335 6.60341E-05 6.60341E-05 1.15885E-05
 -1      2336 6.60341E-05 6.60341E-05 1.14159E-05
 -1      2337 6.60341E-05 6.60341E-05 1.12434E-05
 -1      2338 6.60341E-05 6.60341E-05 1.10709E-05
 -1      2339 6.60341E-05 6.60341E-05 1.08984E-05
 -1      2340 6.60341E-05 6.60341E-05 1.07259E-05
 -1      2341 6.60342E-05 6.60342E-05 1.05533E-05
 -1      2342 6.60343E-05 6.60343E-05 1.03808E-05
 -1      2343 5.48913E-05 7.55514E-05 1.19335E-05
 -1      2344 5.48912E-05 7.55513E-05 1.17610E-05
 -1      2345 5.48911E-05 7.55512E-05 1.15885E-05
 -1      2346 5.48911E-05 7.55511E-05 1.14159E-05
 -1      2347 5.48911E-05 7.55511E-05 1.12434E-05
 -1      2348 5.48911E-05 7.55511E-05 1.10709E-05
 -1      2349 5.48911E-05 7.55511E-05 1.08984E-05
 -1      2350 5.48911E-05 7.55512E-05 1.07259E-05
 -1      2351 5.48912E-05 7.55513E-05 1.05533E-05
 -1      2352 5.48913E-05 7.55514E-05 1.03808E-05
 -1      2353 4.23966E-05 8.32081E-05 1.19335E-05
 -1      2354 4.23966E-05 8.32080E-05 1.17610E-05
 -1      2355 4.23965E-05 8.32079E-05 1.15885E-05
 -1      2356 4.23965E-05 8.32078E-05 1.14159E-05
 -1      2357 4.23965E-05 8.32078E-05 1.12434E-05
 -1      2358 4.23965E-05 8.32078E-05 1.10709E-05
 -1      2359 4.23965E-05 8.32078E-05 1.08984E-05
 -1      2360 4.23965E-05 8.32079E-05 1.07259E-05
 -1      2361 4.23966E-05 8.32080E-05 1.05533E-05
 -1      2362 4.23966E-05 8.32081E-05 1.03808E-05
 -1      2363 2.88581E-05 8.88160E-05 1.19335E-05
 -1      2364 2.88580E-05 8.88158E-05 1.17610E-05
 -1      2365 2.88580E-05 8.88157E-05 1.15885E-05
 -1      2366 2.88580E-05 8.88157E-05 1.14159E-05
 -1      2367 2.88579E-05 8.88156E-05 1.12434E-05
 -1      2368 2.88579E-05 8.88156E-05 1.10709E-05
 -1      2369 2.88580E-05 8.88157E-05 1.08984E-05
 -1      2370 2.88580E-05 8.88157E-05 1.07259E-05
 -1      2371 2.88580E-05 8.88158E-05 1.05533E-05
 -1      2372 2.88581E-05 8.88160E-05 1.03808E-05
 -1      2373 1.46089E-05 9.22369E-05 1.19335E-05
 -1      2374 1.46089E-05 9.22367E-05 1.17610E-05
 -1      2375 1.46088E-05 9.22366E-05 1.15885E-05
 -1      2376 1.46088E-05 9.22366E-05 1.14159E-05
 -1      2377 1.46088E-05 9.22365E-05 1.12434E-05
 -1      2378 1.46088E-05 9.22365E-05 1.10709E-05
 -1      2379 1.46088E-05 9.22366E-05 1.08984E-05
 -1      2380 1.46088E-05 9.22366E-05 1.07259E-05
 -1      2381 1.46089E-05 9.22367E-05 1.05533E-05
 -1      2382 1.46089E-05 9.22369E-05 1.03808E-05
 -1      2383 8.89152E-05 1.40828E-05 1.19339E-05
 -1      2384 8.89151E-05 1.40828E-05 1.17613E-05
 -1      2385 8.89150E-05 1.40827E-05 1.15887E-05
 -1      2386 8.89149E-05 1.40827E-05 1.14161E-05
 -1      2387 8.89149E-05 1.40827E-05 1.12435E-05
 -1      2388 8.89149E-05 1.40827E-05 1.10709E-05
 -1      2389 8.89149E-05 1.40827E-05 1.08983E-05
 -1      2390 8.89150E-05 1.40827E-05 1.07257E-05
 -1      2391 8.89151E-05 1.40828E-05 1.05531E-05
 -1      2392 8.89152E-05 1.40828E-05 1.03805E-05
 -1      2393 8.56175E-05 2.78188E-05 1.19339E-05
 -1      2394 8.56173E-05 2.78188E-05 1.17613E-05
 -1      2395 8.56173E-05 2.78187E-05 1.15887E-05
 -1      2396 8.56172E-05 2.78187E-05 1.14161E-05
 -1      2397 8.56172E-05 2.78187E-05 1.12435E-05
 -1      2398 8.56172E-05 2.78187E-05 1.10709E-05
 -1      2399 8.56172E-05 2.78187E-05 1.08983E-05
 -1      2400 8.56173E-05 2.78187E-05 1.07257E-05
 -1      2401 8.56173E-05 2.78188E-05 1.05531E-05
 -1      2402 8.56175E-05 2.78188E-05 1.03805E-05
 -1      2403 8.02115E-05 4.08698E-05 1.19339E-05
 -1      2404 8.02114E-05 4.08698E-05 1.17613E-05
 -1      2405 8.02114E-05 4.08697E-05 1.15887E-05
 -1      2406 8.02113E-05 4.08697E-05 1.14161E-05
 -1      2407 8.02113E-05 4.08697E-05 1.12435E-05
 -1      2408 8.02113E-05 4.08697E-05 1.10709E-05
 -1      2409 8.02113E-05 4.08697E-05 1.08983E-05
 -1      2410 8.02114E-05 4.08697E-05 1.07257E-05
 -1      2411 8.02114E-05 4.08698E-05 1.05531E-05
 -1      2412 8.02115E-05 4.08698E-05 1.03805E-05
 -1      2413 7.28306E-05 5.29145E-05 1.19339E-05
 -1      2414 7.28305E-05 5.29144E-05 1.17613E-05
 -1      2415 7.28304E-05 5.29144E-05 1.15887E-05
 -1      2416 7.28303E-05 5.29143E-05 1.14161E-05
 -1      2417 7.28303E-05 5.29143E-05 1.12435E-05
 -1      2418 7.28303E-05 5.29143E-05 1.10709E-05
 -1      2419 7.28303E-05 5.29143E-05 1.08983E-05
 -1      2420 7.28304E-05 5.29144E-05 1.07257E-05
 -1      2421 7.28305E-05 5.29144E-05 1.05531E-05
 -1      2422 7.28306E-05 5.29145E-05 1.03805E-05
 -1      2423 6.36562E-05 6.36562E-05 1.19339E-05
 -1      2424 6.36562E-05 6.36562E-05 1.17613E-05
 -1      2425 6.36561E-05 6.36561E-05 1.15887E-05
 -1      2426 6.36561E-05 6.36561E-05 1.14161E-05
 -1      2427 6.36560E-05 6.36560E-05 1.12435E-05
 -1      2428 6.36560E-05 6.36560E-05 1.10709E-05
 -1      2429 6.36561E-05 6.36561E-05 1.08983E-05
 -1      2430 6.36561E-05 6.36561E-05 1.07257E-05
 -1      2431 6.36562E-05 6.36562E-05 1.05531E-05
 -1      2432 6.36562E-05 6.36562E-05 1.03805E-05
 -1      2433 5.29145E-05 7.28306E-05 1.19339E-05
 -1      2434 5.29144E-05 7.28305E-05 1.17613E-05
 -1      2435 5.29144E-05 7.28304E-05 1.15887E-05
 -1      2436 5.29143E-05 7.28303E-05 1.14161E-05
 -1      2437 5.29143E-05 7.28303E-05 1.12435E-05
 -1      2438 5.29143E-05 7.28303E-05 1.10709E-05
 -1      2439 5.29143E-05 7.28303E-05 1.08983E-05
 -1      2440 5.29144E-05 7.28304E-05 1.07257E-05
 -1      2441 5.29144E-05 7.28305E-05 1.05531E-05
 -1      2442 5.29145E-05 7.28306E-05 1.03805E-05
 -1      2443 4.08698E-05 8.02115E-05 1.19339E-05
 -1      2444 4.08698E-05 8.02114E-05 1.17613E-05
 -1      2445 4.08697E-05 8.02114E-05 1.15887E-05
 -1      2446 4.08697E-05 8.02113E-05 1.14161E-05
 -1      2447 4.08697E-05 8.02113E-05 1.12435E-05
 -1      2448 4.08697E-05 8.02113E-05 1.10709E-05
 -1      2449 4.08697E-05 8.02113E-05 1.08983E-05
 -1      2450 4.08697E-05 8.02114E-05 1.07257E-05
 -1      2451 4.08698E-05 8.02114E-05 1.05531E-05
 -1      2452 4.08698E-05 8.02115E-05 1.03805E-05
 -1      2453 2.78188E-05 8.56175E-05 1.19339E-05
 -1      2454 2.78188E-05 8.56173E-05 1.17613E-05
 -1      2455 2.78187E-05 8.56173E-05 1.15887E-05
 -1      2456 2.78187E-05 8.56172E-05 1.14161E-05
 -1      2457 2.78187E-05 8.56172E-05 1.12435E-05
 -1      2458 2.78187E-05 8.56172E-05 1.10709E-05
 -1      2459 2.78187E-05 8.56172E-05 1.08983E-05
 -1      2460 2.78187E-05 8.56173E-05 1.07257E-05
 -1      2461 2.78188E-05 8.56173E-05 1.05531E-05
 -1      2462 2.78188E-05 8.56175E-05 1.03805E-05
 -1      2463 1.40828E-05 8.89152E-05 1.19339E-05
 -1      2464 1.40828E-05 8.89151E-05 1.17613E-05
 -1      2465 1.40827E-05 8.89150E-05 1.15887E-05
 -1      2466 1.40827E-05 8.89149E-05 1.14161E-05
 -1      2467 1.40827E-05 8.89149E-05 1.12435E-05
 -1      2468 1.40827E-05 8.89149E-05 1.10709E-05
 -1      2469 1.40827E-05 8.89149E-05 1.08983E-05
 -1      2470 1.40827E-05 8.89150E-05 1.07257E-05
 -1      2471 1.40828E-05 8.89151E-05 1.05531E-05
 -1      2472 1.40828E-05 8.89152E-05 1.03805E-05
 -1      2473 8.59453E-05 1.36124E-05 1.19342E-05
 -1      2474 8.59452E-05 1.36124E-05 1.17615E-05
 -1      2475 8.59451E-05 1.36124E-05 1.15888E-05
 -1      2476 8.59451E-05 1.36124E-05 1.14162E-05
 -1      2477 8.59450E-05 1.36124E-05 1.12435E-05
 -1      2478 8.59450E-05 1.36124E-05 1.10708E-05
 -1      2479 8.59451E-05 1.36124E-05 1.08982E-05
 -1      2480 8.59451E-05 1.36124E-05 1.07255E-05
 -1      2481 8.59452E-05 1.36124E-05 1.05528E-05
 -1      2482 8.59453E-05 1.36124E-05 1.03802E-05
 -1      2483 8.27577E-05 2.68896E-05 1.19342E-05
 -1      2484 8.27576E-05 2.68896E-05 1.17615E-05
 -1      2485 8.27575E-05 2.68895E-05 1.15888E-05
 -1      2486 8.27575E-05 2.68895E-05 1.14162E-05
 -1      2487 8.27575E-05 2.68895E-05 1.12435E-05
 -1      2488 8.27575E-05 2.68895E-05 1.10708E-05
 -1      2489 8.27575E-05 2.68895E-05 1.08982E-05
 -1      2490 8.27575E-05 2.68895E-05 1.07255E-05
 -1      2491 8.27576E-05 2.68896E-05 1.05528E-05
 -1      2492 8.27577E-05 2.68896E-05 1.03802E-05
 -1      2493 7.75323E-05 3.95047E-05 1.19342E-05
 -1      2494 7.75323E-05 3.95047E-05 1.17615E-05
 -1      2495 7.75322E-05 3.95046E-05 1.15888E-05
 -1      2496 7.75321E-05 3.95046E-05 1.14162E-05
 -1      2497 7.75321E-05 3.95046E-05 1.12435E-05
 -1      2498 7.75321E-05 3.95046E-05 1.10708E-05
 -1      2499 7.75321E-05 3.95046E-05 1.08982E-05
 -1      2500 7.75322E-05 3.95046E-05 1.07255E-05
 -1      2501 7.75323E-05 3.95047E-05 1.05528E-05
 -1      2502 7.75323E-05 3.95047E-05 1.03802E-05
 -1      2503 7.03979E-05 5.11471E-05 1.19342E-05
 -1      2504 7.03978E-05 5.11470E-05 1.17615E-05
 -1      2505 7.03978E-05 5.11470E-05 1.15888E-05
 -1      2506 7.03977E-05 5.11469E-05 1.14162E-05
 -1      2507 7.03977E-05 5.11469E-05 1.12435E-05
 -1      2508 7.03977E-05 5.11469E-05 1.10708E-05
 -1      2509 7.03977E-05 5.11469E-05 1.08982E-05
 -1      2510 7.03978E-05 5.11470E-05 1.07255E-05
 -1      2511 7.03978E-05 5.11470E-05 1.05528E-05
 -1      2512 7.03979E-05 5.11471E-05 1.03802E-05
 -1      2513 6.15300E-05 6.15300E-05 1.19342E-05
 -1      2514 6.15299E-05 6.15299E-05 1.17615E-05
 -1      2515 6.15299E-05 6.15299E-05 1.15888E-05
 -1      2516 6.15299E-05 6.15299E-05 1.14162E-05
 -1      2517 6.15298E-05 6.15298E-05 1.12435E-05
 -1      2518 6.15298E-05 6.15298E-05 1.10708E-05
 -1      2519 6.15299E-05 6.15299E-05 1.08982E-05
 -1      2520 6.15299E-05 6.15299E-05 1.07255E-05
 -1      2521 6.15299E-05 6.15299E-05 1.05528E-05
 -1      2522 6.15300E-05 6.15300E-05 1.03802E-05
 -1      2523 5.11471E-05 7.03979E-05 1.19342E-05
 -1      2524 5.11470E-05 7.03978E-05 1.17615E-05
 -1      2525 5.11470E-05 7.03978E-05 1.15888E-05
 -1      2526 5.11469E-05 7.03977E-05 1.14162E-05
 -1      2527 5.11469E-05 7.03977E-05 1.12435E-05
 -1      2528 5.11469E-05 7.03977E-05 1.10708E-05
 -1      2529 5.11469E-05 7.03977E-05 1.08982E-05
 -1      2530 5.11470E-05 7.03978E-05 1.07255E-05
 -1      2531 5.11470E-05 7.03978E-05 1.05528E-05
 -1      2532 5.11471E-05 7.03979E-05 1.03802E-05
 -1      2533 3.95047E-05 7.75323E-05 1.19342E-05
 -1      2534 3.95047E-05 7.75323E-05 1.17615E-05
 -1      2535 3.95046E-05 7.75322E-05 1.15888E-05
 -1      2536 3.95046E-05 7.75321E-05 1.14162E-05
 -1      2537 3.95046E-05 7.75321E-05 1.12435E-05
 -1      2538 3.95046E-05 7.75321E-05 1.10708E-05
 -1      2539 3.95046E-05 7.75321E-05 1.08982E-05
 -1      2540 3.95046E-05 7.75322E-05 1.07255E-05
 -1      2541 3.95047E-05 7.75323E-05 1.05528E-05
 -1      2542 3.95047E-05 7.75323E-05 1.03802E-05
 -1      2543 2.68896E-05 8.27577E-05 1.19342E-05
 -1      2544 2.68896E-05 8.27576E-05 1.17615E-05
 -1      2545 2.68895E-05 8.27575E-05 1.15888E-05
 -1      2546 2.68895E-05 8.27575E-05 1.14162E-05
 -1      2547 2.68895E-05 8.27575E-05 1.12435E-05
 -1      2548 2.68895E-05 8.27575E-05 1.10708E-05
 -1      2549 2.68895E-05 8.27575E-05 1.08982E-05
 -1      2550 2.68895E-05 8.27575E-05 1.07255E-05
 -1      2551 2.68896E-05 8.27576E-05 1.05528E-05
 -1      2552 2.68896E-05 8.27577E-05 1.03802E-05
 -1      2553 1.36124E-05 8.59453E-05 1.19342E-05
 -1      2554 1.36124E-05 8.59452E-05 1.17615E-05
 -1      2555 1.36124E-05 8.59451E-05 1.15888E-05
 -1      2556 1.36124E-05 8.59451E-05 1.14162E-05
 -1      2557 1.36124E-05 8.59450E-05 1.12435E-05
 -1      2558 1.36124E-05 8.59450E-05 1.10708E-05
 -1      2559 1.36124E-05 8.59451E-05 1.08982E-05
 -1      2560 1.36124E-05 8.59451E-05 1.07255E-05
 -1      2561 1.36124E-05 8.59452E-05 1.05528E-05
 -1      2562 1.36124E-05 8.59453E-05 1.03802E-05
 -1      2563 8.32812E-05 1.31905E-05 1.19344E-05
 -1      2564 8.32812E-05 1.31904E-05 1.17617E-05
 -1      2565 8.32811E-05 1.31904E-05 1.15890E-05
 -1      2566 8.32811E-05 1.31904E-05 1.14162E-05
 -1      2567 8.32810E-05 1.31904E-05 1.12435E-05
 -1      2568 8.32810E-05 1.31904E-05 1.10708E-05
 -1      2569 8.32811E-05 1.31904E-05 1.08981E-05
 -1      2570 8.32811E-05 1.31904E-05 1.07253E-05
 -1      2571 8.32812E-05 1.31904E-05 1.05526E-05
 -1      2572 8.32812E-05 1.31905E-05 1.03799E-05
 -1      2573 8.01925E-05 2.60561E-05 1.19344E-05
 -1      2574 8.01924E-05 2.60561E-05 1.17617E-05
 -1      2575 8.01923E-05 2.60561E-05 1.15890E-05
 -1      2576 8.01923E-05 2.60561E-05 1.14162E-05
 -1      2577 8.01923E-05 2.60561E-05 1.12435E-05
 -1      2578 8.01923E-05 2.60561E-05 1.10708E-05
 -1      2579 8.01923E-05 2.60561E-05 1.08981E-05
 -1      2580 8.01923E-05 2.60561E-05 1.07253E-05
 -1      2581 8.01924E-05 2.60561E-05 1.05526E-05
 -1      2582 8.01925E-05 2.60561E-05 1.03799E-05
 -1      2583 7.51291E-05 3.82802E-05 1.19344E-05
 -1      2584 7.51290E-05 3.82801E-05 1.17617E-05
 -1      2585 7.51290E-05 3.82801E-05 1.15890E-05
 -1      2586 7.51289E-05 3.82801E-05 1.14162E-05
 -1      2587 7.51289E-05 3.82801E-05 1.12435E-05
 -1      2588 7.51289E-05 3.82801E-05 1.10708E-05
 -1      2589 7.51289E-05 3.82801E-05 1.08981E-05
 -1      2590 7.51290E-05 3.82801E-05 1.07253E-05
 -1      2591 7.51290E-05 3.82801E-05 1.05526E-05
 -1      2592 7.51291E-05 3.82802E-05 1.03799E-05
 -1      2593 6.82158E-05 4.95617E-05 1.19344E-05
 -1      2594 6.82157E-05 4.95616E-05 1.17617E-05
 -1      2595 6.82157E-05 4.95616E-05 1.15890E-05
 -1      2596 6.82156E-05 4.95616E-05 1.14162E-05
 -1      2597 6.82156E-05 4.95616E-05 1.12435E-05
 -1      2598 6.82156E-05 4.95616E-05 1.10708E-05
 -1      2599 6.82156E-05 4.95616E-05 1.08981E-05
 -1      2600 6.82157E-05 4.95616E-05 1.07253E-05
 -1      2601 6.82157E-05 4.95616E-05 1.05526E-05
 -1      2602 6.82158E-05 4.95617E-05 1.03799E-05
 -1      2603 5.96228E-05 5.96228E-05 1.19344E-05
 -1      2604 5.96227E-05 5.96227E-05 1.17617E-05
 -1      2605 5.96227E-05 5.96227E-05 1.15890E-05
 -1      2606 5.96227E-05 5.96227E-05 1.14162E-05
 -1      2607 5.96226E-05 5.96226E-05 1.12435E-05
 -1      2608 5.96226E-05 5.96226E-05 1.10708E-05
 -1      2609 5.96227E-05 5.96227E-05 1.08981E-05
 -1      2610 5.96227E-05 5.96227E-05 1.07253E-05
 -1      2611 5.96227E-05 5.96227E-05 1.05526E-05
 -1      2612 5.96228E-05 5.96228E-05 1.03799E-05
 -1      2613 4.95617E-05 6.82158E-05 1.19344E-05
 -1      2614 4.95616E-05 6.82157E-05 1.17617E-05
 -1      2615 4.95616E-05 6.82157E-05 1.15890E-05
 -1      2616 4.95616E-05 6.82156E-05 1.14162E-05
 -1      2617 4.95616E-05 6.82156E-05 1.12435E-05
 -1      2618 4.95616E-05 6.82156E-05 1.10708E-05
 -1      2619 4.95616E-05 6.82156E-05 1.08981E-05
 -1      2620 4.95616E-05 6.82157E-05 1.07253E-05
 -1      2621 4.95616E-05 6.82157E-05 1.05526E-05
 -1      2622 4.95617E-05 6.82158E-05 1.03799E-05
 -1      2623 3.82802E-05 7.51291E-05 1.19344E-05
 -1      2624 3.82801E-05 7.51290E-05 1.17617E-05
 -1      2625 3.82801E-05 7.51290E-05 1.15890E-05
 -1      2626 3.82801E-05 7.51289E-05 1.14162E-05
 -1      2627 3.82801E-05 7.51289E-05 1.12435E-05
 -1      2628 3.82801E-05 7.51289E-05 1.10708E-05
 -1      2629 3.82801E-05 7.51289E-05 1.08981E-05
 -1      2630 3.82801E-05 7.51290E-05 1.07253E-05
 -1      2631 3.82801E-05 7.51290E-05 1.05526E-05
 -1      2632 3.82802E-05 7.51291E-05 1.03799E-05
 -1      2633 2.60561E-05 8.01925E-05 1.19344E-05
 -1      2634 2.60561E-05 8.01924E-05 1.17617E-05
 -1      2635 2.60561E-05 8.01923E-05 1.15890E-05
 -1      2636 2.60561E-05 8.01923E-05 1.14162E-05
 -1      2637 2.60561E-05 8.01923E-05 1.12435E-05
 -1      2638 2.60561E-05 8.01923E-05 1.10708E-05
 -1      2639 2.60561E-05 8.01923E-05 1.08981E-05
 -1      2640 2.60561E-05 8.01923E-05 1.07253E-05
 -1      2641 2.60561E-05 8.01924E-05 1.05526E-05
 -1      2642 2.60561E-05 8.01925E-05 1.03799E-05
 -1      2643 1.31905E-05 8.32812E-05 1.19344E-05
 -1      2644 1.31904E-05 8.32812E-05 1.17617E-05
 -1      2645 1.31904E-05 8.32811E-05 1.15890E-05
 -1      2646 1.31904E-05 8.32811E-05 1.14162E-05
 -1      2647 1.31904E-05 8.32810E-05 1.12435E-05
 -1      2648 1.31904E-05 8.32810E-05 1.10708E-05
 -1      2649 1.31904E-05 8.32811E-05 1.08981E-05
 -1      2650 1.31904E-05 8.32811E-05 1.07253E-05
 -1      2651 1.31904E-05 8.32812E-05 1.05526E-05
 -1      2652 1.31905E-05 8.32812E-05 1.03799E-05
 -1      2653 8.08849E-05 1.28109E-05 1.19346E-05
 -1      2654 8.08848E-05 1.28109E-05 1.17618E-05
 -1      2655 8.08848E-05 1.28109E-05 1.15891E-05
 -1      2656 8.08847E-05 1.28109E-05 1.14163E-05
 -1      2657 8.08847E-05 1.28109E-05 1.12435E-05
 -1      2658 8.08847E-05 1.28109E-05 1.10708E-05
 -1      2659 8.08847E-05 1.28109E-05 1.08980E-05
 -1      2660 8.08848E-05 1.28109E-05 1.07252E-05
 -1      2661 8.08848E-05 1.28109E-05 1.05525E-05
 -1      2662 8.08849E-05 1.28109E-05 1.03797E-05
 -1      2663 7.78850E-05 2.53064E-05 1.19346E-05
 -1      2664 7.78849E-05 2.53063E-05 1.17618E-05
 -1      2665 7.78849E-05 2.53063E-05 1.15891E-05
 -1      2666 7.78849E-05 2.53063E-05 1.14163E-05
 -1      2667 7.78848E-05 2.53063E-05 1.12435E-05
 -1      2668 7.78848E-05 2.53063E-05 1.10708E-05
 -1      2669 7.78849E-05 2.53063E-05 1.08980E-05
 -1      2670 7.78849E-05 2.53063E-05 1.07252E-05
 -1      2671 7.78849E-05 2.53063E-05 1.05525E-05
 -1      2672 7.78850E-05 2.53064E-05 1.03797E-05
 -1      2673 7.29673E-05 3.71787E-05 1.19346E-05
 -1      2674 7.29673E-05 3.71787E-05 1.17618E-05
 -1      2675 7.29672E-05 3.71787E-05 1.15891E-05
 -1      2676 7.29672E-05 3.71786E-05 1.14163E-05
 -1      2677 7.29672E-05 3.71786E-05 1.12435E-05
 -1      2678 7.29672E-05 3.71786E-05 1.10708E-05
 -1      2679 7.29672E-05 3.71786E-05 1.08980E-05
 -1      2680 7.29672E-05 3.71787E-05 1.07252E-05
 -1      2681 7.29673E-05 3.71787E-05 1.05525E-05
 -1      2682 7.29673E-05 3.71787E-05 1.03797E-05
 -1      2683 6.62529E-05 4.81356E-05 1.19346E-05
 -1      2684 6.62529E-05 4.81355E-05 1.17618E-05
 -1      2685 6.62528E-05 4.81355E-05 1.15891E-05
 -1      2686 6.62528E-05 4.81355E-05 1.14163E-05
 -1      2687 6.62528E-05 4.81355E-05 1.12435E-05
 -1      2688 6.62528E-05 4.81355E-05 1.10708E-05
 -1      2689 6.62528E-05 4.81355E-05 1.08980E-05
 -1      2690 6.62528E-05 4.81355E-05 1.07252E-05
 -1      2691 6.62529E-05 4.81355E-05 1.05525E-05
 -1      2692 6.62529E-05 4.81356E-05 1.03797E-05
 -1      2693 5.79072E-05 5.79072E-05 1.19346E-05
 -1      2694 5.79071E-05 5.79071E-05 1.17618E-05
 -1      2695 5.79071E-05 5.79071E-05 1.15891E-05
 -1      2696 5.79071E-05 5.79071E-05 1.14163E-05
 -1      2697 5.79071E-05 5.79071E-05 1.12435E-05
 -1      2698 5.79071E-05 5.79071E-05 1.10708E-05
 -1      2699 5.79071E-05 5.79071E-05 1.08980E-05
 -1      2700 5.79071E-05 5.79071E-05 1.07252E-05
 -1      2701 5.79071E-05 5.79071E-05 1.05525E-05
 -1      2702 5.79072E-05 5.79072E-05 1.03797E-05
 -1      2703 4.81356E-05 6.62529E-05 1.19346E-05
 -1      2704 4.81355E-05 6.62529E-05 1.17618E-05
 -1      2705 4.81355E-05 6.62528E-05 1.15891E-05
 -1      2706 4.81355E-05 6.62528E-05 1.14163E-05
 -1      2707 4.81355E-05 6.62528E-05 1.12435E-05
 -1      2708 4.81355E-05 6.62528E-05 1.10708E-05
 -1      2709 4.81355E-05 6.62528E-05 1.08980E-05
 -1      2710 4.81355E-05 6.62528E-05 1.07252E-05
 -1      2711 4.81355E-05 6.62529E-05 1.05525E-05
 -1      2712 4.81356E-05 6.62529E-05 1.03797E-05
 -1      2713 3.71787E-05 7.29673E-05 1.19346E-05
 -1      2714 3.71787E-05 7.29673E-05 1.17618E-05
 -1      2715 3.71787E-05 7.29672E-05 1.15891E-05
 -1      2716 3.71786E-05 7.29672E-05 1.14163E-05
 -1      2717 3.71786E-05 7.29672E-05 1.12435E-05
 -1      2718 3.71786E-05 7.29672E-05 1.10708E-05
 -1      2719 3.71786E-05 7.29672E-05 1.08980E-05
 -1      2720 3.71787E-05 7.29672E-05 1.07252E-05
 -1      2721 3.71787E-05 7.29673E-05 1.05525E-05
 -1      2722 3.71787E-05 7.29673E-05 1.03797E-05
 -1      2723 2.53064E-05 7.78850E-05 1.19346E-05
 -1      2724 2.53063E-05 7.78849E-05 1.17618E-05
 -1      2725 2.53063E-05 7.78849E-05 1.15891E-05
 -1      2726 2.53063E-05 7.78849E-05 1.14163E-05
 -1      2727 2.53063E-05 7.78848E-05 1.12435E-05
 -1      2728 2.53063E-05 7.78848E-05 1.10708E-05
 -1      2729 2.53063E-05 7.78849E-05 1.08980E-05
 -1      2730 2.53063E-05 7.78849E-05 1.07252E-05
 -1      2731 2.53063E-05 7.78849E-05 1.05525E-05
 -1      2732 2.53064E-05 7.78850E-05 1.03797E-05
 -1      2733 1.28109E-05 8.08849E-05 1.19346E-05
 -1      2734 1.28109E-05 8.08848E-05 1.17618E-05
 -1      2735 1.28109E-05 8.08848E-05 1.15891E-05
 -1      2736 1.28109E-05 8.08847E-05 1.14163E-05
 -1      2737 1.28109E-05 8.08847E-05 1.12435E-05
 -1      2738 1.28109E-05 8.08847E-05 1.10708E-05
 -1      2739 1.28109E-05 8.08847E-05 1.08980E-05
 -1      2740 1.28109E-05 8.08848E-05 1.07252E-05
 -1      2741 1.28109E-05 8.08848E-05 1.05525E-05
 -1      2742 1.28109E-05 8.08849E-05 1.03797E-05
 -1      2743 7.87241E-05 1.24687E-05 1.19348E-05
 -1      2744 7.87240E-05 1.24687E-05 1.17620E-05
 -1      2745 7.87240E-05 1.24687E-05 1.15892E-05
 -1      2746 7.87240E-05 1.24687E-05 1.14164E-05
 -1      2747 7.87240E-05 1.24687E-05 1.12436E-05
 -1      2748 7.87240E-05 1.24687E-05 1.10708E-05
 -1      2749 7.87240E-05 1.24687E-05 1.08980E-05
 -1      2750 7.87240E-05 1.24687E-05 1.07252E-05
 -1      2751 7.87240E-05 1.24687E-05 1.05524E-05
 -1      2752 7.87241E-05 1.24687E-05 1.03796E-05
 -1      2753 7.58043E-05 2.46303E-05 1.19348E-05
 -1      2754 7.58043E-05 2.46303E-05 1.17620E-05
 -1      2755 7.58042E-05 2.46303E-05 1.15892E-05
 -1      2756 7.58042E-05 2.46303E-05 1.14164E-05
 -1      2757 7.58042E-05 2.46303E-05 1.12436E-05
 -1      2758 7.58042E-05 2.46303E-05 1.10708E-05
 -1      2759 7.58042E-05 2.46303E-05 1.08980E-05
 -1      2760 7.58042E-05 2.46303E-05 1.07252E-05
 -1      2761 7.58043E-05 2.46303E-05 1.05524E-05
 -1      2762 7.58043E-05 2.46303E-05 1.03796E-05
 -1      2763 7.10180E-05 3.61855E-05 1.19348E-05
 -1      2764 7.10180E-05 3.61855E-05 1.17620E-05
 -1      2765 7.10179E-05 3.61855E-05 1.15892E-05
 -1      2766 7.10179E-05 3.61854E-05 1.14164E-05
 -1      2767 7.10179E-05 3.61854E-05 1.12436E-05
 -1      2768 7.10179E-05 3.61854E-05 1.10708E-05
 -1      2769 7.10179E-05 3.61854E-05 1.08980E-05
 -1      2770 7.10179E-05 3.61855E-05 1.07252E-05
 -1      2771 7.10180E-05 3.61855E-05 1.05524E-05
 -1      2772 7.10180E-05 3.61855E-05 1.03796E-05
 -1      2773 6.44830E-05 4.68497E-05 1.19348E-05
 -1      2774 6.44830E-05 4.68496E-05 1.17620E-05
 -1      2775 6.44829E-05 4.68496E-05 1.15892E-05
 -1      2776 6.44829E-05 4.68496E-05 1.14164E-05
 -1      2777 6.44829E-05 4.68496E-05 1.12436E-05
 -1      2778 6.44829E-05 4.68496E-05 1.10708E-05
 -1      2779 6.44829E-05 4.68496E-05 1.08980E-05
 -1      2780 6.44829E-05 4.68496E-05 1.07252E-05
 -1      2781 6.44830E-05 4.68496E-05 1.05524E-05
 -1      2782 6.44830E-05 4.68497E-05 1.03796E-05
 -1      2783 5.63602E-05 5.63602E-05 1.19348E-05
 -1      2784 5.63602E-05 5.63602E-05 1.17620E-05
 -1      2785 5.63602E-05 5.63602E-05 1.15892E-05
 -1      2786 5.63601E-05 5.63601E-05 1.14164E-05
 -1      2787 5.63601E-05 5.63601E-05 1.12436E-05
 -1      2788 5.63601E-05 5.63601E-05 1.10708E-05
 -1      2789 5.63601E-05 5.63601E-05 1.08980E-05
 -1      2790 5.63602E-05 5.63602E-05 1.07252E-05
 -1      2791 5.63602E-05 5.63602E-05 1.05524E-05
 -1      2792 5.63602E-05 5.63602E-05 1.03796E-05
 -1      2793 4.68497E-05 6.44830E-05 1.19348E-05
 -1      2794 4.68496E-05 6.44830E-05 1.17620E-05
 -1      2795 4.68496E-05 6.44829E-05 1.15892E-05
 -1      2796 4.68496E-05 6.44829E-05 1.14164E-05
 -1      2797 4.68496E-05 6.44829E-05 1.12436E-05
 -1      2798 4.68496E-05 6.44829E-05 1.10708E-05
 -1      2799 4.68496E-05 6.44829E-05 1.08980E-05
 -1      2800 4.68496E-05 6.44829E-05 1.07252E-05
 -1      2801 4.68496E-05 6.44830E-05 1.05524E-05
 -1      2802 4.68497E-05 6.44830E-05 1.03796E-05
 -1      2803 3.61855E-05 7.10180E-05 1.19348E-05
 -1      2804 3.61855E-05 7.10180E-05 1.17620E-05
 -1      2805 3.61855E-05 7.10179E-05 1.15892E-05
 -1      2806 3.61854E-05 7.10179E-05 1.14164E-05
 -1      2807 3.61854E-05 7.10179E-05 1.12436E-05
 -1      2808 3.61854E-05 7.10179E-05 1.10708E-05
 -1      2809 3.61854E-05 7.10179E-05 1.08980E-05
 -1      2810 3.61855E-05 7.10179E-05 1.07252E-05
 -1      2811 3.61855E-05 7.10180E-05 1.05524E-05
 -1      2812 3.61855E-05 7.10180E-05 1.03796E-05
 -1      2813 2.46303E-05 7.58043E-05 1.19348E-05
 -1      2814 2.46303E-05 7.58043E-05 1.17620E-05
 -1      2815 2.46303E-05 7.58042E-05 1.15892E-05
 -1      2816 2.46303E-05 7.58042E-05 1.14164E-05
 -1      2817 2.46303E-05 7.58042E-05 1.12436E-05
 -1      2818 2.46303E-05 7.58042E-05 1.10708E-05
 -1      2819 2.46303E-05 7.58042E-05 1.08980E-05
 -1      2820 2.46303E-05 7.58042E-05 1.07252E-05
 -1      2821 2.46303E-05 7.58043E-05 1.05524E-05
 -1      2822 2.46303E-05 7.58043E-05 1.03796E-05
 -1      2823 1.24687E-05 7.87241E-05 1.19348E-05
 -1      2824 1.24687E-05 7.87240E-05 1.17620E-05
 -1      2825 1.24687E-05 7.87240E-05 1.15892E-05
 -1      2826 1.24687E-05 7.87240E-05 1.14164E-05
 -1      2827 1.24687E-05 7.87240E-05 1.12436E-05
 -1      2828 1.24687E-05 7.87240E-05 1.10708E-05
 -1      2829 1.24687E-05 7.87240E-05 1.08980E-05
 -1      2830 1.24687E-05 7.87240E-05 1.07252E-05
 -1      2831 1.24687E-05 7.87240E-05 1.05524E-05
 -1      2832 1.24687E-05 7.87241E-05 1.03796E-05
 -1      2833 7.67717E-05 1.21594E-05 1.19349E-05
 -1      2834 7.67716E-05 1.21594E-05 1.17621E-05
 -1      2835 7.67716E-05 1.21594E-05 1.15892E-05
 -1      2836 7.67716E-05 1.21594E-05 1.14164E-05
 -1      2837 7.67716E-05 1.21594E-05 1.12436E-05
 -1      2838 7.67716E-05 1.21594E-05 1.10707E-05
 -1      2839 7.67716E-05 1.21594E-05 1.08979E-05
 -1      2840 7.67716E-05 1.21594E-05 1.07251E-05
 -1      2841 7.67716E-05 1.21594E-05 1.05523E-05
 -1      2842 7.67717E-05 1.21594E-05 1.03794E-05
 -1      2843 7.39243E-05 2.40195E-05 1.19349E-05
 -1      2844 7.39243E-05 2.40195E-05 1.17621E-05
 -1      2845 7.39242E-05 2.40194E-05 1.15892E-05
 -1      2846 7.39242E-05 2.40194E-05 1.14164E-05
 -1      2847 7.39242E-05 2.40194E-05 1.12436E-05
 -1      2848 7.39242E-05 2.40194E-05 1.10707E-05
 -1      2849 7.39242E-05 2.40194E-05 1.08979E-05
 -1      2850 7.39242E-05 2.40194E-05 1.07251E-05
 -1      2851 7.39243E-05 2.40195E-05 1.05523E-05
 -1      2852 7.39243E-05 2.40195E-05 1.03794E-05
 -1      2853 6.92567E-05 3.52881E-05 1.19349E-05
 -1      2854 6.92567E-05 3.52880E-05 1.17621E-05
 -1      2855 6.92566E-05 3.52880E-05 1.15892E-05
 -1      2856 6.92566E-05 3.52880E-05 1.14164E-05
 -1      2857 6.92566E-05 3.52880E-05 1.12436E-05
 -1      2858 6.92566E-05 3.52880E-05 1.10707E-05
 -1      2859 6.92566E-05 3.52880E-05 1.08979E-05
 -1      2860 6.92566E-05 3.52880E-05 1.07251E-05
 -1      2861 6.92567E-05 3.52880E-05 1.05523E-05
 -1      2862 6.92567E-05 3.52881E-05 1.03794E-05
 -1      2863 6.28838E-05 4.56877E-05 1.19349E-05
 -1      2864 6.28837E-05 4.56877E-05 1.17621E-05
 -1      2865 6.28837E-05 4.56877E-05 1.15892E-05
 -1      2866 6.28837E-05 4.56877E-05 1.14164E-05
 -1      2867 6.28837E-05 4.56877E-05 1.12436E-05
 -1      2868 6.28837E-05 4.56877E-05 1.10707E-05
 -1      2869 6.28837E-05 4.56877E-05 1.08979E-05
 -1      2870 6.28837E-05 4.56877E-05 1.07251E-05
 -1      2871 6.28837E-05 4.56877E-05 1.05523E-05
 -1      2872 6.28838E-05 4.56877E-05 1.03794E-05
 -1      2873 5.49624E-05 5.49624E-05 1.19349E-05
 -1      2874 5.49624E-05 5.49624E-05 1.17621E-05
 -1      2875 5.49624E-05 5.49624E-05 1.15892E-05
 -1      2876 5.49624E-05 5.49624E-05 1.14164E-05
 -1      2877 5.49624E-05 5.49624E-05 1.12436E-05
 -1      2878 5.49624E-05 5.49624E-05 1.10707E-05
 -1      2879 5.49624E-05 5.49624E-05 1.08979E-05
 -1      2880 5.49624E-05 5.49624E-05 1.07251E-05
 -1      2881 5.49624E-05 5.49624E-05 1.05523E-05
 -1      2882 5.49624E-05 5.49624E-05 1.03794E-05
 -1      2883 4.56877E-05 6.28838E-05 1.19349E-05
 -1      2884 4.56877E-05 6.28837E-05 1.17621E-05
 -1      2885 4.56877E-05 6.28837E-05 1.15892E-05
 -1      2886 4.56877E-05 6.28837E-05 1.14164E-05
 -1      2887 4.56877E-05 6.28837E-05 1.12436E-05
 -1      2888 4.56877E-05 6.28837E-05 1.10707E-05
 -1      2889 4.56877E-05 6.28837E-05 1.08979E-05
 -1      2890 4.56877E-05 6.28837E-05 1.07251E-05
 -1      2891 4.56877E-05 6.28837E-05 1.05523E-05
 -1      2892 4.56877E-05 6.28838E-05 1.03794E-05
 -1      2893 3.52881E-05 6.92567E-05 1.19349E-05
 -1      2894 3.52880E-05 6.92567E-05 1.17621E-05
 -1      2895 3.52880E-05 6.92566E-05 1.15892E-05
 -1      2896 3.52880E-05 6.92566E-05 1.14164E-05
 -1      2897 3.52880E-05 6.92566E-05 1.12436E-05
 -1      2898 3.52880E-05 6.92566E-05 1.10707E-05
 -1      2899 3.52880E-05 6.92566E-05 1.08979E-05
 -1      2900 3.52880E-05 6.92566E-05 1.07251E-05
 -1      2901 3.52880E-05 6.92567E-05 1.05523E-05
 -1      2902 3.52881E-05 6.92567E-05 1.03794E-05
 -1      2903 2.40195E-05 7.39243E-05 1.19349E-05
 -1      2904 2.40195E-05 7.39243E-05 1.17621E-05
 -1      2905 2.40194E-05 7.39242E-05 1.15892E-05
 -1      2906 2.40194E-05 7.39242E-05 1.14164E-05
 -1      2907 2.40194E-05 7.39242E-05 1.12436E-05
 -1      2908 2.40194E-05 7.39242E-05 1.10707E-05
 -1      2909 2.40194E-05 7.39242E-05 1.08979E-05
 -1      2910 2.40194E-05 7.39242E-05 1.07251E-05
 -1      2911 2.40195E-05 7.39243E-05 1.05523E-05
 -1      2912 2.40195E-05 7.39243E-05 1.03794E-05
 -1      2913 1.21594E-05 7.67717E-05 1.19349E-05
 -1      2914 1.21594E-05 7.67716E-05 1.17621E-05
 -1      2915 1.21594E-05 7.67716E-05 1.15892E-05
 -1      2916 1.21594E-05 7.67716E-05 1.14164E-05
 -1      2917 1.21594E-05 7.67716E-05 1.12436E-05
 -1      2918 1.21594E-05 7.67716E-05 1.10707E-05
 -1      2919 1.21594E-05 7.67716E-05 1.08979E-05
 -1      2920 1.21594E-05 7.67716E-05 1.07251E-05
 -1      2921 1.21594E-05 7.67716E-05 1.05523E-05
 -1      2922 1.21594E-05 7.67717E-05 1.03794E-05
 -1      2923 7.50045E-05 1.18795E-05 1.19350E-05
 -1      2924 7.50044E-05 1.18795E-05 1.17621E-05
 -1      2925 7.50044E-05 1.18795E-05 1.15893E-05
 -1      2926 7.50044E-05 1.18795E-05 1.14164E-05
 -1      2927 7.50044E-05 1.18795E-05 1.12436E-05
 -1      2928 7.50044E-05 1.18795E-05 1.10707E-05
 -1      2929 7.50044E-05 1.18795E-05 1.08979E-05
 -1      2930 7.50044E-05 1.18795E-05 1.07250E-05
 -1      2931 7.50044E-05 1.18795E-05 1.05522E-05
 -1      2932 7.50045E-05 1.18795E-05 1.03793E-05
 -1      2933 7.22227E-05 2.34666E-05 1.19350E-05
 -1      2934 7.22226E-05 2.34666E-05 1.17621E-05
 -1      2935 7.22226E-05 2.34665E-05 1.15893E-05
 -1      2936 7.22226E-05 2.34665E-05 1.14164E-05
 -1      2937 7.22226E-05 2.34665E-05 1.12436E-05
 -1      2938 7.22226E-05 2.34665E-05 1.10707E-05
 -1      2939 7.22226E-05 2.34665E-05 1.08979E-05
 -1      2940 7.22226E-05 2.34665E-05 1.07250E-05
 -1      2941 7.22226E-05 2.34666E-05 1.05522E-05
 -1      2942 7.22227E-05 2.34666E-05 1.03793E-05
 -1      2943 6.76625E-05 3.44758E-05 1.19350E-05
 -1      2944 6.76625E-05 3.44757E-05 1.17621E-05
 -1      2945 6.76624E-05 3.44757E-05 1.15893E-05
 -1      2946 6.76624E-05 3.44757E-05 1.14164E-05
 -1      2947 6.76624E-05 3.44757E-05 1.12436E-05
 -1      2948 6.76624E-05 3.44757E-05 1.10707E-05
 -1      2949 6.76624E-05 3.44757E-05 1.08979E-05
 -1      2950 6.76624E-05 3.44757E-05 1.07250E-05
 -1      2951 6.76625E-05 3.44757E-05 1.05522E-05
 -1      2952 6.76625E-05 3.44758E-05 1.03793E-05
 -1      2953 6.14363E-05 4.46361E-05 1.19350E-05
 -1      2954 6.14362E-05 4.46360E-05 1.17621E-05
 -1      2955 6.14362E-05 4.46360E-05 1.15893E-05
 -1      2956 6.14362E-05 4.46360E-05 1.14164E-05
 -1      2957 6.14362E-05 4.46360E-05 1.12436E-05
 -1      2958 6.14362E-05 4.46360E-05 1.10707E-05
 -1      2959 6.14362E-05 4.46360E-05 1.08979E-05
 -1      2960 6.14362E-05 4.46360E-05 1.07250E-05
 -1      2961 6.14362E-05 4.46360E-05 1.05522E-05
 -1      2962 6.14363E-05 4.46361E-05 1.03793E-05
 -1      2963 5.36973E-05 5.36973E-05 1.19350E-05
 -1      2964 5.36972E-05 5.36972E-05 1.17621E-05
 -1      2965 5.36972E-05 5.36972E-05 1.15893E-05
 -1      2966 5.36972E-05 5.36972E-05 1.14164E-05
 -1      2967 5.36972E-05 5.36972E-05 1.12436E-05
 -1      2968 5.36972E-05 5.36972E-05 1.10707E-05
 -1      2969 5.36972E-05 5.36972E-05 1.08979E-05
 -1      2970 5.36972E-05 5.36972E-05 1.07250E-05
 -1      2971 5.36972E-05 5.36972E-05 1.05522E-05
 -1      2972 5.36973E-05 5.36973E-05 1.03793E-05
 -1      2973 4.46361E-05 6.14363E-05 1.19350E-05
 -1      2974 4.46360E-05 6.14362E-05 1.17621E-05
 -1      2975 4.46360E-05 6.14362E-05 1.15893E-05
 -1      2976 4.46360E-05 6.14362E-05 1.14164E-05
 -1      2977 4.46360E-05 6.14362E-05 1.12436E-05
 -1      2978 4.46360E-05 6.14362E-05 1.10707E-05
 -1      2979 4.46360E-05 6.14362E-05 1.08979E-05
 -1      2980 4.46360E-05 6.14362E-05 1.07250E-05
 -1      2981 4.46360E-05 6.14362E-05 1.05522E-05
 -1      2982 4.46361E-05 6.14363E-05 1.03793E-05
 -1      2983 3.44758E-05 6.76625E-05 1.19350E-05
 -1      2984 3.44757E-05 6.76625E-05 1.17621E-05
 -1      2985 3.44757E-05 6.76624E-05 1.15893E-05
 -1      2986 3.44757E-05 6.76624E-05 1.14164E-05
 -1      2987 3.44757E-05 6.76624E-05 1.12436E-05
 -1      2988 3.44757E-05 6.76624E-05 1.10707E-05
 -1      2989 3.44757E-05 6.76624E-05 1.08979E-05
 -1      2990 3.44757E-05 6.76624E-05 1.07250E-05
 -1      2991 3.44757E-05 6.76625E-05 1.05522E-05
 -1      2992 3.44758E-05 6.76625E-05 1.03793E-05
 -1      2993 2.34666E-05 7.22227E-05 1.19350E-05
 -1      2994 2.34666E-05 7.22226E-05 1.17621E-05
 -1      2995 2.34665E-05 7.22226E-05 1.15893E-05
 -1      2996 2.34665E-05 7.22226E-05 1.14164E-05
 -1      2997 2.34665E-05 7.22226E-05 1.12436E-05
 -1      2998 2.34665E-05 7.22226E-05 1.10707E-05
 -1      2999 2.34665E-05 7.22226E-05 1.08979E-05
 -1      3000 2.34665E-05 7.22226E-05 1.07250E-05
 -1      3001 2.34666E-05 7.22226E-05 1.05522E-05
 -1      3002 2.34666E-05 7.22227E-05 1.03793E-05
 -1      3003 1.18795E-05 7.50045E-05 1.19350E-05
 -1      3004 1.18795E-05 7.50044E-05 1.17621E-05
 -1      3005 1.18795E-05 7.50044E-05 1.15893E-05
 -1      3006 1.18795E-05 7.50044E-05 1.14164E-05
 -1      3007 1.18795E-05 7.50044E-05 1.12436E-05
 -1      3008 1.18795E-05 7.50044E-05 1.10707E-05
 -1      3009 1.18795E-05 7.50044E-05 1.08979E-05
 -1      3010 1.18795E-05 7.50044E-05 1.07250E-05
 -1      3011 1.18795E-05 7.50044E-05 1.05522E-05
 -1      3012 1.18795E-05 7.50045E-05 1.03793E-05
 -1      3013 7.34026E-05 1.16258E-05 1.19351E-05
 -1      3014 7.34026E-05 1.16258E-05 1.17622E-05
 -1      3015 7.34026E-05 1.16258E-05 1.15893E-05
 -1      3016 7.34026E-05 1.16258E-05 1.14165E-05
 -1      3017 7.34026E-05 1.16258E-05 1.12436E-05
 -1      3018 7.34026E-05 1.16258E-05 1.10707E-05
 -1      3019 7.34026E-05 1.16258E-05 1.08978E-05
 -1      3020 7.34026E-05 1.16258E-05 1.07250E-05
 -1      3021 7.34026E-05 1.16258E-05 1.05521E-05
 -1      3022 7.34026E-05 1.16258E-05 1.03792E-05
 -1      3023 7.06802E-05 2.29654E-05 1.19351E-05
 -1      3024 7.06802E-05 2.29654E-05 1.17622E-05
 -1      3025 7.06802E-05 2.29654E-05 1.15893E-05
 -1      3026 7.06802E-05 2.29654E-05 1.14165E-05
 -1      3027 7.06802E-05 2.29654E-05 1.12436E-05
 -1      3028 7.06802E-05 2.29654E-05 1.10707E-05
 -1      3029 7.06802E-05 2.29654E-05 1.08978E-05
 -1      3030 7.06802E-05 2.29654E-05 1.07250E-05
 -1      3031 7.06802E-05 2.29654E-05 1.05521E-05
 -1      3032 7.06802E-05 2.29654E-05 1.03792E-05
 -1      3033 6.62175E-05 3.37395E-05 1.19351E-05
 -1      3034 6.62174E-05 3.37395E-05 1.17622E-05
 -1      3035 6.62174E-05 3.37395E-05 1.15893E-05
 -1      3036 6.62174E-05 3.37395E-05 1.14165E-05
 -1      3037 6.62174E-05 3.37395E-05 1.12436E-05
 -1      3038 6.62174E-05 3.37395E-05 1.10707E-05
 -1      3039 6.62174E-05 3.37395E-05 1.08978E-05
 -1      3040 6.62174E-05 3.37395E-05 1.07250E-05
 -1      3041 6.62174E-05 3.37395E-05 1.05521E-05
 -1      3042 6.62175E-05 3.37395E-05 1.03792E-05
 -1      3043 6.01242E-05 4.36828E-05 1.19351E-05
 -1      3044 6.01242E-05 4.36828E-05 1.17622E-05
 -1      3045 6.01242E-05 4.36828E-05 1.15893E-05
 -1      3046 6.01242E-05 4.36828E-05 1.14165E-05
 -1      3047 6.01241E-05 4.36828E-05 1.12436E-05
 -1      3048 6.01241E-05 4.36828E-05 1.10707E-05
 -1      3049 6.01242E-05 4.36828E-05 1.08978E-05
 -1      3050 6.01242E-05 4.36828E-05 1.07250E-05
 -1      3051 6.01242E-05 4.36828E-05 1.05521E-05
 -1      3052 6.01242E-05 4.36828E-05 1.03792E-05
 -1      3053 5.25505E-05 5.25505E-05 1.19351E-05
 -1      3054 5.25505E-05 5.25505E-05 1.17622E-05
 -1      3055 5.25504E-05 5.25504E-05 1.15893E-05
 -1      3056 5.25504E-05 5.25504E-05 1.14165E-05
 -1      3057 5.25504E-05 5.25504E-05 1.12436E-05
 -1      3058 5.25504E-05 5.25504E-05 1.10707E-05
 -1      3059 5.25504E-05 5.25504E-05 1.08978E-05
 -1      3060 5.25504E-05 5.25504E-05 1.07250E-05
 -1      3061 5.25505E-05 5.25505E-05 1.05521E-05
 -1      3062 5.25505E-05 5.25505E-05 1.03792E-05
 -1      3063 4.36828E-05 6.01242E-05 1.19351E-05
 -1      3064 4.36828E-05 6.01242E-05 1.17622E-05
 -1      3065 4.36828E-05 6.01242E-05 1.15893E-05
 -1      3066 4.36828E-05 6.01242E-05 1.14165E-05
 -1      3067 4.36828E-05 6.01241E-05 1.12436E-05
 -1      3068 4.36828E-05 6.01241E-05 1.10707E-05
 -1      3069 4.36828E-05 6.01242E-05 1.08978E-05
 -1      3070 4.36828E-05 6.01242E-05 1.07250E-05
 -1      3071 4.36828E-05 6.01242E-05 1.05521E-05
 -1      3072 4.36828E-05 6.01242E-05 1.03792E-05
 -1      3073 3.37395E-05 6.62175E-05 1.19351E-05
 -1      3074 3.37395E-05 6.62174E-05 1.17622E-05
 -1      3075 3.37395E-05 6.62174E-05 1.15893E-05
 -1      3076 3.37395E-05 6.62174E-05 1.14165E-05
 -1      3077 3.37395E-05 6.62174E-05 1.12436E-05
 -1      3078 3.37395E-05 6.62174E-05 1.10707E-05
 -1      3079 3.37395E-05 6.62174E-05 1.08978E-05
 -1      3080 3.37395E-05 6.62174E-05 1.07250E-05
 -1      3081 3.37395E-05 6.62174E-05 1.05521E-05
 -1      3082 3.37395E-05 6.62175E-05 1.03792E-05
 -1      3083 2.29654E-05 7.06802E-05 1.19351E-05
 -1      3084 2.29654E-05 7.06802E-05 1.17622E-05
 -1      3085 2.29654E-05 7.06802E-05 1.15893E-05
 -1      3086 2.29654E-05 7.06802E-05 1.14165E-05
 -1      3087 2.29654E-05 7.06802E-05 1.12436E-05
 -1      3088 2.29654E-05 7.06802E-05 1.10707E-05
 -1      3089 2.29654E-05 7.06802E-05 1.08978E-05
 -1      3090 2.29654E-05 7.06802E-05 1.07250E-05
 -1      3091 2.29654E-05 7.06802E-05 1.05521E-05
 -1      3092 2.29654E-05 7.06802E-05 1.03792E-05
 -1      3093 1.16258E-05 7.34026E-05 1.19351E-05
 -1      3094 1.16258E-05 7.34026E-05 1.17622E-05
 -1      3095 1.16258E-05 7.34026E-05 1.15893E-05
 -1      3096 1.16258E-05 7.34026E-05 1.14165E-05
 -1      3097 1.16258E-05 7.34026E-05 1.12436E-05
 -1      3098 1.16258E-05 7.34026E-05 1.10707E-05
 -1      3099 1.16258E-05 7.34026E-05 1.08978E-05
 -1      3100 1.16258E-05 7.34026E-05 1.07250E-05
 -1      3101 1.16258E-05 7.34026E-05 1.05521E-05
 -1      3102 1.16258E-05 7.34026E-05 1.03792E-05
 -1      3103 7.19491E-05 1.13956E-05 1.19352E-05
 -1      3104 7.19491E-05 1.13956E-05 1.17623E-05
 -1      3105 7.19490E-05 1.13956E-05 1.15894E-05
 -1      3106 7.19490E-05 1.13956E-05 1.14165E-05
 -1      3107 7.19490E-05 1.13956E-05 1.12436E-05
 -1      3108 7.19490E-05 1.13956E-05 1.10707E-05
 -1      3109 7.19490E-05 1.13956E-05 1.08978E-05
 -1      3110 7.19490E-05 1.13956E-05 1.07249E-05
 -1      3111 7.19491E-05 1.13956E-05 1.05520E-05
 -1      3112 7.19491E-05 1.13956E-05 1.03792E-05
 -1      3113 6.92806E-05 2.25106E-05 1.19352E-05
 -1      3114 6.92806E-05 2.25106E-05 1.17623E-05
 -1      3115 6.92806E-05 2.25106E-05 1.15894E-05
 -1      3116 6.92805E-05 2.25106E-05 1.14165E-05
 -1      3117 6.92805E-05 2.25106E-05 1.12436E-05
 -1      3118 6.92805E-05 2.25106E-05 1.10707E-05
 -1      3119 6.92805E-05 2.25106E-05 1.08978E-05
 -1      3120 6.92806E-05 2.25106E-05 1.07249E-05
 -1      3121 6.92806E-05 2.25106E-05 1.05520E-05
 -1      3122 6.92806E-05 2.25106E-05 1.03792E-05
 -1      3123 6.49062E-05 3.30714E-05 1.19352E-05
 -1      3124 6.49062E-05 3.30713E-05 1.17623E-05
 -1      3125 6.49062E-05 3.30713E-05 1.15894E-05
 -1      3126 6.49062E-05 3.30713E-05 1.14165E-05
 -1      3127 6.49061E-05 3.30713E-05 1.12436E-05
 -1      3128 6.49061E-05 3.30713E-05 1.10707E-05
 -1      3129 6.49062E-05 3.30713E-05 1.08978E-05
 -1      3130 6.49062E-05 3.30713E-05 1.07249E-05
 -1      3131 6.49062E-05 3.30713E-05 1.05520E-05
 -1      3132 6.49062E-05 3.30714E-05 1.03792E-05
 -1      3133 5.89336E-05 4.28178E-05 1.19352E-05
 -1      3134 5.89336E-05 4.28177E-05 1.17623E-05
 -1      3135 5.89336E-05 4.28177E-05 1.15894E-05
 -1      3136 5.89336E-05 4.28177E-05 1.14165E-05
 -1      3137 5.89336E-05 4.28177E-05 1.12436E-05
 -1      3138 5.89336E-05 4.28177E-05 1.10707E-05
 -1      3139 5.89336E-05 4.28177E-05 1.08978E-05
 -1      3140 5.89336E-05 4.28177E-05 1.07249E-05
 -1      3141 5.89336E-05 4.28177E-05 1.05520E-05
 -1      3142 5.89336E-05 4.28178E-05 1.03792E-05
 -1      3143 5.15099E-05 5.15099E-05 1.19352E-05
 -1      3144 5.15098E-05 5.15098E-05 1.17623E-05
 -1      3145 5.15098E-05 5.15098E-05 1.15894E-05
 -1      3146 5.15098E-05 5.15098E-05 1.14165E-05
 -1      3147 5.15098E-05 5.15098E-05 1.12436E-05
 -1      3148 5.15098E-05 5.15098E-05 1.10707E-05
 -1      3149 5.15098E-05 5.15098E-05 1.08978E-05
 -1      3150 5.15098E-05 5.15098E-05 1.07249E-05
 -1      3151 5.15098E-05 5.15098E-05 1.05520E-05
 -1      3152 5.15099E-05 5.15099E-05 1.03792E-05
 -1      3153 4.28178E-05 5.89336E-05 1.19352E-05
 -1      3154 4.28177E-05 5.89336E-05 1.17623E-05
 -1      3155 4.28177E-05 5.89336E-05 1.15894E-05
 -1      3156 4.28177E-05 5.89336E-05 1.14165E-05
 -1      3157 4.28177E-05 5.89336E-05 1.12436E-05
 -1      3158 4.28177E-05 5.89336E-05 1.10707E-05
 -1      3159 4.28177E-05 5.89336E-05 1.08978E-05
 -1      3160 4.28177E-05 5.89336E-05 1.07249E-05
 -1      3161 4.28177E-05 5.89336E-05 1.05520E-05
 -1      3162 4.28178E-05 5.89336E-05 1.03792E-05
 -1      3163 3.30714E-05 6.49062E-05 1.19352E-05
 -1      3164 3.30713E-05 6.49062E-05 1.17623E-05
 -1      3165 3.30713E-05 6.49062E-05 1.15894E-05
 -1      3166 3.30713E-05 6.49062E-05 1.14165E-05
 -1      3167 3.30713E-05 6.49061E-05 1.12436E-05
 -1      3168 3.30713E-05 6.49061E-05 1.10707E-05
 -1      3169 3.30713E-05 6.49062E-05 1.08978E-05
 -1      3170 3.30713E-05 6.49062E-05 1.07249E-05
 -1      3171 3.30713E-05 6.49062E-05 1.05520E-05
 -1      3172 3.30714E-05 6.49062E-05 1.03792E-05
 -1      3173 2.25106E-05 6.92806E-05 1.19352E-05
 -1      3174 2.25106E-05 6.92806E-05 1.17623E-05
 -1      3175 2.25106E-05 6.92806E-05 1.15894E-05
 -1      3176 2.25106E-05 6.92805E-05 1.14165E-05
 -1      3177 2.25106E-05 6.92805E-05 1.12436E-05
 -1      3178 2.25106E-05 6.92805E-05 1.10707E-05
 -1      3179 2.25106E-05 6.92805E-05 1.08978E-05
 -1      3180 2.25106E-05 6.92806E-05 1.07249E-05
 -1      3181 2.25106E-05 6.92806E-05 1.05520E-05
 -1      3182 2.25106E-05 6.92806E-05 1.03792E-05
 -1      3183 1.13956E-05 7.19491E-05 1.19352E-05
 -1      3184 1.13956E-05 7.19491E-05 1.17623E-05
 -1      3185 1.13956E-05 7.19490E-05 1.15894E-05
 -1      3186 1.13956E-05 7.19490E-05 1.14165E-05
 -1      3187 1.13956E-05 7.19490E-05 1.12436E-05
 -1      3188 1.13956E-05 7.19490E-05 1.10707E-05
 -1      3189 1.13956E-05 7.19490E-05 1.08978E-05
 -1      3190 1.13956E-05 7.19490E-05 1.07249E-05
 -1      3191 1.13956E-05 7.19491E-05 1.05520E-05
 -1      3192 1.13956E-05 7.19491E-05 1.03792E-05
 -1      3193 7.06290E-05 1.11865E-05 1.19352E-05
 -1      3194 7.06290E-05 1.11865E-05 1.17623E-05
 -1      3195 7.06289E-05 1.11865E-05 1.15894E-05
 -1      3196 7.06289E-05 1.11865E-05 1.14165E-05
 -1      3197 7.06289E-05 1.11865E-05 1.12436E-05
 -1      3198 7.06289E-05 1.11865E-05 1.10707E-05
 -1      3199 7.06289E-05 1.11865E-05 1.08978E-05
 -1      3200 7.06289E-05 1.11865E-05 1.07249E-05
 -1      3201 7.06290E-05 1.11865E-05 1.05520E-05
 -1      3202 7.06290E-05 1.11865E-05 1.03791E-05
 -1      3203 6.80095E-05 2.20976E-05 1.19352E-05
 -1      3204 6.80094E-05 2.20976E-05 1.17623E-05
 -1      3205 6.80094E-05 2.20976E-05 1.15894E-05
 -1      3206 6.80094E-05 2.20976E-05 1.14165E-05
 -1      3207 6.80094E-05 2.20976E-05 1.12436E-05
 -1      3208 6.80094E-05 2.20976E-05 1.10707E-05
 -1      3209 6.80094E-05 2.20976E-05 1.08978E-05
 -1      3210 6.80094E-05 2.20976E-05 1.07249E-05
 -1      3211 6.80094E-05 2.20976E-05 1.05520E-05
 -1      3212 6.80095E-05 2.20976E-05 1.03791E-05
 -1      3213 6.37153E-05 3.24646E-05 1.19352E-05
 -1      3214 6.37153E-05 3.24646E-05 1.17623E-05
 -1      3215 6.37153E-05 3.24646E-05 1.15894E-05
 -1      3216 6.37153E-05 3.24646E-05 1.14165E-05
 -1      3217 6.37153E-05 3.24646E-05 1.12436E-05
 -1      3218 6.37153E-05 3.24646E-05 1.10707E-05
 -1      3219 6.37153E-05 3.24646E-05 1.08978E-05
 -1      3220 6.37153E-05 3.24646E-05 1.07249E-05
 -1      3221 6.37153E-05 3.24646E-05 1.05520E-05
 -1      3222 6.37153E-05 3.24646E-05 1.03791E-05
 -1      3223 5.78523E-05 4.20322E-05 1.19352E-05
 -1      3224 5.78523E-05 4.20321E-05 1.17623E-05
 -1      3225 5.78523E-05 4.20321E-05 1.15894E-05
 -1      3226 5.78523E-05 4.20321E-05 1.14165E-05
 -1      3227 5.78523E-05 4.20321E-05 1.12436E-05
 -1      3228 5.78523E-05 4.20321E-05 1.10707E-05
 -1      3229 5.78523E-05 4.20321E-05 1.08978E-05
 -1      3230 5.78523E-05 4.20321E-05 1.07249E-05
 -1      3231 5.78523E-05 4.20321E-05 1.05520E-05
 -1      3232 5.78523E-05 4.20322E-05 1.03791E-05
 -1      3233 5.05648E-05 5.05648E-05 1.19352E-05
 -1      3234 5.05647E-05 5.05647E-05 1.17623E-05
 -1      3235 5.05647E-05 5.05647E-05 1.15894E-05
 -1      3236 5.05647E-05 5.05647E-05 1.14165E-05
 -1      3237 5.05647E-05 5.05647E-05 1.12436E-05
 -1      3238 5.05647E-05 5.05647E-05 1.10707E-05
 -1      3239 5.05647E-05 5.05647E-05 1.08978E-05
 -1      3240 5.05647E-05 5.05647E-05 1.07249E-05
 -1      3241 5.05647E-05 5.05647E-05 1.05520E-05
 -1      3242 5.05648E-05 5.05648E-05 1.03791E-05
 -1      3243 4.20322E-05 5.78523E-05 1.19352E-05
 -1      3244 4.20321E-05 5.78523E-05 1.17623E-05
 -1      3245 4.20321E-05 5.78523E-05 1.15894E-05
 -1      3246 4.20321E-05 5.78523E-05 1.14165E-05
 -1      3247 4.20321E-05 5.78523E-05 1.12436E-05
 -1      3248 4.20321E-05 5.78523E-05 1.10707E-05
 -1      3249 4.20321E-05 5.78523E-05 1.08978E-05
 -1      3250 4.20321E-05 5.78523E-05 1.07249E-05
 -1      3251 4.20321E-05 5.78523E-05 1.05520E-05
 -1      3252 4.20322E-05 5.78523E-05 1.03791E-05
 -1      3253 3.24646E-05 6.37153E-05 1.19352E-05
 -1      3254 3.24646E-05 6.37153E-05 1.17623E-05
 -1      3255 3.24646E-05 6.37153E-05 1.15894E-05
 -1      3256 3.24646E-05 6.37153E-05 1.14165E-05
 -1      3257 3.24646E-05 6.37153E-05 1.12436E-05
 -1      3258 3.24646E-05 6.37153E-05 1.10707E-05
 -1      3259 3.24646E-05 6.37153E-05 1.08978E-05
 -1      3260 3.24646E-05 6.37153E-05 1.07249E-05
 -1      3261 3.24646E-05 6.37153E-05 1.05520E-05
 -1      3262 3.24646E-05 6.37153E-05 1.03791E-05
 -1      3263 2.20976E-05 6.80095E-05 1.19352E-05
 -1      3264 2.20976E-05 6.80094E-05 1.17623E-05
 -1      3265 2.20976E-05 6.80094E-05 1.15894E-05
 -1      3266 2.20976E-05 6.80094E-05 1.14165E-05
 -1      3267 2.20976E-05 6.80094E-05 1.12436E-05
 -1      3268 2.20976E-05 6.80094E-05 1.10707E-05
 -1      3269 2.20976E-05 6.80094E-05 1.08978E-05
 -1      3270 2.20976E-05 6.80094E-05 1.07249E-05
 -1      3271 2.20976E-05 6.80094E-05 1.05520E-05
 -1      3272 2.20976E-05 6.80095E-05 1.03791E-05
 -1      3273 1.11865E-05 7.06290E-05 1.19352E-05
 -1      3274 1.11865E-05 7.06290E-05 1.17623E-05
 -1      3275 1.11865E-05 7.06289E-05 1.15894E-05
 -1      3276 1.11865E-05 7.06289E-05 1.14165E-05
 -1      3277 1.11865E-05 7.06289E-05 1.12436E-05
 -1      3278 1.11865E-05 7.06289E-05 1.10707E-05
 -1      3279 1.11865E-05 7.06289E-05 1.08978E-05
 -1      3280 1.11865E-05 7.06289E-05 1.07249E-05
 -1      3281 1.11865E-05 7.06290E-05 1.05520E-05
 -1      3282 1.11865E-05 7.06290E-05 1.03791E-05
 -1      3283 6.94294E-05 1.09965E-05 1.19353E-05
 -1      3284 6.94294E-05 1.09965E-05 1.17624E-05
 -1      3285 6.94294E-05 1.09965E-05 1.15894E-05
 -1      3286 6.94294E-05 1.09965E-05 1.14165E-05
 -1      3287 6.94293E-05 1.09965E-05 1.12436E-05
 -1      3288 6.94293E-05 1.09965E-05 1.10707E-05
 -1      3289 6.94294E-05 1.09965E-05 1.08978E-05
 -1      3290 6.94294E-05 1.09965E-05 1.07249E-05
 -1      3291 6.94294E-05 1.09965E-05 1.05520E-05
 -1      3292 6.94294E-05 1.09965E-05 1.03790E-05
 -1      3293 6.68544E-05 2.17223E-05 1.19353E-05
 -1      3294 6.68544E-05 2.17223E-05 1.17624E-05
 -1      3295 6.68543E-05 2.17223E-05 1.15894E-05
 -1      3296 6.68543E-05 2.17223E-05 1.14165E-05
 -1      3297 6.68543E-05 2.17223E-05 1.12436E-05
 -1      3298 6.68543E-05 2.17223E-05 1.10707E-05
 -1      3299 6.68543E-05 2.17223E-05 1.08978E-05
 -1      3300 6.68543E-05 2.17223E-05 1.07249E-05
 -1      3301 6.68544E-05 2.17223E-05 1.05520E-05
 -1      3302 6.68544E-05 2.17223E-05 1.03790E-05
 -1      3303 6.26332E-05 3.19132E-05 1.19353E-05
 -1      3304 6.26331E-05 3.19132E-05 1.17624E-05
 -1      3305 6.26331E-05 3.19132E-05 1.15894E-05
 -1      3306 6.26331E-05 3.19132E-05 1.14165E-05
 -1      3307 6.26331E-05 3.19132E-05 1.12436E-05
 -1      3308 6.26331E-05 3.19132E-05 1.10707E-05
 -1      3309 6.26331E-05 3.19132E-05 1.08978E-05
 -1      3310 6.26331E-05 3.19132E-05 1.07249E-05
 -1      3311 6.26331E-05 3.19132E-05 1.05520E-05
 -1      3312 6.26332E-05 3.19132E-05 1.03790E-05
 -1      3313 5.68697E-05 4.13183E-05 1.19353E-05
 -1      3314 5.68697E-05 4.13183E-05 1.17624E-05
 -1      3315 5.68697E-05 4.13183E-05 1.15894E-05
 -1      3316 5.68697E-05 4.13182E-05 1.14165E-05
 -1      3317 5.68697E-05 4.13182E-05 1.12436E-05
 -1      3318 5.68697E-05 4.13182E-05 1.10707E-05
 -1      3319 5.68697E-05 4.13182E-05 1.08978E-05
 -1      3320 5.68697E-05 4.13183E-05 1.07249E-05
 -1      3321 5.68697E-05 4.13183E-05 1.05520E-05
 -1      3322 5.68697E-05 4.13183E-05 1.03790E-05
 -1      3323 4.97060E-05 4.97060E-05 1.19353E-05
 -1      3324 4.97059E-05 4.97059E-05 1.17624E-05
 -1      3325 4.97059E-05 4.97059E-05 1.15894E-05
 -1      3326 4.97059E-05 4.97059E-05 1.14165E-05
 -1      3327 4.97059E-05 4.97059E-05 1.12436E-05
 -1      3328 4.97059E-05 4.97059E-05 1.10707E-05
 -1      3329 4.97059E-05 4.97059E-05 1.08978E-05
 -1      3330 4.97059E-05 4.97059E-05 1.07249E-05
 -1      3331 4.97059E-05 4.97059E-05 1.05520E-05
 -1      3332 4.97060E-05 4.97060E-05 1.03790E-05
 -1      3333 4.13183E-05 5.68697E-05 1.19353E-05
 -1      3334 4.13183E-05 5.68697E-05 1.17624E-05
 -1      3335 4.13183E-05 5.68697E-05 1.15894E-05
 -1      3336 4.13182E-05 5.68697E-05 1.14165E-05
 -1      3337 4.13182E-05 5.68697E-05 1.12436E-05
 -1      3338 4.13182E-05 5.68697E-05 1.10707E-05
 -1      3339 4.13182E-05 5.68697E-05 1.08978E-05
 -1      3340 4.13183E-05 5.68697E-05 1.07249E-05
 -1      3341 4.13183E-05 5.68697E-05 1.05520E-05
 -1      3342 4.13183E-05 5.68697E-05 1.03790E-05
 -1      3343 3.19132E-05 6.26332E-05 1.19353E-05
 -1      3344 3.19132E-05 6.26331E-05 1.17624E-05
 -1      3345 3.19132E-05 6.26331E-05 1.15894E-05
 -1      3346 3.19132E-05 6.26331E-05 1.14165E-05
 -1      3347 3.19132E-05 6.26331E-05 1.12436E-05
 -1      3348 3.19132E-05 6.26331E-05 1.10707E-05
 -1      3349 3.19132E-05 6.26331E-05 1.08978E-05
 -1      3350 3.19132E-05 6.26331E-05 1.07249E-05
 -1      3351 3.19132E-05 6.26331E-05 1.05520E-05
 -1      3352 3.19132E-05 6.26332E-05 1.03790E-05
 -1      3353 2.17223E-05 6.68544E-05 1.19353E-05
 -1      3354 2.17223E-05 6.68544E-05 1.17624E-05
 -1      3355 2.17223E-05 6.68543E-05 1.15894E-05
 -1      3356 2.17223E-05 6.68543E-05 1.14165E-05
 -1      3357 2.17223E-05 6.68543E-05 1.12436E-05
 -1      3358 2.17223E-05 6.68543E-05 1.10707E-05
 -1      3359 2.17223E-05 6.68543E-05 1.08978E-05
 -1      3360 2.17223E-05 6.68543E-05 1.07249E-05
 -1      3361 2.17223E-05 6.68544E-05 1.05520E-05
 -1      3362 2.17223E-05 6.68544E-05 1.03790E-05
 -1      3363 1.09965E-05 6.94294E-05 1.19353E-05
 -1      3364 1.09965E-05 6.94294E-05 1.17624E-05
 -1      3365 1.09965E-05 6.94294E-05 1.15894E-05
 -1      3366 1.09965E-05 6.94294E-05 1.14165E-05
 -1      3367 1.09965E-05 6.94293E-05 1.12436E-05
 -1      3368 1.09965E-05 6.94293E-05 1.10707E-05
 -1      3369 1.09965E-05 6.94294E-05 1.08978E-05
 -1      3370 1.09965E-05 6.94294E-05 1.07249E-05
 -1      3371 1.09965E-05 6.94294E-05 1.05520E-05
 -1      3372 1.09965E-05 6.94294E-05 1.03790E-05
 -1      3373 6.83390E-05 1.08238E-05 1.19353E-05
 -1      3374 6.83390E-05 1.08238E-05 1.17624E-05
 -1      3375 6.83390E-05 1.08238E-05 1.15895E-05
 -1      3376 6.83390E-05 1.08238E-05 1.14165E-05
 -1      3377 6.83390E-05 1.08238E-05 1.12436E-05
 -1      3378 6.83390E-05 1.08238E-05 1.10707E-05
 -1      3379 6.83390E-05 1.08238E-05 1.08978E-05
 -1      3380 6.83390E-05 1.08238E-05 1.07248E-05
 -1      3381 6.83390E-05 1.08238E-05 1.05519E-05
 -1      3382 6.83390E-05 1.08238E-05 1.03790E-05
 -1      3383 6.58045E-05 2.13812E-05 1.19353E-05
 -1      3384 6.58044E-05 2.13812E-05 1.17624E-05
 -1      3385 6.58044E-05 2.13812E-05 1.15895E-05
 -1      3386 6.58044E-05 2.13812E-05 1.14165E-05
 -1      3387 6.58044E-05 2.13812E-05 1.12436E-05
 -1      3388 6.58044E-05 2.13812E-05 1.10707E-05
 -1      3389 6.58044E-05 2.13812E-05 1.08978E-05
 -1      3390 6.58044E-05 2.13812E-05 1.07248E-05
 -1      3391 6.58044E-05 2.13812E-05 1.05519E-05
 -1      3392 6.58045E-05 2.13812E-05 1.03790E-05
 -1      3393 6.16495E-05 3.14120E-05 1.19353E-05
 -1      3394 6.16495E-05 3.14120E-05 1.17624E-05
 -1      3395 6.16495E-05 3.14120E-05 1.15895E-05
 -1      3396 6.16495E-05 3.14120E-05 1.14165E-05
 -1      3397 6.16495E-05 3.14120E-05 1.12436E-05
 -1      3398 6.16495E-05 3.14120E-05 1.10707E-05
 -1      3399 6.16495E-05 3.14120E-05 1.08978E-05
 -1      3400 6.16495E-05 3.14120E-05 1.07248E-05
 -1      3401 6.16495E-05 3.14120E-05 1.05519E-05
 -1      3402 6.16495E-05 3.14120E-05 1.03790E-05
 -1      3403 5.59766E-05 4.06694E-05 1.19353E-05
 -1      3404 5.59766E-05 4.06694E-05 1.17624E-05
 -1      3405 5.59766E-05 4.06694E-05 1.15895E-05
 -1      3406 5.59766E-05 4.06694E-05 1.14165E-05
 -1      3407 5.59766E-05 4.06694E-05 1.12436E-05
 -1      3408 5.59766E-05 4.06694E-05 1.10707E-05
 -1      3409 5.59766E-05 4.06694E-05 1.08978E-05
 -1      3410 5.59766E-05 4.06694E-05 1.07248E-05
 -1      3411 5.59766E-05 4.06694E-05 1.05519E-05
 -1      3412 5.59766E-05 4.06694E-05 1.03790E-05
 -1      3413 4.89254E-05 4.89254E-05 1.19353E-05
 -1      3414 4.89253E-05 4.89253E-05 1.17624E-05
 -1      3415 4.89253E-05 4.89253E-05 1.15895E-05
 -1      3416 4.89253E-05 4.89253E-05 1.14165E-05
 -1      3417 4.89253E-05 4.89253E-05 1.12436E-05
 -1      3418 4.89253E-05 4.89253E-05 1.10707E-05
 -1      3419 4.89253E-05 4.89253E-05 1.08978E-05
 -1      3420 4.89253E-05 4.89253E-05 1.07248E-05
 -1      3421 4.89253E-05 4.89253E-05 1.05519E-05
 -1      3422 4.89254E-05 4.89254E-05 1.03790E-05
 -1      3423 4.06694E-05 5.59766E-05 1.19353E-05
 -1      3424 4.06694E-05 5.59766E-05 1.17624E-05
 -1      3425 4.06694E-05 5.59766E-05 1.15895E-05
 -1      3426 4.06694E-05 5.59766E-05 1.14165E-05
 -1      3427 4.06694E-05 5.59766E-05 1.12436E-05
 -1      3428 4.06694E-05 5.59766E-05 1.10707E-05
 -1      3429 4.06694E-05 5.59766E-05 1.08978E-05
 -1      3430 4.06694E-05 5.59766E-05 1.07248E-05
 -1      3431 4.06694E-05 5.59766E-05 1.05519E-05
 -1      3432 4.06694E-05 5.59766E-05 1.03790E-05
 -1      3433 3.14120E-05 6.16495E-05 1.19353E-05
 -1      3434 3.14120E-05 6.16495E-05 1.17624E-05
 -1      3435 3.14120E-05 6.16495E-05 1.15895E-05
 -1      3436 3.14120E-05 6.16495E-05 1.14165E-05
 -1      3437 3.14120E-05 6.16495E-05 1.12436E-05
 -1      3438 3.14120E-05 6.16495E-05 1.10707E-05
 -1      3439 3.14120E-05 6.16495E-05 1.08978E-05
 -1      3440 3.14120E-05 6.16495E-05 1.07248E-05
 -1      3441 3.14120E-05 6.16495E-05 1.05519E-05
 -1      3442 3.14120E-05 6.16495E-05 1.03790E-05
 -1      3443 2.13812E-05 6.58045E-05 1.19353E-05
 -1      3444 2.13812E-05 6.58044E-05 1.17624E-05
 -1      3445 2.13812E-05 6.58044E-05 1.15895E-05
 -1      3446 2.13812E-05 6.58044E-05 1.14165E-05
 -1      3447 2.13812E-05 6.58044E-05 1.12436E-05
 -1      3448 2.13812E-05 6.58044E-05 1.10707E-05
 -1      3449 2.13812E-05 6.58044E-05 1.08978E-05
 -1      3450 2.13812E-05 6.58044E-05 1.07248E-05
 -1      3451 2.13812E-05 6.58044E-05 1.05519E-05
 -1      3452 2.13812E-05 6.58045E-05 1.03790E-05
 -1      3453 1.08238E-05 6.83390E-05 1.19353E-05
 -1      3454 1.08238E-05 6.83390E-05 1.17624E-05
 -1      3455 1.08238E-05 6.83390E-05 1.15895E-05
 -1      3456 1.08238E-05 6.83390E-05 1.14165E-05
 -1      3457 1.08238E-05 6.83390E-05 1.12436E-05
 -1      3458 1.08238E-05 6.83390E-05 1.10707E-05
 -1      3459 1.08238E-05 6.83390E-05 1.08978E-05
 -1      3460 1.08238E-05 6.83390E-05 1.07248E-05
 -1      3461 1.08238E-05 6.83390E-05 1.05519E-05
 -1      3462 1.08238E-05 6.83390E-05 1.03790E-05
 -1      3463 6.73480E-05 1.06669E-05 1.19354E-05
 -1      3464 6.73480E-05 1.06669E-05 1.17624E-05
 -1      3465 6.73480E-05 1.06669E-05 1.15895E-05
 -1      3466 6.73480E-05 1.06669E-05 1.14166E-05
 -1      3467 6.73480E-05 1.06669E-05 1.12436E-05
 -1      3468 6.73480E-05 1.06669E-05 1.10707E-05
 -1      3469 6.73480E-05 1.06669E-05 1.08978E-05
 -1      3470 6.73480E-05 1.06669E-05 1.07248E-05
 -1      3471 6.73480E-05 1.06669E-05 1.05519E-05
 -1      3472 6.73480E-05 1.06669E-05 1.03790E-05
 -1      3473 6.48502E-05 2.10711E-05 1.19354E-05
 -1      3474 6.48502E-05 2.10711E-05 1.17624E-05
 -1      3475 6.48502E-05 2.10711E-05 1.15895E-05
 -1      3476 6.48501E-05 2.10711E-05 1.14166E-05
 -1      3477 6.48501E-05 2.10711E-05 1.12436E-05
 -1      3478 6.48501E-05 2.10711E-05 1.10707E-05
 -1      3479 6.48501E-05 2.10711E-05 1.08978E-05
 -1      3480 6.48502E-05 2.10711E-05 1.07248E-05
 -1      3481 6.48502E-05 2.10711E-05 1.05519E-05
 -1      3482 6.48502E-05 2.10711E-05 1.03790E-05
 -1      3483 6.07555E-05 3.09565E-05 1.19354E-05
 -1      3484 6.07555E-05 3.09565E-05 1.17624E-05
 -1      3485 6.07555E-05 3.09565E-05 1.15895E-05
 -1      3486 6.07555E-05 3.09565E-05 1.14166E-05
 -1      3487 6.07555E-05 3.09565E-05 1.12436E-05
 -1      3488 6.07555E-05 3.09565E-05 1.10707E-05
 -1      3489 6.07555E-05 3.09565E-05 1.08978E-05
 -1      3490 6.07555E-05 3.09565E-05 1.07248E-05
 -1      3491 6.07555E-05 3.09565E-05 1.05519E-05
 -1      3492 6.07555E-05 3.09565E-05 1.03790E-05
 -1      3493 5.51649E-05 4.00796E-05 1.19354E-05
 -1      3494 5.51648E-05 4.00796E-05 1.17624E-05
 -1      3495 5.51648E-05 4.00796E-05 1.15895E-05
 -1      3496 5.51648E-05 4.00796E-05 1.14166E-05
 -1      3497 5.51648E-05 4.00796E-05 1.12436E-05
 -1      3498 5.51648E-05 4.00796E-05 1.10707E-05
 -1      3499 5.51648E-05 4.00796E-05 1.08978E-05
 -1      3500 5.51648E-05 4.00796E-05 1.07248E-05
 -1      3501 5.51648E-05 4.00796E-05 1.05519E-05
 -1      3502 5.51649E-05 4.00796E-05 1.03790E-05
 -1      3503 4.82159E-05 4.82159E-05 1.19354E-05
 -1      3504 4.82158E-05 4.82158E-05 1.17624E-05
 -1      3505 4.82158E-05 4.82158E-05 1.15895E-05
 -1      3506 4.82158E-05 4.82158E-05 1.14166E-05
 -1      3507 4.82158E-05 4.82158E-05 1.12436E-05
 -1      3508 4.82158E-05 4.82158E-05 1.10707E-05
 -1      3509 4.82158E-05 4.82158E-05 1.08978E-05
 -1      3510 4.82158E-05 4.82158E-05 1.07248E-05
 -1      3511 4.82158E-05 4.82158E-05 1.05519E-05
 -1      3512 4.82159E-05 4.82159E-05 1.03790E-05
 -1      3513 4.00796E-05 5.51649E-05 1.19354E-05
 -1      3514 4.00796E-05 5.51648E-05 1.17624E-05
 -1      3515 4.00796E-05 5.51648E-05 1.15895E-05
 -1      3516 4.00796E-05 5.51648E-05 1.14166E-05
 -1      3517 4.00796E-05 5.51648E-05 1.12436E-05
 -1      3518 4.00796E-05 5.51648E-05 1.10707E-05
 -1      3519 4.00796E-05 5.51648E-05 1.08978E-05
 -1      3520 4.00796E-05 5.51648E-05 1.07248E-05
 -1      3521 4.00796E-05 5.51648E-05 1.05519E-05
 -1      3522 4.00796E-05 5.51649E-05 1.03790E-05
 -1      3523 3.09565E-05 6.07555E-05 1.19354E-05
 -1      3524 3.09565E-05 6.07555E-05 1.17624E-05
 -1      3525 3.09565E-05 6.07555E-05 1.15895E-05
 -1      3526 3.09565E-05 6.07555E-05 1.14166E-05
 -1      3527 3.09565E-05 6.07555E-05 1.12436E-05
 -1      3528 3.09565E-05 6.07555E-05 1.10707E-05
 -1      3529 3.09565E-05 6.07555E-05 1.08978E-05
 -1      3530 3.09565E-05 6.07555E-05 1.07248E-05
 -1      3531 3.09565E-05 6.07555E-05 1.05519E-05
 -1      3532 3.09565E-05 6.07555E-05 1.03790E-05
 -1      3533 2.10711E-05 6.48502E-05 1.19354E-05
 -1      3534 2.10711E-05 6.48502E-05 1.17624E-05
 -1      3535 2.10711E-05 6.48502E-05 1.15895E-05
 -1      3536 2.10711E-05 6.48501E-05 1.14166E-05
 -1      3537 2.10711E-05 6.48501E-05 1.12436E-05
 -1      3538 2.10711E-05 6.48501E-05 1.10707E-05
 -1      3539 2.10711E-05 6.48501E-05 1.08978E-05
 -1      3540 2.10711E-05 6.48502E-05 1.07248E-05
 -1      3541 2.10711E-05 6.48502E-05 1.05519E-05
 -1      3542 2.10711E-05 6.48502E-05 1.03790E-05
 -1      3543 1.06669E-05 6.73480E-05 1.19354E-05
 -1      3544 1.06669E-05 6.73480E-05 1.17624E-05
 -1      3545 1.06669E-05 6.73480E-05 1.15895E-05
 -1      3546 1.06669E-05 6.73480E-05 1.14166E-05
 -1      3547 1.06669E-05 6.73480E-05 1.12436E-05
 -1      3548 1.06669E-05 6.73480E-05 1.10707E-05
 -1      3549 1.06669E-05 6.73480E-05 1.08978E-05
 -1      3550 1.06669E-05 6.73480E-05 1.07248E-05
 -1      3551 1.06669E-05 6.73480E-05 1.05519E-05
 -1      3552 1.06669E-05 6.73480E-05 1.03790E-05
 -1      3553 6.64475E-05 1.05243E-05 1.19354E-05
 -1      3554 6.64475E-05 1.05242E-05 1.17625E-05
 -1      3555 6.64475E-05 1.05242E-05 1.15895E-05
 -1      3556 6.64475E-05 1.05242E-05 1.14166E-05
 -1      3557 6.64475E-05 1.05242E-05 1.12436E-05
 -1      3558 6.64475E-05 1.05242E-05 1.10707E-05
 -1      3559 6.64475E-05 1.05242E-05 1.08977E-05
 -1      3560 6.64475E-05 1.05242E-05 1.07248E-05
 -1      3561 6.64475E-05 1.05242E-05 1.05519E-05
 -1      3562 6.64475E-05 1.05243E-05 1.03789E-05
 -1      3563 6.39831E-05 2.07894E-05 1.19354E-05
 -1      3564 6.39831E-05 2.07894E-05 1.17625E-05
 -1      3565 6.39831E-05 2.07894E-05 1.15895E-05
 -1      3566 6.39830E-05 2.07893E-05 1.14166E-05
 -1      3567 6.39830E-05 2.07893E-05 1.12436E-05
 -1      3568 6.39830E-05 2.07893E-05 1.10707E-05
 -1      3569 6.39830E-05 2.07893E-05 1.08977E-05
 -1      3570 6.39831E-05 2.07894E-05 1.07248E-05
 -1      3571 6.39831E-05 2.07894E-05 1.05519E-05
 -1      3572 6.39831E-05 2.07894E-05 1.03789E-05
 -1      3573 5.99432E-05 3.05426E-05 1.19354E-05
 -1      3574 5.99432E-05 3.05426E-05 1.17625E-05
 -1      3575 5.99431E-05 3.05426E-05 1.15895E-05
 -1      3576 5.99431E-05 3.05426E-05 1.14166E-05
 -1      3577 5.99431E-05 3.05425E-05 1.12436E-05
 -1      3578 5.99431E-05 3.05425E-05 1.10707E-05
 -1      3579 5.99431E-05 3.05426E-05 1.08977E-05
 -1      3580 5.99431E-05 3.05426E-05 1.07248E-05
 -1      3581 5.99432E-05 3.05426E-05 1.05519E-05
 -1      3582 5.99432E-05 3.05426E-05 1.03789E-05
 -1      3583 5.44273E-05 3.95437E-05 1.19354E-05
 -1      3584 5.44272E-05 3.95437E-05 1.17625E-05
 -1      3585 5.44272E-05 3.95437E-05 1.15895E-05
 -1      3586 5.44272E-05 3.95437E-05 1.14166E-05
 -1      3587 5.44272E-05 3.95437E-05 1.12436E-05
 -1      3588 5.44272E-05 3.95437E-05 1.10707E-05
 -1      3589 5.44272E-05 3.95437E-05 1.08977E-05
 -1      3590 5.44272E-05 3.95437E-05 1.07248E-05
 -1      3591 5.44272E-05 3.95437E-05 1.05519E-05
 -1      3592 5.44273E-05 3.95437E-05 1.03789E-05
 -1      3593 4.75712E-05 4.75712E-05 1.19354E-05
 -1      3594 4.75712E-05 4.75712E-05 1.17625E-05
 -1      3595 4.75711E-05 4.75711E-05 1.15895E-05
 -1      3596 4.75711E-05 4.75711E-05 1.14166E-05
 -1      3597 4.75711E-05 4.75711E-05 1.12436E-05
 -1      3598 4.75711E-05 4.75711E-05 1.10707E-05
 -1      3599 4.75711E-05 4.75711E-05 1.08977E-05
 -1      3600 4.75711E-05 4.75711E-05 1.07248E-05
 -1      3601 4.75712E-05 4.75712E-05 1.05519E-05
 -1      3602 4.75712E-05 4.75712E-05 1.03789E-05
 -1      3603 3.95437E-05 5.44273E-05 1.19354E-05
 -1      3604 3.95437E-05 5.44272E-05 1.17625E-05
 -1      3605 3.95437E-05 5.44272E-05 1.15895E-05
 -1      3606 3.95437E-05 5.44272E-05 1.14166E-05
 -1      3607 3.95437E-05 5.44272E-05 1.12436E-05
 -1      3608 3.95437E-05 5.44272E-05 1.10707E-05
 -1      3609 3.95437E-05 5.44272E-05 1.08977E-05
 -1      3610 3.95437E-05 5.44272E-05 1.07248E-05
 -1      3611 3.95437E-05 5.44272E-05 1.05519E-05
 -1      3612 3.95437E-05 5.44273E-05 1.03789E-05
 -1      3613 3.05426E-05 5.99432E-05 1.19354E-05
 -1      3614 3.05426E-05 5.99432E-05 1.17625E-05
 -1      3615 3.05426E-05 5.99431E-05 1.15895E-05
 -1      3616 3.05426E-05 5.99431E-05 1.14166E-05
 -1      3617 3.05425E-05 5.99431E-05 1.12436E-05
 -1      3618 3.05425E-05 5.99431E-05 1.10707E-05
 -1      3619 3.05426E-05 5.99431E-05 1.08977E-05
 -1      3620 3.05426E-05 5.99431E-05 1.07248E-05
 -1      3621 3.05426E-05 5.99432E-05 1.05519E-05
 -1      3622 3.05426E-05 5.99432E-05 1.03789E-05
 -1      3623 2.07894E-05 6.39831E-05 1.19354E-05
 -1      3624 2.07894E-05 6.39831E-05 1.17625E-05
 -1      3625 2.07894E-05 6.39831E-05 1.15895E-05
 -1      3626 2.07893E-05 6.39830E-05 1.14166E-05
 -1      3627 2.07893E-05 6.39830E-05 1.12436E-05
 -1      3628 2.07893E-05 6.39830E-05 1.10707E-05
 -1      3629 2.07893E-05 6.39830E-05 1.08977E-05
 -1      3630 2.07894E-05 6.39831E-05 1.07248E-05
 -1      3631 2.07894E-05 6.39831E-05 1.05519E-05
 -1      3632 2.07894E-05 6.39831E-05 1.03789E-05
 -1      3633 1.05243E-05 6.64475E-05 1.19354E-05
 -1      3634 1.05242E-05 6.64475E-05 1.17625E-05
 -1      3635 1.05242E-05 6.64475E-05 1.15895E-05
 -1      3636 1.05242E-05 6.64475E-05 1.14166E-05
 -1      3637 1.05242E-05 6.64475E-05 1.12436E-05
 -1      3638 1.05242E-05 6.64475E-05 1.10707E-05
 -1      3639 1.05242E-05 6.64475E-05 1.08977E-05
 -1      3640 1.05242E-05 6.64475E-05 1.07248E-05
 -1      3641 1.05242E-05 6.64475E-05 1.05519E-05
 -1      3642 1.05243E-05 6.64475E-05 1.03789E-05
 -1      3643 6.56298E-05 1.03947E-05 1.19355E-05
 -1      3644 6.56298E-05 1.03947E-05 1.17625E-05
 -1      3645 6.56298E-05 1.03947E-05 1.15896E-05
 -1      3646 6.56298E-05 1.03947E-05 1.14166E-05
 -1      3647 6.56298E-05 1.03947E-05 1.12436E-05
 -1      3648 6.56298E-05 1.03947E-05 1.10707E-05
 -1      3649 6.56298E-05 1.03947E-05 1.08977E-05
 -1      3650 6.56298E-05 1.03947E-05 1.07248E-05
 -1      3651 6.56298E-05 1.03947E-05 1.05518E-05
 -1      3652 6.56298E-05 1.03947E-05 1.03789E-05
 -1      3653 6.31957E-05 2.05335E-05 1.19355E-05
 -1      3654 6.31957E-05 2.05335E-05 1.17625E-05
 -1      3655 6.31957E-05 2.05335E-05 1.15896E-05
 -1      3656 6.31957E-05 2.05335E-05 1.14166E-05
 -1      3657 6.31957E-05 2.05335E-05 1.12436E-05
 -1      3658 6.31957E-05 2.05335E-05 1.10707E-05
 -1      3659 6.31957E-05 2.05335E-05 1.08977E-05
 -1      3660 6.31957E-05 2.05335E-05 1.07248E-05
 -1      3661 6.31957E-05 2.05335E-05 1.05518E-05
 -1      3662 6.31957E-05 2.05335E-05 1.03789E-05
 -1      3663 5.92055E-05 3.01667E-05 1.19355E-05
 -1      3664 5.92055E-05 3.01667E-05 1.17625E-05
 -1      3665 5.92055E-05 3.01667E-05 1.15896E-05
 -1      3666 5.92055E-05 3.01667E-05 1.14166E-05
 -1      3667 5.92055E-05 3.01667E-05 1.12436E-05
 -1      3668 5.92055E-05 3.01667E-05 1.10707E-05
 -1      3669 5.92055E-05 3.01667E-05 1.08977E-05
 -1      3670 5.92055E-05 3.01667E-05 1.07248E-05
 -1      3671 5.92055E-05 3.01667E-05 1.05518E-05
 -1      3672 5.92055E-05 3.01667E-05 1.03789E-05
 -1      3673 5.37575E-05 3.90571E-05 1.19355E-05
 -1      3674 5.37575E-05 3.90571E-05 1.17625E-05
 -1      3675 5.37574E-05 3.90571E-05 1.15896E-05
 -1      3676 5.37574E-05 3.90571E-05 1.14166E-05
 -1      3677 5.37574E-05 3.90571E-05 1.12436E-05
 -1      3678 5.37574E-05 3.90571E-05 1.10707E-05
 -1      3679 5.37574E-05 3.90571E-05 1.08977E-05
 -1      3680 5.37574E-05 3.90571E-05 1.07248E-05
 -1      3681 5.37575E-05 3.90571E-05 1.05518E-05
 -1      3682 5.37575E-05 3.90571E-05 1.03789E-05
 -1      3683 4.69858E-05 4.69858E-05 1.19355E-05
 -1      3684 4.69857E-05 4.69857E-05 1.17625E-05
 -1      3685 4.69857E-05 4.69857E-05 1.15896E-05
 -1      3686 4.69857E-05 4.69857E-05 1.14166E-05
 -1      3687 4.69857E-05 4.69857E-05 1.12436E-05
 -1      3688 4.69857E-05 4.69857E-05 1.10707E-05
 -1      3689 4.69857E-05 4.69857E-05 1.08977E-05
 -1      3690 4.69857E-05 4.69857E-05 1.07248E-05
 -1      3691 4.69857E-05 4.69857E-05 1.05518E-05
 -1      3692 4.69858E-05 4.69858E-05 1.03789E-05
 -1      3693 3.90571E-05 5.37575E-05 1.19355E-05
 -1      3694 3.90571E-05 5.37575E-05 1.17625E-05
 -1      3695 3.90571E-05 5.37574E-05 1.15896E-05
 -1      3696 3.90571E-05 5.37574E-05 1.14166E-05
 -1      3697 3.90571E-05 5.37574E-05 1.12436E-05
 -1      3698 3.90571E-05 5.37574E-05 1.10707E-05
 -1      3699 3.90571E-05 5.37574E-05 1.08977E-05
 -1      3700 3.90571E-05 5.37574E-05 1.07248E-05
 -1      3701 3.90571E-05 5.37575E-05 1.05518E-05
 -1      3702 3.90571E-05 5.37575E-05 1.03789E-05
 -1      3703 3.01667E-05 5.92055E-05 1.19355E-05
 -1      3704 3.01667E-05 5.92055E-05 1.17625E-05
 -1      3705 3.01667E-05 5.92055E-05 1.15896E-05
 -1      3706 3.01667E-05 5.92055E-05 1.14166E-05
 -1      3707 3.01667E-05 5.92055E-05 1.12436E-05
 -1      3708 3.01667E-05 5.92055E-05 1.10707E-05
 -1      3709 3.01667E-05 5.92055E-05 1.08977E-05
 -1      3710 3.01667E-05 5.92055E-05 1.07248E-05
 -1      3711 3.01667E-05 5.92055E-05 1.05518E-05
 -1      3712 3.01667E-05 5.92055E-05 1.03789E-05
 -1      3713 2.05335E-05 6.31957E-05 1.19355E-05
 -1      3714 2.05335E-05 6.31957E-05 1.17625E-05
 -1      3715 2.05335E-05 6.31957E-05 1.15896E-05
 -1      3716 2.05335E-05 6.31957E-05 1.14166E-05
 -1      3717 2.05335E-05 6.31957E-05 1.12436E-05
 -1      3718 2.05335E-05 6.31957E-05 1.10707E-05
 -1      3719 2.05335E-05 6.31957E-05 1.08977E-05
 -1      3720 2.05335E-05 6.31957E-05 1.07248E-05
 -1      3721 2.05335E-05 6.31957E-05 1.05518E-05
 -1      3722 2.05335E-05 6.31957E-05 1.03789E-05
 -1      3723 1.03947E-05 6.56298E-05 1.19355E-05
 -1      3724 1.03947E-05 6.56298E-05 1.17625E-05
 -1      3725 1.03947E-05 6.56298E-05 1.15896E-05
 -1      3726 1.03947E-05 6.56298E-05 1.14166E-05
 -1      3727 1.03947E-05 6.56298E-05 1.12436E-05
 -1      3728 1.03947E-05 6.56298E-05 1.10707E-05
 -1      3729 1.03947E-05 6.56298E-05 1.08977E-05
 -1      3730 1.03947E-05 6.56298E-05 1.07248E-05
 -1      3731 1.03947E-05 6.56298E-05 1.05518E-05
 -1      3732 1.03947E-05 6.56298E-05 1.03789E-05
 -1      3733 6.48879E-05 1.02772E-05 1.19356E-05
 -1      3734 6.48879E-05 1.02772E-05 1.17626E-05
 -1      3735 6.48880E-05 1.02772E-05 1.15897E-05
 -1      3736 6.48880E-05 1.02772E-05 1.14167E-05
 -1      3737 6.48880E-05 1.02772E-05 1.12437E-05
 -1      3738 6.48880E-05 1.02772E-05 1.10707E-05
 -1      3739 6.48880E-05 1.02772E-05 1.08976E-05
 -1      3740 6.48880E-05 1.02772E-05 1.07247E-05
 -1      3741 6.48879E-05 1.02772E-05 1.05517E-05
 -1      3742 6.48879E-05 1.02772E-05 1.03787E-05
 -1      3743 6.24813E-05 2.03014E-05 1.19356E-05
 -1      3744 6.24813E-05 2.03014E-05 1.17626E-05
 -1      3745 6.24814E-05 2.03014E-05 1.15897E-05
 -1      3746 6.24814E-05 2.03014E-05 1.14167E-05
 -1      3747 6.24814E-05 2.03014E-05 1.12437E-05
 -1      3748 6.24814E-05 2.03014E-05 1.10707E-05
 -1      3749 6.24814E-05 2.03014E-05 1.08976E-05
 -1      3750 6.24814E-05 2.03014E-05 1.07247E-05
 -1      3751 6.24813E-05 2.03014E-05 1.05517E-05
 -1      3752 6.24813E-05 2.03014E-05 1.03787E-05
 -1      3753 5.85363E-05 2.98257E-05 1.19356E-05
 -1      3754 5.85363E-05 2.98257E-05 1.17626E-05
 -1      3755 5.85363E-05 2.98257E-05 1.15897E-05
 -1      3756 5.85363E-05 2.98257E-05 1.14167E-05
 -1      3757 5.85363E-05 2.98257E-05 1.12437E-05
 -1      3758 5.85363E-05 2.98257E-05 1.10707E-05
 -1      3759 5.85363E-05 2.98257E-05 1.08976E-05
 -1      3760 5.85363E-05 2.98257E-05 1.07247E-05
 -1      3761 5.85363E-05 2.98257E-05 1.05517E-05
 -1      3762 5.85363E-05 2.98257E-05 1.03787E-05
 -1      3763 5.31498E-05 3.86156E-05 1.19356E-05
 -1      3764 5.31498E-05 3.86156E-05 1.17626E-05
 -1      3765 5.31498E-05 3.86156E-05 1.15897E-05
 -1      3766 5.31498E-05 3.86156E-05 1.14167E-05
 -1      3767 5.31499E-05 3.86156E-05 1.12437E-05
 -1      3768 5.31499E-05 3.86156E-05 1.10707E-05
 -1      3769 5.31498E-05 3.86156E-05 1.08976E-05
 -1      3770 5.31498E-05 3.86156E-05 1.07247E-05
 -1      3771 5.31498E-05 3.86156E-05 1.05517E-05
 -1      3772 5.31498E-05 3.86156E-05 1.03787E-05
 -1      3773 4.64546E-05 4.64546E-05 1.19356E-05
 -1      3774 4.64546E-05 4.64546E-05 1.17626E-05
 -1      3775 4.64546E-05 4.64546E-05 1.15897E-05
 -1      3776 4.64547E-05 4.64547E-05 1.14167E-05
 -1      3777 4.64547E-05 4.64547E-05 1.12437E-05
 -1      3778 4.64547E-05 4.64547E-05 1.10707E-05
 -1      3779 4.64547E-05 4.64547E-05 1.08976E-05
 -1      3780 4.64546E-05 4.64546E-05 1.07247E-05
 -1      3781 4.64546E-05 4.64546E-05 1.05517E-05
 -1      3782 4.64546E-05 4.64546E-05 1.03787E-05
 -1      3783 3.86156E-05 5.31498E-05 1.19356E-05
 -1      3784 3.86156E-05 5.31498E-05 1.17626E-05
 -1      3785 3.86156E-05 5.31498E-05 1.15897E-05
 -1      3786 3.86156E-05 5.31498E-05 1.14167E-05
 -1      3787 3.86156E-05 5.31499E-05 1.12437E-05
 -1      3788 3.86156E-05 5.31499E-05 1.10707E-05
 -1      3789 3.86156E-05 5.31498E-05 1.08976E-05
 -1      3790 3.86156E-05 5.31498E-05 1.07247E-05
 -1      3791 3.86156E-05 5.31498E-05 1.05517E-05
 -1      3792 3.86156E-05 5.31498E-05 1.03787E-05
 -1      3793 2.98257E-05 5.85363E-05 1.19356E-05
 -1      3794 2.98257E-05 5.85363E-05 1.17626E-05
 -1      3795 2.98257E-05 5.85363E-05 1.15897E-05
 -1      3796 2.98257E-05 5.85363E-05 1.14167E-05
 -1      3797 2.98257E-05 5.85363E-05 1.12437E-05
 -1      3798 2.98257E-05 5.85363E-05 1.10707E-05
 -1      3799 2.98257E-05 5.85363E-05 1.08976E-05
 -1      3800 2.98257E-05 5.85363E-05 1.07247E-05
 -1      3801 2.98257E-05 5.85363E-05 1.05517E-05
 -1      3802 2.98257E-05 5.85363E-05 1.03787E-05
 -1      3803 2.03014E-05 6.24813E-05 1.19356E-05
 -1      3804 2.03014E-05 6.24813E-05 1.17626E-05
 -1      3805 2.03014E-05 6.24814E-05 1.15897E-05
 -1      3806 2.03014E-05 6.24814E-05 1.14167E-05
 -1      3807 2.03014E-05 6.24814E-05 1.12437E-05
 -1      3808 2.03014E-05 6.24814E-05 1.10707E-05
 -1      3809 2.03014E-05 6.24814E-05 1.08976E-05
 -1      3810 2.03014E-05 6.24814E-05 1.07247E-05
 -1      3811 2.03014E-05 6.24813E-05 1.05517E-05
 -1      3812 2.03014E-05 6.24813E-05 1.03787E-05
 -1      3813 1.02772E-05 6.48879E-05 1.19356E-05
 -1      3814 1.02772E-05 6.48879E-05 1.17626E-05
 -1      3815 1.02772E-05 6.48880E-05 1.15897E-05
 -1      3816 1.02772E-05 6.48880E-05 1.14167E-05
 -1      3817 1.02772E-05 6.48880E-05 1.12437E-05
 -1      3818 1.02772E-05 6.48880E-05 1.10707E-05
 -1      3819 1.02772E-05 6.48880E-05 1.08976E-05
 -1      3820 1.02772E-05 6.48880E-05 1.07247E-05
 -1      3821 1.02772E-05 6.48879E-05 1.05517E-05
 -1      3822 1.02772E-05 6.48879E-05 1.03787E-05
 -1      3823 6.42157E-05 1.01708E-05 1.19358E-05
 -1      3824 6.42158E-05 1.01708E-05 1.17628E-05
 -1      3825 6.42159E-05 1.01708E-05 1.15898E-05
 -1      3826 6.42160E-05 1.01708E-05 1.14168E-05
 -1      3827 6.42161E-05 1.01708E-05 1.12437E-05
 -1      3828 6.42161E-05 1.01708E-05 1.10706E-05
 -1      3829 6.42160E-05 1.01708E-05 1.08975E-05
 -1      3830 6.42159E-05 1.01708E-05 1.07245E-05
 -1      3831 6.42158E-05 1.01708E-05 1.05515E-05
 -1      3832 6.42157E-05 1.01708E-05 1.03786E-05
 -1      3833 6.18341E-05 2.00911E-05 1.19358E-05
 -1      3834 6.18341E-05 2.00911E-05 1.17628E-05
 -1      3835 6.18343E-05 2.00912E-05 1.15898E-05
 -1      3836 6.18344E-05 2.00912E-05 1.14168E-05
 -1      3837 6.18344E-05 2.00912E-05 1.12437E-05
 -1      3838 6.18344E-05 2.00912E-05 1.10706E-05
 -1      3839 6.18344E-05 2.00912E-05 1.08975E-05
 -1      3840 6.18343E-05 2.00912E-05 1.07245E-05
 -1      3841 6.18341E-05 2.00911E-05 1.05515E-05
 -1      3842 6.18341E-05 2.00911E-05 1.03786E-05
 -1      3843 5.79298E-05 2.95167E-05 1.19358E-05
 -1      3844 5.79299E-05 2.95168E-05 1.17628E-05
 -1      3845 5.79300E-05 2.95168E-05 1.15898E-05
 -1      3846 5.79301E-05 2.95169E-05 1.14168E-05
 -1      3847 5.79302E-05 2.95169E-05 1.12437E-05
 -1      3848 5.79302E-05 2.95169E-05 1.10706E-05
 -1      3849 5.79301E-05 2.95169E-05 1.08975E-05
 -1      3850 5.79300E-05 2.95168E-05 1.07245E-05
 -1      3851 5.79299E-05 2.95168E-05 1.05515E-05
 -1      3852 5.79298E-05 2.95167E-05 1.03786E-05
 -1      3853 5.25992E-05 3.82155E-05 1.19358E-05
 -1      3854 5.25992E-05 3.82156E-05 1.17628E-05
 -1      3855 5.25994E-05 3.82157E-05 1.15898E-05
 -1      3856 5.25995E-05 3.82157E-05 1.14168E-05
 -1      3857 5.25995E-05 3.82158E-05 1.12437E-05
 -1      3858 5.25995E-05 3.82158E-05 1.10706E-05
 -1      3859 5.25995E-05 3.82157E-05 1.08975E-05
 -1      3860 5.25994E-05 3.82157E-05 1.07245E-05
 -1      3861 5.25992E-05 3.82156E-05 1.05515E-05
 -1      3862 5.25992E-05 3.82155E-05 1.03786E-05
 -1      3863 4.59734E-05 4.59734E-05 1.19358E-05
 -1      3864 4.59734E-05 4.59734E-05 1.17628E-05
 -1      3865 4.59735E-05 4.59735E-05 1.15898E-05
 -1      3866 4.59736E-05 4.59736E-05 1.14168E-05
 -1      3867 4.59737E-05 4.59737E-05 1.12437E-05
 -1      3868 4.59737E-05 4.59737E-05 1.10706E-05
 -1      3869 4.59736E-05 4.59736E-05 1.08975E-05
 -1      3870 4.59735E-05 4.59735E-05 1.07245E-05
 -1      3871 4.59734E-05 4.59734E-05 1.05515E-05
 -1      3872 4.59734E-05 4.59734E-05 1.03786E-05
 -1      3873 3.82155E-05 5.25992E-05 1.19358E-05
 -1      3874 3.82156E-05 5.25992E-05 1.17628E-05
 -1      3875 3.82157E-05 5.25994E-05 1.15898E-05
 -1      3876 3.82157E-05 5.25995E-05 1.14168E-05
 -1      3877 3.82158E-05 5.25995E-05 1.12437E-05
 -1      3878 3.82158E-05 5.25995E-05 1.10706E-05
 -1      3879 3.82157E-05 5.25995E-05 1.08975E-05
 -1      3880 3.82157E-05 5.25994E-05 1.07245E-05
 -1      3881 3.82156E-05 5.25992E-05 1.05515E-05
 -1      3882 3.82155E-05 5.25992E-05 1.03786E-05
 -1      3883 2.95167E-05 5.79298E-05 1.19358E-05
 -1      3884 2.95168E-05 5.79299E-05 1.17628E-05
 -1      3885 2.95168E-05 5.79300E-05 1.15898E-05
 -1      3886 2.95169E-05 5.79301E-05 1.14168E-05
 -1      3887 2.95169E-05 5.79302E-05 1.12437E-05
 -1      3888 2.95169E-05 5.79302E-05 1.10706E-05
 -1      3889 2.95169E-05 5.79301E-05 1.08975E-05
 -1      3890 2.95168E-05 5.79300E-05 1.07245E-05
 -1      3891 2.95168E-05 5.79299E-05 1.05515E-05
 -1      3892 2.95167E-05 5.79298E-05 1.03786E-05
 -1      3893 2.00911E-05 6.18341E-05 1.19358E-05
 -1      3894 2.00911E-05 6.18341E-05 1.17628E-05
 -1      3895 2.00912E-05 6.18343E-05 1.15898E-05
 -1      3896 2.00912E-05 6.18344E-05 1.14168E-05
 -1      3897 2.00912E-05 6.18344E-05 1.12437E-05
 -1      3898 2.00912E-05 6.18344E-05 1.10706E-05
 -1      3899 2.00912E-05 6.18344E-05 1.08975E-05
 -1      3900 2.00912E-05 6.18343E-05 1.07245E-05
 -1      3901 2.00911E-05 6.18341E-05 1.05515E-05
 -1      3902 2.00911E-05 6.18341E-05 1.03786E-05
 -1      3903 1.01708E-05 6.42157E-05 1.19358E-05
 -1      3904 1.01708E-05 6.42158E-05 1.17628E-05
 -1      3905 1.01708E-05 6.42159E-05 1.15898E-05
 -1      3906 1.01708E-05 6.42160E-05 1.14168E-05
 -1      3907 1.01708E-05 6.42161E-05 1.12437E-05
 -1      3908 1.01708E-05 6.42161E-05 1.10706E-05
 -1      3909 1.01708E-05 6.42160E-05 1.08975E-05
 -1      3910 1.01708E-05 6.42159E-05 1.07245E-05
 -1      3911 1.01708E-05 6.42158E-05 1.05515E-05
 -1      3912 1.01708E-05 6.42157E-05 1.03786E-05
 -1      3913 6.36074E-05 1.00744E-05 1.19359E-05
 -1      3914 6.36078E-05 1.00745E-05 1.17629E-05
 -1      3915 6.36083E-05 1.00746E-05 1.15899E-05
 -1      3916 6.36085E-05 1.00746E-05 1.14168E-05
 -1      3917 6.36087E-05 1.00746E-05 1.12437E-05
 -1      3918 6.36087E-05 1.00746E-05 1.10706E-05
 -1      3919 6.36085E-05 1.00746E-05 1.08975E-05
 -1      3920 6.36083E-05 1.00746E-05 1.07244E-05
 -1      3921 6.36078E-05 1.00745E-05 1.05514E-05
 -1      3922 6.36074E-05 1.00744E-05 1.03784E-05
 -1      3923 6.12483E-05 1.99008E-05 1.19359E-05
 -1      3924 6.12487E-05 1.99009E-05 1.17629E-05
 -1      3925 6.12491E-05 1.99010E-05 1.15899E-05
 -1      3926 6.12494E-05 1.99011E-05 1.14168E-05
 -1      3927 6.12495E-05 1.99012E-05 1.12437E-05
 -1      3928 6.12495E-05 1.99012E-05 1.10706E-05
 -1      3929 6.12494E-05 1.99011E-05 1.08975E-05
 -1      3930 6.12491E-05 1.99010E-05 1.07244E-05
 -1      3931 6.12487E-05 1.99009E-05 1.05514E-05
 -1      3932 6.12483E-05 1.99008E-05 1.03784E-05
 -1      3933 5.73811E-05 2.92371E-05 1.19359E-05
 -1      3934 5.73815E-05 2.92373E-05 1.17629E-05
 -1      3935 5.73818E-05 2.92375E-05 1.15899E-05
 -1      3936 5.73821E-05 2.92376E-05 1.14168E-05
 -1      3937 5.73822E-05 2.92377E-05 1.12437E-05
 -1      3938 5.73822E-05 2.92377E-05 1.10706E-05
 -1      3939 5.73821E-05 2.92376E-05 1.08975E-05
 -1      3940 5.73818E-05 2.92375E-05 1.07244E-05
 -1      3941 5.73815E-05 2.92373E-05 1.05514E-05
 -1      3942 5.73811E-05 2.92371E-05 1.03784E-05
 -1      3943 5.21009E-05 3.78535E-05 1.19359E-05
 -1      3944 5.21013E-05 3.78538E-05 1.17629E-05
 -1      3945 5.21016E-05 3.78540E-05 1.15899E-05
 -1      3946 5.21019E-05 3.78542E-05 1.14168E-05
 -1      3947 5.21020E-05 3.78543E-05 1.12437E-05
 -1      3948 5.21020E-05 3.78543E-05 1.10706E-05
 -1      3949 5.21019E-05 3.78542E-05 1.08975E-05
 -1      3950 5.21016E-05 3.78540E-05 1.07244E-05
 -1      3951 5.21013E-05 3.78538E-05 1.05514E-05
 -1      3952 5.21009E-05 3.78535E-05 1.03784E-05
 -1      3953 4.55379E-05 4.55379E-05 1.19359E-05
 -1      3954 4.55382E-05 4.55382E-05 1.17629E-05
 -1      3955 4.55385E-05 4.55385E-05 1.15899E-05
 -1      3956 4.55387E-05 4.55387E-05 1.14168E-05
 -1      3957 4.55388E-05 4.55388E-05 1.12437E-05
 -1      3958 4.55388E-05 4.55388E-05 1.10706E-05
 -1      3959 4.55387E-05 4.55387E-05 1.08975E-05
 -1      3960 4.55385E-05 4.55385E-05 1.07244E-05
 -1      3961 4.55382E-05 4.55382E-05 1.05514E-05
 -1      3962 4.55379E-05 4.55379E-05 1.03784E-05
 -1      3963 3.78535E-05 5.21009E-05 1.19359E-05
 -1      3964 3.78538E-05 5.21013E-05 1.17629E-05
 -1      3965 3.78540E-05 5.21016E-05 1.15899E-05
 -1      3966 3.78542E-05 5.21019E-05 1.14168E-05
 -1      3967 3.78543E-05 5.21020E-05 1.12437E-05
 -1      3968 3.78543E-05 5.21020E-05 1.10706E-05
 -1      3969 3.78542E-05 5.21019E-05 1.08975E-05
 -1      3970 3.78540E-05 5.21016E-05 1.07244E-05
 -1      3971 3.78538E-05 5.21013E-05 1.05514E-05
 -1      3972 3.78535E-05 5.21009E-05 1.03784E-05
 -1      3973 2.92371E-05 5.73811E-05 1.19359E-05
 -1      3974 2.92373E-05 5.73815E-05 1.17629E-05
 -1      3975 2.92375E-05 5.73818E-05 1.15899E-05
 -1      3976 2.92376E-05 5.73821E-05 1.14168E-05
 -1      3977 2.92377E-05 5.73822E-05 1.12437E-05
 -1      3978 2.92377E-05 5.73822E-05 1.10706E-05
 -1      3979 2.92376E-05 5.73821E-05 1.08975E-05
 -1      3980 2.92375E-05 5.73818E-05 1.07244E-05
 -1      3981 2.92373E-05 5.73815E-05 1.05514E-05
 -1      3982 2.92371E-05 5.73811E-05 1.03784E-05
 -1      3983 1.99008E-05 6.12483E-05 1.19359E-05
 -1      3984 1.99009E-05 6.12487E-05 1.17629E-05
 -1      3985 1.99010E-05 6.12491E-05 1.15899E-05
 -1      3986 1.99011E-05 6.12494E-05 1.14168E-05
 -1      3987 1.99012E-05 6.12495E-05 1.12437E-05
 -1      3988 1.99012E-05 6.12495E-05 1.10706E-05
 -1      3989 1.99011E-05 6.12494E-05 1.08975E-05
 -1      3990 1.99010E-05 6.12491E-05 1.07244E-05
 -1      3991 1.99009E-05 6.12487E-05 1.05514E-05
 -1      3992 1.99008E-05 6.12483E-05 1.03784E-05
 -1      3993 1.00744E-05 6.36074E-05 1.19359E-05
 -1      3994 1.00745E-05 6.36078E-05 1.17629E-05
 -1      3995 1.00746E-05 6.36083E-05 1.15899E-05
 -1      3996 1.00746E-05 6.36085E-05 1.14168E-05
 -1      3997 1.00746E-05 6.36087E-05 1.12437E-05
 -1      3998 1.00746E-05 6.36087E-05 1.10706E-05
 -1      3999 1.00746E-05 6.36085E-05 1.08975E-05
 -1      4000 1.00746E-05 6.36083E-05 1.07244E-05
 -1      4001 1.00745E-05 6.36078E-05 1.05514E-05
 -1      4002 1.00744E-05 6.36074E-05 1.03784E-05
 -1      4003 6.30584E-05 9.98747E-06 1.19348E-05
 -1      4004 6.30594E-05 9.98762E-06 1.17618E-05
 -1      4005 6.30600E-05 9.98772E-06 1.15889E-05
 -1      4006 6.30603E-05 9.98777E-06 1.14162E-05
 -1      4007 6.30604E-05 9.98779E-06 1.12435E-05
 -1      4008 6.30604E-05 9.98779E-06 1.10708E-05
 -1      4009 6.30603E-05 9.98777E-06 1.08981E-05
 -1      4010 6.30600E-05 9.98772E-06 1.07254E-05
 -1      4011 6.30594E-05 9.98762E-06 1.05525E-05
 -1      4012 6.30584E-05 9.98747E-06 1.03795E-05
 -1      4013 6.07197E-05 1.97290E-05 1.19348E-05
 -1      4014 6.07206E-05 1.97293E-05 1.17618E-05
 -1      4015 6.07212E-05 1.97295E-05 1.15889E-05
 -1      4016 6.07215E-05 1.97296E-05 1.14162E-05
 -1      4017 6.07216E-05 1.97296E-05 1.12435E-05
 -1      4018 6.07216E-05 1.97296E-05 1.10708E-05
 -1      4019 6.07215E-05 1.97296E-05 1.08981E-05
 -1      4020 6.07212E-05 1.97295E-05 1.07254E-05
 -1      4021 6.07206E-05 1.97293E-05 1.05525E-05
 -1      4022 6.07197E-05 1.97290E-05 1.03795E-05
 -1      4023 5.68858E-05 2.89848E-05 1.19348E-05
 -1      4024 5.68867E-05 2.89852E-05 1.17618E-05
 -1      4025 5.68872E-05 2.89855E-05 1.15889E-05
 -1      4026 5.68875E-05 2.89856E-05 1.14162E-05
 -1      4027 5.68876E-05 2.89857E-05 1.12435E-05
 -1      4028 5.68876E-05 2.89857E-05 1.10708E-05
 -1      4029 5.68875E-05 2.89856E-05 1.08981E-05
 -1      4030 5.68872E-05 2.89855E-05 1.07254E-05
 -1      4031 5.68867E-05 2.89852E-05 1.05525E-05
 -1      4032 5.68858E-05 2.89848E-05 1.03795E-05
 -1      4033 5.16513E-05 3.75268E-05 1.19348E-05
 -1      4034 5.16520E-05 3.75274E-05 1.17618E-05
 -1      4035 5.16525E-05 3.75277E-05 1.15889E-05
 -1      4036 5.16528E-05 3.75279E-05 1.14162E-05
 -1      4037 5.16529E-05 3.75280E-05 1.12435E-05
 -1      4038 5.16529E-05 3.75280E-05 1.10708E-05
 -1      4039 5.16528E-05 3.75279E-05 1.08981E-05
 -1      4040 5.16525E-05 3.75277E-05 1.07254E-05
 -1      4041 5.16520E-05 3.75274E-05 1.05525E-05
 -1      4042 5.16513E-05 3.75268E-05 1.03795E-05
 -1      4043 4.51449E-05 4.51449E-05 1.19348E-05
 -1      4044 4.51455E-05 4.51455E-05 1.17618E-05
 -1      4045 4.51459E-05 4.51459E-05 1.15889E-05
 -1      4046 4.51462E-05 4.51462E-05 1.14162E-05
 -1      4047 4.51463E-05 4.51463E-05 1.12435E-05
 -1      4048 4.51463E-05 4.51463E-05 1.10708E-05
 -1      4049 4.51462E-05 4.51462E-05 1.08981E-05
 -1      4050 4.51459E-05 4.51459E-05 1.07254E-05
 -1      4051 4.51455E-05 4.51455E-05 1.05525E-05
 -1      4052 4.51449E-05 4.51449E-05 1.03795E-05
 -1      4053 3.75268E-05 5.16513E-05 1.19348E-05
 -1      4054 3.75274E-05 5.16520E-05 1.17618E-05
 -1      4055 3.75277E-05 5.16525E-05 1.15889E-05
 -1      4056 3.75279E-05 5.16528E-05 1.14162E-05
 -1      4057 3.75280E-05 5.16529E-05 1.12435E-05
 -1      4058 3.75280E-05 5.16529E-05 1.10708E-05
 -1      4059 3.75279E-05 5.16528E-05 1.08981E-05
 -1      4060 3.75277E-05 5.16525E-05 1.07254E-05
 -1      4061 3.75274E-05 5.16520E-05 1.05525E-05
 -1      4062 3.75268E-05 5.16513E-05 1.03795E-05
 -1      4063 2.89848E-05 5.68858E-05 1.19348E-05
 -1      4064 2.89852E-05 5.68867E-05 1.17618E-05
 -1      4065 2.89855E-05 5.68872E-05 1.15889E-05
 -1      4066 2.89856E-05 5.68875E-05 1.14162E-05
 -1      4067 2.89857E-05 5.68876E-05 1.12435E-05
 -1      4068 2.89857E-05 5.68876E-05 1.10708E-05
 -1      4069 2.89856E-05 5.68875E-05 1.08981E-05
 -1      4070 2.89855E-05 5.68872E-05 1.07254E-05
 -1      4071 2.89852E-05 5.68867E-05 1.05525E-05
 -1      4072 2.89848E-05 5.68858E-05 1.03795E-05
 -1      4073 1.97290E-05 6.07197E-05 1.19348E-05
 -1      4074 1.97293E-05 6.07206E-05 1.17618E-05
 -1      4075 1.97295E-05 6.07212E-05 1.15889E-05
 -1      4076 1.97296E-05 6.07215E-05 1.14162E-05
 -1      4077 1.97296E-05 6.07216E-05 1.12435E-05
 -1      4078 1.97296E-05 6.07216E-05 1.10708E-05
 -1      4079 1.97296E-05 6.07215E-05 1.08981E-05
 -1      4080 1.97295E-05 6.07212E-05 1.07254E-05
 -1      4081 1.97293E-05 6.07206E-05 1.05525E-05
 -1      4082 1.97290E-05 6.07197E-05 1.03795E-05
 -1      4083 9.98747E-06 6.30584E-05 1.19348E-05
 -1      4084 9.98762E-06 6.30594E-05 1.17618E-05
 -1      4085 9.98772E-06 6.30600E-05 1.15889E-05
 -1      4086 9.98777E-06 6.30603E-05 1.14162E-05
 -1      4087 9.98779E-06 6.30604E-05 1.12435E-05
 -1      4088 9.98779E-06 6.30604E-05 1.10708E-05
 -1      4089 9.98777E-06 6.30603E-05 1.08981E-05
 -1      4090 9.98772E-06 6.30600E-05 1.07254E-05
 -1      4091 9.98762E-06 6.30594E-05 1.05525E-05
 -1      4092 9.98747E-06 6.30584E-05 1.03795E-05
 -3
    1PSTEP                         2           1           1          
  100CL  101 1.000000000        4092                     0    1           1
 -4  STRESS      6    1
 -5  SXX         1    4    1    1
 -5  SYY         1    4    2    2
 -5  SZZ         1    4    3    3
 -5  SXY         1    4    1    2
 -5  SYZ         1    4    2    3
 -5  SZX         1    4    3    1
 -1         1-8.30657E-01 1.18305E+00 3.30534E-02-7.92384E-02-1.34269E-03-2.23919E-03
 -1         2-2.82159E-03 1.31951E-01-6.43411E-04-5.30325E-03-2.26686E-05-4.03175E-05
 -1         3 1.31951E-01-2.82159E-03-6.43411E-04-5.30325E-03-4.03175E-05-2.26686E-05
 -1         4 1.18305E+00-8.30657E-01 3.30534E-02-7.92384E-02-2.23919E-03-1.34269E-03
 -1         5-8.30657E-01 1.18305E+00 3.30534E-02-7.92384E-02 1.34269E-03 2.23919E-03
 -1         6-2.82159E-03 1.31951E-01-6.43411E-04-5.30325E-03 2.26686E-05 4.03175E-05
 -1         7 1.31951E-01-2.82159E-03-6.43411E-04-5.30325E-03 4.03175E-05 2.26686E-05
 -1         8 1.18305E+00-8.30657E-01 3.30534E-02-7.92384E-02 2.23919E-03 1.34269E-03
 -1         9-8.09523E-01 9.43215E-01 4.34706E-03-6.89694E-02-7.09547E-04-1.73417E-03
 -1        10-6.75602E-01 8.00105E-01-4.15436E-03-5.80684E-02-3.51920E-05 1.19440E-04
 -1        11-5.67487E-01 6.91968E-01-2.22245E-03-4.95589E-02 1.70837E-05 1.66422E-04
 -1        12-4.80689E-01 6.05861E-01-2.04537E-03-4.27552E-02 2.25811E-05 7.74768E-05
 -1        13-4.09929E-01 5.36631E-01-1.56587E-03-3.72467E-02 1.29210E-05 2.34139E-05
 -1        14-3.51871E-01 4.79959E-01-1.23689E-03-3.27321E-02 6.63306E-06 7.05569E-06
 -1        15-3.03759E-01 4.32967E-01-9.68646E-04-2.89898E-02 3.55614E-06 2.05375E-06
 -1        16-2.63501E-01 3.93548E-01-7.68792E-04-2.58546E-02 2.28566E-06 1.52549E-06
 -1        17-2.29484E-01 3.60157E-01-6.17442E-04-2.32021E-02 1.69233E-06 1.45599E-06
 -1        18-2.00478E-01 3.31626E-01-5.02090E-04-2.09380E-02 1.33284E-06 1.33812E-06
 -1        19-1.75542E-01 3.07056E-01-4.12673E-04-1.89900E-02 1.06468E-06 1.12793E-06
 -1        20-1.53946E-01 2.85748E-01-3.42402E-04-1.73018E-02 8.52630E-07 9.15665E-07
 -1        21-1.35119E-01 2.67150E-01-2.86494E-04-1.58291E-02 6.85151E-07 7.36016E-07
 -1        22-1.18606E-01 2.50821E-01-2.41549E-04-1.45368E-02 5.54032E-07 5.94609E-07
 -1        23-1.04042E-01 2.36407E-01-2.05083E-04-1.33965E-02 4.51513E-07 4.84838E-07
 -1        24-9.11330E-02 2.23620E-01-1.75247E-04-1.23854E-02 3.70930E-07 3.99037E-07
 -1        25-7.96360E-02 2.12224E-01-1.50647E-04-1.14845E-02 3.07039E-07 3.31129E-07
 -1        26-6.93527E-02 2.02024E-01-1.30217E-04-1.06785E-02 2.55857E-07 2.76682E-07
 -1        27-6.01178E-02 1.92859E-01-1.13136E-04-9.95452E-03 2.14319E-07 2.32086E-07
 -1        28-5.17935E-02 1.84594E-01-9.87644E-05-9.30172E-03 1.80049E-07 1.93696E-07
 -1        29-4.42637E-02 1.77114E-01-8.65938E-05-8.71110E-03 1.51580E-07 1.56885E-07
 -1        30-3.74303E-02 1.70323E-01-7.62117E-05-8.17499E-03 1.30013E-07 1.20279E-07
 -1        31-3.12098E-02 1.64139E-01-6.73270E-05-7.68689E-03 1.22682E-07 9.20151E-08
 -1        32-2.55312E-02 1.58492E-01-5.96806E-05-7.24124E-03 1.49821E-07 1.53682E-07
 -1        33-2.03353E-02 1.53321E-01-5.38422E-05-6.83330E-03 2.32662E-07 4.36856E-07
 -1        34-1.55741E-02 1.48572E-01-4.86131E-05-6.45908E-03 3.61132E-07 1.44525E-06
 -1        35-1.12175E-02 1.44192E-01-5.39840E-05-6.11530E-03 1.74843E-07 3.15836E-06
 -1        36-7.23570E-03 1.40150E-01-3.25544E-05-5.79955E-03-8.60314E-07 2.36732E-06
 -1        37-3.67134E-03 1.36319E-01-2.07047E-04-5.50856E-03-1.21532E-05-2.48356E-05
 -1        38 4.76536E-04 1.28653E-01-6.43411E-04-2.08236E-02-6.30705E-06-3.98211E-05
 -1        39 1.00481E-02 1.19082E-01-6.43411E-04-3.96088E-02-1.24588E-05-3.83442E-05
 -1        40 2.49561E-02 1.04174E-01-6.43411E-04-5.45168E-02-1.83038E-05-3.59232E-05
 -1        41 4.37413E-02 8.53884E-02-6.43411E-04-6.40883E-02-2.36980E-05-3.26176E-05
 -1        42 6.45649E-02 6.45649E-02-6.43411E-04-6.73865E-02-2.85088E-05-2.85088E-05
 -1        43 8.53884E-02 4.37413E-02-6.43411E-04-6.40883E-02-3.26176E-05-2.36980E-05
 -1        44 1.04174E-01 2.49561E-02-6.43411E-04-5.45168E-02-3.59232E-05-1.83038E-05
 -1        45 1.19082E-01 1.00481E-02-6.43411E-04-3.96088E-02-3.83442E-05-1.24588E-05
 -1        46 1.28653E-01 4.76536E-04-6.43411E-04-2.08236E-02-3.98211E-05-6.30705E-06
 -1        47 1.36319E-01-3.67134E-03-2.07047E-04-5.50856E-03-2.48356E-05-1.21532E-05
 -1        48 1.40150E-01-7.23570E-03-3.25544E-05-5.79955E-03 2.36732E-06-8.60314E-07
 -1        49 1.44192E-01-1.12175E-02-5.39840E-05-6.11530E-03 3.15836E-06 1.74843E-07
 -1        50 1.48572E-01-1.55741E-02-4.86131E-05-6.45908E-03 1.44525E-06 3.61132E-07
 -1        51 1.53321E-01-2.03353E-02-5.38422E-05-6.83330E-03 4.36856E-07 2.32662E-07
 -1        52 1.58492E-01-2.55312E-02-5.96807E-05-7.24124E-03 1.53683E-07 1.49821E-07
 -1        53 1.64139E-01-3.12098E-02-6.73270E-05-7.68689E-03 9.20152E-08 1.22682E-07
 -1        54 1.70323E-01-3.74303E-02-7.62117E-05-8.17499E-03 1.20279E-07 1.30013E-07
 -1        55 1.77114E-01-4.42637E-02-8.65939E-05-8.71110E-03 1.56885E-07 1.51580E-07
 -1        56 1.84594E-01-5.17935E-02-9.87644E-05-9.30172E-03 1.93696E-07 1.80049E-07
 -1        57 1.92859E-01-6.01178E-02-1.13136E-04-9.95452E-03 2.32086E-07 2.14319E-07
 -1        58 2.02024E-01-6.93527E-02-1.30217E-04-1.06785E-02 2.76682E-07 2.55857E-07
 -1        59 2.12224E-01-7.96360E-02-1.50647E-04-1.14845E-02 3.31129E-07 3.07039E-07
 -1        60 2.23620E-01-9.11330E-02-1.75247E-04-1.23854E-02 3.99037E-07 3.70930E-07
 -1        61 2.36407E-01-1.04042E-01-2.05083E-04-1.33965E-02 4.84838E-07 4.51513E-07
 -1        62 2.50821E-01-1.18606E-01-2.41549E-04-1.45368E-02 5.94609E-07 5.54033E-07
 -1        63 2.67150E-01-1.35119E-01-2.86494E-04-1.58291E-02 7.36016E-07 6.85151E-07
 -1        64 2.85748E-01-1.53946E-01-3.42402E-04-1.73018E-02 9.15665E-07 8.52630E-07
 -1        65 3.07056E-01-1.75542E-01-4.12673E-04-1.89900E-02 1.12793E-06 1.06468E-06
 -1        66 3.31626E-01-2.00478E-01-5.02090E-04-2.09380E-02 1.33812E-06 1.33284E-06
 -1        67 3.60157E-01-2.29484E-01-6.17442E-04-2.32021E-02 1.45599E-06 1.69233E-06
 -1        68 3.93548E-01-2.63501E-01-7.68792E-04-2.58546E-02 1.52549E-06 2.28566E-06
 -1        69 4.32967E-01-3.03759E-01-9.68646E-04-2.89898E-02 2.05375E-06 3.55614E-06
 -1        70 4.79959E-01-3.51871E-01-1.23689E-03-3.27321E-02 7.05569E-06 6.63306E-06
 -1        71 5.36631E-01-4.09929E-01-1.56587E-03-3.72467E-02 2.34139E-05 1.29210E-05
 -1        72 6.05861E-01-4.80689E-01-2.04537E-03-4.27552E-02 7.74768E-05 2.25811E-05
 -1        73 6.91968E-01-5.67487E-01-2.22245E-03-4.95589E-02 1.66422E-04 1.70837E-05
 -1        74 8.00105E-01-6.75602E-01-4.15436E-03-5.80684E-02 1.19440E-04-3.51920E-05
 -1        75 9.43215E-01-8.09523E-01 4.34706E-03-6.89694E-02-1.73417E-03-7.09547E-04
 -1        76 1.13377E+00-7.81378E-01 3.30534E-02-3.11134E-01-2.21162E-03-3.50286E-04
 -1        77 9.90754E-01-6.38366E-01 3.30534E-02-5.91812E-01-2.12959E-03-6.91947E-04
 -1        78 7.68007E-01-4.15618E-01 3.30534E-02-8.14560E-01-1.99513E-03-1.01657E-03
 -1        79 4.87328E-01-1.34940E-01 3.30534E-02-9.57573E-01-1.81154E-03-1.31616E-03
 -1        80 1.76194E-01 1.76194E-01 3.30534E-02-1.00685E+00-1.58334E-03-1.58334E-03
 -1        81-1.34940E-01 4.87328E-01 3.30534E-02-9.57573E-01-1.31616E-03-1.81154E-03
 -1        82-4.15618E-01 7.68007E-01 3.30534E-02-8.14560E-01-1.01657E-03-1.99513E-03
 -1        83-6.38366E-01 9.90754E-01 3.30534E-02-5.91812E-01-6.91947E-04-2.12959E-03
 -1        84-7.81378E-01 1.13377E+00 3.30534E-02-3.11134E-01-3.50286E-04-2.21162E-03
 -1        85-8.09523E-01 9.43215E-01 4.34706E-03-6.89694E-02 7.09547E-04 1.73417E-03
 -1        86-6.75602E-01 8.00105E-01-4.15436E-03-5.80684E-02 3.51920E-05-1.19440E-04
 -1        87-5.67487E-01 6.91968E-01-2.22245E-03-4.95589E-02-1.70837E-05-1.66422E-04
 -1        88-4.80689E-01 6.05861E-01-2.04537E-03-4.27552E-02-2.25811E-05-7.74768E-05
 -1        89-4.09929E-01 5.36631E-01-1.56587E-03-3.72467E-02-1.29210E-05-2.34139E-05
 -1        90-3.51871E-01 4.79959E-01-1.23689E-03-3.27321E-02-6.63306E-06-7.05569E-06
 -1        91-3.03759E-01 4.32967E-01-9.68646E-04-2.89898E-02-3.55614E-06-2.05375E-06
 -1        92-2.63501E-01 3.93548E-01-7.68792E-04-2.58546E-02-2.28566E-06-1.52549E-06
 -1        93-2.29484E-01 3.60157E-01-6.17442E-04-2.32021E-02-1.69233E-06-1.45599E-06
 -1        94-2.00478E-01 3.31626E-01-5.02090E-04-2.09380E-02-1.33284E-06-1.33812E-06
 -1        95-1.75542E-01 3.07056E-01-4.12673E-04-1.89900E-02-1.06468E-06-1.12793E-06
 -1        96-1.53946E-01 2.85748E-01-3.42402E-04-1.73018E-02-8.52630E-07-9.15665E-07
 -1        97-1.35119E-01 2.67150E-01-2.86494E-04-1.58291E-02-6.85151E-07-7.36016E-07
 -1        98-1.18606E-01 2.50821E-01-2.41549E-04-1.45368E-02-5.54032E-07-5.94609E-07
 -1        99-1.04042E-01 2.36407E-01-2.05083E-04-1.33965E-02-4.51513E-07-4.84838E-07
 -1       100-9.11330E-02 2.23620E-01-1.75247E-04-1.23854E-02-3.70930E-07-3.99037E-07
 -1       101-7.96360E-02 2.12224E-01-1.50647E-04-1.14845E-02-3.07039E-07-3.31129E-07
 -1       102-6.93527E-02 2.02024E-01-1.30217E-04-1.06785E-02-2.55857E-07-2.76682E-07
 -1       103-6.01178E-02 1.92859E-01-1.13136E-04-9.95452E-03-2.14319E-07-2.32086E-07
 -1       104-5.17935E-02 1.84594E-01-9.87644E-05-9.30172E-03-1.80049E-07-1.93696E-07
 -1       105-4.42637E-02 1.77114E-01-8.65938E-05-8.71110E-03-1.51580E-07-1.56885E-07
 -1       106-3.74303E-02 1.70323E-01-7.62117E-05-8.17499E-03-1.30013E-07-1.20279E-07
 -1       107-3.12098E-02 1.64139E-01-6.73270E-05-7.68689E-03-1.22682E-07-9.20151E-08
 -1       108-2.55312E-02 1.58492E-01-5.96806E-05-7.24124E-03-1.49821E-07-1.53682E-07
 -1       109-2.03353E-02 1.53321E-01-5.38422E-05-6.83330E-03-2.32662E-07-4.36856E-07
 -1       110-1.55741E-02 1.48572E-01-4.86131E-05-6.45908E-03-3.61132E-07-1.44525E-06
 -1       111-1.12175E-02 1.44192E-01-5.39840E-05-6.11530E-03-1.74843E-07-3.15836E-06
 -1       112-7.23570E-03 1.40150E-01-3.25544E-05-5.79955E-03 8.60314E-07-2.36732E-06
 -1       113-3.67134E-03 1.36319E-01-2.07047E-04-5.50856E-03 1.21532E-05 2.48356E-05
 -1       114 4.76536E-04 1.28653E-01-6.43411E-04-2.08236E-02 6.30705E-06 3.98211E-05
 -1       115 1.00481E-02 1.19082E-01-6.43411E-04-3.96088E-02 1.24588E-05 3.83442E-05
 -1       116 2.49561E-02 1.04174E-01-6.43411E-04-5.45168E-02 1.83038E-05 3.59232E-05
 -1       117 4.37413E-02 8.53884E-02-6.43411E-04-6.40883E-02 2.36980E-05 3.26176E-05
 -1       118 6.45649E-02 6.45649E-02-6.43411E-04-6.73865E-02 2.85088E-05 2.85088E-05
 -1       119 8.53884E-02 4.37413E-02-6.43411E-04-6.40883E-02 3.26176E-05 2.36980E-05
 -1       120 1.04174E-01 2.49561E-02-6.43411E-04-5.45168E-02 3.59232E-05 1.83038E-05
 -1       121 1.19082E-01 1.00481E-02-6.43411E-04-3.96088E-02 3.83442E-05 1.24588E-05
 -1       122 1.28653E-01 4.76536E-04-6.43411E-04-2.08236E-02 3.98211E-05 6.30705E-06
 -1       123 1.36319E-01-3.67134E-03-2.07047E-04-5.50856E-03 2.48356E-05 1.21532E-05
 -1       124 1.40150E-01-7.23570E-03-3.25544E-05-5.79955E-03-2.36732E-06 8.60314E-07
 -1       125 1.44192E-01-1.12175E-02-5.39840E-05-6.11530E-03-3.15836E-06-1.74843E-07
 -1       126 1.48572E-01-1.55741E-02-4.86131E-05-6.45908E-03-1.44525E-06-3.61132E-07
 -1       127 1.53321E-01-2.03353E-02-5.38422E-05-6.83330E-03-4.36856E-07-2.32662E-07
 -1       128 1.58492E-01-2.55312E-02-5.96807E-05-7.24124E-03-1.53683E-07-1.49821E-07
 -1       129 1.64139E-01-3.12098E-02-6.73270E-05-7.68689E-03-9.20152E-08-1.22682E-07
 -1       130 1.70323E-01-3.74303E-02-7.62117E-05-8.17499E-03-1.20279E-07-1.30013E-07
 -1       131 1.77114E-01-4.42637E-02-8.65939E-05-8.71110E-03-1.56885E-07-1.51580E-07
 -1       132 1.84594E-01-5.17935E-02-9.87644E-05-9.30172E-03-1.93696E-07-1.80049E-07
 -1       133 1.92859E-01-6.01178E-02-1.13136E-04-9.95452E-03-2.32086E-07-2.14319E-07
 -1       134 2.02024E-01-6.93527E-02-1.30217E-04-1.06785E-02-2.76682E-07-2.55857E-07
 -1       135 2.12224E-01-7.96360E-02-1.50647E-04-1.14845E-02-3.31129E-07-3.07039E-07
 -1       136 2.23620E-01-9.11330E-02-1.75247E-04-1.23854E-02-3.99037E-07-3.70930E-07
 -1       137 2.36407E-01-1.04042E-01-2.05083E-04-1.33965E-02-4.84838E-07-4.51513E-07
 -1       138 2.50821E-01-1.18606E-01-2.41549E-04-1.45368E-02-5.94609E-07-5.54033E-07
 -1       139 2.67150E-01-1.35119E-01-2.86494E-04-1.58291E-02-7.36016E-07-6.85151E-07
 -1       140 2.85748E-01-1.53946E-01-3.42402E-04-1.73018E-02-9.15665E-07-8.52630E-07
 -1       141 3.07056E-01-1.75542E-01-4.12673E-04-1.89900E-02-1.12793E-06-1.06468E-06
 -1       142 3.31626E-01-2.00478E-01-5.02090E-04-2.09380E-02-1.33812E-06-1.33284E-06
 -1       143 3.60157E-01-2.29484E-01-6.17442E-04-2.32021E-02-1.45599E-06-1.69233E-06
 -1       144 3.93548E-01-2.63501E-01-7.68792E-04-2.58546E-02-1.52549E-06-2.28566E-06
 -1       145 4.32967E-01-3.03759E-01-9.68646E-04-2.89898E-02-2.05375E-06-3.55614E-06
 -1       146 4.79959E-01-3.51871E-01-1.23689E-03-3.27321E-02-7.05569E-06-6.63306E-06
 -1       147 5.36631E-01-4.09929E-01-1.56587E-03-3.72467E-02-2.34139E-05-1.29210E-05
 -1       148 6.05861E-01-4.80689E-01-2.04537E-03-4.27552E-02-7.74768E-05-2.25811E-05
 -1       149 6.91968E-01-5.67487E-01-2.22245E-03-4.95589E-02-1.66422E-04-1.70837E-05
 -1       150 8.00105E-01-6.75602E-01-4.15436E-03-5.80684E-02-1.19440E-04 3.51920E-05
 -1       151 9.43215E-01-8.09523E-01 4.34706E-03-6.89694E-02 1.73417E-03 7.09547E-04
 -1       152 1.13377E+00-7.81378E-01 3.30534E-02-3.11134E-01 2.21162E-03 3.50286E-04
 -1       153 9.90754E-01-6.38366E-01 3.30534E-02-5.91812E-01 2.12959E-03 6.91947E-04
 -1       154 7.68007E-01-4.15618E-01 3.30534E-02-8.14560E-01 1.99513E-03 1.01657E-03
 -1       155 4.87328E-01-1.34940E-01 3.30534E-02-9.57573E-01 1.81154E-03 1.31616E-03
 -1       156 1.76194E-01 1.76194E-01 3.30534E-02-1.00685E+00 1.58334E-03 1.58334E-03
 -1       157-1.34940E-01 4.87328E-01 3.30534E-02-9.57573E-01 1.31616E-03 1.81154E-03
 -1       158-4.15618E-01 7.68007E-01 3.30534E-02-8.14560E-01 1.01657E-03 1.99513E-03
 -1       159-6.38366E-01 9.90754E-01 3.30534E-02-5.91812E-01 6.91947E-04 2.12959E-03
 -1       160-7.81378E-01 1.13377E+00 3.30534E-02-3.11134E-01 3.50286E-04 2.21162E-03
 -1       161-8.37568E-01 1.18269E+00 3.41374E-02-7.94962E-02-9.36487E-04-9.20538E-04
 -1       162-8.36936E-01 1.18558E+00 4.09132E-02-7.95851E-02-6.22681E-04-2.51622E-03
 -1       163-8.35443E-01 1.18795E+00 4.61801E-02-7.96197E-02-3.89605E-04-2.19683E-03
 -1       164-8.34245E-01 1.18951E+00 4.96041E-02-7.96340E-02-2.12565E-04-1.38381E-03
 -1       165-8.33622E-01 1.19027E+00 5.12655E-02-7.96393E-02-6.74297E-05-4.65602E-04
 -1       166-8.33622E-01 1.19027E+00 5.12655E-02-7.96393E-02 6.74297E-05 4.65602E-04
 -1       167-8.34245E-01 1.18951E+00 4.96041E-02-7.96340E-02 2.12565E-04 1.38381E-03
 -1       168-8.35443E-01 1.18795E+00 4.61801E-02-7.96197E-02 3.89605E-04 2.19683E-03
 -1       169-8.36936E-01 1.18558E+00 4.09132E-02-7.95851E-02 6.22681E-04 2.51622E-03
 -1       170-8.37568E-01 1.18269E+00 3.41374E-02-7.94962E-02 9.36487E-04 9.20538E-04
 -1       171-2.70002E-03 1.31992E-01-6.50619E-04-5.30004E-03-1.58548E-05-1.66772E-05
 -1       172-2.70779E-03 1.31959E-01-7.59304E-04-5.29909E-03-1.05802E-05-4.15538E-05
 -1       173-2.73056E-03 1.31929E-01-8.43735E-04-5.29878E-03-6.64402E-06-3.59019E-05
 -1       174-2.74916E-03 1.31908E-01-8.98618E-04-5.29867E-03-3.63562E-06-2.25275E-05
 -1       175-2.75889E-03 1.31897E-01-9.25246E-04-5.29864E-03-1.15520E-06-7.56836E-06
 -1       176-2.75889E-03 1.31897E-01-9.25246E-04-5.29864E-03 1.15520E-06 7.56836E-06
 -1       177-2.74916E-03 1.31908E-01-8.98618E-04-5.29867E-03 3.63562E-06 2.25275E-05
 -1       178-2.73056E-03 1.31929E-01-8.43735E-04-5.29878E-03 6.64402E-06 3.59019E-05
 -1       179-2.70779E-03 1.31959E-01-7.59304E-04-5.29909E-03 1.05802E-05 4.15538E-05
 -1       180-2.70002E-03 1.31992E-01-6.50619E-04-5.30004E-03 1.58548E-05 1.66772E-05
 -1       181 1.31992E-01-2.70002E-03-6.50619E-04-5.30004E-03-1.66772E-05-1.58548E-05
 -1       182 1.31959E-01-2.70779E-03-7.59304E-04-5.29909E-03-4.15538E-05-1.05802E-05
 -1       183 1.31929E-01-2.73056E-03-8.43735E-04-5.29878E-03-3.59019E-05-6.64402E-06
 -1       184 1.31908E-01-2.74916E-03-8.98618E-04-5.29867E-03-2.25275E-05-3.63562E-06
 -1       185 1.31897E-01-2.75889E-03-9.25246E-04-5.29864E-03-7.56836E-06-1.15520E-06
 -1       186 1.31897E-01-2.75889E-03-9.25246E-04-5.29864E-03 7.56836E-06 1.15520E-06
 -1       187 1.31908E-01-2.74916E-03-8.98618E-04-5.29867E-03 2.25275E-05 3.63562E-06
 -1       188 1.31929E-01-2.73056E-03-8.43735E-04-5.29878E-03 3.59019E-05 6.64402E-06
 -1       189 1.31959E-01-2.70779E-03-7.59304E-04-5.29909E-03 4.15538E-05 1.05802E-05
 -1       190 1.31992E-01-2.70002E-03-6.50619E-04-5.30004E-03 1.66772E-05 1.58548E-05
 -1       191 1.18269E+00-8.37568E-01 3.41374E-02-7.94962E-02-9.20538E-04-9.36487E-04
 -1       192 1.18558E+00-8.36936E-01 4.09132E-02-7.95851E-02-2.51622E-03-6.22681E-04
 -1       193 1.18795E+00-8.35443E-01 4.61801E-02-7.96197E-02-2.19683E-03-3.89605E-04
 -1       194 1.18951E+00-8.34245E-01 4.96041E-02-7.96340E-02-1.38381E-03-2.12565E-04
 -1       195 1.19027E+00-8.33622E-01 5.12655E-02-7.96393E-02-4.65602E-04-6.74297E-05
 -1       196 1.19027E+00-8.33622E-01 5.12655E-02-7.96393E-02 4.65602E-04 6.74297E-05
 -1       197 1.18951E+00-8.34245E-01 4.96041E-02-7.96340E-02 1.38381E-03 2.12565E-04
 -1       198 1.18795E+00-8.35443E-01 4.61801E-02-7.96197E-02 2.19683E-03 3.89605E-04
 -1       199 1.18558E+00-8.36936E-01 4.09132E-02-7.95851E-02 2.51622E-03 6.22681E-04
 -1       200 1.18269E+00-8.37568E-01 3.41374E-02-7.94962E-02 9.20538E-04 9.36487E-04
 -1       201-7.66631E-01 9.00323E-01 4.34706E-03-2.70813E-01-2.71284E-04-1.71282E-03
 -1       202-6.42152E-01 7.75844E-01 4.34706E-03-5.15117E-01-5.35888E-04-1.64929E-03
 -1       203-4.48271E-01 5.81963E-01 4.34706E-03-7.08998E-01-7.87296E-04-1.54516E-03
 -1       204-2.03967E-01 3.37659E-01 4.34706E-03-8.33477E-01-1.01932E-03-1.40297E-03
 -1       205 6.68460E-02 6.68460E-02 4.34706E-03-8.76369E-01-1.22624E-03-1.22624E-03
 -1       206 3.37659E-01-2.03967E-01 4.34706E-03-8.33477E-01-1.40297E-03-1.01932E-03
 -1       207 5.81963E-01-4.48271E-01 4.34706E-03-7.08998E-01-1.54516E-03-7.87296E-04
 -1       208 7.75844E-01-6.42152E-01 4.34706E-03-5.15117E-01-1.64929E-03-5.35888E-04
 -1       209 9.00323E-01-7.66631E-01 4.34706E-03-2.70813E-01-1.71282E-03-2.71284E-04
 -1       210-6.39489E-01 7.63992E-01-4.15436E-03-2.28009E-01 1.86846E-05 1.17970E-04
 -1       211-5.34685E-01 6.59187E-01-4.15436E-03-4.33699E-01 3.69091E-05 1.13595E-04
 -1       212-3.71448E-01 4.95951E-01-4.15436E-03-5.96936E-01 5.42248E-05 1.06422E-04
 -1       213-1.65758E-01 2.90261E-01-4.15436E-03-7.01741E-01 7.02053E-05 9.66293E-05
 -1       214 6.22513E-02 6.22513E-02-4.15436E-03-7.37854E-01 8.44571E-05 8.44571E-05
 -1       215 2.90261E-01-1.65758E-01-4.15436E-03-7.01741E-01 9.66293E-05 7.02053E-05
 -1       216 4.95951E-01-3.71448E-01-4.15436E-03-5.96936E-01 1.06422E-04 5.42248E-05
 -1       217 6.59187E-01-5.34685E-01-4.15436E-03-4.33699E-01 1.13595E-04 3.69091E-05
 -1       218 7.63992E-01-6.39489E-01-4.15436E-03-2.28009E-01 1.17970E-04 1.86846E-05
 -1       219-5.36666E-01 6.61147E-01-2.22245E-03-1.94597E-01 2.60341E-05 1.64373E-04
 -1       220-4.47220E-01 5.71701E-01-2.22245E-03-3.70145E-01 5.14272E-05 1.58277E-04
 -1       221-3.07904E-01 4.32385E-01-2.22245E-03-5.09460E-01 7.55539E-05 1.48283E-04
 -1       222-1.32356E-01 2.56837E-01-2.22245E-03-5.98906E-01 9.78203E-05 1.34638E-04
 -1       223 6.22403E-02 6.22403E-02-2.22245E-03-6.29728E-01 1.17678E-04 1.17678E-04
 -1       224 2.56837E-01-1.32356E-01-2.22245E-03-5.98906E-01 1.34638E-04 9.78203E-05
 -1       225 4.32385E-01-3.07904E-01-2.22245E-03-5.09460E-01 1.48283E-04 7.55539E-05
 -1       226 5.71701E-01-4.47220E-01-2.22245E-03-3.70145E-01 1.58277E-04 5.14272E-05
 -1       227 6.61147E-01-5.36666E-01-2.22245E-03-1.94597E-01 1.64373E-04 2.60341E-05
 -1       228-4.54099E-01 5.79271E-01-2.04537E-03-1.67881E-01 1.21200E-05 7.65229E-05
 -1       229-3.76933E-01 5.02105E-01-2.04537E-03-3.19329E-01 2.39416E-05 7.36848E-05
 -1       230-2.56743E-01 3.81915E-01-2.04537E-03-4.39519E-01 3.51737E-05 6.90323E-05
 -1       231-1.05295E-01 2.30467E-01-2.04537E-03-5.16685E-01 4.55397E-05 6.26800E-05
 -1       232 6.25861E-02 6.25861E-02-2.04537E-03-5.43275E-01 5.47843E-05 5.47843E-05
 -1       233 2.30467E-01-1.05295E-01-2.04537E-03-5.16685E-01 6.26800E-05 4.55397E-05
 -1       234 3.81915E-01-2.56743E-01-2.04537E-03-4.39519E-01 6.90323E-05 3.51737E-05
 -1       235 5.02105E-01-3.76933E-01-2.04537E-03-3.19329E-01 7.36848E-05 2.39416E-05
 -1       236 5.79271E-01-4.54099E-01-2.04537E-03-1.67881E-01 7.65229E-05 1.21200E-05
 -1       237-3.86765E-01 5.13467E-01-1.56587E-03-1.46252E-01 3.66275E-06 2.31257E-05
 -1       238-3.19541E-01 4.46243E-01-1.56587E-03-2.78187E-01 7.23531E-06 2.22680E-05
 -1       239-2.14836E-01 3.41538E-01-1.56587E-03-3.82892E-01 1.06297E-05 2.08620E-05
 -1       240-8.29008E-02 2.09603E-01-1.56587E-03-4.50116E-01 1.37624E-05 1.89423E-05
 -1       241 6.33509E-02 6.33509E-02-1.56587E-03-4.73280E-01 1.65562E-05 1.65562E-05
 -1       242 2.09603E-01-8.29008E-02-1.56587E-03-4.50116E-01 1.89423E-05 1.37624E-05
 -1       243 3.41538E-01-2.14836E-01-1.56587E-03-3.82892E-01 2.08620E-05 1.06297E-05
 -1       244 4.46243E-01-3.19541E-01-1.56587E-03-2.78187E-01 2.22680E-05 7.23531E-06
 -1       245 5.13467E-01-3.86765E-01-1.56587E-03-1.46252E-01 2.31257E-05 3.66275E-06
 -1       246-3.31515E-01 4.59602E-01-1.23689E-03-1.28525E-01 1.10375E-06 6.96883E-06
 -1       247-2.72439E-01 4.00526E-01-1.23689E-03-2.44469E-01 2.18033E-06 6.71036E-06
 -1       248-1.80425E-01 3.08512E-01-1.23689E-03-3.36482E-01 3.20322E-06 6.28667E-06
 -1       249-6.44813E-02 1.92568E-01-1.23689E-03-3.95559E-01 4.14723E-06 5.70818E-06
 -1       250 6.40436E-02 6.40436E-02-1.23689E-03-4.15915E-01 4.98913E-06 4.98913E-06
 -1       251 1.92568E-01-6.44813E-02-1.23689E-03-3.95559E-01 5.70818E-06 4.14723E-06
 -1       252 3.08512E-01-1.80425E-01-1.23689E-03-3.36482E-01 6.28667E-06 3.20322E-06
 -1       253 4.00526E-01-2.72439E-01-1.23689E-03-2.44469E-01 6.71036E-06 2.18033E-06
 -1       254 4.59602E-01-3.31515E-01-1.23689E-03-1.28525E-01 6.96883E-06 1.10375E-06
 -1       255-2.85730E-01 4.14938E-01-9.68646E-04-1.13830E-01 3.21277E-07 2.02846E-06
 -1       256-2.33408E-01 3.62616E-01-9.68646E-04-2.16518E-01 6.34643E-07 1.95323E-06
 -1       257-1.51914E-01 2.81122E-01-9.68646E-04-2.98012E-01 9.32382E-07 1.82990E-06
 -1       258-4.92264E-02 1.78434E-01-9.68646E-04-3.50334E-01 1.20716E-06 1.66152E-06
 -1       259 6.46040E-02 6.46040E-02-9.68646E-04-3.68363E-01 1.45222E-06 1.45222E-06
 -1       260 1.78434E-01-4.92264E-02-9.68646E-04-3.50334E-01 1.66152E-06 1.20716E-06
 -1       261 2.81122E-01-1.51914E-01-9.68646E-04-2.98012E-01 1.82990E-06 9.32383E-07
 -1       262 3.62616E-01-2.33408E-01-9.68646E-04-2.16518E-01 1.95323E-06 6.34643E-07
 -1       263 4.14938E-01-2.85730E-01-9.68646E-04-1.13830E-01 2.02846E-06 3.21277E-07
 -1       264-2.47422E-01 3.77469E-01-7.68792E-04-1.01520E-01 2.38640E-07 1.50671E-06
 -1       265-2.00759E-01 3.30806E-01-7.68792E-04-1.93102E-01 4.71404E-07 1.45083E-06
 -1       266-1.28078E-01 2.58125E-01-7.68792E-04-2.65782E-01 6.92560E-07 1.35923E-06
 -1       267-3.64962E-02 1.66543E-01-7.68792E-04-3.12446E-01 8.96663E-07 1.23415E-06
 -1       268 6.50235E-02 6.50235E-02-7.68792E-04-3.28525E-01 1.07869E-06 1.07869E-06
 -1       269 1.66543E-01-3.64962E-02-7.68792E-04-3.12446E-01 1.23415E-06 8.96663E-07
 -1       270 2.58125E-01-1.28078E-01-7.68792E-04-2.65782E-01 1.35923E-06 6.92560E-07
 -1       271 3.30806E-01-2.00759E-01-7.68792E-04-1.93102E-01 1.45083E-06 4.71404E-07
 -1       272 3.77469E-01-2.47422E-01-7.68792E-04-1.01520E-01 1.50671E-06 2.38640E-07
 -1       273-2.15054E-01 3.45728E-01-6.17442E-04-9.11045E-02 2.27767E-07 1.43806E-06
 -1       274-1.73178E-01 3.03852E-01-6.17442E-04-1.73291E-01 4.49925E-07 1.38473E-06
 -1       275-1.07954E-01 2.38628E-01-6.17442E-04-2.38515E-01 6.61005E-07 1.29729E-06
 -1       276-2.57678E-02 1.56441E-01-6.17442E-04-2.80391E-01 8.55808E-07 1.17792E-06
 -1       277 6.53367E-02 6.53367E-02-6.17442E-04-2.94820E-01 1.02954E-06 1.02954E-06
 -1       278 1.56441E-01-2.57678E-02-6.17442E-04-2.80391E-01 1.17792E-06 8.55808E-07
 -1       279 2.38628E-01-1.07954E-01-6.17442E-04-2.38515E-01 1.29729E-06 6.61005E-07
 -1       280 3.03852E-01-1.73178E-01-6.17442E-04-1.73291E-01 1.38473E-06 4.49925E-07
 -1       281 3.45728E-01-2.15054E-01-6.17442E-04-9.11045E-02 1.43806E-06 2.27767E-07
 -1       282-1.87456E-01 3.18604E-01-5.02090E-04-8.22145E-02 2.09328E-07 1.32165E-06
 -1       283-1.49666E-01 2.80814E-01-5.02090E-04-1.56381E-01 4.13502E-07 1.27263E-06
 -1       284-9.08073E-02 2.21955E-01-5.02090E-04-2.15240E-01 6.07495E-07 1.19228E-06
 -1       285-1.66405E-02 1.47788E-01-5.02090E-04-2.53030E-01 7.86528E-07 1.08256E-06
 -1       286 6.55740E-02 6.55740E-02-5.02090E-04-2.66052E-01 9.46195E-07 9.46195E-07
 -1       287 1.47788E-01-1.66405E-02-5.02090E-04-2.53030E-01 1.08256E-06 7.86528E-07
 -1       288 2.21955E-01-9.08073E-02-5.02090E-04-2.15240E-01 1.19228E-06 6.07495E-07
 -1       289 2.80814E-01-1.49666E-01-5.02090E-04-1.56381E-01 1.27263E-06 4.13503E-07
 -1       290 3.18604E-01-1.87456E-01-5.02090E-04-8.22145E-02 1.32165E-06 2.09328E-07
 -1       291-1.63732E-01 2.95246E-01-4.12673E-04-7.45655E-02 1.76447E-07 1.11404E-06
 -1       292-1.29458E-01 2.60972E-01-4.12673E-04-1.41832E-01 3.48548E-07 1.07272E-06
 -1       293-7.60747E-02 2.07589E-01-4.12673E-04-1.95215E-01 5.12068E-07 1.00499E-06
 -1       294-8.80824E-03 1.40323E-01-4.12673E-04-2.29489E-01 6.62978E-07 9.12512E-07
 -1       295 6.57572E-02 6.57572E-02-4.12673E-04-2.41299E-01 7.97564E-07 7.97564E-07
 -1       296 1.40323E-01-8.80824E-03-4.12673E-04-2.29489E-01 9.12512E-07 6.62979E-07
 -1       297 2.07589E-01-7.60747E-02-4.12673E-04-1.95215E-01 1.00499E-06 5.12068E-07
 -1       298 2.60972E-01-1.29458E-01-4.12673E-04-1.41832E-01 1.07272E-06 3.48548E-07
 -1       299 2.95246E-01-1.63732E-01-4.12673E-04-7.45655E-02 1.11404E-06 1.76447E-07
 -1       300-1.43186E-01 2.74988E-01-3.42402E-04-6.79365E-02 1.43242E-07 9.04392E-07
 -1       301-1.11959E-01 2.43761E-01-3.42402E-04-1.29223E-01 2.82956E-07 8.70850E-07
 -1       302-6.33218E-02 1.95124E-01-3.42402E-04-1.77860E-01 4.15703E-07 8.15864E-07
 -1       303-2.03540E-03 1.33838E-01-3.42402E-04-2.09087E-01 5.38215E-07 7.40789E-07
 -1       304 6.59011E-02 6.59011E-02-3.42402E-04-2.19847E-01 6.47473E-07 6.47473E-07
 -1       305 1.33838E-01-2.03540E-03-3.42402E-04-2.09087E-01 7.40789E-07 5.38215E-07
 -1       306 1.95124E-01-6.33218E-02-3.42402E-04-1.77860E-01 8.15864E-07 4.15703E-07
 -1       307 2.43761E-01-1.11959E-01-3.42402E-04-1.29223E-01 8.70850E-07 2.82956E-07
 -1       308 2.74988E-01-1.43186E-01-3.42402E-04-6.79365E-02 9.04392E-07 1.43242E-07
 -1       309-1.25275E-01 2.57306E-01-2.86494E-04-6.21540E-02 1.15138E-07 7.26954E-07
 -1       310-9.67057E-02 2.28737E-01-2.86494E-04-1.18224E-01 2.27441E-07 6.99992E-07
 -1       311-5.22083E-02 1.84240E-01-2.86494E-04-1.62721E-01 3.34144E-07 6.55795E-07
 -1       312 3.86162E-03 1.28170E-01-2.86494E-04-1.91290E-01 4.32619E-07 5.95449E-07
 -1       313 6.60156E-02 6.60156E-02-2.86494E-04-2.01135E-01 5.20442E-07 5.20442E-07
 -1       314 1.28170E-01 3.86162E-03-2.86494E-04-1.91290E-01 5.95449E-07 4.32619E-07
 -1       315 1.84240E-01-5.22083E-02-2.86494E-04-1.62721E-01 6.55795E-07 3.34144E-07
 -1       316 2.28737E-01-9.67057E-02-2.86494E-04-1.18224E-01 6.99992E-07 2.27441E-07
 -1       317 2.57306E-01-1.25275E-01-2.86494E-04-6.21540E-02 7.26954E-07 1.15138E-07
 -1       318-1.09565E-01 2.41781E-01-2.41549E-04-5.70796E-02 9.30174E-08 5.87289E-07
 -1       319-8.33288E-02 2.15544E-01-2.41549E-04-1.08572E-01 1.83744E-07 5.65507E-07
 -1       320-4.24643E-02 1.74680E-01-2.41549E-04-1.49436E-01 2.69947E-07 5.29801E-07
 -1       321 9.02803E-03 1.23187E-01-2.41549E-04-1.75673E-01 3.49503E-07 4.81049E-07
 -1       322 6.61077E-02 6.61077E-02-2.41549E-04-1.84714E-01 4.20452E-07 4.20452E-07
 -1       323 1.23187E-01 9.02803E-03-2.41549E-04-1.75673E-01 4.81049E-07 3.49503E-07
 -1       324 1.74680E-01-4.24643E-02-2.41549E-04-1.49436E-01 5.29801E-07 2.69947E-07
 -1       325 2.15544E-01-8.33288E-02-2.41549E-04-1.08572E-01 5.65507E-07 1.83744E-07
 -1       326 2.41781E-01-1.09565E-01-2.41549E-04-5.70796E-02 5.87289E-07 9.30174E-08
 -1       327-9.57110E-02 2.28076E-01-2.05083E-04-5.26023E-02 7.58453E-08 4.78869E-07
 -1       328-7.15324E-02 2.03897E-01-2.05083E-04-1.00056E-01 1.49823E-07 4.61108E-07
 -1       329-3.38733E-02 1.66238E-01-2.05083E-04-1.37715E-01 2.20112E-07 4.31994E-07
 -1       330 1.35800E-02 1.18785E-01-2.05083E-04-1.61893E-01 2.84980E-07 3.92242E-07
 -1       331 6.61824E-02 6.61823E-02-2.05083E-04-1.70225E-01 3.42832E-07 3.42832E-07
 -1       332 1.18785E-01 1.35800E-02-2.05083E-04-1.61893E-01 3.92242E-07 2.84981E-07
 -1       333 1.66238E-01-3.38733E-02-2.05083E-04-1.37715E-01 4.31994E-07 2.20112E-07
 -1       334 2.03897E-01-7.15324E-02-2.05083E-04-1.00056E-01 4.61108E-07 1.49823E-07
 -1       335 2.28076E-01-9.57110E-02-2.05083E-04-5.26023E-02 4.78869E-07 7.58454E-08
 -1       336-8.34304E-02 2.15917E-01-1.75247E-04-4.86320E-02 6.24232E-08 3.94124E-07
 -1       337-6.10767E-02 1.93564E-01-1.75247E-04-9.25035E-02 1.23309E-07 3.79507E-07
 -1       338-2.62601E-02 1.58747E-01-1.75247E-04-1.27320E-01 1.81159E-07 3.55545E-07
 -1       339 1.76115E-02 1.14875E-01-1.75247E-04-1.49674E-01 2.34548E-07 3.22828E-07
 -1       340 6.62435E-02 6.62435E-02-1.75247E-04-1.57376E-01 2.82162E-07 2.82162E-07
 -1       341 1.14875E-01 1.76115E-02-1.75247E-04-1.49674E-01 3.22828E-07 2.34548E-07
 -1       342 1.58747E-01-2.62601E-02-1.75247E-04-1.27320E-01 3.55545E-07 1.81159E-07
 -1       343 1.93564E-01-6.10767E-02-1.75247E-04-9.25035E-02 3.79507E-07 1.23309E-07
 -1       344 2.15917E-01-8.34304E-02-1.75247E-04-4.86320E-02 3.94124E-07 6.24232E-08
 -1       345-7.24937E-02 2.05081E-01-1.50647E-04-4.50948E-02 5.18000E-08 3.27052E-07
 -1       346-5.17659E-02 1.84354E-01-1.50647E-04-8.57754E-02 1.02325E-07 3.14922E-07
 -1       347-1.94816E-02 1.52069E-01-1.50647E-04-1.18060E-01 1.50329E-07 2.95038E-07
 -1       348 2.11990E-02 1.11389E-01-1.50647E-04-1.38788E-01 1.94633E-07 2.67889E-07
 -1       349 6.62938E-02 6.62938E-02-1.50647E-04-1.45930E-01 2.34144E-07 2.34144E-07
 -1       350 1.11389E-01 2.11990E-02-1.50647E-04-1.38788E-01 2.67889E-07 1.94633E-07
 -1       351 1.52069E-01-1.94816E-02-1.50647E-04-1.18060E-01 2.95038E-07 1.50329E-07
 -1       352 1.84354E-01-5.17659E-02-1.50647E-04-8.57754E-02 3.14922E-07 1.02325E-07
 -1       353 2.05081E-01-7.24937E-02-1.50647E-04-4.50948E-02 3.27052E-07 5.18000E-08
 -1       354-6.27116E-02 1.95383E-01-1.30217E-04-4.19300E-02 4.32826E-08 2.73275E-07
 -1       355-4.34385E-02 1.76110E-01-1.30217E-04-7.97556E-02 8.54994E-08 2.63140E-07
 -1       356-1.34199E-02 1.46091E-01-1.30217E-04-1.09774E-01 1.25611E-07 2.46525E-07
 -1       357 2.44057E-02 1.08266E-01-1.30217E-04-1.29047E-01 1.62630E-07 2.23840E-07
 -1       358 6.63357E-02 6.63357E-02-1.30217E-04-1.35688E-01 1.95644E-07 1.95644E-07
 -1       359 1.08266E-01 2.44057E-02-1.30217E-04-1.29047E-01 2.23840E-07 1.62630E-07
 -1       360 1.46091E-01-1.34199E-02-1.30217E-04-1.09774E-01 2.46525E-07 1.25611E-07
 -1       361 1.76110E-01-4.34385E-02-1.30217E-04-7.97556E-02 2.63140E-07 8.54994E-08
 -1       362 1.95383E-01-6.27116E-02-1.30217E-04-4.19300E-02 2.73276E-07 4.32826E-08
 -1       363-5.39270E-02 1.86668E-01-1.13136E-04-3.90871E-02 3.63062E-08 2.29228E-07
 -1       364-3.59607E-02 1.68702E-01-1.13136E-04-7.43481E-02 7.17184E-08 2.20727E-07
 -1       365-7.97742E-03 1.40719E-01-1.13136E-04-1.02331E-01 1.05365E-07 2.06790E-07
 -1       366 2.72836E-02 1.05458E-01-1.13136E-04-1.20298E-01 1.36417E-07 1.87761E-07
 -1       367 6.63706E-02 6.63706E-02-1.13136E-04-1.26488E-01 1.64109E-07 1.64109E-07
 -1       368 1.05458E-01 2.72836E-02-1.13136E-04-1.20298E-01 1.87761E-07 1.36417E-07
 -1       369 1.40719E-01-7.97742E-03-1.13136E-04-1.02331E-01 2.06790E-07 1.05365E-07
 -1       370 1.68702E-01-3.59607E-02-1.13136E-04-7.43481E-02 2.20727E-07 7.17185E-08
 -1       371 1.86668E-01-5.39270E-02-1.13136E-04-3.90871E-02 2.29228E-07 3.63062E-08
 -1       372-4.60087E-02 1.78809E-01-9.87644E-05-3.65238E-02 3.03008E-08 1.91312E-07
 -1       373-2.92205E-02 1.62021E-01-9.87644E-05-6.94724E-02 5.98554E-08 1.84216E-07
 -1       374-3.07238E-03 1.35873E-01-9.87644E-05-9.56206E-02 8.79363E-08 1.72585E-07
 -1       375 2.98762E-02 1.02924E-01-9.87644E-05-1.12409E-01 1.13852E-07 1.56704E-07
 -1       376 6.64001E-02 6.64001E-02-9.87644E-05-1.18194E-01 1.36964E-07 1.36964E-07
 -1       377 1.02924E-01 2.98762E-02-9.87644E-05-1.12409E-01 1.56704E-07 1.13852E-07
 -1       378 1.35873E-01-3.07238E-03-9.87644E-05-9.56206E-02 1.72585E-07 8.79363E-08
 -1       379 1.62021E-01-2.92205E-02-9.87644E-05-6.94724E-02 1.84216E-07 5.98555E-08
 -1       380 1.78809E-01-4.60087E-02-9.87644E-05-3.65238E-02 1.91312E-07 3.03008E-08
 -1       381-3.88462E-02 1.71696E-01-8.65938E-05-3.42047E-02 2.45421E-08 1.54953E-07
 -1       382-2.31241E-02 1.55974E-01-8.65938E-05-6.50612E-02 4.84800E-08 1.49206E-07
 -1       383 1.36380E-03 1.31486E-01-8.65938E-05-8.95491E-02 7.12241E-08 1.39785E-07
 -1       384 3.22203E-02 1.00630E-01-8.65938E-05-1.05271E-01 9.22144E-08 1.26922E-07
 -1       385 6.64250E-02 6.64250E-02-8.65938E-05-1.10689E-01 1.10934E-07 1.10934E-07
 -1       386 1.00630E-01 3.22203E-02-8.65939E-05-1.05271E-01 1.26922E-07 9.22145E-08
 -1       387 1.31486E-01 1.36380E-03-8.65939E-05-8.95491E-02 1.39785E-07 7.12241E-08
 -1       388 1.55974E-01-2.31241E-02-8.65939E-05-6.50612E-02 1.49206E-07 4.84800E-08
 -1       389 1.71696E-01-3.88462E-02-8.65939E-05-3.42047E-02 1.54953E-07 2.45422E-08
 -1       390-3.23462E-02 1.65239E-01-7.62117E-05-3.20996E-02 1.88158E-08 1.18798E-07
 -1       391-1.75916E-02 1.50484E-01-7.62117E-05-6.10572E-02 3.71683E-08 1.14392E-07
 -1       392 5.38918E-03 1.27503E-01-7.62117E-05-8.40380E-02 5.46056E-08 1.07170E-07
 -1       393 3.43467E-02 9.85460E-02-7.62117E-05-9.87926E-02 7.06983E-08 9.73079E-08
 -1       394 6.64463E-02 6.64463E-02-7.62117E-05-1.03877E-01 8.50502E-08 8.50502E-08
 -1       395 9.85460E-02 3.43467E-02-7.62117E-05-9.87926E-02 9.73079E-08 7.06983E-08
 -1       396 1.27503E-01 5.38918E-03-7.62117E-05-8.40380E-02 1.07170E-07 5.46056E-08
 -1       397 1.50484E-01-1.75916E-02-7.62117E-05-6.10572E-02 1.14392E-07 3.71683E-08
 -1       398 1.65239E-01-3.23462E-02-7.62117E-05-3.20996E-02 1.18798E-07 1.88158E-08
 -1       399-2.64293E-02 1.59359E-01-6.73270E-05-3.01831E-02 1.43943E-08 9.08823E-08
 -1       400-1.25556E-02 1.45485E-01-6.73270E-05-5.74117E-02 2.84342E-08 8.75116E-08
 -1       401 9.05310E-03 1.23876E-01-6.73270E-05-7.90204E-02 4.17740E-08 8.19861E-08
 -1       402 3.62817E-02 9.66479E-02-6.73270E-05-9.28940E-02 5.40851E-08 7.44418E-08
 -1       403 6.64648E-02 6.64648E-02-6.73270E-05-9.76745E-02 6.50646E-08 6.50645E-08
 -1       404 9.66479E-02 3.62817E-02-6.73270E-05-9.28940E-02 7.44418E-08 5.40852E-08
 -1       405 1.23876E-01 9.05310E-03-6.73270E-05-7.90204E-02 8.19861E-08 4.17740E-08
 -1       406 1.45485E-01-1.25556E-02-6.73270E-05-5.74117E-02 8.75116E-08 2.84342E-08
 -1       407 1.59359E-01-2.64293E-02-6.73270E-05-3.01831E-02 9.08823E-08 1.43944E-08
 -1       408-2.10278E-02 1.53989E-01-5.96806E-05-2.84332E-02 2.40412E-08 1.51790E-07
 -1       409-7.95847E-03 1.40920E-01-5.96806E-05-5.40832E-02 4.74905E-08 1.46161E-07
 -1       410 1.23975E-02 1.20564E-01-5.96806E-05-7.44391E-02 6.97704E-08 1.36932E-07
 -1       411 3.80474E-02 9.49138E-02-5.96806E-05-8.75084E-02 9.03323E-08 1.24332E-07
 -1       412 6.64806E-02 6.64806E-02-5.96806E-05-9.20118E-02 1.08670E-07 1.08670E-07
 -1       413 9.49138E-02 3.80474E-02-5.96807E-05-8.75084E-02 1.24332E-07 9.03323E-08
 -1       414 1.20564E-01 1.23975E-02-5.96807E-05-7.44391E-02 1.36932E-07 6.97704E-08
 -1       415 1.40920E-01-7.95847E-03-5.96807E-05-5.40832E-02 1.46161E-07 4.74905E-08
 -1       416 1.53989E-01-2.10278E-02-5.96807E-05-2.84332E-02 1.51790E-07 2.40413E-08
 -1       417-1.60856E-02 1.49071E-01-5.38422E-05-2.68314E-02 6.83394E-08 4.31478E-07
 -1       418-3.75256E-03 1.36738E-01-5.38422E-05-5.10363E-02 1.34996E-07 4.15475E-07
 -1       419 1.54566E-02 1.17529E-01-5.38422E-05-7.02455E-02 1.98329E-07 3.89242E-07
 -1       420 3.96615E-02 9.33243E-02-5.38422E-05-8.25785E-02 2.56778E-07 3.53424E-07
 -1       421 6.64929E-02 6.64929E-02-5.38422E-05-8.68282E-02 3.08904E-07 3.08904E-07
 -1       422 9.33243E-02 3.96615E-02-5.38422E-05-8.25785E-02 3.53424E-07 2.56778E-07
 -1       423 1.17529E-01 1.54566E-02-5.38422E-05-7.02455E-02 3.89242E-07 1.98329E-07
 -1       424 1.36738E-01-3.75256E-03-5.38422E-05-5.10363E-02 4.15475E-07 1.34996E-07
 -1       425 1.49071E-01-1.60856E-02-5.38422E-05-2.68314E-02 4.31478E-07 6.83394E-08
 -1       426-1.15571E-02 1.44555E-01-4.86131E-05-2.53620E-02 2.26086E-07 1.42745E-06
 -1       427 1.00514E-04 1.32898E-01-4.86131E-05-4.82414E-02 4.46606E-07 1.37451E-06
 -1       428 1.82577E-02 1.14740E-01-4.86131E-05-6.63986E-02 6.56129E-07 1.28772E-06
 -1       429 4.11371E-02 9.18611E-02-4.86131E-05-7.80562E-02 8.49495E-07 1.16923E-06
 -1       430 6.64991E-02 6.64991E-02-4.86131E-05-8.20731E-02 1.02194E-06 1.02194E-06
 -1       431 9.18611E-02 4.11371E-02-4.86131E-05-7.80562E-02 1.16923E-06 8.49495E-07
 -1       432 1.14740E-01 1.82577E-02-4.86131E-05-6.63986E-02 1.28772E-06 6.56129E-07
 -1       433 1.32898E-01 1.00514E-04-4.86131E-05-4.82414E-02 1.37451E-06 4.46606E-07
 -1       434 1.44555E-01-1.15571E-02-4.86131E-05-2.53620E-02 1.42745E-06 2.26086E-07
 -1       435-7.41436E-03 1.40389E-01-5.39840E-05-2.40121E-02 4.94076E-07 3.11947E-06
 -1       436 3.62281E-03 1.29352E-01-5.39840E-05-4.56738E-02 9.75986E-07 3.00378E-06
 -1       437 2.08136E-02 1.12161E-01-5.39840E-05-6.28646E-02 1.43386E-06 2.81412E-06
 -1       438 4.24753E-02 9.04996E-02-5.39840E-05-7.39018E-02 1.85644E-06 2.55517E-06
 -1       439 6.64874E-02 6.64874E-02-5.39840E-05-7.77049E-02 2.23330E-06 2.23330E-06
 -1       440 9.04996E-02 4.24753E-02-5.39840E-05-7.39018E-02 2.55517E-06 1.85644E-06
 -1       441 1.12161E-01 2.08136E-02-5.39840E-05-6.28646E-02 2.81412E-06 1.43386E-06
 -1       442 1.29352E-01 3.62281E-03-5.39840E-05-4.56738E-02 3.00378E-06 9.75986E-07
 -1       443 1.40389E-01-7.41436E-03-5.39840E-05-2.40121E-02 3.11947E-06 4.94076E-07
 -1       444-3.62891E-03 1.36543E-01-3.25544E-05-2.27723E-02 3.70330E-07 2.33817E-06
 -1       445 6.83837E-03 1.26076E-01-3.25544E-05-4.33155E-02 7.31542E-07 2.25145E-06
 -1       446 2.31416E-02 1.09773E-01-3.25544E-05-5.96187E-02 1.07474E-06 2.10930E-06
 -1       447 4.36848E-02 8.92294E-02-3.25544E-05-7.00860E-02 1.39147E-06 1.91520E-06
 -1       448 6.64571E-02 6.64571E-02-3.25544E-05-7.36928E-02 1.67395E-06 1.67395E-06
 -1       449 8.92294E-02 4.36848E-02-3.25544E-05-7.00860E-02 1.91520E-06 1.39147E-06
 -1       450 1.09773E-01 2.31416E-02-3.25544E-05-5.96187E-02 2.10930E-06 1.07474E-06
 -1       451 1.26076E-01 6.83837E-03-3.25544E-05-4.33155E-02 2.25145E-06 7.31541E-07
 -1       452 1.36543E-01-3.62891E-03-3.25544E-05-2.27723E-02 2.33817E-06 3.70330E-07
 -1       453-2.45532E-04 1.32893E-01-2.07047E-04-2.16297E-02-3.88515E-06-2.45298E-05
 -1       454 9.69655E-03 1.22951E-01-2.07047E-04-4.11421E-02-7.67463E-06-2.36201E-05
 -1       455 2.51817E-02 1.07466E-01-2.07047E-04-5.66273E-02-1.12751E-05-2.21287E-05
 -1       456 4.46942E-02 8.79536E-02-2.07047E-04-6.65694E-02-1.45980E-05-2.00924E-05
 -1       457 6.63239E-02 6.63239E-02-2.07047E-04-6.99952E-02-1.75614E-05-1.75614E-05
 -1       458 8.79536E-02 4.46942E-02-2.07047E-04-6.65694E-02-2.00924E-05-1.45980E-05
 -1       459 1.07466E-01 2.51817E-02-2.07047E-04-5.66273E-02-2.21287E-05-1.12751E-05
 -1       460 1.22951E-01 9.69655E-03-2.07047E-04-4.11421E-02-2.36201E-05-7.67463E-06
 -1       461 1.32893E-01-2.45533E-04-2.07047E-04-2.16297E-02-2.45298E-05-3.88515E-06
 -1       462-8.18777E-01 9.39619E-01-4.39389E-04-6.91920E-02-5.38062E-04-8.27384E-04
 -1       463-8.22999E-01 9.37545E-01-4.47398E-03-6.92766E-02-3.89057E-04-1.16965E-03
 -1       464-8.25163E-01 9.36188E-01-7.63529E-03-6.93083E-02-2.60978E-04-1.14245E-03
 -1       465-8.26210E-01 9.35422E-01-9.57724E-03-6.93194E-02-1.49581E-04-7.95224E-04
 -1       466-8.26631E-01 9.35085E-01-1.04741E-02-6.93227E-02-4.86760E-05-2.81496E-04
 -1       467-8.26631E-01 9.35085E-01-1.04741E-02-6.93227E-02 4.86760E-05 2.81496E-04
 -1       468-8.26210E-01 9.35422E-01-9.57724E-03-6.93194E-02 1.49581E-04 7.95224E-04
 -1       469-8.25163E-01 9.36188E-01-7.63529E-03-6.93083E-02 2.60978E-04 1.14245E-03
 -1       470-8.22999E-01 9.37545E-01-4.47398E-03-6.92766E-02 3.89057E-04 1.16965E-03
 -1       471-8.18777E-01 9.39619E-01-4.39389E-04-6.91920E-02 5.38062E-04 8.27384E-04
 -1       472-6.79539E-01 7.98865E-01-4.48456E-03-5.81745E-02-5.61379E-05 6.09972E-04
 -1       473-6.81283E-01 7.98880E-01-3.22817E-03-5.82437E-02-6.66377E-05 1.16617E-03
 -1       474-6.82236E-01 7.98867E-01-2.82685E-03-5.82807E-02-6.03820E-05 8.82764E-04
 -1       475-6.82736E-01 7.98811E-01-2.86578E-03-5.82981E-02-4.12004E-05 4.91616E-04
 -1       476-6.82950E-01 7.98768E-01-2.97229E-03-5.83049E-02-1.45346E-05 1.53353E-04
 -1       477-6.82950E-01 7.98768E-01-2.97229E-03-5.83049E-02 1.45346E-05-1.53353E-04
 -1       478-6.82736E-01 7.98811E-01-2.86578E-03-5.82981E-02 4.12004E-05-4.91616E-04
 -1       479-6.82236E-01 7.98867E-01-2.82685E-03-5.82807E-02 6.03820E-05-8.82764E-04
 -1       480-6.81283E-01 7.98880E-01-3.22817E-03-5.82437E-02 6.66377E-05-1.16617E-03
 -1       481-6.79539E-01 7.98865E-01-4.48456E-03-5.81745E-02 5.61379E-05-6.09972E-04
 -1       482-5.67973E-01 6.91761E-01-2.41298E-03-4.95699E-02 2.75844E-05 4.46012E-04
 -1       483-5.69126E-01 6.91392E-01-2.54400E-03-4.96008E-02 2.54935E-05 7.19408E-04
 -1       484-5.69982E-01 6.91263E-01-2.24764E-03-4.96294E-02 1.80506E-05 7.73376E-04
 -1       485-5.70511E-01 6.91229E-01-1.96044E-03-4.96489E-02 1.01251E-05 5.56133E-04
 -1       486-5.70759E-01 6.91223E-01-1.80790E-03-4.96584E-02 3.19783E-06 1.98731E-04
 -1       487-5.70759E-01 6.91223E-01-1.80790E-03-4.96584E-02-3.19783E-06-1.98731E-04
 -1       488-5.70511E-01 6.91229E-01-1.96044E-03-4.96489E-02-1.01251E-05-5.56133E-04
 -1       489-5.69982E-01 6.91263E-01-2.24764E-03-4.96294E-02-1.80506E-05-7.73376E-04
 -1       490-5.69126E-01 6.91392E-01-2.54400E-03-4.96008E-02-2.54935E-05-7.19408E-04
 -1       491-5.67973E-01 6.91761E-01-2.41298E-03-4.95699E-02-2.75844E-05-4.46012E-04
 -1       492-4.80709E-01 6.05863E-01-1.97181E-03-4.27561E-02 2.25273E-05 1.60424E-04
 -1       493-4.80847E-01 6.05848E-01-1.87298E-03-4.27609E-02 2.22152E-05 2.76215E-04
 -1       494-4.81142E-01 6.05777E-01-1.82178E-03-4.27697E-02 1.87520E-05 2.90414E-04
 -1       495-4.81403E-01 6.05728E-01-1.74046E-03-4.27781E-02 1.23909E-05 2.23505E-04
 -1       496-4.81549E-01 6.05706E-01-1.68115E-03-4.27829E-02 4.31199E-06 8.37405E-05
 -1       497-4.81549E-01 6.05706E-01-1.68115E-03-4.27829E-02-4.31199E-06-8.37405E-05
 -1       498-4.81403E-01 6.05728E-01-1.74046E-03-4.27781E-02-1.23909E-05-2.23505E-04
 -1       499-4.81142E-01 6.05777E-01-1.82178E-03-4.27697E-02-1.87520E-05-2.90414E-04
 -1       500-4.80847E-01 6.05848E-01-1.87298E-03-4.27609E-02-2.22152E-05-2.76215E-04
 -1       501-4.80709E-01 6.05863E-01-1.97181E-03-4.27561E-02-2.25273E-05-1.60424E-04
 -1       502-4.09854E-01 5.36652E-01-1.54301E-03-3.72445E-02 1.25576E-05 3.71790E-05
 -1       503-4.09866E-01 5.36645E-01-1.53315E-03-3.72447E-02 1.12686E-05 6.08015E-05
 -1       504-4.09900E-01 5.36640E-01-1.50265E-03-3.72459E-02 9.21015E-06 6.92047E-05
 -1       505-4.09952E-01 5.36627E-01-1.48521E-03-3.72474E-02 6.11087E-06 5.26160E-05
 -1       506-4.09988E-01 5.36618E-01-1.47563E-03-3.72485E-02 2.14622E-06 1.96814E-05
 -1       507-4.09988E-01 5.36618E-01-1.47563E-03-3.72485E-02-2.14622E-06-1.96814E-05
 -1       508-4.09952E-01 5.36627E-01-1.48521E-03-3.72474E-02-6.11087E-06-5.26160E-05
 -1       509-4.09900E-01 5.36640E-01-1.50265E-03-3.72459E-02-9.21015E-06-6.92047E-05
 -1       510-4.09866E-01 5.36645E-01-1.53315E-03-3.72447E-02-1.12686E-05-6.08015E-05
 -1       511-4.09854E-01 5.36652E-01-1.54301E-03-3.72445E-02-1.25576E-05-3.71790E-05
 -1       512-3.51815E-01 4.79976E-01-1.21976E-03-3.27306E-02 5.78191E-06-1.90089E-07
 -1       513-3.51783E-01 4.79982E-01-1.21756E-03-3.27296E-02 4.94149E-06-8.05960E-07
 -1       514-3.51770E-01 4.79983E-01-1.21734E-03-3.27291E-02 3.81555E-06 6.81212E-07
 -1       515-3.51765E-01 4.79983E-01-1.21422E-03-3.27289E-02 2.42812E-06 1.83715E-06
 -1       516-3.51764E-01 4.79983E-01-1.21277E-03-3.27288E-02 8.36054E-07 8.58090E-07
 -1       517-3.51764E-01 4.79983E-01-1.21277E-03-3.27288E-02-8.36054E-07-8.58090E-07
 -1       518-3.51765E-01 4.79983E-01-1.21422E-03-3.27289E-02-2.42812E-06-1.83715E-06
 -1       519-3.51770E-01 4.79983E-01-1.21734E-03-3.27291E-02-3.81555E-06-6.81212E-07
 -1       520-3.51783E-01 4.79982E-01-1.21756E-03-3.27296E-02-4.94149E-06 8.05960E-07
 -1       521-3.51815E-01 4.79976E-01-1.21976E-03-3.27306E-02-5.78191E-06 1.90089E-07
 -1       522-3.03732E-01 4.32974E-01-9.63261E-04-2.89890E-02 2.89645E-06-5.51040E-06
 -1       523-3.03710E-01 4.32978E-01-9.64717E-04-2.89883E-02 2.26738E-06-9.47691E-06
 -1       524-3.03692E-01 4.32981E-01-9.66414E-04-2.89877E-02 1.65421E-06-9.26677E-06
 -1       525-3.03681E-01 4.32982E-01-9.68383E-04-2.89874E-02 1.01041E-06-6.53272E-06
 -1       526-3.03676E-01 4.32983E-01-9.69196E-04-2.89872E-02 3.40008E-07-2.30455E-06
 -1       527-3.03676E-01 4.32983E-01-9.69196E-04-2.89872E-02-3.40008E-07 2.30455E-06
 -1       528-3.03681E-01 4.32982E-01-9.68383E-04-2.89874E-02-1.01041E-06 6.53272E-06
 -1       529-3.03692E-01 4.32981E-01-9.66414E-04-2.89877E-02-1.65421E-06 9.26677E-06
 -1       530-3.03710E-01 4.32978E-01-9.64717E-04-2.89883E-02-2.26738E-06 9.47691E-06
 -1       531-3.03732E-01 4.32974E-01-9.63261E-04-2.89890E-02-2.89645E-06 5.51040E-06
 -1       532-2.63489E-01 3.93551E-01-7.66465E-04-2.58542E-02 1.79886E-06-3.53911E-06
 -1       533-2.63477E-01 3.93553E-01-7.67394E-04-2.58538E-02 1.35467E-06-5.98286E-06
 -1       534-2.63467E-01 3.93555E-01-7.68874E-04-2.58535E-02 9.42028E-07-6.15706E-06
 -1       535-2.63459E-01 3.93556E-01-7.70131E-04-2.58532E-02 5.56292E-07-4.46961E-06
 -1       536-2.63456E-01 3.93556E-01-7.70953E-04-2.58531E-02 1.84100E-07-1.63009E-06
 -1       537-2.63456E-01 3.93556E-01-7.70953E-04-2.58531E-02-1.84100E-07 1.63009E-06
 -1       538-2.63459E-01 3.93556E-01-7.70131E-04-2.58532E-02-5.56292E-07 4.46961E-06
 -1       539-2.63467E-01 3.93555E-01-7.68874E-04-2.58535E-02-9.42028E-07 6.15706E-06
 -1       540-2.63477E-01 3.93553E-01-7.67394E-04-2.58538E-02-1.35467E-06 5.98286E-06
 -1       541-2.63489E-01 3.93551E-01-7.66465E-04-2.58542E-02-1.79886E-06 3.53911E-06
 -1       542-2.29477E-01 3.60158E-01-6.16353E-04-2.32019E-02 1.34236E-06-1.60239E-06
 -1       543-2.29471E-01 3.60159E-01-6.16766E-04-2.32017E-02 1.01101E-06-2.68639E-06
 -1       544-2.29466E-01 3.60160E-01-6.17374E-04-2.32015E-02 7.02375E-07-2.80018E-06
 -1       545-2.29462E-01 3.60160E-01-6.17968E-04-2.32014E-02 4.12543E-07-2.06846E-06
 -1       546-2.29460E-01 3.60161E-01-6.18299E-04-2.32013E-02 1.35964E-07-7.55288E-07
 -1       547-2.29460E-01 3.60161E-01-6.18299E-04-2.32013E-02-1.35964E-07 7.55288E-07
 -1       548-2.29462E-01 3.60160E-01-6.17968E-04-2.32014E-02-4.12543E-07 2.06846E-06
 -1       549-2.29466E-01 3.60160E-01-6.17374E-04-2.32015E-02-7.02375E-07 2.80018E-06
 -1       550-2.29471E-01 3.60159E-01-6.16766E-04-2.32017E-02-1.01101E-06 2.68639E-06
 -1       551-2.29477E-01 3.60158E-01-6.16353E-04-2.32019E-02-1.34236E-06 1.60239E-06
 -1       552-2.00474E-01 3.31626E-01-5.01292E-04-2.09379E-02 1.07136E-06-6.54570E-07
 -1       553-2.00470E-01 3.31627E-01-5.01419E-04-2.09378E-02 8.18066E-07-1.08339E-06
 -1       554-2.00467E-01 3.31627E-01-5.01613E-04-2.09377E-02 5.74535E-07-1.13131E-06
 -1       555-2.00465E-01 3.31627E-01-5.01795E-04-2.09376E-02 3.40407E-07-8.36205E-07
 -1       556-2.00464E-01 3.31628E-01-5.01909E-04-2.09376E-02 1.12695E-07-3.07155E-07
 -1       557-2.00464E-01 3.31628E-01-5.01909E-04-2.09376E-02-1.12695E-07 3.07155E-07
 -1       558-2.00465E-01 3.31627E-01-5.01795E-04-2.09376E-02-3.40407E-07 8.36205E-07
 -1       559-2.00467E-01 3.31627E-01-5.01613E-04-2.09377E-02-5.74535E-07 1.13131E-06
 -1       560-2.00470E-01 3.31627E-01-5.01419E-04-2.09378E-02-8.18066E-07 1.08339E-06
 -1       561-2.00474E-01 3.31626E-01-5.01292E-04-2.09379E-02-1.07136E-06 6.54570E-07
 -1       562-1.75539E-01 3.07057E-01-4.12031E-04-1.89899E-02 8.63229E-07-3.05071E-07
 -1       563-1.75536E-01 3.07057E-01-4.12061E-04-1.89898E-02 6.65229E-07-4.97677E-07
 -1       564-1.75534E-01 3.07057E-01-4.12108E-04-1.89897E-02 4.71284E-07-5.09876E-07
 -1       565-1.75533E-01 3.07057E-01-4.12155E-04-1.89897E-02 2.81014E-07-3.72673E-07
 -1       566-1.75532E-01 3.07057E-01-4.12182E-04-1.89897E-02 9.33623E-08-1.35714E-07
 -1       567-1.75532E-01 3.07057E-01-4.12182E-04-1.89897E-02-9.33623E-08 1.35714E-07
 -1       568-1.75533E-01 3.07057E-01-4.12155E-04-1.89897E-02-2.81014E-07 3.72673E-07
 -1       569-1.75534E-01 3.07057E-01-4.12108E-04-1.89897E-02-4.71284E-07 5.09876E-07
 -1       570-1.75536E-01 3.07057E-01-4.12061E-04-1.89898E-02-6.65229E-07 4.97677E-07
 -1       571-1.75539E-01 3.07057E-01-4.12031E-04-1.89899E-02-8.63229E-07 3.05071E-07
 -1       572-1.53944E-01 2.85749E-01-3.41880E-04-1.73017E-02 6.93812E-07-1.90288E-07
 -1       573-1.53942E-01 2.85749E-01-3.41887E-04-1.73016E-02 5.36948E-07-3.06932E-07
 -1       574-1.53941E-01 2.85749E-01-3.41900E-04-1.73016E-02 3.81923E-07-3.07519E-07
 -1       575-1.53940E-01 2.85749E-01-3.41913E-04-1.73015E-02 2.28458E-07-2.20838E-07
 -1       576-1.53939E-01 2.85749E-01-3.41920E-04-1.73015E-02 7.60294E-08-7.98234E-08
 -1       577-1.53939E-01 2.85749E-01-3.41920E-04-1.73015E-02-7.60294E-08 7.98234E-08
 -1       578-1.53940E-01 2.85749E-01-3.41913E-04-1.73015E-02-2.28458E-07 2.20838E-07
 -1       579-1.53941E-01 2.85749E-01-3.41900E-04-1.73016E-02-3.81923E-07 3.07519E-07
 -1       580-1.53942E-01 2.85749E-01-3.41887E-04-1.73016E-02-5.36948E-07 3.06932E-07
 -1       581-1.53944E-01 2.85749E-01-3.41880E-04-1.73017E-02-6.93812E-07 1.90288E-07
 -1       582-1.35117E-01 2.67151E-01-2.86082E-04-1.58290E-02 5.58169E-07-1.44444E-07
 -1       583-1.35116E-01 2.67151E-01-2.86087E-04-1.58290E-02 4.32570E-07-2.31624E-07
 -1       584-1.35115E-01 2.67151E-01-2.86095E-04-1.58290E-02 3.08110E-07-2.29683E-07
 -1       585-1.35114E-01 2.67151E-01-2.86103E-04-1.58289E-02 1.84506E-07-1.63647E-07
 -1       586-1.35114E-01 2.67151E-01-2.86108E-04-1.58289E-02 6.14413E-08-5.88614E-08
 -1       587-1.35114E-01 2.67151E-01-2.86108E-04-1.58289E-02-6.14413E-08 5.88614E-08
 -1       588-1.35114E-01 2.67151E-01-2.86103E-04-1.58289E-02-1.84506E-07 1.63647E-07
 -1       589-1.35115E-01 2.67151E-01-2.86095E-04-1.58290E-02-3.08110E-07 2.29683E-07
 -1       590-1.35116E-01 2.67151E-01-2.86087E-04-1.58290E-02-4.32570E-07 2.31624E-07
 -1       591-1.35117E-01 2.67151E-01-2.86082E-04-1.58290E-02-5.58170E-07 1.44444E-07
 -1       592-1.18604E-01 2.50822E-01-2.41227E-04-1.45367E-02 4.51476E-07-1.15001E-07
 -1       593-1.18603E-01 2.50822E-01-2.41232E-04-1.45367E-02 3.49999E-07-1.83446E-07
 -1       594-1.18603E-01 2.50822E-01-2.41241E-04-1.45367E-02 2.49377E-07-1.81539E-07
 -1       595-1.18602E-01 2.50822E-01-2.41249E-04-1.45366E-02 1.49375E-07-1.29162E-07
 -1       596-1.18602E-01 2.50822E-01-2.41254E-04-1.45366E-02 4.97496E-08-4.64334E-08
 -1       597-1.18602E-01 2.50822E-01-2.41254E-04-1.45366E-02-4.97496E-08 4.64334E-08
 -1       598-1.18602E-01 2.50822E-01-2.41249E-04-1.45366E-02-1.49375E-07 1.29162E-07
 -1       599-1.18603E-01 2.50822E-01-2.41241E-04-1.45367E-02-2.49377E-07 1.81539E-07
 -1       600-1.18603E-01 2.50822E-01-2.41232E-04-1.45367E-02-3.49999E-07 1.83446E-07
 -1       601-1.18604E-01 2.50822E-01-2.41227E-04-1.45367E-02-4.51476E-07 1.15001E-07
 -1       602-1.04041E-01 2.36407E-01-2.04831E-04-1.33965E-02 3.67987E-07-9.08570E-08
 -1       603-1.04040E-01 2.36407E-01-2.04836E-04-1.33965E-02 2.85306E-07-1.43986E-07
 -1       604-1.04040E-01 2.36407E-01-2.04844E-04-1.33964E-02 2.03298E-07-1.42404E-07
 -1       605-1.04039E-01 2.36408E-01-2.04851E-04-1.33964E-02 1.21780E-07-1.01341E-07
 -1       606-1.04039E-01 2.36408E-01-2.04855E-04-1.33964E-02 4.05603E-08-3.64364E-08
 -1       607-1.04039E-01 2.36408E-01-2.04855E-04-1.33964E-02-4.05603E-08 3.64364E-08
 -1       608-1.04039E-01 2.36408E-01-2.04851E-04-1.33964E-02-1.21780E-07 1.01341E-07
 -1       609-1.04040E-01 2.36407E-01-2.04844E-04-1.33964E-02-2.03298E-07 1.42404E-07
 -1       610-1.04040E-01 2.36407E-01-2.04836E-04-1.33965E-02-2.85306E-07 1.43986E-07
 -1       611-1.04041E-01 2.36407E-01-2.04831E-04-1.33965E-02-3.67987E-07 9.08570E-08
 -1       612-9.11320E-02 2.23620E-01-1.75048E-04-1.23853E-02 3.02375E-07-7.09447E-08
 -1       613-9.11314E-02 2.23620E-01-1.75052E-04-1.23853E-02 2.34470E-07-1.11530E-07
 -1       614-9.11309E-02 2.23620E-01-1.75059E-04-1.23853E-02 1.67091E-07-1.10156E-07
 -1       615-9.11305E-02 2.23620E-01-1.75065E-04-1.23853E-02 1.00098E-07-7.83744E-08
 -1       616-9.11303E-02 2.23620E-01-1.75068E-04-1.23853E-02 3.33397E-08-2.81801E-08
 -1       617-9.11303E-02 2.23620E-01-1.75068E-04-1.23853E-02-3.33397E-08 2.81801E-08
 -1       618-9.11305E-02 2.23620E-01-1.75065E-04-1.23853E-02-1.00098E-07 7.83744E-08
 -1       619-9.11309E-02 2.23620E-01-1.75059E-04-1.23853E-02-1.67091E-07 1.10156E-07
 -1       620-9.11314E-02 2.23620E-01-1.75052E-04-1.23853E-02-2.34470E-07 1.11530E-07
 -1       621-9.11320E-02 2.23620E-01-1.75048E-04-1.23853E-02-3.02375E-07 7.09447E-08
 -1       622-7.96353E-02 2.12224E-01-1.50488E-04-1.14845E-02 2.50359E-07-5.51041E-08
 -1       623-7.96348E-02 2.12224E-01-1.50491E-04-1.14845E-02 1.94176E-07-8.58258E-08
 -1       624-7.96344E-02 2.12224E-01-1.50496E-04-1.14845E-02 1.38396E-07-8.45731E-08
 -1       625-7.96341E-02 2.12224E-01-1.50501E-04-1.14845E-02 8.29157E-08-6.01241E-08
 -1       626-7.96340E-02 2.12224E-01-1.50504E-04-1.14845E-02 2.76180E-08-2.16117E-08
 -1       627-7.96340E-02 2.12224E-01-1.50504E-04-1.14845E-02-2.76180E-08 2.16117E-08
 -1       628-7.96341E-02 2.12224E-01-1.50501E-04-1.14845E-02-8.29157E-08 6.01241E-08
 -1       629-7.96344E-02 2.12224E-01-1.50496E-04-1.14845E-02-1.38396E-07 8.45731E-08
 -1       630-7.96348E-02 2.12224E-01-1.50491E-04-1.14845E-02-1.94176E-07 8.58258E-08
 -1       631-7.96353E-02 2.12224E-01-1.50488E-04-1.14845E-02-2.50359E-07 5.51041E-08
 -1       632-6.93521E-02 2.02024E-01-1.30089E-04-1.06785E-02 2.08670E-07-4.29177E-08
 -1       633-6.93517E-02 2.02024E-01-1.30091E-04-1.06785E-02 1.61865E-07-6.61663E-08
 -1       634-6.93514E-02 2.02024E-01-1.30095E-04-1.06785E-02 1.15376E-07-6.50726E-08
 -1       635-6.93511E-02 2.02024E-01-1.30099E-04-1.06785E-02 6.91267E-08-4.62421E-08
 -1       636-6.93510E-02 2.02024E-01-1.30101E-04-1.06785E-02 2.30254E-08-1.66227E-08
 -1       637-6.93510E-02 2.02024E-01-1.30101E-04-1.06785E-02-2.30254E-08 1.66227E-08
 -1       638-6.93511E-02 2.02024E-01-1.30099E-04-1.06785E-02-6.91267E-08 4.62421E-08
 -1       639-6.93514E-02 2.02024E-01-1.30095E-04-1.06785E-02-1.15376E-07 6.50726E-08
 -1       640-6.93517E-02 2.02024E-01-1.30091E-04-1.06785E-02-1.61865E-07 6.61663E-08
 -1       641-6.93521E-02 2.02024E-01-1.30089E-04-1.06785E-02-2.08670E-07 4.29177E-08
 -1       642-6.01174E-02 1.92859E-01-1.13031E-04-9.95451E-03 1.74766E-07-3.47828E-08
 -1       643-6.01170E-02 1.92859E-01-1.13033E-04-9.95450E-03 1.35524E-07-5.32298E-08
 -1       644-6.01167E-02 1.92859E-01-1.13035E-04-9.95449E-03 9.65690E-08-5.25290E-08
 -1       645-6.01166E-02 1.92859E-01-1.13037E-04-9.95448E-03 5.78416E-08-3.74789E-08
 -1       646-6.01165E-02 1.92859E-01-1.13038E-04-9.95448E-03 1.92634E-08-1.34988E-08
 -1       647-6.01165E-02 1.92859E-01-1.13038E-04-9.95448E-03-1.92634E-08 1.34988E-08
 -1       648-6.01166E-02 1.92859E-01-1.13037E-04-9.95448E-03-5.78416E-08 3.74789E-08
 -1       649-6.01167E-02 1.92859E-01-1.13035E-04-9.95449E-03-9.65690E-08 5.25290E-08
 -1       650-6.01170E-02 1.92859E-01-1.13033E-04-9.95450E-03-1.35524E-07 5.32298E-08
 -1       651-6.01174E-02 1.92859E-01-1.13031E-04-9.95451E-03-1.74766E-07 3.47828E-08
 -1       652-5.17931E-02 1.84594E-01-9.86758E-05-9.30171E-03 1.46607E-07-3.38624E-08
 -1       653-5.17928E-02 1.84594E-01-9.86743E-05-9.30170E-03 1.13502E-07-5.23597E-08
 -1       654-5.17926E-02 1.84594E-01-9.86722E-05-9.30169E-03 8.07488E-08-5.26488E-08
 -1       655-5.17925E-02 1.84594E-01-9.86703E-05-9.30169E-03 4.83093E-08-3.80695E-08
 -1       656-5.17924E-02 1.84594E-01-9.86689E-05-9.30169E-03 1.60783E-08-1.38272E-08
 -1       657-5.17924E-02 1.84594E-01-9.86689E-05-9.30169E-03-1.60783E-08 1.38272E-08
 -1       658-5.17925E-02 1.84594E-01-9.86703E-05-9.30169E-03-4.83093E-08 3.80695E-08
 -1       659-5.17926E-02 1.84594E-01-9.86722E-05-9.30169E-03-8.07488E-08 5.26488E-08
 -1       660-5.17928E-02 1.84594E-01-9.86743E-05-9.30170E-03-1.13502E-07 5.23597E-08
 -1       661-5.17931E-02 1.84594E-01-9.86758E-05-9.30171E-03-1.46607E-07 3.38624E-08
 -1       662-4.42634E-02 1.77114E-01-8.65184E-05-8.71109E-03 1.22918E-07-4.77984E-08
 -1       663-4.42632E-02 1.77114E-01-8.65090E-05-8.71108E-03 9.47531E-08-7.65623E-08
 -1       664-4.42631E-02 1.77114E-01-8.64958E-05-8.71108E-03 6.71754E-08-7.84898E-08
 -1       665-4.42630E-02 1.77114E-01-8.64829E-05-8.71107E-03 4.00796E-08-5.74931E-08
 -1       666-4.42630E-02 1.77114E-01-8.64758E-05-8.71107E-03 1.33205E-08-2.09227E-08
 -1       667-4.42630E-02 1.77114E-01-8.64758E-05-8.71107E-03-1.33205E-08 2.09227E-08
 -1       668-4.42630E-02 1.77114E-01-8.64829E-05-8.71107E-03-4.00796E-08 5.74931E-08
 -1       669-4.42631E-02 1.77114E-01-8.64958E-05-8.71108E-03-6.71754E-08 7.84898E-08
 -1       670-4.42632E-02 1.77114E-01-8.65090E-05-8.71108E-03-9.47531E-08 7.65623E-08
 -1       671-4.42634E-02 1.77114E-01-8.65184E-05-8.71109E-03-1.22918E-07 4.77984E-08
 -1       672-3.74301E-02 1.70323E-01-7.61648E-05-8.17499E-03 1.04796E-07-8.38160E-08
 -1       673-3.74301E-02 1.70323E-01-7.61415E-05-8.17498E-03 8.05295E-08-1.37969E-07
 -1       674-3.74300E-02 1.70323E-01-7.61065E-05-8.17498E-03 5.69594E-08-1.41061E-07
 -1       675-3.74300E-02 1.70323E-01-7.60771E-05-8.17498E-03 3.39824E-08-1.02142E-07
 -1       676-3.74300E-02 1.70323E-01-7.60580E-05-8.17498E-03 1.12991E-08-3.72273E-08
 -1       677-3.74300E-02 1.70323E-01-7.60580E-05-8.17498E-03-1.12991E-08 3.72273E-08
 -1       678-3.74300E-02 1.70323E-01-7.60771E-05-8.17498E-03-3.39825E-08 1.02142E-07
 -1       679-3.74300E-02 1.70323E-01-7.61065E-05-8.17498E-03-5.69594E-08 1.41061E-07
 -1       680-3.74301E-02 1.70323E-01-7.61415E-05-8.17498E-03-8.05295E-08 1.37969E-07
 -1       681-3.74301E-02 1.70323E-01-7.61648E-05-8.17499E-03-1.04796E-07 8.38160E-08
 -1       682-3.12099E-02 1.64139E-01-6.73414E-05-7.68690E-03 1.00392E-07-1.17469E-07
 -1       683-3.12101E-02 1.64139E-01-6.73052E-05-7.68690E-03 7.86361E-08-1.96221E-07
 -1       684-3.12102E-02 1.64139E-01-6.72660E-05-7.68690E-03 5.70795E-08-1.89626E-07
 -1       685-3.12102E-02 1.64139E-01-6.72221E-05-7.68690E-03 3.47091E-08-1.32840E-07
 -1       686-3.12102E-02 1.64139E-01-6.72044E-05-7.68690E-03 1.16523E-08-4.66300E-08
 -1       687-3.12102E-02 1.64139E-01-6.72044E-05-7.68690E-03-1.16523E-08 4.66300E-08
 -1       688-3.12102E-02 1.64139E-01-6.72221E-05-7.68690E-03-3.47091E-08 1.32840E-07
 -1       689-3.12102E-02 1.64139E-01-6.72660E-05-7.68690E-03-5.70795E-08 1.89626E-07
 -1       690-3.12101E-02 1.64139E-01-6.73052E-05-7.68690E-03-7.86362E-08 1.96221E-07
 -1       691-3.12099E-02 1.64139E-01-6.73414E-05-7.68690E-03-1.00392E-07 1.17469E-07
 -1       692-2.55318E-02 1.58492E-01-5.99401E-05-7.24125E-03 1.30948E-07 1.23721E-08
 -1       693-2.55321E-02 1.58492E-01-5.99912E-05-7.24126E-03 1.11940E-07 2.26238E-08
 -1       694-2.55321E-02 1.58492E-01-6.00079E-05-7.24126E-03 8.64511E-08 5.96384E-08
 -1       695-2.55320E-02 1.58492E-01-6.00885E-05-7.24125E-03 5.50022E-08 7.37714E-08
 -1       696-2.55319E-02 1.58492E-01-6.01278E-05-7.24125E-03 1.89330E-08 3.10886E-08
 -1       697-2.55319E-02 1.58492E-01-6.01278E-05-7.24125E-03-1.89330E-08-3.10886E-08
 -1       698-2.55320E-02 1.58492E-01-6.00885E-05-7.24125E-03-5.50023E-08-7.37714E-08
 -1       699-2.55321E-02 1.58492E-01-6.00079E-05-7.24126E-03-8.64511E-08-5.96384E-08
 -1       700-2.55321E-02 1.58492E-01-5.99912E-05-7.24126E-03-1.11940E-07-2.26238E-08
 -1       701-2.55318E-02 1.58492E-01-5.99401E-05-7.24125E-03-1.30948E-07-1.23721E-08
 -1       702-2.03362E-02 1.53321E-01-5.42088E-05-6.83332E-03 2.32718E-07 8.07318E-07
 -1       703-2.03354E-02 1.53321E-01-5.44664E-05-6.83329E-03 2.13166E-07 1.35009E-06
 -1       704-2.03344E-02 1.53321E-01-5.51691E-05-6.83325E-03 1.76868E-07 1.53420E-06
 -1       705-2.03331E-02 1.53321E-01-5.55977E-05-6.83321E-03 1.18472E-07 1.16484E-06
 -1       706-2.03322E-02 1.53321E-01-5.58369E-05-6.83318E-03 4.17975E-08 4.35219E-07
 -1       707-2.03322E-02 1.53321E-01-5.58369E-05-6.83318E-03-4.17975E-08-4.35219E-07
 -1       708-2.03331E-02 1.53321E-01-5.55977E-05-6.83321E-03-1.18472E-07-1.16484E-06
 -1       709-2.03344E-02 1.53321E-01-5.51691E-05-6.83325E-03-1.76868E-07-1.53420E-06
 -1       710-2.03354E-02 1.53321E-01-5.44664E-05-6.83329E-03-2.13166E-07-1.35009E-06
 -1       711-2.03362E-02 1.53321E-01-5.42088E-05-6.83332E-03-2.32718E-07-8.07318E-07
 -1       712-1.55729E-02 1.48572E-01-5.00601E-05-6.45902E-03 3.78634E-07 3.29133E-06
 -1       713-1.55696E-02 1.48572E-01-5.22023E-05-6.45891E-03 3.88903E-07 5.68197E-06
 -1       714-1.55635E-02 1.48574E-01-5.34729E-05-6.45873E-03 3.36131E-07 5.97816E-06
 -1       715-1.55582E-02 1.48575E-01-5.53145E-05-6.45856E-03 2.24911E-07 4.59969E-06
 -1       716-1.55552E-02 1.48575E-01-5.66234E-05-6.45847E-03 7.86960E-08 1.72313E-06
 -1       717-1.55552E-02 1.48575E-01-5.66234E-05-6.45847E-03-7.86960E-08-1.72313E-06
 -1       718-1.55582E-02 1.48575E-01-5.53145E-05-6.45856E-03-2.24911E-07-4.59969E-06
 -1       719-1.55635E-02 1.48574E-01-5.34729E-05-6.45873E-03-3.36131E-07-5.97816E-06
 -1       720-1.55696E-02 1.48572E-01-5.22023E-05-6.45891E-03-3.88904E-07-5.68197E-06
 -1       721-1.55729E-02 1.48572E-01-5.00601E-05-6.45902E-03-3.78634E-07-3.29133E-06
 -1       722-1.12074E-02 1.44196E-01-5.03168E-05-6.11507E-03 4.01811E-07 8.72220E-06
 -1       723-1.11856E-02 1.44204E-01-4.84949E-05-6.11450E-03 3.94809E-07 1.40986E-05
 -1       724-1.11694E-02 1.44207E-01-5.47293E-05-6.11399E-03 2.83291E-07 1.51667E-05
 -1       725-1.11593E-02 1.44209E-01-6.06305E-05-6.11365E-03 1.58498E-07 1.09198E-05
 -1       726-1.11546E-02 1.44209E-01-6.37597E-05-6.11349E-03 4.97959E-08 3.90533E-06
 -1       727-1.11546E-02 1.44209E-01-6.37597E-05-6.11349E-03-4.97959E-08-3.90533E-06
 -1       728-1.11593E-02 1.44209E-01-6.06305E-05-6.11365E-03-1.58498E-07-1.09198E-05
 -1       729-1.11694E-02 1.44207E-01-5.47293E-05-6.11399E-03-2.83291E-07-1.51667E-05
 -1       730-1.11856E-02 1.44204E-01-4.84949E-05-6.11450E-03-3.94809E-07-1.40986E-05
 -1       731-1.12074E-02 1.44196E-01-5.03168E-05-6.11507E-03-4.01812E-07-8.72220E-06
 -1       732-7.16690E-03 1.40172E-01-2.82297E-05-5.79772E-03-1.16262E-06 1.21030E-05
 -1       733-7.13559E-03 1.40175E-01-5.18193E-05-5.79662E-03-1.30198E-06 2.24342E-05
 -1       734-7.11806E-03 1.40179E-01-5.96674E-05-5.79608E-03-1.15444E-06 1.71366E-05
 -1       735-7.10867E-03 1.40183E-01-5.92953E-05-5.79585E-03-7.80692E-07 9.66248E-06
 -1       736-7.10460E-03 1.40185E-01-5.75135E-05-5.79577E-03-2.74485E-07 3.04057E-06
 -1       737-7.10460E-03 1.40185E-01-5.75135E-05-5.79577E-03 2.74485E-07-3.04057E-06
 -1       738-7.10867E-03 1.40183E-01-5.92953E-05-5.79585E-03 7.80692E-07-9.66248E-06
 -1       739-7.11806E-03 1.40179E-01-5.96674E-05-5.79608E-03 1.15444E-06-1.71366E-05
 -1       740-7.13559E-03 1.40175E-01-5.18193E-05-5.79662E-03 1.30198E-06-2.24342E-05
 -1       741-7.16690E-03 1.40172E-01-2.82297E-05-5.79772E-03 1.16262E-06-1.21030E-05
 -1       742-3.51217E-03 1.36395E-01-1.22201E-04-5.50530E-03-9.26662E-06-1.02518E-05
 -1       743-3.43958E-03 1.36440E-01-5.30724E-05-5.50420E-03-6.74039E-06-1.71999E-05
 -1       744-3.40212E-03 1.36469E-01 1.34217E-06-5.50385E-03-4.54461E-06-1.76872E-05
 -1       745-3.38388E-03 1.36485E-01 3.48866E-05-5.50378E-03-2.61442E-06-1.25522E-05
 -1       746-3.37651E-03 1.36492E-01 5.04189E-05-5.50377E-03-8.52422E-07-4.47556E-06
 -1       747-3.37651E-03 1.36492E-01 5.04189E-05-5.50377E-03 8.52422E-07 4.47556E-06
 -1       748-3.38388E-03 1.36485E-01 3.48866E-05-5.50378E-03 2.61442E-06 1.25522E-05
 -1       749-3.40212E-03 1.36469E-01 1.34217E-06-5.50385E-03 4.54461E-06 1.76872E-05
 -1       750-3.43958E-03 1.36440E-01-5.30724E-05-5.50420E-03 6.74039E-06 1.71999E-05
 -1       751-3.51217E-03 1.36395E-01-1.22201E-04-5.50530E-03 9.26662E-06 1.02518E-05
 -1       752 5.96120E-04 1.28695E-01-6.50619E-04-2.08110E-02-2.60889E-06-1.64719E-05
 -1       753 5.87756E-04 1.28664E-01-7.59304E-04-2.08072E-02-6.50044E-06-4.10422E-05
 -1       754 5.64791E-04 1.28633E-01-8.43735E-04-2.08060E-02-5.61629E-06-3.54599E-05
 -1       755 5.46129E-04 1.28612E-01-8.98618E-04-2.08056E-02-3.52408E-06-2.22502E-05
 -1       756 5.36375E-04 1.28602E-01-9.25246E-04-2.08055E-02-1.18395E-06-7.47519E-06
 -1       757 5.36375E-04 1.28602E-01-9.25246E-04-2.08055E-02 1.18395E-06 7.47519E-06
 -1       758 5.46129E-04 1.28612E-01-8.98618E-04-2.08056E-02 3.52408E-06 2.22502E-05
 -1       759 5.64791E-04 1.28633E-01-8.43735E-04-2.08060E-02 5.61629E-06 3.54599E-05
 -1       760 5.87756E-04 1.28664E-01-7.59304E-04-2.08072E-02 6.50044E-06 4.10422E-05
 -1       761 5.96120E-04 1.28695E-01-6.50619E-04-2.08110E-02 2.60889E-06 1.64719E-05
 -1       762 1.01619E-02 1.19130E-01-6.50619E-04-3.95848E-02-5.15353E-06-1.58609E-05
 -1       763 1.01518E-02 1.19100E-01-7.59304E-04-3.95777E-02-1.28408E-05-3.95200E-05
 -1       764 1.01283E-02 1.19070E-01-8.43735E-04-3.95754E-02-1.10943E-05-3.41447E-05
 -1       765 1.01094E-02 1.19049E-01-8.98618E-04-3.95746E-02-6.96139E-06-2.14249E-05
 -1       766 1.00996E-02 1.19038E-01-9.25246E-04-3.95744E-02-2.33875E-06-7.19794E-06
 -1       767 1.00996E-02 1.19038E-01-9.25246E-04-3.95744E-02 2.33875E-06 7.19794E-06
 -1       768 1.01094E-02 1.19049E-01-8.98618E-04-3.95746E-02 6.96139E-06 2.14249E-05
 -1       769 1.01283E-02 1.19070E-01-8.43735E-04-3.95754E-02 1.10943E-05 3.41447E-05
 -1       770 1.01518E-02 1.19100E-01-7.59304E-04-3.95777E-02 1.28408E-05 3.95200E-05
 -1       771 1.01619E-02 1.19130E-01-6.50619E-04-3.95848E-02 5.15353E-06 1.58609E-05
 -1       772 2.50609E-02 1.04231E-01-6.50619E-04-5.44839E-02-7.57128E-06-1.48595E-05
 -1       773 2.50481E-02 1.04204E-01-7.59304E-04-5.44740E-02-1.88650E-05-3.70247E-05
 -1       774 2.50237E-02 1.04175E-01-8.43735E-04-5.44709E-02-1.62991E-05-3.19888E-05
 -1       775 2.50046E-02 1.04154E-01-8.98618E-04-5.44698E-02-1.02273E-05-2.00722E-05
 -1       776 2.49947E-02 1.04143E-01-9.25246E-04-5.44694E-02-3.43597E-06-6.74346E-06
 -1       777 2.49947E-02 1.04143E-01-9.25246E-04-5.44694E-02 3.43597E-06 6.74346E-06
 -1       778 2.50046E-02 1.04154E-01-8.98618E-04-5.44698E-02 1.02273E-05 2.00722E-05
 -1       779 2.50237E-02 1.04175E-01-8.43735E-04-5.44709E-02 1.62991E-05 3.19888E-05
 -1       780 2.50481E-02 1.04204E-01-7.59304E-04-5.44740E-02 1.88650E-05 3.70247E-05
 -1       781 2.50609E-02 1.04231E-01-6.50619E-04-5.44839E-02 7.57128E-06 1.48595E-05
 -1       782 4.38348E-02 8.54567E-02-6.50619E-04-6.40496E-02-9.80260E-06-1.34921E-05
 -1       783 4.38186E-02 8.54331E-02-7.59304E-04-6.40381E-02-2.44247E-05-3.36177E-05
 -1       784 4.37931E-02 8.54051E-02-8.43735E-04-6.40343E-02-2.11026E-05-2.90452E-05
 -1       785 4.37736E-02 8.53848E-02-8.98618E-04-6.40331E-02-1.32413E-05-1.82251E-05
 -1       786 4.37636E-02 8.53745E-02-9.25246E-04-6.40327E-02-4.44857E-06-6.12294E-06
 -1       787 4.37636E-02 8.53745E-02-9.25246E-04-6.40327E-02 4.44857E-06 6.12294E-06
 -1       788 4.37736E-02 8.53848E-02-8.98618E-04-6.40331E-02 1.32413E-05 1.82251E-05
 -1       789 4.37931E-02 8.54051E-02-8.43735E-04-6.40343E-02 2.11026E-05 2.90452E-05
 -1       790 4.38186E-02 8.54331E-02-7.59304E-04-6.40381E-02 2.44247E-05 3.36177E-05
 -1       791 4.38348E-02 8.54567E-02-6.50619E-04-6.40496E-02 9.80260E-06 1.34921E-05
 -1       792 6.46457E-02 6.46457E-02-6.50619E-04-6.73458E-02-1.17925E-05-1.17925E-05
 -1       793 6.46258E-02 6.46258E-02-7.59304E-04-6.73336E-02-2.93829E-05-2.93829E-05
 -1       794 6.45991E-02 6.45991E-02-8.43735E-04-6.73297E-02-2.53865E-05-2.53865E-05
 -1       795 6.45792E-02 6.45792E-02-8.98618E-04-6.73283E-02-1.59294E-05-1.59294E-05
 -1       796 6.45690E-02 6.45690E-02-9.25246E-04-6.73279E-02-5.35164E-06-5.35164E-06
 -1       797 6.45690E-02 6.45690E-02-9.25246E-04-6.73279E-02 5.35164E-06 5.35164E-06
 -1       798 6.45792E-02 6.45792E-02-8.98618E-04-6.73283E-02 1.59294E-05 1.59294E-05
 -1       799 6.45991E-02 6.45991E-02-8.43735E-04-6.73297E-02 2.53865E-05 2.53865E-05
 -1       800 6.46258E-02 6.46258E-02-7.59304E-04-6.73336E-02 2.93829E-05 2.93829E-05
 -1       801 6.46457E-02 6.46457E-02-6.50619E-04-6.73458E-02 1.17925E-05 1.17925E-05
 -1       802 8.54567E-02 4.38348E-02-6.50619E-04-6.40496E-02-1.34921E-05-9.80260E-06
 -1       803 8.54331E-02 4.38186E-02-7.59304E-04-6.40381E-02-3.36177E-05-2.44247E-05
 -1       804 8.54051E-02 4.37931E-02-8.43735E-04-6.40343E-02-2.90452E-05-2.11026E-05
 -1       805 8.53848E-02 4.37736E-02-8.98618E-04-6.40331E-02-1.82251E-05-1.32413E-05
 -1       806 8.53745E-02 4.37636E-02-9.25246E-04-6.40327E-02-6.12294E-06-4.44857E-06
 -1       807 8.53745E-02 4.37636E-02-9.25246E-04-6.40327E-02 6.12294E-06 4.44857E-06
 -1       808 8.53848E-02 4.37736E-02-8.98618E-04-6.40331E-02 1.82251E-05 1.32413E-05
 -1       809 8.54051E-02 4.37931E-02-8.43735E-04-6.40343E-02 2.90452E-05 2.11026E-05
 -1       810 8.54331E-02 4.38186E-02-7.59304E-04-6.40381E-02 3.36177E-05 2.44247E-05
 -1       811 8.54567E-02 4.38348E-02-6.50619E-04-6.40496E-02 1.34921E-05 9.80260E-06
 -1       812 1.04231E-01 2.50609E-02-6.50619E-04-5.44839E-02-1.48595E-05-7.57128E-06
 -1       813 1.04204E-01 2.50481E-02-7.59304E-04-5.44740E-02-3.70247E-05-1.88650E-05
 -1       814 1.04175E-01 2.50237E-02-8.43735E-04-5.44709E-02-3.19888E-05-1.62991E-05
 -1       815 1.04154E-01 2.50046E-02-8.98618E-04-5.44698E-02-2.00722E-05-1.02273E-05
 -1       816 1.04143E-01 2.49947E-02-9.25246E-04-5.44694E-02-6.74346E-06-3.43597E-06
 -1       817 1.04143E-01 2.49947E-02-9.25246E-04-5.44694E-02 6.74346E-06 3.43597E-06
 -1       818 1.04154E-01 2.50046E-02-8.98618E-04-5.44698E-02 2.00722E-05 1.02273E-05
 -1       819 1.04175E-01 2.50237E-02-8.43735E-04-5.44709E-02 3.19888E-05 1.62991E-05
 -1       820 1.04204E-01 2.50481E-02-7.59304E-04-5.44740E-02 3.70247E-05 1.88650E-05
 -1       821 1.04231E-01 2.50609E-02-6.50619E-04-5.44839E-02 1.48595E-05 7.57128E-06
 -1       822 1.19130E-01 1.01619E-02-6.50619E-04-3.95848E-02-1.58609E-05-5.15353E-06
 -1       823 1.19100E-01 1.01518E-02-7.59304E-04-3.95777E-02-3.95200E-05-1.28408E-05
 -1       824 1.19070E-01 1.01283E-02-8.43735E-04-3.95754E-02-3.41447E-05-1.10943E-05
 -1       825 1.19049E-01 1.01094E-02-8.98618E-04-3.95746E-02-2.14249E-05-6.96139E-06
 -1       826 1.19038E-01 1.00996E-02-9.25246E-04-3.95744E-02-7.19794E-06-2.33875E-06
 -1       827 1.19038E-01 1.00996E-02-9.25246E-04-3.95744E-02 7.19794E-06 2.33875E-06
 -1       828 1.19049E-01 1.01094E-02-8.98618E-04-3.95746E-02 2.14249E-05 6.96139E-06
 -1       829 1.19070E-01 1.01283E-02-8.43735E-04-3.95754E-02 3.41447E-05 1.10943E-05
 -1       830 1.19100E-01 1.01518E-02-7.59304E-04-3.95777E-02 3.95200E-05 1.28408E-05
 -1       831 1.19130E-01 1.01619E-02-6.50619E-04-3.95848E-02 1.58609E-05 5.15353E-06
 -1       832 1.28695E-01 5.96120E-04-6.50619E-04-2.08110E-02-1.64719E-05-2.60889E-06
 -1       833 1.28664E-01 5.87756E-04-7.59304E-04-2.08072E-02-4.10422E-05-6.50044E-06
 -1       834 1.28633E-01 5.64791E-04-8.43735E-04-2.08060E-02-3.54599E-05-5.61629E-06
 -1       835 1.28612E-01 5.46129E-04-8.98618E-04-2.08056E-02-2.22502E-05-3.52408E-06
 -1       836 1.28602E-01 5.36375E-04-9.25246E-04-2.08055E-02-7.47519E-06-1.18395E-06
 -1       837 1.28602E-01 5.36375E-04-9.25246E-04-2.08055E-02 7.47519E-06 1.18395E-06
 -1       838 1.28612E-01 5.46129E-04-8.98618E-04-2.08056E-02 2.22502E-05 3.52408E-06
 -1       839 1.28633E-01 5.64791E-04-8.43735E-04-2.08060E-02 3.54599E-05 5.61629E-06
 -1       840 1.28664E-01 5.87756E-04-7.59304E-04-2.08072E-02 4.10422E-05 6.50044E-06
 -1       841 1.28695E-01 5.96120E-04-6.50619E-04-2.08110E-02 1.64719E-05 2.60889E-06
 -1       842 1.36395E-01-3.51217E-03-1.22201E-04-5.50530E-03-1.02518E-05-9.26662E-06
 -1       843 1.36440E-01-3.43958E-03-5.30724E-05-5.50420E-03-1.71999E-05-6.74039E-06
 -1       844 1.36469E-01-3.40212E-03 1.34217E-06-5.50385E-03-1.76872E-05-4.54461E-06
 -1       845 1.36485E-01-3.38388E-03 3.48866E-05-5.50378E-03-1.25522E-05-2.61442E-06
 -1       846 1.36492E-01-3.37651E-03 5.04189E-05-5.50377E-03-4.47556E-06-8.52422E-07
 -1       847 1.36492E-01-3.37651E-03 5.04189E-05-5.50377E-03 4.47556E-06 8.52422E-07
 -1       848 1.36485E-01-3.38388E-03 3.48866E-05-5.50378E-03 1.25522E-05 2.61442E-06
 -1       849 1.36469E-01-3.40212E-03 1.34217E-06-5.50385E-03 1.76872E-05 4.54461E-06
 -1       850 1.36440E-01-3.43958E-03-5.30724E-05-5.50420E-03 1.71999E-05 6.74039E-06
 -1       851 1.36395E-01-3.51217E-03-1.22201E-04-5.50530E-03 1.02518E-05 9.26662E-06
 -1       852 1.40172E-01-7.16690E-03-2.82297E-05-5.79772E-03 1.21030E-05-1.16262E-06
 -1       853 1.40175E-01-7.13559E-03-5.18193E-05-5.79662E-03 2.24342E-05-1.30198E-06
 -1       854 1.40179E-01-7.11806E-03-5.96674E-05-5.79608E-03 1.71366E-05-1.15444E-06
 -1       855 1.40183E-01-7.10867E-03-5.92953E-05-5.79585E-03 9.66248E-06-7.80692E-07
 -1       856 1.40185E-01-7.10460E-03-5.75135E-05-5.79577E-03 3.04057E-06-2.74485E-07
 -1       857 1.40185E-01-7.10460E-03-5.75135E-05-5.79577E-03-3.04057E-06 2.74485E-07
 -1       858 1.40183E-01-7.10867E-03-5.92953E-05-5.79585E-03-9.66248E-06 7.80692E-07
 -1       859 1.40179E-01-7.11806E-03-5.96674E-05-5.79608E-03-1.71366E-05 1.15444E-06
 -1       860 1.40175E-01-7.13559E-03-5.18193E-05-5.79662E-03-2.24342E-05 1.30198E-06
 -1       861 1.40172E-01-7.16690E-03-2.82297E-05-5.79772E-03-1.21030E-05 1.16262E-06
 -1       862 1.44196E-01-1.12074E-02-5.03168E-05-6.11507E-03 8.72220E-06 4.01811E-07
 -1       863 1.44204E-01-1.11856E-02-4.84949E-05-6.11450E-03 1.40986E-05 3.94809E-07
 -1       864 1.44207E-01-1.11694E-02-5.47293E-05-6.11399E-03 1.51667E-05 2.83291E-07
 -1       865 1.44209E-01-1.11593E-02-6.06305E-05-6.11365E-03 1.09198E-05 1.58498E-07
 -1       866 1.44209E-01-1.11546E-02-6.37597E-05-6.11349E-03 3.90533E-06 4.97959E-08
 -1       867 1.44209E-01-1.11546E-02-6.37597E-05-6.11349E-03-3.90533E-06-4.97959E-08
 -1       868 1.44209E-01-1.11593E-02-6.06305E-05-6.11365E-03-1.09198E-05-1.58498E-07
 -1       869 1.44207E-01-1.11694E-02-5.47293E-05-6.11399E-03-1.51667E-05-2.83291E-07
 -1       870 1.44204E-01-1.11856E-02-4.84949E-05-6.11450E-03-1.40986E-05-3.94809E-07
 -1       871 1.44196E-01-1.12074E-02-5.03168E-05-6.11507E-03-8.72220E-06-4.01811E-07
 -1       872 1.48572E-01-1.55729E-02-5.00601E-05-6.45902E-03 3.29133E-06 3.78634E-07
 -1       873 1.48572E-01-1.55696E-02-5.22023E-05-6.45891E-03 5.68197E-06 3.88903E-07
 -1       874 1.48574E-01-1.55635E-02-5.34729E-05-6.45873E-03 5.97816E-06 3.36131E-07
 -1       875 1.48575E-01-1.55582E-02-5.53145E-05-6.45856E-03 4.59969E-06 2.24911E-07
 -1       876 1.48575E-01-1.55552E-02-5.66235E-05-6.45847E-03 1.72313E-06 7.86960E-08
 -1       877 1.48575E-01-1.55552E-02-5.66235E-05-6.45847E-03-1.72313E-06-7.86960E-08
 -1       878 1.48575E-01-1.55582E-02-5.53145E-05-6.45856E-03-4.59969E-06-2.24911E-07
 -1       879 1.48574E-01-1.55635E-02-5.34729E-05-6.45873E-03-5.97816E-06-3.36131E-07
 -1       880 1.48572E-01-1.55696E-02-5.22023E-05-6.45891E-03-5.68197E-06-3.88903E-07
 -1       881 1.48572E-01-1.55729E-02-5.00601E-05-6.45902E-03-3.29133E-06-3.78634E-07
 -1       882 1.53321E-01-2.03362E-02-5.42088E-05-6.83332E-03 8.07318E-07 2.32718E-07
 -1       883 1.53321E-01-2.03354E-02-5.44664E-05-6.83329E-03 1.35009E-06 2.13166E-07
 -1       884 1.53321E-01-2.03344E-02-5.51691E-05-6.83325E-03 1.53420E-06 1.76868E-07
 -1       885 1.53321E-01-2.03331E-02-5.55977E-05-6.83321E-03 1.16484E-06 1.18472E-07
 -1       886 1.53321E-01-2.03322E-02-5.58369E-05-6.83318E-03 4.35219E-07 4.17975E-08
 -1       887 1.53321E-01-2.03322E-02-5.58369E-05-6.83318E-03-4.35219E-07-4.17975E-08
 -1       888 1.53321E-01-2.03331E-02-5.55977E-05-6.83321E-03-1.16484E-06-1.18472E-07
 -1       889 1.53321E-01-2.03344E-02-5.51691E-05-6.83325E-03-1.53420E-06-1.76868E-07
 -1       890 1.53321E-01-2.03354E-02-5.44664E-05-6.83329E-03-1.35009E-06-2.13166E-07
 -1       891 1.53321E-01-2.03362E-02-5.42088E-05-6.83332E-03-8.07318E-07-2.32718E-07
 -1       892 1.58492E-01-2.55318E-02-5.99401E-05-7.24125E-03 1.23721E-08 1.30948E-07
 -1       893 1.58492E-01-2.55321E-02-5.99912E-05-7.24126E-03 2.26238E-08 1.11940E-07
 -1       894 1.58492E-01-2.55321E-02-6.00079E-05-7.24126E-03 5.96384E-08 8.64511E-08
 -1       895 1.58492E-01-2.55320E-02-6.00885E-05-7.24125E-03 7.37714E-08 5.50022E-08
 -1       896 1.58492E-01-2.55319E-02-6.01278E-05-7.24125E-03 3.10886E-08 1.89330E-08
 -1       897 1.58492E-01-2.55319E-02-6.01278E-05-7.24125E-03-3.10886E-08-1.89330E-08
 -1       898 1.58492E-01-2.55320E-02-6.00885E-05-7.24125E-03-7.37714E-08-5.50022E-08
 -1       899 1.58492E-01-2.55321E-02-6.00079E-05-7.24126E-03-5.96384E-08-8.64511E-08
 -1       900 1.58492E-01-2.55321E-02-5.99912E-05-7.24126E-03-2.26238E-08-1.11940E-07
 -1       901 1.58492E-01-2.55318E-02-5.99401E-05-7.24125E-03-1.23721E-08-1.30948E-07
 -1       902 1.64139E-01-3.12099E-02-6.73414E-05-7.68690E-03-1.17469E-07 1.00392E-07
 -1       903 1.64139E-01-3.12101E-02-6.73052E-05-7.68690E-03-1.96221E-07 7.86361E-08
 -1       904 1.64139E-01-3.12102E-02-6.72660E-05-7.68690E-03-1.89626E-07 5.70795E-08
 -1       905 1.64139E-01-3.12102E-02-6.72221E-05-7.68690E-03-1.32840E-07 3.47091E-08
 -1       906 1.64139E-01-3.12102E-02-6.72044E-05-7.68690E-03-4.66300E-08 1.16523E-08
 -1       907 1.64139E-01-3.12102E-02-6.72044E-05-7.68690E-03 4.66300E-08-1.16523E-08
 -1       908 1.64139E-01-3.12102E-02-6.72221E-05-7.68690E-03 1.32840E-07-3.47091E-08
 -1       909 1.64139E-01-3.12102E-02-6.72660E-05-7.68690E-03 1.89626E-07-5.70795E-08
 -1       910 1.64139E-01-3.12101E-02-6.73052E-05-7.68690E-03 1.96221E-07-7.86362E-08
 -1       911 1.64139E-01-3.12099E-02-6.73414E-05-7.68690E-03 1.17469E-07-1.00392E-07
 -1       912 1.70323E-01-3.74301E-02-7.61648E-05-8.17499E-03-8.38160E-08 1.04796E-07
 -1       913 1.70323E-01-3.74301E-02-7.61415E-05-8.17498E-03-1.37969E-07 8.05295E-08
 -1       914 1.70323E-01-3.74300E-02-7.61065E-05-8.17498E-03-1.41061E-07 5.69594E-08
 -1       915 1.70323E-01-3.74300E-02-7.60771E-05-8.17498E-03-1.02142E-07 3.39825E-08
 -1       916 1.70323E-01-3.74300E-02-7.60580E-05-8.17498E-03-3.72273E-08 1.12991E-08
 -1       917 1.70323E-01-3.74300E-02-7.60580E-05-8.17498E-03 3.72273E-08-1.12991E-08
 -1       918 1.70323E-01-3.74300E-02-7.60771E-05-8.17498E-03 1.02142E-07-3.39825E-08
 -1       919 1.70323E-01-3.74300E-02-7.61065E-05-8.17498E-03 1.41061E-07-5.69594E-08
 -1       920 1.70323E-01-3.74301E-02-7.61415E-05-8.17498E-03 1.37969E-07-8.05295E-08
 -1       921 1.70323E-01-3.74301E-02-7.61648E-05-8.17499E-03 8.38160E-08-1.04796E-07
 -1       922 1.77114E-01-4.42634E-02-8.65184E-05-8.71109E-03-4.77984E-08 1.22918E-07
 -1       923 1.77114E-01-4.42632E-02-8.65090E-05-8.71108E-03-7.65623E-08 9.47531E-08
 -1       924 1.77114E-01-4.42631E-02-8.64958E-05-8.71108E-03-7.84898E-08 6.71754E-08
 -1       925 1.77114E-01-4.42630E-02-8.64830E-05-8.71107E-03-5.74931E-08 4.00796E-08
 -1       926 1.77114E-01-4.42630E-02-8.64759E-05-8.71107E-03-2.09227E-08 1.33205E-08
 -1       927 1.77114E-01-4.42630E-02-8.64759E-05-8.71107E-03 2.09227E-08-1.33205E-08
 -1       928 1.77114E-01-4.42630E-02-8.64830E-05-8.71107E-03 5.74931E-08-4.00796E-08
 -1       929 1.77114E-01-4.42631E-02-8.64958E-05-8.71108E-03 7.84898E-08-6.71755E-08
 -1       930 1.77114E-01-4.42632E-02-8.65090E-05-8.71108E-03 7.65623E-08-9.47531E-08
 -1       931 1.77114E-01-4.42634E-02-8.65184E-05-8.71109E-03 4.77984E-08-1.22918E-07
 -1       932 1.84594E-01-5.17931E-02-9.86758E-05-9.30171E-03-3.38624E-08 1.46607E-07
 -1       933 1.84594E-01-5.17928E-02-9.86743E-05-9.30170E-03-5.23597E-08 1.13502E-07
 -1       934 1.84594E-01-5.17926E-02-9.86722E-05-9.30169E-03-5.26488E-08 8.07488E-08
 -1       935 1.84594E-01-5.17925E-02-9.86703E-05-9.30169E-03-3.80695E-08 4.83093E-08
 -1       936 1.84594E-01-5.17924E-02-9.86689E-05-9.30169E-03-1.38272E-08 1.60783E-08
 -1       937 1.84594E-01-5.17924E-02-9.86689E-05-9.30169E-03 1.38272E-08-1.60783E-08
 -1       938 1.84594E-01-5.17925E-02-9.86703E-05-9.30169E-03 3.80695E-08-4.83093E-08
 -1       939 1.84594E-01-5.17926E-02-9.86722E-05-9.30169E-03 5.26488E-08-8.07489E-08
 -1       940 1.84594E-01-5.17928E-02-9.86743E-05-9.30170E-03 5.23597E-08-1.13502E-07
 -1       941 1.84594E-01-5.17931E-02-9.86758E-05-9.30171E-03 3.38624E-08-1.46607E-07
 -1       942 1.92859E-01-6.01174E-02-1.13031E-04-9.95451E-03-3.47828E-08 1.74766E-07
 -1       943 1.92859E-01-6.01170E-02-1.13033E-04-9.95450E-03-5.32298E-08 1.35524E-07
 -1       944 1.92859E-01-6.01167E-02-1.13035E-04-9.95449E-03-5.25290E-08 9.65690E-08
 -1       945 1.92859E-01-6.01166E-02-1.13037E-04-9.95448E-03-3.74789E-08 5.78416E-08
 -1       946 1.92859E-01-6.01165E-02-1.13038E-04-9.95448E-03-1.34988E-08 1.92634E-08
 -1       947 1.92859E-01-6.01165E-02-1.13038E-04-9.95448E-03 1.34988E-08-1.92634E-08
 -1       948 1.92859E-01-6.01166E-02-1.13037E-04-9.95448E-03 3.74789E-08-5.78417E-08
 -1       949 1.92859E-01-6.01167E-02-1.13035E-04-9.95449E-03 5.25290E-08-9.65690E-08
 -1       950 1.92859E-01-6.01170E-02-1.13033E-04-9.95450E-03 5.32298E-08-1.35524E-07
 -1       951 1.92859E-01-6.01174E-02-1.13031E-04-9.95451E-03 3.47828E-08-1.74766E-07
 -1       952 2.02024E-01-6.93521E-02-1.30089E-04-1.06785E-02-4.29177E-08 2.08670E-07
 -1       953 2.02024E-01-6.93517E-02-1.30091E-04-1.06785E-02-6.61663E-08 1.61865E-07
 -1       954 2.02024E-01-6.93514E-02-1.30095E-04-1.06785E-02-6.50726E-08 1.15376E-07
 -1       955 2.02024E-01-6.93511E-02-1.30099E-04-1.06785E-02-4.62421E-08 6.91267E-08
 -1       956 2.02024E-01-6.93510E-02-1.30101E-04-1.06785E-02-1.66227E-08 2.30254E-08
 -1       957 2.02024E-01-6.93510E-02-1.30101E-04-1.06785E-02 1.66227E-08-2.30254E-08
 -1       958 2.02024E-01-6.93511E-02-1.30099E-04-1.06785E-02 4.62421E-08-6.91267E-08
 -1       959 2.02024E-01-6.93514E-02-1.30095E-04-1.06785E-02 6.50726E-08-1.15376E-07
 -1       960 2.02024E-01-6.93517E-02-1.30091E-04-1.06785E-02 6.61663E-08-1.61865E-07
 -1       961 2.02024E-01-6.93521E-02-1.30089E-04-1.06785E-02 4.29177E-08-2.08670E-07
 -1       962 2.12224E-01-7.96353E-02-1.50488E-04-1.14845E-02-5.51041E-08 2.50359E-07
 -1       963 2.12224E-01-7.96348E-02-1.50491E-04-1.14845E-02-8.58258E-08 1.94176E-07
 -1       964 2.12224E-01-7.96344E-02-1.50496E-04-1.14845E-02-8.45731E-08 1.38397E-07
 -1       965 2.12224E-01-7.96341E-02-1.50501E-04-1.14845E-02-6.01241E-08 8.29157E-08
 -1       966 2.12224E-01-7.96340E-02-1.50504E-04-1.14845E-02-2.16117E-08 2.76180E-08
 -1       967 2.12224E-01-7.96340E-02-1.50504E-04-1.14845E-02 2.16117E-08-2.76180E-08
 -1       968 2.12224E-01-7.96341E-02-1.50501E-04-1.14845E-02 6.01241E-08-8.29157E-08
 -1       969 2.12224E-01-7.96344E-02-1.50496E-04-1.14845E-02 8.45731E-08-1.38397E-07
 -1       970 2.12224E-01-7.96348E-02-1.50491E-04-1.14845E-02 8.58258E-08-1.94176E-07
 -1       971 2.12224E-01-7.96353E-02-1.50488E-04-1.14845E-02 5.51041E-08-2.50359E-07
 -1       972 2.23620E-01-9.11320E-02-1.75048E-04-1.23853E-02-7.09447E-08 3.02375E-07
 -1       973 2.23620E-01-9.11314E-02-1.75052E-04-1.23853E-02-1.11530E-07 2.34470E-07
 -1       974 2.23620E-01-9.11309E-02-1.75059E-04-1.23853E-02-1.10156E-07 1.67091E-07
 -1       975 2.23620E-01-9.11305E-02-1.75065E-04-1.23853E-02-7.83744E-08 1.00098E-07
 -1       976 2.23620E-01-9.11303E-02-1.75068E-04-1.23853E-02-2.81801E-08 3.33397E-08
 -1       977 2.23620E-01-9.11303E-02-1.75068E-04-1.23853E-02 2.81801E-08-3.33397E-08
 -1       978 2.23620E-01-9.11305E-02-1.75065E-04-1.23853E-02 7.83744E-08-1.00098E-07
 -1       979 2.23620E-01-9.11309E-02-1.75059E-04-1.23853E-02 1.10156E-07-1.67092E-07
 -1       980 2.23620E-01-9.11314E-02-1.75052E-04-1.23853E-02 1.11530E-07-2.34470E-07
 -1       981 2.23620E-01-9.11320E-02-1.75048E-04-1.23853E-02 7.09447E-08-3.02375E-07
 -1       982 2.36407E-01-1.04041E-01-2.04831E-04-1.33965E-02-9.08570E-08 3.67988E-07
 -1       983 2.36407E-01-1.04040E-01-2.04836E-04-1.33965E-02-1.43986E-07 2.85306E-07
 -1       984 2.36407E-01-1.04040E-01-2.04844E-04-1.33964E-02-1.42404E-07 2.03298E-07
 -1       985 2.36408E-01-1.04039E-01-2.04851E-04-1.33964E-02-1.01341E-07 1.21780E-07
 -1       986 2.36408E-01-1.04039E-01-2.04855E-04-1.33964E-02-3.64364E-08 4.05603E-08
 -1       987 2.36408E-01-1.04039E-01-2.04855E-04-1.33964E-02 3.64364E-08-4.05603E-08
 -1       988 2.36408E-01-1.04039E-01-2.04851E-04-1.33964E-02 1.01341E-07-1.21780E-07
 -1       989 2.36407E-01-1.04040E-01-2.04844E-04-1.33964E-02 1.42404E-07-2.03298E-07
 -1       990 2.36407E-01-1.04040E-01-2.04836E-04-1.33965E-02 1.43986E-07-2.85306E-07
 -1       991 2.36407E-01-1.04041E-01-2.04831E-04-1.33965E-02 9.08570E-08-3.67988E-07
 -1       992 2.50822E-01-1.18604E-01-2.41227E-04-1.45367E-02-1.15002E-07 4.51476E-07
 -1       993 2.50822E-01-1.18603E-01-2.41232E-04-1.45367E-02-1.83446E-07 3.49999E-07
 -1       994 2.50822E-01-1.18603E-01-2.41241E-04-1.45367E-02-1.81539E-07 2.49377E-07
 -1       995 2.50822E-01-1.18602E-01-2.41249E-04-1.45366E-02-1.29162E-07 1.49375E-07
 -1       996 2.50822E-01-1.18602E-01-2.41254E-04-1.45366E-02-4.64334E-08 4.97496E-08
 -1       997 2.50822E-01-1.18602E-01-2.41254E-04-1.45366E-02 4.64334E-08-4.97496E-08
 -1       998 2.50822E-01-1.18602E-01-2.41249E-04-1.45366E-02 1.29162E-07-1.49375E-07
 -1       999 2.50822E-01-1.18603E-01-2.41241E-04-1.45367E-02 1.81539E-07-2.49377E-07
 -1      1000 2.50822E-01-1.18603E-01-2.41232E-04-1.45367E-02 1.83446E-07-3.49999E-07
 -1      1001 2.50822E-01-1.18604E-01-2.41227E-04-1.45367E-02 1.15002E-07-4.51476E-07
 -1      1002 2.67151E-01-1.35117E-01-2.86082E-04-1.58290E-02-1.44444E-07 5.58170E-07
 -1      1003 2.67151E-01-1.35116E-01-2.86087E-04-1.58290E-02-2.31624E-07 4.32571E-07
 -1      1004 2.67151E-01-1.35115E-01-2.86095E-04-1.58290E-02-2.29683E-07 3.08110E-07
 -1      1005 2.67151E-01-1.35114E-01-2.86103E-04-1.58289E-02-1.63647E-07 1.84506E-07
 -1      1006 2.67151E-01-1.35114E-01-2.86108E-04-1.58289E-02-5.88614E-08 6.14413E-08
 -1      1007 2.67151E-01-1.35114E-01-2.86108E-04-1.58289E-02 5.88614E-08-6.14414E-08
 -1      1008 2.67151E-01-1.35114E-01-2.86103E-04-1.58289E-02 1.63647E-07-1.84506E-07
 -1      1009 2.67151E-01-1.35115E-01-2.86095E-04-1.58290E-02 2.29683E-07-3.08110E-07
 -1      1010 2.67151E-01-1.35116E-01-2.86087E-04-1.58290E-02 2.31624E-07-4.32571E-07
 -1      1011 2.67151E-01-1.35117E-01-2.86082E-04-1.58290E-02 1.44444E-07-5.58170E-07
 -1      1012 2.85749E-01-1.53944E-01-3.41880E-04-1.73017E-02-1.90288E-07 6.93813E-07
 -1      1013 2.85749E-01-1.53942E-01-3.41888E-04-1.73016E-02-3.06932E-07 5.36948E-07
 -1      1014 2.85749E-01-1.53941E-01-3.41900E-04-1.73016E-02-3.07519E-07 3.81923E-07
 -1      1015 2.85749E-01-1.53940E-01-3.41913E-04-1.73015E-02-2.20838E-07 2.28458E-07
 -1      1016 2.85749E-01-1.53939E-01-3.41920E-04-1.73015E-02-7.98234E-08 7.60294E-08
 -1      1017 2.85749E-01-1.53939E-01-3.41920E-04-1.73015E-02 7.98234E-08-7.60295E-08
 -1      1018 2.85749E-01-1.53940E-01-3.41913E-04-1.73015E-02 2.20838E-07-2.28458E-07
 -1      1019 2.85749E-01-1.53941E-01-3.41900E-04-1.73016E-02 3.07519E-07-3.81923E-07
 -1      1020 2.85749E-01-1.53942E-01-3.41888E-04-1.73016E-02 3.06932E-07-5.36948E-07
 -1      1021 2.85749E-01-1.53944E-01-3.41880E-04-1.73017E-02 1.90288E-07-6.93813E-07
 -1      1022 3.07057E-01-1.75539E-01-4.12031E-04-1.89899E-02-3.05071E-07 8.63229E-07
 -1      1023 3.07057E-01-1.75536E-01-4.12061E-04-1.89898E-02-4.97677E-07 6.65229E-07
 -1      1024 3.07057E-01-1.75534E-01-4.12108E-04-1.89897E-02-5.09876E-07 4.71284E-07
 -1      1025 3.07057E-01-1.75533E-01-4.12155E-04-1.89897E-02-3.72673E-07 2.81014E-07
 -1      1026 3.07057E-01-1.75532E-01-4.12182E-04-1.89897E-02-1.35714E-07 9.33623E-08
 -1      1027 3.07057E-01-1.75532E-01-4.12182E-04-1.89897E-02 1.35714E-07-9.33623E-08
 -1      1028 3.07057E-01-1.75533E-01-4.12155E-04-1.89897E-02 3.72673E-07-2.81014E-07
 -1      1029 3.07057E-01-1.75534E-01-4.12108E-04-1.89897E-02 5.09876E-07-4.71284E-07
 -1      1030 3.07057E-01-1.75536E-01-4.12061E-04-1.89898E-02 4.97677E-07-6.65229E-07
 -1      1031 3.07057E-01-1.75539E-01-4.12031E-04-1.89899E-02 3.05071E-07-8.63229E-07
 -1      1032 3.31626E-01-2.00474E-01-5.01292E-04-2.09379E-02-6.54570E-07 1.07136E-06
 -1      1033 3.31627E-01-2.00470E-01-5.01419E-04-2.09378E-02-1.08339E-06 8.18066E-07
 -1      1034 3.31627E-01-2.00467E-01-5.01613E-04-2.09377E-02-1.13131E-06 5.74535E-07
 -1      1035 3.31627E-01-2.00465E-01-5.01795E-04-2.09376E-02-8.36205E-07 3.40407E-07
 -1      1036 3.31628E-01-2.00464E-01-5.01909E-04-2.09376E-02-3.07155E-07 1.12695E-07
 -1      1037 3.31628E-01-2.00464E-01-5.01909E-04-2.09376E-02 3.07155E-07-1.12695E-07
 -1      1038 3.31627E-01-2.00465E-01-5.01795E-04-2.09376E-02 8.36205E-07-3.40407E-07
 -1      1039 3.31627E-01-2.00467E-01-5.01613E-04-2.09377E-02 1.13131E-06-5.74535E-07
 -1      1040 3.31627E-01-2.00470E-01-5.01419E-04-2.09378E-02 1.08339E-06-8.18066E-07
 -1      1041 3.31626E-01-2.00474E-01-5.01292E-04-2.09379E-02 6.54570E-07-1.07136E-06
 -1      1042 3.60158E-01-2.29477E-01-6.16353E-04-2.32019E-02-1.60239E-06 1.34236E-06
 -1      1043 3.60159E-01-2.29471E-01-6.16766E-04-2.32017E-02-2.68639E-06 1.01101E-06
 -1      1044 3.60160E-01-2.29466E-01-6.17374E-04-2.32015E-02-2.80018E-06 7.02375E-07
 -1      1045 3.60160E-01-2.29462E-01-6.17968E-04-2.32014E-02-2.06846E-06 4.12544E-07
 -1      1046 3.60161E-01-2.29460E-01-6.18299E-04-2.32013E-02-7.55288E-07 1.35964E-07
 -1      1047 3.60161E-01-2.29460E-01-6.18299E-04-2.32013E-02 7.55288E-07-1.35964E-07
 -1      1048 3.60160E-01-2.29462E-01-6.17968E-04-2.32014E-02 2.06846E-06-4.12544E-07
 -1      1049 3.60160E-01-2.29466E-01-6.17374E-04-2.32015E-02 2.80018E-06-7.02375E-07
 -1      1050 3.60159E-01-2.29471E-01-6.16766E-04-2.32017E-02 2.68639E-06-1.01101E-06
 -1      1051 3.60158E-01-2.29477E-01-6.16353E-04-2.32019E-02 1.60239E-06-1.34236E-06
 -1      1052 3.93551E-01-2.63489E-01-7.66465E-04-2.58542E-02-3.53911E-06 1.79886E-06
 -1      1053 3.93553E-01-2.63477E-01-7.67394E-04-2.58538E-02-5.98286E-06 1.35467E-06
 -1      1054 3.93555E-01-2.63467E-01-7.68875E-04-2.58535E-02-6.15706E-06 9.42028E-07
 -1      1055 3.93556E-01-2.63459E-01-7.70131E-04-2.58532E-02-4.46961E-06 5.56293E-07
 -1      1056 3.93556E-01-2.63456E-01-7.70953E-04-2.58531E-02-1.63009E-06 1.84100E-07
 -1      1057 3.93556E-01-2.63456E-01-7.70953E-04-2.58531E-02 1.63009E-06-1.84100E-07
 -1      1058 3.93556E-01-2.63459E-01-7.70131E-04-2.58532E-02 4.46961E-06-5.56293E-07
 -1      1059 3.93555E-01-2.63467E-01-7.68875E-04-2.58535E-02 6.15706E-06-9.42028E-07
 -1      1060 3.93553E-01-2.63477E-01-7.67394E-04-2.58538E-02 5.98286E-06-1.35467E-06
 -1      1061 3.93551E-01-2.63489E-01-7.66465E-04-2.58542E-02 3.53911E-06-1.79886E-06
 -1      1062 4.32974E-01-3.03732E-01-9.63261E-04-2.89890E-02-5.51040E-06 2.89645E-06
 -1      1063 4.32978E-01-3.03710E-01-9.64717E-04-2.89883E-02-9.47691E-06 2.26738E-06
 -1      1064 4.32981E-01-3.03692E-01-9.66414E-04-2.89877E-02-9.26677E-06 1.65421E-06
 -1      1065 4.32982E-01-3.03681E-01-9.68383E-04-2.89874E-02-6.53272E-06 1.01041E-06
 -1      1066 4.32983E-01-3.03676E-01-9.69196E-04-2.89872E-02-2.30455E-06 3.40008E-07
 -1      1067 4.32983E-01-3.03676E-01-9.69196E-04-2.89872E-02 2.30455E-06-3.40008E-07
 -1      1068 4.32982E-01-3.03681E-01-9.68383E-04-2.89874E-02 6.53272E-06-1.01041E-06
 -1      1069 4.32981E-01-3.03692E-01-9.66414E-04-2.89877E-02 9.26677E-06-1.65421E-06
 -1      1070 4.32978E-01-3.03710E-01-9.64717E-04-2.89883E-02 9.47691E-06-2.26738E-06
 -1      1071 4.32974E-01-3.03732E-01-9.63261E-04-2.89890E-02 5.51040E-06-2.89645E-06
 -1      1072 4.79976E-01-3.51815E-01-1.21976E-03-3.27306E-02-1.90089E-07 5.78191E-06
 -1      1073 4.79982E-01-3.51783E-01-1.21756E-03-3.27296E-02-8.05960E-07 4.94149E-06
 -1      1074 4.79983E-01-3.51770E-01-1.21734E-03-3.27291E-02 6.81212E-07 3.81555E-06
 -1      1075 4.79983E-01-3.51765E-01-1.21422E-03-3.27289E-02 1.83715E-06 2.42812E-06
 -1      1076 4.79983E-01-3.51764E-01-1.21277E-03-3.27288E-02 8.58090E-07 8.36054E-07
 -1      1077 4.79983E-01-3.51764E-01-1.21277E-03-3.27288E-02-8.58090E-07-8.36054E-07
 -1      1078 4.79983E-01-3.51765E-01-1.21422E-03-3.27289E-02-1.83715E-06-2.42812E-06
 -1      1079 4.79983E-01-3.51770E-01-1.21734E-03-3.27291E-02-6.81212E-07-3.81555E-06
 -1      1080 4.79982E-01-3.51783E-01-1.21756E-03-3.27296E-02 8.05960E-07-4.94149E-06
 -1      1081 4.79976E-01-3.51815E-01-1.21976E-03-3.27306E-02 1.90089E-07-5.78191E-06
 -1      1082 5.36652E-01-4.09854E-01-1.54301E-03-3.72445E-02 3.71790E-05 1.25576E-05
 -1      1083 5.36645E-01-4.09866E-01-1.53315E-03-3.72447E-02 6.08015E-05 1.12686E-05
 -1      1084 5.36640E-01-4.09900E-01-1.50265E-03-3.72459E-02 6.92047E-05 9.21015E-06
 -1      1085 5.36627E-01-4.09952E-01-1.48521E-03-3.72474E-02 5.26160E-05 6.11087E-06
 -1      1086 5.36618E-01-4.09988E-01-1.47563E-03-3.72485E-02 1.96814E-05 2.14622E-06
 -1      1087 5.36618E-01-4.09988E-01-1.47563E-03-3.72485E-02-1.96814E-05-2.14622E-06
 -1      1088 5.36627E-01-4.09952E-01-1.48521E-03-3.72474E-02-5.26160E-05-6.11087E-06
 -1      1089 5.36640E-01-4.09900E-01-1.50265E-03-3.72459E-02-6.92047E-05-9.21015E-06
 -1      1090 5.36645E-01-4.09866E-01-1.53315E-03-3.72447E-02-6.08015E-05-1.12686E-05
 -1      1091 5.36652E-01-4.09854E-01-1.54301E-03-3.72445E-02-3.71790E-05-1.25576E-05
 -1      1092 6.05863E-01-4.80709E-01-1.97181E-03-4.27561E-02 1.60424E-04 2.25273E-05
 -1      1093 6.05848E-01-4.80847E-01-1.87298E-03-4.27609E-02 2.76215E-04 2.22152E-05
 -1      1094 6.05777E-01-4.81142E-01-1.82178E-03-4.27697E-02 2.90414E-04 1.87520E-05
 -1      1095 6.05728E-01-4.81403E-01-1.74046E-03-4.27781E-02 2.23505E-04 1.23909E-05
 -1      1096 6.05706E-01-4.81549E-01-1.68115E-03-4.27829E-02 8.37405E-05 4.31199E-06
 -1      1097 6.05706E-01-4.81549E-01-1.68115E-03-4.27829E-02-8.37405E-05-4.31199E-06
 -1      1098 6.05728E-01-4.81403E-01-1.74046E-03-4.27781E-02-2.23505E-04-1.23909E-05
 -1      1099 6.05777E-01-4.81142E-01-1.82178E-03-4.27697E-02-2.90414E-04-1.87520E-05
 -1      1100 6.05848E-01-4.80847E-01-1.87298E-03-4.27609E-02-2.76215E-04-2.22152E-05
 -1      1101 6.05863E-01-4.80709E-01-1.97181E-03-4.27561E-02-1.60424E-04-2.25273E-05
 -1      1102 6.91761E-01-5.67973E-01-2.41298E-03-4.95699E-02 4.46012E-04 2.75844E-05
 -1      1103 6.91392E-01-5.69126E-01-2.54400E-03-4.96008E-02 7.19408E-04 2.54935E-05
 -1      1104 6.91263E-01-5.69982E-01-2.24764E-03-4.96294E-02 7.73376E-04 1.80506E-05
 -1      1105 6.91229E-01-5.70511E-01-1.96044E-03-4.96489E-02 5.56133E-04 1.01251E-05
 -1      1106 6.91223E-01-5.70759E-01-1.80790E-03-4.96584E-02 1.98731E-04 3.19783E-06
 -1      1107 6.91223E-01-5.70759E-01-1.80790E-03-4.96584E-02-1.98731E-04-3.19783E-06
 -1      1108 6.91229E-01-5.70511E-01-1.96044E-03-4.96489E-02-5.56133E-04-1.01251E-05
 -1      1109 6.91263E-01-5.69982E-01-2.24764E-03-4.96294E-02-7.73376E-04-1.80506E-05
 -1      1110 6.91392E-01-5.69126E-01-2.54400E-03-4.96008E-02-7.19408E-04-2.54935E-05
 -1      1111 6.91761E-01-5.67973E-01-2.41298E-03-4.95699E-02-4.46012E-04-2.75844E-05
 -1      1112 7.98865E-01-6.79539E-01-4.48456E-03-5.81745E-02 6.09972E-04-5.61379E-05
 -1      1113 7.98880E-01-6.81283E-01-3.22817E-03-5.82437E-02 1.16617E-03-6.66377E-05
 -1      1114 7.98867E-01-6.82236E-01-2.82685E-03-5.82807E-02 8.82764E-04-6.03820E-05
 -1      1115 7.98811E-01-6.82736E-01-2.86578E-03-5.82981E-02 4.91616E-04-4.12004E-05
 -1      1116 7.98768E-01-6.82950E-01-2.97229E-03-5.83049E-02 1.53353E-04-1.45346E-05
 -1      1117 7.98768E-01-6.82950E-01-2.97229E-03-5.83049E-02-1.53353E-04 1.45346E-05
 -1      1118 7.98811E-01-6.82736E-01-2.86578E-03-5.82981E-02-4.91616E-04 4.12004E-05
 -1      1119 7.98867E-01-6.82236E-01-2.82685E-03-5.82807E-02-8.82764E-04 6.03820E-05
 -1      1120 7.98880E-01-6.81283E-01-3.22817E-03-5.82437E-02-1.16617E-03 6.66377E-05
 -1      1121 7.98865E-01-6.79539E-01-4.48456E-03-5.81745E-02-6.09972E-04 5.61379E-05
 -1      1122 9.39619E-01-8.18777E-01-4.39389E-04-6.91920E-02-8.27384E-04-5.38062E-04
 -1      1123 9.37545E-01-8.22999E-01-4.47398E-03-6.92766E-02-1.16965E-03-3.89057E-04
 -1      1124 9.36188E-01-8.25163E-01-7.63529E-03-6.93083E-02-1.14245E-03-2.60978E-04
 -1      1125 9.35422E-01-8.26210E-01-9.57724E-03-6.93194E-02-7.95224E-04-1.49581E-04
 -1      1126 9.35085E-01-8.26631E-01-1.04741E-02-6.93227E-02-2.81496E-04-4.86760E-05
 -1      1127 9.35085E-01-8.26631E-01-1.04741E-02-6.93227E-02 2.81496E-04 4.86760E-05
 -1      1128 9.35422E-01-8.26210E-01-9.57724E-03-6.93194E-02 7.95224E-04 1.49581E-04
 -1      1129 9.36188E-01-8.25163E-01-7.63529E-03-6.93083E-02 1.14245E-03 2.60978E-04
 -1      1130 9.37545E-01-8.22999E-01-4.47398E-03-6.92766E-02 1.16965E-03 3.89057E-04
 -1      1131 9.39619E-01-8.18777E-01-4.39389E-04-6.91920E-02 8.27384E-04 5.38062E-04
 -1      1132 1.13325E+00-7.88129E-01 3.41374E-02-3.12146E-01-9.09205E-04-1.44004E-04
 -1      1133 1.13608E+00-7.87441E-01 4.09132E-02-3.12496E-01-2.48524E-03-3.93623E-04
 -1      1134 1.13843E+00-7.85927E-01 4.61801E-02-3.12631E-01-2.16978E-03-3.43660E-04
 -1      1135 1.13999E+00-7.84721E-01 4.96041E-02-3.12688E-01-1.36678E-03-2.16476E-04
 -1      1136 1.14074E+00-7.84093E-01 5.12655E-02-3.12709E-01-4.59870E-04-7.28362E-05
 -1      1137 1.14074E+00-7.84093E-01 5.12655E-02-3.12709E-01 4.59870E-04 7.28362E-05
 -1      1138 1.13999E+00-7.84721E-01 4.96041E-02-3.12688E-01 1.36678E-03 2.16476E-04
 -1      1139 1.13843E+00-7.85927E-01 4.61801E-02-3.12631E-01 2.16978E-03 3.43660E-04
 -1      1140 1.13608E+00-7.87441E-01 4.09132E-02-3.12496E-01 2.48524E-03 3.93623E-04
 -1      1141 1.13325E+00-7.88129E-01 3.41374E-02-3.12146E-01 9.09205E-04 1.44004E-04
 -1      1142 9.89769E-01-6.44651E-01 3.41374E-02-5.93738E-01-8.75484E-04-2.84462E-04
 -1      1143 9.92446E-01-6.43803E-01 4.09132E-02-5.94402E-01-2.39306E-03-7.77553E-04
 -1      1144 9.94734E-01-6.42226E-01 4.61801E-02-5.94660E-01-2.08931E-03-6.78857E-04
 -1      1145 9.96260E-01-6.40994E-01 4.96041E-02-5.94767E-01-1.31608E-03-4.27622E-04
 -1      1146 9.97006E-01-6.40357E-01 5.12655E-02-5.94807E-01-4.42814E-04-1.43879E-04
 -1      1147 9.97006E-01-6.40357E-01 5.12655E-02-5.94807E-01 4.42814E-04 1.43879E-04
 -1      1148 9.96260E-01-6.40994E-01 4.96041E-02-5.94767E-01 1.31608E-03 4.27622E-04
 -1      1149 9.94734E-01-6.42226E-01 4.61801E-02-5.94660E-01 2.08931E-03 6.78857E-04
 -1      1150 9.92446E-01-6.43803E-01 4.09132E-02-5.94402E-01 2.39306E-03 7.77553E-04
 -1      1151 9.89769E-01-6.44651E-01 3.41374E-02-5.93738E-01 8.75484E-04 2.84462E-04
 -1      1152 7.66297E-01-4.21179E-01 3.41374E-02-8.17210E-01-8.20205E-04-4.17915E-04
 -1      1153 7.68723E-01-4.20081E-01 4.09132E-02-8.18124E-01-2.24196E-03-1.14234E-03
 -1      1154 7.70914E-01-4.18407E-01 4.61801E-02-8.18480E-01-1.95739E-03-9.97339E-04
 -1      1155 7.72400E-01-4.17134E-01 4.96041E-02-8.18627E-01-1.23299E-03-6.28238E-04
 -1      1156 7.73131E-01-4.16483E-01 5.12655E-02-8.18682E-01-4.14854E-04-2.11379E-04
 -1      1157 7.73131E-01-4.16483E-01 5.12655E-02-8.18682E-01 4.14854E-04 2.11379E-04
 -1      1158 7.72400E-01-4.17134E-01 4.96041E-02-8.18627E-01 1.23299E-03 6.28238E-04
 -1      1159 7.70914E-01-4.18407E-01 4.61801E-02-8.18480E-01 1.95739E-03 9.97339E-04
 -1      1160 7.68723E-01-4.20081E-01 4.09132E-02-8.18124E-01 2.24196E-03 1.14234E-03
 -1      1161 7.66297E-01-4.21179E-01 3.41374E-02-8.17210E-01 8.20205E-04 4.17915E-04
 -1      1162 4.84705E-01-1.39588E-01 3.41374E-02-9.60688E-01-7.44731E-04-5.41079E-04
 -1      1163 4.86817E-01-1.38174E-01 4.09132E-02-9.61763E-01-2.03566E-03-1.47899E-03
 -1      1164 4.88885E-01-1.36378E-01 4.61801E-02-9.62181E-01-1.77727E-03-1.29126E-03
 -1      1165 4.90321E-01-1.35055E-01 4.96041E-02-9.62353E-01-1.11953E-03-8.13384E-04
 -1      1166 4.91033E-01-1.34384E-01 5.12655E-02-9.62418E-01-3.76680E-04-2.73674E-04
 -1      1167 4.91033E-01-1.34384E-01 5.12655E-02-9.62418E-01 3.76680E-04 2.73674E-04
 -1      1168 4.90321E-01-1.35055E-01 4.96041E-02-9.62353E-01 1.11953E-03 8.13384E-04
 -1      1169 4.88885E-01-1.36378E-01 4.61801E-02-9.62181E-01 1.77727E-03 1.29126E-03
 -1      1170 4.86817E-01-1.38174E-01 4.09132E-02-9.61763E-01 2.03566E-03 1.47899E-03
 -1      1171 4.84705E-01-1.39588E-01 3.41374E-02-9.60688E-01 7.44731E-04 5.41079E-04
 -1      1172 1.72559E-01 1.72559E-01 3.41374E-02-1.01013E+00-6.50919E-04-6.50919E-04
 -1      1173 1.74321E-01 1.74321E-01 4.09132E-02-1.01126E+00-1.77923E-03-1.77923E-03
 -1      1174 1.76254E-01 1.76254E-01 4.61801E-02-1.01170E+00-1.55339E-03-1.55339E-03
 -1      1175 1.77633E-01 1.77633E-01 4.96041E-02-1.01188E+00-9.78503E-04-9.78503E-04
 -1      1176 1.78324E-01 1.78324E-01 5.12655E-02-1.01195E+00-3.29230E-04-3.29230E-04
 -1      1177 1.78324E-01 1.78324E-01 5.12655E-02-1.01195E+00 3.29230E-04 3.29230E-04
 -1      1178 1.77633E-01 1.77633E-01 4.96041E-02-1.01188E+00 9.78503E-04 9.78503E-04
 -1      1179 1.76254E-01 1.76254E-01 4.61801E-02-1.01170E+00 1.55339E-03 1.55339E-03
 -1      1180 1.74321E-01 1.74321E-01 4.09132E-02-1.01126E+00 1.77923E-03 1.77923E-03
 -1      1181 1.72559E-01 1.72559E-01 3.41374E-02-1.01013E+00 6.50919E-04 6.50919E-04
 -1      1182-1.39588E-01 4.84705E-01 3.41374E-02-9.60688E-01-5.41079E-04-7.44731E-04
 -1      1183-1.38174E-01 4.86817E-01 4.09132E-02-9.61763E-01-1.47899E-03-2.03566E-03
 -1      1184-1.36378E-01 4.88885E-01 4.61801E-02-9.62181E-01-1.29126E-03-1.77727E-03
 -1      1185-1.35055E-01 4.90321E-01 4.96041E-02-9.62353E-01-8.13384E-04-1.11953E-03
 -1      1186-1.34384E-01 4.91033E-01 5.12655E-02-9.62418E-01-2.73674E-04-3.76680E-04
 -1      1187-1.34384E-01 4.91033E-01 5.12655E-02-9.62418E-01 2.73674E-04 3.76680E-04
 -1      1188-1.35055E-01 4.90321E-01 4.96041E-02-9.62353E-01 8.13384E-04 1.11953E-03
 -1      1189-1.36378E-01 4.88885E-01 4.61801E-02-9.62181E-01 1.29126E-03 1.77727E-03
 -1      1190-1.38174E-01 4.86817E-01 4.09132E-02-9.61763E-01 1.47899E-03 2.03566E-03
 -1      1191-1.39588E-01 4.84705E-01 3.41374E-02-9.60688E-01 5.41079E-04 7.44731E-04
 -1      1192-4.21179E-01 7.66297E-01 3.41374E-02-8.17210E-01-4.17915E-04-8.20205E-04
 -1      1193-4.20081E-01 7.68724E-01 4.09132E-02-8.18124E-01-1.14234E-03-2.24196E-03
 -1      1194-4.18407E-01 7.70914E-01 4.61801E-02-8.18480E-01-9.97339E-04-1.95739E-03
 -1      1195-4.17134E-01 7.72400E-01 4.96041E-02-8.18627E-01-6.28238E-04-1.23299E-03
 -1      1196-4.16483E-01 7.73131E-01 5.12655E-02-8.18682E-01-2.11379E-04-4.14854E-04
 -1      1197-4.16483E-01 7.73131E-01 5.12655E-02-8.18682E-01 2.11379E-04 4.14854E-04
 -1      1198-4.17134E-01 7.72400E-01 4.96041E-02-8.18627E-01 6.28238E-04 1.23299E-03
 -1      1199-4.18407E-01 7.70914E-01 4.61801E-02-8.18480E-01 9.97339E-04 1.95739E-03
 -1      1200-4.20081E-01 7.68724E-01 4.09132E-02-8.18124E-01 1.14234E-03 2.24196E-03
 -1      1201-4.21179E-01 7.66297E-01 3.41374E-02-8.17210E-01 4.17915E-04 8.20205E-04
 -1      1202-6.44651E-01 9.89769E-01 3.41374E-02-5.93738E-01-2.84462E-04-8.75484E-04
 -1      1203-6.43803E-01 9.92446E-01 4.09132E-02-5.94402E-01-7.77553E-04-2.39306E-03
 -1      1204-6.42226E-01 9.94734E-01 4.61801E-02-5.94660E-01-6.78857E-04-2.08931E-03
 -1      1205-6.40994E-01 9.96260E-01 4.96041E-02-5.94767E-01-4.27622E-04-1.31608E-03
 -1      1206-6.40357E-01 9.97006E-01 5.12655E-02-5.94807E-01-1.43879E-04-4.42814E-04
 -1      1207-6.40357E-01 9.97006E-01 5.12655E-02-5.94807E-01 1.43879E-04 4.42814E-04
 -1      1208-6.40994E-01 9.96260E-01 4.96041E-02-5.94767E-01 4.27622E-04 1.31608E-03
 -1      1209-6.42226E-01 9.94734E-01 4.61801E-02-5.94660E-01 6.78857E-04 2.08931E-03
 -1      1210-6.43803E-01 9.92446E-01 4.09132E-02-5.94402E-01 7.77553E-04 2.39306E-03
 -1      1211-6.44651E-01 9.89769E-01 3.41374E-02-5.93738E-01 2.84462E-04 8.75484E-04
 -1      1212-7.88129E-01 1.13325E+00 3.41374E-02-3.12146E-01-1.44004E-04-9.09205E-04
 -1      1213-7.87441E-01 1.13608E+00 4.09132E-02-3.12496E-01-3.93623E-04-2.48524E-03
 -1      1214-7.85927E-01 1.13843E+00 4.61801E-02-3.12631E-01-3.43660E-04-2.16978E-03
 -1      1215-7.84721E-01 1.13999E+00 4.96041E-02-3.12688E-01-2.16476E-04-1.36678E-03
 -1      1216-7.84093E-01 1.14074E+00 5.12655E-02-3.12709E-01-7.28362E-05-4.59870E-04
 -1      1217-7.84093E-01 1.14074E+00 5.12655E-02-3.12709E-01 7.28362E-05 4.59870E-04
 -1      1218-7.84721E-01 1.13999E+00 4.96041E-02-3.12688E-01 2.16476E-04 1.36678E-03
 -1      1219-7.85927E-01 1.13843E+00 4.61801E-02-3.12631E-01 3.43660E-04 2.16978E-03
 -1      1220-7.87441E-01 1.13608E+00 4.09132E-02-3.12496E-01 3.93623E-04 2.48524E-03
 -1      1221-7.88129E-01 1.13325E+00 3.41374E-02-3.12146E-01 1.44004E-04 9.09205E-04
 -1      1222-7.66631E-01 9.00323E-01 4.34706E-03-2.70813E-01 2.71284E-04 1.71282E-03
 -1      1223-6.42152E-01 7.75844E-01 4.34706E-03-5.15117E-01 5.35888E-04 1.64929E-03
 -1      1224-4.48271E-01 5.81963E-01 4.34706E-03-7.08998E-01 7.87296E-04 1.54516E-03
 -1      1225-2.03967E-01 3.37659E-01 4.34706E-03-8.33477E-01 1.01932E-03 1.40297E-03
 -1      1226 6.68460E-02 6.68460E-02 4.34706E-03-8.76369E-01 1.22624E-03 1.22624E-03
 -1      1227 3.37659E-01-2.03967E-01 4.34706E-03-8.33477E-01 1.40297E-03 1.01932E-03
 -1      1228 5.81963E-01-4.48271E-01 4.34706E-03-7.08998E-01 1.54516E-03 7.87296E-04
 -1      1229 7.75844E-01-6.42152E-01 4.34706E-03-5.15117E-01 1.64929E-03 5.35888E-04
 -1      1230 9.00323E-01-7.66631E-01 4.34706E-03-2.70813E-01 1.71282E-03 2.71284E-04
 -1      1231-6.39489E-01 7.63992E-01-4.15436E-03-2.28009E-01-1.86846E-05-1.17970E-04
 -1      1232-5.34685E-01 6.59187E-01-4.15436E-03-4.33699E-01-3.69091E-05-1.13595E-04
 -1      1233-3.71448E-01 4.95951E-01-4.15436E-03-5.96936E-01-5.42248E-05-1.06422E-04
 -1      1234-1.65758E-01 2.90261E-01-4.15436E-03-7.01741E-01-7.02053E-05-9.66293E-05
 -1      1235 6.22513E-02 6.22513E-02-4.15436E-03-7.37854E-01-8.44571E-05-8.44571E-05
 -1      1236 2.90261E-01-1.65758E-01-4.15436E-03-7.01741E-01-9.66293E-05-7.02053E-05
 -1      1237 4.95951E-01-3.71448E-01-4.15436E-03-5.96936E-01-1.06422E-04-5.42248E-05
 -1      1238 6.59187E-01-5.34685E-01-4.15436E-03-4.33699E-01-1.13595E-04-3.69091E-05
 -1      1239 7.63992E-01-6.39489E-01-4.15436E-03-2.28009E-01-1.17970E-04-1.86846E-05
 -1      1240-5.36666E-01 6.61147E-01-2.22245E-03-1.94597E-01-2.60341E-05-1.64373E-04
 -1      1241-4.47220E-01 5.71701E-01-2.22245E-03-3.70145E-01-5.14272E-05-1.58277E-04
 -1      1242-3.07904E-01 4.32385E-01-2.22245E-03-5.09460E-01-7.55539E-05-1.48283E-04
 -1      1243-1.32356E-01 2.56837E-01-2.22245E-03-5.98906E-01-9.78203E-05-1.34638E-04
 -1      1244 6.22403E-02 6.22403E-02-2.22245E-03-6.29728E-01-1.17678E-04-1.17678E-04
 -1      1245 2.56837E-01-1.32356E-01-2.22245E-03-5.98906E-01-1.34638E-04-9.78203E-05
 -1      1246 4.32385E-01-3.07904E-01-2.22245E-03-5.09460E-01-1.48283E-04-7.55539E-05
 -1      1247 5.71701E-01-4.47220E-01-2.22245E-03-3.70145E-01-1.58277E-04-5.14272E-05
 -1      1248 6.61147E-01-5.36666E-01-2.22245E-03-1.94597E-01-1.64373E-04-2.60341E-05
 -1      1249-4.54099E-01 5.79271E-01-2.04537E-03-1.67881E-01-1.21200E-05-7.65229E-05
 -1      1250-3.76933E-01 5.02105E-01-2.04537E-03-3.19329E-01-2.39416E-05-7.36848E-05
 -1      1251-2.56743E-01 3.81915E-01-2.04537E-03-4.39519E-01-3.51737E-05-6.90323E-05
 -1      1252-1.05295E-01 2.30467E-01-2.04537E-03-5.16685E-01-4.55397E-05-6.26800E-05
 -1      1253 6.25861E-02 6.25861E-02-2.04537E-03-5.43275E-01-5.47843E-05-5.47843E-05
 -1      1254 2.30467E-01-1.05295E-01-2.04537E-03-5.16685E-01-6.26800E-05-4.55397E-05
 -1      1255 3.81915E-01-2.56743E-01-2.04537E-03-4.39519E-01-6.90323E-05-3.51737E-05
 -1      1256 5.02105E-01-3.76933E-01-2.04537E-03-3.19329E-01-7.36848E-05-2.39416E-05
 -1      1257 5.79271E-01-4.54099E-01-2.04537E-03-1.67881E-01-7.65229E-05-1.21200E-05
 -1      1258-3.86765E-01 5.13467E-01-1.56587E-03-1.46252E-01-3.66275E-06-2.31257E-05
 -1      1259-3.19541E-01 4.46243E-01-1.56587E-03-2.78187E-01-7.23531E-06-2.22680E-05
 -1      1260-2.14836E-01 3.41538E-01-1.56587E-03-3.82892E-01-1.06297E-05-2.08620E-05
 -1      1261-8.29008E-02 2.09603E-01-1.56587E-03-4.50116E-01-1.37624E-05-1.89423E-05
 -1      1262 6.33509E-02 6.33509E-02-1.56587E-03-4.73280E-01-1.65562E-05-1.65562E-05
 -1      1263 2.09603E-01-8.29008E-02-1.56587E-03-4.50116E-01-1.89423E-05-1.37624E-05
 -1      1264 3.41538E-01-2.14836E-01-1.56587E-03-3.82892E-01-2.08620E-05-1.06297E-05
 -1      1265 4.46243E-01-3.19541E-01-1.56587E-03-2.78187E-01-2.22680E-05-7.23531E-06
 -1      1266 5.13467E-01-3.86765E-01-1.56587E-03-1.46252E-01-2.31257E-05-3.66275E-06
 -1      1267-3.31515E-01 4.59602E-01-1.23689E-03-1.28525E-01-1.10375E-06-6.96883E-06
 -1      1268-2.72439E-01 4.00526E-01-1.23689E-03-2.44469E-01-2.18033E-06-6.71036E-06
 -1      1269-1.80425E-01 3.08512E-01-1.23689E-03-3.36482E-01-3.20322E-06-6.28667E-06
 -1      1270-6.44813E-02 1.92568E-01-1.23689E-03-3.95559E-01-4.14723E-06-5.70818E-06
 -1      1271 6.40436E-02 6.40436E-02-1.23689E-03-4.15915E-01-4.98913E-06-4.98913E-06
 -1      1272 1.92568E-01-6.44813E-02-1.23689E-03-3.95559E-01-5.70818E-06-4.14723E-06
 -1      1273 3.08512E-01-1.80425E-01-1.23689E-03-3.36482E-01-6.28667E-06-3.20322E-06
 -1      1274 4.00526E-01-2.72439E-01-1.23689E-03-2.44469E-01-6.71036E-06-2.18033E-06
 -1      1275 4.59602E-01-3.31515E-01-1.23689E-03-1.28525E-01-6.96883E-06-1.10375E-06
 -1      1276-2.85730E-01 4.14938E-01-9.68646E-04-1.13830E-01-3.21277E-07-2.02846E-06
 -1      1277-2.33408E-01 3.62616E-01-9.68646E-04-2.16518E-01-6.34643E-07-1.95323E-06
 -1      1278-1.51914E-01 2.81122E-01-9.68646E-04-2.98012E-01-9.32382E-07-1.82990E-06
 -1      1279-4.92264E-02 1.78434E-01-9.68646E-04-3.50334E-01-1.20716E-06-1.66152E-06
 -1      1280 6.46040E-02 6.46040E-02-9.68646E-04-3.68363E-01-1.45222E-06-1.45222E-06
 -1      1281 1.78434E-01-4.92264E-02-9.68646E-04-3.50334E-01-1.66152E-06-1.20716E-06
 -1      1282 2.81122E-01-1.51914E-01-9.68646E-04-2.98012E-01-1.82990E-06-9.32383E-07
 -1      1283 3.62616E-01-2.33408E-01-9.68646E-04-2.16518E-01-1.95323E-06-6.34643E-07
 -1      1284 4.14938E-01-2.85730E-01-9.68646E-04-1.13830E-01-2.02846E-06-3.21277E-07
 -1      1285-2.47422E-01 3.77469E-01-7.68792E-04-1.01520E-01-2.38640E-07-1.50671E-06
 -1      1286-2.00759E-01 3.30806E-01-7.68792E-04-1.93102E-01-4.71404E-07-1.45083E-06
 -1      1287-1.28078E-01 2.58125E-01-7.68792E-04-2.65782E-01-6.92560E-07-1.35923E-06
 -1      1288-3.64962E-02 1.66543E-01-7.68792E-04-3.12446E-01-8.96663E-07-1.23415E-06
 -1      1289 6.50235E-02 6.50235E-02-7.68792E-04-3.28525E-01-1.07869E-06-1.07869E-06
 -1      1290 1.66543E-01-3.64962E-02-7.68792E-04-3.12446E-01-1.23415E-06-8.96663E-07
 -1      1291 2.58125E-01-1.28078E-01-7.68792E-04-2.65782E-01-1.35923E-06-6.92560E-07
 -1      1292 3.30806E-01-2.00759E-01-7.68792E-04-1.93102E-01-1.45083E-06-4.71404E-07
 -1      1293 3.77469E-01-2.47422E-01-7.68792E-04-1.01520E-01-1.50671E-06-2.38640E-07
 -1      1294-2.15054E-01 3.45728E-01-6.17442E-04-9.11045E-02-2.27767E-07-1.43806E-06
 -1      1295-1.73178E-01 3.03852E-01-6.17442E-04-1.73291E-01-4.49925E-07-1.38473E-06
 -1      1296-1.07954E-01 2.38628E-01-6.17442E-04-2.38515E-01-6.61005E-07-1.29729E-06
 -1      1297-2.57678E-02 1.56441E-01-6.17442E-04-2.80391E-01-8.55808E-07-1.17792E-06
 -1      1298 6.53367E-02 6.53367E-02-6.17442E-04-2.94820E-01-1.02954E-06-1.02954E-06
 -1      1299 1.56441E-01-2.57678E-02-6.17442E-04-2.80391E-01-1.17792E-06-8.55808E-07
 -1      1300 2.38628E-01-1.07954E-01-6.17442E-04-2.38515E-01-1.29729E-06-6.61005E-07
 -1      1301 3.03852E-01-1.73178E-01-6.17442E-04-1.73291E-01-1.38473E-06-4.49925E-07
 -1      1302 3.45728E-01-2.15054E-01-6.17442E-04-9.11045E-02-1.43806E-06-2.27767E-07
 -1      1303-1.87456E-01 3.18604E-01-5.02090E-04-8.22145E-02-2.09328E-07-1.32165E-06
 -1      1304-1.49666E-01 2.80814E-01-5.02090E-04-1.56381E-01-4.13502E-07-1.27263E-06
 -1      1305-9.08073E-02 2.21955E-01-5.02090E-04-2.15240E-01-6.07495E-07-1.19228E-06
 -1      1306-1.66405E-02 1.47788E-01-5.02090E-04-2.53030E-01-7.86528E-07-1.08256E-06
 -1      1307 6.55740E-02 6.55740E-02-5.02090E-04-2.66052E-01-9.46195E-07-9.46195E-07
 -1      1308 1.47788E-01-1.66405E-02-5.02090E-04-2.53030E-01-1.08256E-06-7.86528E-07
 -1      1309 2.21955E-01-9.08073E-02-5.02090E-04-2.15240E-01-1.19228E-06-6.07495E-07
 -1      1310 2.80814E-01-1.49666E-01-5.02090E-04-1.56381E-01-1.27263E-06-4.13503E-07
 -1      1311 3.18604E-01-1.87456E-01-5.02090E-04-8.22145E-02-1.32165E-06-2.09328E-07
 -1      1312-1.63732E-01 2.95246E-01-4.12673E-04-7.45655E-02-1.76447E-07-1.11404E-06
 -1      1313-1.29458E-01 2.60972E-01-4.12673E-04-1.41832E-01-3.48548E-07-1.07272E-06
 -1      1314-7.60747E-02 2.07589E-01-4.12673E-04-1.95215E-01-5.12068E-07-1.00499E-06
 -1      1315-8.80824E-03 1.40323E-01-4.12673E-04-2.29489E-01-6.62978E-07-9.12512E-07
 -1      1316 6.57572E-02 6.57572E-02-4.12673E-04-2.41299E-01-7.97564E-07-7.97564E-07
 -1      1317 1.40323E-01-8.80824E-03-4.12673E-04-2.29489E-01-9.12512E-07-6.62979E-07
 -1      1318 2.07589E-01-7.60747E-02-4.12673E-04-1.95215E-01-1.00499E-06-5.12068E-07
 -1      1319 2.60972E-01-1.29458E-01-4.12673E-04-1.41832E-01-1.07272E-06-3.48548E-07
 -1      1320 2.95246E-01-1.63732E-01-4.12673E-04-7.45655E-02-1.11404E-06-1.76447E-07
 -1      1321-1.43186E-01 2.74988E-01-3.42402E-04-6.79365E-02-1.43242E-07-9.04392E-07
 -1      1322-1.11959E-01 2.43761E-01-3.42402E-04-1.29223E-01-2.82956E-07-8.70849E-07
 -1      1323-6.33218E-02 1.95124E-01-3.42402E-04-1.77860E-01-4.15703E-07-8.15864E-07
 -1      1324-2.03540E-03 1.33838E-01-3.42402E-04-2.09087E-01-5.38215E-07-7.40789E-07
 -1      1325 6.59011E-02 6.59011E-02-3.42402E-04-2.19847E-01-6.47473E-07-6.47473E-07
 -1      1326 1.33838E-01-2.03540E-03-3.42402E-04-2.09087E-01-7.40789E-07-5.38215E-07
 -1      1327 1.95124E-01-6.33218E-02-3.42402E-04-1.77860E-01-8.15864E-07-4.15703E-07
 -1      1328 2.43761E-01-1.11959E-01-3.42402E-04-1.29223E-01-8.70850E-07-2.82956E-07
 -1      1329 2.74988E-01-1.43186E-01-3.42402E-04-6.79365E-02-9.04392E-07-1.43242E-07
 -1      1330-1.25275E-01 2.57306E-01-2.86494E-04-6.21540E-02-1.15138E-07-7.26954E-07
 -1      1331-9.67057E-02 2.28737E-01-2.86494E-04-1.18224E-01-2.27441E-07-6.99992E-07
 -1      1332-5.22083E-02 1.84240E-01-2.86494E-04-1.62721E-01-3.34144E-07-6.55795E-07
 -1      1333 3.86162E-03 1.28170E-01-2.86494E-04-1.91290E-01-4.32619E-07-5.95449E-07
 -1      1334 6.60156E-02 6.60156E-02-2.86494E-04-2.01135E-01-5.20442E-07-5.20442E-07
 -1      1335 1.28170E-01 3.86162E-03-2.86494E-04-1.91290E-01-5.95449E-07-4.32619E-07
 -1      1336 1.84240E-01-5.22083E-02-2.86494E-04-1.62721E-01-6.55795E-07-3.34144E-07
 -1      1337 2.28737E-01-9.67057E-02-2.86494E-04-1.18224E-01-6.99992E-07-2.27441E-07
 -1      1338 2.57306E-01-1.25275E-01-2.86494E-04-6.21540E-02-7.26954E-07-1.15138E-07
 -1      1339-1.09565E-01 2.41781E-01-2.41549E-04-5.70796E-02-9.30174E-08-5.87289E-07
 -1      1340-8.33288E-02 2.15544E-01-2.41549E-04-1.08572E-01-1.83744E-07-5.65507E-07
 -1      1341-4.24643E-02 1.74680E-01-2.41549E-04-1.49436E-01-2.69947E-07-5.29801E-07
 -1      1342 9.02803E-03 1.23187E-01-2.41549E-04-1.75673E-01-3.49503E-07-4.81049E-07
 -1      1343 6.61077E-02 6.61077E-02-2.41549E-04-1.84714E-01-4.20452E-07-4.20452E-07
 -1      1344 1.23187E-01 9.02803E-03-2.41549E-04-1.75673E-01-4.81049E-07-3.49503E-07
 -1      1345 1.74680E-01-4.24643E-02-2.41549E-04-1.49436E-01-5.29801E-07-2.69947E-07
 -1      1346 2.15544E-01-8.33288E-02-2.41549E-04-1.08572E-01-5.65507E-07-1.83744E-07
 -1      1347 2.41781E-01-1.09565E-01-2.41549E-04-5.70796E-02-5.87289E-07-9.30174E-08
 -1      1348-9.57110E-02 2.28076E-01-2.05083E-04-5.26023E-02-7.58453E-08-4.78869E-07
 -1      1349-7.15324E-02 2.03897E-01-2.05083E-04-1.00056E-01-1.49823E-07-4.61108E-07
 -1      1350-3.38733E-02 1.66238E-01-2.05083E-04-1.37715E-01-2.20112E-07-4.31994E-07
 -1      1351 1.35800E-02 1.18785E-01-2.05083E-04-1.61893E-01-2.84980E-07-3.92242E-07
 -1      1352 6.61824E-02 6.61823E-02-2.05083E-04-1.70225E-01-3.42832E-07-3.42832E-07
 -1      1353 1.18785E-01 1.35800E-02-2.05083E-04-1.61893E-01-3.92242E-07-2.84981E-07
 -1      1354 1.66238E-01-3.38733E-02-2.05083E-04-1.37715E-01-4.31994E-07-2.20112E-07
 -1      1355 2.03897E-01-7.15324E-02-2.05083E-04-1.00056E-01-4.61108E-07-1.49823E-07
 -1      1356 2.28076E-01-9.57110E-02-2.05083E-04-5.26023E-02-4.78869E-07-7.58454E-08
 -1      1357-8.34304E-02 2.15917E-01-1.75247E-04-4.86320E-02-6.24232E-08-3.94124E-07
 -1      1358-6.10767E-02 1.93564E-01-1.75247E-04-9.25035E-02-1.23309E-07-3.79507E-07
 -1      1359-2.62601E-02 1.58747E-01-1.75247E-04-1.27320E-01-1.81159E-07-3.55545E-07
 -1      1360 1.76115E-02 1.14875E-01-1.75247E-04-1.49674E-01-2.34548E-07-3.22828E-07
 -1      1361 6.62435E-02 6.62435E-02-1.75247E-04-1.57376E-01-2.82162E-07-2.82162E-07
 -1      1362 1.14875E-01 1.76115E-02-1.75247E-04-1.49674E-01-3.22828E-07-2.34548E-07
 -1      1363 1.58747E-01-2.62601E-02-1.75247E-04-1.27320E-01-3.55545E-07-1.81159E-07
 -1      1364 1.93564E-01-6.10767E-02-1.75247E-04-9.25035E-02-3.79507E-07-1.23309E-07
 -1      1365 2.15917E-01-8.34304E-02-1.75247E-04-4.86320E-02-3.94124E-07-6.24232E-08
 -1      1366-7.24937E-02 2.05081E-01-1.50647E-04-4.50948E-02-5.18000E-08-3.27052E-07
 -1      1367-5.17659E-02 1.84354E-01-1.50647E-04-8.57754E-02-1.02325E-07-3.14922E-07
 -1      1368-1.94816E-02 1.52069E-01-1.50647E-04-1.18060E-01-1.50329E-07-2.95038E-07
 -1      1369 2.11990E-02 1.11389E-01-1.50647E-04-1.38788E-01-1.94633E-07-2.67889E-07
 -1      1370 6.62938E-02 6.62938E-02-1.50647E-04-1.45930E-01-2.34144E-07-2.34144E-07
 -1      1371 1.11389E-01 2.11990E-02-1.50647E-04-1.38788E-01-2.67889E-07-1.94633E-07
 -1      1372 1.52069E-01-1.94816E-02-1.50647E-04-1.18060E-01-2.95038E-07-1.50329E-07
 -1      1373 1.84354E-01-5.17659E-02-1.50647E-04-8.57754E-02-3.14922E-07-1.02325E-07
 -1      1374 2.05081E-01-7.24937E-02-1.50647E-04-4.50948E-02-3.27052E-07-5.18000E-08
 -1      1375-6.27116E-02 1.95383E-01-1.30217E-04-4.19300E-02-4.32826E-08-2.73275E-07
 -1      1376-4.34385E-02 1.76110E-01-1.30217E-04-7.97556E-02-8.54994E-08-2.63140E-07
 -1      1377-1.34199E-02 1.46091E-01-1.30217E-04-1.09774E-01-1.25611E-07-2.46525E-07
 -1      1378 2.44057E-02 1.08266E-01-1.30217E-04-1.29047E-01-1.62630E-07-2.23840E-07
 -1      1379 6.63357E-02 6.63357E-02-1.30217E-04-1.35688E-01-1.95644E-07-1.95644E-07
 -1      1380 1.08266E-01 2.44057E-02-1.30217E-04-1.29047E-01-2.23840E-07-1.62630E-07
 -1      1381 1.46091E-01-1.34199E-02-1.30217E-04-1.09774E-01-2.46525E-07-1.25611E-07
 -1      1382 1.76110E-01-4.34385E-02-1.30217E-04-7.97556E-02-2.63140E-07-8.54994E-08
 -1      1383 1.95383E-01-6.27116E-02-1.30217E-04-4.19300E-02-2.73276E-07-4.32826E-08
 -1      1384-5.39270E-02 1.86668E-01-1.13136E-04-3.90871E-02-3.63062E-08-2.29228E-07
 -1      1385-3.59607E-02 1.68702E-01-1.13136E-04-7.43481E-02-7.17184E-08-2.20727E-07
 -1      1386-7.97742E-03 1.40719E-01-1.13136E-04-1.02331E-01-1.05365E-07-2.06790E-07
 -1      1387 2.72836E-02 1.05458E-01-1.13136E-04-1.20298E-01-1.36417E-07-1.87761E-07
 -1      1388 6.63706E-02 6.63706E-02-1.13136E-04-1.26488E-01-1.64109E-07-1.64109E-07
 -1      1389 1.05458E-01 2.72836E-02-1.13136E-04-1.20298E-01-1.87761E-07-1.36417E-07
 -1      1390 1.40719E-01-7.97742E-03-1.13136E-04-1.02331E-01-2.06790E-07-1.05365E-07
 -1      1391 1.68702E-01-3.59607E-02-1.13136E-04-7.43481E-02-2.20727E-07-7.17185E-08
 -1      1392 1.86668E-01-5.39270E-02-1.13136E-04-3.90871E-02-2.29228E-07-3.63062E-08
 -1      1393-4.60087E-02 1.78809E-01-9.87644E-05-3.65238E-02-3.03008E-08-1.91312E-07
 -1      1394-2.92205E-02 1.62021E-01-9.87644E-05-6.94724E-02-5.98554E-08-1.84216E-07
 -1      1395-3.07238E-03 1.35873E-01-9.87644E-05-9.56206E-02-8.79363E-08-1.72585E-07
 -1      1396 2.98762E-02 1.02924E-01-9.87644E-05-1.12409E-01-1.13852E-07-1.56704E-07
 -1      1397 6.64001E-02 6.64001E-02-9.87644E-05-1.18194E-01-1.36964E-07-1.36964E-07
 -1      1398 1.02924E-01 2.98762E-02-9.87644E-05-1.12409E-01-1.56704E-07-1.13852E-07
 -1      1399 1.35873E-01-3.07238E-03-9.87644E-05-9.56206E-02-1.72585E-07-8.79363E-08
 -1      1400 1.62021E-01-2.92205E-02-9.87644E-05-6.94724E-02-1.84216E-07-5.98555E-08
 -1      1401 1.78809E-01-4.60087E-02-9.87644E-05-3.65238E-02-1.91312E-07-3.03008E-08
 -1      1402-3.88462E-02 1.71696E-01-8.65938E-05-3.42047E-02-2.45421E-08-1.54953E-07
 -1      1403-2.31241E-02 1.55974E-01-8.65938E-05-6.50612E-02-4.84800E-08-1.49206E-07
 -1      1404 1.36380E-03 1.31486E-01-8.65938E-05-8.95491E-02-7.12241E-08-1.39785E-07
 -1      1405 3.22203E-02 1.00630E-01-8.65938E-05-1.05271E-01-9.22144E-08-1.26922E-07
 -1      1406 6.64250E-02 6.64250E-02-8.65938E-05-1.10689E-01-1.10934E-07-1.10934E-07
 -1      1407 1.00630E-01 3.22203E-02-8.65939E-05-1.05271E-01-1.26922E-07-9.22145E-08
 -1      1408 1.31486E-01 1.36380E-03-8.65939E-05-8.95491E-02-1.39785E-07-7.12241E-08
 -1      1409 1.55974E-01-2.31241E-02-8.65939E-05-6.50612E-02-1.49206E-07-4.84800E-08
 -1      1410 1.71696E-01-3.88462E-02-8.65939E-05-3.42047E-02-1.54953E-07-2.45422E-08
 -1      1411-3.23462E-02 1.65239E-01-7.62117E-05-3.20996E-02-1.88158E-08-1.18798E-07
 -1      1412-1.75916E-02 1.50484E-01-7.62117E-05-6.10572E-02-3.71683E-08-1.14392E-07
 -1      1413 5.38918E-03 1.27503E-01-7.62117E-05-8.40380E-02-5.46056E-08-1.07170E-07
 -1      1414 3.43467E-02 9.85460E-02-7.62117E-05-9.87926E-02-7.06983E-08-9.73079E-08
 -1      1415 6.64463E-02 6.64463E-02-7.62117E-05-1.03877E-01-8.50502E-08-8.50502E-08
 -1      1416 9.85460E-02 3.43467E-02-7.62117E-05-9.87926E-02-9.73079E-08-7.06983E-08
 -1      1417 1.27503E-01 5.38918E-03-7.62117E-05-8.40380E-02-1.07170E-07-5.46056E-08
 -1      1418 1.50484E-01-1.75916E-02-7.62117E-05-6.10572E-02-1.14392E-07-3.71683E-08
 -1      1419 1.65239E-01-3.23462E-02-7.62117E-05-3.20996E-02-1.18798E-07-1.88158E-08
 -1      1420-2.64293E-02 1.59359E-01-6.73270E-05-3.01831E-02-1.43943E-08-9.08823E-08
 -1      1421-1.25556E-02 1.45485E-01-6.73270E-05-5.74117E-02-2.84342E-08-8.75116E-08
 -1      1422 9.05310E-03 1.23876E-01-6.73270E-05-7.90204E-02-4.17740E-08-8.19861E-08
 -1      1423 3.62817E-02 9.66479E-02-6.73270E-05-9.28940E-02-5.40851E-08-7.44418E-08
 -1      1424 6.64648E-02 6.64648E-02-6.73270E-05-9.76745E-02-6.50646E-08-6.50645E-08
 -1      1425 9.66479E-02 3.62817E-02-6.73270E-05-9.28940E-02-7.44418E-08-5.40852E-08
 -1      1426 1.23876E-01 9.05310E-03-6.73270E-05-7.90204E-02-8.19861E-08-4.17740E-08
 -1      1427 1.45485E-01-1.25556E-02-6.73270E-05-5.74117E-02-8.75116E-08-2.84342E-08
 -1      1428 1.59359E-01-2.64293E-02-6.73270E-05-3.01831E-02-9.08823E-08-1.43943E-08
 -1      1429-2.10278E-02 1.53989E-01-5.96806E-05-2.84332E-02-2.40412E-08-1.51790E-07
 -1      1430-7.95847E-03 1.40920E-01-5.96806E-05-5.40832E-02-4.74905E-08-1.46161E-07
 -1      1431 1.23975E-02 1.20564E-01-5.96806E-05-7.44391E-02-6.97704E-08-1.36932E-07
 -1      1432 3.80474E-02 9.49138E-02-5.96806E-05-8.75084E-02-9.03323E-08-1.24332E-07
 -1      1433 6.64806E-02 6.64806E-02-5.96806E-05-9.20118E-02-1.08670E-07-1.08670E-07
 -1      1434 9.49138E-02 3.80474E-02-5.96807E-05-8.75084E-02-1.24332E-07-9.03323E-08
 -1      1435 1.20564E-01 1.23975E-02-5.96807E-05-7.44391E-02-1.36932E-07-6.97704E-08
 -1      1436 1.40920E-01-7.95847E-03-5.96807E-05-5.40832E-02-1.46161E-07-4.74905E-08
 -1      1437 1.53989E-01-2.10278E-02-5.96807E-05-2.84332E-02-1.51790E-07-2.40413E-08
 -1      1438-1.60856E-02 1.49071E-01-5.38422E-05-2.68314E-02-6.83394E-08-4.31478E-07
 -1      1439-3.75256E-03 1.36738E-01-5.38422E-05-5.10363E-02-1.34996E-07-4.15475E-07
 -1      1440 1.54566E-02 1.17529E-01-5.38422E-05-7.02455E-02-1.98329E-07-3.89242E-07
 -1      1441 3.96615E-02 9.33243E-02-5.38422E-05-8.25785E-02-2.56778E-07-3.53424E-07
 -1      1442 6.64929E-02 6.64929E-02-5.38422E-05-8.68282E-02-3.08904E-07-3.08904E-07
 -1      1443 9.33243E-02 3.96615E-02-5.38422E-05-8.25785E-02-3.53424E-07-2.56778E-07
 -1      1444 1.17529E-01 1.54566E-02-5.38422E-05-7.02455E-02-3.89242E-07-1.98329E-07
 -1      1445 1.36738E-01-3.75256E-03-5.38422E-05-5.10363E-02-4.15475E-07-1.34996E-07
 -1      1446 1.49071E-01-1.60856E-02-5.38422E-05-2.68314E-02-4.31478E-07-6.83394E-08
 -1      1447-1.15571E-02 1.44555E-01-4.86131E-05-2.53620E-02-2.26086E-07-1.42745E-06
 -1      1448 1.00514E-04 1.32898E-01-4.86131E-05-4.82414E-02-4.46606E-07-1.37451E-06
 -1      1449 1.82577E-02 1.14740E-01-4.86131E-05-6.63986E-02-6.56129E-07-1.28772E-06
 -1      1450 4.11371E-02 9.18611E-02-4.86131E-05-7.80562E-02-8.49495E-07-1.16923E-06
 -1      1451 6.64991E-02 6.64991E-02-4.86131E-05-8.20731E-02-1.02194E-06-1.02194E-06
 -1      1452 9.18611E-02 4.11371E-02-4.86131E-05-7.80562E-02-1.16923E-06-8.49495E-07
 -1      1453 1.14740E-01 1.82577E-02-4.86131E-05-6.63986E-02-1.28772E-06-6.56129E-07
 -1      1454 1.32898E-01 1.00514E-04-4.86131E-05-4.82414E-02-1.37451E-06-4.46606E-07
 -1      1455 1.44555E-01-1.15571E-02-4.86131E-05-2.53620E-02-1.42745E-06-2.26086E-07
 -1      1456-7.41436E-03 1.40389E-01-5.39840E-05-2.40121E-02-4.94076E-07-3.11947E-06
 -1      1457 3.62281E-03 1.29352E-01-5.39840E-05-4.56738E-02-9.75986E-07-3.00378E-06
 -1      1458 2.08136E-02 1.12161E-01-5.39840E-05-6.28646E-02-1.43386E-06-2.81412E-06
 -1      1459 4.24753E-02 9.04996E-02-5.39840E-05-7.39018E-02-1.85644E-06-2.55517E-06
 -1      1460 6.64874E-02 6.64874E-02-5.39840E-05-7.77049E-02-2.23330E-06-2.23330E-06
 -1      1461 9.04996E-02 4.24753E-02-5.39840E-05-7.39018E-02-2.55517E-06-1.85644E-06
 -1      1462 1.12161E-01 2.08136E-02-5.39840E-05-6.28646E-02-2.81412E-06-1.43386E-06
 -1      1463 1.29352E-01 3.62281E-03-5.39840E-05-4.56738E-02-3.00378E-06-9.75986E-07
 -1      1464 1.40389E-01-7.41436E-03-5.39840E-05-2.40121E-02-3.11947E-06-4.94076E-07
 -1      1465-3.62891E-03 1.36543E-01-3.25544E-05-2.27723E-02-3.70330E-07-2.33817E-06
 -1      1466 6.83837E-03 1.26076E-01-3.25544E-05-4.33155E-02-7.31542E-07-2.25145E-06
 -1      1467 2.31416E-02 1.09773E-01-3.25544E-05-5.96187E-02-1.07474E-06-2.10930E-06
 -1      1468 4.36848E-02 8.92294E-02-3.25544E-05-7.00860E-02-1.39147E-06-1.91520E-06
 -1      1469 6.64571E-02 6.64571E-02-3.25544E-05-7.36928E-02-1.67395E-06-1.67395E-06
 -1      1470 8.92294E-02 4.36848E-02-3.25544E-05-7.00860E-02-1.91520E-06-1.39147E-06
 -1      1471 1.09773E-01 2.31416E-02-3.25544E-05-5.96187E-02-2.10930E-06-1.07474E-06
 -1      1472 1.26076E-01 6.83837E-03-3.25544E-05-4.33155E-02-2.25145E-06-7.31541E-07
 -1      1473 1.36543E-01-3.62891E-03-3.25544E-05-2.27723E-02-2.33817E-06-3.70330E-07
 -1      1474-2.45532E-04 1.32893E-01-2.07047E-04-2.16297E-02 3.88515E-06 2.45298E-05
 -1      1475 9.69655E-03 1.22951E-01-2.07047E-04-4.11421E-02 7.67463E-06 2.36201E-05
 -1      1476 2.51817E-02 1.07466E-01-2.07047E-04-5.66273E-02 1.12751E-05 2.21287E-05
 -1      1477 4.46942E-02 8.79536E-02-2.07047E-04-6.65694E-02 1.45980E-05 2.00924E-05
 -1      1478 6.63239E-02 6.63239E-02-2.07047E-04-6.99952E-02 1.75614E-05 1.75614E-05
 -1      1479 8.79536E-02 4.46942E-02-2.07047E-04-6.65694E-02 2.00924E-05 1.45980E-05
 -1      1480 1.07466E-01 2.51817E-02-2.07047E-04-5.66273E-02 2.21287E-05 1.12751E-05
 -1      1481 1.22951E-01 9.69655E-03-2.07047E-04-4.11421E-02 2.36201E-05 7.67463E-06
 -1      1482 1.32893E-01-2.45533E-04-2.07047E-04-2.16297E-02 2.45298E-05 3.88515E-06
 -1      1483-7.75746E-01 8.96588E-01-4.39389E-04-2.71687E-01-1.29431E-04-8.17198E-04
 -1      1484-7.79916E-01 8.94461E-01-4.47398E-03-2.72019E-01-1.82974E-04-1.15525E-03
 -1      1485-7.82060E-01 8.93084E-01-7.63529E-03-2.72144E-01-1.78719E-04-1.12839E-03
 -1      1486-7.83100E-01 8.92312E-01-9.57724E-03-2.72187E-01-1.24400E-04-7.85434E-04
 -1      1487-7.83519E-01 8.91973E-01-1.04741E-02-2.72200E-01-4.40356E-05-2.78030E-04
 -1      1488-7.83519E-01 8.91973E-01-1.04741E-02-2.72200E-01 4.40356E-05 2.78030E-04
 -1      1489-7.83100E-01 8.92312E-01-9.57724E-03-2.72187E-01 1.24400E-04 7.85434E-04
 -1      1490-7.82060E-01 8.93084E-01-7.63529E-03-2.72144E-01 1.78719E-04 1.12839E-03
 -1      1491-7.79916E-01 8.94461E-01-4.47398E-03-2.72019E-01 1.82974E-04 1.15525E-03
 -1      1492-7.75746E-01 8.96588E-01-4.39389E-04-2.71687E-01 1.29431E-04 8.17198E-04
 -1      1493-6.50865E-01 7.71707E-01-4.39389E-04-5.16779E-01-2.55676E-04-7.86889E-04
 -1      1494-6.54882E-01 7.69428E-01-4.47398E-03-5.17411E-01-3.61442E-04-1.11241E-03
 -1      1495-6.56969E-01 7.67994E-01-7.63529E-03-5.17648E-01-3.53037E-04-1.08654E-03
 -1      1496-6.57989E-01 7.67201E-01-9.57724E-03-5.17731E-01-2.45738E-04-7.56303E-04
 -1      1497-6.58402E-01 7.66856E-01-1.04741E-02-5.17755E-01-8.69869E-05-2.67718E-04
 -1      1498-6.58402E-01 7.66856E-01-1.04741E-02-5.17755E-01 8.69869E-05 2.67718E-04
 -1      1499-6.57989E-01 7.67201E-01-9.57724E-03-5.17731E-01 2.45738E-04 7.56303E-04
 -1      1500-6.56969E-01 7.67994E-01-7.63529E-03-5.17648E-01 3.53037E-04 1.08654E-03
 -1      1501-6.54882E-01 7.69428E-01-4.47398E-03-5.17411E-01 3.61442E-04 1.11241E-03
 -1      1502-6.50865E-01 7.71707E-01-4.39389E-04-5.16779E-01 2.55676E-04 7.86889E-04
 -1      1503-4.56358E-01 5.77201E-01-4.39389E-04-7.11286E-01-3.75624E-04-7.37205E-04
 -1      1504-4.60138E-01 5.74684E-01-4.47398E-03-7.12155E-01-5.31011E-04-1.04217E-03
 -1      1505-4.62136E-01 5.73160E-01-7.63529E-03-7.12481E-01-5.18663E-04-1.01793E-03
 -1      1506-4.63125E-01 5.72337E-01-9.57724E-03-7.12595E-01-3.61024E-04-7.08550E-04
 -1      1507-4.63528E-01 5.71982E-01-1.04741E-02-7.12629E-01-1.27796E-04-2.50814E-04
 -1      1508-4.63528E-01 5.71982E-01-1.04741E-02-7.12629E-01 1.27796E-04 2.50814E-04
 -1      1509-4.63125E-01 5.72337E-01-9.57724E-03-7.12595E-01 3.61024E-04 7.08550E-04
 -1      1510-4.62136E-01 5.73160E-01-7.63529E-03-7.12481E-01 5.18663E-04 1.01793E-03
 -1      1511-4.60138E-01 5.74684E-01-4.47398E-03-7.12155E-01 5.31011E-04 1.04217E-03
 -1      1512-4.56358E-01 5.77201E-01-4.39389E-04-7.11286E-01 3.75624E-04 7.37205E-04
 -1      1513-2.11266E-01 3.32108E-01-4.39389E-04-8.36167E-01-4.86324E-04-6.69368E-04
 -1      1514-2.14746E-01 3.29292E-01-4.47398E-03-8.37188E-01-6.87504E-04-9.46269E-04
 -1      1515-2.16631E-01 3.27656E-01-7.63529E-03-8.37572E-01-6.71517E-04-9.24264E-04
 -1      1516-2.17581E-01 3.26793E-01-9.57724E-03-8.37706E-01-4.67421E-04-6.43350E-04
 -1      1517-2.17973E-01 3.26427E-01-1.04741E-02-8.37746E-01-1.65459E-04-2.27735E-04
 -1      1518-2.17973E-01 3.26427E-01-1.04741E-02-8.37746E-01 1.65459E-04 2.27735E-04
 -1      1519-2.17581E-01 3.26793E-01-9.57724E-03-8.37706E-01 4.67421E-04 6.43350E-04
 -1      1520-2.16631E-01 3.27656E-01-7.63529E-03-8.37572E-01 6.71517E-04 9.24264E-04
 -1      1521-2.14746E-01 3.29292E-01-4.47398E-03-8.37188E-01 6.87504E-04 9.46269E-04
 -1      1522-2.11266E-01 3.32108E-01-4.39389E-04-8.36167E-01 4.86324E-04 6.69368E-04
 -1      1523 6.04211E-02 6.04211E-02-4.39389E-04-8.79198E-01-5.85049E-04-5.85049E-04
 -1      1524 5.72729E-02 5.72729E-02-4.47398E-03-8.80272E-01-8.27069E-04-8.27069E-04
 -1      1525 5.55123E-02 5.55123E-02-7.63529E-03-8.80675E-01-8.07836E-04-8.07836E-04
 -1      1526 5.46060E-02 5.46060E-02-9.57724E-03-8.80816E-01-5.62308E-04-5.62308E-04
 -1      1527 5.42270E-02 5.42270E-02-1.04741E-02-8.80858E-01-1.99047E-04-1.99047E-04
 -1      1528 5.42270E-02 5.42270E-02-1.04741E-02-8.80858E-01 1.99047E-04 1.99047E-04
 -1      1529 5.46060E-02 5.46060E-02-9.57724E-03-8.80816E-01 5.62308E-04 5.62308E-04
 -1      1530 5.55123E-02 5.55123E-02-7.63529E-03-8.80675E-01 8.07836E-04 8.07836E-04
 -1      1531 5.72729E-02 5.72729E-02-4.47398E-03-8.80272E-01 8.27069E-04 8.27069E-04
 -1      1532 6.04211E-02 6.04211E-02-4.39389E-04-8.79198E-01 5.85049E-04 5.85049E-04
 -1      1533 3.32108E-01-2.11266E-01-4.39389E-04-8.36167E-01-6.69368E-04-4.86324E-04
 -1      1534 3.29292E-01-2.14746E-01-4.47398E-03-8.37188E-01-9.46269E-04-6.87504E-04
 -1      1535 3.27656E-01-2.16631E-01-7.63529E-03-8.37572E-01-9.24264E-04-6.71517E-04
 -1      1536 3.26793E-01-2.17581E-01-9.57724E-03-8.37706E-01-6.43350E-04-4.67421E-04
 -1      1537 3.26427E-01-2.17973E-01-1.04741E-02-8.37746E-01-2.27735E-04-1.65459E-04
 -1      1538 3.26427E-01-2.17973E-01-1.04741E-02-8.37746E-01 2.27735E-04 1.65459E-04
 -1      1539 3.26793E-01-2.17581E-01-9.57724E-03-8.37706E-01 6.43350E-04 4.67421E-04
 -1      1540 3.27656E-01-2.16631E-01-7.63529E-03-8.37572E-01 9.24264E-04 6.71517E-04
 -1      1541 3.29292E-01-2.14746E-01-4.47398E-03-8.37188E-01 9.46269E-04 6.87504E-04
 -1      1542 3.32108E-01-2.11266E-01-4.39389E-04-8.36167E-01 6.69368E-04 4.86324E-04
 -1      1543 5.77201E-01-4.56358E-01-4.39389E-04-7.11286E-01-7.37205E-04-3.75624E-04
 -1      1544 5.74684E-01-4.60138E-01-4.47398E-03-7.12155E-01-1.04217E-03-5.31011E-04
 -1      1545 5.73160E-01-4.62136E-01-7.63529E-03-7.12481E-01-1.01793E-03-5.18663E-04
 -1      1546 5.72337E-01-4.63125E-01-9.57724E-03-7.12595E-01-7.08550E-04-3.61024E-04
 -1      1547 5.71982E-01-4.63528E-01-1.04741E-02-7.12629E-01-2.50814E-04-1.27796E-04
 -1      1548 5.71982E-01-4.63528E-01-1.04741E-02-7.12629E-01 2.50814E-04 1.27796E-04
 -1      1549 5.72337E-01-4.63125E-01-9.57724E-03-7.12595E-01 7.08550E-04 3.61024E-04
 -1      1550 5.73160E-01-4.62136E-01-7.63529E-03-7.12481E-01 1.01793E-03 5.18663E-04
 -1      1551 5.74684E-01-4.60138E-01-4.47398E-03-7.12155E-01 1.04217E-03 5.31011E-04
 -1      1552 5.77201E-01-4.56358E-01-4.39389E-04-7.11286E-01 7.37205E-04 3.75624E-04
 -1      1553 7.71707E-01-6.50865E-01-4.39389E-04-5.16779E-01-7.86889E-04-2.55676E-04
 -1      1554 7.69428E-01-6.54882E-01-4.47398E-03-5.17411E-01-1.11241E-03-3.61442E-04
 -1      1555 7.67994E-01-6.56969E-01-7.63529E-03-5.17648E-01-1.08654E-03-3.53037E-04
 -1      1556 7.67201E-01-6.57989E-01-9.57724E-03-5.17731E-01-7.56303E-04-2.45738E-04
 -1      1557 7.66856E-01-6.58402E-01-1.04741E-02-5.17755E-01-2.67718E-04-8.69869E-05
 -1      1558 7.66856E-01-6.58402E-01-1.04741E-02-5.17755E-01 2.67718E-04 8.69869E-05
 -1      1559 7.67201E-01-6.57989E-01-9.57724E-03-5.17731E-01 7.56303E-04 2.45738E-04
 -1      1560 7.67994E-01-6.56969E-01-7.63529E-03-5.17648E-01 1.08654E-03 3.53037E-04
 -1      1561 7.69428E-01-6.54882E-01-4.47398E-03-5.17411E-01 1.11241E-03 3.61442E-04
 -1      1562 7.71707E-01-6.50865E-01-4.39389E-04-5.16779E-01 7.86889E-04 2.55676E-04
 -1      1563 8.96588E-01-7.75746E-01-4.39389E-04-2.71687E-01-8.17198E-04-1.29431E-04
 -1      1564 8.94461E-01-7.79916E-01-4.47398E-03-2.72019E-01-1.15525E-03-1.82974E-04
 -1      1565 8.93084E-01-7.82060E-01-7.63529E-03-2.72144E-01-1.12839E-03-1.78719E-04
 -1      1566 8.92312E-01-7.83100E-01-9.57724E-03-2.72187E-01-7.85434E-04-1.24400E-04
 -1      1567 8.91973E-01-7.83519E-01-1.04741E-02-2.72200E-01-2.78030E-04-4.40356E-05
 -1      1568 8.91973E-01-7.83519E-01-1.04741E-02-2.72200E-01 2.78030E-04 4.40356E-05
 -1      1569 8.92312E-01-7.83100E-01-9.57724E-03-2.72187E-01 7.85434E-04 1.24400E-04
 -1      1570 8.93084E-01-7.82060E-01-7.63529E-03-2.72144E-01 1.12839E-03 1.78719E-04
 -1      1571 8.94461E-01-7.79916E-01-4.47398E-03-2.72019E-01 1.15525E-03 1.82974E-04
 -1      1572 8.96588E-01-7.75746E-01-4.39389E-04-2.71687E-01 8.17198E-04 1.29431E-04
 -1      1573-6.43360E-01 7.62686E-01-4.48456E-03-2.28426E-01 9.54207E-05 6.02462E-04
 -1      1574-6.45061E-01 7.62658E-01-3.22817E-03-2.28698E-01 1.82429E-04 1.15181E-03
 -1      1575-6.45990E-01 7.62621E-01-2.82685E-03-2.28843E-01 1.38095E-04 8.71896E-04
 -1      1576-6.46480E-01 7.62555E-01-2.86578E-03-2.28912E-01 7.69057E-05 4.85563E-04
 -1      1577-6.46690E-01 7.62508E-01-2.97229E-03-2.28938E-01 2.39897E-05 1.51465E-04
 -1      1578-6.46690E-01 7.62508E-01-2.97229E-03-2.28938E-01-2.39897E-05-1.51465E-04
 -1      1579-6.46480E-01 7.62555E-01-2.86578E-03-2.28912E-01-7.69057E-05-4.85563E-04
 -1      1580-6.45990E-01 7.62621E-01-2.82685E-03-2.28843E-01-1.38095E-04-8.71896E-04
 -1      1581-6.45061E-01 7.62658E-01-3.22817E-03-2.28698E-01-1.82429E-04-1.15181E-03
 -1      1582-6.43360E-01 7.62686E-01-4.48456E-03-2.28426E-01-9.54207E-05-6.02462E-04
 -1      1583-5.38364E-01 6.57690E-01-4.48456E-03-4.34492E-01 1.88492E-04 5.80118E-04
 -1      1584-5.39940E-01 6.57537E-01-3.22817E-03-4.35009E-01 3.60365E-04 1.10909E-03
 -1      1585-5.40803E-01 6.57434E-01-2.82685E-03-4.35285E-01 2.72789E-04 8.39558E-04
 -1      1586-5.41261E-01 6.57336E-01-2.86578E-03-4.35416E-01 1.51918E-04 4.67554E-04
 -1      1587-5.41458E-01 6.57276E-01-2.97229E-03-4.35466E-01 4.73887E-05 1.45847E-04
 -1      1588-5.41458E-01 6.57276E-01-2.97229E-03-4.35466E-01-4.73887E-05-1.45847E-04
 -1      1589-5.41261E-01 6.57336E-01-2.86578E-03-4.35416E-01-1.51918E-04-4.67554E-04
 -1      1590-5.40803E-01 6.57434E-01-2.82685E-03-4.35285E-01-2.72789E-04-8.39558E-04
 -1      1591-5.39940E-01 6.57537E-01-3.22817E-03-4.35009E-01-3.60365E-04-1.10909E-03
 -1      1592-5.38364E-01 6.57690E-01-4.48456E-03-4.34492E-01-1.88492E-04-5.80118E-04
 -1      1593-3.74829E-01 4.94155E-01-4.48456E-03-5.98027E-01 2.76922E-04 5.43489E-04
 -1      1594-3.76211E-01 4.93807E-01-3.22817E-03-5.98739E-01 5.29428E-04 1.03906E-03
 -1      1595-3.76970E-01 4.93600E-01-2.82685E-03-5.99118E-01 4.00766E-04 7.86548E-04
 -1      1596-3.77378E-01 4.93453E-01-2.86578E-03-5.99298E-01 2.23189E-04 4.38033E-04
 -1      1597-3.77557E-01 4.93375E-01-2.97229E-03-5.99367E-01 6.96208E-05 1.36639E-04
 -1      1598-3.77557E-01 4.93375E-01-2.97229E-03-5.99367E-01-6.96208E-05-1.36639E-04
 -1      1599-3.77378E-01 4.93453E-01-2.86578E-03-5.99298E-01-2.23189E-04-4.38033E-04
 -1      1600-3.76970E-01 4.93600E-01-2.82685E-03-5.99118E-01-4.00766E-04-7.86548E-04
 -1      1601-3.76211E-01 4.93807E-01-3.22817E-03-5.98739E-01-5.29428E-04-1.03906E-03
 -1      1602-3.74829E-01 4.94155E-01-4.48456E-03-5.98027E-01-2.76922E-04-5.43489E-04
 -1      1603-1.68763E-01 2.88089E-01-4.48456E-03-7.03023E-01 3.58533E-04 4.93478E-04
 -1      1604-1.69899E-01 2.87496E-01-3.22817E-03-7.03859E-01 6.85455E-04 9.43448E-04
 -1      1605-1.70527E-01 2.87158E-01-2.82685E-03-7.04306E-01 5.18876E-04 7.14171E-04
 -1      1606-1.70874E-01 2.86949E-01-2.86578E-03-7.04517E-01 2.88965E-04 3.97726E-04
 -1      1607-1.71029E-01 2.86847E-01-2.97229E-03-7.04599E-01 9.01386E-05 1.24065E-04
 -1      1608-1.71029E-01 2.86847E-01-2.97229E-03-7.04599E-01-9.01386E-05-1.24065E-04
 -1      1609-1.70874E-01 2.86949E-01-2.86578E-03-7.04517E-01-2.88965E-04-3.97726E-04
 -1      1610-1.70527E-01 2.87158E-01-2.82685E-03-7.04306E-01-5.18876E-04-7.14171E-04
 -1      1611-1.69899E-01 2.87496E-01-3.22817E-03-7.03859E-01-6.85455E-04-9.43448E-04
 -1      1612-1.68763E-01 2.88089E-01-4.48456E-03-7.03023E-01-3.58533E-04-4.93478E-04
 -1      1613 5.96628E-02 5.96628E-02-4.48456E-03-7.39202E-01 4.31315E-04 4.31315E-04
 -1      1614 5.87984E-02 5.87985E-02-3.22817E-03-7.40082E-01 8.24604E-04 8.24604E-04
 -1      1615 5.83155E-02 5.83155E-02-2.82685E-03-7.40551E-01 6.24208E-04 6.24208E-04
 -1      1616 5.80376E-02 5.80376E-02-2.86578E-03-7.40773E-01 3.47625E-04 3.47625E-04
 -1      1617 5.79090E-02 5.79090E-02-2.97229E-03-7.40859E-01 1.08437E-04 1.08437E-04
 -1      1618 5.79090E-02 5.79090E-02-2.97229E-03-7.40859E-01-1.08437E-04-1.08437E-04
 -1      1619 5.80376E-02 5.80376E-02-2.86578E-03-7.40773E-01-3.47625E-04-3.47625E-04
 -1      1620 5.83155E-02 5.83155E-02-2.82685E-03-7.40551E-01-6.24208E-04-6.24208E-04
 -1      1621 5.87984E-02 5.87985E-02-3.22817E-03-7.40082E-01-8.24604E-04-8.24604E-04
 -1      1622 5.96628E-02 5.96628E-02-4.48456E-03-7.39202E-01-4.31315E-04-4.31315E-04
 -1      1623 2.88089E-01-1.68763E-01-4.48456E-03-7.03023E-01 4.93478E-04 3.58533E-04
 -1      1624 2.87496E-01-1.69899E-01-3.22817E-03-7.03859E-01 9.43448E-04 6.85455E-04
 -1      1625 2.87158E-01-1.70527E-01-2.82685E-03-7.04306E-01 7.14171E-04 5.18876E-04
 -1      1626 2.86949E-01-1.70874E-01-2.86578E-03-7.04517E-01 3.97726E-04 2.88965E-04
 -1      1627 2.86847E-01-1.71029E-01-2.97229E-03-7.04599E-01 1.24065E-04 9.01386E-05
 -1      1628 2.86847E-01-1.71029E-01-2.97229E-03-7.04599E-01-1.24065E-04-9.01386E-05
 -1      1629 2.86949E-01-1.70874E-01-2.86578E-03-7.04517E-01-3.97726E-04-2.88965E-04
 -1      1630 2.87158E-01-1.70527E-01-2.82685E-03-7.04306E-01-7.14171E-04-5.18876E-04
 -1      1631 2.87496E-01-1.69899E-01-3.22817E-03-7.03859E-01-9.43448E-04-6.85455E-04
 -1      1632 2.88089E-01-1.68763E-01-4.48456E-03-7.03023E-01-4.93478E-04-3.58533E-04
 -1      1633 4.94155E-01-3.74829E-01-4.48456E-03-5.98027E-01 5.43489E-04 2.76922E-04
 -1      1634 4.93807E-01-3.76211E-01-3.22817E-03-5.98739E-01 1.03906E-03 5.29428E-04
 -1      1635 4.93600E-01-3.76970E-01-2.82685E-03-5.99118E-01 7.86548E-04 4.00766E-04
 -1      1636 4.93453E-01-3.77378E-01-2.86578E-03-5.99298E-01 4.38033E-04 2.23189E-04
 -1      1637 4.93375E-01-3.77557E-01-2.97229E-03-5.99367E-01 1.36639E-04 6.96208E-05
 -1      1638 4.93375E-01-3.77557E-01-2.97229E-03-5.99367E-01-1.36639E-04-6.96208E-05
 -1      1639 4.93453E-01-3.77378E-01-2.86578E-03-5.99298E-01-4.38033E-04-2.23189E-04
 -1      1640 4.93600E-01-3.76970E-01-2.82685E-03-5.99118E-01-7.86548E-04-4.00766E-04
 -1      1641 4.93807E-01-3.76211E-01-3.22817E-03-5.98739E-01-1.03906E-03-5.29428E-04
 -1      1642 4.94155E-01-3.74829E-01-4.48456E-03-5.98027E-01-5.43489E-04-2.76922E-04
 -1      1643 6.57690E-01-5.38364E-01-4.48456E-03-4.34492E-01 5.80118E-04 1.88492E-04
 -1      1644 6.57537E-01-5.39940E-01-3.22817E-03-4.35009E-01 1.10909E-03 3.60365E-04
 -1      1645 6.57434E-01-5.40803E-01-2.82685E-03-4.35285E-01 8.39558E-04 2.72789E-04
 -1      1646 6.57336E-01-5.41261E-01-2.86578E-03-4.35416E-01 4.67554E-04 1.51918E-04
 -1      1647 6.57276E-01-5.41458E-01-2.97229E-03-4.35466E-01 1.45847E-04 4.73887E-05
 -1      1648 6.57276E-01-5.41458E-01-2.97229E-03-4.35466E-01-1.45847E-04-4.73887E-05
 -1      1649 6.57336E-01-5.41261E-01-2.86578E-03-4.35416E-01-4.67554E-04-1.51918E-04
 -1      1650 6.57434E-01-5.40803E-01-2.82685E-03-4.35285E-01-8.39558E-04-2.72789E-04
 -1      1651 6.57537E-01-5.39940E-01-3.22817E-03-4.35009E-01-1.10909E-03-3.60365E-04
 -1      1652 6.57690E-01-5.38364E-01-4.48456E-03-4.34492E-01-5.80118E-04-1.88492E-04
 -1      1653 7.62686E-01-6.43360E-01-4.48456E-03-2.28426E-01 6.02462E-04 9.54207E-05
 -1      1654 7.62658E-01-6.45061E-01-3.22817E-03-2.28698E-01 1.15181E-03 1.82429E-04
 -1      1655 7.62621E-01-6.45990E-01-2.82685E-03-2.28843E-01 8.71896E-04 1.38095E-04
 -1      1656 7.62555E-01-6.46480E-01-2.86578E-03-2.28912E-01 4.85563E-04 7.69057E-05
 -1      1657 7.62508E-01-6.46690E-01-2.97229E-03-2.28938E-01 1.51465E-04 2.39897E-05
 -1      1658 7.62508E-01-6.46690E-01-2.97229E-03-2.28938E-01-1.51465E-04-2.39897E-05
 -1      1659 7.62555E-01-6.46480E-01-2.86578E-03-2.28912E-01-4.85563E-04-7.69057E-05
 -1      1660 7.62621E-01-6.45990E-01-2.82685E-03-2.28843E-01-8.71896E-04-1.38095E-04
 -1      1661 7.62658E-01-6.45061E-01-3.22817E-03-2.28698E-01-1.15181E-03-1.82429E-04
 -1      1662 7.62686E-01-6.43360E-01-4.48456E-03-2.28426E-01-6.02462E-04-9.54207E-05
 -1      1663-5.37145E-01 6.60933E-01-2.41298E-03-1.94640E-01 6.97717E-05 4.40521E-04
 -1      1664-5.38279E-01 6.60545E-01-2.54400E-03-1.94761E-01 1.12540E-04 7.10551E-04
 -1      1665-5.39117E-01 6.60399E-01-2.24764E-03-1.94873E-01 1.20983E-04 7.63854E-04
 -1      1666-5.39634E-01 6.60352E-01-1.96044E-03-1.94950E-01 8.69983E-05 5.49286E-04
 -1      1667-5.39876E-01 6.60340E-01-1.80790E-03-1.94987E-01 3.10884E-05 1.96284E-04
 -1      1668-5.39876E-01 6.60340E-01-1.80790E-03-1.94987E-01-3.10884E-05-1.96284E-04
 -1      1669-5.39634E-01 6.60352E-01-1.96044E-03-1.94950E-01-8.69983E-05-5.49286E-04
 -1      1670-5.39117E-01 6.60399E-01-2.24764E-03-1.94873E-01-1.20983E-04-7.63854E-04
 -1      1671-5.38279E-01 6.60545E-01-2.54400E-03-1.94761E-01-1.12540E-04-7.10551E-04
 -1      1672-5.37145E-01 6.60933E-01-2.41298E-03-1.94640E-01-6.97717E-05-4.40521E-04
 -1      1673-4.47679E-01 5.71467E-01-2.41298E-03-3.70227E-01 1.37825E-04 4.24183E-04
 -1      1674-4.48758E-01 5.71023E-01-2.54400E-03-3.70457E-01 2.22309E-04 6.84197E-04
 -1      1675-4.49544E-01 5.70825E-01-2.24764E-03-3.70671E-01 2.38986E-04 7.35524E-04
 -1      1676-4.50025E-01 5.70744E-01-1.96044E-03-3.70816E-01 1.71854E-04 5.28914E-04
 -1      1677-4.50250E-01 5.70715E-01-1.80790E-03-3.70887E-01 6.14112E-05 1.89004E-04
 -1      1678-4.50250E-01 5.70715E-01-1.80790E-03-3.70887E-01-6.14112E-05-1.89004E-04
 -1      1679-4.50025E-01 5.70744E-01-1.96044E-03-3.70816E-01-1.71854E-04-5.28914E-04
 -1      1680-4.49544E-01 5.70825E-01-2.24764E-03-3.70671E-01-2.38986E-04-7.35524E-04
 -1      1681-4.48758E-01 5.71023E-01-2.54400E-03-3.70457E-01-2.22309E-04-6.84197E-04
 -1      1682-4.47679E-01 5.71467E-01-2.41298E-03-3.70227E-01-1.37825E-04-4.24183E-04
 -1      1683-3.08333E-01 4.32120E-01-2.41298E-03-5.09573E-01 2.02485E-04 3.97400E-04
 -1      1684-3.09324E-01 4.31590E-01-2.54400E-03-5.09890E-01 3.26604E-04 6.40997E-04
 -1      1685-3.10030E-01 4.31311E-01-2.24764E-03-5.10184E-01 3.51105E-04 6.89083E-04
 -1      1686-3.10457E-01 4.31175E-01-1.96044E-03-5.10385E-01 2.52479E-04 4.95518E-04
 -1      1687-3.10655E-01 4.31119E-01-1.80790E-03-5.10483E-01 9.02219E-05 1.77071E-04
 -1      1688-3.10655E-01 4.31119E-01-1.80790E-03-5.10483E-01-9.02219E-05-1.77071E-04
 -1      1689-3.10457E-01 4.31175E-01-1.96044E-03-5.10385E-01-2.52479E-04-4.95518E-04
 -1      1690-3.10030E-01 4.31311E-01-2.24764E-03-5.10184E-01-3.51105E-04-6.89083E-04
 -1      1691-3.09324E-01 4.31590E-01-2.54400E-03-5.09890E-01-3.26604E-04-6.40997E-04
 -1      1692-3.08333E-01 4.32120E-01-2.41298E-03-5.09573E-01-2.02485E-04-3.97400E-04
 -1      1693-1.32746E-01 2.56533E-01-2.41298E-03-5.99039E-01 2.62159E-04 3.60831E-04
 -1      1694-1.33628E-01 2.55894E-01-2.54400E-03-5.99412E-01 4.22857E-04 5.82013E-04
 -1      1695-1.34232E-01 2.55514E-01-2.24764E-03-5.99758E-01 4.54579E-04 6.25674E-04
 -1      1696-1.34590E-01 2.55309E-01-1.96044E-03-5.99993E-01 3.26887E-04 4.49921E-04
 -1      1697-1.34755E-01 2.55219E-01-1.80790E-03-6.00108E-01 1.16811E-04 1.60777E-04
 -1      1698-1.34755E-01 2.55219E-01-1.80790E-03-6.00108E-01-1.16811E-04-1.60777E-04
 -1      1699-1.34590E-01 2.55309E-01-1.96044E-03-5.99993E-01-3.26887E-04-4.49921E-04
 -1      1700-1.34232E-01 2.55514E-01-2.24764E-03-5.99758E-01-4.54579E-04-6.25674E-04
 -1      1701-1.33628E-01 2.55894E-01-2.54400E-03-5.99412E-01-4.22857E-04-5.82013E-04
 -1      1702-1.32746E-01 2.56533E-01-2.41298E-03-5.99039E-01-2.62159E-04-3.60831E-04
 -1      1703 6.18938E-02 6.18938E-02-2.41298E-03-6.29867E-01 3.15378E-04 3.15378E-04
 -1      1704 6.11328E-02 6.11328E-02-2.54400E-03-6.30259E-01 5.08698E-04 5.08698E-04
 -1      1705 6.06408E-02 6.06408E-02-2.24764E-03-6.30623E-01 5.46859E-04 5.46859E-04
 -1      1706 6.03593E-02 6.03593E-02-1.96044E-03-6.30870E-01 3.93245E-04 3.93245E-04
 -1      1707 6.02321E-02 6.02321E-02-1.80790E-03-6.30991E-01 1.40524E-04 1.40524E-04
 -1      1708 6.02321E-02 6.02321E-02-1.80790E-03-6.30991E-01-1.40524E-04-1.40524E-04
 -1      1709 6.03593E-02 6.03593E-02-1.96044E-03-6.30870E-01-3.93245E-04-3.93245E-04
 -1      1710 6.06408E-02 6.06408E-02-2.24764E-03-6.30623E-01-5.46859E-04-5.46859E-04
 -1      1711 6.11328E-02 6.11328E-02-2.54400E-03-6.30259E-01-5.08698E-04-5.08698E-04
 -1      1712 6.18938E-02 6.18938E-02-2.41298E-03-6.29867E-01-3.15378E-04-3.15378E-04
 -1      1713 2.56533E-01-1.32746E-01-2.41298E-03-5.99039E-01 3.60831E-04 2.62159E-04
 -1      1714 2.55894E-01-1.33628E-01-2.54400E-03-5.99412E-01 5.82013E-04 4.22857E-04
 -1      1715 2.55514E-01-1.34232E-01-2.24764E-03-5.99758E-01 6.25674E-04 4.54579E-04
 -1      1716 2.55309E-01-1.34590E-01-1.96044E-03-5.99993E-01 4.49921E-04 3.26887E-04
 -1      1717 2.55219E-01-1.34755E-01-1.80790E-03-6.00108E-01 1.60777E-04 1.16811E-04
 -1      1718 2.55219E-01-1.34755E-01-1.80790E-03-6.00108E-01-1.60777E-04-1.16811E-04
 -1      1719 2.55309E-01-1.34590E-01-1.96044E-03-5.99993E-01-4.49921E-04-3.26887E-04
 -1      1720 2.55514E-01-1.34232E-01-2.24764E-03-5.99758E-01-6.25674E-04-4.54579E-04
 -1      1721 2.55894E-01-1.33628E-01-2.54400E-03-5.99412E-01-5.82013E-04-4.22857E-04
 -1      1722 2.56533E-01-1.32746E-01-2.41298E-03-5.99039E-01-3.60831E-04-2.62159E-04
 -1      1723 4.32120E-01-3.08333E-01-2.41298E-03-5.09573E-01 3.97400E-04 2.02485E-04
 -1      1724 4.31590E-01-3.09324E-01-2.54400E-03-5.09890E-01 6.40997E-04 3.26604E-04
 -1      1725 4.31311E-01-3.10030E-01-2.24764E-03-5.10184E-01 6.89083E-04 3.51105E-04
 -1      1726 4.31175E-01-3.10457E-01-1.96044E-03-5.10385E-01 4.95518E-04 2.52479E-04
 -1      1727 4.31119E-01-3.10655E-01-1.80790E-03-5.10483E-01 1.77071E-04 9.02219E-05
 -1      1728 4.31119E-01-3.10655E-01-1.80790E-03-5.10483E-01-1.77071E-04-9.02219E-05
 -1      1729 4.31175E-01-3.10457E-01-1.96044E-03-5.10385E-01-4.95518E-04-2.52479E-04
 -1      1730 4.31311E-01-3.10030E-01-2.24764E-03-5.10184E-01-6.89083E-04-3.51105E-04
 -1      1731 4.31590E-01-3.09324E-01-2.54400E-03-5.09890E-01-6.40997E-04-3.26604E-04
 -1      1732 4.32120E-01-3.08333E-01-2.41298E-03-5.09573E-01-3.97400E-04-2.02485E-04
 -1      1733 5.71467E-01-4.47679E-01-2.41298E-03-3.70227E-01 4.24183E-04 1.37825E-04
 -1      1734 5.71023E-01-4.48758E-01-2.54400E-03-3.70457E-01 6.84197E-04 2.22309E-04
 -1      1735 5.70825E-01-4.49544E-01-2.24764E-03-3.70671E-01 7.35524E-04 2.38986E-04
 -1      1736 5.70744E-01-4.50025E-01-1.96044E-03-3.70816E-01 5.28914E-04 1.71854E-04
 -1      1737 5.70715E-01-4.50250E-01-1.80790E-03-3.70887E-01 1.89004E-04 6.14112E-05
 -1      1738 5.70715E-01-4.50250E-01-1.80790E-03-3.70887E-01-1.89004E-04-6.14112E-05
 -1      1739 5.70744E-01-4.50025E-01-1.96044E-03-3.70816E-01-5.28914E-04-1.71854E-04
 -1      1740 5.70825E-01-4.49544E-01-2.24764E-03-3.70671E-01-7.35524E-04-2.38986E-04
 -1      1741 5.71023E-01-4.48758E-01-2.54400E-03-3.70457E-01-6.84197E-04-2.22309E-04
 -1      1742 5.71467E-01-4.47679E-01-2.41298E-03-3.70227E-01-4.24183E-04-1.37825E-04
 -1      1743 6.60933E-01-5.37145E-01-2.41298E-03-1.94640E-01 4.40521E-04 6.97717E-05
 -1      1744 6.60545E-01-5.38279E-01-2.54400E-03-1.94761E-01 7.10551E-04 1.12540E-04
 -1      1745 6.60399E-01-5.39117E-01-2.24764E-03-1.94873E-01 7.63854E-04 1.20983E-04
 -1      1746 6.60352E-01-5.39634E-01-1.96044E-03-1.94950E-01 5.49286E-04 8.69983E-05
 -1      1747 6.60340E-01-5.39876E-01-1.80790E-03-1.94987E-01 1.96284E-04 3.10884E-05
 -1      1748 6.60340E-01-5.39876E-01-1.80790E-03-1.94987E-01-1.96284E-04-3.10884E-05
 -1      1749 6.60352E-01-5.39634E-01-1.96044E-03-1.94950E-01-5.49286E-04-8.69983E-05
 -1      1750 6.60399E-01-5.39117E-01-2.24764E-03-1.94873E-01-7.63854E-04-1.20983E-04
 -1      1751 6.60545E-01-5.38279E-01-2.54400E-03-1.94761E-01-7.10551E-04-1.12540E-04
 -1      1752 6.60933E-01-5.37145E-01-2.41298E-03-1.94640E-01-4.40521E-04-6.97717E-05
 -1      1753-4.54119E-01 5.79273E-01-1.97181E-03-1.67885E-01 2.50958E-05 1.58449E-04
 -1      1754-4.54254E-01 5.79255E-01-1.87298E-03-1.67904E-01 4.32095E-05 2.72814E-04
 -1      1755-4.54543E-01 5.79178E-01-1.82178E-03-1.67938E-01 4.54308E-05 2.86839E-04
 -1      1756-4.54799E-01 5.79124E-01-1.74046E-03-1.67971E-01 3.49639E-05 2.20753E-04
 -1      1757-4.54942E-01 5.79099E-01-1.68115E-03-1.67990E-01 1.30999E-05 8.27095E-05
 -1      1758-4.54942E-01 5.79099E-01-1.68115E-03-1.67990E-01-1.30999E-05-8.27095E-05
 -1      1759-4.54799E-01 5.79124E-01-1.74046E-03-1.67971E-01-3.49639E-05-2.20753E-04
 -1      1760-4.54543E-01 5.79178E-01-1.82178E-03-1.67938E-01-4.54308E-05-2.86839E-04
 -1      1761-4.54254E-01 5.79255E-01-1.87298E-03-1.67904E-01-4.32095E-05-2.72814E-04
 -1      1762-4.54119E-01 5.79273E-01-1.97181E-03-1.67885E-01-2.50958E-05-1.58449E-04
 -1      1763-3.76951E-01 5.02105E-01-1.97181E-03-3.19335E-01 4.95736E-05 1.52572E-04
 -1      1764-3.77077E-01 5.02078E-01-1.87298E-03-3.19372E-01 8.53551E-05 2.62696E-04
 -1      1765-3.77350E-01 5.01986E-01-1.82178E-03-3.19437E-01 8.97429E-05 2.76200E-04
 -1      1766-3.77591E-01 5.01916E-01-1.74046E-03-3.19500E-01 6.90668E-05 2.12566E-04
 -1      1767-3.77725E-01 5.01882E-01-1.68115E-03-3.19536E-01 2.58772E-05 7.96419E-05
 -1      1768-3.77725E-01 5.01882E-01-1.68115E-03-3.19536E-01-2.58772E-05-7.96419E-05
 -1      1769-3.77591E-01 5.01916E-01-1.74046E-03-3.19500E-01-6.90668E-05-2.12566E-04
 -1      1770-3.77350E-01 5.01986E-01-1.82178E-03-3.19437E-01-8.97429E-05-2.76200E-04
 -1      1771-3.77077E-01 5.02078E-01-1.87298E-03-3.19372E-01-8.53551E-05-2.62696E-04
 -1      1772-3.76951E-01 5.02105E-01-1.97181E-03-3.19335E-01-4.95736E-05-1.52572E-04
 -1      1773-2.56758E-01 3.81913E-01-1.97181E-03-4.39528E-01 7.28308E-05 1.42939E-04
 -1      1774-2.56871E-01 3.81872E-01-1.87298E-03-4.39578E-01 1.25399E-04 2.46109E-04
 -1      1775-2.57120E-01 3.81755E-01-1.82178E-03-4.39668E-01 1.31845E-04 2.58761E-04
 -1      1776-2.57337E-01 3.81662E-01-1.74046E-03-4.39754E-01 1.01469E-04 1.99144E-04
 -1      1777-2.57457E-01 3.81615E-01-1.68115E-03-4.39804E-01 3.80174E-05 7.46133E-05
 -1      1778-2.57457E-01 3.81615E-01-1.68115E-03-4.39804E-01-3.80174E-05-7.46133E-05
 -1      1779-2.57337E-01 3.81662E-01-1.74046E-03-4.39754E-01-1.01469E-04-1.99144E-04
 -1      1780-2.57120E-01 3.81755E-01-1.82178E-03-4.39668E-01-1.31845E-04-2.58761E-04
 -1      1781-2.56871E-01 3.81872E-01-1.87298E-03-4.39578E-01-1.25399E-04-2.46109E-04
 -1      1782-2.56758E-01 3.81913E-01-1.97181E-03-4.39528E-01-7.28308E-05-1.42939E-04
 -1      1783-1.05308E-01 2.30462E-01-1.97181E-03-5.16696E-01 9.42947E-05 1.29785E-04
 -1      1784-1.05403E-01 2.30404E-01-1.87298E-03-5.16754E-01 1.62355E-04 2.23462E-04
 -1      1785-1.05620E-01 2.30256E-01-1.82178E-03-5.16860E-01 1.70701E-04 2.34950E-04
 -1      1786-1.05809E-01 2.30133E-01-1.74046E-03-5.16961E-01 1.31373E-04 1.80819E-04
 -1      1787-1.05911E-01 2.30069E-01-1.68115E-03-5.17020E-01 4.92214E-05 6.77475E-05
 -1      1788-1.05911E-01 2.30069E-01-1.68115E-03-5.17020E-01-4.92214E-05-6.77475E-05
 -1      1789-1.05809E-01 2.30133E-01-1.74046E-03-5.16961E-01-1.31373E-04-1.80819E-04
 -1      1790-1.05620E-01 2.30256E-01-1.82178E-03-5.16860E-01-1.70701E-04-2.34950E-04
 -1      1791-1.05403E-01 2.30404E-01-1.87298E-03-5.16754E-01-1.62355E-04-2.23462E-04
 -1      1792-1.05308E-01 2.30462E-01-1.97181E-03-5.16696E-01-9.42947E-05-1.29785E-04
 -1      1793 6.25770E-02 6.25770E-02-1.97181E-03-5.43286E-01 1.13437E-04 1.13437E-04
 -1      1794 6.25005E-02 6.25005E-02-1.87298E-03-5.43348E-01 1.95313E-04 1.95313E-04
 -1      1795 6.23178E-02 6.23178E-02-1.82178E-03-5.43459E-01 2.05354E-04 2.05354E-04
 -1      1796 6.21623E-02 6.21623E-02-1.74046E-03-5.43565E-01 1.58042E-04 1.58042E-04
 -1      1797 6.20785E-02 6.20785E-02-1.68115E-03-5.43627E-01 5.92135E-05 5.92135E-05
 -1      1798 6.20785E-02 6.20785E-02-1.68115E-03-5.43627E-01-5.92135E-05-5.92135E-05
 -1      1799 6.21623E-02 6.21623E-02-1.74046E-03-5.43565E-01-1.58042E-04-1.58042E-04
 -1      1800 6.23178E-02 6.23178E-02-1.82178E-03-5.43459E-01-2.05354E-04-2.05354E-04
 -1      1801 6.25005E-02 6.25005E-02-1.87298E-03-5.43348E-01-1.95313E-04-1.95313E-04
 -1      1802 6.25770E-02 6.25770E-02-1.97181E-03-5.43286E-01-1.13437E-04-1.13437E-04
 -1      1803 2.30462E-01-1.05308E-01-1.97181E-03-5.16696E-01 1.29785E-04 9.42947E-05
 -1      1804 2.30404E-01-1.05403E-01-1.87298E-03-5.16754E-01 2.23462E-04 1.62355E-04
 -1      1805 2.30256E-01-1.05620E-01-1.82178E-03-5.16860E-01 2.34950E-04 1.70701E-04
 -1      1806 2.30133E-01-1.05809E-01-1.74046E-03-5.16961E-01 1.80819E-04 1.31373E-04
 -1      1807 2.30069E-01-1.05911E-01-1.68115E-03-5.17020E-01 6.77475E-05 4.92214E-05
 -1      1808 2.30069E-01-1.05911E-01-1.68115E-03-5.17020E-01-6.77475E-05-4.92214E-05
 -1      1809 2.30133E-01-1.05809E-01-1.74046E-03-5.16961E-01-1.80819E-04-1.31373E-04
 -1      1810 2.30256E-01-1.05620E-01-1.82178E-03-5.16860E-01-2.34950E-04-1.70701E-04
 -1      1811 2.30404E-01-1.05403E-01-1.87298E-03-5.16754E-01-2.23462E-04-1.62355E-04
 -1      1812 2.30462E-01-1.05308E-01-1.97181E-03-5.16696E-01-1.29785E-04-9.42947E-05
 -1      1813 3.81913E-01-2.56758E-01-1.97181E-03-4.39528E-01 1.42939E-04 7.28308E-05
 -1      1814 3.81872E-01-2.56871E-01-1.87298E-03-4.39578E-01 2.46109E-04 1.25399E-04
 -1      1815 3.81755E-01-2.57120E-01-1.82178E-03-4.39668E-01 2.58761E-04 1.31845E-04
 -1      1816 3.81662E-01-2.57337E-01-1.74046E-03-4.39754E-01 1.99144E-04 1.01469E-04
 -1      1817 3.81615E-01-2.57457E-01-1.68115E-03-4.39804E-01 7.46133E-05 3.80174E-05
 -1      1818 3.81615E-01-2.57457E-01-1.68115E-03-4.39804E-01-7.46133E-05-3.80174E-05
 -1      1819 3.81662E-01-2.57337E-01-1.74046E-03-4.39754E-01-1.99144E-04-1.01469E-04
 -1      1820 3.81755E-01-2.57120E-01-1.82178E-03-4.39668E-01-2.58761E-04-1.31845E-04
 -1      1821 3.81872E-01-2.56871E-01-1.87298E-03-4.39578E-01-2.46109E-04-1.25399E-04
 -1      1822 3.81913E-01-2.56758E-01-1.97181E-03-4.39528E-01-1.42939E-04-7.28308E-05
 -1      1823 5.02105E-01-3.76951E-01-1.97181E-03-3.19335E-01 1.52572E-04 4.95736E-05
 -1      1824 5.02078E-01-3.77077E-01-1.87298E-03-3.19372E-01 2.62696E-04 8.53551E-05
 -1      1825 5.01986E-01-3.77350E-01-1.82178E-03-3.19437E-01 2.76200E-04 8.97429E-05
 -1      1826 5.01916E-01-3.77591E-01-1.74046E-03-3.19500E-01 2.12566E-04 6.90668E-05
 -1      1827 5.01882E-01-3.77725E-01-1.68115E-03-3.19536E-01 7.96419E-05 2.58772E-05
 -1      1828 5.01882E-01-3.77725E-01-1.68115E-03-3.19536E-01-7.96419E-05-2.58772E-05
 -1      1829 5.01916E-01-3.77591E-01-1.74046E-03-3.19500E-01-2.12566E-04-6.90668E-05
 -1      1830 5.01986E-01-3.77350E-01-1.82178E-03-3.19437E-01-2.76200E-04-8.97429E-05
 -1      1831 5.02078E-01-3.77077E-01-1.87298E-03-3.19372E-01-2.62696E-04-8.53551E-05
 -1      1832 5.02105E-01-3.76951E-01-1.97181E-03-3.19335E-01-1.52572E-04-4.95736E-05
 -1      1833 5.79273E-01-4.54119E-01-1.97181E-03-1.67885E-01 1.58449E-04 2.50958E-05
 -1      1834 5.79255E-01-4.54254E-01-1.87298E-03-1.67904E-01 2.72814E-04 4.32095E-05
 -1      1835 5.79178E-01-4.54543E-01-1.82178E-03-1.67938E-01 2.86839E-04 4.54308E-05
 -1      1836 5.79124E-01-4.54799E-01-1.74046E-03-1.67971E-01 2.20753E-04 3.49639E-05
 -1      1837 5.79099E-01-4.54942E-01-1.68115E-03-1.67990E-01 8.27095E-05 1.30999E-05
 -1      1838 5.79099E-01-4.54942E-01-1.68115E-03-1.67990E-01-8.27095E-05-1.30999E-05
 -1      1839 5.79124E-01-4.54799E-01-1.74046E-03-1.67971E-01-2.20753E-04-3.49639E-05
 -1      1840 5.79178E-01-4.54543E-01-1.82178E-03-1.67938E-01-2.86839E-04-4.54308E-05
 -1      1841 5.79255E-01-4.54254E-01-1.87298E-03-1.67904E-01-2.72814E-04-4.32095E-05
 -1      1842 5.79273E-01-4.54119E-01-1.97181E-03-1.67885E-01-1.58449E-04-2.50958E-05
 -1      1843-3.86691E-01 5.13489E-01-1.54301E-03-1.46243E-01 5.81608E-06 3.67213E-05
 -1      1844-3.86704E-01 5.13482E-01-1.53315E-03-1.46244E-01 9.51144E-06 6.00529E-05
 -1      1845-3.86736E-01 5.13476E-01-1.50265E-03-1.46248E-01 1.08260E-05 6.83527E-05
 -1      1846-3.86787E-01 5.13463E-01-1.48521E-03-1.46254E-01 8.23095E-06 5.19682E-05
 -1      1847-3.86823E-01 5.13453E-01-1.47563E-03-1.46259E-01 3.07885E-06 1.94391E-05
 -1      1848-3.86823E-01 5.13453E-01-1.47563E-03-1.46259E-01-3.07885E-06-1.94391E-05
 -1      1849-3.86787E-01 5.13463E-01-1.48521E-03-1.46254E-01-8.23095E-06-5.19682E-05
 -1      1850-3.86736E-01 5.13476E-01-1.50265E-03-1.46248E-01-1.08260E-05-6.83527E-05
 -1      1851-3.86704E-01 5.13482E-01-1.53315E-03-1.46244E-01-9.51144E-06-6.00529E-05
 -1      1852-3.86691E-01 5.13489E-01-1.54301E-03-1.46243E-01-5.81608E-06-3.67213E-05
 -1      1853-3.19471E-01 4.46269E-01-1.54301E-03-2.78171E-01 1.14890E-05 3.53594E-05
 -1      1854-3.19483E-01 4.46261E-01-1.53315E-03-2.78173E-01 1.87887E-05 5.78256E-05
 -1      1855-3.19513E-01 4.46253E-01-1.50265E-03-2.78181E-01 2.13854E-05 6.58176E-05
 -1      1856-3.19561E-01 4.46237E-01-1.48521E-03-2.78193E-01 1.62592E-05 5.00408E-05
 -1      1857-3.19595E-01 4.46225E-01-1.47563E-03-2.78201E-01 6.08188E-06 1.87181E-05
 -1      1858-3.19595E-01 4.46225E-01-1.47563E-03-2.78201E-01-6.08188E-06-1.87181E-05
 -1      1859-3.19561E-01 4.46237E-01-1.48521E-03-2.78193E-01-1.62592E-05-5.00408E-05
 -1      1860-3.19513E-01 4.46253E-01-1.50265E-03-2.78181E-01-2.13854E-05-6.58176E-05
 -1      1861-3.19483E-01 4.46261E-01-1.53315E-03-2.78173E-01-1.87887E-05-5.78256E-05
 -1      1862-3.19471E-01 4.46269E-01-1.54301E-03-2.78171E-01-1.14890E-05-3.53594E-05
 -1      1863-2.14772E-01 3.41570E-01-1.54301E-03-3.82870E-01 1.68789E-05 3.31268E-05
 -1      1864-2.14783E-01 3.41562E-01-1.53315E-03-3.82872E-01 2.76033E-05 5.41745E-05
 -1      1865-2.14811E-01 3.41551E-01-1.50265E-03-3.82883E-01 3.14183E-05 6.16619E-05
 -1      1866-2.14855E-01 3.41530E-01-1.48521E-03-3.82899E-01 2.38872E-05 4.68812E-05
 -1      1867-2.14886E-01 3.41516E-01-1.47563E-03-3.82910E-01 8.93516E-06 1.75362E-05
 -1      1868-2.14886E-01 3.41516E-01-1.47563E-03-3.82910E-01-8.93516E-06-1.75362E-05
 -1      1869-2.14855E-01 3.41530E-01-1.48521E-03-3.82899E-01-2.38872E-05-4.68812E-05
 -1      1870-2.14811E-01 3.41551E-01-1.50265E-03-3.82883E-01-3.14183E-05-6.16619E-05
 -1      1871-2.14783E-01 3.41562E-01-1.53315E-03-3.82872E-01-2.76033E-05-5.41745E-05
 -1      1872-2.14772E-01 3.41570E-01-1.54301E-03-3.82870E-01-1.68789E-05-3.31268E-05
 -1      1873-8.28442E-02 2.09642E-01-1.54301E-03-4.50090E-01 2.18533E-05 3.00785E-05
 -1      1874-8.28548E-02 2.09633E-01-1.53315E-03-4.50093E-01 3.57382E-05 4.91894E-05
 -1      1875-8.28784E-02 2.09618E-01-1.50265E-03-4.50106E-01 4.06775E-05 5.59878E-05
 -1      1876-8.29166E-02 2.09592E-01-1.48521E-03-4.50125E-01 3.09269E-05 4.25672E-05
 -1      1877-8.29436E-02 2.09574E-01-1.47563E-03-4.50138E-01 1.15684E-05 1.59226E-05
 -1      1878-8.29436E-02 2.09574E-01-1.47563E-03-4.50138E-01-1.15684E-05-1.59226E-05
 -1      1879-8.29166E-02 2.09592E-01-1.48521E-03-4.50125E-01-3.09269E-05-4.25672E-05
 -1      1880-8.28784E-02 2.09618E-01-1.50265E-03-4.50106E-01-4.06775E-05-5.59878E-05
 -1      1881-8.28548E-02 2.09633E-01-1.53315E-03-4.50093E-01-3.57382E-05-4.91894E-05
 -1      1882-8.28442E-02 2.09642E-01-1.54301E-03-4.50090E-01-2.18533E-05-3.00785E-05
 -1      1883 6.33990E-02 6.33990E-02-1.54301E-03-4.73253E-01 2.62895E-05 2.62895E-05
 -1      1884 6.33891E-02 6.33891E-02-1.53315E-03-4.73255E-01 4.29931E-05 4.29931E-05
 -1      1885 6.33700E-02 6.33700E-02-1.50265E-03-4.73270E-01 4.89351E-05 4.89351E-05
 -1      1886 6.33378E-02 6.33378E-02-1.48521E-03-4.73289E-01 3.72051E-05 3.72051E-05
 -1      1887 6.33151E-02 6.33151E-02-1.47563E-03-4.73303E-01 1.39168E-05 1.39168E-05
 -1      1888 6.33151E-02 6.33151E-02-1.47563E-03-4.73303E-01-1.39168E-05-1.39168E-05
 -1      1889 6.33378E-02 6.33378E-02-1.48521E-03-4.73289E-01-3.72051E-05-3.72051E-05
 -1      1890 6.33700E-02 6.33700E-02-1.50265E-03-4.73270E-01-4.89351E-05-4.89351E-05
 -1      1891 6.33891E-02 6.33891E-02-1.53315E-03-4.73255E-01-4.29931E-05-4.29931E-05
 -1      1892 6.33990E-02 6.33990E-02-1.54301E-03-4.73253E-01-2.62895E-05-2.62895E-05
 -1      1893 2.09642E-01-8.28442E-02-1.54301E-03-4.50090E-01 3.00785E-05 2.18533E-05
 -1      1894 2.09633E-01-8.28548E-02-1.53315E-03-4.50093E-01 4.91894E-05 3.57382E-05
 -1      1895 2.09618E-01-8.28784E-02-1.50265E-03-4.50106E-01 5.59878E-05 4.06775E-05
 -1      1896 2.09592E-01-8.29166E-02-1.48521E-03-4.50125E-01 4.25672E-05 3.09269E-05
 -1      1897 2.09574E-01-8.29436E-02-1.47563E-03-4.50138E-01 1.59226E-05 1.15684E-05
 -1      1898 2.09574E-01-8.29436E-02-1.47563E-03-4.50138E-01-1.59226E-05-1.15684E-05
 -1      1899 2.09592E-01-8.29166E-02-1.48521E-03-4.50125E-01-4.25672E-05-3.09269E-05
 -1      1900 2.09618E-01-8.28784E-02-1.50265E-03-4.50106E-01-5.59878E-05-4.06775E-05
 -1      1901 2.09633E-01-8.28548E-02-1.53315E-03-4.50093E-01-4.91894E-05-3.57382E-05
 -1      1902 2.09642E-01-8.28442E-02-1.54301E-03-4.50090E-01-3.00785E-05-2.18533E-05
 -1      1903 3.41570E-01-2.14772E-01-1.54301E-03-3.82870E-01 3.31268E-05 1.68789E-05
 -1      1904 3.41562E-01-2.14783E-01-1.53315E-03-3.82872E-01 5.41745E-05 2.76033E-05
 -1      1905 3.41551E-01-2.14811E-01-1.50265E-03-3.82883E-01 6.16619E-05 3.14183E-05
 -1      1906 3.41530E-01-2.14855E-01-1.48521E-03-3.82899E-01 4.68812E-05 2.38872E-05
 -1      1907 3.41516E-01-2.14886E-01-1.47563E-03-3.82910E-01 1.75362E-05 8.93516E-06
 -1      1908 3.41516E-01-2.14886E-01-1.47563E-03-3.82910E-01-1.75362E-05-8.93516E-06
 -1      1909 3.41530E-01-2.14855E-01-1.48521E-03-3.82899E-01-4.68812E-05-2.38872E-05
 -1      1910 3.41551E-01-2.14811E-01-1.50265E-03-3.82883E-01-6.16619E-05-3.14183E-05
 -1      1911 3.41562E-01-2.14783E-01-1.53315E-03-3.82872E-01-5.41745E-05-2.76033E-05
 -1      1912 3.41570E-01-2.14772E-01-1.54301E-03-3.82870E-01-3.31268E-05-1.68789E-05
 -1      1913 4.46269E-01-3.19471E-01-1.54301E-03-2.78171E-01 3.53594E-05 1.14890E-05
 -1      1914 4.46261E-01-3.19483E-01-1.53315E-03-2.78173E-01 5.78256E-05 1.87887E-05
 -1      1915 4.46253E-01-3.19513E-01-1.50265E-03-2.78181E-01 6.58176E-05 2.13854E-05
 -1      1916 4.46237E-01-3.19561E-01-1.48521E-03-2.78193E-01 5.00408E-05 1.62592E-05
 -1      1917 4.46225E-01-3.19595E-01-1.47563E-03-2.78201E-01 1.87181E-05 6.08188E-06
 -1      1918 4.46225E-01-3.19595E-01-1.47563E-03-2.78201E-01-1.87181E-05-6.08188E-06
 -1      1919 4.46237E-01-3.19561E-01-1.48521E-03-2.78193E-01-5.00408E-05-1.62592E-05
 -1      1920 4.46253E-01-3.19513E-01-1.50265E-03-2.78181E-01-6.58176E-05-2.13854E-05
 -1      1921 4.46261E-01-3.19483E-01-1.53315E-03-2.78173E-01-5.78256E-05-1.87887E-05
 -1      1922 4.46269E-01-3.19471E-01-1.54301E-03-2.78171E-01-3.53594E-05-1.14890E-05
 -1      1923 5.13489E-01-3.86691E-01-1.54301E-03-1.46243E-01 3.67213E-05 5.81608E-06
 -1      1924 5.13482E-01-3.86704E-01-1.53315E-03-1.46244E-01 6.00529E-05 9.51144E-06
 -1      1925 5.13476E-01-3.86736E-01-1.50265E-03-1.46248E-01 6.83527E-05 1.08260E-05
 -1      1926 5.13463E-01-3.86787E-01-1.48521E-03-1.46254E-01 5.19682E-05 8.23095E-06
 -1      1927 5.13453E-01-3.86823E-01-1.47563E-03-1.46259E-01 1.94391E-05 3.07885E-06
 -1      1928 5.13453E-01-3.86823E-01-1.47563E-03-1.46259E-01-1.94391E-05-3.07885E-06
 -1      1929 5.13463E-01-3.86787E-01-1.48521E-03-1.46254E-01-5.19682E-05-8.23095E-06
 -1      1930 5.13476E-01-3.86736E-01-1.50265E-03-1.46248E-01-6.83527E-05-1.08260E-05
 -1      1931 5.13482E-01-3.86704E-01-1.53315E-03-1.46244E-01-6.00529E-05-9.51144E-06
 -1      1932 5.13489E-01-3.86691E-01-1.54301E-03-1.46243E-01-3.67213E-05-5.81608E-06
 -1      1933-3.31459E-01 4.59621E-01-1.21976E-03-1.28519E-01-2.97364E-08-1.87748E-07
 -1      1934-3.31428E-01 4.59628E-01-1.21756E-03-1.28515E-01-1.26080E-07-7.96037E-07
 -1      1935-3.31416E-01 4.59628E-01-1.21734E-03-1.28513E-01 1.06565E-07 6.72825E-07
 -1      1936-3.31411E-01 4.59629E-01-1.21422E-03-1.28512E-01 2.87394E-07 1.81454E-06
 -1      1937-3.31410E-01 4.59628E-01-1.21277E-03-1.28512E-01 1.34235E-07 8.47526E-07
 -1      1938-3.31410E-01 4.59628E-01-1.21277E-03-1.28512E-01-1.34235E-07-8.47526E-07
 -1      1939-3.31411E-01 4.59629E-01-1.21422E-03-1.28512E-01-2.87394E-07-1.81454E-06
 -1      1940-3.31416E-01 4.59628E-01-1.21734E-03-1.28513E-01-1.06565E-07-6.72825E-07
 -1      1941-3.31428E-01 4.59628E-01-1.21756E-03-1.28515E-01 1.26080E-07 7.96037E-07
 -1      1942-3.31459E-01 4.59621E-01-1.21976E-03-1.28519E-01 2.97364E-08 1.87748E-07
 -1      1943-2.72386E-01 4.00547E-01-1.21976E-03-2.44457E-01-5.87406E-08-1.80785E-07
 -1      1944-2.72356E-01 4.00556E-01-1.21756E-03-2.44450E-01-2.49055E-07-7.66513E-07
 -1      1945-2.72345E-01 4.00557E-01-1.21734E-03-2.44446E-01 2.10506E-07 6.47871E-07
 -1      1946-2.72340E-01 4.00558E-01-1.21422E-03-2.44445E-01 5.67712E-07 1.74724E-06
 -1      1947-2.72339E-01 4.00558E-01-1.21277E-03-2.44444E-01 2.65164E-07 8.16092E-07
 -1      1948-2.72339E-01 4.00558E-01-1.21277E-03-2.44444E-01-2.65164E-07-8.16092E-07
 -1      1949-2.72340E-01 4.00558E-01-1.21422E-03-2.44445E-01-5.67712E-07-1.74724E-06
 -1      1950-2.72345E-01 4.00557E-01-1.21734E-03-2.44446E-01-2.10506E-07-6.47871E-07
 -1      1951-2.72356E-01 4.00556E-01-1.21756E-03-2.44450E-01 2.49055E-07 7.66513E-07
 -1      1952-2.72386E-01 4.00547E-01-1.21976E-03-2.44457E-01 5.87406E-08 1.80785E-07
 -1      1953-1.80377E-01 3.08538E-01-1.21976E-03-3.36467E-01-8.62984E-08-1.69370E-07
 -1      1954-1.80350E-01 3.08549E-01-1.21756E-03-3.36456E-01-3.65898E-07-7.18116E-07
 -1      1955-1.80340E-01 3.08552E-01-1.21734E-03-3.36451E-01 3.09264E-07 6.06964E-07
 -1      1956-1.80336E-01 3.08554E-01-1.21422E-03-3.36449E-01 8.34050E-07 1.63692E-06
 -1      1957-1.80335E-01 3.08554E-01-1.21277E-03-3.36448E-01 3.89565E-07 7.64564E-07
 -1      1958-1.80335E-01 3.08554E-01-1.21277E-03-3.36448E-01-3.89565E-07-7.64564E-07
 -1      1959-1.80336E-01 3.08554E-01-1.21422E-03-3.36449E-01-8.34050E-07-1.63692E-06
 -1      1960-1.80340E-01 3.08552E-01-1.21734E-03-3.36451E-01-3.09264E-07-6.06964E-07
 -1      1961-1.80350E-01 3.08549E-01-1.21756E-03-3.36456E-01 3.65898E-07 7.18116E-07
 -1      1962-1.80377E-01 3.08538E-01-1.21976E-03-3.36467E-01 8.62984E-08 1.69370E-07
 -1      1963-6.44382E-02 1.92599E-01-1.21976E-03-3.95540E-01-1.11731E-07-1.53785E-07
 -1      1964-6.44150E-02 1.92615E-01-1.21756E-03-3.95528E-01-4.73731E-07-6.52035E-07
 -1      1965-6.44068E-02 1.92619E-01-1.21734E-03-3.95522E-01 4.00406E-07 5.51112E-07
 -1      1966-6.44032E-02 1.92621E-01-1.21422E-03-3.95520E-01 1.07985E-06 1.48629E-06
 -1      1967-6.44025E-02 1.92621E-01-1.21277E-03-3.95519E-01 5.04373E-07 6.94209E-07
 -1      1968-6.44025E-02 1.92621E-01-1.21277E-03-3.95519E-01-5.04373E-07-6.94209E-07
 -1      1969-6.44032E-02 1.92621E-01-1.21422E-03-3.95520E-01-1.07985E-06-1.48629E-06
 -1      1970-6.44068E-02 1.92619E-01-1.21734E-03-3.95522E-01-4.00406E-07-5.51112E-07
 -1      1971-6.44150E-02 1.92615E-01-1.21756E-03-3.95528E-01 4.73731E-07 6.52035E-07
 -1      1972-6.44382E-02 1.92599E-01-1.21976E-03-3.95540E-01 1.11731E-07 1.53785E-07
 -1      1973 6.40806E-02 6.40806E-02-1.21976E-03-4.15895E-01-1.34413E-07-1.34413E-07
 -1      1974 6.40997E-02 6.40997E-02-1.21756E-03-4.15883E-01-5.69900E-07-5.69900E-07
 -1      1975 6.41061E-02 6.41061E-02-1.21734E-03-4.15877E-01 4.81689E-07 4.81689E-07
 -1      1976 6.41090E-02 6.41090E-02-1.21422E-03-4.15874E-01 1.29906E-06 1.29906E-06
 -1      1977 6.41094E-02 6.41094E-02-1.21277E-03-4.15873E-01 6.06761E-07 6.06761E-07
 -1      1978 6.41094E-02 6.41094E-02-1.21277E-03-4.15873E-01-6.06761E-07-6.06761E-07
 -1      1979 6.41090E-02 6.41090E-02-1.21422E-03-4.15874E-01-1.29906E-06-1.29906E-06
 -1      1980 6.41061E-02 6.41061E-02-1.21734E-03-4.15877E-01-4.81689E-07-4.81689E-07
 -1      1981 6.40997E-02 6.40997E-02-1.21756E-03-4.15883E-01 5.69900E-07 5.69900E-07
 -1      1982 6.40806E-02 6.40806E-02-1.21976E-03-4.15895E-01 1.34413E-07 1.34413E-07
 -1      1983 1.92599E-01-6.44382E-02-1.21976E-03-3.95540E-01-1.53785E-07-1.11731E-07
 -1      1984 1.92615E-01-6.44150E-02-1.21756E-03-3.95528E-01-6.52035E-07-4.73731E-07
 -1      1985 1.92619E-01-6.44068E-02-1.21734E-03-3.95522E-01 5.51112E-07 4.00406E-07
 -1      1986 1.92621E-01-6.44032E-02-1.21422E-03-3.95520E-01 1.48629E-06 1.07985E-06
 -1      1987 1.92621E-01-6.44025E-02-1.21277E-03-3.95519E-01 6.94209E-07 5.04373E-07
 -1      1988 1.92621E-01-6.44025E-02-1.21277E-03-3.95519E-01-6.94209E-07-5.04373E-07
 -1      1989 1.92621E-01-6.44032E-02-1.21422E-03-3.95520E-01-1.48629E-06-1.07985E-06
 -1      1990 1.92619E-01-6.44068E-02-1.21734E-03-3.95522E-01-5.51112E-07-4.00406E-07
 -1      1991 1.92615E-01-6.44150E-02-1.21756E-03-3.95528E-01 6.52035E-07 4.73731E-07
 -1      1992 1.92599E-01-6.44382E-02-1.21976E-03-3.95540E-01 1.53785E-07 1.11731E-07
 -1      1993 3.08538E-01-1.80377E-01-1.21976E-03-3.36467E-01-1.69370E-07-8.62984E-08
 -1      1994 3.08549E-01-1.80350E-01-1.21756E-03-3.36456E-01-7.18116E-07-3.65898E-07
 -1      1995 3.08552E-01-1.80340E-01-1.21734E-03-3.36451E-01 6.06964E-07 3.09264E-07
 -1      1996 3.08554E-01-1.80336E-01-1.21422E-03-3.36449E-01 1.63692E-06 8.34050E-07
 -1      1997 3.08554E-01-1.80335E-01-1.21277E-03-3.36448E-01 7.64564E-07 3.89565E-07
 -1      1998 3.08554E-01-1.80335E-01-1.21277E-03-3.36448E-01-7.64564E-07-3.89565E-07
 -1      1999 3.08554E-01-1.80336E-01-1.21422E-03-3.36449E-01-1.63692E-06-8.34050E-07
 -1      2000 3.08552E-01-1.80340E-01-1.21734E-03-3.36451E-01-6.06964E-07-3.09264E-07
 -1      2001 3.08549E-01-1.80350E-01-1.21756E-03-3.36456E-01 7.18116E-07 3.65898E-07
 -1      2002 3.08538E-01-1.80377E-01-1.21976E-03-3.36467E-01 1.69370E-07 8.62984E-08
 -1      2003 4.00547E-01-2.72386E-01-1.21976E-03-2.44457E-01-1.80785E-07-5.87406E-08
 -1      2004 4.00556E-01-2.72356E-01-1.21756E-03-2.44450E-01-7.66514E-07-2.49055E-07
 -1      2005 4.00557E-01-2.72345E-01-1.21734E-03-2.44446E-01 6.47871E-07 2.10506E-07
 -1      2006 4.00558E-01-2.72340E-01-1.21422E-03-2.44445E-01 1.74724E-06 5.67712E-07
 -1      2007 4.00558E-01-2.72339E-01-1.21277E-03-2.44444E-01 8.16092E-07 2.65164E-07
 -1      2008 4.00558E-01-2.72339E-01-1.21277E-03-2.44444E-01-8.16092E-07-2.65164E-07
 -1      2009 4.00558E-01-2.72340E-01-1.21422E-03-2.44445E-01-1.74724E-06-5.67712E-07
 -1      2010 4.00557E-01-2.72345E-01-1.21734E-03-2.44446E-01-6.47871E-07-2.10506E-07
 -1      2011 4.00556E-01-2.72356E-01-1.21756E-03-2.44450E-01 7.66514E-07 2.49055E-07
 -1      2012 4.00547E-01-2.72386E-01-1.21976E-03-2.44457E-01 1.80785E-07 5.87406E-08
 -1      2013 4.59621E-01-3.31459E-01-1.21976E-03-1.28519E-01-1.87748E-07-2.97364E-08
 -1      2014 4.59628E-01-3.31428E-01-1.21756E-03-1.28515E-01-7.96037E-07-1.26080E-07
 -1      2015 4.59628E-01-3.31416E-01-1.21734E-03-1.28513E-01 6.72825E-07 1.06565E-07
 -1      2016 4.59629E-01-3.31411E-01-1.21422E-03-1.28512E-01 1.81454E-06 2.87394E-07
 -1      2017 4.59628E-01-3.31410E-01-1.21277E-03-1.28512E-01 8.47526E-07 1.34235E-07
 -1      2018 4.59628E-01-3.31410E-01-1.21277E-03-1.28512E-01-8.47526E-07-1.34235E-07
 -1      2019 4.59629E-01-3.31411E-01-1.21422E-03-1.28512E-01-1.81454E-06-2.87394E-07
 -1      2020 4.59628E-01-3.31416E-01-1.21734E-03-1.28513E-01-6.72825E-07-1.06565E-07
 -1      2021 4.59628E-01-3.31428E-01-1.21756E-03-1.28515E-01 7.96037E-07 1.26080E-07
 -1      2022 4.59621E-01-3.31459E-01-1.21976E-03-1.28519E-01 1.87748E-07 2.97364E-08
 -1      2023-2.85703E-01 4.14946E-01-9.63261E-04-1.13827E-01-8.62016E-07-5.44256E-06
 -1      2024-2.85682E-01 4.14950E-01-9.64717E-04-1.13825E-01-1.48251E-06-9.36023E-06
 -1      2025-2.85665E-01 4.14953E-01-9.66414E-04-1.13822E-01-1.44964E-06-9.15268E-06
 -1      2026-2.85654E-01 4.14955E-01-9.68383E-04-1.13821E-01-1.02194E-06-6.45229E-06
 -1      2027-2.85649E-01 4.14955E-01-9.69196E-04-1.13820E-01-3.60511E-07-2.27617E-06
 -1      2028-2.85649E-01 4.14955E-01-9.69196E-04-1.13820E-01 3.60511E-07 2.27617E-06
 -1      2029-2.85654E-01 4.14955E-01-9.68383E-04-1.13821E-01 1.02194E-06 6.45229E-06
 -1      2030-2.85665E-01 4.14953E-01-9.66414E-04-1.13822E-01 1.44964E-06 9.15268E-06
 -1      2031-2.85682E-01 4.14950E-01-9.64717E-04-1.13825E-01 1.48251E-06 9.36023E-06
 -1      2032-2.85703E-01 4.14946E-01-9.63261E-04-1.13827E-01 8.62016E-07 5.44256E-06
 -1      2033-2.33382E-01 3.62625E-01-9.63261E-04-2.16512E-01-1.70281E-06-5.24070E-06
 -1      2034-2.33362E-01 3.62631E-01-9.64717E-04-2.16507E-01-2.92853E-06-9.01307E-06
 -1      2035-2.33346E-01 3.62635E-01-9.66414E-04-2.16503E-01-2.86359E-06-8.81322E-06
 -1      2036-2.33336E-01 3.62637E-01-9.68383E-04-2.16500E-01-2.01872E-06-6.21298E-06
 -1      2037-2.33331E-01 3.62638E-01-9.69196E-04-2.16499E-01-7.12144E-07-2.19175E-06
 -1      2038-2.33331E-01 3.62638E-01-9.69196E-04-2.16499E-01 7.12144E-07 2.19175E-06
 -1      2039-2.33336E-01 3.62637E-01-9.68383E-04-2.16500E-01 2.01872E-06 6.21298E-06
 -1      2040-2.33346E-01 3.62635E-01-9.66414E-04-2.16503E-01 2.86359E-06 8.81322E-06
 -1      2041-2.33362E-01 3.62631E-01-9.64717E-04-2.16507E-01 2.92853E-06 9.01307E-06
 -1      2042-2.33382E-01 3.62625E-01-9.63261E-04-2.16512E-01 1.70281E-06 5.24070E-06
 -1      2043-1.51891E-01 2.81134E-01-9.63261E-04-2.98004E-01-2.50167E-06-4.90980E-06
 -1      2044-1.51873E-01 2.81141E-01-9.64717E-04-2.97996E-01-4.30243E-06-8.44399E-06
 -1      2045-1.51859E-01 2.81147E-01-9.66414E-04-2.97991E-01-4.20703E-06-8.25675E-06
 -1      2046-1.51850E-01 2.81150E-01-9.68383E-04-2.97987E-01-2.96579E-06-5.82069E-06
 -1      2047-1.51845E-01 2.81152E-01-9.69196E-04-2.97985E-01-1.04624E-06-2.05337E-06
 -1      2048-1.51845E-01 2.81152E-01-9.69196E-04-2.97985E-01 1.04624E-06 2.05337E-06
 -1      2049-1.51850E-01 2.81150E-01-9.68383E-04-2.97987E-01 2.96579E-06 5.82069E-06
 -1      2050-1.51859E-01 2.81147E-01-9.66414E-04-2.97991E-01 4.20703E-06 8.25675E-06
 -1      2051-1.51873E-01 2.81141E-01-9.64717E-04-2.97996E-01 4.30243E-06 8.44399E-06
 -1      2052-1.51891E-01 2.81134E-01-9.63261E-04-2.98004E-01 2.50167E-06 4.90980E-06
 -1      2053-4.92059E-02 1.78449E-01-9.63261E-04-3.50324E-01-3.23893E-06-4.45801E-06
 -1      2054-4.91903E-02 1.78459E-01-9.64717E-04-3.50316E-01-5.57039E-06-7.66698E-06
 -1      2055-4.91780E-02 1.78467E-01-9.66414E-04-3.50309E-01-5.44687E-06-7.49697E-06
 -1      2056-4.91705E-02 1.78471E-01-9.68383E-04-3.50304E-01-3.83983E-06-5.28508E-06
 -1      2057-4.91667E-02 1.78473E-01-9.69196E-04-3.50302E-01-1.35458E-06-1.86442E-06
 -1      2058-4.91667E-02 1.78473E-01-9.69196E-04-3.50302E-01 1.35458E-06 1.86442E-06
 -1      2059-4.91705E-02 1.78471E-01-9.68383E-04-3.50304E-01 3.83983E-06 5.28508E-06
 -1      2060-4.91780E-02 1.78467E-01-9.66414E-04-3.50309E-01 5.44687E-06 7.49697E-06
 -1      2061-4.91903E-02 1.78459E-01-9.64717E-04-3.50316E-01 5.57039E-06 7.66698E-06
 -1      2062-4.92059E-02 1.78449E-01-9.63261E-04-3.50324E-01 3.23893E-06 4.45801E-06
 -1      2063 6.46214E-02 6.46214E-02-9.63261E-04-3.68353E-01-3.89644E-06-3.89644E-06
 -1      2064 6.46343E-02 6.46343E-02-9.64717E-04-3.68344E-01-6.70119E-06-6.70119E-06
 -1      2065 6.46443E-02 6.46443E-02-9.66414E-04-3.68337E-01-6.55260E-06-6.55260E-06
 -1      2066 6.46503E-02 6.46503E-02-9.68383E-04-3.68332E-01-4.61933E-06-4.61933E-06
 -1      2067 6.46534E-02 6.46534E-02-9.69196E-04-3.68329E-01-1.62956E-06-1.62956E-06
 -1      2068 6.46534E-02 6.46534E-02-9.69196E-04-3.68329E-01 1.62956E-06 1.62956E-06
 -1      2069 6.46503E-02 6.46503E-02-9.68383E-04-3.68332E-01 4.61933E-06 4.61933E-06
 -1      2070 6.46443E-02 6.46443E-02-9.66414E-04-3.68337E-01 6.55260E-06 6.55260E-06
 -1      2071 6.46343E-02 6.46343E-02-9.64717E-04-3.68344E-01 6.70119E-06 6.70119E-06
 -1      2072 6.46214E-02 6.46214E-02-9.63261E-04-3.68353E-01 3.89644E-06 3.89644E-06
 -1      2073 1.78449E-01-4.92059E-02-9.63261E-04-3.50324E-01-4.45801E-06-3.23893E-06
 -1      2074 1.78459E-01-4.91903E-02-9.64717E-04-3.50316E-01-7.66698E-06-5.57039E-06
 -1      2075 1.78467E-01-4.91780E-02-9.66414E-04-3.50309E-01-7.49697E-06-5.44687E-06
 -1      2076 1.78471E-01-4.91705E-02-9.68383E-04-3.50304E-01-5.28508E-06-3.83983E-06
 -1      2077 1.78473E-01-4.91667E-02-9.69196E-04-3.50302E-01-1.86442E-06-1.35458E-06
 -1      2078 1.78473E-01-4.91667E-02-9.69196E-04-3.50302E-01 1.86442E-06 1.35458E-06
 -1      2079 1.78471E-01-4.91705E-02-9.68383E-04-3.50304E-01 5.28508E-06 3.83983E-06
 -1      2080 1.78467E-01-4.91780E-02-9.66414E-04-3.50309E-01 7.49697E-06 5.44687E-06
 -1      2081 1.78459E-01-4.91903E-02-9.64717E-04-3.50316E-01 7.66698E-06 5.57039E-06
 -1      2082 1.78449E-01-4.92059E-02-9.63261E-04-3.50324E-01 4.45801E-06 3.23893E-06
 -1      2083 2.81134E-01-1.51891E-01-9.63261E-04-2.98004E-01-4.90980E-06-2.50167E-06
 -1      2084 2.81141E-01-1.51873E-01-9.64717E-04-2.97996E-01-8.44399E-06-4.30243E-06
 -1      2085 2.81147E-01-1.51859E-01-9.66414E-04-2.97991E-01-8.25675E-06-4.20703E-06
 -1      2086 2.81150E-01-1.51850E-01-9.68383E-04-2.97987E-01-5.82069E-06-2.96579E-06
 -1      2087 2.81152E-01-1.51845E-01-9.69196E-04-2.97985E-01-2.05337E-06-1.04624E-06
 -1      2088 2.81152E-01-1.51845E-01-9.69196E-04-2.97985E-01 2.05337E-06 1.04624E-06
 -1      2089 2.81150E-01-1.51850E-01-9.68383E-04-2.97987E-01 5.82069E-06 2.96579E-06
 -1      2090 2.81147E-01-1.51859E-01-9.66414E-04-2.97991E-01 8.25675E-06 4.20703E-06
 -1      2091 2.81141E-01-1.51873E-01-9.64717E-04-2.97996E-01 8.44399E-06 4.30243E-06
 -1      2092 2.81134E-01-1.51891E-01-9.63261E-04-2.98004E-01 4.90980E-06 2.50167E-06
 -1      2093 3.62625E-01-2.33382E-01-9.63261E-04-2.16512E-01-5.24070E-06-1.70281E-06
 -1      2094 3.62631E-01-2.33362E-01-9.64717E-04-2.16507E-01-9.01307E-06-2.92853E-06
 -1      2095 3.62635E-01-2.33346E-01-9.66414E-04-2.16503E-01-8.81322E-06-2.86359E-06
 -1      2096 3.62637E-01-2.33336E-01-9.68383E-04-2.16500E-01-6.21298E-06-2.01872E-06
 -1      2097 3.62638E-01-2.33331E-01-9.69196E-04-2.16499E-01-2.19175E-06-7.12144E-07
 -1      2098 3.62638E-01-2.33331E-01-9.69196E-04-2.16499E-01 2.19175E-06 7.12144E-07
 -1      2099 3.62637E-01-2.33336E-01-9.68383E-04-2.16500E-01 6.21298E-06 2.01872E-06
 -1      2100 3.62635E-01-2.33346E-01-9.66414E-04-2.16503E-01 8.81322E-06 2.86359E-06
 -1      2101 3.62631E-01-2.33362E-01-9.64717E-04-2.16507E-01 9.01307E-06 2.92853E-06
 -1      2102 3.62625E-01-2.33382E-01-9.63261E-04-2.16512E-01 5.24070E-06 1.70281E-06
 -1      2103 4.14946E-01-2.85703E-01-9.63261E-04-1.13827E-01-5.44256E-06-8.62016E-07
 -1      2104 4.14950E-01-2.85682E-01-9.64717E-04-1.13825E-01-9.36023E-06-1.48251E-06
 -1      2105 4.14953E-01-2.85665E-01-9.66414E-04-1.13822E-01-9.15268E-06-1.44964E-06
 -1      2106 4.14955E-01-2.85654E-01-9.68383E-04-1.13821E-01-6.45229E-06-1.02194E-06
 -1      2107 4.14955E-01-2.85649E-01-9.69196E-04-1.13820E-01-2.27617E-06-3.60511E-07
 -1      2108 4.14955E-01-2.85649E-01-9.69196E-04-1.13820E-01 2.27617E-06 3.60511E-07
 -1      2109 4.14955E-01-2.85654E-01-9.68383E-04-1.13821E-01 6.45229E-06 1.02194E-06
 -1      2110 4.14953E-01-2.85665E-01-9.66414E-04-1.13822E-01 9.15268E-06 1.44964E-06
 -1      2111 4.14950E-01-2.85682E-01-9.64717E-04-1.13825E-01 9.36023E-06 1.48251E-06
 -1      2112 4.14946E-01-2.85703E-01-9.63261E-04-1.13827E-01 5.44256E-06 8.62016E-07
 -1      2113-2.47410E-01 3.77472E-01-7.66465E-04-1.01518E-01-5.53639E-07-3.49554E-06
 -1      2114-2.47398E-01 3.77474E-01-7.67394E-04-1.01517E-01-9.35925E-07-5.90920E-06
 -1      2115-2.47388E-01 3.77476E-01-7.68874E-04-1.01515E-01-9.63177E-07-6.08126E-06
 -1      2116-2.47381E-01 3.77477E-01-7.70131E-04-1.01514E-01-6.99201E-07-4.41458E-06
 -1      2117-2.47377E-01 3.77478E-01-7.70953E-04-1.01514E-01-2.55003E-07-1.61002E-06
 -1      2118-2.47377E-01 3.77478E-01-7.70953E-04-1.01514E-01 2.55003E-07 1.61002E-06
 -1      2119-2.47381E-01 3.77477E-01-7.70131E-04-1.01514E-01 6.99201E-07 4.41458E-06
 -1      2120-2.47388E-01 3.77476E-01-7.68874E-04-1.01515E-01 9.63177E-07 6.08126E-06
 -1      2121-2.47398E-01 3.77474E-01-7.67394E-04-1.01517E-01 9.35925E-07 5.90920E-06
 -1      2122-2.47410E-01 3.77472E-01-7.66465E-04-1.01518E-01 5.53639E-07 3.49554E-06
 -1      2123-2.00747E-01 3.30809E-01-7.66465E-04-1.93099E-01-1.09365E-06-3.36590E-06
 -1      2124-2.00736E-01 3.30812E-01-7.67394E-04-1.93096E-01-1.84880E-06-5.69003E-06
 -1      2125-2.00727E-01 3.30815E-01-7.68874E-04-1.93094E-01-1.90264E-06-5.85571E-06
 -1      2126-2.00720E-01 3.30816E-01-7.70131E-04-1.93092E-01-1.38118E-06-4.25085E-06
 -1      2127-2.00717E-01 3.30817E-01-7.70953E-04-1.93091E-01-5.03726E-07-1.55031E-06
 -1      2128-2.00717E-01 3.30817E-01-7.70953E-04-1.93091E-01 5.03726E-07 1.55031E-06
 -1      2129-2.00720E-01 3.30816E-01-7.70131E-04-1.93092E-01 1.38118E-06 4.25085E-06
 -1      2130-2.00727E-01 3.30815E-01-7.68874E-04-1.93094E-01 1.90264E-06 5.85571E-06
 -1      2131-2.00736E-01 3.30812E-01-7.67394E-04-1.93096E-01 1.84880E-06 5.69003E-06
 -1      2132-2.00747E-01 3.30809E-01-7.66465E-04-1.93099E-01 1.09365E-06 3.36590E-06
 -1      2133-1.28068E-01 2.58130E-01-7.66465E-04-2.65778E-01-1.60672E-06-3.15337E-06
 -1      2134-1.28058E-01 2.58134E-01-7.67394E-04-2.65774E-01-2.71616E-06-5.33076E-06
 -1      2135-1.28050E-01 2.58138E-01-7.68874E-04-2.65771E-01-2.79525E-06-5.48598E-06
 -1      2136-1.28044E-01 2.58140E-01-7.70131E-04-2.65768E-01-2.02916E-06-3.98245E-06
 -1      2137-1.28041E-01 2.58141E-01-7.70953E-04-2.65767E-01-7.40047E-07-1.45242E-06
 -1      2138-1.28041E-01 2.58141E-01-7.70953E-04-2.65767E-01 7.40047E-07 1.45242E-06
 -1      2139-1.28044E-01 2.58140E-01-7.70131E-04-2.65768E-01 2.02916E-06 3.98245E-06
 -1      2140-1.28050E-01 2.58138E-01-7.68874E-04-2.65771E-01 2.79525E-06 5.48598E-06
 -1      2141-1.28058E-01 2.58134E-01-7.67394E-04-2.65774E-01 2.71616E-06 5.33076E-06
 -1      2142-1.28068E-01 2.58130E-01-7.66465E-04-2.65778E-01 1.60672E-06 3.15337E-06
 -1      2143-3.64870E-02 1.66550E-01-7.66465E-04-3.12441E-01-2.08024E-06-2.86320E-06
 -1      2144-3.64786E-02 1.66555E-01-7.67394E-04-3.12436E-01-3.51663E-06-4.84023E-06
 -1      2145-3.64715E-02 1.66559E-01-7.68874E-04-3.12432E-01-3.61903E-06-4.98117E-06
 -1      2146-3.64663E-02 1.66563E-01-7.70131E-04-3.12429E-01-2.62717E-06-3.61599E-06
 -1      2147-3.64637E-02 1.66564E-01-7.70953E-04-3.12428E-01-9.58145E-07-1.31877E-06
 -1      2148-3.64637E-02 1.66564E-01-7.70953E-04-3.12428E-01 9.58145E-07 1.31877E-06
 -1      2149-3.64663E-02 1.66563E-01-7.70131E-04-3.12429E-01 2.62717E-06 3.61599E-06
 -1      2150-3.64715E-02 1.66559E-01-7.68874E-04-3.12432E-01 3.61903E-06 4.98117E-06
 -1      2151-3.64786E-02 1.66555E-01-7.67394E-04-3.12436E-01 3.51663E-06 4.84023E-06
 -1      2152-3.64870E-02 1.66550E-01-7.66465E-04-3.12441E-01 2.08024E-06 2.86320E-06
 -1      2153 6.50313E-02 6.50313E-02-7.66465E-04-3.28520E-01-2.50253E-06-2.50253E-06
 -1      2154 6.50381E-02 6.50381E-02-7.67394E-04-3.28515E-01-4.23052E-06-4.23052E-06
 -1      2155 6.50439E-02 6.50439E-02-7.68874E-04-3.28511E-01-4.35370E-06-4.35370E-06
 -1      2156 6.50481E-02 6.50481E-02-7.70131E-04-3.28508E-01-3.16049E-06-3.16049E-06
 -1      2157 6.50503E-02 6.50502E-02-7.70953E-04-3.28506E-01-1.15265E-06-1.15265E-06
 -1      2158 6.50503E-02 6.50502E-02-7.70953E-04-3.28506E-01 1.15265E-06 1.15265E-06
 -1      2159 6.50481E-02 6.50481E-02-7.70131E-04-3.28508E-01 3.16049E-06 3.16049E-06
 -1      2160 6.50439E-02 6.50439E-02-7.68874E-04-3.28511E-01 4.35370E-06 4.35370E-06
 -1      2161 6.50381E-02 6.50381E-02-7.67394E-04-3.28515E-01 4.23052E-06 4.23052E-06
 -1      2162 6.50313E-02 6.50313E-02-7.66465E-04-3.28520E-01 2.50253E-06 2.50253E-06
 -1      2163 1.66550E-01-3.64870E-02-7.66465E-04-3.12441E-01-2.86320E-06-2.08024E-06
 -1      2164 1.66555E-01-3.64786E-02-7.67394E-04-3.12436E-01-4.84023E-06-3.51663E-06
 -1      2165 1.66559E-01-3.64715E-02-7.68875E-04-3.12432E-01-4.98117E-06-3.61903E-06
 -1      2166 1.66563E-01-3.64663E-02-7.70131E-04-3.12429E-01-3.61599E-06-2.62717E-06
 -1      2167 1.66564E-01-3.64637E-02-7.70953E-04-3.12428E-01-1.31877E-06-9.58145E-07
 -1      2168 1.66564E-01-3.64637E-02-7.70953E-04-3.12428E-01 1.31877E-06 9.58145E-07
 -1      2169 1.66563E-01-3.64663E-02-7.70131E-04-3.12429E-01 3.61599E-06 2.62717E-06
 -1      2170 1.66559E-01-3.64715E-02-7.68875E-04-3.12432E-01 4.98117E-06 3.61903E-06
 -1      2171 1.66555E-01-3.64786E-02-7.67394E-04-3.12436E-01 4.84023E-06 3.51663E-06
 -1      2172 1.66550E-01-3.64870E-02-7.66465E-04-3.12441E-01 2.86320E-06 2.08024E-06
 -1      2173 2.58130E-01-1.28068E-01-7.66465E-04-2.65778E-01-3.15337E-06-1.60672E-06
 -1      2174 2.58134E-01-1.28058E-01-7.67394E-04-2.65774E-01-5.33076E-06-2.71616E-06
 -1      2175 2.58138E-01-1.28050E-01-7.68875E-04-2.65771E-01-5.48598E-06-2.79525E-06
 -1      2176 2.58140E-01-1.28044E-01-7.70131E-04-2.65768E-01-3.98245E-06-2.02916E-06
 -1      2177 2.58141E-01-1.28041E-01-7.70953E-04-2.65767E-01-1.45242E-06-7.40047E-07
 -1      2178 2.58141E-01-1.28041E-01-7.70953E-04-2.65767E-01 1.45242E-06 7.40047E-07
 -1      2179 2.58140E-01-1.28044E-01-7.70131E-04-2.65768E-01 3.98245E-06 2.02916E-06
 -1      2180 2.58138E-01-1.28050E-01-7.68875E-04-2.65771E-01 5.48598E-06 2.79525E-06
 -1      2181 2.58134E-01-1.28058E-01-7.67394E-04-2.65774E-01 5.33076E-06 2.71616E-06
 -1      2182 2.58130E-01-1.28068E-01-7.66465E-04-2.65778E-01 3.15337E-06 1.60672E-06
 -1      2183 3.30809E-01-2.00747E-01-7.66465E-04-1.93099E-01-3.36590E-06-1.09365E-06
 -1      2184 3.30812E-01-2.00736E-01-7.67394E-04-1.93096E-01-5.69003E-06-1.84880E-06
 -1      2185 3.30815E-01-2.00727E-01-7.68875E-04-1.93094E-01-5.85571E-06-1.90264E-06
 -1      2186 3.30816E-01-2.00720E-01-7.70131E-04-1.93092E-01-4.25085E-06-1.38118E-06
 -1      2187 3.30817E-01-2.00717E-01-7.70953E-04-1.93091E-01-1.55031E-06-5.03726E-07
 -1      2188 3.30817E-01-2.00717E-01-7.70953E-04-1.93091E-01 1.55031E-06 5.03726E-07
 -1      2189 3.30816E-01-2.00720E-01-7.70131E-04-1.93092E-01 4.25085E-06 1.38118E-06
 -1      2190 3.30815E-01-2.00727E-01-7.68875E-04-1.93094E-01 5.85571E-06 1.90264E-06
 -1      2191 3.30812E-01-2.00736E-01-7.67394E-04-1.93096E-01 5.69003E-06 1.84880E-06
 -1      2192 3.30809E-01-2.00747E-01-7.66465E-04-1.93099E-01 3.36590E-06 1.09365E-06
 -1      2193 3.77472E-01-2.47410E-01-7.66465E-04-1.01518E-01-3.49554E-06-5.53639E-07
 -1      2194 3.77474E-01-2.47398E-01-7.67394E-04-1.01517E-01-5.90920E-06-9.35925E-07
 -1      2195 3.77476E-01-2.47388E-01-7.68875E-04-1.01515E-01-6.08126E-06-9.63177E-07
 -1      2196 3.77477E-01-2.47381E-01-7.70131E-04-1.01514E-01-4.41458E-06-6.99201E-07
 -1      2197 3.77478E-01-2.47377E-01-7.70953E-04-1.01514E-01-1.61002E-06-2.55003E-07
 -1      2198 3.77478E-01-2.47377E-01-7.70953E-04-1.01514E-01 1.61002E-06 2.55003E-07
 -1      2199 3.77477E-01-2.47381E-01-7.70131E-04-1.01514E-01 4.41458E-06 6.99201E-07
 -1      2200 3.77476E-01-2.47388E-01-7.68875E-04-1.01515E-01 6.08126E-06 9.63177E-07
 -1      2201 3.77474E-01-2.47398E-01-7.67394E-04-1.01517E-01 5.90920E-06 9.35925E-07
 -1      2202 3.77472E-01-2.47410E-01-7.66465E-04-1.01518E-01 3.49554E-06 5.53639E-07
 -1      2203-2.15048E-01 3.45729E-01-6.16353E-04-9.11038E-02-2.50668E-07-1.58266E-06
 -1      2204-2.15042E-01 3.45730E-01-6.16766E-04-9.11030E-02-4.20243E-07-2.65331E-06
 -1      2205-2.15037E-01 3.45731E-01-6.17374E-04-9.11022E-02-4.38045E-07-2.76571E-06
 -1      2206-2.15033E-01 3.45731E-01-6.17968E-04-9.11017E-02-3.23578E-07-2.04299E-06
 -1      2207-2.15031E-01 3.45732E-01-6.18299E-04-9.11015E-02-1.18153E-07-7.45989E-07
 -1      2208-2.15031E-01 3.45732E-01-6.18299E-04-9.11015E-02 1.18153E-07 7.45989E-07
 -1      2209-2.15033E-01 3.45731E-01-6.17968E-04-9.11017E-02 3.23578E-07 2.04299E-06
 -1      2210-2.15037E-01 3.45731E-01-6.17374E-04-9.11022E-02 4.38045E-07 2.76571E-06
 -1      2211-2.15042E-01 3.45730E-01-6.16766E-04-9.11030E-02 4.20243E-07 2.65331E-06
 -1      2212-2.15048E-01 3.45729E-01-6.16353E-04-9.11038E-02 2.50668E-07 1.58266E-06
 -1      2213-1.73172E-01 3.03853E-01-6.16353E-04-1.73290E-01-4.95164E-07-1.52396E-06
 -1      2214-1.73167E-01 3.03855E-01-6.16766E-04-1.73288E-01-8.30139E-07-2.55491E-06
 -1      2215-1.73162E-01 3.03856E-01-6.17374E-04-1.73287E-01-8.65305E-07-2.66313E-06
 -1      2216-1.73158E-01 3.03857E-01-6.17968E-04-1.73286E-01-6.39188E-07-1.96722E-06
 -1      2217-1.73156E-01 3.03857E-01-6.18299E-04-1.73285E-01-2.33397E-07-7.18321E-07
 -1      2218-1.73156E-01 3.03857E-01-6.18299E-04-1.73285E-01 2.33397E-07 7.18321E-07
 -1      2219-1.73158E-01 3.03857E-01-6.17968E-04-1.73286E-01 6.39188E-07 1.96722E-06
 -1      2220-1.73162E-01 3.03856E-01-6.17374E-04-1.73287E-01 8.65305E-07 2.66313E-06
 -1      2221-1.73167E-01 3.03855E-01-6.16766E-04-1.73288E-01 8.30139E-07 2.55491E-06
 -1      2222-1.73172E-01 3.03853E-01-6.16353E-04-1.73290E-01 4.95164E-07 1.52396E-06
 -1      2223-1.07949E-01 2.38630E-01-6.16353E-04-2.38513E-01-7.27468E-07-1.42774E-06
 -1      2224-1.07944E-01 2.38632E-01-6.16766E-04-2.38511E-01-1.21959E-06-2.39359E-06
 -1      2225-1.07940E-01 2.38634E-01-6.17374E-04-2.38509E-01-1.27126E-06-2.49498E-06
 -1      2226-1.07937E-01 2.38635E-01-6.17968E-04-2.38507E-01-9.39059E-07-1.84301E-06
 -1      2227-1.07935E-01 2.38636E-01-6.18299E-04-2.38507E-01-3.42893E-07-6.72966E-07
 -1      2228-1.07935E-01 2.38636E-01-6.18299E-04-2.38507E-01 3.42893E-07 6.72966E-07
 -1      2229-1.07937E-01 2.38635E-01-6.17968E-04-2.38507E-01 9.39059E-07 1.84301E-06
 -1      2230-1.07940E-01 2.38634E-01-6.17374E-04-2.38509E-01 1.27126E-06 2.49498E-06
 -1      2231-1.07944E-01 2.38632E-01-6.16766E-04-2.38511E-01 1.21959E-06 2.39359E-06
 -1      2232-1.07949E-01 2.38630E-01-6.16353E-04-2.38513E-01 7.27468E-07 1.42774E-06
 -1      2233-2.57632E-02 1.56444E-01-6.16353E-04-2.80389E-01-9.41858E-07-1.29636E-06
 -1      2234-2.57590E-02 1.56447E-01-6.16766E-04-2.80386E-01-1.57902E-06-2.17333E-06
 -1      2235-2.57553E-02 1.56449E-01-6.17374E-04-2.80384E-01-1.64591E-06-2.26540E-06
 -1      2236-2.57526E-02 1.56451E-01-6.17968E-04-2.80382E-01-1.21581E-06-1.67342E-06
 -1      2237-2.57511E-02 1.56452E-01-6.18299E-04-2.80381E-01-4.43947E-07-6.11041E-07
 -1      2238-2.57511E-02 1.56452E-01-6.18299E-04-2.80381E-01 4.43947E-07 6.11041E-07
 -1      2239-2.57526E-02 1.56451E-01-6.17968E-04-2.80382E-01 1.21581E-06 1.67342E-06
 -1      2240-2.57553E-02 1.56449E-01-6.17374E-04-2.80384E-01 1.64591E-06 2.26540E-06
 -1      2241-2.57590E-02 1.56447E-01-6.16766E-04-2.80386E-01 1.57902E-06 2.17333E-06
 -1      2242-2.57632E-02 1.56444E-01-6.16353E-04-2.80389E-01 9.41858E-07 1.29636E-06
 -1      2243 6.53405E-02 6.53405E-02-6.16353E-04-2.94818E-01-1.13306E-06-1.13306E-06
 -1      2244 6.53439E-02 6.53439E-02-6.16766E-04-2.94815E-01-1.89956E-06-1.89956E-06
 -1      2245 6.53469E-02 6.53469E-02-6.17374E-04-2.94813E-01-1.98003E-06-1.98003E-06
 -1      2246 6.53491E-02 6.53491E-02-6.17968E-04-2.94811E-01-1.46262E-06-1.46262E-06
 -1      2247 6.53503E-02 6.53503E-02-6.18299E-04-2.94810E-01-5.34069E-07-5.34069E-07
 -1      2248 6.53503E-02 6.53503E-02-6.18299E-04-2.94810E-01 5.34069E-07 5.34069E-07
 -1      2249 6.53491E-02 6.53491E-02-6.17968E-04-2.94811E-01 1.46262E-06 1.46262E-06
 -1      2250 6.53469E-02 6.53469E-02-6.17374E-04-2.94813E-01 1.98003E-06 1.98003E-06
 -1      2251 6.53439E-02 6.53439E-02-6.16766E-04-2.94815E-01 1.89956E-06 1.89956E-06
 -1      2252 6.53405E-02 6.53405E-02-6.16353E-04-2.94818E-01 1.13306E-06 1.13306E-06
 -1      2253 1.56444E-01-2.57632E-02-6.16353E-04-2.80389E-01-1.29636E-06-9.41858E-07
 -1      2254 1.56447E-01-2.57590E-02-6.16766E-04-2.80386E-01-2.17333E-06-1.57902E-06
 -1      2255 1.56449E-01-2.57553E-02-6.17374E-04-2.80384E-01-2.26540E-06-1.64591E-06
 -1      2256 1.56451E-01-2.57526E-02-6.17968E-04-2.80382E-01-1.67342E-06-1.21581E-06
 -1      2257 1.56452E-01-2.57512E-02-6.18299E-04-2.80381E-01-6.11041E-07-4.43947E-07
 -1      2258 1.56452E-01-2.57512E-02-6.18299E-04-2.80381E-01 6.11041E-07 4.43947E-07
 -1      2259 1.56451E-01-2.57526E-02-6.17968E-04-2.80382E-01 1.67342E-06 1.21581E-06
 -1      2260 1.56449E-01-2.57553E-02-6.17374E-04-2.80384E-01 2.26540E-06 1.64591E-06
 -1      2261 1.56447E-01-2.57590E-02-6.16766E-04-2.80386E-01 2.17333E-06 1.57902E-06
 -1      2262 1.56444E-01-2.57632E-02-6.16353E-04-2.80389E-01 1.29636E-06 9.41858E-07
 -1      2263 2.38630E-01-1.07949E-01-6.16353E-04-2.38513E-01-1.42774E-06-7.27468E-07
 -1      2264 2.38632E-01-1.07944E-01-6.16766E-04-2.38511E-01-2.39359E-06-1.21959E-06
 -1      2265 2.38634E-01-1.07940E-01-6.17374E-04-2.38509E-01-2.49498E-06-1.27126E-06
 -1      2266 2.38635E-01-1.07937E-01-6.17968E-04-2.38507E-01-1.84301E-06-9.39059E-07
 -1      2267 2.38636E-01-1.07935E-01-6.18299E-04-2.38507E-01-6.72966E-07-3.42893E-07
 -1      2268 2.38636E-01-1.07935E-01-6.18299E-04-2.38507E-01 6.72966E-07 3.42893E-07
 -1      2269 2.38635E-01-1.07937E-01-6.17968E-04-2.38507E-01 1.84301E-06 9.39059E-07
 -1      2270 2.38634E-01-1.07940E-01-6.17374E-04-2.38509E-01 2.49498E-06 1.27126E-06
 -1      2271 2.38632E-01-1.07944E-01-6.16766E-04-2.38511E-01 2.39359E-06 1.21959E-06
 -1      2272 2.38630E-01-1.07949E-01-6.16353E-04-2.38513E-01 1.42774E-06 7.27468E-07
 -1      2273 3.03853E-01-1.73172E-01-6.16353E-04-1.73290E-01-1.52396E-06-4.95164E-07
 -1      2274 3.03855E-01-1.73167E-01-6.16766E-04-1.73288E-01-2.55491E-06-8.30139E-07
 -1      2275 3.03856E-01-1.73162E-01-6.17374E-04-1.73287E-01-2.66313E-06-8.65305E-07
 -1      2276 3.03857E-01-1.73158E-01-6.17968E-04-1.73286E-01-1.96722E-06-6.39188E-07
 -1      2277 3.03857E-01-1.73156E-01-6.18299E-04-1.73285E-01-7.18321E-07-2.33397E-07
 -1      2278 3.03857E-01-1.73156E-01-6.18299E-04-1.73285E-01 7.18321E-07 2.33397E-07
 -1      2279 3.03857E-01-1.73158E-01-6.17968E-04-1.73286E-01 1.96722E-06 6.39188E-07
 -1      2280 3.03856E-01-1.73162E-01-6.17374E-04-1.73287E-01 2.66313E-06 8.65305E-07
 -1      2281 3.03855E-01-1.73167E-01-6.16766E-04-1.73288E-01 2.55491E-06 8.30139E-07
 -1      2282 3.03853E-01-1.73172E-01-6.16353E-04-1.73290E-01 1.52396E-06 4.95164E-07
 -1      2283 3.45729E-01-2.15048E-01-6.16353E-04-9.11038E-02-1.58266E-06-2.50668E-07
 -1      2284 3.45730E-01-2.15042E-01-6.16766E-04-9.11030E-02-2.65331E-06-4.20243E-07
 -1      2285 3.45731E-01-2.15037E-01-6.17374E-04-9.11022E-02-2.76571E-06-4.38045E-07
 -1      2286 3.45731E-01-2.15033E-01-6.17968E-04-9.11017E-02-2.04299E-06-3.23578E-07
 -1      2287 3.45732E-01-2.15031E-01-6.18299E-04-9.11015E-02-7.45989E-07-1.18153E-07
 -1      2288 3.45732E-01-2.15031E-01-6.18299E-04-9.11015E-02 7.45989E-07 1.18153E-07
 -1      2289 3.45731E-01-2.15033E-01-6.17968E-04-9.11017E-02 2.04299E-06 3.23578E-07
 -1      2290 3.45731E-01-2.15037E-01-6.17374E-04-9.11022E-02 2.76571E-06 4.38045E-07
 -1      2291 3.45730E-01-2.15042E-01-6.16766E-04-9.11030E-02 2.65331E-06 4.20243E-07
 -1      2292 3.45729E-01-2.15048E-01-6.16353E-04-9.11038E-02 1.58266E-06 2.50668E-07
 -1      2293-1.87452E-01 3.18605E-01-5.01292E-04-8.22140E-02-1.02397E-07-6.46511E-07
 -1      2294-1.87449E-01 3.18606E-01-5.01419E-04-8.22135E-02-1.69479E-07-1.07005E-06
 -1      2295-1.87446E-01 3.18606E-01-5.01613E-04-8.22131E-02-1.76976E-07-1.11738E-06
 -1      2296-1.87444E-01 3.18606E-01-5.01795E-04-8.22128E-02-1.30811E-07-8.25910E-07
 -1      2297-1.87443E-01 3.18606E-01-5.01909E-04-8.22127E-02-4.80496E-08-3.03373E-07
 -1      2298-1.87443E-01 3.18606E-01-5.01909E-04-8.22127E-02 4.80496E-08 3.03373E-07
 -1      2299-1.87444E-01 3.18606E-01-5.01795E-04-8.22128E-02 1.30811E-07 8.25910E-07
 -1      2300-1.87446E-01 3.18606E-01-5.01613E-04-8.22131E-02 1.76976E-07 1.11738E-06
 -1      2301-1.87449E-01 3.18606E-01-5.01419E-04-8.22135E-02 1.69479E-07 1.07005E-06
 -1      2302-1.87452E-01 3.18605E-01-5.01292E-04-8.22140E-02 1.02397E-07 6.46511E-07
 -1      2303-1.49663E-01 2.80815E-01-5.01292E-04-1.56380E-01-2.02273E-07-6.22533E-07
 -1      2304-1.49660E-01 2.80816E-01-5.01419E-04-1.56379E-01-3.34786E-07-1.03036E-06
 -1      2305-1.49657E-01 2.80817E-01-5.01613E-04-1.56379E-01-3.49594E-07-1.07594E-06
 -1      2306-1.49655E-01 2.80817E-01-5.01795E-04-1.56378E-01-2.58401E-07-7.95278E-07
 -1      2307-1.49654E-01 2.80817E-01-5.01909E-04-1.56378E-01-9.49161E-08-2.92122E-07
 -1      2308-1.49654E-01 2.80817E-01-5.01909E-04-1.56378E-01 9.49161E-08 2.92122E-07
 -1      2309-1.49655E-01 2.80817E-01-5.01795E-04-1.56378E-01 2.58401E-07 7.95278E-07
 -1      2310-1.49657E-01 2.80817E-01-5.01613E-04-1.56379E-01 3.49594E-07 1.07594E-06
 -1      2311-1.49660E-01 2.80816E-01-5.01419E-04-1.56379E-01 3.34786E-07 1.03036E-06
 -1      2312-1.49663E-01 2.80815E-01-5.01292E-04-1.56380E-01 2.02273E-07 6.22533E-07
 -1      2313-9.08040E-02 2.21957E-01-5.01292E-04-2.15239E-01-2.97169E-07-5.83226E-07
 -1      2314-9.08011E-02 2.21958E-01-5.01419E-04-2.15238E-01-4.91849E-07-9.65307E-07
 -1      2315-9.07988E-02 2.21959E-01-5.01613E-04-2.15237E-01-5.13604E-07-1.00800E-06
 -1      2316-9.07970E-02 2.21959E-01-5.01795E-04-2.15236E-01-3.79629E-07-7.45064E-07
 -1      2317-9.07961E-02 2.21960E-01-5.01909E-04-2.15236E-01-1.39445E-07-2.73677E-07
 -1      2318-9.07961E-02 2.21960E-01-5.01909E-04-2.15236E-01 1.39445E-07 2.73677E-07
 -1      2319-9.07970E-02 2.21959E-01-5.01795E-04-2.15236E-01 3.79629E-07 7.45064E-07
 -1      2320-9.07988E-02 2.21959E-01-5.01613E-04-2.15237E-01 5.13604E-07 1.00800E-06
 -1      2321-9.08011E-02 2.21958E-01-5.01419E-04-2.15238E-01 4.91849E-07 9.65307E-07
 -1      2322-9.08040E-02 2.21957E-01-5.01292E-04-2.15239E-01 2.97169E-07 5.83226E-07
 -1      2323-1.66376E-02 1.47790E-01-5.01292E-04-2.53029E-01-3.84747E-07-5.29558E-07
 -1      2324-1.66352E-02 1.47792E-01-5.01419E-04-2.53027E-01-6.36800E-07-8.76481E-07
 -1      2325-1.66332E-02 1.47793E-01-5.01613E-04-2.53026E-01-6.64968E-07-9.15249E-07
 -1      2326-1.66318E-02 1.47794E-01-5.01795E-04-2.53025E-01-4.91509E-07-6.76504E-07
 -1      2327-1.66310E-02 1.47794E-01-5.01909E-04-2.53025E-01-1.80541E-07-2.48494E-07
 -1      2328-1.66310E-02 1.47794E-01-5.01909E-04-2.53025E-01 1.80541E-07 2.48494E-07
 -1      2329-1.66318E-02 1.47794E-01-5.01795E-04-2.53025E-01 4.91509E-07 6.76504E-07
 -1      2330-1.66332E-02 1.47793E-01-5.01613E-04-2.53026E-01 6.64968E-07 9.15249E-07
 -1      2331-1.66352E-02 1.47792E-01-5.01419E-04-2.53027E-01 6.36800E-07 8.76481E-07
 -1      2332-1.66376E-02 1.47790E-01-5.01292E-04-2.53029E-01 3.84747E-07 5.29558E-07
 -1      2333 6.55764E-02 6.55764E-02-5.01292E-04-2.66050E-01-4.62851E-07-4.62851E-07
 -1      2334 6.55783E-02 6.55783E-02-5.01419E-04-2.66049E-01-7.66072E-07-7.66072E-07
 -1      2335 6.55799E-02 6.55799E-02-5.01613E-04-2.66047E-01-7.99957E-07-7.99957E-07
 -1      2336 6.55811E-02 6.55811E-02-5.01795E-04-2.66046E-01-5.91286E-07-5.91286E-07
 -1      2337 6.55817E-02 6.55817E-02-5.01909E-04-2.66046E-01-2.17191E-07-2.17191E-07
 -1      2338 6.55817E-02 6.55817E-02-5.01909E-04-2.66046E-01 2.17191E-07 2.17191E-07
 -1      2339 6.55811E-02 6.55811E-02-5.01795E-04-2.66046E-01 5.91286E-07 5.91286E-07
 -1      2340 6.55799E-02 6.55799E-02-5.01613E-04-2.66047E-01 7.99957E-07 7.99957E-07
 -1      2341 6.55783E-02 6.55783E-02-5.01419E-04-2.66049E-01 7.66072E-07 7.66072E-07
 -1      2342 6.55764E-02 6.55764E-02-5.01292E-04-2.66050E-01 4.62851E-07 4.62851E-07
 -1      2343 1.47790E-01-1.66376E-02-5.01292E-04-2.53029E-01-5.29558E-07-3.84747E-07
 -1      2344 1.47792E-01-1.66352E-02-5.01419E-04-2.53027E-01-8.76481E-07-6.36800E-07
 -1      2345 1.47793E-01-1.66332E-02-5.01613E-04-2.53026E-01-9.15249E-07-6.64968E-07
 -1      2346 1.47794E-01-1.66318E-02-5.01795E-04-2.53025E-01-6.76504E-07-4.91509E-07
 -1      2347 1.47794E-01-1.66310E-02-5.01909E-04-2.53025E-01-2.48494E-07-1.80541E-07
 -1      2348 1.47794E-01-1.66310E-02-5.01909E-04-2.53025E-01 2.48494E-07 1.80541E-07
 -1      2349 1.47794E-01-1.66318E-02-5.01795E-04-2.53025E-01 6.76504E-07 4.91509E-07
 -1      2350 1.47793E-01-1.66332E-02-5.01613E-04-2.53026E-01 9.15249E-07 6.64968E-07
 -1      2351 1.47792E-01-1.66352E-02-5.01419E-04-2.53027E-01 8.76481E-07 6.36800E-07
 -1      2352 1.47790E-01-1.66376E-02-5.01292E-04-2.53029E-01 5.29558E-07 3.84747E-07
 -1      2353 2.21957E-01-9.08040E-02-5.01292E-04-2.15239E-01-5.83226E-07-2.97169E-07
 -1      2354 2.21958E-01-9.08011E-02-5.01419E-04-2.15238E-01-9.65307E-07-4.91849E-07
 -1      2355 2.21959E-01-9.07988E-02-5.01613E-04-2.15237E-01-1.00800E-06-5.13604E-07
 -1      2356 2.21959E-01-9.07970E-02-5.01795E-04-2.15236E-01-7.45064E-07-3.79629E-07
 -1      2357 2.21960E-01-9.07961E-02-5.01909E-04-2.15236E-01-2.73677E-07-1.39445E-07
 -1      2358 2.21960E-01-9.07961E-02-5.01909E-04-2.15236E-01 2.73677E-07 1.39445E-07
 -1      2359 2.21959E-01-9.07970E-02-5.01795E-04-2.15236E-01 7.45064E-07 3.79629E-07
 -1      2360 2.21959E-01-9.07988E-02-5.01613E-04-2.15237E-01 1.00800E-06 5.13604E-07
 -1      2361 2.21958E-01-9.08011E-02-5.01419E-04-2.15238E-01 9.65307E-07 4.91849E-07
 -1      2362 2.21957E-01-9.08040E-02-5.01292E-04-2.15239E-01 5.83226E-07 2.97169E-07
 -1      2363 2.80815E-01-1.49663E-01-5.01292E-04-1.56380E-01-6.22533E-07-2.02273E-07
 -1      2364 2.80816E-01-1.49660E-01-5.01419E-04-1.56379E-01-1.03036E-06-3.34786E-07
 -1      2365 2.80817E-01-1.49657E-01-5.01613E-04-1.56379E-01-1.07594E-06-3.49594E-07
 -1      2366 2.80817E-01-1.49655E-01-5.01795E-04-1.56378E-01-7.95278E-07-2.58401E-07
 -1      2367 2.80817E-01-1.49654E-01-5.01909E-04-1.56378E-01-2.92122E-07-9.49161E-08
 -1      2368 2.80817E-01-1.49654E-01-5.01909E-04-1.56378E-01 2.92122E-07 9.49161E-08
 -1      2369 2.80817E-01-1.49655E-01-5.01795E-04-1.56378E-01 7.95278E-07 2.58401E-07
 -1      2370 2.80817E-01-1.49657E-01-5.01613E-04-1.56379E-01 1.07594E-06 3.49594E-07
 -1      2371 2.80816E-01-1.49660E-01-5.01419E-04-1.56379E-01 1.03036E-06 3.34786E-07
 -1      2372 2.80815E-01-1.49663E-01-5.01292E-04-1.56380E-01 6.22533E-07 2.02273E-07
 -1      2373 3.18605E-01-1.87452E-01-5.01292E-04-8.22140E-02-6.46511E-07-1.02397E-07
 -1      2374 3.18606E-01-1.87449E-01-5.01419E-04-8.22135E-02-1.07005E-06-1.69479E-07
 -1      2375 3.18606E-01-1.87446E-01-5.01613E-04-8.22131E-02-1.11738E-06-1.76976E-07
 -1      2376 3.18606E-01-1.87444E-01-5.01795E-04-8.22128E-02-8.25910E-07-1.30811E-07
 -1      2377 3.18606E-01-1.87443E-01-5.01909E-04-8.22127E-02-3.03373E-07-4.80496E-08
 -1      2378 3.18606E-01-1.87443E-01-5.01909E-04-8.22127E-02 3.03373E-07 4.80496E-08
 -1      2379 3.18606E-01-1.87444E-01-5.01795E-04-8.22128E-02 8.25910E-07 1.30811E-07
 -1      2380 3.18606E-01-1.87446E-01-5.01613E-04-8.22131E-02 1.11738E-06 1.76976E-07
 -1      2381 3.18606E-01-1.87449E-01-5.01419E-04-8.22135E-02 1.07005E-06 1.69479E-07
 -1      2382 3.18605E-01-1.87452E-01-5.01292E-04-8.22140E-02 6.46511E-07 1.02397E-07
 -1      2383-1.63729E-01 2.95247E-01-4.12031E-04-7.45651E-02-4.77236E-08-3.01315E-07
 -1      2384-1.63726E-01 2.95247E-01-4.12061E-04-7.45647E-02-7.78539E-08-4.91550E-07
 -1      2385-1.63725E-01 2.95247E-01-4.12108E-04-7.45645E-02-7.97622E-08-5.03599E-07
 -1      2386-1.63723E-01 2.95247E-01-4.12155E-04-7.45643E-02-5.82989E-08-3.68085E-07
 -1      2387-1.63723E-01 2.95247E-01-4.12182E-04-7.45642E-02-2.12303E-08-1.34043E-07
 -1      2388-1.63723E-01 2.95247E-01-4.12182E-04-7.45642E-02 2.12303E-08 1.34043E-07
 -1      2389-1.63723E-01 2.95247E-01-4.12155E-04-7.45643E-02 5.82990E-08 3.68085E-07
 -1      2390-1.63725E-01 2.95247E-01-4.12108E-04-7.45645E-02 7.97622E-08 5.03599E-07
 -1      2391-1.63726E-01 2.95247E-01-4.12061E-04-7.45647E-02 7.78539E-08 4.91550E-07
 -1      2392-1.63729E-01 2.95247E-01-4.12031E-04-7.45651E-02 4.77236E-08 3.01315E-07
 -1      2393-1.29455E-01 2.60973E-01-4.12031E-04-1.41831E-01-9.42721E-08-2.90140E-07
 -1      2394-1.29453E-01 2.60973E-01-4.12061E-04-1.41831E-01-1.53791E-07-4.73319E-07
 -1      2395-1.29451E-01 2.60974E-01-4.12108E-04-1.41830E-01-1.57560E-07-4.84921E-07
 -1      2396-1.29450E-01 2.60974E-01-4.12155E-04-1.41830E-01-1.15162E-07-3.54433E-07
 -1      2397-1.29449E-01 2.60974E-01-4.12182E-04-1.41830E-01-4.19378E-08-1.29071E-07
 -1      2398-1.29449E-01 2.60974E-01-4.12182E-04-1.41830E-01 4.19378E-08 1.29071E-07
 -1      2399-1.29450E-01 2.60974E-01-4.12155E-04-1.41830E-01 1.15162E-07 3.54433E-07
 -1      2400-1.29451E-01 2.60974E-01-4.12108E-04-1.41830E-01 1.57560E-07 4.84921E-07
 -1      2401-1.29453E-01 2.60973E-01-4.12061E-04-1.41831E-01 1.53791E-07 4.73319E-07
 -1      2402-1.29455E-01 2.60973E-01-4.12031E-04-1.41831E-01 9.42721E-08 2.90140E-07
 -1      2403-7.60722E-02 2.07590E-01-4.12031E-04-1.95214E-01-1.38499E-07-2.71820E-07
 -1      2404-7.60703E-02 2.07591E-01-4.12061E-04-1.95213E-01-2.25941E-07-4.43434E-07
 -1      2405-7.60687E-02 2.07591E-01-4.12108E-04-1.95212E-01-2.31479E-07-4.54303E-07
 -1      2406-7.60677E-02 2.07592E-01-4.12155E-04-1.95212E-01-1.69190E-07-3.32054E-07
 -1      2407-7.60671E-02 2.07592E-01-4.12182E-04-1.95212E-01-6.16127E-08-1.20922E-07
 -1      2408-7.60671E-02 2.07592E-01-4.12182E-04-1.95212E-01 6.16127E-08 1.20922E-07
 -1      2409-7.60677E-02 2.07592E-01-4.12155E-04-1.95212E-01 1.69190E-07 3.32054E-07
 -1      2410-7.60687E-02 2.07591E-01-4.12108E-04-1.95212E-01 2.31479E-07 4.54303E-07
 -1      2411-7.60703E-02 2.07591E-01-4.12061E-04-1.95213E-01 2.25941E-07 4.43434E-07
 -1      2412-7.60722E-02 2.07590E-01-4.12031E-04-1.95214E-01 1.38499E-07 2.71820E-07
 -1      2413-8.80606E-03 1.40324E-01-4.12031E-04-2.29488E-01-1.79316E-07-2.46807E-07
 -1      2414-8.80444E-03 1.40325E-01-4.12061E-04-2.29487E-01-2.92527E-07-4.02629E-07
 -1      2415-8.80315E-03 1.40326E-01-4.12108E-04-2.29486E-01-2.99698E-07-4.12498E-07
 -1      2416-8.80225E-03 1.40326E-01-4.12155E-04-2.29485E-01-2.19052E-07-3.01499E-07
 -1      2417-8.80178E-03 1.40327E-01-4.12182E-04-2.29485E-01-7.97705E-08-1.09795E-07
 -1      2418-8.80178E-03 1.40327E-01-4.12182E-04-2.29485E-01 7.97705E-08 1.09795E-07
 -1      2419-8.80225E-03 1.40326E-01-4.12155E-04-2.29485E-01 2.19052E-07 3.01499E-07
 -1      2420-8.80315E-03 1.40326E-01-4.12108E-04-2.29486E-01 2.99698E-07 4.12498E-07
 -1      2421-8.80444E-03 1.40325E-01-4.12061E-04-2.29487E-01 2.92527E-07 4.02629E-07
 -1      2422-8.80606E-03 1.40324E-01-4.12031E-04-2.29488E-01 1.79316E-07 2.46807E-07
 -1      2423 6.57590E-02 6.57590E-02-4.12031E-04-2.41298E-01-2.15718E-07-2.15718E-07
 -1      2424 6.57603E-02 6.57603E-02-4.12061E-04-2.41297E-01-3.51911E-07-3.51911E-07
 -1      2425 6.57613E-02 6.57613E-02-4.12108E-04-2.41296E-01-3.60537E-07-3.60537E-07
 -1      2426 6.57621E-02 6.57621E-02-4.12155E-04-2.41295E-01-2.63520E-07-2.63520E-07
 -1      2427 6.57624E-02 6.57624E-02-4.12182E-04-2.41295E-01-9.59640E-08-9.59640E-08
 -1      2428 6.57624E-02 6.57624E-02-4.12182E-04-2.41295E-01 9.59640E-08 9.59640E-08
 -1      2429 6.57621E-02 6.57621E-02-4.12155E-04-2.41295E-01 2.63520E-07 2.63520E-07
 -1      2430 6.57613E-02 6.57613E-02-4.12108E-04-2.41296E-01 3.60537E-07 3.60537E-07
 -1      2431 6.57603E-02 6.57603E-02-4.12061E-04-2.41297E-01 3.51911E-07 3.51911E-07
 -1      2432 6.57590E-02 6.57590E-02-4.12031E-04-2.41298E-01 2.15718E-07 2.15718E-07
 -1      2433 1.40324E-01-8.80606E-03-4.12031E-04-2.29488E-01-2.46807E-07-1.79316E-07
 -1      2434 1.40325E-01-8.80444E-03-4.12061E-04-2.29487E-01-4.02629E-07-2.92527E-07
 -1      2435 1.40326E-01-8.80315E-03-4.12108E-04-2.29486E-01-4.12498E-07-2.99698E-07
 -1      2436 1.40326E-01-8.80225E-03-4.12155E-04-2.29485E-01-3.01499E-07-2.19052E-07
 -1      2437 1.40327E-01-8.80178E-03-4.12182E-04-2.29485E-01-1.09795E-07-7.97705E-08
 -1      2438 1.40327E-01-8.80178E-03-4.12182E-04-2.29485E-01 1.09795E-07 7.97705E-08
 -1      2439 1.40326E-01-8.80225E-03-4.12155E-04-2.29485E-01 3.01499E-07 2.19052E-07
 -1      2440 1.40326E-01-8.80315E-03-4.12108E-04-2.29486E-01 4.12498E-07 2.99698E-07
 -1      2441 1.40325E-01-8.80444E-03-4.12061E-04-2.29487E-01 4.02629E-07 2.92527E-07
 -1      2442 1.40324E-01-8.80606E-03-4.12031E-04-2.29488E-01 2.46807E-07 1.79316E-07
 -1      2443 2.07590E-01-7.60722E-02-4.12031E-04-1.95214E-01-2.71820E-07-1.38499E-07
 -1      2444 2.07591E-01-7.60703E-02-4.12061E-04-1.95213E-01-4.43434E-07-2.25941E-07
 -1      2445 2.07591E-01-7.60687E-02-4.12108E-04-1.95212E-01-4.54303E-07-2.31479E-07
 -1      2446 2.07592E-01-7.60677E-02-4.12155E-04-1.95212E-01-3.32054E-07-1.69190E-07
 -1      2447 2.07592E-01-7.60671E-02-4.12182E-04-1.95212E-01-1.20922E-07-6.16127E-08
 -1      2448 2.07592E-01-7.60671E-02-4.12182E-04-1.95212E-01 1.20922E-07 6.16127E-08
 -1      2449 2.07592E-01-7.60677E-02-4.12155E-04-1.95212E-01 3.32054E-07 1.69190E-07
 -1      2450 2.07591E-01-7.60687E-02-4.12108E-04-1.95212E-01 4.54303E-07 2.31479E-07
 -1      2451 2.07591E-01-7.60703E-02-4.12061E-04-1.95213E-01 4.43434E-07 2.25941E-07
 -1      2452 2.07590E-01-7.60722E-02-4.12031E-04-1.95214E-01 2.71820E-07 1.38499E-07
 -1      2453 2.60973E-01-1.29455E-01-4.12031E-04-1.41831E-01-2.90140E-07-9.42721E-08
 -1      2454 2.60973E-01-1.29453E-01-4.12061E-04-1.41831E-01-4.73319E-07-1.53791E-07
 -1      2455 2.60974E-01-1.29451E-01-4.12108E-04-1.41830E-01-4.84921E-07-1.57560E-07
 -1      2456 2.60974E-01-1.29450E-01-4.12155E-04-1.41830E-01-3.54433E-07-1.15162E-07
 -1      2457 2.60974E-01-1.29449E-01-4.12182E-04-1.41830E-01-1.29071E-07-4.19378E-08
 -1      2458 2.60974E-01-1.29449E-01-4.12182E-04-1.41830E-01 1.29071E-07 4.19378E-08
 -1      2459 2.60974E-01-1.29450E-01-4.12155E-04-1.41830E-01 3.54433E-07 1.15162E-07
 -1      2460 2.60974E-01-1.29451E-01-4.12108E-04-1.41830E-01 4.84921E-07 1.57560E-07
 -1      2461 2.60973E-01-1.29453E-01-4.12061E-04-1.41831E-01 4.73319E-07 1.53791E-07
 -1      2462 2.60973E-01-1.29455E-01-4.12031E-04-1.41831E-01 2.90140E-07 9.42721E-08
 -1      2463 2.95247E-01-1.63729E-01-4.12031E-04-7.45651E-02-3.01315E-07-4.77236E-08
 -1      2464 2.95247E-01-1.63726E-01-4.12061E-04-7.45647E-02-4.91550E-07-7.78539E-08
 -1      2465 2.95247E-01-1.63725E-01-4.12108E-04-7.45645E-02-5.03599E-07-7.97622E-08
 -1      2466 2.95247E-01-1.63723E-01-4.12155E-04-7.45643E-02-3.68085E-07-5.82989E-08
 -1      2467 2.95247E-01-1.63723E-01-4.12182E-04-7.45642E-02-1.34043E-07-2.12303E-08
 -1      2468 2.95247E-01-1.63723E-01-4.12182E-04-7.45642E-02 1.34043E-07 2.12303E-08
 -1      2469 2.95247E-01-1.63723E-01-4.12155E-04-7.45643E-02 3.68085E-07 5.82989E-08
 -1      2470 2.95247E-01-1.63725E-01-4.12108E-04-7.45645E-02 5.03599E-07 7.97622E-08
 -1      2471 2.95247E-01-1.63726E-01-4.12061E-04-7.45647E-02 4.91550E-07 7.78539E-08
 -1      2472 2.95247E-01-1.63729E-01-4.12031E-04-7.45651E-02 3.01315E-07 4.77236E-08
 -1      2473-1.43184E-01 2.74989E-01-3.41880E-04-6.79362E-02-2.97676E-08-1.87945E-07
 -1      2474-1.43182E-01 2.74989E-01-3.41887E-04-6.79360E-02-4.80147E-08-3.03153E-07
 -1      2475-1.43181E-01 2.74989E-01-3.41900E-04-6.79358E-02-4.81065E-08-3.03733E-07
 -1      2476-1.43180E-01 2.74989E-01-3.41913E-04-6.79357E-02-3.45467E-08-2.18119E-07
 -1      2477-1.43179E-01 2.74989E-01-3.41920E-04-6.79356E-02-1.24871E-08-7.88406E-08
 -1      2478-1.43179E-01 2.74989E-01-3.41920E-04-6.79356E-02 1.24871E-08 7.88406E-08
 -1      2479-1.43180E-01 2.74989E-01-3.41913E-04-6.79357E-02 3.45467E-08 2.18119E-07
 -1      2480-1.43181E-01 2.74989E-01-3.41900E-04-6.79358E-02 4.81065E-08 3.03733E-07
 -1      2481-1.43182E-01 2.74989E-01-3.41887E-04-6.79360E-02 4.80147E-08 3.03153E-07
 -1      2482-1.43184E-01 2.74989E-01-3.41880E-04-6.79362E-02 2.97676E-08 1.87945E-07
 -1      2483-1.11957E-01 2.43762E-01-3.41880E-04-1.29222E-01-5.88023E-08-1.80975E-07
 -1      2484-1.11955E-01 2.43762E-01-3.41887E-04-1.29222E-01-9.48471E-08-2.91909E-07
 -1      2485-1.11954E-01 2.43762E-01-3.41900E-04-1.29222E-01-9.50285E-08-2.92468E-07
 -1      2486-1.11953E-01 2.43763E-01-3.41913E-04-1.29221E-01-6.82427E-08-2.10029E-07
 -1      2487-1.11953E-01 2.43763E-01-3.41920E-04-1.29221E-01-2.46668E-08-7.59165E-08
 -1      2488-1.11953E-01 2.43763E-01-3.41920E-04-1.29221E-01 2.46668E-08 7.59165E-08
 -1      2489-1.11953E-01 2.43763E-01-3.41913E-04-1.29221E-01 6.82427E-08 2.10029E-07
 -1      2490-1.11954E-01 2.43762E-01-3.41900E-04-1.29222E-01 9.50285E-08 2.92468E-07
 -1      2491-1.11955E-01 2.43762E-01-3.41887E-04-1.29222E-01 9.48471E-08 2.91909E-07
 -1      2492-1.11957E-01 2.43762E-01-3.41880E-04-1.29222E-01 5.88023E-08 1.80975E-07
 -1      2493-6.33198E-02 1.95125E-01-3.41880E-04-1.77859E-01-8.63891E-08-1.69548E-07
 -1      2494-6.33184E-02 1.95125E-01-3.41887E-04-1.77859E-01-1.39344E-07-2.73478E-07
 -1      2495-6.33173E-02 1.95126E-01-3.41900E-04-1.77858E-01-1.39611E-07-2.74001E-07
 -1      2496-6.33165E-02 1.95126E-01-3.41913E-04-1.77858E-01-1.00258E-07-1.96768E-07
 -1      2497-6.33161E-02 1.95126E-01-3.41920E-04-1.77858E-01-3.62391E-08-7.11232E-08
 -1      2498-6.33161E-02 1.95126E-01-3.41920E-04-1.77858E-01 3.62391E-08 7.11232E-08
 -1      2499-6.33165E-02 1.95126E-01-3.41913E-04-1.77858E-01 1.00258E-07 1.96768E-07
 -1      2500-6.33173E-02 1.95126E-01-3.41900E-04-1.77858E-01 1.39611E-07 2.74001E-07
 -1      2501-6.33184E-02 1.95125E-01-3.41887E-04-1.77859E-01 1.39344E-07 2.73478E-07
 -1      2502-6.33198E-02 1.95125E-01-3.41880E-04-1.77859E-01 8.63891E-08 1.69548E-07
 -1      2503-2.03369E-03 1.33839E-01-3.41880E-04-2.09086E-01-1.11849E-07-1.53946E-07
 -1      2504-2.03246E-03 1.33839E-01-3.41887E-04-2.09085E-01-1.80410E-07-2.48313E-07
 -1      2505-2.03152E-03 1.33840E-01-3.41900E-04-2.09085E-01-1.80755E-07-2.48788E-07
 -1      2506-2.03088E-03 1.33840E-01-3.41913E-04-2.09084E-01-1.29805E-07-1.78662E-07
 -1      2507-2.03056E-03 1.33841E-01-3.41920E-04-2.09084E-01-4.69190E-08-6.45785E-08
 -1      2508-2.03056E-03 1.33841E-01-3.41920E-04-2.09084E-01 4.69190E-08 6.45785E-08
 -1      2509-2.03088E-03 1.33840E-01-3.41913E-04-2.09084E-01 1.29805E-07 1.78662E-07
 -1      2510-2.03152E-03 1.33840E-01-3.41900E-04-2.09085E-01 1.80755E-07 2.48788E-07
 -1      2511-2.03246E-03 1.33839E-01-3.41887E-04-2.09085E-01 1.80410E-07 2.48313E-07
 -1      2512-2.03369E-03 1.33839E-01-3.41880E-04-2.09086E-01 1.11849E-07 1.53946E-07
 -1      2513 6.59025E-02 6.59025E-02-3.41880E-04-2.19846E-01-1.34554E-07-1.34554E-07
 -1      2514 6.59035E-02 6.59035E-02-3.41888E-04-2.19845E-01-2.17034E-07-2.17034E-07
 -1      2515 6.59043E-02 6.59043E-02-3.41900E-04-2.19845E-01-2.17449E-07-2.17449E-07
 -1      2516 6.59048E-02 6.59048E-02-3.41913E-04-2.19844E-01-1.56156E-07-1.56156E-07
 -1      2517 6.59050E-02 6.59050E-02-3.41920E-04-2.19844E-01-5.64437E-08-5.64437E-08
 -1      2518 6.59050E-02 6.59050E-02-3.41920E-04-2.19844E-01 5.64436E-08 5.64437E-08
 -1      2519 6.59048E-02 6.59048E-02-3.41913E-04-2.19844E-01 1.56156E-07 1.56156E-07
 -1      2520 6.59043E-02 6.59043E-02-3.41900E-04-2.19845E-01 2.17449E-07 2.17449E-07
 -1      2521 6.59035E-02 6.59035E-02-3.41888E-04-2.19845E-01 2.17033E-07 2.17034E-07
 -1      2522 6.59025E-02 6.59025E-02-3.41880E-04-2.19846E-01 1.34554E-07 1.34554E-07
 -1      2523 1.33839E-01-2.03369E-03-3.41880E-04-2.09086E-01-1.53946E-07-1.11849E-07
 -1      2524 1.33839E-01-2.03246E-03-3.41888E-04-2.09085E-01-2.48313E-07-1.80410E-07
 -1      2525 1.33840E-01-2.03152E-03-3.41900E-04-2.09085E-01-2.48788E-07-1.80755E-07
 -1      2526 1.33840E-01-2.03088E-03-3.41913E-04-2.09084E-01-1.78662E-07-1.29805E-07
 -1      2527 1.33841E-01-2.03056E-03-3.41920E-04-2.09084E-01-6.45785E-08-4.69190E-08
 -1      2528 1.33841E-01-2.03056E-03-3.41920E-04-2.09084E-01 6.45785E-08 4.69190E-08
 -1      2529 1.33840E-01-2.03088E-03-3.41913E-04-2.09084E-01 1.78662E-07 1.29805E-07
 -1      2530 1.33840E-01-2.03152E-03-3.41900E-04-2.09085E-01 2.48788E-07 1.80755E-07
 -1      2531 1.33839E-01-2.03246E-03-3.41888E-04-2.09085E-01 2.48313E-07 1.80410E-07
 -1      2532 1.33839E-01-2.03369E-03-3.41880E-04-2.09086E-01 1.53946E-07 1.11849E-07
 -1      2533 1.95125E-01-6.33198E-02-3.41880E-04-1.77859E-01-1.69548E-07-8.63891E-08
 -1      2534 1.95125E-01-6.33184E-02-3.41888E-04-1.77859E-01-2.73478E-07-1.39344E-07
 -1      2535 1.95126E-01-6.33173E-02-3.41900E-04-1.77858E-01-2.74001E-07-1.39611E-07
 -1      2536 1.95126E-01-6.33165E-02-3.41913E-04-1.77858E-01-1.96768E-07-1.00258E-07
 -1      2537 1.95126E-01-6.33162E-02-3.41920E-04-1.77858E-01-7.11232E-08-3.62391E-08
 -1      2538 1.95126E-01-6.33162E-02-3.41920E-04-1.77858E-01 7.11232E-08 3.62391E-08
 -1      2539 1.95126E-01-6.33165E-02-3.41913E-04-1.77858E-01 1.96768E-07 1.00258E-07
 -1      2540 1.95126E-01-6.33173E-02-3.41900E-04-1.77858E-01 2.74001E-07 1.39611E-07
 -1      2541 1.95125E-01-6.33184E-02-3.41888E-04-1.77859E-01 2.73478E-07 1.39344E-07
 -1      2542 1.95125E-01-6.33198E-02-3.41880E-04-1.77859E-01 1.69548E-07 8.63891E-08
 -1      2543 2.43762E-01-1.11957E-01-3.41880E-04-1.29222E-01-1.80975E-07-5.88023E-08
 -1      2544 2.43762E-01-1.11955E-01-3.41888E-04-1.29222E-01-2.91909E-07-9.48471E-08
 -1      2545 2.43762E-01-1.11954E-01-3.41900E-04-1.29222E-01-2.92468E-07-9.50285E-08
 -1      2546 2.43763E-01-1.11953E-01-3.41913E-04-1.29221E-01-2.10029E-07-6.82427E-08
 -1      2547 2.43763E-01-1.11953E-01-3.41920E-04-1.29221E-01-7.59165E-08-2.46668E-08
 -1      2548 2.43763E-01-1.11953E-01-3.41920E-04-1.29221E-01 7.59166E-08 2.46668E-08
 -1      2549 2.43763E-01-1.11953E-01-3.41913E-04-1.29221E-01 2.10029E-07 6.82427E-08
 -1      2550 2.43762E-01-1.11954E-01-3.41900E-04-1.29222E-01 2.92468E-07 9.50285E-08
 -1      2551 2.43762E-01-1.11955E-01-3.41888E-04-1.29222E-01 2.91909E-07 9.48471E-08
 -1      2552 2.43762E-01-1.11957E-01-3.41880E-04-1.29222E-01 1.80975E-07 5.88023E-08
 -1      2553 2.74989E-01-1.43184E-01-3.41880E-04-6.79362E-02-1.87945E-07-2.97676E-08
 -1      2554 2.74989E-01-1.43182E-01-3.41888E-04-6.79360E-02-3.03153E-07-4.80147E-08
 -1      2555 2.74989E-01-1.43181E-01-3.41900E-04-6.79358E-02-3.03733E-07-4.81065E-08
 -1      2556 2.74989E-01-1.43180E-01-3.41913E-04-6.79357E-02-2.18119E-07-3.45467E-08
 -1      2557 2.74989E-01-1.43179E-01-3.41920E-04-6.79356E-02-7.88406E-08-1.24871E-08
 -1      2558 2.74989E-01-1.43179E-01-3.41920E-04-6.79356E-02 7.88406E-08 1.24871E-08
 -1      2559 2.74989E-01-1.43180E-01-3.41913E-04-6.79357E-02 2.18119E-07 3.45467E-08
 -1      2560 2.74989E-01-1.43181E-01-3.41900E-04-6.79358E-02 3.03733E-07 4.81065E-08
 -1      2561 2.74989E-01-1.43182E-01-3.41888E-04-6.79360E-02 3.03153E-07 4.80147E-08
 -1      2562 2.74989E-01-1.43184E-01-3.41880E-04-6.79362E-02 1.87945E-07 2.97676E-08
 -1      2563-1.25273E-01 2.57306E-01-2.86082E-04-6.21538E-02-2.25960E-08-1.42666E-07
 -1      2564-1.25272E-01 2.57306E-01-2.86087E-04-6.21536E-02-3.62340E-08-2.28773E-07
 -1      2565-1.25270E-01 2.57307E-01-2.86095E-04-6.21534E-02-3.59304E-08-2.26855E-07
 -1      2566-1.25270E-01 2.57307E-01-2.86103E-04-6.21533E-02-2.56001E-08-1.61632E-07
 -1      2567-1.25269E-01 2.57307E-01-2.86108E-04-6.21533E-02-9.20795E-09-5.81367E-08
 -1      2568-1.25269E-01 2.57307E-01-2.86108E-04-6.21533E-02 9.20795E-09 5.81367E-08
 -1      2569-1.25270E-01 2.57307E-01-2.86103E-04-6.21533E-02 2.56001E-08 1.61632E-07
 -1      2570-1.25270E-01 2.57307E-01-2.86095E-04-6.21534E-02 3.59304E-08 2.26855E-07
 -1      2571-1.25272E-01 2.57306E-01-2.86087E-04-6.21536E-02 3.62341E-08 2.28773E-07
 -1      2572-1.25273E-01 2.57306E-01-2.86082E-04-6.21538E-02 2.25960E-08 1.42666E-07
 -1      2573-9.67039E-02 2.28737E-01-2.86082E-04-1.18223E-01-4.46356E-08-1.37374E-07
 -1      2574-9.67027E-02 2.28738E-01-2.86087E-04-1.18223E-01-7.15759E-08-2.20288E-07
 -1      2575-9.67017E-02 2.28738E-01-2.86095E-04-1.18223E-01-7.09760E-08-2.18442E-07
 -1      2576-9.67010E-02 2.28738E-01-2.86103E-04-1.18223E-01-5.05698E-08-1.55638E-07
 -1      2577-9.67007E-02 2.28738E-01-2.86108E-04-1.18223E-01-1.81892E-08-5.59805E-08
 -1      2578-9.67007E-02 2.28738E-01-2.86108E-04-1.18223E-01 1.81892E-08 5.59805E-08
 -1      2579-9.67010E-02 2.28738E-01-2.86103E-04-1.18223E-01 5.05698E-08 1.55638E-07
 -1      2580-9.67017E-02 2.28738E-01-2.86095E-04-1.18223E-01 7.09760E-08 2.18442E-07
 -1      2581-9.67027E-02 2.28738E-01-2.86087E-04-1.18223E-01 7.15759E-08 2.20288E-07
 -1      2582-9.67039E-02 2.28737E-01-2.86082E-04-1.18223E-01 4.46356E-08 1.37374E-07
 -1      2583-5.22067E-02 1.84240E-01-2.86082E-04-1.62721E-01-6.55762E-08-1.28700E-07
 -1      2584-5.22056E-02 1.84241E-01-2.86087E-04-1.62720E-01-1.05155E-07-2.06379E-07
 -1      2585-5.22048E-02 1.84241E-01-2.86095E-04-1.62720E-01-1.04274E-07-2.04649E-07
 -1      2586-5.22042E-02 1.84241E-01-2.86103E-04-1.62720E-01-7.42943E-08-1.45811E-07
 -1      2587-5.22039E-02 1.84241E-01-2.86108E-04-1.62719E-01-2.67225E-08-5.24459E-08
 -1      2588-5.22039E-02 1.84241E-01-2.86108E-04-1.62719E-01 2.67225E-08 5.24459E-08
 -1      2589-5.22042E-02 1.84241E-01-2.86103E-04-1.62720E-01 7.42943E-08 1.45811E-07
 -1      2590-5.22048E-02 1.84241E-01-2.86095E-04-1.62720E-01 1.04274E-07 2.04649E-07
 -1      2591-5.22056E-02 1.84241E-01-2.86087E-04-1.62720E-01 1.05155E-07 2.06379E-07
 -1      2592-5.22067E-02 1.84240E-01-2.86082E-04-1.62721E-01 6.55762E-08 1.28700E-07
 -1      2593 3.86297E-03 1.28170E-01-2.86082E-04-1.91290E-01-8.49020E-08-1.16858E-07
 -1      2594 3.86392E-03 1.28171E-01-2.86087E-04-1.91289E-01-1.36145E-07-1.87388E-07
 -1      2595 3.86465E-03 1.28171E-01-2.86095E-04-1.91289E-01-1.35004E-07-1.85818E-07
 -1      2596 3.86514E-03 1.28172E-01-2.86103E-04-1.91288E-01-9.61894E-08-1.32393E-07
 -1      2597 3.86539E-03 1.28172E-01-2.86108E-04-1.91288E-01-3.45978E-08-4.76199E-08
 -1      2598 3.86539E-03 1.28172E-01-2.86108E-04-1.91288E-01 3.45978E-08 4.76199E-08
 -1      2599 3.86514E-03 1.28172E-01-2.86103E-04-1.91288E-01 9.61894E-08 1.32393E-07
 -1      2600 3.86465E-03 1.28171E-01-2.86095E-04-1.91289E-01 1.35004E-07 1.85818E-07
 -1      2601 3.86392E-03 1.28171E-01-2.86087E-04-1.91289E-01 1.36145E-07 1.87388E-07
 -1      2602 3.86297E-03 1.28170E-01-2.86082E-04-1.91290E-01 8.49020E-08 1.16858E-07
 -1      2603 6.60167E-02 6.60167E-02-2.86082E-04-2.01134E-01-1.02137E-07-1.02137E-07
 -1      2604 6.60175E-02 6.60175E-02-2.86087E-04-2.01133E-01-1.63783E-07-1.63783E-07
 -1      2605 6.60181E-02 6.60181E-02-2.86095E-04-2.01133E-01-1.62410E-07-1.62410E-07
 -1      2606 6.60185E-02 6.60185E-02-2.86103E-04-2.01132E-01-1.15716E-07-1.15716E-07
 -1      2607 6.60187E-02 6.60187E-02-2.86108E-04-2.01132E-01-4.16213E-08-4.16213E-08
 -1      2608 6.60187E-02 6.60187E-02-2.86108E-04-2.01132E-01 4.16213E-08 4.16213E-08
 -1      2609 6.60185E-02 6.60185E-02-2.86103E-04-2.01132E-01 1.15716E-07 1.15716E-07
 -1      2610 6.60181E-02 6.60181E-02-2.86095E-04-2.01133E-01 1.62410E-07 1.62410E-07
 -1      2611 6.60175E-02 6.60175E-02-2.86087E-04-2.01133E-01 1.63783E-07 1.63783E-07
 -1      2612 6.60167E-02 6.60167E-02-2.86082E-04-2.01134E-01 1.02137E-07 1.02137E-07
 -1      2613 1.28170E-01 3.86297E-03-2.86082E-04-1.91290E-01-1.16858E-07-8.49020E-08
 -1      2614 1.28171E-01 3.86392E-03-2.86087E-04-1.91289E-01-1.87388E-07-1.36145E-07
 -1      2615 1.28171E-01 3.86465E-03-2.86095E-04-1.91289E-01-1.85818E-07-1.35004E-07
 -1      2616 1.28172E-01 3.86514E-03-2.86103E-04-1.91288E-01-1.32393E-07-9.61894E-08
 -1      2617 1.28172E-01 3.86539E-03-2.86108E-04-1.91288E-01-4.76199E-08-3.45979E-08
 -1      2618 1.28172E-01 3.86539E-03-2.86108E-04-1.91288E-01 4.76198E-08 3.45978E-08
 -1      2619 1.28172E-01 3.86514E-03-2.86103E-04-1.91288E-01 1.32393E-07 9.61894E-08
 -1      2620 1.28171E-01 3.86465E-03-2.86095E-04-1.91289E-01 1.85818E-07 1.35004E-07
 -1      2621 1.28171E-01 3.86392E-03-2.86087E-04-1.91289E-01 1.87388E-07 1.36145E-07
 -1      2622 1.28170E-01 3.86297E-03-2.86082E-04-1.91290E-01 1.16858E-07 8.49020E-08
 -1      2623 1.84240E-01-5.22067E-02-2.86082E-04-1.62721E-01-1.28700E-07-6.55762E-08
 -1      2624 1.84241E-01-5.22056E-02-2.86087E-04-1.62720E-01-2.06379E-07-1.05155E-07
 -1      2625 1.84241E-01-5.22048E-02-2.86095E-04-1.62720E-01-2.04649E-07-1.04274E-07
 -1      2626 1.84241E-01-5.22042E-02-2.86103E-04-1.62720E-01-1.45811E-07-7.42943E-08
 -1      2627 1.84241E-01-5.22039E-02-2.86108E-04-1.62719E-01-5.24459E-08-2.67225E-08
 -1      2628 1.84241E-01-5.22039E-02-2.86108E-04-1.62719E-01 5.24459E-08 2.67225E-08
 -1      2629 1.84241E-01-5.22042E-02-2.86103E-04-1.62720E-01 1.45811E-07 7.42943E-08
 -1      2630 1.84241E-01-5.22048E-02-2.86095E-04-1.62720E-01 2.04649E-07 1.04274E-07
 -1      2631 1.84241E-01-5.22056E-02-2.86087E-04-1.62720E-01 2.06379E-07 1.05155E-07
 -1      2632 1.84240E-01-5.22067E-02-2.86082E-04-1.62721E-01 1.28700E-07 6.55762E-08
 -1      2633 2.28737E-01-9.67039E-02-2.86082E-04-1.18223E-01-1.37374E-07-4.46356E-08
 -1      2634 2.28738E-01-9.67027E-02-2.86087E-04-1.18223E-01-2.20288E-07-7.15759E-08
 -1      2635 2.28738E-01-9.67017E-02-2.86095E-04-1.18223E-01-2.18442E-07-7.09760E-08
 -1      2636 2.28738E-01-9.67010E-02-2.86103E-04-1.18223E-01-1.55638E-07-5.05698E-08
 -1      2637 2.28738E-01-9.67007E-02-2.86108E-04-1.18223E-01-5.59805E-08-1.81892E-08
 -1      2638 2.28738E-01-9.67007E-02-2.86108E-04-1.18223E-01 5.59805E-08 1.81892E-08
 -1      2639 2.28738E-01-9.67010E-02-2.86103E-04-1.18223E-01 1.55638E-07 5.05698E-08
 -1      2640 2.28738E-01-9.67017E-02-2.86095E-04-1.18223E-01 2.18442E-07 7.09760E-08
 -1      2641 2.28738E-01-9.67027E-02-2.86087E-04-1.18223E-01 2.20288E-07 7.15759E-08
 -1      2642 2.28737E-01-9.67039E-02-2.86082E-04-1.18223E-01 1.37374E-07 4.46356E-08
 -1      2643 2.57306E-01-1.25273E-01-2.86082E-04-6.21538E-02-1.42666E-07-2.25960E-08
 -1      2644 2.57306E-01-1.25272E-01-2.86087E-04-6.21536E-02-2.28773E-07-3.62340E-08
 -1      2645 2.57307E-01-1.25270E-01-2.86095E-04-6.21534E-02-2.26855E-07-3.59304E-08
 -1      2646 2.57307E-01-1.25270E-01-2.86103E-04-6.21533E-02-1.61632E-07-2.56001E-08
 -1      2647 2.57307E-01-1.25269E-01-2.86108E-04-6.21533E-02-5.81367E-08-9.20795E-09
 -1      2648 2.57307E-01-1.25269E-01-2.86108E-04-6.21533E-02 5.81367E-08 9.20795E-09
 -1      2649 2.57307E-01-1.25270E-01-2.86103E-04-6.21533E-02 1.61632E-07 2.56001E-08
 -1      2650 2.57307E-01-1.25270E-01-2.86095E-04-6.21534E-02 2.26855E-07 3.59304E-08
 -1      2651 2.57306E-01-1.25272E-01-2.86087E-04-6.21536E-02 2.28773E-07 3.62340E-08
 -1      2652 2.57306E-01-1.25273E-01-2.86082E-04-6.21538E-02 1.42666E-07 2.25960E-08
 -1      2653-1.09564E-01 2.41781E-01-2.41227E-04-5.70794E-02-1.79902E-08-1.13586E-07
 -1      2654-1.09563E-01 2.41781E-01-2.41232E-04-5.70793E-02-2.86974E-08-1.81188E-07
 -1      2655-1.09562E-01 2.41781E-01-2.41241E-04-5.70792E-02-2.83990E-08-1.79304E-07
 -1      2656-1.09562E-01 2.41781E-01-2.41249E-04-5.70791E-02-2.02054E-08-1.27572E-07
 -1      2657-1.09561E-01 2.41781E-01-2.41254E-04-5.70791E-02-7.26378E-09-4.58617E-08
 -1      2658-1.09561E-01 2.41781E-01-2.41254E-04-5.70791E-02 7.26378E-09 4.58617E-08
 -1      2659-1.09562E-01 2.41781E-01-2.41249E-04-5.70791E-02 2.02054E-08 1.27572E-07
 -1      2660-1.09562E-01 2.41781E-01-2.41241E-04-5.70792E-02 2.83990E-08 1.79304E-07
 -1      2661-1.09563E-01 2.41781E-01-2.41232E-04-5.70793E-02 2.86974E-08 1.81188E-07
 -1      2662-1.09564E-01 2.41781E-01-2.41227E-04-5.70794E-02 1.79902E-08 1.13586E-07
 -1      2663-8.33274E-02 2.15544E-01-2.41227E-04-1.08572E-01-3.55374E-08-1.09373E-07
 -1      2664-8.33264E-02 2.15545E-01-2.41232E-04-1.08571E-01-5.66881E-08-1.74468E-07
 -1      2665-8.33257E-02 2.15545E-01-2.41241E-04-1.08571E-01-5.60987E-08-1.72654E-07
 -1      2666-8.33252E-02 2.15545E-01-2.41249E-04-1.08571E-01-3.99133E-08-1.22841E-07
 -1      2667-8.33249E-02 2.15545E-01-2.41254E-04-1.08571E-01-1.43487E-08-4.41608E-08
 -1      2668-8.33249E-02 2.15545E-01-2.41254E-04-1.08571E-01 1.43487E-08 4.41608E-08
 -1      2669-8.33252E-02 2.15545E-01-2.41249E-04-1.08571E-01 3.99133E-08 1.22841E-07
 -1      2670-8.33257E-02 2.15545E-01-2.41241E-04-1.08571E-01 5.60987E-08 1.72654E-07
 -1      2671-8.33264E-02 2.15545E-01-2.41232E-04-1.08571E-01 5.66881E-08 1.74468E-07
 -1      2672-8.33274E-02 2.15544E-01-2.41227E-04-1.08572E-01 3.55374E-08 1.09373E-07
 -1      2673-4.24630E-02 1.74680E-01-2.41227E-04-1.49436E-01-5.22096E-08-1.02467E-07
 -1      2674-4.24621E-02 1.74680E-01-2.41232E-04-1.49436E-01-8.32829E-08-1.63452E-07
 -1      2675-4.24615E-02 1.74681E-01-2.41241E-04-1.49435E-01-8.24171E-08-1.61753E-07
 -1      2676-4.24610E-02 1.74681E-01-2.41249E-04-1.49435E-01-5.86385E-08-1.15084E-07
 -1      2677-4.24608E-02 1.74681E-01-2.41254E-04-1.49435E-01-2.10803E-08-4.13724E-08
 -1      2678-4.24608E-02 1.74681E-01-2.41254E-04-1.49435E-01 2.10803E-08 4.13724E-08
 -1      2679-4.24610E-02 1.74681E-01-2.41249E-04-1.49435E-01 5.86385E-08 1.15084E-07
 -1      2680-4.24615E-02 1.74681E-01-2.41241E-04-1.49435E-01 8.24171E-08 1.61753E-07
 -1      2681-4.24621E-02 1.74680E-01-2.41232E-04-1.49436E-01 8.32829E-08 1.63452E-07
 -1      2682-4.24630E-02 1.74680E-01-2.41227E-04-1.49436E-01 5.22096E-08 1.02467E-07
 -1      2683 9.02908E-03 1.23188E-01-2.41227E-04-1.75672E-01-6.75962E-08-9.30382E-08
 -1      2684 9.02983E-03 1.23188E-01-2.41232E-04-1.75672E-01-1.07827E-07-1.48411E-07
 -1      2685 9.03040E-03 1.23189E-01-2.41241E-04-1.75672E-01-1.06706E-07-1.46868E-07
 -1      2686 9.03079E-03 1.23189E-01-2.41249E-04-1.75671E-01-7.59197E-08-1.04494E-07
 -1      2687 9.03098E-03 1.23189E-01-2.41254E-04-1.75671E-01-2.72929E-08-3.75654E-08
 -1      2688 9.03098E-03 1.23189E-01-2.41254E-04-1.75671E-01 2.72929E-08 3.75654E-08
 -1      2689 9.03079E-03 1.23189E-01-2.41249E-04-1.75671E-01 7.59197E-08 1.04494E-07
 -1      2690 9.03040E-03 1.23189E-01-2.41241E-04-1.75672E-01 1.06706E-07 1.46868E-07
 -1      2691 9.02983E-03 1.23188E-01-2.41232E-04-1.75672E-01 1.07827E-07 1.48411E-07
 -1      2692 9.02908E-03 1.23188E-01-2.41227E-04-1.75672E-01 6.75962E-08 9.30382E-08
 -1      2693 6.61085E-02 6.61085E-02-2.41227E-04-1.84713E-01-8.13183E-08-8.13184E-08
 -1      2694 6.61091E-02 6.61091E-02-2.41232E-04-1.84712E-01-1.29716E-07-1.29716E-07
 -1      2695 6.61096E-02 6.61096E-02-2.41241E-04-1.84712E-01-1.28368E-07-1.28368E-07
 -1      2696 6.61099E-02 6.61099E-02-2.41249E-04-1.84712E-01-9.13315E-08-9.13315E-08
 -1      2697 6.61101E-02 6.61101E-02-2.41254E-04-1.84712E-01-3.28334E-08-3.28334E-08
 -1      2698 6.61101E-02 6.61101E-02-2.41254E-04-1.84712E-01 3.28334E-08 3.28334E-08
 -1      2699 6.61099E-02 6.61099E-02-2.41249E-04-1.84712E-01 9.13315E-08 9.13315E-08
 -1      2700 6.61096E-02 6.61096E-02-2.41241E-04-1.84712E-01 1.28368E-07 1.28368E-07
 -1      2701 6.61091E-02 6.61091E-02-2.41232E-04-1.84712E-01 1.29716E-07 1.29716E-07
 -1      2702 6.61085E-02 6.61085E-02-2.41227E-04-1.84713E-01 8.13183E-08 8.13184E-08
 -1      2703 1.23188E-01 9.02908E-03-2.41227E-04-1.75672E-01-9.30382E-08-6.75962E-08
 -1      2704 1.23188E-01 9.02983E-03-2.41232E-04-1.75672E-01-1.48411E-07-1.07827E-07
 -1      2705 1.23189E-01 9.03040E-03-2.41241E-04-1.75672E-01-1.46868E-07-1.06706E-07
 -1      2706 1.23189E-01 9.03079E-03-2.41249E-04-1.75671E-01-1.04494E-07-7.59197E-08
 -1      2707 1.23189E-01 9.03098E-03-2.41254E-04-1.75671E-01-3.75654E-08-2.72929E-08
 -1      2708 1.23189E-01 9.03098E-03-2.41254E-04-1.75671E-01 3.75654E-08 2.72929E-08
 -1      2709 1.23189E-01 9.03079E-03-2.41249E-04-1.75671E-01 1.04494E-07 7.59197E-08
 -1      2710 1.23189E-01 9.03040E-03-2.41241E-04-1.75672E-01 1.46868E-07 1.06706E-07
 -1      2711 1.23188E-01 9.02983E-03-2.41232E-04-1.75672E-01 1.48411E-07 1.07827E-07
 -1      2712 1.23188E-01 9.02908E-03-2.41227E-04-1.75672E-01 9.30382E-08 6.75962E-08
 -1      2713 1.74680E-01-4.24630E-02-2.41227E-04-1.49436E-01-1.02467E-07-5.22096E-08
 -1      2714 1.74680E-01-4.24621E-02-2.41232E-04-1.49436E-01-1.63452E-07-8.32830E-08
 -1      2715 1.74681E-01-4.24615E-02-2.41241E-04-1.49435E-01-1.61753E-07-8.24171E-08
 -1      2716 1.74681E-01-4.24610E-02-2.41249E-04-1.49435E-01-1.15084E-07-5.86385E-08
 -1      2717 1.74681E-01-4.24608E-02-2.41254E-04-1.49435E-01-4.13724E-08-2.10803E-08
 -1      2718 1.74681E-01-4.24608E-02-2.41254E-04-1.49435E-01 4.13724E-08 2.10803E-08
 -1      2719 1.74681E-01-4.24610E-02-2.41249E-04-1.49435E-01 1.15084E-07 5.86385E-08
 -1      2720 1.74681E-01-4.24615E-02-2.41241E-04-1.49435E-01 1.61753E-07 8.24171E-08
 -1      2721 1.74680E-01-4.24621E-02-2.41232E-04-1.49436E-01 1.63452E-07 8.32830E-08
 -1      2722 1.74680E-01-4.24630E-02-2.41227E-04-1.49436E-01 1.02467E-07 5.22096E-08
 -1      2723 2.15544E-01-8.33274E-02-2.41227E-04-1.08572E-01-1.09373E-07-3.55374E-08
 -1      2724 2.15545E-01-8.33264E-02-2.41232E-04-1.08571E-01-1.74468E-07-5.66881E-08
 -1      2725 2.15545E-01-8.33257E-02-2.41241E-04-1.08571E-01-1.72654E-07-5.60987E-08
 -1      2726 2.15545E-01-8.33252E-02-2.41249E-04-1.08571E-01-1.22841E-07-3.99133E-08
 -1      2727 2.15545E-01-8.33249E-02-2.41254E-04-1.08571E-01-4.41608E-08-1.43487E-08
 -1      2728 2.15545E-01-8.33249E-02-2.41254E-04-1.08571E-01 4.41608E-08 1.43487E-08
 -1      2729 2.15545E-01-8.33252E-02-2.41249E-04-1.08571E-01 1.22841E-07 3.99133E-08
 -1      2730 2.15545E-01-8.33257E-02-2.41241E-04-1.08571E-01 1.72654E-07 5.60987E-08
 -1      2731 2.15545E-01-8.33264E-02-2.41232E-04-1.08571E-01 1.74468E-07 5.66881E-08
 -1      2732 2.15544E-01-8.33274E-02-2.41227E-04-1.08572E-01 1.09373E-07 3.55374E-08
 -1      2733 2.41781E-01-1.09564E-01-2.41227E-04-5.70794E-02-1.13586E-07-1.79902E-08
 -1      2734 2.41781E-01-1.09563E-01-2.41232E-04-5.70793E-02-1.81188E-07-2.86974E-08
 -1      2735 2.41781E-01-1.09562E-01-2.41241E-04-5.70792E-02-1.79304E-07-2.83990E-08
 -1      2736 2.41781E-01-1.09562E-01-2.41249E-04-5.70791E-02-1.27572E-07-2.02054E-08
 -1      2737 2.41781E-01-1.09561E-01-2.41254E-04-5.70791E-02-4.58617E-08-7.26378E-09
 -1      2738 2.41781E-01-1.09561E-01-2.41254E-04-5.70791E-02 4.58617E-08 7.26378E-09
 -1      2739 2.41781E-01-1.09562E-01-2.41249E-04-5.70791E-02 1.27572E-07 2.02054E-08
 -1      2740 2.41781E-01-1.09562E-01-2.41241E-04-5.70792E-02 1.79304E-07 2.83990E-08
 -1      2741 2.41781E-01-1.09563E-01-2.41232E-04-5.70793E-02 1.81188E-07 2.86973E-08
 -1      2742 2.41781E-01-1.09564E-01-2.41227E-04-5.70794E-02 1.13586E-07 1.79902E-08
 -1      2743-9.57099E-02 2.28076E-01-2.04831E-04-5.26022E-02-1.42132E-08-8.97384E-08
 -1      2744-9.57091E-02 2.28076E-01-2.04836E-04-5.26021E-02-2.25244E-08-1.42213E-07
 -1      2745-9.57084E-02 2.28076E-01-2.04844E-04-5.26020E-02-2.22769E-08-1.40651E-07
 -1      2746-9.57080E-02 2.28076E-01-2.04851E-04-5.26019E-02-1.58532E-08-1.00093E-07
 -1      2747-9.57078E-02 2.28076E-01-2.04855E-04-5.26019E-02-5.69991E-09-3.59878E-08
 -1      2748-9.57078E-02 2.28076E-01-2.04855E-04-5.26019E-02 5.69991E-09 3.59878E-08
 -1      2749-9.57080E-02 2.28076E-01-2.04851E-04-5.26019E-02 1.58532E-08 1.00093E-07
 -1      2750-9.57084E-02 2.28076E-01-2.04844E-04-5.26020E-02 2.22769E-08 1.40651E-07
 -1      2751-9.57091E-02 2.28076E-01-2.04836E-04-5.26021E-02 2.25244E-08 1.42213E-07
 -1      2752-9.57099E-02 2.28076E-01-2.04831E-04-5.26022E-02 1.42132E-08 8.97384E-08
 -1      2753-7.15313E-02 2.03897E-01-2.04831E-04-1.00055E-01-2.80764E-08-8.64102E-08
 -1      2754-7.15305E-02 2.03898E-01-2.04836E-04-1.00055E-01-4.44941E-08-1.36939E-07
 -1      2755-7.15299E-02 2.03898E-01-2.04844E-04-1.00055E-01-4.40053E-08-1.35434E-07
 -1      2756-7.15295E-02 2.03898E-01-2.04851E-04-1.00055E-01-3.13160E-08-9.63806E-08
 -1      2757-7.15293E-02 2.03898E-01-2.04855E-04-1.00055E-01-1.12595E-08-3.46531E-08
 -1      2758-7.15293E-02 2.03898E-01-2.04855E-04-1.00055E-01 1.12595E-08 3.46531E-08
 -1      2759-7.15295E-02 2.03898E-01-2.04851E-04-1.00055E-01 3.13160E-08 9.63806E-08
 -1      2760-7.15299E-02 2.03898E-01-2.04844E-04-1.00055E-01 4.40053E-08 1.35434E-07
 -1      2761-7.15305E-02 2.03898E-01-2.04836E-04-1.00055E-01 4.44941E-08 1.36939E-07
 -1      2762-7.15313E-02 2.03897E-01-2.04831E-04-1.00055E-01 2.80764E-08 8.64102E-08
 -1      2763-3.38723E-02 1.66238E-01-2.04831E-04-1.37714E-01-4.12482E-08-8.09542E-08
 -1      2764-3.38716E-02 1.66239E-01-2.04836E-04-1.37714E-01-6.53682E-08-1.28292E-07
 -1      2765-3.38711E-02 1.66239E-01-2.04844E-04-1.37714E-01-6.46501E-08-1.26883E-07
 -1      2766-3.38707E-02 1.66239E-01-2.04851E-04-1.37714E-01-4.60077E-08-9.02951E-08
 -1      2767-3.38705E-02 1.66239E-01-2.04855E-04-1.37714E-01-1.65418E-08-3.24651E-08
 -1      2768-3.38705E-02 1.66239E-01-2.04855E-04-1.37714E-01 1.65418E-08 3.24651E-08
 -1      2769-3.38707E-02 1.66239E-01-2.04851E-04-1.37714E-01 4.60076E-08 9.02951E-08
 -1      2770-3.38711E-02 1.66239E-01-2.04844E-04-1.37714E-01 6.46501E-08 1.26883E-07
 -1      2771-3.38716E-02 1.66239E-01-2.04836E-04-1.37714E-01 6.53682E-08 1.28292E-07
 -1      2772-3.38723E-02 1.66238E-01-2.04831E-04-1.37714E-01 4.12482E-08 8.09542E-08
 -1      2773 1.35808E-02 1.18785E-01-2.04831E-04-1.61893E-01-5.34044E-08-7.35049E-08
 -1      2774 1.35814E-02 1.18786E-01-2.04836E-04-1.61893E-01-8.46328E-08-1.16487E-07
 -1      2775 1.35819E-02 1.18786E-01-2.04844E-04-1.61892E-01-8.37030E-08-1.15207E-07
 -1      2776 1.35822E-02 1.18786E-01-2.04851E-04-1.61892E-01-5.95665E-08-8.19862E-08
 -1      2777 1.35823E-02 1.18786E-01-2.04855E-04-1.61892E-01-2.14168E-08-2.94777E-08
 -1      2778 1.35823E-02 1.18786E-01-2.04855E-04-1.61892E-01 2.14168E-08 2.94777E-08
 -1      2779 1.35822E-02 1.18786E-01-2.04851E-04-1.61892E-01 5.95665E-08 8.19862E-08
 -1      2780 1.35819E-02 1.18786E-01-2.04844E-04-1.61892E-01 8.37030E-08 1.15207E-07
 -1      2781 1.35814E-02 1.18786E-01-2.04836E-04-1.61893E-01 8.46328E-08 1.16487E-07
 -1      2782 1.35808E-02 1.18785E-01-2.04831E-04-1.61893E-01 5.34044E-08 7.35049E-08
 -1      2783 6.61830E-02 6.61830E-02-2.04831E-04-1.70224E-01-6.42456E-08-6.42456E-08
 -1      2784 6.61835E-02 6.61835E-02-2.04836E-04-1.70224E-01-1.01813E-07-1.01813E-07
 -1      2785 6.61839E-02 6.61839E-02-2.04844E-04-1.70224E-01-1.00695E-07-1.00695E-07
 -1      2786 6.61841E-02 6.61841E-02-2.04851E-04-1.70223E-01-7.16586E-08-7.16586E-08
 -1      2787 6.61842E-02 6.61842E-02-2.04855E-04-1.70223E-01-2.57644E-08-2.57644E-08
 -1      2788 6.61842E-02 6.61842E-02-2.04855E-04-1.70223E-01 2.57644E-08 2.57644E-08
 -1      2789 6.61841E-02 6.61841E-02-2.04851E-04-1.70223E-01 7.16586E-08 7.16586E-08
 -1      2790 6.61839E-02 6.61839E-02-2.04844E-04-1.70224E-01 1.00695E-07 1.00695E-07
 -1      2791 6.61835E-02 6.61835E-02-2.04836E-04-1.70224E-01 1.01813E-07 1.01813E-07
 -1      2792 6.61830E-02 6.61830E-02-2.04831E-04-1.70224E-01 6.42456E-08 6.42456E-08
 -1      2793 1.18785E-01 1.35808E-02-2.04831E-04-1.61893E-01-7.35049E-08-5.34044E-08
 -1      2794 1.18786E-01 1.35814E-02-2.04836E-04-1.61893E-01-1.16487E-07-8.46328E-08
 -1      2795 1.18786E-01 1.35819E-02-2.04844E-04-1.61892E-01-1.15207E-07-8.37030E-08
 -1      2796 1.18786E-01 1.35822E-02-2.04851E-04-1.61892E-01-8.19862E-08-5.95665E-08
 -1      2797 1.18786E-01 1.35823E-02-2.04855E-04-1.61892E-01-2.94777E-08-2.14168E-08
 -1      2798 1.18786E-01 1.35823E-02-2.04855E-04-1.61892E-01 2.94777E-08 2.14168E-08
 -1      2799 1.18786E-01 1.35822E-02-2.04851E-04-1.61892E-01 8.19862E-08 5.95665E-08
 -1      2800 1.18786E-01 1.35819E-02-2.04844E-04-1.61892E-01 1.15207E-07 8.37030E-08
 -1      2801 1.18786E-01 1.35814E-02-2.04836E-04-1.61893E-01 1.16487E-07 8.46328E-08
 -1      2802 1.18785E-01 1.35808E-02-2.04831E-04-1.61893E-01 7.35049E-08 5.34044E-08
 -1      2803 1.66238E-01-3.38723E-02-2.04831E-04-1.37714E-01-8.09542E-08-4.12482E-08
 -1      2804 1.66239E-01-3.38716E-02-2.04836E-04-1.37714E-01-1.28292E-07-6.53682E-08
 -1      2805 1.66239E-01-3.38711E-02-2.04844E-04-1.37714E-01-1.26883E-07-6.46501E-08
 -1      2806 1.66239E-01-3.38707E-02-2.04851E-04-1.37714E-01-9.02951E-08-4.60077E-08
 -1      2807 1.66239E-01-3.38705E-02-2.04855E-04-1.37714E-01-3.24651E-08-1.65418E-08
 -1      2808 1.66239E-01-3.38705E-02-2.04855E-04-1.37714E-01 3.24651E-08 1.65418E-08
 -1      2809 1.66239E-01-3.38707E-02-2.04851E-04-1.37714E-01 9.02951E-08 4.60076E-08
 -1      2810 1.66239E-01-3.38711E-02-2.04844E-04-1.37714E-01 1.26883E-07 6.46501E-08
 -1      2811 1.66239E-01-3.38716E-02-2.04836E-04-1.37714E-01 1.28292E-07 6.53682E-08
 -1      2812 1.66238E-01-3.38723E-02-2.04831E-04-1.37714E-01 8.09542E-08 4.12482E-08
 -1      2813 2.03897E-01-7.15313E-02-2.04831E-04-1.00055E-01-8.64102E-08-2.80764E-08
 -1      2814 2.03898E-01-7.15305E-02-2.04836E-04-1.00055E-01-1.36939E-07-4.44941E-08
 -1      2815 2.03898E-01-7.15299E-02-2.04844E-04-1.00055E-01-1.35434E-07-4.40053E-08
 -1      2816 2.03898E-01-7.15295E-02-2.04851E-04-1.00055E-01-9.63806E-08-3.13160E-08
 -1      2817 2.03898E-01-7.15293E-02-2.04855E-04-1.00055E-01-3.46531E-08-1.12595E-08
 -1      2818 2.03898E-01-7.15293E-02-2.04855E-04-1.00055E-01 3.46531E-08 1.12595E-08
 -1      2819 2.03898E-01-7.15295E-02-2.04851E-04-1.00055E-01 9.63806E-08 3.13160E-08
 -1      2820 2.03898E-01-7.15299E-02-2.04844E-04-1.00055E-01 1.35434E-07 4.40053E-08
 -1      2821 2.03898E-01-7.15305E-02-2.04836E-04-1.00055E-01 1.36939E-07 4.44941E-08
 -1      2822 2.03897E-01-7.15313E-02-2.04831E-04-1.00055E-01 8.64102E-08 2.80764E-08
 -1      2823 2.28076E-01-9.57099E-02-2.04831E-04-5.26022E-02-8.97384E-08-1.42132E-08
 -1      2824 2.28076E-01-9.57091E-02-2.04836E-04-5.26021E-02-1.42213E-07-2.25244E-08
 -1      2825 2.28076E-01-9.57084E-02-2.04844E-04-5.26020E-02-1.40651E-07-2.22769E-08
 -1      2826 2.28076E-01-9.57080E-02-2.04851E-04-5.26019E-02-1.00093E-07-1.58532E-08
 -1      2827 2.28076E-01-9.57078E-02-2.04855E-04-5.26019E-02-3.59878E-08-5.69991E-09
 -1      2828 2.28076E-01-9.57078E-02-2.04855E-04-5.26019E-02 3.59878E-08 5.69991E-09
 -1      2829 2.28076E-01-9.57080E-02-2.04851E-04-5.26019E-02 1.00093E-07 1.58532E-08
 -1      2830 2.28076E-01-9.57084E-02-2.04844E-04-5.26020E-02 1.40651E-07 2.22769E-08
 -1      2831 2.28076E-01-9.57091E-02-2.04836E-04-5.26021E-02 1.42213E-07 2.25244E-08
 -1      2832 2.28076E-01-9.57099E-02-2.04831E-04-5.26022E-02 8.97385E-08 1.42132E-08
 -1      2833-8.34295E-02 2.15918E-01-1.75048E-04-4.86319E-02-1.10982E-08-7.00712E-08
 -1      2834-8.34289E-02 2.15918E-01-1.75052E-04-4.86318E-02-1.74472E-08-1.10157E-07
 -1      2835-8.34284E-02 2.15918E-01-1.75059E-04-4.86317E-02-1.72322E-08-1.08800E-07
 -1      2836-8.34280E-02 2.15918E-01-1.75065E-04-4.86317E-02-1.22605E-08-7.74095E-08
 -1      2837-8.34278E-02 2.15918E-01-1.75068E-04-4.86316E-02-4.40834E-09-2.78332E-08
 -1      2838-8.34278E-02 2.15918E-01-1.75068E-04-4.86316E-02 4.40834E-09 2.78332E-08
 -1      2839-8.34280E-02 2.15918E-01-1.75065E-04-4.86317E-02 1.22605E-08 7.74095E-08
 -1      2840-8.34284E-02 2.15918E-01-1.75059E-04-4.86317E-02 1.72322E-08 1.08800E-07
 -1      2841-8.34289E-02 2.15918E-01-1.75052E-04-4.86318E-02 1.74472E-08 1.10157E-07
 -1      2842-8.34295E-02 2.15918E-01-1.75048E-04-4.86319E-02 1.10982E-08 7.00713E-08
 -1      2843-6.10759E-02 1.93564E-01-1.75048E-04-9.25033E-02-2.19231E-08-6.74724E-08
 -1      2844-6.10753E-02 1.93564E-01-1.75052E-04-9.25031E-02-3.44647E-08-1.06071E-07
 -1      2845-6.10748E-02 1.93564E-01-1.75059E-04-9.25030E-02-3.40401E-08-1.04765E-07
 -1      2846-6.10745E-02 1.93564E-01-1.75065E-04-9.25029E-02-2.42190E-08-7.45385E-08
 -1      2847-6.10743E-02 1.93564E-01-1.75068E-04-9.25029E-02-8.70813E-09-2.68009E-08
 -1      2848-6.10743E-02 1.93564E-01-1.75068E-04-9.25029E-02 8.70813E-09 2.68009E-08
 -1      2849-6.10745E-02 1.93564E-01-1.75065E-04-9.25029E-02 2.42190E-08 7.45385E-08
 -1      2850-6.10748E-02 1.93564E-01-1.75059E-04-9.25030E-02 3.40401E-08 1.04765E-07
 -1      2851-6.10753E-02 1.93564E-01-1.75052E-04-9.25031E-02 3.44647E-08 1.06071E-07
 -1      2852-6.10759E-02 1.93564E-01-1.75048E-04-9.25033E-02 2.19231E-08 6.74724E-08
 -1      2853-2.62593E-02 1.58747E-01-1.75048E-04-1.27320E-01-3.22082E-08-6.32122E-08
 -1      2854-2.62588E-02 1.58748E-01-1.75052E-04-1.27320E-01-5.06336E-08-9.93740E-08
 -1      2855-2.62584E-02 1.58748E-01-1.75059E-04-1.27319E-01-5.00098E-08-9.81498E-08
 -1      2856-2.62581E-02 1.58748E-01-1.75065E-04-1.27319E-01-3.55812E-08-6.98321E-08
 -1      2857-2.62579E-02 1.58748E-01-1.75068E-04-1.27319E-01-1.27935E-08-2.51087E-08
 -1      2858-2.62579E-02 1.58748E-01-1.75068E-04-1.27319E-01 1.27935E-08 2.51086E-08
 -1      2859-2.62581E-02 1.58748E-01-1.75065E-04-1.27319E-01 3.55812E-08 6.98321E-08
 -1      2860-2.62584E-02 1.58748E-01-1.75059E-04-1.27319E-01 5.00098E-08 9.81497E-08
 -1      2861-2.62588E-02 1.58748E-01-1.75052E-04-1.27320E-01 5.06336E-08 9.93740E-08
 -1      2862-2.62593E-02 1.58747E-01-1.75048E-04-1.27320E-01 3.22082E-08 6.32122E-08
 -1      2863 1.76121E-02 1.14876E-01-1.75048E-04-1.49674E-01-4.17002E-08-5.73955E-08
 -1      2864 1.76126E-02 1.14876E-01-1.75052E-04-1.49673E-01-6.55557E-08-9.02297E-08
 -1      2865 1.76129E-02 1.14876E-01-1.75059E-04-1.49673E-01-6.47481E-08-8.91181E-08
 -1      2866 1.76132E-02 1.14877E-01-1.75065E-04-1.49673E-01-4.60673E-08-6.34062E-08
 -1      2867 1.76133E-02 1.14877E-01-1.75068E-04-1.49673E-01-1.65638E-08-2.27982E-08
 -1      2868 1.76133E-02 1.14877E-01-1.75068E-04-1.49673E-01 1.65638E-08 2.27982E-08
 -1      2869 1.76132E-02 1.14877E-01-1.75065E-04-1.49673E-01 4.60673E-08 6.34062E-08
 -1      2870 1.76129E-02 1.14876E-01-1.75059E-04-1.49673E-01 6.47481E-08 8.91181E-08
 -1      2871 1.76126E-02 1.14876E-01-1.75052E-04-1.49673E-01 6.55557E-08 9.02297E-08
 -1      2872 1.76121E-02 1.14876E-01-1.75048E-04-1.49674E-01 4.17002E-08 5.73955E-08
 -1      2873 6.62440E-02 6.62440E-02-1.75048E-04-1.57376E-01-5.01655E-08-5.01655E-08
 -1      2874 6.62444E-02 6.62444E-02-1.75052E-04-1.57376E-01-7.88637E-08-7.88637E-08
 -1      2875 6.62447E-02 6.62447E-02-1.75059E-04-1.57376E-01-7.78921E-08-7.78921E-08
 -1      2876 6.62448E-02 6.62448E-02-1.75065E-04-1.57375E-01-5.54191E-08-5.54191E-08
 -1      2877 6.62449E-02 6.62449E-02-1.75068E-04-1.57375E-01-1.99263E-08-1.99263E-08
 -1      2878 6.62449E-02 6.62449E-02-1.75068E-04-1.57375E-01 1.99263E-08 1.99263E-08
 -1      2879 6.62448E-02 6.62448E-02-1.75065E-04-1.57375E-01 5.54191E-08 5.54191E-08
 -1      2880 6.62447E-02 6.62447E-02-1.75059E-04-1.57376E-01 7.78921E-08 7.78921E-08
 -1      2881 6.62444E-02 6.62444E-02-1.75052E-04-1.57376E-01 7.88637E-08 7.88637E-08
 -1      2882 6.62440E-02 6.62440E-02-1.75048E-04-1.57376E-01 5.01655E-08 5.01655E-08
 -1      2883 1.14876E-01 1.76121E-02-1.75048E-04-1.49674E-01-5.73955E-08-4.17002E-08
 -1      2884 1.14876E-01 1.76126E-02-1.75052E-04-1.49673E-01-9.02297E-08-6.55557E-08
 -1      2885 1.14876E-01 1.76129E-02-1.75059E-04-1.49673E-01-8.91181E-08-6.47481E-08
 -1      2886 1.14877E-01 1.76132E-02-1.75065E-04-1.49673E-01-6.34062E-08-4.60673E-08
 -1      2887 1.14877E-01 1.76133E-02-1.75068E-04-1.49673E-01-2.27982E-08-1.65638E-08
 -1      2888 1.14877E-01 1.76133E-02-1.75068E-04-1.49673E-01 2.27982E-08 1.65638E-08
 -1      2889 1.14877E-01 1.76132E-02-1.75065E-04-1.49673E-01 6.34062E-08 4.60673E-08
 -1      2890 1.14876E-01 1.76129E-02-1.75059E-04-1.49673E-01 8.91181E-08 6.47481E-08
 -1      2891 1.14876E-01 1.76126E-02-1.75052E-04-1.49673E-01 9.02297E-08 6.55557E-08
 -1      2892 1.14876E-01 1.76121E-02-1.75048E-04-1.49674E-01 5.73955E-08 4.17003E-08
 -1      2893 1.58747E-01-2.62593E-02-1.75048E-04-1.27320E-01-6.32122E-08-3.22082E-08
 -1      2894 1.58748E-01-2.62588E-02-1.75052E-04-1.27320E-01-9.93740E-08-5.06336E-08
 -1      2895 1.58748E-01-2.62584E-02-1.75059E-04-1.27319E-01-9.81498E-08-5.00098E-08
 -1      2896 1.58748E-01-2.62581E-02-1.75065E-04-1.27319E-01-6.98321E-08-3.55812E-08
 -1      2897 1.58748E-01-2.62579E-02-1.75068E-04-1.27319E-01-2.51086E-08-1.27935E-08
 -1      2898 1.58748E-01-2.62579E-02-1.75068E-04-1.27319E-01 2.51087E-08 1.27935E-08
 -1      2899 1.58748E-01-2.62581E-02-1.75065E-04-1.27319E-01 6.98321E-08 3.55812E-08
 -1      2900 1.58748E-01-2.62584E-02-1.75059E-04-1.27319E-01 9.81497E-08 5.00098E-08
 -1      2901 1.58748E-01-2.62588E-02-1.75052E-04-1.27320E-01 9.93740E-08 5.06336E-08
 -1      2902 1.58747E-01-2.62593E-02-1.75048E-04-1.27320E-01 6.32122E-08 3.22082E-08
 -1      2903 1.93564E-01-6.10759E-02-1.75048E-04-9.25033E-02-6.74724E-08-2.19231E-08
 -1      2904 1.93564E-01-6.10753E-02-1.75052E-04-9.25031E-02-1.06071E-07-3.44647E-08
 -1      2905 1.93564E-01-6.10748E-02-1.75059E-04-9.25030E-02-1.04765E-07-3.40401E-08
 -1      2906 1.93564E-01-6.10745E-02-1.75065E-04-9.25029E-02-7.45385E-08-2.42190E-08
 -1      2907 1.93564E-01-6.10743E-02-1.75068E-04-9.25029E-02-2.68009E-08-8.70813E-09
 -1      2908 1.93564E-01-6.10743E-02-1.75068E-04-9.25029E-02 2.68009E-08 8.70813E-09
 -1      2909 1.93564E-01-6.10745E-02-1.75065E-04-9.25029E-02 7.45385E-08 2.42190E-08
 -1      2910 1.93564E-01-6.10748E-02-1.75059E-04-9.25030E-02 1.04765E-07 3.40401E-08
 -1      2911 1.93564E-01-6.10753E-02-1.75052E-04-9.25031E-02 1.06071E-07 3.44647E-08
 -1      2912 1.93564E-01-6.10759E-02-1.75048E-04-9.25033E-02 6.74724E-08 2.19231E-08
 -1      2913 2.15918E-01-8.34295E-02-1.75048E-04-4.86319E-02-7.00713E-08-1.10982E-08
 -1      2914 2.15918E-01-8.34289E-02-1.75052E-04-4.86318E-02-1.10157E-07-1.74471E-08
 -1      2915 2.15918E-01-8.34284E-02-1.75059E-04-4.86317E-02-1.08800E-07-1.72322E-08
 -1      2916 2.15918E-01-8.34280E-02-1.75065E-04-4.86317E-02-7.74095E-08-1.22605E-08
 -1      2917 2.15918E-01-8.34278E-02-1.75068E-04-4.86316E-02-2.78332E-08-4.40834E-09
 -1      2918 2.15918E-01-8.34278E-02-1.75068E-04-4.86316E-02 2.78331E-08 4.40834E-09
 -1      2919 2.15918E-01-8.34280E-02-1.75065E-04-4.86317E-02 7.74095E-08 1.22605E-08
 -1      2920 2.15918E-01-8.34284E-02-1.75059E-04-4.86317E-02 1.08800E-07 1.72322E-08
 -1      2921 2.15918E-01-8.34289E-02-1.75052E-04-4.86318E-02 1.10157E-07 1.74471E-08
 -1      2922 2.15918E-01-8.34295E-02-1.75048E-04-4.86319E-02 7.00713E-08 1.10982E-08
 -1      2923-7.24930E-02 2.05082E-01-1.50488E-04-4.50947E-02-8.62019E-09-5.44257E-08
 -1      2924-7.24925E-02 2.05082E-01-1.50491E-04-4.50946E-02-1.34261E-08-8.47692E-08
 -1      2925-7.24921E-02 2.05082E-01-1.50496E-04-4.50946E-02-1.32301E-08-8.35319E-08
 -1      2926-7.24918E-02 2.05082E-01-1.50501E-04-4.50945E-02-9.40548E-09-5.93839E-08
 -1      2927-7.24917E-02 2.05082E-01-1.50504E-04-4.50945E-02-3.38081E-09-2.13456E-08
 -1      2928-7.24917E-02 2.05082E-01-1.50504E-04-4.50945E-02 3.38081E-09 2.13456E-08
 -1      2929-7.24918E-02 2.05082E-01-1.50501E-04-4.50945E-02 9.40548E-09 5.93839E-08
 -1      2930-7.24921E-02 2.05082E-01-1.50496E-04-4.50946E-02 1.32301E-08 8.35319E-08
 -1      2931-7.24925E-02 2.05082E-01-1.50491E-04-4.50946E-02 1.34261E-08 8.47692E-08
 -1      2932-7.24930E-02 2.05082E-01-1.50488E-04-4.50947E-02 8.62019E-09 5.44257E-08
 -1      2933-5.17652E-02 1.84354E-01-1.50488E-04-8.57753E-02-1.70281E-08-5.24071E-08
 -1      2934-5.17647E-02 1.84354E-01-1.50491E-04-8.57751E-02-2.65216E-08-8.16252E-08
 -1      2935-5.17644E-02 1.84354E-01-1.50496E-04-8.57750E-02-2.61345E-08-8.04338E-08
 -1      2936-5.17641E-02 1.84354E-01-1.50501E-04-8.57749E-02-1.85794E-08-5.71814E-08
 -1      2937-5.17640E-02 1.84354E-01-1.50504E-04-8.57749E-02-6.67838E-09-2.05539E-08
 -1      2938-5.17640E-02 1.84354E-01-1.50504E-04-8.57749E-02 6.67838E-09 2.05540E-08
 -1      2939-5.17641E-02 1.84354E-01-1.50501E-04-8.57749E-02 1.85794E-08 5.71814E-08
 -1      2940-5.17644E-02 1.84354E-01-1.50496E-04-8.57750E-02 2.61345E-08 8.04338E-08
 -1      2941-5.17647E-02 1.84354E-01-1.50491E-04-8.57751E-02 2.65216E-08 8.16252E-08
 -1      2942-5.17652E-02 1.84354E-01-1.50488E-04-8.57753E-02 1.70281E-08 5.24071E-08
 -1      2943-1.94810E-02 1.52070E-01-1.50488E-04-1.18060E-01-2.50167E-08-4.90981E-08
 -1      2944-1.94805E-02 1.52070E-01-1.50491E-04-1.18059E-01-3.89641E-08-7.64714E-08
 -1      2945-1.94802E-02 1.52070E-01-1.50496E-04-1.18059E-01-3.83954E-08-7.53552E-08
 -1      2946-1.94800E-02 1.52070E-01-1.50501E-04-1.18059E-01-2.72958E-08-5.35710E-08
 -1      2947-1.94799E-02 1.52070E-01-1.50504E-04-1.18059E-01-9.81151E-09-1.92562E-08
 -1      2948-1.94799E-02 1.52070E-01-1.50504E-04-1.18059E-01 9.81150E-09 1.92562E-08
 -1      2949-1.94800E-02 1.52070E-01-1.50501E-04-1.18059E-01 2.72958E-08 5.35710E-08
 -1      2950-1.94802E-02 1.52070E-01-1.50496E-04-1.18059E-01 3.83954E-08 7.53552E-08
 -1      2951-1.94805E-02 1.52070E-01-1.50491E-04-1.18059E-01 3.89641E-08 7.64714E-08
 -1      2952-1.94810E-02 1.52070E-01-1.50488E-04-1.18060E-01 2.50167E-08 4.90981E-08
 -1      2953 2.11995E-02 1.11389E-01-1.50488E-04-1.38787E-01-3.23894E-08-4.45802E-08
 -1      2954 2.11999E-02 1.11389E-01-1.50491E-04-1.38787E-01-5.04472E-08-6.94346E-08
 -1      2955 2.12002E-02 1.11389E-01-1.50496E-04-1.38787E-01-4.97108E-08-6.84211E-08
 -1      2956 2.12004E-02 1.11389E-01-1.50501E-04-1.38787E-01-3.53401E-08-4.86414E-08
 -1      2957 2.12005E-02 1.11390E-01-1.50504E-04-1.38787E-01-1.27030E-08-1.74842E-08
 -1      2958 2.12005E-02 1.11390E-01-1.50504E-04-1.38787E-01 1.27030E-08 1.74842E-08
 -1      2959 2.12004E-02 1.11389E-01-1.50501E-04-1.38787E-01 3.53401E-08 4.86414E-08
 -1      2960 2.12002E-02 1.11389E-01-1.50496E-04-1.38787E-01 4.97108E-08 6.84211E-08
 -1      2961 2.11999E-02 1.11389E-01-1.50491E-04-1.38787E-01 5.04472E-08 6.94346E-08
 -1      2962 2.11995E-02 1.11389E-01-1.50488E-04-1.38787E-01 3.23894E-08 4.45802E-08
 -1      2963 6.62943E-02 6.62943E-02-1.50488E-04-1.45930E-01-3.89645E-08-3.89645E-08
 -1      2964 6.62946E-02 6.62946E-02-1.50491E-04-1.45929E-01-6.06880E-08-6.06880E-08
 -1      2965 6.62948E-02 6.62948E-02-1.50496E-04-1.45929E-01-5.98022E-08-5.98022E-08
 -1      2966 6.62949E-02 6.62949E-02-1.50501E-04-1.45929E-01-4.25142E-08-4.25142E-08
 -1      2967 6.62950E-02 6.62950E-02-1.50504E-04-1.45929E-01-1.52818E-08-1.52818E-08
 -1      2968 6.62950E-02 6.62950E-02-1.50504E-04-1.45929E-01 1.52818E-08 1.52818E-08
 -1      2969 6.62949E-02 6.62949E-02-1.50501E-04-1.45929E-01 4.25142E-08 4.25142E-08
 -1      2970 6.62948E-02 6.62948E-02-1.50496E-04-1.45929E-01 5.98022E-08 5.98022E-08
 -1      2971 6.62946E-02 6.62946E-02-1.50491E-04-1.45929E-01 6.06880E-08 6.06880E-08
 -1      2972 6.62943E-02 6.62943E-02-1.50488E-04-1.45930E-01 3.89645E-08 3.89645E-08
 -1      2973 1.11389E-01 2.11995E-02-1.50488E-04-1.38787E-01-4.45802E-08-3.23894E-08
 -1      2974 1.11389E-01 2.11999E-02-1.50491E-04-1.38787E-01-6.94346E-08-5.04472E-08
 -1      2975 1.11389E-01 2.12002E-02-1.50496E-04-1.38787E-01-6.84211E-08-4.97108E-08
 -1      2976 1.11389E-01 2.12004E-02-1.50501E-04-1.38787E-01-4.86414E-08-3.53401E-08
 -1      2977 1.11390E-01 2.12005E-02-1.50504E-04-1.38787E-01-1.74842E-08-1.27030E-08
 -1      2978 1.11390E-01 2.12005E-02-1.50504E-04-1.38787E-01 1.74842E-08 1.27030E-08
 -1      2979 1.11389E-01 2.12004E-02-1.50501E-04-1.38787E-01 4.86414E-08 3.53401E-08
 -1      2980 1.11389E-01 2.12002E-02-1.50496E-04-1.38787E-01 6.84211E-08 4.97108E-08
 -1      2981 1.11389E-01 2.11999E-02-1.50491E-04-1.38787E-01 6.94346E-08 5.04472E-08
 -1      2982 1.11389E-01 2.11995E-02-1.50488E-04-1.38787E-01 4.45802E-08 3.23894E-08
 -1      2983 1.52070E-01-1.94810E-02-1.50488E-04-1.18060E-01-4.90981E-08-2.50167E-08
 -1      2984 1.52070E-01-1.94805E-02-1.50491E-04-1.18059E-01-7.64714E-08-3.89641E-08
 -1      2985 1.52070E-01-1.94802E-02-1.50496E-04-1.18059E-01-7.53552E-08-3.83954E-08
 -1      2986 1.52070E-01-1.94800E-02-1.50501E-04-1.18059E-01-5.35710E-08-2.72958E-08
 -1      2987 1.52070E-01-1.94799E-02-1.50504E-04-1.18059E-01-1.92562E-08-9.81151E-09
 -1      2988 1.52070E-01-1.94799E-02-1.50504E-04-1.18059E-01 1.92562E-08 9.81150E-09
 -1      2989 1.52070E-01-1.94800E-02-1.50501E-04-1.18059E-01 5.35710E-08 2.72958E-08
 -1      2990 1.52070E-01-1.94802E-02-1.50496E-04-1.18059E-01 7.53552E-08 3.83954E-08
 -1      2991 1.52070E-01-1.94805E-02-1.50491E-04-1.18059E-01 7.64714E-08 3.89641E-08
 -1      2992 1.52070E-01-1.94810E-02-1.50488E-04-1.18060E-01 4.90981E-08 2.50167E-08
 -1      2993 1.84354E-01-5.17652E-02-1.50488E-04-8.57752E-02-5.24071E-08-1.70281E-08
 -1      2994 1.84354E-01-5.17647E-02-1.50491E-04-8.57751E-02-8.16252E-08-2.65216E-08
 -1      2995 1.84354E-01-5.17644E-02-1.50496E-04-8.57750E-02-8.04338E-08-2.61345E-08
 -1      2996 1.84354E-01-5.17641E-02-1.50501E-04-8.57749E-02-5.71814E-08-1.85794E-08
 -1      2997 1.84354E-01-5.17640E-02-1.50504E-04-8.57749E-02-2.05539E-08-6.67838E-09
 -1      2998 1.84354E-01-5.17640E-02-1.50504E-04-8.57749E-02 2.05539E-08 6.67838E-09
 -1      2999 1.84354E-01-5.17641E-02-1.50501E-04-8.57749E-02 5.71814E-08 1.85794E-08
 -1      3000 1.84354E-01-5.17644E-02-1.50496E-04-8.57750E-02 8.04338E-08 2.61345E-08
 -1      3001 1.84354E-01-5.17647E-02-1.50491E-04-8.57751E-02 8.16252E-08 2.65216E-08
 -1      3002 1.84354E-01-5.17652E-02-1.50488E-04-8.57752E-02 5.24071E-08 1.70281E-08
 -1      3003 2.05082E-01-7.24930E-02-1.50488E-04-4.50947E-02-5.44257E-08-8.62018E-09
 -1      3004 2.05082E-01-7.24925E-02-1.50491E-04-4.50946E-02-8.47692E-08-1.34261E-08
 -1      3005 2.05082E-01-7.24921E-02-1.50496E-04-4.50946E-02-8.35319E-08-1.32301E-08
 -1      3006 2.05082E-01-7.24918E-02-1.50501E-04-4.50945E-02-5.93839E-08-9.40548E-09
 -1      3007 2.05082E-01-7.24917E-02-1.50504E-04-4.50945E-02-2.13456E-08-3.38081E-09
 -1      3008 2.05082E-01-7.24917E-02-1.50504E-04-4.50945E-02 2.13456E-08 3.38081E-09
 -1      3009 2.05082E-01-7.24918E-02-1.50501E-04-4.50945E-02 5.93839E-08 9.40548E-09
 -1      3010 2.05082E-01-7.24921E-02-1.50496E-04-4.50946E-02 8.35319E-08 1.32301E-08
 -1      3011 2.05082E-01-7.24925E-02-1.50491E-04-4.50946E-02 8.47692E-08 1.34261E-08
 -1      3012 2.05082E-01-7.24930E-02-1.50488E-04-4.50947E-02 5.44257E-08 8.62018E-09
 -1      3013-6.27111E-02 1.95383E-01-1.30089E-04-4.19299E-02-6.71381E-09-4.23893E-08
 -1      3014-6.27106E-02 1.95383E-01-1.30091E-04-4.19299E-02-1.03507E-08-6.53517E-08
 -1      3015-6.27103E-02 1.95383E-01-1.30095E-04-4.19298E-02-1.01796E-08-6.42714E-08
 -1      3016-6.27101E-02 1.95383E-01-1.30099E-04-4.19298E-02-7.23385E-09-4.56727E-08
 -1      3017-6.27100E-02 1.95383E-01-1.30101E-04-4.19298E-02-2.60037E-09-1.64181E-08
 -1      3018-6.27100E-02 1.95383E-01-1.30101E-04-4.19298E-02 2.60037E-09 1.64181E-08
 -1      3019-6.27101E-02 1.95383E-01-1.30099E-04-4.19298E-02 7.23385E-09 4.56727E-08
 -1      3020-6.27103E-02 1.95383E-01-1.30095E-04-4.19298E-02 1.01796E-08 6.42714E-08
 -1      3021-6.27106E-02 1.95383E-01-1.30091E-04-4.19299E-02 1.03507E-08 6.53517E-08
 -1      3022-6.27111E-02 1.95383E-01-1.30089E-04-4.19299E-02 6.71381E-09 4.23893E-08
 -1      3023-4.34380E-02 1.76110E-01-1.30089E-04-7.97555E-02-1.32623E-08-4.08171E-08
 -1      3024-4.34376E-02 1.76110E-01-1.30091E-04-7.97554E-02-2.04465E-08-6.29279E-08
 -1      3025-4.34373E-02 1.76110E-01-1.30095E-04-7.97553E-02-2.01085E-08-6.18877E-08
 -1      3026-4.34371E-02 1.76110E-01-1.30099E-04-7.97552E-02-1.42896E-08-4.39788E-08
 -1      3027-4.34370E-02 1.76110E-01-1.30101E-04-7.97552E-02-5.13671E-09-1.58092E-08
 -1      3028-4.34370E-02 1.76110E-01-1.30101E-04-7.97552E-02 5.13671E-09 1.58092E-08
 -1      3029-4.34371E-02 1.76110E-01-1.30099E-04-7.97552E-02 1.42896E-08 4.39788E-08
 -1      3030-4.34373E-02 1.76110E-01-1.30095E-04-7.97553E-02 2.01085E-08 6.18877E-08
 -1      3031-4.34376E-02 1.76110E-01-1.30091E-04-7.97554E-02 2.04465E-08 6.29279E-08
 -1      3032-4.34380E-02 1.76110E-01-1.30089E-04-7.97555E-02 1.32623E-08 4.08171E-08
 -1      3033-1.34195E-02 1.46092E-01-1.30089E-04-1.09774E-01-1.94842E-08-3.82399E-08
 -1      3034-1.34191E-02 1.46092E-01-1.30091E-04-1.09774E-01-3.00389E-08-5.89546E-08
 -1      3035-1.34188E-02 1.46092E-01-1.30095E-04-1.09774E-01-2.95423E-08-5.79801E-08
 -1      3036-1.34187E-02 1.46092E-01-1.30099E-04-1.09774E-01-2.09935E-08-4.12020E-08
 -1      3037-1.34186E-02 1.46092E-01-1.30101E-04-1.09774E-01-7.54657E-09-1.48110E-08
 -1      3038-1.34186E-02 1.46092E-01-1.30101E-04-1.09774E-01 7.54656E-09 1.48110E-08
 -1      3039-1.34187E-02 1.46092E-01-1.30099E-04-1.09774E-01 2.09935E-08 4.12020E-08
 -1      3040-1.34188E-02 1.46092E-01-1.30095E-04-1.09774E-01 2.95423E-08 5.79801E-08
 -1      3041-1.34191E-02 1.46092E-01-1.30091E-04-1.09774E-01 3.00389E-08 5.89546E-08
 -1      3042-1.34195E-02 1.46092E-01-1.30089E-04-1.09774E-01 1.94842E-08 3.82399E-08
 -1      3043 2.44061E-02 1.08266E-01-1.30089E-04-1.29047E-01-2.52264E-08-3.47211E-08
 -1      3044 2.44064E-02 1.08266E-01-1.30091E-04-1.29047E-01-3.88916E-08-5.35296E-08
 -1      3045 2.44066E-02 1.08266E-01-1.30095E-04-1.29047E-01-3.82487E-08-5.26448E-08
 -1      3046 2.44068E-02 1.08266E-01-1.30099E-04-1.29047E-01-2.71804E-08-3.74106E-08
 -1      3047 2.44068E-02 1.08266E-01-1.30101E-04-1.29047E-01-9.77060E-09-1.34481E-08
 -1      3048 2.44068E-02 1.08266E-01-1.30101E-04-1.29047E-01 9.77060E-09 1.34481E-08
 -1      3049 2.44068E-02 1.08266E-01-1.30099E-04-1.29047E-01 2.71804E-08 3.74106E-08
 -1      3050 2.44066E-02 1.08266E-01-1.30095E-04-1.29047E-01 3.82487E-08 5.26448E-08
 -1      3051 2.44064E-02 1.08266E-01-1.30091E-04-1.29047E-01 3.88916E-08 5.35296E-08
 -1      3052 2.44061E-02 1.08266E-01-1.30089E-04-1.29047E-01 2.52264E-08 3.47211E-08
 -1      3053 6.63360E-02 6.63360E-02-1.30089E-04-1.35688E-01-3.03474E-08-3.03474E-08
 -1      3054 6.63363E-02 6.63363E-02-1.30091E-04-1.35688E-01-4.67866E-08-4.67866E-08
 -1      3055 6.63364E-02 6.63364E-02-1.30095E-04-1.35688E-01-4.60133E-08-4.60133E-08
 -1      3056 6.63366E-02 6.63366E-02-1.30099E-04-1.35688E-01-3.26981E-08-3.26981E-08
 -1      3057 6.63366E-02 6.63366E-02-1.30101E-04-1.35688E-01-1.17541E-08-1.17540E-08
 -1      3058 6.63366E-02 6.63366E-02-1.30101E-04-1.35688E-01 1.17540E-08 1.17541E-08
 -1      3059 6.63366E-02 6.63366E-02-1.30099E-04-1.35688E-01 3.26981E-08 3.26981E-08
 -1      3060 6.63364E-02 6.63364E-02-1.30095E-04-1.35688E-01 4.60133E-08 4.60133E-08
 -1      3061 6.63363E-02 6.63363E-02-1.30091E-04-1.35688E-01 4.67866E-08 4.67866E-08
 -1      3062 6.63360E-02 6.63360E-02-1.30089E-04-1.35688E-01 3.03474E-08 3.03474E-08
 -1      3063 1.08266E-01 2.44061E-02-1.30089E-04-1.29047E-01-3.47211E-08-2.52264E-08
 -1      3064 1.08266E-01 2.44064E-02-1.30091E-04-1.29047E-01-5.35296E-08-3.88916E-08
 -1      3065 1.08266E-01 2.44066E-02-1.30095E-04-1.29047E-01-5.26448E-08-3.82487E-08
 -1      3066 1.08266E-01 2.44068E-02-1.30099E-04-1.29047E-01-3.74106E-08-2.71804E-08
 -1      3067 1.08266E-01 2.44068E-02-1.30101E-04-1.29047E-01-1.34481E-08-9.77060E-09
 -1      3068 1.08266E-01 2.44068E-02-1.30101E-04-1.29047E-01 1.34481E-08 9.77060E-09
 -1      3069 1.08266E-01 2.44068E-02-1.30099E-04-1.29047E-01 3.74106E-08 2.71804E-08
 -1      3070 1.08266E-01 2.44066E-02-1.30095E-04-1.29047E-01 5.26448E-08 3.82487E-08
 -1      3071 1.08266E-01 2.44064E-02-1.30091E-04-1.29047E-01 5.35296E-08 3.88916E-08
 -1      3072 1.08266E-01 2.44061E-02-1.30089E-04-1.29047E-01 3.47211E-08 2.52264E-08
 -1      3073 1.46092E-01-1.34195E-02-1.30089E-04-1.09774E-01-3.82399E-08-1.94842E-08
 -1      3074 1.46092E-01-1.34191E-02-1.30091E-04-1.09774E-01-5.89546E-08-3.00389E-08
 -1      3075 1.46092E-01-1.34188E-02-1.30095E-04-1.09774E-01-5.79801E-08-2.95423E-08
 -1      3076 1.46092E-01-1.34187E-02-1.30099E-04-1.09774E-01-4.12020E-08-2.09935E-08
 -1      3077 1.46092E-01-1.34186E-02-1.30101E-04-1.09774E-01-1.48110E-08-7.54656E-09
 -1      3078 1.46092E-01-1.34186E-02-1.30101E-04-1.09774E-01 1.48110E-08 7.54656E-09
 -1      3079 1.46092E-01-1.34187E-02-1.30099E-04-1.09774E-01 4.12020E-08 2.09935E-08
 -1      3080 1.46092E-01-1.34188E-02-1.30095E-04-1.09774E-01 5.79801E-08 2.95423E-08
 -1      3081 1.46092E-01-1.34191E-02-1.30091E-04-1.09774E-01 5.89546E-08 3.00389E-08
 -1      3082 1.46092E-01-1.34195E-02-1.30089E-04-1.09774E-01 3.82399E-08 1.94842E-08
 -1      3083 1.76110E-01-4.34380E-02-1.30089E-04-7.97555E-02-4.08171E-08-1.32623E-08
 -1      3084 1.76110E-01-4.34376E-02-1.30091E-04-7.97554E-02-6.29279E-08-2.04465E-08
 -1      3085 1.76110E-01-4.34373E-02-1.30095E-04-7.97553E-02-6.18877E-08-2.01085E-08
 -1      3086 1.76110E-01-4.34371E-02-1.30099E-04-7.97552E-02-4.39788E-08-1.42896E-08
 -1      3087 1.76110E-01-4.34370E-02-1.30101E-04-7.97552E-02-1.58092E-08-5.13671E-09
 -1      3088 1.76110E-01-4.34370E-02-1.30101E-04-7.97552E-02 1.58092E-08 5.13671E-09
 -1      3089 1.76110E-01-4.34371E-02-1.30099E-04-7.97552E-02 4.39788E-08 1.42896E-08
 -1      3090 1.76110E-01-4.34373E-02-1.30095E-04-7.97553E-02 6.18877E-08 2.01085E-08
 -1      3091 1.76110E-01-4.34376E-02-1.30091E-04-7.97554E-02 6.29279E-08 2.04465E-08
 -1      3092 1.76110E-01-4.34380E-02-1.30089E-04-7.97555E-02 4.08171E-08 1.32623E-08
 -1      3093 1.95383E-01-6.27111E-02-1.30089E-04-4.19299E-02-4.23893E-08-6.71380E-09
 -1      3094 1.95383E-01-6.27106E-02-1.30091E-04-4.19299E-02-6.53517E-08-1.03507E-08
 -1      3095 1.95383E-01-6.27103E-02-1.30095E-04-4.19298E-02-6.42714E-08-1.01796E-08
 -1      3096 1.95383E-01-6.27101E-02-1.30099E-04-4.19298E-02-4.56727E-08-7.23385E-09
 -1      3097 1.95383E-01-6.27100E-02-1.30101E-04-4.19298E-02-1.64181E-08-2.60037E-09
 -1      3098 1.95383E-01-6.27100E-02-1.30101E-04-4.19298E-02 1.64181E-08 2.60037E-09
 -1      3099 1.95383E-01-6.27101E-02-1.30099E-04-4.19298E-02 4.56727E-08 7.23385E-09
 -1      3100 1.95383E-01-6.27103E-02-1.30095E-04-4.19298E-02 6.42714E-08 1.01796E-08
 -1      3101 1.95383E-01-6.27106E-02-1.30091E-04-4.19299E-02 6.53517E-08 1.03507E-08
 -1      3102 1.95383E-01-6.27111E-02-1.30089E-04-4.19299E-02 4.23893E-08 6.71380E-09
 -1      3103-5.39266E-02 1.86668E-01-1.13031E-04-3.90870E-02-5.44122E-09-3.43545E-08
 -1      3104-5.39262E-02 1.86668E-01-1.13033E-04-3.90870E-02-8.32698E-09-5.25745E-08
 -1      3105-5.39260E-02 1.86669E-01-1.13035E-04-3.90869E-02-8.21735E-09-5.18823E-08
 -1      3106-5.39258E-02 1.86669E-01-1.13037E-04-3.90869E-02-5.86299E-09-3.70175E-08
 -1      3107-5.39257E-02 1.86669E-01-1.13038E-04-3.90869E-02-2.11168E-09-1.33326E-08
 -1      3108-5.39257E-02 1.86669E-01-1.13038E-04-3.90869E-02 2.11167E-09 1.33326E-08
 -1      3109-5.39258E-02 1.86669E-01-1.13037E-04-3.90869E-02 5.86299E-09 3.70175E-08
 -1      3110-5.39260E-02 1.86669E-01-1.13035E-04-3.90869E-02 8.21735E-09 5.18823E-08
 -1      3111-5.39262E-02 1.86668E-01-1.13033E-04-3.90870E-02 8.32698E-09 5.25745E-08
 -1      3112-5.39266E-02 1.86668E-01-1.13031E-04-3.90870E-02 5.44123E-09 3.43545E-08
 -1      3113-3.59602E-02 1.68702E-01-1.13031E-04-7.43480E-02-1.07485E-08-3.30804E-08
 -1      3114-3.59599E-02 1.68702E-01-1.13033E-04-7.43479E-02-1.64489E-08-5.06246E-08
 -1      3115-3.59597E-02 1.68702E-01-1.13035E-04-7.43478E-02-1.62324E-08-4.99581E-08
 -1      3116-3.59595E-02 1.68702E-01-1.13037E-04-7.43477E-02-1.15816E-08-3.56445E-08
 -1      3117-3.59594E-02 1.68702E-01-1.13038E-04-7.43477E-02-4.17135E-09-1.28381E-08
 -1      3118-3.59594E-02 1.68702E-01-1.13038E-04-7.43477E-02 4.17135E-09 1.28381E-08
 -1      3119-3.59595E-02 1.68702E-01-1.13037E-04-7.43477E-02 1.15816E-08 3.56445E-08
 -1      3120-3.59597E-02 1.68702E-01-1.13035E-04-7.43478E-02 1.62324E-08 4.99581E-08
 -1      3121-3.59599E-02 1.68702E-01-1.13033E-04-7.43479E-02 1.64489E-08 5.06246E-08
 -1      3122-3.59602E-02 1.68702E-01-1.13031E-04-7.43480E-02 1.07485E-08 3.30804E-08
 -1      3123-7.97702E-03 1.40719E-01-1.13031E-04-1.02331E-01-1.57910E-08-3.09917E-08
 -1      3124-7.97674E-03 1.40719E-01-1.13033E-04-1.02331E-01-2.41658E-08-4.74281E-08
 -1      3125-7.97652E-03 1.40719E-01-1.13035E-04-1.02331E-01-2.38477E-08-4.68037E-08
 -1      3126-7.97638E-03 1.40719E-01-1.13037E-04-1.02331E-01-1.70151E-08-3.33939E-08
 -1      3127-7.97630E-03 1.40719E-01-1.13038E-04-1.02331E-01-6.12832E-09-1.20275E-08
 -1      3128-7.97630E-03 1.40719E-01-1.13038E-04-1.02331E-01 6.12832E-09 1.20275E-08
 -1      3129-7.97638E-03 1.40719E-01-1.13037E-04-1.02331E-01 1.70151E-08 3.33939E-08
 -1      3130-7.97652E-03 1.40719E-01-1.13035E-04-1.02331E-01 2.38477E-08 4.68037E-08
 -1      3131-7.97674E-03 1.40719E-01-1.13033E-04-1.02331E-01 2.41658E-08 4.74281E-08
 -1      3132-7.97702E-03 1.40719E-01-1.13031E-04-1.02331E-01 1.57910E-08 3.09917E-08
 -1      3133 2.72839E-02 1.05458E-01-1.13031E-04-1.20298E-01-2.04448E-08-2.81398E-08
 -1      3134 2.72841E-02 1.05458E-01-1.13033E-04-1.20297E-01-3.12877E-08-4.30638E-08
 -1      3135 2.72843E-02 1.05458E-01-1.13035E-04-1.20297E-01-3.08758E-08-4.24969E-08
 -1      3136 2.72844E-02 1.05458E-01-1.13037E-04-1.20297E-01-2.20295E-08-3.03210E-08
 -1      3137 2.72845E-02 1.05458E-01-1.13038E-04-1.20297E-01-7.93439E-09-1.09207E-08
 -1      3138 2.72845E-02 1.05458E-01-1.13038E-04-1.20297E-01 7.93439E-09 1.09207E-08
 -1      3139 2.72844E-02 1.05458E-01-1.13037E-04-1.20297E-01 2.20295E-08 3.03211E-08
 -1      3140 2.72843E-02 1.05458E-01-1.13035E-04-1.20297E-01 3.08758E-08 4.24969E-08
 -1      3141 2.72841E-02 1.05458E-01-1.13033E-04-1.20297E-01 3.12877E-08 4.30638E-08
 -1      3142 2.72839E-02 1.05458E-01-1.13031E-04-1.20298E-01 2.04448E-08 2.81398E-08
 -1      3143 6.63709E-02 6.63709E-02-1.13031E-04-1.26488E-01-2.45951E-08-2.45951E-08
 -1      3144 6.63711E-02 6.63711E-02-1.13033E-04-1.26488E-01-3.76392E-08-3.76392E-08
 -1      3145 6.63713E-02 6.63713E-02-1.13035E-04-1.26488E-01-3.71436E-08-3.71436E-08
 -1      3146 6.63714E-02 6.63714E-02-1.13037E-04-1.26488E-01-2.65016E-08-2.65016E-08
 -1      3147 6.63714E-02 6.63714E-02-1.13038E-04-1.26488E-01-9.54508E-09-9.54508E-09
 -1      3148 6.63714E-02 6.63714E-02-1.13038E-04-1.26488E-01 9.54508E-09 9.54508E-09
 -1      3149 6.63714E-02 6.63714E-02-1.13037E-04-1.26488E-01 2.65016E-08 2.65016E-08
 -1      3150 6.63713E-02 6.63713E-02-1.13035E-04-1.26488E-01 3.71436E-08 3.71436E-08
 -1      3151 6.63711E-02 6.63711E-02-1.13033E-04-1.26488E-01 3.76392E-08 3.76392E-08
 -1      3152 6.63709E-02 6.63709E-02-1.13031E-04-1.26488E-01 2.45951E-08 2.45951E-08
 -1      3153 1.05458E-01 2.72839E-02-1.13031E-04-1.20298E-01-2.81398E-08-2.04448E-08
 -1      3154 1.05458E-01 2.72841E-02-1.13033E-04-1.20297E-01-4.30638E-08-3.12877E-08
 -1      3155 1.05458E-01 2.72843E-02-1.13035E-04-1.20297E-01-4.24969E-08-3.08758E-08
 -1      3156 1.05458E-01 2.72844E-02-1.13037E-04-1.20297E-01-3.03211E-08-2.20295E-08
 -1      3157 1.05458E-01 2.72845E-02-1.13038E-04-1.20297E-01-1.09207E-08-7.93438E-09
 -1      3158 1.05458E-01 2.72845E-02-1.13038E-04-1.20297E-01 1.09207E-08 7.93439E-09
 -1      3159 1.05458E-01 2.72844E-02-1.13037E-04-1.20297E-01 3.03211E-08 2.20295E-08
 -1      3160 1.05458E-01 2.72843E-02-1.13035E-04-1.20297E-01 4.24969E-08 3.08758E-08
 -1      3161 1.05458E-01 2.72841E-02-1.13033E-04-1.20297E-01 4.30638E-08 3.12877E-08
 -1      3162 1.05458E-01 2.72839E-02-1.13031E-04-1.20298E-01 2.81398E-08 2.04448E-08
 -1      3163 1.40719E-01-7.97702E-03-1.13031E-04-1.02331E-01-3.09917E-08-1.57910E-08
 -1      3164 1.40719E-01-7.97674E-03-1.13033E-04-1.02331E-01-4.74281E-08-2.41658E-08
 -1      3165 1.40719E-01-7.97652E-03-1.13035E-04-1.02331E-01-4.68037E-08-2.38477E-08
 -1      3166 1.40719E-01-7.97638E-03-1.13037E-04-1.02331E-01-3.33939E-08-1.70151E-08
 -1      3167 1.40719E-01-7.97631E-03-1.13038E-04-1.02331E-01-1.20275E-08-6.12832E-09
 -1      3168 1.40719E-01-7.97631E-03-1.13038E-04-1.02331E-01 1.20275E-08 6.12832E-09
 -1      3169 1.40719E-01-7.97638E-03-1.13037E-04-1.02331E-01 3.33939E-08 1.70151E-08
 -1      3170 1.40719E-01-7.97652E-03-1.13035E-04-1.02331E-01 4.68037E-08 2.38477E-08
 -1      3171 1.40719E-01-7.97674E-03-1.13033E-04-1.02331E-01 4.74281E-08 2.41658E-08
 -1      3172 1.40719E-01-7.97702E-03-1.13031E-04-1.02331E-01 3.09917E-08 1.57910E-08
 -1      3173 1.68702E-01-3.59602E-02-1.13031E-04-7.43480E-02-3.30804E-08-1.07485E-08
 -1      3174 1.68702E-01-3.59599E-02-1.13033E-04-7.43479E-02-5.06246E-08-1.64489E-08
 -1      3175 1.68702E-01-3.59597E-02-1.13035E-04-7.43478E-02-4.99581E-08-1.62324E-08
 -1      3176 1.68702E-01-3.59595E-02-1.13037E-04-7.43477E-02-3.56445E-08-1.15816E-08
 -1      3177 1.68702E-01-3.59594E-02-1.13038E-04-7.43477E-02-1.28381E-08-4.17135E-09
 -1      3178 1.68702E-01-3.59594E-02-1.13038E-04-7.43477E-02 1.28381E-08 4.17135E-09
 -1      3179 1.68702E-01-3.59595E-02-1.13037E-04-7.43477E-02 3.56445E-08 1.15816E-08
 -1      3180 1.68702E-01-3.59597E-02-1.13035E-04-7.43478E-02 4.99581E-08 1.62324E-08
 -1      3181 1.68702E-01-3.59599E-02-1.13033E-04-7.43479E-02 5.06246E-08 1.64489E-08
 -1      3182 1.68702E-01-3.59602E-02-1.13031E-04-7.43480E-02 3.30804E-08 1.07485E-08
 -1      3183 1.86668E-01-5.39266E-02-1.13031E-04-3.90870E-02-3.43545E-08-5.44122E-09
 -1      3184 1.86668E-01-5.39262E-02-1.13033E-04-3.90870E-02-5.25745E-08-8.32698E-09
 -1      3185 1.86669E-01-5.39260E-02-1.13035E-04-3.90869E-02-5.18823E-08-8.21735E-09
 -1      3186 1.86669E-01-5.39258E-02-1.13037E-04-3.90869E-02-3.70175E-08-5.86299E-09
 -1      3187 1.86669E-01-5.39257E-02-1.13038E-04-3.90869E-02-1.33326E-08-2.11168E-09
 -1      3188 1.86669E-01-5.39257E-02-1.13038E-04-3.90869E-02 1.33326E-08 2.11167E-09
 -1      3189 1.86669E-01-5.39258E-02-1.13037E-04-3.90869E-02 3.70175E-08 5.86299E-09
 -1      3190 1.86669E-01-5.39260E-02-1.13035E-04-3.90869E-02 5.18823E-08 8.21735E-09
 -1      3191 1.86668E-01-5.39262E-02-1.13033E-04-3.90870E-02 5.25745E-08 8.32698E-09
 -1      3192 1.86668E-01-5.39266E-02-1.13031E-04-3.90870E-02 3.43545E-08 5.44122E-09
 -1      3193-4.60083E-02 1.78809E-01-9.86758E-05-3.65238E-02-5.29725E-09-3.34455E-08
 -1      3194-4.60081E-02 1.78809E-01-9.86743E-05-3.65237E-02-8.19086E-09-5.17151E-08
 -1      3195-4.60078E-02 1.78809E-01-9.86722E-05-3.65237E-02-8.23608E-09-5.20006E-08
 -1      3196-4.60077E-02 1.78809E-01-9.86703E-05-3.65237E-02-5.95538E-09-3.76008E-08
 -1      3197-4.60077E-02 1.78809E-01-9.86689E-05-3.65237E-02-2.16304E-09-1.36569E-08
 -1      3198-4.60077E-02 1.78809E-01-9.86689E-05-3.65237E-02 2.16305E-09 1.36569E-08
 -1      3199-4.60077E-02 1.78809E-01-9.86703E-05-3.65237E-02 5.95538E-09 3.76008E-08
 -1      3200-4.60078E-02 1.78809E-01-9.86722E-05-3.65237E-02 8.23608E-09 5.20006E-08
 -1      3201-4.60081E-02 1.78809E-01-9.86743E-05-3.65237E-02 8.19086E-09 5.17151E-08
 -1      3202-4.60083E-02 1.78809E-01-9.86758E-05-3.65238E-02 5.29725E-09 3.34455E-08
 -1      3203-2.92202E-02 1.62021E-01-9.86758E-05-6.94724E-02-1.04641E-08-3.22051E-08
 -1      3204-2.92199E-02 1.62021E-01-9.86743E-05-6.94723E-02-1.61800E-08-4.97970E-08
 -1      3205-2.92197E-02 1.62021E-01-9.86722E-05-6.94722E-02-1.62694E-08-5.00720E-08
 -1      3206-2.92196E-02 1.62021E-01-9.86703E-05-6.94722E-02-1.17641E-08-3.62062E-08
 -1      3207-2.92196E-02 1.62021E-01-9.86689E-05-6.94722E-02-4.27283E-09-1.31504E-08
 -1      3208-2.92196E-02 1.62021E-01-9.86689E-05-6.94722E-02 4.27283E-09 1.31504E-08
 -1      3209-2.92196E-02 1.62021E-01-9.86703E-05-6.94722E-02 1.17641E-08 3.62062E-08
 -1      3210-2.92197E-02 1.62021E-01-9.86722E-05-6.94722E-02 1.62694E-08 5.00720E-08
 -1      3211-2.92199E-02 1.62021E-01-9.86743E-05-6.94723E-02 1.61800E-08 4.97970E-08
 -1      3212-2.92202E-02 1.62021E-01-9.86758E-05-6.94724E-02 1.04641E-08 3.22051E-08
 -1      3213-3.07205E-03 1.35873E-01-9.86758E-05-9.56205E-02-1.53732E-08-3.01716E-08
 -1      3214-3.07182E-03 1.35873E-01-9.86743E-05-9.56204E-02-2.37708E-08-4.66528E-08
 -1      3215-3.07165E-03 1.35873E-01-9.86722E-05-9.56203E-02-2.39020E-08-4.69104E-08
 -1      3216-3.07154E-03 1.35873E-01-9.86703E-05-9.56203E-02-1.72832E-08-3.39201E-08
 -1      3217-3.07149E-03 1.35873E-01-9.86689E-05-9.56202E-02-6.27740E-09-1.23201E-08
 -1      3218-3.07149E-03 1.35873E-01-9.86689E-05-9.56202E-02 6.27740E-09 1.23201E-08
 -1      3219-3.07154E-03 1.35873E-01-9.86703E-05-9.56203E-02 1.72832E-08 3.39201E-08
 -1      3220-3.07165E-03 1.35873E-01-9.86722E-05-9.56203E-02 2.39020E-08 4.69104E-08
 -1      3221-3.07182E-03 1.35873E-01-9.86743E-05-9.56204E-02 2.37708E-08 4.66528E-08
 -1      3222-3.07205E-03 1.35873E-01-9.86758E-05-9.56205E-02 1.53732E-08 3.01716E-08
 -1      3223 2.98765E-02 1.02924E-01-9.86758E-05-1.12409E-01-1.99038E-08-2.73953E-08
 -1      3224 2.98767E-02 1.02924E-01-9.86743E-05-1.12409E-01-3.07763E-08-4.23599E-08
 -1      3225 2.98769E-02 1.02924E-01-9.86722E-05-1.12408E-01-3.09462E-08-4.25938E-08
 -1      3226 2.98770E-02 1.02924E-01-9.86703E-05-1.12408E-01-2.23767E-08-3.07988E-08
 -1      3227 2.98770E-02 1.02924E-01-9.86689E-05-1.12408E-01-8.12740E-09-1.11864E-08
 -1      3228 2.98770E-02 1.02924E-01-9.86689E-05-1.12408E-01 8.12740E-09 1.11864E-08
 -1      3229 2.98770E-02 1.02924E-01-9.86703E-05-1.12408E-01 2.23767E-08 3.07988E-08
 -1      3230 2.98769E-02 1.02924E-01-9.86722E-05-1.12408E-01 3.09462E-08 4.25938E-08
 -1      3231 2.98767E-02 1.02924E-01-9.86743E-05-1.12409E-01 3.07763E-08 4.23599E-08
 -1      3232 2.98765E-02 1.02924E-01-9.86758E-05-1.12409E-01 1.99038E-08 2.73953E-08
 -1      3233 6.64003E-02 6.64003E-02-9.86758E-05-1.18193E-01-2.39443E-08-2.39444E-08
 -1      3234 6.64005E-02 6.64005E-02-9.86743E-05-1.18193E-01-3.70239E-08-3.70239E-08
 -1      3235 6.64006E-02 6.64006E-02-9.86722E-05-1.18193E-01-3.72283E-08-3.72283E-08
 -1      3236 6.64006E-02 6.64006E-02-9.86703E-05-1.18193E-01-2.69192E-08-2.69192E-08
 -1      3237 6.64007E-02 6.64007E-02-9.86689E-05-1.18193E-01-9.77728E-09-9.77728E-09
 -1      3238 6.64007E-02 6.64007E-02-9.86689E-05-1.18193E-01 9.77728E-09 9.77728E-09
 -1      3239 6.64006E-02 6.64006E-02-9.86703E-05-1.18193E-01 2.69192E-08 2.69192E-08
 -1      3240 6.64006E-02 6.64006E-02-9.86722E-05-1.18193E-01 3.72283E-08 3.72283E-08
 -1      3241 6.64005E-02 6.64005E-02-9.86743E-05-1.18193E-01 3.70239E-08 3.70239E-08
 -1      3242 6.64003E-02 6.64003E-02-9.86758E-05-1.18193E-01 2.39443E-08 2.39444E-08
 -1      3243 1.02924E-01 2.98765E-02-9.86758E-05-1.12409E-01-2.73953E-08-1.99038E-08
 -1      3244 1.02924E-01 2.98767E-02-9.86743E-05-1.12409E-01-4.23599E-08-3.07763E-08
 -1      3245 1.02924E-01 2.98769E-02-9.86722E-05-1.12408E-01-4.25938E-08-3.09462E-08
 -1      3246 1.02924E-01 2.98770E-02-9.86703E-05-1.12408E-01-3.07988E-08-2.23767E-08
 -1      3247 1.02924E-01 2.98770E-02-9.86689E-05-1.12408E-01-1.11864E-08-8.12740E-09
 -1      3248 1.02924E-01 2.98770E-02-9.86689E-05-1.12408E-01 1.11864E-08 8.12741E-09
 -1      3249 1.02924E-01 2.98770E-02-9.86703E-05-1.12408E-01 3.07988E-08 2.23767E-08
 -1      3250 1.02924E-01 2.98769E-02-9.86722E-05-1.12408E-01 4.25938E-08 3.09462E-08
 -1      3251 1.02924E-01 2.98767E-02-9.86743E-05-1.12409E-01 4.23599E-08 3.07763E-08
 -1      3252 1.02924E-01 2.98765E-02-9.86758E-05-1.12409E-01 2.73953E-08 1.99038E-08
 -1      3253 1.35873E-01-3.07205E-03-9.86758E-05-9.56205E-02-3.01716E-08-1.53732E-08
 -1      3254 1.35873E-01-3.07182E-03-9.86743E-05-9.56204E-02-4.66528E-08-2.37708E-08
 -1      3255 1.35873E-01-3.07165E-03-9.86722E-05-9.56203E-02-4.69104E-08-2.39020E-08
 -1      3256 1.35873E-01-3.07154E-03-9.86703E-05-9.56203E-02-3.39201E-08-1.72832E-08
 -1      3257 1.35873E-01-3.07149E-03-9.86689E-05-9.56202E-02-1.23201E-08-6.27740E-09
 -1      3258 1.35873E-01-3.07149E-03-9.86689E-05-9.56202E-02 1.23201E-08 6.27740E-09
 -1      3259 1.35873E-01-3.07154E-03-9.86703E-05-9.56203E-02 3.39201E-08 1.72832E-08
 -1      3260 1.35873E-01-3.07165E-03-9.86722E-05-9.56203E-02 4.69104E-08 2.39020E-08
 -1      3261 1.35873E-01-3.07182E-03-9.86743E-05-9.56204E-02 4.66528E-08 2.37708E-08
 -1      3262 1.35873E-01-3.07205E-03-9.86758E-05-9.56205E-02 3.01716E-08 1.53732E-08
 -1      3263 1.62021E-01-2.92202E-02-9.86758E-05-6.94724E-02-3.22051E-08-1.04641E-08
 -1      3264 1.62021E-01-2.92199E-02-9.86743E-05-6.94723E-02-4.97970E-08-1.61800E-08
 -1      3265 1.62021E-01-2.92197E-02-9.86722E-05-6.94722E-02-5.00720E-08-1.62694E-08
 -1      3266 1.62021E-01-2.92196E-02-9.86703E-05-6.94722E-02-3.62062E-08-1.17641E-08
 -1      3267 1.62021E-01-2.92196E-02-9.86689E-05-6.94722E-02-1.31504E-08-4.27283E-09
 -1      3268 1.62021E-01-2.92196E-02-9.86689E-05-6.94722E-02 1.31504E-08 4.27283E-09
 -1      3269 1.62021E-01-2.92196E-02-9.86703E-05-6.94722E-02 3.62062E-08 1.17641E-08
 -1      3270 1.62021E-01-2.92197E-02-9.86722E-05-6.94722E-02 5.00720E-08 1.62694E-08
 -1      3271 1.62021E-01-2.92199E-02-9.86743E-05-6.94723E-02 4.97970E-08 1.61800E-08
 -1      3272 1.62021E-01-2.92202E-02-9.86758E-05-6.94724E-02 3.22051E-08 1.04641E-08
 -1      3273 1.78809E-01-4.60083E-02-9.86758E-05-3.65238E-02-3.34455E-08-5.29725E-09
 -1      3274 1.78809E-01-4.60081E-02-9.86743E-05-3.65237E-02-5.17151E-08-8.19086E-09
 -1      3275 1.78809E-01-4.60078E-02-9.86722E-05-3.65237E-02-5.20006E-08-8.23608E-09
 -1      3276 1.78809E-01-4.60077E-02-9.86703E-05-3.65237E-02-3.76008E-08-5.95538E-09
 -1      3277 1.78809E-01-4.60077E-02-9.86689E-05-3.65237E-02-1.36569E-08-2.16304E-09
 -1      3278 1.78809E-01-4.60077E-02-9.86689E-05-3.65237E-02 1.36569E-08 2.16304E-09
 -1      3279 1.78809E-01-4.60077E-02-9.86703E-05-3.65237E-02 3.76008E-08 5.95537E-09
 -1      3280 1.78809E-01-4.60078E-02-9.86722E-05-3.65237E-02 5.20006E-08 8.23608E-09
 -1      3281 1.78809E-01-4.60081E-02-9.86743E-05-3.65237E-02 5.17151E-08 8.19086E-09
 -1      3282 1.78809E-01-4.60083E-02-9.86758E-05-3.65238E-02 3.34455E-08 5.29725E-09
 -1      3283-3.88459E-02 1.71696E-01-8.65184E-05-3.42047E-02-7.47732E-09-4.72099E-08
 -1      3284-3.88457E-02 1.71696E-01-8.65090E-05-3.42046E-02-1.19770E-08-7.56197E-08
 -1      3285-3.88456E-02 1.71696E-01-8.64958E-05-3.42046E-02-1.22785E-08-7.75234E-08
 -1      3286-3.88455E-02 1.71696E-01-8.64829E-05-3.42046E-02-8.99390E-09-5.67852E-08
 -1      3287-3.88455E-02 1.71696E-01-8.64758E-05-3.42046E-02-3.27303E-09-2.06651E-08
 -1      3288-3.88455E-02 1.71696E-01-8.64758E-05-3.42046E-02 3.27303E-09 2.06651E-08
 -1      3289-3.88455E-02 1.71696E-01-8.64829E-05-3.42046E-02 8.99390E-09 5.67852E-08
 -1      3290-3.88456E-02 1.71696E-01-8.64958E-05-3.42046E-02 1.22785E-08 7.75234E-08
 -1      3291-3.88457E-02 1.71696E-01-8.65090E-05-3.42046E-02 1.19770E-08 7.56197E-08
 -1      3292-3.88459E-02 1.71696E-01-8.65184E-05-3.42047E-02 7.47732E-09 4.72099E-08
 -1      3293-2.31238E-02 1.55974E-01-8.65184E-05-6.50611E-02-1.47705E-08-4.54590E-08
 -1      3294-2.31236E-02 1.55974E-01-8.65090E-05-6.50611E-02-2.36590E-08-7.28151E-08
 -1      3295-2.31235E-02 1.55974E-01-8.64958E-05-6.50610E-02-2.42547E-08-7.46482E-08
 -1      3296-2.31234E-02 1.55974E-01-8.64829E-05-6.50610E-02-1.77663E-08-5.46792E-08
 -1      3297-2.31234E-02 1.55974E-01-8.64758E-05-6.50610E-02-6.46547E-09-1.98987E-08
 -1      3298-2.31234E-02 1.55974E-01-8.64758E-05-6.50610E-02 6.46547E-09 1.98987E-08
 -1      3299-2.31234E-02 1.55974E-01-8.64829E-05-6.50610E-02 1.77663E-08 5.46791E-08
 -1      3300-2.31235E-02 1.55974E-01-8.64958E-05-6.50610E-02 2.42547E-08 7.46482E-08
 -1      3301-2.31236E-02 1.55974E-01-8.65090E-05-6.50611E-02 2.36590E-08 7.28151E-08
 -1      3302-2.31238E-02 1.55974E-01-8.65184E-05-6.50611E-02 1.47705E-08 4.54590E-08
 -1      3303 1.36406E-03 1.31486E-01-8.65184E-05-8.95490E-02-2.17000E-08-4.25887E-08
 -1      3304 1.36422E-03 1.31486E-01-8.65090E-05-8.95489E-02-3.47586E-08-6.82175E-08
 -1      3305 1.36433E-03 1.31486E-01-8.64958E-05-8.95488E-02-3.56336E-08-6.99349E-08
 -1      3306 1.36439E-03 1.31486E-01-8.64829E-05-8.95488E-02-2.61013E-08-5.12267E-08
 -1      3307 1.36443E-03 1.31486E-01-8.64758E-05-8.95488E-02-9.49870E-09-1.86423E-08
 -1      3308 1.36443E-03 1.31486E-01-8.64758E-05-8.95488E-02 9.49870E-09 1.86423E-08
 -1      3309 1.36439E-03 1.31486E-01-8.64829E-05-8.95488E-02 2.61013E-08 5.12267E-08
 -1      3310 1.36433E-03 1.31486E-01-8.64958E-05-8.95488E-02 3.56336E-08 6.99349E-08
 -1      3311 1.36422E-03 1.31486E-01-8.65090E-05-8.95489E-02 3.47586E-08 6.82175E-08
 -1      3312 1.36406E-03 1.31486E-01-8.65184E-05-8.95490E-02 2.17000E-08 4.25887E-08
 -1      3313 3.22205E-02 1.00630E-01-8.65184E-05-1.05271E-01-2.80952E-08-3.86697E-08
 -1      3314 3.22207E-02 1.00630E-01-8.65090E-05-1.05271E-01-4.50022E-08-6.19402E-08
 -1      3315 3.22208E-02 1.00630E-01-8.64958E-05-1.05271E-01-4.61351E-08-6.34996E-08
 -1      3316 3.22208E-02 1.00630E-01-8.64829E-05-1.05271E-01-3.37936E-08-4.65129E-08
 -1      3317 3.22208E-02 1.00630E-01-8.64758E-05-1.05271E-01-1.22980E-08-1.69268E-08
 -1      3318 3.22208E-02 1.00630E-01-8.64758E-05-1.05271E-01 1.22981E-08 1.69268E-08
 -1      3319 3.22208E-02 1.00630E-01-8.64829E-05-1.05271E-01 3.37936E-08 4.65129E-08
 -1      3320 3.22208E-02 1.00630E-01-8.64958E-05-1.05271E-01 4.61351E-08 6.34996E-08
 -1      3321 3.22207E-02 1.00630E-01-8.65090E-05-1.05271E-01 4.50022E-08 6.19402E-08
 -1      3322 3.22205E-02 1.00630E-01-8.65184E-05-1.05271E-01 2.80952E-08 3.86697E-08
 -1      3323 6.64252E-02 6.64252E-02-8.65184E-05-1.10689E-01-3.37985E-08-3.37986E-08
 -1      3324 6.64253E-02 6.64253E-02-8.65090E-05-1.10689E-01-5.41377E-08-5.41377E-08
 -1      3325 6.64254E-02 6.64254E-02-8.64958E-05-1.10688E-01-5.55006E-08-5.55007E-08
 -1      3326 6.64254E-02 6.64254E-02-8.64830E-05-1.10688E-01-4.06537E-08-4.06537E-08
 -1      3327 6.64254E-02 6.64254E-02-8.64758E-05-1.10688E-01-1.47946E-08-1.47946E-08
 -1      3328 6.64254E-02 6.64254E-02-8.64758E-05-1.10688E-01 1.47946E-08 1.47946E-08
 -1      3329 6.64254E-02 6.64254E-02-8.64830E-05-1.10688E-01 4.06537E-08 4.06537E-08
 -1      3330 6.64254E-02 6.64254E-02-8.64958E-05-1.10688E-01 5.55006E-08 5.55007E-08
 -1      3331 6.64253E-02 6.64253E-02-8.65090E-05-1.10689E-01 5.41377E-08 5.41377E-08
 -1      3332 6.64252E-02 6.64252E-02-8.65184E-05-1.10689E-01 3.37985E-08 3.37986E-08
 -1      3333 1.00630E-01 3.22205E-02-8.65184E-05-1.05271E-01-3.86697E-08-2.80952E-08
 -1      3334 1.00630E-01 3.22207E-02-8.65090E-05-1.05271E-01-6.19402E-08-4.50022E-08
 -1      3335 1.00630E-01 3.22208E-02-8.64958E-05-1.05271E-01-6.34996E-08-4.61351E-08
 -1      3336 1.00630E-01 3.22208E-02-8.64830E-05-1.05271E-01-4.65129E-08-3.37936E-08
 -1      3337 1.00630E-01 3.22208E-02-8.64759E-05-1.05271E-01-1.69268E-08-1.22980E-08
 -1      3338 1.00630E-01 3.22208E-02-8.64759E-05-1.05271E-01 1.69268E-08 1.22980E-08
 -1      3339 1.00630E-01 3.22208E-02-8.64830E-05-1.05271E-01 4.65129E-08 3.37936E-08
 -1      3340 1.00630E-01 3.22208E-02-8.64958E-05-1.05271E-01 6.34996E-08 4.61351E-08
 -1      3341 1.00630E-01 3.22207E-02-8.65090E-05-1.05271E-01 6.19402E-08 4.50022E-08
 -1      3342 1.00630E-01 3.22205E-02-8.65184E-05-1.05271E-01 3.86697E-08 2.80952E-08
 -1      3343 1.31486E-01 1.36406E-03-8.65184E-05-8.95490E-02-4.25887E-08-2.17000E-08
 -1      3344 1.31486E-01 1.36422E-03-8.65090E-05-8.95489E-02-6.82175E-08-3.47585E-08
 -1      3345 1.31486E-01 1.36433E-03-8.64958E-05-8.95488E-02-6.99349E-08-3.56336E-08
 -1      3346 1.31486E-01 1.36439E-03-8.64830E-05-8.95488E-02-5.12267E-08-2.61013E-08
 -1      3347 1.31486E-01 1.36442E-03-8.64759E-05-8.95488E-02-1.86423E-08-9.49870E-09
 -1      3348 1.31486E-01 1.36442E-03-8.64759E-05-8.95488E-02 1.86423E-08 9.49870E-09
 -1      3349 1.31486E-01 1.36439E-03-8.64830E-05-8.95488E-02 5.12267E-08 2.61013E-08
 -1      3350 1.31486E-01 1.36433E-03-8.64958E-05-8.95488E-02 6.99349E-08 3.56336E-08
 -1      3351 1.31486E-01 1.36422E-03-8.65090E-05-8.95489E-02 6.82175E-08 3.47585E-08
 -1      3352 1.31486E-01 1.36406E-03-8.65184E-05-8.95490E-02 4.25887E-08 2.17000E-08
 -1      3353 1.55974E-01-2.31238E-02-8.65184E-05-6.50611E-02-4.54590E-08-1.47705E-08
 -1      3354 1.55974E-01-2.31236E-02-8.65090E-05-6.50611E-02-7.28151E-08-2.36590E-08
 -1      3355 1.55974E-01-2.31235E-02-8.64958E-05-6.50610E-02-7.46482E-08-2.42547E-08
 -1      3356 1.55974E-01-2.31234E-02-8.64830E-05-6.50610E-02-5.46791E-08-1.77663E-08
 -1      3357 1.55974E-01-2.31234E-02-8.64759E-05-6.50610E-02-1.98987E-08-6.46547E-09
 -1      3358 1.55974E-01-2.31234E-02-8.64759E-05-6.50610E-02 1.98987E-08 6.46547E-09
 -1      3359 1.55974E-01-2.31234E-02-8.64830E-05-6.50610E-02 5.46791E-08 1.77663E-08
 -1      3360 1.55974E-01-2.31235E-02-8.64958E-05-6.50610E-02 7.46482E-08 2.42547E-08
 -1      3361 1.55974E-01-2.31236E-02-8.65090E-05-6.50611E-02 7.28151E-08 2.36591E-08
 -1      3362 1.55974E-01-2.31238E-02-8.65184E-05-6.50611E-02 4.54590E-08 1.47705E-08
 -1      3363 1.71696E-01-3.88459E-02-8.65184E-05-3.42047E-02-4.72099E-08-7.47731E-09
 -1      3364 1.71696E-01-3.88457E-02-8.65090E-05-3.42046E-02-7.56197E-08-1.19770E-08
 -1      3365 1.71696E-01-3.88456E-02-8.64958E-05-3.42046E-02-7.75234E-08-1.22785E-08
 -1      3366 1.71696E-01-3.88455E-02-8.64830E-05-3.42046E-02-5.67852E-08-8.99390E-09
 -1      3367 1.71696E-01-3.88455E-02-8.64759E-05-3.42046E-02-2.06651E-08-3.27303E-09
 -1      3368 1.71696E-01-3.88455E-02-8.64759E-05-3.42046E-02 2.06651E-08 3.27303E-09
 -1      3369 1.71696E-01-3.88455E-02-8.64830E-05-3.42046E-02 5.67852E-08 8.99390E-09
 -1      3370 1.71696E-01-3.88456E-02-8.64958E-05-3.42046E-02 7.75234E-08 1.22785E-08
 -1      3371 1.71696E-01-3.88457E-02-8.65090E-05-3.42046E-02 7.56197E-08 1.19770E-08
 -1      3372 1.71696E-01-3.88459E-02-8.65184E-05-3.42047E-02 4.72099E-08 7.47731E-09
 -1      3373-3.23461E-02 1.65239E-01-7.61648E-05-3.20996E-02-1.31117E-08-8.27840E-08
 -1      3374-3.23460E-02 1.65239E-01-7.61415E-05-3.20996E-02-2.15831E-08-1.36270E-07
 -1      3375-3.23460E-02 1.65239E-01-7.61065E-05-3.20996E-02-2.20668E-08-1.39324E-07
 -1      3376-3.23460E-02 1.65239E-01-7.60771E-05-3.20996E-02-1.59785E-08-1.00884E-07
 -1      3377-3.23460E-02 1.65239E-01-7.60580E-05-3.20996E-02-5.82363E-09-3.67689E-08
 -1      3378-3.23460E-02 1.65239E-01-7.60580E-05-3.20996E-02 5.82363E-09 3.67689E-08
 -1      3379-3.23460E-02 1.65239E-01-7.60771E-05-3.20996E-02 1.59785E-08 1.00884E-07
 -1      3380-3.23460E-02 1.65239E-01-7.61065E-05-3.20996E-02 2.20668E-08 1.39324E-07
 -1      3381-3.23460E-02 1.65239E-01-7.61415E-05-3.20996E-02 2.15831E-08 1.36270E-07
 -1      3382-3.23461E-02 1.65239E-01-7.61648E-05-3.20996E-02 1.31117E-08 8.27840E-08
 -1      3383-1.75915E-02 1.50484E-01-7.61648E-05-6.10571E-02-2.59006E-08-7.97137E-08
 -1      3384-1.75914E-02 1.50484E-01-7.61415E-05-6.10571E-02-4.26347E-08-1.31216E-07
 -1      3385-1.75914E-02 1.50484E-01-7.61065E-05-6.10571E-02-4.35902E-08-1.34157E-07
 -1      3386-1.75914E-02 1.50484E-01-7.60771E-05-6.10571E-02-3.15635E-08-9.71424E-08
 -1      3387-1.75914E-02 1.50484E-01-7.60580E-05-6.10571E-02-1.15039E-08-3.54052E-08
 -1      3388-1.75914E-02 1.50484E-01-7.60580E-05-6.10571E-02 1.15039E-08 3.54052E-08
 -1      3389-1.75914E-02 1.50484E-01-7.60771E-05-6.10571E-02 3.15635E-08 9.71424E-08
 -1      3390-1.75914E-02 1.50484E-01-7.61065E-05-6.10571E-02 4.35902E-08 1.34157E-07
 -1      3391-1.75914E-02 1.50484E-01-7.61415E-05-6.10571E-02 4.26347E-08 1.31216E-07
 -1      3392-1.75915E-02 1.50484E-01-7.61648E-05-6.10571E-02 2.59006E-08 7.97137E-08
 -1      3393 5.38931E-03 1.27504E-01-7.61648E-05-8.40379E-02-3.80517E-08-7.46806E-08
 -1      3394 5.38936E-03 1.27504E-01-7.61415E-05-8.40379E-02-6.26365E-08-1.22931E-07
 -1      3395 5.38938E-03 1.27504E-01-7.61065E-05-8.40379E-02-6.40402E-08-1.25686E-07
 -1      3396 5.38938E-03 1.27504E-01-7.60771E-05-8.40379E-02-4.63713E-08-9.10088E-08
 -1      3397 5.38938E-03 1.27504E-01-7.60580E-05-8.40379E-02-1.69008E-08-3.31697E-08
 -1      3398 5.38938E-03 1.27504E-01-7.60580E-05-8.40379E-02 1.69008E-08 3.31697E-08
 -1      3399 5.38938E-03 1.27504E-01-7.60771E-05-8.40379E-02 4.63713E-08 9.10088E-08
 -1      3400 5.38938E-03 1.27504E-01-7.61065E-05-8.40379E-02 6.40402E-08 1.25686E-07
 -1      3401 5.38936E-03 1.27504E-01-7.61415E-05-8.40379E-02 6.26365E-08 1.22931E-07
 -1      3402 5.38931E-03 1.27504E-01-7.61648E-05-8.40379E-02 3.80517E-08 7.46806E-08
 -1      3403 3.43468E-02 9.85461E-02-7.61648E-05-9.87925E-02-4.92658E-08-6.78085E-08
 -1      3404 3.43468E-02 9.85461E-02-7.61415E-05-9.87924E-02-8.10960E-08-1.11619E-07
 -1      3405 3.43469E-02 9.85461E-02-7.61065E-05-9.87924E-02-8.29134E-08-1.14121E-07
 -1      3406 3.43469E-02 9.85461E-02-7.60771E-05-9.87924E-02-6.00373E-08-8.26343E-08
 -1      3407 3.43468E-02 9.85461E-02-7.60580E-05-9.87924E-02-2.18816E-08-3.01175E-08
 -1      3408 3.43468E-02 9.85461E-02-7.60580E-05-9.87924E-02 2.18816E-08 3.01175E-08
 -1      3409 3.43469E-02 9.85461E-02-7.60771E-05-9.87924E-02 6.00373E-08 8.26343E-08
 -1      3410 3.43469E-02 9.85461E-02-7.61065E-05-9.87924E-02 8.29134E-08 1.14121E-07
 -1      3411 3.43468E-02 9.85461E-02-7.61415E-05-9.87924E-02 8.10960E-08 1.11619E-07
 -1      3412 3.43468E-02 9.85461E-02-7.61648E-05-9.87925E-02 4.92658E-08 6.78085E-08
 -1      3413 6.64464E-02 6.64464E-02-7.61648E-05-1.03877E-01-5.92668E-08-5.92669E-08
 -1      3414 6.64465E-02 6.64465E-02-7.61415E-05-1.03877E-01-9.75587E-08-9.75587E-08
 -1      3415 6.64465E-02 6.64465E-02-7.61065E-05-1.03877E-01-9.97450E-08-9.97450E-08
 -1      3416 6.64465E-02 6.64465E-02-7.60771E-05-1.03877E-01-7.22250E-08-7.22250E-08
 -1      3417 6.64465E-02 6.64465E-02-7.60580E-05-1.03877E-01-2.63237E-08-2.63237E-08
 -1      3418 6.64465E-02 6.64465E-02-7.60580E-05-1.03877E-01 2.63237E-08 2.63237E-08
 -1      3419 6.64465E-02 6.64465E-02-7.60771E-05-1.03877E-01 7.22250E-08 7.22250E-08
 -1      3420 6.64465E-02 6.64465E-02-7.61065E-05-1.03877E-01 9.97450E-08 9.97450E-08
 -1      3421 6.64465E-02 6.64465E-02-7.61415E-05-1.03877E-01 9.75587E-08 9.75587E-08
 -1      3422 6.64464E-02 6.64464E-02-7.61648E-05-1.03877E-01 5.92668E-08 5.92669E-08
 -1      3423 9.85461E-02 3.43468E-02-7.61648E-05-9.87925E-02-6.78085E-08-4.92658E-08
 -1      3424 9.85461E-02 3.43468E-02-7.61415E-05-9.87924E-02-1.11619E-07-8.10960E-08
 -1      3425 9.85461E-02 3.43469E-02-7.61065E-05-9.87924E-02-1.14121E-07-8.29134E-08
 -1      3426 9.85461E-02 3.43469E-02-7.60771E-05-9.87924E-02-8.26343E-08-6.00373E-08
 -1      3427 9.85461E-02 3.43468E-02-7.60580E-05-9.87924E-02-3.01175E-08-2.18816E-08
 -1      3428 9.85461E-02 3.43468E-02-7.60580E-05-9.87924E-02 3.01175E-08 2.18816E-08
 -1      3429 9.85461E-02 3.43469E-02-7.60771E-05-9.87924E-02 8.26343E-08 6.00373E-08
 -1      3430 9.85461E-02 3.43469E-02-7.61065E-05-9.87924E-02 1.14121E-07 8.29134E-08
 -1      3431 9.85461E-02 3.43468E-02-7.61415E-05-9.87924E-02 1.11619E-07 8.10960E-08
 -1      3432 9.85461E-02 3.43468E-02-7.61648E-05-9.87925E-02 6.78085E-08 4.92658E-08
 -1      3433 1.27504E-01 5.38931E-03-7.61648E-05-8.40379E-02-7.46806E-08-3.80516E-08
 -1      3434 1.27504E-01 5.38936E-03-7.61415E-05-8.40379E-02-1.22931E-07-6.26365E-08
 -1      3435 1.27504E-01 5.38938E-03-7.61065E-05-8.40379E-02-1.25686E-07-6.40402E-08
 -1      3436 1.27504E-01 5.38938E-03-7.60771E-05-8.40379E-02-9.10088E-08-4.63713E-08
 -1      3437 1.27504E-01 5.38938E-03-7.60580E-05-8.40379E-02-3.31697E-08-1.69008E-08
 -1      3438 1.27504E-01 5.38938E-03-7.60580E-05-8.40379E-02 3.31697E-08 1.69008E-08
 -1      3439 1.27504E-01 5.38938E-03-7.60771E-05-8.40379E-02 9.10088E-08 4.63713E-08
 -1      3440 1.27504E-01 5.38938E-03-7.61065E-05-8.40379E-02 1.25686E-07 6.40402E-08
 -1      3441 1.27504E-01 5.38936E-03-7.61415E-05-8.40379E-02 1.22931E-07 6.26365E-08
 -1      3442 1.27504E-01 5.38931E-03-7.61648E-05-8.40379E-02 7.46806E-08 3.80516E-08
 -1      3443 1.50484E-01-1.75915E-02-7.61648E-05-6.10571E-02-7.97137E-08-2.59006E-08
 -1      3444 1.50484E-01-1.75914E-02-7.61415E-05-6.10571E-02-1.31216E-07-4.26347E-08
 -1      3445 1.50484E-01-1.75914E-02-7.61065E-05-6.10571E-02-1.34157E-07-4.35902E-08
 -1      3446 1.50484E-01-1.75914E-02-7.60771E-05-6.10571E-02-9.71424E-08-3.15635E-08
 -1      3447 1.50484E-01-1.75914E-02-7.60580E-05-6.10571E-02-3.54052E-08-1.15039E-08
 -1      3448 1.50484E-01-1.75914E-02-7.60580E-05-6.10571E-02 3.54052E-08 1.15039E-08
 -1      3449 1.50484E-01-1.75914E-02-7.60771E-05-6.10571E-02 9.71424E-08 3.15635E-08
 -1      3450 1.50484E-01-1.75914E-02-7.61065E-05-6.10571E-02 1.34157E-07 4.35902E-08
 -1      3451 1.50484E-01-1.75914E-02-7.61415E-05-6.10571E-02 1.31216E-07 4.26347E-08
 -1      3452 1.50484E-01-1.75915E-02-7.61648E-05-6.10571E-02 7.97137E-08 2.59006E-08
 -1      3453 1.65239E-01-3.23461E-02-7.61648E-05-3.20996E-02-8.27840E-08-1.31117E-08
 -1      3454 1.65239E-01-3.23460E-02-7.61415E-05-3.20996E-02-1.36270E-07-2.15831E-08
 -1      3455 1.65239E-01-3.23460E-02-7.61065E-05-3.20996E-02-1.39324E-07-2.20668E-08
 -1      3456 1.65239E-01-3.23460E-02-7.60771E-05-3.20996E-02-1.00884E-07-1.59785E-08
 -1      3457 1.65239E-01-3.23460E-02-7.60580E-05-3.20996E-02-3.67689E-08-5.82363E-09
 -1      3458 1.65239E-01-3.23460E-02-7.60580E-05-3.20996E-02 3.67689E-08 5.82363E-09
 -1      3459 1.65239E-01-3.23460E-02-7.60771E-05-3.20996E-02 1.00884E-07 1.59785E-08
 -1      3460 1.65239E-01-3.23460E-02-7.61065E-05-3.20996E-02 1.39324E-07 2.20668E-08
 -1      3461 1.65239E-01-3.23460E-02-7.61415E-05-3.20996E-02 1.36270E-07 2.15831E-08
 -1      3462 1.65239E-01-3.23461E-02-7.61648E-05-3.20996E-02 8.27840E-08 1.31117E-08
 -1      3463-2.64294E-02 1.59359E-01-6.73414E-05-3.01831E-02-1.83762E-08-1.16023E-07
 -1      3464-2.64295E-02 1.59359E-01-6.73052E-05-3.01831E-02-3.06958E-08-1.93806E-07
 -1      3465-2.64296E-02 1.59359E-01-6.72660E-05-3.01831E-02-2.96641E-08-1.87292E-07
 -1      3466-2.64297E-02 1.59359E-01-6.72221E-05-3.01831E-02-2.07808E-08-1.31205E-07
 -1      3467-2.64297E-02 1.59359E-01-6.72044E-05-3.01831E-02-7.29455E-09-4.60560E-08
 -1      3468-2.64297E-02 1.59359E-01-6.72044E-05-3.01831E-02 7.29454E-09 4.60559E-08
 -1      3469-2.64297E-02 1.59359E-01-6.72221E-05-3.01831E-02 2.07808E-08 1.31205E-07
 -1      3470-2.64296E-02 1.59359E-01-6.72660E-05-3.01831E-02 2.96641E-08 1.87292E-07
 -1      3471-2.64295E-02 1.59359E-01-6.73052E-05-3.01831E-02 3.06958E-08 1.93806E-07
 -1      3472-2.64294E-02 1.59359E-01-6.73414E-05-3.01831E-02 1.83762E-08 1.16023E-07
 -1      3473-1.25557E-02 1.45485E-01-6.73414E-05-5.74117E-02-3.62999E-08-1.11720E-07
 -1      3474-1.25559E-02 1.45485E-01-6.73052E-05-5.74117E-02-6.06357E-08-1.86618E-07
 -1      3475-1.25560E-02 1.45485E-01-6.72660E-05-5.74117E-02-5.85978E-08-1.80345E-07
 -1      3476-1.25560E-02 1.45485E-01-6.72221E-05-5.74117E-02-4.10498E-08-1.26338E-07
 -1      3477-1.25560E-02 1.45485E-01-6.72044E-05-5.74117E-02-1.44095E-08-4.43478E-08
 -1      3478-1.25560E-02 1.45485E-01-6.72044E-05-5.74117E-02 1.44095E-08 4.43478E-08
 -1      3479-1.25560E-02 1.45485E-01-6.72221E-05-5.74117E-02 4.10498E-08 1.26338E-07
 -1      3480-1.25560E-02 1.45485E-01-6.72660E-05-5.74117E-02 5.85978E-08 1.80345E-07
 -1      3481-1.25559E-02 1.45485E-01-6.73052E-05-5.74117E-02 6.06357E-08 1.86618E-07
 -1      3482-1.25557E-02 1.45485E-01-6.73414E-05-5.74117E-02 3.62999E-08 1.11720E-07
 -1      3483 9.05297E-03 1.23876E-01-6.73414E-05-7.90204E-02-5.33298E-08-1.04666E-07
 -1      3484 9.05286E-03 1.23876E-01-6.73052E-05-7.90204E-02-8.90827E-08-1.74835E-07
 -1      3485 9.05276E-03 1.23876E-01-6.72660E-05-7.90204E-02-8.60886E-08-1.68958E-07
 -1      3486 9.05271E-03 1.23876E-01-6.72221E-05-7.90204E-02-6.03081E-08-1.18361E-07
 -1      3487 9.05269E-03 1.23876E-01-6.72044E-05-7.90205E-02-2.11696E-08-4.15477E-08
 -1      3488 9.05269E-03 1.23876E-01-6.72044E-05-7.90205E-02 2.11696E-08 4.15477E-08
 -1      3489 9.05271E-03 1.23876E-01-6.72221E-05-7.90204E-02 6.03081E-08 1.18361E-07
 -1      3490 9.05276E-03 1.23876E-01-6.72660E-05-7.90204E-02 8.60886E-08 1.68958E-07
 -1      3491 9.05286E-03 1.23876E-01-6.73052E-05-7.90204E-02 8.90827E-08 1.74835E-07
 -1      3492 9.05297E-03 1.23876E-01-6.73414E-05-7.90204E-02 5.33298E-08 1.04666E-07
 -1      3493 3.62815E-02 9.66477E-02-6.73414E-05-9.28940E-02-6.90465E-08-9.50344E-08
 -1      3494 3.62814E-02 9.66477E-02-6.73052E-05-9.28941E-02-1.15336E-07-1.58746E-07
 -1      3495 3.62813E-02 9.66476E-02-6.72660E-05-9.28941E-02-1.11460E-07-1.53411E-07
 -1      3496 3.62813E-02 9.66476E-02-6.72221E-05-9.28941E-02-7.80814E-08-1.07470E-07
 -1      3497 3.62813E-02 9.66475E-02-6.72044E-05-9.28941E-02-2.74084E-08-3.77245E-08
 -1      3498 3.62813E-02 9.66475E-02-6.72044E-05-9.28941E-02 2.74084E-08 3.77245E-08
 -1      3499 3.62813E-02 9.66476E-02-6.72221E-05-9.28941E-02 7.80814E-08 1.07470E-07
 -1      3500 3.62813E-02 9.66476E-02-6.72660E-05-9.28941E-02 1.11460E-07 1.53411E-07
 -1      3501 3.62814E-02 9.66477E-02-6.73052E-05-9.28941E-02 1.15336E-07 1.58746E-07
 -1      3502 3.62815E-02 9.66477E-02-6.73414E-05-9.28940E-02 6.90465E-08 9.50344E-08
 -1      3503 6.64646E-02 6.64646E-02-6.73414E-05-9.76746E-02-8.30630E-08-8.30631E-08
 -1      3504 6.64646E-02 6.64646E-02-6.73052E-05-9.76746E-02-1.38749E-07-1.38749E-07
 -1      3505 6.64645E-02 6.64645E-02-6.72660E-05-9.76746E-02-1.34086E-07-1.34086E-07
 -1      3506 6.64644E-02 6.64644E-02-6.72221E-05-9.76746E-02-9.39321E-08-9.39321E-08
 -1      3507 6.64644E-02 6.64644E-02-6.72044E-05-9.76747E-02-3.29724E-08-3.29724E-08
 -1      3508 6.64644E-02 6.64644E-02-6.72044E-05-9.76747E-02 3.29724E-08 3.29724E-08
 -1      3509 6.64644E-02 6.64644E-02-6.72221E-05-9.76746E-02 9.39321E-08 9.39321E-08
 -1      3510 6.64645E-02 6.64645E-02-6.72660E-05-9.76746E-02 1.34086E-07 1.34086E-07
 -1      3511 6.64646E-02 6.64646E-02-6.73052E-05-9.76746E-02 1.38749E-07 1.38749E-07
 -1      3512 6.64646E-02 6.64646E-02-6.73414E-05-9.76746E-02 8.30630E-08 8.30631E-08
 -1      3513 9.66477E-02 3.62815E-02-6.73414E-05-9.28940E-02-9.50344E-08-6.90465E-08
 -1      3514 9.66477E-02 3.62814E-02-6.73052E-05-9.28941E-02-1.58746E-07-1.15336E-07
 -1      3515 9.66476E-02 3.62813E-02-6.72660E-05-9.28941E-02-1.53411E-07-1.11460E-07
 -1      3516 9.66476E-02 3.62813E-02-6.72221E-05-9.28941E-02-1.07470E-07-7.80814E-08
 -1      3517 9.66475E-02 3.62813E-02-6.72044E-05-9.28941E-02-3.77245E-08-2.74085E-08
 -1      3518 9.66475E-02 3.62813E-02-6.72044E-05-9.28941E-02 3.77245E-08 2.74084E-08
 -1      3519 9.66476E-02 3.62813E-02-6.72221E-05-9.28941E-02 1.07470E-07 7.80814E-08
 -1      3520 9.66476E-02 3.62813E-02-6.72660E-05-9.28941E-02 1.53411E-07 1.11460E-07
 -1      3521 9.66477E-02 3.62814E-02-6.73052E-05-9.28941E-02 1.58746E-07 1.15336E-07
 -1      3522 9.66477E-02 3.62815E-02-6.73414E-05-9.28940E-02 9.50344E-08 6.90465E-08
 -1      3523 1.23876E-01 9.05297E-03-6.73414E-05-7.90204E-02-1.04666E-07-5.33298E-08
 -1      3524 1.23876E-01 9.05286E-03-6.73052E-05-7.90204E-02-1.74835E-07-8.90826E-08
 -1      3525 1.23876E-01 9.05276E-03-6.72660E-05-7.90204E-02-1.68958E-07-8.60886E-08
 -1      3526 1.23876E-01 9.05271E-03-6.72221E-05-7.90204E-02-1.18361E-07-6.03081E-08
 -1      3527 1.23876E-01 9.05269E-03-6.72044E-05-7.90205E-02-4.15477E-08-2.11696E-08
 -1      3528 1.23876E-01 9.05269E-03-6.72044E-05-7.90205E-02 4.15477E-08 2.11696E-08
 -1      3529 1.23876E-01 9.05271E-03-6.72221E-05-7.90204E-02 1.18361E-07 6.03081E-08
 -1      3530 1.23876E-01 9.05276E-03-6.72660E-05-7.90204E-02 1.68958E-07 8.60886E-08
 -1      3531 1.23876E-01 9.05286E-03-6.73052E-05-7.90204E-02 1.74835E-07 8.90826E-08
 -1      3532 1.23876E-01 9.05297E-03-6.73414E-05-7.90204E-02 1.04666E-07 5.33298E-08
 -1      3533 1.45485E-01-1.25557E-02-6.73414E-05-5.74117E-02-1.11720E-07-3.62999E-08
 -1      3534 1.45485E-01-1.25559E-02-6.73052E-05-5.74117E-02-1.86618E-07-6.06357E-08
 -1      3535 1.45485E-01-1.25560E-02-6.72660E-05-5.74117E-02-1.80345E-07-5.85978E-08
 -1      3536 1.45485E-01-1.25560E-02-6.72221E-05-5.74117E-02-1.26338E-07-4.10498E-08
 -1      3537 1.45485E-01-1.25560E-02-6.72044E-05-5.74117E-02-4.43478E-08-1.44095E-08
 -1      3538 1.45485E-01-1.25560E-02-6.72044E-05-5.74117E-02 4.43478E-08 1.44095E-08
 -1      3539 1.45485E-01-1.25560E-02-6.72221E-05-5.74117E-02 1.26338E-07 4.10498E-08
 -1      3540 1.45485E-01-1.25560E-02-6.72660E-05-5.74117E-02 1.80345E-07 5.85978E-08
 -1      3541 1.45485E-01-1.25559E-02-6.73052E-05-5.74117E-02 1.86618E-07 6.06357E-08
 -1      3542 1.45485E-01-1.25557E-02-6.73414E-05-5.74117E-02 1.11720E-07 3.62999E-08
 -1      3543 1.59359E-01-2.64294E-02-6.73414E-05-3.01831E-02-1.16023E-07-1.83762E-08
 -1      3544 1.59359E-01-2.64295E-02-6.73052E-05-3.01831E-02-1.93806E-07-3.06958E-08
 -1      3545 1.59359E-01-2.64296E-02-6.72660E-05-3.01831E-02-1.87292E-07-2.96641E-08
 -1      3546 1.59359E-01-2.64297E-02-6.72221E-05-3.01831E-02-1.31205E-07-2.07808E-08
 -1      3547 1.59359E-01-2.64297E-02-6.72044E-05-3.01831E-02-4.60559E-08-7.29455E-09
 -1      3548 1.59359E-01-2.64297E-02-6.72044E-05-3.01831E-02 4.60559E-08 7.29454E-09
 -1      3549 1.59359E-01-2.64297E-02-6.72221E-05-3.01831E-02 1.31205E-07 2.07808E-08
 -1      3550 1.59359E-01-2.64296E-02-6.72660E-05-3.01831E-02 1.87292E-07 2.96641E-08
 -1      3551 1.59359E-01-2.64295E-02-6.73052E-05-3.01831E-02 1.93806E-07 3.06958E-08
 -1      3552 1.59359E-01-2.64294E-02-6.73414E-05-3.01831E-02 1.16023E-07 1.83762E-08
 -1      3553-2.10284E-02 1.53989E-01-5.99401E-05-2.84333E-02 1.93542E-09 1.22198E-08
 -1      3554-2.10287E-02 1.53989E-01-5.99912E-05-2.84333E-02 3.53913E-09 2.23452E-08
 -1      3555-2.10287E-02 1.53989E-01-6.00079E-05-2.84333E-02 9.32950E-09 5.89042E-08
 -1      3556-2.10286E-02 1.53989E-01-6.00885E-05-2.84333E-02 1.15404E-08 7.28632E-08
 -1      3557-2.10285E-02 1.53989E-01-6.01278E-05-2.84332E-02 4.86333E-09 3.07059E-08
 -1      3558-2.10285E-02 1.53989E-01-6.01278E-05-2.84332E-02-4.86333E-09-3.07059E-08
 -1      3559-2.10286E-02 1.53989E-01-6.00885E-05-2.84333E-02-1.15404E-08-7.28632E-08
 -1      3560-2.10287E-02 1.53989E-01-6.00079E-05-2.84333E-02-9.32950E-09-5.89042E-08
 -1      3561-2.10287E-02 1.53989E-01-5.99912E-05-2.84333E-02-3.53913E-09-2.23452E-08
 -1      3562-2.10284E-02 1.53989E-01-5.99401E-05-2.84333E-02-1.93541E-09-1.22198E-08
 -1      3563-7.95911E-03 1.40919E-01-5.99401E-05-5.40833E-02 3.82320E-09 1.17666E-08
 -1      3564-7.95938E-03 1.40919E-01-5.99912E-05-5.40833E-02 6.99113E-09 2.15165E-08
 -1      3565-7.95933E-03 1.40919E-01-6.00079E-05-5.40833E-02 1.84293E-08 5.67195E-08
 -1      3566-7.95924E-03 1.40919E-01-6.00885E-05-5.40833E-02 2.27966E-08 7.01608E-08
 -1      3567-7.95917E-03 1.40919E-01-6.01278E-05-5.40832E-02 9.60692E-09 2.95671E-08
 -1      3568-7.95917E-03 1.40919E-01-6.01278E-05-5.40832E-02-9.60692E-09-2.95670E-08
 -1      3569-7.95924E-03 1.40919E-01-6.00885E-05-5.40833E-02-2.27966E-08-7.01608E-08
 -1      3570-7.95933E-03 1.40919E-01-6.00079E-05-5.40833E-02-1.84293E-08-5.67195E-08
 -1      3571-7.95938E-03 1.40919E-01-5.99912E-05-5.40833E-02-6.99113E-09-2.15165E-08
 -1      3572-7.95911E-03 1.40919E-01-5.99401E-05-5.40833E-02-3.82320E-09-1.17666E-08
 -1      3573 1.23969E-02 1.20563E-01-5.99401E-05-7.44392E-02 5.61680E-09 1.10236E-08
 -1      3574 1.23966E-02 1.20563E-01-5.99912E-05-7.44393E-02 1.02710E-08 2.01579E-08
 -1      3575 1.23966E-02 1.20563E-01-6.00079E-05-7.44393E-02 2.70753E-08 5.31382E-08
 -1      3576 1.23967E-02 1.20563E-01-6.00885E-05-7.44392E-02 3.34915E-08 6.57308E-08
 -1      3577 1.23968E-02 1.20563E-01-6.01278E-05-7.44392E-02 1.41139E-08 2.77002E-08
 -1      3578 1.23968E-02 1.20563E-01-6.01278E-05-7.44392E-02-1.41139E-08-2.77002E-08
 -1      3579 1.23967E-02 1.20563E-01-6.00885E-05-7.44392E-02-3.34915E-08-6.57308E-08
 -1      3580 1.23966E-02 1.20563E-01-6.00079E-05-7.44393E-02-2.70753E-08-5.31382E-08
 -1      3581 1.23966E-02 1.20563E-01-5.99912E-05-7.44393E-02-1.02710E-08-2.01579E-08
 -1      3582 1.23969E-02 1.20563E-01-5.99401E-05-7.44392E-02-5.61680E-09-1.10236E-08
 -1      3583 3.80469E-02 9.49134E-02-5.99401E-05-8.75086E-02 7.27214E-09 1.00092E-08
 -1      3584 3.80466E-02 9.49132E-02-5.99912E-05-8.75086E-02 1.32979E-08 1.83030E-08
 -1      3585 3.80467E-02 9.49132E-02-6.00079E-05-8.75086E-02 3.50546E-08 4.82485E-08
 -1      3586 3.80467E-02 9.49132E-02-6.00885E-05-8.75086E-02 4.33618E-08 5.96823E-08
 -1      3587 3.80468E-02 9.49133E-02-6.01278E-05-8.75085E-02 1.82734E-08 2.51512E-08
 -1      3588 3.80468E-02 9.49133E-02-6.01278E-05-8.75085E-02-1.82734E-08-2.51512E-08
 -1      3589 3.80467E-02 9.49132E-02-6.00885E-05-8.75086E-02-4.33618E-08-5.96823E-08
 -1      3590 3.80467E-02 9.49132E-02-6.00079E-05-8.75086E-02-3.50546E-08-4.82485E-08
 -1      3591 3.80466E-02 9.49132E-02-5.99912E-05-8.75086E-02-1.32979E-08-1.83030E-08
 -1      3592 3.80469E-02 9.49134E-02-5.99401E-05-8.75086E-02-7.27214E-09-1.00092E-08
 -1      3593 6.64801E-02 6.64801E-02-5.99401E-05-9.20120E-02 8.74843E-09 8.74837E-09
 -1      3594 6.64799E-02 6.64799E-02-5.99912E-05-9.20120E-02 1.59974E-08 1.59974E-08
 -1      3595 6.64799E-02 6.64799E-02-6.00079E-05-9.20120E-02 4.21707E-08 4.21707E-08
 -1      3596 6.64800E-02 6.64800E-02-6.00885E-05-9.20119E-02 5.21643E-08 5.21643E-08
 -1      3597 6.64800E-02 6.64800E-02-6.01278E-05-9.20119E-02 2.19830E-08 2.19830E-08
 -1      3598 6.64800E-02 6.64800E-02-6.01278E-05-9.20119E-02-2.19830E-08-2.19830E-08
 -1      3599 6.64800E-02 6.64800E-02-6.00885E-05-9.20119E-02-5.21643E-08-5.21643E-08
 -1      3600 6.64799E-02 6.64799E-02-6.00079E-05-9.20120E-02-4.21707E-08-4.21707E-08
 -1      3601 6.64799E-02 6.64799E-02-5.99912E-05-9.20120E-02-1.59974E-08-1.59974E-08
 -1      3602 6.64801E-02 6.64801E-02-5.99401E-05-9.20120E-02-8.74843E-09-8.74837E-09
 -1      3603 9.49134E-02 3.80469E-02-5.99401E-05-8.75086E-02 1.00092E-08 7.27215E-09
 -1      3604 9.49132E-02 3.80466E-02-5.99912E-05-8.75086E-02 1.83030E-08 1.32979E-08
 -1      3605 9.49132E-02 3.80467E-02-6.00079E-05-8.75086E-02 4.82485E-08 3.50546E-08
 -1      3606 9.49132E-02 3.80467E-02-6.00885E-05-8.75086E-02 5.96823E-08 4.33618E-08
 -1      3607 9.49133E-02 3.80468E-02-6.01278E-05-8.75085E-02 2.51512E-08 1.82734E-08
 -1      3608 9.49133E-02 3.80468E-02-6.01278E-05-8.75085E-02-2.51512E-08-1.82734E-08
 -1      3609 9.49132E-02 3.80467E-02-6.00885E-05-8.75086E-02-5.96823E-08-4.33618E-08
 -1      3610 9.49132E-02 3.80467E-02-6.00079E-05-8.75086E-02-4.82485E-08-3.50546E-08
 -1      3611 9.49132E-02 3.80466E-02-5.99912E-05-8.75086E-02-1.83030E-08-1.32979E-08
 -1      3612 9.49134E-02 3.80469E-02-5.99401E-05-8.75086E-02-1.00092E-08-7.27215E-09
 -1      3613 1.20563E-01 1.23969E-02-5.99401E-05-7.44392E-02 1.10236E-08 5.61683E-09
 -1      3614 1.20563E-01 1.23966E-02-5.99912E-05-7.44393E-02 2.01579E-08 1.02710E-08
 -1      3615 1.20563E-01 1.23966E-02-6.00079E-05-7.44393E-02 5.31382E-08 2.70753E-08
 -1      3616 1.20563E-01 1.23967E-02-6.00885E-05-7.44392E-02 6.57308E-08 3.34915E-08
 -1      3617 1.20563E-01 1.23968E-02-6.01278E-05-7.44392E-02 2.77002E-08 1.41139E-08
 -1      3618 1.20563E-01 1.23968E-02-6.01278E-05-7.44392E-02-2.77002E-08-1.41139E-08
 -1      3619 1.20563E-01 1.23967E-02-6.00885E-05-7.44392E-02-6.57308E-08-3.34915E-08
 -1      3620 1.20563E-01 1.23966E-02-6.00079E-05-7.44393E-02-5.31382E-08-2.70753E-08
 -1      3621 1.20563E-01 1.23966E-02-5.99912E-05-7.44393E-02-2.01579E-08-1.02710E-08
 -1      3622 1.20563E-01 1.23969E-02-5.99401E-05-7.44392E-02-1.10236E-08-5.61683E-09
 -1      3623 1.40919E-01-7.95911E-03-5.99401E-05-5.40833E-02 1.17666E-08 3.82318E-09
 -1      3624 1.40919E-01-7.95938E-03-5.99912E-05-5.40833E-02 2.15165E-08 6.99112E-09
 -1      3625 1.40919E-01-7.95933E-03-6.00079E-05-5.40833E-02 5.67195E-08 1.84293E-08
 -1      3626 1.40919E-01-7.95924E-03-6.00885E-05-5.40833E-02 7.01608E-08 2.27966E-08
 -1      3627 1.40919E-01-7.95917E-03-6.01278E-05-5.40832E-02 2.95671E-08 9.60692E-09
 -1      3628 1.40919E-01-7.95917E-03-6.01278E-05-5.40832E-02-2.95670E-08-9.60692E-09
 -1      3629 1.40919E-01-7.95924E-03-6.00885E-05-5.40833E-02-7.01608E-08-2.27966E-08
 -1      3630 1.40919E-01-7.95933E-03-6.00079E-05-5.40833E-02-5.67195E-08-1.84293E-08
 -1      3631 1.40919E-01-7.95938E-03-5.99912E-05-5.40833E-02-2.15165E-08-6.99112E-09
 -1      3632 1.40919E-01-7.95911E-03-5.99401E-05-5.40833E-02-1.17666E-08-3.82319E-09
 -1      3633 1.53989E-01-2.10284E-02-5.99401E-05-2.84333E-02 1.22198E-08 1.93543E-09
 -1      3634 1.53989E-01-2.10287E-02-5.99912E-05-2.84333E-02 2.23452E-08 3.53914E-09
 -1      3635 1.53989E-01-2.10287E-02-6.00079E-05-2.84333E-02 5.89042E-08 9.32951E-09
 -1      3636 1.53989E-01-2.10286E-02-6.00885E-05-2.84333E-02 7.28632E-08 1.15404E-08
 -1      3637 1.53989E-01-2.10285E-02-6.01278E-05-2.84332E-02 3.07059E-08 4.86334E-09
 -1      3638 1.53989E-01-2.10285E-02-6.01278E-05-2.84332E-02-3.07059E-08-4.86333E-09
 -1      3639 1.53989E-01-2.10286E-02-6.00885E-05-2.84333E-02-7.28632E-08-1.15404E-08
 -1      3640 1.53989E-01-2.10287E-02-6.00079E-05-2.84333E-02-5.89042E-08-9.32951E-09
 -1      3641 1.53989E-01-2.10287E-02-5.99912E-05-2.84333E-02-2.23452E-08-3.53914E-09
 -1      3642 1.53989E-01-2.10284E-02-5.99401E-05-2.84333E-02-1.22198E-08-1.93543E-09
 -1      3643-1.60865E-02 1.49071E-01-5.42088E-05-2.68315E-02 1.26292E-07 7.97378E-07
 -1      3644-1.60858E-02 1.49071E-01-5.44664E-05-2.68314E-02 2.11200E-07 1.33347E-06
 -1      3645-1.60847E-02 1.49071E-01-5.51691E-05-2.68312E-02 2.40002E-07 1.51531E-06
 -1      3646-1.60835E-02 1.49072E-01-5.55977E-05-2.68311E-02 1.82221E-07 1.15050E-06
 -1      3647-1.60826E-02 1.49072E-01-5.58369E-05-2.68309E-02 6.80833E-08 4.29861E-07
 -1      3648-1.60826E-02 1.49072E-01-5.58369E-05-2.68309E-02-6.80833E-08-4.29861E-07
 -1      3649-1.60835E-02 1.49072E-01-5.55977E-05-2.68311E-02-1.82221E-07-1.15050E-06
 -1      3650-1.60847E-02 1.49071E-01-5.51691E-05-2.68312E-02-2.40002E-07-1.51531E-06
 -1      3651-1.60858E-02 1.49071E-01-5.44664E-05-2.68314E-02-2.11200E-07-1.33347E-06
 -1      3652-1.60865E-02 1.49071E-01-5.42088E-05-2.68315E-02-1.26292E-07-7.97378E-07
 -1      3653-3.75342E-03 1.36738E-01-5.42088E-05-5.10365E-02 2.49475E-07 7.67805E-07
 -1      3654-3.75275E-03 1.36738E-01-5.44664E-05-5.10363E-02 4.17200E-07 1.28401E-06
 -1      3655-3.75179E-03 1.36738E-01-5.51691E-05-5.10360E-02 4.74094E-07 1.45911E-06
 -1      3656-3.75059E-03 1.36739E-01-5.55977E-05-5.10357E-02 3.59955E-07 1.10783E-06
 -1      3657-3.74979E-03 1.36739E-01-5.58369E-05-5.10355E-02 1.34490E-07 4.13918E-07
 -1      3658-3.74979E-03 1.36739E-01-5.58369E-05-5.10355E-02-1.34490E-07-4.13918E-07
 -1      3659-3.75059E-03 1.36739E-01-5.55977E-05-5.10357E-02-3.59955E-07-1.10783E-06
 -1      3660-3.75179E-03 1.36738E-01-5.51691E-05-5.10360E-02-4.74094E-07-1.45911E-06
 -1      3661-3.75275E-03 1.36738E-01-5.44664E-05-5.10363E-02-4.17200E-07-1.28401E-06
 -1      3662-3.75342E-03 1.36738E-01-5.42088E-05-5.10365E-02-2.49475E-07-7.67805E-07
 -1      3663 1.54558E-02 1.17529E-01-5.42088E-05-7.02457E-02 3.66515E-07 7.19325E-07
 -1      3664 1.54564E-02 1.17529E-01-5.44664E-05-7.02454E-02 6.12927E-07 1.20294E-06
 -1      3665 1.54572E-02 1.17529E-01-5.51691E-05-7.02450E-02 6.96512E-07 1.36698E-06
 -1      3666 1.54583E-02 1.17530E-01-5.55977E-05-7.02446E-02 5.28826E-07 1.03788E-06
 -1      3667 1.54591E-02 1.17530E-01-5.58369E-05-7.02443E-02 1.97585E-07 3.87783E-07
 -1      3668 1.54591E-02 1.17530E-01-5.58369E-05-7.02443E-02-1.97585E-07-3.87783E-07
 -1      3669 1.54583E-02 1.17530E-01-5.55977E-05-7.02446E-02-5.28826E-07-1.03788E-06
 -1      3670 1.54572E-02 1.17529E-01-5.51691E-05-7.02450E-02-6.96512E-07-1.36698E-06
 -1      3671 1.54564E-02 1.17529E-01-5.44664E-05-7.02454E-02-6.12927E-07-1.20294E-06
 -1      3672 1.54558E-02 1.17529E-01-5.42088E-05-7.02457E-02-3.66515E-07-7.19325E-07
 -1      3673 3.96608E-02 9.33237E-02-5.42088E-05-8.25788E-02 4.74529E-07 6.53134E-07
 -1      3674 3.96613E-02 9.33241E-02-5.44664E-05-8.25785E-02 7.93562E-07 1.09224E-06
 -1      3675 3.96620E-02 9.33245E-02-5.51691E-05-8.25780E-02 9.01780E-07 1.24119E-06
 -1      3676 3.96630E-02 9.33251E-02-5.55977E-05-8.25775E-02 6.84676E-07 9.42375E-07
 -1      3677 3.96636E-02 9.33255E-02-5.58369E-05-8.25772E-02 2.55815E-07 3.52100E-07
 -1      3678 3.96636E-02 9.33255E-02-5.58369E-05-8.25772E-02-2.55815E-07-3.52100E-07
 -1      3679 3.96630E-02 9.33251E-02-5.55977E-05-8.25775E-02-6.84676E-07-9.42375E-07
 -1      3680 3.96620E-02 9.33245E-02-5.51691E-05-8.25780E-02-9.01780E-07-1.24119E-06
 -1      3681 3.96613E-02 9.33241E-02-5.44664E-05-8.25785E-02-7.93562E-07-1.09224E-06
 -1      3682 3.96608E-02 9.33237E-02-5.42088E-05-8.25788E-02-4.74529E-07-6.53134E-07
 -1      3683 6.64923E-02 6.64923E-02-5.42088E-05-8.68284E-02 5.70860E-07 5.70860E-07
 -1      3684 6.64927E-02 6.64927E-02-5.44664E-05-8.68281E-02 9.54657E-07 9.54657E-07
 -1      3685 6.64933E-02 6.64933E-02-5.51691E-05-8.68276E-02 1.08484E-06 1.08484E-06
 -1      3686 6.64940E-02 6.64940E-02-5.55977E-05-8.68271E-02 8.23666E-07 8.23666E-07
 -1      3687 6.64945E-02 6.64945E-02-5.58369E-05-8.68268E-02 3.07746E-07 3.07746E-07
 -1      3688 6.64945E-02 6.64945E-02-5.58369E-05-8.68268E-02-3.07746E-07-3.07746E-07
 -1      3689 6.64940E-02 6.64940E-02-5.55977E-05-8.68271E-02-8.23666E-07-8.23666E-07
 -1      3690 6.64933E-02 6.64933E-02-5.51691E-05-8.68276E-02-1.08484E-06-1.08484E-06
 -1      3691 6.64927E-02 6.64927E-02-5.44664E-05-8.68281E-02-9.54657E-07-9.54657E-07
 -1      3692 6.64923E-02 6.64923E-02-5.42088E-05-8.68284E-02-5.70860E-07-5.70860E-07
 -1      3693 9.33237E-02 3.96608E-02-5.42088E-05-8.25788E-02 6.53134E-07 4.74529E-07
 -1      3694 9.33241E-02 3.96613E-02-5.44664E-05-8.25785E-02 1.09224E-06 7.93562E-07
 -1      3695 9.33245E-02 3.96620E-02-5.51691E-05-8.25780E-02 1.24119E-06 9.01780E-07
 -1      3696 9.33251E-02 3.96630E-02-5.55977E-05-8.25775E-02 9.42375E-07 6.84676E-07
 -1      3697 9.33255E-02 3.96636E-02-5.58369E-05-8.25772E-02 3.52100E-07 2.55815E-07
 -1      3698 9.33255E-02 3.96636E-02-5.58369E-05-8.25772E-02-3.52100E-07-2.55815E-07
 -1      3699 9.33251E-02 3.96630E-02-5.55977E-05-8.25775E-02-9.42375E-07-6.84676E-07
 -1      3700 9.33245E-02 3.96620E-02-5.51691E-05-8.25780E-02-1.24119E-06-9.01780E-07
 -1      3701 9.33241E-02 3.96613E-02-5.44664E-05-8.25785E-02-1.09224E-06-7.93562E-07
 -1      3702 9.33237E-02 3.96608E-02-5.42088E-05-8.25788E-02-6.53134E-07-4.74529E-07
 -1      3703 1.17529E-01 1.54558E-02-5.42088E-05-7.02457E-02 7.19325E-07 3.66515E-07
 -1      3704 1.17529E-01 1.54564E-02-5.44664E-05-7.02454E-02 1.20294E-06 6.12927E-07
 -1      3705 1.17529E-01 1.54572E-02-5.51691E-05-7.02450E-02 1.36698E-06 6.96512E-07
 -1      3706 1.17530E-01 1.54583E-02-5.55977E-05-7.02446E-02 1.03788E-06 5.28826E-07
 -1      3707 1.17530E-01 1.54591E-02-5.58369E-05-7.02443E-02 3.87783E-07 1.97585E-07
 -1      3708 1.17530E-01 1.54591E-02-5.58369E-05-7.02443E-02-3.87783E-07-1.97585E-07
 -1      3709 1.17530E-01 1.54583E-02-5.55977E-05-7.02446E-02-1.03788E-06-5.28826E-07
 -1      3710 1.17529E-01 1.54572E-02-5.51691E-05-7.02450E-02-1.36698E-06-6.96512E-07
 -1      3711 1.17529E-01 1.54564E-02-5.44664E-05-7.02454E-02-1.20294E-06-6.12927E-07
 -1      3712 1.17529E-01 1.54558E-02-5.42088E-05-7.02457E-02-7.19325E-07-3.66515E-07
 -1      3713 1.36738E-01-3.75342E-03-5.42088E-05-5.10365E-02 7.67805E-07 2.49475E-07
 -1      3714 1.36738E-01-3.75275E-03-5.44664E-05-5.10363E-02 1.28401E-06 4.17200E-07
 -1      3715 1.36738E-01-3.75179E-03-5.51691E-05-5.10360E-02 1.45911E-06 4.74094E-07
 -1      3716 1.36739E-01-3.75059E-03-5.55977E-05-5.10357E-02 1.10783E-06 3.59955E-07
 -1      3717 1.36739E-01-3.74979E-03-5.58369E-05-5.10355E-02 4.13918E-07 1.34490E-07
 -1      3718 1.36739E-01-3.74979E-03-5.58369E-05-5.10355E-02-4.13918E-07-1.34490E-07
 -1      3719 1.36739E-01-3.75059E-03-5.55977E-05-5.10357E-02-1.10783E-06-3.59955E-07
 -1      3720 1.36738E-01-3.75179E-03-5.51691E-05-5.10360E-02-1.45911E-06-4.74094E-07
 -1      3721 1.36738E-01-3.75275E-03-5.44664E-05-5.10363E-02-1.28401E-06-4.17200E-07
 -1      3722 1.36738E-01-3.75342E-03-5.42088E-05-5.10365E-02-7.67805E-07-2.49475E-07
 -1      3723 1.49071E-01-1.60865E-02-5.42088E-05-2.68315E-02 7.97378E-07 1.26292E-07
 -1      3724 1.49071E-01-1.60858E-02-5.44664E-05-2.68314E-02 1.33347E-06 2.11200E-07
 -1      3725 1.49071E-01-1.60847E-02-5.51691E-05-2.68312E-02 1.51531E-06 2.40002E-07
 -1      3726 1.49072E-01-1.60835E-02-5.55977E-05-2.68311E-02 1.15050E-06 1.82221E-07
 -1      3727 1.49072E-01-1.60826E-02-5.58369E-05-2.68309E-02 4.29861E-07 6.80833E-08
 -1      3728 1.49072E-01-1.60826E-02-5.58369E-05-2.68309E-02-4.29861E-07-6.80833E-08
 -1      3729 1.49072E-01-1.60835E-02-5.55977E-05-2.68311E-02-1.15050E-06-1.82221E-07
 -1      3730 1.49071E-01-1.60847E-02-5.51691E-05-2.68312E-02-1.51531E-06-2.40002E-07
 -1      3731 1.49071E-01-1.60858E-02-5.44664E-05-2.68314E-02-1.33347E-06-2.11200E-07
 -1      3732 1.49071E-01-1.60865E-02-5.42088E-05-2.68315E-02-7.97378E-07-1.26292E-07
 -1      3733-1.15560E-02 1.44555E-01-5.00601E-05-2.53618E-02 5.14878E-07 3.25081E-06
 -1      3734-1.15528E-02 1.44556E-01-5.22023E-05-2.53613E-02 8.88856E-07 5.61202E-06
 -1      3735-1.15468E-02 1.44557E-01-5.34729E-05-2.53606E-02 9.35190E-07 5.90456E-06
 -1      3736-1.15416E-02 1.44558E-01-5.53145E-05-2.53600E-02 7.19550E-07 4.54306E-06
 -1      3737-1.15387E-02 1.44559E-01-5.66234E-05-2.53596E-02 2.69556E-07 1.70191E-06
 -1      3738-1.15387E-02 1.44559E-01-5.66234E-05-2.53596E-02-2.69556E-07-1.70191E-06
 -1      3739-1.15416E-02 1.44558E-01-5.53145E-05-2.53600E-02-7.19550E-07-4.54306E-06
 -1      3740-1.15468E-02 1.44557E-01-5.34729E-05-2.53606E-02-9.35190E-07-5.90456E-06
 -1      3741-1.15528E-02 1.44556E-01-5.22023E-05-2.53613E-02-8.88856E-07-5.61202E-06
 -1      3742-1.15560E-02 1.44555E-01-5.00601E-05-2.53618E-02-5.14878E-07-3.25081E-06
 -1      3743 1.01536E-04 1.32898E-01-5.00601E-05-4.82410E-02 1.01708E-06 3.13024E-06
 -1      3744 1.04534E-04 1.32898E-01-5.22023E-05-4.82401E-02 1.75583E-06 5.40388E-06
 -1      3745 1.10212E-04 1.32900E-01-5.34729E-05-4.82388E-02 1.84735E-06 5.68556E-06
 -1      3746 1.15143E-04 1.32902E-01-5.53145E-05-4.82375E-02 1.42138E-06 4.37457E-06
 -1      3747 1.17863E-04 1.32902E-01-5.66234E-05-4.82368E-02 5.32475E-07 1.63879E-06
 -1      3748 1.17863E-04 1.32902E-01-5.66234E-05-4.82368E-02-5.32475E-07-1.63879E-06
 -1      3749 1.15143E-04 1.32902E-01-5.53145E-05-4.82375E-02-1.42138E-06-4.37457E-06
 -1      3750 1.10212E-04 1.32900E-01-5.34729E-05-4.82388E-02-1.84735E-06-5.68556E-06
 -1      3751 1.04534E-04 1.32898E-01-5.22023E-05-4.82401E-02-1.75583E-06-5.40388E-06
 -1      3752 1.01536E-04 1.32898E-01-5.00601E-05-4.82410E-02-1.01708E-06-3.13024E-06
 -1      3753 1.82586E-02 1.14741E-01-5.00601E-05-6.63980E-02 1.49423E-06 2.93260E-06
 -1      3754 1.82612E-02 1.14741E-01-5.22023E-05-6.63968E-02 2.57956E-06 5.06267E-06
 -1      3755 1.82664E-02 1.14744E-01-5.34729E-05-6.63950E-02 2.71403E-06 5.32658E-06
 -1      3756 1.82709E-02 1.14746E-01-5.53145E-05-6.63932E-02 2.08822E-06 4.09836E-06
 -1      3757 1.82733E-02 1.14747E-01-5.66234E-05-6.63923E-02 7.82283E-07 1.53532E-06
 -1      3758 1.82733E-02 1.14747E-01-5.66234E-05-6.63923E-02-7.82283E-07-1.53532E-06
 -1      3759 1.82709E-02 1.14746E-01-5.53145E-05-6.63932E-02-2.08822E-06-4.09836E-06
 -1      3760 1.82664E-02 1.14744E-01-5.34729E-05-6.63950E-02-2.71403E-06-5.32658E-06
 -1      3761 1.82612E-02 1.14741E-01-5.22023E-05-6.63968E-02-2.57956E-06-5.06267E-06
 -1      3762 1.82586E-02 1.14741E-01-5.00601E-05-6.63980E-02-1.49423E-06-2.93260E-06
 -1      3763 4.11378E-02 9.18613E-02-5.00601E-05-7.80556E-02 1.93460E-06 2.66275E-06
 -1      3764 4.11400E-02 9.18627E-02-5.22023E-05-7.80542E-02 3.33978E-06 4.59681E-06
 -1      3765 4.11446E-02 9.18658E-02-5.34729E-05-7.80520E-02 3.51387E-06 4.83643E-06
 -1      3766 4.11484E-02 9.18684E-02-5.53145E-05-7.80499E-02 2.70363E-06 3.72123E-06
 -1      3767 4.11505E-02 9.18697E-02-5.66234E-05-7.80488E-02 1.01283E-06 1.39404E-06
 -1      3768 4.11505E-02 9.18697E-02-5.66234E-05-7.80488E-02-1.01283E-06-1.39404E-06
 -1      3769 4.11484E-02 9.18684E-02-5.53145E-05-7.80499E-02-2.70363E-06-3.72123E-06
 -1      3770 4.11446E-02 9.18658E-02-5.34729E-05-7.80520E-02-3.51387E-06-4.83643E-06
 -1      3771 4.11400E-02 9.18627E-02-5.22023E-05-7.80542E-02-3.33978E-06-4.59681E-06
 -1      3772 4.11378E-02 9.18613E-02-5.00601E-05-7.80556E-02-1.93460E-06-2.66275E-06
 -1      3773 6.64996E-02 6.64996E-02-5.00601E-05-8.20725E-02 2.32732E-06 2.32732E-06
 -1      3774 6.65014E-02 6.65014E-02-5.22023E-05-8.20710E-02 4.01776E-06 4.01776E-06
 -1      3775 6.65052E-02 6.65052E-02-5.34729E-05-8.20687E-02 4.22719E-06 4.22719E-06
 -1      3776 6.65084E-02 6.65084E-02-5.53145E-05-8.20666E-02 3.25247E-06 3.25247E-06
 -1      3777 6.65101E-02 6.65101E-02-5.66234E-05-8.20654E-02 1.21843E-06 1.21843E-06
 -1      3778 6.65101E-02 6.65101E-02-5.66234E-05-8.20654E-02-1.21843E-06-1.21843E-06
 -1      3779 6.65084E-02 6.65084E-02-5.53145E-05-8.20666E-02-3.25247E-06-3.25247E-06
 -1      3780 6.65052E-02 6.65052E-02-5.34729E-05-8.20687E-02-4.22719E-06-4.22719E-06
 -1      3781 6.65014E-02 6.65014E-02-5.22023E-05-8.20710E-02-4.01776E-06-4.01776E-06
 -1      3782 6.64996E-02 6.64996E-02-5.00601E-05-8.20725E-02-2.32732E-06-2.32732E-06
 -1      3783 9.18613E-02 4.11378E-02-5.00601E-05-7.80556E-02 2.66275E-06 1.93460E-06
 -1      3784 9.18627E-02 4.11400E-02-5.22023E-05-7.80542E-02 4.59681E-06 3.33978E-06
 -1      3785 9.18658E-02 4.11446E-02-5.34729E-05-7.80520E-02 4.83643E-06 3.51387E-06
 -1      3786 9.18684E-02 4.11484E-02-5.53145E-05-7.80499E-02 3.72123E-06 2.70363E-06
 -1      3787 9.18697E-02 4.11505E-02-5.66235E-05-7.80488E-02 1.39404E-06 1.01283E-06
 -1      3788 9.18697E-02 4.11505E-02-5.66235E-05-7.80488E-02-1.39404E-06-1.01283E-06
 -1      3789 9.18684E-02 4.11484E-02-5.53145E-05-7.80499E-02-3.72123E-06-2.70363E-06
 -1      3790 9.18658E-02 4.11446E-02-5.34729E-05-7.80520E-02-4.83643E-06-3.51387E-06
 -1      3791 9.18627E-02 4.11400E-02-5.22023E-05-7.80542E-02-4.59681E-06-3.33978E-06
 -1      3792 9.18613E-02 4.11378E-02-5.00601E-05-7.80556E-02-2.66275E-06-1.93460E-06
 -1      3793 1.14741E-01 1.82586E-02-5.00601E-05-6.63980E-02 2.93260E-06 1.49423E-06
 -1      3794 1.14741E-01 1.82612E-02-5.22023E-05-6.63968E-02 5.06267E-06 2.57956E-06
 -1      3795 1.14744E-01 1.82664E-02-5.34729E-05-6.63950E-02 5.32658E-06 2.71403E-06
 -1      3796 1.14746E-01 1.82709E-02-5.53145E-05-6.63932E-02 4.09836E-06 2.08822E-06
 -1      3797 1.14747E-01 1.82733E-02-5.66235E-05-6.63923E-02 1.53532E-06 7.82283E-07
 -1      3798 1.14747E-01 1.82733E-02-5.66235E-05-6.63923E-02-1.53532E-06-7.82283E-07
 -1      3799 1.14746E-01 1.82709E-02-5.53145E-05-6.63932E-02-4.09836E-06-2.08822E-06
 -1      3800 1.14744E-01 1.82664E-02-5.34729E-05-6.63950E-02-5.32658E-06-2.71403E-06
 -1      3801 1.14741E-01 1.82612E-02-5.22023E-05-6.63968E-02-5.06267E-06-2.57956E-06
 -1      3802 1.14741E-01 1.82586E-02-5.00601E-05-6.63980E-02-2.93260E-06-1.49423E-06
 -1      3803 1.32898E-01 1.01536E-04-5.00601E-05-4.82410E-02 3.13024E-06 1.01708E-06
 -1      3804 1.32898E-01 1.04534E-04-5.22023E-05-4.82401E-02 5.40388E-06 1.75583E-06
 -1      3805 1.32900E-01 1.10211E-04-5.34729E-05-4.82388E-02 5.68556E-06 1.84735E-06
 -1      3806 1.32902E-01 1.15143E-04-5.53145E-05-4.82375E-02 4.37457E-06 1.42138E-06
 -1      3807 1.32902E-01 1.17863E-04-5.66235E-05-4.82368E-02 1.63879E-06 5.32475E-07
 -1      3808 1.32902E-01 1.17863E-04-5.66235E-05-4.82368E-02-1.63879E-06-5.32475E-07
 -1      3809 1.32902E-01 1.15143E-04-5.53145E-05-4.82375E-02-4.37457E-06-1.42138E-06
 -1      3810 1.32900E-01 1.10211E-04-5.34729E-05-4.82388E-02-5.68556E-06-1.84735E-06
 -1      3811 1.32898E-01 1.04534E-04-5.22023E-05-4.82401E-02-5.40388E-06-1.75583E-06
 -1      3812 1.32898E-01 1.01536E-04-5.00601E-05-4.82410E-02-3.13024E-06-1.01708E-06
 -1      3813 1.44555E-01-1.15560E-02-5.00601E-05-2.53618E-02 3.25081E-06 5.14878E-07
 -1      3814 1.44556E-01-1.15528E-02-5.22023E-05-2.53613E-02 5.61202E-06 8.88856E-07
 -1      3815 1.44557E-01-1.15468E-02-5.34729E-05-2.53606E-02 5.90456E-06 9.35190E-07
 -1      3816 1.44558E-01-1.15416E-02-5.53145E-05-2.53600E-02 4.54306E-06 7.19550E-07
 -1      3817 1.44559E-01-1.15387E-02-5.66235E-05-2.53596E-02 1.70191E-06 2.69556E-07
 -1      3818 1.44559E-01-1.15387E-02-5.66235E-05-2.53596E-02-1.70191E-06-2.69556E-07
 -1      3819 1.44558E-01-1.15416E-02-5.53145E-05-2.53600E-02-4.54306E-06-7.19550E-07
 -1      3820 1.44557E-01-1.15468E-02-5.34729E-05-2.53606E-02-5.90456E-06-9.35190E-07
 -1      3821 1.44556E-01-1.15528E-02-5.22023E-05-2.53613E-02-5.61202E-06-8.88856E-07
 -1      3822 1.44555E-01-1.15560E-02-5.00601E-05-2.53618E-02-3.25081E-06-5.14878E-07
 -1      3823-7.40439E-03 1.40393E-01-5.03168E-05-2.40112E-02 1.36445E-06 8.61481E-06
 -1      3824-7.38295E-03 1.40401E-01-4.84949E-05-2.40090E-02 2.20551E-06 1.39251E-05
 -1      3825-7.36707E-03 1.40405E-01-5.47293E-05-2.40070E-02 2.37259E-06 1.49799E-05
 -1      3826-7.35721E-03 1.40406E-01-6.06305E-05-2.40057E-02 1.70824E-06 1.07854E-05
 -1      3827-7.35256E-03 1.40407E-01-6.37597E-05-2.40050E-02 6.10929E-07 3.85725E-06
 -1      3828-7.35256E-03 1.40407E-01-6.37597E-05-2.40050E-02-6.10929E-07-3.85725E-06
 -1      3829-7.35721E-03 1.40406E-01-6.06305E-05-2.40057E-02-1.70824E-06-1.07854E-05
 -1      3830-7.36707E-03 1.40405E-01-5.47293E-05-2.40070E-02-2.37259E-06-1.49799E-05
 -1      3831-7.38295E-03 1.40401E-01-4.84949E-05-2.40090E-02-2.20551E-06-1.39251E-05
 -1      3832-7.40439E-03 1.40393E-01-5.03168E-05-2.40112E-02-1.36445E-06-8.61481E-06
 -1      3833 3.63236E-03 1.29357E-01-5.03168E-05-4.56721E-02 2.69531E-06 8.29530E-06
 -1      3834 3.65277E-03 1.29365E-01-4.84949E-05-4.56678E-02 4.35672E-06 1.34086E-05
 -1      3835 3.66773E-03 1.29370E-01-5.47293E-05-4.56640E-02 4.68676E-06 1.44244E-05
 -1      3836 3.67698E-03 1.29372E-01-6.06305E-05-4.56615E-02 3.37441E-06 1.03854E-05
 -1      3837 3.68134E-03 1.29373E-01-6.37597E-05-4.56603E-02 1.20681E-06 3.71419E-06
 -1      3838 3.68134E-03 1.29373E-01-6.37597E-05-4.56603E-02-1.20681E-06-3.71419E-06
 -1      3839 3.67698E-03 1.29372E-01-6.06305E-05-4.56615E-02-3.37441E-06-1.03854E-05
 -1      3840 3.66773E-03 1.29370E-01-5.47293E-05-4.56640E-02-4.68676E-06-1.44244E-05
 -1      3841 3.65277E-03 1.29365E-01-4.84949E-05-4.56678E-02-4.35672E-06-1.34086E-05
 -1      3842 3.63236E-03 1.29357E-01-5.03168E-05-4.56721E-02-2.69531E-06-8.29530E-06
 -1      3843 2.08225E-02 1.12167E-01-5.03168E-05-6.28622E-02 3.95979E-06 7.77153E-06
 -1      3844 2.08413E-02 1.12177E-01-4.84949E-05-6.28563E-02 6.40065E-06 1.25620E-05
 -1      3845 2.08548E-02 1.12183E-01-5.47293E-05-6.28511E-02 6.88552E-06 1.35136E-05
 -1      3846 2.08631E-02 1.12186E-01-6.06305E-05-6.28476E-02 4.95750E-06 9.72964E-06
 -1      3847 2.08670E-02 1.12188E-01-6.37597E-05-6.28460E-02 1.77298E-06 3.47968E-06
 -1      3848 2.08670E-02 1.12188E-01-6.37597E-05-6.28460E-02-1.77298E-06-3.47968E-06
 -1      3849 2.08631E-02 1.12186E-01-6.06305E-05-6.28476E-02-4.95750E-06-9.72964E-06
 -1      3850 2.08548E-02 1.12183E-01-5.47293E-05-6.28511E-02-6.88552E-06-1.35136E-05
 -1      3851 2.08413E-02 1.12177E-01-4.84949E-05-6.28563E-02-6.40065E-06-1.25620E-05
 -1      3852 2.08225E-02 1.12167E-01-5.03168E-05-6.28622E-02-3.95979E-06-7.77153E-06
 -1      3853 4.24833E-02 9.05058E-02-5.03168E-05-7.38989E-02 5.12678E-06 7.05641E-06
 -1      3854 4.25001E-02 9.05180E-02-4.84949E-05-7.38920E-02 8.28698E-06 1.14060E-05
 -1      3855 4.25118E-02 9.05258E-02-5.47293E-05-7.38859E-02 8.91474E-06 1.22701E-05
 -1      3856 4.25190E-02 9.05303E-02-6.06305E-05-7.38818E-02 6.41852E-06 8.83433E-06
 -1      3857 4.25223E-02 9.05323E-02-6.37597E-05-7.38799E-02 2.29550E-06 3.15948E-06
 -1      3858 4.25223E-02 9.05323E-02-6.37597E-05-7.38799E-02-2.29550E-06-3.15948E-06
 -1      3859 4.25190E-02 9.05303E-02-6.06305E-05-7.38818E-02-6.41852E-06-8.83433E-06
 -1      3860 4.25118E-02 9.05258E-02-5.47293E-05-7.38859E-02-8.91474E-06-1.22701E-05
 -1      3861 4.25001E-02 9.05180E-02-4.84949E-05-7.38920E-02-8.28698E-06-1.14060E-05
 -1      3862 4.24833E-02 9.05058E-02-5.03168E-05-7.38989E-02-5.12678E-06-7.05641E-06
 -1      3863 6.64945E-02 6.64945E-02-5.03168E-05-7.77019E-02 6.16753E-06 6.16752E-06
 -1      3864 6.65091E-02 6.65091E-02-4.84949E-05-7.76947E-02 9.96925E-06 9.96925E-06
 -1      3865 6.65188E-02 6.65188E-02-5.47293E-05-7.76882E-02 1.07245E-05 1.07245E-05
 -1      3866 6.65246E-02 6.65246E-02-6.06305E-05-7.76839E-02 7.72149E-06 7.72149E-06
 -1      3867 6.65273E-02 6.65273E-02-6.37597E-05-7.76819E-02 2.76149E-06 2.76149E-06
 -1      3868 6.65273E-02 6.65273E-02-6.37597E-05-7.76819E-02-2.76149E-06-2.76149E-06
 -1      3869 6.65246E-02 6.65246E-02-6.06305E-05-7.76839E-02-7.72149E-06-7.72149E-06
 -1      3870 6.65188E-02 6.65188E-02-5.47293E-05-7.76882E-02-1.07245E-05-1.07245E-05
 -1      3871 6.65091E-02 6.65091E-02-4.84949E-05-7.76947E-02-9.96925E-06-9.96925E-06
 -1      3872 6.64945E-02 6.64945E-02-5.03168E-05-7.77019E-02-6.16753E-06-6.16752E-06
 -1      3873 9.05058E-02 4.24833E-02-5.03168E-05-7.38989E-02 7.05641E-06 5.12678E-06
 -1      3874 9.05180E-02 4.25001E-02-4.84949E-05-7.38920E-02 1.14060E-05 8.28698E-06
 -1      3875 9.05258E-02 4.25118E-02-5.47293E-05-7.38859E-02 1.22701E-05 8.91474E-06
 -1      3876 9.05303E-02 4.25190E-02-6.06305E-05-7.38818E-02 8.83433E-06 6.41852E-06
 -1      3877 9.05323E-02 4.25223E-02-6.37597E-05-7.38799E-02 3.15948E-06 2.29550E-06
 -1      3878 9.05323E-02 4.25223E-02-6.37597E-05-7.38799E-02-3.15948E-06-2.29550E-06
 -1      3879 9.05303E-02 4.25190E-02-6.06305E-05-7.38818E-02-8.83433E-06-6.41852E-06
 -1      3880 9.05258E-02 4.25118E-02-5.47293E-05-7.38859E-02-1.22701E-05-8.91474E-06
 -1      3881 9.05180E-02 4.25001E-02-4.84949E-05-7.38920E-02-1.14060E-05-8.28698E-06
 -1      3882 9.05058E-02 4.24833E-02-5.03168E-05-7.38989E-02-7.05641E-06-5.12678E-06
 -1      3883 1.12167E-01 2.08225E-02-5.03168E-05-6.28622E-02 7.77153E-06 3.95979E-06
 -1      3884 1.12177E-01 2.08413E-02-4.84949E-05-6.28563E-02 1.25620E-05 6.40065E-06
 -1      3885 1.12183E-01 2.08548E-02-5.47293E-05-6.28511E-02 1.35136E-05 6.88552E-06
 -1      3886 1.12186E-01 2.08631E-02-6.06305E-05-6.28476E-02 9.72964E-06 4.95750E-06
 -1      3887 1.12188E-01 2.08670E-02-6.37597E-05-6.28460E-02 3.47968E-06 1.77298E-06
 -1      3888 1.12188E-01 2.08670E-02-6.37597E-05-6.28460E-02-3.47968E-06-1.77298E-06
 -1      3889 1.12186E-01 2.08631E-02-6.06305E-05-6.28476E-02-9.72964E-06-4.95750E-06
 -1      3890 1.12183E-01 2.08548E-02-5.47293E-05-6.28511E-02-1.35136E-05-6.88552E-06
 -1      3891 1.12177E-01 2.08413E-02-4.84949E-05-6.28563E-02-1.25620E-05-6.40065E-06
 -1      3892 1.12167E-01 2.08225E-02-5.03168E-05-6.28622E-02-7.77153E-06-3.95979E-06
 -1      3893 1.29357E-01 3.63236E-03-5.03168E-05-4.56721E-02 8.29530E-06 2.69531E-06
 -1      3894 1.29365E-01 3.65277E-03-4.84949E-05-4.56678E-02 1.34086E-05 4.35672E-06
 -1      3895 1.29370E-01 3.66773E-03-5.47293E-05-4.56640E-02 1.44244E-05 4.68676E-06
 -1      3896 1.29372E-01 3.67698E-03-6.06305E-05-4.56615E-02 1.03854E-05 3.37441E-06
 -1      3897 1.29373E-01 3.68134E-03-6.37597E-05-4.56603E-02 3.71419E-06 1.20681E-06
 -1      3898 1.29373E-01 3.68134E-03-6.37597E-05-4.56603E-02-3.71419E-06-1.20681E-06
 -1      3899 1.29372E-01 3.67698E-03-6.06305E-05-4.56615E-02-1.03854E-05-3.37441E-06
 -1      3900 1.29370E-01 3.66773E-03-5.47293E-05-4.56640E-02-1.44244E-05-4.68676E-06
 -1      3901 1.29365E-01 3.65277E-03-4.84949E-05-4.56678E-02-1.34086E-05-4.35672E-06
 -1      3902 1.29357E-01 3.63236E-03-5.03168E-05-4.56721E-02-8.29530E-06-2.69531E-06
 -1      3903 1.40393E-01-7.40439E-03-5.03168E-05-2.40112E-02 8.61481E-06 1.36445E-06
 -1      3904 1.40401E-01-7.38295E-03-4.84949E-05-2.40090E-02 1.39251E-05 2.20551E-06
 -1      3905 1.40405E-01-7.36707E-03-5.47293E-05-2.40070E-02 1.49799E-05 2.37259E-06
 -1      3906 1.40406E-01-7.35721E-03-6.06305E-05-2.40057E-02 1.07854E-05 1.70824E-06
 -1      3907 1.40407E-01-7.35256E-03-6.37597E-05-2.40050E-02 3.85725E-06 6.10929E-07
 -1      3908 1.40407E-01-7.35256E-03-6.37597E-05-2.40050E-02-3.85725E-06-6.10929E-07
 -1      3909 1.40406E-01-7.35721E-03-6.06305E-05-2.40057E-02-1.07854E-05-1.70824E-06
 -1      3910 1.40405E-01-7.36707E-03-5.47293E-05-2.40070E-02-1.49799E-05-2.37259E-06
 -1      3911 1.40401E-01-7.38295E-03-4.84949E-05-2.40090E-02-1.39251E-05-2.20551E-06
 -1      3912 1.40393E-01-7.40439E-03-5.03168E-05-2.40112E-02-8.61481E-06-1.36445E-06
 -1      3913-3.56126E-03 1.36567E-01-2.82297E-05-2.27651E-02 1.89333E-06 1.19540E-05
 -1      3914-3.53063E-03 1.36571E-01-5.18193E-05-2.27608E-02 3.50949E-06 2.21580E-05
 -1      3915-3.51344E-03 1.36575E-01-5.96674E-05-2.27587E-02 2.68075E-06 1.69256E-05
 -1      3916-3.50419E-03 1.36578E-01-5.92953E-05-2.27578E-02 1.51155E-06 9.54352E-06
 -1      3917-3.50016E-03 1.36581E-01-5.75135E-05-2.27575E-02 4.75651E-07 3.00314E-06
 -1      3918-3.50016E-03 1.36581E-01-5.75135E-05-2.27575E-02-4.75651E-07-3.00314E-06
 -1      3919-3.50419E-03 1.36578E-01-5.92953E-05-2.27578E-02-1.51155E-06-9.54352E-06
 -1      3920-3.51344E-03 1.36575E-01-5.96674E-05-2.27587E-02-2.68075E-06-1.69256E-05
 -1      3921-3.53063E-03 1.36571E-01-5.18193E-05-2.27608E-02-3.50949E-06-2.21580E-05
 -1      3922-3.56126E-03 1.36567E-01-2.82297E-05-2.27651E-02-1.89333E-06-1.19540E-05
 -1      3923 6.90273E-03 1.26103E-01-2.82297E-05-4.33019E-02 3.74003E-06 1.15106E-05
 -1      3924 6.93137E-03 1.26109E-01-5.18193E-05-4.32936E-02 6.93256E-06 2.13362E-05
 -1      3925 6.94759E-03 1.26114E-01-5.96674E-05-4.32896E-02 5.29549E-06 1.62978E-05
 -1      3926 6.95642E-03 1.26118E-01-5.92953E-05-4.32879E-02 2.98587E-06 9.18957E-06
 -1      3927 6.96031E-03 1.26120E-01-5.75135E-05-4.32873E-02 9.39589E-07 2.89176E-06
 -1      3928 6.96031E-03 1.26120E-01-5.75135E-05-4.32873E-02-9.39589E-07-2.89176E-06
 -1      3929 6.95642E-03 1.26118E-01-5.92953E-05-4.32879E-02-2.98587E-06-9.18957E-06
 -1      3930 6.94759E-03 1.26114E-01-5.96674E-05-4.32896E-02-5.29549E-06-1.62978E-05
 -1      3931 6.93137E-03 1.26109E-01-5.18193E-05-4.32936E-02-6.93256E-06-2.13362E-05
 -1      3932 6.90273E-03 1.26103E-01-2.82297E-05-4.33019E-02-3.74003E-06-1.15106E-05
 -1      3933 2.32008E-02 1.09804E-01-2.82297E-05-5.95999E-02 5.49465E-06 1.07839E-05
 -1      3934 2.32263E-02 1.09814E-01-5.18193E-05-5.95886E-02 1.01849E-05 1.99891E-05
 -1      3935 2.32410E-02 1.09820E-01-5.96674E-05-5.95830E-02 7.77984E-06 1.52688E-05
 -1      3936 2.32492E-02 1.09825E-01-5.92953E-05-5.95807E-02 4.38668E-06 8.60934E-06
 -1      3937 2.32529E-02 1.09828E-01-5.75135E-05-5.95799E-02 1.38039E-06 2.70917E-06
 -1      3938 2.32529E-02 1.09828E-01-5.75135E-05-5.95799E-02-1.38039E-06-2.70917E-06
 -1      3939 2.32492E-02 1.09825E-01-5.92953E-05-5.95807E-02-4.38668E-06-8.60934E-06
 -1      3940 2.32410E-02 1.09820E-01-5.96674E-05-5.95830E-02-7.77984E-06-1.52688E-05
 -1      3941 2.32263E-02 1.09814E-01-5.18193E-05-5.95886E-02-1.01849E-05-1.99891E-05
 -1      3942 2.32008E-02 1.09804E-01-2.82297E-05-5.95999E-02-5.49465E-06-1.07839E-05
 -1      3943 4.37375E-02 8.92678E-02-2.82297E-05-7.00639E-02 7.11397E-06 9.79154E-06
 -1      3944 4.37591E-02 8.92808E-02-5.18193E-05-7.00506E-02 1.31865E-05 1.81497E-05
 -1      3945 4.37719E-02 8.92893E-02-5.96674E-05-7.00441E-02 1.00726E-05 1.38638E-05
 -1      3946 4.37793E-02 8.92949E-02-5.92953E-05-7.00413E-02 5.67946E-06 7.81711E-06
 -1      3947 4.37827E-02 8.92977E-02-5.75135E-05-7.00404E-02 1.78720E-06 2.45988E-06
 -1      3948 4.37827E-02 8.92977E-02-5.75135E-05-7.00404E-02-1.78720E-06-2.45988E-06
 -1      3949 4.37793E-02 8.92949E-02-5.92953E-05-7.00413E-02-5.67946E-06-7.81711E-06
 -1      3950 4.37719E-02 8.92893E-02-5.96674E-05-7.00441E-02-1.00726E-05-1.38638E-05
 -1      3951 4.37591E-02 8.92808E-02-5.18193E-05-7.00506E-02-1.31865E-05-1.81497E-05
 -1      3952 4.37375E-02 8.92678E-02-2.82297E-05-7.00639E-02-7.11397E-06-9.79154E-06
 -1      3953 6.65026E-02 6.65026E-02-2.82297E-05-7.36695E-02 8.55812E-06 8.55812E-06
 -1      3954 6.65199E-02 6.65199E-02-5.18193E-05-7.36555E-02 1.58634E-05 1.58634E-05
 -1      3955 6.65306E-02 6.65306E-02-5.96674E-05-7.36487E-02 1.21174E-05 1.21174E-05
 -1      3956 6.65371E-02 6.65371E-02-5.92953E-05-7.36458E-02 6.83241E-06 6.83241E-06
 -1      3957 6.65402E-02 6.65402E-02-5.75135E-05-7.36448E-02 2.15001E-06 2.15001E-06
 -1      3958 6.65402E-02 6.65402E-02-5.75135E-05-7.36448E-02-2.15001E-06-2.15001E-06
 -1      3959 6.65371E-02 6.65371E-02-5.92953E-05-7.36458E-02-6.83241E-06-6.83241E-06
 -1      3960 6.65306E-02 6.65306E-02-5.96674E-05-7.36487E-02-1.21174E-05-1.21174E-05
 -1      3961 6.65199E-02 6.65199E-02-5.18193E-05-7.36555E-02-1.58634E-05-1.58634E-05
 -1      3962 6.65026E-02 6.65026E-02-2.82297E-05-7.36695E-02-8.55812E-06-8.55812E-06
 -1      3963 8.92678E-02 4.37375E-02-2.82297E-05-7.00639E-02 9.79154E-06 7.11397E-06
 -1      3964 8.92808E-02 4.37591E-02-5.18193E-05-7.00506E-02 1.81497E-05 1.31865E-05
 -1      3965 8.92893E-02 4.37719E-02-5.96674E-05-7.00441E-02 1.38638E-05 1.00726E-05
 -1      3966 8.92949E-02 4.37793E-02-5.92953E-05-7.00413E-02 7.81711E-06 5.67946E-06
 -1      3967 8.92977E-02 4.37827E-02-5.75135E-05-7.00404E-02 2.45988E-06 1.78720E-06
 -1      3968 8.92977E-02 4.37827E-02-5.75135E-05-7.00404E-02-2.45988E-06-1.78720E-06
 -1      3969 8.92949E-02 4.37793E-02-5.92953E-05-7.00413E-02-7.81711E-06-5.67946E-06
 -1      3970 8.92893E-02 4.37719E-02-5.96674E-05-7.00441E-02-1.38638E-05-1.00726E-05
 -1      3971 8.92808E-02 4.37591E-02-5.18193E-05-7.00506E-02-1.81497E-05-1.31865E-05
 -1      3972 8.92678E-02 4.37375E-02-2.82297E-05-7.00639E-02-9.79154E-06-7.11397E-06
 -1      3973 1.09804E-01 2.32008E-02-2.82297E-05-5.95999E-02 1.07839E-05 5.49465E-06
 -1      3974 1.09814E-01 2.32263E-02-5.18193E-05-5.95886E-02 1.99891E-05 1.01849E-05
 -1      3975 1.09820E-01 2.32410E-02-5.96674E-05-5.95830E-02 1.52688E-05 7.77984E-06
 -1      3976 1.09825E-01 2.32492E-02-5.92953E-05-5.95807E-02 8.60934E-06 4.38668E-06
 -1      3977 1.09828E-01 2.32529E-02-5.75135E-05-5.95799E-02 2.70917E-06 1.38039E-06
 -1      3978 1.09828E-01 2.32529E-02-5.75135E-05-5.95799E-02-2.70917E-06-1.38039E-06
 -1      3979 1.09825E-01 2.32492E-02-5.92953E-05-5.95807E-02-8.60934E-06-4.38668E-06
 -1      3980 1.09820E-01 2.32410E-02-5.96674E-05-5.95830E-02-1.52688E-05-7.77984E-06
 -1      3981 1.09814E-01 2.32263E-02-5.18193E-05-5.95886E-02-1.99891E-05-1.01849E-05
 -1      3982 1.09804E-01 2.32008E-02-2.82297E-05-5.95999E-02-1.07839E-05-5.49465E-06
 -1      3983 1.26103E-01 6.90273E-03-2.82297E-05-4.33019E-02 1.15106E-05 3.74003E-06
 -1      3984 1.26109E-01 6.93137E-03-5.18193E-05-4.32936E-02 2.13362E-05 6.93256E-06
 -1      3985 1.26114E-01 6.94759E-03-5.96674E-05-4.32896E-02 1.62978E-05 5.29549E-06
 -1      3986 1.26118E-01 6.95642E-03-5.92953E-05-4.32879E-02 9.18957E-06 2.98587E-06
 -1      3987 1.26120E-01 6.96031E-03-5.75135E-05-4.32873E-02 2.89176E-06 9.39589E-07
 -1      3988 1.26120E-01 6.96031E-03-5.75135E-05-4.32873E-02-2.89176E-06-9.39589E-07
 -1      3989 1.26118E-01 6.95642E-03-5.92953E-05-4.32879E-02-9.18957E-06-2.98587E-06
 -1      3990 1.26114E-01 6.94759E-03-5.96674E-05-4.32896E-02-1.62978E-05-5.29549E-06
 -1      3991 1.26109E-01 6.93137E-03-5.18193E-05-4.32936E-02-2.13362E-05-6.93256E-06
 -1      3992 1.26103E-01 6.90273E-03-2.82297E-05-4.33019E-02-1.15106E-05-3.74003E-06
 -1      3993 1.36567E-01-3.56126E-03-2.82297E-05-2.27651E-02 1.19540E-05 1.89333E-06
 -1      3994 1.36571E-01-3.53063E-03-5.18193E-05-2.27608E-02 2.21580E-05 3.50949E-06
 -1      3995 1.36575E-01-3.51344E-03-5.96674E-05-2.27587E-02 1.69256E-05 2.68075E-06
 -1      3996 1.36578E-01-3.50419E-03-5.92953E-05-2.27578E-02 9.54352E-06 1.51155E-06
 -1      3997 1.36581E-01-3.50016E-03-5.75135E-05-2.27575E-02 3.00314E-06 4.75651E-07
 -1      3998 1.36581E-01-3.50016E-03-5.75135E-05-2.27575E-02-3.00314E-06-4.75651E-07
 -1      3999 1.36578E-01-3.50419E-03-5.92953E-05-2.27578E-02-9.54352E-06-1.51155E-06
 -1      4000 1.36575E-01-3.51344E-03-5.96674E-05-2.27587E-02-1.69256E-05-2.68075E-06
 -1      4001 1.36571E-01-3.53063E-03-5.18193E-05-2.27608E-02-2.21580E-05-3.50949E-06
 -1      4002 1.36567E-01-3.56126E-03-2.82297E-05-2.27651E-02-1.19540E-05-1.89333E-06
 -1      4003-8.83834E-05 1.32972E-01-1.22201E-04-2.16169E-02-1.60374E-06-1.01256E-05
 -1      4004-1.64809E-05 1.33017E-01-5.30724E-05-2.16126E-02-2.69065E-06-1.69881E-05
 -1      4005 2.07635E-05 1.33046E-01 1.34217E-06-2.16112E-02-2.76688E-06-1.74694E-05
 -1      4006 3.89593E-05 1.33062E-01 3.48866E-05-2.16109E-02-1.96360E-06-1.23977E-05
 -1      4007 4.63172E-05 1.33069E-01 5.04189E-05-2.16109E-02-7.00132E-07-4.42046E-06
 -1      4008 4.63172E-05 1.33069E-01 5.04189E-05-2.16109E-02 7.00132E-07 4.42046E-06
 -1      4009 3.89593E-05 1.33062E-01 3.48866E-05-2.16109E-02 1.96360E-06 1.23977E-05
 -1      4010 2.07635E-05 1.33046E-01 1.34217E-06-2.16112E-02 2.76688E-06 1.74694E-05
 -1      4011-1.64809E-05 1.33017E-01-5.30724E-05-2.16126E-02 2.69065E-06 1.69881E-05
 -1      4012-8.83834E-05 1.32972E-01-1.22201E-04-2.16169E-02 1.60374E-06 1.01256E-05
 -1      4013 9.84782E-03 1.23035E-01-1.22201E-04-4.11178E-02-3.16799E-06-9.75008E-06
 -1      4014 9.91773E-03 1.23083E-01-5.30724E-05-4.11096E-02-5.31506E-06-1.63581E-05
 -1      4015 9.95436E-03 1.23112E-01 1.34217E-06-4.11070E-02-5.46564E-06-1.68215E-05
 -1      4016 9.97242E-03 1.23129E-01 3.48866E-05-4.11064E-02-3.87885E-06-1.19379E-05
 -1      4017 9.97976E-03 1.23136E-01 5.04189E-05-4.11064E-02-1.38302E-06-4.25651E-06
 -1      4018 9.97976E-03 1.23136E-01 5.04189E-05-4.11064E-02 1.38302E-06 4.25651E-06
 -1      4019 9.97242E-03 1.23129E-01 3.48866E-05-4.11064E-02 3.87885E-06 1.19379E-05
 -1      4020 9.95436E-03 1.23112E-01 1.34217E-06-4.11070E-02 5.46564E-06 1.68215E-05
 -1      4021 9.91773E-03 1.23083E-01-5.30724E-05-4.11096E-02 5.31506E-06 1.63581E-05
 -1      4022 9.84782E-03 1.23035E-01-1.22201E-04-4.11178E-02 3.16799E-06 9.75008E-06
 -1      4023 2.53238E-02 1.07559E-01-1.22201E-04-5.65938E-02-4.65424E-06-9.13445E-06
 -1      4024 2.53906E-02 1.07610E-01-5.30724E-05-5.65825E-02-7.80858E-06-1.53252E-05
 -1      4025 2.54263E-02 1.07640E-01 1.34217E-06-5.65790E-02-8.02981E-06-1.57594E-05
 -1      4026 2.54441E-02 1.07657E-01 3.48866E-05-5.65782E-02-5.69860E-06-1.11841E-05
 -1      4027 2.54515E-02 1.07664E-01 5.04189E-05-5.65781E-02-2.03186E-06-3.98776E-06
 -1      4028 2.54515E-02 1.07664E-01 5.04189E-05-5.65781E-02 2.03186E-06 3.98776E-06
 -1      4029 2.54441E-02 1.07657E-01 3.48866E-05-5.65782E-02 5.69860E-06 1.11841E-05
 -1      4030 2.54263E-02 1.07640E-01 1.34217E-06-5.65790E-02 8.02981E-06 1.57594E-05
 -1      4031 2.53906E-02 1.07610E-01-5.30724E-05-5.65825E-02 7.80858E-06 1.53252E-05
 -1      4032 2.53238E-02 1.07559E-01-1.22201E-04-5.65938E-02 4.65424E-06 9.13445E-06
 -1      4033 4.48247E-02 8.80585E-02-1.22201E-04-6.65300E-02-6.02588E-06-8.29391E-06
 -1      4034 4.48876E-02 8.81128E-02-5.30724E-05-6.65167E-02-1.01098E-05-1.39150E-05
 -1      4035 4.49221E-02 8.81446E-02 1.34217E-06-6.65126E-02-1.03963E-05-1.43092E-05
 -1      4036 4.49396E-02 8.81615E-02 3.48866E-05-6.65116E-02-7.37802E-06-1.01550E-05
 -1      4037 4.49469E-02 8.81688E-02 5.04189E-05-6.65115E-02-2.63067E-06-3.62081E-06
 -1      4038 4.49469E-02 8.81688E-02 5.04189E-05-6.65115E-02 2.63067E-06 3.62081E-06
 -1      4039 4.49396E-02 8.81615E-02 3.48866E-05-6.65116E-02 7.37802E-06 1.01550E-05
 -1      4040 4.49221E-02 8.81446E-02 1.34217E-06-6.65126E-02 1.03963E-05 1.43092E-05
 -1      4041 4.48876E-02 8.81128E-02-5.30724E-05-6.65167E-02 1.01098E-05 1.39150E-05
 -1      4042 4.48247E-02 8.80585E-02-1.22201E-04-6.65300E-02 6.02588E-06 8.29391E-06
 -1      4043 6.64416E-02 6.64416E-02-1.22201E-04-6.99538E-02-7.24914E-06-7.24914E-06
 -1      4044 6.65002E-02 6.65002E-02-5.30724E-05-6.99398E-02-1.21622E-05-1.21622E-05
 -1      4045 6.65333E-02 6.65333E-02 1.34217E-06-6.99355E-02-1.25067E-05-1.25067E-05
 -1      4046 6.65506E-02 6.65506E-02 3.48866E-05-6.99345E-02-8.87577E-06-8.87577E-06
 -1      4047 6.65579E-02 6.65579E-02 5.04189E-05-6.99344E-02-3.16470E-06-3.16470E-06
 -1      4048 6.65579E-02 6.65579E-02 5.04189E-05-6.99344E-02 3.16470E-06 3.16470E-06
 -1      4049 6.65506E-02 6.65506E-02 3.48866E-05-6.99345E-02 8.87577E-06 8.87577E-06
 -1      4050 6.65333E-02 6.65333E-02 1.34217E-06-6.99355E-02 1.25067E-05 1.25067E-05
 -1      4051 6.65002E-02 6.65002E-02-5.30724E-05-6.99398E-02 1.21622E-05 1.21622E-05
 -1      4052 6.64416E-02 6.64416E-02-1.22201E-04-6.99538E-02 7.24914E-06 7.24914E-06
 -1      4053 8.80585E-02 4.48247E-02-1.22201E-04-6.65300E-02-8.29391E-06-6.02588E-06
 -1      4054 8.81128E-02 4.48876E-02-5.30724E-05-6.65167E-02-1.39150E-05-1.01098E-05
 -1      4055 8.81446E-02 4.49221E-02 1.34217E-06-6.65126E-02-1.43092E-05-1.03963E-05
 -1      4056 8.81615E-02 4.49396E-02 3.48866E-05-6.65116E-02-1.01550E-05-7.37802E-06
 -1      4057 8.81688E-02 4.49469E-02 5.04189E-05-6.65115E-02-3.62081E-06-2.63067E-06
 -1      4058 8.81688E-02 4.49469E-02 5.04189E-05-6.65115E-02 3.62081E-06 2.63067E-06
 -1      4059 8.81615E-02 4.49396E-02 3.48866E-05-6.65116E-02 1.01550E-05 7.37802E-06
 -1      4060 8.81446E-02 4.49221E-02 1.34217E-06-6.65126E-02 1.43092E-05 1.03963E-05
 -1      4061 8.81128E-02 4.48876E-02-5.30724E-05-6.65167E-02 1.39150E-05 1.01098E-05
 -1      4062 8.80585E-02 4.48247E-02-1.22201E-04-6.65300E-02 8.29391E-06 6.02588E-06
 -1      4063 1.07559E-01 2.53238E-02-1.22201E-04-5.65938E-02-9.13445E-06-4.65424E-06
 -1      4064 1.07610E-01 2.53906E-02-5.30724E-05-5.65825E-02-1.53252E-05-7.80858E-06
 -1      4065 1.07640E-01 2.54263E-02 1.34217E-06-5.65790E-02-1.57594E-05-8.02981E-06
 -1      4066 1.07657E-01 2.54441E-02 3.48866E-05-5.65782E-02-1.11841E-05-5.69860E-06
 -1      4067 1.07664E-01 2.54515E-02 5.04189E-05-5.65781E-02-3.98776E-06-2.03186E-06
 -1      4068 1.07664E-01 2.54515E-02 5.04189E-05-5.65781E-02 3.98776E-06 2.03186E-06
 -1      4069 1.07657E-01 2.54441E-02 3.48866E-05-5.65782E-02 1.11841E-05 5.69860E-06
 -1      4070 1.07640E-01 2.54263E-02 1.34217E-06-5.65790E-02 1.57594E-05 8.02981E-06
 -1      4071 1.07610E-01 2.53906E-02-5.30724E-05-5.65825E-02 1.53252E-05 7.80858E-06
 -1      4072 1.07559E-01 2.53238E-02-1.22201E-04-5.65938E-02 9.13445E-06 4.65424E-06
 -1      4073 1.23035E-01 9.84782E-03-1.22201E-04-4.11178E-02-9.75008E-06-3.16799E-06
 -1      4074 1.23083E-01 9.91773E-03-5.30724E-05-4.11096E-02-1.63581E-05-5.31506E-06
 -1      4075 1.23112E-01 9.95436E-03 1.34217E-06-4.11070E-02-1.68215E-05-5.46564E-06
 -1      4076 1.23129E-01 9.97242E-03 3.48866E-05-4.11064E-02-1.19379E-05-3.87885E-06
 -1      4077 1.23136E-01 9.97976E-03 5.04189E-05-4.11064E-02-4.25651E-06-1.38302E-06
 -1      4078 1.23136E-01 9.97976E-03 5.04189E-05-4.11064E-02 4.25651E-06 1.38302E-06
 -1      4079 1.23129E-01 9.97242E-03 3.48866E-05-4.11064E-02 1.19379E-05 3.87885E-06
 -1      4080 1.23112E-01 9.95436E-03 1.34217E-06-4.11070E-02 1.68215E-05 5.46564E-06
 -1      4081 1.23083E-01 9.91773E-03-5.30724E-05-4.11096E-02 1.63581E-05 5.31506E-06
 -1      4082 1.23035E-01 9.84782E-03-1.22201E-04-4.11178E-02 9.75008E-06 3.16799E-06
 -1      4083 1.32972E-01-8.83834E-05-1.22201E-04-2.16169E-02-1.01256E-05-1.60374E-06
 -1      4084 1.33017E-01-1.64810E-05-5.30724E-05-2.16126E-02-1.69881E-05-2.69065E-06
 -1      4085 1.33046E-01 2.07635E-05 1.34217E-06-2.16112E-02-1.74694E-05-2.76688E-06
 -1      4086 1.33062E-01 3.89593E-05 3.48866E-05-2.16109E-02-1.23977E-05-1.96360E-06
 -1      4087 1.33069E-01 4.63172E-05 5.04189E-05-2.16109E-02-4.42046E-06-7.00132E-07
 -1      4088 1.33069E-01 4.63172E-05 5.04189E-05-2.16109E-02 4.42046E-06 7.00132E-07
 -1      4089 1.33062E-01 3.89593E-05 3.48866E-05-2.16109E-02 1.23977E-05 1.96360E-06
 -1      4090 1.33046E-01 2.07635E-05 1.34217E-06-2.16112E-02 1.74694E-05 2.76688E-06
 -1      4091 1.33017E-01-1.64810E-05-5.30724E-05-2.16126E-02 1.69881E-05 2.69065E-06
 -1      4092 1.32972E-01-8.83834E-05-1.22201E-04-2.16169E-02 1.01256E-05 1.60374E-06
 -3
    1PSTEP                         3           1           1          
  100CL  101 1.000000000        4092                     0    1           1
 -4  ERROR       1    1
 -5  STR(%)      1    1    0    0
 -1         1 4.96377E+00
 -1         2 7.75624E-01
 -1         3 7.75624E-01
 -1         4 4.96377E+00
 -1         5 4.96377E+00
 -1         6 7.75624E-01
 -1         7 7.75624E-01
 -1         8 4.96377E+00
 -1         9 4.96377E+00
 -1        10 4.86088E+00
 -1        11 4.33288E+00
 -1        12 4.00158E+00
 -1        13 3.68788E+00
 -1        14 3.41266E+00
 -1        15 3.16411E+00
 -1        16 2.94078E+00
 -1        17 2.73919E+00
 -1        18 2.55649E+00
 -1        19 2.39016E+00
 -1        20 2.23816E+00
 -1        21 2.09879E+00
 -1        22 1.97064E+00
 -1        23 1.85252E+00
 -1        24 1.74340E+00
 -1        25 1.64239E+00
 -1        26 1.54873E+00
 -1        27 1.46173E+00
 -1        28 1.38081E+00
 -1        29 1.30543E+00
 -1        30 1.23514E+00
 -1        31 1.16951E+00
 -1        32 1.10819E+00
 -1        33 1.05082E+00
 -1        34 9.96888E-01
 -1        35 9.46798E-01
 -1        36 8.97584E-01
 -1        37 8.71212E-01
 -1        38 7.75624E-01
 -1        39 7.75624E-01
 -1        40 7.75624E-01
 -1        41 7.75624E-01
 -1        42 7.75624E-01
 -1        43 7.75624E-01
 -1        44 7.75624E-01
 -1        45 7.75624E-01
 -1        46 7.75624E-01
 -1        47 8.71212E-01
 -1        48 8.97584E-01
 -1        49 9.46798E-01
 -1        50 9.96888E-01
 -1        51 1.05082E+00
 -1        52 1.10819E+00
 -1        53 1.16951E+00
 -1        54 1.23514E+00
 -1        55 1.30543E+00
 -1        56 1.38081E+00
 -1        57 1.46173E+00
 -1        58 1.54873E+00
 -1        59 1.64239E+00
 -1        60 1.74340E+00
 -1        61 1.85252E+00
 -1        62 1.97064E+00
 -1        63 2.09879E+00
 -1        64 2.23816E+00
 -1        65 2.39016E+00
 -1        66 2.55649E+00
 -1        67 2.73919E+00
 -1        68 2.94078E+00
 -1        69 3.16411E+00
 -1        70 3.41266E+00
 -1        71 3.68788E+00
 -1        72 4.00158E+00
 -1        73 4.33288E+00
 -1        74 4.86088E+00
 -1        75 4.96377E+00
 -1        76 4.96377E+00
 -1        77 4.96377E+00
 -1        78 4.96377E+00
 -1        79 4.96377E+00
 -1        80 4.96377E+00
 -1        81 4.96377E+00
 -1        82 4.96377E+00
 -1        83 4.96377E+00
 -1        84 4.96377E+00
 -1        85 4.96377E+00
 -1        86 4.86088E+00
 -1        87 4.33288E+00
 -1        88 4.00158E+00
 -1        89 3.68788E+00
 -1        90 3.41266E+00
 -1        91 3.16411E+00
 -1        92 2.94078E+00
 -1        93 2.73919E+00
 -1        94 2.55649E+00
 -1        95 2.39016E+00
 -1        96 2.23816E+00
 -1        97 2.09879E+00
 -1        98 1.97064E+00
 -1        99 1.85252E+00
 -1       100 1.74340E+00
 -1       101 1.64239E+00
 -1       102 1.54873E+00
 -1       103 1.46173E+00
 -1       104 1.38081E+00
 -1       105 1.30543E+00
 -1       106 1.23514E+00
 -1       107 1.16951E+00
 -1       108 1.10819E+00
 -1       109 1.05082E+00
 -1       110 9.96888E-01
 -1       111 9.46798E-01
 -1       112 8.97584E-01
 -1       113 8.71212E-01
 -1       114 7.75624E-01
 -1       115 7.75624E-01
 -1       116 7.75624E-01
 -1       117 7.75624E-01
 -1       118 7.75624E-01
 -1       119 7.75624E-01
 -1       120 7.75624E-01
 -1       121 7.75624E-01
 -1       122 7.75624E-01
 -1       123 8.71212E-01
 -1       124 8.97584E-01
 -1       125 9.46798E-01
 -1       126 9.96888E-01
 -1       127 1.05082E+00
 -1       128 1.10819E+00
 -1       129 1.16951E+00
 -1       130 1.23514E+00
 -1       131 1.30543E+00
 -1       132 1.38081E+00
 -1       133 1.46173E+00
 -1       134 1.54873E+00
 -1       135 1.64239E+00
 -1       136 1.74340E+00
 -1       137 1.85252E+00
 -1       138 1.97064E+00
 -1       139 2.09879E+00
 -1       140 2.23816E+00
 -1       141 2.39016E+00
 -1       142 2.55649E+00
 -1       143 2.73919E+00
 -1       144 2.94078E+00
 -1       145 3.16411E+00
 -1       146 3.41266E+00
 -1       147 3.68788E+00
 -1       148 4.00158E+00
 -1       149 4.33288E+00
 -1       150 4.86088E+00
 -1       151 4.96377E+00
 -1       152 4.96377E+00
 -1       153 4.96377E+00
 -1       154 4.96377E+00
 -1       155 4.96377E+00
 -1       156 4.96377E+00
 -1       157 4.96377E+00
 -1       158 4.96377E+00
 -1       159 4.96377E+00
 -1       160 4.96377E+00
 -1       161 5.04246E+00
 -1       162 5.19782E+00
 -1       163 5.31361E+00
 -1       164 5.37897E+00
 -1       165 5.39874E+00
 -1       166 5.39874E+00
 -1       167 5.37897E+00
 -1       168 5.31361E+00
 -1       169 5.19782E+00
 -1       170 5.04246E+00
 -1       171 7.79620E-01
 -1       172 7.86892E-01
 -1       173 7.92641E-01
 -1       174 7.96027E-01
 -1       175 7.97046E-01
 -1       176 7.97046E-01
 -1       177 7.96027E-01
 -1       178 7.92641E-01
 -1       179 7.86892E-01
 -1       180 7.79620E-01
 -1       181 7.79620E-01
 -1       182 7.86892E-01
 -1       183 7.92641E-01
 -1       184 7.96027E-01
 -1       185 7.97046E-01
 -1       186 7.97046E-01
 -1       187 7.96027E-01
 -1       188 7.92641E-01
 -1       189 7.86892E-01
 -1       190 7.79620E-01
 -1       191 5.04246E+00
 -1       192 5.19782E+00
 -1       193 5.31361E+00
 -1       194 5.37897E+00
 -1       195 5.39874E+00
 -1       196 5.39874E+00
 -1       197 5.37897E+00
 -1       198 5.31361E+00
 -1       199 5.19782E+00
 -1       200 5.04246E+00
 -1       201 4.96377E+00
 -1       202 4.96377E+00
 -1       203 4.96377E+00
 -1       204 4.96377E+00
 -1       205 4.96377E+00
 -1       206 4.96377E+00
 -1       207 4.96377E+00
 -1       208 4.96377E+00
 -1       209 4.96377E+00
 -1       210 4.86088E+00
 -1       211 4.86088E+00
 -1       212 4.86088E+00
 -1       213 4.86088E+00
 -1       214 4.86088E+00
 -1       215 4.86088E+00
 -1       216 4.86088E+00
 -1       217 4.86088E+00
 -1       218 4.86088E+00
 -1       219 4.33288E+00
 -1       220 4.33288E+00
 -1       221 4.33288E+00
 -1       222 4.33288E+00
 -1       223 4.33288E+00
 -1       224 4.33288E+00
 -1       225 4.33288E+00
 -1       226 4.33288E+00
 -1       227 4.33288E+00
 -1       228 4.00158E+00
 -1       229 4.00158E+00
 -1       230 4.00158E+00
 -1       231 4.00158E+00
 -1       232 4.00158E+00
 -1       233 4.00158E+00
 -1       234 4.00158E+00
 -1       235 4.00158E+00
 -1       236 4.00158E+00
 -1       237 3.68788E+00
 -1       238 3.68788E+00
 -1       239 3.68788E+00
 -1       240 3.68788E+00
 -1       241 3.68788E+00
 -1       242 3.68788E+00
 -1       243 3.68788E+00
 -1       244 3.68788E+00
 -1       245 3.68788E+00
 -1       246 3.41266E+00
 -1       247 3.41266E+00
 -1       248 3.41266E+00
 -1       249 3.41266E+00
 -1       250 3.41266E+00
 -1       251 3.41266E+00
 -1       252 3.41266E+00
 -1       253 3.41266E+00
 -1       254 3.41266E+00
 -1       255 3.16411E+00
 -1       256 3.16411E+00
 -1       257 3.16411E+00
 -1       258 3.16411E+00
 -1       259 3.16411E+00
 -1       260 3.16411E+00
 -1       261 3.16411E+00
 -1       262 3.16411E+00
 -1       263 3.16411E+00
 -1       264 2.94078E+00
 -1       265 2.94078E+00
 -1       266 2.94078E+00
 -1       267 2.94078E+00
 -1       268 2.94078E+00
 -1       269 2.94078E+00
 -1       270 2.94078E+00
 -1       271 2.94078E+00
 -1       272 2.94078E+00
 -1       273 2.73919E+00
 -1       274 2.73919E+00
 -1       275 2.73919E+00
 -1       276 2.73919E+00
 -1       277 2.73919E+00
 -1       278 2.73919E+00
 -1       279 2.73919E+00
 -1       280 2.73919E+00
 -1       281 2.73919E+00
 -1       282 2.55649E+00
 -1       283 2.55649E+00
 -1       284 2.55649E+00
 -1       285 2.55649E+00
 -1       286 2.55649E+00
 -1       287 2.55649E+00
 -1       288 2.55649E+00
 -1       289 2.55649E+00
 -1       290 2.55649E+00
 -1       291 2.39016E+00
 -1       292 2.39016E+00
 -1       293 2.39016E+00
 -1       294 2.39016E+00
 -1       295 2.39016E+00
 -1       296 2.39016E+00
 -1       297 2.39016E+00
 -1       298 2.39016E+00
 -1       299 2.39016E+00
 -1       300 2.23816E+00
 -1       301 2.23816E+00
 -1       302 2.23816E+00
 -1       303 2.23816E+00
 -1       304 2.23816E+00
 -1       305 2.23816E+00
 -1       306 2.23816E+00
 -1       307 2.23816E+00
 -1       308 2.23816E+00
 -1       309 2.09879E+00
 -1       310 2.09879E+00
 -1       311 2.09879E+00
 -1       312 2.09879E+00
 -1       313 2.09879E+00
 -1       314 2.09879E+00
 -1       315 2.09879E+00
 -1       316 2.09879E+00
 -1       317 2.09879E+00
 -1       318 1.97064E+00
 -1       319 1.97064E+00
 -1       320 1.97064E+00
 -1       321 1.97064E+00
 -1       322 1.97064E+00
 -1       323 1.97064E+00
 -1       324 1.97064E+00
 -1       325 1.97064E+00
 -1       326 1.97064E+00
 -1       327 1.85252E+00
 -1       328 1.85252E+00
 -1       329 1.85252E+00
 -1       330 1.85252E+00
 -1       331 1.85252E+00
 -1       332 1.85252E+00
 -1       333 1.85252E+00
 -1       334 1.85252E+00
 -1       335 1.85252E+00
 -1       336 1.74340E+00
 -1       337 1.74340E+00
 -1       338 1.74340E+00
 -1       339 1.74340E+00
 -1       340 1.74340E+00
 -1       341 1.74340E+00
 -1       342 1.74340E+00
 -1       343 1.74340E+00
 -1       344 1.74340E+00
 -1       345 1.64239E+00
 -1       346 1.64239E+00
 -1       347 1.64239E+00
 -1       348 1.64239E+00
 -1       349 1.64239E+00
 -1       350 1.64239E+00
 -1       351 1.64239E+00
 -1       352 1.64239E+00
 -1       353 1.64239E+00
 -1       354 1.54873E+00
 -1       355 1.54873E+00
 -1       356 1.54873E+00
 -1       357 1.54873E+00
 -1       358 1.54873E+00
 -1       359 1.54873E+00
 -1       360 1.54873E+00
 -1       361 1.54873E+00
 -1       362 1.54873E+00
 -1       363 1.46173E+00
 -1       364 1.46173E+00
 -1       365 1.46173E+00
 -1       366 1.46173E+00
 -1       367 1.46173E+00
 -1       368 1.46173E+00
 -1       369 1.46173E+00
 -1       370 1.46173E+00
 -1       371 1.46173E+00
 -1       372 1.38081E+00
 -1       373 1.38081E+00
 -1       374 1.38081E+00
 -1       375 1.38081E+00
 -1       376 1.38081E+00
 -1       377 1.38081E+00
 -1       378 1.38081E+00
 -1       379 1.38081E+00
 -1       380 1.38081E+00
 -1       381 1.30543E+00
 -1       382 1.30543E+00
 -1       383 1.30543E+00
 -1       384 1.30543E+00
 -1       385 1.30543E+00
 -1       386 1.30543E+00
 -1       387 1.30543E+00
 -1       388 1.30543E+00
 -1       389 1.30543E+00
 -1       390 1.23514E+00
 -1       391 1.23514E+00
 -1       392 1.23514E+00
 -1       393 1.23514E+00
 -1       394 1.23514E+00
 -1       395 1.23514E+00
 -1       396 1.23514E+00
 -1       397 1.23514E+00
 -1       398 1.23514E+00
 -1       399 1.16951E+00
 -1       400 1.16951E+00
 -1       401 1.16951E+00
 -1       402 1.16951E+00
 -1       403 1.16951E+00
 -1       404 1.16951E+00
 -1       405 1.16951E+00
 -1       406 1.16951E+00
 -1       407 1.16951E+00
 -1       408 1.10819E+00
 -1       409 1.10819E+00
 -1       410 1.10819E+00
 -1       411 1.10819E+00
 -1       412 1.10819E+00
 -1       413 1.10819E+00
 -1       414 1.10819E+00
 -1       415 1.10819E+00
 -1       416 1.10819E+00
 -1       417 1.05082E+00
 -1       418 1.05082E+00
 -1       419 1.05082E+00
 -1       420 1.05082E+00
 -1       421 1.05082E+00
 -1       422 1.05082E+00
 -1       423 1.05082E+00
 -1       424 1.05082E+00
 -1       425 1.05082E+00
 -1       426 9.96888E-01
 -1       427 9.96888E-01
 -1       428 9.96888E-01
 -1       429 9.96888E-01
 -1       430 9.96888E-01
 -1       431 9.96888E-01
 -1       432 9.96888E-01
 -1       433 9.96888E-01
 -1       434 9.96888E-01
 -1       435 9.46798E-01
 -1       436 9.46798E-01
 -1       437 9.46798E-01
 -1       438 9.46798E-01
 -1       439 9.46798E-01
 -1       440 9.46798E-01
 -1       441 9.46798E-01
 -1       442 9.46798E-01
 -1       443 9.46798E-01
 -1       444 8.97584E-01
 -1       445 8.97584E-01
 -1       446 8.97584E-01
 -1       447 8.97584E-01
 -1       448 8.97584E-01
 -1       449 8.97584E-01
 -1       450 8.97584E-01
 -1       451 8.97584E-01
 -1       452 8.97584E-01
 -1       453 8.71212E-01
 -1       454 8.71212E-01
 -1       455 8.71212E-01
 -1       456 8.71212E-01
 -1       457 8.71212E-01
 -1       458 8.71212E-01
 -1       459 8.71212E-01
 -1       460 8.71212E-01
 -1       461 8.71212E-01
 -1       462 5.04246E+00
 -1       463 5.19782E+00
 -1       464 5.31361E+00
 -1       465 5.37897E+00
 -1       466 5.39874E+00
 -1       467 5.39874E+00
 -1       468 5.37897E+00
 -1       469 5.31361E+00
 -1       470 5.19782E+00
 -1       471 5.04246E+00
 -1       472 4.86088E+00
 -1       473 4.79763E+00
 -1       474 4.75458E+00
 -1       475 4.73441E+00
 -1       476 4.72590E+00
 -1       477 4.72590E+00
 -1       478 4.73441E+00
 -1       479 4.75458E+00
 -1       480 4.79763E+00
 -1       481 4.86088E+00
 -1       482 4.37679E+00
 -1       483 4.38258E+00
 -1       484 4.38258E+00
 -1       485 4.37687E+00
 -1       486 4.37027E+00
 -1       487 4.37027E+00
 -1       488 4.37687E+00
 -1       489 4.38258E+00
 -1       490 4.38258E+00
 -1       491 4.37679E+00
 -1       492 4.00188E+00
 -1       493 4.01241E+00
 -1       494 4.01833E+00
 -1       495 4.01953E+00
 -1       496 4.01953E+00
 -1       497 4.01953E+00
 -1       498 4.01953E+00
 -1       499 4.01833E+00
 -1       500 4.01241E+00
 -1       501 4.00188E+00
 -1       502 3.69095E+00
 -1       503 3.69285E+00
 -1       504 3.69568E+00
 -1       505 3.69736E+00
 -1       506 3.69736E+00
 -1       507 3.69736E+00
 -1       508 3.69736E+00
 -1       509 3.69568E+00
 -1       510 3.69285E+00
 -1       511 3.69095E+00
 -1       512 3.41266E+00
 -1       513 3.41248E+00
 -1       514 3.41322E+00
 -1       515 3.41374E+00
 -1       516 3.41384E+00
 -1       517 3.41384E+00
 -1       518 3.41374E+00
 -1       519 3.41322E+00
 -1       520 3.41248E+00
 -1       521 3.41266E+00
 -1       522 3.16411E+00
 -1       523 3.16387E+00
 -1       524 3.16365E+00
 -1       525 3.16360E+00
 -1       526 3.16358E+00
 -1       527 3.16358E+00
 -1       528 3.16360E+00
 -1       529 3.16365E+00
 -1       530 3.16387E+00
 -1       531 3.16411E+00
 -1       532 2.94078E+00
 -1       533 2.94060E+00
 -1       534 2.94044E+00
 -1       535 2.94027E+00
 -1       536 2.94013E+00
 -1       537 2.94013E+00
 -1       538 2.94027E+00
 -1       539 2.94044E+00
 -1       540 2.94060E+00
 -1       541 2.94078E+00
 -1       542 2.73919E+00
 -1       543 2.73912E+00
 -1       544 2.73901E+00
 -1       545 2.73890E+00
 -1       546 2.73880E+00
 -1       547 2.73880E+00
 -1       548 2.73890E+00
 -1       549 2.73901E+00
 -1       550 2.73912E+00
 -1       551 2.73919E+00
 -1       552 2.55649E+00
 -1       553 2.55645E+00
 -1       554 2.55639E+00
 -1       555 2.55633E+00
 -1       556 2.55628E+00
 -1       557 2.55628E+00
 -1       558 2.55633E+00
 -1       559 2.55639E+00
 -1       560 2.55645E+00
 -1       561 2.55649E+00
 -1       562 2.39016E+00
 -1       563 2.39013E+00
 -1       564 2.39010E+00
 -1       565 2.39007E+00
 -1       566 2.39004E+00
 -1       567 2.39004E+00
 -1       568 2.39007E+00
 -1       569 2.39010E+00
 -1       570 2.39013E+00
 -1       571 2.39016E+00
 -1       572 2.23816E+00
 -1       573 2.23813E+00
 -1       574 2.23811E+00
 -1       575 2.23809E+00
 -1       576 2.23807E+00
 -1       577 2.23807E+00
 -1       578 2.23809E+00
 -1       579 2.23811E+00
 -1       580 2.23813E+00
 -1       581 2.23816E+00
 -1       582 2.09879E+00
 -1       583 2.09877E+00
 -1       584 2.09875E+00
 -1       585 2.09873E+00
 -1       586 2.09872E+00
 -1       587 2.09872E+00
 -1       588 2.09873E+00
 -1       589 2.09875E+00
 -1       590 2.09877E+00
 -1       591 2.09879E+00
 -1       592 1.97064E+00
 -1       593 1.97062E+00
 -1       594 1.97061E+00
 -1       595 1.97060E+00
 -1       596 1.97059E+00
 -1       597 1.97059E+00
 -1       598 1.97060E+00
 -1       599 1.97061E+00
 -1       600 1.97062E+00
 -1       601 1.97064E+00
 -1       602 1.85252E+00
 -1       603 1.85250E+00
 -1       604 1.85249E+00
 -1       605 1.85248E+00
 -1       606 1.85247E+00
 -1       607 1.85247E+00
 -1       608 1.85248E+00
 -1       609 1.85249E+00
 -1       610 1.85250E+00
 -1       611 1.85252E+00
 -1       612 1.74340E+00
 -1       613 1.74339E+00
 -1       614 1.74338E+00
 -1       615 1.74337E+00
 -1       616 1.74336E+00
 -1       617 1.74336E+00
 -1       618 1.74337E+00
 -1       619 1.74338E+00
 -1       620 1.74339E+00
 -1       621 1.74340E+00
 -1       622 1.64239E+00
 -1       623 1.64238E+00
 -1       624 1.64237E+00
 -1       625 1.64237E+00
 -1       626 1.64236E+00
 -1       627 1.64236E+00
 -1       628 1.64237E+00
 -1       629 1.64237E+00
 -1       630 1.64238E+00
 -1       631 1.64239E+00
 -1       632 1.54873E+00
 -1       633 1.54872E+00
 -1       634 1.54871E+00
 -1       635 1.54871E+00
 -1       636 1.54870E+00
 -1       637 1.54870E+00
 -1       638 1.54871E+00
 -1       639 1.54871E+00
 -1       640 1.54872E+00
 -1       641 1.54873E+00
 -1       642 1.46173E+00
 -1       643 1.46172E+00
 -1       644 1.46172E+00
 -1       645 1.46171E+00
 -1       646 1.46171E+00
 -1       647 1.46171E+00
 -1       648 1.46171E+00
 -1       649 1.46172E+00
 -1       650 1.46172E+00
 -1       651 1.46173E+00
 -1       652 1.38081E+00
 -1       653 1.38080E+00
 -1       654 1.38080E+00
 -1       655 1.38079E+00
 -1       656 1.38079E+00
 -1       657 1.38079E+00
 -1       658 1.38079E+00
 -1       659 1.38080E+00
 -1       660 1.38080E+00
 -1       661 1.38081E+00
 -1       662 1.30543E+00
 -1       663 1.30543E+00
 -1       664 1.30542E+00
 -1       665 1.30542E+00
 -1       666 1.30541E+00
 -1       667 1.30541E+00
 -1       668 1.30542E+00
 -1       669 1.30542E+00
 -1       670 1.30543E+00
 -1       671 1.30543E+00
 -1       672 1.23514E+00
 -1       673 1.23513E+00
 -1       674 1.23512E+00
 -1       675 1.23512E+00
 -1       676 1.23512E+00
 -1       677 1.23512E+00
 -1       678 1.23512E+00
 -1       679 1.23512E+00
 -1       680 1.23513E+00
 -1       681 1.23514E+00
 -1       682 1.16951E+00
 -1       683 1.16951E+00
 -1       684 1.16950E+00
 -1       685 1.16950E+00
 -1       686 1.16950E+00
 -1       687 1.16950E+00
 -1       688 1.16950E+00
 -1       689 1.16950E+00
 -1       690 1.16951E+00
 -1       691 1.16951E+00
 -1       692 1.10819E+00
 -1       693 1.10819E+00
 -1       694 1.10819E+00
 -1       695 1.10820E+00
 -1       696 1.10820E+00
 -1       697 1.10820E+00
 -1       698 1.10820E+00
 -1       699 1.10819E+00
 -1       700 1.10819E+00
 -1       701 1.10819E+00
 -1       702 1.05082E+00
 -1       703 1.05086E+00
 -1       704 1.05092E+00
 -1       705 1.05096E+00
 -1       706 1.05097E+00
 -1       707 1.05097E+00
 -1       708 1.05096E+00
 -1       709 1.05092E+00
 -1       710 1.05086E+00
 -1       711 1.05082E+00
 -1       712 9.97197E-01
 -1       713 9.97349E-01
 -1       714 9.97569E-01
 -1       715 9.97681E-01
 -1       716 9.97681E-01
 -1       717 9.97681E-01
 -1       718 9.97681E-01
 -1       719 9.97569E-01
 -1       720 9.97349E-01
 -1       721 9.97197E-01
 -1       722 9.46798E-01
 -1       723 9.47703E-01
 -1       724 9.48097E-01
 -1       725 9.48097E-01
 -1       726 9.48038E-01
 -1       727 9.48038E-01
 -1       728 9.48097E-01
 -1       729 9.48097E-01
 -1       730 9.47703E-01
 -1       731 9.46798E-01
 -1       732 9.02293E-01
 -1       733 9.02293E-01
 -1       734 9.02228E-01
 -1       735 9.00972E-01
 -1       736 8.99812E-01
 -1       737 8.99812E-01
 -1       738 9.00972E-01
 -1       739 9.02228E-01
 -1       740 9.02293E-01
 -1       741 9.02293E-01
 -1       742 8.71212E-01
 -1       743 8.60013E-01
 -1       744 8.52903E-01
 -1       745 8.49229E-01
 -1       746 8.47628E-01
 -1       747 8.47628E-01
 -1       748 8.49229E-01
 -1       749 8.52903E-01
 -1       750 8.60013E-01
 -1       751 8.71212E-01
 -1       752 7.79620E-01
 -1       753 7.86892E-01
 -1       754 7.92641E-01
 -1       755 7.96027E-01
 -1       756 7.97046E-01
 -1       757 7.97046E-01
 -1       758 7.96027E-01
 -1       759 7.92641E-01
 -1       760 7.86892E-01
 -1       761 7.79620E-01
 -1       762 7.79620E-01
 -1       763 7.86892E-01
 -1       764 7.92641E-01
 -1       765 7.96027E-01
 -1       766 7.97046E-01
 -1       767 7.97046E-01
 -1       768 7.96027E-01
 -1       769 7.92641E-01
 -1       770 7.86892E-01
 -1       771 7.79620E-01
 -1       772 7.79620E-01
 -1       773 7.86892E-01
 -1       774 7.92641E-01
 -1       775 7.96027E-01
 -1       776 7.97046E-01
 -1       777 7.97046E-01
 -1       778 7.96027E-01
 -1       779 7.92641E-01
 -1       780 7.86892E-01
 -1       781 7.79620E-01
 -1       782 7.79620E-01
 -1       783 7.86892E-01
 -1       784 7.92641E-01
 -1       785 7.96027E-01
 -1       786 7.97046E-01
 -1       787 7.97046E-01
 -1       788 7.96027E-01
 -1       789 7.92641E-01
 -1       790 7.86892E-01
 -1       791 7.79620E-01
 -1       792 7.79620E-01
 -1       793 7.86892E-01
 -1       794 7.92641E-01
 -1       795 7.96027E-01
 -1       796 7.97046E-01
 -1       797 7.97046E-01
 -1       798 7.96027E-01
 -1       799 7.92641E-01
 -1       800 7.86892E-01
 -1       801 7.79620E-01
 -1       802 7.79620E-01
 -1       803 7.86892E-01
 -1       804 7.92641E-01
 -1       805 7.96027E-01
 -1       806 7.97046E-01
 -1       807 7.97046E-01
 -1       808 7.96027E-01
 -1       809 7.92641E-01
 -1       810 7.86892E-01
 -1       811 7.79620E-01
 -1       812 7.79620E-01
 -1       813 7.86892E-01
 -1       814 7.92641E-01
 -1       815 7.96027E-01
 -1       816 7.97046E-01
 -1       817 7.97046E-01
 -1       818 7.96027E-01
 -1       819 7.92641E-01
 -1       820 7.86892E-01
 -1       821 7.79620E-01
 -1       822 7.79620E-01
 -1       823 7.86892E-01
 -1       824 7.92641E-01
 -1       825 7.96027E-01
 -1       826 7.97046E-01
 -1       827 7.97046E-01
 -1       828 7.96027E-01
 -1       829 7.92641E-01
 -1       830 7.86892E-01
 -1       831 7.79620E-01
 -1       832 7.79620E-01
 -1       833 7.86892E-01
 -1       834 7.92641E-01
 -1       835 7.96027E-01
 -1       836 7.97046E-01
 -1       837 7.97046E-01
 -1       838 7.96027E-01
 -1       839 7.92641E-01
 -1       840 7.86892E-01
 -1       841 7.79620E-01
 -1       842 8.71212E-01
 -1       843 8.60013E-01
 -1       844 8.52903E-01
 -1       845 8.49229E-01
 -1       846 8.47628E-01
 -1       847 8.47628E-01
 -1       848 8.49229E-01
 -1       849 8.52903E-01
 -1       850 8.60013E-01
 -1       851 8.71212E-01
 -1       852 9.02293E-01
 -1       853 9.02293E-01
 -1       854 9.02228E-01
 -1       855 9.00972E-01
 -1       856 8.99812E-01
 -1       857 8.99812E-01
 -1       858 9.00972E-01
 -1       859 9.02228E-01
 -1       860 9.02293E-01
 -1       861 9.02293E-01
 -1       862 9.46798E-01
 -1       863 9.47703E-01
 -1       864 9.48097E-01
 -1       865 9.48097E-01
 -1       866 9.48038E-01
 -1       867 9.48038E-01
 -1       868 9.48097E-01
 -1       869 9.48097E-01
 -1       870 9.47703E-01
 -1       871 9.46798E-01
 -1       872 9.97197E-01
 -1       873 9.97349E-01
 -1       874 9.97569E-01
 -1       875 9.97681E-01
 -1       876 9.97681E-01
 -1       877 9.97681E-01
 -1       878 9.97681E-01
 -1       879 9.97569E-01
 -1       880 9.97349E-01
 -1       881 9.97197E-01
 -1       882 1.05082E+00
 -1       883 1.05086E+00
 -1       884 1.05092E+00
 -1       885 1.05096E+00
 -1       886 1.05097E+00
 -1       887 1.05097E+00
 -1       888 1.05096E+00
 -1       889 1.05092E+00
 -1       890 1.05086E+00
 -1       891 1.05082E+00
 -1       892 1.10819E+00
 -1       893 1.10819E+00
 -1       894 1.10819E+00
 -1       895 1.10820E+00
 -1       896 1.10820E+00
 -1       897 1.10820E+00
 -1       898 1.10820E+00
 -1       899 1.10819E+00
 -1       900 1.10819E+00
 -1       901 1.10819E+00
 -1       902 1.16951E+00
 -1       903 1.16951E+00
 -1       904 1.16950E+00
 -1       905 1.16950E+00
 -1       906 1.16950E+00
 -1       907 1.16950E+00
 -1       908 1.16950E+00
 -1       909 1.16950E+00
 -1       910 1.16951E+00
 -1       911 1.16951E+00
 -1       912 1.23514E+00
 -1       913 1.23513E+00
 -1       914 1.23512E+00
 -1       915 1.23512E+00
 -1       916 1.23512E+00
 -1       917 1.23512E+00
 -1       918 1.23512E+00
 -1       919 1.23512E+00
 -1       920 1.23513E+00
 -1       921 1.23514E+00
 -1       922 1.30543E+00
 -1       923 1.30543E+00
 -1       924 1.30542E+00
 -1       925 1.30542E+00
 -1       926 1.30541E+00
 -1       927 1.30541E+00
 -1       928 1.30542E+00
 -1       929 1.30542E+00
 -1       930 1.30543E+00
 -1       931 1.30543E+00
 -1       932 1.38081E+00
 -1       933 1.38080E+00
 -1       934 1.38080E+00
 -1       935 1.38079E+00
 -1       936 1.38079E+00
 -1       937 1.38079E+00
 -1       938 1.38079E+00
 -1       939 1.38080E+00
 -1       940 1.38080E+00
 -1       941 1.38081E+00
 -1       942 1.46173E+00
 -1       943 1.46172E+00
 -1       944 1.46172E+00
 -1       945 1.46171E+00
 -1       946 1.46171E+00
 -1       947 1.46171E+00
 -1       948 1.46171E+00
 -1       949 1.46172E+00
 -1       950 1.46172E+00
 -1       951 1.46173E+00
 -1       952 1.54873E+00
 -1       953 1.54872E+00
 -1       954 1.54871E+00
 -1       955 1.54871E+00
 -1       956 1.54870E+00
 -1       957 1.54870E+00
 -1       958 1.54871E+00
 -1       959 1.54871E+00
 -1       960 1.54872E+00
 -1       961 1.54873E+00
 -1       962 1.64239E+00
 -1       963 1.64238E+00
 -1       964 1.64237E+00
 -1       965 1.64237E+00
 -1       966 1.64236E+00
 -1       967 1.64236E+00
 -1       968 1.64237E+00
 -1       969 1.64237E+00
 -1       970 1.64238E+00
 -1       971 1.64239E+00
 -1       972 1.74340E+00
 -1       973 1.74339E+00
 -1       974 1.74338E+00
 -1       975 1.74337E+00
 -1       976 1.74336E+00
 -1       977 1.74336E+00
 -1       978 1.74337E+00
 -1       979 1.74338E+00
 -1       980 1.74339E+00
 -1       981 1.74340E+00
 -1       982 1.85252E+00
 -1       983 1.85250E+00
 -1       984 1.85249E+00
 -1       985 1.85248E+00
 -1       986 1.85247E+00
 -1       987 1.85247E+00
 -1       988 1.85248E+00
 -1       989 1.85249E+00
 -1       990 1.85250E+00
 -1       991 1.85252E+00
 -1       992 1.97064E+00
 -1       993 1.97062E+00
 -1       994 1.97061E+00
 -1       995 1.97060E+00
 -1       996 1.97059E+00
 -1       997 1.97059E+00
 -1       998 1.97060E+00
 -1       999 1.97061E+00
 -1      1000 1.97062E+00
 -1      1001 1.97064E+00
 -1      1002 2.09879E+00
 -1      1003 2.09877E+00
 -1      1004 2.09875E+00
 -1      1005 2.09873E+00
 -1      1006 2.09872E+00
 -1      1007 2.09872E+00
 -1      1008 2.09873E+00
 -1      1009 2.09875E+00
 -1      1010 2.09877E+00
 -1      1011 2.09879E+00
 -1      1012 2.23816E+00
 -1      1013 2.23813E+00
 -1      1014 2.23811E+00
 -1      1015 2.23809E+00
 -1      1016 2.23807E+00
 -1      1017 2.23807E+00
 -1      1018 2.23809E+00
 -1      1019 2.23811E+00
 -1      1020 2.23813E+00
 -1      1021 2.23816E+00
 -1      1022 2.39016E+00
 -1      1023 2.39013E+00
 -1      1024 2.39010E+00
 -1      1025 2.39007E+00
 -1      1026 2.39004E+00
 -1      1027 2.39004E+00
 -1      1028 2.39007E+00
 -1      1029 2.39010E+00
 -1      1030 2.39013E+00
 -1      1031 2.39016E+00
 -1      1032 2.55649E+00
 -1      1033 2.55645E+00
 -1      1034 2.55639E+00
 -1      1035 2.55633E+00
 -1      1036 2.55628E+00
 -1      1037 2.55628E+00
 -1      1038 2.55633E+00
 -1      1039 2.55639E+00
 -1      1040 2.55645E+00
 -1      1041 2.55649E+00
 -1      1042 2.73919E+00
 -1      1043 2.73912E+00
 -1      1044 2.73901E+00
 -1      1045 2.73890E+00
 -1      1046 2.73880E+00
 -1      1047 2.73880E+00
 -1      1048 2.73890E+00
 -1      1049 2.73901E+00
 -1      1050 2.73912E+00
 -1      1051 2.73919E+00
 -1      1052 2.94078E+00
 -1      1053 2.94060E+00
 -1      1054 2.94044E+00
 -1      1055 2.94027E+00
 -1      1056 2.94013E+00
 -1      1057 2.94013E+00
 -1      1058 2.94027E+00
 -1      1059 2.94044E+00
 -1      1060 2.94060E+00
 -1      1061 2.94078E+00
 -1      1062 3.16411E+00
 -1      1063 3.16387E+00
 -1      1064 3.16365E+00
 -1      1065 3.16360E+00
 -1      1066 3.16358E+00
 -1      1067 3.16358E+00
 -1      1068 3.16360E+00
 -1      1069 3.16365E+00
 -1      1070 3.16387E+00
 -1      1071 3.16411E+00
 -1      1072 3.41266E+00
 -1      1073 3.41248E+00
 -1      1074 3.41322E+00
 -1      1075 3.41374E+00
 -1      1076 3.41384E+00
 -1      1077 3.41384E+00
 -1      1078 3.41374E+00
 -1      1079 3.41322E+00
 -1      1080 3.41248E+00
 -1      1081 3.41266E+00
 -1      1082 3.69095E+00
 -1      1083 3.69285E+00
 -1      1084 3.69568E+00
 -1      1085 3.69736E+00
 -1      1086 3.69736E+00
 -1      1087 3.69736E+00
 -1      1088 3.69736E+00
 -1      1089 3.69568E+00
 -1      1090 3.69285E+00
 -1      1091 3.69095E+00
 -1      1092 4.00188E+00
 -1      1093 4.01241E+00
 -1      1094 4.01833E+00
 -1      1095 4.01953E+00
 -1      1096 4.01953E+00
 -1      1097 4.01953E+00
 -1      1098 4.01953E+00
 -1      1099 4.01833E+00
 -1      1100 4.01241E+00
 -1      1101 4.00188E+00
 -1      1102 4.37679E+00
 -1      1103 4.38258E+00
 -1      1104 4.38258E+00
 -1      1105 4.37687E+00
 -1      1106 4.37027E+00
 -1      1107 4.37027E+00
 -1      1108 4.37687E+00
 -1      1109 4.38258E+00
 -1      1110 4.38258E+00
 -1      1111 4.37679E+00
 -1      1112 4.86088E+00
 -1      1113 4.79763E+00
 -1      1114 4.75458E+00
 -1      1115 4.73441E+00
 -1      1116 4.72590E+00
 -1      1117 4.72590E+00
 -1      1118 4.73441E+00
 -1      1119 4.75458E+00
 -1      1120 4.79763E+00
 -1      1121 4.86088E+00
 -1      1122 5.04246E+00
 -1      1123 5.19782E+00
 -1      1124 5.31361E+00
 -1      1125 5.37897E+00
 -1      1126 5.39874E+00
 -1      1127 5.39874E+00
 -1      1128 5.37897E+00
 -1      1129 5.31361E+00
 -1      1130 5.19782E+00
 -1      1131 5.04246E+00
 -1      1132 5.04246E+00
 -1      1133 5.19782E+00
 -1      1134 5.31361E+00
 -1      1135 5.37897E+00
 -1      1136 5.39874E+00
 -1      1137 5.39874E+00
 -1      1138 5.37897E+00
 -1      1139 5.31361E+00
 -1      1140 5.19782E+00
 -1      1141 5.04246E+00
 -1      1142 5.04246E+00
 -1      1143 5.19782E+00
 -1      1144 5.31361E+00
 -1      1145 5.37897E+00
 -1      1146 5.39874E+00
 -1      1147 5.39874E+00
 -1      1148 5.37897E+00
 -1      1149 5.31361E+00
 -1      1150 5.19782E+00
 -1      1151 5.04246E+00
 -1      1152 5.04246E+00
 -1      1153 5.19782E+00
 -1      1154 5.31361E+00
 -1      1155 5.37897E+00
 -1      1156 5.39874E+00
 -1      1157 5.39874E+00
 -1      1158 5.37897E+00
 -1      1159 5.31361E+00
 -1      1160 5.19782E+00
 -1      1161 5.04246E+00
 -1      1162 5.04246E+00
 -1      1163 5.19782E+00
 -1      1164 5.31361E+00
 -1      1165 5.37897E+00
 -1      1166 5.39874E+00
 -1      1167 5.39874E+00
 -1      1168 5.37897E+00
 -1      1169 5.31361E+00
 -1      1170 5.19782E+00
 -1      1171 5.04246E+00
 -1      1172 5.04246E+00
 -1      1173 5.19782E+00
 -1      1174 5.31361E+00
 -1      1175 5.37897E+00
 -1      1176 5.39874E+00
 -1      1177 5.39874E+00
 -1      1178 5.37897E+00
 -1      1179 5.31361E+00
 -1      1180 5.19782E+00
 -1      1181 5.04246E+00
 -1      1182 5.04246E+00
 -1      1183 5.19782E+00
 -1      1184 5.31361E+00
 -1      1185 5.37897E+00
 -1      1186 5.39874E+00
 -1      1187 5.39874E+00
 -1      1188 5.37897E+00
 -1      1189 5.31361E+00
 -1      1190 5.19782E+00
 -1      1191 5.04246E+00
 -1      1192 5.04246E+00
 -1      1193 5.19782E+00
 -1      1194 5.31361E+00
 -1      1195 5.37897E+00
 -1      1196 5.39874E+00
 -1      1197 5.39874E+00
 -1      1198 5.37897E+00
 -1      1199 5.31361E+00
 -1      1200 5.19782E+00
 -1      1201 5.04246E+00
 -1      1202 5.04246E+00
 -1      1203 5.19782E+00
 -1      1204 5.31361E+00
 -1      1205 5.37897E+00
 -1      1206 5.39874E+00
 -1      1207 5.39874E+00
 -1      1208 5.37897E+00
 -1      1209 5.31361E+00
 -1      1210 5.19782E+00
 -1      1211 5.04246E+00
 -1      1212 5.04246E+00
 -1      1213 5.19782E+00
 -1      1214 5.31361E+00
 -1      1215 5.37897E+00
 -1      1216 5.39874E+00
 -1      1217 5.39874E+00
 -1      1218 5.37897E+00
 -1      1219 5.31361E+00
 -1      1220 5.19782E+00
 -1      1221 5.04246E+00
 -1      1222 4.96377E+00
 -1      1223 4.96377E+00
 -1      1224 4.96377E+00
 -1      1225 4.96377E+00
 -1      1226 4.96377E+00
 -1      1227 4.96377E+00
 -1      1228 4.96377E+00
 -1      1229 4.96377E+00
 -1      1230 4.96377E+00
 -1      1231 4.86088E+00
 -1      1232 4.86088E+00
 -1      1233 4.86088E+00
 -1      1234 4.86088E+00
 -1      1235 4.86088E+00
 -1      1236 4.86088E+00
 -1      1237 4.86088E+00
 -1      1238 4.86088E+00
 -1      1239 4.86088E+00
 -1      1240 4.33288E+00
 -1      1241 4.33288E+00
 -1      1242 4.33288E+00
 -1      1243 4.33288E+00
 -1      1244 4.33288E+00
 -1      1245 4.33288E+00
 -1      1246 4.33288E+00
 -1      1247 4.33288E+00
 -1      1248 4.33288E+00
 -1      1249 4.00158E+00
 -1      1250 4.00158E+00
 -1      1251 4.00158E+00
 -1      1252 4.00158E+00
 -1      1253 4.00158E+00
 -1      1254 4.00158E+00
 -1      1255 4.00158E+00
 -1      1256 4.00158E+00
 -1      1257 4.00158E+00
 -1      1258 3.68788E+00
 -1      1259 3.68788E+00
 -1      1260 3.68788E+00
 -1      1261 3.68788E+00
 -1      1262 3.68788E+00
 -1      1263 3.68788E+00
 -1      1264 3.68788E+00
 -1      1265 3.68788E+00
 -1      1266 3.68788E+00
 -1      1267 3.41266E+00
 -1      1268 3.41266E+00
 -1      1269 3.41266E+00
 -1      1270 3.41266E+00
 -1      1271 3.41266E+00
 -1      1272 3.41266E+00
 -1      1273 3.41266E+00
 -1      1274 3.41266E+00
 -1      1275 3.41266E+00
 -1      1276 3.16411E+00
 -1      1277 3.16411E+00
 -1      1278 3.16411E+00
 -1      1279 3.16411E+00
 -1      1280 3.16411E+00
 -1      1281 3.16411E+00
 -1      1282 3.16411E+00
 -1      1283 3.16411E+00
 -1      1284 3.16411E+00
 -1      1285 2.94078E+00
 -1      1286 2.94078E+00
 -1      1287 2.94078E+00
 -1      1288 2.94078E+00
 -1      1289 2.94078E+00
 -1      1290 2.94078E+00
 -1      1291 2.94078E+00
 -1      1292 2.94078E+00
 -1      1293 2.94078E+00
 -1      1294 2.73919E+00
 -1      1295 2.73919E+00
 -1      1296 2.73919E+00
 -1      1297 2.73919E+00
 -1      1298 2.73919E+00
 -1      1299 2.73919E+00
 -1      1300 2.73919E+00
 -1      1301 2.73919E+00
 -1      1302 2.73919E+00
 -1      1303 2.55649E+00
 -1      1304 2.55649E+00
 -1      1305 2.55649E+00
 -1      1306 2.55649E+00
 -1      1307 2.55649E+00
 -1      1308 2.55649E+00
 -1      1309 2.55649E+00
 -1      1310 2.55649E+00
 -1      1311 2.55649E+00
 -1      1312 2.39016E+00
 -1      1313 2.39016E+00
 -1      1314 2.39016E+00
 -1      1315 2.39016E+00
 -1      1316 2.39016E+00
 -1      1317 2.39016E+00
 -1      1318 2.39016E+00
 -1      1319 2.39016E+00
 -1      1320 2.39016E+00
 -1      1321 2.23816E+00
 -1      1322 2.23816E+00
 -1      1323 2.23816E+00
 -1      1324 2.23816E+00
 -1      1325 2.23816E+00
 -1      1326 2.23816E+00
 -1      1327 2.23816E+00
 -1      1328 2.23816E+00
 -1      1329 2.23816E+00
 -1      1330 2.09879E+00
 -1      1331 2.09879E+00
 -1      1332 2.09879E+00
 -1      1333 2.09879E+00
 -1      1334 2.09879E+00
 -1      1335 2.09879E+00
 -1      1336 2.09879E+00
 -1      1337 2.09879E+00
 -1      1338 2.09879E+00
 -1      1339 1.97064E+00
 -1      1340 1.97064E+00
 -1      1341 1.97064E+00
 -1      1342 1.97064E+00
 -1      1343 1.97064E+00
 -1      1344 1.97064E+00
 -1      1345 1.97064E+00
 -1      1346 1.97064E+00
 -1      1347 1.97064E+00
 -1      1348 1.85252E+00
 -1      1349 1.85252E+00
 -1      1350 1.85252E+00
 -1      1351 1.85252E+00
 -1      1352 1.85252E+00
 -1      1353 1.85252E+00
 -1      1354 1.85252E+00
 -1      1355 1.85252E+00
 -1      1356 1.85252E+00
 -1      1357 1.74340E+00
 -1      1358 1.74340E+00
 -1      1359 1.74340E+00
 -1      1360 1.74340E+00
 -1      1361 1.74340E+00
 -1      1362 1.74340E+00
 -1      1363 1.74340E+00
 -1      1364 1.74340E+00
 -1      1365 1.74340E+00
 -1      1366 1.64239E+00
 -1      1367 1.64239E+00
 -1      1368 1.64239E+00
 -1      1369 1.64239E+00
 -1      1370 1.64239E+00
 -1      1371 1.64239E+00
 -1      1372 1.64239E+00
 -1      1373 1.64239E+00
 -1      1374 1.64239E+00
 -1      1375 1.54873E+00
 -1      1376 1.54873E+00
 -1      1377 1.54873E+00
 -1      1378 1.54873E+00
 -1      1379 1.54873E+00
 -1      1380 1.54873E+00
 -1      1381 1.54873E+00
 -1      1382 1.54873E+00
 -1      1383 1.54873E+00
 -1      1384 1.46173E+00
 -1      1385 1.46173E+00
 -1      1386 1.46173E+00
 -1      1387 1.46173E+00
 -1      1388 1.46173E+00
 -1      1389 1.46173E+00
 -1      1390 1.46173E+00
 -1      1391 1.46173E+00
 -1      1392 1.46173E+00
 -1      1393 1.38081E+00
 -1      1394 1.38081E+00
 -1      1395 1.38081E+00
 -1      1396 1.38081E+00
 -1      1397 1.38081E+00
 -1      1398 1.38081E+00
 -1      1399 1.38081E+00
 -1      1400 1.38081E+00
 -1      1401 1.38081E+00
 -1      1402 1.30543E+00
 -1      1403 1.30543E+00
 -1      1404 1.30543E+00
 -1      1405 1.30543E+00
 -1      1406 1.30543E+00
 -1      1407 1.30543E+00
 -1      1408 1.30543E+00
 -1      1409 1.30543E+00
 -1      1410 1.30543E+00
 -1      1411 1.23514E+00
 -1      1412 1.23514E+00
 -1      1413 1.23514E+00
 -1      1414 1.23514E+00
 -1      1415 1.23514E+00
 -1      1416 1.23514E+00
 -1      1417 1.23514E+00
 -1      1418 1.23514E+00
 -1      1419 1.23514E+00
 -1      1420 1.16951E+00
 -1      1421 1.16951E+00
 -1      1422 1.16951E+00
 -1      1423 1.16951E+00
 -1      1424 1.16951E+00
 -1      1425 1.16951E+00
 -1      1426 1.16951E+00
 -1      1427 1.16951E+00
 -1      1428 1.16951E+00
 -1      1429 1.10819E+00
 -1      1430 1.10819E+00
 -1      1431 1.10819E+00
 -1      1432 1.10819E+00
 -1      1433 1.10819E+00
 -1      1434 1.10819E+00
 -1      1435 1.10819E+00
 -1      1436 1.10819E+00
 -1      1437 1.10819E+00
 -1      1438 1.05082E+00
 -1      1439 1.05082E+00
 -1      1440 1.05082E+00
 -1      1441 1.05082E+00
 -1      1442 1.05082E+00
 -1      1443 1.05082E+00
 -1      1444 1.05082E+00
 -1      1445 1.05082E+00
 -1      1446 1.05082E+00
 -1      1447 9.96888E-01
 -1      1448 9.96888E-01
 -1      1449 9.96888E-01
 -1      1450 9.96888E-01
 -1      1451 9.96888E-01
 -1      1452 9.96888E-01
 -1      1453 9.96888E-01
 -1      1454 9.96888E-01
 -1      1455 9.96888E-01
 -1      1456 9.46798E-01
 -1      1457 9.46798E-01
 -1      1458 9.46798E-01
 -1      1459 9.46798E-01
 -1      1460 9.46798E-01
 -1      1461 9.46798E-01
 -1      1462 9.46798E-01
 -1      1463 9.46798E-01
 -1      1464 9.46798E-01
 -1      1465 8.97584E-01
 -1      1466 8.97584E-01
 -1      1467 8.97584E-01
 -1      1468 8.97584E-01
 -1      1469 8.97584E-01
 -1      1470 8.97584E-01
 -1      1471 8.97584E-01
 -1      1472 8.97584E-01
 -1      1473 8.97584E-01
 -1      1474 8.71212E-01
 -1      1475 8.71212E-01
 -1      1476 8.71212E-01
 -1      1477 8.71212E-01
 -1      1478 8.71212E-01
 -1      1479 8.71212E-01
 -1      1480 8.71212E-01
 -1      1481 8.71212E-01
 -1      1482 8.71212E-01
 -1      1483 5.04246E+00
 -1      1484 5.19782E+00
 -1      1485 5.31361E+00
 -1      1486 5.37897E+00
 -1      1487 5.39874E+00
 -1      1488 5.39874E+00
 -1      1489 5.37897E+00
 -1      1490 5.31361E+00
 -1      1491 5.19782E+00
 -1      1492 5.04246E+00
 -1      1493 5.04246E+00
 -1      1494 5.19782E+00
 -1      1495 5.31361E+00
 -1      1496 5.37897E+00
 -1      1497 5.39874E+00
 -1      1498 5.39874E+00
 -1      1499 5.37897E+00
 -1      1500 5.31361E+00
 -1      1501 5.19782E+00
 -1      1502 5.04246E+00
 -1      1503 5.04246E+00
 -1      1504 5.19782E+00
 -1      1505 5.31361E+00
 -1      1506 5.37897E+00
 -1      1507 5.39874E+00
 -1      1508 5.39874E+00
 -1      1509 5.37897E+00
 -1      1510 5.31361E+00
 -1      1511 5.19782E+00
 -1      1512 5.04246E+00
 -1      1513 5.04246E+00
 -1      1514 5.19782E+00
 -1      1515 5.31361E+00
 -1      1516 5.37897E+00
 -1      1517 5.39874E+00
 -1      1518 5.39874E+00
 -1      1519 5.37897E+00
 -1      1520 5.31361E+00
 -1      1521 5.19782E+00
 -1      1522 5.04246E+00
 -1      1523 5.04246E+00
 -1      1524 5.19782E+00
 -1      1525 5.31361E+00
 -1      1526 5.37897E+00
 -1      1527 5.39874E+00
 -1      1528 5.39874E+00
 -1      1529 5.37897E+00
 -1      1530 5.31361E+00
 -1      1531 5.19782E+00
 -1      1532 5.04246E+00
 -1      1533 5.04246E+00
 -1      1534 5.19782E+00
 -1      1535 5.31361E+00
 -1      1536 5.37897E+00
 -1      1537 5.39874E+00
 -1      1538 5.39874E+00
 -1      1539 5.37897E+00
 -1      1540 5.31361E+00
 -1      1541 5.19782E+00
 -1      1542 5.04246E+00
 -1      1543 5.04246E+00
 -1      1544 5.19782E+00
 -1      1545 5.31361E+00
 -1      1546 5.37897E+00
 -1      1547 5.39874E+00
 -1      1548 5.39874E+00
 -1      1549 5.37897E+00
 -1      1550 5.31361E+00
 -1      1551 5.19782E+00
 -1      1552 5.04246E+00
 -1      1553 5.04246E+00
 -1      1554 5.19782E+00
 -1      1555 5.31361E+00
 -1      1556 5.37897E+00
 -1      1557 5.39874E+00
 -1      1558 5.39874E+00
 -1      1559 5.37897E+00
 -1      1560 5.31361E+00
 -1      1561 5.19782E+00
 -1      1562 5.04246E+00
 -1      1563 5.04246E+00
 -1      1564 5.19782E+00
 -1      1565 5.31361E+00
 -1      1566 5.37897E+00
 -1      1567 5.39874E+00
 -1      1568 5.39874E+00
 -1      1569 5.37897E+00
 -1      1570 5.31361E+00
 -1      1571 5.19782E+00
 -1      1572 5.04246E+00
 -1      1573 4.86088E+00
 -1      1574 4.79763E+00
 -1      1575 4.75458E+00
 -1      1576 4.73441E+00
 -1      1577 4.72590E+00
 -1      1578 4.72590E+00
 -1      1579 4.73441E+00
 -1      1580 4.75458E+00
 -1      1581 4.79763E+00
 -1      1582 4.86088E+00
 -1      1583 4.86088E+00
 -1      1584 4.79763E+00
 -1      1585 4.75458E+00
 -1      1586 4.73441E+00
 -1      1587 4.72590E+00
 -1      1588 4.72590E+00
 -1      1589 4.73441E+00
 -1      1590 4.75458E+00
 -1      1591 4.79763E+00
 -1      1592 4.86088E+00
 -1      1593 4.86088E+00
 -1      1594 4.79763E+00
 -1      1595 4.75458E+00
 -1      1596 4.73441E+00
 -1      1597 4.72590E+00
 -1      1598 4.72590E+00
 -1      1599 4.73441E+00
 -1      1600 4.75458E+00
 -1      1601 4.79763E+00
 -1      1602 4.86088E+00
 -1      1603 4.86088E+00
 -1      1604 4.79763E+00
 -1      1605 4.75458E+00
 -1      1606 4.73441E+00
 -1      1607 4.72590E+00
 -1      1608 4.72590E+00
 -1      1609 4.73441E+00
 -1      1610 4.75458E+00
 -1      1611 4.79763E+00
 -1      1612 4.86088E+00
 -1      1613 4.86088E+00
 -1      1614 4.79763E+00
 -1      1615 4.75458E+00
 -1      1616 4.73441E+00
 -1      1617 4.72590E+00
 -1      1618 4.72590E+00
 -1      1619 4.73441E+00
 -1      1620 4.75458E+00
 -1      1621 4.79763E+00
 -1      1622 4.86088E+00
 -1      1623 4.86088E+00
 -1      1624 4.79763E+00
 -1      1625 4.75458E+00
 -1      1626 4.73441E+00
 -1      1627 4.72590E+00
 -1      1628 4.72590E+00
 -1      1629 4.73441E+00
 -1      1630 4.75458E+00
 -1      1631 4.79763E+00
 -1      1632 4.86088E+00
 -1      1633 4.86088E+00
 -1      1634 4.79763E+00
 -1      1635 4.75458E+00
 -1      1636 4.73441E+00
 -1      1637 4.72590E+00
 -1      1638 4.72590E+00
 -1      1639 4.73441E+00
 -1      1640 4.75458E+00
 -1      1641 4.79763E+00
 -1      1642 4.86088E+00
 -1      1643 4.86088E+00
 -1      1644 4.79763E+00
 -1      1645 4.75458E+00
 -1      1646 4.73441E+00
 -1      1647 4.72590E+00
 -1      1648 4.72590E+00
 -1      1649 4.73441E+00
 -1      1650 4.75458E+00
 -1      1651 4.79763E+00
 -1      1652 4.86088E+00
 -1      1653 4.86088E+00
 -1      1654 4.79763E+00
 -1      1655 4.75458E+00
 -1      1656 4.73441E+00
 -1      1657 4.72590E+00
 -1      1658 4.72590E+00
 -1      1659 4.73441E+00
 -1      1660 4.75458E+00
 -1      1661 4.79763E+00
 -1      1662 4.86088E+00
 -1      1663 4.37679E+00
 -1      1664 4.38258E+00
 -1      1665 4.38258E+00
 -1      1666 4.37687E+00
 -1      1667 4.37027E+00
 -1      1668 4.37027E+00
 -1      1669 4.37687E+00
 -1      1670 4.38258E+00
 -1      1671 4.38258E+00
 -1      1672 4.37679E+00
 -1      1673 4.37679E+00
 -1      1674 4.38258E+00
 -1      1675 4.38258E+00
 -1      1676 4.37687E+00
 -1      1677 4.37027E+00
 -1      1678 4.37027E+00
 -1      1679 4.37687E+00
 -1      1680 4.38258E+00
 -1      1681 4.38258E+00
 -1      1682 4.37679E+00
 -1      1683 4.37679E+00
 -1      1684 4.38258E+00
 -1      1685 4.38258E+00
 -1      1686 4.37687E+00
 -1      1687 4.37027E+00
 -1      1688 4.37027E+00
 -1      1689 4.37687E+00
 -1      1690 4.38258E+00
 -1      1691 4.38258E+00
 -1      1692 4.37679E+00
 -1      1693 4.37679E+00
 -1      1694 4.38258E+00
 -1      1695 4.38258E+00
 -1      1696 4.37687E+00
 -1      1697 4.37027E+00
 -1      1698 4.37027E+00
 -1      1699 4.37687E+00
 -1      1700 4.38258E+00
 -1      1701 4.38258E+00
 -1      1702 4.37679E+00
 -1      1703 4.37679E+00
 -1      1704 4.38258E+00
 -1      1705 4.38258E+00
 -1      1706 4.37687E+00
 -1      1707 4.37027E+00
 -1      1708 4.37027E+00
 -1      1709 4.37687E+00
 -1      1710 4.38258E+00
 -1      1711 4.38258E+00
 -1      1712 4.37679E+00
 -1      1713 4.37679E+00
 -1      1714 4.38258E+00
 -1      1715 4.38258E+00
 -1      1716 4.37687E+00
 -1      1717 4.37027E+00
 -1      1718 4.37027E+00
 -1      1719 4.37687E+00
 -1      1720 4.38258E+00
 -1      1721 4.38258E+00
 -1      1722 4.37679E+00
 -1      1723 4.37679E+00
 -1      1724 4.38258E+00
 -1      1725 4.38258E+00
 -1      1726 4.37687E+00
 -1      1727 4.37027E+00
 -1      1728 4.37027E+00
 -1      1729 4.37687E+00
 -1      1730 4.38258E+00
 -1      1731 4.38258E+00
 -1      1732 4.37679E+00
 -1      1733 4.37679E+00
 -1      1734 4.38258E+00
 -1      1735 4.38258E+00
 -1      1736 4.37687E+00
 -1      1737 4.37027E+00
 -1      1738 4.37027E+00
 -1      1739 4.37687E+00
 -1      1740 4.38258E+00
 -1      1741 4.38258E+00
 -1      1742 4.37679E+00
 -1      1743 4.37679E+00
 -1      1744 4.38258E+00
 -1      1745 4.38258E+00
 -1      1746 4.37687E+00
 -1      1747 4.37027E+00
 -1      1748 4.37027E+00
 -1      1749 4.37687E+00
 -1      1750 4.38258E+00
 -1      1751 4.38258E+00
 -1      1752 4.37679E+00
 -1      1753 4.00188E+00
 -1      1754 4.01241E+00
 -1      1755 4.01833E+00
 -1      1756 4.01953E+00
 -1      1757 4.01953E+00
 -1      1758 4.01953E+00
 -1      1759 4.01953E+00
 -1      1760 4.01833E+00
 -1      1761 4.01241E+00
 -1      1762 4.00188E+00
 -1      1763 4.00188E+00
 -1      1764 4.01241E+00
 -1      1765 4.01833E+00
 -1      1766 4.01953E+00
 -1      1767 4.01953E+00
 -1      1768 4.01953E+00
 -1      1769 4.01953E+00
 -1      1770 4.01833E+00
 -1      1771 4.01241E+00
 -1      1772 4.00188E+00
 -1      1773 4.00188E+00
 -1      1774 4.01241E+00
 -1      1775 4.01833E+00
 -1      1776 4.01953E+00
 -1      1777 4.01953E+00
 -1      1778 4.01953E+00
 -1      1779 4.01953E+00
 -1      1780 4.01833E+00
 -1      1781 4.01241E+00
 -1      1782 4.00188E+00
 -1      1783 4.00188E+00
 -1      1784 4.01241E+00
 -1      1785 4.01833E+00
 -1      1786 4.01953E+00
 -1      1787 4.01953E+00
 -1      1788 4.01953E+00
 -1      1789 4.01953E+00
 -1      1790 4.01833E+00
 -1      1791 4.01241E+00
 -1      1792 4.00188E+00
 -1      1793 4.00188E+00
 -1      1794 4.01241E+00
 -1      1795 4.01833E+00
 -1      1796 4.01953E+00
 -1      1797 4.01953E+00
 -1      1798 4.01953E+00
 -1      1799 4.01953E+00
 -1      1800 4.01833E+00
 -1      1801 4.01241E+00
 -1      1802 4.00188E+00
 -1      1803 4.00188E+00
 -1      1804 4.01241E+00
 -1      1805 4.01833E+00
 -1      1806 4.01953E+00
 -1      1807 4.01953E+00
 -1      1808 4.01953E+00
 -1      1809 4.01953E+00
 -1      1810 4.01833E+00
 -1      1811 4.01241E+00
 -1      1812 4.00188E+00
 -1      1813 4.00188E+00
 -1      1814 4.01241E+00
 -1      1815 4.01833E+00
 -1      1816 4.01953E+00
 -1      1817 4.01953E+00
 -1      1818 4.01953E+00
 -1      1819 4.01953E+00
 -1      1820 4.01833E+00
 -1      1821 4.01241E+00
 -1      1822 4.00188E+00
 -1      1823 4.00188E+00
 -1      1824 4.01241E+00
 -1      1825 4.01833E+00
 -1      1826 4.01953E+00
 -1      1827 4.01953E+00
 -1      1828 4.01953E+00
 -1      1829 4.01953E+00
 -1      1830 4.01833E+00
 -1      1831 4.01241E+00
 -1      1832 4.00188E+00
 -1      1833 4.00188E+00
 -1      1834 4.01241E+00
 -1      1835 4.01833E+00
 -1      1836 4.01953E+00
 -1      1837 4.01953E+00
 -1      1838 4.01953E+00
 -1      1839 4.01953E+00
 -1      1840 4.01833E+00
 -1      1841 4.01241E+00
 -1      1842 4.00188E+00
 -1      1843 3.69095E+00
 -1      1844 3.69285E+00
 -1      1845 3.69568E+00
 -1      1846 3.69736E+00
 -1      1847 3.69736E+00
 -1      1848 3.69736E+00
 -1      1849 3.69736E+00
 -1      1850 3.69568E+00
 -1      1851 3.69285E+00
 -1      1852 3.69095E+00
 -1      1853 3.69095E+00
 -1      1854 3.69285E+00
 -1      1855 3.69568E+00
 -1      1856 3.69736E+00
 -1      1857 3.69736E+00
 -1      1858 3.69736E+00
 -1      1859 3.69736E+00
 -1      1860 3.69568E+00
 -1      1861 3.69285E+00
 -1      1862 3.69095E+00
 -1      1863 3.69095E+00
 -1      1864 3.69285E+00
 -1      1865 3.69568E+00
 -1      1866 3.69736E+00
 -1      1867 3.69736E+00
 -1      1868 3.69736E+00
 -1      1869 3.69736E+00
 -1      1870 3.69568E+00
 -1      1871 3.69285E+00
 -1      1872 3.69095E+00
 -1      1873 3.69095E+00
 -1      1874 3.69285E+00
 -1      1875 3.69568E+00
 -1      1876 3.69736E+00
 -1      1877 3.69736E+00
 -1      1878 3.69736E+00
 -1      1879 3.69736E+00
 -1      1880 3.69568E+00
 -1      1881 3.69285E+00
 -1      1882 3.69095E+00
 -1      1883 3.69095E+00
 -1      1884 3.69285E+00
 -1      1885 3.69568E+00
 -1      1886 3.69736E+00
 -1      1887 3.69736E+00
 -1      1888 3.69736E+00
 -1      1889 3.69736E+00
 -1      1890 3.69568E+00
 -1      1891 3.69285E+00
 -1      1892 3.69095E+00
 -1      1893 3.69095E+00
 -1      1894 3.69285E+00
 -1      1895 3.69568E+00
 -1      1896 3.69736E+00
 -1      1897 3.69736E+00
 -1      1898 3.69736E+00
 -1      1899 3.69736E+00
 -1      1900 3.69568E+00
 -1      1901 3.69285E+00
 -1      1902 3.69095E+00
 -1      1903 3.69095E+00
 -1      1904 3.69285E+00
 -1      1905 3.69568E+00
 -1      1906 3.69736E+00
 -1      1907 3.69736E+00
 -1      1908 3.69736E+00
 -1      1909 3.69736E+00
 -1      1910 3.69568E+00
 -1      1911 3.69285E+00
 -1      1912 3.69095E+00
 -1      1913 3.69095E+00
 -1      1914 3.69285E+00
 -1      1915 3.69568E+00
 -1      1916 3.69736E+00
 -1      1917 3.69736E+00
 -1      1918 3.69736E+00
 -1      1919 3.69736E+00
 -1      1920 3.69568E+00
 -1      1921 3.69285E+00
 -1      1922 3.69095E+00
 -1      1923 3.69095E+00
 -1      1924 3.69285E+00
 -1      1925 3.69568E+00
 -1      1926 3.69736E+00
 -1      1927 3.69736E+00
 -1      1928 3.69736E+00
 -1      1929 3.69736E+00
 -1      1930 3.69568E+00
 -1      1931 3.69285E+00
 -1      1932 3.69095E+00
 -1      1933 3.41266E+00
 -1      1934 3.41248E+00
 -1      1935 3.41322E+00
 -1      1936 3.41374E+00
 -1      1937 3.41384E+00
 -1      1938 3.41384E+00
 -1      1939 3.41374E+00
 -1      1940 3.41322E+00
 -1      1941 3.41248E+00
 -1      1942 3.41266E+00
 -1      1943 3.41266E+00
 -1      1944 3.41248E+00
 -1      1945 3.41322E+00
 -1      1946 3.41374E+00
 -1      1947 3.41384E+00
 -1      1948 3.41384E+00
 -1      1949 3.41374E+00
 -1      1950 3.41322E+00
 -1      1951 3.41248E+00
 -1      1952 3.41266E+00
 -1      1953 3.41266E+00
 -1      1954 3.41248E+00
 -1      1955 3.41322E+00
 -1      1956 3.41374E+00
 -1      1957 3.41384E+00
 -1      1958 3.41384E+00
 -1      1959 3.41374E+00
 -1      1960 3.41322E+00
 -1      1961 3.41248E+00
 -1      1962 3.41266E+00
 -1      1963 3.41266E+00
 -1      1964 3.41248E+00
 -1      1965 3.41322E+00
 -1      1966 3.41374E+00
 -1      1967 3.41384E+00
 -1      1968 3.41384E+00
 -1      1969 3.41374E+00
 -1      1970 3.41322E+00
 -1      1971 3.41248E+00
 -1      1972 3.41266E+00
 -1      1973 3.41266E+00
 -1      1974 3.41248E+00
 -1      1975 3.41322E+00
 -1      1976 3.41374E+00
 -1      1977 3.41384E+00
 -1      1978 3.41384E+00
 -1      1979 3.41374E+00
 -1      1980 3.41322E+00
 -1      1981 3.41248E+00
 -1      1982 3.41266E+00
 -1      1983 3.41266E+00
 -1      1984 3.41248E+00
 -1      1985 3.41322E+00
 -1      1986 3.41374E+00
 -1      1987 3.41384E+00
 -1      1988 3.41384E+00
 -1      1989 3.41374E+00
 -1      1990 3.41322E+00
 -1      1991 3.41248E+00
 -1      1992 3.41266E+00
 -1      1993 3.41266E+00
 -1      1994 3.41248E+00
 -1      1995 3.41322E+00
 -1      1996 3.41374E+00
 -1      1997 3.41384E+00
 -1      1998 3.41384E+00
 -1      1999 3.41374E+00
 -1      2000 3.41322E+00
 -1      2001 3.41248E+00
 -1      2002 3.41266E+00
 -1      2003 3.41266E+00
 -1      2004 3.41248E+00
 -1      2005 3.41322E+00
 -1      2006 3.41374E+00
 -1      2007 3.41384E+00
 -1      2008 3.41384E+00
 -1      2009 3.41374E+00
 -1      2010 3.41322E+00
 -1      2011 3.41248E+00
 -1      2012 3.41266E+00
 -1      2013 3.41266E+00
 -1      2014 3.41248E+00
 -1      2015 3.41322E+00
 -1      2016 3.41374E+00
 -1      2017 3.41384E+00
 -1      2018 3.41384E+00
 -1      2019 3.41374E+00
 -1      2020 3.41322E+00
 -1      2021 3.41248E+00
 -1      2022 3.41266E+00
 -1      2023 3.16411E+00
 -1      2024 3.16387E+00
 -1      2025 3.16365E+00
 -1      2026 3.16360E+00
 -1      2027 3.16358E+00
 -1      2028 3.16358E+00
 -1      2029 3.16360E+00
 -1      2030 3.16365E+00
 -1      2031 3.16387E+00
 -1      2032 3.16411E+00
 -1      2033 3.16411E+00
 -1      2034 3.16387E+00
 -1      2035 3.16365E+00
 -1      2036 3.16360E+00
 -1      2037 3.16358E+00
 -1      2038 3.16358E+00
 -1      2039 3.16360E+00
 -1      2040 3.16365E+00
 -1      2041 3.16387E+00
 -1      2042 3.16411E+00
 -1      2043 3.16411E+00
 -1      2044 3.16387E+00
 -1      2045 3.16365E+00
 -1      2046 3.16360E+00
 -1      2047 3.16358E+00
 -1      2048 3.16358E+00
 -1      2049 3.16360E+00
 -1      2050 3.16365E+00
 -1      2051 3.16387E+00
 -1      2052 3.16411E+00
 -1      2053 3.16411E+00
 -1      2054 3.16387E+00
 -1      2055 3.16365E+00
 -1      2056 3.16360E+00
 -1      2057 3.16358E+00
 -1      2058 3.16358E+00
 -1      2059 3.16360E+00
 -1      2060 3.16365E+00
 -1      2061 3.16387E+00
 -1      2062 3.16411E+00
 -1      2063 3.16411E+00
 -1      2064 3.16387E+00
 -1      2065 3.16365E+00
 -1      2066 3.16360E+00
 -1      2067 3.16358E+00
 -1      2068 3.16358E+00
 -1      2069 3.16360E+00
 -1      2070 3.16365E+00
 -1      2071 3.16387E+00
 -1      2072 3.16411E+00
 -1      2073 3.16411E+00
 -1      2074 3.16387E+00
 -1      2075 3.16365E+00
 -1      2076 3.16360E+00
 -1      2077 3.16358E+00
 -1      2078 3.16358E+00
 -1      2079 3.16360E+00
 -1      2080 3.16365E+00
 -1      2081 3.16387E+00
 -1      2082 3.16411E+00
 -1      2083 3.16411E+00
 -1      2084 3.16387E+00
 -1      2085 3.16365E+00
 -1      2086 3.16360E+00
 -1      2087 3.16358E+00
 -1      2088 3.16358E+00
 -1      2089 3.16360E+00
 -1      2090 3.16365E+00
 -1      2091 3.16387E+00
 -1      2092 3.16411E+00
 -1      2093 3.16411E+00
 -1      2094 3.16387E+00
 -1      2095 3.16365E+00
 -1      2096 3.16360E+00
 -1      2097 3.16358E+00
 -1      2098 3.16358E+00
 -1      2099 3.16360E+00
 -1      2100 3.16365E+00
 -1      2101 3.16387E+00
 -1      2102 3.16411E+00
 -1      2103 3.16411E+00
 -1      2104 3.16387E+00
 -1      2105 3.16365E+00
 -1      2106 3.16360E+00
 -1      2107 3.16358E+00
 -1      2108 3.16358E+00
 -1      2109 3.16360E+00
 -1      2110 3.16365E+00
 -1      2111 3.16387E+00
 -1      2112 3.16411E+00
 -1      2113 2.94078E+00
 -1      2114 2.94060E+00
 -1      2115 2.94044E+00
 -1      2116 2.94027E+00
 -1      2117 2.94013E+00
 -1      2118 2.94013E+00
 -1      2119 2.94027E+00
 -1      2120 2.94044E+00
 -1      2121 2.94060E+00
 -1      2122 2.94078E+00
 -1      2123 2.94078E+00
 -1      2124 2.94060E+00
 -1      2125 2.94044E+00
 -1      2126 2.94027E+00
 -1      2127 2.94013E+00
 -1      2128 2.94013E+00
 -1      2129 2.94027E+00
 -1      2130 2.94044E+00
 -1      2131 2.94060E+00
 -1      2132 2.94078E+00
 -1      2133 2.94078E+00
 -1      2134 2.94060E+00
 -1      2135 2.94044E+00
 -1      2136 2.94027E+00
 -1      2137 2.94013E+00
 -1      2138 2.94013E+00
 -1      2139 2.94027E+00
 -1      2140 2.94044E+00
 -1      2141 2.94060E+00
 -1      2142 2.94078E+00
 -1      2143 2.94078E+00
 -1      2144 2.94060E+00
 -1      2145 2.94044E+00
 -1      2146 2.94027E+00
 -1      2147 2.94013E+00
 -1      2148 2.94013E+00
 -1      2149 2.94027E+00
 -1      2150 2.94044E+00
 -1      2151 2.94060E+00
 -1      2152 2.94078E+00
 -1      2153 2.94078E+00
 -1      2154 2.94060E+00
 -1      2155 2.94044E+00
 -1      2156 2.94027E+00
 -1      2157 2.94013E+00
 -1      2158 2.94013E+00
 -1      2159 2.94027E+00
 -1      2160 2.94044E+00
 -1      2161 2.94060E+00
 -1      2162 2.94078E+00
 -1      2163 2.94078E+00
 -1      2164 2.94060E+00
 -1      2165 2.94044E+00
 -1      2166 2.94027E+00
 -1      2167 2.94013E+00
 -1      2168 2.94013E+00
 -1      2169 2.94027E+00
 -1      2170 2.94044E+00
 -1      2171 2.94060E+00
 -1      2172 2.94078E+00
 -1      2173 2.94078E+00
 -1      2174 2.94060E+00
 -1      2175 2.94044E+00
 -1      2176 2.94027E+00
 -1      2177 2.94013E+00
 -1      2178 2.94013E+00
 -1      2179 2.94027E+00
 -1      2180 2.94044E+00
 -1      2181 2.94060E+00
 -1      2182 2.94078E+00
 -1      2183 2.94078E+00
 -1      2184 2.94060E+00
 -1      2185 2.94044E+00
 -1      2186 2.94027E+00
 -1      2187 2.94013E+00
 -1      2188 2.94013E+00
 -1      2189 2.94027E+00
 -1      2190 2.94044E+00
 -1      2191 2.94060E+00
 -1      2192 2.94078E+00
 -1      2193 2.94078E+00
 -1      2194 2.94060E+00
 -1      2195 2.94044E+00
 -1      2196 2.94027E+00
 -1      2197 2.94013E+00
 -1      2198 2.94013E+00
 -1      2199 2.94027E+00
 -1      2200 2.94044E+00
 -1      2201 2.94060E+00
 -1      2202 2.94078E+00
 -1      2203 2.73919E+00
 -1      2204 2.73912E+00
 -1      2205 2.73901E+00
 -1      2206 2.73890E+00
 -1      2207 2.73880E+00
 -1      2208 2.73880E+00
 -1      2209 2.73890E+00
 -1      2210 2.73901E+00
 -1      2211 2.73912E+00
 -1      2212 2.73919E+00
 -1      2213 2.73919E+00
 -1      2214 2.73912E+00
 -1      2215 2.73901E+00
 -1      2216 2.73890E+00
 -1      2217 2.73880E+00
 -1      2218 2.73880E+00
 -1      2219 2.73890E+00
 -1      2220 2.73901E+00
 -1      2221 2.73912E+00
 -1      2222 2.73919E+00
 -1      2223 2.73919E+00
 -1      2224 2.73912E+00
 -1      2225 2.73901E+00
 -1      2226 2.73890E+00
 -1      2227 2.73880E+00
 -1      2228 2.73880E+00
 -1      2229 2.73890E+00
 -1      2230 2.73901E+00
 -1      2231 2.73912E+00
 -1      2232 2.73919E+00
 -1      2233 2.73919E+00
 -1      2234 2.73912E+00
 -1      2235 2.73901E+00
 -1      2236 2.73890E+00
 -1      2237 2.73880E+00
 -1      2238 2.73880E+00
 -1      2239 2.73890E+00
 -1      2240 2.73901E+00
 -1      2241 2.73912E+00
 -1      2242 2.73919E+00
 -1      2243 2.73919E+00
 -1      2244 2.73912E+00
 -1      2245 2.73901E+00
 -1      2246 2.73890E+00
 -1      2247 2.73880E+00
 -1      2248 2.73880E+00
 -1      2249 2.73890E+00
 -1      2250 2.73901E+00
 -1      2251 2.73912E+00
 -1      2252 2.73919E+00
 -1      2253 2.73919E+00
 -1      2254 2.73912E+00
 -1      2255 2.73901E+00
 -1      2256 2.73890E+00
 -1      2257 2.73880E+00
 -1      2258 2.73880E+00
 -1      2259 2.73890E+00
 -1      2260 2.73901E+00
 -1      2261 2.73912E+00
 -1      2262 2.73919E+00
 -1      2263 2.73919E+00
 -1      2264 2.73912E+00
 -1      2265 2.73901E+00
 -1      2266 2.73890E+00
 -1      2267 2.73880E+00
 -1      2268 2.73880E+00
 -1      2269 2.73890E+00
 -1      2270 2.73901E+00
 -1      2271 2.73912E+00
 -1      2272 2.73919E+00
 -1      2273 2.73919E+00
 -1      2274 2.73912E+00
 -1      2275 2.73901E+00
 -1      2276 2.73890E+00
 -1      2277 2.73880E+00
 -1      2278 2.73880E+00
 -1      2279 2.73890E+00
 -1      2280 2.73901E+00
 -1      2281 2.73912E+00
 -1      2282 2.73919E+00
 -1      2283 2.73919E+00
 -1      2284 2.73912E+00
 -1      2285 2.73901E+00
 -1      2286 2.73890E+00
 -1      2287 2.73880E+00
 -1      2288 2.73880E+00
 -1      2289 2.73890E+00
 -1      2290 2.73901E+00
 -1      2291 2.73912E+00
 -1      2292 2.73919E+00
 -1      2293 2.55649E+00
 -1      2294 2.55645E+00
 -1      2295 2.55639E+00
 -1      2296 2.55633E+00
 -1      2297 2.55628E+00
 -1      2298 2.55628E+00
 -1      2299 2.55633E+00
 -1      2300 2.55639E+00
 -1      2301 2.55645E+00
 -1      2302 2.55649E+00
 -1      2303 2.55649E+00
 -1      2304 2.55645E+00
 -1      2305 2.55639E+00
 -1      2306 2.55633E+00
 -1      2307 2.55628E+00
 -1      2308 2.55628E+00
 -1      2309 2.55633E+00
 -1      2310 2.55639E+00
 -1      2311 2.55645E+00
 -1      2312 2.55649E+00
 -1      2313 2.55649E+00
 -1      2314 2.55645E+00
 -1      2315 2.55639E+00
 -1      2316 2.55633E+00
 -1      2317 2.55628E+00
 -1      2318 2.55628E+00
 -1      2319 2.55633E+00
 -1      2320 2.55639E+00
 -1      2321 2.55645E+00
 -1      2322 2.55649E+00
 -1      2323 2.55649E+00
 -1      2324 2.55645E+00
 -1      2325 2.55639E+00
 -1      2326 2.55633E+00
 -1      2327 2.55628E+00
 -1      2328 2.55628E+00
 -1      2329 2.55633E+00
 -1      2330 2.55639E+00
 -1      2331 2.55645E+00
 -1      2332 2.55649E+00
 -1      2333 2.55649E+00
 -1      2334 2.55645E+00
 -1      2335 2.55639E+00
 -1      2336 2.55633E+00
 -1      2337 2.55628E+00
 -1      2338 2.55628E+00
 -1      2339 2.55633E+00
 -1      2340 2.55639E+00
 -1      2341 2.55645E+00
 -1      2342 2.55649E+00
 -1      2343 2.55649E+00
 -1      2344 2.55645E+00
 -1      2345 2.55639E+00
 -1      2346 2.55633E+00
 -1      2347 2.55628E+00
 -1      2348 2.55628E+00
 -1      2349 2.55633E+00
 -1      2350 2.55639E+00
 -1      2351 2.55645E+00
 -1      2352 2.55649E+00
 -1      2353 2.55649E+00
 -1      2354 2.55645E+00
 -1      2355 2.55639E+00
 -1      2356 2.55633E+00
 -1      2357 2.55628E+00
 -1      2358 2.55628E+00
 -1      2359 2.55633E+00
 -1      2360 2.55639E+00
 -1      2361 2.55645E+00
 -1      2362 2.55649E+00
 -1      2363 2.55649E+00
 -1      2364 2.55645E+00
 -1      2365 2.55639E+00
 -1      2366 2.55633E+00
 -1      2367 2.55628E+00
 -1      2368 2.55628E+00
 -1      2369 2.55633E+00
 -1      2370 2.55639E+00
 -1      2371 2.55645E+00
 -1      2372 2.55649E+00
 -1      2373 2.55649E+00
 -1      2374 2.55645E+00
 -1      2375 2.55639E+00
 -1      2376 2.55633E+00
 -1      2377 2.55628E+00
 -1      2378 2.55628E+00
 -1      2379 2.55633E+00
 -1      2380 2.55639E+00
 -1      2381 2.55645E+00
 -1      2382 2.55649E+00
 -1      2383 2.39016E+00
 -1      2384 2.39013E+00
 -1      2385 2.39010E+00
 -1      2386 2.39007E+00
 -1      2387 2.39004E+00
 -1      2388 2.39004E+00
 -1      2389 2.39007E+00
 -1      2390 2.39010E+00
 -1      2391 2.39013E+00
 -1      2392 2.39016E+00
 -1      2393 2.39016E+00
 -1      2394 2.39013E+00
 -1      2395 2.39010E+00
 -1      2396 2.39007E+00
 -1      2397 2.39004E+00
 -1      2398 2.39004E+00
 -1      2399 2.39007E+00
 -1      2400 2.39010E+00
 -1      2401 2.39013E+00
 -1      2402 2.39016E+00
 -1      2403 2.39016E+00
 -1      2404 2.39013E+00
 -1      2405 2.39010E+00
 -1      2406 2.39007E+00
 -1      2407 2.39004E+00
 -1      2408 2.39004E+00
 -1      2409 2.39007E+00
 -1      2410 2.39010E+00
 -1      2411 2.39013E+00
 -1      2412 2.39016E+00
 -1      2413 2.39016E+00
 -1      2414 2.39013E+00
 -1      2415 2.39010E+00
 -1      2416 2.39007E+00
 -1      2417 2.39004E+00
 -1      2418 2.39004E+00
 -1      2419 2.39007E+00
 -1      2420 2.39010E+00
 -1      2421 2.39013E+00
 -1      2422 2.39016E+00
 -1      2423 2.39016E+00
 -1      2424 2.39013E+00
 -1      2425 2.39010E+00
 -1      2426 2.39007E+00
 -1      2427 2.39004E+00
 -1      2428 2.39004E+00
 -1      2429 2.39007E+00
 -1      2430 2.39010E+00
 -1      2431 2.39013E+00
 -1      2432 2.39016E+00
 -1      2433 2.39016E+00
 -1      2434 2.39013E+00
 -1      2435 2.39010E+00
 -1      2436 2.39007E+00
 -1      2437 2.39004E+00
 -1      2438 2.39004E+00
 -1      2439 2.39007E+00
 -1      2440 2.39010E+00
 -1      2441 2.39013E+00
 -1      2442 2.39016E+00
 -1      2443 2.39016E+00
 -1      2444 2.39013E+00
 -1      2445 2.39010E+00
 -1      2446 2.39007E+00
 -1      2447 2.39004E+00
 -1      2448 2.39004E+00
 -1      2449 2.39007E+00
 -1      2450 2.39010E+00
 -1      2451 2.39013E+00
 -1      2452 2.39016E+00
 -1      2453 2.39016E+00
 -1      2454 2.39013E+00
 -1      2455 2.39010E+00
 -1      2456 2.39007E+00
 -1      2457 2.39004E+00
 -1      2458 2.39004E+00
 -1      2459 2.39007E+00
 -1      2460 2.39010E+00
 -1      2461 2.39013E+00
 -1      2462 2.39016E+00
 -1      2463 2.39016E+00
 -1      2464 2.39013E+00
 -1      2465 2.39010E+00
 -1      2466 2.39007E+00
 -1      2467 2.39004E+00
 -1      2468 2.39004E+00
 -1      2469 2.39007E+00
 -1      2470 2.39010E+00
 -1      2471 2.39013E+00
 -1      2472 2.39016E+00
 -1      2473 2.23816E+00
 -1      2474 2.23813E+00
 -1      2475 2.23811E+00
 -1      2476 2.23809E+00
 -1      2477 2.23807E+00
 -1      2478 2.23807E+00
 -1      2479 2.23809E+00
 -1      2480 2.23811E+00
 -1      2481 2.23813E+00
 -1      2482 2.23816E+00
 -1      2483 2.23816E+00
 -1      2484 2.23813E+00
 -1      2485 2.23811E+00
 -1      2486 2.23809E+00
 -1      2487 2.23807E+00
 -1      2488 2.23807E+00
 -1      2489 2.23809E+00
 -1      2490 2.23811E+00
 -1      2491 2.23813E+00
 -1      2492 2.23816E+00
 -1      2493 2.23816E+00
 -1      2494 2.23813E+00
 -1      2495 2.23811E+00
 -1      2496 2.23809E+00
 -1      2497 2.23807E+00
 -1      2498 2.23807E+00
 -1      2499 2.23809E+00
 -1      2500 2.23811E+00
 -1      2501 2.23813E+00
 -1      2502 2.23816E+00
 -1      2503 2.23816E+00
 -1      2504 2.23813E+00
 -1      2505 2.23811E+00
 -1      2506 2.23809E+00
 -1      2507 2.23807E+00
 -1      2508 2.23807E+00
 -1      2509 2.23809E+00
 -1      2510 2.23811E+00
 -1      2511 2.23813E+00
 -1      2512 2.23816E+00
 -1      2513 2.23816E+00
 -1      2514 2.23813E+00
 -1      2515 2.23811E+00
 -1      2516 2.23809E+00
 -1      2517 2.23807E+00
 -1      2518 2.23807E+00
 -1      2519 2.23809E+00
 -1      2520 2.23811E+00
 -1      2521 2.23813E+00
 -1      2522 2.23816E+00
 -1      2523 2.23816E+00
 -1      2524 2.23813E+00
 -1      2525 2.23811E+00
 -1      2526 2.23809E+00
 -1      2527 2.23807E+00
 -1      2528 2.23807E+00
 -1      2529 2.23809E+00
 -1      2530 2.23811E+00
 -1      2531 2.23813E+00
 -1      2532 2.23816E+00
 -1      2533 2.23816E+00
 -1      2534 2.23813E+00
 -1      2535 2.23811E+00
 -1      2536 2.23809E+00
 -1      2537 2.23807E+00
 -1      2538 2.23807E+00
 -1      2539 2.23809E+00
 -1      2540 2.23811E+00
 -1      2541 2.23813E+00
 -1      2542 2.23816E+00
 -1      2543 2.23816E+00
 -1      2544 2.23813E+00
 -1      2545 2.23811E+00
 -1      2546 2.23809E+00
 -1      2547 2.23807E+00
 -1      2548 2.23807E+00
 -1      2549 2.23809E+00
 -1      2550 2.23811E+00
 -1      2551 2.23813E+00
 -1      2552 2.23816E+00
 -1      2553 2.23816E+00
 -1      2554 2.23813E+00
 -1      2555 2.23811E+00
 -1      2556 2.23809E+00
 -1      2557 2.23807E+00
 -1      2558 2.23807E+00
 -1      2559 2.23809E+00
 -1      2560 2.23811E+00
 -1      2561 2.23813E+00
 -1      2562 2.23816E+00
 -1      2563 2.09879E+00
 -1      2564 2.09877E+00
 -1      2565 2.09875E+00
 -1      2566 2.09873E+00
 -1      2567 2.09872E+00
 -1      2568 2.09872E+00
 -1      2569 2.09873E+00
 -1      2570 2.09875E+00
 -1      2571 2.09877E+00
 -1      2572 2.09879E+00
 -1      2573 2.09879E+00
 -1      2574 2.09877E+00
 -1      2575 2.09875E+00
 -1      2576 2.09873E+00
 -1      2577 2.09872E+00
 -1      2578 2.09872E+00
 -1      2579 2.09873E+00
 -1      2580 2.09875E+00
 -1      2581 2.09877E+00
 -1      2582 2.09879E+00
 -1      2583 2.09879E+00
 -1      2584 2.09877E+00
 -1      2585 2.09875E+00
 -1      2586 2.09873E+00
 -1      2587 2.09872E+00
 -1      2588 2.09872E+00
 -1      2589 2.09873E+00
 -1      2590 2.09875E+00
 -1      2591 2.09877E+00
 -1      2592 2.09879E+00
 -1      2593 2.09879E+00
 -1      2594 2.09877E+00
 -1      2595 2.09875E+00
 -1      2596 2.09873E+00
 -1      2597 2.09872E+00
 -1      2598 2.09872E+00
 -1      2599 2.09873E+00
 -1      2600 2.09875E+00
 -1      2601 2.09877E+00
 -1      2602 2.09879E+00
 -1      2603 2.09879E+00
 -1      2604 2.09877E+00
 -1      2605 2.09875E+00
 -1      2606 2.09873E+00
 -1      2607 2.09872E+00
 -1      2608 2.09872E+00
 -1      2609 2.09873E+00
 -1      2610 2.09875E+00
 -1      2611 2.09877E+00
 -1      2612 2.09879E+00
 -1      2613 2.09879E+00
 -1      2614 2.09877E+00
 -1      2615 2.09875E+00
 -1      2616 2.09873E+00
 -1      2617 2.09872E+00
 -1      2618 2.09872E+00
 -1      2619 2.09873E+00
 -1      2620 2.09875E+00
 -1      2621 2.09877E+00
 -1      2622 2.09879E+00
 -1      2623 2.09879E+00
 -1      2624 2.09877E+00
 -1      2625 2.09875E+00
 -1      2626 2.09873E+00
 -1      2627 2.09872E+00
 -1      2628 2.09872E+00
 -1      2629 2.09873E+00
 -1      2630 2.09875E+00
 -1      2631 2.09877E+00
 -1      2632 2.09879E+00
 -1      2633 2.09879E+00
 -1      2634 2.09877E+00
 -1      2635 2.09875E+00
 -1      2636 2.09873E+00
 -1      2637 2.09872E+00
 -1      2638 2.09872E+00
 -1      2639 2.09873E+00
 -1      2640 2.09875E+00
 -1      2641 2.09877E+00
 -1      2642 2.09879E+00
 -1      2643 2.09879E+00
 -1      2644 2.09877E+00
 -1      2645 2.09875E+00
 -1      2646 2.09873E+00
 -1      2647 2.09872E+00
 -1      2648 2.09872E+00
 -1      2649 2.09873E+00
 -1      2650 2.09875E+00
 -1      2651 2.09877E+00
 -1      2652 2.09879E+00
 -1      2653 1.97064E+00
 -1      2654 1.97062E+00
 -1      2655 1.97061E+00
 -1      2656 1.97060E+00
 -1      2657 1.97059E+00
 -1      2658 1.97059E+00
 -1      2659 1.97060E+00
 -1      2660 1.97061E+00
 -1      2661 1.97062E+00
 -1      2662 1.97064E+00
 -1      2663 1.97064E+00
 -1      2664 1.97062E+00
 -1      2665 1.97061E+00
 -1      2666 1.97060E+00
 -1      2667 1.97059E+00
 -1      2668 1.97059E+00
 -1      2669 1.97060E+00
 -1      2670 1.97061E+00
 -1      2671 1.97062E+00
 -1      2672 1.97064E+00
 -1      2673 1.97064E+00
 -1      2674 1.97062E+00
 -1      2675 1.97061E+00
 -1      2676 1.97060E+00
 -1      2677 1.97059E+00
 -1      2678 1.97059E+00
 -1      2679 1.97060E+00
 -1      2680 1.97061E+00
 -1      2681 1.97062E+00
 -1      2682 1.97064E+00
 -1      2683 1.97064E+00
 -1      2684 1.97062E+00
 -1      2685 1.97061E+00
 -1      2686 1.97060E+00
 -1      2687 1.97059E+00
 -1      2688 1.97059E+00
 -1      2689 1.97060E+00
 -1      2690 1.97061E+00
 -1      2691 1.97062E+00
 -1      2692 1.97064E+00
 -1      2693 1.97064E+00
 -1      2694 1.97062E+00
 -1      2695 1.97061E+00
 -1      2696 1.97060E+00
 -1      2697 1.97059E+00
 -1      2698 1.97059E+00
 -1      2699 1.97060E+00
 -1      2700 1.97061E+00
 -1      2701 1.97062E+00
 -1      2702 1.97064E+00
 -1      2703 1.97064E+00
 -1      2704 1.97062E+00
 -1      2705 1.97061E+00
 -1      2706 1.97060E+00
 -1      2707 1.97059E+00
 -1      2708 1.97059E+00
 -1      2709 1.97060E+00
 -1      2710 1.97061E+00
 -1      2711 1.97062E+00
 -1      2712 1.97064E+00
 -1      2713 1.97064E+00
 -1      2714 1.97062E+00
 -1      2715 1.97061E+00
 -1      2716 1.97060E+00
 -1      2717 1.97059E+00
 -1      2718 1.97059E+00
 -1      2719 1.97060E+00
 -1      2720 1.97061E+00
 -1      2721 1.97062E+00
 -1      2722 1.97064E+00
 -1      2723 1.97064E+00
 -1      2724 1.97062E+00
 -1      2725 1.97061E+00
 -1      2726 1.97060E+00
 -1      2727 1.97059E+00
 -1      2728 1.97059E+00
 -1      2729 1.97060E+00
 -1      2730 1.97061E+00
 -1      2731 1.97062E+00
 -1      2732 1.97064E+00
 -1      2733 1.97064E+00
 -1      2734 1.97062E+00
 -1      2735 1.97061E+00
 -1      2736 1.97060E+00
 -1      2737 1.97059E+00
 -1      2738 1.97059E+00
 -1      2739 1.97060E+00
 -1      2740 1.97061E+00
 -1      2741 1.97062E+00
 -1      2742 1.97064E+00
 -1      2743 1.85252E+00
 -1      2744 1.85250E+00
 -1      2745 1.85249E+00
 -1      2746 1.85248E+00
 -1      2747 1.85247E+00
 -1      2748 1.85247E+00
 -1      2749 1.85248E+00
 -1      2750 1.85249E+00
 -1      2751 1.85250E+00
 -1      2752 1.85252E+00
 -1      2753 1.85252E+00
 -1      2754 1.85250E+00
 -1      2755 1.85249E+00
 -1      2756 1.85248E+00
 -1      2757 1.85247E+00
 -1      2758 1.85247E+00
 -1      2759 1.85248E+00
 -1      2760 1.85249E+00
 -1      2761 1.85250E+00
 -1      2762 1.85252E+00
 -1      2763 1.85252E+00
 -1      2764 1.85250E+00
 -1      2765 1.85249E+00
 -1      2766 1.85248E+00
 -1      2767 1.85247E+00
 -1      2768 1.85247E+00
 -1      2769 1.85248E+00
 -1      2770 1.85249E+00
 -1      2771 1.85250E+00
 -1      2772 1.85252E+00
 -1      2773 1.85252E+00
 -1      2774 1.85250E+00
 -1      2775 1.85249E+00
 -1      2776 1.85248E+00
 -1      2777 1.85247E+00
 -1      2778 1.85247E+00
 -1      2779 1.85248E+00
 -1      2780 1.85249E+00
 -1      2781 1.85250E+00
 -1      2782 1.85252E+00
 -1      2783 1.85252E+00
 -1      2784 1.85250E+00
 -1      2785 1.85249E+00
 -1      2786 1.85248E+00
 -1      2787 1.85247E+00
 -1      2788 1.85247E+00
 -1      2789 1.85248E+00
 -1      2790 1.85249E+00
 -1      2791 1.85250E+00
 -1      2792 1.85252E+00
 -1      2793 1.85252E+00
 -1      2794 1.85250E+00
 -1      2795 1.85249E+00
 -1      2796 1.85248E+00
 -1      2797 1.85247E+00
 -1      2798 1.85247E+00
 -1      2799 1.85248E+00
 -1      2800 1.85249E+00
 -1      2801 1.85250E+00
 -1      2802 1.85252E+00
 -1      2803 1.85252E+00
 -1      2804 1.85250E+00
 -1      2805 1.85249E+00
 -1      2806 1.85248E+00
 -1      2807 1.85247E+00
 -1      2808 1.85247E+00
 -1      2809 1.85248E+00
 -1      2810 1.85249E+00
 -1      2811 1.85250E+00
 -1      2812 1.85252E+00
 -1      2813 1.85252E+00
 -1      2814 1.85250E+00
 -1      2815 1.85249E+00
 -1      2816 1.85248E+00
 -1      2817 1.85247E+00
 -1      2818 1.85247E+00
 -1      2819 1.85248E+00
 -1      2820 1.85249E+00
 -1      2821 1.85250E+00
 -1      2822 1.85252E+00
 -1      2823 1.85252E+00
 -1      2824 1.85250E+00
 -1      2825 1.85249E+00
 -1      2826 1.85248E+00
 -1      2827 1.85247E+00
 -1      2828 1.85247E+00
 -1      2829 1.85248E+00
 -1      2830 1.85249E+00
 -1      2831 1.85250E+00
 -1      2832 1.85252E+00
 -1      2833 1.74340E+00
 -1      2834 1.74339E+00
 -1      2835 1.74338E+00
 -1      2836 1.74337E+00
 -1      2837 1.74336E+00
 -1      2838 1.74336E+00
 -1      2839 1.74337E+00
 -1      2840 1.74338E+00
 -1      2841 1.74339E+00
 -1      2842 1.74340E+00
 -1      2843 1.74340E+00
 -1      2844 1.74339E+00
 -1      2845 1.74338E+00
 -1      2846 1.74337E+00
 -1      2847 1.74336E+00
 -1      2848 1.74336E+00
 -1      2849 1.74337E+00
 -1      2850 1.74338E+00
 -1      2851 1.74339E+00
 -1      2852 1.74340E+00
 -1      2853 1.74340E+00
 -1      2854 1.74339E+00
 -1      2855 1.74338E+00
 -1      2856 1.74337E+00
 -1      2857 1.74336E+00
 -1      2858 1.74336E+00
 -1      2859 1.74337E+00
 -1      2860 1.74338E+00
 -1      2861 1.74339E+00
 -1      2862 1.74340E+00
 -1      2863 1.74340E+00
 -1      2864 1.74339E+00
 -1      2865 1.74338E+00
 -1      2866 1.74337E+00
 -1      2867 1.74336E+00
 -1      2868 1.74336E+00
 -1      2869 1.74337E+00
 -1      2870 1.74338E+00
 -1      2871 1.74339E+00
 -1      2872 1.74340E+00
 -1      2873 1.74340E+00
 -1      2874 1.74339E+00
 -1      2875 1.74338E+00
 -1      2876 1.74337E+00
 -1      2877 1.74336E+00
 -1      2878 1.74336E+00
 -1      2879 1.74337E+00
 -1      2880 1.74338E+00
 -1      2881 1.74339E+00
 -1      2882 1.74340E+00
 -1      2883 1.74340E+00
 -1      2884 1.74339E+00
 -1      2885 1.74338E+00
 -1      2886 1.74337E+00
 -1      2887 1.74336E+00
 -1      2888 1.74336E+00
 -1      2889 1.74337E+00
 -1      2890 1.74338E+00
 -1      2891 1.74339E+00
 -1      2892 1.74340E+00
 -1      2893 1.74340E+00
 -1      2894 1.74339E+00
 -1      2895 1.74338E+00
 -1      2896 1.74337E+00
 -1      2897 1.74336E+00
 -1      2898 1.74336E+00
 -1      2899 1.74337E+00
 -1      2900 1.74338E+00
 -1      2901 1.74339E+00
 -1      2902 1.74340E+00
 -1      2903 1.74340E+00
 -1      2904 1.74339E+00
 -1      2905 1.74338E+00
 -1      2906 1.74337E+00
 -1      2907 1.74336E+00
 -1      2908 1.74336E+00
 -1      2909 1.74337E+00
 -1      2910 1.74338E+00
 -1      2911 1.74339E+00
 -1      2912 1.74340E+00
 -1      2913 1.74340E+00
 -1      2914 1.74339E+00
 -1      2915 1.74338E+00
 -1      2916 1.74337E+00
 -1      2917 1.74336E+00
 -1      2918 1.74336E+00
 -1      2919 1.74337E+00
 -1      2920 1.74338E+00
 -1      2921 1.74339E+00
 -1      2922 1.74340E+00
 -1      2923 1.64239E+00
 -1      2924 1.64238E+00
 -1      2925 1.64237E+00
 -1      2926 1.64237E+00
 -1      2927 1.64236E+00
 -1      2928 1.64236E+00
 -1      2929 1.64237E+00
 -1      2930 1.64237E+00
 -1      2931 1.64238E+00
 -1      2932 1.64239E+00
 -1      2933 1.64239E+00
 -1      2934 1.64238E+00
 -1      2935 1.64237E+00
 -1      2936 1.64237E+00
 -1      2937 1.64236E+00
 -1      2938 1.64236E+00
 -1      2939 1.64237E+00
 -1      2940 1.64237E+00
 -1      2941 1.64238E+00
 -1      2942 1.64239E+00
 -1      2943 1.64239E+00
 -1      2944 1.64238E+00
 -1      2945 1.64237E+00
 -1      2946 1.64237E+00
 -1      2947 1.64236E+00
 -1      2948 1.64236E+00
 -1      2949 1.64237E+00
 -1      2950 1.64237E+00
 -1      2951 1.64238E+00
 -1      2952 1.64239E+00
 -1      2953 1.64239E+00
 -1      2954 1.64238E+00
 -1      2955 1.64237E+00
 -1      2956 1.64237E+00
 -1      2957 1.64236E+00
 -1      2958 1.64236E+00
 -1      2959 1.64237E+00
 -1      2960 1.64237E+00
 -1      2961 1.64238E+00
 -1      2962 1.64239E+00
 -1      2963 1.64239E+00
 -1      2964 1.64238E+00
 -1      2965 1.64237E+00
 -1      2966 1.64237E+00
 -1      2967 1.64236E+00
 -1      2968 1.64236E+00
 -1      2969 1.64237E+00
 -1      2970 1.64237E+00
 -1      2971 1.64238E+00
 -1      2972 1.64239E+00
 -1      2973 1.64239E+00
 -1      2974 1.64238E+00
 -1      2975 1.64237E+00
 -1      2976 1.64237E+00
 -1      2977 1.64236E+00
 -1      2978 1.64236E+00
 -1      2979 1.64237E+00
 -1      2980 1.64237E+00
 -1      2981 1.64238E+00
 -1      2982 1.64239E+00
 -1      2983 1.64239E+00
 -1      2984 1.64238E+00
 -1      2985 1.64237E+00
 -1      2986 1.64237E+00
 -1      2987 1.64236E+00
 -1      2988 1.64236E+00
 -1      2989 1.64237E+00
 -1      2990 1.64237E+00
 -1      2991 1.64238E+00
 -1      2992 1.64239E+00
 -1      2993 1.64239E+00
 -1      2994 1.64238E+00
 -1      2995 1.64237E+00
 -1      2996 1.64237E+00
 -1      2997 1.64236E+00
 -1      2998 1.64236E+00
 -1      2999 1.64237E+00
 -1      3000 1.64237E+00
 -1      3001 1.64238E+00
 -1      3002 1.64239E+00
 -1      3003 1.64239E+00
 -1      3004 1.64238E+00
 -1      3005 1.64237E+00
 -1      3006 1.64237E+00
 -1      3007 1.64236E+00
 -1      3008 1.64236E+00
 -1      3009 1.64237E+00
 -1      3010 1.64237E+00
 -1      3011 1.64238E+00
 -1      3012 1.64239E+00
 -1      3013 1.54873E+00
 -1      3014 1.54872E+00
 -1      3015 1.54871E+00
 -1      3016 1.54871E+00
 -1      3017 1.54870E+00
 -1      3018 1.54870E+00
 -1      3019 1.54871E+00
 -1      3020 1.54871E+00
 -1      3021 1.54872E+00
 -1      3022 1.54873E+00
 -1      3023 1.54873E+00
 -1      3024 1.54872E+00
 -1      3025 1.54871E+00
 -1      3026 1.54871E+00
 -1      3027 1.54870E+00
 -1      3028 1.54870E+00
 -1      3029 1.54871E+00
 -1      3030 1.54871E+00
 -1      3031 1.54872E+00
 -1      3032 1.54873E+00
 -1      3033 1.54873E+00
 -1      3034 1.54872E+00
 -1      3035 1.54871E+00
 -1      3036 1.54871E+00
 -1      3037 1.54870E+00
 -1      3038 1.54870E+00
 -1      3039 1.54871E+00
 -1      3040 1.54871E+00
 -1      3041 1.54872E+00
 -1      3042 1.54873E+00
 -1      3043 1.54873E+00
 -1      3044 1.54872E+00
 -1      3045 1.54871E+00
 -1      3046 1.54871E+00
 -1      3047 1.54870E+00
 -1      3048 1.54870E+00
 -1      3049 1.54871E+00
 -1      3050 1.54871E+00
 -1      3051 1.54872E+00
 -1      3052 1.54873E+00
 -1      3053 1.54873E+00
 -1      3054 1.54872E+00
 -1      3055 1.54871E+00
 -1      3056 1.54871E+00
 -1      3057 1.54870E+00
 -1      3058 1.54870E+00
 -1      3059 1.54871E+00
 -1      3060 1.54871E+00
 -1      3061 1.54872E+00
 -1      3062 1.54873E+00
 -1      3063 1.54873E+00
 -1      3064 1.54872E+00
 -1      3065 1.54871E+00
 -1      3066 1.54871E+00
 -1      3067 1.54870E+00
 -1      3068 1.54870E+00
 -1      3069 1.54871E+00
 -1      3070 1.54871E+00
 -1      3071 1.54872E+00
 -1      3072 1.54873E+00
 -1      3073 1.54873E+00
 -1      3074 1.54872E+00
 -1      3075 1.54871E+00
 -1      3076 1.54871E+00
 -1      3077 1.54870E+00
 -1      3078 1.54870E+00
 -1      3079 1.54871E+00
 -1      3080 1.54871E+00
 -1      3081 1.54872E+00
 -1      3082 1.54873E+00
 -1      3083 1.54873E+00
 -1      3084 1.54872E+00
 -1      3085 1.54871E+00
 -1      3086 1.54871E+00
 -1      3087 1.54870E+00
 -1      3088 1.54870E+00
 -1      3089 1.54871E+00
 -1      3090 1.54871E+00
 -1      3091 1.54872E+00
 -1      3092 1.54873E+00
 -1      3093 1.54873E+00
 -1      3094 1.54872E+00
 -1      3095 1.54871E+00
 -1      3096 1.54871E+00
 -1      3097 1.54870E+00
 -1      3098 1.54870E+00
 -1      3099 1.54871E+00
 -1      3100 1.54871E+00
 -1      3101 1.54872E+00
 -1      3102 1.54873E+00
 -1      3103 1.46173E+00
 -1      3104 1.46172E+00
 -1      3105 1.46172E+00
 -1      3106 1.46171E+00
 -1      3107 1.46171E+00
 -1      3108 1.46171E+00
 -1      3109 1.46171E+00
 -1      3110 1.46172E+00
 -1      3111 1.46172E+00
 -1      3112 1.46173E+00
 -1      3113 1.46173E+00
 -1      3114 1.46172E+00
 -1      3115 1.46172E+00
 -1      3116 1.46171E+00
 -1      3117 1.46171E+00
 -1      3118 1.46171E+00
 -1      3119 1.46171E+00
 -1      3120 1.46172E+00
 -1      3121 1.46172E+00
 -1      3122 1.46173E+00
 -1      3123 1.46173E+00
 -1      3124 1.46172E+00
 -1      3125 1.46172E+00
 -1      3126 1.46171E+00
 -1      3127 1.46171E+00
 -1      3128 1.46171E+00
 -1      3129 1.46171E+00
 -1      3130 1.46172E+00
 -1      3131 1.46172E+00
 -1      3132 1.46173E+00
 -1      3133 1.46173E+00
 -1      3134 1.46172E+00
 -1      3135 1.46172E+00
 -1      3136 1.46171E+00
 -1      3137 1.46171E+00
 -1      3138 1.46171E+00
 -1      3139 1.46171E+00
 -1      3140 1.46172E+00
 -1      3141 1.46172E+00
 -1      3142 1.46173E+00
 -1      3143 1.46173E+00
 -1      3144 1.46172E+00
 -1      3145 1.46172E+00
 -1      3146 1.46171E+00
 -1      3147 1.46171E+00
 -1      3148 1.46171E+00
 -1      3149 1.46171E+00
 -1      3150 1.46172E+00
 -1      3151 1.46172E+00
 -1      3152 1.46173E+00
 -1      3153 1.46173E+00
 -1      3154 1.46172E+00
 -1      3155 1.46172E+00
 -1      3156 1.46171E+00
 -1      3157 1.46171E+00
 -1      3158 1.46171E+00
 -1      3159 1.46171E+00
 -1      3160 1.46172E+00
 -1      3161 1.46172E+00
 -1      3162 1.46173E+00
 -1      3163 1.46173E+00
 -1      3164 1.46172E+00
 -1      3165 1.46172E+00
 -1      3166 1.46171E+00
 -1      3167 1.46171E+00
 -1      3168 1.46171E+00
 -1      3169 1.46171E+00
 -1      3170 1.46172E+00
 -1      3171 1.46172E+00
 -1      3172 1.46173E+00
 -1      3173 1.46173E+00
 -1      3174 1.46172E+00
 -1      3175 1.46172E+00
 -1      3176 1.46171E+00
 -1      3177 1.46171E+00
 -1      3178 1.46171E+00
 -1      3179 1.46171E+00
 -1      3180 1.46172E+00
 -1      3181 1.46172E+00
 -1      3182 1.46173E+00
 -1      3183 1.46173E+00
 -1      3184 1.46172E+00
 -1      3185 1.46172E+00
 -1      3186 1.46171E+00
 -1      3187 1.46171E+00
 -1      3188 1.46171E+00
 -1      3189 1.46171E+00
 -1      3190 1.46172E+00
 -1      3191 1.46172E+00
 -1      3192 1.46173E+00
 -1      3193 1.38081E+00
 -1      3194 1.38080E+00
 -1      3195 1.38080E+00
 -1      3196 1.38079E+00
 -1      3197 1.38079E+00
 -1      3198 1.38079E+00
 -1      3199 1.38079E+00
 -1      3200 1.38080E+00
 -1      3201 1.38080E+00
 -1      3202 1.38081E+00
 -1      3203 1.38081E+00
 -1      3204 1.38080E+00
 -1      3205 1.38080E+00
 -1      3206 1.38079E+00
 -1      3207 1.38079E+00
 -1      3208 1.38079E+00
 -1      3209 1.38079E+00
 -1      3210 1.38080E+00
 -1      3211 1.38080E+00
 -1      3212 1.38081E+00
 -1      3213 1.38081E+00
 -1      3214 1.38080E+00
 -1      3215 1.38080E+00
 -1      3216 1.38079E+00
 -1      3217 1.38079E+00
 -1      3218 1.38079E+00
 -1      3219 1.38079E+00
 -1      3220 1.38080E+00
 -1      3221 1.38080E+00
 -1      3222 1.38081E+00
 -1      3223 1.38081E+00
 -1      3224 1.38080E+00
 -1      3225 1.38080E+00
 -1      3226 1.38079E+00
 -1      3227 1.38079E+00
 -1      3228 1.38079E+00
 -1      3229 1.38079E+00
 -1      3230 1.38080E+00
 -1      3231 1.38080E+00
 -1      3232 1.38081E+00
 -1      3233 1.38081E+00
 -1      3234 1.38080E+00
 -1      3235 1.38080E+00
 -1      3236 1.38079E+00
 -1      3237 1.38079E+00
 -1      3238 1.38079E+00
 -1      3239 1.38079E+00
 -1      3240 1.38080E+00
 -1      3241 1.38080E+00
 -1      3242 1.38081E+00
 -1      3243 1.38081E+00
 -1      3244 1.38080E+00
 -1      3245 1.38080E+00
 -1      3246 1.38079E+00
 -1      3247 1.38079E+00
 -1      3248 1.38079E+00
 -1      3249 1.38079E+00
 -1      3250 1.38080E+00
 -1      3251 1.38080E+00
 -1      3252 1.38081E+00
 -1      3253 1.38081E+00
 -1      3254 1.38080E+00
 -1      3255 1.38080E+00
 -1      3256 1.38079E+00
 -1      3257 1.38079E+00
 -1      3258 1.38079E+00
 -1      3259 1.38079E+00
 -1      3260 1.38080E+00
 -1      3261 1.38080E+00
 -1      3262 1.38081E+00
 -1      3263 1.38081E+00
 -1      3264 1.38080E+00
 -1      3265 1.38080E+00
 -1      3266 1.38079E+00
 -1      3267 1.38079E+00
 -1      3268 1.38079E+00
 -1      3269 1.38079E+00
 -1      3270 1.38080E+00
 -1      3271 1.38080E+00
 -1      3272 1.38081E+00
 -1      3273 1.38081E+00
 -1      3274 1.38080E+00
 -1      3275 1.38080E+00
 -1      3276 1.38079E+00
 -1      3277 1.38079E+00
 -1      3278 1.38079E+00
 -1      3279 1.38079E+00
 -1      3280 1.38080E+00
 -1      3281 1.38080E+00
 -1      3282 1.38081E+00
 -1      3283 1.30543E+00
 -1      3284 1.30543E+00
 -1      3285 1.30542E+00
 -1      3286 1.30542E+00
 -1      3287 1.30541E+00
 -1      3288 1.30541E+00
 -1      3289 1.30542E+00
 -1      3290 1.30542E+00
 -1      3291 1.30543E+00
 -1      3292 1.30543E+00
 -1      3293 1.30543E+00
 -1      3294 1.30543E+00
 -1      3295 1.30542E+00
 -1      3296 1.30542E+00
 -1      3297 1.30541E+00
 -1      3298 1.30541E+00
 -1      3299 1.30542E+00
 -1      3300 1.30542E+00
 -1      3301 1.30543E+00
 -1      3302 1.30543E+00
 -1      3303 1.30543E+00
 -1      3304 1.30543E+00
 -1      3305 1.30542E+00
 -1      3306 1.30542E+00
 -1      3307 1.30541E+00
 -1      3308 1.30541E+00
 -1      3309 1.30542E+00
 -1      3310 1.30542E+00
 -1      3311 1.30543E+00
 -1      3312 1.30543E+00
 -1      3313 1.30543E+00
 -1      3314 1.30543E+00
 -1      3315 1.30542E+00
 -1      3316 1.30542E+00
 -1      3317 1.30541E+00
 -1      3318 1.30541E+00
 -1      3319 1.30542E+00
 -1      3320 1.30542E+00
 -1      3321 1.30543E+00
 -1      3322 1.30543E+00
 -1      3323 1.30543E+00
 -1      3324 1.30543E+00
 -1      3325 1.30542E+00
 -1      3326 1.30542E+00
 -1      3327 1.30541E+00
 -1      3328 1.30541E+00
 -1      3329 1.30542E+00
 -1      3330 1.30542E+00
 -1      3331 1.30543E+00
 -1      3332 1.30543E+00
 -1      3333 1.30543E+00
 -1      3334 1.30543E+00
 -1      3335 1.30542E+00
 -1      3336 1.30542E+00
 -1      3337 1.30541E+00
 -1      3338 1.30541E+00
 -1      3339 1.30542E+00
 -1      3340 1.30542E+00
 -1      3341 1.30543E+00
 -1      3342 1.30543E+00
 -1      3343 1.30543E+00
 -1      3344 1.30543E+00
 -1      3345 1.30542E+00
 -1      3346 1.30542E+00
 -1      3347 1.30541E+00
 -1      3348 1.30541E+00
 -1      3349 1.30542E+00
 -1      3350 1.30542E+00
 -1      3351 1.30543E+00
 -1      3352 1.30543E+00
 -1      3353 1.30543E+00
 -1      3354 1.30543E+00
 -1      3355 1.30542E+00
 -1      3356 1.30542E+00
 -1      3357 1.30541E+00
 -1      3358 1.30541E+00
 -1      3359 1.30542E+00
 -1      3360 1.30542E+00
 -1      3361 1.30543E+00
 -1      3362 1.30543E+00
 -1      3363 1.30543E+00
 -1      3364 1.30543E+00
 -1      3365 1.30542E+00
 -1      3366 1.30542E+00
 -1      3367 1.30541E+00
 -1      3368 1.30541E+00
 -1      3369 1.30542E+00
 -1      3370 1.30542E+00
 -1      3371 1.30543E+00
 -1      3372 1.30543E+00
 -1      3373 1.23514E+00
 -1      3374 1.23513E+00
 -1      3375 1.23512E+00
 -1      3376 1.23512E+00
 -1      3377 1.23512E+00
 -1      3378 1.23512E+00
 -1      3379 1.23512E+00
 -1      3380 1.23512E+00
 -1      3381 1.23513E+00
 -1      3382 1.23514E+00
 -1      3383 1.23514E+00
 -1      3384 1.23513E+00
 -1      3385 1.23512E+00
 -1      3386 1.23512E+00
 -1      3387 1.23512E+00
 -1      3388 1.23512E+00
 -1      3389 1.23512E+00
 -1      3390 1.23512E+00
 -1      3391 1.23513E+00
 -1      3392 1.23514E+00
 -1      3393 1.23514E+00
 -1      3394 1.23513E+00
 -1      3395 1.23512E+00
 -1      3396 1.23512E+00
 -1      3397 1.23512E+00
 -1      3398 1.23512E+00
 -1      3399 1.23512E+00
 -1      3400 1.23512E+00
 -1      3401 1.23513E+00
 -1      3402 1.23514E+00
 -1      3403 1.23514E+00
 -1      3404 1.23513E+00
 -1      3405 1.23512E+00
 -1      3406 1.23512E+00
 -1      3407 1.23512E+00
 -1      3408 1.23512E+00
 -1      3409 1.23512E+00
 -1      3410 1.23512E+00
 -1      3411 1.23513E+00
 -1      3412 1.23514E+00
 -1      3413 1.23514E+00
 -1      3414 1.23513E+00
 -1      3415 1.23512E+00
 -1      3416 1.23512E+00
 -1      3417 1.23512E+00
 -1      3418 1.23512E+00
 -1      3419 1.23512E+00
 -1      3420 1.23512E+00
 -1      3421 1.23513E+00
 -1      3422 1.23514E+00
 -1      3423 1.23514E+00
 -1      3424 1.23513E+00
 -1      3425 1.23512E+00
 -1      3426 1.23512E+00
 -1      3427 1.23512E+00
 -1      3428 1.23512E+00
 -1      3429 1.23512E+00
 -1      3430 1.23512E+00
 -1      3431 1.23513E+00
 -1      3432 1.23514E+00
 -1      3433 1.23514E+00
 -1      3434 1.23513E+00
 -1      3435 1.23512E+00
 -1      3436 1.23512E+00
 -1      3437 1.23512E+00
 -1      3438 1.23512E+00
 -1      3439 1.23512E+00
 -1      3440 1.23512E+00
 -1      3441 1.23513E+00
 -1      3442 1.23514E+00
 -1      3443 1.23514E+00
 -1      3444 1.23513E+00
 -1      3445 1.23512E+00
 -1      3446 1.23512E+00
 -1      3447 1.23512E+00
 -1      3448 1.23512E+00
 -1      3449 1.23512E+00
 -1      3450 1.23512E+00
 -1      3451 1.23513E+00
 -1      3452 1.23514E+00
 -1      3453 1.23514E+00
 -1      3454 1.23513E+00
 -1      3455 1.23512E+00
 -1      3456 1.23512E+00
 -1      3457 1.23512E+00
 -1      3458 1.23512E+00
 -1      3459 1.23512E+00
 -1      3460 1.23512E+00
 -1      3461 1.23513E+00
 -1      3462 1.23514E+00
 -1      3463 1.16951E+00
 -1      3464 1.16951E+00
 -1      3465 1.16950E+00
 -1      3466 1.16950E+00
 -1      3467 1.16950E+00
 -1      3468 1.16950E+00
 -1      3469 1.16950E+00
 -1      3470 1.16950E+00
 -1      3471 1.16951E+00
 -1      3472 1.16951E+00
 -1      3473 1.16951E+00
 -1      3474 1.16951E+00
 -1      3475 1.16950E+00
 -1      3476 1.16950E+00
 -1      3477 1.16950E+00
 -1      3478 1.16950E+00
 -1      3479 1.16950E+00
 -1      3480 1.16950E+00
 -1      3481 1.16951E+00
 -1      3482 1.16951E+00
 -1      3483 1.16951E+00
 -1      3484 1.16951E+00
 -1      3485 1.16950E+00
 -1      3486 1.16950E+00
 -1      3487 1.16950E+00
 -1      3488 1.16950E+00
 -1      3489 1.16950E+00
 -1      3490 1.16950E+00
 -1      3491 1.16951E+00
 -1      3492 1.16951E+00
 -1      3493 1.16951E+00
 -1      3494 1.16951E+00
 -1      3495 1.16950E+00
 -1      3496 1.16950E+00
 -1      3497 1.16950E+00
 -1      3498 1.16950E+00
 -1      3499 1.16950E+00
 -1      3500 1.16950E+00
 -1      3501 1.16951E+00
 -1      3502 1.16951E+00
 -1      3503 1.16951E+00
 -1      3504 1.16951E+00
 -1      3505 1.16950E+00
 -1      3506 1.16950E+00
 -1      3507 1.16950E+00
 -1      3508 1.16950E+00
 -1      3509 1.16950E+00
 -1      3510 1.16950E+00
 -1      3511 1.16951E+00
 -1      3512 1.16951E+00
 -1      3513 1.16951E+00
 -1      3514 1.16951E+00
 -1      3515 1.16950E+00
 -1      3516 1.16950E+00
 -1      3517 1.16950E+00
 -1      3518 1.16950E+00
 -1      3519 1.16950E+00
 -1      3520 1.16950E+00
 -1      3521 1.16951E+00
 -1      3522 1.16951E+00
 -1      3523 1.16951E+00
 -1      3524 1.16951E+00
 -1      3525 1.16950E+00
 -1      3526 1.16950E+00
 -1      3527 1.16950E+00
 -1      3528 1.16950E+00
 -1      3529 1.16950E+00
 -1      3530 1.16950E+00
 -1      3531 1.16951E+00
 -1      3532 1.16951E+00
 -1      3533 1.16951E+00
 -1      3534 1.16951E+00
 -1      3535 1.16950E+00
 -1      3536 1.16950E+00
 -1      3537 1.16950E+00
 -1      3538 1.16950E+00
 -1      3539 1.16950E+00
 -1      3540 1.16950E+00
 -1      3541 1.16951E+00
 -1      3542 1.16951E+00
 -1      3543 1.16951E+00
 -1      3544 1.16951E+00
 -1      3545 1.16950E+00
 -1      3546 1.16950E+00
 -1      3547 1.16950E+00
 -1      3548 1.16950E+00
 -1      3549 1.16950E+00
 -1      3550 1.16950E+00
 -1      3551 1.16951E+00
 -1      3552 1.16951E+00
 -1      3553 1.10819E+00
 -1      3554 1.10819E+00
 -1      3555 1.10819E+00
 -1      3556 1.10820E+00
 -1      3557 1.10820E+00
 -1      3558 1.10820E+00
 -1      3559 1.10820E+00
 -1      3560 1.10819E+00
 -1      3561 1.10819E+00
 -1      3562 1.10819E+00
 -1      3563 1.10819E+00
 -1      3564 1.10819E+00
 -1      3565 1.10819E+00
 -1      3566 1.10820E+00
 -1      3567 1.10820E+00
 -1      3568 1.10820E+00
 -1      3569 1.10820E+00
 -1      3570 1.10819E+00
 -1      3571 1.10819E+00
 -1      3572 1.10819E+00
 -1      3573 1.10819E+00
 -1      3574 1.10819E+00
 -1      3575 1.10819E+00
 -1      3576 1.10820E+00
 -1      3577 1.10820E+00
 -1      3578 1.10820E+00
 -1      3579 1.10820E+00
 -1      3580 1.10819E+00
 -1      3581 1.10819E+00
 -1      3582 1.10819E+00
 -1      3583 1.10819E+00
 -1      3584 1.10819E+00
 -1      3585 1.10819E+00
 -1      3586 1.10820E+00
 -1      3587 1.10820E+00
 -1      3588 1.10820E+00
 -1      3589 1.10820E+00
 -1      3590 1.10819E+00
 -1      3591 1.10819E+00
 -1      3592 1.10819E+00
 -1      3593 1.10819E+00
 -1      3594 1.10819E+00
 -1      3595 1.10819E+00
 -1      3596 1.10820E+00
 -1      3597 1.10820E+00
 -1      3598 1.10820E+00
 -1      3599 1.10820E+00
 -1      3600 1.10819E+00
 -1      3601 1.10819E+00
 -1      3602 1.10819E+00
 -1      3603 1.10819E+00
 -1      3604 1.10819E+00
 -1      3605 1.10819E+00
 -1      3606 1.10820E+00
 -1      3607 1.10820E+00
 -1      3608 1.10820E+00
 -1      3609 1.10820E+00
 -1      3610 1.10819E+00
 -1      3611 1.10819E+00
 -1      3612 1.10819E+00
 -1      3613 1.10819E+00
 -1      3614 1.10819E+00
 -1      3615 1.10819E+00
 -1      3616 1.10820E+00
 -1      3617 1.10820E+00
 -1      3618 1.10820E+00
 -1      3619 1.10820E+00
 -1      3620 1.10819E+00
 -1      3621 1.10819E+00
 -1      3622 1.10819E+00
 -1      3623 1.10819E+00
 -1      3624 1.10819E+00
 -1      3625 1.10819E+00
 -1      3626 1.10820E+00
 -1      3627 1.10820E+00
 -1      3628 1.10820E+00
 -1      3629 1.10820E+00
 -1      3630 1.10819E+00
 -1      3631 1.10819E+00
 -1      3632 1.10819E+00
 -1      3633 1.10819E+00
 -1      3634 1.10819E+00
 -1      3635 1.10819E+00
 -1      3636 1.10820E+00
 -1      3637 1.10820E+00
 -1      3638 1.10820E+00
 -1      3639 1.10820E+00
 -1      3640 1.10819E+00
 -1      3641 1.10819E+00
 -1      3642 1.10819E+00
 -1      3643 1.05082E+00
 -1      3644 1.05086E+00
 -1      3645 1.05092E+00
 -1      3646 1.05096E+00
 -1      3647 1.05097E+00
 -1      3648 1.05097E+00
 -1      3649 1.05096E+00
 -1      3650 1.05092E+00
 -1      3651 1.05086E+00
 -1      3652 1.05082E+00
 -1      3653 1.05082E+00
 -1      3654 1.05086E+00
 -1      3655 1.05092E+00
 -1      3656 1.05096E+00
 -1      3657 1.05097E+00
 -1      3658 1.05097E+00
 -1      3659 1.05096E+00
 -1      3660 1.05092E+00
 -1      3661 1.05086E+00
 -1      3662 1.05082E+00
 -1      3663 1.05082E+00
 -1      3664 1.05086E+00
 -1      3665 1.05092E+00
 -1      3666 1.05096E+00
 -1      3667 1.05097E+00
 -1      3668 1.05097E+00
 -1      3669 1.05096E+00
 -1      3670 1.05092E+00
 -1      3671 1.05086E+00
 -1      3672 1.05082E+00
 -1      3673 1.05082E+00
 -1      3674 1.05086E+00
 -1      3675 1.05092E+00
 -1      3676 1.05096E+00
 -1      3677 1.05097E+00
 -1      3678 1.05097E+00
 -1      3679 1.05096E+00
 -1      3680 1.05092E+00
 -1      3681 1.05086E+00
 -1      3682 1.05082E+00
 -1      3683 1.05082E+00
 -1      3684 1.05086E+00
 -1      3685 1.05092E+00
 -1      3686 1.05096E+00
 -1      3687 1.05097E+00
 -1      3688 1.05097E+00
 -1      3689 1.05096E+00
 -1      3690 1.05092E+00
 -1      3691 1.05086E+00
 -1      3692 1.05082E+00
 -1      3693 1.05082E+00
 -1      3694 1.05086E+00
 -1      3695 1.05092E+00
 -1      3696 1.05096E+00
 -1      3697 1.05097E+00
 -1      3698 1.05097E+00
 -1      3699 1.05096E+00
 -1      3700 1.05092E+00
 -1      3701 1.05086E+00
 -1      3702 1.05082E+00
 -1      3703 1.05082E+00
 -1      3704 1.05086E+00
 -1      3705 1.05092E+00
 -1      3706 1.05096E+00
 -1      3707 1.05097E+00
 -1      3708 1.05097E+00
 -1      3709 1.05096E+00
 -1      3710 1.05092E+00
 -1      3711 1.05086E+00
 -1      3712 1.05082E+00
 -1      3713 1.05082E+00
 -1      3714 1.05086E+00
 -1      3715 1.05092E+00
 -1      3716 1.05096E+00
 -1      3717 1.05097E+00
 -1      3718 1.05097E+00
 -1      3719 1.05096E+00
 -1      3720 1.05092E+00
 -1      3721 1.05086E+00
 -1      3722 1.05082E+00
 -1      3723 1.05082E+00
 -1      3724 1.05086E+00
 -1      3725 1.05092E+00
 -1      3726 1.05096E+00
 -1      3727 1.05097E+00
 -1      3728 1.05097E+00
 -1      3729 1.05096E+00
 -1      3730 1.05092E+00
 -1      3731 1.05086E+00
 -1      3732 1.05082E+00
 -1      3733 9.97197E-01
 -1      3734 9.97349E-01
 -1      3735 9.97569E-01
 -1      3736 9.97681E-01
 -1      3737 9.97681E-01
 -1      3738 9.97681E-01
 -1      3739 9.97681E-01
 -1      3740 9.97569E-01
 -1      3741 9.97349E-01
 -1      3742 9.97197E-01
 -1      3743 9.97197E-01
 -1      3744 9.97349E-01
 -1      3745 9.97569E-01
 -1      3746 9.97681E-01
 -1      3747 9.97681E-01
 -1      3748 9.97681E-01
 -1      3749 9.97681E-01
 -1      3750 9.97569E-01
 -1      3751 9.97349E-01
 -1      3752 9.97197E-01
 -1      3753 9.97197E-01
 -1      3754 9.97349E-01
 -1      3755 9.97569E-01
 -1      3756 9.97681E-01
 -1      3757 9.97681E-01
 -1      3758 9.97681E-01
 -1      3759 9.97681E-01
 -1      3760 9.97569E-01
 -1      3761 9.97349E-01
 -1      3762 9.97197E-01
 -1      3763 9.97197E-01
 -1      3764 9.97349E-01
 -1      3765 9.97569E-01
 -1      3766 9.97681E-01
 -1      3767 9.97681E-01
 -1      3768 9.97681E-01
 -1      3769 9.97681E-01
 -1      3770 9.97569E-01
 -1      3771 9.97349E-01
 -1      3772 9.97197E-01
 -1      3773 9.97197E-01
 -1      3774 9.97349E-01
 -1      3775 9.97569E-01
 -1      3776 9.97681E-01
 -1      3777 9.97681E-01
 -1      3778 9.97681E-01
 -1      3779 9.97681E-01
 -1      3780 9.97569E-01
 -1      3781 9.97349E-01
 -1      3782 9.97197E-01
 -1      3783 9.97197E-01
 -1      3784 9.97349E-01
 -1      3785 9.97569E-01
 -1      3786 9.97681E-01
 -1      3787 9.97681E-01
 -1      3788 9.97681E-01
 -1      3789 9.97681E-01
 -1      3790 9.97569E-01
 -1      3791 9.97349E-01
 -1      3792 9.97197E-01
 -1      3793 9.97197E-01
 -1      3794 9.97349E-01
 -1      3795 9.97569E-01
 -1      3796 9.97681E-01
 -1      3797 9.97681E-01
 -1      3798 9.97681E-01
 -1      3799 9.97681E-01
 -1      3800 9.97569E-01
 -1      3801 9.97349E-01
 -1      3802 9.97197E-01
 -1      3803 9.97197E-01
 -1      3804 9.97349E-01
 -1      3805 9.97569E-01
 -1      3806 9.97681E-01
 -1      3807 9.97681E-01
 -1      3808 9.97681E-01
 -1      3809 9.97681E-01
 -1      3810 9.97569E-01
 -1      3811 9.97349E-01
 -1      3812 9.97197E-01
 -1      3813 9.97197E-01
 -1      3814 9.97349E-01
 -1      3815 9.97569E-01
 -1      3816 9.97681E-01
 -1      3817 9.97681E-01
 -1      3818 9.97681E-01
 -1      3819 9.97681E-01
 -1      3820 9.97569E-01
 -1      3821 9.97349E-01
 -1      3822 9.97197E-01
 -1      3823 9.46798E-01
 -1      3824 9.47703E-01
 -1      3825 9.48097E-01
 -1      3826 9.48097E-01
 -1      3827 9.48038E-01
 -1      3828 9.48038E-01
 -1      3829 9.48097E-01
 -1      3830 9.48097E-01
 -1      3831 9.47703E-01
 -1      3832 9.46798E-01
 -1      3833 9.46798E-01
 -1      3834 9.47703E-01
 -1      3835 9.48097E-01
 -1      3836 9.48097E-01
 -1      3837 9.48038E-01
 -1      3838 9.48038E-01
 -1      3839 9.48097E-01
 -1      3840 9.48097E-01
 -1      3841 9.47703E-01
 -1      3842 9.46798E-01
 -1      3843 9.46798E-01
 -1      3844 9.47703E-01
 -1      3845 9.48097E-01
 -1      3846 9.48097E-01
 -1      3847 9.48038E-01
 -1      3848 9.48038E-01
 -1      3849 9.48097E-01
 -1      3850 9.48097E-01
 -1      3851 9.47703E-01
 -1      3852 9.46798E-01
 -1      3853 9.46798E-01
 -1      3854 9.47703E-01
 -1      3855 9.48097E-01
 -1      3856 9.48097E-01
 -1      3857 9.48038E-01
 -1      3858 9.48038E-01
 -1      3859 9.48097E-01
 -1      3860 9.48097E-01
 -1      3861 9.47703E-01
 -1      3862 9.46798E-01
 -1      3863 9.46798E-01
 -1      3864 9.47703E-01
 -1      3865 9.48097E-01
 -1      3866 9.48097E-01
 -1      3867 9.48038E-01
 -1      3868 9.48038E-01
 -1      3869 9.48097E-01
 -1      3870 9.48097E-01
 -1      3871 9.47703E-01
 -1      3872 9.46798E-01
 -1      3873 9.46798E-01
 -1      3874 9.47703E-01
 -1      3875 9.48097E-01
 -1      3876 9.48097E-01
 -1      3877 9.48038E-01
 -1      3878 9.48038E-01
 -1      3879 9.48097E-01
 -1      3880 9.48097E-01
 -1      3881 9.47703E-01
 -1      3882 9.46798E-01
 -1      3883 9.46798E-01
 -1      3884 9.47703E-01
 -1      3885 9.48097E-01
 -1      3886 9.48097E-01
 -1      3887 9.48038E-01
 -1      3888 9.48038E-01
 -1      3889 9.48097E-01
 -1      3890 9.48097E-01
 -1      3891 9.47703E-01
 -1      3892 9.46798E-01
 -1      3893 9.46798E-01
 -1      3894 9.47703E-01
 -1      3895 9.48097E-01
 -1      3896 9.48097E-01
 -1      3897 9.48038E-01
 -1      3898 9.48038E-01
 -1      3899 9.48097E-01
 -1      3900 9.48097E-01
 -1      3901 9.47703E-01
 -1      3902 9.46798E-01
 -1      3903 9.46798E-01
 -1      3904 9.47703E-01
 -1      3905 9.48097E-01
 -1      3906 9.48097E-01
 -1      3907 9.48038E-01
 -1      3908 9.48038E-01
 -1      3909 9.48097E-01
 -1      3910 9.48097E-01
 -1      3911 9.47703E-01
 -1      3912 9.46798E-01
 -1      3913 9.02293E-01
 -1      3914 9.02293E-01
 -1      3915 9.02228E-01
 -1      3916 9.00972E-01
 -1      3917 8.99812E-01
 -1      3918 8.99812E-01
 -1      3919 9.00972E-01
 -1      3920 9.02228E-01
 -1      3921 9.02293E-01
 -1      3922 9.02293E-01
 -1      3923 9.02293E-01
 -1      3924 9.02293E-01
 -1      3925 9.02228E-01
 -1      3926 9.00972E-01
 -1      3927 8.99812E-01
 -1      3928 8.99812E-01
 -1      3929 9.00972E-01
 -1      3930 9.02228E-01
 -1      3931 9.02293E-01
 -1      3932 9.02293E-01
 -1      3933 9.02293E-01
 -1      3934 9.02293E-01
 -1      3935 9.02228E-01
 -1      3936 9.00972E-01
 -1      3937 8.99812E-01
 -1      3938 8.99812E-01
 -1      3939 9.00972E-01
 -1      3940 9.02228E-01
 -1      3941 9.02293E-01
 -1      3942 9.02293E-01
 -1      3943 9.02293E-01
 -1      3944 9.02293E-01
 -1      3945 9.02228E-01
 -1      3946 9.00972E-01
 -1      3947 8.99812E-01
 -1      3948 8.99812E-01
 -1      3949 9.00972E-01
 -1      3950 9.02228E-01
 -1      3951 9.02293E-01
 -1      3952 9.02293E-01
 -1      3953 9.02293E-01
 -1      3954 9.02293E-01
 -1      3955 9.02228E-01
 -1      3956 9.00972E-01
 -1      3957 8.99812E-01
 -1      3958 8.99812E-01
 -1      3959 9.00972E-01
 -1      3960 9.02228E-01
 -1      3961 9.02293E-01
 -1      3962 9.02293E-01
 -1      3963 9.02293E-01
 -1      3964 9.02293E-01
 -1      3965 9.02228E-01
 -1      3966 9.00972E-01
 -1      3967 8.99812E-01
 -1      3968 8.99812E-01
 -1      3969 9.00972E-01
 -1      3970 9.02228E-01
 -1      3971 9.02293E-01
 -1      3972 9.02293E-01
 -1      3973 9.02293E-01
 -1      3974 9.02293E-01
 -1      3975 9.02228E-01
 -1      3976 9.00972E-01
 -1      3977 8.99812E-01
 -1      3978 8.99812E-01
 -1      3979 9.00972E-01
 -1      3980 9.02228E-01
 -1      3981 9.02293E-01
 -1      3982 9.02293E-01
 -1      3983 9.02293E-01
 -1      3984 9.02293E-01
 -1      3985 9.02228E-01
 -1      3986 9.00972E-01
 -1      3987 8.99812E-01
 -1      3988 8.99812E-01
 -1      3989 9.00972E-01
 -1      3990 9.02228E-01
 -1      3991 9.02293E-01
 -1      3992 9.02293E-01
 -1      3993 9.02293E-01
 -1      3994 9.02293E-01
 -1      3995 9.02228E-01
 -1      3996 9.00972E-01
 -1      3997 8.99812E-01
 -1      3998 8.99812E-01
 -1      3999 9.00972E-01
 -1      4000 9.02228E-01
 -1      4001 9.02293E-01
 -1      4002 9.02293E-01
 -1      4003 8.71212E-01
 -1      4004 8.60013E-01
 -1      4005 8.52903E-01
 -1      4006 8.49229E-01
 -1      4007 8.47628E-01
 -1      4008 8.47628E-01
 -1      4009 8.49229E-01
 -1      4010 8.52903E-01
 -1      4011 8.60013E-01
 -1      4012 8.71212E-01
 -1      4013 8.71212E-01
 -1      4014 8.60013E-01
 -1      4015 8.52903E-01
 -1      4016 8.49229E-01
 -1      4017 8.47628E-01
 -1      4018 8.47628E-01
 -1      4019 8.49229E-01
 -1      4020 8.52903E-01
 -1      4021 8.60013E-01
 -1      4022 8.71212E-01
 -1      4023 8.71212E-01
 -1      4024 8.60013E-01
 -1      4025 8.52903E-01
 -1      4026 8.49229E-01
 -1      4027 8.47628E-01
 -1      4028 8.47628E-01
 -1      4029 8.49229E-01
 -1      4030 8.52903E-01
 -1      4031 8.60013E-01
 -1      4032 8.71212E-01
 -1      4033 8.71212E-01
 -1      4034 8.60013E-01
 -1      4035 8.52903E-01
 -1      4036 8.49229E-01
 -1      4037 8.47628E-01
 -1      4038 8.47628E-01
 -1      4039 8.49229E-01
 -1      4040 8.52903E-01
 -1      4041 8.60013E-01
 -1      4042 8.71212E-01
 -1      4043 8.71212E-01
 -1      4044 8.60013E-01
 -1      4045 8.52903E-01
 -1      4046 8.49229E-01
 -1      4047 8.47628E-01
 -1      4048 8.47628E-01
 -1      4049 8.49229E-01
 -1      4050 8.52903E-01
 -1      4051 8.60013E-01
 -1      4052 8.71212E-01
 -1      4053 8.71212E-01
 -1      4054 8.60013E-01
 -1      4055 8.52903E-01
 -1      4056 8.49229E-01
 -1      4057 8.47628E-01
 -1      4058 8.47628E-01
 -1      4059 8.49229E-01
 -1      4060 8.52903E-01
 -1      4061 8.60013E-01
 -1      4062 8.71212E-01
 -1      4063 8.71212E-01
 -1      4064 8.60013E-01
 -1      4065 8.52903E-01
 -1      4066 8.49229E-01
 -1      4067 8.47628E-01
 -1      4068 8.47628E-01
 -1      4069 8.49229E-01
 -1      4070 8.52903E-01
 -1      4071 8.60013E-01
 -1      4072 8.71212E-01
 -1      4073 8.71212E-01
 -1      4074 8.60013E-01
 -1      4075 8.52903E-01
 -1      4076 8.49229E-01
 -1      4077 8.47628E-01
 -1      4078 8.47628E-01
 -1      4079 8.49229E-01
 -1      4080 8.52903E-01
 -1      4081 8.60013E-01
 -1      4082 8.71212E-01
 -1      4083 8.71212E-01
 -1      4084 8.60013E-01
 -1      4085 8.52903E-01
 -1      4086 8.49229E-01
 -1      4087 8.47628E-01
 -1      4088 8.47628E-01
 -1      4089 8.49229E-01
 -1      4090 8.52903E-01
 -1      4091 8.60013E-01
 -1      4092 8.71212E-01
 -3
 9999
