    1C
    1U disc.inp                                                         
    1UUSER                                                              
    1UDATE              25.february.2021                                
    1UTIME              12:40:39                                        
    1UHOST                                                              
    1UPGM               CalculiX                                        
    1UVERSION           Version 2.17                             
    1UCOMPILETIME       Thu Jul 23 21:29:36 CEST 2020                    
    1UDIR                                                               
    1UDBN                                                               
    1UMAT    1STEEL                                                     
    2C                          7812                                     1
 -1         1 9.50000E+01 0.00000E+00 0.00000E+00
 -1         2 1.00000E+02 0.00000E+00 0.00000E+00
 -1         3 6.12323E-15 1.00000E+02 0.00000E+00
 -1         4 5.81707E-15 9.50000E+01 0.00000E+00
 -1         5 9.50000E+01 0.00000E+00 1.00000E+01
 -1         6 1.00000E+02 0.00000E+00 1.00000E+01
 -1         7 6.12323E-15 1.00000E+02 1.00000E+01
 -1         8 5.81707E-15 9.50000E+01 1.00000E+01
 -1         9 9.52500E+01 0.00000E+00 0.00000E+00
 -1        10 9.55000E+01 0.00000E+00 0.00000E+00
 -1        11 9.57500E+01 0.00000E+00 0.00000E+00
 -1        12 9.60000E+01 0.00000E+00 0.00000E+00
 -1        13 9.62500E+01 0.00000E+00 0.00000E+00
 -1        14 9.65000E+01 0.00000E+00 0.00000E+00
 -1        15 9.67500E+01 0.00000E+00 0.00000E+00
 -1        16 9.70000E+01 0.00000E+00 0.00000E+00
 -1        17 9.72500E+01 0.00000E+00 0.00000E+00
 -1        18 9.75000E+01 0.00000E+00 0.00000E+00
 -1        19 9.77500E+01 0.00000E+00 0.00000E+00
 -1        20 9.80000E+01 0.00000E+00 0.00000E+00
 -1        21 9.82500E+01 0.00000E+00 0.00000E+00
 -1        22 9.85000E+01 0.00000E+00 0.00000E+00
 -1        23 9.87500E+01 0.00000E+00 0.00000E+00
 -1        24 9.90000E+01 0.00000E+00 0.00000E+00
 -1        25 9.92500E+01 0.00000E+00 0.00000E+00
 -1        26 9.95000E+01 0.00000E+00 0.00000E+00
 -1        27 9.97500E+01 0.00000E+00 0.00000E+00
 -1        28 9.98630E+01 5.23360E+00 0.00000E+00
 -1        29 9.94522E+01 1.04528E+01 0.00000E+00
 -1        30 9.87688E+01 1.56434E+01 0.00000E+00
 -1        31 9.78148E+01 2.07912E+01 0.00000E+00
 -1        32 9.65926E+01 2.58819E+01 0.00000E+00
 -1        33 9.51057E+01 3.09017E+01 0.00000E+00
 -1        34 9.33580E+01 3.58368E+01 0.00000E+00
 -1        35 9.13545E+01 4.06737E+01 0.00000E+00
 -1        36 8.91007E+01 4.53991E+01 0.00000E+00
 -1        37 8.66025E+01 5.00000E+01 0.00000E+00
 -1        38 8.38671E+01 5.44639E+01 0.00000E+00
 -1        39 8.09017E+01 5.87785E+01 0.00000E+00
 -1        40 7.77146E+01 6.29320E+01 0.00000E+00
 -1        41 7.43145E+01 6.69131E+01 0.00000E+00
 -1        42 7.07107E+01 7.07107E+01 0.00000E+00
 -1        43 6.69131E+01 7.43145E+01 0.00000E+00
 -1        44 6.29320E+01 7.77146E+01 0.00000E+00
 -1        45 5.87785E+01 8.09017E+01 0.00000E+00
 -1        46 5.44639E+01 8.38671E+01 0.00000E+00
 -1        47 5.00000E+01 8.66025E+01 0.00000E+00
 -1        48 4.53991E+01 8.91007E+01 0.00000E+00
 -1        49 4.06737E+01 9.13545E+01 0.00000E+00
 -1        50 3.58368E+01 9.33580E+01 0.00000E+00
 -1        51 3.09017E+01 9.51057E+01 0.00000E+00
 -1        52 2.58819E+01 9.65926E+01 0.00000E+00
 -1        53 2.07912E+01 9.78148E+01 0.00000E+00
 -1        54 1.56434E+01 9.87688E+01 0.00000E+00
 -1        55 1.04528E+01 9.94522E+01 0.00000E+00
 -1        56 5.23360E+00 9.98630E+01 0.00000E+00
 -1        57 6.10793E-15 9.97500E+01 0.00000E+00
 -1        58 6.09262E-15 9.95000E+01 0.00000E+00
 -1        59 6.07731E-15 9.92500E+01 0.00000E+00
 -1        60 6.06200E-15 9.90000E+01 0.00000E+00
 -1        61 6.04669E-15 9.87500E+01 0.00000E+00
 -1        62 6.03139E-15 9.85000E+01 0.00000E+00
 -1        63 6.01608E-15 9.82500E+01 0.00000E+00
 -1        64 6.00077E-15 9.80000E+01 0.00000E+00
 -1        65 5.98546E-15 9.77500E+01 0.00000E+00
 -1        66 5.97015E-15 9.75000E+01 0.00000E+00
 -1        67 5.95484E-15 9.72500E+01 0.00000E+00
 -1        68 5.93954E-15 9.70000E+01 0.00000E+00
 -1        69 5.92423E-15 9.67500E+01 0.00000E+00
 -1        70 5.90892E-15 9.65000E+01 0.00000E+00
 -1        71 5.89361E-15 9.62500E+01 0.00000E+00
 -1        72 5.87830E-15 9.60000E+01 0.00000E+00
 -1        73 5.86300E-15 9.57500E+01 0.00000E+00
 -1        74 5.84769E-15 9.55000E+01 0.00000E+00
 -1        75 5.83238E-15 9.52500E+01 0.00000E+00
 -1        76 4.97192E+00 9.48698E+01 0.00000E+00
 -1        77 9.93020E+00 9.44796E+01 0.00000E+00
 -1        78 1.48613E+01 9.38304E+01 0.00000E+00
 -1        79 1.97516E+01 9.29240E+01 0.00000E+00
 -1        80 2.45878E+01 9.17630E+01 0.00000E+00
 -1        81 2.93566E+01 9.03504E+01 0.00000E+00
 -1        82 3.40450E+01 8.86901E+01 0.00000E+00
 -1        83 3.86400E+01 8.67868E+01 0.00000E+00
 -1        84 4.31291E+01 8.46456E+01 0.00000E+00
 -1        85 4.75000E+01 8.22724E+01 0.00000E+00
 -1        86 5.17407E+01 7.96737E+01 0.00000E+00
 -1        87 5.58396E+01 7.68566E+01 0.00000E+00
 -1        88 5.97854E+01 7.38289E+01 0.00000E+00
 -1        89 6.35674E+01 7.05988E+01 0.00000E+00
 -1        90 6.71751E+01 6.71751E+01 0.00000E+00
 -1        91 7.05988E+01 6.35674E+01 0.00000E+00
 -1        92 7.38289E+01 5.97854E+01 0.00000E+00
 -1        93 7.68566E+01 5.58396E+01 0.00000E+00
 -1        94 7.96737E+01 5.17407E+01 0.00000E+00
 -1        95 8.22724E+01 4.75000E+01 0.00000E+00
 -1        96 8.46456E+01 4.31291E+01 0.00000E+00
 -1        97 8.67868E+01 3.86400E+01 0.00000E+00
 -1        98 8.86901E+01 3.40450E+01 0.00000E+00
 -1        99 9.03504E+01 2.93566E+01 0.00000E+00
 -1       100 9.17630E+01 2.45878E+01 0.00000E+00
 -1       101 9.29240E+01 1.97516E+01 0.00000E+00
 -1       102 9.38304E+01 1.48613E+01 0.00000E+00
 -1       103 9.44796E+01 9.93020E+00 0.00000E+00
 -1       104 9.48698E+01 4.97192E+00 0.00000E+00
 -1       105 9.52500E+01 0.00000E+00 1.00000E+01
 -1       106 9.55000E+01 0.00000E+00 1.00000E+01
 -1       107 9.57500E+01 0.00000E+00 1.00000E+01
 -1       108 9.60000E+01 0.00000E+00 1.00000E+01
 -1       109 9.62500E+01 0.00000E+00 1.00000E+01
 -1       110 9.65000E+01 0.00000E+00 1.00000E+01
 -1       111 9.67500E+01 0.00000E+00 1.00000E+01
 -1       112 9.70000E+01 0.00000E+00 1.00000E+01
 -1       113 9.72500E+01 0.00000E+00 1.00000E+01
 -1       114 9.75000E+01 0.00000E+00 1.00000E+01
 -1       115 9.77500E+01 0.00000E+00 1.00000E+01
 -1       116 9.80000E+01 0.00000E+00 1.00000E+01
 -1       117 9.82500E+01 0.00000E+00 1.00000E+01
 -1       118 9.85000E+01 0.00000E+00 1.00000E+01
 -1       119 9.87500E+01 0.00000E+00 1.00000E+01
 -1       120 9.90000E+01 0.00000E+00 1.00000E+01
 -1       121 9.92500E+01 0.00000E+00 1.00000E+01
 -1       122 9.95000E+01 0.00000E+00 1.00000E+01
 -1       123 9.97500E+01 0.00000E+00 1.00000E+01
 -1       124 9.98630E+01 5.23360E+00 1.00000E+01
 -1       125 9.94522E+01 1.04528E+01 1.00000E+01
 -1       126 9.87688E+01 1.56434E+01 1.00000E+01
 -1       127 9.78148E+01 2.07912E+01 1.00000E+01
 -1       128 9.65926E+01 2.58819E+01 1.00000E+01
 -1       129 9.51057E+01 3.09017E+01 1.00000E+01
 -1       130 9.33580E+01 3.58368E+01 1.00000E+01
 -1       131 9.13545E+01 4.06737E+01 1.00000E+01
 -1       132 8.91007E+01 4.53991E+01 1.00000E+01
 -1       133 8.66025E+01 5.00000E+01 1.00000E+01
 -1       134 8.38671E+01 5.44639E+01 1.00000E+01
 -1       135 8.09017E+01 5.87785E+01 1.00000E+01
 -1       136 7.77146E+01 6.29320E+01 1.00000E+01
 -1       137 7.43145E+01 6.69131E+01 1.00000E+01
 -1       138 7.07107E+01 7.07107E+01 1.00000E+01
 -1       139 6.69131E+01 7.43145E+01 1.00000E+01
 -1       140 6.29320E+01 7.77146E+01 1.00000E+01
 -1       141 5.87785E+01 8.09017E+01 1.00000E+01
 -1       142 5.44639E+01 8.38671E+01 1.00000E+01
 -1       143 5.00000E+01 8.66025E+01 1.00000E+01
 -1       144 4.53991E+01 8.91007E+01 1.00000E+01
 -1       145 4.06737E+01 9.13545E+01 1.00000E+01
 -1       146 3.58368E+01 9.33580E+01 1.00000E+01
 -1       147 3.09017E+01 9.51057E+01 1.00000E+01
 -1       148 2.58819E+01 9.65926E+01 1.00000E+01
 -1       149 2.07912E+01 9.78148E+01 1.00000E+01
 -1       150 1.56434E+01 9.87688E+01 1.00000E+01
 -1       151 1.04528E+01 9.94522E+01 1.00000E+01
 -1       152 5.23360E+00 9.98630E+01 1.00000E+01
 -1       153 6.10793E-15 9.97500E+01 1.00000E+01
 -1       154 6.09262E-15 9.95000E+01 1.00000E+01
 -1       155 6.07731E-15 9.92500E+01 1.00000E+01
 -1       156 6.06200E-15 9.90000E+01 1.00000E+01
 -1       157 6.04669E-15 9.87500E+01 1.00000E+01
 -1       158 6.03139E-15 9.85000E+01 1.00000E+01
 -1       159 6.01608E-15 9.82500E+01 1.00000E+01
 -1       160 6.00077E-15 9.80000E+01 1.00000E+01
 -1       161 5.98546E-15 9.77500E+01 1.00000E+01
 -1       162 5.97015E-15 9.75000E+01 1.00000E+01
 -1       163 5.95484E-15 9.72500E+01 1.00000E+01
 -1       164 5.93954E-15 9.70000E+01 1.00000E+01
 -1       165 5.92423E-15 9.67500E+01 1.00000E+01
 -1       166 5.90892E-15 9.65000E+01 1.00000E+01
 -1       167 5.89361E-15 9.62500E+01 1.00000E+01
 -1       168 5.87830E-15 9.60000E+01 1.00000E+01
 -1       169 5.86300E-15 9.57500E+01 1.00000E+01
 -1       170 5.84769E-15 9.55000E+01 1.00000E+01
 -1       171 5.83238E-15 9.52500E+01 1.00000E+01
 -1       172 4.97192E+00 9.48698E+01 1.00000E+01
 -1       173 9.93020E+00 9.44796E+01 1.00000E+01
 -1       174 1.48613E+01 9.38304E+01 1.00000E+01
 -1       175 1.97516E+01 9.29240E+01 1.00000E+01
 -1       176 2.45878E+01 9.17630E+01 1.00000E+01
 -1       177 2.93566E+01 9.03504E+01 1.00000E+01
 -1       178 3.40450E+01 8.86901E+01 1.00000E+01
 -1       179 3.86400E+01 8.67868E+01 1.00000E+01
 -1       180 4.31291E+01 8.46456E+01 1.00000E+01
 -1       181 4.75000E+01 8.22724E+01 1.00000E+01
 -1       182 5.17407E+01 7.96737E+01 1.00000E+01
 -1       183 5.58396E+01 7.68566E+01 1.00000E+01
 -1       184 5.97854E+01 7.38289E+01 1.00000E+01
 -1       185 6.35674E+01 7.05988E+01 1.00000E+01
 -1       186 6.71751E+01 6.71751E+01 1.00000E+01
 -1       187 7.05988E+01 6.35674E+01 1.00000E+01
 -1       188 7.38289E+01 5.97854E+01 1.00000E+01
 -1       189 7.68566E+01 5.58396E+01 1.00000E+01
 -1       190 7.96737E+01 5.17407E+01 1.00000E+01
 -1       191 8.22724E+01 4.75000E+01 1.00000E+01
 -1       192 8.46456E+01 4.31291E+01 1.00000E+01
 -1       193 8.67868E+01 3.86400E+01 1.00000E+01
 -1       194 8.86901E+01 3.40450E+01 1.00000E+01
 -1       195 9.03504E+01 2.93566E+01 1.00000E+01
 -1       196 9.17630E+01 2.45878E+01 1.00000E+01
 -1       197 9.29240E+01 1.97516E+01 1.00000E+01
 -1       198 9.38304E+01 1.48613E+01 1.00000E+01
 -1       199 9.44796E+01 9.93020E+00 1.00000E+01
 -1       200 9.48698E+01 4.97192E+00 1.00000E+01
 -1       201 9.50000E+01 0.00000E+00 9.09091E-01
 -1       202 9.50000E+01 0.00000E+00 1.81818E+00
 -1       203 9.50000E+01 0.00000E+00 2.72727E+00
 -1       204 9.50000E+01 0.00000E+00 3.63636E+00
 -1       205 9.50000E+01 0.00000E+00 4.54545E+00
 -1       206 9.50000E+01 0.00000E+00 5.45455E+00
 -1       207 9.50000E+01 0.00000E+00 6.36364E+00
 -1       208 9.50000E+01 0.00000E+00 7.27273E+00
 -1       209 9.50000E+01 0.00000E+00 8.18182E+00
 -1       210 9.50000E+01 0.00000E+00 9.09091E+00
 -1       211 1.00000E+02 0.00000E+00 9.09091E-01
 -1       212 1.00000E+02 0.00000E+00 1.81818E+00
 -1       213 1.00000E+02 0.00000E+00 2.72727E+00
 -1       214 1.00000E+02 0.00000E+00 3.63636E+00
 -1       215 1.00000E+02 0.00000E+00 4.54545E+00
 -1       216 1.00000E+02 0.00000E+00 5.45455E+00
 -1       217 1.00000E+02 0.00000E+00 6.36364E+00
 -1       218 1.00000E+02 0.00000E+00 7.27273E+00
 -1       219 1.00000E+02 0.00000E+00 8.18182E+00
 -1       220 1.00000E+02 0.00000E+00 9.09091E+00
 -1       221 6.12323E-15 1.00000E+02 9.09091E-01
 -1       222 6.12323E-15 1.00000E+02 1.81818E+00
 -1       223 6.12323E-15 1.00000E+02 2.72727E+00
 -1       224 6.12323E-15 1.00000E+02 3.63636E+00
 -1       225 6.12323E-15 1.00000E+02 4.54545E+00
 -1       226 6.12323E-15 1.00000E+02 5.45455E+00
 -1       227 6.12323E-15 1.00000E+02 6.36364E+00
 -1       228 6.12323E-15 1.00000E+02 7.27273E+00
 -1       229 6.12323E-15 1.00000E+02 8.18182E+00
 -1       230 6.12323E-15 1.00000E+02 9.09091E+00
 -1       231 5.81707E-15 9.50000E+01 9.09091E-01
 -1       232 5.81707E-15 9.50000E+01 1.81818E+00
 -1       233 5.81707E-15 9.50000E+01 2.72727E+00
 -1       234 5.81707E-15 9.50000E+01 3.63636E+00
 -1       235 5.81707E-15 9.50000E+01 4.54545E+00
 -1       236 5.81707E-15 9.50000E+01 5.45455E+00
 -1       237 5.81707E-15 9.50000E+01 6.36364E+00
 -1       238 5.81707E-15 9.50000E+01 7.27273E+00
 -1       239 5.81707E-15 9.50000E+01 8.18182E+00
 -1       240 5.81707E-15 9.50000E+01 9.09091E+00
 -1       241 9.51195E+01 4.98500E+00 0.00000E+00
 -1       242 9.47282E+01 9.95634E+00 0.00000E+00
 -1       243 9.40773E+01 1.49004E+01 0.00000E+00
 -1       244 9.31686E+01 1.98036E+01 0.00000E+00
 -1       245 9.20044E+01 2.46525E+01 0.00000E+00
 -1       246 9.05881E+01 2.94339E+01 0.00000E+00
 -1       247 8.89235E+01 3.41345E+01 0.00000E+00
 -1       248 8.70152E+01 3.87417E+01 0.00000E+00
 -1       249 8.48684E+01 4.32426E+01 0.00000E+00
 -1       250 8.24889E+01 4.76250E+01 0.00000E+00
 -1       251 7.98834E+01 5.18769E+01 0.00000E+00
 -1       252 7.70589E+01 5.59865E+01 0.00000E+00
 -1       253 7.40232E+01 5.99428E+01 0.00000E+00
 -1       254 7.07845E+01 6.37347E+01 0.00000E+00
 -1       255 6.73519E+01 6.73519E+01 0.00000E+00
 -1       256 6.37347E+01 7.07845E+01 0.00000E+00
 -1       257 5.99428E+01 7.40232E+01 0.00000E+00
 -1       258 5.59865E+01 7.70589E+01 0.00000E+00
 -1       259 5.18769E+01 7.98834E+01 0.00000E+00
 -1       260 4.76250E+01 8.24889E+01 0.00000E+00
 -1       261 4.32426E+01 8.48684E+01 0.00000E+00
 -1       262 3.87417E+01 8.70152E+01 0.00000E+00
 -1       263 3.41345E+01 8.89235E+01 0.00000E+00
 -1       264 2.94339E+01 9.05881E+01 0.00000E+00
 -1       265 2.46525E+01 9.20044E+01 0.00000E+00
 -1       266 1.98036E+01 9.31686E+01 0.00000E+00
 -1       267 1.49004E+01 9.40773E+01 0.00000E+00
 -1       268 9.95634E+00 9.47282E+01 0.00000E+00
 -1       269 4.98500E+00 9.51195E+01 0.00000E+00
 -1       270 9.53691E+01 4.99808E+00 0.00000E+00
 -1       271 9.49768E+01 9.98247E+00 0.00000E+00
 -1       272 9.43242E+01 1.49395E+01 0.00000E+00
 -1       273 9.34131E+01 1.98556E+01 0.00000E+00
 -1       274 9.22459E+01 2.47172E+01 0.00000E+00
 -1       275 9.08259E+01 2.95111E+01 0.00000E+00
 -1       276 8.91569E+01 3.42241E+01 0.00000E+00
 -1       277 8.72436E+01 3.88433E+01 0.00000E+00
 -1       278 8.50911E+01 4.33561E+01 0.00000E+00
 -1       279 8.27054E+01 4.77500E+01 0.00000E+00
 -1       280 8.00930E+01 5.20130E+01 0.00000E+00
 -1       281 7.72611E+01 5.61335E+01 0.00000E+00
 -1       282 7.42174E+01 6.01001E+01 0.00000E+00
 -1       283 7.09703E+01 6.39020E+01 0.00000E+00
 -1       284 6.75287E+01 6.75287E+01 0.00000E+00
 -1       285 6.39020E+01 7.09703E+01 0.00000E+00
 -1       286 6.01001E+01 7.42174E+01 0.00000E+00
 -1       287 5.61335E+01 7.72611E+01 0.00000E+00
 -1       288 5.20130E+01 8.00930E+01 0.00000E+00
 -1       289 4.77500E+01 8.27054E+01 0.00000E+00
 -1       290 4.33561E+01 8.50911E+01 0.00000E+00
 -1       291 3.88433E+01 8.72436E+01 0.00000E+00
 -1       292 3.42241E+01 8.91569E+01 0.00000E+00
 -1       293 2.95111E+01 9.08259E+01 0.00000E+00
 -1       294 2.47172E+01 9.22459E+01 0.00000E+00
 -1       295 1.98556E+01 9.34131E+01 0.00000E+00
 -1       296 1.49395E+01 9.43242E+01 0.00000E+00
 -1       297 9.98247E+00 9.49768E+01 0.00000E+00
 -1       298 4.99808E+00 9.53691E+01 0.00000E+00
 -1       299 9.56188E+01 5.01117E+00 0.00000E+00
 -1       300 9.52255E+01 1.00086E+01 0.00000E+00
 -1       301 9.45712E+01 1.49786E+01 0.00000E+00
 -1       302 9.36576E+01 1.99075E+01 0.00000E+00
 -1       303 9.24874E+01 2.47819E+01 0.00000E+00
 -1       304 9.10637E+01 2.95884E+01 0.00000E+00
 -1       305 8.93903E+01 3.43137E+01 0.00000E+00
 -1       306 8.74720E+01 3.89450E+01 0.00000E+00
 -1       307 8.53139E+01 4.34696E+01 0.00000E+00
 -1       308 8.29219E+01 4.78750E+01 0.00000E+00
 -1       309 8.03027E+01 5.21492E+01 0.00000E+00
 -1       310 7.74634E+01 5.62804E+01 0.00000E+00
 -1       311 7.44117E+01 6.02574E+01 0.00000E+00
 -1       312 7.11561E+01 6.40693E+01 0.00000E+00
 -1       313 6.77055E+01 6.77055E+01 0.00000E+00
 -1       314 6.40693E+01 7.11561E+01 0.00000E+00
 -1       315 6.02574E+01 7.44117E+01 0.00000E+00
 -1       316 5.62804E+01 7.74634E+01 0.00000E+00
 -1       317 5.21492E+01 8.03027E+01 0.00000E+00
 -1       318 4.78750E+01 8.29219E+01 0.00000E+00
 -1       319 4.34696E+01 8.53139E+01 0.00000E+00
 -1       320 3.89450E+01 8.74720E+01 0.00000E+00
 -1       321 3.43137E+01 8.93903E+01 0.00000E+00
 -1       322 2.95884E+01 9.10637E+01 0.00000E+00
 -1       323 2.47819E+01 9.24874E+01 0.00000E+00
 -1       324 1.99075E+01 9.36576E+01 0.00000E+00
 -1       325 1.49786E+01 9.45712E+01 0.00000E+00
 -1       326 1.00086E+01 9.52255E+01 0.00000E+00
 -1       327 5.01117E+00 9.56188E+01 0.00000E+00
 -1       328 9.58684E+01 5.02425E+00 0.00000E+00
 -1       329 9.54741E+01 1.00347E+01 0.00000E+00
 -1       330 9.48181E+01 1.50177E+01 0.00000E+00
 -1       331 9.39022E+01 1.99595E+01 0.00000E+00
 -1       332 9.27289E+01 2.48466E+01 0.00000E+00
 -1       333 9.13014E+01 2.96656E+01 0.00000E+00
 -1       334 8.96237E+01 3.44033E+01 0.00000E+00
 -1       335 8.77004E+01 3.90467E+01 0.00000E+00
 -1       336 8.55366E+01 4.35831E+01 0.00000E+00
 -1       337 8.31384E+01 4.80000E+01 0.00000E+00
 -1       338 8.05124E+01 5.22853E+01 0.00000E+00
 -1       339 7.76656E+01 5.64274E+01 0.00000E+00
 -1       340 7.46060E+01 6.04148E+01 0.00000E+00
 -1       341 7.13419E+01 6.42365E+01 0.00000E+00
 -1       342 6.78822E+01 6.78822E+01 0.00000E+00
 -1       343 6.42365E+01 7.13419E+01 0.00000E+00
 -1       344 6.04148E+01 7.46060E+01 0.00000E+00
 -1       345 5.64274E+01 7.76656E+01 0.00000E+00
 -1       346 5.22853E+01 8.05124E+01 0.00000E+00
 -1       347 4.80000E+01 8.31384E+01 0.00000E+00
 -1       348 4.35831E+01 8.55366E+01 0.00000E+00
 -1       349 3.90467E+01 8.77004E+01 0.00000E+00
 -1       350 3.44033E+01 8.96237E+01 0.00000E+00
 -1       351 2.96656E+01 9.13014E+01 0.00000E+00
 -1       352 2.48466E+01 9.27289E+01 0.00000E+00
 -1       353 1.99595E+01 9.39022E+01 0.00000E+00
 -1       354 1.50177E+01 9.48181E+01 0.00000E+00
 -1       355 1.00347E+01 9.54741E+01 0.00000E+00
 -1       356 5.02425E+00 9.58684E+01 0.00000E+00
 -1       357 9.61181E+01 5.03734E+00 0.00000E+00
 -1       358 9.57227E+01 1.00609E+01 0.00000E+00
 -1       359 9.50650E+01 1.50568E+01 0.00000E+00
 -1       360 9.41467E+01 2.00115E+01 0.00000E+00
 -1       361 9.29704E+01 2.49113E+01 0.00000E+00
 -1       362 9.15392E+01 2.97429E+01 0.00000E+00
 -1       363 8.98571E+01 3.44929E+01 0.00000E+00
 -1       364 8.79287E+01 3.91484E+01 0.00000E+00
 -1       365 8.57594E+01 4.36966E+01 0.00000E+00
 -1       366 8.33549E+01 4.81250E+01 0.00000E+00
 -1       367 8.07220E+01 5.24215E+01 0.00000E+00
 -1       368 7.78679E+01 5.65743E+01 0.00000E+00
 -1       369 7.48003E+01 6.05721E+01 0.00000E+00
 -1       370 7.15277E+01 6.44038E+01 0.00000E+00
 -1       371 6.80590E+01 6.80590E+01 0.00000E+00
 -1       372 6.44038E+01 7.15277E+01 0.00000E+00
 -1       373 6.05721E+01 7.48003E+01 0.00000E+00
 -1       374 5.65743E+01 7.78679E+01 0.00000E+00
 -1       375 5.24215E+01 8.07220E+01 0.00000E+00
 -1       376 4.81250E+01 8.33549E+01 0.00000E+00
 -1       377 4.36966E+01 8.57594E+01 0.00000E+00
 -1       378 3.91484E+01 8.79287E+01 0.00000E+00
 -1       379 3.44929E+01 8.98571E+01 0.00000E+00
 -1       380 2.97429E+01 9.15392E+01 0.00000E+00
 -1       381 2.49113E+01 9.29704E+01 0.00000E+00
 -1       382 2.00115E+01 9.41467E+01 0.00000E+00
 -1       383 1.50568E+01 9.50650E+01 0.00000E+00
 -1       384 1.00609E+01 9.57227E+01 0.00000E+00
 -1       385 5.03734E+00 9.61181E+01 0.00000E+00
 -1       386 9.63678E+01 5.05042E+00 0.00000E+00
 -1       387 9.59714E+01 1.00870E+01 0.00000E+00
 -1       388 9.53119E+01 1.50959E+01 0.00000E+00
 -1       389 9.43912E+01 2.00635E+01 0.00000E+00
 -1       390 9.32118E+01 2.49760E+01 0.00000E+00
 -1       391 9.17770E+01 2.98201E+01 0.00000E+00
 -1       392 9.00905E+01 3.45825E+01 0.00000E+00
 -1       393 8.81571E+01 3.92501E+01 0.00000E+00
 -1       394 8.59821E+01 4.38101E+01 0.00000E+00
 -1       395 8.35714E+01 4.82500E+01 0.00000E+00
 -1       396 8.09317E+01 5.25577E+01 0.00000E+00
 -1       397 7.80701E+01 5.67213E+01 0.00000E+00
 -1       398 7.49946E+01 6.07294E+01 0.00000E+00
 -1       399 7.17135E+01 6.45711E+01 0.00000E+00
 -1       400 6.82358E+01 6.82358E+01 0.00000E+00
 -1       401 6.45711E+01 7.17135E+01 0.00000E+00
 -1       402 6.07294E+01 7.49946E+01 0.00000E+00
 -1       403 5.67213E+01 7.80701E+01 0.00000E+00
 -1       404 5.25577E+01 8.09317E+01 0.00000E+00
 -1       405 4.82500E+01 8.35714E+01 0.00000E+00
 -1       406 4.38101E+01 8.59821E+01 0.00000E+00
 -1       407 3.92501E+01 8.81571E+01 0.00000E+00
 -1       408 3.45825E+01 9.00905E+01 0.00000E+00
 -1       409 2.98201E+01 9.17770E+01 0.00000E+00
 -1       410 2.49760E+01 9.32118E+01 0.00000E+00
 -1       411 2.00635E+01 9.43912E+01 0.00000E+00
 -1       412 1.50959E+01 9.53119E+01 0.00000E+00
 -1       413 1.00870E+01 9.59714E+01 0.00000E+00
 -1       414 5.05042E+00 9.63678E+01 0.00000E+00
 -1       415 9.66174E+01 5.06350E+00 0.00000E+00
 -1       416 9.62200E+01 1.01131E+01 0.00000E+00
 -1       417 9.55588E+01 1.51350E+01 0.00000E+00
 -1       418 9.46358E+01 2.01155E+01 0.00000E+00
 -1       419 9.34533E+01 2.50407E+01 0.00000E+00
 -1       420 9.20147E+01 2.98974E+01 0.00000E+00
 -1       421 9.03239E+01 3.46721E+01 0.00000E+00
 -1       422 8.83855E+01 3.93518E+01 0.00000E+00
 -1       423 8.62049E+01 4.39236E+01 0.00000E+00
 -1       424 8.37880E+01 4.83750E+01 0.00000E+00
 -1       425 8.11414E+01 5.26938E+01 0.00000E+00
 -1       426 7.82724E+01 5.68682E+01 0.00000E+00
 -1       427 7.51889E+01 6.08867E+01 0.00000E+00
 -1       428 7.18993E+01 6.47384E+01 0.00000E+00
 -1       429 6.84126E+01 6.84126E+01 0.00000E+00
 -1       430 6.47384E+01 7.18993E+01 0.00000E+00
 -1       431 6.08867E+01 7.51889E+01 0.00000E+00
 -1       432 5.68682E+01 7.82724E+01 0.00000E+00
 -1       433 5.26938E+01 8.11414E+01 0.00000E+00
 -1       434 4.83750E+01 8.37880E+01 0.00000E+00
 -1       435 4.39236E+01 8.62049E+01 0.00000E+00
 -1       436 3.93518E+01 8.83855E+01 0.00000E+00
 -1       437 3.46721E+01 9.03239E+01 0.00000E+00
 -1       438 2.98974E+01 9.20147E+01 0.00000E+00
 -1       439 2.50407E+01 9.34533E+01 0.00000E+00
 -1       440 2.01155E+01 9.46358E+01 0.00000E+00
 -1       441 1.51350E+01 9.55588E+01 0.00000E+00
 -1       442 1.01131E+01 9.62200E+01 0.00000E+00
 -1       443 5.06350E+00 9.66174E+01 0.00000E+00
 -1       444 9.68671E+01 5.07659E+00 0.00000E+00
 -1       445 9.64686E+01 1.01393E+01 0.00000E+00
 -1       446 9.58058E+01 1.51741E+01 0.00000E+00
 -1       447 9.48803E+01 2.01674E+01 0.00000E+00
 -1       448 9.36948E+01 2.51054E+01 0.00000E+00
 -1       449 9.22525E+01 2.99746E+01 0.00000E+00
 -1       450 9.05573E+01 3.47617E+01 0.00000E+00
 -1       451 8.86139E+01 3.94535E+01 0.00000E+00
 -1       452 8.64276E+01 4.40371E+01 0.00000E+00
 -1       453 8.40045E+01 4.85000E+01 0.00000E+00
 -1       454 8.13510E+01 5.28300E+01 0.00000E+00
 -1       455 7.84746E+01 5.70152E+01 0.00000E+00
 -1       456 7.53832E+01 6.10441E+01 0.00000E+00
 -1       457 7.20850E+01 6.49057E+01 0.00000E+00
 -1       458 6.85894E+01 6.85894E+01 0.00000E+00
 -1       459 6.49057E+01 7.20850E+01 0.00000E+00
 -1       460 6.10441E+01 7.53832E+01 0.00000E+00
 -1       461 5.70152E+01 7.84746E+01 0.00000E+00
 -1       462 5.28300E+01 8.13510E+01 0.00000E+00
 -1       463 4.85000E+01 8.40045E+01 0.00000E+00
 -1       464 4.40371E+01 8.64276E+01 0.00000E+00
 -1       465 3.94535E+01 8.86139E+01 0.00000E+00
 -1       466 3.47617E+01 9.05573E+01 0.00000E+00
 -1       467 2.99746E+01 9.22525E+01 0.00000E+00
 -1       468 2.51054E+01 9.36948E+01 0.00000E+00
 -1       469 2.01674E+01 9.48803E+01 0.00000E+00
 -1       470 1.51741E+01 9.58058E+01 0.00000E+00
 -1       471 1.01393E+01 9.64686E+01 0.00000E+00
 -1       472 5.07659E+00 9.68671E+01 0.00000E+00
 -1       473 9.71167E+01 5.08967E+00 0.00000E+00
 -1       474 9.67173E+01 1.01654E+01 0.00000E+00
 -1       475 9.60527E+01 1.52133E+01 0.00000E+00
 -1       476 9.51249E+01 2.02194E+01 0.00000E+00
 -1       477 9.39363E+01 2.51702E+01 0.00000E+00
 -1       478 9.24902E+01 3.00519E+01 0.00000E+00
 -1       479 9.07907E+01 3.48513E+01 0.00000E+00
 -1       480 8.88423E+01 3.95551E+01 0.00000E+00
 -1       481 8.66504E+01 4.41506E+01 0.00000E+00
 -1       482 8.42210E+01 4.86250E+01 0.00000E+00
 -1       483 8.15607E+01 5.29661E+01 0.00000E+00
 -1       484 7.86769E+01 5.71621E+01 0.00000E+00
 -1       485 7.55774E+01 6.12014E+01 0.00000E+00
 -1       486 7.22708E+01 6.50730E+01 0.00000E+00
 -1       487 6.87661E+01 6.87661E+01 0.00000E+00
 -1       488 6.50730E+01 7.22708E+01 0.00000E+00
 -1       489 6.12014E+01 7.55774E+01 0.00000E+00
 -1       490 5.71621E+01 7.86769E+01 0.00000E+00
 -1       491 5.29661E+01 8.15607E+01 0.00000E+00
 -1       492 4.86250E+01 8.42210E+01 0.00000E+00
 -1       493 4.41506E+01 8.66504E+01 0.00000E+00
 -1       494 3.95551E+01 8.88423E+01 0.00000E+00
 -1       495 3.48513E+01 9.07907E+01 0.00000E+00
 -1       496 3.00519E+01 9.24902E+01 0.00000E+00
 -1       497 2.51702E+01 9.39363E+01 0.00000E+00
 -1       498 2.02194E+01 9.51249E+01 0.00000E+00
 -1       499 1.52133E+01 9.60527E+01 0.00000E+00
 -1       500 1.01654E+01 9.67173E+01 0.00000E+00
 -1       501 5.08967E+00 9.71167E+01 0.00000E+00
 -1       502 9.73664E+01 5.10276E+00 0.00000E+00
 -1       503 9.69659E+01 1.01915E+01 0.00000E+00
 -1       504 9.62996E+01 1.52524E+01 0.00000E+00
 -1       505 9.53694E+01 2.02714E+01 0.00000E+00
 -1       506 9.41778E+01 2.52349E+01 0.00000E+00
 -1       507 9.27280E+01 3.01292E+01 0.00000E+00
 -1       508 9.10241E+01 3.49409E+01 0.00000E+00
 -1       509 8.90707E+01 3.96568E+01 0.00000E+00
 -1       510 8.68731E+01 4.42641E+01 0.00000E+00
 -1       511 8.44375E+01 4.87500E+01 0.00000E+00
 -1       512 8.17704E+01 5.31023E+01 0.00000E+00
 -1       513 7.88792E+01 5.73091E+01 0.00000E+00
 -1       514 7.57717E+01 6.13587E+01 0.00000E+00
 -1       515 7.24566E+01 6.52402E+01 0.00000E+00
 -1       516 6.89429E+01 6.89429E+01 0.00000E+00
 -1       517 6.52402E+01 7.24566E+01 0.00000E+00
 -1       518 6.13587E+01 7.57717E+01 0.00000E+00
 -1       519 5.73091E+01 7.88792E+01 0.00000E+00
 -1       520 5.31023E+01 8.17704E+01 0.00000E+00
 -1       521 4.87500E+01 8.44375E+01 0.00000E+00
 -1       522 4.42641E+01 8.68731E+01 0.00000E+00
 -1       523 3.96568E+01 8.90707E+01 0.00000E+00
 -1       524 3.49409E+01 9.10241E+01 0.00000E+00
 -1       525 3.01292E+01 9.27280E+01 0.00000E+00
 -1       526 2.52349E+01 9.41778E+01 0.00000E+00
 -1       527 2.02714E+01 9.53694E+01 0.00000E+00
 -1       528 1.52524E+01 9.62996E+01 0.00000E+00
 -1       529 1.01915E+01 9.69659E+01 0.00000E+00
 -1       530 5.10276E+00 9.73664E+01 0.00000E+00
 -1       531 9.76160E+01 5.11584E+00 0.00000E+00
 -1       532 9.72145E+01 1.02177E+01 0.00000E+00
 -1       533 9.65465E+01 1.52915E+01 0.00000E+00
 -1       534 9.56139E+01 2.03234E+01 0.00000E+00
 -1       535 9.44193E+01 2.52996E+01 0.00000E+00
 -1       536 9.29658E+01 3.02064E+01 0.00000E+00
 -1       537 9.12575E+01 3.50305E+01 0.00000E+00
 -1       538 8.92991E+01 3.97585E+01 0.00000E+00
 -1       539 8.70959E+01 4.43776E+01 0.00000E+00
 -1       540 8.46540E+01 4.88750E+01 0.00000E+00
 -1       541 8.19800E+01 5.32385E+01 0.00000E+00
 -1       542 7.90814E+01 5.74560E+01 0.00000E+00
 -1       543 7.59660E+01 6.15161E+01 0.00000E+00
 -1       544 7.26424E+01 6.54075E+01 0.00000E+00
 -1       545 6.91197E+01 6.91197E+01 0.00000E+00
 -1       546 6.54075E+01 7.26424E+01 0.00000E+00
 -1       547 6.15161E+01 7.59660E+01 0.00000E+00
 -1       548 5.74560E+01 7.90814E+01 0.00000E+00
 -1       549 5.32385E+01 8.19800E+01 0.00000E+00
 -1       550 4.88750E+01 8.46540E+01 0.00000E+00
 -1       551 4.43776E+01 8.70959E+01 0.00000E+00
 -1       552 3.97585E+01 8.92991E+01 0.00000E+00
 -1       553 3.50305E+01 9.12575E+01 0.00000E+00
 -1       554 3.02064E+01 9.29658E+01 0.00000E+00
 -1       555 2.52996E+01 9.44193E+01 0.00000E+00
 -1       556 2.03234E+01 9.56139E+01 0.00000E+00
 -1       557 1.52915E+01 9.65465E+01 0.00000E+00
 -1       558 1.02177E+01 9.72145E+01 0.00000E+00
 -1       559 5.11584E+00 9.76160E+01 0.00000E+00
 -1       560 9.78657E+01 5.12892E+00 0.00000E+00
 -1       561 9.74631E+01 1.02438E+01 0.00000E+00
 -1       562 9.67935E+01 1.53306E+01 0.00000E+00
 -1       563 9.58585E+01 2.03753E+01 0.00000E+00
 -1       564 9.46607E+01 2.53643E+01 0.00000E+00
 -1       565 9.32035E+01 3.02837E+01 0.00000E+00
 -1       566 9.14909E+01 3.51201E+01 0.00000E+00
 -1       567 8.95275E+01 3.98602E+01 0.00000E+00
 -1       568 8.73186E+01 4.44911E+01 0.00000E+00
 -1       569 8.48705E+01 4.90000E+01 0.00000E+00
 -1       570 8.21897E+01 5.33746E+01 0.00000E+00
 -1       571 7.92837E+01 5.76030E+01 0.00000E+00
 -1       572 7.61603E+01 6.16734E+01 0.00000E+00
 -1       573 7.28282E+01 6.55748E+01 0.00000E+00
 -1       574 6.92965E+01 6.92965E+01 0.00000E+00
 -1       575 6.55748E+01 7.28282E+01 0.00000E+00
 -1       576 6.16734E+01 7.61603E+01 0.00000E+00
 -1       577 5.76030E+01 7.92837E+01 0.00000E+00
 -1       578 5.33746E+01 8.21897E+01 0.00000E+00
 -1       579 4.90000E+01 8.48705E+01 0.00000E+00
 -1       580 4.44911E+01 8.73186E+01 0.00000E+00
 -1       581 3.98602E+01 8.95275E+01 0.00000E+00
 -1       582 3.51201E+01 9.14909E+01 0.00000E+00
 -1       583 3.02837E+01 9.32035E+01 0.00000E+00
 -1       584 2.53643E+01 9.46607E+01 0.00000E+00
 -1       585 2.03753E+01 9.58585E+01 0.00000E+00
 -1       586 1.53306E+01 9.67935E+01 0.00000E+00
 -1       587 1.02438E+01 9.74631E+01 0.00000E+00
 -1       588 5.12892E+00 9.78657E+01 0.00000E+00
 -1       589 9.81153E+01 5.14201E+00 0.00000E+00
 -1       590 9.77118E+01 1.02699E+01 0.00000E+00
 -1       591 9.70404E+01 1.53697E+01 0.00000E+00
 -1       592 9.61030E+01 2.04273E+01 0.00000E+00
 -1       593 9.49022E+01 2.54290E+01 0.00000E+00
 -1       594 9.34413E+01 3.03609E+01 0.00000E+00
 -1       595 9.17243E+01 3.52097E+01 0.00000E+00
 -1       596 8.97558E+01 3.99619E+01 0.00000E+00
 -1       597 8.75414E+01 4.46046E+01 0.00000E+00
 -1       598 8.50870E+01 4.91250E+01 0.00000E+00
 -1       599 8.23994E+01 5.35108E+01 0.00000E+00
 -1       600 7.94859E+01 5.77499E+01 0.00000E+00
 -1       601 7.63546E+01 6.18307E+01 0.00000E+00
 -1       602 7.30140E+01 6.57421E+01 0.00000E+00
 -1       603 6.94732E+01 6.94732E+01 0.00000E+00
 -1       604 6.57421E+01 7.30140E+01 0.00000E+00
 -1       605 6.18307E+01 7.63546E+01 0.00000E+00
 -1       606 5.77499E+01 7.94859E+01 0.00000E+00
 -1       607 5.35108E+01 8.23994E+01 0.00000E+00
 -1       608 4.91250E+01 8.50870E+01 0.00000E+00
 -1       609 4.46046E+01 8.75414E+01 0.00000E+00
 -1       610 3.99619E+01 8.97558E+01 0.00000E+00
 -1       611 3.52097E+01 9.17243E+01 0.00000E+00
 -1       612 3.03609E+01 9.34413E+01 0.00000E+00
 -1       613 2.54290E+01 9.49022E+01 0.00000E+00
 -1       614 2.04273E+01 9.61030E+01 0.00000E+00
 -1       615 1.53697E+01 9.70404E+01 0.00000E+00
 -1       616 1.02699E+01 9.77118E+01 0.00000E+00
 -1       617 5.14201E+00 9.81153E+01 0.00000E+00
 -1       618 9.83650E+01 5.15509E+00 0.00000E+00
 -1       619 9.79604E+01 1.02961E+01 0.00000E+00
 -1       620 9.72873E+01 1.54088E+01 0.00000E+00
 -1       621 9.63475E+01 2.04793E+01 0.00000E+00
 -1       622 9.51437E+01 2.54937E+01 0.00000E+00
 -1       623 9.36791E+01 3.04382E+01 0.00000E+00
 -1       624 9.19577E+01 3.52992E+01 0.00000E+00
 -1       625 8.99842E+01 4.00636E+01 0.00000E+00
 -1       626 8.77641E+01 4.47181E+01 0.00000E+00
 -1       627 8.53035E+01 4.92500E+01 0.00000E+00
 -1       628 8.26091E+01 5.36469E+01 0.00000E+00
 -1       629 7.96882E+01 5.78968E+01 0.00000E+00
 -1       630 7.65489E+01 6.19881E+01 0.00000E+00
 -1       631 7.31998E+01 6.59094E+01 0.00000E+00
 -1       632 6.96500E+01 6.96500E+01 0.00000E+00
 -1       633 6.59094E+01 7.31998E+01 0.00000E+00
 -1       634 6.19881E+01 7.65489E+01 0.00000E+00
 -1       635 5.78968E+01 7.96882E+01 0.00000E+00
 -1       636 5.36469E+01 8.26091E+01 0.00000E+00
 -1       637 4.92500E+01 8.53035E+01 0.00000E+00
 -1       638 4.47181E+01 8.77641E+01 0.00000E+00
 -1       639 4.00636E+01 8.99842E+01 0.00000E+00
 -1       640 3.52992E+01 9.19577E+01 0.00000E+00
 -1       641 3.04382E+01 9.36791E+01 0.00000E+00
 -1       642 2.54937E+01 9.51437E+01 0.00000E+00
 -1       643 2.04793E+01 9.63475E+01 0.00000E+00
 -1       644 1.54088E+01 9.72873E+01 0.00000E+00
 -1       645 1.02961E+01 9.79604E+01 0.00000E+00
 -1       646 5.15509E+00 9.83650E+01 0.00000E+00
 -1       647 9.86147E+01 5.16818E+00 0.00000E+00
 -1       648 9.82090E+01 1.03222E+01 0.00000E+00
 -1       649 9.75342E+01 1.54479E+01 0.00000E+00
 -1       650 9.65921E+01 2.05313E+01 0.00000E+00
 -1       651 9.53852E+01 2.55584E+01 0.00000E+00
 -1       652 9.39168E+01 3.05154E+01 0.00000E+00
 -1       653 9.21911E+01 3.53888E+01 0.00000E+00
 -1       654 9.02126E+01 4.01652E+01 0.00000E+00
 -1       655 8.79869E+01 4.48316E+01 0.00000E+00
 -1       656 8.55200E+01 4.93750E+01 0.00000E+00
 -1       657 8.28187E+01 5.37831E+01 0.00000E+00
 -1       658 7.98904E+01 5.80438E+01 0.00000E+00
 -1       659 7.67432E+01 6.21454E+01 0.00000E+00
 -1       660 7.33856E+01 6.60766E+01 0.00000E+00
 -1       661 6.98268E+01 6.98268E+01 0.00000E+00
 -1       662 6.60766E+01 7.33856E+01 0.00000E+00
 -1       663 6.21454E+01 7.67432E+01 0.00000E+00
 -1       664 5.80438E+01 7.98904E+01 0.00000E+00
 -1       665 5.37831E+01 8.28187E+01 0.00000E+00
 -1       666 4.93750E+01 8.55200E+01 0.00000E+00
 -1       667 4.48316E+01 8.79869E+01 0.00000E+00
 -1       668 4.01652E+01 9.02126E+01 0.00000E+00
 -1       669 3.53888E+01 9.21911E+01 0.00000E+00
 -1       670 3.05154E+01 9.39168E+01 0.00000E+00
 -1       671 2.55584E+01 9.53852E+01 0.00000E+00
 -1       672 2.05313E+01 9.65921E+01 0.00000E+00
 -1       673 1.54479E+01 9.75342E+01 0.00000E+00
 -1       674 1.03222E+01 9.82090E+01 0.00000E+00
 -1       675 5.16818E+00 9.86147E+01 0.00000E+00
 -1       676 9.88643E+01 5.18126E+00 0.00000E+00
 -1       677 9.84577E+01 1.03483E+01 0.00000E+00
 -1       678 9.77811E+01 1.54870E+01 0.00000E+00
 -1       679 9.68366E+01 2.05833E+01 0.00000E+00
 -1       680 9.56267E+01 2.56231E+01 0.00000E+00
 -1       681 9.41546E+01 3.05927E+01 0.00000E+00
 -1       682 9.24245E+01 3.54784E+01 0.00000E+00
 -1       683 9.04410E+01 4.02669E+01 0.00000E+00
 -1       684 8.82096E+01 4.49451E+01 0.00000E+00
 -1       685 8.57365E+01 4.95000E+01 0.00000E+00
 -1       686 8.30284E+01 5.39193E+01 0.00000E+00
 -1       687 8.00927E+01 5.81907E+01 0.00000E+00
 -1       688 7.69374E+01 6.23027E+01 0.00000E+00
 -1       689 7.35713E+01 6.62439E+01 0.00000E+00
 -1       690 7.00036E+01 7.00036E+01 0.00000E+00
 -1       691 6.62439E+01 7.35713E+01 0.00000E+00
 -1       692 6.23027E+01 7.69374E+01 0.00000E+00
 -1       693 5.81907E+01 8.00927E+01 0.00000E+00
 -1       694 5.39193E+01 8.30284E+01 0.00000E+00
 -1       695 4.95000E+01 8.57365E+01 0.00000E+00
 -1       696 4.49451E+01 8.82096E+01 0.00000E+00
 -1       697 4.02669E+01 9.04410E+01 0.00000E+00
 -1       698 3.54784E+01 9.24245E+01 0.00000E+00
 -1       699 3.05927E+01 9.41546E+01 0.00000E+00
 -1       700 2.56231E+01 9.56267E+01 0.00000E+00
 -1       701 2.05833E+01 9.68366E+01 0.00000E+00
 -1       702 1.54870E+01 9.77811E+01 0.00000E+00
 -1       703 1.03483E+01 9.84577E+01 0.00000E+00
 -1       704 5.18126E+00 9.88643E+01 0.00000E+00
 -1       705 9.91140E+01 5.19434E+00 0.00000E+00
 -1       706 9.87063E+01 1.03744E+01 0.00000E+00
 -1       707 9.80281E+01 1.55261E+01 0.00000E+00
 -1       708 9.70811E+01 2.06352E+01 0.00000E+00
 -1       709 9.58681E+01 2.56878E+01 0.00000E+00
 -1       710 9.43924E+01 3.06699E+01 0.00000E+00
 -1       711 9.26579E+01 3.55680E+01 0.00000E+00
 -1       712 9.06694E+01 4.03686E+01 0.00000E+00
 -1       713 8.84324E+01 4.50586E+01 0.00000E+00
 -1       714 8.59530E+01 4.96250E+01 0.00000E+00
 -1       715 8.32381E+01 5.40554E+01 0.00000E+00
 -1       716 8.02949E+01 5.83377E+01 0.00000E+00
 -1       717 7.71317E+01 6.24600E+01 0.00000E+00
 -1       718 7.37571E+01 6.64112E+01 0.00000E+00
 -1       719 7.01804E+01 7.01804E+01 0.00000E+00
 -1       720 6.64112E+01 7.37571E+01 0.00000E+00
 -1       721 6.24600E+01 7.71317E+01 0.00000E+00
 -1       722 5.83377E+01 8.02949E+01 0.00000E+00
 -1       723 5.40554E+01 8.32381E+01 0.00000E+00
 -1       724 4.96250E+01 8.59530E+01 0.00000E+00
 -1       725 4.50586E+01 8.84324E+01 0.00000E+00
 -1       726 4.03686E+01 9.06694E+01 0.00000E+00
 -1       727 3.55680E+01 9.26579E+01 0.00000E+00
 -1       728 3.06699E+01 9.43924E+01 0.00000E+00
 -1       729 2.56878E+01 9.58681E+01 0.00000E+00
 -1       730 2.06352E+01 9.70811E+01 0.00000E+00
 -1       731 1.55261E+01 9.80281E+01 0.00000E+00
 -1       732 1.03744E+01 9.87063E+01 0.00000E+00
 -1       733 5.19434E+00 9.91140E+01 0.00000E+00
 -1       734 9.93636E+01 5.20743E+00 0.00000E+00
 -1       735 9.89549E+01 1.04006E+01 0.00000E+00
 -1       736 9.82750E+01 1.55652E+01 0.00000E+00
 -1       737 9.73257E+01 2.06872E+01 0.00000E+00
 -1       738 9.61096E+01 2.57525E+01 0.00000E+00
 -1       739 9.46301E+01 3.07472E+01 0.00000E+00
 -1       740 9.28913E+01 3.56576E+01 0.00000E+00
 -1       741 9.08978E+01 4.04703E+01 0.00000E+00
 -1       742 8.86552E+01 4.51721E+01 0.00000E+00
 -1       743 8.61695E+01 4.97500E+01 0.00000E+00
 -1       744 8.34477E+01 5.41916E+01 0.00000E+00
 -1       745 8.04972E+01 5.84846E+01 0.00000E+00
 -1       746 7.73260E+01 6.26174E+01 0.00000E+00
 -1       747 7.39429E+01 6.65785E+01 0.00000E+00
 -1       748 7.03571E+01 7.03571E+01 0.00000E+00
 -1       749 6.65785E+01 7.39429E+01 0.00000E+00
 -1       750 6.26174E+01 7.73260E+01 0.00000E+00
 -1       751 5.84846E+01 8.04972E+01 0.00000E+00
 -1       752 5.41916E+01 8.34477E+01 0.00000E+00
 -1       753 4.97500E+01 8.61695E+01 0.00000E+00
 -1       754 4.51721E+01 8.86552E+01 0.00000E+00
 -1       755 4.04703E+01 9.08978E+01 0.00000E+00
 -1       756 3.56576E+01 9.28913E+01 0.00000E+00
 -1       757 3.07472E+01 9.46301E+01 0.00000E+00
 -1       758 2.57525E+01 9.61096E+01 0.00000E+00
 -1       759 2.06872E+01 9.73257E+01 0.00000E+00
 -1       760 1.55652E+01 9.82750E+01 0.00000E+00
 -1       761 1.04006E+01 9.89549E+01 0.00000E+00
 -1       762 5.20743E+00 9.93636E+01 0.00000E+00
 -1       763 9.96133E+01 5.22051E+00 0.00000E+00
 -1       764 9.92036E+01 1.04267E+01 0.00000E+00
 -1       765 9.85219E+01 1.56043E+01 0.00000E+00
 -1       766 9.75702E+01 2.07392E+01 0.00000E+00
 -1       767 9.63511E+01 2.58172E+01 0.00000E+00
 -1       768 9.48679E+01 3.08244E+01 0.00000E+00
 -1       769 9.31246E+01 3.57472E+01 0.00000E+00
 -1       770 9.11262E+01 4.05720E+01 0.00000E+00
 -1       771 8.88779E+01 4.52856E+01 0.00000E+00
 -1       772 8.63860E+01 4.98750E+01 0.00000E+00
 -1       773 8.36574E+01 5.43277E+01 0.00000E+00
 -1       774 8.06994E+01 5.86316E+01 0.00000E+00
 -1       775 7.75203E+01 6.27747E+01 0.00000E+00
 -1       776 7.41287E+01 6.67458E+01 0.00000E+00
 -1       777 7.05339E+01 7.05339E+01 0.00000E+00
 -1       778 6.67458E+01 7.41287E+01 0.00000E+00
 -1       779 6.27747E+01 7.75203E+01 0.00000E+00
 -1       780 5.86316E+01 8.06994E+01 0.00000E+00
 -1       781 5.43277E+01 8.36574E+01 0.00000E+00
 -1       782 4.98750E+01 8.63860E+01 0.00000E+00
 -1       783 4.52856E+01 8.88779E+01 0.00000E+00
 -1       784 4.05720E+01 9.11262E+01 0.00000E+00
 -1       785 3.57472E+01 9.31246E+01 0.00000E+00
 -1       786 3.08244E+01 9.48679E+01 0.00000E+00
 -1       787 2.58172E+01 9.63511E+01 0.00000E+00
 -1       788 2.07392E+01 9.75702E+01 0.00000E+00
 -1       789 1.56043E+01 9.85219E+01 0.00000E+00
 -1       790 1.04267E+01 9.92036E+01 0.00000E+00
 -1       791 5.22051E+00 9.96133E+01 0.00000E+00
 -1       792 9.52500E+01 0.00000E+00 9.09091E-01
 -1       793 9.52500E+01 0.00000E+00 1.81818E+00
 -1       794 9.52500E+01 0.00000E+00 2.72727E+00
 -1       795 9.52500E+01 0.00000E+00 3.63636E+00
 -1       796 9.52500E+01 0.00000E+00 4.54545E+00
 -1       797 9.52500E+01 0.00000E+00 5.45455E+00
 -1       798 9.52500E+01 0.00000E+00 6.36364E+00
 -1       799 9.52500E+01 0.00000E+00 7.27273E+00
 -1       800 9.52500E+01 0.00000E+00 8.18182E+00
 -1       801 9.52500E+01 0.00000E+00 9.09091E+00
 -1       802 9.55000E+01 0.00000E+00 9.09091E-01
 -1       803 9.55000E+01 0.00000E+00 1.81818E+00
 -1       804 9.55000E+01 0.00000E+00 2.72727E+00
 -1       805 9.55000E+01 0.00000E+00 3.63636E+00
 -1       806 9.55000E+01 0.00000E+00 4.54545E+00
 -1       807 9.55000E+01 0.00000E+00 5.45455E+00
 -1       808 9.55000E+01 0.00000E+00 6.36364E+00
 -1       809 9.55000E+01 0.00000E+00 7.27273E+00
 -1       810 9.55000E+01 0.00000E+00 8.18182E+00
 -1       811 9.55000E+01 0.00000E+00 9.09091E+00
 -1       812 9.57500E+01 0.00000E+00 9.09091E-01
 -1       813 9.57500E+01 0.00000E+00 1.81818E+00
 -1       814 9.57500E+01 0.00000E+00 2.72727E+00
 -1       815 9.57500E+01 0.00000E+00 3.63636E+00
 -1       816 9.57500E+01 0.00000E+00 4.54545E+00
 -1       817 9.57500E+01 0.00000E+00 5.45455E+00
 -1       818 9.57500E+01 0.00000E+00 6.36364E+00
 -1       819 9.57500E+01 0.00000E+00 7.27273E+00
 -1       820 9.57500E+01 0.00000E+00 8.18182E+00
 -1       821 9.57500E+01 0.00000E+00 9.09091E+00
 -1       822 9.60000E+01 0.00000E+00 9.09091E-01
 -1       823 9.60000E+01 0.00000E+00 1.81818E+00
 -1       824 9.60000E+01 0.00000E+00 2.72727E+00
 -1       825 9.60000E+01 0.00000E+00 3.63636E+00
 -1       826 9.60000E+01 0.00000E+00 4.54545E+00
 -1       827 9.60000E+01 0.00000E+00 5.45455E+00
 -1       828 9.60000E+01 0.00000E+00 6.36364E+00
 -1       829 9.60000E+01 0.00000E+00 7.27273E+00
 -1       830 9.60000E+01 0.00000E+00 8.18182E+00
 -1       831 9.60000E+01 0.00000E+00 9.09091E+00
 -1       832 9.62500E+01 0.00000E+00 9.09091E-01
 -1       833 9.62500E+01 0.00000E+00 1.81818E+00
 -1       834 9.62500E+01 0.00000E+00 2.72727E+00
 -1       835 9.62500E+01 0.00000E+00 3.63636E+00
 -1       836 9.62500E+01 0.00000E+00 4.54545E+00
 -1       837 9.62500E+01 0.00000E+00 5.45455E+00
 -1       838 9.62500E+01 0.00000E+00 6.36364E+00
 -1       839 9.62500E+01 0.00000E+00 7.27273E+00
 -1       840 9.62500E+01 0.00000E+00 8.18182E+00
 -1       841 9.62500E+01 0.00000E+00 9.09091E+00
 -1       842 9.65000E+01 0.00000E+00 9.09091E-01
 -1       843 9.65000E+01 0.00000E+00 1.81818E+00
 -1       844 9.65000E+01 0.00000E+00 2.72727E+00
 -1       845 9.65000E+01 0.00000E+00 3.63636E+00
 -1       846 9.65000E+01 0.00000E+00 4.54545E+00
 -1       847 9.65000E+01 0.00000E+00 5.45455E+00
 -1       848 9.65000E+01 0.00000E+00 6.36364E+00
 -1       849 9.65000E+01 0.00000E+00 7.27273E+00
 -1       850 9.65000E+01 0.00000E+00 8.18182E+00
 -1       851 9.65000E+01 0.00000E+00 9.09091E+00
 -1       852 9.67500E+01 0.00000E+00 9.09091E-01
 -1       853 9.67500E+01 0.00000E+00 1.81818E+00
 -1       854 9.67500E+01 0.00000E+00 2.72727E+00
 -1       855 9.67500E+01 0.00000E+00 3.63636E+00
 -1       856 9.67500E+01 0.00000E+00 4.54545E+00
 -1       857 9.67500E+01 0.00000E+00 5.45455E+00
 -1       858 9.67500E+01 0.00000E+00 6.36364E+00
 -1       859 9.67500E+01 0.00000E+00 7.27273E+00
 -1       860 9.67500E+01 0.00000E+00 8.18182E+00
 -1       861 9.67500E+01 0.00000E+00 9.09091E+00
 -1       862 9.70000E+01 0.00000E+00 9.09091E-01
 -1       863 9.70000E+01 0.00000E+00 1.81818E+00
 -1       864 9.70000E+01 0.00000E+00 2.72727E+00
 -1       865 9.70000E+01 0.00000E+00 3.63636E+00
 -1       866 9.70000E+01 0.00000E+00 4.54545E+00
 -1       867 9.70000E+01 0.00000E+00 5.45455E+00
 -1       868 9.70000E+01 0.00000E+00 6.36364E+00
 -1       869 9.70000E+01 0.00000E+00 7.27273E+00
 -1       870 9.70000E+01 0.00000E+00 8.18182E+00
 -1       871 9.70000E+01 0.00000E+00 9.09091E+00
 -1       872 9.72500E+01 0.00000E+00 9.09091E-01
 -1       873 9.72500E+01 0.00000E+00 1.81818E+00
 -1       874 9.72500E+01 0.00000E+00 2.72727E+00
 -1       875 9.72500E+01 0.00000E+00 3.63636E+00
 -1       876 9.72500E+01 0.00000E+00 4.54545E+00
 -1       877 9.72500E+01 0.00000E+00 5.45455E+00
 -1       878 9.72500E+01 0.00000E+00 6.36364E+00
 -1       879 9.72500E+01 0.00000E+00 7.27273E+00
 -1       880 9.72500E+01 0.00000E+00 8.18182E+00
 -1       881 9.72500E+01 0.00000E+00 9.09091E+00
 -1       882 9.75000E+01 0.00000E+00 9.09091E-01
 -1       883 9.75000E+01 0.00000E+00 1.81818E+00
 -1       884 9.75000E+01 0.00000E+00 2.72727E+00
 -1       885 9.75000E+01 0.00000E+00 3.63636E+00
 -1       886 9.75000E+01 0.00000E+00 4.54545E+00
 -1       887 9.75000E+01 0.00000E+00 5.45455E+00
 -1       888 9.75000E+01 0.00000E+00 6.36364E+00
 -1       889 9.75000E+01 0.00000E+00 7.27273E+00
 -1       890 9.75000E+01 0.00000E+00 8.18182E+00
 -1       891 9.75000E+01 0.00000E+00 9.09091E+00
 -1       892 9.77500E+01 0.00000E+00 9.09091E-01
 -1       893 9.77500E+01 0.00000E+00 1.81818E+00
 -1       894 9.77500E+01 0.00000E+00 2.72727E+00
 -1       895 9.77500E+01 0.00000E+00 3.63636E+00
 -1       896 9.77500E+01 0.00000E+00 4.54545E+00
 -1       897 9.77500E+01 0.00000E+00 5.45455E+00
 -1       898 9.77500E+01 0.00000E+00 6.36364E+00
 -1       899 9.77500E+01 0.00000E+00 7.27273E+00
 -1       900 9.77500E+01 0.00000E+00 8.18182E+00
 -1       901 9.77500E+01 0.00000E+00 9.09091E+00
 -1       902 9.80000E+01 0.00000E+00 9.09091E-01
 -1       903 9.80000E+01 0.00000E+00 1.81818E+00
 -1       904 9.80000E+01 0.00000E+00 2.72727E+00
 -1       905 9.80000E+01 0.00000E+00 3.63636E+00
 -1       906 9.80000E+01 0.00000E+00 4.54545E+00
 -1       907 9.80000E+01 0.00000E+00 5.45455E+00
 -1       908 9.80000E+01 0.00000E+00 6.36364E+00
 -1       909 9.80000E+01 0.00000E+00 7.27273E+00
 -1       910 9.80000E+01 0.00000E+00 8.18182E+00
 -1       911 9.80000E+01 0.00000E+00 9.09091E+00
 -1       912 9.82500E+01 0.00000E+00 9.09091E-01
 -1       913 9.82500E+01 0.00000E+00 1.81818E+00
 -1       914 9.82500E+01 0.00000E+00 2.72727E+00
 -1       915 9.82500E+01 0.00000E+00 3.63636E+00
 -1       916 9.82500E+01 0.00000E+00 4.54545E+00
 -1       917 9.82500E+01 0.00000E+00 5.45455E+00
 -1       918 9.82500E+01 0.00000E+00 6.36364E+00
 -1       919 9.82500E+01 0.00000E+00 7.27273E+00
 -1       920 9.82500E+01 0.00000E+00 8.18182E+00
 -1       921 9.82500E+01 0.00000E+00 9.09091E+00
 -1       922 9.85000E+01 0.00000E+00 9.09091E-01
 -1       923 9.85000E+01 0.00000E+00 1.81818E+00
 -1       924 9.85000E+01 0.00000E+00 2.72727E+00
 -1       925 9.85000E+01 0.00000E+00 3.63636E+00
 -1       926 9.85000E+01 0.00000E+00 4.54545E+00
 -1       927 9.85000E+01 0.00000E+00 5.45455E+00
 -1       928 9.85000E+01 0.00000E+00 6.36364E+00
 -1       929 9.85000E+01 0.00000E+00 7.27273E+00
 -1       930 9.85000E+01 0.00000E+00 8.18182E+00
 -1       931 9.85000E+01 0.00000E+00 9.09091E+00
 -1       932 9.87500E+01 0.00000E+00 9.09091E-01
 -1       933 9.87500E+01 0.00000E+00 1.81818E+00
 -1       934 9.87500E+01 0.00000E+00 2.72727E+00
 -1       935 9.87500E+01 0.00000E+00 3.63636E+00
 -1       936 9.87500E+01 0.00000E+00 4.54545E+00
 -1       937 9.87500E+01 0.00000E+00 5.45455E+00
 -1       938 9.87500E+01 0.00000E+00 6.36364E+00
 -1       939 9.87500E+01 0.00000E+00 7.27273E+00
 -1       940 9.87500E+01 0.00000E+00 8.18182E+00
 -1       941 9.87500E+01 0.00000E+00 9.09091E+00
 -1       942 9.90000E+01 0.00000E+00 9.09091E-01
 -1       943 9.90000E+01 0.00000E+00 1.81818E+00
 -1       944 9.90000E+01 0.00000E+00 2.72727E+00
 -1       945 9.90000E+01 0.00000E+00 3.63636E+00
 -1       946 9.90000E+01 0.00000E+00 4.54545E+00
 -1       947 9.90000E+01 0.00000E+00 5.45455E+00
 -1       948 9.90000E+01 0.00000E+00 6.36364E+00
 -1       949 9.90000E+01 0.00000E+00 7.27273E+00
 -1       950 9.90000E+01 0.00000E+00 8.18182E+00
 -1       951 9.90000E+01 0.00000E+00 9.09091E+00
 -1       952 9.92500E+01 0.00000E+00 9.09091E-01
 -1       953 9.92500E+01 0.00000E+00 1.81818E+00
 -1       954 9.92500E+01 0.00000E+00 2.72727E+00
 -1       955 9.92500E+01 0.00000E+00 3.63636E+00
 -1       956 9.92500E+01 0.00000E+00 4.54545E+00
 -1       957 9.92500E+01 0.00000E+00 5.45455E+00
 -1       958 9.92500E+01 0.00000E+00 6.36364E+00
 -1       959 9.92500E+01 0.00000E+00 7.27273E+00
 -1       960 9.92500E+01 0.00000E+00 8.18182E+00
 -1       961 9.92500E+01 0.00000E+00 9.09091E+00
 -1       962 9.95000E+01 0.00000E+00 9.09091E-01
 -1       963 9.95000E+01 0.00000E+00 1.81818E+00
 -1       964 9.95000E+01 0.00000E+00 2.72727E+00
 -1       965 9.95000E+01 0.00000E+00 3.63636E+00
 -1       966 9.95000E+01 0.00000E+00 4.54545E+00
 -1       967 9.95000E+01 0.00000E+00 5.45455E+00
 -1       968 9.95000E+01 0.00000E+00 6.36364E+00
 -1       969 9.95000E+01 0.00000E+00 7.27273E+00
 -1       970 9.95000E+01 0.00000E+00 8.18182E+00
 -1       971 9.95000E+01 0.00000E+00 9.09091E+00
 -1       972 9.97500E+01 0.00000E+00 9.09091E-01
 -1       973 9.97500E+01 0.00000E+00 1.81818E+00
 -1       974 9.97500E+01 0.00000E+00 2.72727E+00
 -1       975 9.97500E+01 0.00000E+00 3.63636E+00
 -1       976 9.97500E+01 0.00000E+00 4.54545E+00
 -1       977 9.97500E+01 0.00000E+00 5.45455E+00
 -1       978 9.97500E+01 0.00000E+00 6.36364E+00
 -1       979 9.97500E+01 0.00000E+00 7.27273E+00
 -1       980 9.97500E+01 0.00000E+00 8.18182E+00
 -1       981 9.97500E+01 0.00000E+00 9.09091E+00
 -1       982 9.98630E+01 5.23360E+00 9.09091E-01
 -1       983 9.98630E+01 5.23360E+00 1.81818E+00
 -1       984 9.98630E+01 5.23360E+00 2.72727E+00
 -1       985 9.98630E+01 5.23360E+00 3.63636E+00
 -1       986 9.98630E+01 5.23360E+00 4.54545E+00
 -1       987 9.98630E+01 5.23360E+00 5.45455E+00
 -1       988 9.98630E+01 5.23360E+00 6.36364E+00
 -1       989 9.98630E+01 5.23360E+00 7.27273E+00
 -1       990 9.98630E+01 5.23360E+00 8.18182E+00
 -1       991 9.98630E+01 5.23360E+00 9.09091E+00
 -1       992 9.94522E+01 1.04528E+01 9.09091E-01
 -1       993 9.94522E+01 1.04528E+01 1.81818E+00
 -1       994 9.94522E+01 1.04528E+01 2.72727E+00
 -1       995 9.94522E+01 1.04528E+01 3.63636E+00
 -1       996 9.94522E+01 1.04528E+01 4.54545E+00
 -1       997 9.94522E+01 1.04528E+01 5.45455E+00
 -1       998 9.94522E+01 1.04528E+01 6.36364E+00
 -1       999 9.94522E+01 1.04528E+01 7.27273E+00
 -1      1000 9.94522E+01 1.04528E+01 8.18182E+00
 -1      1001 9.94522E+01 1.04528E+01 9.09091E+00
 -1      1002 9.87688E+01 1.56434E+01 9.09091E-01
 -1      1003 9.87688E+01 1.56434E+01 1.81818E+00
 -1      1004 9.87688E+01 1.56434E+01 2.72727E+00
 -1      1005 9.87688E+01 1.56434E+01 3.63636E+00
 -1      1006 9.87688E+01 1.56434E+01 4.54545E+00
 -1      1007 9.87688E+01 1.56434E+01 5.45455E+00
 -1      1008 9.87688E+01 1.56434E+01 6.36364E+00
 -1      1009 9.87688E+01 1.56434E+01 7.27273E+00
 -1      1010 9.87688E+01 1.56434E+01 8.18182E+00
 -1      1011 9.87688E+01 1.56434E+01 9.09091E+00
 -1      1012 9.78148E+01 2.07912E+01 9.09091E-01
 -1      1013 9.78148E+01 2.07912E+01 1.81818E+00
 -1      1014 9.78148E+01 2.07912E+01 2.72727E+00
 -1      1015 9.78148E+01 2.07912E+01 3.63636E+00
 -1      1016 9.78148E+01 2.07912E+01 4.54545E+00
 -1      1017 9.78148E+01 2.07912E+01 5.45455E+00
 -1      1018 9.78148E+01 2.07912E+01 6.36364E+00
 -1      1019 9.78148E+01 2.07912E+01 7.27273E+00
 -1      1020 9.78148E+01 2.07912E+01 8.18182E+00
 -1      1021 9.78148E+01 2.07912E+01 9.09091E+00
 -1      1022 9.65926E+01 2.58819E+01 9.09091E-01
 -1      1023 9.65926E+01 2.58819E+01 1.81818E+00
 -1      1024 9.65926E+01 2.58819E+01 2.72727E+00
 -1      1025 9.65926E+01 2.58819E+01 3.63636E+00
 -1      1026 9.65926E+01 2.58819E+01 4.54545E+00
 -1      1027 9.65926E+01 2.58819E+01 5.45455E+00
 -1      1028 9.65926E+01 2.58819E+01 6.36364E+00
 -1      1029 9.65926E+01 2.58819E+01 7.27273E+00
 -1      1030 9.65926E+01 2.58819E+01 8.18182E+00
 -1      1031 9.65926E+01 2.58819E+01 9.09091E+00
 -1      1032 9.51057E+01 3.09017E+01 9.09091E-01
 -1      1033 9.51057E+01 3.09017E+01 1.81818E+00
 -1      1034 9.51057E+01 3.09017E+01 2.72727E+00
 -1      1035 9.51057E+01 3.09017E+01 3.63636E+00
 -1      1036 9.51057E+01 3.09017E+01 4.54545E+00
 -1      1037 9.51057E+01 3.09017E+01 5.45455E+00
 -1      1038 9.51057E+01 3.09017E+01 6.36364E+00
 -1      1039 9.51057E+01 3.09017E+01 7.27273E+00
 -1      1040 9.51057E+01 3.09017E+01 8.18182E+00
 -1      1041 9.51057E+01 3.09017E+01 9.09091E+00
 -1      1042 9.33580E+01 3.58368E+01 9.09091E-01
 -1      1043 9.33580E+01 3.58368E+01 1.81818E+00
 -1      1044 9.33580E+01 3.58368E+01 2.72727E+00
 -1      1045 9.33580E+01 3.58368E+01 3.63636E+00
 -1      1046 9.33580E+01 3.58368E+01 4.54545E+00
 -1      1047 9.33580E+01 3.58368E+01 5.45455E+00
 -1      1048 9.33580E+01 3.58368E+01 6.36364E+00
 -1      1049 9.33580E+01 3.58368E+01 7.27273E+00
 -1      1050 9.33580E+01 3.58368E+01 8.18182E+00
 -1      1051 9.33580E+01 3.58368E+01 9.09091E+00
 -1      1052 9.13545E+01 4.06737E+01 9.09091E-01
 -1      1053 9.13545E+01 4.06737E+01 1.81818E+00
 -1      1054 9.13545E+01 4.06737E+01 2.72727E+00
 -1      1055 9.13545E+01 4.06737E+01 3.63636E+00
 -1      1056 9.13545E+01 4.06737E+01 4.54545E+00
 -1      1057 9.13545E+01 4.06737E+01 5.45455E+00
 -1      1058 9.13545E+01 4.06737E+01 6.36364E+00
 -1      1059 9.13545E+01 4.06737E+01 7.27273E+00
 -1      1060 9.13545E+01 4.06737E+01 8.18182E+00
 -1      1061 9.13545E+01 4.06737E+01 9.09091E+00
 -1      1062 8.91007E+01 4.53991E+01 9.09091E-01
 -1      1063 8.91007E+01 4.53991E+01 1.81818E+00
 -1      1064 8.91007E+01 4.53991E+01 2.72727E+00
 -1      1065 8.91007E+01 4.53991E+01 3.63636E+00
 -1      1066 8.91007E+01 4.53991E+01 4.54545E+00
 -1      1067 8.91007E+01 4.53991E+01 5.45455E+00
 -1      1068 8.91007E+01 4.53991E+01 6.36364E+00
 -1      1069 8.91007E+01 4.53991E+01 7.27273E+00
 -1      1070 8.91007E+01 4.53991E+01 8.18182E+00
 -1      1071 8.91007E+01 4.53991E+01 9.09091E+00
 -1      1072 8.66025E+01 5.00000E+01 9.09091E-01
 -1      1073 8.66025E+01 5.00000E+01 1.81818E+00
 -1      1074 8.66025E+01 5.00000E+01 2.72727E+00
 -1      1075 8.66025E+01 5.00000E+01 3.63636E+00
 -1      1076 8.66025E+01 5.00000E+01 4.54545E+00
 -1      1077 8.66025E+01 5.00000E+01 5.45455E+00
 -1      1078 8.66025E+01 5.00000E+01 6.36364E+00
 -1      1079 8.66025E+01 5.00000E+01 7.27273E+00
 -1      1080 8.66025E+01 5.00000E+01 8.18182E+00
 -1      1081 8.66025E+01 5.00000E+01 9.09091E+00
 -1      1082 8.38671E+01 5.44639E+01 9.09091E-01
 -1      1083 8.38671E+01 5.44639E+01 1.81818E+00
 -1      1084 8.38671E+01 5.44639E+01 2.72727E+00
 -1      1085 8.38671E+01 5.44639E+01 3.63636E+00
 -1      1086 8.38671E+01 5.44639E+01 4.54545E+00
 -1      1087 8.38671E+01 5.44639E+01 5.45455E+00
 -1      1088 8.38671E+01 5.44639E+01 6.36364E+00
 -1      1089 8.38671E+01 5.44639E+01 7.27273E+00
 -1      1090 8.38671E+01 5.44639E+01 8.18182E+00
 -1      1091 8.38671E+01 5.44639E+01 9.09091E+00
 -1      1092 8.09017E+01 5.87785E+01 9.09091E-01
 -1      1093 8.09017E+01 5.87785E+01 1.81818E+00
 -1      1094 8.09017E+01 5.87785E+01 2.72727E+00
 -1      1095 8.09017E+01 5.87785E+01 3.63636E+00
 -1      1096 8.09017E+01 5.87785E+01 4.54545E+00
 -1      1097 8.09017E+01 5.87785E+01 5.45455E+00
 -1      1098 8.09017E+01 5.87785E+01 6.36364E+00
 -1      1099 8.09017E+01 5.87785E+01 7.27273E+00
 -1      1100 8.09017E+01 5.87785E+01 8.18182E+00
 -1      1101 8.09017E+01 5.87785E+01 9.09091E+00
 -1      1102 7.77146E+01 6.29320E+01 9.09091E-01
 -1      1103 7.77146E+01 6.29320E+01 1.81818E+00
 -1      1104 7.77146E+01 6.29320E+01 2.72727E+00
 -1      1105 7.77146E+01 6.29320E+01 3.63636E+00
 -1      1106 7.77146E+01 6.29320E+01 4.54545E+00
 -1      1107 7.77146E+01 6.29320E+01 5.45455E+00
 -1      1108 7.77146E+01 6.29320E+01 6.36364E+00
 -1      1109 7.77146E+01 6.29320E+01 7.27273E+00
 -1      1110 7.77146E+01 6.29320E+01 8.18182E+00
 -1      1111 7.77146E+01 6.29320E+01 9.09091E+00
 -1      1112 7.43145E+01 6.69131E+01 9.09091E-01
 -1      1113 7.43145E+01 6.69131E+01 1.81818E+00
 -1      1114 7.43145E+01 6.69131E+01 2.72727E+00
 -1      1115 7.43145E+01 6.69131E+01 3.63636E+00
 -1      1116 7.43145E+01 6.69131E+01 4.54545E+00
 -1      1117 7.43145E+01 6.69131E+01 5.45455E+00
 -1      1118 7.43145E+01 6.69131E+01 6.36364E+00
 -1      1119 7.43145E+01 6.69131E+01 7.27273E+00
 -1      1120 7.43145E+01 6.69131E+01 8.18182E+00
 -1      1121 7.43145E+01 6.69131E+01 9.09091E+00
 -1      1122 7.07107E+01 7.07107E+01 9.09091E-01
 -1      1123 7.07107E+01 7.07107E+01 1.81818E+00
 -1      1124 7.07107E+01 7.07107E+01 2.72727E+00
 -1      1125 7.07107E+01 7.07107E+01 3.63636E+00
 -1      1126 7.07107E+01 7.07107E+01 4.54545E+00
 -1      1127 7.07107E+01 7.07107E+01 5.45455E+00
 -1      1128 7.07107E+01 7.07107E+01 6.36364E+00
 -1      1129 7.07107E+01 7.07107E+01 7.27273E+00
 -1      1130 7.07107E+01 7.07107E+01 8.18182E+00
 -1      1131 7.07107E+01 7.07107E+01 9.09091E+00
 -1      1132 6.69131E+01 7.43145E+01 9.09091E-01
 -1      1133 6.69131E+01 7.43145E+01 1.81818E+00
 -1      1134 6.69131E+01 7.43145E+01 2.72727E+00
 -1      1135 6.69131E+01 7.43145E+01 3.63636E+00
 -1      1136 6.69131E+01 7.43145E+01 4.54545E+00
 -1      1137 6.69131E+01 7.43145E+01 5.45455E+00
 -1      1138 6.69131E+01 7.43145E+01 6.36364E+00
 -1      1139 6.69131E+01 7.43145E+01 7.27273E+00
 -1      1140 6.69131E+01 7.43145E+01 8.18182E+00
 -1      1141 6.69131E+01 7.43145E+01 9.09091E+00
 -1      1142 6.29320E+01 7.77146E+01 9.09091E-01
 -1      1143 6.29320E+01 7.77146E+01 1.81818E+00
 -1      1144 6.29320E+01 7.77146E+01 2.72727E+00
 -1      1145 6.29320E+01 7.77146E+01 3.63636E+00
 -1      1146 6.29320E+01 7.77146E+01 4.54545E+00
 -1      1147 6.29320E+01 7.77146E+01 5.45455E+00
 -1      1148 6.29320E+01 7.77146E+01 6.36364E+00
 -1      1149 6.29320E+01 7.77146E+01 7.27273E+00
 -1      1150 6.29320E+01 7.77146E+01 8.18182E+00
 -1      1151 6.29320E+01 7.77146E+01 9.09091E+00
 -1      1152 5.87785E+01 8.09017E+01 9.09091E-01
 -1      1153 5.87785E+01 8.09017E+01 1.81818E+00
 -1      1154 5.87785E+01 8.09017E+01 2.72727E+00
 -1      1155 5.87785E+01 8.09017E+01 3.63636E+00
 -1      1156 5.87785E+01 8.09017E+01 4.54545E+00
 -1      1157 5.87785E+01 8.09017E+01 5.45455E+00
 -1      1158 5.87785E+01 8.09017E+01 6.36364E+00
 -1      1159 5.87785E+01 8.09017E+01 7.27273E+00
 -1      1160 5.87785E+01 8.09017E+01 8.18182E+00
 -1      1161 5.87785E+01 8.09017E+01 9.09091E+00
 -1      1162 5.44639E+01 8.38671E+01 9.09091E-01
 -1      1163 5.44639E+01 8.38671E+01 1.81818E+00
 -1      1164 5.44639E+01 8.38671E+01 2.72727E+00
 -1      1165 5.44639E+01 8.38671E+01 3.63636E+00
 -1      1166 5.44639E+01 8.38671E+01 4.54545E+00
 -1      1167 5.44639E+01 8.38671E+01 5.45455E+00
 -1      1168 5.44639E+01 8.38671E+01 6.36364E+00
 -1      1169 5.44639E+01 8.38671E+01 7.27273E+00
 -1      1170 5.44639E+01 8.38671E+01 8.18182E+00
 -1      1171 5.44639E+01 8.38671E+01 9.09091E+00
 -1      1172 5.00000E+01 8.66025E+01 9.09091E-01
 -1      1173 5.00000E+01 8.66025E+01 1.81818E+00
 -1      1174 5.00000E+01 8.66025E+01 2.72727E+00
 -1      1175 5.00000E+01 8.66025E+01 3.63636E+00
 -1      1176 5.00000E+01 8.66025E+01 4.54545E+00
 -1      1177 5.00000E+01 8.66025E+01 5.45455E+00
 -1      1178 5.00000E+01 8.66025E+01 6.36364E+00
 -1      1179 5.00000E+01 8.66025E+01 7.27273E+00
 -1      1180 5.00000E+01 8.66025E+01 8.18182E+00
 -1      1181 5.00000E+01 8.66025E+01 9.09091E+00
 -1      1182 4.53991E+01 8.91007E+01 9.09091E-01
 -1      1183 4.53991E+01 8.91007E+01 1.81818E+00
 -1      1184 4.53991E+01 8.91007E+01 2.72727E+00
 -1      1185 4.53991E+01 8.91007E+01 3.63636E+00
 -1      1186 4.53991E+01 8.91007E+01 4.54545E+00
 -1      1187 4.53991E+01 8.91007E+01 5.45455E+00
 -1      1188 4.53991E+01 8.91007E+01 6.36364E+00
 -1      1189 4.53991E+01 8.91007E+01 7.27273E+00
 -1      1190 4.53991E+01 8.91007E+01 8.18182E+00
 -1      1191 4.53991E+01 8.91007E+01 9.09091E+00
 -1      1192 4.06737E+01 9.13545E+01 9.09091E-01
 -1      1193 4.06737E+01 9.13545E+01 1.81818E+00
 -1      1194 4.06737E+01 9.13545E+01 2.72727E+00
 -1      1195 4.06737E+01 9.13545E+01 3.63636E+00
 -1      1196 4.06737E+01 9.13545E+01 4.54545E+00
 -1      1197 4.06737E+01 9.13545E+01 5.45455E+00
 -1      1198 4.06737E+01 9.13545E+01 6.36364E+00
 -1      1199 4.06737E+01 9.13545E+01 7.27273E+00
 -1      1200 4.06737E+01 9.13545E+01 8.18182E+00
 -1      1201 4.06737E+01 9.13545E+01 9.09091E+00
 -1      1202 3.58368E+01 9.33580E+01 9.09091E-01
 -1      1203 3.58368E+01 9.33580E+01 1.81818E+00
 -1      1204 3.58368E+01 9.33580E+01 2.72727E+00
 -1      1205 3.58368E+01 9.33580E+01 3.63636E+00
 -1      1206 3.58368E+01 9.33580E+01 4.54545E+00
 -1      1207 3.58368E+01 9.33580E+01 5.45455E+00
 -1      1208 3.58368E+01 9.33580E+01 6.36364E+00
 -1      1209 3.58368E+01 9.33580E+01 7.27273E+00
 -1      1210 3.58368E+01 9.33580E+01 8.18182E+00
 -1      1211 3.58368E+01 9.33580E+01 9.09091E+00
 -1      1212 3.09017E+01 9.51057E+01 9.09091E-01
 -1      1213 3.09017E+01 9.51057E+01 1.81818E+00
 -1      1214 3.09017E+01 9.51057E+01 2.72727E+00
 -1      1215 3.09017E+01 9.51057E+01 3.63636E+00
 -1      1216 3.09017E+01 9.51057E+01 4.54545E+00
 -1      1217 3.09017E+01 9.51057E+01 5.45455E+00
 -1      1218 3.09017E+01 9.51057E+01 6.36364E+00
 -1      1219 3.09017E+01 9.51057E+01 7.27273E+00
 -1      1220 3.09017E+01 9.51057E+01 8.18182E+00
 -1      1221 3.09017E+01 9.51057E+01 9.09091E+00
 -1      1222 2.58819E+01 9.65926E+01 9.09091E-01
 -1      1223 2.58819E+01 9.65926E+01 1.81818E+00
 -1      1224 2.58819E+01 9.65926E+01 2.72727E+00
 -1      1225 2.58819E+01 9.65926E+01 3.63636E+00
 -1      1226 2.58819E+01 9.65926E+01 4.54545E+00
 -1      1227 2.58819E+01 9.65926E+01 5.45455E+00
 -1      1228 2.58819E+01 9.65926E+01 6.36364E+00
 -1      1229 2.58819E+01 9.65926E+01 7.27273E+00
 -1      1230 2.58819E+01 9.65926E+01 8.18182E+00
 -1      1231 2.58819E+01 9.65926E+01 9.09091E+00
 -1      1232 2.07912E+01 9.78148E+01 9.09091E-01
 -1      1233 2.07912E+01 9.78148E+01 1.81818E+00
 -1      1234 2.07912E+01 9.78148E+01 2.72727E+00
 -1      1235 2.07912E+01 9.78148E+01 3.63636E+00
 -1      1236 2.07912E+01 9.78148E+01 4.54545E+00
 -1      1237 2.07912E+01 9.78148E+01 5.45455E+00
 -1      1238 2.07912E+01 9.78148E+01 6.36364E+00
 -1      1239 2.07912E+01 9.78148E+01 7.27273E+00
 -1      1240 2.07912E+01 9.78148E+01 8.18182E+00
 -1      1241 2.07912E+01 9.78148E+01 9.09091E+00
 -1      1242 1.56434E+01 9.87688E+01 9.09091E-01
 -1      1243 1.56434E+01 9.87688E+01 1.81818E+00
 -1      1244 1.56434E+01 9.87688E+01 2.72727E+00
 -1      1245 1.56434E+01 9.87688E+01 3.63636E+00
 -1      1246 1.56434E+01 9.87688E+01 4.54545E+00
 -1      1247 1.56434E+01 9.87688E+01 5.45455E+00
 -1      1248 1.56434E+01 9.87688E+01 6.36364E+00
 -1      1249 1.56434E+01 9.87688E+01 7.27273E+00
 -1      1250 1.56434E+01 9.87688E+01 8.18182E+00
 -1      1251 1.56434E+01 9.87688E+01 9.09091E+00
 -1      1252 1.04528E+01 9.94522E+01 9.09091E-01
 -1      1253 1.04528E+01 9.94522E+01 1.81818E+00
 -1      1254 1.04528E+01 9.94522E+01 2.72727E+00
 -1      1255 1.04528E+01 9.94522E+01 3.63636E+00
 -1      1256 1.04528E+01 9.94522E+01 4.54545E+00
 -1      1257 1.04528E+01 9.94522E+01 5.45455E+00
 -1      1258 1.04528E+01 9.94522E+01 6.36364E+00
 -1      1259 1.04528E+01 9.94522E+01 7.27273E+00
 -1      1260 1.04528E+01 9.94522E+01 8.18182E+00
 -1      1261 1.04528E+01 9.94522E+01 9.09091E+00
 -1      1262 5.23360E+00 9.98630E+01 9.09091E-01
 -1      1263 5.23360E+00 9.98630E+01 1.81818E+00
 -1      1264 5.23360E+00 9.98630E+01 2.72727E+00
 -1      1265 5.23360E+00 9.98630E+01 3.63636E+00
 -1      1266 5.23360E+00 9.98630E+01 4.54545E+00
 -1      1267 5.23360E+00 9.98630E+01 5.45455E+00
 -1      1268 5.23360E+00 9.98630E+01 6.36364E+00
 -1      1269 5.23360E+00 9.98630E+01 7.27273E+00
 -1      1270 5.23360E+00 9.98630E+01 8.18182E+00
 -1      1271 5.23360E+00 9.98630E+01 9.09091E+00
 -1      1272 6.10793E-15 9.97500E+01 9.09091E-01
 -1      1273 6.10793E-15 9.97500E+01 1.81818E+00
 -1      1274 6.10793E-15 9.97500E+01 2.72727E+00
 -1      1275 6.10793E-15 9.97500E+01 3.63636E+00
 -1      1276 6.10793E-15 9.97500E+01 4.54545E+00
 -1      1277 6.10793E-15 9.97500E+01 5.45455E+00
 -1      1278 6.10793E-15 9.97500E+01 6.36364E+00
 -1      1279 6.10793E-15 9.97500E+01 7.27273E+00
 -1      1280 6.10793E-15 9.97500E+01 8.18182E+00
 -1      1281 6.10793E-15 9.97500E+01 9.09091E+00
 -1      1282 6.09262E-15 9.95000E+01 9.09091E-01
 -1      1283 6.09262E-15 9.95000E+01 1.81818E+00
 -1      1284 6.09262E-15 9.95000E+01 2.72727E+00
 -1      1285 6.09262E-15 9.95000E+01 3.63636E+00
 -1      1286 6.09262E-15 9.95000E+01 4.54545E+00
 -1      1287 6.09262E-15 9.95000E+01 5.45455E+00
 -1      1288 6.09262E-15 9.95000E+01 6.36364E+00
 -1      1289 6.09262E-15 9.95000E+01 7.27273E+00
 -1      1290 6.09262E-15 9.95000E+01 8.18182E+00
 -1      1291 6.09262E-15 9.95000E+01 9.09091E+00
 -1      1292 6.07731E-15 9.92500E+01 9.09091E-01
 -1      1293 6.07731E-15 9.92500E+01 1.81818E+00
 -1      1294 6.07731E-15 9.92500E+01 2.72727E+00
 -1      1295 6.07731E-15 9.92500E+01 3.63636E+00
 -1      1296 6.07731E-15 9.92500E+01 4.54545E+00
 -1      1297 6.07731E-15 9.92500E+01 5.45455E+00
 -1      1298 6.07731E-15 9.92500E+01 6.36364E+00
 -1      1299 6.07731E-15 9.92500E+01 7.27273E+00
 -1      1300 6.07731E-15 9.92500E+01 8.18182E+00
 -1      1301 6.07731E-15 9.92500E+01 9.09091E+00
 -1      1302 6.06200E-15 9.90000E+01 9.09091E-01
 -1      1303 6.06200E-15 9.90000E+01 1.81818E+00
 -1      1304 6.06200E-15 9.90000E+01 2.72727E+00
 -1      1305 6.06200E-15 9.90000E+01 3.63636E+00
 -1      1306 6.06200E-15 9.90000E+01 4.54545E+00
 -1      1307 6.06200E-15 9.90000E+01 5.45455E+00
 -1      1308 6.06200E-15 9.90000E+01 6.36364E+00
 -1      1309 6.06200E-15 9.90000E+01 7.27273E+00
 -1      1310 6.06200E-15 9.90000E+01 8.18182E+00
 -1      1311 6.06200E-15 9.90000E+01 9.09091E+00
 -1      1312 6.04669E-15 9.87500E+01 9.09091E-01
 -1      1313 6.04669E-15 9.87500E+01 1.81818E+00
 -1      1314 6.04669E-15 9.87500E+01 2.72727E+00
 -1      1315 6.04669E-15 9.87500E+01 3.63636E+00
 -1      1316 6.04669E-15 9.87500E+01 4.54545E+00
 -1      1317 6.04669E-15 9.87500E+01 5.45455E+00
 -1      1318 6.04669E-15 9.87500E+01 6.36364E+00
 -1      1319 6.04669E-15 9.87500E+01 7.27273E+00
 -1      1320 6.04669E-15 9.87500E+01 8.18182E+00
 -1      1321 6.04669E-15 9.87500E+01 9.09091E+00
 -1      1322 6.03139E-15 9.85000E+01 9.09091E-01
 -1      1323 6.03139E-15 9.85000E+01 1.81818E+00
 -1      1324 6.03139E-15 9.85000E+01 2.72727E+00
 -1      1325 6.03139E-15 9.85000E+01 3.63636E+00
 -1      1326 6.03139E-15 9.85000E+01 4.54545E+00
 -1      1327 6.03139E-15 9.85000E+01 5.45455E+00
 -1      1328 6.03139E-15 9.85000E+01 6.36364E+00
 -1      1329 6.03139E-15 9.85000E+01 7.27273E+00
 -1      1330 6.03139E-15 9.85000E+01 8.18182E+00
 -1      1331 6.03139E-15 9.85000E+01 9.09091E+00
 -1      1332 6.01608E-15 9.82500E+01 9.09091E-01
 -1      1333 6.01608E-15 9.82500E+01 1.81818E+00
 -1      1334 6.01608E-15 9.82500E+01 2.72727E+00
 -1      1335 6.01608E-15 9.82500E+01 3.63636E+00
 -1      1336 6.01608E-15 9.82500E+01 4.54545E+00
 -1      1337 6.01608E-15 9.82500E+01 5.45455E+00
 -1      1338 6.01608E-15 9.82500E+01 6.36364E+00
 -1      1339 6.01608E-15 9.82500E+01 7.27273E+00
 -1      1340 6.01608E-15 9.82500E+01 8.18182E+00
 -1      1341 6.01608E-15 9.82500E+01 9.09091E+00
 -1      1342 6.00077E-15 9.80000E+01 9.09091E-01
 -1      1343 6.00077E-15 9.80000E+01 1.81818E+00
 -1      1344 6.00077E-15 9.80000E+01 2.72727E+00
 -1      1345 6.00077E-15 9.80000E+01 3.63636E+00
 -1      1346 6.00077E-15 9.80000E+01 4.54545E+00
 -1      1347 6.00077E-15 9.80000E+01 5.45455E+00
 -1      1348 6.00077E-15 9.80000E+01 6.36364E+00
 -1      1349 6.00077E-15 9.80000E+01 7.27273E+00
 -1      1350 6.00077E-15 9.80000E+01 8.18182E+00
 -1      1351 6.00077E-15 9.80000E+01 9.09091E+00
 -1      1352 5.98546E-15 9.77500E+01 9.09091E-01
 -1      1353 5.98546E-15 9.77500E+01 1.81818E+00
 -1      1354 5.98546E-15 9.77500E+01 2.72727E+00
 -1      1355 5.98546E-15 9.77500E+01 3.63636E+00
 -1      1356 5.98546E-15 9.77500E+01 4.54545E+00
 -1      1357 5.98546E-15 9.77500E+01 5.45455E+00
 -1      1358 5.98546E-15 9.77500E+01 6.36364E+00
 -1      1359 5.98546E-15 9.77500E+01 7.27273E+00
 -1      1360 5.98546E-15 9.77500E+01 8.18182E+00
 -1      1361 5.98546E-15 9.77500E+01 9.09091E+00
 -1      1362 5.97015E-15 9.75000E+01 9.09091E-01
 -1      1363 5.97015E-15 9.75000E+01 1.81818E+00
 -1      1364 5.97015E-15 9.75000E+01 2.72727E+00
 -1      1365 5.97015E-15 9.75000E+01 3.63636E+00
 -1      1366 5.97015E-15 9.75000E+01 4.54545E+00
 -1      1367 5.97015E-15 9.75000E+01 5.45455E+00
 -1      1368 5.97015E-15 9.75000E+01 6.36364E+00
 -1      1369 5.97015E-15 9.75000E+01 7.27273E+00
 -1      1370 5.97015E-15 9.75000E+01 8.18182E+00
 -1      1371 5.97015E-15 9.75000E+01 9.09091E+00
 -1      1372 5.95484E-15 9.72500E+01 9.09091E-01
 -1      1373 5.95484E-15 9.72500E+01 1.81818E+00
 -1      1374 5.95484E-15 9.72500E+01 2.72727E+00
 -1      1375 5.95484E-15 9.72500E+01 3.63636E+00
 -1      1376 5.95484E-15 9.72500E+01 4.54545E+00
 -1      1377 5.95484E-15 9.72500E+01 5.45455E+00
 -1      1378 5.95484E-15 9.72500E+01 6.36364E+00
 -1      1379 5.95484E-15 9.72500E+01 7.27273E+00
 -1      1380 5.95484E-15 9.72500E+01 8.18182E+00
 -1      1381 5.95484E-15 9.72500E+01 9.09091E+00
 -1      1382 5.93954E-15 9.70000E+01 9.09091E-01
 -1      1383 5.93954E-15 9.70000E+01 1.81818E+00
 -1      1384 5.93954E-15 9.70000E+01 2.72727E+00
 -1      1385 5.93954E-15 9.70000E+01 3.63636E+00
 -1      1386 5.93954E-15 9.70000E+01 4.54545E+00
 -1      1387 5.93954E-15 9.70000E+01 5.45455E+00
 -1      1388 5.93954E-15 9.70000E+01 6.36364E+00
 -1      1389 5.93954E-15 9.70000E+01 7.27273E+00
 -1      1390 5.93954E-15 9.70000E+01 8.18182E+00
 -1      1391 5.93954E-15 9.70000E+01 9.09091E+00
 -1      1392 5.92423E-15 9.67500E+01 9.09091E-01
 -1      1393 5.92423E-15 9.67500E+01 1.81818E+00
 -1      1394 5.92423E-15 9.67500E+01 2.72727E+00
 -1      1395 5.92423E-15 9.67500E+01 3.63636E+00
 -1      1396 5.92423E-15 9.67500E+01 4.54545E+00
 -1      1397 5.92423E-15 9.67500E+01 5.45455E+00
 -1      1398 5.92423E-15 9.67500E+01 6.36364E+00
 -1      1399 5.92423E-15 9.67500E+01 7.27273E+00
 -1      1400 5.92423E-15 9.67500E+01 8.18182E+00
 -1      1401 5.92423E-15 9.67500E+01 9.09091E+00
 -1      1402 5.90892E-15 9.65000E+01 9.09091E-01
 -1      1403 5.90892E-15 9.65000E+01 1.81818E+00
 -1      1404 5.90892E-15 9.65000E+01 2.72727E+00
 -1      1405 5.90892E-15 9.65000E+01 3.63636E+00
 -1      1406 5.90892E-15 9.65000E+01 4.54545E+00
 -1      1407 5.90892E-15 9.65000E+01 5.45455E+00
 -1      1408 5.90892E-15 9.65000E+01 6.36364E+00
 -1      1409 5.90892E-15 9.65000E+01 7.27273E+00
 -1      1410 5.90892E-15 9.65000E+01 8.18182E+00
 -1      1411 5.90892E-15 9.65000E+01 9.09091E+00
 -1      1412 5.89361E-15 9.62500E+01 9.09091E-01
 -1      1413 5.89361E-15 9.62500E+01 1.81818E+00
 -1      1414 5.89361E-15 9.62500E+01 2.72727E+00
 -1      1415 5.89361E-15 9.62500E+01 3.63636E+00
 -1      1416 5.89361E-15 9.62500E+01 4.54545E+00
 -1      1417 5.89361E-15 9.62500E+01 5.45455E+00
 -1      1418 5.89361E-15 9.62500E+01 6.36364E+00
 -1      1419 5.89361E-15 9.62500E+01 7.27273E+00
 -1      1420 5.89361E-15 9.62500E+01 8.18182E+00
 -1      1421 5.89361E-15 9.62500E+01 9.09091E+00
 -1      1422 5.87830E-15 9.60000E+01 9.09091E-01
 -1      1423 5.87830E-15 9.60000E+01 1.81818E+00
 -1      1424 5.87830E-15 9.60000E+01 2.72727E+00
 -1      1425 5.87830E-15 9.60000E+01 3.63636E+00
 -1      1426 5.87830E-15 9.60000E+01 4.54545E+00
 -1      1427 5.87830E-15 9.60000E+01 5.45455E+00
 -1      1428 5.87830E-15 9.60000E+01 6.36364E+00
 -1      1429 5.87830E-15 9.60000E+01 7.27273E+00
 -1      1430 5.87830E-15 9.60000E+01 8.18182E+00
 -1      1431 5.87830E-15 9.60000E+01 9.09091E+00
 -1      1432 5.86300E-15 9.57500E+01 9.09091E-01
 -1      1433 5.86300E-15 9.57500E+01 1.81818E+00
 -1      1434 5.86300E-15 9.57500E+01 2.72727E+00
 -1      1435 5.86300E-15 9.57500E+01 3.63636E+00
 -1      1436 5.86300E-15 9.57500E+01 4.54545E+00
 -1      1437 5.86300E-15 9.57500E+01 5.45455E+00
 -1      1438 5.86300E-15 9.57500E+01 6.36364E+00
 -1      1439 5.86300E-15 9.57500E+01 7.27273E+00
 -1      1440 5.86300E-15 9.57500E+01 8.18182E+00
 -1      1441 5.86300E-15 9.57500E+01 9.09091E+00
 -1      1442 5.84769E-15 9.55000E+01 9.09091E-01
 -1      1443 5.84769E-15 9.55000E+01 1.81818E+00
 -1      1444 5.84769E-15 9.55000E+01 2.72727E+00
 -1      1445 5.84769E-15 9.55000E+01 3.63636E+00
 -1      1446 5.84769E-15 9.55000E+01 4.54545E+00
 -1      1447 5.84769E-15 9.55000E+01 5.45455E+00
 -1      1448 5.84769E-15 9.55000E+01 6.36364E+00
 -1      1449 5.84769E-15 9.55000E+01 7.27273E+00
 -1      1450 5.84769E-15 9.55000E+01 8.18182E+00
 -1      1451 5.84769E-15 9.55000E+01 9.09091E+00
 -1      1452 5.83238E-15 9.52500E+01 9.09091E-01
 -1      1453 5.83238E-15 9.52500E+01 1.81818E+00
 -1      1454 5.83238E-15 9.52500E+01 2.72727E+00
 -1      1455 5.83238E-15 9.52500E+01 3.63636E+00
 -1      1456 5.83238E-15 9.52500E+01 4.54545E+00
 -1      1457 5.83238E-15 9.52500E+01 5.45455E+00
 -1      1458 5.83238E-15 9.52500E+01 6.36364E+00
 -1      1459 5.83238E-15 9.52500E+01 7.27273E+00
 -1      1460 5.83238E-15 9.52500E+01 8.18182E+00
 -1      1461 5.83238E-15 9.52500E+01 9.09091E+00
 -1      1462 4.97192E+00 9.48698E+01 9.09091E-01
 -1      1463 4.97192E+00 9.48698E+01 1.81818E+00
 -1      1464 4.97192E+00 9.48698E+01 2.72727E+00
 -1      1465 4.97192E+00 9.48698E+01 3.63636E+00
 -1      1466 4.97192E+00 9.48698E+01 4.54545E+00
 -1      1467 4.97192E+00 9.48698E+01 5.45455E+00
 -1      1468 4.97192E+00 9.48698E+01 6.36364E+00
 -1      1469 4.97192E+00 9.48698E+01 7.27273E+00
 -1      1470 4.97192E+00 9.48698E+01 8.18182E+00
 -1      1471 4.97192E+00 9.48698E+01 9.09091E+00
 -1      1472 9.93020E+00 9.44796E+01 9.09091E-01
 -1      1473 9.93020E+00 9.44796E+01 1.81818E+00
 -1      1474 9.93020E+00 9.44796E+01 2.72727E+00
 -1      1475 9.93020E+00 9.44796E+01 3.63636E+00
 -1      1476 9.93020E+00 9.44796E+01 4.54545E+00
 -1      1477 9.93020E+00 9.44796E+01 5.45455E+00
 -1      1478 9.93020E+00 9.44796E+01 6.36364E+00
 -1      1479 9.93020E+00 9.44796E+01 7.27273E+00
 -1      1480 9.93020E+00 9.44796E+01 8.18182E+00
 -1      1481 9.93020E+00 9.44796E+01 9.09091E+00
 -1      1482 1.48613E+01 9.38304E+01 9.09091E-01
 -1      1483 1.48613E+01 9.38304E+01 1.81818E+00
 -1      1484 1.48613E+01 9.38304E+01 2.72727E+00
 -1      1485 1.48613E+01 9.38304E+01 3.63636E+00
 -1      1486 1.48613E+01 9.38304E+01 4.54545E+00
 -1      1487 1.48613E+01 9.38304E+01 5.45455E+00
 -1      1488 1.48613E+01 9.38304E+01 6.36364E+00
 -1      1489 1.48613E+01 9.38304E+01 7.27273E+00
 -1      1490 1.48613E+01 9.38304E+01 8.18182E+00
 -1      1491 1.48613E+01 9.38304E+01 9.09091E+00
 -1      1492 1.97516E+01 9.29240E+01 9.09091E-01
 -1      1493 1.97516E+01 9.29240E+01 1.81818E+00
 -1      1494 1.97516E+01 9.29240E+01 2.72727E+00
 -1      1495 1.97516E+01 9.29240E+01 3.63636E+00
 -1      1496 1.97516E+01 9.29240E+01 4.54545E+00
 -1      1497 1.97516E+01 9.29240E+01 5.45455E+00
 -1      1498 1.97516E+01 9.29240E+01 6.36364E+00
 -1      1499 1.97516E+01 9.29240E+01 7.27273E+00
 -1      1500 1.97516E+01 9.29240E+01 8.18182E+00
 -1      1501 1.97516E+01 9.29240E+01 9.09091E+00
 -1      1502 2.45878E+01 9.17630E+01 9.09091E-01
 -1      1503 2.45878E+01 9.17630E+01 1.81818E+00
 -1      1504 2.45878E+01 9.17630E+01 2.72727E+00
 -1      1505 2.45878E+01 9.17630E+01 3.63636E+00
 -1      1506 2.45878E+01 9.17630E+01 4.54545E+00
 -1      1507 2.45878E+01 9.17630E+01 5.45455E+00
 -1      1508 2.45878E+01 9.17630E+01 6.36364E+00
 -1      1509 2.45878E+01 9.17630E+01 7.27273E+00
 -1      1510 2.45878E+01 9.17630E+01 8.18182E+00
 -1      1511 2.45878E+01 9.17630E+01 9.09091E+00
 -1      1512 2.93566E+01 9.03504E+01 9.09091E-01
 -1      1513 2.93566E+01 9.03504E+01 1.81818E+00
 -1      1514 2.93566E+01 9.03504E+01 2.72727E+00
 -1      1515 2.93566E+01 9.03504E+01 3.63636E+00
 -1      1516 2.93566E+01 9.03504E+01 4.54545E+00
 -1      1517 2.93566E+01 9.03504E+01 5.45455E+00
 -1      1518 2.93566E+01 9.03504E+01 6.36364E+00
 -1      1519 2.93566E+01 9.03504E+01 7.27273E+00
 -1      1520 2.93566E+01 9.03504E+01 8.18182E+00
 -1      1521 2.93566E+01 9.03504E+01 9.09091E+00
 -1      1522 3.40450E+01 8.86901E+01 9.09091E-01
 -1      1523 3.40450E+01 8.86901E+01 1.81818E+00
 -1      1524 3.40450E+01 8.86901E+01 2.72727E+00
 -1      1525 3.40450E+01 8.86901E+01 3.63636E+00
 -1      1526 3.40450E+01 8.86901E+01 4.54545E+00
 -1      1527 3.40450E+01 8.86901E+01 5.45455E+00
 -1      1528 3.40450E+01 8.86901E+01 6.36364E+00
 -1      1529 3.40450E+01 8.86901E+01 7.27273E+00
 -1      1530 3.40450E+01 8.86901E+01 8.18182E+00
 -1      1531 3.40450E+01 8.86901E+01 9.09091E+00
 -1      1532 3.86400E+01 8.67868E+01 9.09091E-01
 -1      1533 3.86400E+01 8.67868E+01 1.81818E+00
 -1      1534 3.86400E+01 8.67868E+01 2.72727E+00
 -1      1535 3.86400E+01 8.67868E+01 3.63636E+00
 -1      1536 3.86400E+01 8.67868E+01 4.54545E+00
 -1      1537 3.86400E+01 8.67868E+01 5.45455E+00
 -1      1538 3.86400E+01 8.67868E+01 6.36364E+00
 -1      1539 3.86400E+01 8.67868E+01 7.27273E+00
 -1      1540 3.86400E+01 8.67868E+01 8.18182E+00
 -1      1541 3.86400E+01 8.67868E+01 9.09091E+00
 -1      1542 4.31291E+01 8.46456E+01 9.09091E-01
 -1      1543 4.31291E+01 8.46456E+01 1.81818E+00
 -1      1544 4.31291E+01 8.46456E+01 2.72727E+00
 -1      1545 4.31291E+01 8.46456E+01 3.63636E+00
 -1      1546 4.31291E+01 8.46456E+01 4.54545E+00
 -1      1547 4.31291E+01 8.46456E+01 5.45455E+00
 -1      1548 4.31291E+01 8.46456E+01 6.36364E+00
 -1      1549 4.31291E+01 8.46456E+01 7.27273E+00
 -1      1550 4.31291E+01 8.46456E+01 8.18182E+00
 -1      1551 4.31291E+01 8.46456E+01 9.09091E+00
 -1      1552 4.75000E+01 8.22724E+01 9.09091E-01
 -1      1553 4.75000E+01 8.22724E+01 1.81818E+00
 -1      1554 4.75000E+01 8.22724E+01 2.72727E+00
 -1      1555 4.75000E+01 8.22724E+01 3.63636E+00
 -1      1556 4.75000E+01 8.22724E+01 4.54545E+00
 -1      1557 4.75000E+01 8.22724E+01 5.45455E+00
 -1      1558 4.75000E+01 8.22724E+01 6.36364E+00
 -1      1559 4.75000E+01 8.22724E+01 7.27273E+00
 -1      1560 4.75000E+01 8.22724E+01 8.18182E+00
 -1      1561 4.75000E+01 8.22724E+01 9.09091E+00
 -1      1562 5.17407E+01 7.96737E+01 9.09091E-01
 -1      1563 5.17407E+01 7.96737E+01 1.81818E+00
 -1      1564 5.17407E+01 7.96737E+01 2.72727E+00
 -1      1565 5.17407E+01 7.96737E+01 3.63636E+00
 -1      1566 5.17407E+01 7.96737E+01 4.54545E+00
 -1      1567 5.17407E+01 7.96737E+01 5.45455E+00
 -1      1568 5.17407E+01 7.96737E+01 6.36364E+00
 -1      1569 5.17407E+01 7.96737E+01 7.27273E+00
 -1      1570 5.17407E+01 7.96737E+01 8.18182E+00
 -1      1571 5.17407E+01 7.96737E+01 9.09091E+00
 -1      1572 5.58396E+01 7.68566E+01 9.09091E-01
 -1      1573 5.58396E+01 7.68566E+01 1.81818E+00
 -1      1574 5.58396E+01 7.68566E+01 2.72727E+00
 -1      1575 5.58396E+01 7.68566E+01 3.63636E+00
 -1      1576 5.58396E+01 7.68566E+01 4.54545E+00
 -1      1577 5.58396E+01 7.68566E+01 5.45455E+00
 -1      1578 5.58396E+01 7.68566E+01 6.36364E+00
 -1      1579 5.58396E+01 7.68566E+01 7.27273E+00
 -1      1580 5.58396E+01 7.68566E+01 8.18182E+00
 -1      1581 5.58396E+01 7.68566E+01 9.09091E+00
 -1      1582 5.97854E+01 7.38289E+01 9.09091E-01
 -1      1583 5.97854E+01 7.38289E+01 1.81818E+00
 -1      1584 5.97854E+01 7.38289E+01 2.72727E+00
 -1      1585 5.97854E+01 7.38289E+01 3.63636E+00
 -1      1586 5.97854E+01 7.38289E+01 4.54545E+00
 -1      1587 5.97854E+01 7.38289E+01 5.45455E+00
 -1      1588 5.97854E+01 7.38289E+01 6.36364E+00
 -1      1589 5.97854E+01 7.38289E+01 7.27273E+00
 -1      1590 5.97854E+01 7.38289E+01 8.18182E+00
 -1      1591 5.97854E+01 7.38289E+01 9.09091E+00
 -1      1592 6.35674E+01 7.05988E+01 9.09091E-01
 -1      1593 6.35674E+01 7.05988E+01 1.81818E+00
 -1      1594 6.35674E+01 7.05988E+01 2.72727E+00
 -1      1595 6.35674E+01 7.05988E+01 3.63636E+00
 -1      1596 6.35674E+01 7.05988E+01 4.54545E+00
 -1      1597 6.35674E+01 7.05988E+01 5.45455E+00
 -1      1598 6.35674E+01 7.05988E+01 6.36364E+00
 -1      1599 6.35674E+01 7.05988E+01 7.27273E+00
 -1      1600 6.35674E+01 7.05988E+01 8.18182E+00
 -1      1601 6.35674E+01 7.05988E+01 9.09091E+00
 -1      1602 6.71751E+01 6.71751E+01 9.09091E-01
 -1      1603 6.71751E+01 6.71751E+01 1.81818E+00
 -1      1604 6.71751E+01 6.71751E+01 2.72727E+00
 -1      1605 6.71751E+01 6.71751E+01 3.63636E+00
 -1      1606 6.71751E+01 6.71751E+01 4.54545E+00
 -1      1607 6.71751E+01 6.71751E+01 5.45455E+00
 -1      1608 6.71751E+01 6.71751E+01 6.36364E+00
 -1      1609 6.71751E+01 6.71751E+01 7.27273E+00
 -1      1610 6.71751E+01 6.71751E+01 8.18182E+00
 -1      1611 6.71751E+01 6.71751E+01 9.09091E+00
 -1      1612 7.05988E+01 6.35674E+01 9.09091E-01
 -1      1613 7.05988E+01 6.35674E+01 1.81818E+00
 -1      1614 7.05988E+01 6.35674E+01 2.72727E+00
 -1      1615 7.05988E+01 6.35674E+01 3.63636E+00
 -1      1616 7.05988E+01 6.35674E+01 4.54545E+00
 -1      1617 7.05988E+01 6.35674E+01 5.45455E+00
 -1      1618 7.05988E+01 6.35674E+01 6.36364E+00
 -1      1619 7.05988E+01 6.35674E+01 7.27273E+00
 -1      1620 7.05988E+01 6.35674E+01 8.18182E+00
 -1      1621 7.05988E+01 6.35674E+01 9.09091E+00
 -1      1622 7.38289E+01 5.97854E+01 9.09091E-01
 -1      1623 7.38289E+01 5.97854E+01 1.81818E+00
 -1      1624 7.38289E+01 5.97854E+01 2.72727E+00
 -1      1625 7.38289E+01 5.97854E+01 3.63636E+00
 -1      1626 7.38289E+01 5.97854E+01 4.54545E+00
 -1      1627 7.38289E+01 5.97854E+01 5.45455E+00
 -1      1628 7.38289E+01 5.97854E+01 6.36364E+00
 -1      1629 7.38289E+01 5.97854E+01 7.27273E+00
 -1      1630 7.38289E+01 5.97854E+01 8.18182E+00
 -1      1631 7.38289E+01 5.97854E+01 9.09091E+00
 -1      1632 7.68566E+01 5.58396E+01 9.09091E-01
 -1      1633 7.68566E+01 5.58396E+01 1.81818E+00
 -1      1634 7.68566E+01 5.58396E+01 2.72727E+00
 -1      1635 7.68566E+01 5.58396E+01 3.63636E+00
 -1      1636 7.68566E+01 5.58396E+01 4.54545E+00
 -1      1637 7.68566E+01 5.58396E+01 5.45455E+00
 -1      1638 7.68566E+01 5.58396E+01 6.36364E+00
 -1      1639 7.68566E+01 5.58396E+01 7.27273E+00
 -1      1640 7.68566E+01 5.58396E+01 8.18182E+00
 -1      1641 7.68566E+01 5.58396E+01 9.09091E+00
 -1      1642 7.96737E+01 5.17407E+01 9.09091E-01
 -1      1643 7.96737E+01 5.17407E+01 1.81818E+00
 -1      1644 7.96737E+01 5.17407E+01 2.72727E+00
 -1      1645 7.96737E+01 5.17407E+01 3.63636E+00
 -1      1646 7.96737E+01 5.17407E+01 4.54545E+00
 -1      1647 7.96737E+01 5.17407E+01 5.45455E+00
 -1      1648 7.96737E+01 5.17407E+01 6.36364E+00
 -1      1649 7.96737E+01 5.17407E+01 7.27273E+00
 -1      1650 7.96737E+01 5.17407E+01 8.18182E+00
 -1      1651 7.96737E+01 5.17407E+01 9.09091E+00
 -1      1652 8.22724E+01 4.75000E+01 9.09091E-01
 -1      1653 8.22724E+01 4.75000E+01 1.81818E+00
 -1      1654 8.22724E+01 4.75000E+01 2.72727E+00
 -1      1655 8.22724E+01 4.75000E+01 3.63636E+00
 -1      1656 8.22724E+01 4.75000E+01 4.54545E+00
 -1      1657 8.22724E+01 4.75000E+01 5.45455E+00
 -1      1658 8.22724E+01 4.75000E+01 6.36364E+00
 -1      1659 8.22724E+01 4.75000E+01 7.27273E+00
 -1      1660 8.22724E+01 4.75000E+01 8.18182E+00
 -1      1661 8.22724E+01 4.75000E+01 9.09091E+00
 -1      1662 8.46456E+01 4.31291E+01 9.09091E-01
 -1      1663 8.46456E+01 4.31291E+01 1.81818E+00
 -1      1664 8.46456E+01 4.31291E+01 2.72727E+00
 -1      1665 8.46456E+01 4.31291E+01 3.63636E+00
 -1      1666 8.46456E+01 4.31291E+01 4.54545E+00
 -1      1667 8.46456E+01 4.31291E+01 5.45455E+00
 -1      1668 8.46456E+01 4.31291E+01 6.36364E+00
 -1      1669 8.46456E+01 4.31291E+01 7.27273E+00
 -1      1670 8.46456E+01 4.31291E+01 8.18182E+00
 -1      1671 8.46456E+01 4.31291E+01 9.09091E+00
 -1      1672 8.67868E+01 3.86400E+01 9.09091E-01
 -1      1673 8.67868E+01 3.86400E+01 1.81818E+00
 -1      1674 8.67868E+01 3.86400E+01 2.72727E+00
 -1      1675 8.67868E+01 3.86400E+01 3.63636E+00
 -1      1676 8.67868E+01 3.86400E+01 4.54545E+00
 -1      1677 8.67868E+01 3.86400E+01 5.45455E+00
 -1      1678 8.67868E+01 3.86400E+01 6.36364E+00
 -1      1679 8.67868E+01 3.86400E+01 7.27273E+00
 -1      1680 8.67868E+01 3.86400E+01 8.18182E+00
 -1      1681 8.67868E+01 3.86400E+01 9.09091E+00
 -1      1682 8.86901E+01 3.40450E+01 9.09091E-01
 -1      1683 8.86901E+01 3.40450E+01 1.81818E+00
 -1      1684 8.86901E+01 3.40450E+01 2.72727E+00
 -1      1685 8.86901E+01 3.40450E+01 3.63636E+00
 -1      1686 8.86901E+01 3.40450E+01 4.54545E+00
 -1      1687 8.86901E+01 3.40450E+01 5.45455E+00
 -1      1688 8.86901E+01 3.40450E+01 6.36364E+00
 -1      1689 8.86901E+01 3.40450E+01 7.27273E+00
 -1      1690 8.86901E+01 3.40450E+01 8.18182E+00
 -1      1691 8.86901E+01 3.40450E+01 9.09091E+00
 -1      1692 9.03504E+01 2.93566E+01 9.09091E-01
 -1      1693 9.03504E+01 2.93566E+01 1.81818E+00
 -1      1694 9.03504E+01 2.93566E+01 2.72727E+00
 -1      1695 9.03504E+01 2.93566E+01 3.63636E+00
 -1      1696 9.03504E+01 2.93566E+01 4.54545E+00
 -1      1697 9.03504E+01 2.93566E+01 5.45455E+00
 -1      1698 9.03504E+01 2.93566E+01 6.36364E+00
 -1      1699 9.03504E+01 2.93566E+01 7.27273E+00
 -1      1700 9.03504E+01 2.93566E+01 8.18182E+00
 -1      1701 9.03504E+01 2.93566E+01 9.09091E+00
 -1      1702 9.17630E+01 2.45878E+01 9.09091E-01
 -1      1703 9.17630E+01 2.45878E+01 1.81818E+00
 -1      1704 9.17630E+01 2.45878E+01 2.72727E+00
 -1      1705 9.17630E+01 2.45878E+01 3.63636E+00
 -1      1706 9.17630E+01 2.45878E+01 4.54545E+00
 -1      1707 9.17630E+01 2.45878E+01 5.45455E+00
 -1      1708 9.17630E+01 2.45878E+01 6.36364E+00
 -1      1709 9.17630E+01 2.45878E+01 7.27273E+00
 -1      1710 9.17630E+01 2.45878E+01 8.18182E+00
 -1      1711 9.17630E+01 2.45878E+01 9.09091E+00
 -1      1712 9.29240E+01 1.97516E+01 9.09091E-01
 -1      1713 9.29240E+01 1.97516E+01 1.81818E+00
 -1      1714 9.29240E+01 1.97516E+01 2.72727E+00
 -1      1715 9.29240E+01 1.97516E+01 3.63636E+00
 -1      1716 9.29240E+01 1.97516E+01 4.54545E+00
 -1      1717 9.29240E+01 1.97516E+01 5.45455E+00
 -1      1718 9.29240E+01 1.97516E+01 6.36364E+00
 -1      1719 9.29240E+01 1.97516E+01 7.27273E+00
 -1      1720 9.29240E+01 1.97516E+01 8.18182E+00
 -1      1721 9.29240E+01 1.97516E+01 9.09091E+00
 -1      1722 9.38304E+01 1.48613E+01 9.09091E-01
 -1      1723 9.38304E+01 1.48613E+01 1.81818E+00
 -1      1724 9.38304E+01 1.48613E+01 2.72727E+00
 -1      1725 9.38304E+01 1.48613E+01 3.63636E+00
 -1      1726 9.38304E+01 1.48613E+01 4.54545E+00
 -1      1727 9.38304E+01 1.48613E+01 5.45455E+00
 -1      1728 9.38304E+01 1.48613E+01 6.36364E+00
 -1      1729 9.38304E+01 1.48613E+01 7.27273E+00
 -1      1730 9.38304E+01 1.48613E+01 8.18182E+00
 -1      1731 9.38304E+01 1.48613E+01 9.09091E+00
 -1      1732 9.44796E+01 9.93020E+00 9.09091E-01
 -1      1733 9.44796E+01 9.93020E+00 1.81818E+00
 -1      1734 9.44796E+01 9.93020E+00 2.72727E+00
 -1      1735 9.44796E+01 9.93020E+00 3.63636E+00
 -1      1736 9.44796E+01 9.93020E+00 4.54545E+00
 -1      1737 9.44796E+01 9.93020E+00 5.45455E+00
 -1      1738 9.44796E+01 9.93020E+00 6.36364E+00
 -1      1739 9.44796E+01 9.93020E+00 7.27273E+00
 -1      1740 9.44796E+01 9.93020E+00 8.18182E+00
 -1      1741 9.44796E+01 9.93020E+00 9.09091E+00
 -1      1742 9.48698E+01 4.97192E+00 9.09091E-01
 -1      1743 9.48698E+01 4.97192E+00 1.81818E+00
 -1      1744 9.48698E+01 4.97192E+00 2.72727E+00
 -1      1745 9.48698E+01 4.97192E+00 3.63636E+00
 -1      1746 9.48698E+01 4.97192E+00 4.54545E+00
 -1      1747 9.48698E+01 4.97192E+00 5.45455E+00
 -1      1748 9.48698E+01 4.97192E+00 6.36364E+00
 -1      1749 9.48698E+01 4.97192E+00 7.27273E+00
 -1      1750 9.48698E+01 4.97192E+00 8.18182E+00
 -1      1751 9.48698E+01 4.97192E+00 9.09091E+00
 -1      1752 9.51195E+01 4.98500E+00 1.00000E+01
 -1      1753 9.47282E+01 9.95634E+00 1.00000E+01
 -1      1754 9.40773E+01 1.49004E+01 1.00000E+01
 -1      1755 9.31686E+01 1.98036E+01 1.00000E+01
 -1      1756 9.20044E+01 2.46525E+01 1.00000E+01
 -1      1757 9.05881E+01 2.94339E+01 1.00000E+01
 -1      1758 8.89235E+01 3.41345E+01 1.00000E+01
 -1      1759 8.70152E+01 3.87417E+01 1.00000E+01
 -1      1760 8.48684E+01 4.32426E+01 1.00000E+01
 -1      1761 8.24889E+01 4.76250E+01 1.00000E+01
 -1      1762 7.98834E+01 5.18769E+01 1.00000E+01
 -1      1763 7.70589E+01 5.59865E+01 1.00000E+01
 -1      1764 7.40232E+01 5.99428E+01 1.00000E+01
 -1      1765 7.07845E+01 6.37347E+01 1.00000E+01
 -1      1766 6.73519E+01 6.73519E+01 1.00000E+01
 -1      1767 6.37347E+01 7.07845E+01 1.00000E+01
 -1      1768 5.99428E+01 7.40232E+01 1.00000E+01
 -1      1769 5.59865E+01 7.70589E+01 1.00000E+01
 -1      1770 5.18769E+01 7.98834E+01 1.00000E+01
 -1      1771 4.76250E+01 8.24889E+01 1.00000E+01
 -1      1772 4.32426E+01 8.48684E+01 1.00000E+01
 -1      1773 3.87417E+01 8.70152E+01 1.00000E+01
 -1      1774 3.41345E+01 8.89235E+01 1.00000E+01
 -1      1775 2.94339E+01 9.05881E+01 1.00000E+01
 -1      1776 2.46525E+01 9.20044E+01 1.00000E+01
 -1      1777 1.98036E+01 9.31686E+01 1.00000E+01
 -1      1778 1.49004E+01 9.40773E+01 1.00000E+01
 -1      1779 9.95634E+00 9.47282E+01 1.00000E+01
 -1      1780 4.98500E+00 9.51195E+01 1.00000E+01
 -1      1781 9.53691E+01 4.99808E+00 1.00000E+01
 -1      1782 9.49768E+01 9.98247E+00 1.00000E+01
 -1      1783 9.43242E+01 1.49395E+01 1.00000E+01
 -1      1784 9.34131E+01 1.98556E+01 1.00000E+01
 -1      1785 9.22459E+01 2.47172E+01 1.00000E+01
 -1      1786 9.08259E+01 2.95111E+01 1.00000E+01
 -1      1787 8.91569E+01 3.42241E+01 1.00000E+01
 -1      1788 8.72436E+01 3.88433E+01 1.00000E+01
 -1      1789 8.50911E+01 4.33561E+01 1.00000E+01
 -1      1790 8.27054E+01 4.77500E+01 1.00000E+01
 -1      1791 8.00930E+01 5.20130E+01 1.00000E+01
 -1      1792 7.72611E+01 5.61335E+01 1.00000E+01
 -1      1793 7.42174E+01 6.01001E+01 1.00000E+01
 -1      1794 7.09703E+01 6.39020E+01 1.00000E+01
 -1      1795 6.75287E+01 6.75287E+01 1.00000E+01
 -1      1796 6.39020E+01 7.09703E+01 1.00000E+01
 -1      1797 6.01001E+01 7.42174E+01 1.00000E+01
 -1      1798 5.61335E+01 7.72611E+01 1.00000E+01
 -1      1799 5.20130E+01 8.00930E+01 1.00000E+01
 -1      1800 4.77500E+01 8.27054E+01 1.00000E+01
 -1      1801 4.33561E+01 8.50911E+01 1.00000E+01
 -1      1802 3.88433E+01 8.72436E+01 1.00000E+01
 -1      1803 3.42241E+01 8.91569E+01 1.00000E+01
 -1      1804 2.95111E+01 9.08259E+01 1.00000E+01
 -1      1805 2.47172E+01 9.22459E+01 1.00000E+01
 -1      1806 1.98556E+01 9.34131E+01 1.00000E+01
 -1      1807 1.49395E+01 9.43242E+01 1.00000E+01
 -1      1808 9.98247E+00 9.49768E+01 1.00000E+01
 -1      1809 4.99808E+00 9.53691E+01 1.00000E+01
 -1      1810 9.56188E+01 5.01117E+00 1.00000E+01
 -1      1811 9.52255E+01 1.00086E+01 1.00000E+01
 -1      1812 9.45712E+01 1.49786E+01 1.00000E+01
 -1      1813 9.36576E+01 1.99075E+01 1.00000E+01
 -1      1814 9.24874E+01 2.47819E+01 1.00000E+01
 -1      1815 9.10637E+01 2.95884E+01 1.00000E+01
 -1      1816 8.93903E+01 3.43137E+01 1.00000E+01
 -1      1817 8.74720E+01 3.89450E+01 1.00000E+01
 -1      1818 8.53139E+01 4.34696E+01 1.00000E+01
 -1      1819 8.29219E+01 4.78750E+01 1.00000E+01
 -1      1820 8.03027E+01 5.21492E+01 1.00000E+01
 -1      1821 7.74634E+01 5.62804E+01 1.00000E+01
 -1      1822 7.44117E+01 6.02574E+01 1.00000E+01
 -1      1823 7.11561E+01 6.40693E+01 1.00000E+01
 -1      1824 6.77055E+01 6.77055E+01 1.00000E+01
 -1      1825 6.40693E+01 7.11561E+01 1.00000E+01
 -1      1826 6.02574E+01 7.44117E+01 1.00000E+01
 -1      1827 5.62804E+01 7.74634E+01 1.00000E+01
 -1      1828 5.21492E+01 8.03027E+01 1.00000E+01
 -1      1829 4.78750E+01 8.29219E+01 1.00000E+01
 -1      1830 4.34696E+01 8.53139E+01 1.00000E+01
 -1      1831 3.89450E+01 8.74720E+01 1.00000E+01
 -1      1832 3.43137E+01 8.93903E+01 1.00000E+01
 -1      1833 2.95884E+01 9.10637E+01 1.00000E+01
 -1      1834 2.47819E+01 9.24874E+01 1.00000E+01
 -1      1835 1.99075E+01 9.36576E+01 1.00000E+01
 -1      1836 1.49786E+01 9.45712E+01 1.00000E+01
 -1      1837 1.00086E+01 9.52255E+01 1.00000E+01
 -1      1838 5.01117E+00 9.56188E+01 1.00000E+01
 -1      1839 9.58684E+01 5.02425E+00 1.00000E+01
 -1      1840 9.54741E+01 1.00347E+01 1.00000E+01
 -1      1841 9.48181E+01 1.50177E+01 1.00000E+01
 -1      1842 9.39022E+01 1.99595E+01 1.00000E+01
 -1      1843 9.27289E+01 2.48466E+01 1.00000E+01
 -1      1844 9.13014E+01 2.96656E+01 1.00000E+01
 -1      1845 8.96237E+01 3.44033E+01 1.00000E+01
 -1      1846 8.77004E+01 3.90467E+01 1.00000E+01
 -1      1847 8.55366E+01 4.35831E+01 1.00000E+01
 -1      1848 8.31384E+01 4.80000E+01 1.00000E+01
 -1      1849 8.05124E+01 5.22853E+01 1.00000E+01
 -1      1850 7.76656E+01 5.64274E+01 1.00000E+01
 -1      1851 7.46060E+01 6.04148E+01 1.00000E+01
 -1      1852 7.13419E+01 6.42365E+01 1.00000E+01
 -1      1853 6.78822E+01 6.78822E+01 1.00000E+01
 -1      1854 6.42365E+01 7.13419E+01 1.00000E+01
 -1      1855 6.04148E+01 7.46060E+01 1.00000E+01
 -1      1856 5.64274E+01 7.76656E+01 1.00000E+01
 -1      1857 5.22853E+01 8.05124E+01 1.00000E+01
 -1      1858 4.80000E+01 8.31384E+01 1.00000E+01
 -1      1859 4.35831E+01 8.55366E+01 1.00000E+01
 -1      1860 3.90467E+01 8.77004E+01 1.00000E+01
 -1      1861 3.44033E+01 8.96237E+01 1.00000E+01
 -1      1862 2.96656E+01 9.13014E+01 1.00000E+01
 -1      1863 2.48466E+01 9.27289E+01 1.00000E+01
 -1      1864 1.99595E+01 9.39022E+01 1.00000E+01
 -1      1865 1.50177E+01 9.48181E+01 1.00000E+01
 -1      1866 1.00347E+01 9.54741E+01 1.00000E+01
 -1      1867 5.02425E+00 9.58684E+01 1.00000E+01
 -1      1868 9.61181E+01 5.03734E+00 1.00000E+01
 -1      1869 9.57227E+01 1.00609E+01 1.00000E+01
 -1      1870 9.50650E+01 1.50568E+01 1.00000E+01
 -1      1871 9.41467E+01 2.00115E+01 1.00000E+01
 -1      1872 9.29704E+01 2.49113E+01 1.00000E+01
 -1      1873 9.15392E+01 2.97429E+01 1.00000E+01
 -1      1874 8.98571E+01 3.44929E+01 1.00000E+01
 -1      1875 8.79287E+01 3.91484E+01 1.00000E+01
 -1      1876 8.57594E+01 4.36966E+01 1.00000E+01
 -1      1877 8.33549E+01 4.81250E+01 1.00000E+01
 -1      1878 8.07220E+01 5.24215E+01 1.00000E+01
 -1      1879 7.78679E+01 5.65743E+01 1.00000E+01
 -1      1880 7.48003E+01 6.05721E+01 1.00000E+01
 -1      1881 7.15277E+01 6.44038E+01 1.00000E+01
 -1      1882 6.80590E+01 6.80590E+01 1.00000E+01
 -1      1883 6.44038E+01 7.15277E+01 1.00000E+01
 -1      1884 6.05721E+01 7.48003E+01 1.00000E+01
 -1      1885 5.65743E+01 7.78679E+01 1.00000E+01
 -1      1886 5.24215E+01 8.07220E+01 1.00000E+01
 -1      1887 4.81250E+01 8.33549E+01 1.00000E+01
 -1      1888 4.36966E+01 8.57594E+01 1.00000E+01
 -1      1889 3.91484E+01 8.79287E+01 1.00000E+01
 -1      1890 3.44929E+01 8.98571E+01 1.00000E+01
 -1      1891 2.97429E+01 9.15392E+01 1.00000E+01
 -1      1892 2.49113E+01 9.29704E+01 1.00000E+01
 -1      1893 2.00115E+01 9.41467E+01 1.00000E+01
 -1      1894 1.50568E+01 9.50650E+01 1.00000E+01
 -1      1895 1.00609E+01 9.57227E+01 1.00000E+01
 -1      1896 5.03734E+00 9.61181E+01 1.00000E+01
 -1      1897 9.63678E+01 5.05042E+00 1.00000E+01
 -1      1898 9.59714E+01 1.00870E+01 1.00000E+01
 -1      1899 9.53119E+01 1.50959E+01 1.00000E+01
 -1      1900 9.43912E+01 2.00635E+01 1.00000E+01
 -1      1901 9.32118E+01 2.49760E+01 1.00000E+01
 -1      1902 9.17770E+01 2.98201E+01 1.00000E+01
 -1      1903 9.00905E+01 3.45825E+01 1.00000E+01
 -1      1904 8.81571E+01 3.92501E+01 1.00000E+01
 -1      1905 8.59821E+01 4.38101E+01 1.00000E+01
 -1      1906 8.35714E+01 4.82500E+01 1.00000E+01
 -1      1907 8.09317E+01 5.25577E+01 1.00000E+01
 -1      1908 7.80701E+01 5.67213E+01 1.00000E+01
 -1      1909 7.49946E+01 6.07294E+01 1.00000E+01
 -1      1910 7.17135E+01 6.45711E+01 1.00000E+01
 -1      1911 6.82358E+01 6.82358E+01 1.00000E+01
 -1      1912 6.45711E+01 7.17135E+01 1.00000E+01
 -1      1913 6.07294E+01 7.49946E+01 1.00000E+01
 -1      1914 5.67213E+01 7.80701E+01 1.00000E+01
 -1      1915 5.25577E+01 8.09317E+01 1.00000E+01
 -1      1916 4.82500E+01 8.35714E+01 1.00000E+01
 -1      1917 4.38101E+01 8.59821E+01 1.00000E+01
 -1      1918 3.92501E+01 8.81571E+01 1.00000E+01
 -1      1919 3.45825E+01 9.00905E+01 1.00000E+01
 -1      1920 2.98201E+01 9.17770E+01 1.00000E+01
 -1      1921 2.49760E+01 9.32118E+01 1.00000E+01
 -1      1922 2.00635E+01 9.43912E+01 1.00000E+01
 -1      1923 1.50959E+01 9.53119E+01 1.00000E+01
 -1      1924 1.00870E+01 9.59714E+01 1.00000E+01
 -1      1925 5.05042E+00 9.63678E+01 1.00000E+01
 -1      1926 9.66174E+01 5.06350E+00 1.00000E+01
 -1      1927 9.62200E+01 1.01131E+01 1.00000E+01
 -1      1928 9.55588E+01 1.51350E+01 1.00000E+01
 -1      1929 9.46358E+01 2.01155E+01 1.00000E+01
 -1      1930 9.34533E+01 2.50407E+01 1.00000E+01
 -1      1931 9.20147E+01 2.98974E+01 1.00000E+01
 -1      1932 9.03239E+01 3.46721E+01 1.00000E+01
 -1      1933 8.83855E+01 3.93518E+01 1.00000E+01
 -1      1934 8.62049E+01 4.39236E+01 1.00000E+01
 -1      1935 8.37880E+01 4.83750E+01 1.00000E+01
 -1      1936 8.11414E+01 5.26938E+01 1.00000E+01
 -1      1937 7.82724E+01 5.68682E+01 1.00000E+01
 -1      1938 7.51889E+01 6.08867E+01 1.00000E+01
 -1      1939 7.18993E+01 6.47384E+01 1.00000E+01
 -1      1940 6.84126E+01 6.84126E+01 1.00000E+01
 -1      1941 6.47384E+01 7.18993E+01 1.00000E+01
 -1      1942 6.08867E+01 7.51889E+01 1.00000E+01
 -1      1943 5.68682E+01 7.82724E+01 1.00000E+01
 -1      1944 5.26938E+01 8.11414E+01 1.00000E+01
 -1      1945 4.83750E+01 8.37880E+01 1.00000E+01
 -1      1946 4.39236E+01 8.62049E+01 1.00000E+01
 -1      1947 3.93518E+01 8.83855E+01 1.00000E+01
 -1      1948 3.46721E+01 9.03239E+01 1.00000E+01
 -1      1949 2.98974E+01 9.20147E+01 1.00000E+01
 -1      1950 2.50407E+01 9.34533E+01 1.00000E+01
 -1      1951 2.01155E+01 9.46358E+01 1.00000E+01
 -1      1952 1.51350E+01 9.55588E+01 1.00000E+01
 -1      1953 1.01131E+01 9.62200E+01 1.00000E+01
 -1      1954 5.06350E+00 9.66174E+01 1.00000E+01
 -1      1955 9.68671E+01 5.07659E+00 1.00000E+01
 -1      1956 9.64686E+01 1.01393E+01 1.00000E+01
 -1      1957 9.58058E+01 1.51741E+01 1.00000E+01
 -1      1958 9.48803E+01 2.01674E+01 1.00000E+01
 -1      1959 9.36948E+01 2.51054E+01 1.00000E+01
 -1      1960 9.22525E+01 2.99746E+01 1.00000E+01
 -1      1961 9.05573E+01 3.47617E+01 1.00000E+01
 -1      1962 8.86139E+01 3.94535E+01 1.00000E+01
 -1      1963 8.64276E+01 4.40371E+01 1.00000E+01
 -1      1964 8.40045E+01 4.85000E+01 1.00000E+01
 -1      1965 8.13510E+01 5.28300E+01 1.00000E+01
 -1      1966 7.84746E+01 5.70152E+01 1.00000E+01
 -1      1967 7.53832E+01 6.10441E+01 1.00000E+01
 -1      1968 7.20850E+01 6.49057E+01 1.00000E+01
 -1      1969 6.85894E+01 6.85894E+01 1.00000E+01
 -1      1970 6.49057E+01 7.20850E+01 1.00000E+01
 -1      1971 6.10441E+01 7.53832E+01 1.00000E+01
 -1      1972 5.70152E+01 7.84746E+01 1.00000E+01
 -1      1973 5.28300E+01 8.13510E+01 1.00000E+01
 -1      1974 4.85000E+01 8.40045E+01 1.00000E+01
 -1      1975 4.40371E+01 8.64276E+01 1.00000E+01
 -1      1976 3.94535E+01 8.86139E+01 1.00000E+01
 -1      1977 3.47617E+01 9.05573E+01 1.00000E+01
 -1      1978 2.99746E+01 9.22525E+01 1.00000E+01
 -1      1979 2.51054E+01 9.36948E+01 1.00000E+01
 -1      1980 2.01674E+01 9.48803E+01 1.00000E+01
 -1      1981 1.51741E+01 9.58058E+01 1.00000E+01
 -1      1982 1.01393E+01 9.64686E+01 1.00000E+01
 -1      1983 5.07659E+00 9.68671E+01 1.00000E+01
 -1      1984 9.71167E+01 5.08967E+00 1.00000E+01
 -1      1985 9.67173E+01 1.01654E+01 1.00000E+01
 -1      1986 9.60527E+01 1.52133E+01 1.00000E+01
 -1      1987 9.51249E+01 2.02194E+01 1.00000E+01
 -1      1988 9.39363E+01 2.51702E+01 1.00000E+01
 -1      1989 9.24902E+01 3.00519E+01 1.00000E+01
 -1      1990 9.07907E+01 3.48513E+01 1.00000E+01
 -1      1991 8.88423E+01 3.95551E+01 1.00000E+01
 -1      1992 8.66504E+01 4.41506E+01 1.00000E+01
 -1      1993 8.42210E+01 4.86250E+01 1.00000E+01
 -1      1994 8.15607E+01 5.29661E+01 1.00000E+01
 -1      1995 7.86769E+01 5.71621E+01 1.00000E+01
 -1      1996 7.55774E+01 6.12014E+01 1.00000E+01
 -1      1997 7.22708E+01 6.50730E+01 1.00000E+01
 -1      1998 6.87661E+01 6.87661E+01 1.00000E+01
 -1      1999 6.50730E+01 7.22708E+01 1.00000E+01
 -1      2000 6.12014E+01 7.55774E+01 1.00000E+01
 -1      2001 5.71621E+01 7.86769E+01 1.00000E+01
 -1      2002 5.29661E+01 8.15607E+01 1.00000E+01
 -1      2003 4.86250E+01 8.42210E+01 1.00000E+01
 -1      2004 4.41506E+01 8.66504E+01 1.00000E+01
 -1      2005 3.95551E+01 8.88423E+01 1.00000E+01
 -1      2006 3.48513E+01 9.07907E+01 1.00000E+01
 -1      2007 3.00519E+01 9.24902E+01 1.00000E+01
 -1      2008 2.51702E+01 9.39363E+01 1.00000E+01
 -1      2009 2.02194E+01 9.51249E+01 1.00000E+01
 -1      2010 1.52133E+01 9.60527E+01 1.00000E+01
 -1      2011 1.01654E+01 9.67173E+01 1.00000E+01
 -1      2012 5.08967E+00 9.71167E+01 1.00000E+01
 -1      2013 9.73664E+01 5.10276E+00 1.00000E+01
 -1      2014 9.69659E+01 1.01915E+01 1.00000E+01
 -1      2015 9.62996E+01 1.52524E+01 1.00000E+01
 -1      2016 9.53694E+01 2.02714E+01 1.00000E+01
 -1      2017 9.41778E+01 2.52349E+01 1.00000E+01
 -1      2018 9.27280E+01 3.01292E+01 1.00000E+01
 -1      2019 9.10241E+01 3.49409E+01 1.00000E+01
 -1      2020 8.90707E+01 3.96568E+01 1.00000E+01
 -1      2021 8.68731E+01 4.42641E+01 1.00000E+01
 -1      2022 8.44375E+01 4.87500E+01 1.00000E+01
 -1      2023 8.17704E+01 5.31023E+01 1.00000E+01
 -1      2024 7.88792E+01 5.73091E+01 1.00000E+01
 -1      2025 7.57717E+01 6.13587E+01 1.00000E+01
 -1      2026 7.24566E+01 6.52402E+01 1.00000E+01
 -1      2027 6.89429E+01 6.89429E+01 1.00000E+01
 -1      2028 6.52402E+01 7.24566E+01 1.00000E+01
 -1      2029 6.13587E+01 7.57717E+01 1.00000E+01
 -1      2030 5.73091E+01 7.88792E+01 1.00000E+01
 -1      2031 5.31023E+01 8.17704E+01 1.00000E+01
 -1      2032 4.87500E+01 8.44375E+01 1.00000E+01
 -1      2033 4.42641E+01 8.68731E+01 1.00000E+01
 -1      2034 3.96568E+01 8.90707E+01 1.00000E+01
 -1      2035 3.49409E+01 9.10241E+01 1.00000E+01
 -1      2036 3.01292E+01 9.27280E+01 1.00000E+01
 -1      2037 2.52349E+01 9.41778E+01 1.00000E+01
 -1      2038 2.02714E+01 9.53694E+01 1.00000E+01
 -1      2039 1.52524E+01 9.62996E+01 1.00000E+01
 -1      2040 1.01915E+01 9.69659E+01 1.00000E+01
 -1      2041 5.10276E+00 9.73664E+01 1.00000E+01
 -1      2042 9.76160E+01 5.11584E+00 1.00000E+01
 -1      2043 9.72145E+01 1.02177E+01 1.00000E+01
 -1      2044 9.65465E+01 1.52915E+01 1.00000E+01
 -1      2045 9.56139E+01 2.03234E+01 1.00000E+01
 -1      2046 9.44193E+01 2.52996E+01 1.00000E+01
 -1      2047 9.29658E+01 3.02064E+01 1.00000E+01
 -1      2048 9.12575E+01 3.50305E+01 1.00000E+01
 -1      2049 8.92991E+01 3.97585E+01 1.00000E+01
 -1      2050 8.70959E+01 4.43776E+01 1.00000E+01
 -1      2051 8.46540E+01 4.88750E+01 1.00000E+01
 -1      2052 8.19800E+01 5.32385E+01 1.00000E+01
 -1      2053 7.90814E+01 5.74560E+01 1.00000E+01
 -1      2054 7.59660E+01 6.15161E+01 1.00000E+01
 -1      2055 7.26424E+01 6.54075E+01 1.00000E+01
 -1      2056 6.91197E+01 6.91197E+01 1.00000E+01
 -1      2057 6.54075E+01 7.26424E+01 1.00000E+01
 -1      2058 6.15161E+01 7.59660E+01 1.00000E+01
 -1      2059 5.74560E+01 7.90814E+01 1.00000E+01
 -1      2060 5.32385E+01 8.19800E+01 1.00000E+01
 -1      2061 4.88750E+01 8.46540E+01 1.00000E+01
 -1      2062 4.43776E+01 8.70959E+01 1.00000E+01
 -1      2063 3.97585E+01 8.92991E+01 1.00000E+01
 -1      2064 3.50305E+01 9.12575E+01 1.00000E+01
 -1      2065 3.02064E+01 9.29658E+01 1.00000E+01
 -1      2066 2.52996E+01 9.44193E+01 1.00000E+01
 -1      2067 2.03234E+01 9.56139E+01 1.00000E+01
 -1      2068 1.52915E+01 9.65465E+01 1.00000E+01
 -1      2069 1.02177E+01 9.72145E+01 1.00000E+01
 -1      2070 5.11584E+00 9.76160E+01 1.00000E+01
 -1      2071 9.78657E+01 5.12892E+00 1.00000E+01
 -1      2072 9.74631E+01 1.02438E+01 1.00000E+01
 -1      2073 9.67935E+01 1.53306E+01 1.00000E+01
 -1      2074 9.58585E+01 2.03753E+01 1.00000E+01
 -1      2075 9.46607E+01 2.53643E+01 1.00000E+01
 -1      2076 9.32035E+01 3.02837E+01 1.00000E+01
 -1      2077 9.14909E+01 3.51201E+01 1.00000E+01
 -1      2078 8.95275E+01 3.98602E+01 1.00000E+01
 -1      2079 8.73186E+01 4.44911E+01 1.00000E+01
 -1      2080 8.48705E+01 4.90000E+01 1.00000E+01
 -1      2081 8.21897E+01 5.33746E+01 1.00000E+01
 -1      2082 7.92837E+01 5.76030E+01 1.00000E+01
 -1      2083 7.61603E+01 6.16734E+01 1.00000E+01
 -1      2084 7.28282E+01 6.55748E+01 1.00000E+01
 -1      2085 6.92965E+01 6.92965E+01 1.00000E+01
 -1      2086 6.55748E+01 7.28282E+01 1.00000E+01
 -1      2087 6.16734E+01 7.61603E+01 1.00000E+01
 -1      2088 5.76030E+01 7.92837E+01 1.00000E+01
 -1      2089 5.33746E+01 8.21897E+01 1.00000E+01
 -1      2090 4.90000E+01 8.48705E+01 1.00000E+01
 -1      2091 4.44911E+01 8.73186E+01 1.00000E+01
 -1      2092 3.98602E+01 8.95275E+01 1.00000E+01
 -1      2093 3.51201E+01 9.14909E+01 1.00000E+01
 -1      2094 3.02837E+01 9.32035E+01 1.00000E+01
 -1      2095 2.53643E+01 9.46607E+01 1.00000E+01
 -1      2096 2.03753E+01 9.58585E+01 1.00000E+01
 -1      2097 1.53306E+01 9.67935E+01 1.00000E+01
 -1      2098 1.02438E+01 9.74631E+01 1.00000E+01
 -1      2099 5.12892E+00 9.78657E+01 1.00000E+01
 -1      2100 9.81153E+01 5.14201E+00 1.00000E+01
 -1      2101 9.77118E+01 1.02699E+01 1.00000E+01
 -1      2102 9.70404E+01 1.53697E+01 1.00000E+01
 -1      2103 9.61030E+01 2.04273E+01 1.00000E+01
 -1      2104 9.49022E+01 2.54290E+01 1.00000E+01
 -1      2105 9.34413E+01 3.03609E+01 1.00000E+01
 -1      2106 9.17243E+01 3.52097E+01 1.00000E+01
 -1      2107 8.97558E+01 3.99619E+01 1.00000E+01
 -1      2108 8.75414E+01 4.46046E+01 1.00000E+01
 -1      2109 8.50870E+01 4.91250E+01 1.00000E+01
 -1      2110 8.23994E+01 5.35108E+01 1.00000E+01
 -1      2111 7.94859E+01 5.77499E+01 1.00000E+01
 -1      2112 7.63546E+01 6.18307E+01 1.00000E+01
 -1      2113 7.30140E+01 6.57421E+01 1.00000E+01
 -1      2114 6.94732E+01 6.94732E+01 1.00000E+01
 -1      2115 6.57421E+01 7.30140E+01 1.00000E+01
 -1      2116 6.18307E+01 7.63546E+01 1.00000E+01
 -1      2117 5.77499E+01 7.94859E+01 1.00000E+01
 -1      2118 5.35108E+01 8.23994E+01 1.00000E+01
 -1      2119 4.91250E+01 8.50870E+01 1.00000E+01
 -1      2120 4.46046E+01 8.75414E+01 1.00000E+01
 -1      2121 3.99619E+01 8.97558E+01 1.00000E+01
 -1      2122 3.52097E+01 9.17243E+01 1.00000E+01
 -1      2123 3.03609E+01 9.34413E+01 1.00000E+01
 -1      2124 2.54290E+01 9.49022E+01 1.00000E+01
 -1      2125 2.04273E+01 9.61030E+01 1.00000E+01
 -1      2126 1.53697E+01 9.70404E+01 1.00000E+01
 -1      2127 1.02699E+01 9.77118E+01 1.00000E+01
 -1      2128 5.14201E+00 9.81153E+01 1.00000E+01
 -1      2129 9.83650E+01 5.15509E+00 1.00000E+01
 -1      2130 9.79604E+01 1.02961E+01 1.00000E+01
 -1      2131 9.72873E+01 1.54088E+01 1.00000E+01
 -1      2132 9.63475E+01 2.04793E+01 1.00000E+01
 -1      2133 9.51437E+01 2.54937E+01 1.00000E+01
 -1      2134 9.36791E+01 3.04382E+01 1.00000E+01
 -1      2135 9.19577E+01 3.52992E+01 1.00000E+01
 -1      2136 8.99842E+01 4.00636E+01 1.00000E+01
 -1      2137 8.77641E+01 4.47181E+01 1.00000E+01
 -1      2138 8.53035E+01 4.92500E+01 1.00000E+01
 -1      2139 8.26091E+01 5.36469E+01 1.00000E+01
 -1      2140 7.96882E+01 5.78968E+01 1.00000E+01
 -1      2141 7.65489E+01 6.19881E+01 1.00000E+01
 -1      2142 7.31998E+01 6.59094E+01 1.00000E+01
 -1      2143 6.96500E+01 6.96500E+01 1.00000E+01
 -1      2144 6.59094E+01 7.31998E+01 1.00000E+01
 -1      2145 6.19881E+01 7.65489E+01 1.00000E+01
 -1      2146 5.78968E+01 7.96882E+01 1.00000E+01
 -1      2147 5.36469E+01 8.26091E+01 1.00000E+01
 -1      2148 4.92500E+01 8.53035E+01 1.00000E+01
 -1      2149 4.47181E+01 8.77641E+01 1.00000E+01
 -1      2150 4.00636E+01 8.99842E+01 1.00000E+01
 -1      2151 3.52992E+01 9.19577E+01 1.00000E+01
 -1      2152 3.04382E+01 9.36791E+01 1.00000E+01
 -1      2153 2.54937E+01 9.51437E+01 1.00000E+01
 -1      2154 2.04793E+01 9.63475E+01 1.00000E+01
 -1      2155 1.54088E+01 9.72873E+01 1.00000E+01
 -1      2156 1.02961E+01 9.79604E+01 1.00000E+01
 -1      2157 5.15509E+00 9.83650E+01 1.00000E+01
 -1      2158 9.86147E+01 5.16818E+00 1.00000E+01
 -1      2159 9.82090E+01 1.03222E+01 1.00000E+01
 -1      2160 9.75342E+01 1.54479E+01 1.00000E+01
 -1      2161 9.65921E+01 2.05313E+01 1.00000E+01
 -1      2162 9.53852E+01 2.55584E+01 1.00000E+01
 -1      2163 9.39168E+01 3.05154E+01 1.00000E+01
 -1      2164 9.21911E+01 3.53888E+01 1.00000E+01
 -1      2165 9.02126E+01 4.01652E+01 1.00000E+01
 -1      2166 8.79869E+01 4.48316E+01 1.00000E+01
 -1      2167 8.55200E+01 4.93750E+01 1.00000E+01
 -1      2168 8.28187E+01 5.37831E+01 1.00000E+01
 -1      2169 7.98904E+01 5.80438E+01 1.00000E+01
 -1      2170 7.67432E+01 6.21454E+01 1.00000E+01
 -1      2171 7.33856E+01 6.60766E+01 1.00000E+01
 -1      2172 6.98268E+01 6.98268E+01 1.00000E+01
 -1      2173 6.60766E+01 7.33856E+01 1.00000E+01
 -1      2174 6.21454E+01 7.67432E+01 1.00000E+01
 -1      2175 5.80438E+01 7.98904E+01 1.00000E+01
 -1      2176 5.37831E+01 8.28187E+01 1.00000E+01
 -1      2177 4.93750E+01 8.55200E+01 1.00000E+01
 -1      2178 4.48316E+01 8.79869E+01 1.00000E+01
 -1      2179 4.01652E+01 9.02126E+01 1.00000E+01
 -1      2180 3.53888E+01 9.21911E+01 1.00000E+01
 -1      2181 3.05154E+01 9.39168E+01 1.00000E+01
 -1      2182 2.55584E+01 9.53852E+01 1.00000E+01
 -1      2183 2.05313E+01 9.65921E+01 1.00000E+01
 -1      2184 1.54479E+01 9.75342E+01 1.00000E+01
 -1      2185 1.03222E+01 9.82090E+01 1.00000E+01
 -1      2186 5.16818E+00 9.86147E+01 1.00000E+01
 -1      2187 9.88643E+01 5.18126E+00 1.00000E+01
 -1      2188 9.84577E+01 1.03483E+01 1.00000E+01
 -1      2189 9.77811E+01 1.54870E+01 1.00000E+01
 -1      2190 9.68366E+01 2.05833E+01 1.00000E+01
 -1      2191 9.56267E+01 2.56231E+01 1.00000E+01
 -1      2192 9.41546E+01 3.05927E+01 1.00000E+01
 -1      2193 9.24245E+01 3.54784E+01 1.00000E+01
 -1      2194 9.04410E+01 4.02669E+01 1.00000E+01
 -1      2195 8.82096E+01 4.49451E+01 1.00000E+01
 -1      2196 8.57365E+01 4.95000E+01 1.00000E+01
 -1      2197 8.30284E+01 5.39193E+01 1.00000E+01
 -1      2198 8.00927E+01 5.81907E+01 1.00000E+01
 -1      2199 7.69374E+01 6.23027E+01 1.00000E+01
 -1      2200 7.35713E+01 6.62439E+01 1.00000E+01
 -1      2201 7.00036E+01 7.00036E+01 1.00000E+01
 -1      2202 6.62439E+01 7.35713E+01 1.00000E+01
 -1      2203 6.23027E+01 7.69374E+01 1.00000E+01
 -1      2204 5.81907E+01 8.00927E+01 1.00000E+01
 -1      2205 5.39193E+01 8.30284E+01 1.00000E+01
 -1      2206 4.95000E+01 8.57365E+01 1.00000E+01
 -1      2207 4.49451E+01 8.82096E+01 1.00000E+01
 -1      2208 4.02669E+01 9.04410E+01 1.00000E+01
 -1      2209 3.54784E+01 9.24245E+01 1.00000E+01
 -1      2210 3.05927E+01 9.41546E+01 1.00000E+01
 -1      2211 2.56231E+01 9.56267E+01 1.00000E+01
 -1      2212 2.05833E+01 9.68366E+01 1.00000E+01
 -1      2213 1.54870E+01 9.77811E+01 1.00000E+01
 -1      2214 1.03483E+01 9.84577E+01 1.00000E+01
 -1      2215 5.18126E+00 9.88643E+01 1.00000E+01
 -1      2216 9.91140E+01 5.19434E+00 1.00000E+01
 -1      2217 9.87063E+01 1.03744E+01 1.00000E+01
 -1      2218 9.80281E+01 1.55261E+01 1.00000E+01
 -1      2219 9.70811E+01 2.06352E+01 1.00000E+01
 -1      2220 9.58681E+01 2.56878E+01 1.00000E+01
 -1      2221 9.43924E+01 3.06699E+01 1.00000E+01
 -1      2222 9.26579E+01 3.55680E+01 1.00000E+01
 -1      2223 9.06694E+01 4.03686E+01 1.00000E+01
 -1      2224 8.84324E+01 4.50586E+01 1.00000E+01
 -1      2225 8.59530E+01 4.96250E+01 1.00000E+01
 -1      2226 8.32381E+01 5.40554E+01 1.00000E+01
 -1      2227 8.02949E+01 5.83377E+01 1.00000E+01
 -1      2228 7.71317E+01 6.24600E+01 1.00000E+01
 -1      2229 7.37571E+01 6.64112E+01 1.00000E+01
 -1      2230 7.01804E+01 7.01804E+01 1.00000E+01
 -1      2231 6.64112E+01 7.37571E+01 1.00000E+01
 -1      2232 6.24600E+01 7.71317E+01 1.00000E+01
 -1      2233 5.83377E+01 8.02949E+01 1.00000E+01
 -1      2234 5.40554E+01 8.32381E+01 1.00000E+01
 -1      2235 4.96250E+01 8.59530E+01 1.00000E+01
 -1      2236 4.50586E+01 8.84324E+01 1.00000E+01
 -1      2237 4.03686E+01 9.06694E+01 1.00000E+01
 -1      2238 3.55680E+01 9.26579E+01 1.00000E+01
 -1      2239 3.06699E+01 9.43924E+01 1.00000E+01
 -1      2240 2.56878E+01 9.58681E+01 1.00000E+01
 -1      2241 2.06352E+01 9.70811E+01 1.00000E+01
 -1      2242 1.55261E+01 9.80281E+01 1.00000E+01
 -1      2243 1.03744E+01 9.87063E+01 1.00000E+01
 -1      2244 5.19434E+00 9.91140E+01 1.00000E+01
 -1      2245 9.93636E+01 5.20743E+00 1.00000E+01
 -1      2246 9.89549E+01 1.04006E+01 1.00000E+01
 -1      2247 9.82750E+01 1.55652E+01 1.00000E+01
 -1      2248 9.73257E+01 2.06872E+01 1.00000E+01
 -1      2249 9.61096E+01 2.57525E+01 1.00000E+01
 -1      2250 9.46301E+01 3.07472E+01 1.00000E+01
 -1      2251 9.28913E+01 3.56576E+01 1.00000E+01
 -1      2252 9.08978E+01 4.04703E+01 1.00000E+01
 -1      2253 8.86552E+01 4.51721E+01 1.00000E+01
 -1      2254 8.61695E+01 4.97500E+01 1.00000E+01
 -1      2255 8.34477E+01 5.41916E+01 1.00000E+01
 -1      2256 8.04972E+01 5.84846E+01 1.00000E+01
 -1      2257 7.73260E+01 6.26174E+01 1.00000E+01
 -1      2258 7.39429E+01 6.65785E+01 1.00000E+01
 -1      2259 7.03571E+01 7.03571E+01 1.00000E+01
 -1      2260 6.65785E+01 7.39429E+01 1.00000E+01
 -1      2261 6.26174E+01 7.73260E+01 1.00000E+01
 -1      2262 5.84846E+01 8.04972E+01 1.00000E+01
 -1      2263 5.41916E+01 8.34477E+01 1.00000E+01
 -1      2264 4.97500E+01 8.61695E+01 1.00000E+01
 -1      2265 4.51721E+01 8.86552E+01 1.00000E+01
 -1      2266 4.04703E+01 9.08978E+01 1.00000E+01
 -1      2267 3.56576E+01 9.28913E+01 1.00000E+01
 -1      2268 3.07472E+01 9.46301E+01 1.00000E+01
 -1      2269 2.57525E+01 9.61096E+01 1.00000E+01
 -1      2270 2.06872E+01 9.73257E+01 1.00000E+01
 -1      2271 1.55652E+01 9.82750E+01 1.00000E+01
 -1      2272 1.04006E+01 9.89549E+01 1.00000E+01
 -1      2273 5.20743E+00 9.93636E+01 1.00000E+01
 -1      2274 9.96133E+01 5.22051E+00 1.00000E+01
 -1      2275 9.92036E+01 1.04267E+01 1.00000E+01
 -1      2276 9.85219E+01 1.56043E+01 1.00000E+01
 -1      2277 9.75702E+01 2.07392E+01 1.00000E+01
 -1      2278 9.63511E+01 2.58172E+01 1.00000E+01
 -1      2279 9.48679E+01 3.08244E+01 1.00000E+01
 -1      2280 9.31246E+01 3.57472E+01 1.00000E+01
 -1      2281 9.11262E+01 4.05720E+01 1.00000E+01
 -1      2282 8.88779E+01 4.52856E+01 1.00000E+01
 -1      2283 8.63860E+01 4.98750E+01 1.00000E+01
 -1      2284 8.36574E+01 5.43277E+01 1.00000E+01
 -1      2285 8.06994E+01 5.86316E+01 1.00000E+01
 -1      2286 7.75203E+01 6.27747E+01 1.00000E+01
 -1      2287 7.41287E+01 6.67458E+01 1.00000E+01
 -1      2288 7.05339E+01 7.05339E+01 1.00000E+01
 -1      2289 6.67458E+01 7.41287E+01 1.00000E+01
 -1      2290 6.27747E+01 7.75203E+01 1.00000E+01
 -1      2291 5.86316E+01 8.06994E+01 1.00000E+01
 -1      2292 5.43277E+01 8.36574E+01 1.00000E+01
 -1      2293 4.98750E+01 8.63860E+01 1.00000E+01
 -1      2294 4.52856E+01 8.88779E+01 1.00000E+01
 -1      2295 4.05720E+01 9.11262E+01 1.00000E+01
 -1      2296 3.57472E+01 9.31246E+01 1.00000E+01
 -1      2297 3.08244E+01 9.48679E+01 1.00000E+01
 -1      2298 2.58172E+01 9.63511E+01 1.00000E+01
 -1      2299 2.07392E+01 9.75702E+01 1.00000E+01
 -1      2300 1.56043E+01 9.85219E+01 1.00000E+01
 -1      2301 1.04267E+01 9.92036E+01 1.00000E+01
 -1      2302 5.22051E+00 9.96133E+01 1.00000E+01
 -1      2303 9.51195E+01 4.98500E+00 9.09091E-01
 -1      2304 9.51195E+01 4.98500E+00 1.81818E+00
 -1      2305 9.51195E+01 4.98500E+00 2.72727E+00
 -1      2306 9.51195E+01 4.98500E+00 3.63636E+00
 -1      2307 9.51195E+01 4.98500E+00 4.54545E+00
 -1      2308 9.51195E+01 4.98500E+00 5.45455E+00
 -1      2309 9.51195E+01 4.98500E+00 6.36364E+00
 -1      2310 9.51195E+01 4.98500E+00 7.27273E+00
 -1      2311 9.51195E+01 4.98500E+00 8.18182E+00
 -1      2312 9.51195E+01 4.98500E+00 9.09091E+00
 -1      2313 9.47282E+01 9.95634E+00 9.09091E-01
 -1      2314 9.47282E+01 9.95634E+00 1.81818E+00
 -1      2315 9.47282E+01 9.95634E+00 2.72727E+00
 -1      2316 9.47282E+01 9.95634E+00 3.63636E+00
 -1      2317 9.47282E+01 9.95634E+00 4.54545E+00
 -1      2318 9.47282E+01 9.95634E+00 5.45455E+00
 -1      2319 9.47282E+01 9.95634E+00 6.36364E+00
 -1      2320 9.47282E+01 9.95634E+00 7.27273E+00
 -1      2321 9.47282E+01 9.95634E+00 8.18182E+00
 -1      2322 9.47282E+01 9.95634E+00 9.09091E+00
 -1      2323 9.40773E+01 1.49004E+01 9.09091E-01
 -1      2324 9.40773E+01 1.49004E+01 1.81818E+00
 -1      2325 9.40773E+01 1.49004E+01 2.72727E+00
 -1      2326 9.40773E+01 1.49004E+01 3.63636E+00
 -1      2327 9.40773E+01 1.49004E+01 4.54545E+00
 -1      2328 9.40773E+01 1.49004E+01 5.45455E+00
 -1      2329 9.40773E+01 1.49004E+01 6.36364E+00
 -1      2330 9.40773E+01 1.49004E+01 7.27273E+00
 -1      2331 9.40773E+01 1.49004E+01 8.18182E+00
 -1      2332 9.40773E+01 1.49004E+01 9.09091E+00
 -1      2333 9.31686E+01 1.98036E+01 9.09091E-01
 -1      2334 9.31686E+01 1.98036E+01 1.81818E+00
 -1      2335 9.31686E+01 1.98036E+01 2.72727E+00
 -1      2336 9.31686E+01 1.98036E+01 3.63636E+00
 -1      2337 9.31686E+01 1.98036E+01 4.54545E+00
 -1      2338 9.31686E+01 1.98036E+01 5.45455E+00
 -1      2339 9.31686E+01 1.98036E+01 6.36364E+00
 -1      2340 9.31686E+01 1.98036E+01 7.27273E+00
 -1      2341 9.31686E+01 1.98036E+01 8.18182E+00
 -1      2342 9.31686E+01 1.98036E+01 9.09091E+00
 -1      2343 9.20044E+01 2.46525E+01 9.09091E-01
 -1      2344 9.20044E+01 2.46525E+01 1.81818E+00
 -1      2345 9.20044E+01 2.46525E+01 2.72727E+00
 -1      2346 9.20044E+01 2.46525E+01 3.63636E+00
 -1      2347 9.20044E+01 2.46525E+01 4.54545E+00
 -1      2348 9.20044E+01 2.46525E+01 5.45455E+00
 -1      2349 9.20044E+01 2.46525E+01 6.36364E+00
 -1      2350 9.20044E+01 2.46525E+01 7.27273E+00
 -1      2351 9.20044E+01 2.46525E+01 8.18182E+00
 -1      2352 9.20044E+01 2.46525E+01 9.09091E+00
 -1      2353 9.05881E+01 2.94339E+01 9.09091E-01
 -1      2354 9.05881E+01 2.94339E+01 1.81818E+00
 -1      2355 9.05881E+01 2.94339E+01 2.72727E+00
 -1      2356 9.05881E+01 2.94339E+01 3.63636E+00
 -1      2357 9.05881E+01 2.94339E+01 4.54545E+00
 -1      2358 9.05881E+01 2.94339E+01 5.45455E+00
 -1      2359 9.05881E+01 2.94339E+01 6.36364E+00
 -1      2360 9.05881E+01 2.94339E+01 7.27273E+00
 -1      2361 9.05881E+01 2.94339E+01 8.18182E+00
 -1      2362 9.05881E+01 2.94339E+01 9.09091E+00
 -1      2363 8.89235E+01 3.41345E+01 9.09091E-01
 -1      2364 8.89235E+01 3.41345E+01 1.81818E+00
 -1      2365 8.89235E+01 3.41345E+01 2.72727E+00
 -1      2366 8.89235E+01 3.41345E+01 3.63636E+00
 -1      2367 8.89235E+01 3.41345E+01 4.54545E+00
 -1      2368 8.89235E+01 3.41345E+01 5.45455E+00
 -1      2369 8.89235E+01 3.41345E+01 6.36364E+00
 -1      2370 8.89235E+01 3.41345E+01 7.27273E+00
 -1      2371 8.89235E+01 3.41345E+01 8.18182E+00
 -1      2372 8.89235E+01 3.41345E+01 9.09091E+00
 -1      2373 8.70152E+01 3.87417E+01 9.09091E-01
 -1      2374 8.70152E+01 3.87417E+01 1.81818E+00
 -1      2375 8.70152E+01 3.87417E+01 2.72727E+00
 -1      2376 8.70152E+01 3.87417E+01 3.63636E+00
 -1      2377 8.70152E+01 3.87417E+01 4.54545E+00
 -1      2378 8.70152E+01 3.87417E+01 5.45455E+00
 -1      2379 8.70152E+01 3.87417E+01 6.36364E+00
 -1      2380 8.70152E+01 3.87417E+01 7.27273E+00
 -1      2381 8.70152E+01 3.87417E+01 8.18182E+00
 -1      2382 8.70152E+01 3.87417E+01 9.09091E+00
 -1      2383 8.48684E+01 4.32426E+01 9.09091E-01
 -1      2384 8.48684E+01 4.32426E+01 1.81818E+00
 -1      2385 8.48684E+01 4.32426E+01 2.72727E+00
 -1      2386 8.48684E+01 4.32426E+01 3.63636E+00
 -1      2387 8.48684E+01 4.32426E+01 4.54545E+00
 -1      2388 8.48684E+01 4.32426E+01 5.45455E+00
 -1      2389 8.48684E+01 4.32426E+01 6.36364E+00
 -1      2390 8.48684E+01 4.32426E+01 7.27273E+00
 -1      2391 8.48684E+01 4.32426E+01 8.18182E+00
 -1      2392 8.48684E+01 4.32426E+01 9.09091E+00
 -1      2393 8.24889E+01 4.76250E+01 9.09091E-01
 -1      2394 8.24889E+01 4.76250E+01 1.81818E+00
 -1      2395 8.24889E+01 4.76250E+01 2.72727E+00
 -1      2396 8.24889E+01 4.76250E+01 3.63636E+00
 -1      2397 8.24889E+01 4.76250E+01 4.54545E+00
 -1      2398 8.24889E+01 4.76250E+01 5.45455E+00
 -1      2399 8.24889E+01 4.76250E+01 6.36364E+00
 -1      2400 8.24889E+01 4.76250E+01 7.27273E+00
 -1      2401 8.24889E+01 4.76250E+01 8.18182E+00
 -1      2402 8.24889E+01 4.76250E+01 9.09091E+00
 -1      2403 7.98834E+01 5.18769E+01 9.09091E-01
 -1      2404 7.98834E+01 5.18769E+01 1.81818E+00
 -1      2405 7.98834E+01 5.18769E+01 2.72727E+00
 -1      2406 7.98834E+01 5.18769E+01 3.63636E+00
 -1      2407 7.98834E+01 5.18769E+01 4.54545E+00
 -1      2408 7.98834E+01 5.18769E+01 5.45455E+00
 -1      2409 7.98834E+01 5.18769E+01 6.36364E+00
 -1      2410 7.98834E+01 5.18769E+01 7.27273E+00
 -1      2411 7.98834E+01 5.18769E+01 8.18182E+00
 -1      2412 7.98834E+01 5.18769E+01 9.09091E+00
 -1      2413 7.70589E+01 5.59865E+01 9.09091E-01
 -1      2414 7.70589E+01 5.59865E+01 1.81818E+00
 -1      2415 7.70589E+01 5.59865E+01 2.72727E+00
 -1      2416 7.70589E+01 5.59865E+01 3.63636E+00
 -1      2417 7.70589E+01 5.59865E+01 4.54545E+00
 -1      2418 7.70589E+01 5.59865E+01 5.45455E+00
 -1      2419 7.70589E+01 5.59865E+01 6.36364E+00
 -1      2420 7.70589E+01 5.59865E+01 7.27273E+00
 -1      2421 7.70589E+01 5.59865E+01 8.18182E+00
 -1      2422 7.70589E+01 5.59865E+01 9.09091E+00
 -1      2423 7.40232E+01 5.99428E+01 9.09091E-01
 -1      2424 7.40232E+01 5.99428E+01 1.81818E+00
 -1      2425 7.40232E+01 5.99428E+01 2.72727E+00
 -1      2426 7.40232E+01 5.99428E+01 3.63636E+00
 -1      2427 7.40232E+01 5.99428E+01 4.54545E+00
 -1      2428 7.40232E+01 5.99428E+01 5.45455E+00
 -1      2429 7.40232E+01 5.99428E+01 6.36364E+00
 -1      2430 7.40232E+01 5.99428E+01 7.27273E+00
 -1      2431 7.40232E+01 5.99428E+01 8.18182E+00
 -1      2432 7.40232E+01 5.99428E+01 9.09091E+00
 -1      2433 7.07845E+01 6.37347E+01 9.09091E-01
 -1      2434 7.07845E+01 6.37347E+01 1.81818E+00
 -1      2435 7.07845E+01 6.37347E+01 2.72727E+00
 -1      2436 7.07845E+01 6.37347E+01 3.63636E+00
 -1      2437 7.07845E+01 6.37347E+01 4.54545E+00
 -1      2438 7.07845E+01 6.37347E+01 5.45455E+00
 -1      2439 7.07845E+01 6.37347E+01 6.36364E+00
 -1      2440 7.07845E+01 6.37347E+01 7.27273E+00
 -1      2441 7.07845E+01 6.37347E+01 8.18182E+00
 -1      2442 7.07845E+01 6.37347E+01 9.09091E+00
 -1      2443 6.73519E+01 6.73519E+01 9.09091E-01
 -1      2444 6.73519E+01 6.73519E+01 1.81818E+00
 -1      2445 6.73519E+01 6.73519E+01 2.72727E+00
 -1      2446 6.73519E+01 6.73519E+01 3.63636E+00
 -1      2447 6.73519E+01 6.73519E+01 4.54545E+00
 -1      2448 6.73519E+01 6.73519E+01 5.45455E+00
 -1      2449 6.73519E+01 6.73519E+01 6.36364E+00
 -1      2450 6.73519E+01 6.73519E+01 7.27273E+00
 -1      2451 6.73519E+01 6.73519E+01 8.18182E+00
 -1      2452 6.73519E+01 6.73519E+01 9.09091E+00
 -1      2453 6.37347E+01 7.07845E+01 9.09091E-01
 -1      2454 6.37347E+01 7.07845E+01 1.81818E+00
 -1      2455 6.37347E+01 7.07845E+01 2.72727E+00
 -1      2456 6.37347E+01 7.07845E+01 3.63636E+00
 -1      2457 6.37347E+01 7.07845E+01 4.54545E+00
 -1      2458 6.37347E+01 7.07845E+01 5.45455E+00
 -1      2459 6.37347E+01 7.07845E+01 6.36364E+00
 -1      2460 6.37347E+01 7.07845E+01 7.27273E+00
 -1      2461 6.37347E+01 7.07845E+01 8.18182E+00
 -1      2462 6.37347E+01 7.07845E+01 9.09091E+00
 -1      2463 5.99428E+01 7.40232E+01 9.09091E-01
 -1      2464 5.99428E+01 7.40232E+01 1.81818E+00
 -1      2465 5.99428E+01 7.40232E+01 2.72727E+00
 -1      2466 5.99428E+01 7.40232E+01 3.63636E+00
 -1      2467 5.99428E+01 7.40232E+01 4.54545E+00
 -1      2468 5.99428E+01 7.40232E+01 5.45455E+00
 -1      2469 5.99428E+01 7.40232E+01 6.36364E+00
 -1      2470 5.99428E+01 7.40232E+01 7.27273E+00
 -1      2471 5.99428E+01 7.40232E+01 8.18182E+00
 -1      2472 5.99428E+01 7.40232E+01 9.09091E+00
 -1      2473 5.59865E+01 7.70589E+01 9.09091E-01
 -1      2474 5.59865E+01 7.70589E+01 1.81818E+00
 -1      2475 5.59865E+01 7.70589E+01 2.72727E+00
 -1      2476 5.59865E+01 7.70589E+01 3.63636E+00
 -1      2477 5.59865E+01 7.70589E+01 4.54545E+00
 -1      2478 5.59865E+01 7.70589E+01 5.45455E+00
 -1      2479 5.59865E+01 7.70589E+01 6.36364E+00
 -1      2480 5.59865E+01 7.70589E+01 7.27273E+00
 -1      2481 5.59865E+01 7.70589E+01 8.18182E+00
 -1      2482 5.59865E+01 7.70589E+01 9.09091E+00
 -1      2483 5.18769E+01 7.98834E+01 9.09091E-01
 -1      2484 5.18769E+01 7.98834E+01 1.81818E+00
 -1      2485 5.18769E+01 7.98834E+01 2.72727E+00
 -1      2486 5.18769E+01 7.98834E+01 3.63636E+00
 -1      2487 5.18769E+01 7.98834E+01 4.54545E+00
 -1      2488 5.18769E+01 7.98834E+01 5.45455E+00
 -1      2489 5.18769E+01 7.98834E+01 6.36364E+00
 -1      2490 5.18769E+01 7.98834E+01 7.27273E+00
 -1      2491 5.18769E+01 7.98834E+01 8.18182E+00
 -1      2492 5.18769E+01 7.98834E+01 9.09091E+00
 -1      2493 4.76250E+01 8.24889E+01 9.09091E-01
 -1      2494 4.76250E+01 8.24889E+01 1.81818E+00
 -1      2495 4.76250E+01 8.24889E+01 2.72727E+00
 -1      2496 4.76250E+01 8.24889E+01 3.63636E+00
 -1      2497 4.76250E+01 8.24889E+01 4.54545E+00
 -1      2498 4.76250E+01 8.24889E+01 5.45455E+00
 -1      2499 4.76250E+01 8.24889E+01 6.36364E+00
 -1      2500 4.76250E+01 8.24889E+01 7.27273E+00
 -1      2501 4.76250E+01 8.24889E+01 8.18182E+00
 -1      2502 4.76250E+01 8.24889E+01 9.09091E+00
 -1      2503 4.32426E+01 8.48684E+01 9.09091E-01
 -1      2504 4.32426E+01 8.48684E+01 1.81818E+00
 -1      2505 4.32426E+01 8.48684E+01 2.72727E+00
 -1      2506 4.32426E+01 8.48684E+01 3.63636E+00
 -1      2507 4.32426E+01 8.48684E+01 4.54545E+00
 -1      2508 4.32426E+01 8.48684E+01 5.45455E+00
 -1      2509 4.32426E+01 8.48684E+01 6.36364E+00
 -1      2510 4.32426E+01 8.48684E+01 7.27273E+00
 -1      2511 4.32426E+01 8.48684E+01 8.18182E+00
 -1      2512 4.32426E+01 8.48684E+01 9.09091E+00
 -1      2513 3.87417E+01 8.70152E+01 9.09091E-01
 -1      2514 3.87417E+01 8.70152E+01 1.81818E+00
 -1      2515 3.87417E+01 8.70152E+01 2.72727E+00
 -1      2516 3.87417E+01 8.70152E+01 3.63636E+00
 -1      2517 3.87417E+01 8.70152E+01 4.54545E+00
 -1      2518 3.87417E+01 8.70152E+01 5.45455E+00
 -1      2519 3.87417E+01 8.70152E+01 6.36364E+00
 -1      2520 3.87417E+01 8.70152E+01 7.27273E+00
 -1      2521 3.87417E+01 8.70152E+01 8.18182E+00
 -1      2522 3.87417E+01 8.70152E+01 9.09091E+00
 -1      2523 3.41345E+01 8.89235E+01 9.09091E-01
 -1      2524 3.41345E+01 8.89235E+01 1.81818E+00
 -1      2525 3.41345E+01 8.89235E+01 2.72727E+00
 -1      2526 3.41345E+01 8.89235E+01 3.63636E+00
 -1      2527 3.41345E+01 8.89235E+01 4.54545E+00
 -1      2528 3.41345E+01 8.89235E+01 5.45455E+00
 -1      2529 3.41345E+01 8.89235E+01 6.36364E+00
 -1      2530 3.41345E+01 8.89235E+01 7.27273E+00
 -1      2531 3.41345E+01 8.89235E+01 8.18182E+00
 -1      2532 3.41345E+01 8.89235E+01 9.09091E+00
 -1      2533 2.94339E+01 9.05881E+01 9.09091E-01
 -1      2534 2.94339E+01 9.05881E+01 1.81818E+00
 -1      2535 2.94339E+01 9.05881E+01 2.72727E+00
 -1      2536 2.94339E+01 9.05881E+01 3.63636E+00
 -1      2537 2.94339E+01 9.05881E+01 4.54545E+00
 -1      2538 2.94339E+01 9.05881E+01 5.45455E+00
 -1      2539 2.94339E+01 9.05881E+01 6.36364E+00
 -1      2540 2.94339E+01 9.05881E+01 7.27273E+00
 -1      2541 2.94339E+01 9.05881E+01 8.18182E+00
 -1      2542 2.94339E+01 9.05881E+01 9.09091E+00
 -1      2543 2.46525E+01 9.20044E+01 9.09091E-01
 -1      2544 2.46525E+01 9.20044E+01 1.81818E+00
 -1      2545 2.46525E+01 9.20044E+01 2.72727E+00
 -1      2546 2.46525E+01 9.20044E+01 3.63636E+00
 -1      2547 2.46525E+01 9.20044E+01 4.54545E+00
 -1      2548 2.46525E+01 9.20044E+01 5.45455E+00
 -1      2549 2.46525E+01 9.20044E+01 6.36364E+00
 -1      2550 2.46525E+01 9.20044E+01 7.27273E+00
 -1      2551 2.46525E+01 9.20044E+01 8.18182E+00
 -1      2552 2.46525E+01 9.20044E+01 9.09091E+00
 -1      2553 1.98036E+01 9.31686E+01 9.09091E-01
 -1      2554 1.98036E+01 9.31686E+01 1.81818E+00
 -1      2555 1.98036E+01 9.31686E+01 2.72727E+00
 -1      2556 1.98036E+01 9.31686E+01 3.63636E+00
 -1      2557 1.98036E+01 9.31686E+01 4.54545E+00
 -1      2558 1.98036E+01 9.31686E+01 5.45455E+00
 -1      2559 1.98036E+01 9.31686E+01 6.36364E+00
 -1      2560 1.98036E+01 9.31686E+01 7.27273E+00
 -1      2561 1.98036E+01 9.31686E+01 8.18182E+00
 -1      2562 1.98036E+01 9.31686E+01 9.09091E+00
 -1      2563 1.49004E+01 9.40773E+01 9.09091E-01
 -1      2564 1.49004E+01 9.40773E+01 1.81818E+00
 -1      2565 1.49004E+01 9.40773E+01 2.72727E+00
 -1      2566 1.49004E+01 9.40773E+01 3.63636E+00
 -1      2567 1.49004E+01 9.40773E+01 4.54545E+00
 -1      2568 1.49004E+01 9.40773E+01 5.45455E+00
 -1      2569 1.49004E+01 9.40773E+01 6.36364E+00
 -1      2570 1.49004E+01 9.40773E+01 7.27273E+00
 -1      2571 1.49004E+01 9.40773E+01 8.18182E+00
 -1      2572 1.49004E+01 9.40773E+01 9.09091E+00
 -1      2573 9.95634E+00 9.47282E+01 9.09091E-01
 -1      2574 9.95634E+00 9.47282E+01 1.81818E+00
 -1      2575 9.95634E+00 9.47282E+01 2.72727E+00
 -1      2576 9.95634E+00 9.47282E+01 3.63636E+00
 -1      2577 9.95634E+00 9.47282E+01 4.54545E+00
 -1      2578 9.95634E+00 9.47282E+01 5.45455E+00
 -1      2579 9.95634E+00 9.47282E+01 6.36364E+00
 -1      2580 9.95634E+00 9.47282E+01 7.27273E+00
 -1      2581 9.95634E+00 9.47282E+01 8.18182E+00
 -1      2582 9.95634E+00 9.47282E+01 9.09091E+00
 -1      2583 4.98500E+00 9.51195E+01 9.09091E-01
 -1      2584 4.98500E+00 9.51195E+01 1.81818E+00
 -1      2585 4.98500E+00 9.51195E+01 2.72727E+00
 -1      2586 4.98500E+00 9.51195E+01 3.63636E+00
 -1      2587 4.98500E+00 9.51195E+01 4.54545E+00
 -1      2588 4.98500E+00 9.51195E+01 5.45455E+00
 -1      2589 4.98500E+00 9.51195E+01 6.36364E+00
 -1      2590 4.98500E+00 9.51195E+01 7.27273E+00
 -1      2591 4.98500E+00 9.51195E+01 8.18182E+00
 -1      2592 4.98500E+00 9.51195E+01 9.09091E+00
 -1      2593 9.53691E+01 4.99808E+00 9.09091E-01
 -1      2594 9.53691E+01 4.99808E+00 1.81818E+00
 -1      2595 9.53691E+01 4.99808E+00 2.72727E+00
 -1      2596 9.53691E+01 4.99808E+00 3.63636E+00
 -1      2597 9.53691E+01 4.99808E+00 4.54545E+00
 -1      2598 9.53691E+01 4.99808E+00 5.45455E+00
 -1      2599 9.53691E+01 4.99808E+00 6.36364E+00
 -1      2600 9.53691E+01 4.99808E+00 7.27273E+00
 -1      2601 9.53691E+01 4.99808E+00 8.18182E+00
 -1      2602 9.53691E+01 4.99808E+00 9.09091E+00
 -1      2603 9.49768E+01 9.98247E+00 9.09091E-01
 -1      2604 9.49768E+01 9.98247E+00 1.81818E+00
 -1      2605 9.49768E+01 9.98247E+00 2.72727E+00
 -1      2606 9.49768E+01 9.98247E+00 3.63636E+00
 -1      2607 9.49768E+01 9.98247E+00 4.54545E+00
 -1      2608 9.49768E+01 9.98247E+00 5.45455E+00
 -1      2609 9.49768E+01 9.98247E+00 6.36364E+00
 -1      2610 9.49768E+01 9.98247E+00 7.27273E+00
 -1      2611 9.49768E+01 9.98247E+00 8.18182E+00
 -1      2612 9.49768E+01 9.98247E+00 9.09091E+00
 -1      2613 9.43242E+01 1.49395E+01 9.09091E-01
 -1      2614 9.43242E+01 1.49395E+01 1.81818E+00
 -1      2615 9.43242E+01 1.49395E+01 2.72727E+00
 -1      2616 9.43242E+01 1.49395E+01 3.63636E+00
 -1      2617 9.43242E+01 1.49395E+01 4.54545E+00
 -1      2618 9.43242E+01 1.49395E+01 5.45455E+00
 -1      2619 9.43242E+01 1.49395E+01 6.36364E+00
 -1      2620 9.43242E+01 1.49395E+01 7.27273E+00
 -1      2621 9.43242E+01 1.49395E+01 8.18182E+00
 -1      2622 9.43242E+01 1.49395E+01 9.09091E+00
 -1      2623 9.34131E+01 1.98556E+01 9.09091E-01
 -1      2624 9.34131E+01 1.98556E+01 1.81818E+00
 -1      2625 9.34131E+01 1.98556E+01 2.72727E+00
 -1      2626 9.34131E+01 1.98556E+01 3.63636E+00
 -1      2627 9.34131E+01 1.98556E+01 4.54545E+00
 -1      2628 9.34131E+01 1.98556E+01 5.45455E+00
 -1      2629 9.34131E+01 1.98556E+01 6.36364E+00
 -1      2630 9.34131E+01 1.98556E+01 7.27273E+00
 -1      2631 9.34131E+01 1.98556E+01 8.18182E+00
 -1      2632 9.34131E+01 1.98556E+01 9.09091E+00
 -1      2633 9.22459E+01 2.47172E+01 9.09091E-01
 -1      2634 9.22459E+01 2.47172E+01 1.81818E+00
 -1      2635 9.22459E+01 2.47172E+01 2.72727E+00
 -1      2636 9.22459E+01 2.47172E+01 3.63636E+00
 -1      2637 9.22459E+01 2.47172E+01 4.54545E+00
 -1      2638 9.22459E+01 2.47172E+01 5.45455E+00
 -1      2639 9.22459E+01 2.47172E+01 6.36364E+00
 -1      2640 9.22459E+01 2.47172E+01 7.27273E+00
 -1      2641 9.22459E+01 2.47172E+01 8.18182E+00
 -1      2642 9.22459E+01 2.47172E+01 9.09091E+00
 -1      2643 9.08259E+01 2.95111E+01 9.09091E-01
 -1      2644 9.08259E+01 2.95111E+01 1.81818E+00
 -1      2645 9.08259E+01 2.95111E+01 2.72727E+00
 -1      2646 9.08259E+01 2.95111E+01 3.63636E+00
 -1      2647 9.08259E+01 2.95111E+01 4.54545E+00
 -1      2648 9.08259E+01 2.95111E+01 5.45455E+00
 -1      2649 9.08259E+01 2.95111E+01 6.36364E+00
 -1      2650 9.08259E+01 2.95111E+01 7.27273E+00
 -1      2651 9.08259E+01 2.95111E+01 8.18182E+00
 -1      2652 9.08259E+01 2.95111E+01 9.09091E+00
 -1      2653 8.91569E+01 3.42241E+01 9.09091E-01
 -1      2654 8.91569E+01 3.42241E+01 1.81818E+00
 -1      2655 8.91569E+01 3.42241E+01 2.72727E+00
 -1      2656 8.91569E+01 3.42241E+01 3.63636E+00
 -1      2657 8.91569E+01 3.42241E+01 4.54545E+00
 -1      2658 8.91569E+01 3.42241E+01 5.45455E+00
 -1      2659 8.91569E+01 3.42241E+01 6.36364E+00
 -1      2660 8.91569E+01 3.42241E+01 7.27273E+00
 -1      2661 8.91569E+01 3.42241E+01 8.18182E+00
 -1      2662 8.91569E+01 3.42241E+01 9.09091E+00
 -1      2663 8.72436E+01 3.88433E+01 9.09091E-01
 -1      2664 8.72436E+01 3.88433E+01 1.81818E+00
 -1      2665 8.72436E+01 3.88433E+01 2.72727E+00
 -1      2666 8.72436E+01 3.88433E+01 3.63636E+00
 -1      2667 8.72436E+01 3.88433E+01 4.54545E+00
 -1      2668 8.72436E+01 3.88433E+01 5.45455E+00
 -1      2669 8.72436E+01 3.88433E+01 6.36364E+00
 -1      2670 8.72436E+01 3.88433E+01 7.27273E+00
 -1      2671 8.72436E+01 3.88433E+01 8.18182E+00
 -1      2672 8.72436E+01 3.88433E+01 9.09091E+00
 -1      2673 8.50911E+01 4.33561E+01 9.09091E-01
 -1      2674 8.50911E+01 4.33561E+01 1.81818E+00
 -1      2675 8.50911E+01 4.33561E+01 2.72727E+00
 -1      2676 8.50911E+01 4.33561E+01 3.63636E+00
 -1      2677 8.50911E+01 4.33561E+01 4.54545E+00
 -1      2678 8.50911E+01 4.33561E+01 5.45455E+00
 -1      2679 8.50911E+01 4.33561E+01 6.36364E+00
 -1      2680 8.50911E+01 4.33561E+01 7.27273E+00
 -1      2681 8.50911E+01 4.33561E+01 8.18182E+00
 -1      2682 8.50911E+01 4.33561E+01 9.09091E+00
 -1      2683 8.27054E+01 4.77500E+01 9.09091E-01
 -1      2684 8.27054E+01 4.77500E+01 1.81818E+00
 -1      2685 8.27054E+01 4.77500E+01 2.72727E+00
 -1      2686 8.27054E+01 4.77500E+01 3.63636E+00
 -1      2687 8.27054E+01 4.77500E+01 4.54545E+00
 -1      2688 8.27054E+01 4.77500E+01 5.45455E+00
 -1      2689 8.27054E+01 4.77500E+01 6.36364E+00
 -1      2690 8.27054E+01 4.77500E+01 7.27273E+00
 -1      2691 8.27054E+01 4.77500E+01 8.18182E+00
 -1      2692 8.27054E+01 4.77500E+01 9.09091E+00
 -1      2693 8.00930E+01 5.20130E+01 9.09091E-01
 -1      2694 8.00930E+01 5.20130E+01 1.81818E+00
 -1      2695 8.00930E+01 5.20130E+01 2.72727E+00
 -1      2696 8.00930E+01 5.20130E+01 3.63636E+00
 -1      2697 8.00930E+01 5.20130E+01 4.54545E+00
 -1      2698 8.00930E+01 5.20130E+01 5.45455E+00
 -1      2699 8.00930E+01 5.20130E+01 6.36364E+00
 -1      2700 8.00930E+01 5.20130E+01 7.27273E+00
 -1      2701 8.00930E+01 5.20130E+01 8.18182E+00
 -1      2702 8.00930E+01 5.20130E+01 9.09091E+00
 -1      2703 7.72611E+01 5.61335E+01 9.09091E-01
 -1      2704 7.72611E+01 5.61335E+01 1.81818E+00
 -1      2705 7.72611E+01 5.61335E+01 2.72727E+00
 -1      2706 7.72611E+01 5.61335E+01 3.63636E+00
 -1      2707 7.72611E+01 5.61335E+01 4.54545E+00
 -1      2708 7.72611E+01 5.61335E+01 5.45455E+00
 -1      2709 7.72611E+01 5.61335E+01 6.36364E+00
 -1      2710 7.72611E+01 5.61335E+01 7.27273E+00
 -1      2711 7.72611E+01 5.61335E+01 8.18182E+00
 -1      2712 7.72611E+01 5.61335E+01 9.09091E+00
 -1      2713 7.42174E+01 6.01001E+01 9.09091E-01
 -1      2714 7.42174E+01 6.01001E+01 1.81818E+00
 -1      2715 7.42174E+01 6.01001E+01 2.72727E+00
 -1      2716 7.42174E+01 6.01001E+01 3.63636E+00
 -1      2717 7.42174E+01 6.01001E+01 4.54545E+00
 -1      2718 7.42174E+01 6.01001E+01 5.45455E+00
 -1      2719 7.42174E+01 6.01001E+01 6.36364E+00
 -1      2720 7.42174E+01 6.01001E+01 7.27273E+00
 -1      2721 7.42174E+01 6.01001E+01 8.18182E+00
 -1      2722 7.42174E+01 6.01001E+01 9.09091E+00
 -1      2723 7.09703E+01 6.39020E+01 9.09091E-01
 -1      2724 7.09703E+01 6.39020E+01 1.81818E+00
 -1      2725 7.09703E+01 6.39020E+01 2.72727E+00
 -1      2726 7.09703E+01 6.39020E+01 3.63636E+00
 -1      2727 7.09703E+01 6.39020E+01 4.54545E+00
 -1      2728 7.09703E+01 6.39020E+01 5.45455E+00
 -1      2729 7.09703E+01 6.39020E+01 6.36364E+00
 -1      2730 7.09703E+01 6.39020E+01 7.27273E+00
 -1      2731 7.09703E+01 6.39020E+01 8.18182E+00
 -1      2732 7.09703E+01 6.39020E+01 9.09091E+00
 -1      2733 6.75287E+01 6.75287E+01 9.09091E-01
 -1      2734 6.75287E+01 6.75287E+01 1.81818E+00
 -1      2735 6.75287E+01 6.75287E+01 2.72727E+00
 -1      2736 6.75287E+01 6.75287E+01 3.63636E+00
 -1      2737 6.75287E+01 6.75287E+01 4.54545E+00
 -1      2738 6.75287E+01 6.75287E+01 5.45455E+00
 -1      2739 6.75287E+01 6.75287E+01 6.36364E+00
 -1      2740 6.75287E+01 6.75287E+01 7.27273E+00
 -1      2741 6.75287E+01 6.75287E+01 8.18182E+00
 -1      2742 6.75287E+01 6.75287E+01 9.09091E+00
 -1      2743 6.39020E+01 7.09703E+01 9.09091E-01
 -1      2744 6.39020E+01 7.09703E+01 1.81818E+00
 -1      2745 6.39020E+01 7.09703E+01 2.72727E+00
 -1      2746 6.39020E+01 7.09703E+01 3.63636E+00
 -1      2747 6.39020E+01 7.09703E+01 4.54545E+00
 -1      2748 6.39020E+01 7.09703E+01 5.45455E+00
 -1      2749 6.39020E+01 7.09703E+01 6.36364E+00
 -1      2750 6.39020E+01 7.09703E+01 7.27273E+00
 -1      2751 6.39020E+01 7.09703E+01 8.18182E+00
 -1      2752 6.39020E+01 7.09703E+01 9.09091E+00
 -1      2753 6.01001E+01 7.42174E+01 9.09091E-01
 -1      2754 6.01001E+01 7.42174E+01 1.81818E+00
 -1      2755 6.01001E+01 7.42174E+01 2.72727E+00
 -1      2756 6.01001E+01 7.42174E+01 3.63636E+00
 -1      2757 6.01001E+01 7.42174E+01 4.54545E+00
 -1      2758 6.01001E+01 7.42174E+01 5.45455E+00
 -1      2759 6.01001E+01 7.42174E+01 6.36364E+00
 -1      2760 6.01001E+01 7.42174E+01 7.27273E+00
 -1      2761 6.01001E+01 7.42174E+01 8.18182E+00
 -1      2762 6.01001E+01 7.42174E+01 9.09091E+00
 -1      2763 5.61335E+01 7.72611E+01 9.09091E-01
 -1      2764 5.61335E+01 7.72611E+01 1.81818E+00
 -1      2765 5.61335E+01 7.72611E+01 2.72727E+00
 -1      2766 5.61335E+01 7.72611E+01 3.63636E+00
 -1      2767 5.61335E+01 7.72611E+01 4.54545E+00
 -1      2768 5.61335E+01 7.72611E+01 5.45455E+00
 -1      2769 5.61335E+01 7.72611E+01 6.36364E+00
 -1      2770 5.61335E+01 7.72611E+01 7.27273E+00
 -1      2771 5.61335E+01 7.72611E+01 8.18182E+00
 -1      2772 5.61335E+01 7.72611E+01 9.09091E+00
 -1      2773 5.20130E+01 8.00930E+01 9.09091E-01
 -1      2774 5.20130E+01 8.00930E+01 1.81818E+00
 -1      2775 5.20130E+01 8.00930E+01 2.72727E+00
 -1      2776 5.20130E+01 8.00930E+01 3.63636E+00
 -1      2777 5.20130E+01 8.00930E+01 4.54545E+00
 -1      2778 5.20130E+01 8.00930E+01 5.45455E+00
 -1      2779 5.20130E+01 8.00930E+01 6.36364E+00
 -1      2780 5.20130E+01 8.00930E+01 7.27273E+00
 -1      2781 5.20130E+01 8.00930E+01 8.18182E+00
 -1      2782 5.20130E+01 8.00930E+01 9.09091E+00
 -1      2783 4.77500E+01 8.27054E+01 9.09091E-01
 -1      2784 4.77500E+01 8.27054E+01 1.81818E+00
 -1      2785 4.77500E+01 8.27054E+01 2.72727E+00
 -1      2786 4.77500E+01 8.27054E+01 3.63636E+00
 -1      2787 4.77500E+01 8.27054E+01 4.54545E+00
 -1      2788 4.77500E+01 8.27054E+01 5.45455E+00
 -1      2789 4.77500E+01 8.27054E+01 6.36364E+00
 -1      2790 4.77500E+01 8.27054E+01 7.27273E+00
 -1      2791 4.77500E+01 8.27054E+01 8.18182E+00
 -1      2792 4.77500E+01 8.27054E+01 9.09091E+00
 -1      2793 4.33561E+01 8.50911E+01 9.09091E-01
 -1      2794 4.33561E+01 8.50911E+01 1.81818E+00
 -1      2795 4.33561E+01 8.50911E+01 2.72727E+00
 -1      2796 4.33561E+01 8.50911E+01 3.63636E+00
 -1      2797 4.33561E+01 8.50911E+01 4.54545E+00
 -1      2798 4.33561E+01 8.50911E+01 5.45455E+00
 -1      2799 4.33561E+01 8.50911E+01 6.36364E+00
 -1      2800 4.33561E+01 8.50911E+01 7.27273E+00
 -1      2801 4.33561E+01 8.50911E+01 8.18182E+00
 -1      2802 4.33561E+01 8.50911E+01 9.09091E+00
 -1      2803 3.88433E+01 8.72436E+01 9.09091E-01
 -1      2804 3.88433E+01 8.72436E+01 1.81818E+00
 -1      2805 3.88433E+01 8.72436E+01 2.72727E+00
 -1      2806 3.88433E+01 8.72436E+01 3.63636E+00
 -1      2807 3.88433E+01 8.72436E+01 4.54545E+00
 -1      2808 3.88433E+01 8.72436E+01 5.45455E+00
 -1      2809 3.88433E+01 8.72436E+01 6.36364E+00
 -1      2810 3.88433E+01 8.72436E+01 7.27273E+00
 -1      2811 3.88433E+01 8.72436E+01 8.18182E+00
 -1      2812 3.88433E+01 8.72436E+01 9.09091E+00
 -1      2813 3.42241E+01 8.91569E+01 9.09091E-01
 -1      2814 3.42241E+01 8.91569E+01 1.81818E+00
 -1      2815 3.42241E+01 8.91569E+01 2.72727E+00
 -1      2816 3.42241E+01 8.91569E+01 3.63636E+00
 -1      2817 3.42241E+01 8.91569E+01 4.54545E+00
 -1      2818 3.42241E+01 8.91569E+01 5.45455E+00
 -1      2819 3.42241E+01 8.91569E+01 6.36364E+00
 -1      2820 3.42241E+01 8.91569E+01 7.27273E+00
 -1      2821 3.42241E+01 8.91569E+01 8.18182E+00
 -1      2822 3.42241E+01 8.91569E+01 9.09091E+00
 -1      2823 2.95111E+01 9.08259E+01 9.09091E-01
 -1      2824 2.95111E+01 9.08259E+01 1.81818E+00
 -1      2825 2.95111E+01 9.08259E+01 2.72727E+00
 -1      2826 2.95111E+01 9.08259E+01 3.63636E+00
 -1      2827 2.95111E+01 9.08259E+01 4.54545E+00
 -1      2828 2.95111E+01 9.08259E+01 5.45455E+00
 -1      2829 2.95111E+01 9.08259E+01 6.36364E+00
 -1      2830 2.95111E+01 9.08259E+01 7.27273E+00
 -1      2831 2.95111E+01 9.08259E+01 8.18182E+00
 -1      2832 2.95111E+01 9.08259E+01 9.09091E+00
 -1      2833 2.47172E+01 9.22459E+01 9.09091E-01
 -1      2834 2.47172E+01 9.22459E+01 1.81818E+00
 -1      2835 2.47172E+01 9.22459E+01 2.72727E+00
 -1      2836 2.47172E+01 9.22459E+01 3.63636E+00
 -1      2837 2.47172E+01 9.22459E+01 4.54545E+00
 -1      2838 2.47172E+01 9.22459E+01 5.45455E+00
 -1      2839 2.47172E+01 9.22459E+01 6.36364E+00
 -1      2840 2.47172E+01 9.22459E+01 7.27273E+00
 -1      2841 2.47172E+01 9.22459E+01 8.18182E+00
 -1      2842 2.47172E+01 9.22459E+01 9.09091E+00
 -1      2843 1.98556E+01 9.34131E+01 9.09091E-01
 -1      2844 1.98556E+01 9.34131E+01 1.81818E+00
 -1      2845 1.98556E+01 9.34131E+01 2.72727E+00
 -1      2846 1.98556E+01 9.34131E+01 3.63636E+00
 -1      2847 1.98556E+01 9.34131E+01 4.54545E+00
 -1      2848 1.98556E+01 9.34131E+01 5.45455E+00
 -1      2849 1.98556E+01 9.34131E+01 6.36364E+00
 -1      2850 1.98556E+01 9.34131E+01 7.27273E+00
 -1      2851 1.98556E+01 9.34131E+01 8.18182E+00
 -1      2852 1.98556E+01 9.34131E+01 9.09091E+00
 -1      2853 1.49395E+01 9.43242E+01 9.09091E-01
 -1      2854 1.49395E+01 9.43242E+01 1.81818E+00
 -1      2855 1.49395E+01 9.43242E+01 2.72727E+00
 -1      2856 1.49395E+01 9.43242E+01 3.63636E+00
 -1      2857 1.49395E+01 9.43242E+01 4.54545E+00
 -1      2858 1.49395E+01 9.43242E+01 5.45455E+00
 -1      2859 1.49395E+01 9.43242E+01 6.36364E+00
 -1      2860 1.49395E+01 9.43242E+01 7.27273E+00
 -1      2861 1.49395E+01 9.43242E+01 8.18182E+00
 -1      2862 1.49395E+01 9.43242E+01 9.09091E+00
 -1      2863 9.98247E+00 9.49768E+01 9.09091E-01
 -1      2864 9.98247E+00 9.49768E+01 1.81818E+00
 -1      2865 9.98247E+00 9.49768E+01 2.72727E+00
 -1      2866 9.98247E+00 9.49768E+01 3.63636E+00
 -1      2867 9.98247E+00 9.49768E+01 4.54545E+00
 -1      2868 9.98247E+00 9.49768E+01 5.45455E+00
 -1      2869 9.98247E+00 9.49768E+01 6.36364E+00
 -1      2870 9.98247E+00 9.49768E+01 7.27273E+00
 -1      2871 9.98247E+00 9.49768E+01 8.18182E+00
 -1      2872 9.98247E+00 9.49768E+01 9.09091E+00
 -1      2873 4.99808E+00 9.53691E+01 9.09091E-01
 -1      2874 4.99808E+00 9.53691E+01 1.81818E+00
 -1      2875 4.99808E+00 9.53691E+01 2.72727E+00
 -1      2876 4.99808E+00 9.53691E+01 3.63636E+00
 -1      2877 4.99808E+00 9.53691E+01 4.54545E+00
 -1      2878 4.99808E+00 9.53691E+01 5.45455E+00
 -1      2879 4.99808E+00 9.53691E+01 6.36364E+00
 -1      2880 4.99808E+00 9.53691E+01 7.27273E+00
 -1      2881 4.99808E+00 9.53691E+01 8.18182E+00
 -1      2882 4.99808E+00 9.53691E+01 9.09091E+00
 -1      2883 9.56188E+01 5.01117E+00 9.09091E-01
 -1      2884 9.56188E+01 5.01117E+00 1.81818E+00
 -1      2885 9.56188E+01 5.01117E+00 2.72727E+00
 -1      2886 9.56188E+01 5.01117E+00 3.63636E+00
 -1      2887 9.56188E+01 5.01117E+00 4.54545E+00
 -1      2888 9.56188E+01 5.01117E+00 5.45455E+00
 -1      2889 9.56188E+01 5.01117E+00 6.36364E+00
 -1      2890 9.56188E+01 5.01117E+00 7.27273E+00
 -1      2891 9.56188E+01 5.01117E+00 8.18182E+00
 -1      2892 9.56188E+01 5.01117E+00 9.09091E+00
 -1      2893 9.52255E+01 1.00086E+01 9.09091E-01
 -1      2894 9.52255E+01 1.00086E+01 1.81818E+00
 -1      2895 9.52255E+01 1.00086E+01 2.72727E+00
 -1      2896 9.52255E+01 1.00086E+01 3.63636E+00
 -1      2897 9.52255E+01 1.00086E+01 4.54545E+00
 -1      2898 9.52255E+01 1.00086E+01 5.45455E+00
 -1      2899 9.52255E+01 1.00086E+01 6.36364E+00
 -1      2900 9.52255E+01 1.00086E+01 7.27273E+00
 -1      2901 9.52255E+01 1.00086E+01 8.18182E+00
 -1      2902 9.52255E+01 1.00086E+01 9.09091E+00
 -1      2903 9.45712E+01 1.49786E+01 9.09091E-01
 -1      2904 9.45712E+01 1.49786E+01 1.81818E+00
 -1      2905 9.45712E+01 1.49786E+01 2.72727E+00
 -1      2906 9.45712E+01 1.49786E+01 3.63636E+00
 -1      2907 9.45712E+01 1.49786E+01 4.54545E+00
 -1      2908 9.45712E+01 1.49786E+01 5.45455E+00
 -1      2909 9.45712E+01 1.49786E+01 6.36364E+00
 -1      2910 9.45712E+01 1.49786E+01 7.27273E+00
 -1      2911 9.45712E+01 1.49786E+01 8.18182E+00
 -1      2912 9.45712E+01 1.49786E+01 9.09091E+00
 -1      2913 9.36576E+01 1.99075E+01 9.09091E-01
 -1      2914 9.36576E+01 1.99075E+01 1.81818E+00
 -1      2915 9.36576E+01 1.99075E+01 2.72727E+00
 -1      2916 9.36576E+01 1.99075E+01 3.63636E+00
 -1      2917 9.36576E+01 1.99075E+01 4.54545E+00
 -1      2918 9.36576E+01 1.99075E+01 5.45455E+00
 -1      2919 9.36576E+01 1.99075E+01 6.36364E+00
 -1      2920 9.36576E+01 1.99075E+01 7.27273E+00
 -1      2921 9.36576E+01 1.99075E+01 8.18182E+00
 -1      2922 9.36576E+01 1.99075E+01 9.09091E+00
 -1      2923 9.24874E+01 2.47819E+01 9.09091E-01
 -1      2924 9.24874E+01 2.47819E+01 1.81818E+00
 -1      2925 9.24874E+01 2.47819E+01 2.72727E+00
 -1      2926 9.24874E+01 2.47819E+01 3.63636E+00
 -1      2927 9.24874E+01 2.47819E+01 4.54545E+00
 -1      2928 9.24874E+01 2.47819E+01 5.45455E+00
 -1      2929 9.24874E+01 2.47819E+01 6.36364E+00
 -1      2930 9.24874E+01 2.47819E+01 7.27273E+00
 -1      2931 9.24874E+01 2.47819E+01 8.18182E+00
 -1      2932 9.24874E+01 2.47819E+01 9.09091E+00
 -1      2933 9.10637E+01 2.95884E+01 9.09091E-01
 -1      2934 9.10637E+01 2.95884E+01 1.81818E+00
 -1      2935 9.10637E+01 2.95884E+01 2.72727E+00
 -1      2936 9.10637E+01 2.95884E+01 3.63636E+00
 -1      2937 9.10637E+01 2.95884E+01 4.54545E+00
 -1      2938 9.10637E+01 2.95884E+01 5.45455E+00
 -1      2939 9.10637E+01 2.95884E+01 6.36364E+00
 -1      2940 9.10637E+01 2.95884E+01 7.27273E+00
 -1      2941 9.10637E+01 2.95884E+01 8.18182E+00
 -1      2942 9.10637E+01 2.95884E+01 9.09091E+00
 -1      2943 8.93903E+01 3.43137E+01 9.09091E-01
 -1      2944 8.93903E+01 3.43137E+01 1.81818E+00
 -1      2945 8.93903E+01 3.43137E+01 2.72727E+00
 -1      2946 8.93903E+01 3.43137E+01 3.63636E+00
 -1      2947 8.93903E+01 3.43137E+01 4.54545E+00
 -1      2948 8.93903E+01 3.43137E+01 5.45455E+00
 -1      2949 8.93903E+01 3.43137E+01 6.36364E+00
 -1      2950 8.93903E+01 3.43137E+01 7.27273E+00
 -1      2951 8.93903E+01 3.43137E+01 8.18182E+00
 -1      2952 8.93903E+01 3.43137E+01 9.09091E+00
 -1      2953 8.74720E+01 3.89450E+01 9.09091E-01
 -1      2954 8.74720E+01 3.89450E+01 1.81818E+00
 -1      2955 8.74720E+01 3.89450E+01 2.72727E+00
 -1      2956 8.74720E+01 3.89450E+01 3.63636E+00
 -1      2957 8.74720E+01 3.89450E+01 4.54545E+00
 -1      2958 8.74720E+01 3.89450E+01 5.45455E+00
 -1      2959 8.74720E+01 3.89450E+01 6.36364E+00
 -1      2960 8.74720E+01 3.89450E+01 7.27273E+00
 -1      2961 8.74720E+01 3.89450E+01 8.18182E+00
 -1      2962 8.74720E+01 3.89450E+01 9.09091E+00
 -1      2963 8.53139E+01 4.34696E+01 9.09091E-01
 -1      2964 8.53139E+01 4.34696E+01 1.81818E+00
 -1      2965 8.53139E+01 4.34696E+01 2.72727E+00
 -1      2966 8.53139E+01 4.34696E+01 3.63636E+00
 -1      2967 8.53139E+01 4.34696E+01 4.54545E+00
 -1      2968 8.53139E+01 4.34696E+01 5.45455E+00
 -1      2969 8.53139E+01 4.34696E+01 6.36364E+00
 -1      2970 8.53139E+01 4.34696E+01 7.27273E+00
 -1      2971 8.53139E+01 4.34696E+01 8.18182E+00
 -1      2972 8.53139E+01 4.34696E+01 9.09091E+00
 -1      2973 8.29219E+01 4.78750E+01 9.09091E-01
 -1      2974 8.29219E+01 4.78750E+01 1.81818E+00
 -1      2975 8.29219E+01 4.78750E+01 2.72727E+00
 -1      2976 8.29219E+01 4.78750E+01 3.63636E+00
 -1      2977 8.29219E+01 4.78750E+01 4.54545E+00
 -1      2978 8.29219E+01 4.78750E+01 5.45455E+00
 -1      2979 8.29219E+01 4.78750E+01 6.36364E+00
 -1      2980 8.29219E+01 4.78750E+01 7.27273E+00
 -1      2981 8.29219E+01 4.78750E+01 8.18182E+00
 -1      2982 8.29219E+01 4.78750E+01 9.09091E+00
 -1      2983 8.03027E+01 5.21492E+01 9.09091E-01
 -1      2984 8.03027E+01 5.21492E+01 1.81818E+00
 -1      2985 8.03027E+01 5.21492E+01 2.72727E+00
 -1      2986 8.03027E+01 5.21492E+01 3.63636E+00
 -1      2987 8.03027E+01 5.21492E+01 4.54545E+00
 -1      2988 8.03027E+01 5.21492E+01 5.45455E+00
 -1      2989 8.03027E+01 5.21492E+01 6.36364E+00
 -1      2990 8.03027E+01 5.21492E+01 7.27273E+00
 -1      2991 8.03027E+01 5.21492E+01 8.18182E+00
 -1      2992 8.03027E+01 5.21492E+01 9.09091E+00
 -1      2993 7.74634E+01 5.62804E+01 9.09091E-01
 -1      2994 7.74634E+01 5.62804E+01 1.81818E+00
 -1      2995 7.74634E+01 5.62804E+01 2.72727E+00
 -1      2996 7.74634E+01 5.62804E+01 3.63636E+00
 -1      2997 7.74634E+01 5.62804E+01 4.54545E+00
 -1      2998 7.74634E+01 5.62804E+01 5.45455E+00
 -1      2999 7.74634E+01 5.62804E+01 6.36364E+00
 -1      3000 7.74634E+01 5.62804E+01 7.27273E+00
 -1      3001 7.74634E+01 5.62804E+01 8.18182E+00
 -1      3002 7.74634E+01 5.62804E+01 9.09091E+00
 -1      3003 7.44117E+01 6.02574E+01 9.09091E-01
 -1      3004 7.44117E+01 6.02574E+01 1.81818E+00
 -1      3005 7.44117E+01 6.02574E+01 2.72727E+00
 -1      3006 7.44117E+01 6.02574E+01 3.63636E+00
 -1      3007 7.44117E+01 6.02574E+01 4.54545E+00
 -1      3008 7.44117E+01 6.02574E+01 5.45455E+00
 -1      3009 7.44117E+01 6.02574E+01 6.36364E+00
 -1      3010 7.44117E+01 6.02574E+01 7.27273E+00
 -1      3011 7.44117E+01 6.02574E+01 8.18182E+00
 -1      3012 7.44117E+01 6.02574E+01 9.09091E+00
 -1      3013 7.11561E+01 6.40693E+01 9.09091E-01
 -1      3014 7.11561E+01 6.40693E+01 1.81818E+00
 -1      3015 7.11561E+01 6.40693E+01 2.72727E+00
 -1      3016 7.11561E+01 6.40693E+01 3.63636E+00
 -1      3017 7.11561E+01 6.40693E+01 4.54545E+00
 -1      3018 7.11561E+01 6.40693E+01 5.45455E+00
 -1      3019 7.11561E+01 6.40693E+01 6.36364E+00
 -1      3020 7.11561E+01 6.40693E+01 7.27273E+00
 -1      3021 7.11561E+01 6.40693E+01 8.18182E+00
 -1      3022 7.11561E+01 6.40693E+01 9.09091E+00
 -1      3023 6.77055E+01 6.77055E+01 9.09091E-01
 -1      3024 6.77055E+01 6.77055E+01 1.81818E+00
 -1      3025 6.77055E+01 6.77055E+01 2.72727E+00
 -1      3026 6.77055E+01 6.77055E+01 3.63636E+00
 -1      3027 6.77055E+01 6.77055E+01 4.54545E+00
 -1      3028 6.77055E+01 6.77055E+01 5.45455E+00
 -1      3029 6.77055E+01 6.77055E+01 6.36364E+00
 -1      3030 6.77055E+01 6.77055E+01 7.27273E+00
 -1      3031 6.77055E+01 6.77055E+01 8.18182E+00
 -1      3032 6.77055E+01 6.77055E+01 9.09091E+00
 -1      3033 6.40693E+01 7.11561E+01 9.09091E-01
 -1      3034 6.40693E+01 7.11561E+01 1.81818E+00
 -1      3035 6.40693E+01 7.11561E+01 2.72727E+00
 -1      3036 6.40693E+01 7.11561E+01 3.63636E+00
 -1      3037 6.40693E+01 7.11561E+01 4.54545E+00
 -1      3038 6.40693E+01 7.11561E+01 5.45455E+00
 -1      3039 6.40693E+01 7.11561E+01 6.36364E+00
 -1      3040 6.40693E+01 7.11561E+01 7.27273E+00
 -1      3041 6.40693E+01 7.11561E+01 8.18182E+00
 -1      3042 6.40693E+01 7.11561E+01 9.09091E+00
 -1      3043 6.02574E+01 7.44117E+01 9.09091E-01
 -1      3044 6.02574E+01 7.44117E+01 1.81818E+00
 -1      3045 6.02574E+01 7.44117E+01 2.72727E+00
 -1      3046 6.02574E+01 7.44117E+01 3.63636E+00
 -1      3047 6.02574E+01 7.44117E+01 4.54545E+00
 -1      3048 6.02574E+01 7.44117E+01 5.45455E+00
 -1      3049 6.02574E+01 7.44117E+01 6.36364E+00
 -1      3050 6.02574E+01 7.44117E+01 7.27273E+00
 -1      3051 6.02574E+01 7.44117E+01 8.18182E+00
 -1      3052 6.02574E+01 7.44117E+01 9.09091E+00
 -1      3053 5.62804E+01 7.74634E+01 9.09091E-01
 -1      3054 5.62804E+01 7.74634E+01 1.81818E+00
 -1      3055 5.62804E+01 7.74634E+01 2.72727E+00
 -1      3056 5.62804E+01 7.74634E+01 3.63636E+00
 -1      3057 5.62804E+01 7.74634E+01 4.54545E+00
 -1      3058 5.62804E+01 7.74634E+01 5.45455E+00
 -1      3059 5.62804E+01 7.74634E+01 6.36364E+00
 -1      3060 5.62804E+01 7.74634E+01 7.27273E+00
 -1      3061 5.62804E+01 7.74634E+01 8.18182E+00
 -1      3062 5.62804E+01 7.74634E+01 9.09091E+00
 -1      3063 5.21492E+01 8.03027E+01 9.09091E-01
 -1      3064 5.21492E+01 8.03027E+01 1.81818E+00
 -1      3065 5.21492E+01 8.03027E+01 2.72727E+00
 -1      3066 5.21492E+01 8.03027E+01 3.63636E+00
 -1      3067 5.21492E+01 8.03027E+01 4.54545E+00
 -1      3068 5.21492E+01 8.03027E+01 5.45455E+00
 -1      3069 5.21492E+01 8.03027E+01 6.36364E+00
 -1      3070 5.21492E+01 8.03027E+01 7.27273E+00
 -1      3071 5.21492E+01 8.03027E+01 8.18182E+00
 -1      3072 5.21492E+01 8.03027E+01 9.09091E+00
 -1      3073 4.78750E+01 8.29219E+01 9.09091E-01
 -1      3074 4.78750E+01 8.29219E+01 1.81818E+00
 -1      3075 4.78750E+01 8.29219E+01 2.72727E+00
 -1      3076 4.78750E+01 8.29219E+01 3.63636E+00
 -1      3077 4.78750E+01 8.29219E+01 4.54545E+00
 -1      3078 4.78750E+01 8.29219E+01 5.45455E+00
 -1      3079 4.78750E+01 8.29219E+01 6.36364E+00
 -1      3080 4.78750E+01 8.29219E+01 7.27273E+00
 -1      3081 4.78750E+01 8.29219E+01 8.18182E+00
 -1      3082 4.78750E+01 8.29219E+01 9.09091E+00
 -1      3083 4.34696E+01 8.53139E+01 9.09091E-01
 -1      3084 4.34696E+01 8.53139E+01 1.81818E+00
 -1      3085 4.34696E+01 8.53139E+01 2.72727E+00
 -1      3086 4.34696E+01 8.53139E+01 3.63636E+00
 -1      3087 4.34696E+01 8.53139E+01 4.54545E+00
 -1      3088 4.34696E+01 8.53139E+01 5.45455E+00
 -1      3089 4.34696E+01 8.53139E+01 6.36364E+00
 -1      3090 4.34696E+01 8.53139E+01 7.27273E+00
 -1      3091 4.34696E+01 8.53139E+01 8.18182E+00
 -1      3092 4.34696E+01 8.53139E+01 9.09091E+00
 -1      3093 3.89450E+01 8.74720E+01 9.09091E-01
 -1      3094 3.89450E+01 8.74720E+01 1.81818E+00
 -1      3095 3.89450E+01 8.74720E+01 2.72727E+00
 -1      3096 3.89450E+01 8.74720E+01 3.63636E+00
 -1      3097 3.89450E+01 8.74720E+01 4.54545E+00
 -1      3098 3.89450E+01 8.74720E+01 5.45455E+00
 -1      3099 3.89450E+01 8.74720E+01 6.36364E+00
 -1      3100 3.89450E+01 8.74720E+01 7.27273E+00
 -1      3101 3.89450E+01 8.74720E+01 8.18182E+00
 -1      3102 3.89450E+01 8.74720E+01 9.09091E+00
 -1      3103 3.43137E+01 8.93903E+01 9.09091E-01
 -1      3104 3.43137E+01 8.93903E+01 1.81818E+00
 -1      3105 3.43137E+01 8.93903E+01 2.72727E+00
 -1      3106 3.43137E+01 8.93903E+01 3.63636E+00
 -1      3107 3.43137E+01 8.93903E+01 4.54545E+00
 -1      3108 3.43137E+01 8.93903E+01 5.45455E+00
 -1      3109 3.43137E+01 8.93903E+01 6.36364E+00
 -1      3110 3.43137E+01 8.93903E+01 7.27273E+00
 -1      3111 3.43137E+01 8.93903E+01 8.18182E+00
 -1      3112 3.43137E+01 8.93903E+01 9.09091E+00
 -1      3113 2.95884E+01 9.10637E+01 9.09091E-01
 -1      3114 2.95884E+01 9.10637E+01 1.81818E+00
 -1      3115 2.95884E+01 9.10637E+01 2.72727E+00
 -1      3116 2.95884E+01 9.10637E+01 3.63636E+00
 -1      3117 2.95884E+01 9.10637E+01 4.54545E+00
 -1      3118 2.95884E+01 9.10637E+01 5.45455E+00
 -1      3119 2.95884E+01 9.10637E+01 6.36364E+00
 -1      3120 2.95884E+01 9.10637E+01 7.27273E+00
 -1      3121 2.95884E+01 9.10637E+01 8.18182E+00
 -1      3122 2.95884E+01 9.10637E+01 9.09091E+00
 -1      3123 2.47819E+01 9.24874E+01 9.09091E-01
 -1      3124 2.47819E+01 9.24874E+01 1.81818E+00
 -1      3125 2.47819E+01 9.24874E+01 2.72727E+00
 -1      3126 2.47819E+01 9.24874E+01 3.63636E+00
 -1      3127 2.47819E+01 9.24874E+01 4.54545E+00
 -1      3128 2.47819E+01 9.24874E+01 5.45455E+00
 -1      3129 2.47819E+01 9.24874E+01 6.36364E+00
 -1      3130 2.47819E+01 9.24874E+01 7.27273E+00
 -1      3131 2.47819E+01 9.24874E+01 8.18182E+00
 -1      3132 2.47819E+01 9.24874E+01 9.09091E+00
 -1      3133 1.99075E+01 9.36576E+01 9.09091E-01
 -1      3134 1.99075E+01 9.36576E+01 1.81818E+00
 -1      3135 1.99075E+01 9.36576E+01 2.72727E+00
 -1      3136 1.99075E+01 9.36576E+01 3.63636E+00
 -1      3137 1.99075E+01 9.36576E+01 4.54545E+00
 -1      3138 1.99075E+01 9.36576E+01 5.45455E+00
 -1      3139 1.99075E+01 9.36576E+01 6.36364E+00
 -1      3140 1.99075E+01 9.36576E+01 7.27273E+00
 -1      3141 1.99075E+01 9.36576E+01 8.18182E+00
 -1      3142 1.99075E+01 9.36576E+01 9.09091E+00
 -1      3143 1.49786E+01 9.45712E+01 9.09091E-01
 -1      3144 1.49786E+01 9.45712E+01 1.81818E+00
 -1      3145 1.49786E+01 9.45712E+01 2.72727E+00
 -1      3146 1.49786E+01 9.45712E+01 3.63636E+00
 -1      3147 1.49786E+01 9.45712E+01 4.54545E+00
 -1      3148 1.49786E+01 9.45712E+01 5.45455E+00
 -1      3149 1.49786E+01 9.45712E+01 6.36364E+00
 -1      3150 1.49786E+01 9.45712E+01 7.27273E+00
 -1      3151 1.49786E+01 9.45712E+01 8.18182E+00
 -1      3152 1.49786E+01 9.45712E+01 9.09091E+00
 -1      3153 1.00086E+01 9.52255E+01 9.09091E-01
 -1      3154 1.00086E+01 9.52255E+01 1.81818E+00
 -1      3155 1.00086E+01 9.52255E+01 2.72727E+00
 -1      3156 1.00086E+01 9.52255E+01 3.63636E+00
 -1      3157 1.00086E+01 9.52255E+01 4.54545E+00
 -1      3158 1.00086E+01 9.52255E+01 5.45455E+00
 -1      3159 1.00086E+01 9.52255E+01 6.36364E+00
 -1      3160 1.00086E+01 9.52255E+01 7.27273E+00
 -1      3161 1.00086E+01 9.52255E+01 8.18182E+00
 -1      3162 1.00086E+01 9.52255E+01 9.09091E+00
 -1      3163 5.01117E+00 9.56188E+01 9.09091E-01
 -1      3164 5.01117E+00 9.56188E+01 1.81818E+00
 -1      3165 5.01117E+00 9.56188E+01 2.72727E+00
 -1      3166 5.01117E+00 9.56188E+01 3.63636E+00
 -1      3167 5.01117E+00 9.56188E+01 4.54545E+00
 -1      3168 5.01117E+00 9.56188E+01 5.45455E+00
 -1      3169 5.01117E+00 9.56188E+01 6.36364E+00
 -1      3170 5.01117E+00 9.56188E+01 7.27273E+00
 -1      3171 5.01117E+00 9.56188E+01 8.18182E+00
 -1      3172 5.01117E+00 9.56188E+01 9.09091E+00
 -1      3173 9.58684E+01 5.02425E+00 9.09091E-01
 -1      3174 9.58684E+01 5.02425E+00 1.81818E+00
 -1      3175 9.58684E+01 5.02425E+00 2.72727E+00
 -1      3176 9.58684E+01 5.02425E+00 3.63636E+00
 -1      3177 9.58684E+01 5.02425E+00 4.54545E+00
 -1      3178 9.58684E+01 5.02425E+00 5.45455E+00
 -1      3179 9.58684E+01 5.02425E+00 6.36364E+00
 -1      3180 9.58684E+01 5.02425E+00 7.27273E+00
 -1      3181 9.58684E+01 5.02425E+00 8.18182E+00
 -1      3182 9.58684E+01 5.02425E+00 9.09091E+00
 -1      3183 9.54741E+01 1.00347E+01 9.09091E-01
 -1      3184 9.54741E+01 1.00347E+01 1.81818E+00
 -1      3185 9.54741E+01 1.00347E+01 2.72727E+00
 -1      3186 9.54741E+01 1.00347E+01 3.63636E+00
 -1      3187 9.54741E+01 1.00347E+01 4.54545E+00
 -1      3188 9.54741E+01 1.00347E+01 5.45455E+00
 -1      3189 9.54741E+01 1.00347E+01 6.36364E+00
 -1      3190 9.54741E+01 1.00347E+01 7.27273E+00
 -1      3191 9.54741E+01 1.00347E+01 8.18182E+00
 -1      3192 9.54741E+01 1.00347E+01 9.09091E+00
 -1      3193 9.48181E+01 1.50177E+01 9.09091E-01
 -1      3194 9.48181E+01 1.50177E+01 1.81818E+00
 -1      3195 9.48181E+01 1.50177E+01 2.72727E+00
 -1      3196 9.48181E+01 1.50177E+01 3.63636E+00
 -1      3197 9.48181E+01 1.50177E+01 4.54545E+00
 -1      3198 9.48181E+01 1.50177E+01 5.45455E+00
 -1      3199 9.48181E+01 1.50177E+01 6.36364E+00
 -1      3200 9.48181E+01 1.50177E+01 7.27273E+00
 -1      3201 9.48181E+01 1.50177E+01 8.18182E+00
 -1      3202 9.48181E+01 1.50177E+01 9.09091E+00
 -1      3203 9.39022E+01 1.99595E+01 9.09091E-01
 -1      3204 9.39022E+01 1.99595E+01 1.81818E+00
 -1      3205 9.39022E+01 1.99595E+01 2.72727E+00
 -1      3206 9.39022E+01 1.99595E+01 3.63636E+00
 -1      3207 9.39022E+01 1.99595E+01 4.54545E+00
 -1      3208 9.39022E+01 1.99595E+01 5.45455E+00
 -1      3209 9.39022E+01 1.99595E+01 6.36364E+00
 -1      3210 9.39022E+01 1.99595E+01 7.27273E+00
 -1      3211 9.39022E+01 1.99595E+01 8.18182E+00
 -1      3212 9.39022E+01 1.99595E+01 9.09091E+00
 -1      3213 9.27289E+01 2.48466E+01 9.09091E-01
 -1      3214 9.27289E+01 2.48466E+01 1.81818E+00
 -1      3215 9.27289E+01 2.48466E+01 2.72727E+00
 -1      3216 9.27289E+01 2.48466E+01 3.63636E+00
 -1      3217 9.27289E+01 2.48466E+01 4.54545E+00
 -1      3218 9.27289E+01 2.48466E+01 5.45455E+00
 -1      3219 9.27289E+01 2.48466E+01 6.36364E+00
 -1      3220 9.27289E+01 2.48466E+01 7.27273E+00
 -1      3221 9.27289E+01 2.48466E+01 8.18182E+00
 -1      3222 9.27289E+01 2.48466E+01 9.09091E+00
 -1      3223 9.13014E+01 2.96656E+01 9.09091E-01
 -1      3224 9.13014E+01 2.96656E+01 1.81818E+00
 -1      3225 9.13014E+01 2.96656E+01 2.72727E+00
 -1      3226 9.13014E+01 2.96656E+01 3.63636E+00
 -1      3227 9.13014E+01 2.96656E+01 4.54545E+00
 -1      3228 9.13014E+01 2.96656E+01 5.45455E+00
 -1      3229 9.13014E+01 2.96656E+01 6.36364E+00
 -1      3230 9.13014E+01 2.96656E+01 7.27273E+00
 -1      3231 9.13014E+01 2.96656E+01 8.18182E+00
 -1      3232 9.13014E+01 2.96656E+01 9.09091E+00
 -1      3233 8.96237E+01 3.44033E+01 9.09091E-01
 -1      3234 8.96237E+01 3.44033E+01 1.81818E+00
 -1      3235 8.96237E+01 3.44033E+01 2.72727E+00
 -1      3236 8.96237E+01 3.44033E+01 3.63636E+00
 -1      3237 8.96237E+01 3.44033E+01 4.54545E+00
 -1      3238 8.96237E+01 3.44033E+01 5.45455E+00
 -1      3239 8.96237E+01 3.44033E+01 6.36364E+00
 -1      3240 8.96237E+01 3.44033E+01 7.27273E+00
 -1      3241 8.96237E+01 3.44033E+01 8.18182E+00
 -1      3242 8.96237E+01 3.44033E+01 9.09091E+00
 -1      3243 8.77004E+01 3.90467E+01 9.09091E-01
 -1      3244 8.77004E+01 3.90467E+01 1.81818E+00
 -1      3245 8.77004E+01 3.90467E+01 2.72727E+00
 -1      3246 8.77004E+01 3.90467E+01 3.63636E+00
 -1      3247 8.77004E+01 3.90467E+01 4.54545E+00
 -1      3248 8.77004E+01 3.90467E+01 5.45455E+00
 -1      3249 8.77004E+01 3.90467E+01 6.36364E+00
 -1      3250 8.77004E+01 3.90467E+01 7.27273E+00
 -1      3251 8.77004E+01 3.90467E+01 8.18182E+00
 -1      3252 8.77004E+01 3.90467E+01 9.09091E+00
 -1      3253 8.55366E+01 4.35831E+01 9.09091E-01
 -1      3254 8.55366E+01 4.35831E+01 1.81818E+00
 -1      3255 8.55366E+01 4.35831E+01 2.72727E+00
 -1      3256 8.55366E+01 4.35831E+01 3.63636E+00
 -1      3257 8.55366E+01 4.35831E+01 4.54545E+00
 -1      3258 8.55366E+01 4.35831E+01 5.45455E+00
 -1      3259 8.55366E+01 4.35831E+01 6.36364E+00
 -1      3260 8.55366E+01 4.35831E+01 7.27273E+00
 -1      3261 8.55366E+01 4.35831E+01 8.18182E+00
 -1      3262 8.55366E+01 4.35831E+01 9.09091E+00
 -1      3263 8.31384E+01 4.80000E+01 9.09091E-01
 -1      3264 8.31384E+01 4.80000E+01 1.81818E+00
 -1      3265 8.31384E+01 4.80000E+01 2.72727E+00
 -1      3266 8.31384E+01 4.80000E+01 3.63636E+00
 -1      3267 8.31384E+01 4.80000E+01 4.54545E+00
 -1      3268 8.31384E+01 4.80000E+01 5.45455E+00
 -1      3269 8.31384E+01 4.80000E+01 6.36364E+00
 -1      3270 8.31384E+01 4.80000E+01 7.27273E+00
 -1      3271 8.31384E+01 4.80000E+01 8.18182E+00
 -1      3272 8.31384E+01 4.80000E+01 9.09091E+00
 -1      3273 8.05124E+01 5.22853E+01 9.09091E-01
 -1      3274 8.05124E+01 5.22853E+01 1.81818E+00
 -1      3275 8.05124E+01 5.22853E+01 2.72727E+00
 -1      3276 8.05124E+01 5.22853E+01 3.63636E+00
 -1      3277 8.05124E+01 5.22853E+01 4.54545E+00
 -1      3278 8.05124E+01 5.22853E+01 5.45455E+00
 -1      3279 8.05124E+01 5.22853E+01 6.36364E+00
 -1      3280 8.05124E+01 5.22853E+01 7.27273E+00
 -1      3281 8.05124E+01 5.22853E+01 8.18182E+00
 -1      3282 8.05124E+01 5.22853E+01 9.09091E+00
 -1      3283 7.76656E+01 5.64274E+01 9.09091E-01
 -1      3284 7.76656E+01 5.64274E+01 1.81818E+00
 -1      3285 7.76656E+01 5.64274E+01 2.72727E+00
 -1      3286 7.76656E+01 5.64274E+01 3.63636E+00
 -1      3287 7.76656E+01 5.64274E+01 4.54545E+00
 -1      3288 7.76656E+01 5.64274E+01 5.45455E+00
 -1      3289 7.76656E+01 5.64274E+01 6.36364E+00
 -1      3290 7.76656E+01 5.64274E+01 7.27273E+00
 -1      3291 7.76656E+01 5.64274E+01 8.18182E+00
 -1      3292 7.76656E+01 5.64274E+01 9.09091E+00
 -1      3293 7.46060E+01 6.04148E+01 9.09091E-01
 -1      3294 7.46060E+01 6.04148E+01 1.81818E+00
 -1      3295 7.46060E+01 6.04148E+01 2.72727E+00
 -1      3296 7.46060E+01 6.04148E+01 3.63636E+00
 -1      3297 7.46060E+01 6.04148E+01 4.54545E+00
 -1      3298 7.46060E+01 6.04148E+01 5.45455E+00
 -1      3299 7.46060E+01 6.04148E+01 6.36364E+00
 -1      3300 7.46060E+01 6.04148E+01 7.27273E+00
 -1      3301 7.46060E+01 6.04148E+01 8.18182E+00
 -1      3302 7.46060E+01 6.04148E+01 9.09091E+00
 -1      3303 7.13419E+01 6.42365E+01 9.09091E-01
 -1      3304 7.13419E+01 6.42365E+01 1.81818E+00
 -1      3305 7.13419E+01 6.42365E+01 2.72727E+00
 -1      3306 7.13419E+01 6.42365E+01 3.63636E+00
 -1      3307 7.13419E+01 6.42365E+01 4.54545E+00
 -1      3308 7.13419E+01 6.42365E+01 5.45455E+00
 -1      3309 7.13419E+01 6.42365E+01 6.36364E+00
 -1      3310 7.13419E+01 6.42365E+01 7.27273E+00
 -1      3311 7.13419E+01 6.42365E+01 8.18182E+00
 -1      3312 7.13419E+01 6.42365E+01 9.09091E+00
 -1      3313 6.78822E+01 6.78822E+01 9.09091E-01
 -1      3314 6.78822E+01 6.78822E+01 1.81818E+00
 -1      3315 6.78822E+01 6.78822E+01 2.72727E+00
 -1      3316 6.78822E+01 6.78822E+01 3.63636E+00
 -1      3317 6.78822E+01 6.78822E+01 4.54545E+00
 -1      3318 6.78822E+01 6.78822E+01 5.45455E+00
 -1      3319 6.78822E+01 6.78822E+01 6.36364E+00
 -1      3320 6.78822E+01 6.78822E+01 7.27273E+00
 -1      3321 6.78822E+01 6.78822E+01 8.18182E+00
 -1      3322 6.78822E+01 6.78822E+01 9.09091E+00
 -1      3323 6.42365E+01 7.13419E+01 9.09091E-01
 -1      3324 6.42365E+01 7.13419E+01 1.81818E+00
 -1      3325 6.42365E+01 7.13419E+01 2.72727E+00
 -1      3326 6.42365E+01 7.13419E+01 3.63636E+00
 -1      3327 6.42365E+01 7.13419E+01 4.54545E+00
 -1      3328 6.42365E+01 7.13419E+01 5.45455E+00
 -1      3329 6.42365E+01 7.13419E+01 6.36364E+00
 -1      3330 6.42365E+01 7.13419E+01 7.27273E+00
 -1      3331 6.42365E+01 7.13419E+01 8.18182E+00
 -1      3332 6.42365E+01 7.13419E+01 9.09091E+00
 -1      3333 6.04148E+01 7.46060E+01 9.09091E-01
 -1      3334 6.04148E+01 7.46060E+01 1.81818E+00
 -1      3335 6.04148E+01 7.46060E+01 2.72727E+00
 -1      3336 6.04148E+01 7.46060E+01 3.63636E+00
 -1      3337 6.04148E+01 7.46060E+01 4.54545E+00
 -1      3338 6.04148E+01 7.46060E+01 5.45455E+00
 -1      3339 6.04148E+01 7.46060E+01 6.36364E+00
 -1      3340 6.04148E+01 7.46060E+01 7.27273E+00
 -1      3341 6.04148E+01 7.46060E+01 8.18182E+00
 -1      3342 6.04148E+01 7.46060E+01 9.09091E+00
 -1      3343 5.64274E+01 7.76656E+01 9.09091E-01
 -1      3344 5.64274E+01 7.76656E+01 1.81818E+00
 -1      3345 5.64274E+01 7.76656E+01 2.72727E+00
 -1      3346 5.64274E+01 7.76656E+01 3.63636E+00
 -1      3347 5.64274E+01 7.76656E+01 4.54545E+00
 -1      3348 5.64274E+01 7.76656E+01 5.45455E+00
 -1      3349 5.64274E+01 7.76656E+01 6.36364E+00
 -1      3350 5.64274E+01 7.76656E+01 7.27273E+00
 -1      3351 5.64274E+01 7.76656E+01 8.18182E+00
 -1      3352 5.64274E+01 7.76656E+01 9.09091E+00
 -1      3353 5.22853E+01 8.05124E+01 9.09091E-01
 -1      3354 5.22853E+01 8.05124E+01 1.81818E+00
 -1      3355 5.22853E+01 8.05124E+01 2.72727E+00
 -1      3356 5.22853E+01 8.05124E+01 3.63636E+00
 -1      3357 5.22853E+01 8.05124E+01 4.54545E+00
 -1      3358 5.22853E+01 8.05124E+01 5.45455E+00
 -1      3359 5.22853E+01 8.05124E+01 6.36364E+00
 -1      3360 5.22853E+01 8.05124E+01 7.27273E+00
 -1      3361 5.22853E+01 8.05124E+01 8.18182E+00
 -1      3362 5.22853E+01 8.05124E+01 9.09091E+00
 -1      3363 4.80000E+01 8.31384E+01 9.09091E-01
 -1      3364 4.80000E+01 8.31384E+01 1.81818E+00
 -1      3365 4.80000E+01 8.31384E+01 2.72727E+00
 -1      3366 4.80000E+01 8.31384E+01 3.63636E+00
 -1      3367 4.80000E+01 8.31384E+01 4.54545E+00
 -1      3368 4.80000E+01 8.31384E+01 5.45455E+00
 -1      3369 4.80000E+01 8.31384E+01 6.36364E+00
 -1      3370 4.80000E+01 8.31384E+01 7.27273E+00
 -1      3371 4.80000E+01 8.31384E+01 8.18182E+00
 -1      3372 4.80000E+01 8.31384E+01 9.09091E+00
 -1      3373 4.35831E+01 8.55366E+01 9.09091E-01
 -1      3374 4.35831E+01 8.55366E+01 1.81818E+00
 -1      3375 4.35831E+01 8.55366E+01 2.72727E+00
 -1      3376 4.35831E+01 8.55366E+01 3.63636E+00
 -1      3377 4.35831E+01 8.55366E+01 4.54545E+00
 -1      3378 4.35831E+01 8.55366E+01 5.45455E+00
 -1      3379 4.35831E+01 8.55366E+01 6.36364E+00
 -1      3380 4.35831E+01 8.55366E+01 7.27273E+00
 -1      3381 4.35831E+01 8.55366E+01 8.18182E+00
 -1      3382 4.35831E+01 8.55366E+01 9.09091E+00
 -1      3383 3.90467E+01 8.77004E+01 9.09091E-01
 -1      3384 3.90467E+01 8.77004E+01 1.81818E+00
 -1      3385 3.90467E+01 8.77004E+01 2.72727E+00
 -1      3386 3.90467E+01 8.77004E+01 3.63636E+00
 -1      3387 3.90467E+01 8.77004E+01 4.54545E+00
 -1      3388 3.90467E+01 8.77004E+01 5.45455E+00
 -1      3389 3.90467E+01 8.77004E+01 6.36364E+00
 -1      3390 3.90467E+01 8.77004E+01 7.27273E+00
 -1      3391 3.90467E+01 8.77004E+01 8.18182E+00
 -1      3392 3.90467E+01 8.77004E+01 9.09091E+00
 -1      3393 3.44033E+01 8.96237E+01 9.09091E-01
 -1      3394 3.44033E+01 8.96237E+01 1.81818E+00
 -1      3395 3.44033E+01 8.96237E+01 2.72727E+00
 -1      3396 3.44033E+01 8.96237E+01 3.63636E+00
 -1      3397 3.44033E+01 8.96237E+01 4.54545E+00
 -1      3398 3.44033E+01 8.96237E+01 5.45455E+00
 -1      3399 3.44033E+01 8.96237E+01 6.36364E+00
 -1      3400 3.44033E+01 8.96237E+01 7.27273E+00
 -1      3401 3.44033E+01 8.96237E+01 8.18182E+00
 -1      3402 3.44033E+01 8.96237E+01 9.09091E+00
 -1      3403 2.96656E+01 9.13014E+01 9.09091E-01
 -1      3404 2.96656E+01 9.13014E+01 1.81818E+00
 -1      3405 2.96656E+01 9.13014E+01 2.72727E+00
 -1      3406 2.96656E+01 9.13014E+01 3.63636E+00
 -1      3407 2.96656E+01 9.13014E+01 4.54545E+00
 -1      3408 2.96656E+01 9.13014E+01 5.45455E+00
 -1      3409 2.96656E+01 9.13014E+01 6.36364E+00
 -1      3410 2.96656E+01 9.13014E+01 7.27273E+00
 -1      3411 2.96656E+01 9.13014E+01 8.18182E+00
 -1      3412 2.96656E+01 9.13014E+01 9.09091E+00
 -1      3413 2.48466E+01 9.27289E+01 9.09091E-01
 -1      3414 2.48466E+01 9.27289E+01 1.81818E+00
 -1      3415 2.48466E+01 9.27289E+01 2.72727E+00
 -1      3416 2.48466E+01 9.27289E+01 3.63636E+00
 -1      3417 2.48466E+01 9.27289E+01 4.54545E+00
 -1      3418 2.48466E+01 9.27289E+01 5.45455E+00
 -1      3419 2.48466E+01 9.27289E+01 6.36364E+00
 -1      3420 2.48466E+01 9.27289E+01 7.27273E+00
 -1      3421 2.48466E+01 9.27289E+01 8.18182E+00
 -1      3422 2.48466E+01 9.27289E+01 9.09091E+00
 -1      3423 1.99595E+01 9.39022E+01 9.09091E-01
 -1      3424 1.99595E+01 9.39022E+01 1.81818E+00
 -1      3425 1.99595E+01 9.39022E+01 2.72727E+00
 -1      3426 1.99595E+01 9.39022E+01 3.63636E+00
 -1      3427 1.99595E+01 9.39022E+01 4.54545E+00
 -1      3428 1.99595E+01 9.39022E+01 5.45455E+00
 -1      3429 1.99595E+01 9.39022E+01 6.36364E+00
 -1      3430 1.99595E+01 9.39022E+01 7.27273E+00
 -1      3431 1.99595E+01 9.39022E+01 8.18182E+00
 -1      3432 1.99595E+01 9.39022E+01 9.09091E+00
 -1      3433 1.50177E+01 9.48181E+01 9.09091E-01
 -1      3434 1.50177E+01 9.48181E+01 1.81818E+00
 -1      3435 1.50177E+01 9.48181E+01 2.72727E+00
 -1      3436 1.50177E+01 9.48181E+01 3.63636E+00
 -1      3437 1.50177E+01 9.48181E+01 4.54545E+00
 -1      3438 1.50177E+01 9.48181E+01 5.45455E+00
 -1      3439 1.50177E+01 9.48181E+01 6.36364E+00
 -1      3440 1.50177E+01 9.48181E+01 7.27273E+00
 -1      3441 1.50177E+01 9.48181E+01 8.18182E+00
 -1      3442 1.50177E+01 9.48181E+01 9.09091E+00
 -1      3443 1.00347E+01 9.54741E+01 9.09091E-01
 -1      3444 1.00347E+01 9.54741E+01 1.81818E+00
 -1      3445 1.00347E+01 9.54741E+01 2.72727E+00
 -1      3446 1.00347E+01 9.54741E+01 3.63636E+00
 -1      3447 1.00347E+01 9.54741E+01 4.54545E+00
 -1      3448 1.00347E+01 9.54741E+01 5.45455E+00
 -1      3449 1.00347E+01 9.54741E+01 6.36364E+00
 -1      3450 1.00347E+01 9.54741E+01 7.27273E+00
 -1      3451 1.00347E+01 9.54741E+01 8.18182E+00
 -1      3452 1.00347E+01 9.54741E+01 9.09091E+00
 -1      3453 5.02425E+00 9.58684E+01 9.09091E-01
 -1      3454 5.02425E+00 9.58684E+01 1.81818E+00
 -1      3455 5.02425E+00 9.58684E+01 2.72727E+00
 -1      3456 5.02425E+00 9.58684E+01 3.63636E+00
 -1      3457 5.02425E+00 9.58684E+01 4.54545E+00
 -1      3458 5.02425E+00 9.58684E+01 5.45455E+00
 -1      3459 5.02425E+00 9.58684E+01 6.36364E+00
 -1      3460 5.02425E+00 9.58684E+01 7.27273E+00
 -1      3461 5.02425E+00 9.58684E+01 8.18182E+00
 -1      3462 5.02425E+00 9.58684E+01 9.09091E+00
 -1      3463 9.61181E+01 5.03734E+00 9.09091E-01
 -1      3464 9.61181E+01 5.03734E+00 1.81818E+00
 -1      3465 9.61181E+01 5.03734E+00 2.72727E+00
 -1      3466 9.61181E+01 5.03734E+00 3.63636E+00
 -1      3467 9.61181E+01 5.03734E+00 4.54545E+00
 -1      3468 9.61181E+01 5.03734E+00 5.45455E+00
 -1      3469 9.61181E+01 5.03734E+00 6.36364E+00
 -1      3470 9.61181E+01 5.03734E+00 7.27273E+00
 -1      3471 9.61181E+01 5.03734E+00 8.18182E+00
 -1      3472 9.61181E+01 5.03734E+00 9.09091E+00
 -1      3473 9.57227E+01 1.00609E+01 9.09091E-01
 -1      3474 9.57227E+01 1.00609E+01 1.81818E+00
 -1      3475 9.57227E+01 1.00609E+01 2.72727E+00
 -1      3476 9.57227E+01 1.00609E+01 3.63636E+00
 -1      3477 9.57227E+01 1.00609E+01 4.54545E+00
 -1      3478 9.57227E+01 1.00609E+01 5.45455E+00
 -1      3479 9.57227E+01 1.00609E+01 6.36364E+00
 -1      3480 9.57227E+01 1.00609E+01 7.27273E+00
 -1      3481 9.57227E+01 1.00609E+01 8.18182E+00
 -1      3482 9.57227E+01 1.00609E+01 9.09091E+00
 -1      3483 9.50650E+01 1.50568E+01 9.09091E-01
 -1      3484 9.50650E+01 1.50568E+01 1.81818E+00
 -1      3485 9.50650E+01 1.50568E+01 2.72727E+00
 -1      3486 9.50650E+01 1.50568E+01 3.63636E+00
 -1      3487 9.50650E+01 1.50568E+01 4.54545E+00
 -1      3488 9.50650E+01 1.50568E+01 5.45455E+00
 -1      3489 9.50650E+01 1.50568E+01 6.36364E+00
 -1      3490 9.50650E+01 1.50568E+01 7.27273E+00
 -1      3491 9.50650E+01 1.50568E+01 8.18182E+00
 -1      3492 9.50650E+01 1.50568E+01 9.09091E+00
 -1      3493 9.41467E+01 2.00115E+01 9.09091E-01
 -1      3494 9.41467E+01 2.00115E+01 1.81818E+00
 -1      3495 9.41467E+01 2.00115E+01 2.72727E+00
 -1      3496 9.41467E+01 2.00115E+01 3.63636E+00
 -1      3497 9.41467E+01 2.00115E+01 4.54545E+00
 -1      3498 9.41467E+01 2.00115E+01 5.45455E+00
 -1      3499 9.41467E+01 2.00115E+01 6.36364E+00
 -1      3500 9.41467E+01 2.00115E+01 7.27273E+00
 -1      3501 9.41467E+01 2.00115E+01 8.18182E+00
 -1      3502 9.41467E+01 2.00115E+01 9.09091E+00
 -1      3503 9.29704E+01 2.49113E+01 9.09091E-01
 -1      3504 9.29704E+01 2.49113E+01 1.81818E+00
 -1      3505 9.29704E+01 2.49113E+01 2.72727E+00
 -1      3506 9.29704E+01 2.49113E+01 3.63636E+00
 -1      3507 9.29704E+01 2.49113E+01 4.54545E+00
 -1      3508 9.29704E+01 2.49113E+01 5.45455E+00
 -1      3509 9.29704E+01 2.49113E+01 6.36364E+00
 -1      3510 9.29704E+01 2.49113E+01 7.27273E+00
 -1      3511 9.29704E+01 2.49113E+01 8.18182E+00
 -1      3512 9.29704E+01 2.49113E+01 9.09091E+00
 -1      3513 9.15392E+01 2.97429E+01 9.09091E-01
 -1      3514 9.15392E+01 2.97429E+01 1.81818E+00
 -1      3515 9.15392E+01 2.97429E+01 2.72727E+00
 -1      3516 9.15392E+01 2.97429E+01 3.63636E+00
 -1      3517 9.15392E+01 2.97429E+01 4.54545E+00
 -1      3518 9.15392E+01 2.97429E+01 5.45455E+00
 -1      3519 9.15392E+01 2.97429E+01 6.36364E+00
 -1      3520 9.15392E+01 2.97429E+01 7.27273E+00
 -1      3521 9.15392E+01 2.97429E+01 8.18182E+00
 -1      3522 9.15392E+01 2.97429E+01 9.09091E+00
 -1      3523 8.98571E+01 3.44929E+01 9.09091E-01
 -1      3524 8.98571E+01 3.44929E+01 1.81818E+00
 -1      3525 8.98571E+01 3.44929E+01 2.72727E+00
 -1      3526 8.98571E+01 3.44929E+01 3.63636E+00
 -1      3527 8.98571E+01 3.44929E+01 4.54545E+00
 -1      3528 8.98571E+01 3.44929E+01 5.45455E+00
 -1      3529 8.98571E+01 3.44929E+01 6.36364E+00
 -1      3530 8.98571E+01 3.44929E+01 7.27273E+00
 -1      3531 8.98571E+01 3.44929E+01 8.18182E+00
 -1      3532 8.98571E+01 3.44929E+01 9.09091E+00
 -1      3533 8.79287E+01 3.91484E+01 9.09091E-01
 -1      3534 8.79287E+01 3.91484E+01 1.81818E+00
 -1      3535 8.79287E+01 3.91484E+01 2.72727E+00
 -1      3536 8.79287E+01 3.91484E+01 3.63636E+00
 -1      3537 8.79287E+01 3.91484E+01 4.54545E+00
 -1      3538 8.79287E+01 3.91484E+01 5.45455E+00
 -1      3539 8.79287E+01 3.91484E+01 6.36364E+00
 -1      3540 8.79287E+01 3.91484E+01 7.27273E+00
 -1      3541 8.79287E+01 3.91484E+01 8.18182E+00
 -1      3542 8.79287E+01 3.91484E+01 9.09091E+00
 -1      3543 8.57594E+01 4.36966E+01 9.09091E-01
 -1      3544 8.57594E+01 4.36966E+01 1.81818E+00
 -1      3545 8.57594E+01 4.36966E+01 2.72727E+00
 -1      3546 8.57594E+01 4.36966E+01 3.63636E+00
 -1      3547 8.57594E+01 4.36966E+01 4.54545E+00
 -1      3548 8.57594E+01 4.36966E+01 5.45455E+00
 -1      3549 8.57594E+01 4.36966E+01 6.36364E+00
 -1      3550 8.57594E+01 4.36966E+01 7.27273E+00
 -1      3551 8.57594E+01 4.36966E+01 8.18182E+00
 -1      3552 8.57594E+01 4.36966E+01 9.09091E+00
 -1      3553 8.33549E+01 4.81250E+01 9.09091E-01
 -1      3554 8.33549E+01 4.81250E+01 1.81818E+00
 -1      3555 8.33549E+01 4.81250E+01 2.72727E+00
 -1      3556 8.33549E+01 4.81250E+01 3.63636E+00
 -1      3557 8.33549E+01 4.81250E+01 4.54545E+00
 -1      3558 8.33549E+01 4.81250E+01 5.45455E+00
 -1      3559 8.33549E+01 4.81250E+01 6.36364E+00
 -1      3560 8.33549E+01 4.81250E+01 7.27273E+00
 -1      3561 8.33549E+01 4.81250E+01 8.18182E+00
 -1      3562 8.33549E+01 4.81250E+01 9.09091E+00
 -1      3563 8.07220E+01 5.24215E+01 9.09091E-01
 -1      3564 8.07220E+01 5.24215E+01 1.81818E+00
 -1      3565 8.07220E+01 5.24215E+01 2.72727E+00
 -1      3566 8.07220E+01 5.24215E+01 3.63636E+00
 -1      3567 8.07220E+01 5.24215E+01 4.54545E+00
 -1      3568 8.07220E+01 5.24215E+01 5.45455E+00
 -1      3569 8.07220E+01 5.24215E+01 6.36364E+00
 -1      3570 8.07220E+01 5.24215E+01 7.27273E+00
 -1      3571 8.07220E+01 5.24215E+01 8.18182E+00
 -1      3572 8.07220E+01 5.24215E+01 9.09091E+00
 -1      3573 7.78679E+01 5.65743E+01 9.09091E-01
 -1      3574 7.78679E+01 5.65743E+01 1.81818E+00
 -1      3575 7.78679E+01 5.65743E+01 2.72727E+00
 -1      3576 7.78679E+01 5.65743E+01 3.63636E+00
 -1      3577 7.78679E+01 5.65743E+01 4.54545E+00
 -1      3578 7.78679E+01 5.65743E+01 5.45455E+00
 -1      3579 7.78679E+01 5.65743E+01 6.36364E+00
 -1      3580 7.78679E+01 5.65743E+01 7.27273E+00
 -1      3581 7.78679E+01 5.65743E+01 8.18182E+00
 -1      3582 7.78679E+01 5.65743E+01 9.09091E+00
 -1      3583 7.48003E+01 6.05721E+01 9.09091E-01
 -1      3584 7.48003E+01 6.05721E+01 1.81818E+00
 -1      3585 7.48003E+01 6.05721E+01 2.72727E+00
 -1      3586 7.48003E+01 6.05721E+01 3.63636E+00
 -1      3587 7.48003E+01 6.05721E+01 4.54545E+00
 -1      3588 7.48003E+01 6.05721E+01 5.45455E+00
 -1      3589 7.48003E+01 6.05721E+01 6.36364E+00
 -1      3590 7.48003E+01 6.05721E+01 7.27273E+00
 -1      3591 7.48003E+01 6.05721E+01 8.18182E+00
 -1      3592 7.48003E+01 6.05721E+01 9.09091E+00
 -1      3593 7.15277E+01 6.44038E+01 9.09091E-01
 -1      3594 7.15277E+01 6.44038E+01 1.81818E+00
 -1      3595 7.15277E+01 6.44038E+01 2.72727E+00
 -1      3596 7.15277E+01 6.44038E+01 3.63636E+00
 -1      3597 7.15277E+01 6.44038E+01 4.54545E+00
 -1      3598 7.15277E+01 6.44038E+01 5.45455E+00
 -1      3599 7.15277E+01 6.44038E+01 6.36364E+00
 -1      3600 7.15277E+01 6.44038E+01 7.27273E+00
 -1      3601 7.15277E+01 6.44038E+01 8.18182E+00
 -1      3602 7.15277E+01 6.44038E+01 9.09091E+00
 -1      3603 6.80590E+01 6.80590E+01 9.09091E-01
 -1      3604 6.80590E+01 6.80590E+01 1.81818E+00
 -1      3605 6.80590E+01 6.80590E+01 2.72727E+00
 -1      3606 6.80590E+01 6.80590E+01 3.63636E+00
 -1      3607 6.80590E+01 6.80590E+01 4.54545E+00
 -1      3608 6.80590E+01 6.80590E+01 5.45455E+00
 -1      3609 6.80590E+01 6.80590E+01 6.36364E+00
 -1      3610 6.80590E+01 6.80590E+01 7.27273E+00
 -1      3611 6.80590E+01 6.80590E+01 8.18182E+00
 -1      3612 6.80590E+01 6.80590E+01 9.09091E+00
 -1      3613 6.44038E+01 7.15277E+01 9.09091E-01
 -1      3614 6.44038E+01 7.15277E+01 1.81818E+00
 -1      3615 6.44038E+01 7.15277E+01 2.72727E+00
 -1      3616 6.44038E+01 7.15277E+01 3.63636E+00
 -1      3617 6.44038E+01 7.15277E+01 4.54545E+00
 -1      3618 6.44038E+01 7.15277E+01 5.45455E+00
 -1      3619 6.44038E+01 7.15277E+01 6.36364E+00
 -1      3620 6.44038E+01 7.15277E+01 7.27273E+00
 -1      3621 6.44038E+01 7.15277E+01 8.18182E+00
 -1      3622 6.44038E+01 7.15277E+01 9.09091E+00
 -1      3623 6.05721E+01 7.48003E+01 9.09091E-01
 -1      3624 6.05721E+01 7.48003E+01 1.81818E+00
 -1      3625 6.05721E+01 7.48003E+01 2.72727E+00
 -1      3626 6.05721E+01 7.48003E+01 3.63636E+00
 -1      3627 6.05721E+01 7.48003E+01 4.54545E+00
 -1      3628 6.05721E+01 7.48003E+01 5.45455E+00
 -1      3629 6.05721E+01 7.48003E+01 6.36364E+00
 -1      3630 6.05721E+01 7.48003E+01 7.27273E+00
 -1      3631 6.05721E+01 7.48003E+01 8.18182E+00
 -1      3632 6.05721E+01 7.48003E+01 9.09091E+00
 -1      3633 5.65743E+01 7.78679E+01 9.09091E-01
 -1      3634 5.65743E+01 7.78679E+01 1.81818E+00
 -1      3635 5.65743E+01 7.78679E+01 2.72727E+00
 -1      3636 5.65743E+01 7.78679E+01 3.63636E+00
 -1      3637 5.65743E+01 7.78679E+01 4.54545E+00
 -1      3638 5.65743E+01 7.78679E+01 5.45455E+00
 -1      3639 5.65743E+01 7.78679E+01 6.36364E+00
 -1      3640 5.65743E+01 7.78679E+01 7.27273E+00
 -1      3641 5.65743E+01 7.78679E+01 8.18182E+00
 -1      3642 5.65743E+01 7.78679E+01 9.09091E+00
 -1      3643 5.24215E+01 8.07220E+01 9.09091E-01
 -1      3644 5.24215E+01 8.07220E+01 1.81818E+00
 -1      3645 5.24215E+01 8.07220E+01 2.72727E+00
 -1      3646 5.24215E+01 8.07220E+01 3.63636E+00
 -1      3647 5.24215E+01 8.07220E+01 4.54545E+00
 -1      3648 5.24215E+01 8.07220E+01 5.45455E+00
 -1      3649 5.24215E+01 8.07220E+01 6.36364E+00
 -1      3650 5.24215E+01 8.07220E+01 7.27273E+00
 -1      3651 5.24215E+01 8.07220E+01 8.18182E+00
 -1      3652 5.24215E+01 8.07220E+01 9.09091E+00
 -1      3653 4.81250E+01 8.33549E+01 9.09091E-01
 -1      3654 4.81250E+01 8.33549E+01 1.81818E+00
 -1      3655 4.81250E+01 8.33549E+01 2.72727E+00
 -1      3656 4.81250E+01 8.33549E+01 3.63636E+00
 -1      3657 4.81250E+01 8.33549E+01 4.54545E+00
 -1      3658 4.81250E+01 8.33549E+01 5.45455E+00
 -1      3659 4.81250E+01 8.33549E+01 6.36364E+00
 -1      3660 4.81250E+01 8.33549E+01 7.27273E+00
 -1      3661 4.81250E+01 8.33549E+01 8.18182E+00
 -1      3662 4.81250E+01 8.33549E+01 9.09091E+00
 -1      3663 4.36966E+01 8.57594E+01 9.09091E-01
 -1      3664 4.36966E+01 8.57594E+01 1.81818E+00
 -1      3665 4.36966E+01 8.57594E+01 2.72727E+00
 -1      3666 4.36966E+01 8.57594E+01 3.63636E+00
 -1      3667 4.36966E+01 8.57594E+01 4.54545E+00
 -1      3668 4.36966E+01 8.57594E+01 5.45455E+00
 -1      3669 4.36966E+01 8.57594E+01 6.36364E+00
 -1      3670 4.36966E+01 8.57594E+01 7.27273E+00
 -1      3671 4.36966E+01 8.57594E+01 8.18182E+00
 -1      3672 4.36966E+01 8.57594E+01 9.09091E+00
 -1      3673 3.91484E+01 8.79287E+01 9.09091E-01
 -1      3674 3.91484E+01 8.79287E+01 1.81818E+00
 -1      3675 3.91484E+01 8.79287E+01 2.72727E+00
 -1      3676 3.91484E+01 8.79287E+01 3.63636E+00
 -1      3677 3.91484E+01 8.79287E+01 4.54545E+00
 -1      3678 3.91484E+01 8.79287E+01 5.45455E+00
 -1      3679 3.91484E+01 8.79287E+01 6.36364E+00
 -1      3680 3.91484E+01 8.79287E+01 7.27273E+00
 -1      3681 3.91484E+01 8.79287E+01 8.18182E+00
 -1      3682 3.91484E+01 8.79287E+01 9.09091E+00
 -1      3683 3.44929E+01 8.98571E+01 9.09091E-01
 -1      3684 3.44929E+01 8.98571E+01 1.81818E+00
 -1      3685 3.44929E+01 8.98571E+01 2.72727E+00
 -1      3686 3.44929E+01 8.98571E+01 3.63636E+00
 -1      3687 3.44929E+01 8.98571E+01 4.54545E+00
 -1      3688 3.44929E+01 8.98571E+01 5.45455E+00
 -1      3689 3.44929E+01 8.98571E+01 6.36364E+00
 -1      3690 3.44929E+01 8.98571E+01 7.27273E+00
 -1      3691 3.44929E+01 8.98571E+01 8.18182E+00
 -1      3692 3.44929E+01 8.98571E+01 9.09091E+00
 -1      3693 2.97429E+01 9.15392E+01 9.09091E-01
 -1      3694 2.97429E+01 9.15392E+01 1.81818E+00
 -1      3695 2.97429E+01 9.15392E+01 2.72727E+00
 -1      3696 2.97429E+01 9.15392E+01 3.63636E+00
 -1      3697 2.97429E+01 9.15392E+01 4.54545E+00
 -1      3698 2.97429E+01 9.15392E+01 5.45455E+00
 -1      3699 2.97429E+01 9.15392E+01 6.36364E+00
 -1      3700 2.97429E+01 9.15392E+01 7.27273E+00
 -1      3701 2.97429E+01 9.15392E+01 8.18182E+00
 -1      3702 2.97429E+01 9.15392E+01 9.09091E+00
 -1      3703 2.49113E+01 9.29704E+01 9.09091E-01
 -1      3704 2.49113E+01 9.29704E+01 1.81818E+00
 -1      3705 2.49113E+01 9.29704E+01 2.72727E+00
 -1      3706 2.49113E+01 9.29704E+01 3.63636E+00
 -1      3707 2.49113E+01 9.29704E+01 4.54545E+00
 -1      3708 2.49113E+01 9.29704E+01 5.45455E+00
 -1      3709 2.49113E+01 9.29704E+01 6.36364E+00
 -1      3710 2.49113E+01 9.29704E+01 7.27273E+00
 -1      3711 2.49113E+01 9.29704E+01 8.18182E+00
 -1      3712 2.49113E+01 9.29704E+01 9.09091E+00
 -1      3713 2.00115E+01 9.41467E+01 9.09091E-01
 -1      3714 2.00115E+01 9.41467E+01 1.81818E+00
 -1      3715 2.00115E+01 9.41467E+01 2.72727E+00
 -1      3716 2.00115E+01 9.41467E+01 3.63636E+00
 -1      3717 2.00115E+01 9.41467E+01 4.54545E+00
 -1      3718 2.00115E+01 9.41467E+01 5.45455E+00
 -1      3719 2.00115E+01 9.41467E+01 6.36364E+00
 -1      3720 2.00115E+01 9.41467E+01 7.27273E+00
 -1      3721 2.00115E+01 9.41467E+01 8.18182E+00
 -1      3722 2.00115E+01 9.41467E+01 9.09091E+00
 -1      3723 1.50568E+01 9.50650E+01 9.09091E-01
 -1      3724 1.50568E+01 9.50650E+01 1.81818E+00
 -1      3725 1.50568E+01 9.50650E+01 2.72727E+00
 -1      3726 1.50568E+01 9.50650E+01 3.63636E+00
 -1      3727 1.50568E+01 9.50650E+01 4.54545E+00
 -1      3728 1.50568E+01 9.50650E+01 5.45455E+00
 -1      3729 1.50568E+01 9.50650E+01 6.36364E+00
 -1      3730 1.50568E+01 9.50650E+01 7.27273E+00
 -1      3731 1.50568E+01 9.50650E+01 8.18182E+00
 -1      3732 1.50568E+01 9.50650E+01 9.09091E+00
 -1      3733 1.00609E+01 9.57227E+01 9.09091E-01
 -1      3734 1.00609E+01 9.57227E+01 1.81818E+00
 -1      3735 1.00609E+01 9.57227E+01 2.72727E+00
 -1      3736 1.00609E+01 9.57227E+01 3.63636E+00
 -1      3737 1.00609E+01 9.57227E+01 4.54545E+00
 -1      3738 1.00609E+01 9.57227E+01 5.45455E+00
 -1      3739 1.00609E+01 9.57227E+01 6.36364E+00
 -1      3740 1.00609E+01 9.57227E+01 7.27273E+00
 -1      3741 1.00609E+01 9.57227E+01 8.18182E+00
 -1      3742 1.00609E+01 9.57227E+01 9.09091E+00
 -1      3743 5.03734E+00 9.61181E+01 9.09091E-01
 -1      3744 5.03734E+00 9.61181E+01 1.81818E+00
 -1      3745 5.03734E+00 9.61181E+01 2.72727E+00
 -1      3746 5.03734E+00 9.61181E+01 3.63636E+00
 -1      3747 5.03734E+00 9.61181E+01 4.54545E+00
 -1      3748 5.03734E+00 9.61181E+01 5.45455E+00
 -1      3749 5.03734E+00 9.61181E+01 6.36364E+00
 -1      3750 5.03734E+00 9.61181E+01 7.27273E+00
 -1      3751 5.03734E+00 9.61181E+01 8.18182E+00
 -1      3752 5.03734E+00 9.61181E+01 9.09091E+00
 -1      3753 9.63678E+01 5.05042E+00 9.09091E-01
 -1      3754 9.63678E+01 5.05042E+00 1.81818E+00
 -1      3755 9.63678E+01 5.05042E+00 2.72727E+00
 -1      3756 9.63678E+01 5.05042E+00 3.63636E+00
 -1      3757 9.63678E+01 5.05042E+00 4.54545E+00
 -1      3758 9.63678E+01 5.05042E+00 5.45455E+00
 -1      3759 9.63678E+01 5.05042E+00 6.36364E+00
 -1      3760 9.63678E+01 5.05042E+00 7.27273E+00
 -1      3761 9.63678E+01 5.05042E+00 8.18182E+00
 -1      3762 9.63678E+01 5.05042E+00 9.09091E+00
 -1      3763 9.59714E+01 1.00870E+01 9.09091E-01
 -1      3764 9.59714E+01 1.00870E+01 1.81818E+00
 -1      3765 9.59714E+01 1.00870E+01 2.72727E+00
 -1      3766 9.59714E+01 1.00870E+01 3.63636E+00
 -1      3767 9.59714E+01 1.00870E+01 4.54545E+00
 -1      3768 9.59714E+01 1.00870E+01 5.45455E+00
 -1      3769 9.59714E+01 1.00870E+01 6.36364E+00
 -1      3770 9.59714E+01 1.00870E+01 7.27273E+00
 -1      3771 9.59714E+01 1.00870E+01 8.18182E+00
 -1      3772 9.59714E+01 1.00870E+01 9.09091E+00
 -1      3773 9.53119E+01 1.50959E+01 9.09091E-01
 -1      3774 9.53119E+01 1.50959E+01 1.81818E+00
 -1      3775 9.53119E+01 1.50959E+01 2.72727E+00
 -1      3776 9.53119E+01 1.50959E+01 3.63636E+00
 -1      3777 9.53119E+01 1.50959E+01 4.54545E+00
 -1      3778 9.53119E+01 1.50959E+01 5.45455E+00
 -1      3779 9.53119E+01 1.50959E+01 6.36364E+00
 -1      3780 9.53119E+01 1.50959E+01 7.27273E+00
 -1      3781 9.53119E+01 1.50959E+01 8.18182E+00
 -1      3782 9.53119E+01 1.50959E+01 9.09091E+00
 -1      3783 9.43912E+01 2.00635E+01 9.09091E-01
 -1      3784 9.43912E+01 2.00635E+01 1.81818E+00
 -1      3785 9.43912E+01 2.00635E+01 2.72727E+00
 -1      3786 9.43912E+01 2.00635E+01 3.63636E+00
 -1      3787 9.43912E+01 2.00635E+01 4.54545E+00
 -1      3788 9.43912E+01 2.00635E+01 5.45455E+00
 -1      3789 9.43912E+01 2.00635E+01 6.36364E+00
 -1      3790 9.43912E+01 2.00635E+01 7.27273E+00
 -1      3791 9.43912E+01 2.00635E+01 8.18182E+00
 -1      3792 9.43912E+01 2.00635E+01 9.09091E+00
 -1      3793 9.32118E+01 2.49760E+01 9.09091E-01
 -1      3794 9.32118E+01 2.49760E+01 1.81818E+00
 -1      3795 9.32118E+01 2.49760E+01 2.72727E+00
 -1      3796 9.32118E+01 2.49760E+01 3.63636E+00
 -1      3797 9.32118E+01 2.49760E+01 4.54545E+00
 -1      3798 9.32118E+01 2.49760E+01 5.45455E+00
 -1      3799 9.32118E+01 2.49760E+01 6.36364E+00
 -1      3800 9.32118E+01 2.49760E+01 7.27273E+00
 -1      3801 9.32118E+01 2.49760E+01 8.18182E+00
 -1      3802 9.32118E+01 2.49760E+01 9.09091E+00
 -1      3803 9.17770E+01 2.98201E+01 9.09091E-01
 -1      3804 9.17770E+01 2.98201E+01 1.81818E+00
 -1      3805 9.17770E+01 2.98201E+01 2.72727E+00
 -1      3806 9.17770E+01 2.98201E+01 3.63636E+00
 -1      3807 9.17770E+01 2.98201E+01 4.54545E+00
 -1      3808 9.17770E+01 2.98201E+01 5.45455E+00
 -1      3809 9.17770E+01 2.98201E+01 6.36364E+00
 -1      3810 9.17770E+01 2.98201E+01 7.27273E+00
 -1      3811 9.17770E+01 2.98201E+01 8.18182E+00
 -1      3812 9.17770E+01 2.98201E+01 9.09091E+00
 -1      3813 9.00905E+01 3.45825E+01 9.09091E-01
 -1      3814 9.00905E+01 3.45825E+01 1.81818E+00
 -1      3815 9.00905E+01 3.45825E+01 2.72727E+00
 -1      3816 9.00905E+01 3.45825E+01 3.63636E+00
 -1      3817 9.00905E+01 3.45825E+01 4.54545E+00
 -1      3818 9.00905E+01 3.45825E+01 5.45455E+00
 -1      3819 9.00905E+01 3.45825E+01 6.36364E+00
 -1      3820 9.00905E+01 3.45825E+01 7.27273E+00
 -1      3821 9.00905E+01 3.45825E+01 8.18182E+00
 -1      3822 9.00905E+01 3.45825E+01 9.09091E+00
 -1      3823 8.81571E+01 3.92501E+01 9.09091E-01
 -1      3824 8.81571E+01 3.92501E+01 1.81818E+00
 -1      3825 8.81571E+01 3.92501E+01 2.72727E+00
 -1      3826 8.81571E+01 3.92501E+01 3.63636E+00
 -1      3827 8.81571E+01 3.92501E+01 4.54545E+00
 -1      3828 8.81571E+01 3.92501E+01 5.45455E+00
 -1      3829 8.81571E+01 3.92501E+01 6.36364E+00
 -1      3830 8.81571E+01 3.92501E+01 7.27273E+00
 -1      3831 8.81571E+01 3.92501E+01 8.18182E+00
 -1      3832 8.81571E+01 3.92501E+01 9.09091E+00
 -1      3833 8.59821E+01 4.38101E+01 9.09091E-01
 -1      3834 8.59821E+01 4.38101E+01 1.81818E+00
 -1      3835 8.59821E+01 4.38101E+01 2.72727E+00
 -1      3836 8.59821E+01 4.38101E+01 3.63636E+00
 -1      3837 8.59821E+01 4.38101E+01 4.54545E+00
 -1      3838 8.59821E+01 4.38101E+01 5.45455E+00
 -1      3839 8.59821E+01 4.38101E+01 6.36364E+00
 -1      3840 8.59821E+01 4.38101E+01 7.27273E+00
 -1      3841 8.59821E+01 4.38101E+01 8.18182E+00
 -1      3842 8.59821E+01 4.38101E+01 9.09091E+00
 -1      3843 8.35714E+01 4.82500E+01 9.09091E-01
 -1      3844 8.35714E+01 4.82500E+01 1.81818E+00
 -1      3845 8.35714E+01 4.82500E+01 2.72727E+00
 -1      3846 8.35714E+01 4.82500E+01 3.63636E+00
 -1      3847 8.35714E+01 4.82500E+01 4.54545E+00
 -1      3848 8.35714E+01 4.82500E+01 5.45455E+00
 -1      3849 8.35714E+01 4.82500E+01 6.36364E+00
 -1      3850 8.35714E+01 4.82500E+01 7.27273E+00
 -1      3851 8.35714E+01 4.82500E+01 8.18182E+00
 -1      3852 8.35714E+01 4.82500E+01 9.09091E+00
 -1      3853 8.09317E+01 5.25577E+01 9.09091E-01
 -1      3854 8.09317E+01 5.25577E+01 1.81818E+00
 -1      3855 8.09317E+01 5.25577E+01 2.72727E+00
 -1      3856 8.09317E+01 5.25577E+01 3.63636E+00
 -1      3857 8.09317E+01 5.25577E+01 4.54545E+00
 -1      3858 8.09317E+01 5.25577E+01 5.45455E+00
 -1      3859 8.09317E+01 5.25577E+01 6.36364E+00
 -1      3860 8.09317E+01 5.25577E+01 7.27273E+00
 -1      3861 8.09317E+01 5.25577E+01 8.18182E+00
 -1      3862 8.09317E+01 5.25577E+01 9.09091E+00
 -1      3863 7.80701E+01 5.67213E+01 9.09091E-01
 -1      3864 7.80701E+01 5.67213E+01 1.81818E+00
 -1      3865 7.80701E+01 5.67213E+01 2.72727E+00
 -1      3866 7.80701E+01 5.67213E+01 3.63636E+00
 -1      3867 7.80701E+01 5.67213E+01 4.54545E+00
 -1      3868 7.80701E+01 5.67213E+01 5.45455E+00
 -1      3869 7.80701E+01 5.67213E+01 6.36364E+00
 -1      3870 7.80701E+01 5.67213E+01 7.27273E+00
 -1      3871 7.80701E+01 5.67213E+01 8.18182E+00
 -1      3872 7.80701E+01 5.67213E+01 9.09091E+00
 -1      3873 7.49946E+01 6.07294E+01 9.09091E-01
 -1      3874 7.49946E+01 6.07294E+01 1.81818E+00
 -1      3875 7.49946E+01 6.07294E+01 2.72727E+00
 -1      3876 7.49946E+01 6.07294E+01 3.63636E+00
 -1      3877 7.49946E+01 6.07294E+01 4.54545E+00
 -1      3878 7.49946E+01 6.07294E+01 5.45455E+00
 -1      3879 7.49946E+01 6.07294E+01 6.36364E+00
 -1      3880 7.49946E+01 6.07294E+01 7.27273E+00
 -1      3881 7.49946E+01 6.07294E+01 8.18182E+00
 -1      3882 7.49946E+01 6.07294E+01 9.09091E+00
 -1      3883 7.17135E+01 6.45711E+01 9.09091E-01
 -1      3884 7.17135E+01 6.45711E+01 1.81818E+00
 -1      3885 7.17135E+01 6.45711E+01 2.72727E+00
 -1      3886 7.17135E+01 6.45711E+01 3.63636E+00
 -1      3887 7.17135E+01 6.45711E+01 4.54545E+00
 -1      3888 7.17135E+01 6.45711E+01 5.45455E+00
 -1      3889 7.17135E+01 6.45711E+01 6.36364E+00
 -1      3890 7.17135E+01 6.45711E+01 7.27273E+00
 -1      3891 7.17135E+01 6.45711E+01 8.18182E+00
 -1      3892 7.17135E+01 6.45711E+01 9.09091E+00
 -1      3893 6.82358E+01 6.82358E+01 9.09091E-01
 -1      3894 6.82358E+01 6.82358E+01 1.81818E+00
 -1      3895 6.82358E+01 6.82358E+01 2.72727E+00
 -1      3896 6.82358E+01 6.82358E+01 3.63636E+00
 -1      3897 6.82358E+01 6.82358E+01 4.54545E+00
 -1      3898 6.82358E+01 6.82358E+01 5.45455E+00
 -1      3899 6.82358E+01 6.82358E+01 6.36364E+00
 -1      3900 6.82358E+01 6.82358E+01 7.27273E+00
 -1      3901 6.82358E+01 6.82358E+01 8.18182E+00
 -1      3902 6.82358E+01 6.82358E+01 9.09091E+00
 -1      3903 6.45711E+01 7.17135E+01 9.09091E-01
 -1      3904 6.45711E+01 7.17135E+01 1.81818E+00
 -1      3905 6.45711E+01 7.17135E+01 2.72727E+00
 -1      3906 6.45711E+01 7.17135E+01 3.63636E+00
 -1      3907 6.45711E+01 7.17135E+01 4.54545E+00
 -1      3908 6.45711E+01 7.17135E+01 5.45455E+00
 -1      3909 6.45711E+01 7.17135E+01 6.36364E+00
 -1      3910 6.45711E+01 7.17135E+01 7.27273E+00
 -1      3911 6.45711E+01 7.17135E+01 8.18182E+00
 -1      3912 6.45711E+01 7.17135E+01 9.09091E+00
 -1      3913 6.07294E+01 7.49946E+01 9.09091E-01
 -1      3914 6.07294E+01 7.49946E+01 1.81818E+00
 -1      3915 6.07294E+01 7.49946E+01 2.72727E+00
 -1      3916 6.07294E+01 7.49946E+01 3.63636E+00
 -1      3917 6.07294E+01 7.49946E+01 4.54545E+00
 -1      3918 6.07294E+01 7.49946E+01 5.45455E+00
 -1      3919 6.07294E+01 7.49946E+01 6.36364E+00
 -1      3920 6.07294E+01 7.49946E+01 7.27273E+00
 -1      3921 6.07294E+01 7.49946E+01 8.18182E+00
 -1      3922 6.07294E+01 7.49946E+01 9.09091E+00
 -1      3923 5.67213E+01 7.80701E+01 9.09091E-01
 -1      3924 5.67213E+01 7.80701E+01 1.81818E+00
 -1      3925 5.67213E+01 7.80701E+01 2.72727E+00
 -1      3926 5.67213E+01 7.80701E+01 3.63636E+00
 -1      3927 5.67213E+01 7.80701E+01 4.54545E+00
 -1      3928 5.67213E+01 7.80701E+01 5.45455E+00
 -1      3929 5.67213E+01 7.80701E+01 6.36364E+00
 -1      3930 5.67213E+01 7.80701E+01 7.27273E+00
 -1      3931 5.67213E+01 7.80701E+01 8.18182E+00
 -1      3932 5.67213E+01 7.80701E+01 9.09091E+00
 -1      3933 5.25577E+01 8.09317E+01 9.09091E-01
 -1      3934 5.25577E+01 8.09317E+01 1.81818E+00
 -1      3935 5.25577E+01 8.09317E+01 2.72727E+00
 -1      3936 5.25577E+01 8.09317E+01 3.63636E+00
 -1      3937 5.25577E+01 8.09317E+01 4.54545E+00
 -1      3938 5.25577E+01 8.09317E+01 5.45455E+00
 -1      3939 5.25577E+01 8.09317E+01 6.36364E+00
 -1      3940 5.25577E+01 8.09317E+01 7.27273E+00
 -1      3941 5.25577E+01 8.09317E+01 8.18182E+00
 -1      3942 5.25577E+01 8.09317E+01 9.09091E+00
 -1      3943 4.82500E+01 8.35714E+01 9.09091E-01
 -1      3944 4.82500E+01 8.35714E+01 1.81818E+00
 -1      3945 4.82500E+01 8.35714E+01 2.72727E+00
 -1      3946 4.82500E+01 8.35714E+01 3.63636E+00
 -1      3947 4.82500E+01 8.35714E+01 4.54545E+00
 -1      3948 4.82500E+01 8.35714E+01 5.45455E+00
 -1      3949 4.82500E+01 8.35714E+01 6.36364E+00
 -1      3950 4.82500E+01 8.35714E+01 7.27273E+00
 -1      3951 4.82500E+01 8.35714E+01 8.18182E+00
 -1      3952 4.82500E+01 8.35714E+01 9.09091E+00
 -1      3953 4.38101E+01 8.59821E+01 9.09091E-01
 -1      3954 4.38101E+01 8.59821E+01 1.81818E+00
 -1      3955 4.38101E+01 8.59821E+01 2.72727E+00
 -1      3956 4.38101E+01 8.59821E+01 3.63636E+00
 -1      3957 4.38101E+01 8.59821E+01 4.54545E+00
 -1      3958 4.38101E+01 8.59821E+01 5.45455E+00
 -1      3959 4.38101E+01 8.59821E+01 6.36364E+00
 -1      3960 4.38101E+01 8.59821E+01 7.27273E+00
 -1      3961 4.38101E+01 8.59821E+01 8.18182E+00
 -1      3962 4.38101E+01 8.59821E+01 9.09091E+00
 -1      3963 3.92501E+01 8.81571E+01 9.09091E-01
 -1      3964 3.92501E+01 8.81571E+01 1.81818E+00
 -1      3965 3.92501E+01 8.81571E+01 2.72727E+00
 -1      3966 3.92501E+01 8.81571E+01 3.63636E+00
 -1      3967 3.92501E+01 8.81571E+01 4.54545E+00
 -1      3968 3.92501E+01 8.81571E+01 5.45455E+00
 -1      3969 3.92501E+01 8.81571E+01 6.36364E+00
 -1      3970 3.92501E+01 8.81571E+01 7.27273E+00
 -1      3971 3.92501E+01 8.81571E+01 8.18182E+00
 -1      3972 3.92501E+01 8.81571E+01 9.09091E+00
 -1      3973 3.45825E+01 9.00905E+01 9.09091E-01
 -1      3974 3.45825E+01 9.00905E+01 1.81818E+00
 -1      3975 3.45825E+01 9.00905E+01 2.72727E+00
 -1      3976 3.45825E+01 9.00905E+01 3.63636E+00
 -1      3977 3.45825E+01 9.00905E+01 4.54545E+00
 -1      3978 3.45825E+01 9.00905E+01 5.45455E+00
 -1      3979 3.45825E+01 9.00905E+01 6.36364E+00
 -1      3980 3.45825E+01 9.00905E+01 7.27273E+00
 -1      3981 3.45825E+01 9.00905E+01 8.18182E+00
 -1      3982 3.45825E+01 9.00905E+01 9.09091E+00
 -1      3983 2.98201E+01 9.17770E+01 9.09091E-01
 -1      3984 2.98201E+01 9.17770E+01 1.81818E+00
 -1      3985 2.98201E+01 9.17770E+01 2.72727E+00
 -1      3986 2.98201E+01 9.17770E+01 3.63636E+00
 -1      3987 2.98201E+01 9.17770E+01 4.54545E+00
 -1      3988 2.98201E+01 9.17770E+01 5.45455E+00
 -1      3989 2.98201E+01 9.17770E+01 6.36364E+00
 -1      3990 2.98201E+01 9.17770E+01 7.27273E+00
 -1      3991 2.98201E+01 9.17770E+01 8.18182E+00
 -1      3992 2.98201E+01 9.17770E+01 9.09091E+00
 -1      3993 2.49760E+01 9.32118E+01 9.09091E-01
 -1      3994 2.49760E+01 9.32118E+01 1.81818E+00
 -1      3995 2.49760E+01 9.32118E+01 2.72727E+00
 -1      3996 2.49760E+01 9.32118E+01 3.63636E+00
 -1      3997 2.49760E+01 9.32118E+01 4.54545E+00
 -1      3998 2.49760E+01 9.32118E+01 5.45455E+00
 -1      3999 2.49760E+01 9.32118E+01 6.36364E+00
 -1      4000 2.49760E+01 9.32118E+01 7.27273E+00
 -1      4001 2.49760E+01 9.32118E+01 8.18182E+00
 -1      4002 2.49760E+01 9.32118E+01 9.09091E+00
 -1      4003 2.00635E+01 9.43912E+01 9.09091E-01
 -1      4004 2.00635E+01 9.43912E+01 1.81818E+00
 -1      4005 2.00635E+01 9.43912E+01 2.72727E+00
 -1      4006 2.00635E+01 9.43912E+01 3.63636E+00
 -1      4007 2.00635E+01 9.43912E+01 4.54545E+00
 -1      4008 2.00635E+01 9.43912E+01 5.45455E+00
 -1      4009 2.00635E+01 9.43912E+01 6.36364E+00
 -1      4010 2.00635E+01 9.43912E+01 7.27273E+00
 -1      4011 2.00635E+01 9.43912E+01 8.18182E+00
 -1      4012 2.00635E+01 9.43912E+01 9.09091E+00
 -1      4013 1.50959E+01 9.53119E+01 9.09091E-01
 -1      4014 1.50959E+01 9.53119E+01 1.81818E+00
 -1      4015 1.50959E+01 9.53119E+01 2.72727E+00
 -1      4016 1.50959E+01 9.53119E+01 3.63636E+00
 -1      4017 1.50959E+01 9.53119E+01 4.54545E+00
 -1      4018 1.50959E+01 9.53119E+01 5.45455E+00
 -1      4019 1.50959E+01 9.53119E+01 6.36364E+00
 -1      4020 1.50959E+01 9.53119E+01 7.27273E+00
 -1      4021 1.50959E+01 9.53119E+01 8.18182E+00
 -1      4022 1.50959E+01 9.53119E+01 9.09091E+00
 -1      4023 1.00870E+01 9.59714E+01 9.09091E-01
 -1      4024 1.00870E+01 9.59714E+01 1.81818E+00
 -1      4025 1.00870E+01 9.59714E+01 2.72727E+00
 -1      4026 1.00870E+01 9.59714E+01 3.63636E+00
 -1      4027 1.00870E+01 9.59714E+01 4.54545E+00
 -1      4028 1.00870E+01 9.59714E+01 5.45455E+00
 -1      4029 1.00870E+01 9.59714E+01 6.36364E+00
 -1      4030 1.00870E+01 9.59714E+01 7.27273E+00
 -1      4031 1.00870E+01 9.59714E+01 8.18182E+00
 -1      4032 1.00870E+01 9.59714E+01 9.09091E+00
 -1      4033 5.05042E+00 9.63678E+01 9.09091E-01
 -1      4034 5.05042E+00 9.63678E+01 1.81818E+00
 -1      4035 5.05042E+00 9.63678E+01 2.72727E+00
 -1      4036 5.05042E+00 9.63678E+01 3.63636E+00
 -1      4037 5.05042E+00 9.63678E+01 4.54545E+00
 -1      4038 5.05042E+00 9.63678E+01 5.45455E+00
 -1      4039 5.05042E+00 9.63678E+01 6.36364E+00
 -1      4040 5.05042E+00 9.63678E+01 7.27273E+00
 -1      4041 5.05042E+00 9.63678E+01 8.18182E+00
 -1      4042 5.05042E+00 9.63678E+01 9.09091E+00
 -1      4043 9.66174E+01 5.06350E+00 9.09091E-01
 -1      4044 9.66174E+01 5.06350E+00 1.81818E+00
 -1      4045 9.66174E+01 5.06350E+00 2.72727E+00
 -1      4046 9.66174E+01 5.06350E+00 3.63636E+00
 -1      4047 9.66174E+01 5.06350E+00 4.54545E+00
 -1      4048 9.66174E+01 5.06350E+00 5.45455E+00
 -1      4049 9.66174E+01 5.06350E+00 6.36364E+00
 -1      4050 9.66174E+01 5.06350E+00 7.27273E+00
 -1      4051 9.66174E+01 5.06350E+00 8.18182E+00
 -1      4052 9.66174E+01 5.06350E+00 9.09091E+00
 -1      4053 9.62200E+01 1.01131E+01 9.09091E-01
 -1      4054 9.62200E+01 1.01131E+01 1.81818E+00
 -1      4055 9.62200E+01 1.01131E+01 2.72727E+00
 -1      4056 9.62200E+01 1.01131E+01 3.63636E+00
 -1      4057 9.62200E+01 1.01131E+01 4.54545E+00
 -1      4058 9.62200E+01 1.01131E+01 5.45455E+00
 -1      4059 9.62200E+01 1.01131E+01 6.36364E+00
 -1      4060 9.62200E+01 1.01131E+01 7.27273E+00
 -1      4061 9.62200E+01 1.01131E+01 8.18182E+00
 -1      4062 9.62200E+01 1.01131E+01 9.09091E+00
 -1      4063 9.55588E+01 1.51350E+01 9.09091E-01
 -1      4064 9.55588E+01 1.51350E+01 1.81818E+00
 -1      4065 9.55588E+01 1.51350E+01 2.72727E+00
 -1      4066 9.55588E+01 1.51350E+01 3.63636E+00
 -1      4067 9.55588E+01 1.51350E+01 4.54545E+00
 -1      4068 9.55588E+01 1.51350E+01 5.45455E+00
 -1      4069 9.55588E+01 1.51350E+01 6.36364E+00
 -1      4070 9.55588E+01 1.51350E+01 7.27273E+00
 -1      4071 9.55588E+01 1.51350E+01 8.18182E+00
 -1      4072 9.55588E+01 1.51350E+01 9.09091E+00
 -1      4073 9.46358E+01 2.01155E+01 9.09091E-01
 -1      4074 9.46358E+01 2.01155E+01 1.81818E+00
 -1      4075 9.46358E+01 2.01155E+01 2.72727E+00
 -1      4076 9.46358E+01 2.01155E+01 3.63636E+00
 -1      4077 9.46358E+01 2.01155E+01 4.54545E+00
 -1      4078 9.46358E+01 2.01155E+01 5.45455E+00
 -1      4079 9.46358E+01 2.01155E+01 6.36364E+00
 -1      4080 9.46358E+01 2.01155E+01 7.27273E+00
 -1      4081 9.46358E+01 2.01155E+01 8.18182E+00
 -1      4082 9.46358E+01 2.01155E+01 9.09091E+00
 -1      4083 9.34533E+01 2.50407E+01 9.09091E-01
 -1      4084 9.34533E+01 2.50407E+01 1.81818E+00
 -1      4085 9.34533E+01 2.50407E+01 2.72727E+00
 -1      4086 9.34533E+01 2.50407E+01 3.63636E+00
 -1      4087 9.34533E+01 2.50407E+01 4.54545E+00
 -1      4088 9.34533E+01 2.50407E+01 5.45455E+00
 -1      4089 9.34533E+01 2.50407E+01 6.36364E+00
 -1      4090 9.34533E+01 2.50407E+01 7.27273E+00
 -1      4091 9.34533E+01 2.50407E+01 8.18182E+00
 -1      4092 9.34533E+01 2.50407E+01 9.09091E+00
 -1      4093 9.20147E+01 2.98974E+01 9.09091E-01
 -1      4094 9.20147E+01 2.98974E+01 1.81818E+00
 -1      4095 9.20147E+01 2.98974E+01 2.72727E+00
 -1      4096 9.20147E+01 2.98974E+01 3.63636E+00
 -1      4097 9.20147E+01 2.98974E+01 4.54545E+00
 -1      4098 9.20147E+01 2.98974E+01 5.45455E+00
 -1      4099 9.20147E+01 2.98974E+01 6.36364E+00
 -1      4100 9.20147E+01 2.98974E+01 7.27273E+00
 -1      4101 9.20147E+01 2.98974E+01 8.18182E+00
 -1      4102 9.20147E+01 2.98974E+01 9.09091E+00
 -1      4103 9.03239E+01 3.46721E+01 9.09091E-01
 -1      4104 9.03239E+01 3.46721E+01 1.81818E+00
 -1      4105 9.03239E+01 3.46721E+01 2.72727E+00
 -1      4106 9.03239E+01 3.46721E+01 3.63636E+00
 -1      4107 9.03239E+01 3.46721E+01 4.54545E+00
 -1      4108 9.03239E+01 3.46721E+01 5.45455E+00
 -1      4109 9.03239E+01 3.46721E+01 6.36364E+00
 -1      4110 9.03239E+01 3.46721E+01 7.27273E+00
 -1      4111 9.03239E+01 3.46721E+01 8.18182E+00
 -1      4112 9.03239E+01 3.46721E+01 9.09091E+00
 -1      4113 8.83855E+01 3.93518E+01 9.09091E-01
 -1      4114 8.83855E+01 3.93518E+01 1.81818E+00
 -1      4115 8.83855E+01 3.93518E+01 2.72727E+00
 -1      4116 8.83855E+01 3.93518E+01 3.63636E+00
 -1      4117 8.83855E+01 3.93518E+01 4.54545E+00
 -1      4118 8.83855E+01 3.93518E+01 5.45455E+00
 -1      4119 8.83855E+01 3.93518E+01 6.36364E+00
 -1      4120 8.83855E+01 3.93518E+01 7.27273E+00
 -1      4121 8.83855E+01 3.93518E+01 8.18182E+00
 -1      4122 8.83855E+01 3.93518E+01 9.09091E+00
 -1      4123 8.62049E+01 4.39236E+01 9.09091E-01
 -1      4124 8.62049E+01 4.39236E+01 1.81818E+00
 -1      4125 8.62049E+01 4.39236E+01 2.72727E+00
 -1      4126 8.62049E+01 4.39236E+01 3.63636E+00
 -1      4127 8.62049E+01 4.39236E+01 4.54545E+00
 -1      4128 8.62049E+01 4.39236E+01 5.45455E+00
 -1      4129 8.62049E+01 4.39236E+01 6.36364E+00
 -1      4130 8.62049E+01 4.39236E+01 7.27273E+00
 -1      4131 8.62049E+01 4.39236E+01 8.18182E+00
 -1      4132 8.62049E+01 4.39236E+01 9.09091E+00
 -1      4133 8.37880E+01 4.83750E+01 9.09091E-01
 -1      4134 8.37880E+01 4.83750E+01 1.81818E+00
 -1      4135 8.37880E+01 4.83750E+01 2.72727E+00
 -1      4136 8.37880E+01 4.83750E+01 3.63636E+00
 -1      4137 8.37880E+01 4.83750E+01 4.54545E+00
 -1      4138 8.37880E+01 4.83750E+01 5.45455E+00
 -1      4139 8.37880E+01 4.83750E+01 6.36364E+00
 -1      4140 8.37880E+01 4.83750E+01 7.27273E+00
 -1      4141 8.37880E+01 4.83750E+01 8.18182E+00
 -1      4142 8.37880E+01 4.83750E+01 9.09091E+00
 -1      4143 8.11414E+01 5.26938E+01 9.09091E-01
 -1      4144 8.11414E+01 5.26938E+01 1.81818E+00
 -1      4145 8.11414E+01 5.26938E+01 2.72727E+00
 -1      4146 8.11414E+01 5.26938E+01 3.63636E+00
 -1      4147 8.11414E+01 5.26938E+01 4.54545E+00
 -1      4148 8.11414E+01 5.26938E+01 5.45455E+00
 -1      4149 8.11414E+01 5.26938E+01 6.36364E+00
 -1      4150 8.11414E+01 5.26938E+01 7.27273E+00
 -1      4151 8.11414E+01 5.26938E+01 8.18182E+00
 -1      4152 8.11414E+01 5.26938E+01 9.09091E+00
 -1      4153 7.82724E+01 5.68682E+01 9.09091E-01
 -1      4154 7.82724E+01 5.68682E+01 1.81818E+00
 -1      4155 7.82724E+01 5.68682E+01 2.72727E+00
 -1      4156 7.82724E+01 5.68682E+01 3.63636E+00
 -1      4157 7.82724E+01 5.68682E+01 4.54545E+00
 -1      4158 7.82724E+01 5.68682E+01 5.45455E+00
 -1      4159 7.82724E+01 5.68682E+01 6.36364E+00
 -1      4160 7.82724E+01 5.68682E+01 7.27273E+00
 -1      4161 7.82724E+01 5.68682E+01 8.18182E+00
 -1      4162 7.82724E+01 5.68682E+01 9.09091E+00
 -1      4163 7.51889E+01 6.08867E+01 9.09091E-01
 -1      4164 7.51889E+01 6.08867E+01 1.81818E+00
 -1      4165 7.51889E+01 6.08867E+01 2.72727E+00
 -1      4166 7.51889E+01 6.08867E+01 3.63636E+00
 -1      4167 7.51889E+01 6.08867E+01 4.54545E+00
 -1      4168 7.51889E+01 6.08867E+01 5.45455E+00
 -1      4169 7.51889E+01 6.08867E+01 6.36364E+00
 -1      4170 7.51889E+01 6.08867E+01 7.27273E+00
 -1      4171 7.51889E+01 6.08867E+01 8.18182E+00
 -1      4172 7.51889E+01 6.08867E+01 9.09091E+00
 -1      4173 7.18993E+01 6.47384E+01 9.09091E-01
 -1      4174 7.18993E+01 6.47384E+01 1.81818E+00
 -1      4175 7.18993E+01 6.47384E+01 2.72727E+00
 -1      4176 7.18993E+01 6.47384E+01 3.63636E+00
 -1      4177 7.18993E+01 6.47384E+01 4.54545E+00
 -1      4178 7.18993E+01 6.47384E+01 5.45455E+00
 -1      4179 7.18993E+01 6.47384E+01 6.36364E+00
 -1      4180 7.18993E+01 6.47384E+01 7.27273E+00
 -1      4181 7.18993E+01 6.47384E+01 8.18182E+00
 -1      4182 7.18993E+01 6.47384E+01 9.09091E+00
 -1      4183 6.84126E+01 6.84126E+01 9.09091E-01
 -1      4184 6.84126E+01 6.84126E+01 1.81818E+00
 -1      4185 6.84126E+01 6.84126E+01 2.72727E+00
 -1      4186 6.84126E+01 6.84126E+01 3.63636E+00
 -1      4187 6.84126E+01 6.84126E+01 4.54545E+00
 -1      4188 6.84126E+01 6.84126E+01 5.45455E+00
 -1      4189 6.84126E+01 6.84126E+01 6.36364E+00
 -1      4190 6.84126E+01 6.84126E+01 7.27273E+00
 -1      4191 6.84126E+01 6.84126E+01 8.18182E+00
 -1      4192 6.84126E+01 6.84126E+01 9.09091E+00
 -1      4193 6.47384E+01 7.18993E+01 9.09091E-01
 -1      4194 6.47384E+01 7.18993E+01 1.81818E+00
 -1      4195 6.47384E+01 7.18993E+01 2.72727E+00
 -1      4196 6.47384E+01 7.18993E+01 3.63636E+00
 -1      4197 6.47384E+01 7.18993E+01 4.54545E+00
 -1      4198 6.47384E+01 7.18993E+01 5.45455E+00
 -1      4199 6.47384E+01 7.18993E+01 6.36364E+00
 -1      4200 6.47384E+01 7.18993E+01 7.27273E+00
 -1      4201 6.47384E+01 7.18993E+01 8.18182E+00
 -1      4202 6.47384E+01 7.18993E+01 9.09091E+00
 -1      4203 6.08867E+01 7.51889E+01 9.09091E-01
 -1      4204 6.08867E+01 7.51889E+01 1.81818E+00
 -1      4205 6.08867E+01 7.51889E+01 2.72727E+00
 -1      4206 6.08867E+01 7.51889E+01 3.63636E+00
 -1      4207 6.08867E+01 7.51889E+01 4.54545E+00
 -1      4208 6.08867E+01 7.51889E+01 5.45455E+00
 -1      4209 6.08867E+01 7.51889E+01 6.36364E+00
 -1      4210 6.08867E+01 7.51889E+01 7.27273E+00
 -1      4211 6.08867E+01 7.51889E+01 8.18182E+00
 -1      4212 6.08867E+01 7.51889E+01 9.09091E+00
 -1      4213 5.68682E+01 7.82724E+01 9.09091E-01
 -1      4214 5.68682E+01 7.82724E+01 1.81818E+00
 -1      4215 5.68682E+01 7.82724E+01 2.72727E+00
 -1      4216 5.68682E+01 7.82724E+01 3.63636E+00
 -1      4217 5.68682E+01 7.82724E+01 4.54545E+00
 -1      4218 5.68682E+01 7.82724E+01 5.45455E+00
 -1      4219 5.68682E+01 7.82724E+01 6.36364E+00
 -1      4220 5.68682E+01 7.82724E+01 7.27273E+00
 -1      4221 5.68682E+01 7.82724E+01 8.18182E+00
 -1      4222 5.68682E+01 7.82724E+01 9.09091E+00
 -1      4223 5.26938E+01 8.11414E+01 9.09091E-01
 -1      4224 5.26938E+01 8.11414E+01 1.81818E+00
 -1      4225 5.26938E+01 8.11414E+01 2.72727E+00
 -1      4226 5.26938E+01 8.11414E+01 3.63636E+00
 -1      4227 5.26938E+01 8.11414E+01 4.54545E+00
 -1      4228 5.26938E+01 8.11414E+01 5.45455E+00
 -1      4229 5.26938E+01 8.11414E+01 6.36364E+00
 -1      4230 5.26938E+01 8.11414E+01 7.27273E+00
 -1      4231 5.26938E+01 8.11414E+01 8.18182E+00
 -1      4232 5.26938E+01 8.11414E+01 9.09091E+00
 -1      4233 4.83750E+01 8.37880E+01 9.09091E-01
 -1      4234 4.83750E+01 8.37880E+01 1.81818E+00
 -1      4235 4.83750E+01 8.37880E+01 2.72727E+00
 -1      4236 4.83750E+01 8.37880E+01 3.63636E+00
 -1      4237 4.83750E+01 8.37880E+01 4.54545E+00
 -1      4238 4.83750E+01 8.37880E+01 5.45455E+00
 -1      4239 4.83750E+01 8.37880E+01 6.36364E+00
 -1      4240 4.83750E+01 8.37880E+01 7.27273E+00
 -1      4241 4.83750E+01 8.37880E+01 8.18182E+00
 -1      4242 4.83750E+01 8.37880E+01 9.09091E+00
 -1      4243 4.39236E+01 8.62049E+01 9.09091E-01
 -1      4244 4.39236E+01 8.62049E+01 1.81818E+00
 -1      4245 4.39236E+01 8.62049E+01 2.72727E+00
 -1      4246 4.39236E+01 8.62049E+01 3.63636E+00
 -1      4247 4.39236E+01 8.62049E+01 4.54545E+00
 -1      4248 4.39236E+01 8.62049E+01 5.45455E+00
 -1      4249 4.39236E+01 8.62049E+01 6.36364E+00
 -1      4250 4.39236E+01 8.62049E+01 7.27273E+00
 -1      4251 4.39236E+01 8.62049E+01 8.18182E+00
 -1      4252 4.39236E+01 8.62049E+01 9.09091E+00
 -1      4253 3.93518E+01 8.83855E+01 9.09091E-01
 -1      4254 3.93518E+01 8.83855E+01 1.81818E+00
 -1      4255 3.93518E+01 8.83855E+01 2.72727E+00
 -1      4256 3.93518E+01 8.83855E+01 3.63636E+00
 -1      4257 3.93518E+01 8.83855E+01 4.54545E+00
 -1      4258 3.93518E+01 8.83855E+01 5.45455E+00
 -1      4259 3.93518E+01 8.83855E+01 6.36364E+00
 -1      4260 3.93518E+01 8.83855E+01 7.27273E+00
 -1      4261 3.93518E+01 8.83855E+01 8.18182E+00
 -1      4262 3.93518E+01 8.83855E+01 9.09091E+00
 -1      4263 3.46721E+01 9.03239E+01 9.09091E-01
 -1      4264 3.46721E+01 9.03239E+01 1.81818E+00
 -1      4265 3.46721E+01 9.03239E+01 2.72727E+00
 -1      4266 3.46721E+01 9.03239E+01 3.63636E+00
 -1      4267 3.46721E+01 9.03239E+01 4.54545E+00
 -1      4268 3.46721E+01 9.03239E+01 5.45455E+00
 -1      4269 3.46721E+01 9.03239E+01 6.36364E+00
 -1      4270 3.46721E+01 9.03239E+01 7.27273E+00
 -1      4271 3.46721E+01 9.03239E+01 8.18182E+00
 -1      4272 3.46721E+01 9.03239E+01 9.09091E+00
 -1      4273 2.98974E+01 9.20147E+01 9.09091E-01
 -1      4274 2.98974E+01 9.20147E+01 1.81818E+00
 -1      4275 2.98974E+01 9.20147E+01 2.72727E+00
 -1      4276 2.98974E+01 9.20147E+01 3.63636E+00
 -1      4277 2.98974E+01 9.20147E+01 4.54545E+00
 -1      4278 2.98974E+01 9.20147E+01 5.45455E+00
 -1      4279 2.98974E+01 9.20147E+01 6.36364E+00
 -1      4280 2.98974E+01 9.20147E+01 7.27273E+00
 -1      4281 2.98974E+01 9.20147E+01 8.18182E+00
 -1      4282 2.98974E+01 9.20147E+01 9.09091E+00
 -1      4283 2.50407E+01 9.34533E+01 9.09091E-01
 -1      4284 2.50407E+01 9.34533E+01 1.81818E+00
 -1      4285 2.50407E+01 9.34533E+01 2.72727E+00
 -1      4286 2.50407E+01 9.34533E+01 3.63636E+00
 -1      4287 2.50407E+01 9.34533E+01 4.54545E+00
 -1      4288 2.50407E+01 9.34533E+01 5.45455E+00
 -1      4289 2.50407E+01 9.34533E+01 6.36364E+00
 -1      4290 2.50407E+01 9.34533E+01 7.27273E+00
 -1      4291 2.50407E+01 9.34533E+01 8.18182E+00
 -1      4292 2.50407E+01 9.34533E+01 9.09091E+00
 -1      4293 2.01155E+01 9.46358E+01 9.09091E-01
 -1      4294 2.01155E+01 9.46358E+01 1.81818E+00
 -1      4295 2.01155E+01 9.46358E+01 2.72727E+00
 -1      4296 2.01155E+01 9.46358E+01 3.63636E+00
 -1      4297 2.01155E+01 9.46358E+01 4.54545E+00
 -1      4298 2.01155E+01 9.46358E+01 5.45455E+00
 -1      4299 2.01155E+01 9.46358E+01 6.36364E+00
 -1      4300 2.01155E+01 9.46358E+01 7.27273E+00
 -1      4301 2.01155E+01 9.46358E+01 8.18182E+00
 -1      4302 2.01155E+01 9.46358E+01 9.09091E+00
 -1      4303 1.51350E+01 9.55588E+01 9.09091E-01
 -1      4304 1.51350E+01 9.55588E+01 1.81818E+00
 -1      4305 1.51350E+01 9.55588E+01 2.72727E+00
 -1      4306 1.51350E+01 9.55588E+01 3.63636E+00
 -1      4307 1.51350E+01 9.55588E+01 4.54545E+00
 -1      4308 1.51350E+01 9.55588E+01 5.45455E+00
 -1      4309 1.51350E+01 9.55588E+01 6.36364E+00
 -1      4310 1.51350E+01 9.55588E+01 7.27273E+00
 -1      4311 1.51350E+01 9.55588E+01 8.18182E+00
 -1      4312 1.51350E+01 9.55588E+01 9.09091E+00
 -1      4313 1.01131E+01 9.62200E+01 9.09091E-01
 -1      4314 1.01131E+01 9.62200E+01 1.81818E+00
 -1      4315 1.01131E+01 9.62200E+01 2.72727E+00
 -1      4316 1.01131E+01 9.62200E+01 3.63636E+00
 -1      4317 1.01131E+01 9.62200E+01 4.54545E+00
 -1      4318 1.01131E+01 9.62200E+01 5.45455E+00
 -1      4319 1.01131E+01 9.62200E+01 6.36364E+00
 -1      4320 1.01131E+01 9.62200E+01 7.27273E+00
 -1      4321 1.01131E+01 9.62200E+01 8.18182E+00
 -1      4322 1.01131E+01 9.62200E+01 9.09091E+00
 -1      4323 5.06350E+00 9.66174E+01 9.09091E-01
 -1      4324 5.06350E+00 9.66174E+01 1.81818E+00
 -1      4325 5.06350E+00 9.66174E+01 2.72727E+00
 -1      4326 5.06350E+00 9.66174E+01 3.63636E+00
 -1      4327 5.06350E+00 9.66174E+01 4.54545E+00
 -1      4328 5.06350E+00 9.66174E+01 5.45455E+00
 -1      4329 5.06350E+00 9.66174E+01 6.36364E+00
 -1      4330 5.06350E+00 9.66174E+01 7.27273E+00
 -1      4331 5.06350E+00 9.66174E+01 8.18182E+00
 -1      4332 5.06350E+00 9.66174E+01 9.09091E+00
 -1      4333 9.68671E+01 5.07659E+00 9.09091E-01
 -1      4334 9.68671E+01 5.07659E+00 1.81818E+00
 -1      4335 9.68671E+01 5.07659E+00 2.72727E+00
 -1      4336 9.68671E+01 5.07659E+00 3.63636E+00
 -1      4337 9.68671E+01 5.07659E+00 4.54545E+00
 -1      4338 9.68671E+01 5.07659E+00 5.45455E+00
 -1      4339 9.68671E+01 5.07659E+00 6.36364E+00
 -1      4340 9.68671E+01 5.07659E+00 7.27273E+00
 -1      4341 9.68671E+01 5.07659E+00 8.18182E+00
 -1      4342 9.68671E+01 5.07659E+00 9.09091E+00
 -1      4343 9.64686E+01 1.01393E+01 9.09091E-01
 -1      4344 9.64686E+01 1.01393E+01 1.81818E+00
 -1      4345 9.64686E+01 1.01393E+01 2.72727E+00
 -1      4346 9.64686E+01 1.01393E+01 3.63636E+00
 -1      4347 9.64686E+01 1.01393E+01 4.54545E+00
 -1      4348 9.64686E+01 1.01393E+01 5.45455E+00
 -1      4349 9.64686E+01 1.01393E+01 6.36364E+00
 -1      4350 9.64686E+01 1.01393E+01 7.27273E+00
 -1      4351 9.64686E+01 1.01393E+01 8.18182E+00
 -1      4352 9.64686E+01 1.01393E+01 9.09091E+00
 -1      4353 9.58058E+01 1.51741E+01 9.09091E-01
 -1      4354 9.58058E+01 1.51741E+01 1.81818E+00
 -1      4355 9.58058E+01 1.51741E+01 2.72727E+00
 -1      4356 9.58058E+01 1.51741E+01 3.63636E+00
 -1      4357 9.58058E+01 1.51741E+01 4.54545E+00
 -1      4358 9.58058E+01 1.51741E+01 5.45455E+00
 -1      4359 9.58058E+01 1.51741E+01 6.36364E+00
 -1      4360 9.58058E+01 1.51741E+01 7.27273E+00
 -1      4361 9.58058E+01 1.51741E+01 8.18182E+00
 -1      4362 9.58058E+01 1.51741E+01 9.09091E+00
 -1      4363 9.48803E+01 2.01674E+01 9.09091E-01
 -1      4364 9.48803E+01 2.01674E+01 1.81818E+00
 -1      4365 9.48803E+01 2.01674E+01 2.72727E+00
 -1      4366 9.48803E+01 2.01674E+01 3.63636E+00
 -1      4367 9.48803E+01 2.01674E+01 4.54545E+00
 -1      4368 9.48803E+01 2.01674E+01 5.45455E+00
 -1      4369 9.48803E+01 2.01674E+01 6.36364E+00
 -1      4370 9.48803E+01 2.01674E+01 7.27273E+00
 -1      4371 9.48803E+01 2.01674E+01 8.18182E+00
 -1      4372 9.48803E+01 2.01674E+01 9.09091E+00
 -1      4373 9.36948E+01 2.51054E+01 9.09091E-01
 -1      4374 9.36948E+01 2.51054E+01 1.81818E+00
 -1      4375 9.36948E+01 2.51054E+01 2.72727E+00
 -1      4376 9.36948E+01 2.51054E+01 3.63636E+00
 -1      4377 9.36948E+01 2.51054E+01 4.54545E+00
 -1      4378 9.36948E+01 2.51054E+01 5.45455E+00
 -1      4379 9.36948E+01 2.51054E+01 6.36364E+00
 -1      4380 9.36948E+01 2.51054E+01 7.27273E+00
 -1      4381 9.36948E+01 2.51054E+01 8.18182E+00
 -1      4382 9.36948E+01 2.51054E+01 9.09091E+00
 -1      4383 9.22525E+01 2.99746E+01 9.09091E-01
 -1      4384 9.22525E+01 2.99746E+01 1.81818E+00
 -1      4385 9.22525E+01 2.99746E+01 2.72727E+00
 -1      4386 9.22525E+01 2.99746E+01 3.63636E+00
 -1      4387 9.22525E+01 2.99746E+01 4.54545E+00
 -1      4388 9.22525E+01 2.99746E+01 5.45455E+00
 -1      4389 9.22525E+01 2.99746E+01 6.36364E+00
 -1      4390 9.22525E+01 2.99746E+01 7.27273E+00
 -1      4391 9.22525E+01 2.99746E+01 8.18182E+00
 -1      4392 9.22525E+01 2.99746E+01 9.09091E+00
 -1      4393 9.05573E+01 3.47617E+01 9.09091E-01
 -1      4394 9.05573E+01 3.47617E+01 1.81818E+00
 -1      4395 9.05573E+01 3.47617E+01 2.72727E+00
 -1      4396 9.05573E+01 3.47617E+01 3.63636E+00
 -1      4397 9.05573E+01 3.47617E+01 4.54545E+00
 -1      4398 9.05573E+01 3.47617E+01 5.45455E+00
 -1      4399 9.05573E+01 3.47617E+01 6.36364E+00
 -1      4400 9.05573E+01 3.47617E+01 7.27273E+00
 -1      4401 9.05573E+01 3.47617E+01 8.18182E+00
 -1      4402 9.05573E+01 3.47617E+01 9.09091E+00
 -1      4403 8.86139E+01 3.94535E+01 9.09091E-01
 -1      4404 8.86139E+01 3.94535E+01 1.81818E+00
 -1      4405 8.86139E+01 3.94535E+01 2.72727E+00
 -1      4406 8.86139E+01 3.94535E+01 3.63636E+00
 -1      4407 8.86139E+01 3.94535E+01 4.54545E+00
 -1      4408 8.86139E+01 3.94535E+01 5.45455E+00
 -1      4409 8.86139E+01 3.94535E+01 6.36364E+00
 -1      4410 8.86139E+01 3.94535E+01 7.27273E+00
 -1      4411 8.86139E+01 3.94535E+01 8.18182E+00
 -1      4412 8.86139E+01 3.94535E+01 9.09091E+00
 -1      4413 8.64276E+01 4.40371E+01 9.09091E-01
 -1      4414 8.64276E+01 4.40371E+01 1.81818E+00
 -1      4415 8.64276E+01 4.40371E+01 2.72727E+00
 -1      4416 8.64276E+01 4.40371E+01 3.63636E+00
 -1      4417 8.64276E+01 4.40371E+01 4.54545E+00
 -1      4418 8.64276E+01 4.40371E+01 5.45455E+00
 -1      4419 8.64276E+01 4.40371E+01 6.36364E+00
 -1      4420 8.64276E+01 4.40371E+01 7.27273E+00
 -1      4421 8.64276E+01 4.40371E+01 8.18182E+00
 -1      4422 8.64276E+01 4.40371E+01 9.09091E+00
 -1      4423 8.40045E+01 4.85000E+01 9.09091E-01
 -1      4424 8.40045E+01 4.85000E+01 1.81818E+00
 -1      4425 8.40045E+01 4.85000E+01 2.72727E+00
 -1      4426 8.40045E+01 4.85000E+01 3.63636E+00
 -1      4427 8.40045E+01 4.85000E+01 4.54545E+00
 -1      4428 8.40045E+01 4.85000E+01 5.45455E+00
 -1      4429 8.40045E+01 4.85000E+01 6.36364E+00
 -1      4430 8.40045E+01 4.85000E+01 7.27273E+00
 -1      4431 8.40045E+01 4.85000E+01 8.18182E+00
 -1      4432 8.40045E+01 4.85000E+01 9.09091E+00
 -1      4433 8.13510E+01 5.28300E+01 9.09091E-01
 -1      4434 8.13510E+01 5.28300E+01 1.81818E+00
 -1      4435 8.13510E+01 5.28300E+01 2.72727E+00
 -1      4436 8.13510E+01 5.28300E+01 3.63636E+00
 -1      4437 8.13510E+01 5.28300E+01 4.54545E+00
 -1      4438 8.13510E+01 5.28300E+01 5.45455E+00
 -1      4439 8.13510E+01 5.28300E+01 6.36364E+00
 -1      4440 8.13510E+01 5.28300E+01 7.27273E+00
 -1      4441 8.13510E+01 5.28300E+01 8.18182E+00
 -1      4442 8.13510E+01 5.28300E+01 9.09091E+00
 -1      4443 7.84746E+01 5.70152E+01 9.09091E-01
 -1      4444 7.84746E+01 5.70152E+01 1.81818E+00
 -1      4445 7.84746E+01 5.70152E+01 2.72727E+00
 -1      4446 7.84746E+01 5.70152E+01 3.63636E+00
 -1      4447 7.84746E+01 5.70152E+01 4.54545E+00
 -1      4448 7.84746E+01 5.70152E+01 5.45455E+00
 -1      4449 7.84746E+01 5.70152E+01 6.36364E+00
 -1      4450 7.84746E+01 5.70152E+01 7.27273E+00
 -1      4451 7.84746E+01 5.70152E+01 8.18182E+00
 -1      4452 7.84746E+01 5.70152E+01 9.09091E+00
 -1      4453 7.53832E+01 6.10441E+01 9.09091E-01
 -1      4454 7.53832E+01 6.10441E+01 1.81818E+00
 -1      4455 7.53832E+01 6.10441E+01 2.72727E+00
 -1      4456 7.53832E+01 6.10441E+01 3.63636E+00
 -1      4457 7.53832E+01 6.10441E+01 4.54545E+00
 -1      4458 7.53832E+01 6.10441E+01 5.45455E+00
 -1      4459 7.53832E+01 6.10441E+01 6.36364E+00
 -1      4460 7.53832E+01 6.10441E+01 7.27273E+00
 -1      4461 7.53832E+01 6.10441E+01 8.18182E+00
 -1      4462 7.53832E+01 6.10441E+01 9.09091E+00
 -1      4463 7.20850E+01 6.49057E+01 9.09091E-01
 -1      4464 7.20850E+01 6.49057E+01 1.81818E+00
 -1      4465 7.20850E+01 6.49057E+01 2.72727E+00
 -1      4466 7.20850E+01 6.49057E+01 3.63636E+00
 -1      4467 7.20850E+01 6.49057E+01 4.54545E+00
 -1      4468 7.20850E+01 6.49057E+01 5.45455E+00
 -1      4469 7.20850E+01 6.49057E+01 6.36364E+00
 -1      4470 7.20850E+01 6.49057E+01 7.27273E+00
 -1      4471 7.20850E+01 6.49057E+01 8.18182E+00
 -1      4472 7.20850E+01 6.49057E+01 9.09091E+00
 -1      4473 6.85894E+01 6.85894E+01 9.09091E-01
 -1      4474 6.85894E+01 6.85894E+01 1.81818E+00
 -1      4475 6.85894E+01 6.85894E+01 2.72727E+00
 -1      4476 6.85894E+01 6.85894E+01 3.63636E+00
 -1      4477 6.85894E+01 6.85894E+01 4.54545E+00
 -1      4478 6.85894E+01 6.85894E+01 5.45455E+00
 -1      4479 6.85894E+01 6.85894E+01 6.36364E+00
 -1      4480 6.85894E+01 6.85894E+01 7.27273E+00
 -1      4481 6.85894E+01 6.85894E+01 8.18182E+00
 -1      4482 6.85894E+01 6.85894E+01 9.09091E+00
 -1      4483 6.49057E+01 7.20850E+01 9.09091E-01
 -1      4484 6.49057E+01 7.20850E+01 1.81818E+00
 -1      4485 6.49057E+01 7.20850E+01 2.72727E+00
 -1      4486 6.49057E+01 7.20850E+01 3.63636E+00
 -1      4487 6.49057E+01 7.20850E+01 4.54545E+00
 -1      4488 6.49057E+01 7.20850E+01 5.45455E+00
 -1      4489 6.49057E+01 7.20850E+01 6.36364E+00
 -1      4490 6.49057E+01 7.20850E+01 7.27273E+00
 -1      4491 6.49057E+01 7.20850E+01 8.18182E+00
 -1      4492 6.49057E+01 7.20850E+01 9.09091E+00
 -1      4493 6.10441E+01 7.53832E+01 9.09091E-01
 -1      4494 6.10441E+01 7.53832E+01 1.81818E+00
 -1      4495 6.10441E+01 7.53832E+01 2.72727E+00
 -1      4496 6.10441E+01 7.53832E+01 3.63636E+00
 -1      4497 6.10441E+01 7.53832E+01 4.54545E+00
 -1      4498 6.10441E+01 7.53832E+01 5.45455E+00
 -1      4499 6.10441E+01 7.53832E+01 6.36364E+00
 -1      4500 6.10441E+01 7.53832E+01 7.27273E+00
 -1      4501 6.10441E+01 7.53832E+01 8.18182E+00
 -1      4502 6.10441E+01 7.53832E+01 9.09091E+00
 -1      4503 5.70152E+01 7.84746E+01 9.09091E-01
 -1      4504 5.70152E+01 7.84746E+01 1.81818E+00
 -1      4505 5.70152E+01 7.84746E+01 2.72727E+00
 -1      4506 5.70152E+01 7.84746E+01 3.63636E+00
 -1      4507 5.70152E+01 7.84746E+01 4.54545E+00
 -1      4508 5.70152E+01 7.84746E+01 5.45455E+00
 -1      4509 5.70152E+01 7.84746E+01 6.36364E+00
 -1      4510 5.70152E+01 7.84746E+01 7.27273E+00
 -1      4511 5.70152E+01 7.84746E+01 8.18182E+00
 -1      4512 5.70152E+01 7.84746E+01 9.09091E+00
 -1      4513 5.28300E+01 8.13510E+01 9.09091E-01
 -1      4514 5.28300E+01 8.13510E+01 1.81818E+00
 -1      4515 5.28300E+01 8.13510E+01 2.72727E+00
 -1      4516 5.28300E+01 8.13510E+01 3.63636E+00
 -1      4517 5.28300E+01 8.13510E+01 4.54545E+00
 -1      4518 5.28300E+01 8.13510E+01 5.45455E+00
 -1      4519 5.28300E+01 8.13510E+01 6.36364E+00
 -1      4520 5.28300E+01 8.13510E+01 7.27273E+00
 -1      4521 5.28300E+01 8.13510E+01 8.18182E+00
 -1      4522 5.28300E+01 8.13510E+01 9.09091E+00
 -1      4523 4.85000E+01 8.40045E+01 9.09091E-01
 -1      4524 4.85000E+01 8.40045E+01 1.81818E+00
 -1      4525 4.85000E+01 8.40045E+01 2.72727E+00
 -1      4526 4.85000E+01 8.40045E+01 3.63636E+00
 -1      4527 4.85000E+01 8.40045E+01 4.54545E+00
 -1      4528 4.85000E+01 8.40045E+01 5.45455E+00
 -1      4529 4.85000E+01 8.40045E+01 6.36364E+00
 -1      4530 4.85000E+01 8.40045E+01 7.27273E+00
 -1      4531 4.85000E+01 8.40045E+01 8.18182E+00
 -1      4532 4.85000E+01 8.40045E+01 9.09091E+00
 -1      4533 4.40371E+01 8.64276E+01 9.09091E-01
 -1      4534 4.40371E+01 8.64276E+01 1.81818E+00
 -1      4535 4.40371E+01 8.64276E+01 2.72727E+00
 -1      4536 4.40371E+01 8.64276E+01 3.63636E+00
 -1      4537 4.40371E+01 8.64276E+01 4.54545E+00
 -1      4538 4.40371E+01 8.64276E+01 5.45455E+00
 -1      4539 4.40371E+01 8.64276E+01 6.36364E+00
 -1      4540 4.40371E+01 8.64276E+01 7.27273E+00
 -1      4541 4.40371E+01 8.64276E+01 8.18182E+00
 -1      4542 4.40371E+01 8.64276E+01 9.09091E+00
 -1      4543 3.94535E+01 8.86139E+01 9.09091E-01
 -1      4544 3.94535E+01 8.86139E+01 1.81818E+00
 -1      4545 3.94535E+01 8.86139E+01 2.72727E+00
 -1      4546 3.94535E+01 8.86139E+01 3.63636E+00
 -1      4547 3.94535E+01 8.86139E+01 4.54545E+00
 -1      4548 3.94535E+01 8.86139E+01 5.45455E+00
 -1      4549 3.94535E+01 8.86139E+01 6.36364E+00
 -1      4550 3.94535E+01 8.86139E+01 7.27273E+00
 -1      4551 3.94535E+01 8.86139E+01 8.18182E+00
 -1      4552 3.94535E+01 8.86139E+01 9.09091E+00
 -1      4553 3.47617E+01 9.05573E+01 9.09091E-01
 -1      4554 3.47617E+01 9.05573E+01 1.81818E+00
 -1      4555 3.47617E+01 9.05573E+01 2.72727E+00
 -1      4556 3.47617E+01 9.05573E+01 3.63636E+00
 -1      4557 3.47617E+01 9.05573E+01 4.54545E+00
 -1      4558 3.47617E+01 9.05573E+01 5.45455E+00
 -1      4559 3.47617E+01 9.05573E+01 6.36364E+00
 -1      4560 3.47617E+01 9.05573E+01 7.27273E+00
 -1      4561 3.47617E+01 9.05573E+01 8.18182E+00
 -1      4562 3.47617E+01 9.05573E+01 9.09091E+00
 -1      4563 2.99746E+01 9.22525E+01 9.09091E-01
 -1      4564 2.99746E+01 9.22525E+01 1.81818E+00
 -1      4565 2.99746E+01 9.22525E+01 2.72727E+00
 -1      4566 2.99746E+01 9.22525E+01 3.63636E+00
 -1      4567 2.99746E+01 9.22525E+01 4.54545E+00
 -1      4568 2.99746E+01 9.22525E+01 5.45455E+00
 -1      4569 2.99746E+01 9.22525E+01 6.36364E+00
 -1      4570 2.99746E+01 9.22525E+01 7.27273E+00
 -1      4571 2.99746E+01 9.22525E+01 8.18182E+00
 -1      4572 2.99746E+01 9.22525E+01 9.09091E+00
 -1      4573 2.51054E+01 9.36948E+01 9.09091E-01
 -1      4574 2.51054E+01 9.36948E+01 1.81818E+00
 -1      4575 2.51054E+01 9.36948E+01 2.72727E+00
 -1      4576 2.51054E+01 9.36948E+01 3.63636E+00
 -1      4577 2.51054E+01 9.36948E+01 4.54545E+00
 -1      4578 2.51054E+01 9.36948E+01 5.45455E+00
 -1      4579 2.51054E+01 9.36948E+01 6.36364E+00
 -1      4580 2.51054E+01 9.36948E+01 7.27273E+00
 -1      4581 2.51054E+01 9.36948E+01 8.18182E+00
 -1      4582 2.51054E+01 9.36948E+01 9.09091E+00
 -1      4583 2.01674E+01 9.48803E+01 9.09091E-01
 -1      4584 2.01674E+01 9.48803E+01 1.81818E+00
 -1      4585 2.01674E+01 9.48803E+01 2.72727E+00
 -1      4586 2.01674E+01 9.48803E+01 3.63636E+00
 -1      4587 2.01674E+01 9.48803E+01 4.54545E+00
 -1      4588 2.01674E+01 9.48803E+01 5.45455E+00
 -1      4589 2.01674E+01 9.48803E+01 6.36364E+00
 -1      4590 2.01674E+01 9.48803E+01 7.27273E+00
 -1      4591 2.01674E+01 9.48803E+01 8.18182E+00
 -1      4592 2.01674E+01 9.48803E+01 9.09091E+00
 -1      4593 1.51741E+01 9.58058E+01 9.09091E-01
 -1      4594 1.51741E+01 9.58058E+01 1.81818E+00
 -1      4595 1.51741E+01 9.58058E+01 2.72727E+00
 -1      4596 1.51741E+01 9.58058E+01 3.63636E+00
 -1      4597 1.51741E+01 9.58058E+01 4.54545E+00
 -1      4598 1.51741E+01 9.58058E+01 5.45455E+00
 -1      4599 1.51741E+01 9.58058E+01 6.36364E+00
 -1      4600 1.51741E+01 9.58058E+01 7.27273E+00
 -1      4601 1.51741E+01 9.58058E+01 8.18182E+00
 -1      4602 1.51741E+01 9.58058E+01 9.09091E+00
 -1      4603 1.01393E+01 9.64686E+01 9.09091E-01
 -1      4604 1.01393E+01 9.64686E+01 1.81818E+00
 -1      4605 1.01393E+01 9.64686E+01 2.72727E+00
 -1      4606 1.01393E+01 9.64686E+01 3.63636E+00
 -1      4607 1.01393E+01 9.64686E+01 4.54545E+00
 -1      4608 1.01393E+01 9.64686E+01 5.45455E+00
 -1      4609 1.01393E+01 9.64686E+01 6.36364E+00
 -1      4610 1.01393E+01 9.64686E+01 7.27273E+00
 -1      4611 1.01393E+01 9.64686E+01 8.18182E+00
 -1      4612 1.01393E+01 9.64686E+01 9.09091E+00
 -1      4613 5.07659E+00 9.68671E+01 9.09091E-01
 -1      4614 5.07659E+00 9.68671E+01 1.81818E+00
 -1      4615 5.07659E+00 9.68671E+01 2.72727E+00
 -1      4616 5.07659E+00 9.68671E+01 3.63636E+00
 -1      4617 5.07659E+00 9.68671E+01 4.54545E+00
 -1      4618 5.07659E+00 9.68671E+01 5.45455E+00
 -1      4619 5.07659E+00 9.68671E+01 6.36364E+00
 -1      4620 5.07659E+00 9.68671E+01 7.27273E+00
 -1      4621 5.07659E+00 9.68671E+01 8.18182E+00
 -1      4622 5.07659E+00 9.68671E+01 9.09091E+00
 -1      4623 9.71167E+01 5.08967E+00 9.09091E-01
 -1      4624 9.71167E+01 5.08967E+00 1.81818E+00
 -1      4625 9.71167E+01 5.08967E+00 2.72727E+00
 -1      4626 9.71167E+01 5.08967E+00 3.63636E+00
 -1      4627 9.71167E+01 5.08967E+00 4.54545E+00
 -1      4628 9.71167E+01 5.08967E+00 5.45455E+00
 -1      4629 9.71167E+01 5.08967E+00 6.36364E+00
 -1      4630 9.71167E+01 5.08967E+00 7.27273E+00
 -1      4631 9.71167E+01 5.08967E+00 8.18182E+00
 -1      4632 9.71167E+01 5.08967E+00 9.09091E+00
 -1      4633 9.67173E+01 1.01654E+01 9.09091E-01
 -1      4634 9.67173E+01 1.01654E+01 1.81818E+00
 -1      4635 9.67173E+01 1.01654E+01 2.72727E+00
 -1      4636 9.67173E+01 1.01654E+01 3.63636E+00
 -1      4637 9.67173E+01 1.01654E+01 4.54545E+00
 -1      4638 9.67173E+01 1.01654E+01 5.45455E+00
 -1      4639 9.67173E+01 1.01654E+01 6.36364E+00
 -1      4640 9.67173E+01 1.01654E+01 7.27273E+00
 -1      4641 9.67173E+01 1.01654E+01 8.18182E+00
 -1      4642 9.67173E+01 1.01654E+01 9.09091E+00
 -1      4643 9.60527E+01 1.52133E+01 9.09091E-01
 -1      4644 9.60527E+01 1.52133E+01 1.81818E+00
 -1      4645 9.60527E+01 1.52133E+01 2.72727E+00
 -1      4646 9.60527E+01 1.52133E+01 3.63636E+00
 -1      4647 9.60527E+01 1.52133E+01 4.54545E+00
 -1      4648 9.60527E+01 1.52133E+01 5.45455E+00
 -1      4649 9.60527E+01 1.52133E+01 6.36364E+00
 -1      4650 9.60527E+01 1.52133E+01 7.27273E+00
 -1      4651 9.60527E+01 1.52133E+01 8.18182E+00
 -1      4652 9.60527E+01 1.52133E+01 9.09091E+00
 -1      4653 9.51249E+01 2.02194E+01 9.09091E-01
 -1      4654 9.51249E+01 2.02194E+01 1.81818E+00
 -1      4655 9.51249E+01 2.02194E+01 2.72727E+00
 -1      4656 9.51249E+01 2.02194E+01 3.63636E+00
 -1      4657 9.51249E+01 2.02194E+01 4.54545E+00
 -1      4658 9.51249E+01 2.02194E+01 5.45455E+00
 -1      4659 9.51249E+01 2.02194E+01 6.36364E+00
 -1      4660 9.51249E+01 2.02194E+01 7.27273E+00
 -1      4661 9.51249E+01 2.02194E+01 8.18182E+00
 -1      4662 9.51249E+01 2.02194E+01 9.09091E+00
 -1      4663 9.39363E+01 2.51702E+01 9.09091E-01
 -1      4664 9.39363E+01 2.51702E+01 1.81818E+00
 -1      4665 9.39363E+01 2.51702E+01 2.72727E+00
 -1      4666 9.39363E+01 2.51702E+01 3.63636E+00
 -1      4667 9.39363E+01 2.51702E+01 4.54545E+00
 -1      4668 9.39363E+01 2.51702E+01 5.45455E+00
 -1      4669 9.39363E+01 2.51702E+01 6.36364E+00
 -1      4670 9.39363E+01 2.51702E+01 7.27273E+00
 -1      4671 9.39363E+01 2.51702E+01 8.18182E+00
 -1      4672 9.39363E+01 2.51702E+01 9.09091E+00
 -1      4673 9.24902E+01 3.00519E+01 9.09091E-01
 -1      4674 9.24902E+01 3.00519E+01 1.81818E+00
 -1      4675 9.24902E+01 3.00519E+01 2.72727E+00
 -1      4676 9.24902E+01 3.00519E+01 3.63636E+00
 -1      4677 9.24902E+01 3.00519E+01 4.54545E+00
 -1      4678 9.24902E+01 3.00519E+01 5.45455E+00
 -1      4679 9.24902E+01 3.00519E+01 6.36364E+00
 -1      4680 9.24902E+01 3.00519E+01 7.27273E+00
 -1      4681 9.24902E+01 3.00519E+01 8.18182E+00
 -1      4682 9.24902E+01 3.00519E+01 9.09091E+00
 -1      4683 9.07907E+01 3.48513E+01 9.09091E-01
 -1      4684 9.07907E+01 3.48513E+01 1.81818E+00
 -1      4685 9.07907E+01 3.48513E+01 2.72727E+00
 -1      4686 9.07907E+01 3.48513E+01 3.63636E+00
 -1      4687 9.07907E+01 3.48513E+01 4.54545E+00
 -1      4688 9.07907E+01 3.48513E+01 5.45455E+00
 -1      4689 9.07907E+01 3.48513E+01 6.36364E+00
 -1      4690 9.07907E+01 3.48513E+01 7.27273E+00
 -1      4691 9.07907E+01 3.48513E+01 8.18182E+00
 -1      4692 9.07907E+01 3.48513E+01 9.09091E+00
 -1      4693 8.88423E+01 3.95551E+01 9.09091E-01
 -1      4694 8.88423E+01 3.95551E+01 1.81818E+00
 -1      4695 8.88423E+01 3.95551E+01 2.72727E+00
 -1      4696 8.88423E+01 3.95551E+01 3.63636E+00
 -1      4697 8.88423E+01 3.95551E+01 4.54545E+00
 -1      4698 8.88423E+01 3.95551E+01 5.45455E+00
 -1      4699 8.88423E+01 3.95551E+01 6.36364E+00
 -1      4700 8.88423E+01 3.95551E+01 7.27273E+00
 -1      4701 8.88423E+01 3.95551E+01 8.18182E+00
 -1      4702 8.88423E+01 3.95551E+01 9.09091E+00
 -1      4703 8.66504E+01 4.41506E+01 9.09091E-01
 -1      4704 8.66504E+01 4.41506E+01 1.81818E+00
 -1      4705 8.66504E+01 4.41506E+01 2.72727E+00
 -1      4706 8.66504E+01 4.41506E+01 3.63636E+00
 -1      4707 8.66504E+01 4.41506E+01 4.54545E+00
 -1      4708 8.66504E+01 4.41506E+01 5.45455E+00
 -1      4709 8.66504E+01 4.41506E+01 6.36364E+00
 -1      4710 8.66504E+01 4.41506E+01 7.27273E+00
 -1      4711 8.66504E+01 4.41506E+01 8.18182E+00
 -1      4712 8.66504E+01 4.41506E+01 9.09091E+00
 -1      4713 8.42210E+01 4.86250E+01 9.09091E-01
 -1      4714 8.42210E+01 4.86250E+01 1.81818E+00
 -1      4715 8.42210E+01 4.86250E+01 2.72727E+00
 -1      4716 8.42210E+01 4.86250E+01 3.63636E+00
 -1      4717 8.42210E+01 4.86250E+01 4.54545E+00
 -1      4718 8.42210E+01 4.86250E+01 5.45455E+00
 -1      4719 8.42210E+01 4.86250E+01 6.36364E+00
 -1      4720 8.42210E+01 4.86250E+01 7.27273E+00
 -1      4721 8.42210E+01 4.86250E+01 8.18182E+00
 -1      4722 8.42210E+01 4.86250E+01 9.09091E+00
 -1      4723 8.15607E+01 5.29661E+01 9.09091E-01
 -1      4724 8.15607E+01 5.29661E+01 1.81818E+00
 -1      4725 8.15607E+01 5.29661E+01 2.72727E+00
 -1      4726 8.15607E+01 5.29661E+01 3.63636E+00
 -1      4727 8.15607E+01 5.29661E+01 4.54545E+00
 -1      4728 8.15607E+01 5.29661E+01 5.45455E+00
 -1      4729 8.15607E+01 5.29661E+01 6.36364E+00
 -1      4730 8.15607E+01 5.29661E+01 7.27273E+00
 -1      4731 8.15607E+01 5.29661E+01 8.18182E+00
 -1      4732 8.15607E+01 5.29661E+01 9.09091E+00
 -1      4733 7.86769E+01 5.71621E+01 9.09091E-01
 -1      4734 7.86769E+01 5.71621E+01 1.81818E+00
 -1      4735 7.86769E+01 5.71621E+01 2.72727E+00
 -1      4736 7.86769E+01 5.71621E+01 3.63636E+00
 -1      4737 7.86769E+01 5.71621E+01 4.54545E+00
 -1      4738 7.86769E+01 5.71621E+01 5.45455E+00
 -1      4739 7.86769E+01 5.71621E+01 6.36364E+00
 -1      4740 7.86769E+01 5.71621E+01 7.27273E+00
 -1      4741 7.86769E+01 5.71621E+01 8.18182E+00
 -1      4742 7.86769E+01 5.71621E+01 9.09091E+00
 -1      4743 7.55774E+01 6.12014E+01 9.09091E-01
 -1      4744 7.55774E+01 6.12014E+01 1.81818E+00
 -1      4745 7.55774E+01 6.12014E+01 2.72727E+00
 -1      4746 7.55774E+01 6.12014E+01 3.63636E+00
 -1      4747 7.55774E+01 6.12014E+01 4.54545E+00
 -1      4748 7.55774E+01 6.12014E+01 5.45455E+00
 -1      4749 7.55774E+01 6.12014E+01 6.36364E+00
 -1      4750 7.55774E+01 6.12014E+01 7.27273E+00
 -1      4751 7.55774E+01 6.12014E+01 8.18182E+00
 -1      4752 7.55774E+01 6.12014E+01 9.09091E+00
 -1      4753 7.22708E+01 6.50730E+01 9.09091E-01
 -1      4754 7.22708E+01 6.50730E+01 1.81818E+00
 -1      4755 7.22708E+01 6.50730E+01 2.72727E+00
 -1      4756 7.22708E+01 6.50730E+01 3.63636E+00
 -1      4757 7.22708E+01 6.50730E+01 4.54545E+00
 -1      4758 7.22708E+01 6.50730E+01 5.45455E+00
 -1      4759 7.22708E+01 6.50730E+01 6.36364E+00
 -1      4760 7.22708E+01 6.50730E+01 7.27273E+00
 -1      4761 7.22708E+01 6.50730E+01 8.18182E+00
 -1      4762 7.22708E+01 6.50730E+01 9.09091E+00
 -1      4763 6.87661E+01 6.87661E+01 9.09091E-01
 -1      4764 6.87661E+01 6.87661E+01 1.81818E+00
 -1      4765 6.87661E+01 6.87661E+01 2.72727E+00
 -1      4766 6.87661E+01 6.87661E+01 3.63636E+00
 -1      4767 6.87661E+01 6.87661E+01 4.54545E+00
 -1      4768 6.87661E+01 6.87661E+01 5.45455E+00
 -1      4769 6.87661E+01 6.87661E+01 6.36364E+00
 -1      4770 6.87661E+01 6.87661E+01 7.27273E+00
 -1      4771 6.87661E+01 6.87661E+01 8.18182E+00
 -1      4772 6.87661E+01 6.87661E+01 9.09091E+00
 -1      4773 6.50730E+01 7.22708E+01 9.09091E-01
 -1      4774 6.50730E+01 7.22708E+01 1.81818E+00
 -1      4775 6.50730E+01 7.22708E+01 2.72727E+00
 -1      4776 6.50730E+01 7.22708E+01 3.63636E+00
 -1      4777 6.50730E+01 7.22708E+01 4.54545E+00
 -1      4778 6.50730E+01 7.22708E+01 5.45455E+00
 -1      4779 6.50730E+01 7.22708E+01 6.36364E+00
 -1      4780 6.50730E+01 7.22708E+01 7.27273E+00
 -1      4781 6.50730E+01 7.22708E+01 8.18182E+00
 -1      4782 6.50730E+01 7.22708E+01 9.09091E+00
 -1      4783 6.12014E+01 7.55774E+01 9.09091E-01
 -1      4784 6.12014E+01 7.55774E+01 1.81818E+00
 -1      4785 6.12014E+01 7.55774E+01 2.72727E+00
 -1      4786 6.12014E+01 7.55774E+01 3.63636E+00
 -1      4787 6.12014E+01 7.55774E+01 4.54545E+00
 -1      4788 6.12014E+01 7.55774E+01 5.45455E+00
 -1      4789 6.12014E+01 7.55774E+01 6.36364E+00
 -1      4790 6.12014E+01 7.55774E+01 7.27273E+00
 -1      4791 6.12014E+01 7.55774E+01 8.18182E+00
 -1      4792 6.12014E+01 7.55774E+01 9.09091E+00
 -1      4793 5.71621E+01 7.86769E+01 9.09091E-01
 -1      4794 5.71621E+01 7.86769E+01 1.81818E+00
 -1      4795 5.71621E+01 7.86769E+01 2.72727E+00
 -1      4796 5.71621E+01 7.86769E+01 3.63636E+00
 -1      4797 5.71621E+01 7.86769E+01 4.54545E+00
 -1      4798 5.71621E+01 7.86769E+01 5.45455E+00
 -1      4799 5.71621E+01 7.86769E+01 6.36364E+00
 -1      4800 5.71621E+01 7.86769E+01 7.27273E+00
 -1      4801 5.71621E+01 7.86769E+01 8.18182E+00
 -1      4802 5.71621E+01 7.86769E+01 9.09091E+00
 -1      4803 5.29661E+01 8.15607E+01 9.09091E-01
 -1      4804 5.29661E+01 8.15607E+01 1.81818E+00
 -1      4805 5.29661E+01 8.15607E+01 2.72727E+00
 -1      4806 5.29661E+01 8.15607E+01 3.63636E+00
 -1      4807 5.29661E+01 8.15607E+01 4.54545E+00
 -1      4808 5.29661E+01 8.15607E+01 5.45455E+00
 -1      4809 5.29661E+01 8.15607E+01 6.36364E+00
 -1      4810 5.29661E+01 8.15607E+01 7.27273E+00
 -1      4811 5.29661E+01 8.15607E+01 8.18182E+00
 -1      4812 5.29661E+01 8.15607E+01 9.09091E+00
 -1      4813 4.86250E+01 8.42210E+01 9.09091E-01
 -1      4814 4.86250E+01 8.42210E+01 1.81818E+00
 -1      4815 4.86250E+01 8.42210E+01 2.72727E+00
 -1      4816 4.86250E+01 8.42210E+01 3.63636E+00
 -1      4817 4.86250E+01 8.42210E+01 4.54545E+00
 -1      4818 4.86250E+01 8.42210E+01 5.45455E+00
 -1      4819 4.86250E+01 8.42210E+01 6.36364E+00
 -1      4820 4.86250E+01 8.42210E+01 7.27273E+00
 -1      4821 4.86250E+01 8.42210E+01 8.18182E+00
 -1      4822 4.86250E+01 8.42210E+01 9.09091E+00
 -1      4823 4.41506E+01 8.66504E+01 9.09091E-01
 -1      4824 4.41506E+01 8.66504E+01 1.81818E+00
 -1      4825 4.41506E+01 8.66504E+01 2.72727E+00
 -1      4826 4.41506E+01 8.66504E+01 3.63636E+00
 -1      4827 4.41506E+01 8.66504E+01 4.54545E+00
 -1      4828 4.41506E+01 8.66504E+01 5.45455E+00
 -1      4829 4.41506E+01 8.66504E+01 6.36364E+00
 -1      4830 4.41506E+01 8.66504E+01 7.27273E+00
 -1      4831 4.41506E+01 8.66504E+01 8.18182E+00
 -1      4832 4.41506E+01 8.66504E+01 9.09091E+00
 -1      4833 3.95551E+01 8.88423E+01 9.09091E-01
 -1      4834 3.95551E+01 8.88423E+01 1.81818E+00
 -1      4835 3.95551E+01 8.88423E+01 2.72727E+00
 -1      4836 3.95551E+01 8.88423E+01 3.63636E+00
 -1      4837 3.95551E+01 8.88423E+01 4.54545E+00
 -1      4838 3.95551E+01 8.88423E+01 5.45455E+00
 -1      4839 3.95551E+01 8.88423E+01 6.36364E+00
 -1      4840 3.95551E+01 8.88423E+01 7.27273E+00
 -1      4841 3.95551E+01 8.88423E+01 8.18182E+00
 -1      4842 3.95551E+01 8.88423E+01 9.09091E+00
 -1      4843 3.48513E+01 9.07907E+01 9.09091E-01
 -1      4844 3.48513E+01 9.07907E+01 1.81818E+00
 -1      4845 3.48513E+01 9.07907E+01 2.72727E+00
 -1      4846 3.48513E+01 9.07907E+01 3.63636E+00
 -1      4847 3.48513E+01 9.07907E+01 4.54545E+00
 -1      4848 3.48513E+01 9.07907E+01 5.45455E+00
 -1      4849 3.48513E+01 9.07907E+01 6.36364E+00
 -1      4850 3.48513E+01 9.07907E+01 7.27273E+00
 -1      4851 3.48513E+01 9.07907E+01 8.18182E+00
 -1      4852 3.48513E+01 9.07907E+01 9.09091E+00
 -1      4853 3.00519E+01 9.24902E+01 9.09091E-01
 -1      4854 3.00519E+01 9.24902E+01 1.81818E+00
 -1      4855 3.00519E+01 9.24902E+01 2.72727E+00
 -1      4856 3.00519E+01 9.24902E+01 3.63636E+00
 -1      4857 3.00519E+01 9.24902E+01 4.54545E+00
 -1      4858 3.00519E+01 9.24902E+01 5.45455E+00
 -1      4859 3.00519E+01 9.24902E+01 6.36364E+00
 -1      4860 3.00519E+01 9.24902E+01 7.27273E+00
 -1      4861 3.00519E+01 9.24902E+01 8.18182E+00
 -1      4862 3.00519E+01 9.24902E+01 9.09091E+00
 -1      4863 2.51702E+01 9.39363E+01 9.09091E-01
 -1      4864 2.51702E+01 9.39363E+01 1.81818E+00
 -1      4865 2.51702E+01 9.39363E+01 2.72727E+00
 -1      4866 2.51702E+01 9.39363E+01 3.63636E+00
 -1      4867 2.51702E+01 9.39363E+01 4.54545E+00
 -1      4868 2.51702E+01 9.39363E+01 5.45455E+00
 -1      4869 2.51702E+01 9.39363E+01 6.36364E+00
 -1      4870 2.51702E+01 9.39363E+01 7.27273E+00
 -1      4871 2.51702E+01 9.39363E+01 8.18182E+00
 -1      4872 2.51702E+01 9.39363E+01 9.09091E+00
 -1      4873 2.02194E+01 9.51249E+01 9.09091E-01
 -1      4874 2.02194E+01 9.51249E+01 1.81818E+00
 -1      4875 2.02194E+01 9.51249E+01 2.72727E+00
 -1      4876 2.02194E+01 9.51249E+01 3.63636E+00
 -1      4877 2.02194E+01 9.51249E+01 4.54545E+00
 -1      4878 2.02194E+01 9.51249E+01 5.45455E+00
 -1      4879 2.02194E+01 9.51249E+01 6.36364E+00
 -1      4880 2.02194E+01 9.51249E+01 7.27273E+00
 -1      4881 2.02194E+01 9.51249E+01 8.18182E+00
 -1      4882 2.02194E+01 9.51249E+01 9.09091E+00
 -1      4883 1.52133E+01 9.60527E+01 9.09091E-01
 -1      4884 1.52133E+01 9.60527E+01 1.81818E+00
 -1      4885 1.52133E+01 9.60527E+01 2.72727E+00
 -1      4886 1.52133E+01 9.60527E+01 3.63636E+00
 -1      4887 1.52133E+01 9.60527E+01 4.54545E+00
 -1      4888 1.52133E+01 9.60527E+01 5.45455E+00
 -1      4889 1.52133E+01 9.60527E+01 6.36364E+00
 -1      4890 1.52133E+01 9.60527E+01 7.27273E+00
 -1      4891 1.52133E+01 9.60527E+01 8.18182E+00
 -1      4892 1.52133E+01 9.60527E+01 9.09091E+00
 -1      4893 1.01654E+01 9.67173E+01 9.09091E-01
 -1      4894 1.01654E+01 9.67173E+01 1.81818E+00
 -1      4895 1.01654E+01 9.67173E+01 2.72727E+00
 -1      4896 1.01654E+01 9.67173E+01 3.63636E+00
 -1      4897 1.01654E+01 9.67173E+01 4.54545E+00
 -1      4898 1.01654E+01 9.67173E+01 5.45455E+00
 -1      4899 1.01654E+01 9.67173E+01 6.36364E+00
 -1      4900 1.01654E+01 9.67173E+01 7.27273E+00
 -1      4901 1.01654E+01 9.67173E+01 8.18182E+00
 -1      4902 1.01654E+01 9.67173E+01 9.09091E+00
 -1      4903 5.08967E+00 9.71167E+01 9.09091E-01
 -1      4904 5.08967E+00 9.71167E+01 1.81818E+00
 -1      4905 5.08967E+00 9.71167E+01 2.72727E+00
 -1      4906 5.08967E+00 9.71167E+01 3.63636E+00
 -1      4907 5.08967E+00 9.71167E+01 4.54545E+00
 -1      4908 5.08967E+00 9.71167E+01 5.45455E+00
 -1      4909 5.08967E+00 9.71167E+01 6.36364E+00
 -1      4910 5.08967E+00 9.71167E+01 7.27273E+00
 -1      4911 5.08967E+00 9.71167E+01 8.18182E+00
 -1      4912 5.08967E+00 9.71167E+01 9.09091E+00
 -1      4913 9.73664E+01 5.10276E+00 9.09091E-01
 -1      4914 9.73664E+01 5.10276E+00 1.81818E+00
 -1      4915 9.73664E+01 5.10276E+00 2.72727E+00
 -1      4916 9.73664E+01 5.10276E+00 3.63636E+00
 -1      4917 9.73664E+01 5.10276E+00 4.54545E+00
 -1      4918 9.73664E+01 5.10276E+00 5.45455E+00
 -1      4919 9.73664E+01 5.10276E+00 6.36364E+00
 -1      4920 9.73664E+01 5.10276E+00 7.27273E+00
 -1      4921 9.73664E+01 5.10276E+00 8.18182E+00
 -1      4922 9.73664E+01 5.10276E+00 9.09091E+00
 -1      4923 9.69659E+01 1.01915E+01 9.09091E-01
 -1      4924 9.69659E+01 1.01915E+01 1.81818E+00
 -1      4925 9.69659E+01 1.01915E+01 2.72727E+00
 -1      4926 9.69659E+01 1.01915E+01 3.63636E+00
 -1      4927 9.69659E+01 1.01915E+01 4.54545E+00
 -1      4928 9.69659E+01 1.01915E+01 5.45455E+00
 -1      4929 9.69659E+01 1.01915E+01 6.36364E+00
 -1      4930 9.69659E+01 1.01915E+01 7.27273E+00
 -1      4931 9.69659E+01 1.01915E+01 8.18182E+00
 -1      4932 9.69659E+01 1.01915E+01 9.09091E+00
 -1      4933 9.62996E+01 1.52524E+01 9.09091E-01
 -1      4934 9.62996E+01 1.52524E+01 1.81818E+00
 -1      4935 9.62996E+01 1.52524E+01 2.72727E+00
 -1      4936 9.62996E+01 1.52524E+01 3.63636E+00
 -1      4937 9.62996E+01 1.52524E+01 4.54545E+00
 -1      4938 9.62996E+01 1.52524E+01 5.45455E+00
 -1      4939 9.62996E+01 1.52524E+01 6.36364E+00
 -1      4940 9.62996E+01 1.52524E+01 7.27273E+00
 -1      4941 9.62996E+01 1.52524E+01 8.18182E+00
 -1      4942 9.62996E+01 1.52524E+01 9.09091E+00
 -1      4943 9.53694E+01 2.02714E+01 9.09091E-01
 -1      4944 9.53694E+01 2.02714E+01 1.81818E+00
 -1      4945 9.53694E+01 2.02714E+01 2.72727E+00
 -1      4946 9.53694E+01 2.02714E+01 3.63636E+00
 -1      4947 9.53694E+01 2.02714E+01 4.54545E+00
 -1      4948 9.53694E+01 2.02714E+01 5.45455E+00
 -1      4949 9.53694E+01 2.02714E+01 6.36364E+00
 -1      4950 9.53694E+01 2.02714E+01 7.27273E+00
 -1      4951 9.53694E+01 2.02714E+01 8.18182E+00
 -1      4952 9.53694E+01 2.02714E+01 9.09091E+00
 -1      4953 9.41778E+01 2.52349E+01 9.09091E-01
 -1      4954 9.41778E+01 2.52349E+01 1.81818E+00
 -1      4955 9.41778E+01 2.52349E+01 2.72727E+00
 -1      4956 9.41778E+01 2.52349E+01 3.63636E+00
 -1      4957 9.41778E+01 2.52349E+01 4.54545E+00
 -1      4958 9.41778E+01 2.52349E+01 5.45455E+00
 -1      4959 9.41778E+01 2.52349E+01 6.36364E+00
 -1      4960 9.41778E+01 2.52349E+01 7.27273E+00
 -1      4961 9.41778E+01 2.52349E+01 8.18182E+00
 -1      4962 9.41778E+01 2.52349E+01 9.09091E+00
 -1      4963 9.27280E+01 3.01292E+01 9.09091E-01
 -1      4964 9.27280E+01 3.01292E+01 1.81818E+00
 -1      4965 9.27280E+01 3.01292E+01 2.72727E+00
 -1      4966 9.27280E+01 3.01292E+01 3.63636E+00
 -1      4967 9.27280E+01 3.01292E+01 4.54545E+00
 -1      4968 9.27280E+01 3.01292E+01 5.45455E+00
 -1      4969 9.27280E+01 3.01292E+01 6.36364E+00
 -1      4970 9.27280E+01 3.01292E+01 7.27273E+00
 -1      4971 9.27280E+01 3.01292E+01 8.18182E+00
 -1      4972 9.27280E+01 3.01292E+01 9.09091E+00
 -1      4973 9.10241E+01 3.49409E+01 9.09091E-01
 -1      4974 9.10241E+01 3.49409E+01 1.81818E+00
 -1      4975 9.10241E+01 3.49409E+01 2.72727E+00
 -1      4976 9.10241E+01 3.49409E+01 3.63636E+00
 -1      4977 9.10241E+01 3.49409E+01 4.54545E+00
 -1      4978 9.10241E+01 3.49409E+01 5.45455E+00
 -1      4979 9.10241E+01 3.49409E+01 6.36364E+00
 -1      4980 9.10241E+01 3.49409E+01 7.27273E+00
 -1      4981 9.10241E+01 3.49409E+01 8.18182E+00
 -1      4982 9.10241E+01 3.49409E+01 9.09091E+00
 -1      4983 8.90707E+01 3.96568E+01 9.09091E-01
 -1      4984 8.90707E+01 3.96568E+01 1.81818E+00
 -1      4985 8.90707E+01 3.96568E+01 2.72727E+00
 -1      4986 8.90707E+01 3.96568E+01 3.63636E+00
 -1      4987 8.90707E+01 3.96568E+01 4.54545E+00
 -1      4988 8.90707E+01 3.96568E+01 5.45455E+00
 -1      4989 8.90707E+01 3.96568E+01 6.36364E+00
 -1      4990 8.90707E+01 3.96568E+01 7.27273E+00
 -1      4991 8.90707E+01 3.96568E+01 8.18182E+00
 -1      4992 8.90707E+01 3.96568E+01 9.09091E+00
 -1      4993 8.68731E+01 4.42641E+01 9.09091E-01
 -1      4994 8.68731E+01 4.42641E+01 1.81818E+00
 -1      4995 8.68731E+01 4.42641E+01 2.72727E+00
 -1      4996 8.68731E+01 4.42641E+01 3.63636E+00
 -1      4997 8.68731E+01 4.42641E+01 4.54545E+00
 -1      4998 8.68731E+01 4.42641E+01 5.45455E+00
 -1      4999 8.68731E+01 4.42641E+01 6.36364E+00
 -1      5000 8.68731E+01 4.42641E+01 7.27273E+00
 -1      5001 8.68731E+01 4.42641E+01 8.18182E+00
 -1      5002 8.68731E+01 4.42641E+01 9.09091E+00
 -1      5003 8.44375E+01 4.87500E+01 9.09091E-01
 -1      5004 8.44375E+01 4.87500E+01 1.81818E+00
 -1      5005 8.44375E+01 4.87500E+01 2.72727E+00
 -1      5006 8.44375E+01 4.87500E+01 3.63636E+00
 -1      5007 8.44375E+01 4.87500E+01 4.54545E+00
 -1      5008 8.44375E+01 4.87500E+01 5.45455E+00
 -1      5009 8.44375E+01 4.87500E+01 6.36364E+00
 -1      5010 8.44375E+01 4.87500E+01 7.27273E+00
 -1      5011 8.44375E+01 4.87500E+01 8.18182E+00
 -1      5012 8.44375E+01 4.87500E+01 9.09091E+00
 -1      5013 8.17704E+01 5.31023E+01 9.09091E-01
 -1      5014 8.17704E+01 5.31023E+01 1.81818E+00
 -1      5015 8.17704E+01 5.31023E+01 2.72727E+00
 -1      5016 8.17704E+01 5.31023E+01 3.63636E+00
 -1      5017 8.17704E+01 5.31023E+01 4.54545E+00
 -1      5018 8.17704E+01 5.31023E+01 5.45455E+00
 -1      5019 8.17704E+01 5.31023E+01 6.36364E+00
 -1      5020 8.17704E+01 5.31023E+01 7.27273E+00
 -1      5021 8.17704E+01 5.31023E+01 8.18182E+00
 -1      5022 8.17704E+01 5.31023E+01 9.09091E+00
 -1      5023 7.88792E+01 5.73091E+01 9.09091E-01
 -1      5024 7.88792E+01 5.73091E+01 1.81818E+00
 -1      5025 7.88792E+01 5.73091E+01 2.72727E+00
 -1      5026 7.88792E+01 5.73091E+01 3.63636E+00
 -1      5027 7.88792E+01 5.73091E+01 4.54545E+00
 -1      5028 7.88792E+01 5.73091E+01 5.45455E+00
 -1      5029 7.88792E+01 5.73091E+01 6.36364E+00
 -1      5030 7.88792E+01 5.73091E+01 7.27273E+00
 -1      5031 7.88792E+01 5.73091E+01 8.18182E+00
 -1      5032 7.88792E+01 5.73091E+01 9.09091E+00
 -1      5033 7.57717E+01 6.13587E+01 9.09091E-01
 -1      5034 7.57717E+01 6.13587E+01 1.81818E+00
 -1      5035 7.57717E+01 6.13587E+01 2.72727E+00
 -1      5036 7.57717E+01 6.13587E+01 3.63636E+00
 -1      5037 7.57717E+01 6.13587E+01 4.54545E+00
 -1      5038 7.57717E+01 6.13587E+01 5.45455E+00
 -1      5039 7.57717E+01 6.13587E+01 6.36364E+00
 -1      5040 7.57717E+01 6.13587E+01 7.27273E+00
 -1      5041 7.57717E+01 6.13587E+01 8.18182E+00
 -1      5042 7.57717E+01 6.13587E+01 9.09091E+00
 -1      5043 7.24566E+01 6.52402E+01 9.09091E-01
 -1      5044 7.24566E+01 6.52402E+01 1.81818E+00
 -1      5045 7.24566E+01 6.52402E+01 2.72727E+00
 -1      5046 7.24566E+01 6.52402E+01 3.63636E+00
 -1      5047 7.24566E+01 6.52402E+01 4.54545E+00
 -1      5048 7.24566E+01 6.52402E+01 5.45455E+00
 -1      5049 7.24566E+01 6.52402E+01 6.36364E+00
 -1      5050 7.24566E+01 6.52402E+01 7.27273E+00
 -1      5051 7.24566E+01 6.52402E+01 8.18182E+00
 -1      5052 7.24566E+01 6.52402E+01 9.09091E+00
 -1      5053 6.89429E+01 6.89429E+01 9.09091E-01
 -1      5054 6.89429E+01 6.89429E+01 1.81818E+00
 -1      5055 6.89429E+01 6.89429E+01 2.72727E+00
 -1      5056 6.89429E+01 6.89429E+01 3.63636E+00
 -1      5057 6.89429E+01 6.89429E+01 4.54545E+00
 -1      5058 6.89429E+01 6.89429E+01 5.45455E+00
 -1      5059 6.89429E+01 6.89429E+01 6.36364E+00
 -1      5060 6.89429E+01 6.89429E+01 7.27273E+00
 -1      5061 6.89429E+01 6.89429E+01 8.18182E+00
 -1      5062 6.89429E+01 6.89429E+01 9.09091E+00
 -1      5063 6.52402E+01 7.24566E+01 9.09091E-01
 -1      5064 6.52402E+01 7.24566E+01 1.81818E+00
 -1      5065 6.52402E+01 7.24566E+01 2.72727E+00
 -1      5066 6.52402E+01 7.24566E+01 3.63636E+00
 -1      5067 6.52402E+01 7.24566E+01 4.54545E+00
 -1      5068 6.52402E+01 7.24566E+01 5.45455E+00
 -1      5069 6.52402E+01 7.24566E+01 6.36364E+00
 -1      5070 6.52402E+01 7.24566E+01 7.27273E+00
 -1      5071 6.52402E+01 7.24566E+01 8.18182E+00
 -1      5072 6.52402E+01 7.24566E+01 9.09091E+00
 -1      5073 6.13587E+01 7.57717E+01 9.09091E-01
 -1      5074 6.13587E+01 7.57717E+01 1.81818E+00
 -1      5075 6.13587E+01 7.57717E+01 2.72727E+00
 -1      5076 6.13587E+01 7.57717E+01 3.63636E+00
 -1      5077 6.13587E+01 7.57717E+01 4.54545E+00
 -1      5078 6.13587E+01 7.57717E+01 5.45455E+00
 -1      5079 6.13587E+01 7.57717E+01 6.36364E+00
 -1      5080 6.13587E+01 7.57717E+01 7.27273E+00
 -1      5081 6.13587E+01 7.57717E+01 8.18182E+00
 -1      5082 6.13587E+01 7.57717E+01 9.09091E+00
 -1      5083 5.73091E+01 7.88792E+01 9.09091E-01
 -1      5084 5.73091E+01 7.88792E+01 1.81818E+00
 -1      5085 5.73091E+01 7.88792E+01 2.72727E+00
 -1      5086 5.73091E+01 7.88792E+01 3.63636E+00
 -1      5087 5.73091E+01 7.88792E+01 4.54545E+00
 -1      5088 5.73091E+01 7.88792E+01 5.45455E+00
 -1      5089 5.73091E+01 7.88792E+01 6.36364E+00
 -1      5090 5.73091E+01 7.88792E+01 7.27273E+00
 -1      5091 5.73091E+01 7.88792E+01 8.18182E+00
 -1      5092 5.73091E+01 7.88792E+01 9.09091E+00
 -1      5093 5.31023E+01 8.17704E+01 9.09091E-01
 -1      5094 5.31023E+01 8.17704E+01 1.81818E+00
 -1      5095 5.31023E+01 8.17704E+01 2.72727E+00
 -1      5096 5.31023E+01 8.17704E+01 3.63636E+00
 -1      5097 5.31023E+01 8.17704E+01 4.54545E+00
 -1      5098 5.31023E+01 8.17704E+01 5.45455E+00
 -1      5099 5.31023E+01 8.17704E+01 6.36364E+00
 -1      5100 5.31023E+01 8.17704E+01 7.27273E+00
 -1      5101 5.31023E+01 8.17704E+01 8.18182E+00
 -1      5102 5.31023E+01 8.17704E+01 9.09091E+00
 -1      5103 4.87500E+01 8.44375E+01 9.09091E-01
 -1      5104 4.87500E+01 8.44375E+01 1.81818E+00
 -1      5105 4.87500E+01 8.44375E+01 2.72727E+00
 -1      5106 4.87500E+01 8.44375E+01 3.63636E+00
 -1      5107 4.87500E+01 8.44375E+01 4.54545E+00
 -1      5108 4.87500E+01 8.44375E+01 5.45455E+00
 -1      5109 4.87500E+01 8.44375E+01 6.36364E+00
 -1      5110 4.87500E+01 8.44375E+01 7.27273E+00
 -1      5111 4.87500E+01 8.44375E+01 8.18182E+00
 -1      5112 4.87500E+01 8.44375E+01 9.09091E+00
 -1      5113 4.42641E+01 8.68731E+01 9.09091E-01
 -1      5114 4.42641E+01 8.68731E+01 1.81818E+00
 -1      5115 4.42641E+01 8.68731E+01 2.72727E+00
 -1      5116 4.42641E+01 8.68731E+01 3.63636E+00
 -1      5117 4.42641E+01 8.68731E+01 4.54545E+00
 -1      5118 4.42641E+01 8.68731E+01 5.45455E+00
 -1      5119 4.42641E+01 8.68731E+01 6.36364E+00
 -1      5120 4.42641E+01 8.68731E+01 7.27273E+00
 -1      5121 4.42641E+01 8.68731E+01 8.18182E+00
 -1      5122 4.42641E+01 8.68731E+01 9.09091E+00
 -1      5123 3.96568E+01 8.90707E+01 9.09091E-01
 -1      5124 3.96568E+01 8.90707E+01 1.81818E+00
 -1      5125 3.96568E+01 8.90707E+01 2.72727E+00
 -1      5126 3.96568E+01 8.90707E+01 3.63636E+00
 -1      5127 3.96568E+01 8.90707E+01 4.54545E+00
 -1      5128 3.96568E+01 8.90707E+01 5.45455E+00
 -1      5129 3.96568E+01 8.90707E+01 6.36364E+00
 -1      5130 3.96568E+01 8.90707E+01 7.27273E+00
 -1      5131 3.96568E+01 8.90707E+01 8.18182E+00
 -1      5132 3.96568E+01 8.90707E+01 9.09091E+00
 -1      5133 3.49409E+01 9.10241E+01 9.09091E-01
 -1      5134 3.49409E+01 9.10241E+01 1.81818E+00
 -1      5135 3.49409E+01 9.10241E+01 2.72727E+00
 -1      5136 3.49409E+01 9.10241E+01 3.63636E+00
 -1      5137 3.49409E+01 9.10241E+01 4.54545E+00
 -1      5138 3.49409E+01 9.10241E+01 5.45455E+00
 -1      5139 3.49409E+01 9.10241E+01 6.36364E+00
 -1      5140 3.49409E+01 9.10241E+01 7.27273E+00
 -1      5141 3.49409E+01 9.10241E+01 8.18182E+00
 -1      5142 3.49409E+01 9.10241E+01 9.09091E+00
 -1      5143 3.01292E+01 9.27280E+01 9.09091E-01
 -1      5144 3.01292E+01 9.27280E+01 1.81818E+00
 -1      5145 3.01292E+01 9.27280E+01 2.72727E+00
 -1      5146 3.01292E+01 9.27280E+01 3.63636E+00
 -1      5147 3.01292E+01 9.27280E+01 4.54545E+00
 -1      5148 3.01292E+01 9.27280E+01 5.45455E+00
 -1      5149 3.01292E+01 9.27280E+01 6.36364E+00
 -1      5150 3.01292E+01 9.27280E+01 7.27273E+00
 -1      5151 3.01292E+01 9.27280E+01 8.18182E+00
 -1      5152 3.01292E+01 9.27280E+01 9.09091E+00
 -1      5153 2.52349E+01 9.41778E+01 9.09091E-01
 -1      5154 2.52349E+01 9.41778E+01 1.81818E+00
 -1      5155 2.52349E+01 9.41778E+01 2.72727E+00
 -1      5156 2.52349E+01 9.41778E+01 3.63636E+00
 -1      5157 2.52349E+01 9.41778E+01 4.54545E+00
 -1      5158 2.52349E+01 9.41778E+01 5.45455E+00
 -1      5159 2.52349E+01 9.41778E+01 6.36364E+00
 -1      5160 2.52349E+01 9.41778E+01 7.27273E+00
 -1      5161 2.52349E+01 9.41778E+01 8.18182E+00
 -1      5162 2.52349E+01 9.41778E+01 9.09091E+00
 -1      5163 2.02714E+01 9.53694E+01 9.09091E-01
 -1      5164 2.02714E+01 9.53694E+01 1.81818E+00
 -1      5165 2.02714E+01 9.53694E+01 2.72727E+00
 -1      5166 2.02714E+01 9.53694E+01 3.63636E+00
 -1      5167 2.02714E+01 9.53694E+01 4.54545E+00
 -1      5168 2.02714E+01 9.53694E+01 5.45455E+00
 -1      5169 2.02714E+01 9.53694E+01 6.36364E+00
 -1      5170 2.02714E+01 9.53694E+01 7.27273E+00
 -1      5171 2.02714E+01 9.53694E+01 8.18182E+00
 -1      5172 2.02714E+01 9.53694E+01 9.09091E+00
 -1      5173 1.52524E+01 9.62996E+01 9.09091E-01
 -1      5174 1.52524E+01 9.62996E+01 1.81818E+00
 -1      5175 1.52524E+01 9.62996E+01 2.72727E+00
 -1      5176 1.52524E+01 9.62996E+01 3.63636E+00
 -1      5177 1.52524E+01 9.62996E+01 4.54545E+00
 -1      5178 1.52524E+01 9.62996E+01 5.45455E+00
 -1      5179 1.52524E+01 9.62996E+01 6.36364E+00
 -1      5180 1.52524E+01 9.62996E+01 7.27273E+00
 -1      5181 1.52524E+01 9.62996E+01 8.18182E+00
 -1      5182 1.52524E+01 9.62996E+01 9.09091E+00
 -1      5183 1.01915E+01 9.69659E+01 9.09091E-01
 -1      5184 1.01915E+01 9.69659E+01 1.81818E+00
 -1      5185 1.01915E+01 9.69659E+01 2.72727E+00
 -1      5186 1.01915E+01 9.69659E+01 3.63636E+00
 -1      5187 1.01915E+01 9.69659E+01 4.54545E+00
 -1      5188 1.01915E+01 9.69659E+01 5.45455E+00
 -1      5189 1.01915E+01 9.69659E+01 6.36364E+00
 -1      5190 1.01915E+01 9.69659E+01 7.27273E+00
 -1      5191 1.01915E+01 9.69659E+01 8.18182E+00
 -1      5192 1.01915E+01 9.69659E+01 9.09091E+00
 -1      5193 5.10276E+00 9.73664E+01 9.09091E-01
 -1      5194 5.10276E+00 9.73664E+01 1.81818E+00
 -1      5195 5.10276E+00 9.73664E+01 2.72727E+00
 -1      5196 5.10276E+00 9.73664E+01 3.63636E+00
 -1      5197 5.10276E+00 9.73664E+01 4.54545E+00
 -1      5198 5.10276E+00 9.73664E+01 5.45455E+00
 -1      5199 5.10276E+00 9.73664E+01 6.36364E+00
 -1      5200 5.10276E+00 9.73664E+01 7.27273E+00
 -1      5201 5.10276E+00 9.73664E+01 8.18182E+00
 -1      5202 5.10276E+00 9.73664E+01 9.09091E+00
 -1      5203 9.76160E+01 5.11584E+00 9.09091E-01
 -1      5204 9.76160E+01 5.11584E+00 1.81818E+00
 -1      5205 9.76160E+01 5.11584E+00 2.72727E+00
 -1      5206 9.76160E+01 5.11584E+00 3.63636E+00
 -1      5207 9.76160E+01 5.11584E+00 4.54545E+00
 -1      5208 9.76160E+01 5.11584E+00 5.45455E+00
 -1      5209 9.76160E+01 5.11584E+00 6.36364E+00
 -1      5210 9.76160E+01 5.11584E+00 7.27273E+00
 -1      5211 9.76160E+01 5.11584E+00 8.18182E+00
 -1      5212 9.76160E+01 5.11584E+00 9.09091E+00
 -1      5213 9.72145E+01 1.02177E+01 9.09091E-01
 -1      5214 9.72145E+01 1.02177E+01 1.81818E+00
 -1      5215 9.72145E+01 1.02177E+01 2.72727E+00
 -1      5216 9.72145E+01 1.02177E+01 3.63636E+00
 -1      5217 9.72145E+01 1.02177E+01 4.54545E+00
 -1      5218 9.72145E+01 1.02177E+01 5.45455E+00
 -1      5219 9.72145E+01 1.02177E+01 6.36364E+00
 -1      5220 9.72145E+01 1.02177E+01 7.27273E+00
 -1      5221 9.72145E+01 1.02177E+01 8.18182E+00
 -1      5222 9.72145E+01 1.02177E+01 9.09091E+00
 -1      5223 9.65465E+01 1.52915E+01 9.09091E-01
 -1      5224 9.65465E+01 1.52915E+01 1.81818E+00
 -1      5225 9.65465E+01 1.52915E+01 2.72727E+00
 -1      5226 9.65465E+01 1.52915E+01 3.63636E+00
 -1      5227 9.65465E+01 1.52915E+01 4.54545E+00
 -1      5228 9.65465E+01 1.52915E+01 5.45455E+00
 -1      5229 9.65465E+01 1.52915E+01 6.36364E+00
 -1      5230 9.65465E+01 1.52915E+01 7.27273E+00
 -1      5231 9.65465E+01 1.52915E+01 8.18182E+00
 -1      5232 9.65465E+01 1.52915E+01 9.09091E+00
 -1      5233 9.56139E+01 2.03234E+01 9.09091E-01
 -1      5234 9.56139E+01 2.03234E+01 1.81818E+00
 -1      5235 9.56139E+01 2.03234E+01 2.72727E+00
 -1      5236 9.56139E+01 2.03234E+01 3.63636E+00
 -1      5237 9.56139E+01 2.03234E+01 4.54545E+00
 -1      5238 9.56139E+01 2.03234E+01 5.45455E+00
 -1      5239 9.56139E+01 2.03234E+01 6.36364E+00
 -1      5240 9.56139E+01 2.03234E+01 7.27273E+00
 -1      5241 9.56139E+01 2.03234E+01 8.18182E+00
 -1      5242 9.56139E+01 2.03234E+01 9.09091E+00
 -1      5243 9.44193E+01 2.52996E+01 9.09091E-01
 -1      5244 9.44193E+01 2.52996E+01 1.81818E+00
 -1      5245 9.44193E+01 2.52996E+01 2.72727E+00
 -1      5246 9.44193E+01 2.52996E+01 3.63636E+00
 -1      5247 9.44193E+01 2.52996E+01 4.54545E+00
 -1      5248 9.44193E+01 2.52996E+01 5.45455E+00
 -1      5249 9.44193E+01 2.52996E+01 6.36364E+00
 -1      5250 9.44193E+01 2.52996E+01 7.27273E+00
 -1      5251 9.44193E+01 2.52996E+01 8.18182E+00
 -1      5252 9.44193E+01 2.52996E+01 9.09091E+00
 -1      5253 9.29658E+01 3.02064E+01 9.09091E-01
 -1      5254 9.29658E+01 3.02064E+01 1.81818E+00
 -1      5255 9.29658E+01 3.02064E+01 2.72727E+00
 -1      5256 9.29658E+01 3.02064E+01 3.63636E+00
 -1      5257 9.29658E+01 3.02064E+01 4.54545E+00
 -1      5258 9.29658E+01 3.02064E+01 5.45455E+00
 -1      5259 9.29658E+01 3.02064E+01 6.36364E+00
 -1      5260 9.29658E+01 3.02064E+01 7.27273E+00
 -1      5261 9.29658E+01 3.02064E+01 8.18182E+00
 -1      5262 9.29658E+01 3.02064E+01 9.09091E+00
 -1      5263 9.12575E+01 3.50305E+01 9.09091E-01
 -1      5264 9.12575E+01 3.50305E+01 1.81818E+00
 -1      5265 9.12575E+01 3.50305E+01 2.72727E+00
 -1      5266 9.12575E+01 3.50305E+01 3.63636E+00
 -1      5267 9.12575E+01 3.50305E+01 4.54545E+00
 -1      5268 9.12575E+01 3.50305E+01 5.45455E+00
 -1      5269 9.12575E+01 3.50305E+01 6.36364E+00
 -1      5270 9.12575E+01 3.50305E+01 7.27273E+00
 -1      5271 9.12575E+01 3.50305E+01 8.18182E+00
 -1      5272 9.12575E+01 3.50305E+01 9.09091E+00
 -1      5273 8.92991E+01 3.97585E+01 9.09091E-01
 -1      5274 8.92991E+01 3.97585E+01 1.81818E+00
 -1      5275 8.92991E+01 3.97585E+01 2.72727E+00
 -1      5276 8.92991E+01 3.97585E+01 3.63636E+00
 -1      5277 8.92991E+01 3.97585E+01 4.54545E+00
 -1      5278 8.92991E+01 3.97585E+01 5.45455E+00
 -1      5279 8.92991E+01 3.97585E+01 6.36364E+00
 -1      5280 8.92991E+01 3.97585E+01 7.27273E+00
 -1      5281 8.92991E+01 3.97585E+01 8.18182E+00
 -1      5282 8.92991E+01 3.97585E+01 9.09091E+00
 -1      5283 8.70959E+01 4.43776E+01 9.09091E-01
 -1      5284 8.70959E+01 4.43776E+01 1.81818E+00
 -1      5285 8.70959E+01 4.43776E+01 2.72727E+00
 -1      5286 8.70959E+01 4.43776E+01 3.63636E+00
 -1      5287 8.70959E+01 4.43776E+01 4.54545E+00
 -1      5288 8.70959E+01 4.43776E+01 5.45455E+00
 -1      5289 8.70959E+01 4.43776E+01 6.36364E+00
 -1      5290 8.70959E+01 4.43776E+01 7.27273E+00
 -1      5291 8.70959E+01 4.43776E+01 8.18182E+00
 -1      5292 8.70959E+01 4.43776E+01 9.09091E+00
 -1      5293 8.46540E+01 4.88750E+01 9.09091E-01
 -1      5294 8.46540E+01 4.88750E+01 1.81818E+00
 -1      5295 8.46540E+01 4.88750E+01 2.72727E+00
 -1      5296 8.46540E+01 4.88750E+01 3.63636E+00
 -1      5297 8.46540E+01 4.88750E+01 4.54545E+00
 -1      5298 8.46540E+01 4.88750E+01 5.45455E+00
 -1      5299 8.46540E+01 4.88750E+01 6.36364E+00
 -1      5300 8.46540E+01 4.88750E+01 7.27273E+00
 -1      5301 8.46540E+01 4.88750E+01 8.18182E+00
 -1      5302 8.46540E+01 4.88750E+01 9.09091E+00
 -1      5303 8.19800E+01 5.32385E+01 9.09091E-01
 -1      5304 8.19800E+01 5.32385E+01 1.81818E+00
 -1      5305 8.19800E+01 5.32385E+01 2.72727E+00
 -1      5306 8.19800E+01 5.32385E+01 3.63636E+00
 -1      5307 8.19800E+01 5.32385E+01 4.54545E+00
 -1      5308 8.19800E+01 5.32385E+01 5.45455E+00
 -1      5309 8.19800E+01 5.32385E+01 6.36364E+00
 -1      5310 8.19800E+01 5.32385E+01 7.27273E+00
 -1      5311 8.19800E+01 5.32385E+01 8.18182E+00
 -1      5312 8.19800E+01 5.32385E+01 9.09091E+00
 -1      5313 7.90814E+01 5.74560E+01 9.09091E-01
 -1      5314 7.90814E+01 5.74560E+01 1.81818E+00
 -1      5315 7.90814E+01 5.74560E+01 2.72727E+00
 -1      5316 7.90814E+01 5.74560E+01 3.63636E+00
 -1      5317 7.90814E+01 5.74560E+01 4.54545E+00
 -1      5318 7.90814E+01 5.74560E+01 5.45455E+00
 -1      5319 7.90814E+01 5.74560E+01 6.36364E+00
 -1      5320 7.90814E+01 5.74560E+01 7.27273E+00
 -1      5321 7.90814E+01 5.74560E+01 8.18182E+00
 -1      5322 7.90814E+01 5.74560E+01 9.09091E+00
 -1      5323 7.59660E+01 6.15161E+01 9.09091E-01
 -1      5324 7.59660E+01 6.15161E+01 1.81818E+00
 -1      5325 7.59660E+01 6.15161E+01 2.72727E+00
 -1      5326 7.59660E+01 6.15161E+01 3.63636E+00
 -1      5327 7.59660E+01 6.15161E+01 4.54545E+00
 -1      5328 7.59660E+01 6.15161E+01 5.45455E+00
 -1      5329 7.59660E+01 6.15161E+01 6.36364E+00
 -1      5330 7.59660E+01 6.15161E+01 7.27273E+00
 -1      5331 7.59660E+01 6.15161E+01 8.18182E+00
 -1      5332 7.59660E+01 6.15161E+01 9.09091E+00
 -1      5333 7.26424E+01 6.54075E+01 9.09091E-01
 -1      5334 7.26424E+01 6.54075E+01 1.81818E+00
 -1      5335 7.26424E+01 6.54075E+01 2.72727E+00
 -1      5336 7.26424E+01 6.54075E+01 3.63636E+00
 -1      5337 7.26424E+01 6.54075E+01 4.54545E+00
 -1      5338 7.26424E+01 6.54075E+01 5.45455E+00
 -1      5339 7.26424E+01 6.54075E+01 6.36364E+00
 -1      5340 7.26424E+01 6.54075E+01 7.27273E+00
 -1      5341 7.26424E+01 6.54075E+01 8.18182E+00
 -1      5342 7.26424E+01 6.54075E+01 9.09091E+00
 -1      5343 6.91197E+01 6.91197E+01 9.09091E-01
 -1      5344 6.91197E+01 6.91197E+01 1.81818E+00
 -1      5345 6.91197E+01 6.91197E+01 2.72727E+00
 -1      5346 6.91197E+01 6.91197E+01 3.63636E+00
 -1      5347 6.91197E+01 6.91197E+01 4.54545E+00
 -1      5348 6.91197E+01 6.91197E+01 5.45455E+00
 -1      5349 6.91197E+01 6.91197E+01 6.36364E+00
 -1      5350 6.91197E+01 6.91197E+01 7.27273E+00
 -1      5351 6.91197E+01 6.91197E+01 8.18182E+00
 -1      5352 6.91197E+01 6.91197E+01 9.09091E+00
 -1      5353 6.54075E+01 7.26424E+01 9.09091E-01
 -1      5354 6.54075E+01 7.26424E+01 1.81818E+00
 -1      5355 6.54075E+01 7.26424E+01 2.72727E+00
 -1      5356 6.54075E+01 7.26424E+01 3.63636E+00
 -1      5357 6.54075E+01 7.26424E+01 4.54545E+00
 -1      5358 6.54075E+01 7.26424E+01 5.45455E+00
 -1      5359 6.54075E+01 7.26424E+01 6.36364E+00
 -1      5360 6.54075E+01 7.26424E+01 7.27273E+00
 -1      5361 6.54075E+01 7.26424E+01 8.18182E+00
 -1      5362 6.54075E+01 7.26424E+01 9.09091E+00
 -1      5363 6.15161E+01 7.59660E+01 9.09091E-01
 -1      5364 6.15161E+01 7.59660E+01 1.81818E+00
 -1      5365 6.15161E+01 7.59660E+01 2.72727E+00
 -1      5366 6.15161E+01 7.59660E+01 3.63636E+00
 -1      5367 6.15161E+01 7.59660E+01 4.54545E+00
 -1      5368 6.15161E+01 7.59660E+01 5.45455E+00
 -1      5369 6.15161E+01 7.59660E+01 6.36364E+00
 -1      5370 6.15161E+01 7.59660E+01 7.27273E+00
 -1      5371 6.15161E+01 7.59660E+01 8.18182E+00
 -1      5372 6.15161E+01 7.59660E+01 9.09091E+00
 -1      5373 5.74560E+01 7.90814E+01 9.09091E-01
 -1      5374 5.74560E+01 7.90814E+01 1.81818E+00
 -1      5375 5.74560E+01 7.90814E+01 2.72727E+00
 -1      5376 5.74560E+01 7.90814E+01 3.63636E+00
 -1      5377 5.74560E+01 7.90814E+01 4.54545E+00
 -1      5378 5.74560E+01 7.90814E+01 5.45455E+00
 -1      5379 5.74560E+01 7.90814E+01 6.36364E+00
 -1      5380 5.74560E+01 7.90814E+01 7.27273E+00
 -1      5381 5.74560E+01 7.90814E+01 8.18182E+00
 -1      5382 5.74560E+01 7.90814E+01 9.09091E+00
 -1      5383 5.32385E+01 8.19800E+01 9.09091E-01
 -1      5384 5.32385E+01 8.19800E+01 1.81818E+00
 -1      5385 5.32385E+01 8.19800E+01 2.72727E+00
 -1      5386 5.32385E+01 8.19800E+01 3.63636E+00
 -1      5387 5.32385E+01 8.19800E+01 4.54545E+00
 -1      5388 5.32385E+01 8.19800E+01 5.45455E+00
 -1      5389 5.32385E+01 8.19800E+01 6.36364E+00
 -1      5390 5.32385E+01 8.19800E+01 7.27273E+00
 -1      5391 5.32385E+01 8.19800E+01 8.18182E+00
 -1      5392 5.32385E+01 8.19800E+01 9.09091E+00
 -1      5393 4.88750E+01 8.46540E+01 9.09091E-01
 -1      5394 4.88750E+01 8.46540E+01 1.81818E+00
 -1      5395 4.88750E+01 8.46540E+01 2.72727E+00
 -1      5396 4.88750E+01 8.46540E+01 3.63636E+00
 -1      5397 4.88750E+01 8.46540E+01 4.54545E+00
 -1      5398 4.88750E+01 8.46540E+01 5.45455E+00
 -1      5399 4.88750E+01 8.46540E+01 6.36364E+00
 -1      5400 4.88750E+01 8.46540E+01 7.27273E+00
 -1      5401 4.88750E+01 8.46540E+01 8.18182E+00
 -1      5402 4.88750E+01 8.46540E+01 9.09091E+00
 -1      5403 4.43776E+01 8.70959E+01 9.09091E-01
 -1      5404 4.43776E+01 8.70959E+01 1.81818E+00
 -1      5405 4.43776E+01 8.70959E+01 2.72727E+00
 -1      5406 4.43776E+01 8.70959E+01 3.63636E+00
 -1      5407 4.43776E+01 8.70959E+01 4.54545E+00
 -1      5408 4.43776E+01 8.70959E+01 5.45455E+00
 -1      5409 4.43776E+01 8.70959E+01 6.36364E+00
 -1      5410 4.43776E+01 8.70959E+01 7.27273E+00
 -1      5411 4.43776E+01 8.70959E+01 8.18182E+00
 -1      5412 4.43776E+01 8.70959E+01 9.09091E+00
 -1      5413 3.97585E+01 8.92991E+01 9.09091E-01
 -1      5414 3.97585E+01 8.92991E+01 1.81818E+00
 -1      5415 3.97585E+01 8.92991E+01 2.72727E+00
 -1      5416 3.97585E+01 8.92991E+01 3.63636E+00
 -1      5417 3.97585E+01 8.92991E+01 4.54545E+00
 -1      5418 3.97585E+01 8.92991E+01 5.45455E+00
 -1      5419 3.97585E+01 8.92991E+01 6.36364E+00
 -1      5420 3.97585E+01 8.92991E+01 7.27273E+00
 -1      5421 3.97585E+01 8.92991E+01 8.18182E+00
 -1      5422 3.97585E+01 8.92991E+01 9.09091E+00
 -1      5423 3.50305E+01 9.12575E+01 9.09091E-01
 -1      5424 3.50305E+01 9.12575E+01 1.81818E+00
 -1      5425 3.50305E+01 9.12575E+01 2.72727E+00
 -1      5426 3.50305E+01 9.12575E+01 3.63636E+00
 -1      5427 3.50305E+01 9.12575E+01 4.54545E+00
 -1      5428 3.50305E+01 9.12575E+01 5.45455E+00
 -1      5429 3.50305E+01 9.12575E+01 6.36364E+00
 -1      5430 3.50305E+01 9.12575E+01 7.27273E+00
 -1      5431 3.50305E+01 9.12575E+01 8.18182E+00
 -1      5432 3.50305E+01 9.12575E+01 9.09091E+00
 -1      5433 3.02064E+01 9.29658E+01 9.09091E-01
 -1      5434 3.02064E+01 9.29658E+01 1.81818E+00
 -1      5435 3.02064E+01 9.29658E+01 2.72727E+00
 -1      5436 3.02064E+01 9.29658E+01 3.63636E+00
 -1      5437 3.02064E+01 9.29658E+01 4.54545E+00
 -1      5438 3.02064E+01 9.29658E+01 5.45455E+00
 -1      5439 3.02064E+01 9.29658E+01 6.36364E+00
 -1      5440 3.02064E+01 9.29658E+01 7.27273E+00
 -1      5441 3.02064E+01 9.29658E+01 8.18182E+00
 -1      5442 3.02064E+01 9.29658E+01 9.09091E+00
 -1      5443 2.52996E+01 9.44193E+01 9.09091E-01
 -1      5444 2.52996E+01 9.44193E+01 1.81818E+00
 -1      5445 2.52996E+01 9.44193E+01 2.72727E+00
 -1      5446 2.52996E+01 9.44193E+01 3.63636E+00
 -1      5447 2.52996E+01 9.44193E+01 4.54545E+00
 -1      5448 2.52996E+01 9.44193E+01 5.45455E+00
 -1      5449 2.52996E+01 9.44193E+01 6.36364E+00
 -1      5450 2.52996E+01 9.44193E+01 7.27273E+00
 -1      5451 2.52996E+01 9.44193E+01 8.18182E+00
 -1      5452 2.52996E+01 9.44193E+01 9.09091E+00
 -1      5453 2.03234E+01 9.56139E+01 9.09091E-01
 -1      5454 2.03234E+01 9.56139E+01 1.81818E+00
 -1      5455 2.03234E+01 9.56139E+01 2.72727E+00
 -1      5456 2.03234E+01 9.56139E+01 3.63636E+00
 -1      5457 2.03234E+01 9.56139E+01 4.54545E+00
 -1      5458 2.03234E+01 9.56139E+01 5.45455E+00
 -1      5459 2.03234E+01 9.56139E+01 6.36364E+00
 -1      5460 2.03234E+01 9.56139E+01 7.27273E+00
 -1      5461 2.03234E+01 9.56139E+01 8.18182E+00
 -1      5462 2.03234E+01 9.56139E+01 9.09091E+00
 -1      5463 1.52915E+01 9.65465E+01 9.09091E-01
 -1      5464 1.52915E+01 9.65465E+01 1.81818E+00
 -1      5465 1.52915E+01 9.65465E+01 2.72727E+00
 -1      5466 1.52915E+01 9.65465E+01 3.63636E+00
 -1      5467 1.52915E+01 9.65465E+01 4.54545E+00
 -1      5468 1.52915E+01 9.65465E+01 5.45455E+00
 -1      5469 1.52915E+01 9.65465E+01 6.36364E+00
 -1      5470 1.52915E+01 9.65465E+01 7.27273E+00
 -1      5471 1.52915E+01 9.65465E+01 8.18182E+00
 -1      5472 1.52915E+01 9.65465E+01 9.09091E+00
 -1      5473 1.02177E+01 9.72145E+01 9.09091E-01
 -1      5474 1.02177E+01 9.72145E+01 1.81818E+00
 -1      5475 1.02177E+01 9.72145E+01 2.72727E+00
 -1      5476 1.02177E+01 9.72145E+01 3.63636E+00
 -1      5477 1.02177E+01 9.72145E+01 4.54545E+00
 -1      5478 1.02177E+01 9.72145E+01 5.45455E+00
 -1      5479 1.02177E+01 9.72145E+01 6.36364E+00
 -1      5480 1.02177E+01 9.72145E+01 7.27273E+00
 -1      5481 1.02177E+01 9.72145E+01 8.18182E+00
 -1      5482 1.02177E+01 9.72145E+01 9.09091E+00
 -1      5483 5.11584E+00 9.76160E+01 9.09091E-01
 -1      5484 5.11584E+00 9.76160E+01 1.81818E+00
 -1      5485 5.11584E+00 9.76160E+01 2.72727E+00
 -1      5486 5.11584E+00 9.76160E+01 3.63636E+00
 -1      5487 5.11584E+00 9.76160E+01 4.54545E+00
 -1      5488 5.11584E+00 9.76160E+01 5.45455E+00
 -1      5489 5.11584E+00 9.76160E+01 6.36364E+00
 -1      5490 5.11584E+00 9.76160E+01 7.27273E+00
 -1      5491 5.11584E+00 9.76160E+01 8.18182E+00
 -1      5492 5.11584E+00 9.76160E+01 9.09091E+00
 -1      5493 9.78657E+01 5.12892E+00 9.09091E-01
 -1      5494 9.78657E+01 5.12892E+00 1.81818E+00
 -1      5495 9.78657E+01 5.12892E+00 2.72727E+00
 -1      5496 9.78657E+01 5.12892E+00 3.63636E+00
 -1      5497 9.78657E+01 5.12892E+00 4.54545E+00
 -1      5498 9.78657E+01 5.12892E+00 5.45455E+00
 -1      5499 9.78657E+01 5.12892E+00 6.36364E+00
 -1      5500 9.78657E+01 5.12892E+00 7.27273E+00
 -1      5501 9.78657E+01 5.12892E+00 8.18182E+00
 -1      5502 9.78657E+01 5.12892E+00 9.09091E+00
 -1      5503 9.74631E+01 1.02438E+01 9.09091E-01
 -1      5504 9.74631E+01 1.02438E+01 1.81818E+00
 -1      5505 9.74631E+01 1.02438E+01 2.72727E+00
 -1      5506 9.74631E+01 1.02438E+01 3.63636E+00
 -1      5507 9.74631E+01 1.02438E+01 4.54545E+00
 -1      5508 9.74631E+01 1.02438E+01 5.45455E+00
 -1      5509 9.74631E+01 1.02438E+01 6.36364E+00
 -1      5510 9.74631E+01 1.02438E+01 7.27273E+00
 -1      5511 9.74631E+01 1.02438E+01 8.18182E+00
 -1      5512 9.74631E+01 1.02438E+01 9.09091E+00
 -1      5513 9.67935E+01 1.53306E+01 9.09091E-01
 -1      5514 9.67935E+01 1.53306E+01 1.81818E+00
 -1      5515 9.67935E+01 1.53306E+01 2.72727E+00
 -1      5516 9.67935E+01 1.53306E+01 3.63636E+00
 -1      5517 9.67935E+01 1.53306E+01 4.54545E+00
 -1      5518 9.67935E+01 1.53306E+01 5.45455E+00
 -1      5519 9.67935E+01 1.53306E+01 6.36364E+00
 -1      5520 9.67935E+01 1.53306E+01 7.27273E+00
 -1      5521 9.67935E+01 1.53306E+01 8.18182E+00
 -1      5522 9.67935E+01 1.53306E+01 9.09091E+00
 -1      5523 9.58585E+01 2.03753E+01 9.09091E-01
 -1      5524 9.58585E+01 2.03753E+01 1.81818E+00
 -1      5525 9.58585E+01 2.03753E+01 2.72727E+00
 -1      5526 9.58585E+01 2.03753E+01 3.63636E+00
 -1      5527 9.58585E+01 2.03753E+01 4.54545E+00
 -1      5528 9.58585E+01 2.03753E+01 5.45455E+00
 -1      5529 9.58585E+01 2.03753E+01 6.36364E+00
 -1      5530 9.58585E+01 2.03753E+01 7.27273E+00
 -1      5531 9.58585E+01 2.03753E+01 8.18182E+00
 -1      5532 9.58585E+01 2.03753E+01 9.09091E+00
 -1      5533 9.46607E+01 2.53643E+01 9.09091E-01
 -1      5534 9.46607E+01 2.53643E+01 1.81818E+00
 -1      5535 9.46607E+01 2.53643E+01 2.72727E+00
 -1      5536 9.46607E+01 2.53643E+01 3.63636E+00
 -1      5537 9.46607E+01 2.53643E+01 4.54545E+00
 -1      5538 9.46607E+01 2.53643E+01 5.45455E+00
 -1      5539 9.46607E+01 2.53643E+01 6.36364E+00
 -1      5540 9.46607E+01 2.53643E+01 7.27273E+00
 -1      5541 9.46607E+01 2.53643E+01 8.18182E+00
 -1      5542 9.46607E+01 2.53643E+01 9.09091E+00
 -1      5543 9.32035E+01 3.02837E+01 9.09091E-01
 -1      5544 9.32035E+01 3.02837E+01 1.81818E+00
 -1      5545 9.32035E+01 3.02837E+01 2.72727E+00
 -1      5546 9.32035E+01 3.02837E+01 3.63636E+00
 -1      5547 9.32035E+01 3.02837E+01 4.54545E+00
 -1      5548 9.32035E+01 3.02837E+01 5.45455E+00
 -1      5549 9.32035E+01 3.02837E+01 6.36364E+00
 -1      5550 9.32035E+01 3.02837E+01 7.27273E+00
 -1      5551 9.32035E+01 3.02837E+01 8.18182E+00
 -1      5552 9.32035E+01 3.02837E+01 9.09091E+00
 -1      5553 9.14909E+01 3.51201E+01 9.09091E-01
 -1      5554 9.14909E+01 3.51201E+01 1.81818E+00
 -1      5555 9.14909E+01 3.51201E+01 2.72727E+00
 -1      5556 9.14909E+01 3.51201E+01 3.63636E+00
 -1      5557 9.14909E+01 3.51201E+01 4.54545E+00
 -1      5558 9.14909E+01 3.51201E+01 5.45455E+00
 -1      5559 9.14909E+01 3.51201E+01 6.36364E+00
 -1      5560 9.14909E+01 3.51201E+01 7.27273E+00
 -1      5561 9.14909E+01 3.51201E+01 8.18182E+00
 -1      5562 9.14909E+01 3.51201E+01 9.09091E+00
 -1      5563 8.95275E+01 3.98602E+01 9.09091E-01
 -1      5564 8.95275E+01 3.98602E+01 1.81818E+00
 -1      5565 8.95275E+01 3.98602E+01 2.72727E+00
 -1      5566 8.95275E+01 3.98602E+01 3.63636E+00
 -1      5567 8.95275E+01 3.98602E+01 4.54545E+00
 -1      5568 8.95275E+01 3.98602E+01 5.45455E+00
 -1      5569 8.95275E+01 3.98602E+01 6.36364E+00
 -1      5570 8.95275E+01 3.98602E+01 7.27273E+00
 -1      5571 8.95275E+01 3.98602E+01 8.18182E+00
 -1      5572 8.95275E+01 3.98602E+01 9.09091E+00
 -1      5573 8.73186E+01 4.44911E+01 9.09091E-01
 -1      5574 8.73186E+01 4.44911E+01 1.81818E+00
 -1      5575 8.73186E+01 4.44911E+01 2.72727E+00
 -1      5576 8.73186E+01 4.44911E+01 3.63636E+00
 -1      5577 8.73186E+01 4.44911E+01 4.54545E+00
 -1      5578 8.73186E+01 4.44911E+01 5.45455E+00
 -1      5579 8.73186E+01 4.44911E+01 6.36364E+00
 -1      5580 8.73186E+01 4.44911E+01 7.27273E+00
 -1      5581 8.73186E+01 4.44911E+01 8.18182E+00
 -1      5582 8.73186E+01 4.44911E+01 9.09091E+00
 -1      5583 8.48705E+01 4.90000E+01 9.09091E-01
 -1      5584 8.48705E+01 4.90000E+01 1.81818E+00
 -1      5585 8.48705E+01 4.90000E+01 2.72727E+00
 -1      5586 8.48705E+01 4.90000E+01 3.63636E+00
 -1      5587 8.48705E+01 4.90000E+01 4.54545E+00
 -1      5588 8.48705E+01 4.90000E+01 5.45455E+00
 -1      5589 8.48705E+01 4.90000E+01 6.36364E+00
 -1      5590 8.48705E+01 4.90000E+01 7.27273E+00
 -1      5591 8.48705E+01 4.90000E+01 8.18182E+00
 -1      5592 8.48705E+01 4.90000E+01 9.09091E+00
 -1      5593 8.21897E+01 5.33746E+01 9.09091E-01
 -1      5594 8.21897E+01 5.33746E+01 1.81818E+00
 -1      5595 8.21897E+01 5.33746E+01 2.72727E+00
 -1      5596 8.21897E+01 5.33746E+01 3.63636E+00
 -1      5597 8.21897E+01 5.33746E+01 4.54545E+00
 -1      5598 8.21897E+01 5.33746E+01 5.45455E+00
 -1      5599 8.21897E+01 5.33746E+01 6.36364E+00
 -1      5600 8.21897E+01 5.33746E+01 7.27273E+00
 -1      5601 8.21897E+01 5.33746E+01 8.18182E+00
 -1      5602 8.21897E+01 5.33746E+01 9.09091E+00
 -1      5603 7.92837E+01 5.76030E+01 9.09091E-01
 -1      5604 7.92837E+01 5.76030E+01 1.81818E+00
 -1      5605 7.92837E+01 5.76030E+01 2.72727E+00
 -1      5606 7.92837E+01 5.76030E+01 3.63636E+00
 -1      5607 7.92837E+01 5.76030E+01 4.54545E+00
 -1      5608 7.92837E+01 5.76030E+01 5.45455E+00
 -1      5609 7.92837E+01 5.76030E+01 6.36364E+00
 -1      5610 7.92837E+01 5.76030E+01 7.27273E+00
 -1      5611 7.92837E+01 5.76030E+01 8.18182E+00
 -1      5612 7.92837E+01 5.76030E+01 9.09091E+00
 -1      5613 7.61603E+01 6.16734E+01 9.09091E-01
 -1      5614 7.61603E+01 6.16734E+01 1.81818E+00
 -1      5615 7.61603E+01 6.16734E+01 2.72727E+00
 -1      5616 7.61603E+01 6.16734E+01 3.63636E+00
 -1      5617 7.61603E+01 6.16734E+01 4.54545E+00
 -1      5618 7.61603E+01 6.16734E+01 5.45455E+00
 -1      5619 7.61603E+01 6.16734E+01 6.36364E+00
 -1      5620 7.61603E+01 6.16734E+01 7.27273E+00
 -1      5621 7.61603E+01 6.16734E+01 8.18182E+00
 -1      5622 7.61603E+01 6.16734E+01 9.09091E+00
 -1      5623 7.28282E+01 6.55748E+01 9.09091E-01
 -1      5624 7.28282E+01 6.55748E+01 1.81818E+00
 -1      5625 7.28282E+01 6.55748E+01 2.72727E+00
 -1      5626 7.28282E+01 6.55748E+01 3.63636E+00
 -1      5627 7.28282E+01 6.55748E+01 4.54545E+00
 -1      5628 7.28282E+01 6.55748E+01 5.45455E+00
 -1      5629 7.28282E+01 6.55748E+01 6.36364E+00
 -1      5630 7.28282E+01 6.55748E+01 7.27273E+00
 -1      5631 7.28282E+01 6.55748E+01 8.18182E+00
 -1      5632 7.28282E+01 6.55748E+01 9.09091E+00
 -1      5633 6.92965E+01 6.92965E+01 9.09091E-01
 -1      5634 6.92965E+01 6.92965E+01 1.81818E+00
 -1      5635 6.92965E+01 6.92965E+01 2.72727E+00
 -1      5636 6.92965E+01 6.92965E+01 3.63636E+00
 -1      5637 6.92965E+01 6.92965E+01 4.54545E+00
 -1      5638 6.92965E+01 6.92965E+01 5.45455E+00
 -1      5639 6.92965E+01 6.92965E+01 6.36364E+00
 -1      5640 6.92965E+01 6.92965E+01 7.27273E+00
 -1      5641 6.92965E+01 6.92965E+01 8.18182E+00
 -1      5642 6.92965E+01 6.92965E+01 9.09091E+00
 -1      5643 6.55748E+01 7.28282E+01 9.09091E-01
 -1      5644 6.55748E+01 7.28282E+01 1.81818E+00
 -1      5645 6.55748E+01 7.28282E+01 2.72727E+00
 -1      5646 6.55748E+01 7.28282E+01 3.63636E+00
 -1      5647 6.55748E+01 7.28282E+01 4.54545E+00
 -1      5648 6.55748E+01 7.28282E+01 5.45455E+00
 -1      5649 6.55748E+01 7.28282E+01 6.36364E+00
 -1      5650 6.55748E+01 7.28282E+01 7.27273E+00
 -1      5651 6.55748E+01 7.28282E+01 8.18182E+00
 -1      5652 6.55748E+01 7.28282E+01 9.09091E+00
 -1      5653 6.16734E+01 7.61603E+01 9.09091E-01
 -1      5654 6.16734E+01 7.61603E+01 1.81818E+00
 -1      5655 6.16734E+01 7.61603E+01 2.72727E+00
 -1      5656 6.16734E+01 7.61603E+01 3.63636E+00
 -1      5657 6.16734E+01 7.61603E+01 4.54545E+00
 -1      5658 6.16734E+01 7.61603E+01 5.45455E+00
 -1      5659 6.16734E+01 7.61603E+01 6.36364E+00
 -1      5660 6.16734E+01 7.61603E+01 7.27273E+00
 -1      5661 6.16734E+01 7.61603E+01 8.18182E+00
 -1      5662 6.16734E+01 7.61603E+01 9.09091E+00
 -1      5663 5.76030E+01 7.92837E+01 9.09091E-01
 -1      5664 5.76030E+01 7.92837E+01 1.81818E+00
 -1      5665 5.76030E+01 7.92837E+01 2.72727E+00
 -1      5666 5.76030E+01 7.92837E+01 3.63636E+00
 -1      5667 5.76030E+01 7.92837E+01 4.54545E+00
 -1      5668 5.76030E+01 7.92837E+01 5.45455E+00
 -1      5669 5.76030E+01 7.92837E+01 6.36364E+00
 -1      5670 5.76030E+01 7.92837E+01 7.27273E+00
 -1      5671 5.76030E+01 7.92837E+01 8.18182E+00
 -1      5672 5.76030E+01 7.92837E+01 9.09091E+00
 -1      5673 5.33746E+01 8.21897E+01 9.09091E-01
 -1      5674 5.33746E+01 8.21897E+01 1.81818E+00
 -1      5675 5.33746E+01 8.21897E+01 2.72727E+00
 -1      5676 5.33746E+01 8.21897E+01 3.63636E+00
 -1      5677 5.33746E+01 8.21897E+01 4.54545E+00
 -1      5678 5.33746E+01 8.21897E+01 5.45455E+00
 -1      5679 5.33746E+01 8.21897E+01 6.36364E+00
 -1      5680 5.33746E+01 8.21897E+01 7.27273E+00
 -1      5681 5.33746E+01 8.21897E+01 8.18182E+00
 -1      5682 5.33746E+01 8.21897E+01 9.09091E+00
 -1      5683 4.90000E+01 8.48705E+01 9.09091E-01
 -1      5684 4.90000E+01 8.48705E+01 1.81818E+00
 -1      5685 4.90000E+01 8.48705E+01 2.72727E+00
 -1      5686 4.90000E+01 8.48705E+01 3.63636E+00
 -1      5687 4.90000E+01 8.48705E+01 4.54545E+00
 -1      5688 4.90000E+01 8.48705E+01 5.45455E+00
 -1      5689 4.90000E+01 8.48705E+01 6.36364E+00
 -1      5690 4.90000E+01 8.48705E+01 7.27273E+00
 -1      5691 4.90000E+01 8.48705E+01 8.18182E+00
 -1      5692 4.90000E+01 8.48705E+01 9.09091E+00
 -1      5693 4.44911E+01 8.73186E+01 9.09091E-01
 -1      5694 4.44911E+01 8.73186E+01 1.81818E+00
 -1      5695 4.44911E+01 8.73186E+01 2.72727E+00
 -1      5696 4.44911E+01 8.73186E+01 3.63636E+00
 -1      5697 4.44911E+01 8.73186E+01 4.54545E+00
 -1      5698 4.44911E+01 8.73186E+01 5.45455E+00
 -1      5699 4.44911E+01 8.73186E+01 6.36364E+00
 -1      5700 4.44911E+01 8.73186E+01 7.27273E+00
 -1      5701 4.44911E+01 8.73186E+01 8.18182E+00
 -1      5702 4.44911E+01 8.73186E+01 9.09091E+00
 -1      5703 3.98602E+01 8.95275E+01 9.09091E-01
 -1      5704 3.98602E+01 8.95275E+01 1.81818E+00
 -1      5705 3.98602E+01 8.95275E+01 2.72727E+00
 -1      5706 3.98602E+01 8.95275E+01 3.63636E+00
 -1      5707 3.98602E+01 8.95275E+01 4.54545E+00
 -1      5708 3.98602E+01 8.95275E+01 5.45455E+00
 -1      5709 3.98602E+01 8.95275E+01 6.36364E+00
 -1      5710 3.98602E+01 8.95275E+01 7.27273E+00
 -1      5711 3.98602E+01 8.95275E+01 8.18182E+00
 -1      5712 3.98602E+01 8.95275E+01 9.09091E+00
 -1      5713 3.51201E+01 9.14909E+01 9.09091E-01
 -1      5714 3.51201E+01 9.14909E+01 1.81818E+00
 -1      5715 3.51201E+01 9.14909E+01 2.72727E+00
 -1      5716 3.51201E+01 9.14909E+01 3.63636E+00
 -1      5717 3.51201E+01 9.14909E+01 4.54545E+00
 -1      5718 3.51201E+01 9.14909E+01 5.45455E+00
 -1      5719 3.51201E+01 9.14909E+01 6.36364E+00
 -1      5720 3.51201E+01 9.14909E+01 7.27273E+00
 -1      5721 3.51201E+01 9.14909E+01 8.18182E+00
 -1      5722 3.51201E+01 9.14909E+01 9.09091E+00
 -1      5723 3.02837E+01 9.32035E+01 9.09091E-01
 -1      5724 3.02837E+01 9.32035E+01 1.81818E+00
 -1      5725 3.02837E+01 9.32035E+01 2.72727E+00
 -1      5726 3.02837E+01 9.32035E+01 3.63636E+00
 -1      5727 3.02837E+01 9.32035E+01 4.54545E+00
 -1      5728 3.02837E+01 9.32035E+01 5.45455E+00
 -1      5729 3.02837E+01 9.32035E+01 6.36364E+00
 -1      5730 3.02837E+01 9.32035E+01 7.27273E+00
 -1      5731 3.02837E+01 9.32035E+01 8.18182E+00
 -1      5732 3.02837E+01 9.32035E+01 9.09091E+00
 -1      5733 2.53643E+01 9.46607E+01 9.09091E-01
 -1      5734 2.53643E+01 9.46607E+01 1.81818E+00
 -1      5735 2.53643E+01 9.46607E+01 2.72727E+00
 -1      5736 2.53643E+01 9.46607E+01 3.63636E+00
 -1      5737 2.53643E+01 9.46607E+01 4.54545E+00
 -1      5738 2.53643E+01 9.46607E+01 5.45455E+00
 -1      5739 2.53643E+01 9.46607E+01 6.36364E+00
 -1      5740 2.53643E+01 9.46607E+01 7.27273E+00
 -1      5741 2.53643E+01 9.46607E+01 8.18182E+00
 -1      5742 2.53643E+01 9.46607E+01 9.09091E+00
 -1      5743 2.03753E+01 9.58585E+01 9.09091E-01
 -1      5744 2.03753E+01 9.58585E+01 1.81818E+00
 -1      5745 2.03753E+01 9.58585E+01 2.72727E+00
 -1      5746 2.03753E+01 9.58585E+01 3.63636E+00
 -1      5747 2.03753E+01 9.58585E+01 4.54545E+00
 -1      5748 2.03753E+01 9.58585E+01 5.45455E+00
 -1      5749 2.03753E+01 9.58585E+01 6.36364E+00
 -1      5750 2.03753E+01 9.58585E+01 7.27273E+00
 -1      5751 2.03753E+01 9.58585E+01 8.18182E+00
 -1      5752 2.03753E+01 9.58585E+01 9.09091E+00
 -1      5753 1.53306E+01 9.67935E+01 9.09091E-01
 -1      5754 1.53306E+01 9.67935E+01 1.81818E+00
 -1      5755 1.53306E+01 9.67935E+01 2.72727E+00
 -1      5756 1.53306E+01 9.67935E+01 3.63636E+00
 -1      5757 1.53306E+01 9.67935E+01 4.54545E+00
 -1      5758 1.53306E+01 9.67935E+01 5.45455E+00
 -1      5759 1.53306E+01 9.67935E+01 6.36364E+00
 -1      5760 1.53306E+01 9.67935E+01 7.27273E+00
 -1      5761 1.53306E+01 9.67935E+01 8.18182E+00
 -1      5762 1.53306E+01 9.67935E+01 9.09091E+00
 -1      5763 1.02438E+01 9.74631E+01 9.09091E-01
 -1      5764 1.02438E+01 9.74631E+01 1.81818E+00
 -1      5765 1.02438E+01 9.74631E+01 2.72727E+00
 -1      5766 1.02438E+01 9.74631E+01 3.63636E+00
 -1      5767 1.02438E+01 9.74631E+01 4.54545E+00
 -1      5768 1.02438E+01 9.74631E+01 5.45455E+00
 -1      5769 1.02438E+01 9.74631E+01 6.36364E+00
 -1      5770 1.02438E+01 9.74631E+01 7.27273E+00
 -1      5771 1.02438E+01 9.74631E+01 8.18182E+00
 -1      5772 1.02438E+01 9.74631E+01 9.09091E+00
 -1      5773 5.12892E+00 9.78657E+01 9.09091E-01
 -1      5774 5.12892E+00 9.78657E+01 1.81818E+00
 -1      5775 5.12892E+00 9.78657E+01 2.72727E+00
 -1      5776 5.12892E+00 9.78657E+01 3.63636E+00
 -1      5777 5.12892E+00 9.78657E+01 4.54545E+00
 -1      5778 5.12892E+00 9.78657E+01 5.45455E+00
 -1      5779 5.12892E+00 9.78657E+01 6.36364E+00
 -1      5780 5.12892E+00 9.78657E+01 7.27273E+00
 -1      5781 5.12892E+00 9.78657E+01 8.18182E+00
 -1      5782 5.12892E+00 9.78657E+01 9.09091E+00
 -1      5783 9.81153E+01 5.14201E+00 9.09091E-01
 -1      5784 9.81153E+01 5.14201E+00 1.81818E+00
 -1      5785 9.81153E+01 5.14201E+00 2.72727E+00
 -1      5786 9.81153E+01 5.14201E+00 3.63636E+00
 -1      5787 9.81153E+01 5.14201E+00 4.54545E+00
 -1      5788 9.81153E+01 5.14201E+00 5.45455E+00
 -1      5789 9.81153E+01 5.14201E+00 6.36364E+00
 -1      5790 9.81153E+01 5.14201E+00 7.27273E+00
 -1      5791 9.81153E+01 5.14201E+00 8.18182E+00
 -1      5792 9.81153E+01 5.14201E+00 9.09091E+00
 -1      5793 9.77118E+01 1.02699E+01 9.09091E-01
 -1      5794 9.77118E+01 1.02699E+01 1.81818E+00
 -1      5795 9.77118E+01 1.02699E+01 2.72727E+00
 -1      5796 9.77118E+01 1.02699E+01 3.63636E+00
 -1      5797 9.77118E+01 1.02699E+01 4.54545E+00
 -1      5798 9.77118E+01 1.02699E+01 5.45455E+00
 -1      5799 9.77118E+01 1.02699E+01 6.36364E+00
 -1      5800 9.77118E+01 1.02699E+01 7.27273E+00
 -1      5801 9.77118E+01 1.02699E+01 8.18182E+00
 -1      5802 9.77118E+01 1.02699E+01 9.09091E+00
 -1      5803 9.70404E+01 1.53697E+01 9.09091E-01
 -1      5804 9.70404E+01 1.53697E+01 1.81818E+00
 -1      5805 9.70404E+01 1.53697E+01 2.72727E+00
 -1      5806 9.70404E+01 1.53697E+01 3.63636E+00
 -1      5807 9.70404E+01 1.53697E+01 4.54545E+00
 -1      5808 9.70404E+01 1.53697E+01 5.45455E+00
 -1      5809 9.70404E+01 1.53697E+01 6.36364E+00
 -1      5810 9.70404E+01 1.53697E+01 7.27273E+00
 -1      5811 9.70404E+01 1.53697E+01 8.18182E+00
 -1      5812 9.70404E+01 1.53697E+01 9.09091E+00
 -1      5813 9.61030E+01 2.04273E+01 9.09091E-01
 -1      5814 9.61030E+01 2.04273E+01 1.81818E+00
 -1      5815 9.61030E+01 2.04273E+01 2.72727E+00
 -1      5816 9.61030E+01 2.04273E+01 3.63636E+00
 -1      5817 9.61030E+01 2.04273E+01 4.54545E+00
 -1      5818 9.61030E+01 2.04273E+01 5.45455E+00
 -1      5819 9.61030E+01 2.04273E+01 6.36364E+00
 -1      5820 9.61030E+01 2.04273E+01 7.27273E+00
 -1      5821 9.61030E+01 2.04273E+01 8.18182E+00
 -1      5822 9.61030E+01 2.04273E+01 9.09091E+00
 -1      5823 9.49022E+01 2.54290E+01 9.09091E-01
 -1      5824 9.49022E+01 2.54290E+01 1.81818E+00
 -1      5825 9.49022E+01 2.54290E+01 2.72727E+00
 -1      5826 9.49022E+01 2.54290E+01 3.63636E+00
 -1      5827 9.49022E+01 2.54290E+01 4.54545E+00
 -1      5828 9.49022E+01 2.54290E+01 5.45455E+00
 -1      5829 9.49022E+01 2.54290E+01 6.36364E+00
 -1      5830 9.49022E+01 2.54290E+01 7.27273E+00
 -1      5831 9.49022E+01 2.54290E+01 8.18182E+00
 -1      5832 9.49022E+01 2.54290E+01 9.09091E+00
 -1      5833 9.34413E+01 3.03609E+01 9.09091E-01
 -1      5834 9.34413E+01 3.03609E+01 1.81818E+00
 -1      5835 9.34413E+01 3.03609E+01 2.72727E+00
 -1      5836 9.34413E+01 3.03609E+01 3.63636E+00
 -1      5837 9.34413E+01 3.03609E+01 4.54545E+00
 -1      5838 9.34413E+01 3.03609E+01 5.45455E+00
 -1      5839 9.34413E+01 3.03609E+01 6.36364E+00
 -1      5840 9.34413E+01 3.03609E+01 7.27273E+00
 -1      5841 9.34413E+01 3.03609E+01 8.18182E+00
 -1      5842 9.34413E+01 3.03609E+01 9.09091E+00
 -1      5843 9.17243E+01 3.52097E+01 9.09091E-01
 -1      5844 9.17243E+01 3.52097E+01 1.81818E+00
 -1      5845 9.17243E+01 3.52097E+01 2.72727E+00
 -1      5846 9.17243E+01 3.52097E+01 3.63636E+00
 -1      5847 9.17243E+01 3.52097E+01 4.54545E+00
 -1      5848 9.17243E+01 3.52097E+01 5.45455E+00
 -1      5849 9.17243E+01 3.52097E+01 6.36364E+00
 -1      5850 9.17243E+01 3.52097E+01 7.27273E+00
 -1      5851 9.17243E+01 3.52097E+01 8.18182E+00
 -1      5852 9.17243E+01 3.52097E+01 9.09091E+00
 -1      5853 8.97558E+01 3.99619E+01 9.09091E-01
 -1      5854 8.97558E+01 3.99619E+01 1.81818E+00
 -1      5855 8.97558E+01 3.99619E+01 2.72727E+00
 -1      5856 8.97558E+01 3.99619E+01 3.63636E+00
 -1      5857 8.97558E+01 3.99619E+01 4.54545E+00
 -1      5858 8.97558E+01 3.99619E+01 5.45455E+00
 -1      5859 8.97558E+01 3.99619E+01 6.36364E+00
 -1      5860 8.97558E+01 3.99619E+01 7.27273E+00
 -1      5861 8.97558E+01 3.99619E+01 8.18182E+00
 -1      5862 8.97558E+01 3.99619E+01 9.09091E+00
 -1      5863 8.75414E+01 4.46046E+01 9.09091E-01
 -1      5864 8.75414E+01 4.46046E+01 1.81818E+00
 -1      5865 8.75414E+01 4.46046E+01 2.72727E+00
 -1      5866 8.75414E+01 4.46046E+01 3.63636E+00
 -1      5867 8.75414E+01 4.46046E+01 4.54545E+00
 -1      5868 8.75414E+01 4.46046E+01 5.45455E+00
 -1      5869 8.75414E+01 4.46046E+01 6.36364E+00
 -1      5870 8.75414E+01 4.46046E+01 7.27273E+00
 -1      5871 8.75414E+01 4.46046E+01 8.18182E+00
 -1      5872 8.75414E+01 4.46046E+01 9.09091E+00
 -1      5873 8.50870E+01 4.91250E+01 9.09091E-01
 -1      5874 8.50870E+01 4.91250E+01 1.81818E+00
 -1      5875 8.50870E+01 4.91250E+01 2.72727E+00
 -1      5876 8.50870E+01 4.91250E+01 3.63636E+00
 -1      5877 8.50870E+01 4.91250E+01 4.54545E+00
 -1      5878 8.50870E+01 4.91250E+01 5.45455E+00
 -1      5879 8.50870E+01 4.91250E+01 6.36364E+00
 -1      5880 8.50870E+01 4.91250E+01 7.27273E+00
 -1      5881 8.50870E+01 4.91250E+01 8.18182E+00
 -1      5882 8.50870E+01 4.91250E+01 9.09091E+00
 -1      5883 8.23994E+01 5.35108E+01 9.09091E-01
 -1      5884 8.23994E+01 5.35108E+01 1.81818E+00
 -1      5885 8.23994E+01 5.35108E+01 2.72727E+00
 -1      5886 8.23994E+01 5.35108E+01 3.63636E+00
 -1      5887 8.23994E+01 5.35108E+01 4.54545E+00
 -1      5888 8.23994E+01 5.35108E+01 5.45455E+00
 -1      5889 8.23994E+01 5.35108E+01 6.36364E+00
 -1      5890 8.23994E+01 5.35108E+01 7.27273E+00
 -1      5891 8.23994E+01 5.35108E+01 8.18182E+00
 -1      5892 8.23994E+01 5.35108E+01 9.09091E+00
 -1      5893 7.94859E+01 5.77499E+01 9.09091E-01
 -1      5894 7.94859E+01 5.77499E+01 1.81818E+00
 -1      5895 7.94859E+01 5.77499E+01 2.72727E+00
 -1      5896 7.94859E+01 5.77499E+01 3.63636E+00
 -1      5897 7.94859E+01 5.77499E+01 4.54545E+00
 -1      5898 7.94859E+01 5.77499E+01 5.45455E+00
 -1      5899 7.94859E+01 5.77499E+01 6.36364E+00
 -1      5900 7.94859E+01 5.77499E+01 7.27273E+00
 -1      5901 7.94859E+01 5.77499E+01 8.18182E+00
 -1      5902 7.94859E+01 5.77499E+01 9.09091E+00
 -1      5903 7.63546E+01 6.18307E+01 9.09091E-01
 -1      5904 7.63546E+01 6.18307E+01 1.81818E+00
 -1      5905 7.63546E+01 6.18307E+01 2.72727E+00
 -1      5906 7.63546E+01 6.18307E+01 3.63636E+00
 -1      5907 7.63546E+01 6.18307E+01 4.54545E+00
 -1      5908 7.63546E+01 6.18307E+01 5.45455E+00
 -1      5909 7.63546E+01 6.18307E+01 6.36364E+00
 -1      5910 7.63546E+01 6.18307E+01 7.27273E+00
 -1      5911 7.63546E+01 6.18307E+01 8.18182E+00
 -1      5912 7.63546E+01 6.18307E+01 9.09091E+00
 -1      5913 7.30140E+01 6.57421E+01 9.09091E-01
 -1      5914 7.30140E+01 6.57421E+01 1.81818E+00
 -1      5915 7.30140E+01 6.57421E+01 2.72727E+00
 -1      5916 7.30140E+01 6.57421E+01 3.63636E+00
 -1      5917 7.30140E+01 6.57421E+01 4.54545E+00
 -1      5918 7.30140E+01 6.57421E+01 5.45455E+00
 -1      5919 7.30140E+01 6.57421E+01 6.36364E+00
 -1      5920 7.30140E+01 6.57421E+01 7.27273E+00
 -1      5921 7.30140E+01 6.57421E+01 8.18182E+00
 -1      5922 7.30140E+01 6.57421E+01 9.09091E+00
 -1      5923 6.94732E+01 6.94732E+01 9.09091E-01
 -1      5924 6.94732E+01 6.94732E+01 1.81818E+00
 -1      5925 6.94732E+01 6.94732E+01 2.72727E+00
 -1      5926 6.94732E+01 6.94732E+01 3.63636E+00
 -1      5927 6.94732E+01 6.94732E+01 4.54545E+00
 -1      5928 6.94732E+01 6.94732E+01 5.45455E+00
 -1      5929 6.94732E+01 6.94732E+01 6.36364E+00
 -1      5930 6.94732E+01 6.94732E+01 7.27273E+00
 -1      5931 6.94732E+01 6.94732E+01 8.18182E+00
 -1      5932 6.94732E+01 6.94732E+01 9.09091E+00
 -1      5933 6.57421E+01 7.30140E+01 9.09091E-01
 -1      5934 6.57421E+01 7.30140E+01 1.81818E+00
 -1      5935 6.57421E+01 7.30140E+01 2.72727E+00
 -1      5936 6.57421E+01 7.30140E+01 3.63636E+00
 -1      5937 6.57421E+01 7.30140E+01 4.54545E+00
 -1      5938 6.57421E+01 7.30140E+01 5.45455E+00
 -1      5939 6.57421E+01 7.30140E+01 6.36364E+00
 -1      5940 6.57421E+01 7.30140E+01 7.27273E+00
 -1      5941 6.57421E+01 7.30140E+01 8.18182E+00
 -1      5942 6.57421E+01 7.30140E+01 9.09091E+00
 -1      5943 6.18307E+01 7.63546E+01 9.09091E-01
 -1      5944 6.18307E+01 7.63546E+01 1.81818E+00
 -1      5945 6.18307E+01 7.63546E+01 2.72727E+00
 -1      5946 6.18307E+01 7.63546E+01 3.63636E+00
 -1      5947 6.18307E+01 7.63546E+01 4.54545E+00
 -1      5948 6.18307E+01 7.63546E+01 5.45455E+00
 -1      5949 6.18307E+01 7.63546E+01 6.36364E+00
 -1      5950 6.18307E+01 7.63546E+01 7.27273E+00
 -1      5951 6.18307E+01 7.63546E+01 8.18182E+00
 -1      5952 6.18307E+01 7.63546E+01 9.09091E+00
 -1      5953 5.77499E+01 7.94859E+01 9.09091E-01
 -1      5954 5.77499E+01 7.94859E+01 1.81818E+00
 -1      5955 5.77499E+01 7.94859E+01 2.72727E+00
 -1      5956 5.77499E+01 7.94859E+01 3.63636E+00
 -1      5957 5.77499E+01 7.94859E+01 4.54545E+00
 -1      5958 5.77499E+01 7.94859E+01 5.45455E+00
 -1      5959 5.77499E+01 7.94859E+01 6.36364E+00
 -1      5960 5.77499E+01 7.94859E+01 7.27273E+00
 -1      5961 5.77499E+01 7.94859E+01 8.18182E+00
 -1      5962 5.77499E+01 7.94859E+01 9.09091E+00
 -1      5963 5.35108E+01 8.23994E+01 9.09091E-01
 -1      5964 5.35108E+01 8.23994E+01 1.81818E+00
 -1      5965 5.35108E+01 8.23994E+01 2.72727E+00
 -1      5966 5.35108E+01 8.23994E+01 3.63636E+00
 -1      5967 5.35108E+01 8.23994E+01 4.54545E+00
 -1      5968 5.35108E+01 8.23994E+01 5.45455E+00
 -1      5969 5.35108E+01 8.23994E+01 6.36364E+00
 -1      5970 5.35108E+01 8.23994E+01 7.27273E+00
 -1      5971 5.35108E+01 8.23994E+01 8.18182E+00
 -1      5972 5.35108E+01 8.23994E+01 9.09091E+00
 -1      5973 4.91250E+01 8.50870E+01 9.09091E-01
 -1      5974 4.91250E+01 8.50870E+01 1.81818E+00
 -1      5975 4.91250E+01 8.50870E+01 2.72727E+00
 -1      5976 4.91250E+01 8.50870E+01 3.63636E+00
 -1      5977 4.91250E+01 8.50870E+01 4.54545E+00
 -1      5978 4.91250E+01 8.50870E+01 5.45455E+00
 -1      5979 4.91250E+01 8.50870E+01 6.36364E+00
 -1      5980 4.91250E+01 8.50870E+01 7.27273E+00
 -1      5981 4.91250E+01 8.50870E+01 8.18182E+00
 -1      5982 4.91250E+01 8.50870E+01 9.09091E+00
 -1      5983 4.46046E+01 8.75414E+01 9.09091E-01
 -1      5984 4.46046E+01 8.75414E+01 1.81818E+00
 -1      5985 4.46046E+01 8.75414E+01 2.72727E+00
 -1      5986 4.46046E+01 8.75414E+01 3.63636E+00
 -1      5987 4.46046E+01 8.75414E+01 4.54545E+00
 -1      5988 4.46046E+01 8.75414E+01 5.45455E+00
 -1      5989 4.46046E+01 8.75414E+01 6.36364E+00
 -1      5990 4.46046E+01 8.75414E+01 7.27273E+00
 -1      5991 4.46046E+01 8.75414E+01 8.18182E+00
 -1      5992 4.46046E+01 8.75414E+01 9.09091E+00
 -1      5993 3.99619E+01 8.97558E+01 9.09091E-01
 -1      5994 3.99619E+01 8.97558E+01 1.81818E+00
 -1      5995 3.99619E+01 8.97558E+01 2.72727E+00
 -1      5996 3.99619E+01 8.97558E+01 3.63636E+00
 -1      5997 3.99619E+01 8.97558E+01 4.54545E+00
 -1      5998 3.99619E+01 8.97558E+01 5.45455E+00
 -1      5999 3.99619E+01 8.97558E+01 6.36364E+00
 -1      6000 3.99619E+01 8.97558E+01 7.27273E+00
 -1      6001 3.99619E+01 8.97558E+01 8.18182E+00
 -1      6002 3.99619E+01 8.97558E+01 9.09091E+00
 -1      6003 3.52097E+01 9.17243E+01 9.09091E-01
 -1      6004 3.52097E+01 9.17243E+01 1.81818E+00
 -1      6005 3.52097E+01 9.17243E+01 2.72727E+00
 -1      6006 3.52097E+01 9.17243E+01 3.63636E+00
 -1      6007 3.52097E+01 9.17243E+01 4.54545E+00
 -1      6008 3.52097E+01 9.17243E+01 5.45455E+00
 -1      6009 3.52097E+01 9.17243E+01 6.36364E+00
 -1      6010 3.52097E+01 9.17243E+01 7.27273E+00
 -1      6011 3.52097E+01 9.17243E+01 8.18182E+00
 -1      6012 3.52097E+01 9.17243E+01 9.09091E+00
 -1      6013 3.03609E+01 9.34413E+01 9.09091E-01
 -1      6014 3.03609E+01 9.34413E+01 1.81818E+00
 -1      6015 3.03609E+01 9.34413E+01 2.72727E+00
 -1      6016 3.03609E+01 9.34413E+01 3.63636E+00
 -1      6017 3.03609E+01 9.34413E+01 4.54545E+00
 -1      6018 3.03609E+01 9.34413E+01 5.45455E+00
 -1      6019 3.03609E+01 9.34413E+01 6.36364E+00
 -1      6020 3.03609E+01 9.34413E+01 7.27273E+00
 -1      6021 3.03609E+01 9.34413E+01 8.18182E+00
 -1      6022 3.03609E+01 9.34413E+01 9.09091E+00
 -1      6023 2.54290E+01 9.49022E+01 9.09091E-01
 -1      6024 2.54290E+01 9.49022E+01 1.81818E+00
 -1      6025 2.54290E+01 9.49022E+01 2.72727E+00
 -1      6026 2.54290E+01 9.49022E+01 3.63636E+00
 -1      6027 2.54290E+01 9.49022E+01 4.54545E+00
 -1      6028 2.54290E+01 9.49022E+01 5.45455E+00
 -1      6029 2.54290E+01 9.49022E+01 6.36364E+00
 -1      6030 2.54290E+01 9.49022E+01 7.27273E+00
 -1      6031 2.54290E+01 9.49022E+01 8.18182E+00
 -1      6032 2.54290E+01 9.49022E+01 9.09091E+00
 -1      6033 2.04273E+01 9.61030E+01 9.09091E-01
 -1      6034 2.04273E+01 9.61030E+01 1.81818E+00
 -1      6035 2.04273E+01 9.61030E+01 2.72727E+00
 -1      6036 2.04273E+01 9.61030E+01 3.63636E+00
 -1      6037 2.04273E+01 9.61030E+01 4.54545E+00
 -1      6038 2.04273E+01 9.61030E+01 5.45455E+00
 -1      6039 2.04273E+01 9.61030E+01 6.36364E+00
 -1      6040 2.04273E+01 9.61030E+01 7.27273E+00
 -1      6041 2.04273E+01 9.61030E+01 8.18182E+00
 -1      6042 2.04273E+01 9.61030E+01 9.09091E+00
 -1      6043 1.53697E+01 9.70404E+01 9.09091E-01
 -1      6044 1.53697E+01 9.70404E+01 1.81818E+00
 -1      6045 1.53697E+01 9.70404E+01 2.72727E+00
 -1      6046 1.53697E+01 9.70404E+01 3.63636E+00
 -1      6047 1.53697E+01 9.70404E+01 4.54545E+00
 -1      6048 1.53697E+01 9.70404E+01 5.45455E+00
 -1      6049 1.53697E+01 9.70404E+01 6.36364E+00
 -1      6050 1.53697E+01 9.70404E+01 7.27273E+00
 -1      6051 1.53697E+01 9.70404E+01 8.18182E+00
 -1      6052 1.53697E+01 9.70404E+01 9.09091E+00
 -1      6053 1.02699E+01 9.77118E+01 9.09091E-01
 -1      6054 1.02699E+01 9.77118E+01 1.81818E+00
 -1      6055 1.02699E+01 9.77118E+01 2.72727E+00
 -1      6056 1.02699E+01 9.77118E+01 3.63636E+00
 -1      6057 1.02699E+01 9.77118E+01 4.54545E+00
 -1      6058 1.02699E+01 9.77118E+01 5.45455E+00
 -1      6059 1.02699E+01 9.77118E+01 6.36364E+00
 -1      6060 1.02699E+01 9.77118E+01 7.27273E+00
 -1      6061 1.02699E+01 9.77118E+01 8.18182E+00
 -1      6062 1.02699E+01 9.77118E+01 9.09091E+00
 -1      6063 5.14201E+00 9.81153E+01 9.09091E-01
 -1      6064 5.14201E+00 9.81153E+01 1.81818E+00
 -1      6065 5.14201E+00 9.81153E+01 2.72727E+00
 -1      6066 5.14201E+00 9.81153E+01 3.63636E+00
 -1      6067 5.14201E+00 9.81153E+01 4.54545E+00
 -1      6068 5.14201E+00 9.81153E+01 5.45455E+00
 -1      6069 5.14201E+00 9.81153E+01 6.36364E+00
 -1      6070 5.14201E+00 9.81153E+01 7.27273E+00
 -1      6071 5.14201E+00 9.81153E+01 8.18182E+00
 -1      6072 5.14201E+00 9.81153E+01 9.09091E+00
 -1      6073 9.83650E+01 5.15509E+00 9.09091E-01
 -1      6074 9.83650E+01 5.15509E+00 1.81818E+00
 -1      6075 9.83650E+01 5.15509E+00 2.72727E+00
 -1      6076 9.83650E+01 5.15509E+00 3.63636E+00
 -1      6077 9.83650E+01 5.15509E+00 4.54545E+00
 -1      6078 9.83650E+01 5.15509E+00 5.45455E+00
 -1      6079 9.83650E+01 5.15509E+00 6.36364E+00
 -1      6080 9.83650E+01 5.15509E+00 7.27273E+00
 -1      6081 9.83650E+01 5.15509E+00 8.18182E+00
 -1      6082 9.83650E+01 5.15509E+00 9.09091E+00
 -1      6083 9.79604E+01 1.02961E+01 9.09091E-01
 -1      6084 9.79604E+01 1.02961E+01 1.81818E+00
 -1      6085 9.79604E+01 1.02961E+01 2.72727E+00
 -1      6086 9.79604E+01 1.02961E+01 3.63636E+00
 -1      6087 9.79604E+01 1.02961E+01 4.54545E+00
 -1      6088 9.79604E+01 1.02961E+01 5.45455E+00
 -1      6089 9.79604E+01 1.02961E+01 6.36364E+00
 -1      6090 9.79604E+01 1.02961E+01 7.27273E+00
 -1      6091 9.79604E+01 1.02961E+01 8.18182E+00
 -1      6092 9.79604E+01 1.02961E+01 9.09091E+00
 -1      6093 9.72873E+01 1.54088E+01 9.09091E-01
 -1      6094 9.72873E+01 1.54088E+01 1.81818E+00
 -1      6095 9.72873E+01 1.54088E+01 2.72727E+00
 -1      6096 9.72873E+01 1.54088E+01 3.63636E+00
 -1      6097 9.72873E+01 1.54088E+01 4.54545E+00
 -1      6098 9.72873E+01 1.54088E+01 5.45455E+00
 -1      6099 9.72873E+01 1.54088E+01 6.36364E+00
 -1      6100 9.72873E+01 1.54088E+01 7.27273E+00
 -1      6101 9.72873E+01 1.54088E+01 8.18182E+00
 -1      6102 9.72873E+01 1.54088E+01 9.09091E+00
 -1      6103 9.63475E+01 2.04793E+01 9.09091E-01
 -1      6104 9.63475E+01 2.04793E+01 1.81818E+00
 -1      6105 9.63475E+01 2.04793E+01 2.72727E+00
 -1      6106 9.63475E+01 2.04793E+01 3.63636E+00
 -1      6107 9.63475E+01 2.04793E+01 4.54545E+00
 -1      6108 9.63475E+01 2.04793E+01 5.45455E+00
 -1      6109 9.63475E+01 2.04793E+01 6.36364E+00
 -1      6110 9.63475E+01 2.04793E+01 7.27273E+00
 -1      6111 9.63475E+01 2.04793E+01 8.18182E+00
 -1      6112 9.63475E+01 2.04793E+01 9.09091E+00
 -1      6113 9.51437E+01 2.54937E+01 9.09091E-01
 -1      6114 9.51437E+01 2.54937E+01 1.81818E+00
 -1      6115 9.51437E+01 2.54937E+01 2.72727E+00
 -1      6116 9.51437E+01 2.54937E+01 3.63636E+00
 -1      6117 9.51437E+01 2.54937E+01 4.54545E+00
 -1      6118 9.51437E+01 2.54937E+01 5.45455E+00
 -1      6119 9.51437E+01 2.54937E+01 6.36364E+00
 -1      6120 9.51437E+01 2.54937E+01 7.27273E+00
 -1      6121 9.51437E+01 2.54937E+01 8.18182E+00
 -1      6122 9.51437E+01 2.54937E+01 9.09091E+00
 -1      6123 9.36791E+01 3.04382E+01 9.09091E-01
 -1      6124 9.36791E+01 3.04382E+01 1.81818E+00
 -1      6125 9.36791E+01 3.04382E+01 2.72727E+00
 -1      6126 9.36791E+01 3.04382E+01 3.63636E+00
 -1      6127 9.36791E+01 3.04382E+01 4.54545E+00
 -1      6128 9.36791E+01 3.04382E+01 5.45455E+00
 -1      6129 9.36791E+01 3.04382E+01 6.36364E+00
 -1      6130 9.36791E+01 3.04382E+01 7.27273E+00
 -1      6131 9.36791E+01 3.04382E+01 8.18182E+00
 -1      6132 9.36791E+01 3.04382E+01 9.09091E+00
 -1      6133 9.19577E+01 3.52992E+01 9.09091E-01
 -1      6134 9.19577E+01 3.52992E+01 1.81818E+00
 -1      6135 9.19577E+01 3.52992E+01 2.72727E+00
 -1      6136 9.19577E+01 3.52992E+01 3.63636E+00
 -1      6137 9.19577E+01 3.52992E+01 4.54545E+00
 -1      6138 9.19577E+01 3.52992E+01 5.45455E+00
 -1      6139 9.19577E+01 3.52992E+01 6.36364E+00
 -1      6140 9.19577E+01 3.52992E+01 7.27273E+00
 -1      6141 9.19577E+01 3.52992E+01 8.18182E+00
 -1      6142 9.19577E+01 3.52992E+01 9.09091E+00
 -1      6143 8.99842E+01 4.00636E+01 9.09091E-01
 -1      6144 8.99842E+01 4.00636E+01 1.81818E+00
 -1      6145 8.99842E+01 4.00636E+01 2.72727E+00
 -1      6146 8.99842E+01 4.00636E+01 3.63636E+00
 -1      6147 8.99842E+01 4.00636E+01 4.54545E+00
 -1      6148 8.99842E+01 4.00636E+01 5.45455E+00
 -1      6149 8.99842E+01 4.00636E+01 6.36364E+00
 -1      6150 8.99842E+01 4.00636E+01 7.27273E+00
 -1      6151 8.99842E+01 4.00636E+01 8.18182E+00
 -1      6152 8.99842E+01 4.00636E+01 9.09091E+00
 -1      6153 8.77641E+01 4.47181E+01 9.09091E-01
 -1      6154 8.77641E+01 4.47181E+01 1.81818E+00
 -1      6155 8.77641E+01 4.47181E+01 2.72727E+00
 -1      6156 8.77641E+01 4.47181E+01 3.63636E+00
 -1      6157 8.77641E+01 4.47181E+01 4.54545E+00
 -1      6158 8.77641E+01 4.47181E+01 5.45455E+00
 -1      6159 8.77641E+01 4.47181E+01 6.36364E+00
 -1      6160 8.77641E+01 4.47181E+01 7.27273E+00
 -1      6161 8.77641E+01 4.47181E+01 8.18182E+00
 -1      6162 8.77641E+01 4.47181E+01 9.09091E+00
 -1      6163 8.53035E+01 4.92500E+01 9.09091E-01
 -1      6164 8.53035E+01 4.92500E+01 1.81818E+00
 -1      6165 8.53035E+01 4.92500E+01 2.72727E+00
 -1      6166 8.53035E+01 4.92500E+01 3.63636E+00
 -1      6167 8.53035E+01 4.92500E+01 4.54545E+00
 -1      6168 8.53035E+01 4.92500E+01 5.45455E+00
 -1      6169 8.53035E+01 4.92500E+01 6.36364E+00
 -1      6170 8.53035E+01 4.92500E+01 7.27273E+00
 -1      6171 8.53035E+01 4.92500E+01 8.18182E+00
 -1      6172 8.53035E+01 4.92500E+01 9.09091E+00
 -1      6173 8.26091E+01 5.36469E+01 9.09091E-01
 -1      6174 8.26091E+01 5.36469E+01 1.81818E+00
 -1      6175 8.26091E+01 5.36469E+01 2.72727E+00
 -1      6176 8.26091E+01 5.36469E+01 3.63636E+00
 -1      6177 8.26091E+01 5.36469E+01 4.54545E+00
 -1      6178 8.26091E+01 5.36469E+01 5.45455E+00
 -1      6179 8.26091E+01 5.36469E+01 6.36364E+00
 -1      6180 8.26091E+01 5.36469E+01 7.27273E+00
 -1      6181 8.26091E+01 5.36469E+01 8.18182E+00
 -1      6182 8.26091E+01 5.36469E+01 9.09091E+00
 -1      6183 7.96882E+01 5.78968E+01 9.09091E-01
 -1      6184 7.96882E+01 5.78968E+01 1.81818E+00
 -1      6185 7.96882E+01 5.78968E+01 2.72727E+00
 -1      6186 7.96882E+01 5.78968E+01 3.63636E+00
 -1      6187 7.96882E+01 5.78968E+01 4.54545E+00
 -1      6188 7.96882E+01 5.78968E+01 5.45455E+00
 -1      6189 7.96882E+01 5.78968E+01 6.36364E+00
 -1      6190 7.96882E+01 5.78968E+01 7.27273E+00
 -1      6191 7.96882E+01 5.78968E+01 8.18182E+00
 -1      6192 7.96882E+01 5.78968E+01 9.09091E+00
 -1      6193 7.65489E+01 6.19881E+01 9.09091E-01
 -1      6194 7.65489E+01 6.19881E+01 1.81818E+00
 -1      6195 7.65489E+01 6.19881E+01 2.72727E+00
 -1      6196 7.65489E+01 6.19881E+01 3.63636E+00
 -1      6197 7.65489E+01 6.19881E+01 4.54545E+00
 -1      6198 7.65489E+01 6.19881E+01 5.45455E+00
 -1      6199 7.65489E+01 6.19881E+01 6.36364E+00
 -1      6200 7.65489E+01 6.19881E+01 7.27273E+00
 -1      6201 7.65489E+01 6.19881E+01 8.18182E+00
 -1      6202 7.65489E+01 6.19881E+01 9.09091E+00
 -1      6203 7.31998E+01 6.59094E+01 9.09091E-01
 -1      6204 7.31998E+01 6.59094E+01 1.81818E+00
 -1      6205 7.31998E+01 6.59094E+01 2.72727E+00
 -1      6206 7.31998E+01 6.59094E+01 3.63636E+00
 -1      6207 7.31998E+01 6.59094E+01 4.54545E+00
 -1      6208 7.31998E+01 6.59094E+01 5.45455E+00
 -1      6209 7.31998E+01 6.59094E+01 6.36364E+00
 -1      6210 7.31998E+01 6.59094E+01 7.27273E+00
 -1      6211 7.31998E+01 6.59094E+01 8.18182E+00
 -1      6212 7.31998E+01 6.59094E+01 9.09091E+00
 -1      6213 6.96500E+01 6.96500E+01 9.09091E-01
 -1      6214 6.96500E+01 6.96500E+01 1.81818E+00
 -1      6215 6.96500E+01 6.96500E+01 2.72727E+00
 -1      6216 6.96500E+01 6.96500E+01 3.63636E+00
 -1      6217 6.96500E+01 6.96500E+01 4.54545E+00
 -1      6218 6.96500E+01 6.96500E+01 5.45455E+00
 -1      6219 6.96500E+01 6.96500E+01 6.36364E+00
 -1      6220 6.96500E+01 6.96500E+01 7.27273E+00
 -1      6221 6.96500E+01 6.96500E+01 8.18182E+00
 -1      6222 6.96500E+01 6.96500E+01 9.09091E+00
 -1      6223 6.59094E+01 7.31998E+01 9.09091E-01
 -1      6224 6.59094E+01 7.31998E+01 1.81818E+00
 -1      6225 6.59094E+01 7.31998E+01 2.72727E+00
 -1      6226 6.59094E+01 7.31998E+01 3.63636E+00
 -1      6227 6.59094E+01 7.31998E+01 4.54545E+00
 -1      6228 6.59094E+01 7.31998E+01 5.45455E+00
 -1      6229 6.59094E+01 7.31998E+01 6.36364E+00
 -1      6230 6.59094E+01 7.31998E+01 7.27273E+00
 -1      6231 6.59094E+01 7.31998E+01 8.18182E+00
 -1      6232 6.59094E+01 7.31998E+01 9.09091E+00
 -1      6233 6.19881E+01 7.65489E+01 9.09091E-01
 -1      6234 6.19881E+01 7.65489E+01 1.81818E+00
 -1      6235 6.19881E+01 7.65489E+01 2.72727E+00
 -1      6236 6.19881E+01 7.65489E+01 3.63636E+00
 -1      6237 6.19881E+01 7.65489E+01 4.54545E+00
 -1      6238 6.19881E+01 7.65489E+01 5.45455E+00
 -1      6239 6.19881E+01 7.65489E+01 6.36364E+00
 -1      6240 6.19881E+01 7.65489E+01 7.27273E+00
 -1      6241 6.19881E+01 7.65489E+01 8.18182E+00
 -1      6242 6.19881E+01 7.65489E+01 9.09091E+00
 -1      6243 5.78968E+01 7.96882E+01 9.09091E-01
 -1      6244 5.78968E+01 7.96882E+01 1.81818E+00
 -1      6245 5.78968E+01 7.96882E+01 2.72727E+00
 -1      6246 5.78968E+01 7.96882E+01 3.63636E+00
 -1      6247 5.78968E+01 7.96882E+01 4.54545E+00
 -1      6248 5.78968E+01 7.96882E+01 5.45455E+00
 -1      6249 5.78968E+01 7.96882E+01 6.36364E+00
 -1      6250 5.78968E+01 7.96882E+01 7.27273E+00
 -1      6251 5.78968E+01 7.96882E+01 8.18182E+00
 -1      6252 5.78968E+01 7.96882E+01 9.09091E+00
 -1      6253 5.36469E+01 8.26091E+01 9.09091E-01
 -1      6254 5.36469E+01 8.26091E+01 1.81818E+00
 -1      6255 5.36469E+01 8.26091E+01 2.72727E+00
 -1      6256 5.36469E+01 8.26091E+01 3.63636E+00
 -1      6257 5.36469E+01 8.26091E+01 4.54545E+00
 -1      6258 5.36469E+01 8.26091E+01 5.45455E+00
 -1      6259 5.36469E+01 8.26091E+01 6.36364E+00
 -1      6260 5.36469E+01 8.26091E+01 7.27273E+00
 -1      6261 5.36469E+01 8.26091E+01 8.18182E+00
 -1      6262 5.36469E+01 8.26091E+01 9.09091E+00
 -1      6263 4.92500E+01 8.53035E+01 9.09091E-01
 -1      6264 4.92500E+01 8.53035E+01 1.81818E+00
 -1      6265 4.92500E+01 8.53035E+01 2.72727E+00
 -1      6266 4.92500E+01 8.53035E+01 3.63636E+00
 -1      6267 4.92500E+01 8.53035E+01 4.54545E+00
 -1      6268 4.92500E+01 8.53035E+01 5.45455E+00
 -1      6269 4.92500E+01 8.53035E+01 6.36364E+00
 -1      6270 4.92500E+01 8.53035E+01 7.27273E+00
 -1      6271 4.92500E+01 8.53035E+01 8.18182E+00
 -1      6272 4.92500E+01 8.53035E+01 9.09091E+00
 -1      6273 4.47181E+01 8.77641E+01 9.09091E-01
 -1      6274 4.47181E+01 8.77641E+01 1.81818E+00
 -1      6275 4.47181E+01 8.77641E+01 2.72727E+00
 -1      6276 4.47181E+01 8.77641E+01 3.63636E+00
 -1      6277 4.47181E+01 8.77641E+01 4.54545E+00
 -1      6278 4.47181E+01 8.77641E+01 5.45455E+00
 -1      6279 4.47181E+01 8.77641E+01 6.36364E+00
 -1      6280 4.47181E+01 8.77641E+01 7.27273E+00
 -1      6281 4.47181E+01 8.77641E+01 8.18182E+00
 -1      6282 4.47181E+01 8.77641E+01 9.09091E+00
 -1      6283 4.00636E+01 8.99842E+01 9.09091E-01
 -1      6284 4.00636E+01 8.99842E+01 1.81818E+00
 -1      6285 4.00636E+01 8.99842E+01 2.72727E+00
 -1      6286 4.00636E+01 8.99842E+01 3.63636E+00
 -1      6287 4.00636E+01 8.99842E+01 4.54545E+00
 -1      6288 4.00636E+01 8.99842E+01 5.45455E+00
 -1      6289 4.00636E+01 8.99842E+01 6.36364E+00
 -1      6290 4.00636E+01 8.99842E+01 7.27273E+00
 -1      6291 4.00636E+01 8.99842E+01 8.18182E+00
 -1      6292 4.00636E+01 8.99842E+01 9.09091E+00
 -1      6293 3.52992E+01 9.19577E+01 9.09091E-01
 -1      6294 3.52992E+01 9.19577E+01 1.81818E+00
 -1      6295 3.52992E+01 9.19577E+01 2.72727E+00
 -1      6296 3.52992E+01 9.19577E+01 3.63636E+00
 -1      6297 3.52992E+01 9.19577E+01 4.54545E+00
 -1      6298 3.52992E+01 9.19577E+01 5.45455E+00
 -1      6299 3.52992E+01 9.19577E+01 6.36364E+00
 -1      6300 3.52992E+01 9.19577E+01 7.27273E+00
 -1      6301 3.52992E+01 9.19577E+01 8.18182E+00
 -1      6302 3.52992E+01 9.19577E+01 9.09091E+00
 -1      6303 3.04382E+01 9.36791E+01 9.09091E-01
 -1      6304 3.04382E+01 9.36791E+01 1.81818E+00
 -1      6305 3.04382E+01 9.36791E+01 2.72727E+00
 -1      6306 3.04382E+01 9.36791E+01 3.63636E+00
 -1      6307 3.04382E+01 9.36791E+01 4.54545E+00
 -1      6308 3.04382E+01 9.36791E+01 5.45455E+00
 -1      6309 3.04382E+01 9.36791E+01 6.36364E+00
 -1      6310 3.04382E+01 9.36791E+01 7.27273E+00
 -1      6311 3.04382E+01 9.36791E+01 8.18182E+00
 -1      6312 3.04382E+01 9.36791E+01 9.09091E+00
 -1      6313 2.54937E+01 9.51437E+01 9.09091E-01
 -1      6314 2.54937E+01 9.51437E+01 1.81818E+00
 -1      6315 2.54937E+01 9.51437E+01 2.72727E+00
 -1      6316 2.54937E+01 9.51437E+01 3.63636E+00
 -1      6317 2.54937E+01 9.51437E+01 4.54545E+00
 -1      6318 2.54937E+01 9.51437E+01 5.45455E+00
 -1      6319 2.54937E+01 9.51437E+01 6.36364E+00
 -1      6320 2.54937E+01 9.51437E+01 7.27273E+00
 -1      6321 2.54937E+01 9.51437E+01 8.18182E+00
 -1      6322 2.54937E+01 9.51437E+01 9.09091E+00
 -1      6323 2.04793E+01 9.63475E+01 9.09091E-01
 -1      6324 2.04793E+01 9.63475E+01 1.81818E+00
 -1      6325 2.04793E+01 9.63475E+01 2.72727E+00
 -1      6326 2.04793E+01 9.63475E+01 3.63636E+00
 -1      6327 2.04793E+01 9.63475E+01 4.54545E+00
 -1      6328 2.04793E+01 9.63475E+01 5.45455E+00
 -1      6329 2.04793E+01 9.63475E+01 6.36364E+00
 -1      6330 2.04793E+01 9.63475E+01 7.27273E+00
 -1      6331 2.04793E+01 9.63475E+01 8.18182E+00
 -1      6332 2.04793E+01 9.63475E+01 9.09091E+00
 -1      6333 1.54088E+01 9.72873E+01 9.09091E-01
 -1      6334 1.54088E+01 9.72873E+01 1.81818E+00
 -1      6335 1.54088E+01 9.72873E+01 2.72727E+00
 -1      6336 1.54088E+01 9.72873E+01 3.63636E+00
 -1      6337 1.54088E+01 9.72873E+01 4.54545E+00
 -1      6338 1.54088E+01 9.72873E+01 5.45455E+00
 -1      6339 1.54088E+01 9.72873E+01 6.36364E+00
 -1      6340 1.54088E+01 9.72873E+01 7.27273E+00
 -1      6341 1.54088E+01 9.72873E+01 8.18182E+00
 -1      6342 1.54088E+01 9.72873E+01 9.09091E+00
 -1      6343 1.02961E+01 9.79604E+01 9.09091E-01
 -1      6344 1.02961E+01 9.79604E+01 1.81818E+00
 -1      6345 1.02961E+01 9.79604E+01 2.72727E+00
 -1      6346 1.02961E+01 9.79604E+01 3.63636E+00
 -1      6347 1.02961E+01 9.79604E+01 4.54545E+00
 -1      6348 1.02961E+01 9.79604E+01 5.45455E+00
 -1      6349 1.02961E+01 9.79604E+01 6.36364E+00
 -1      6350 1.02961E+01 9.79604E+01 7.27273E+00
 -1      6351 1.02961E+01 9.79604E+01 8.18182E+00
 -1      6352 1.02961E+01 9.79604E+01 9.09091E+00
 -1      6353 5.15509E+00 9.83650E+01 9.09091E-01
 -1      6354 5.15509E+00 9.83650E+01 1.81818E+00
 -1      6355 5.15509E+00 9.83650E+01 2.72727E+00
 -1      6356 5.15509E+00 9.83650E+01 3.63636E+00
 -1      6357 5.15509E+00 9.83650E+01 4.54545E+00
 -1      6358 5.15509E+00 9.83650E+01 5.45455E+00
 -1      6359 5.15509E+00 9.83650E+01 6.36364E+00
 -1      6360 5.15509E+00 9.83650E+01 7.27273E+00
 -1      6361 5.15509E+00 9.83650E+01 8.18182E+00
 -1      6362 5.15509E+00 9.83650E+01 9.09091E+00
 -1      6363 9.86147E+01 5.16818E+00 9.09091E-01
 -1      6364 9.86147E+01 5.16818E+00 1.81818E+00
 -1      6365 9.86147E+01 5.16818E+00 2.72727E+00
 -1      6366 9.86147E+01 5.16818E+00 3.63636E+00
 -1      6367 9.86147E+01 5.16818E+00 4.54545E+00
 -1      6368 9.86147E+01 5.16818E+00 5.45455E+00
 -1      6369 9.86147E+01 5.16818E+00 6.36364E+00
 -1      6370 9.86147E+01 5.16818E+00 7.27273E+00
 -1      6371 9.86147E+01 5.16818E+00 8.18182E+00
 -1      6372 9.86147E+01 5.16818E+00 9.09091E+00
 -1      6373 9.82090E+01 1.03222E+01 9.09091E-01
 -1      6374 9.82090E+01 1.03222E+01 1.81818E+00
 -1      6375 9.82090E+01 1.03222E+01 2.72727E+00
 -1      6376 9.82090E+01 1.03222E+01 3.63636E+00
 -1      6377 9.82090E+01 1.03222E+01 4.54545E+00
 -1      6378 9.82090E+01 1.03222E+01 5.45455E+00
 -1      6379 9.82090E+01 1.03222E+01 6.36364E+00
 -1      6380 9.82090E+01 1.03222E+01 7.27273E+00
 -1      6381 9.82090E+01 1.03222E+01 8.18182E+00
 -1      6382 9.82090E+01 1.03222E+01 9.09091E+00
 -1      6383 9.75342E+01 1.54479E+01 9.09091E-01
 -1      6384 9.75342E+01 1.54479E+01 1.81818E+00
 -1      6385 9.75342E+01 1.54479E+01 2.72727E+00
 -1      6386 9.75342E+01 1.54479E+01 3.63636E+00
 -1      6387 9.75342E+01 1.54479E+01 4.54545E+00
 -1      6388 9.75342E+01 1.54479E+01 5.45455E+00
 -1      6389 9.75342E+01 1.54479E+01 6.36364E+00
 -1      6390 9.75342E+01 1.54479E+01 7.27273E+00
 -1      6391 9.75342E+01 1.54479E+01 8.18182E+00
 -1      6392 9.75342E+01 1.54479E+01 9.09091E+00
 -1      6393 9.65921E+01 2.05313E+01 9.09091E-01
 -1      6394 9.65921E+01 2.05313E+01 1.81818E+00
 -1      6395 9.65921E+01 2.05313E+01 2.72727E+00
 -1      6396 9.65921E+01 2.05313E+01 3.63636E+00
 -1      6397 9.65921E+01 2.05313E+01 4.54545E+00
 -1      6398 9.65921E+01 2.05313E+01 5.45455E+00
 -1      6399 9.65921E+01 2.05313E+01 6.36364E+00
 -1      6400 9.65921E+01 2.05313E+01 7.27273E+00
 -1      6401 9.65921E+01 2.05313E+01 8.18182E+00
 -1      6402 9.65921E+01 2.05313E+01 9.09091E+00
 -1      6403 9.53852E+01 2.55584E+01 9.09091E-01
 -1      6404 9.53852E+01 2.55584E+01 1.81818E+00
 -1      6405 9.53852E+01 2.55584E+01 2.72727E+00
 -1      6406 9.53852E+01 2.55584E+01 3.63636E+00
 -1      6407 9.53852E+01 2.55584E+01 4.54545E+00
 -1      6408 9.53852E+01 2.55584E+01 5.45455E+00
 -1      6409 9.53852E+01 2.55584E+01 6.36364E+00
 -1      6410 9.53852E+01 2.55584E+01 7.27273E+00
 -1      6411 9.53852E+01 2.55584E+01 8.18182E+00
 -1      6412 9.53852E+01 2.55584E+01 9.09091E+00
 -1      6413 9.39168E+01 3.05154E+01 9.09091E-01
 -1      6414 9.39168E+01 3.05154E+01 1.81818E+00
 -1      6415 9.39168E+01 3.05154E+01 2.72727E+00
 -1      6416 9.39168E+01 3.05154E+01 3.63636E+00
 -1      6417 9.39168E+01 3.05154E+01 4.54545E+00
 -1      6418 9.39168E+01 3.05154E+01 5.45455E+00
 -1      6419 9.39168E+01 3.05154E+01 6.36364E+00
 -1      6420 9.39168E+01 3.05154E+01 7.27273E+00
 -1      6421 9.39168E+01 3.05154E+01 8.18182E+00
 -1      6422 9.39168E+01 3.05154E+01 9.09091E+00
 -1      6423 9.21911E+01 3.53888E+01 9.09091E-01
 -1      6424 9.21911E+01 3.53888E+01 1.81818E+00
 -1      6425 9.21911E+01 3.53888E+01 2.72727E+00
 -1      6426 9.21911E+01 3.53888E+01 3.63636E+00
 -1      6427 9.21911E+01 3.53888E+01 4.54545E+00
 -1      6428 9.21911E+01 3.53888E+01 5.45455E+00
 -1      6429 9.21911E+01 3.53888E+01 6.36364E+00
 -1      6430 9.21911E+01 3.53888E+01 7.27273E+00
 -1      6431 9.21911E+01 3.53888E+01 8.18182E+00
 -1      6432 9.21911E+01 3.53888E+01 9.09091E+00
 -1      6433 9.02126E+01 4.01652E+01 9.09091E-01
 -1      6434 9.02126E+01 4.01652E+01 1.81818E+00
 -1      6435 9.02126E+01 4.01652E+01 2.72727E+00
 -1      6436 9.02126E+01 4.01652E+01 3.63636E+00
 -1      6437 9.02126E+01 4.01652E+01 4.54545E+00
 -1      6438 9.02126E+01 4.01652E+01 5.45455E+00
 -1      6439 9.02126E+01 4.01652E+01 6.36364E+00
 -1      6440 9.02126E+01 4.01652E+01 7.27273E+00
 -1      6441 9.02126E+01 4.01652E+01 8.18182E+00
 -1      6442 9.02126E+01 4.01652E+01 9.09091E+00
 -1      6443 8.79869E+01 4.48316E+01 9.09091E-01
 -1      6444 8.79869E+01 4.48316E+01 1.81818E+00
 -1      6445 8.79869E+01 4.48316E+01 2.72727E+00
 -1      6446 8.79869E+01 4.48316E+01 3.63636E+00
 -1      6447 8.79869E+01 4.48316E+01 4.54545E+00
 -1      6448 8.79869E+01 4.48316E+01 5.45455E+00
 -1      6449 8.79869E+01 4.48316E+01 6.36364E+00
 -1      6450 8.79869E+01 4.48316E+01 7.27273E+00
 -1      6451 8.79869E+01 4.48316E+01 8.18182E+00
 -1      6452 8.79869E+01 4.48316E+01 9.09091E+00
 -1      6453 8.55200E+01 4.93750E+01 9.09091E-01
 -1      6454 8.55200E+01 4.93750E+01 1.81818E+00
 -1      6455 8.55200E+01 4.93750E+01 2.72727E+00
 -1      6456 8.55200E+01 4.93750E+01 3.63636E+00
 -1      6457 8.55200E+01 4.93750E+01 4.54545E+00
 -1      6458 8.55200E+01 4.93750E+01 5.45455E+00
 -1      6459 8.55200E+01 4.93750E+01 6.36364E+00
 -1      6460 8.55200E+01 4.93750E+01 7.27273E+00
 -1      6461 8.55200E+01 4.93750E+01 8.18182E+00
 -1      6462 8.55200E+01 4.93750E+01 9.09091E+00
 -1      6463 8.28187E+01 5.37831E+01 9.09091E-01
 -1      6464 8.28187E+01 5.37831E+01 1.81818E+00
 -1      6465 8.28187E+01 5.37831E+01 2.72727E+00
 -1      6466 8.28187E+01 5.37831E+01 3.63636E+00
 -1      6467 8.28187E+01 5.37831E+01 4.54545E+00
 -1      6468 8.28187E+01 5.37831E+01 5.45455E+00
 -1      6469 8.28187E+01 5.37831E+01 6.36364E+00
 -1      6470 8.28187E+01 5.37831E+01 7.27273E+00
 -1      6471 8.28187E+01 5.37831E+01 8.18182E+00
 -1      6472 8.28187E+01 5.37831E+01 9.09091E+00
 -1      6473 7.98904E+01 5.80438E+01 9.09091E-01
 -1      6474 7.98904E+01 5.80438E+01 1.81818E+00
 -1      6475 7.98904E+01 5.80438E+01 2.72727E+00
 -1      6476 7.98904E+01 5.80438E+01 3.63636E+00
 -1      6477 7.98904E+01 5.80438E+01 4.54545E+00
 -1      6478 7.98904E+01 5.80438E+01 5.45455E+00
 -1      6479 7.98904E+01 5.80438E+01 6.36364E+00
 -1      6480 7.98904E+01 5.80438E+01 7.27273E+00
 -1      6481 7.98904E+01 5.80438E+01 8.18182E+00
 -1      6482 7.98904E+01 5.80438E+01 9.09091E+00
 -1      6483 7.67432E+01 6.21454E+01 9.09091E-01
 -1      6484 7.67432E+01 6.21454E+01 1.81818E+00
 -1      6485 7.67432E+01 6.21454E+01 2.72727E+00
 -1      6486 7.67432E+01 6.21454E+01 3.63636E+00
 -1      6487 7.67432E+01 6.21454E+01 4.54545E+00
 -1      6488 7.67432E+01 6.21454E+01 5.45455E+00
 -1      6489 7.67432E+01 6.21454E+01 6.36364E+00
 -1      6490 7.67432E+01 6.21454E+01 7.27273E+00
 -1      6491 7.67432E+01 6.21454E+01 8.18182E+00
 -1      6492 7.67432E+01 6.21454E+01 9.09091E+00
 -1      6493 7.33856E+01 6.60766E+01 9.09091E-01
 -1      6494 7.33856E+01 6.60766E+01 1.81818E+00
 -1      6495 7.33856E+01 6.60766E+01 2.72727E+00
 -1      6496 7.33856E+01 6.60766E+01 3.63636E+00
 -1      6497 7.33856E+01 6.60766E+01 4.54545E+00
 -1      6498 7.33856E+01 6.60766E+01 5.45455E+00
 -1      6499 7.33856E+01 6.60766E+01 6.36364E+00
 -1      6500 7.33856E+01 6.60766E+01 7.27273E+00
 -1      6501 7.33856E+01 6.60766E+01 8.18182E+00
 -1      6502 7.33856E+01 6.60766E+01 9.09091E+00
 -1      6503 6.98268E+01 6.98268E+01 9.09091E-01
 -1      6504 6.98268E+01 6.98268E+01 1.81818E+00
 -1      6505 6.98268E+01 6.98268E+01 2.72727E+00
 -1      6506 6.98268E+01 6.98268E+01 3.63636E+00
 -1      6507 6.98268E+01 6.98268E+01 4.54545E+00
 -1      6508 6.98268E+01 6.98268E+01 5.45455E+00
 -1      6509 6.98268E+01 6.98268E+01 6.36364E+00
 -1      6510 6.98268E+01 6.98268E+01 7.27273E+00
 -1      6511 6.98268E+01 6.98268E+01 8.18182E+00
 -1      6512 6.98268E+01 6.98268E+01 9.09091E+00
 -1      6513 6.60766E+01 7.33856E+01 9.09091E-01
 -1      6514 6.60766E+01 7.33856E+01 1.81818E+00
 -1      6515 6.60766E+01 7.33856E+01 2.72727E+00
 -1      6516 6.60766E+01 7.33856E+01 3.63636E+00
 -1      6517 6.60766E+01 7.33856E+01 4.54545E+00
 -1      6518 6.60766E+01 7.33856E+01 5.45455E+00
 -1      6519 6.60766E+01 7.33856E+01 6.36364E+00
 -1      6520 6.60766E+01 7.33856E+01 7.27273E+00
 -1      6521 6.60766E+01 7.33856E+01 8.18182E+00
 -1      6522 6.60766E+01 7.33856E+01 9.09091E+00
 -1      6523 6.21454E+01 7.67432E+01 9.09091E-01
 -1      6524 6.21454E+01 7.67432E+01 1.81818E+00
 -1      6525 6.21454E+01 7.67432E+01 2.72727E+00
 -1      6526 6.21454E+01 7.67432E+01 3.63636E+00
 -1      6527 6.21454E+01 7.67432E+01 4.54545E+00
 -1      6528 6.21454E+01 7.67432E+01 5.45455E+00
 -1      6529 6.21454E+01 7.67432E+01 6.36364E+00
 -1      6530 6.21454E+01 7.67432E+01 7.27273E+00
 -1      6531 6.21454E+01 7.67432E+01 8.18182E+00
 -1      6532 6.21454E+01 7.67432E+01 9.09091E+00
 -1      6533 5.80438E+01 7.98904E+01 9.09091E-01
 -1      6534 5.80438E+01 7.98904E+01 1.81818E+00
 -1      6535 5.80438E+01 7.98904E+01 2.72727E+00
 -1      6536 5.80438E+01 7.98904E+01 3.63636E+00
 -1      6537 5.80438E+01 7.98904E+01 4.54545E+00
 -1      6538 5.80438E+01 7.98904E+01 5.45455E+00
 -1      6539 5.80438E+01 7.98904E+01 6.36364E+00
 -1      6540 5.80438E+01 7.98904E+01 7.27273E+00
 -1      6541 5.80438E+01 7.98904E+01 8.18182E+00
 -1      6542 5.80438E+01 7.98904E+01 9.09091E+00
 -1      6543 5.37831E+01 8.28187E+01 9.09091E-01
 -1      6544 5.37831E+01 8.28187E+01 1.81818E+00
 -1      6545 5.37831E+01 8.28187E+01 2.72727E+00
 -1      6546 5.37831E+01 8.28187E+01 3.63636E+00
 -1      6547 5.37831E+01 8.28187E+01 4.54545E+00
 -1      6548 5.37831E+01 8.28187E+01 5.45455E+00
 -1      6549 5.37831E+01 8.28187E+01 6.36364E+00
 -1      6550 5.37831E+01 8.28187E+01 7.27273E+00
 -1      6551 5.37831E+01 8.28187E+01 8.18182E+00
 -1      6552 5.37831E+01 8.28187E+01 9.09091E+00
 -1      6553 4.93750E+01 8.55200E+01 9.09091E-01
 -1      6554 4.93750E+01 8.55200E+01 1.81818E+00
 -1      6555 4.93750E+01 8.55200E+01 2.72727E+00
 -1      6556 4.93750E+01 8.55200E+01 3.63636E+00
 -1      6557 4.93750E+01 8.55200E+01 4.54545E+00
 -1      6558 4.93750E+01 8.55200E+01 5.45455E+00
 -1      6559 4.93750E+01 8.55200E+01 6.36364E+00
 -1      6560 4.93750E+01 8.55200E+01 7.27273E+00
 -1      6561 4.93750E+01 8.55200E+01 8.18182E+00
 -1      6562 4.93750E+01 8.55200E+01 9.09091E+00
 -1      6563 4.48316E+01 8.79869E+01 9.09091E-01
 -1      6564 4.48316E+01 8.79869E+01 1.81818E+00
 -1      6565 4.48316E+01 8.79869E+01 2.72727E+00
 -1      6566 4.48316E+01 8.79869E+01 3.63636E+00
 -1      6567 4.48316E+01 8.79869E+01 4.54545E+00
 -1      6568 4.48316E+01 8.79869E+01 5.45455E+00
 -1      6569 4.48316E+01 8.79869E+01 6.36364E+00
 -1      6570 4.48316E+01 8.79869E+01 7.27273E+00
 -1      6571 4.48316E+01 8.79869E+01 8.18182E+00
 -1      6572 4.48316E+01 8.79869E+01 9.09091E+00
 -1      6573 4.01652E+01 9.02126E+01 9.09091E-01
 -1      6574 4.01652E+01 9.02126E+01 1.81818E+00
 -1      6575 4.01652E+01 9.02126E+01 2.72727E+00
 -1      6576 4.01652E+01 9.02126E+01 3.63636E+00
 -1      6577 4.01652E+01 9.02126E+01 4.54545E+00
 -1      6578 4.01652E+01 9.02126E+01 5.45455E+00
 -1      6579 4.01652E+01 9.02126E+01 6.36364E+00
 -1      6580 4.01652E+01 9.02126E+01 7.27273E+00
 -1      6581 4.01652E+01 9.02126E+01 8.18182E+00
 -1      6582 4.01652E+01 9.02126E+01 9.09091E+00
 -1      6583 3.53888E+01 9.21911E+01 9.09091E-01
 -1      6584 3.53888E+01 9.21911E+01 1.81818E+00
 -1      6585 3.53888E+01 9.21911E+01 2.72727E+00
 -1      6586 3.53888E+01 9.21911E+01 3.63636E+00
 -1      6587 3.53888E+01 9.21911E+01 4.54545E+00
 -1      6588 3.53888E+01 9.21911E+01 5.45455E+00
 -1      6589 3.53888E+01 9.21911E+01 6.36364E+00
 -1      6590 3.53888E+01 9.21911E+01 7.27273E+00
 -1      6591 3.53888E+01 9.21911E+01 8.18182E+00
 -1      6592 3.53888E+01 9.21911E+01 9.09091E+00
 -1      6593 3.05154E+01 9.39168E+01 9.09091E-01
 -1      6594 3.05154E+01 9.39168E+01 1.81818E+00
 -1      6595 3.05154E+01 9.39168E+01 2.72727E+00
 -1      6596 3.05154E+01 9.39168E+01 3.63636E+00
 -1      6597 3.05154E+01 9.39168E+01 4.54545E+00
 -1      6598 3.05154E+01 9.39168E+01 5.45455E+00
 -1      6599 3.05154E+01 9.39168E+01 6.36364E+00
 -1      6600 3.05154E+01 9.39168E+01 7.27273E+00
 -1      6601 3.05154E+01 9.39168E+01 8.18182E+00
 -1      6602 3.05154E+01 9.39168E+01 9.09091E+00
 -1      6603 2.55584E+01 9.53852E+01 9.09091E-01
 -1      6604 2.55584E+01 9.53852E+01 1.81818E+00
 -1      6605 2.55584E+01 9.53852E+01 2.72727E+00
 -1      6606 2.55584E+01 9.53852E+01 3.63636E+00
 -1      6607 2.55584E+01 9.53852E+01 4.54545E+00
 -1      6608 2.55584E+01 9.53852E+01 5.45455E+00
 -1      6609 2.55584E+01 9.53852E+01 6.36364E+00
 -1      6610 2.55584E+01 9.53852E+01 7.27273E+00
 -1      6611 2.55584E+01 9.53852E+01 8.18182E+00
 -1      6612 2.55584E+01 9.53852E+01 9.09091E+00
 -1      6613 2.05313E+01 9.65921E+01 9.09091E-01
 -1      6614 2.05313E+01 9.65921E+01 1.81818E+00
 -1      6615 2.05313E+01 9.65921E+01 2.72727E+00
 -1      6616 2.05313E+01 9.65921E+01 3.63636E+00
 -1      6617 2.05313E+01 9.65921E+01 4.54545E+00
 -1      6618 2.05313E+01 9.65921E+01 5.45455E+00
 -1      6619 2.05313E+01 9.65921E+01 6.36364E+00
 -1      6620 2.05313E+01 9.65921E+01 7.27273E+00
 -1      6621 2.05313E+01 9.65921E+01 8.18182E+00
 -1      6622 2.05313E+01 9.65921E+01 9.09091E+00
 -1      6623 1.54479E+01 9.75342E+01 9.09091E-01
 -1      6624 1.54479E+01 9.75342E+01 1.81818E+00
 -1      6625 1.54479E+01 9.75342E+01 2.72727E+00
 -1      6626 1.54479E+01 9.75342E+01 3.63636E+00
 -1      6627 1.54479E+01 9.75342E+01 4.54545E+00
 -1      6628 1.54479E+01 9.75342E+01 5.45455E+00
 -1      6629 1.54479E+01 9.75342E+01 6.36364E+00
 -1      6630 1.54479E+01 9.75342E+01 7.27273E+00
 -1      6631 1.54479E+01 9.75342E+01 8.18182E+00
 -1      6632 1.54479E+01 9.75342E+01 9.09091E+00
 -1      6633 1.03222E+01 9.82090E+01 9.09091E-01
 -1      6634 1.03222E+01 9.82090E+01 1.81818E+00
 -1      6635 1.03222E+01 9.82090E+01 2.72727E+00
 -1      6636 1.03222E+01 9.82090E+01 3.63636E+00
 -1      6637 1.03222E+01 9.82090E+01 4.54545E+00
 -1      6638 1.03222E+01 9.82090E+01 5.45455E+00
 -1      6639 1.03222E+01 9.82090E+01 6.36364E+00
 -1      6640 1.03222E+01 9.82090E+01 7.27273E+00
 -1      6641 1.03222E+01 9.82090E+01 8.18182E+00
 -1      6642 1.03222E+01 9.82090E+01 9.09091E+00
 -1      6643 5.16818E+00 9.86147E+01 9.09091E-01
 -1      6644 5.16818E+00 9.86147E+01 1.81818E+00
 -1      6645 5.16818E+00 9.86147E+01 2.72727E+00
 -1      6646 5.16818E+00 9.86147E+01 3.63636E+00
 -1      6647 5.16818E+00 9.86147E+01 4.54545E+00
 -1      6648 5.16818E+00 9.86147E+01 5.45455E+00
 -1      6649 5.16818E+00 9.86147E+01 6.36364E+00
 -1      6650 5.16818E+00 9.86147E+01 7.27273E+00
 -1      6651 5.16818E+00 9.86147E+01 8.18182E+00
 -1      6652 5.16818E+00 9.86147E+01 9.09091E+00
 -1      6653 9.88643E+01 5.18126E+00 9.09091E-01
 -1      6654 9.88643E+01 5.18126E+00 1.81818E+00
 -1      6655 9.88643E+01 5.18126E+00 2.72727E+00
 -1      6656 9.88643E+01 5.18126E+00 3.63636E+00
 -1      6657 9.88643E+01 5.18126E+00 4.54545E+00
 -1      6658 9.88643E+01 5.18126E+00 5.45455E+00
 -1      6659 9.88643E+01 5.18126E+00 6.36364E+00
 -1      6660 9.88643E+01 5.18126E+00 7.27273E+00
 -1      6661 9.88643E+01 5.18126E+00 8.18182E+00
 -1      6662 9.88643E+01 5.18126E+00 9.09091E+00
 -1      6663 9.84577E+01 1.03483E+01 9.09091E-01
 -1      6664 9.84577E+01 1.03483E+01 1.81818E+00
 -1      6665 9.84577E+01 1.03483E+01 2.72727E+00
 -1      6666 9.84577E+01 1.03483E+01 3.63636E+00
 -1      6667 9.84577E+01 1.03483E+01 4.54545E+00
 -1      6668 9.84577E+01 1.03483E+01 5.45455E+00
 -1      6669 9.84577E+01 1.03483E+01 6.36364E+00
 -1      6670 9.84577E+01 1.03483E+01 7.27273E+00
 -1      6671 9.84577E+01 1.03483E+01 8.18182E+00
 -1      6672 9.84577E+01 1.03483E+01 9.09091E+00
 -1      6673 9.77811E+01 1.54870E+01 9.09091E-01
 -1      6674 9.77811E+01 1.54870E+01 1.81818E+00
 -1      6675 9.77811E+01 1.54870E+01 2.72727E+00
 -1      6676 9.77811E+01 1.54870E+01 3.63636E+00
 -1      6677 9.77811E+01 1.54870E+01 4.54545E+00
 -1      6678 9.77811E+01 1.54870E+01 5.45455E+00
 -1      6679 9.77811E+01 1.54870E+01 6.36364E+00
 -1      6680 9.77811E+01 1.54870E+01 7.27273E+00
 -1      6681 9.77811E+01 1.54870E+01 8.18182E+00
 -1      6682 9.77811E+01 1.54870E+01 9.09091E+00
 -1      6683 9.68366E+01 2.05833E+01 9.09091E-01
 -1      6684 9.68366E+01 2.05833E+01 1.81818E+00
 -1      6685 9.68366E+01 2.05833E+01 2.72727E+00
 -1      6686 9.68366E+01 2.05833E+01 3.63636E+00
 -1      6687 9.68366E+01 2.05833E+01 4.54545E+00
 -1      6688 9.68366E+01 2.05833E+01 5.45455E+00
 -1      6689 9.68366E+01 2.05833E+01 6.36364E+00
 -1      6690 9.68366E+01 2.05833E+01 7.27273E+00
 -1      6691 9.68366E+01 2.05833E+01 8.18182E+00
 -1      6692 9.68366E+01 2.05833E+01 9.09091E+00
 -1      6693 9.56267E+01 2.56231E+01 9.09091E-01
 -1      6694 9.56267E+01 2.56231E+01 1.81818E+00
 -1      6695 9.56267E+01 2.56231E+01 2.72727E+00
 -1      6696 9.56267E+01 2.56231E+01 3.63636E+00
 -1      6697 9.56267E+01 2.56231E+01 4.54545E+00
 -1      6698 9.56267E+01 2.56231E+01 5.45455E+00
 -1      6699 9.56267E+01 2.56231E+01 6.36364E+00
 -1      6700 9.56267E+01 2.56231E+01 7.27273E+00
 -1      6701 9.56267E+01 2.56231E+01 8.18182E+00
 -1      6702 9.56267E+01 2.56231E+01 9.09091E+00
 -1      6703 9.41546E+01 3.05927E+01 9.09091E-01
 -1      6704 9.41546E+01 3.05927E+01 1.81818E+00
 -1      6705 9.41546E+01 3.05927E+01 2.72727E+00
 -1      6706 9.41546E+01 3.05927E+01 3.63636E+00
 -1      6707 9.41546E+01 3.05927E+01 4.54545E+00
 -1      6708 9.41546E+01 3.05927E+01 5.45455E+00
 -1      6709 9.41546E+01 3.05927E+01 6.36364E+00
 -1      6710 9.41546E+01 3.05927E+01 7.27273E+00
 -1      6711 9.41546E+01 3.05927E+01 8.18182E+00
 -1      6712 9.41546E+01 3.05927E+01 9.09091E+00
 -1      6713 9.24245E+01 3.54784E+01 9.09091E-01
 -1      6714 9.24245E+01 3.54784E+01 1.81818E+00
 -1      6715 9.24245E+01 3.54784E+01 2.72727E+00
 -1      6716 9.24245E+01 3.54784E+01 3.63636E+00
 -1      6717 9.24245E+01 3.54784E+01 4.54545E+00
 -1      6718 9.24245E+01 3.54784E+01 5.45455E+00
 -1      6719 9.24245E+01 3.54784E+01 6.36364E+00
 -1      6720 9.24245E+01 3.54784E+01 7.27273E+00
 -1      6721 9.24245E+01 3.54784E+01 8.18182E+00
 -1      6722 9.24245E+01 3.54784E+01 9.09091E+00
 -1      6723 9.04410E+01 4.02669E+01 9.09091E-01
 -1      6724 9.04410E+01 4.02669E+01 1.81818E+00
 -1      6725 9.04410E+01 4.02669E+01 2.72727E+00
 -1      6726 9.04410E+01 4.02669E+01 3.63636E+00
 -1      6727 9.04410E+01 4.02669E+01 4.54545E+00
 -1      6728 9.04410E+01 4.02669E+01 5.45455E+00
 -1      6729 9.04410E+01 4.02669E+01 6.36364E+00
 -1      6730 9.04410E+01 4.02669E+01 7.27273E+00
 -1      6731 9.04410E+01 4.02669E+01 8.18182E+00
 -1      6732 9.04410E+01 4.02669E+01 9.09091E+00
 -1      6733 8.82096E+01 4.49451E+01 9.09091E-01
 -1      6734 8.82096E+01 4.49451E+01 1.81818E+00
 -1      6735 8.82096E+01 4.49451E+01 2.72727E+00
 -1      6736 8.82096E+01 4.49451E+01 3.63636E+00
 -1      6737 8.82096E+01 4.49451E+01 4.54545E+00
 -1      6738 8.82096E+01 4.49451E+01 5.45455E+00
 -1      6739 8.82096E+01 4.49451E+01 6.36364E+00
 -1      6740 8.82096E+01 4.49451E+01 7.27273E+00
 -1      6741 8.82096E+01 4.49451E+01 8.18182E+00
 -1      6742 8.82096E+01 4.49451E+01 9.09091E+00
 -1      6743 8.57365E+01 4.95000E+01 9.09091E-01
 -1      6744 8.57365E+01 4.95000E+01 1.81818E+00
 -1      6745 8.57365E+01 4.95000E+01 2.72727E+00
 -1      6746 8.57365E+01 4.95000E+01 3.63636E+00
 -1      6747 8.57365E+01 4.95000E+01 4.54545E+00
 -1      6748 8.57365E+01 4.95000E+01 5.45455E+00
 -1      6749 8.57365E+01 4.95000E+01 6.36364E+00
 -1      6750 8.57365E+01 4.95000E+01 7.27273E+00
 -1      6751 8.57365E+01 4.95000E+01 8.18182E+00
 -1      6752 8.57365E+01 4.95000E+01 9.09091E+00
 -1      6753 8.30284E+01 5.39193E+01 9.09091E-01
 -1      6754 8.30284E+01 5.39193E+01 1.81818E+00
 -1      6755 8.30284E+01 5.39193E+01 2.72727E+00
 -1      6756 8.30284E+01 5.39193E+01 3.63636E+00
 -1      6757 8.30284E+01 5.39193E+01 4.54545E+00
 -1      6758 8.30284E+01 5.39193E+01 5.45455E+00
 -1      6759 8.30284E+01 5.39193E+01 6.36364E+00
 -1      6760 8.30284E+01 5.39193E+01 7.27273E+00
 -1      6761 8.30284E+01 5.39193E+01 8.18182E+00
 -1      6762 8.30284E+01 5.39193E+01 9.09091E+00
 -1      6763 8.00927E+01 5.81907E+01 9.09091E-01
 -1      6764 8.00927E+01 5.81907E+01 1.81818E+00
 -1      6765 8.00927E+01 5.81907E+01 2.72727E+00
 -1      6766 8.00927E+01 5.81907E+01 3.63636E+00
 -1      6767 8.00927E+01 5.81907E+01 4.54545E+00
 -1      6768 8.00927E+01 5.81907E+01 5.45455E+00
 -1      6769 8.00927E+01 5.81907E+01 6.36364E+00
 -1      6770 8.00927E+01 5.81907E+01 7.27273E+00
 -1      6771 8.00927E+01 5.81907E+01 8.18182E+00
 -1      6772 8.00927E+01 5.81907E+01 9.09091E+00
 -1      6773 7.69374E+01 6.23027E+01 9.09091E-01
 -1      6774 7.69374E+01 6.23027E+01 1.81818E+00
 -1      6775 7.69374E+01 6.23027E+01 2.72727E+00
 -1      6776 7.69374E+01 6.23027E+01 3.63636E+00
 -1      6777 7.69374E+01 6.23027E+01 4.54545E+00
 -1      6778 7.69374E+01 6.23027E+01 5.45455E+00
 -1      6779 7.69374E+01 6.23027E+01 6.36364E+00
 -1      6780 7.69374E+01 6.23027E+01 7.27273E+00
 -1      6781 7.69374E+01 6.23027E+01 8.18182E+00
 -1      6782 7.69374E+01 6.23027E+01 9.09091E+00
 -1      6783 7.35713E+01 6.62439E+01 9.09091E-01
 -1      6784 7.35713E+01 6.62439E+01 1.81818E+00
 -1      6785 7.35713E+01 6.62439E+01 2.72727E+00
 -1      6786 7.35713E+01 6.62439E+01 3.63636E+00
 -1      6787 7.35713E+01 6.62439E+01 4.54545E+00
 -1      6788 7.35713E+01 6.62439E+01 5.45455E+00
 -1      6789 7.35713E+01 6.62439E+01 6.36364E+00
 -1      6790 7.35713E+01 6.62439E+01 7.27273E+00
 -1      6791 7.35713E+01 6.62439E+01 8.18182E+00
 -1      6792 7.35713E+01 6.62439E+01 9.09091E+00
 -1      6793 7.00036E+01 7.00036E+01 9.09091E-01
 -1      6794 7.00036E+01 7.00036E+01 1.81818E+00
 -1      6795 7.00036E+01 7.00036E+01 2.72727E+00
 -1      6796 7.00036E+01 7.00036E+01 3.63636E+00
 -1      6797 7.00036E+01 7.00036E+01 4.54545E+00
 -1      6798 7.00036E+01 7.00036E+01 5.45455E+00
 -1      6799 7.00036E+01 7.00036E+01 6.36364E+00
 -1      6800 7.00036E+01 7.00036E+01 7.27273E+00
 -1      6801 7.00036E+01 7.00036E+01 8.18182E+00
 -1      6802 7.00036E+01 7.00036E+01 9.09091E+00
 -1      6803 6.62439E+01 7.35713E+01 9.09091E-01
 -1      6804 6.62439E+01 7.35713E+01 1.81818E+00
 -1      6805 6.62439E+01 7.35713E+01 2.72727E+00
 -1      6806 6.62439E+01 7.35713E+01 3.63636E+00
 -1      6807 6.62439E+01 7.35713E+01 4.54545E+00
 -1      6808 6.62439E+01 7.35713E+01 5.45455E+00
 -1      6809 6.62439E+01 7.35713E+01 6.36364E+00
 -1      6810 6.62439E+01 7.35713E+01 7.27273E+00
 -1      6811 6.62439E+01 7.35713E+01 8.18182E+00
 -1      6812 6.62439E+01 7.35713E+01 9.09091E+00
 -1      6813 6.23027E+01 7.69374E+01 9.09091E-01
 -1      6814 6.23027E+01 7.69374E+01 1.81818E+00
 -1      6815 6.23027E+01 7.69374E+01 2.72727E+00
 -1      6816 6.23027E+01 7.69374E+01 3.63636E+00
 -1      6817 6.23027E+01 7.69374E+01 4.54545E+00
 -1      6818 6.23027E+01 7.69374E+01 5.45455E+00
 -1      6819 6.23027E+01 7.69374E+01 6.36364E+00
 -1      6820 6.23027E+01 7.69374E+01 7.27273E+00
 -1      6821 6.23027E+01 7.69374E+01 8.18182E+00
 -1      6822 6.23027E+01 7.69374E+01 9.09091E+00
 -1      6823 5.81907E+01 8.00927E+01 9.09091E-01
 -1      6824 5.81907E+01 8.00927E+01 1.81818E+00
 -1      6825 5.81907E+01 8.00927E+01 2.72727E+00
 -1      6826 5.81907E+01 8.00927E+01 3.63636E+00
 -1      6827 5.81907E+01 8.00927E+01 4.54545E+00
 -1      6828 5.81907E+01 8.00927E+01 5.45455E+00
 -1      6829 5.81907E+01 8.00927E+01 6.36364E+00
 -1      6830 5.81907E+01 8.00927E+01 7.27273E+00
 -1      6831 5.81907E+01 8.00927E+01 8.18182E+00
 -1      6832 5.81907E+01 8.00927E+01 9.09091E+00
 -1      6833 5.39193E+01 8.30284E+01 9.09091E-01
 -1      6834 5.39193E+01 8.30284E+01 1.81818E+00
 -1      6835 5.39193E+01 8.30284E+01 2.72727E+00
 -1      6836 5.39193E+01 8.30284E+01 3.63636E+00
 -1      6837 5.39193E+01 8.30284E+01 4.54545E+00
 -1      6838 5.39193E+01 8.30284E+01 5.45455E+00
 -1      6839 5.39193E+01 8.30284E+01 6.36364E+00
 -1      6840 5.39193E+01 8.30284E+01 7.27273E+00
 -1      6841 5.39193E+01 8.30284E+01 8.18182E+00
 -1      6842 5.39193E+01 8.30284E+01 9.09091E+00
 -1      6843 4.95000E+01 8.57365E+01 9.09091E-01
 -1      6844 4.95000E+01 8.57365E+01 1.81818E+00
 -1      6845 4.95000E+01 8.57365E+01 2.72727E+00
 -1      6846 4.95000E+01 8.57365E+01 3.63636E+00
 -1      6847 4.95000E+01 8.57365E+01 4.54545E+00
 -1      6848 4.95000E+01 8.57365E+01 5.45455E+00
 -1      6849 4.95000E+01 8.57365E+01 6.36364E+00
 -1      6850 4.95000E+01 8.57365E+01 7.27273E+00
 -1      6851 4.95000E+01 8.57365E+01 8.18182E+00
 -1      6852 4.95000E+01 8.57365E+01 9.09091E+00
 -1      6853 4.49451E+01 8.82096E+01 9.09091E-01
 -1      6854 4.49451E+01 8.82096E+01 1.81818E+00
 -1      6855 4.49451E+01 8.82096E+01 2.72727E+00
 -1      6856 4.49451E+01 8.82096E+01 3.63636E+00
 -1      6857 4.49451E+01 8.82096E+01 4.54545E+00
 -1      6858 4.49451E+01 8.82096E+01 5.45455E+00
 -1      6859 4.49451E+01 8.82096E+01 6.36364E+00
 -1      6860 4.49451E+01 8.82096E+01 7.27273E+00
 -1      6861 4.49451E+01 8.82096E+01 8.18182E+00
 -1      6862 4.49451E+01 8.82096E+01 9.09091E+00
 -1      6863 4.02669E+01 9.04410E+01 9.09091E-01
 -1      6864 4.02669E+01 9.04410E+01 1.81818E+00
 -1      6865 4.02669E+01 9.04410E+01 2.72727E+00
 -1      6866 4.02669E+01 9.04410E+01 3.63636E+00
 -1      6867 4.02669E+01 9.04410E+01 4.54545E+00
 -1      6868 4.02669E+01 9.04410E+01 5.45455E+00
 -1      6869 4.02669E+01 9.04410E+01 6.36364E+00
 -1      6870 4.02669E+01 9.04410E+01 7.27273E+00
 -1      6871 4.02669E+01 9.04410E+01 8.18182E+00
 -1      6872 4.02669E+01 9.04410E+01 9.09091E+00
 -1      6873 3.54784E+01 9.24245E+01 9.09091E-01
 -1      6874 3.54784E+01 9.24245E+01 1.81818E+00
 -1      6875 3.54784E+01 9.24245E+01 2.72727E+00
 -1      6876 3.54784E+01 9.24245E+01 3.63636E+00
 -1      6877 3.54784E+01 9.24245E+01 4.54545E+00
 -1      6878 3.54784E+01 9.24245E+01 5.45455E+00
 -1      6879 3.54784E+01 9.24245E+01 6.36364E+00
 -1      6880 3.54784E+01 9.24245E+01 7.27273E+00
 -1      6881 3.54784E+01 9.24245E+01 8.18182E+00
 -1      6882 3.54784E+01 9.24245E+01 9.09091E+00
 -1      6883 3.05927E+01 9.41546E+01 9.09091E-01
 -1      6884 3.05927E+01 9.41546E+01 1.81818E+00
 -1      6885 3.05927E+01 9.41546E+01 2.72727E+00
 -1      6886 3.05927E+01 9.41546E+01 3.63636E+00
 -1      6887 3.05927E+01 9.41546E+01 4.54545E+00
 -1      6888 3.05927E+01 9.41546E+01 5.45455E+00
 -1      6889 3.05927E+01 9.41546E+01 6.36364E+00
 -1      6890 3.05927E+01 9.41546E+01 7.27273E+00
 -1      6891 3.05927E+01 9.41546E+01 8.18182E+00
 -1      6892 3.05927E+01 9.41546E+01 9.09091E+00
 -1      6893 2.56231E+01 9.56267E+01 9.09091E-01
 -1      6894 2.56231E+01 9.56267E+01 1.81818E+00
 -1      6895 2.56231E+01 9.56267E+01 2.72727E+00
 -1      6896 2.56231E+01 9.56267E+01 3.63636E+00
 -1      6897 2.56231E+01 9.56267E+01 4.54545E+00
 -1      6898 2.56231E+01 9.56267E+01 5.45455E+00
 -1      6899 2.56231E+01 9.56267E+01 6.36364E+00
 -1      6900 2.56231E+01 9.56267E+01 7.27273E+00
 -1      6901 2.56231E+01 9.56267E+01 8.18182E+00
 -1      6902 2.56231E+01 9.56267E+01 9.09091E+00
 -1      6903 2.05833E+01 9.68366E+01 9.09091E-01
 -1      6904 2.05833E+01 9.68366E+01 1.81818E+00
 -1      6905 2.05833E+01 9.68366E+01 2.72727E+00
 -1      6906 2.05833E+01 9.68366E+01 3.63636E+00
 -1      6907 2.05833E+01 9.68366E+01 4.54545E+00
 -1      6908 2.05833E+01 9.68366E+01 5.45455E+00
 -1      6909 2.05833E+01 9.68366E+01 6.36364E+00
 -1      6910 2.05833E+01 9.68366E+01 7.27273E+00
 -1      6911 2.05833E+01 9.68366E+01 8.18182E+00
 -1      6912 2.05833E+01 9.68366E+01 9.09091E+00
 -1      6913 1.54870E+01 9.77811E+01 9.09091E-01
 -1      6914 1.54870E+01 9.77811E+01 1.81818E+00
 -1      6915 1.54870E+01 9.77811E+01 2.72727E+00
 -1      6916 1.54870E+01 9.77811E+01 3.63636E+00
 -1      6917 1.54870E+01 9.77811E+01 4.54545E+00
 -1      6918 1.54870E+01 9.77811E+01 5.45455E+00
 -1      6919 1.54870E+01 9.77811E+01 6.36364E+00
 -1      6920 1.54870E+01 9.77811E+01 7.27273E+00
 -1      6921 1.54870E+01 9.77811E+01 8.18182E+00
 -1      6922 1.54870E+01 9.77811E+01 9.09091E+00
 -1      6923 1.03483E+01 9.84577E+01 9.09091E-01
 -1      6924 1.03483E+01 9.84577E+01 1.81818E+00
 -1      6925 1.03483E+01 9.84577E+01 2.72727E+00
 -1      6926 1.03483E+01 9.84577E+01 3.63636E+00
 -1      6927 1.03483E+01 9.84577E+01 4.54545E+00
 -1      6928 1.03483E+01 9.84577E+01 5.45455E+00
 -1      6929 1.03483E+01 9.84577E+01 6.36364E+00
 -1      6930 1.03483E+01 9.84577E+01 7.27273E+00
 -1      6931 1.03483E+01 9.84577E+01 8.18182E+00
 -1      6932 1.03483E+01 9.84577E+01 9.09091E+00
 -1      6933 5.18126E+00 9.88643E+01 9.09091E-01
 -1      6934 5.18126E+00 9.88643E+01 1.81818E+00
 -1      6935 5.18126E+00 9.88643E+01 2.72727E+00
 -1      6936 5.18126E+00 9.88643E+01 3.63636E+00
 -1      6937 5.18126E+00 9.88643E+01 4.54545E+00
 -1      6938 5.18126E+00 9.88643E+01 5.45455E+00
 -1      6939 5.18126E+00 9.88643E+01 6.36364E+00
 -1      6940 5.18126E+00 9.88643E+01 7.27273E+00
 -1      6941 5.18126E+00 9.88643E+01 8.18182E+00
 -1      6942 5.18126E+00 9.88643E+01 9.09091E+00
 -1      6943 9.91140E+01 5.19434E+00 9.09091E-01
 -1      6944 9.91140E+01 5.19434E+00 1.81818E+00
 -1      6945 9.91140E+01 5.19434E+00 2.72727E+00
 -1      6946 9.91140E+01 5.19434E+00 3.63636E+00
 -1      6947 9.91140E+01 5.19434E+00 4.54545E+00
 -1      6948 9.91140E+01 5.19434E+00 5.45455E+00
 -1      6949 9.91140E+01 5.19434E+00 6.36364E+00
 -1      6950 9.91140E+01 5.19434E+00 7.27273E+00
 -1      6951 9.91140E+01 5.19434E+00 8.18182E+00
 -1      6952 9.91140E+01 5.19434E+00 9.09091E+00
 -1      6953 9.87063E+01 1.03744E+01 9.09091E-01
 -1      6954 9.87063E+01 1.03744E+01 1.81818E+00
 -1      6955 9.87063E+01 1.03744E+01 2.72727E+00
 -1      6956 9.87063E+01 1.03744E+01 3.63636E+00
 -1      6957 9.87063E+01 1.03744E+01 4.54545E+00
 -1      6958 9.87063E+01 1.03744E+01 5.45455E+00
 -1      6959 9.87063E+01 1.03744E+01 6.36364E+00
 -1      6960 9.87063E+01 1.03744E+01 7.27273E+00
 -1      6961 9.87063E+01 1.03744E+01 8.18182E+00
 -1      6962 9.87063E+01 1.03744E+01 9.09091E+00
 -1      6963 9.80281E+01 1.55261E+01 9.09091E-01
 -1      6964 9.80281E+01 1.55261E+01 1.81818E+00
 -1      6965 9.80281E+01 1.55261E+01 2.72727E+00
 -1      6966 9.80281E+01 1.55261E+01 3.63636E+00
 -1      6967 9.80281E+01 1.55261E+01 4.54545E+00
 -1      6968 9.80281E+01 1.55261E+01 5.45455E+00
 -1      6969 9.80281E+01 1.55261E+01 6.36364E+00
 -1      6970 9.80281E+01 1.55261E+01 7.27273E+00
 -1      6971 9.80281E+01 1.55261E+01 8.18182E+00
 -1      6972 9.80281E+01 1.55261E+01 9.09091E+00
 -1      6973 9.70811E+01 2.06352E+01 9.09091E-01
 -1      6974 9.70811E+01 2.06352E+01 1.81818E+00
 -1      6975 9.70811E+01 2.06352E+01 2.72727E+00
 -1      6976 9.70811E+01 2.06352E+01 3.63636E+00
 -1      6977 9.70811E+01 2.06352E+01 4.54545E+00
 -1      6978 9.70811E+01 2.06352E+01 5.45455E+00
 -1      6979 9.70811E+01 2.06352E+01 6.36364E+00
 -1      6980 9.70811E+01 2.06352E+01 7.27273E+00
 -1      6981 9.70811E+01 2.06352E+01 8.18182E+00
 -1      6982 9.70811E+01 2.06352E+01 9.09091E+00
 -1      6983 9.58681E+01 2.56878E+01 9.09091E-01
 -1      6984 9.58681E+01 2.56878E+01 1.81818E+00
 -1      6985 9.58681E+01 2.56878E+01 2.72727E+00
 -1      6986 9.58681E+01 2.56878E+01 3.63636E+00
 -1      6987 9.58681E+01 2.56878E+01 4.54545E+00
 -1      6988 9.58681E+01 2.56878E+01 5.45455E+00
 -1      6989 9.58681E+01 2.56878E+01 6.36364E+00
 -1      6990 9.58681E+01 2.56878E+01 7.27273E+00
 -1      6991 9.58681E+01 2.56878E+01 8.18182E+00
 -1      6992 9.58681E+01 2.56878E+01 9.09091E+00
 -1      6993 9.43924E+01 3.06699E+01 9.09091E-01
 -1      6994 9.43924E+01 3.06699E+01 1.81818E+00
 -1      6995 9.43924E+01 3.06699E+01 2.72727E+00
 -1      6996 9.43924E+01 3.06699E+01 3.63636E+00
 -1      6997 9.43924E+01 3.06699E+01 4.54545E+00
 -1      6998 9.43924E+01 3.06699E+01 5.45455E+00
 -1      6999 9.43924E+01 3.06699E+01 6.36364E+00
 -1      7000 9.43924E+01 3.06699E+01 7.27273E+00
 -1      7001 9.43924E+01 3.06699E+01 8.18182E+00
 -1      7002 9.43924E+01 3.06699E+01 9.09091E+00
 -1      7003 9.26579E+01 3.55680E+01 9.09091E-01
 -1      7004 9.26579E+01 3.55680E+01 1.81818E+00
 -1      7005 9.26579E+01 3.55680E+01 2.72727E+00
 -1      7006 9.26579E+01 3.55680E+01 3.63636E+00
 -1      7007 9.26579E+01 3.55680E+01 4.54545E+00
 -1      7008 9.26579E+01 3.55680E+01 5.45455E+00
 -1      7009 9.26579E+01 3.55680E+01 6.36364E+00
 -1      7010 9.26579E+01 3.55680E+01 7.27273E+00
 -1      7011 9.26579E+01 3.55680E+01 8.18182E+00
 -1      7012 9.26579E+01 3.55680E+01 9.09091E+00
 -1      7013 9.06694E+01 4.03686E+01 9.09091E-01
 -1      7014 9.06694E+01 4.03686E+01 1.81818E+00
 -1      7015 9.06694E+01 4.03686E+01 2.72727E+00
 -1      7016 9.06694E+01 4.03686E+01 3.63636E+00
 -1      7017 9.06694E+01 4.03686E+01 4.54545E+00
 -1      7018 9.06694E+01 4.03686E+01 5.45455E+00
 -1      7019 9.06694E+01 4.03686E+01 6.36364E+00
 -1      7020 9.06694E+01 4.03686E+01 7.27273E+00
 -1      7021 9.06694E+01 4.03686E+01 8.18182E+00
 -1      7022 9.06694E+01 4.03686E+01 9.09091E+00
 -1      7023 8.84324E+01 4.50586E+01 9.09091E-01
 -1      7024 8.84324E+01 4.50586E+01 1.81818E+00
 -1      7025 8.84324E+01 4.50586E+01 2.72727E+00
 -1      7026 8.84324E+01 4.50586E+01 3.63636E+00
 -1      7027 8.84324E+01 4.50586E+01 4.54545E+00
 -1      7028 8.84324E+01 4.50586E+01 5.45455E+00
 -1      7029 8.84324E+01 4.50586E+01 6.36364E+00
 -1      7030 8.84324E+01 4.50586E+01 7.27273E+00
 -1      7031 8.84324E+01 4.50586E+01 8.18182E+00
 -1      7032 8.84324E+01 4.50586E+01 9.09091E+00
 -1      7033 8.59530E+01 4.96250E+01 9.09091E-01
 -1      7034 8.59530E+01 4.96250E+01 1.81818E+00
 -1      7035 8.59530E+01 4.96250E+01 2.72727E+00
 -1      7036 8.59530E+01 4.96250E+01 3.63636E+00
 -1      7037 8.59530E+01 4.96250E+01 4.54545E+00
 -1      7038 8.59530E+01 4.96250E+01 5.45455E+00
 -1      7039 8.59530E+01 4.96250E+01 6.36364E+00
 -1      7040 8.59530E+01 4.96250E+01 7.27273E+00
 -1      7041 8.59530E+01 4.96250E+01 8.18182E+00
 -1      7042 8.59530E+01 4.96250E+01 9.09091E+00
 -1      7043 8.32381E+01 5.40554E+01 9.09091E-01
 -1      7044 8.32381E+01 5.40554E+01 1.81818E+00
 -1      7045 8.32381E+01 5.40554E+01 2.72727E+00
 -1      7046 8.32381E+01 5.40554E+01 3.63636E+00
 -1      7047 8.32381E+01 5.40554E+01 4.54545E+00
 -1      7048 8.32381E+01 5.40554E+01 5.45455E+00
 -1      7049 8.32381E+01 5.40554E+01 6.36364E+00
 -1      7050 8.32381E+01 5.40554E+01 7.27273E+00
 -1      7051 8.32381E+01 5.40554E+01 8.18182E+00
 -1      7052 8.32381E+01 5.40554E+01 9.09091E+00
 -1      7053 8.02949E+01 5.83377E+01 9.09091E-01
 -1      7054 8.02949E+01 5.83377E+01 1.81818E+00
 -1      7055 8.02949E+01 5.83377E+01 2.72727E+00
 -1      7056 8.02949E+01 5.83377E+01 3.63636E+00
 -1      7057 8.02949E+01 5.83377E+01 4.54545E+00
 -1      7058 8.02949E+01 5.83377E+01 5.45455E+00
 -1      7059 8.02949E+01 5.83377E+01 6.36364E+00
 -1      7060 8.02949E+01 5.83377E+01 7.27273E+00
 -1      7061 8.02949E+01 5.83377E+01 8.18182E+00
 -1      7062 8.02949E+01 5.83377E+01 9.09091E+00
 -1      7063 7.71317E+01 6.24600E+01 9.09091E-01
 -1      7064 7.71317E+01 6.24600E+01 1.81818E+00
 -1      7065 7.71317E+01 6.24600E+01 2.72727E+00
 -1      7066 7.71317E+01 6.24600E+01 3.63636E+00
 -1      7067 7.71317E+01 6.24600E+01 4.54545E+00
 -1      7068 7.71317E+01 6.24600E+01 5.45455E+00
 -1      7069 7.71317E+01 6.24600E+01 6.36364E+00
 -1      7070 7.71317E+01 6.24600E+01 7.27273E+00
 -1      7071 7.71317E+01 6.24600E+01 8.18182E+00
 -1      7072 7.71317E+01 6.24600E+01 9.09091E+00
 -1      7073 7.37571E+01 6.64112E+01 9.09091E-01
 -1      7074 7.37571E+01 6.64112E+01 1.81818E+00
 -1      7075 7.37571E+01 6.64112E+01 2.72727E+00
 -1      7076 7.37571E+01 6.64112E+01 3.63636E+00
 -1      7077 7.37571E+01 6.64112E+01 4.54545E+00
 -1      7078 7.37571E+01 6.64112E+01 5.45455E+00
 -1      7079 7.37571E+01 6.64112E+01 6.36364E+00
 -1      7080 7.37571E+01 6.64112E+01 7.27273E+00
 -1      7081 7.37571E+01 6.64112E+01 8.18182E+00
 -1      7082 7.37571E+01 6.64112E+01 9.09091E+00
 -1      7083 7.01804E+01 7.01804E+01 9.09091E-01
 -1      7084 7.01804E+01 7.01804E+01 1.81818E+00
 -1      7085 7.01804E+01 7.01804E+01 2.72727E+00
 -1      7086 7.01804E+01 7.01804E+01 3.63636E+00
 -1      7087 7.01804E+01 7.01804E+01 4.54545E+00
 -1      7088 7.01804E+01 7.01804E+01 5.45455E+00
 -1      7089 7.01804E+01 7.01804E+01 6.36364E+00
 -1      7090 7.01804E+01 7.01804E+01 7.27273E+00
 -1      7091 7.01804E+01 7.01804E+01 8.18182E+00
 -1      7092 7.01804E+01 7.01804E+01 9.09091E+00
 -1      7093 6.64112E+01 7.37571E+01 9.09091E-01
 -1      7094 6.64112E+01 7.37571E+01 1.81818E+00
 -1      7095 6.64112E+01 7.37571E+01 2.72727E+00
 -1      7096 6.64112E+01 7.37571E+01 3.63636E+00
 -1      7097 6.64112E+01 7.37571E+01 4.54545E+00
 -1      7098 6.64112E+01 7.37571E+01 5.45455E+00
 -1      7099 6.64112E+01 7.37571E+01 6.36364E+00
 -1      7100 6.64112E+01 7.37571E+01 7.27273E+00
 -1      7101 6.64112E+01 7.37571E+01 8.18182E+00
 -1      7102 6.64112E+01 7.37571E+01 9.09091E+00
 -1      7103 6.24600E+01 7.71317E+01 9.09091E-01
 -1      7104 6.24600E+01 7.71317E+01 1.81818E+00
 -1      7105 6.24600E+01 7.71317E+01 2.72727E+00
 -1      7106 6.24600E+01 7.71317E+01 3.63636E+00
 -1      7107 6.24600E+01 7.71317E+01 4.54545E+00
 -1      7108 6.24600E+01 7.71317E+01 5.45455E+00
 -1      7109 6.24600E+01 7.71317E+01 6.36364E+00
 -1      7110 6.24600E+01 7.71317E+01 7.27273E+00
 -1      7111 6.24600E+01 7.71317E+01 8.18182E+00
 -1      7112 6.24600E+01 7.71317E+01 9.09091E+00
 -1      7113 5.83377E+01 8.02949E+01 9.09091E-01
 -1      7114 5.83377E+01 8.02949E+01 1.81818E+00
 -1      7115 5.83377E+01 8.02949E+01 2.72727E+00
 -1      7116 5.83377E+01 8.02949E+01 3.63636E+00
 -1      7117 5.83377E+01 8.02949E+01 4.54545E+00
 -1      7118 5.83377E+01 8.02949E+01 5.45455E+00
 -1      7119 5.83377E+01 8.02949E+01 6.36364E+00
 -1      7120 5.83377E+01 8.02949E+01 7.27273E+00
 -1      7121 5.83377E+01 8.02949E+01 8.18182E+00
 -1      7122 5.83377E+01 8.02949E+01 9.09091E+00
 -1      7123 5.40554E+01 8.32381E+01 9.09091E-01
 -1      7124 5.40554E+01 8.32381E+01 1.81818E+00
 -1      7125 5.40554E+01 8.32381E+01 2.72727E+00
 -1      7126 5.40554E+01 8.32381E+01 3.63636E+00
 -1      7127 5.40554E+01 8.32381E+01 4.54545E+00
 -1      7128 5.40554E+01 8.32381E+01 5.45455E+00
 -1      7129 5.40554E+01 8.32381E+01 6.36364E+00
 -1      7130 5.40554E+01 8.32381E+01 7.27273E+00
 -1      7131 5.40554E+01 8.32381E+01 8.18182E+00
 -1      7132 5.40554E+01 8.32381E+01 9.09091E+00
 -1      7133 4.96250E+01 8.59530E+01 9.09091E-01
 -1      7134 4.96250E+01 8.59530E+01 1.81818E+00
 -1      7135 4.96250E+01 8.59530E+01 2.72727E+00
 -1      7136 4.96250E+01 8.59530E+01 3.63636E+00
 -1      7137 4.96250E+01 8.59530E+01 4.54545E+00
 -1      7138 4.96250E+01 8.59530E+01 5.45455E+00
 -1      7139 4.96250E+01 8.59530E+01 6.36364E+00
 -1      7140 4.96250E+01 8.59530E+01 7.27273E+00
 -1      7141 4.96250E+01 8.59530E+01 8.18182E+00
 -1      7142 4.96250E+01 8.59530E+01 9.09091E+00
 -1      7143 4.50586E+01 8.84324E+01 9.09091E-01
 -1      7144 4.50586E+01 8.84324E+01 1.81818E+00
 -1      7145 4.50586E+01 8.84324E+01 2.72727E+00
 -1      7146 4.50586E+01 8.84324E+01 3.63636E+00
 -1      7147 4.50586E+01 8.84324E+01 4.54545E+00
 -1      7148 4.50586E+01 8.84324E+01 5.45455E+00
 -1      7149 4.50586E+01 8.84324E+01 6.36364E+00
 -1      7150 4.50586E+01 8.84324E+01 7.27273E+00
 -1      7151 4.50586E+01 8.84324E+01 8.18182E+00
 -1      7152 4.50586E+01 8.84324E+01 9.09091E+00
 -1      7153 4.03686E+01 9.06694E+01 9.09091E-01
 -1      7154 4.03686E+01 9.06694E+01 1.81818E+00
 -1      7155 4.03686E+01 9.06694E+01 2.72727E+00
 -1      7156 4.03686E+01 9.06694E+01 3.63636E+00
 -1      7157 4.03686E+01 9.06694E+01 4.54545E+00
 -1      7158 4.03686E+01 9.06694E+01 5.45455E+00
 -1      7159 4.03686E+01 9.06694E+01 6.36364E+00
 -1      7160 4.03686E+01 9.06694E+01 7.27273E+00
 -1      7161 4.03686E+01 9.06694E+01 8.18182E+00
 -1      7162 4.03686E+01 9.06694E+01 9.09091E+00
 -1      7163 3.55680E+01 9.26579E+01 9.09091E-01
 -1      7164 3.55680E+01 9.26579E+01 1.81818E+00
 -1      7165 3.55680E+01 9.26579E+01 2.72727E+00
 -1      7166 3.55680E+01 9.26579E+01 3.63636E+00
 -1      7167 3.55680E+01 9.26579E+01 4.54545E+00
 -1      7168 3.55680E+01 9.26579E+01 5.45455E+00
 -1      7169 3.55680E+01 9.26579E+01 6.36364E+00
 -1      7170 3.55680E+01 9.26579E+01 7.27273E+00
 -1      7171 3.55680E+01 9.26579E+01 8.18182E+00
 -1      7172 3.55680E+01 9.26579E+01 9.09091E+00
 -1      7173 3.06699E+01 9.43924E+01 9.09091E-01
 -1      7174 3.06699E+01 9.43924E+01 1.81818E+00
 -1      7175 3.06699E+01 9.43924E+01 2.72727E+00
 -1      7176 3.06699E+01 9.43924E+01 3.63636E+00
 -1      7177 3.06699E+01 9.43924E+01 4.54545E+00
 -1      7178 3.06699E+01 9.43924E+01 5.45455E+00
 -1      7179 3.06699E+01 9.43924E+01 6.36364E+00
 -1      7180 3.06699E+01 9.43924E+01 7.27273E+00
 -1      7181 3.06699E+01 9.43924E+01 8.18182E+00
 -1      7182 3.06699E+01 9.43924E+01 9.09091E+00
 -1      7183 2.56878E+01 9.58681E+01 9.09091E-01
 -1      7184 2.56878E+01 9.58681E+01 1.81818E+00
 -1      7185 2.56878E+01 9.58681E+01 2.72727E+00
 -1      7186 2.56878E+01 9.58681E+01 3.63636E+00
 -1      7187 2.56878E+01 9.58681E+01 4.54545E+00
 -1      7188 2.56878E+01 9.58681E+01 5.45455E+00
 -1      7189 2.56878E+01 9.58681E+01 6.36364E+00
 -1      7190 2.56878E+01 9.58681E+01 7.27273E+00
 -1      7191 2.56878E+01 9.58681E+01 8.18182E+00
 -1      7192 2.56878E+01 9.58681E+01 9.09091E+00
 -1      7193 2.06352E+01 9.70811E+01 9.09091E-01
 -1      7194 2.06352E+01 9.70811E+01 1.81818E+00
 -1      7195 2.06352E+01 9.70811E+01 2.72727E+00
 -1      7196 2.06352E+01 9.70811E+01 3.63636E+00
 -1      7197 2.06352E+01 9.70811E+01 4.54545E+00
 -1      7198 2.06352E+01 9.70811E+01 5.45455E+00
 -1      7199 2.06352E+01 9.70811E+01 6.36364E+00
 -1      7200 2.06352E+01 9.70811E+01 7.27273E+00
 -1      7201 2.06352E+01 9.70811E+01 8.18182E+00
 -1      7202 2.06352E+01 9.70811E+01 9.09091E+00
 -1      7203 1.55261E+01 9.80281E+01 9.09091E-01
 -1      7204 1.55261E+01 9.80281E+01 1.81818E+00
 -1      7205 1.55261E+01 9.80281E+01 2.72727E+00
 -1      7206 1.55261E+01 9.80281E+01 3.63636E+00
 -1      7207 1.55261E+01 9.80281E+01 4.54545E+00
 -1      7208 1.55261E+01 9.80281E+01 5.45455E+00
 -1      7209 1.55261E+01 9.80281E+01 6.36364E+00
 -1      7210 1.55261E+01 9.80281E+01 7.27273E+00
 -1      7211 1.55261E+01 9.80281E+01 8.18182E+00
 -1      7212 1.55261E+01 9.80281E+01 9.09091E+00
 -1      7213 1.03744E+01 9.87063E+01 9.09091E-01
 -1      7214 1.03744E+01 9.87063E+01 1.81818E+00
 -1      7215 1.03744E+01 9.87063E+01 2.72727E+00
 -1      7216 1.03744E+01 9.87063E+01 3.63636E+00
 -1      7217 1.03744E+01 9.87063E+01 4.54545E+00
 -1      7218 1.03744E+01 9.87063E+01 5.45455E+00
 -1      7219 1.03744E+01 9.87063E+01 6.36364E+00
 -1      7220 1.03744E+01 9.87063E+01 7.27273E+00
 -1      7221 1.03744E+01 9.87063E+01 8.18182E+00
 -1      7222 1.03744E+01 9.87063E+01 9.09091E+00
 -1      7223 5.19434E+00 9.91140E+01 9.09091E-01
 -1      7224 5.19434E+00 9.91140E+01 1.81818E+00
 -1      7225 5.19434E+00 9.91140E+01 2.72727E+00
 -1      7226 5.19434E+00 9.91140E+01 3.63636E+00
 -1      7227 5.19434E+00 9.91140E+01 4.54545E+00
 -1      7228 5.19434E+00 9.91140E+01 5.45455E+00
 -1      7229 5.19434E+00 9.91140E+01 6.36364E+00
 -1      7230 5.19434E+00 9.91140E+01 7.27273E+00
 -1      7231 5.19434E+00 9.91140E+01 8.18182E+00
 -1      7232 5.19434E+00 9.91140E+01 9.09091E+00
 -1      7233 9.93636E+01 5.20743E+00 9.09091E-01
 -1      7234 9.93636E+01 5.20743E+00 1.81818E+00
 -1      7235 9.93636E+01 5.20743E+00 2.72727E+00
 -1      7236 9.93636E+01 5.20743E+00 3.63636E+00
 -1      7237 9.93636E+01 5.20743E+00 4.54545E+00
 -1      7238 9.93636E+01 5.20743E+00 5.45455E+00
 -1      7239 9.93636E+01 5.20743E+00 6.36364E+00
 -1      7240 9.93636E+01 5.20743E+00 7.27273E+00
 -1      7241 9.93636E+01 5.20743E+00 8.18182E+00
 -1      7242 9.93636E+01 5.20743E+00 9.09091E+00
 -1      7243 9.89549E+01 1.04006E+01 9.09091E-01
 -1      7244 9.89549E+01 1.04006E+01 1.81818E+00
 -1      7245 9.89549E+01 1.04006E+01 2.72727E+00
 -1      7246 9.89549E+01 1.04006E+01 3.63636E+00
 -1      7247 9.89549E+01 1.04006E+01 4.54545E+00
 -1      7248 9.89549E+01 1.04006E+01 5.45455E+00
 -1      7249 9.89549E+01 1.04006E+01 6.36364E+00
 -1      7250 9.89549E+01 1.04006E+01 7.27273E+00
 -1      7251 9.89549E+01 1.04006E+01 8.18182E+00
 -1      7252 9.89549E+01 1.04006E+01 9.09091E+00
 -1      7253 9.82750E+01 1.55652E+01 9.09091E-01
 -1      7254 9.82750E+01 1.55652E+01 1.81818E+00
 -1      7255 9.82750E+01 1.55652E+01 2.72727E+00
 -1      7256 9.82750E+01 1.55652E+01 3.63636E+00
 -1      7257 9.82750E+01 1.55652E+01 4.54545E+00
 -1      7258 9.82750E+01 1.55652E+01 5.45455E+00
 -1      7259 9.82750E+01 1.55652E+01 6.36364E+00
 -1      7260 9.82750E+01 1.55652E+01 7.27273E+00
 -1      7261 9.82750E+01 1.55652E+01 8.18182E+00
 -1      7262 9.82750E+01 1.55652E+01 9.09091E+00
 -1      7263 9.73257E+01 2.06872E+01 9.09091E-01
 -1      7264 9.73257E+01 2.06872E+01 1.81818E+00
 -1      7265 9.73257E+01 2.06872E+01 2.72727E+00
 -1      7266 9.73257E+01 2.06872E+01 3.63636E+00
 -1      7267 9.73257E+01 2.06872E+01 4.54545E+00
 -1      7268 9.73257E+01 2.06872E+01 5.45455E+00
 -1      7269 9.73257E+01 2.06872E+01 6.36364E+00
 -1      7270 9.73257E+01 2.06872E+01 7.27273E+00
 -1      7271 9.73257E+01 2.06872E+01 8.18182E+00
 -1      7272 9.73257E+01 2.06872E+01 9.09091E+00
 -1      7273 9.61096E+01 2.57525E+01 9.09091E-01
 -1      7274 9.61096E+01 2.57525E+01 1.81818E+00
 -1      7275 9.61096E+01 2.57525E+01 2.72727E+00
 -1      7276 9.61096E+01 2.57525E+01 3.63636E+00
 -1      7277 9.61096E+01 2.57525E+01 4.54545E+00
 -1      7278 9.61096E+01 2.57525E+01 5.45455E+00
 -1      7279 9.61096E+01 2.57525E+01 6.36364E+00
 -1      7280 9.61096E+01 2.57525E+01 7.27273E+00
 -1      7281 9.61096E+01 2.57525E+01 8.18182E+00
 -1      7282 9.61096E+01 2.57525E+01 9.09091E+00
 -1      7283 9.46301E+01 3.07472E+01 9.09091E-01
 -1      7284 9.46301E+01 3.07472E+01 1.81818E+00
 -1      7285 9.46301E+01 3.07472E+01 2.72727E+00
 -1      7286 9.46301E+01 3.07472E+01 3.63636E+00
 -1      7287 9.46301E+01 3.07472E+01 4.54545E+00
 -1      7288 9.46301E+01 3.07472E+01 5.45455E+00
 -1      7289 9.46301E+01 3.07472E+01 6.36364E+00
 -1      7290 9.46301E+01 3.07472E+01 7.27273E+00
 -1      7291 9.46301E+01 3.07472E+01 8.18182E+00
 -1      7292 9.46301E+01 3.07472E+01 9.09091E+00
 -1      7293 9.28913E+01 3.56576E+01 9.09091E-01
 -1      7294 9.28913E+01 3.56576E+01 1.81818E+00
 -1      7295 9.28913E+01 3.56576E+01 2.72727E+00
 -1      7296 9.28913E+01 3.56576E+01 3.63636E+00
 -1      7297 9.28913E+01 3.56576E+01 4.54545E+00
 -1      7298 9.28913E+01 3.56576E+01 5.45455E+00
 -1      7299 9.28913E+01 3.56576E+01 6.36364E+00
 -1      7300 9.28913E+01 3.56576E+01 7.27273E+00
 -1      7301 9.28913E+01 3.56576E+01 8.18182E+00
 -1      7302 9.28913E+01 3.56576E+01 9.09091E+00
 -1      7303 9.08978E+01 4.04703E+01 9.09091E-01
 -1      7304 9.08978E+01 4.04703E+01 1.81818E+00
 -1      7305 9.08978E+01 4.04703E+01 2.72727E+00
 -1      7306 9.08978E+01 4.04703E+01 3.63636E+00
 -1      7307 9.08978E+01 4.04703E+01 4.54545E+00
 -1      7308 9.08978E+01 4.04703E+01 5.45455E+00
 -1      7309 9.08978E+01 4.04703E+01 6.36364E+00
 -1      7310 9.08978E+01 4.04703E+01 7.27273E+00
 -1      7311 9.08978E+01 4.04703E+01 8.18182E+00
 -1      7312 9.08978E+01 4.04703E+01 9.09091E+00
 -1      7313 8.86552E+01 4.51721E+01 9.09091E-01
 -1      7314 8.86552E+01 4.51721E+01 1.81818E+00
 -1      7315 8.86552E+01 4.51721E+01 2.72727E+00
 -1      7316 8.86552E+01 4.51721E+01 3.63636E+00
 -1      7317 8.86552E+01 4.51721E+01 4.54545E+00
 -1      7318 8.86552E+01 4.51721E+01 5.45455E+00
 -1      7319 8.86552E+01 4.51721E+01 6.36364E+00
 -1      7320 8.86552E+01 4.51721E+01 7.27273E+00
 -1      7321 8.86552E+01 4.51721E+01 8.18182E+00
 -1      7322 8.86552E+01 4.51721E+01 9.09091E+00
 -1      7323 8.61695E+01 4.97500E+01 9.09091E-01
 -1      7324 8.61695E+01 4.97500E+01 1.81818E+00
 -1      7325 8.61695E+01 4.97500E+01 2.72727E+00
 -1      7326 8.61695E+01 4.97500E+01 3.63636E+00
 -1      7327 8.61695E+01 4.97500E+01 4.54545E+00
 -1      7328 8.61695E+01 4.97500E+01 5.45455E+00
 -1      7329 8.61695E+01 4.97500E+01 6.36364E+00
 -1      7330 8.61695E+01 4.97500E+01 7.27273E+00
 -1      7331 8.61695E+01 4.97500E+01 8.18182E+00
 -1      7332 8.61695E+01 4.97500E+01 9.09091E+00
 -1      7333 8.34477E+01 5.41916E+01 9.09091E-01
 -1      7334 8.34477E+01 5.41916E+01 1.81818E+00
 -1      7335 8.34477E+01 5.41916E+01 2.72727E+00
 -1      7336 8.34477E+01 5.41916E+01 3.63636E+00
 -1      7337 8.34477E+01 5.41916E+01 4.54545E+00
 -1      7338 8.34477E+01 5.41916E+01 5.45455E+00
 -1      7339 8.34477E+01 5.41916E+01 6.36364E+00
 -1      7340 8.34477E+01 5.41916E+01 7.27273E+00
 -1      7341 8.34477E+01 5.41916E+01 8.18182E+00
 -1      7342 8.34477E+01 5.41916E+01 9.09091E+00
 -1      7343 8.04972E+01 5.84846E+01 9.09091E-01
 -1      7344 8.04972E+01 5.84846E+01 1.81818E+00
 -1      7345 8.04972E+01 5.84846E+01 2.72727E+00
 -1      7346 8.04972E+01 5.84846E+01 3.63636E+00
 -1      7347 8.04972E+01 5.84846E+01 4.54545E+00
 -1      7348 8.04972E+01 5.84846E+01 5.45455E+00
 -1      7349 8.04972E+01 5.84846E+01 6.36364E+00
 -1      7350 8.04972E+01 5.84846E+01 7.27273E+00
 -1      7351 8.04972E+01 5.84846E+01 8.18182E+00
 -1      7352 8.04972E+01 5.84846E+01 9.09091E+00
 -1      7353 7.73260E+01 6.26174E+01 9.09091E-01
 -1      7354 7.73260E+01 6.26174E+01 1.81818E+00
 -1      7355 7.73260E+01 6.26174E+01 2.72727E+00
 -1      7356 7.73260E+01 6.26174E+01 3.63636E+00
 -1      7357 7.73260E+01 6.26174E+01 4.54545E+00
 -1      7358 7.73260E+01 6.26174E+01 5.45455E+00
 -1      7359 7.73260E+01 6.26174E+01 6.36364E+00
 -1      7360 7.73260E+01 6.26174E+01 7.27273E+00
 -1      7361 7.73260E+01 6.26174E+01 8.18182E+00
 -1      7362 7.73260E+01 6.26174E+01 9.09091E+00
 -1      7363 7.39429E+01 6.65785E+01 9.09091E-01
 -1      7364 7.39429E+01 6.65785E+01 1.81818E+00
 -1      7365 7.39429E+01 6.65785E+01 2.72727E+00
 -1      7366 7.39429E+01 6.65785E+01 3.63636E+00
 -1      7367 7.39429E+01 6.65785E+01 4.54545E+00
 -1      7368 7.39429E+01 6.65785E+01 5.45455E+00
 -1      7369 7.39429E+01 6.65785E+01 6.36364E+00
 -1      7370 7.39429E+01 6.65785E+01 7.27273E+00
 -1      7371 7.39429E+01 6.65785E+01 8.18182E+00
 -1      7372 7.39429E+01 6.65785E+01 9.09091E+00
 -1      7373 7.03571E+01 7.03571E+01 9.09091E-01
 -1      7374 7.03571E+01 7.03571E+01 1.81818E+00
 -1      7375 7.03571E+01 7.03571E+01 2.72727E+00
 -1      7376 7.03571E+01 7.03571E+01 3.63636E+00
 -1      7377 7.03571E+01 7.03571E+01 4.54545E+00
 -1      7378 7.03571E+01 7.03571E+01 5.45455E+00
 -1      7379 7.03571E+01 7.03571E+01 6.36364E+00
 -1      7380 7.03571E+01 7.03571E+01 7.27273E+00
 -1      7381 7.03571E+01 7.03571E+01 8.18182E+00
 -1      7382 7.03571E+01 7.03571E+01 9.09091E+00
 -1      7383 6.65785E+01 7.39429E+01 9.09091E-01
 -1      7384 6.65785E+01 7.39429E+01 1.81818E+00
 -1      7385 6.65785E+01 7.39429E+01 2.72727E+00
 -1      7386 6.65785E+01 7.39429E+01 3.63636E+00
 -1      7387 6.65785E+01 7.39429E+01 4.54545E+00
 -1      7388 6.65785E+01 7.39429E+01 5.45455E+00
 -1      7389 6.65785E+01 7.39429E+01 6.36364E+00
 -1      7390 6.65785E+01 7.39429E+01 7.27273E+00
 -1      7391 6.65785E+01 7.39429E+01 8.18182E+00
 -1      7392 6.65785E+01 7.39429E+01 9.09091E+00
 -1      7393 6.26174E+01 7.73260E+01 9.09091E-01
 -1      7394 6.26174E+01 7.73260E+01 1.81818E+00
 -1      7395 6.26174E+01 7.73260E+01 2.72727E+00
 -1      7396 6.26174E+01 7.73260E+01 3.63636E+00
 -1      7397 6.26174E+01 7.73260E+01 4.54545E+00
 -1      7398 6.26174E+01 7.73260E+01 5.45455E+00
 -1      7399 6.26174E+01 7.73260E+01 6.36364E+00
 -1      7400 6.26174E+01 7.73260E+01 7.27273E+00
 -1      7401 6.26174E+01 7.73260E+01 8.18182E+00
 -1      7402 6.26174E+01 7.73260E+01 9.09091E+00
 -1      7403 5.84846E+01 8.04972E+01 9.09091E-01
 -1      7404 5.84846E+01 8.04972E+01 1.81818E+00
 -1      7405 5.84846E+01 8.04972E+01 2.72727E+00
 -1      7406 5.84846E+01 8.04972E+01 3.63636E+00
 -1      7407 5.84846E+01 8.04972E+01 4.54545E+00
 -1      7408 5.84846E+01 8.04972E+01 5.45455E+00
 -1      7409 5.84846E+01 8.04972E+01 6.36364E+00
 -1      7410 5.84846E+01 8.04972E+01 7.27273E+00
 -1      7411 5.84846E+01 8.04972E+01 8.18182E+00
 -1      7412 5.84846E+01 8.04972E+01 9.09091E+00
 -1      7413 5.41916E+01 8.34477E+01 9.09091E-01
 -1      7414 5.41916E+01 8.34477E+01 1.81818E+00
 -1      7415 5.41916E+01 8.34477E+01 2.72727E+00
 -1      7416 5.41916E+01 8.34477E+01 3.63636E+00
 -1      7417 5.41916E+01 8.34477E+01 4.54545E+00
 -1      7418 5.41916E+01 8.34477E+01 5.45455E+00
 -1      7419 5.41916E+01 8.34477E+01 6.36364E+00
 -1      7420 5.41916E+01 8.34477E+01 7.27273E+00
 -1      7421 5.41916E+01 8.34477E+01 8.18182E+00
 -1      7422 5.41916E+01 8.34477E+01 9.09091E+00
 -1      7423 4.97500E+01 8.61695E+01 9.09091E-01
 -1      7424 4.97500E+01 8.61695E+01 1.81818E+00
 -1      7425 4.97500E+01 8.61695E+01 2.72727E+00
 -1      7426 4.97500E+01 8.61695E+01 3.63636E+00
 -1      7427 4.97500E+01 8.61695E+01 4.54545E+00
 -1      7428 4.97500E+01 8.61695E+01 5.45455E+00
 -1      7429 4.97500E+01 8.61695E+01 6.36364E+00
 -1      7430 4.97500E+01 8.61695E+01 7.27273E+00
 -1      7431 4.97500E+01 8.61695E+01 8.18182E+00
 -1      7432 4.97500E+01 8.61695E+01 9.09091E+00
 -1      7433 4.51721E+01 8.86552E+01 9.09091E-01
 -1      7434 4.51721E+01 8.86552E+01 1.81818E+00
 -1      7435 4.51721E+01 8.86552E+01 2.72727E+00
 -1      7436 4.51721E+01 8.86552E+01 3.63636E+00
 -1      7437 4.51721E+01 8.86552E+01 4.54545E+00
 -1      7438 4.51721E+01 8.86552E+01 5.45455E+00
 -1      7439 4.51721E+01 8.86552E+01 6.36364E+00
 -1      7440 4.51721E+01 8.86552E+01 7.27273E+00
 -1      7441 4.51721E+01 8.86552E+01 8.18182E+00
 -1      7442 4.51721E+01 8.86552E+01 9.09091E+00
 -1      7443 4.04703E+01 9.08978E+01 9.09091E-01
 -1      7444 4.04703E+01 9.08978E+01 1.81818E+00
 -1      7445 4.04703E+01 9.08978E+01 2.72727E+00
 -1      7446 4.04703E+01 9.08978E+01 3.63636E+00
 -1      7447 4.04703E+01 9.08978E+01 4.54545E+00
 -1      7448 4.04703E+01 9.08978E+01 5.45455E+00
 -1      7449 4.04703E+01 9.08978E+01 6.36364E+00
 -1      7450 4.04703E+01 9.08978E+01 7.27273E+00
 -1      7451 4.04703E+01 9.08978E+01 8.18182E+00
 -1      7452 4.04703E+01 9.08978E+01 9.09091E+00
 -1      7453 3.56576E+01 9.28913E+01 9.09091E-01
 -1      7454 3.56576E+01 9.28913E+01 1.81818E+00
 -1      7455 3.56576E+01 9.28913E+01 2.72727E+00
 -1      7456 3.56576E+01 9.28913E+01 3.63636E+00
 -1      7457 3.56576E+01 9.28913E+01 4.54545E+00
 -1      7458 3.56576E+01 9.28913E+01 5.45455E+00
 -1      7459 3.56576E+01 9.28913E+01 6.36364E+00
 -1      7460 3.56576E+01 9.28913E+01 7.27273E+00
 -1      7461 3.56576E+01 9.28913E+01 8.18182E+00
 -1      7462 3.56576E+01 9.28913E+01 9.09091E+00
 -1      7463 3.07472E+01 9.46301E+01 9.09091E-01
 -1      7464 3.07472E+01 9.46301E+01 1.81818E+00
 -1      7465 3.07472E+01 9.46301E+01 2.72727E+00
 -1      7466 3.07472E+01 9.46301E+01 3.63636E+00
 -1      7467 3.07472E+01 9.46301E+01 4.54545E+00
 -1      7468 3.07472E+01 9.46301E+01 5.45455E+00
 -1      7469 3.07472E+01 9.46301E+01 6.36364E+00
 -1      7470 3.07472E+01 9.46301E+01 7.27273E+00
 -1      7471 3.07472E+01 9.46301E+01 8.18182E+00
 -1      7472 3.07472E+01 9.46301E+01 9.09091E+00
 -1      7473 2.57525E+01 9.61096E+01 9.09091E-01
 -1      7474 2.57525E+01 9.61096E+01 1.81818E+00
 -1      7475 2.57525E+01 9.61096E+01 2.72727E+00
 -1      7476 2.57525E+01 9.61096E+01 3.63636E+00
 -1      7477 2.57525E+01 9.61096E+01 4.54545E+00
 -1      7478 2.57525E+01 9.61096E+01 5.45455E+00
 -1      7479 2.57525E+01 9.61096E+01 6.36364E+00
 -1      7480 2.57525E+01 9.61096E+01 7.27273E+00
 -1      7481 2.57525E+01 9.61096E+01 8.18182E+00
 -1      7482 2.57525E+01 9.61096E+01 9.09091E+00
 -1      7483 2.06872E+01 9.73257E+01 9.09091E-01
 -1      7484 2.06872E+01 9.73257E+01 1.81818E+00
 -1      7485 2.06872E+01 9.73257E+01 2.72727E+00
 -1      7486 2.06872E+01 9.73257E+01 3.63636E+00
 -1      7487 2.06872E+01 9.73257E+01 4.54545E+00
 -1      7488 2.06872E+01 9.73257E+01 5.45455E+00
 -1      7489 2.06872E+01 9.73257E+01 6.36364E+00
 -1      7490 2.06872E+01 9.73257E+01 7.27273E+00
 -1      7491 2.06872E+01 9.73257E+01 8.18182E+00
 -1      7492 2.06872E+01 9.73257E+01 9.09091E+00
 -1      7493 1.55652E+01 9.82750E+01 9.09091E-01
 -1      7494 1.55652E+01 9.82750E+01 1.81818E+00
 -1      7495 1.55652E+01 9.82750E+01 2.72727E+00
 -1      7496 1.55652E+01 9.82750E+01 3.63636E+00
 -1      7497 1.55652E+01 9.82750E+01 4.54545E+00
 -1      7498 1.55652E+01 9.82750E+01 5.45455E+00
 -1      7499 1.55652E+01 9.82750E+01 6.36364E+00
 -1      7500 1.55652E+01 9.82750E+01 7.27273E+00
 -1      7501 1.55652E+01 9.82750E+01 8.18182E+00
 -1      7502 1.55652E+01 9.82750E+01 9.09091E+00
 -1      7503 1.04006E+01 9.89549E+01 9.09091E-01
 -1      7504 1.04006E+01 9.89549E+01 1.81818E+00
 -1      7505 1.04006E+01 9.89549E+01 2.72727E+00
 -1      7506 1.04006E+01 9.89549E+01 3.63636E+00
 -1      7507 1.04006E+01 9.89549E+01 4.54545E+00
 -1      7508 1.04006E+01 9.89549E+01 5.45455E+00
 -1      7509 1.04006E+01 9.89549E+01 6.36364E+00
 -1      7510 1.04006E+01 9.89549E+01 7.27273E+00
 -1      7511 1.04006E+01 9.89549E+01 8.18182E+00
 -1      7512 1.04006E+01 9.89549E+01 9.09091E+00
 -1      7513 5.20743E+00 9.93636E+01 9.09091E-01
 -1      7514 5.20743E+00 9.93636E+01 1.81818E+00
 -1      7515 5.20743E+00 9.93636E+01 2.72727E+00
 -1      7516 5.20743E+00 9.93636E+01 3.63636E+00
 -1      7517 5.20743E+00 9.93636E+01 4.54545E+00
 -1      7518 5.20743E+00 9.93636E+01 5.45455E+00
 -1      7519 5.20743E+00 9.93636E+01 6.36364E+00
 -1      7520 5.20743E+00 9.93636E+01 7.27273E+00
 -1      7521 5.20743E+00 9.93636E+01 8.18182E+00
 -1      7522 5.20743E+00 9.93636E+01 9.09091E+00
 -1      7523 9.96133E+01 5.22051E+00 9.09091E-01
 -1      7524 9.96133E+01 5.22051E+00 1.81818E+00
 -1      7525 9.96133E+01 5.22051E+00 2.72727E+00
 -1      7526 9.96133E+01 5.22051E+00 3.63636E+00
 -1      7527 9.96133E+01 5.22051E+00 4.54545E+00
 -1      7528 9.96133E+01 5.22051E+00 5.45455E+00
 -1      7529 9.96133E+01 5.22051E+00 6.36364E+00
 -1      7530 9.96133E+01 5.22051E+00 7.27273E+00
 -1      7531 9.96133E+01 5.22051E+00 8.18182E+00
 -1      7532 9.96133E+01 5.22051E+00 9.09091E+00
 -1      7533 9.92036E+01 1.04267E+01 9.09091E-01
 -1      7534 9.92036E+01 1.04267E+01 1.81818E+00
 -1      7535 9.92036E+01 1.04267E+01 2.72727E+00
 -1      7536 9.92036E+01 1.04267E+01 3.63636E+00
 -1      7537 9.92036E+01 1.04267E+01 4.54545E+00
 -1      7538 9.92036E+01 1.04267E+01 5.45455E+00
 -1      7539 9.92036E+01 1.04267E+01 6.36364E+00
 -1      7540 9.92036E+01 1.04267E+01 7.27273E+00
 -1      7541 9.92036E+01 1.04267E+01 8.18182E+00
 -1      7542 9.92036E+01 1.04267E+01 9.09091E+00
 -1      7543 9.85219E+01 1.56043E+01 9.09091E-01
 -1      7544 9.85219E+01 1.56043E+01 1.81818E+00
 -1      7545 9.85219E+01 1.56043E+01 2.72727E+00
 -1      7546 9.85219E+01 1.56043E+01 3.63636E+00
 -1      7547 9.85219E+01 1.56043E+01 4.54545E+00
 -1      7548 9.85219E+01 1.56043E+01 5.45455E+00
 -1      7549 9.85219E+01 1.56043E+01 6.36364E+00
 -1      7550 9.85219E+01 1.56043E+01 7.27273E+00
 -1      7551 9.85219E+01 1.56043E+01 8.18182E+00
 -1      7552 9.85219E+01 1.56043E+01 9.09091E+00
 -1      7553 9.75702E+01 2.07392E+01 9.09091E-01
 -1      7554 9.75702E+01 2.07392E+01 1.81818E+00
 -1      7555 9.75702E+01 2.07392E+01 2.72727E+00
 -1      7556 9.75702E+01 2.07392E+01 3.63636E+00
 -1      7557 9.75702E+01 2.07392E+01 4.54545E+00
 -1      7558 9.75702E+01 2.07392E+01 5.45455E+00
 -1      7559 9.75702E+01 2.07392E+01 6.36364E+00
 -1      7560 9.75702E+01 2.07392E+01 7.27273E+00
 -1      7561 9.75702E+01 2.07392E+01 8.18182E+00
 -1      7562 9.75702E+01 2.07392E+01 9.09091E+00
 -1      7563 9.63511E+01 2.58172E+01 9.09091E-01
 -1      7564 9.63511E+01 2.58172E+01 1.81818E+00
 -1      7565 9.63511E+01 2.58172E+01 2.72727E+00
 -1      7566 9.63511E+01 2.58172E+01 3.63636E+00
 -1      7567 9.63511E+01 2.58172E+01 4.54545E+00
 -1      7568 9.63511E+01 2.58172E+01 5.45455E+00
 -1      7569 9.63511E+01 2.58172E+01 6.36364E+00
 -1      7570 9.63511E+01 2.58172E+01 7.27273E+00
 -1      7571 9.63511E+01 2.58172E+01 8.18182E+00
 -1      7572 9.63511E+01 2.58172E+01 9.09091E+00
 -1      7573 9.48679E+01 3.08244E+01 9.09091E-01
 -1      7574 9.48679E+01 3.08244E+01 1.81818E+00
 -1      7575 9.48679E+01 3.08244E+01 2.72727E+00
 -1      7576 9.48679E+01 3.08244E+01 3.63636E+00
 -1      7577 9.48679E+01 3.08244E+01 4.54545E+00
 -1      7578 9.48679E+01 3.08244E+01 5.45455E+00
 -1      7579 9.48679E+01 3.08244E+01 6.36364E+00
 -1      7580 9.48679E+01 3.08244E+01 7.27273E+00
 -1      7581 9.48679E+01 3.08244E+01 8.18182E+00
 -1      7582 9.48679E+01 3.08244E+01 9.09091E+00
 -1      7583 9.31246E+01 3.57472E+01 9.09091E-01
 -1      7584 9.31246E+01 3.57472E+01 1.81818E+00
 -1      7585 9.31246E+01 3.57472E+01 2.72727E+00
 -1      7586 9.31246E+01 3.57472E+01 3.63636E+00
 -1      7587 9.31246E+01 3.57472E+01 4.54545E+00
 -1      7588 9.31246E+01 3.57472E+01 5.45455E+00
 -1      7589 9.31246E+01 3.57472E+01 6.36364E+00
 -1      7590 9.31246E+01 3.57472E+01 7.27273E+00
 -1      7591 9.31246E+01 3.57472E+01 8.18182E+00
 -1      7592 9.31246E+01 3.57472E+01 9.09091E+00
 -1      7593 9.11262E+01 4.05720E+01 9.09091E-01
 -1      7594 9.11262E+01 4.05720E+01 1.81818E+00
 -1      7595 9.11262E+01 4.05720E+01 2.72727E+00
 -1      7596 9.11262E+01 4.05720E+01 3.63636E+00
 -1      7597 9.11262E+01 4.05720E+01 4.54545E+00
 -1      7598 9.11262E+01 4.05720E+01 5.45455E+00
 -1      7599 9.11262E+01 4.05720E+01 6.36364E+00
 -1      7600 9.11262E+01 4.05720E+01 7.27273E+00
 -1      7601 9.11262E+01 4.05720E+01 8.18182E+00
 -1      7602 9.11262E+01 4.05720E+01 9.09091E+00
 -1      7603 8.88779E+01 4.52856E+01 9.09091E-01
 -1      7604 8.88779E+01 4.52856E+01 1.81818E+00
 -1      7605 8.88779E+01 4.52856E+01 2.72727E+00
 -1      7606 8.88779E+01 4.52856E+01 3.63636E+00
 -1      7607 8.88779E+01 4.52856E+01 4.54545E+00
 -1      7608 8.88779E+01 4.52856E+01 5.45455E+00
 -1      7609 8.88779E+01 4.52856E+01 6.36364E+00
 -1      7610 8.88779E+01 4.52856E+01 7.27273E+00
 -1      7611 8.88779E+01 4.52856E+01 8.18182E+00
 -1      7612 8.88779E+01 4.52856E+01 9.09091E+00
 -1      7613 8.63860E+01 4.98750E+01 9.09091E-01
 -1      7614 8.63860E+01 4.98750E+01 1.81818E+00
 -1      7615 8.63860E+01 4.98750E+01 2.72727E+00
 -1      7616 8.63860E+01 4.98750E+01 3.63636E+00
 -1      7617 8.63860E+01 4.98750E+01 4.54545E+00
 -1      7618 8.63860E+01 4.98750E+01 5.45455E+00
 -1      7619 8.63860E+01 4.98750E+01 6.36364E+00
 -1      7620 8.63860E+01 4.98750E+01 7.27273E+00
 -1      7621 8.63860E+01 4.98750E+01 8.18182E+00
 -1      7622 8.63860E+01 4.98750E+01 9.09091E+00
 -1      7623 8.36574E+01 5.43277E+01 9.09091E-01
 -1      7624 8.36574E+01 5.43277E+01 1.81818E+00
 -1      7625 8.36574E+01 5.43277E+01 2.72727E+00
 -1      7626 8.36574E+01 5.43277E+01 3.63636E+00
 -1      7627 8.36574E+01 5.43277E+01 4.54545E+00
 -1      7628 8.36574E+01 5.43277E+01 5.45455E+00
 -1      7629 8.36574E+01 5.43277E+01 6.36364E+00
 -1      7630 8.36574E+01 5.43277E+01 7.27273E+00
 -1      7631 8.36574E+01 5.43277E+01 8.18182E+00
 -1      7632 8.36574E+01 5.43277E+01 9.09091E+00
 -1      7633 8.06994E+01 5.86316E+01 9.09091E-01
 -1      7634 8.06994E+01 5.86316E+01 1.81818E+00
 -1      7635 8.06994E+01 5.86316E+01 2.72727E+00
 -1      7636 8.06994E+01 5.86316E+01 3.63636E+00
 -1      7637 8.06994E+01 5.86316E+01 4.54545E+00
 -1      7638 8.06994E+01 5.86316E+01 5.45455E+00
 -1      7639 8.06994E+01 5.86316E+01 6.36364E+00
 -1      7640 8.06994E+01 5.86316E+01 7.27273E+00
 -1      7641 8.06994E+01 5.86316E+01 8.18182E+00
 -1      7642 8.06994E+01 5.86316E+01 9.09091E+00
 -1      7643 7.75203E+01 6.27747E+01 9.09091E-01
 -1      7644 7.75203E+01 6.27747E+01 1.81818E+00
 -1      7645 7.75203E+01 6.27747E+01 2.72727E+00
 -1      7646 7.75203E+01 6.27747E+01 3.63636E+00
 -1      7647 7.75203E+01 6.27747E+01 4.54545E+00
 -1      7648 7.75203E+01 6.27747E+01 5.45455E+00
 -1      7649 7.75203E+01 6.27747E+01 6.36364E+00
 -1      7650 7.75203E+01 6.27747E+01 7.27273E+00
 -1      7651 7.75203E+01 6.27747E+01 8.18182E+00
 -1      7652 7.75203E+01 6.27747E+01 9.09091E+00
 -1      7653 7.41287E+01 6.67458E+01 9.09091E-01
 -1      7654 7.41287E+01 6.67458E+01 1.81818E+00
 -1      7655 7.41287E+01 6.67458E+01 2.72727E+00
 -1      7656 7.41287E+01 6.67458E+01 3.63636E+00
 -1      7657 7.41287E+01 6.67458E+01 4.54545E+00
 -1      7658 7.41287E+01 6.67458E+01 5.45455E+00
 -1      7659 7.41287E+01 6.67458E+01 6.36364E+00
 -1      7660 7.41287E+01 6.67458E+01 7.27273E+00
 -1      7661 7.41287E+01 6.67458E+01 8.18182E+00
 -1      7662 7.41287E+01 6.67458E+01 9.09091E+00
 -1      7663 7.05339E+01 7.05339E+01 9.09091E-01
 -1      7664 7.05339E+01 7.05339E+01 1.81818E+00
 -1      7665 7.05339E+01 7.05339E+01 2.72727E+00
 -1      7666 7.05339E+01 7.05339E+01 3.63636E+00
 -1      7667 7.05339E+01 7.05339E+01 4.54545E+00
 -1      7668 7.05339E+01 7.05339E+01 5.45455E+00
 -1      7669 7.05339E+01 7.05339E+01 6.36364E+00
 -1      7670 7.05339E+01 7.05339E+01 7.27273E+00
 -1      7671 7.05339E+01 7.05339E+01 8.18182E+00
 -1      7672 7.05339E+01 7.05339E+01 9.09091E+00
 -1      7673 6.67458E+01 7.41287E+01 9.09091E-01
 -1      7674 6.67458E+01 7.41287E+01 1.81818E+00
 -1      7675 6.67458E+01 7.41287E+01 2.72727E+00
 -1      7676 6.67458E+01 7.41287E+01 3.63636E+00
 -1      7677 6.67458E+01 7.41287E+01 4.54545E+00
 -1      7678 6.67458E+01 7.41287E+01 5.45455E+00
 -1      7679 6.67458E+01 7.41287E+01 6.36364E+00
 -1      7680 6.67458E+01 7.41287E+01 7.27273E+00
 -1      7681 6.67458E+01 7.41287E+01 8.18182E+00
 -1      7682 6.67458E+01 7.41287E+01 9.09091E+00
 -1      7683 6.27747E+01 7.75203E+01 9.09091E-01
 -1      7684 6.27747E+01 7.75203E+01 1.81818E+00
 -1      7685 6.27747E+01 7.75203E+01 2.72727E+00
 -1      7686 6.27747E+01 7.75203E+01 3.63636E+00
 -1      7687 6.27747E+01 7.75203E+01 4.54545E+00
 -1      7688 6.27747E+01 7.75203E+01 5.45455E+00
 -1      7689 6.27747E+01 7.75203E+01 6.36364E+00
 -1      7690 6.27747E+01 7.75203E+01 7.27273E+00
 -1      7691 6.27747E+01 7.75203E+01 8.18182E+00
 -1      7692 6.27747E+01 7.75203E+01 9.09091E+00
 -1      7693 5.86316E+01 8.06994E+01 9.09091E-01
 -1      7694 5.86316E+01 8.06994E+01 1.81818E+00
 -1      7695 5.86316E+01 8.06994E+01 2.72727E+00
 -1      7696 5.86316E+01 8.06994E+01 3.63636E+00
 -1      7697 5.86316E+01 8.06994E+01 4.54545E+00
 -1      7698 5.86316E+01 8.06994E+01 5.45455E+00
 -1      7699 5.86316E+01 8.06994E+01 6.36364E+00
 -1      7700 5.86316E+01 8.06994E+01 7.27273E+00
 -1      7701 5.86316E+01 8.06994E+01 8.18182E+00
 -1      7702 5.86316E+01 8.06994E+01 9.09091E+00
 -1      7703 5.43277E+01 8.36574E+01 9.09091E-01
 -1      7704 5.43277E+01 8.36574E+01 1.81818E+00
 -1      7705 5.43277E+01 8.36574E+01 2.72727E+00
 -1      7706 5.43277E+01 8.36574E+01 3.63636E+00
 -1      7707 5.43277E+01 8.36574E+01 4.54545E+00
 -1      7708 5.43277E+01 8.36574E+01 5.45455E+00
 -1      7709 5.43277E+01 8.36574E+01 6.36364E+00
 -1      7710 5.43277E+01 8.36574E+01 7.27273E+00
 -1      7711 5.43277E+01 8.36574E+01 8.18182E+00
 -1      7712 5.43277E+01 8.36574E+01 9.09091E+00
 -1      7713 4.98750E+01 8.63860E+01 9.09091E-01
 -1      7714 4.98750E+01 8.63860E+01 1.81818E+00
 -1      7715 4.98750E+01 8.63860E+01 2.72727E+00
 -1      7716 4.98750E+01 8.63860E+01 3.63636E+00
 -1      7717 4.98750E+01 8.63860E+01 4.54545E+00
 -1      7718 4.98750E+01 8.63860E+01 5.45455E+00
 -1      7719 4.98750E+01 8.63860E+01 6.36364E+00
 -1      7720 4.98750E+01 8.63860E+01 7.27273E+00
 -1      7721 4.98750E+01 8.63860E+01 8.18182E+00
 -1      7722 4.98750E+01 8.63860E+01 9.09091E+00
 -1      7723 4.52856E+01 8.88779E+01 9.09091E-01
 -1      7724 4.52856E+01 8.88779E+01 1.81818E+00
 -1      7725 4.52856E+01 8.88779E+01 2.72727E+00
 -1      7726 4.52856E+01 8.88779E+01 3.63636E+00
 -1      7727 4.52856E+01 8.88779E+01 4.54545E+00
 -1      7728 4.52856E+01 8.88779E+01 5.45455E+00
 -1      7729 4.52856E+01 8.88779E+01 6.36364E+00
 -1      7730 4.52856E+01 8.88779E+01 7.27273E+00
 -1      7731 4.52856E+01 8.88779E+01 8.18182E+00
 -1      7732 4.52856E+01 8.88779E+01 9.09091E+00
 -1      7733 4.05720E+01 9.11262E+01 9.09091E-01
 -1      7734 4.05720E+01 9.11262E+01 1.81818E+00
 -1      7735 4.05720E+01 9.11262E+01 2.72727E+00
 -1      7736 4.05720E+01 9.11262E+01 3.63636E+00
 -1      7737 4.05720E+01 9.11262E+01 4.54545E+00
 -1      7738 4.05720E+01 9.11262E+01 5.45455E+00
 -1      7739 4.05720E+01 9.11262E+01 6.36364E+00
 -1      7740 4.05720E+01 9.11262E+01 7.27273E+00
 -1      7741 4.05720E+01 9.11262E+01 8.18182E+00
 -1      7742 4.05720E+01 9.11262E+01 9.09091E+00
 -1      7743 3.57472E+01 9.31246E+01 9.09091E-01
 -1      7744 3.57472E+01 9.31246E+01 1.81818E+00
 -1      7745 3.57472E+01 9.31246E+01 2.72727E+00
 -1      7746 3.57472E+01 9.31246E+01 3.63636E+00
 -1      7747 3.57472E+01 9.31246E+01 4.54545E+00
 -1      7748 3.57472E+01 9.31246E+01 5.45455E+00
 -1      7749 3.57472E+01 9.31246E+01 6.36364E+00
 -1      7750 3.57472E+01 9.31246E+01 7.27273E+00
 -1      7751 3.57472E+01 9.31246E+01 8.18182E+00
 -1      7752 3.57472E+01 9.31246E+01 9.09091E+00
 -1      7753 3.08244E+01 9.48679E+01 9.09091E-01
 -1      7754 3.08244E+01 9.48679E+01 1.81818E+00
 -1      7755 3.08244E+01 9.48679E+01 2.72727E+00
 -1      7756 3.08244E+01 9.48679E+01 3.63636E+00
 -1      7757 3.08244E+01 9.48679E+01 4.54545E+00
 -1      7758 3.08244E+01 9.48679E+01 5.45455E+00
 -1      7759 3.08244E+01 9.48679E+01 6.36364E+00
 -1      7760 3.08244E+01 9.48679E+01 7.27273E+00
 -1      7761 3.08244E+01 9.48679E+01 8.18182E+00
 -1      7762 3.08244E+01 9.48679E+01 9.09091E+00
 -1      7763 2.58172E+01 9.63511E+01 9.09091E-01
 -1      7764 2.58172E+01 9.63511E+01 1.81818E+00
 -1      7765 2.58172E+01 9.63511E+01 2.72727E+00
 -1      7766 2.58172E+01 9.63511E+01 3.63636E+00
 -1      7767 2.58172E+01 9.63511E+01 4.54545E+00
 -1      7768 2.58172E+01 9.63511E+01 5.45455E+00
 -1      7769 2.58172E+01 9.63511E+01 6.36364E+00
 -1      7770 2.58172E+01 9.63511E+01 7.27273E+00
 -1      7771 2.58172E+01 9.63511E+01 8.18182E+00
 -1      7772 2.58172E+01 9.63511E+01 9.09091E+00
 -1      7773 2.07392E+01 9.75702E+01 9.09091E-01
 -1      7774 2.07392E+01 9.75702E+01 1.81818E+00
 -1      7775 2.07392E+01 9.75702E+01 2.72727E+00
 -1      7776 2.07392E+01 9.75702E+01 3.63636E+00
 -1      7777 2.07392E+01 9.75702E+01 4.54545E+00
 -1      7778 2.07392E+01 9.75702E+01 5.45455E+00
 -1      7779 2.07392E+01 9.75702E+01 6.36364E+00
 -1      7780 2.07392E+01 9.75702E+01 7.27273E+00
 -1      7781 2.07392E+01 9.75702E+01 8.18182E+00
 -1      7782 2.07392E+01 9.75702E+01 9.09091E+00
 -1      7783 1.56043E+01 9.85219E+01 9.09091E-01
 -1      7784 1.56043E+01 9.85219E+01 1.81818E+00
 -1      7785 1.56043E+01 9.85219E+01 2.72727E+00
 -1      7786 1.56043E+01 9.85219E+01 3.63636E+00
 -1      7787 1.56043E+01 9.85219E+01 4.54545E+00
 -1      7788 1.56043E+01 9.85219E+01 5.45455E+00
 -1      7789 1.56043E+01 9.85219E+01 6.36364E+00
 -1      7790 1.56043E+01 9.85219E+01 7.27273E+00
 -1      7791 1.56043E+01 9.85219E+01 8.18182E+00
 -1      7792 1.56043E+01 9.85219E+01 9.09091E+00
 -1      7793 1.04267E+01 9.92036E+01 9.09091E-01
 -1      7794 1.04267E+01 9.92036E+01 1.81818E+00
 -1      7795 1.04267E+01 9.92036E+01 2.72727E+00
 -1      7796 1.04267E+01 9.92036E+01 3.63636E+00
 -1      7797 1.04267E+01 9.92036E+01 4.54545E+00
 -1      7798 1.04267E+01 9.92036E+01 5.45455E+00
 -1      7799 1.04267E+01 9.92036E+01 6.36364E+00
 -1      7800 1.04267E+01 9.92036E+01 7.27273E+00
 -1      7801 1.04267E+01 9.92036E+01 8.18182E+00
 -1      7802 1.04267E+01 9.92036E+01 9.09091E+00
 -1      7803 5.22051E+00 9.96133E+01 9.09091E-01
 -1      7804 5.22051E+00 9.96133E+01 1.81818E+00
 -1      7805 5.22051E+00 9.96133E+01 2.72727E+00
 -1      7806 5.22051E+00 9.96133E+01 3.63636E+00
 -1      7807 5.22051E+00 9.96133E+01 4.54545E+00
 -1      7808 5.22051E+00 9.96133E+01 5.45455E+00
 -1      7809 5.22051E+00 9.96133E+01 6.36364E+00
 -1      7810 5.22051E+00 9.96133E+01 7.27273E+00
 -1      7811 5.22051E+00 9.96133E+01 8.18182E+00
 -1      7812 5.22051E+00 9.96133E+01 9.09091E+00
 -3
    3C                          6600                                     1
 -1       771    1    0    1
 -2         1         9       241       104       201       792      2303      1742
 -1       772    1    0    1
 -2       201       792      2303      1742       202       793      2304      1743
 -1       773    1    0    1
 -2       202       793      2304      1743       203       794      2305      1744
 -1       774    1    0    1
 -2       203       794      2305      1744       204       795      2306      1745
 -1       775    1    0    1
 -2       204       795      2306      1745       205       796      2307      1746
 -1       776    1    0    1
 -2       205       796      2307      1746       206       797      2308      1747
 -1       777    1    0    1
 -2       206       797      2308      1747       207       798      2309      1748
 -1       778    1    0    1
 -2       207       798      2309      1748       208       799      2310      1749
 -1       779    1    0    1
 -2       208       799      2310      1749       209       800      2311      1750
 -1       780    1    0    1
 -2       209       800      2311      1750       210       801      2312      1751
 -1       781    1    0    1
 -2       210       801      2312      1751         5       105      1752       200
 -1       782    1    0    1
 -2       104       241       242       103      1742      2303      2313      1732
 -1       783    1    0    1
 -2      1742      2303      2313      1732      1743      2304      2314      1733
 -1       784    1    0    1
 -2      1743      2304      2314      1733      1744      2305      2315      1734
 -1       785    1    0    1
 -2      1744      2305      2315      1734      1745      2306      2316      1735
 -1       786    1    0    1
 -2      1745      2306      2316      1735      1746      2307      2317      1736
 -1       787    1    0    1
 -2      1746      2307      2317      1736      1747      2308      2318      1737
 -1       788    1    0    1
 -2      1747      2308      2318      1737      1748      2309      2319      1738
 -1       789    1    0    1
 -2      1748      2309      2319      1738      1749      2310      2320      1739
 -1       790    1    0    1
 -2      1749      2310      2320      1739      1750      2311      2321      1740
 -1       791    1    0    1
 -2      1750      2311      2321      1740      1751      2312      2322      1741
 -1       792    1    0    1
 -2      1751      2312      2322      1741       200      1752      1753       199
 -1       793    1    0    1
 -2       103       242       243       102      1732      2313      2323      1722
 -1       794    1    0    1
 -2      1732      2313      2323      1722      1733      2314      2324      1723
 -1       795    1    0    1
 -2      1733      2314      2324      1723      1734      2315      2325      1724
 -1       796    1    0    1
 -2      1734      2315      2325      1724      1735      2316      2326      1725
 -1       797    1    0    1
 -2      1735      2316      2326      1725      1736      2317      2327      1726
 -1       798    1    0    1
 -2      1736      2317      2327      1726      1737      2318      2328      1727
 -1       799    1    0    1
 -2      1737      2318      2328      1727      1738      2319      2329      1728
 -1       800    1    0    1
 -2      1738      2319      2329      1728      1739      2320      2330      1729
 -1       801    1    0    1
 -2      1739      2320      2330      1729      1740      2321      2331      1730
 -1       802    1    0    1
 -2      1740      2321      2331      1730      1741      2322      2332      1731
 -1       803    1    0    1
 -2      1741      2322      2332      1731       199      1753      1754       198
 -1       804    1    0    1
 -2       102       243       244       101      1722      2323      2333      1712
 -1       805    1    0    1
 -2      1722      2323      2333      1712      1723      2324      2334      1713
 -1       806    1    0    1
 -2      1723      2324      2334      1713      1724      2325      2335      1714
 -1       807    1    0    1
 -2      1724      2325      2335      1714      1725      2326      2336      1715
 -1       808    1    0    1
 -2      1725      2326      2336      1715      1726      2327      2337      1716
 -1       809    1    0    1
 -2      1726      2327      2337      1716      1727      2328      2338      1717
 -1       810    1    0    1
 -2      1727      2328      2338      1717      1728      2329      2339      1718
 -1       811    1    0    1
 -2      1728      2329      2339      1718      1729      2330      2340      1719
 -1       812    1    0    1
 -2      1729      2330      2340      1719      1730      2331      2341      1720
 -1       813    1    0    1
 -2      1730      2331      2341      1720      1731      2332      2342      1721
 -1       814    1    0    1
 -2      1731      2332      2342      1721       198      1754      1755       197
 -1       815    1    0    1
 -2       101       244       245       100      1712      2333      2343      1702
 -1       816    1    0    1
 -2      1712      2333      2343      1702      1713      2334      2344      1703
 -1       817    1    0    1
 -2      1713      2334      2344      1703      1714      2335      2345      1704
 -1       818    1    0    1
 -2      1714      2335      2345      1704      1715      2336      2346      1705
 -1       819    1    0    1
 -2      1715      2336      2346      1705      1716      2337      2347      1706
 -1       820    1    0    1
 -2      1716      2337      2347      1706      1717      2338      2348      1707
 -1       821    1    0    1
 -2      1717      2338      2348      1707      1718      2339      2349      1708
 -1       822    1    0    1
 -2      1718      2339      2349      1708      1719      2340      2350      1709
 -1       823    1    0    1
 -2      1719      2340      2350      1709      1720      2341      2351      1710
 -1       824    1    0    1
 -2      1720      2341      2351      1710      1721      2342      2352      1711
 -1       825    1    0    1
 -2      1721      2342      2352      1711       197      1755      1756       196
 -1       826    1    0    1
 -2       100       245       246        99      1702      2343      2353      1692
 -1       827    1    0    1
 -2      1702      2343      2353      1692      1703      2344      2354      1693
 -1       828    1    0    1
 -2      1703      2344      2354      1693      1704      2345      2355      1694
 -1       829    1    0    1
 -2      1704      2345      2355      1694      1705      2346      2356      1695
 -1       830    1    0    1
 -2      1705      2346      2356      1695      1706      2347      2357      1696
 -1       831    1    0    1
 -2      1706      2347      2357      1696      1707      2348      2358      1697
 -1       832    1    0    1
 -2      1707      2348      2358      1697      1708      2349      2359      1698
 -1       833    1    0    1
 -2      1708      2349      2359      1698      1709      2350      2360      1699
 -1       834    1    0    1
 -2      1709      2350      2360      1699      1710      2351      2361      1700
 -1       835    1    0    1
 -2      1710      2351      2361      1700      1711      2352      2362      1701
 -1       836    1    0    1
 -2      1711      2352      2362      1701       196      1756      1757       195
 -1       837    1    0    1
 -2        99       246       247        98      1692      2353      2363      1682
 -1       838    1    0    1
 -2      1692      2353      2363      1682      1693      2354      2364      1683
 -1       839    1    0    1
 -2      1693      2354      2364      1683      1694      2355      2365      1684
 -1       840    1    0    1
 -2      1694      2355      2365      1684      1695      2356      2366      1685
 -1       841    1    0    1
 -2      1695      2356      2366      1685      1696      2357      2367      1686
 -1       842    1    0    1
 -2      1696      2357      2367      1686      1697      2358      2368      1687
 -1       843    1    0    1
 -2      1697      2358      2368      1687      1698      2359      2369      1688
 -1       844    1    0    1
 -2      1698      2359      2369      1688      1699      2360      2370      1689
 -1       845    1    0    1
 -2      1699      2360      2370      1689      1700      2361      2371      1690
 -1       846    1    0    1
 -2      1700      2361      2371      1690      1701      2362      2372      1691
 -1       847    1    0    1
 -2      1701      2362      2372      1691       195      1757      1758       194
 -1       848    1    0    1
 -2        98       247       248        97      1682      2363      2373      1672
 -1       849    1    0    1
 -2      1682      2363      2373      1672      1683      2364      2374      1673
 -1       850    1    0    1
 -2      1683      2364      2374      1673      1684      2365      2375      1674
 -1       851    1    0    1
 -2      1684      2365      2375      1674      1685      2366      2376      1675
 -1       852    1    0    1
 -2      1685      2366      2376      1675      1686      2367      2377      1676
 -1       853    1    0    1
 -2      1686      2367      2377      1676      1687      2368      2378      1677
 -1       854    1    0    1
 -2      1687      2368      2378      1677      1688      2369      2379      1678
 -1       855    1    0    1
 -2      1688      2369      2379      1678      1689      2370      2380      1679
 -1       856    1    0    1
 -2      1689      2370      2380      1679      1690      2371      2381      1680
 -1       857    1    0    1
 -2      1690      2371      2381      1680      1691      2372      2382      1681
 -1       858    1    0    1
 -2      1691      2372      2382      1681       194      1758      1759       193
 -1       859    1    0    1
 -2        97       248       249        96      1672      2373      2383      1662
 -1       860    1    0    1
 -2      1672      2373      2383      1662      1673      2374      2384      1663
 -1       861    1    0    1
 -2      1673      2374      2384      1663      1674      2375      2385      1664
 -1       862    1    0    1
 -2      1674      2375      2385      1664      1675      2376      2386      1665
 -1       863    1    0    1
 -2      1675      2376      2386      1665      1676      2377      2387      1666
 -1       864    1    0    1
 -2      1676      2377      2387      1666      1677      2378      2388      1667
 -1       865    1    0    1
 -2      1677      2378      2388      1667      1678      2379      2389      1668
 -1       866    1    0    1
 -2      1678      2379      2389      1668      1679      2380      2390      1669
 -1       867    1    0    1
 -2      1679      2380      2390      1669      1680      2381      2391      1670
 -1       868    1    0    1
 -2      1680      2381      2391      1670      1681      2382      2392      1671
 -1       869    1    0    1
 -2      1681      2382      2392      1671       193      1759      1760       192
 -1       870    1    0    1
 -2        96       249       250        95      1662      2383      2393      1652
 -1       871    1    0    1
 -2      1662      2383      2393      1652      1663      2384      2394      1653
 -1       872    1    0    1
 -2      1663      2384      2394      1653      1664      2385      2395      1654
 -1       873    1    0    1
 -2      1664      2385      2395      1654      1665      2386      2396      1655
 -1       874    1    0    1
 -2      1665      2386      2396      1655      1666      2387      2397      1656
 -1       875    1    0    1
 -2      1666      2387      2397      1656      1667      2388      2398      1657
 -1       876    1    0    1
 -2      1667      2388      2398      1657      1668      2389      2399      1658
 -1       877    1    0    1
 -2      1668      2389      2399      1658      1669      2390      2400      1659
 -1       878    1    0    1
 -2      1669      2390      2400      1659      1670      2391      2401      1660
 -1       879    1    0    1
 -2      1670      2391      2401      1660      1671      2392      2402      1661
 -1       880    1    0    1
 -2      1671      2392      2402      1661       192      1760      1761       191
 -1       881    1    0    1
 -2        95       250       251        94      1652      2393      2403      1642
 -1       882    1    0    1
 -2      1652      2393      2403      1642      1653      2394      2404      1643
 -1       883    1    0    1
 -2      1653      2394      2404      1643      1654      2395      2405      1644
 -1       884    1    0    1
 -2      1654      2395      2405      1644      1655      2396      2406      1645
 -1       885    1    0    1
 -2      1655      2396      2406      1645      1656      2397      2407      1646
 -1       886    1    0    1
 -2      1656      2397      2407      1646      1657      2398      2408      1647
 -1       887    1    0    1
 -2      1657      2398      2408      1647      1658      2399      2409      1648
 -1       888    1    0    1
 -2      1658      2399      2409      1648      1659      2400      2410      1649
 -1       889    1    0    1
 -2      1659      2400      2410      1649      1660      2401      2411      1650
 -1       890    1    0    1
 -2      1660      2401      2411      1650      1661      2402      2412      1651
 -1       891    1    0    1
 -2      1661      2402      2412      1651       191      1761      1762       190
 -1       892    1    0    1
 -2        94       251       252        93      1642      2403      2413      1632
 -1       893    1    0    1
 -2      1642      2403      2413      1632      1643      2404      2414      1633
 -1       894    1    0    1
 -2      1643      2404      2414      1633      1644      2405      2415      1634
 -1       895    1    0    1
 -2      1644      2405      2415      1634      1645      2406      2416      1635
 -1       896    1    0    1
 -2      1645      2406      2416      1635      1646      2407      2417      1636
 -1       897    1    0    1
 -2      1646      2407      2417      1636      1647      2408      2418      1637
 -1       898    1    0    1
 -2      1647      2408      2418      1637      1648      2409      2419      1638
 -1       899    1    0    1
 -2      1648      2409      2419      1638      1649      2410      2420      1639
 -1       900    1    0    1
 -2      1649      2410      2420      1639      1650      2411      2421      1640
 -1       901    1    0    1
 -2      1650      2411      2421      1640      1651      2412      2422      1641
 -1       902    1    0    1
 -2      1651      2412      2422      1641       190      1762      1763       189
 -1       903    1    0    1
 -2        93       252       253        92      1632      2413      2423      1622
 -1       904    1    0    1
 -2      1632      2413      2423      1622      1633      2414      2424      1623
 -1       905    1    0    1
 -2      1633      2414      2424      1623      1634      2415      2425      1624
 -1       906    1    0    1
 -2      1634      2415      2425      1624      1635      2416      2426      1625
 -1       907    1    0    1
 -2      1635      2416      2426      1625      1636      2417      2427      1626
 -1       908    1    0    1
 -2      1636      2417      2427      1626      1637      2418      2428      1627
 -1       909    1    0    1
 -2      1637      2418      2428      1627      1638      2419      2429      1628
 -1       910    1    0    1
 -2      1638      2419      2429      1628      1639      2420      2430      1629
 -1       911    1    0    1
 -2      1639      2420      2430      1629      1640      2421      2431      1630
 -1       912    1    0    1
 -2      1640      2421      2431      1630      1641      2422      2432      1631
 -1       913    1    0    1
 -2      1641      2422      2432      1631       189      1763      1764       188
 -1       914    1    0    1
 -2        92       253       254        91      1622      2423      2433      1612
 -1       915    1    0    1
 -2      1622      2423      2433      1612      1623      2424      2434      1613
 -1       916    1    0    1
 -2      1623      2424      2434      1613      1624      2425      2435      1614
 -1       917    1    0    1
 -2      1624      2425      2435      1614      1625      2426      2436      1615
 -1       918    1    0    1
 -2      1625      2426      2436      1615      1626      2427      2437      1616
 -1       919    1    0    1
 -2      1626      2427      2437      1616      1627      2428      2438      1617
 -1       920    1    0    1
 -2      1627      2428      2438      1617      1628      2429      2439      1618
 -1       921    1    0    1
 -2      1628      2429      2439      1618      1629      2430      2440      1619
 -1       922    1    0    1
 -2      1629      2430      2440      1619      1630      2431      2441      1620
 -1       923    1    0    1
 -2      1630      2431      2441      1620      1631      2432      2442      1621
 -1       924    1    0    1
 -2      1631      2432      2442      1621       188      1764      1765       187
 -1       925    1    0    1
 -2        91       254       255        90      1612      2433      2443      1602
 -1       926    1    0    1
 -2      1612      2433      2443      1602      1613      2434      2444      1603
 -1       927    1    0    1
 -2      1613      2434      2444      1603      1614      2435      2445      1604
 -1       928    1    0    1
 -2      1614      2435      2445      1604      1615      2436      2446      1605
 -1       929    1    0    1
 -2      1615      2436      2446      1605      1616      2437      2447      1606
 -1       930    1    0    1
 -2      1616      2437      2447      1606      1617      2438      2448      1607
 -1       931    1    0    1
 -2      1617      2438      2448      1607      1618      2439      2449      1608
 -1       932    1    0    1
 -2      1618      2439      2449      1608      1619      2440      2450      1609
 -1       933    1    0    1
 -2      1619      2440      2450      1609      1620      2441      2451      1610
 -1       934    1    0    1
 -2      1620      2441      2451      1610      1621      2442      2452      1611
 -1       935    1    0    1
 -2      1621      2442      2452      1611       187      1765      1766       186
 -1       936    1    0    1
 -2        90       255       256        89      1602      2443      2453      1592
 -1       937    1    0    1
 -2      1602      2443      2453      1592      1603      2444      2454      1593
 -1       938    1    0    1
 -2      1603      2444      2454      1593      1604      2445      2455      1594
 -1       939    1    0    1
 -2      1604      2445      2455      1594      1605      2446      2456      1595
 -1       940    1    0    1
 -2      1605      2446      2456      1595      1606      2447      2457      1596
 -1       941    1    0    1
 -2      1606      2447      2457      1596      1607      2448      2458      1597
 -1       942    1    0    1
 -2      1607      2448      2458      1597      1608      2449      2459      1598
 -1       943    1    0    1
 -2      1608      2449      2459      1598      1609      2450      2460      1599
 -1       944    1    0    1
 -2      1609      2450      2460      1599      1610      2451      2461      1600
 -1       945    1    0    1
 -2      1610      2451      2461      1600      1611      2452      2462      1601
 -1       946    1    0    1
 -2      1611      2452      2462      1601       186      1766      1767       185
 -1       947    1    0    1
 -2        89       256       257        88      1592      2453      2463      1582
 -1       948    1    0    1
 -2      1592      2453      2463      1582      1593      2454      2464      1583
 -1       949    1    0    1
 -2      1593      2454      2464      1583      1594      2455      2465      1584
 -1       950    1    0    1
 -2      1594      2455      2465      1584      1595      2456      2466      1585
 -1       951    1    0    1
 -2      1595      2456      2466      1585      1596      2457      2467      1586
 -1       952    1    0    1
 -2      1596      2457      2467      1586      1597      2458      2468      1587
 -1       953    1    0    1
 -2      1597      2458      2468      1587      1598      2459      2469      1588
 -1       954    1    0    1
 -2      1598      2459      2469      1588      1599      2460      2470      1589
 -1       955    1    0    1
 -2      1599      2460      2470      1589      1600      2461      2471      1590
 -1       956    1    0    1
 -2      1600      2461      2471      1590      1601      2462      2472      1591
 -1       957    1    0    1
 -2      1601      2462      2472      1591       185      1767      1768       184
 -1       958    1    0    1
 -2        88       257       258        87      1582      2463      2473      1572
 -1       959    1    0    1
 -2      1582      2463      2473      1572      1583      2464      2474      1573
 -1       960    1    0    1
 -2      1583      2464      2474      1573      1584      2465      2475      1574
 -1       961    1    0    1
 -2      1584      2465      2475      1574      1585      2466      2476      1575
 -1       962    1    0    1
 -2      1585      2466      2476      1575      1586      2467      2477      1576
 -1       963    1    0    1
 -2      1586      2467      2477      1576      1587      2468      2478      1577
 -1       964    1    0    1
 -2      1587      2468      2478      1577      1588      2469      2479      1578
 -1       965    1    0    1
 -2      1588      2469      2479      1578      1589      2470      2480      1579
 -1       966    1    0    1
 -2      1589      2470      2480      1579      1590      2471      2481      1580
 -1       967    1    0    1
 -2      1590      2471      2481      1580      1591      2472      2482      1581
 -1       968    1    0    1
 -2      1591      2472      2482      1581       184      1768      1769       183
 -1       969    1    0    1
 -2        87       258       259        86      1572      2473      2483      1562
 -1       970    1    0    1
 -2      1572      2473      2483      1562      1573      2474      2484      1563
 -1       971    1    0    1
 -2      1573      2474      2484      1563      1574      2475      2485      1564
 -1       972    1    0    1
 -2      1574      2475      2485      1564      1575      2476      2486      1565
 -1       973    1    0    1
 -2      1575      2476      2486      1565      1576      2477      2487      1566
 -1       974    1    0    1
 -2      1576      2477      2487      1566      1577      2478      2488      1567
 -1       975    1    0    1
 -2      1577      2478      2488      1567      1578      2479      2489      1568
 -1       976    1    0    1
 -2      1578      2479      2489      1568      1579      2480      2490      1569
 -1       977    1    0    1
 -2      1579      2480      2490      1569      1580      2481      2491      1570
 -1       978    1    0    1
 -2      1580      2481      2491      1570      1581      2482      2492      1571
 -1       979    1    0    1
 -2      1581      2482      2492      1571       183      1769      1770       182
 -1       980    1    0    1
 -2        86       259       260        85      1562      2483      2493      1552
 -1       981    1    0    1
 -2      1562      2483      2493      1552      1563      2484      2494      1553
 -1       982    1    0    1
 -2      1563      2484      2494      1553      1564      2485      2495      1554
 -1       983    1    0    1
 -2      1564      2485      2495      1554      1565      2486      2496      1555
 -1       984    1    0    1
 -2      1565      2486      2496      1555      1566      2487      2497      1556
 -1       985    1    0    1
 -2      1566      2487      2497      1556      1567      2488      2498      1557
 -1       986    1    0    1
 -2      1567      2488      2498      1557      1568      2489      2499      1558
 -1       987    1    0    1
 -2      1568      2489      2499      1558      1569      2490      2500      1559
 -1       988    1    0    1
 -2      1569      2490      2500      1559      1570      2491      2501      1560
 -1       989    1    0    1
 -2      1570      2491      2501      1560      1571      2492      2502      1561
 -1       990    1    0    1
 -2      1571      2492      2502      1561       182      1770      1771       181
 -1       991    1    0    1
 -2        85       260       261        84      1552      2493      2503      1542
 -1       992    1    0    1
 -2      1552      2493      2503      1542      1553      2494      2504      1543
 -1       993    1    0    1
 -2      1553      2494      2504      1543      1554      2495      2505      1544
 -1       994    1    0    1
 -2      1554      2495      2505      1544      1555      2496      2506      1545
 -1       995    1    0    1
 -2      1555      2496      2506      1545      1556      2497      2507      1546
 -1       996    1    0    1
 -2      1556      2497      2507      1546      1557      2498      2508      1547
 -1       997    1    0    1
 -2      1557      2498      2508      1547      1558      2499      2509      1548
 -1       998    1    0    1
 -2      1558      2499      2509      1548      1559      2500      2510      1549
 -1       999    1    0    1
 -2      1559      2500      2510      1549      1560      2501      2511      1550
 -1      1000    1    0    1
 -2      1560      2501      2511      1550      1561      2502      2512      1551
 -1      1001    1    0    1
 -2      1561      2502      2512      1551       181      1771      1772       180
 -1      1002    1    0    1
 -2        84       261       262        83      1542      2503      2513      1532
 -1      1003    1    0    1
 -2      1542      2503      2513      1532      1543      2504      2514      1533
 -1      1004    1    0    1
 -2      1543      2504      2514      1533      1544      2505      2515      1534
 -1      1005    1    0    1
 -2      1544      2505      2515      1534      1545      2506      2516      1535
 -1      1006    1    0    1
 -2      1545      2506      2516      1535      1546      2507      2517      1536
 -1      1007    1    0    1
 -2      1546      2507      2517      1536      1547      2508      2518      1537
 -1      1008    1    0    1
 -2      1547      2508      2518      1537      1548      2509      2519      1538
 -1      1009    1    0    1
 -2      1548      2509      2519      1538      1549      2510      2520      1539
 -1      1010    1    0    1
 -2      1549      2510      2520      1539      1550      2511      2521      1540
 -1      1011    1    0    1
 -2      1550      2511      2521      1540      1551      2512      2522      1541
 -1      1012    1    0    1
 -2      1551      2512      2522      1541       180      1772      1773       179
 -1      1013    1    0    1
 -2        83       262       263        82      1532      2513      2523      1522
 -1      1014    1    0    1
 -2      1532      2513      2523      1522      1533      2514      2524      1523
 -1      1015    1    0    1
 -2      1533      2514      2524      1523      1534      2515      2525      1524
 -1      1016    1    0    1
 -2      1534      2515      2525      1524      1535      2516      2526      1525
 -1      1017    1    0    1
 -2      1535      2516      2526      1525      1536      2517      2527      1526
 -1      1018    1    0    1
 -2      1536      2517      2527      1526      1537      2518      2528      1527
 -1      1019    1    0    1
 -2      1537      2518      2528      1527      1538      2519      2529      1528
 -1      1020    1    0    1
 -2      1538      2519      2529      1528      1539      2520      2530      1529
 -1      1021    1    0    1
 -2      1539      2520      2530      1529      1540      2521      2531      1530
 -1      1022    1    0    1
 -2      1540      2521      2531      1530      1541      2522      2532      1531
 -1      1023    1    0    1
 -2      1541      2522      2532      1531       179      1773      1774       178
 -1      1024    1    0    1
 -2        82       263       264        81      1522      2523      2533      1512
 -1      1025    1    0    1
 -2      1522      2523      2533      1512      1523      2524      2534      1513
 -1      1026    1    0    1
 -2      1523      2524      2534      1513      1524      2525      2535      1514
 -1      1027    1    0    1
 -2      1524      2525      2535      1514      1525      2526      2536      1515
 -1      1028    1    0    1
 -2      1525      2526      2536      1515      1526      2527      2537      1516
 -1      1029    1    0    1
 -2      1526      2527      2537      1516      1527      2528      2538      1517
 -1      1030    1    0    1
 -2      1527      2528      2538      1517      1528      2529      2539      1518
 -1      1031    1    0    1
 -2      1528      2529      2539      1518      1529      2530      2540      1519
 -1      1032    1    0    1
 -2      1529      2530      2540      1519      1530      2531      2541      1520
 -1      1033    1    0    1
 -2      1530      2531      2541      1520      1531      2532      2542      1521
 -1      1034    1    0    1
 -2      1531      2532      2542      1521       178      1774      1775       177
 -1      1035    1    0    1
 -2        81       264       265        80      1512      2533      2543      1502
 -1      1036    1    0    1
 -2      1512      2533      2543      1502      1513      2534      2544      1503
 -1      1037    1    0    1
 -2      1513      2534      2544      1503      1514      2535      2545      1504
 -1      1038    1    0    1
 -2      1514      2535      2545      1504      1515      2536      2546      1505
 -1      1039    1    0    1
 -2      1515      2536      2546      1505      1516      2537      2547      1506
 -1      1040    1    0    1
 -2      1516      2537      2547      1506      1517      2538      2548      1507
 -1      1041    1    0    1
 -2      1517      2538      2548      1507      1518      2539      2549      1508
 -1      1042    1    0    1
 -2      1518      2539      2549      1508      1519      2540      2550      1509
 -1      1043    1    0    1
 -2      1519      2540      2550      1509      1520      2541      2551      1510
 -1      1044    1    0    1
 -2      1520      2541      2551      1510      1521      2542      2552      1511
 -1      1045    1    0    1
 -2      1521      2542      2552      1511       177      1775      1776       176
 -1      1046    1    0    1
 -2        80       265       266        79      1502      2543      2553      1492
 -1      1047    1    0    1
 -2      1502      2543      2553      1492      1503      2544      2554      1493
 -1      1048    1    0    1
 -2      1503      2544      2554      1493      1504      2545      2555      1494
 -1      1049    1    0    1
 -2      1504      2545      2555      1494      1505      2546      2556      1495
 -1      1050    1    0    1
 -2      1505      2546      2556      1495      1506      2547      2557      1496
 -1      1051    1    0    1
 -2      1506      2547      2557      1496      1507      2548      2558      1497
 -1      1052    1    0    1
 -2      1507      2548      2558      1497      1508      2549      2559      1498
 -1      1053    1    0    1
 -2      1508      2549      2559      1498      1509      2550      2560      1499
 -1      1054    1    0    1
 -2      1509      2550      2560      1499      1510      2551      2561      1500
 -1      1055    1    0    1
 -2      1510      2551      2561      1500      1511      2552      2562      1501
 -1      1056    1    0    1
 -2      1511      2552      2562      1501       176      1776      1777       175
 -1      1057    1    0    1
 -2        79       266       267        78      1492      2553      2563      1482
 -1      1058    1    0    1
 -2      1492      2553      2563      1482      1493      2554      2564      1483
 -1      1059    1    0    1
 -2      1493      2554      2564      1483      1494      2555      2565      1484
 -1      1060    1    0    1
 -2      1494      2555      2565      1484      1495      2556      2566      1485
 -1      1061    1    0    1
 -2      1495      2556      2566      1485      1496      2557      2567      1486
 -1      1062    1    0    1
 -2      1496      2557      2567      1486      1497      2558      2568      1487
 -1      1063    1    0    1
 -2      1497      2558      2568      1487      1498      2559      2569      1488
 -1      1064    1    0    1
 -2      1498      2559      2569      1488      1499      2560      2570      1489
 -1      1065    1    0    1
 -2      1499      2560      2570      1489      1500      2561      2571      1490
 -1      1066    1    0    1
 -2      1500      2561      2571      1490      1501      2562      2572      1491
 -1      1067    1    0    1
 -2      1501      2562      2572      1491       175      1777      1778       174
 -1      1068    1    0    1
 -2        78       267       268        77      1482      2563      2573      1472
 -1      1069    1    0    1
 -2      1482      2563      2573      1472      1483      2564      2574      1473
 -1      1070    1    0    1
 -2      1483      2564      2574      1473      1484      2565      2575      1474
 -1      1071    1    0    1
 -2      1484      2565      2575      1474      1485      2566      2576      1475
 -1      1072    1    0    1
 -2      1485      2566      2576      1475      1486      2567      2577      1476
 -1      1073    1    0    1
 -2      1486      2567      2577      1476      1487      2568      2578      1477
 -1      1074    1    0    1
 -2      1487      2568      2578      1477      1488      2569      2579      1478
 -1      1075    1    0    1
 -2      1488      2569      2579      1478      1489      2570      2580      1479
 -1      1076    1    0    1
 -2      1489      2570      2580      1479      1490      2571      2581      1480
 -1      1077    1    0    1
 -2      1490      2571      2581      1480      1491      2572      2582      1481
 -1      1078    1    0    1
 -2      1491      2572      2582      1481       174      1778      1779       173
 -1      1079    1    0    1
 -2        77       268       269        76      1472      2573      2583      1462
 -1      1080    1    0    1
 -2      1472      2573      2583      1462      1473      2574      2584      1463
 -1      1081    1    0    1
 -2      1473      2574      2584      1463      1474      2575      2585      1464
 -1      1082    1    0    1
 -2      1474      2575      2585      1464      1475      2576      2586      1465
 -1      1083    1    0    1
 -2      1475      2576      2586      1465      1476      2577      2587      1466
 -1      1084    1    0    1
 -2      1476      2577      2587      1466      1477      2578      2588      1467
 -1      1085    1    0    1
 -2      1477      2578      2588      1467      1478      2579      2589      1468
 -1      1086    1    0    1
 -2      1478      2579      2589      1468      1479      2580      2590      1469
 -1      1087    1    0    1
 -2      1479      2580      2590      1469      1480      2581      2591      1470
 -1      1088    1    0    1
 -2      1480      2581      2591      1470      1481      2582      2592      1471
 -1      1089    1    0    1
 -2      1481      2582      2592      1471       173      1779      1780       172
 -1      1090    1    0    1
 -2        76       269        75         4      1462      2583      1452       231
 -1      1091    1    0    1
 -2      1462      2583      1452       231      1463      2584      1453       232
 -1      1092    1    0    1
 -2      1463      2584      1453       232      1464      2585      1454       233
 -1      1093    1    0    1
 -2      1464      2585      1454       233      1465      2586      1455       234
 -1      1094    1    0    1
 -2      1465      2586      1455       234      1466      2587      1456       235
 -1      1095    1    0    1
 -2      1466      2587      1456       235      1467      2588      1457       236
 -1      1096    1    0    1
 -2      1467      2588      1457       236      1468      2589      1458       237
 -1      1097    1    0    1
 -2      1468      2589      1458       237      1469      2590      1459       238
 -1      1098    1    0    1
 -2      1469      2590      1459       238      1470      2591      1460       239
 -1      1099    1    0    1
 -2      1470      2591      1460       239      1471      2592      1461       240
 -1      1100    1    0    1
 -2      1471      2592      1461       240       172      1780       171         8
 -1      1101    1    0    1
 -2         9        10       270       241       792       802      2593      2303
 -1      1102    1    0    1
 -2       792       802      2593      2303       793       803      2594      2304
 -1      1103    1    0    1
 -2       793       803      2594      2304       794       804      2595      2305
 -1      1104    1    0    1
 -2       794       804      2595      2305       795       805      2596      2306
 -1      1105    1    0    1
 -2       795       805      2596      2306       796       806      2597      2307
 -1      1106    1    0    1
 -2       796       806      2597      2307       797       807      2598      2308
 -1      1107    1    0    1
 -2       797       807      2598      2308       798       808      2599      2309
 -1      1108    1    0    1
 -2       798       808      2599      2309       799       809      2600      2310
 -1      1109    1    0    1
 -2       799       809      2600      2310       800       810      2601      2311
 -1      1110    1    0    1
 -2       800       810      2601      2311       801       811      2602      2312
 -1      1111    1    0    1
 -2       801       811      2602      2312       105       106      1781      1752
 -1      1112    1    0    1
 -2       241       270       271       242      2303      2593      2603      2313
 -1      1113    1    0    1
 -2      2303      2593      2603      2313      2304      2594      2604      2314
 -1      1114    1    0    1
 -2      2304      2594      2604      2314      2305      2595      2605      2315
 -1      1115    1    0    1
 -2      2305      2595      2605      2315      2306      2596      2606      2316
 -1      1116    1    0    1
 -2      2306      2596      2606      2316      2307      2597      2607      2317
 -1      1117    1    0    1
 -2      2307      2597      2607      2317      2308      2598      2608      2318
 -1      1118    1    0    1
 -2      2308      2598      2608      2318      2309      2599      2609      2319
 -1      1119    1    0    1
 -2      2309      2599      2609      2319      2310      2600      2610      2320
 -1      1120    1    0    1
 -2      2310      2600      2610      2320      2311      2601      2611      2321
 -1      1121    1    0    1
 -2      2311      2601      2611      2321      2312      2602      2612      2322
 -1      1122    1    0    1
 -2      2312      2602      2612      2322      1752      1781      1782      1753
 -1      1123    1    0    1
 -2       242       271       272       243      2313      2603      2613      2323
 -1      1124    1    0    1
 -2      2313      2603      2613      2323      2314      2604      2614      2324
 -1      1125    1    0    1
 -2      2314      2604      2614      2324      2315      2605      2615      2325
 -1      1126    1    0    1
 -2      2315      2605      2615      2325      2316      2606      2616      2326
 -1      1127    1    0    1
 -2      2316      2606      2616      2326      2317      2607      2617      2327
 -1      1128    1    0    1
 -2      2317      2607      2617      2327      2318      2608      2618      2328
 -1      1129    1    0    1
 -2      2318      2608      2618      2328      2319      2609      2619      2329
 -1      1130    1    0    1
 -2      2319      2609      2619      2329      2320      2610      2620      2330
 -1      1131    1    0    1
 -2      2320      2610      2620      2330      2321      2611      2621      2331
 -1      1132    1    0    1
 -2      2321      2611      2621      2331      2322      2612      2622      2332
 -1      1133    1    0    1
 -2      2322      2612      2622      2332      1753      1782      1783      1754
 -1      1134    1    0    1
 -2       243       272       273       244      2323      2613      2623      2333
 -1      1135    1    0    1
 -2      2323      2613      2623      2333      2324      2614      2624      2334
 -1      1136    1    0    1
 -2      2324      2614      2624      2334      2325      2615      2625      2335
 -1      1137    1    0    1
 -2      2325      2615      2625      2335      2326      2616      2626      2336
 -1      1138    1    0    1
 -2      2326      2616      2626      2336      2327      2617      2627      2337
 -1      1139    1    0    1
 -2      2327      2617      2627      2337      2328      2618      2628      2338
 -1      1140    1    0    1
 -2      2328      2618      2628      2338      2329      2619      2629      2339
 -1      1141    1    0    1
 -2      2329      2619      2629      2339      2330      2620      2630      2340
 -1      1142    1    0    1
 -2      2330      2620      2630      2340      2331      2621      2631      2341
 -1      1143    1    0    1
 -2      2331      2621      2631      2341      2332      2622      2632      2342
 -1      1144    1    0    1
 -2      2332      2622      2632      2342      1754      1783      1784      1755
 -1      1145    1    0    1
 -2       244       273       274       245      2333      2623      2633      2343
 -1      1146    1    0    1
 -2      2333      2623      2633      2343      2334      2624      2634      2344
 -1      1147    1    0    1
 -2      2334      2624      2634      2344      2335      2625      2635      2345
 -1      1148    1    0    1
 -2      2335      2625      2635      2345      2336      2626      2636      2346
 -1      1149    1    0    1
 -2      2336      2626      2636      2346      2337      2627      2637      2347
 -1      1150    1    0    1
 -2      2337      2627      2637      2347      2338      2628      2638      2348
 -1      1151    1    0    1
 -2      2338      2628      2638      2348      2339      2629      2639      2349
 -1      1152    1    0    1
 -2      2339      2629      2639      2349      2340      2630      2640      2350
 -1      1153    1    0    1
 -2      2340      2630      2640      2350      2341      2631      2641      2351
 -1      1154    1    0    1
 -2      2341      2631      2641      2351      2342      2632      2642      2352
 -1      1155    1    0    1
 -2      2342      2632      2642      2352      1755      1784      1785      1756
 -1      1156    1    0    1
 -2       245       274       275       246      2343      2633      2643      2353
 -1      1157    1    0    1
 -2      2343      2633      2643      2353      2344      2634      2644      2354
 -1      1158    1    0    1
 -2      2344      2634      2644      2354      2345      2635      2645      2355
 -1      1159    1    0    1
 -2      2345      2635      2645      2355      2346      2636      2646      2356
 -1      1160    1    0    1
 -2      2346      2636      2646      2356      2347      2637      2647      2357
 -1      1161    1    0    1
 -2      2347      2637      2647      2357      2348      2638      2648      2358
 -1      1162    1    0    1
 -2      2348      2638      2648      2358      2349      2639      2649      2359
 -1      1163    1    0    1
 -2      2349      2639      2649      2359      2350      2640      2650      2360
 -1      1164    1    0    1
 -2      2350      2640      2650      2360      2351      2641      2651      2361
 -1      1165    1    0    1
 -2      2351      2641      2651      2361      2352      2642      2652      2362
 -1      1166    1    0    1
 -2      2352      2642      2652      2362      1756      1785      1786      1757
 -1      1167    1    0    1
 -2       246       275       276       247      2353      2643      2653      2363
 -1      1168    1    0    1
 -2      2353      2643      2653      2363      2354      2644      2654      2364
 -1      1169    1    0    1
 -2      2354      2644      2654      2364      2355      2645      2655      2365
 -1      1170    1    0    1
 -2      2355      2645      2655      2365      2356      2646      2656      2366
 -1      1171    1    0    1
 -2      2356      2646      2656      2366      2357      2647      2657      2367
 -1      1172    1    0    1
 -2      2357      2647      2657      2367      2358      2648      2658      2368
 -1      1173    1    0    1
 -2      2358      2648      2658      2368      2359      2649      2659      2369
 -1      1174    1    0    1
 -2      2359      2649      2659      2369      2360      2650      2660      2370
 -1      1175    1    0    1
 -2      2360      2650      2660      2370      2361      2651      2661      2371
 -1      1176    1    0    1
 -2      2361      2651      2661      2371      2362      2652      2662      2372
 -1      1177    1    0    1
 -2      2362      2652      2662      2372      1757      1786      1787      1758
 -1      1178    1    0    1
 -2       247       276       277       248      2363      2653      2663      2373
 -1      1179    1    0    1
 -2      2363      2653      2663      2373      2364      2654      2664      2374
 -1      1180    1    0    1
 -2      2364      2654      2664      2374      2365      2655      2665      2375
 -1      1181    1    0    1
 -2      2365      2655      2665      2375      2366      2656      2666      2376
 -1      1182    1    0    1
 -2      2366      2656      2666      2376      2367      2657      2667      2377
 -1      1183    1    0    1
 -2      2367      2657      2667      2377      2368      2658      2668      2378
 -1      1184    1    0    1
 -2      2368      2658      2668      2378      2369      2659      2669      2379
 -1      1185    1    0    1
 -2      2369      2659      2669      2379      2370      2660      2670      2380
 -1      1186    1    0    1
 -2      2370      2660      2670      2380      2371      2661      2671      2381
 -1      1187    1    0    1
 -2      2371      2661      2671      2381      2372      2662      2672      2382
 -1      1188    1    0    1
 -2      2372      2662      2672      2382      1758      1787      1788      1759
 -1      1189    1    0    1
 -2       248       277       278       249      2373      2663      2673      2383
 -1      1190    1    0    1
 -2      2373      2663      2673      2383      2374      2664      2674      2384
 -1      1191    1    0    1
 -2      2374      2664      2674      2384      2375      2665      2675      2385
 -1      1192    1    0    1
 -2      2375      2665      2675      2385      2376      2666      2676      2386
 -1      1193    1    0    1
 -2      2376      2666      2676      2386      2377      2667      2677      2387
 -1      1194    1    0    1
 -2      2377      2667      2677      2387      2378      2668      2678      2388
 -1      1195    1    0    1
 -2      2378      2668      2678      2388      2379      2669      2679      2389
 -1      1196    1    0    1
 -2      2379      2669      2679      2389      2380      2670      2680      2390
 -1      1197    1    0    1
 -2      2380      2670      2680      2390      2381      2671      2681      2391
 -1      1198    1    0    1
 -2      2381      2671      2681      2391      2382      2672      2682      2392
 -1      1199    1    0    1
 -2      2382      2672      2682      2392      1759      1788      1789      1760
 -1      1200    1    0    1
 -2       249       278       279       250      2383      2673      2683      2393
 -1      1201    1    0    1
 -2      2383      2673      2683      2393      2384      2674      2684      2394
 -1      1202    1    0    1
 -2      2384      2674      2684      2394      2385      2675      2685      2395
 -1      1203    1    0    1
 -2      2385      2675      2685      2395      2386      2676      2686      2396
 -1      1204    1    0    1
 -2      2386      2676      2686      2396      2387      2677      2687      2397
 -1      1205    1    0    1
 -2      2387      2677      2687      2397      2388      2678      2688      2398
 -1      1206    1    0    1
 -2      2388      2678      2688      2398      2389      2679      2689      2399
 -1      1207    1    0    1
 -2      2389      2679      2689      2399      2390      2680      2690      2400
 -1      1208    1    0    1
 -2      2390      2680      2690      2400      2391      2681      2691      2401
 -1      1209    1    0    1
 -2      2391      2681      2691      2401      2392      2682      2692      2402
 -1      1210    1    0    1
 -2      2392      2682      2692      2402      1760      1789      1790      1761
 -1      1211    1    0    1
 -2       250       279       280       251      2393      2683      2693      2403
 -1      1212    1    0    1
 -2      2393      2683      2693      2403      2394      2684      2694      2404
 -1      1213    1    0    1
 -2      2394      2684      2694      2404      2395      2685      2695      2405
 -1      1214    1    0    1
 -2      2395      2685      2695      2405      2396      2686      2696      2406
 -1      1215    1    0    1
 -2      2396      2686      2696      2406      2397      2687      2697      2407
 -1      1216    1    0    1
 -2      2397      2687      2697      2407      2398      2688      2698      2408
 -1      1217    1    0    1
 -2      2398      2688      2698      2408      2399      2689      2699      2409
 -1      1218    1    0    1
 -2      2399      2689      2699      2409      2400      2690      2700      2410
 -1      1219    1    0    1
 -2      2400      2690      2700      2410      2401      2691      2701      2411
 -1      1220    1    0    1
 -2      2401      2691      2701      2411      2402      2692      2702      2412
 -1      1221    1    0    1
 -2      2402      2692      2702      2412      1761      1790      1791      1762
 -1      1222    1    0    1
 -2       251       280       281       252      2403      2693      2703      2413
 -1      1223    1    0    1
 -2      2403      2693      2703      2413      2404      2694      2704      2414
 -1      1224    1    0    1
 -2      2404      2694      2704      2414      2405      2695      2705      2415
 -1      1225    1    0    1
 -2      2405      2695      2705      2415      2406      2696      2706      2416
 -1      1226    1    0    1
 -2      2406      2696      2706      2416      2407      2697      2707      2417
 -1      1227    1    0    1
 -2      2407      2697      2707      2417      2408      2698      2708      2418
 -1      1228    1    0    1
 -2      2408      2698      2708      2418      2409      2699      2709      2419
 -1      1229    1    0    1
 -2      2409      2699      2709      2419      2410      2700      2710      2420
 -1      1230    1    0    1
 -2      2410      2700      2710      2420      2411      2701      2711      2421
 -1      1231    1    0    1
 -2      2411      2701      2711      2421      2412      2702      2712      2422
 -1      1232    1    0    1
 -2      2412      2702      2712      2422      1762      1791      1792      1763
 -1      1233    1    0    1
 -2       252       281       282       253      2413      2703      2713      2423
 -1      1234    1    0    1
 -2      2413      2703      2713      2423      2414      2704      2714      2424
 -1      1235    1    0    1
 -2      2414      2704      2714      2424      2415      2705      2715      2425
 -1      1236    1    0    1
 -2      2415      2705      2715      2425      2416      2706      2716      2426
 -1      1237    1    0    1
 -2      2416      2706      2716      2426      2417      2707      2717      2427
 -1      1238    1    0    1
 -2      2417      2707      2717      2427      2418      2708      2718      2428
 -1      1239    1    0    1
 -2      2418      2708      2718      2428      2419      2709      2719      2429
 -1      1240    1    0    1
 -2      2419      2709      2719      2429      2420      2710      2720      2430
 -1      1241    1    0    1
 -2      2420      2710      2720      2430      2421      2711      2721      2431
 -1      1242    1    0    1
 -2      2421      2711      2721      2431      2422      2712      2722      2432
 -1      1243    1    0    1
 -2      2422      2712      2722      2432      1763      1792      1793      1764
 -1      1244    1    0    1
 -2       253       282       283       254      2423      2713      2723      2433
 -1      1245    1    0    1
 -2      2423      2713      2723      2433      2424      2714      2724      2434
 -1      1246    1    0    1
 -2      2424      2714      2724      2434      2425      2715      2725      2435
 -1      1247    1    0    1
 -2      2425      2715      2725      2435      2426      2716      2726      2436
 -1      1248    1    0    1
 -2      2426      2716      2726      2436      2427      2717      2727      2437
 -1      1249    1    0    1
 -2      2427      2717      2727      2437      2428      2718      2728      2438
 -1      1250    1    0    1
 -2      2428      2718      2728      2438      2429      2719      2729      2439
 -1      1251    1    0    1
 -2      2429      2719      2729      2439      2430      2720      2730      2440
 -1      1252    1    0    1
 -2      2430      2720      2730      2440      2431      2721      2731      2441
 -1      1253    1    0    1
 -2      2431      2721      2731      2441      2432      2722      2732      2442
 -1      1254    1    0    1
 -2      2432      2722      2732      2442      1764      1793      1794      1765
 -1      1255    1    0    1
 -2       254       283       284       255      2433      2723      2733      2443
 -1      1256    1    0    1
 -2      2433      2723      2733      2443      2434      2724      2734      2444
 -1      1257    1    0    1
 -2      2434      2724      2734      2444      2435      2725      2735      2445
 -1      1258    1    0    1
 -2      2435      2725      2735      2445      2436      2726      2736      2446
 -1      1259    1    0    1
 -2      2436      2726      2736      2446      2437      2727      2737      2447
 -1      1260    1    0    1
 -2      2437      2727      2737      2447      2438      2728      2738      2448
 -1      1261    1    0    1
 -2      2438      2728      2738      2448      2439      2729      2739      2449
 -1      1262    1    0    1
 -2      2439      2729      2739      2449      2440      2730      2740      2450
 -1      1263    1    0    1
 -2      2440      2730      2740      2450      2441      2731      2741      2451
 -1      1264    1    0    1
 -2      2441      2731      2741      2451      2442      2732      2742      2452
 -1      1265    1    0    1
 -2      2442      2732      2742      2452      1765      1794      1795      1766
 -1      1266    1    0    1
 -2       255       284       285       256      2443      2733      2743      2453
 -1      1267    1    0    1
 -2      2443      2733      2743      2453      2444      2734      2744      2454
 -1      1268    1    0    1
 -2      2444      2734      2744      2454      2445      2735      2745      2455
 -1      1269    1    0    1
 -2      2445      2735      2745      2455      2446      2736      2746      2456
 -1      1270    1    0    1
 -2      2446      2736      2746      2456      2447      2737      2747      2457
 -1      1271    1    0    1
 -2      2447      2737      2747      2457      2448      2738      2748      2458
 -1      1272    1    0    1
 -2      2448      2738      2748      2458      2449      2739      2749      2459
 -1      1273    1    0    1
 -2      2449      2739      2749      2459      2450      2740      2750      2460
 -1      1274    1    0    1
 -2      2450      2740      2750      2460      2451      2741      2751      2461
 -1      1275    1    0    1
 -2      2451      2741      2751      2461      2452      2742      2752      2462
 -1      1276    1    0    1
 -2      2452      2742      2752      2462      1766      1795      1796      1767
 -1      1277    1    0    1
 -2       256       285       286       257      2453      2743      2753      2463
 -1      1278    1    0    1
 -2      2453      2743      2753      2463      2454      2744      2754      2464
 -1      1279    1    0    1
 -2      2454      2744      2754      2464      2455      2745      2755      2465
 -1      1280    1    0    1
 -2      2455      2745      2755      2465      2456      2746      2756      2466
 -1      1281    1    0    1
 -2      2456      2746      2756      2466      2457      2747      2757      2467
 -1      1282    1    0    1
 -2      2457      2747      2757      2467      2458      2748      2758      2468
 -1      1283    1    0    1
 -2      2458      2748      2758      2468      2459      2749      2759      2469
 -1      1284    1    0    1
 -2      2459      2749      2759      2469      2460      2750      2760      2470
 -1      1285    1    0    1
 -2      2460      2750      2760      2470      2461      2751      2761      2471
 -1      1286    1    0    1
 -2      2461      2751      2761      2471      2462      2752      2762      2472
 -1      1287    1    0    1
 -2      2462      2752      2762      2472      1767      1796      1797      1768
 -1      1288    1    0    1
 -2       257       286       287       258      2463      2753      2763      2473
 -1      1289    1    0    1
 -2      2463      2753      2763      2473      2464      2754      2764      2474
 -1      1290    1    0    1
 -2      2464      2754      2764      2474      2465      2755      2765      2475
 -1      1291    1    0    1
 -2      2465      2755      2765      2475      2466      2756      2766      2476
 -1      1292    1    0    1
 -2      2466      2756      2766      2476      2467      2757      2767      2477
 -1      1293    1    0    1
 -2      2467      2757      2767      2477      2468      2758      2768      2478
 -1      1294    1    0    1
 -2      2468      2758      2768      2478      2469      2759      2769      2479
 -1      1295    1    0    1
 -2      2469      2759      2769      2479      2470      2760      2770      2480
 -1      1296    1    0    1
 -2      2470      2760      2770      2480      2471      2761      2771      2481
 -1      1297    1    0    1
 -2      2471      2761      2771      2481      2472      2762      2772      2482
 -1      1298    1    0    1
 -2      2472      2762      2772      2482      1768      1797      1798      1769
 -1      1299    1    0    1
 -2       258       287       288       259      2473      2763      2773      2483
 -1      1300    1    0    1
 -2      2473      2763      2773      2483      2474      2764      2774      2484
 -1      1301    1    0    1
 -2      2474      2764      2774      2484      2475      2765      2775      2485
 -1      1302    1    0    1
 -2      2475      2765      2775      2485      2476      2766      2776      2486
 -1      1303    1    0    1
 -2      2476      2766      2776      2486      2477      2767      2777      2487
 -1      1304    1    0    1
 -2      2477      2767      2777      2487      2478      2768      2778      2488
 -1      1305    1    0    1
 -2      2478      2768      2778      2488      2479      2769      2779      2489
 -1      1306    1    0    1
 -2      2479      2769      2779      2489      2480      2770      2780      2490
 -1      1307    1    0    1
 -2      2480      2770      2780      2490      2481      2771      2781      2491
 -1      1308    1    0    1
 -2      2481      2771      2781      2491      2482      2772      2782      2492
 -1      1309    1    0    1
 -2      2482      2772      2782      2492      1769      1798      1799      1770
 -1      1310    1    0    1
 -2       259       288       289       260      2483      2773      2783      2493
 -1      1311    1    0    1
 -2      2483      2773      2783      2493      2484      2774      2784      2494
 -1      1312    1    0    1
 -2      2484      2774      2784      2494      2485      2775      2785      2495
 -1      1313    1    0    1
 -2      2485      2775      2785      2495      2486      2776      2786      2496
 -1      1314    1    0    1
 -2      2486      2776      2786      2496      2487      2777      2787      2497
 -1      1315    1    0    1
 -2      2487      2777      2787      2497      2488      2778      2788      2498
 -1      1316    1    0    1
 -2      2488      2778      2788      2498      2489      2779      2789      2499
 -1      1317    1    0    1
 -2      2489      2779      2789      2499      2490      2780      2790      2500
 -1      1318    1    0    1
 -2      2490      2780      2790      2500      2491      2781      2791      2501
 -1      1319    1    0    1
 -2      2491      2781      2791      2501      2492      2782      2792      2502
 -1      1320    1    0    1
 -2      2492      2782      2792      2502      1770      1799      1800      1771
 -1      1321    1    0    1
 -2       260       289       290       261      2493      2783      2793      2503
 -1      1322    1    0    1
 -2      2493      2783      2793      2503      2494      2784      2794      2504
 -1      1323    1    0    1
 -2      2494      2784      2794      2504      2495      2785      2795      2505
 -1      1324    1    0    1
 -2      2495      2785      2795      2505      2496      2786      2796      2506
 -1      1325    1    0    1
 -2      2496      2786      2796      2506      2497      2787      2797      2507
 -1      1326    1    0    1
 -2      2497      2787      2797      2507      2498      2788      2798      2508
 -1      1327    1    0    1
 -2      2498      2788      2798      2508      2499      2789      2799      2509
 -1      1328    1    0    1
 -2      2499      2789      2799      2509      2500      2790      2800      2510
 -1      1329    1    0    1
 -2      2500      2790      2800      2510      2501      2791      2801      2511
 -1      1330    1    0    1
 -2      2501      2791      2801      2511      2502      2792      2802      2512
 -1      1331    1    0    1
 -2      2502      2792      2802      2512      1771      1800      1801      1772
 -1      1332    1    0    1
 -2       261       290       291       262      2503      2793      2803      2513
 -1      1333    1    0    1
 -2      2503      2793      2803      2513      2504      2794      2804      2514
 -1      1334    1    0    1
 -2      2504      2794      2804      2514      2505      2795      2805      2515
 -1      1335    1    0    1
 -2      2505      2795      2805      2515      2506      2796      2806      2516
 -1      1336    1    0    1
 -2      2506      2796      2806      2516      2507      2797      2807      2517
 -1      1337    1    0    1
 -2      2507      2797      2807      2517      2508      2798      2808      2518
 -1      1338    1    0    1
 -2      2508      2798      2808      2518      2509      2799      2809      2519
 -1      1339    1    0    1
 -2      2509      2799      2809      2519      2510      2800      2810      2520
 -1      1340    1    0    1
 -2      2510      2800      2810      2520      2511      2801      2811      2521
 -1      1341    1    0    1
 -2      2511      2801      2811      2521      2512      2802      2812      2522
 -1      1342    1    0    1
 -2      2512      2802      2812      2522      1772      1801      1802      1773
 -1      1343    1    0    1
 -2       262       291       292       263      2513      2803      2813      2523
 -1      1344    1    0    1
 -2      2513      2803      2813      2523      2514      2804      2814      2524
 -1      1345    1    0    1
 -2      2514      2804      2814      2524      2515      2805      2815      2525
 -1      1346    1    0    1
 -2      2515      2805      2815      2525      2516      2806      2816      2526
 -1      1347    1    0    1
 -2      2516      2806      2816      2526      2517      2807      2817      2527
 -1      1348    1    0    1
 -2      2517      2807      2817      2527      2518      2808      2818      2528
 -1      1349    1    0    1
 -2      2518      2808      2818      2528      2519      2809      2819      2529
 -1      1350    1    0    1
 -2      2519      2809      2819      2529      2520      2810      2820      2530
 -1      1351    1    0    1
 -2      2520      2810      2820      2530      2521      2811      2821      2531
 -1      1352    1    0    1
 -2      2521      2811      2821      2531      2522      2812      2822      2532
 -1      1353    1    0    1
 -2      2522      2812      2822      2532      1773      1802      1803      1774
 -1      1354    1    0    1
 -2       263       292       293       264      2523      2813      2823      2533
 -1      1355    1    0    1
 -2      2523      2813      2823      2533      2524      2814      2824      2534
 -1      1356    1    0    1
 -2      2524      2814      2824      2534      2525      2815      2825      2535
 -1      1357    1    0    1
 -2      2525      2815      2825      2535      2526      2816      2826      2536
 -1      1358    1    0    1
 -2      2526      2816      2826      2536      2527      2817      2827      2537
 -1      1359    1    0    1
 -2      2527      2817      2827      2537      2528      2818      2828      2538
 -1      1360    1    0    1
 -2      2528      2818      2828      2538      2529      2819      2829      2539
 -1      1361    1    0    1
 -2      2529      2819      2829      2539      2530      2820      2830      2540
 -1      1362    1    0    1
 -2      2530      2820      2830      2540      2531      2821      2831      2541
 -1      1363    1    0    1
 -2      2531      2821      2831      2541      2532      2822      2832      2542
 -1      1364    1    0    1
 -2      2532      2822      2832      2542      1774      1803      1804      1775
 -1      1365    1    0    1
 -2       264       293       294       265      2533      2823      2833      2543
 -1      1366    1    0    1
 -2      2533      2823      2833      2543      2534      2824      2834      2544
 -1      1367    1    0    1
 -2      2534      2824      2834      2544      2535      2825      2835      2545
 -1      1368    1    0    1
 -2      2535      2825      2835      2545      2536      2826      2836      2546
 -1      1369    1    0    1
 -2      2536      2826      2836      2546      2537      2827      2837      2547
 -1      1370    1    0    1
 -2      2537      2827      2837      2547      2538      2828      2838      2548
 -1      1371    1    0    1
 -2      2538      2828      2838      2548      2539      2829      2839      2549
 -1      1372    1    0    1
 -2      2539      2829      2839      2549      2540      2830      2840      2550
 -1      1373    1    0    1
 -2      2540      2830      2840      2550      2541      2831      2841      2551
 -1      1374    1    0    1
 -2      2541      2831      2841      2551      2542      2832      2842      2552
 -1      1375    1    0    1
 -2      2542      2832      2842      2552      1775      1804      1805      1776
 -1      1376    1    0    1
 -2       265       294       295       266      2543      2833      2843      2553
 -1      1377    1    0    1
 -2      2543      2833      2843      2553      2544      2834      2844      2554
 -1      1378    1    0    1
 -2      2544      2834      2844      2554      2545      2835      2845      2555
 -1      1379    1    0    1
 -2      2545      2835      2845      2555      2546      2836      2846      2556
 -1      1380    1    0    1
 -2      2546      2836      2846      2556      2547      2837      2847      2557
 -1      1381    1    0    1
 -2      2547      2837      2847      2557      2548      2838      2848      2558
 -1      1382    1    0    1
 -2      2548      2838      2848      2558      2549      2839      2849      2559
 -1      1383    1    0    1
 -2      2549      2839      2849      2559      2550      2840      2850      2560
 -1      1384    1    0    1
 -2      2550      2840      2850      2560      2551      2841      2851      2561
 -1      1385    1    0    1
 -2      2551      2841      2851      2561      2552      2842      2852      2562
 -1      1386    1    0    1
 -2      2552      2842      2852      2562      1776      1805      1806      1777
 -1      1387    1    0    1
 -2       266       295       296       267      2553      2843      2853      2563
 -1      1388    1    0    1
 -2      2553      2843      2853      2563      2554      2844      2854      2564
 -1      1389    1    0    1
 -2      2554      2844      2854      2564      2555      2845      2855      2565
 -1      1390    1    0    1
 -2      2555      2845      2855      2565      2556      2846      2856      2566
 -1      1391    1    0    1
 -2      2556      2846      2856      2566      2557      2847      2857      2567
 -1      1392    1    0    1
 -2      2557      2847      2857      2567      2558      2848      2858      2568
 -1      1393    1    0    1
 -2      2558      2848      2858      2568      2559      2849      2859      2569
 -1      1394    1    0    1
 -2      2559      2849      2859      2569      2560      2850      2860      2570
 -1      1395    1    0    1
 -2      2560      2850      2860      2570      2561      2851      2861      2571
 -1      1396    1    0    1
 -2      2561      2851      2861      2571      2562      2852      2862      2572
 -1      1397    1    0    1
 -2      2562      2852      2862      2572      1777      1806      1807      1778
 -1      1398    1    0    1
 -2       267       296       297       268      2563      2853      2863      2573
 -1      1399    1    0    1
 -2      2563      2853      2863      2573      2564      2854      2864      2574
 -1      1400    1    0    1
 -2      2564      2854      2864      2574      2565      2855      2865      2575
 -1      1401    1    0    1
 -2      2565      2855      2865      2575      2566      2856      2866      2576
 -1      1402    1    0    1
 -2      2566      2856      2866      2576      2567      2857      2867      2577
 -1      1403    1    0    1
 -2      2567      2857      2867      2577      2568      2858      2868      2578
 -1      1404    1    0    1
 -2      2568      2858      2868      2578      2569      2859      2869      2579
 -1      1405    1    0    1
 -2      2569      2859      2869      2579      2570      2860      2870      2580
 -1      1406    1    0    1
 -2      2570      2860      2870      2580      2571      2861      2871      2581
 -1      1407    1    0    1
 -2      2571      2861      2871      2581      2572      2862      2872      2582
 -1      1408    1    0    1
 -2      2572      2862      2872      2582      1778      1807      1808      1779
 -1      1409    1    0    1
 -2       268       297       298       269      2573      2863      2873      2583
 -1      1410    1    0    1
 -2      2573      2863      2873      2583      2574      2864      2874      2584
 -1      1411    1    0    1
 -2      2574      2864      2874      2584      2575      2865      2875      2585
 -1      1412    1    0    1
 -2      2575      2865      2875      2585      2576      2866      2876      2586
 -1      1413    1    0    1
 -2      2576      2866      2876      2586      2577      2867      2877      2587
 -1      1414    1    0    1
 -2      2577      2867      2877      2587      2578      2868      2878      2588
 -1      1415    1    0    1
 -2      2578      2868      2878      2588      2579      2869      2879      2589
 -1      1416    1    0    1
 -2      2579      2869      2879      2589      2580      2870      2880      2590
 -1      1417    1    0    1
 -2      2580      2870      2880      2590      2581      2871      2881      2591
 -1      1418    1    0    1
 -2      2581      2871      2881      2591      2582      2872      2882      2592
 -1      1419    1    0    1
 -2      2582      2872      2882      2592      1779      1808      1809      1780
 -1      1420    1    0    1
 -2       269       298        74        75      2583      2873      1442      1452
 -1      1421    1    0    1
 -2      2583      2873      1442      1452      2584      2874      1443      1453
 -1      1422    1    0    1
 -2      2584      2874      1443      1453      2585      2875      1444      1454
 -1      1423    1    0    1
 -2      2585      2875      1444      1454      2586      2876      1445      1455
 -1      1424    1    0    1
 -2      2586      2876      1445      1455      2587      2877      1446      1456
 -1      1425    1    0    1
 -2      2587      2877      1446      1456      2588      2878      1447      1457
 -1      1426    1    0    1
 -2      2588      2878      1447      1457      2589      2879      1448      1458
 -1      1427    1    0    1
 -2      2589      2879      1448      1458      2590      2880      1449      1459
 -1      1428    1    0    1
 -2      2590      2880      1449      1459      2591      2881      1450      1460
 -1      1429    1    0    1
 -2      2591      2881      1450      1460      2592      2882      1451      1461
 -1      1430    1    0    1
 -2      2592      2882      1451      1461      1780      1809       170       171
 -1      1431    1    0    1
 -2        10        11       299       270       802       812      2883      2593
 -1      1432    1    0    1
 -2       802       812      2883      2593       803       813      2884      2594
 -1      1433    1    0    1
 -2       803       813      2884      2594       804       814      2885      2595
 -1      1434    1    0    1
 -2       804       814      2885      2595       805       815      2886      2596
 -1      1435    1    0    1
 -2       805       815      2886      2596       806       816      2887      2597
 -1      1436    1    0    1
 -2       806       816      2887      2597       807       817      2888      2598
 -1      1437    1    0    1
 -2       807       817      2888      2598       808       818      2889      2599
 -1      1438    1    0    1
 -2       808       818      2889      2599       809       819      2890      2600
 -1      1439    1    0    1
 -2       809       819      2890      2600       810       820      2891      2601
 -1      1440    1    0    1
 -2       810       820      2891      2601       811       821      2892      2602
 -1      1441    1    0    1
 -2       811       821      2892      2602       106       107      1810      1781
 -1      1442    1    0    1
 -2       270       299       300       271      2593      2883      2893      2603
 -1      1443    1    0    1
 -2      2593      2883      2893      2603      2594      2884      2894      2604
 -1      1444    1    0    1
 -2      2594      2884      2894      2604      2595      2885      2895      2605
 -1      1445    1    0    1
 -2      2595      2885      2895      2605      2596      2886      2896      2606
 -1      1446    1    0    1
 -2      2596      2886      2896      2606      2597      2887      2897      2607
 -1      1447    1    0    1
 -2      2597      2887      2897      2607      2598      2888      2898      2608
 -1      1448    1    0    1
 -2      2598      2888      2898      2608      2599      2889      2899      2609
 -1      1449    1    0    1
 -2      2599      2889      2899      2609      2600      2890      2900      2610
 -1      1450    1    0    1
 -2      2600      2890      2900      2610      2601      2891      2901      2611
 -1      1451    1    0    1
 -2      2601      2891      2901      2611      2602      2892      2902      2612
 -1      1452    1    0    1
 -2      2602      2892      2902      2612      1781      1810      1811      1782
 -1      1453    1    0    1
 -2       271       300       301       272      2603      2893      2903      2613
 -1      1454    1    0    1
 -2      2603      2893      2903      2613      2604      2894      2904      2614
 -1      1455    1    0    1
 -2      2604      2894      2904      2614      2605      2895      2905      2615
 -1      1456    1    0    1
 -2      2605      2895      2905      2615      2606      2896      2906      2616
 -1      1457    1    0    1
 -2      2606      2896      2906      2616      2607      2897      2907      2617
 -1      1458    1    0    1
 -2      2607      2897      2907      2617      2608      2898      2908      2618
 -1      1459    1    0    1
 -2      2608      2898      2908      2618      2609      2899      2909      2619
 -1      1460    1    0    1
 -2      2609      2899      2909      2619      2610      2900      2910      2620
 -1      1461    1    0    1
 -2      2610      2900      2910      2620      2611      2901      2911      2621
 -1      1462    1    0    1
 -2      2611      2901      2911      2621      2612      2902      2912      2622
 -1      1463    1    0    1
 -2      2612      2902      2912      2622      1782      1811      1812      1783
 -1      1464    1    0    1
 -2       272       301       302       273      2613      2903      2913      2623
 -1      1465    1    0    1
 -2      2613      2903      2913      2623      2614      2904      2914      2624
 -1      1466    1    0    1
 -2      2614      2904      2914      2624      2615      2905      2915      2625
 -1      1467    1    0    1
 -2      2615      2905      2915      2625      2616      2906      2916      2626
 -1      1468    1    0    1
 -2      2616      2906      2916      2626      2617      2907      2917      2627
 -1      1469    1    0    1
 -2      2617      2907      2917      2627      2618      2908      2918      2628
 -1      1470    1    0    1
 -2      2618      2908      2918      2628      2619      2909      2919      2629
 -1      1471    1    0    1
 -2      2619      2909      2919      2629      2620      2910      2920      2630
 -1      1472    1    0    1
 -2      2620      2910      2920      2630      2621      2911      2921      2631
 -1      1473    1    0    1
 -2      2621      2911      2921      2631      2622      2912      2922      2632
 -1      1474    1    0    1
 -2      2622      2912      2922      2632      1783      1812      1813      1784
 -1      1475    1    0    1
 -2       273       302       303       274      2623      2913      2923      2633
 -1      1476    1    0    1
 -2      2623      2913      2923      2633      2624      2914      2924      2634
 -1      1477    1    0    1
 -2      2624      2914      2924      2634      2625      2915      2925      2635
 -1      1478    1    0    1
 -2      2625      2915      2925      2635      2626      2916      2926      2636
 -1      1479    1    0    1
 -2      2626      2916      2926      2636      2627      2917      2927      2637
 -1      1480    1    0    1
 -2      2627      2917      2927      2637      2628      2918      2928      2638
 -1      1481    1    0    1
 -2      2628      2918      2928      2638      2629      2919      2929      2639
 -1      1482    1    0    1
 -2      2629      2919      2929      2639      2630      2920      2930      2640
 -1      1483    1    0    1
 -2      2630      2920      2930      2640      2631      2921      2931      2641
 -1      1484    1    0    1
 -2      2631      2921      2931      2641      2632      2922      2932      2642
 -1      1485    1    0    1
 -2      2632      2922      2932      2642      1784      1813      1814      1785
 -1      1486    1    0    1
 -2       274       303       304       275      2633      2923      2933      2643
 -1      1487    1    0    1
 -2      2633      2923      2933      2643      2634      2924      2934      2644
 -1      1488    1    0    1
 -2      2634      2924      2934      2644      2635      2925      2935      2645
 -1      1489    1    0    1
 -2      2635      2925      2935      2645      2636      2926      2936      2646
 -1      1490    1    0    1
 -2      2636      2926      2936      2646      2637      2927      2937      2647
 -1      1491    1    0    1
 -2      2637      2927      2937      2647      2638      2928      2938      2648
 -1      1492    1    0    1
 -2      2638      2928      2938      2648      2639      2929      2939      2649
 -1      1493    1    0    1
 -2      2639      2929      2939      2649      2640      2930      2940      2650
 -1      1494    1    0    1
 -2      2640      2930      2940      2650      2641      2931      2941      2651
 -1      1495    1    0    1
 -2      2641      2931      2941      2651      2642      2932      2942      2652
 -1      1496    1    0    1
 -2      2642      2932      2942      2652      1785      1814      1815      1786
 -1      1497    1    0    1
 -2       275       304       305       276      2643      2933      2943      2653
 -1      1498    1    0    1
 -2      2643      2933      2943      2653      2644      2934      2944      2654
 -1      1499    1    0    1
 -2      2644      2934      2944      2654      2645      2935      2945      2655
 -1      1500    1    0    1
 -2      2645      2935      2945      2655      2646      2936      2946      2656
 -1      1501    1    0    1
 -2      2646      2936      2946      2656      2647      2937      2947      2657
 -1      1502    1    0    1
 -2      2647      2937      2947      2657      2648      2938      2948      2658
 -1      1503    1    0    1
 -2      2648      2938      2948      2658      2649      2939      2949      2659
 -1      1504    1    0    1
 -2      2649      2939      2949      2659      2650      2940      2950      2660
 -1      1505    1    0    1
 -2      2650      2940      2950      2660      2651      2941      2951      2661
 -1      1506    1    0    1
 -2      2651      2941      2951      2661      2652      2942      2952      2662
 -1      1507    1    0    1
 -2      2652      2942      2952      2662      1786      1815      1816      1787
 -1      1508    1    0    1
 -2       276       305       306       277      2653      2943      2953      2663
 -1      1509    1    0    1
 -2      2653      2943      2953      2663      2654      2944      2954      2664
 -1      1510    1    0    1
 -2      2654      2944      2954      2664      2655      2945      2955      2665
 -1      1511    1    0    1
 -2      2655      2945      2955      2665      2656      2946      2956      2666
 -1      1512    1    0    1
 -2      2656      2946      2956      2666      2657      2947      2957      2667
 -1      1513    1    0    1
 -2      2657      2947      2957      2667      2658      2948      2958      2668
 -1      1514    1    0    1
 -2      2658      2948      2958      2668      2659      2949      2959      2669
 -1      1515    1    0    1
 -2      2659      2949      2959      2669      2660      2950      2960      2670
 -1      1516    1    0    1
 -2      2660      2950      2960      2670      2661      2951      2961      2671
 -1      1517    1    0    1
 -2      2661      2951      2961      2671      2662      2952      2962      2672
 -1      1518    1    0    1
 -2      2662      2952      2962      2672      1787      1816      1817      1788
 -1      1519    1    0    1
 -2       277       306       307       278      2663      2953      2963      2673
 -1      1520    1    0    1
 -2      2663      2953      2963      2673      2664      2954      2964      2674
 -1      1521    1    0    1
 -2      2664      2954      2964      2674      2665      2955      2965      2675
 -1      1522    1    0    1
 -2      2665      2955      2965      2675      2666      2956      2966      2676
 -1      1523    1    0    1
 -2      2666      2956      2966      2676      2667      2957      2967      2677
 -1      1524    1    0    1
 -2      2667      2957      2967      2677      2668      2958      2968      2678
 -1      1525    1    0    1
 -2      2668      2958      2968      2678      2669      2959      2969      2679
 -1      1526    1    0    1
 -2      2669      2959      2969      2679      2670      2960      2970      2680
 -1      1527    1    0    1
 -2      2670      2960      2970      2680      2671      2961      2971      2681
 -1      1528    1    0    1
 -2      2671      2961      2971      2681      2672      2962      2972      2682
 -1      1529    1    0    1
 -2      2672      2962      2972      2682      1788      1817      1818      1789
 -1      1530    1    0    1
 -2       278       307       308       279      2673      2963      2973      2683
 -1      1531    1    0    1
 -2      2673      2963      2973      2683      2674      2964      2974      2684
 -1      1532    1    0    1
 -2      2674      2964      2974      2684      2675      2965      2975      2685
 -1      1533    1    0    1
 -2      2675      2965      2975      2685      2676      2966      2976      2686
 -1      1534    1    0    1
 -2      2676      2966      2976      2686      2677      2967      2977      2687
 -1      1535    1    0    1
 -2      2677      2967      2977      2687      2678      2968      2978      2688
 -1      1536    1    0    1
 -2      2678      2968      2978      2688      2679      2969      2979      2689
 -1      1537    1    0    1
 -2      2679      2969      2979      2689      2680      2970      2980      2690
 -1      1538    1    0    1
 -2      2680      2970      2980      2690      2681      2971      2981      2691
 -1      1539    1    0    1
 -2      2681      2971      2981      2691      2682      2972      2982      2692
 -1      1540    1    0    1
 -2      2682      2972      2982      2692      1789      1818      1819      1790
 -1      1541    1    0    1
 -2       279       308       309       280      2683      2973      2983      2693
 -1      1542    1    0    1
 -2      2683      2973      2983      2693      2684      2974      2984      2694
 -1      1543    1    0    1
 -2      2684      2974      2984      2694      2685      2975      2985      2695
 -1      1544    1    0    1
 -2      2685      2975      2985      2695      2686      2976      2986      2696
 -1      1545    1    0    1
 -2      2686      2976      2986      2696      2687      2977      2987      2697
 -1      1546    1    0    1
 -2      2687      2977      2987      2697      2688      2978      2988      2698
 -1      1547    1    0    1
 -2      2688      2978      2988      2698      2689      2979      2989      2699
 -1      1548    1    0    1
 -2      2689      2979      2989      2699      2690      2980      2990      2700
 -1      1549    1    0    1
 -2      2690      2980      2990      2700      2691      2981      2991      2701
 -1      1550    1    0    1
 -2      2691      2981      2991      2701      2692      2982      2992      2702
 -1      1551    1    0    1
 -2      2692      2982      2992      2702      1790      1819      1820      1791
 -1      1552    1    0    1
 -2       280       309       310       281      2693      2983      2993      2703
 -1      1553    1    0    1
 -2      2693      2983      2993      2703      2694      2984      2994      2704
 -1      1554    1    0    1
 -2      2694      2984      2994      2704      2695      2985      2995      2705
 -1      1555    1    0    1
 -2      2695      2985      2995      2705      2696      2986      2996      2706
 -1      1556    1    0    1
 -2      2696      2986      2996      2706      2697      2987      2997      2707
 -1      1557    1    0    1
 -2      2697      2987      2997      2707      2698      2988      2998      2708
 -1      1558    1    0    1
 -2      2698      2988      2998      2708      2699      2989      2999      2709
 -1      1559    1    0    1
 -2      2699      2989      2999      2709      2700      2990      3000      2710
 -1      1560    1    0    1
 -2      2700      2990      3000      2710      2701      2991      3001      2711
 -1      1561    1    0    1
 -2      2701      2991      3001      2711      2702      2992      3002      2712
 -1      1562    1    0    1
 -2      2702      2992      3002      2712      1791      1820      1821      1792
 -1      1563    1    0    1
 -2       281       310       311       282      2703      2993      3003      2713
 -1      1564    1    0    1
 -2      2703      2993      3003      2713      2704      2994      3004      2714
 -1      1565    1    0    1
 -2      2704      2994      3004      2714      2705      2995      3005      2715
 -1      1566    1    0    1
 -2      2705      2995      3005      2715      2706      2996      3006      2716
 -1      1567    1    0    1
 -2      2706      2996      3006      2716      2707      2997      3007      2717
 -1      1568    1    0    1
 -2      2707      2997      3007      2717      2708      2998      3008      2718
 -1      1569    1    0    1
 -2      2708      2998      3008      2718      2709      2999      3009      2719
 -1      1570    1    0    1
 -2      2709      2999      3009      2719      2710      3000      3010      2720
 -1      1571    1    0    1
 -2      2710      3000      3010      2720      2711      3001      3011      2721
 -1      1572    1    0    1
 -2      2711      3001      3011      2721      2712      3002      3012      2722
 -1      1573    1    0    1
 -2      2712      3002      3012      2722      1792      1821      1822      1793
 -1      1574    1    0    1
 -2       282       311       312       283      2713      3003      3013      2723
 -1      1575    1    0    1
 -2      2713      3003      3013      2723      2714      3004      3014      2724
 -1      1576    1    0    1
 -2      2714      3004      3014      2724      2715      3005      3015      2725
 -1      1577    1    0    1
 -2      2715      3005      3015      2725      2716      3006      3016      2726
 -1      1578    1    0    1
 -2      2716      3006      3016      2726      2717      3007      3017      2727
 -1      1579    1    0    1
 -2      2717      3007      3017      2727      2718      3008      3018      2728
 -1      1580    1    0    1
 -2      2718      3008      3018      2728      2719      3009      3019      2729
 -1      1581    1    0    1
 -2      2719      3009      3019      2729      2720      3010      3020      2730
 -1      1582    1    0    1
 -2      2720      3010      3020      2730      2721      3011      3021      2731
 -1      1583    1    0    1
 -2      2721      3011      3021      2731      2722      3012      3022      2732
 -1      1584    1    0    1
 -2      2722      3012      3022      2732      1793      1822      1823      1794
 -1      1585    1    0    1
 -2       283       312       313       284      2723      3013      3023      2733
 -1      1586    1    0    1
 -2      2723      3013      3023      2733      2724      3014      3024      2734
 -1      1587    1    0    1
 -2      2724      3014      3024      2734      2725      3015      3025      2735
 -1      1588    1    0    1
 -2      2725      3015      3025      2735      2726      3016      3026      2736
 -1      1589    1    0    1
 -2      2726      3016      3026      2736      2727      3017      3027      2737
 -1      1590    1    0    1
 -2      2727      3017      3027      2737      2728      3018      3028      2738
 -1      1591    1    0    1
 -2      2728      3018      3028      2738      2729      3019      3029      2739
 -1      1592    1    0    1
 -2      2729      3019      3029      2739      2730      3020      3030      2740
 -1      1593    1    0    1
 -2      2730      3020      3030      2740      2731      3021      3031      2741
 -1      1594    1    0    1
 -2      2731      3021      3031      2741      2732      3022      3032      2742
 -1      1595    1    0    1
 -2      2732      3022      3032      2742      1794      1823      1824      1795
 -1      1596    1    0    1
 -2       284       313       314       285      2733      3023      3033      2743
 -1      1597    1    0    1
 -2      2733      3023      3033      2743      2734      3024      3034      2744
 -1      1598    1    0    1
 -2      2734      3024      3034      2744      2735      3025      3035      2745
 -1      1599    1    0    1
 -2      2735      3025      3035      2745      2736      3026      3036      2746
 -1      1600    1    0    1
 -2      2736      3026      3036      2746      2737      3027      3037      2747
 -1      1601    1    0    1
 -2      2737      3027      3037      2747      2738      3028      3038      2748
 -1      1602    1    0    1
 -2      2738      3028      3038      2748      2739      3029      3039      2749
 -1      1603    1    0    1
 -2      2739      3029      3039      2749      2740      3030      3040      2750
 -1      1604    1    0    1
 -2      2740      3030      3040      2750      2741      3031      3041      2751
 -1      1605    1    0    1
 -2      2741      3031      3041      2751      2742      3032      3042      2752
 -1      1606    1    0    1
 -2      2742      3032      3042      2752      1795      1824      1825      1796
 -1      1607    1    0    1
 -2       285       314       315       286      2743      3033      3043      2753
 -1      1608    1    0    1
 -2      2743      3033      3043      2753      2744      3034      3044      2754
 -1      1609    1    0    1
 -2      2744      3034      3044      2754      2745      3035      3045      2755
 -1      1610    1    0    1
 -2      2745      3035      3045      2755      2746      3036      3046      2756
 -1      1611    1    0    1
 -2      2746      3036      3046      2756      2747      3037      3047      2757
 -1      1612    1    0    1
 -2      2747      3037      3047      2757      2748      3038      3048      2758
 -1      1613    1    0    1
 -2      2748      3038      3048      2758      2749      3039      3049      2759
 -1      1614    1    0    1
 -2      2749      3039      3049      2759      2750      3040      3050      2760
 -1      1615    1    0    1
 -2      2750      3040      3050      2760      2751      3041      3051      2761
 -1      1616    1    0    1
 -2      2751      3041      3051      2761      2752      3042      3052      2762
 -1      1617    1    0    1
 -2      2752      3042      3052      2762      1796      1825      1826      1797
 -1      1618    1    0    1
 -2       286       315       316       287      2753      3043      3053      2763
 -1      1619    1    0    1
 -2      2753      3043      3053      2763      2754      3044      3054      2764
 -1      1620    1    0    1
 -2      2754      3044      3054      2764      2755      3045      3055      2765
 -1      1621    1    0    1
 -2      2755      3045      3055      2765      2756      3046      3056      2766
 -1      1622    1    0    1
 -2      2756      3046      3056      2766      2757      3047      3057      2767
 -1      1623    1    0    1
 -2      2757      3047      3057      2767      2758      3048      3058      2768
 -1      1624    1    0    1
 -2      2758      3048      3058      2768      2759      3049      3059      2769
 -1      1625    1    0    1
 -2      2759      3049      3059      2769      2760      3050      3060      2770
 -1      1626    1    0    1
 -2      2760      3050      3060      2770      2761      3051      3061      2771
 -1      1627    1    0    1
 -2      2761      3051      3061      2771      2762      3052      3062      2772
 -1      1628    1    0    1
 -2      2762      3052      3062      2772      1797      1826      1827      1798
 -1      1629    1    0    1
 -2       287       316       317       288      2763      3053      3063      2773
 -1      1630    1    0    1
 -2      2763      3053      3063      2773      2764      3054      3064      2774
 -1      1631    1    0    1
 -2      2764      3054      3064      2774      2765      3055      3065      2775
 -1      1632    1    0    1
 -2      2765      3055      3065      2775      2766      3056      3066      2776
 -1      1633    1    0    1
 -2      2766      3056      3066      2776      2767      3057      3067      2777
 -1      1634    1    0    1
 -2      2767      3057      3067      2777      2768      3058      3068      2778
 -1      1635    1    0    1
 -2      2768      3058      3068      2778      2769      3059      3069      2779
 -1      1636    1    0    1
 -2      2769      3059      3069      2779      2770      3060      3070      2780
 -1      1637    1    0    1
 -2      2770      3060      3070      2780      2771      3061      3071      2781
 -1      1638    1    0    1
 -2      2771      3061      3071      2781      2772      3062      3072      2782
 -1      1639    1    0    1
 -2      2772      3062      3072      2782      1798      1827      1828      1799
 -1      1640    1    0    1
 -2       288       317       318       289      2773      3063      3073      2783
 -1      1641    1    0    1
 -2      2773      3063      3073      2783      2774      3064      3074      2784
 -1      1642    1    0    1
 -2      2774      3064      3074      2784      2775      3065      3075      2785
 -1      1643    1    0    1
 -2      2775      3065      3075      2785      2776      3066      3076      2786
 -1      1644    1    0    1
 -2      2776      3066      3076      2786      2777      3067      3077      2787
 -1      1645    1    0    1
 -2      2777      3067      3077      2787      2778      3068      3078      2788
 -1      1646    1    0    1
 -2      2778      3068      3078      2788      2779      3069      3079      2789
 -1      1647    1    0    1
 -2      2779      3069      3079      2789      2780      3070      3080      2790
 -1      1648    1    0    1
 -2      2780      3070      3080      2790      2781      3071      3081      2791
 -1      1649    1    0    1
 -2      2781      3071      3081      2791      2782      3072      3082      2792
 -1      1650    1    0    1
 -2      2782      3072      3082      2792      1799      1828      1829      1800
 -1      1651    1    0    1
 -2       289       318       319       290      2783      3073      3083      2793
 -1      1652    1    0    1
 -2      2783      3073      3083      2793      2784      3074      3084      2794
 -1      1653    1    0    1
 -2      2784      3074      3084      2794      2785      3075      3085      2795
 -1      1654    1    0    1
 -2      2785      3075      3085      2795      2786      3076      3086      2796
 -1      1655    1    0    1
 -2      2786      3076      3086      2796      2787      3077      3087      2797
 -1      1656    1    0    1
 -2      2787      3077      3087      2797      2788      3078      3088      2798
 -1      1657    1    0    1
 -2      2788      3078      3088      2798      2789      3079      3089      2799
 -1      1658    1    0    1
 -2      2789      3079      3089      2799      2790      3080      3090      2800
 -1      1659    1    0    1
 -2      2790      3080      3090      2800      2791      3081      3091      2801
 -1      1660    1    0    1
 -2      2791      3081      3091      2801      2792      3082      3092      2802
 -1      1661    1    0    1
 -2      2792      3082      3092      2802      1800      1829      1830      1801
 -1      1662    1    0    1
 -2       290       319       320       291      2793      3083      3093      2803
 -1      1663    1    0    1
 -2      2793      3083      3093      2803      2794      3084      3094      2804
 -1      1664    1    0    1
 -2      2794      3084      3094      2804      2795      3085      3095      2805
 -1      1665    1    0    1
 -2      2795      3085      3095      2805      2796      3086      3096      2806
 -1      1666    1    0    1
 -2      2796      3086      3096      2806      2797      3087      3097      2807
 -1      1667    1    0    1
 -2      2797      3087      3097      2807      2798      3088      3098      2808
 -1      1668    1    0    1
 -2      2798      3088      3098      2808      2799      3089      3099      2809
 -1      1669    1    0    1
 -2      2799      3089      3099      2809      2800      3090      3100      2810
 -1      1670    1    0    1
 -2      2800      3090      3100      2810      2801      3091      3101      2811
 -1      1671    1    0    1
 -2      2801      3091      3101      2811      2802      3092      3102      2812
 -1      1672    1    0    1
 -2      2802      3092      3102      2812      1801      1830      1831      1802
 -1      1673    1    0    1
 -2       291       320       321       292      2803      3093      3103      2813
 -1      1674    1    0    1
 -2      2803      3093      3103      2813      2804      3094      3104      2814
 -1      1675    1    0    1
 -2      2804      3094      3104      2814      2805      3095      3105      2815
 -1      1676    1    0    1
 -2      2805      3095      3105      2815      2806      3096      3106      2816
 -1      1677    1    0    1
 -2      2806      3096      3106      2816      2807      3097      3107      2817
 -1      1678    1    0    1
 -2      2807      3097      3107      2817      2808      3098      3108      2818
 -1      1679    1    0    1
 -2      2808      3098      3108      2818      2809      3099      3109      2819
 -1      1680    1    0    1
 -2      2809      3099      3109      2819      2810      3100      3110      2820
 -1      1681    1    0    1
 -2      2810      3100      3110      2820      2811      3101      3111      2821
 -1      1682    1    0    1
 -2      2811      3101      3111      2821      2812      3102      3112      2822
 -1      1683    1    0    1
 -2      2812      3102      3112      2822      1802      1831      1832      1803
 -1      1684    1    0    1
 -2       292       321       322       293      2813      3103      3113      2823
 -1      1685    1    0    1
 -2      2813      3103      3113      2823      2814      3104      3114      2824
 -1      1686    1    0    1
 -2      2814      3104      3114      2824      2815      3105      3115      2825
 -1      1687    1    0    1
 -2      2815      3105      3115      2825      2816      3106      3116      2826
 -1      1688    1    0    1
 -2      2816      3106      3116      2826      2817      3107      3117      2827
 -1      1689    1    0    1
 -2      2817      3107      3117      2827      2818      3108      3118      2828
 -1      1690    1    0    1
 -2      2818      3108      3118      2828      2819      3109      3119      2829
 -1      1691    1    0    1
 -2      2819      3109      3119      2829      2820      3110      3120      2830
 -1      1692    1    0    1
 -2      2820      3110      3120      2830      2821      3111      3121      2831
 -1      1693    1    0    1
 -2      2821      3111      3121      2831      2822      3112      3122      2832
 -1      1694    1    0    1
 -2      2822      3112      3122      2832      1803      1832      1833      1804
 -1      1695    1    0    1
 -2       293       322       323       294      2823      3113      3123      2833
 -1      1696    1    0    1
 -2      2823      3113      3123      2833      2824      3114      3124      2834
 -1      1697    1    0    1
 -2      2824      3114      3124      2834      2825      3115      3125      2835
 -1      1698    1    0    1
 -2      2825      3115      3125      2835      2826      3116      3126      2836
 -1      1699    1    0    1
 -2      2826      3116      3126      2836      2827      3117      3127      2837
 -1      1700    1    0    1
 -2      2827      3117      3127      2837      2828      3118      3128      2838
 -1      1701    1    0    1
 -2      2828      3118      3128      2838      2829      3119      3129      2839
 -1      1702    1    0    1
 -2      2829      3119      3129      2839      2830      3120      3130      2840
 -1      1703    1    0    1
 -2      2830      3120      3130      2840      2831      3121      3131      2841
 -1      1704    1    0    1
 -2      2831      3121      3131      2841      2832      3122      3132      2842
 -1      1705    1    0    1
 -2      2832      3122      3132      2842      1804      1833      1834      1805
 -1      1706    1    0    1
 -2       294       323       324       295      2833      3123      3133      2843
 -1      1707    1    0    1
 -2      2833      3123      3133      2843      2834      3124      3134      2844
 -1      1708    1    0    1
 -2      2834      3124      3134      2844      2835      3125      3135      2845
 -1      1709    1    0    1
 -2      2835      3125      3135      2845      2836      3126      3136      2846
 -1      1710    1    0    1
 -2      2836      3126      3136      2846      2837      3127      3137      2847
 -1      1711    1    0    1
 -2      2837      3127      3137      2847      2838      3128      3138      2848
 -1      1712    1    0    1
 -2      2838      3128      3138      2848      2839      3129      3139      2849
 -1      1713    1    0    1
 -2      2839      3129      3139      2849      2840      3130      3140      2850
 -1      1714    1    0    1
 -2      2840      3130      3140      2850      2841      3131      3141      2851
 -1      1715    1    0    1
 -2      2841      3131      3141      2851      2842      3132      3142      2852
 -1      1716    1    0    1
 -2      2842      3132      3142      2852      1805      1834      1835      1806
 -1      1717    1    0    1
 -2       295       324       325       296      2843      3133      3143      2853
 -1      1718    1    0    1
 -2      2843      3133      3143      2853      2844      3134      3144      2854
 -1      1719    1    0    1
 -2      2844      3134      3144      2854      2845      3135      3145      2855
 -1      1720    1    0    1
 -2      2845      3135      3145      2855      2846      3136      3146      2856
 -1      1721    1    0    1
 -2      2846      3136      3146      2856      2847      3137      3147      2857
 -1      1722    1    0    1
 -2      2847      3137      3147      2857      2848      3138      3148      2858
 -1      1723    1    0    1
 -2      2848      3138      3148      2858      2849      3139      3149      2859
 -1      1724    1    0    1
 -2      2849      3139      3149      2859      2850      3140      3150      2860
 -1      1725    1    0    1
 -2      2850      3140      3150      2860      2851      3141      3151      2861
 -1      1726    1    0    1
 -2      2851      3141      3151      2861      2852      3142      3152      2862
 -1      1727    1    0    1
 -2      2852      3142      3152      2862      1806      1835      1836      1807
 -1      1728    1    0    1
 -2       296       325       326       297      2853      3143      3153      2863
 -1      1729    1    0    1
 -2      2853      3143      3153      2863      2854      3144      3154      2864
 -1      1730    1    0    1
 -2      2854      3144      3154      2864      2855      3145      3155      2865
 -1      1731    1    0    1
 -2      2855      3145      3155      2865      2856      3146      3156      2866
 -1      1732    1    0    1
 -2      2856      3146      3156      2866      2857      3147      3157      2867
 -1      1733    1    0    1
 -2      2857      3147      3157      2867      2858      3148      3158      2868
 -1      1734    1    0    1
 -2      2858      3148      3158      2868      2859      3149      3159      2869
 -1      1735    1    0    1
 -2      2859      3149      3159      2869      2860      3150      3160      2870
 -1      1736    1    0    1
 -2      2860      3150      3160      2870      2861      3151      3161      2871
 -1      1737    1    0    1
 -2      2861      3151      3161      2871      2862      3152      3162      2872
 -1      1738    1    0    1
 -2      2862      3152      3162      2872      1807      1836      1837      1808
 -1      1739    1    0    1
 -2       297       326       327       298      2863      3153      3163      2873
 -1      1740    1    0    1
 -2      2863      3153      3163      2873      2864      3154      3164      2874
 -1      1741    1    0    1
 -2      2864      3154      3164      2874      2865      3155      3165      2875
 -1      1742    1    0    1
 -2      2865      3155      3165      2875      2866      3156      3166      2876
 -1      1743    1    0    1
 -2      2866      3156      3166      2876      2867      3157      3167      2877
 -1      1744    1    0    1
 -2      2867      3157      3167      2877      2868      3158      3168      2878
 -1      1745    1    0    1
 -2      2868      3158      3168      2878      2869      3159      3169      2879
 -1      1746    1    0    1
 -2      2869      3159      3169      2879      2870      3160      3170      2880
 -1      1747    1    0    1
 -2      2870      3160      3170      2880      2871      3161      3171      2881
 -1      1748    1    0    1
 -2      2871      3161      3171      2881      2872      3162      3172      2882
 -1      1749    1    0    1
 -2      2872      3162      3172      2882      1808      1837      1838      1809
 -1      1750    1    0    1
 -2       298       327        73        74      2873      3163      1432      1442
 -1      1751    1    0    1
 -2      2873      3163      1432      1442      2874      3164      1433      1443
 -1      1752    1    0    1
 -2      2874      3164      1433      1443      2875      3165      1434      1444
 -1      1753    1    0    1
 -2      2875      3165      1434      1444      2876      3166      1435      1445
 -1      1754    1    0    1
 -2      2876      3166      1435      1445      2877      3167      1436      1446
 -1      1755    1    0    1
 -2      2877      3167      1436      1446      2878      3168      1437      1447
 -1      1756    1    0    1
 -2      2878      3168      1437      1447      2879      3169      1438      1448
 -1      1757    1    0    1
 -2      2879      3169      1438      1448      2880      3170      1439      1449
 -1      1758    1    0    1
 -2      2880      3170      1439      1449      2881      3171      1440      1450
 -1      1759    1    0    1
 -2      2881      3171      1440      1450      2882      3172      1441      1451
 -1      1760    1    0    1
 -2      2882      3172      1441      1451      1809      1838       169       170
 -1      1761    1    0    1
 -2        11        12       328       299       812       822      3173      2883
 -1      1762    1    0    1
 -2       812       822      3173      2883       813       823      3174      2884
 -1      1763    1    0    1
 -2       813       823      3174      2884       814       824      3175      2885
 -1      1764    1    0    1
 -2       814       824      3175      2885       815       825      3176      2886
 -1      1765    1    0    1
 -2       815       825      3176      2886       816       826      3177      2887
 -1      1766    1    0    1
 -2       816       826      3177      2887       817       827      3178      2888
 -1      1767    1    0    1
 -2       817       827      3178      2888       818       828      3179      2889
 -1      1768    1    0    1
 -2       818       828      3179      2889       819       829      3180      2890
 -1      1769    1    0    1
 -2       819       829      3180      2890       820       830      3181      2891
 -1      1770    1    0    1
 -2       820       830      3181      2891       821       831      3182      2892
 -1      1771    1    0    1
 -2       821       831      3182      2892       107       108      1839      1810
 -1      1772    1    0    1
 -2       299       328       329       300      2883      3173      3183      2893
 -1      1773    1    0    1
 -2      2883      3173      3183      2893      2884      3174      3184      2894
 -1      1774    1    0    1
 -2      2884      3174      3184      2894      2885      3175      3185      2895
 -1      1775    1    0    1
 -2      2885      3175      3185      2895      2886      3176      3186      2896
 -1      1776    1    0    1
 -2      2886      3176      3186      2896      2887      3177      3187      2897
 -1      1777    1    0    1
 -2      2887      3177      3187      2897      2888      3178      3188      2898
 -1      1778    1    0    1
 -2      2888      3178      3188      2898      2889      3179      3189      2899
 -1      1779    1    0    1
 -2      2889      3179      3189      2899      2890      3180      3190      2900
 -1      1780    1    0    1
 -2      2890      3180      3190      2900      2891      3181      3191      2901
 -1      1781    1    0    1
 -2      2891      3181      3191      2901      2892      3182      3192      2902
 -1      1782    1    0    1
 -2      2892      3182      3192      2902      1810      1839      1840      1811
 -1      1783    1    0    1
 -2       300       329       330       301      2893      3183      3193      2903
 -1      1784    1    0    1
 -2      2893      3183      3193      2903      2894      3184      3194      2904
 -1      1785    1    0    1
 -2      2894      3184      3194      2904      2895      3185      3195      2905
 -1      1786    1    0    1
 -2      2895      3185      3195      2905      2896      3186      3196      2906
 -1      1787    1    0    1
 -2      2896      3186      3196      2906      2897      3187      3197      2907
 -1      1788    1    0    1
 -2      2897      3187      3197      2907      2898      3188      3198      2908
 -1      1789    1    0    1
 -2      2898      3188      3198      2908      2899      3189      3199      2909
 -1      1790    1    0    1
 -2      2899      3189      3199      2909      2900      3190      3200      2910
 -1      1791    1    0    1
 -2      2900      3190      3200      2910      2901      3191      3201      2911
 -1      1792    1    0    1
 -2      2901      3191      3201      2911      2902      3192      3202      2912
 -1      1793    1    0    1
 -2      2902      3192      3202      2912      1811      1840      1841      1812
 -1      1794    1    0    1
 -2       301       330       331       302      2903      3193      3203      2913
 -1      1795    1    0    1
 -2      2903      3193      3203      2913      2904      3194      3204      2914
 -1      1796    1    0    1
 -2      2904      3194      3204      2914      2905      3195      3205      2915
 -1      1797    1    0    1
 -2      2905      3195      3205      2915      2906      3196      3206      2916
 -1      1798    1    0    1
 -2      2906      3196      3206      2916      2907      3197      3207      2917
 -1      1799    1    0    1
 -2      2907      3197      3207      2917      2908      3198      3208      2918
 -1      1800    1    0    1
 -2      2908      3198      3208      2918      2909      3199      3209      2919
 -1      1801    1    0    1
 -2      2909      3199      3209      2919      2910      3200      3210      2920
 -1      1802    1    0    1
 -2      2910      3200      3210      2920      2911      3201      3211      2921
 -1      1803    1    0    1
 -2      2911      3201      3211      2921      2912      3202      3212      2922
 -1      1804    1    0    1
 -2      2912      3202      3212      2922      1812      1841      1842      1813
 -1      1805    1    0    1
 -2       302       331       332       303      2913      3203      3213      2923
 -1      1806    1    0    1
 -2      2913      3203      3213      2923      2914      3204      3214      2924
 -1      1807    1    0    1
 -2      2914      3204      3214      2924      2915      3205      3215      2925
 -1      1808    1    0    1
 -2      2915      3205      3215      2925      2916      3206      3216      2926
 -1      1809    1    0    1
 -2      2916      3206      3216      2926      2917      3207      3217      2927
 -1      1810    1    0    1
 -2      2917      3207      3217      2927      2918      3208      3218      2928
 -1      1811    1    0    1
 -2      2918      3208      3218      2928      2919      3209      3219      2929
 -1      1812    1    0    1
 -2      2919      3209      3219      2929      2920      3210      3220      2930
 -1      1813    1    0    1
 -2      2920      3210      3220      2930      2921      3211      3221      2931
 -1      1814    1    0    1
 -2      2921      3211      3221      2931      2922      3212      3222      2932
 -1      1815    1    0    1
 -2      2922      3212      3222      2932      1813      1842      1843      1814
 -1      1816    1    0    1
 -2       303       332       333       304      2923      3213      3223      2933
 -1      1817    1    0    1
 -2      2923      3213      3223      2933      2924      3214      3224      2934
 -1      1818    1    0    1
 -2      2924      3214      3224      2934      2925      3215      3225      2935
 -1      1819    1    0    1
 -2      2925      3215      3225      2935      2926      3216      3226      2936
 -1      1820    1    0    1
 -2      2926      3216      3226      2936      2927      3217      3227      2937
 -1      1821    1    0    1
 -2      2927      3217      3227      2937      2928      3218      3228      2938
 -1      1822    1    0    1
 -2      2928      3218      3228      2938      2929      3219      3229      2939
 -1      1823    1    0    1
 -2      2929      3219      3229      2939      2930      3220      3230      2940
 -1      1824    1    0    1
 -2      2930      3220      3230      2940      2931      3221      3231      2941
 -1      1825    1    0    1
 -2      2931      3221      3231      2941      2932      3222      3232      2942
 -1      1826    1    0    1
 -2      2932      3222      3232      2942      1814      1843      1844      1815
 -1      1827    1    0    1
 -2       304       333       334       305      2933      3223      3233      2943
 -1      1828    1    0    1
 -2      2933      3223      3233      2943      2934      3224      3234      2944
 -1      1829    1    0    1
 -2      2934      3224      3234      2944      2935      3225      3235      2945
 -1      1830    1    0    1
 -2      2935      3225      3235      2945      2936      3226      3236      2946
 -1      1831    1    0    1
 -2      2936      3226      3236      2946      2937      3227      3237      2947
 -1      1832    1    0    1
 -2      2937      3227      3237      2947      2938      3228      3238      2948
 -1      1833    1    0    1
 -2      2938      3228      3238      2948      2939      3229      3239      2949
 -1      1834    1    0    1
 -2      2939      3229      3239      2949      2940      3230      3240      2950
 -1      1835    1    0    1
 -2      2940      3230      3240      2950      2941      3231      3241      2951
 -1      1836    1    0    1
 -2      2941      3231      3241      2951      2942      3232      3242      2952
 -1      1837    1    0    1
 -2      2942      3232      3242      2952      1815      1844      1845      1816
 -1      1838    1    0    1
 -2       305       334       335       306      2943      3233      3243      2953
 -1      1839    1    0    1
 -2      2943      3233      3243      2953      2944      3234      3244      2954
 -1      1840    1    0    1
 -2      2944      3234      3244      2954      2945      3235      3245      2955
 -1      1841    1    0    1
 -2      2945      3235      3245      2955      2946      3236      3246      2956
 -1      1842    1    0    1
 -2      2946      3236      3246      2956      2947      3237      3247      2957
 -1      1843    1    0    1
 -2      2947      3237      3247      2957      2948      3238      3248      2958
 -1      1844    1    0    1
 -2      2948      3238      3248      2958      2949      3239      3249      2959
 -1      1845    1    0    1
 -2      2949      3239      3249      2959      2950      3240      3250      2960
 -1      1846    1    0    1
 -2      2950      3240      3250      2960      2951      3241      3251      2961
 -1      1847    1    0    1
 -2      2951      3241      3251      2961      2952      3242      3252      2962
 -1      1848    1    0    1
 -2      2952      3242      3252      2962      1816      1845      1846      1817
 -1      1849    1    0    1
 -2       306       335       336       307      2953      3243      3253      2963
 -1      1850    1    0    1
 -2      2953      3243      3253      2963      2954      3244      3254      2964
 -1      1851    1    0    1
 -2      2954      3244      3254      2964      2955      3245      3255      2965
 -1      1852    1    0    1
 -2      2955      3245      3255      2965      2956      3246      3256      2966
 -1      1853    1    0    1
 -2      2956      3246      3256      2966      2957      3247      3257      2967
 -1      1854    1    0    1
 -2      2957      3247      3257      2967      2958      3248      3258      2968
 -1      1855    1    0    1
 -2      2958      3248      3258      2968      2959      3249      3259      2969
 -1      1856    1    0    1
 -2      2959      3249      3259      2969      2960      3250      3260      2970
 -1      1857    1    0    1
 -2      2960      3250      3260      2970      2961      3251      3261      2971
 -1      1858    1    0    1
 -2      2961      3251      3261      2971      2962      3252      3262      2972
 -1      1859    1    0    1
 -2      2962      3252      3262      2972      1817      1846      1847      1818
 -1      1860    1    0    1
 -2       307       336       337       308      2963      3253      3263      2973
 -1      1861    1    0    1
 -2      2963      3253      3263      2973      2964      3254      3264      2974
 -1      1862    1    0    1
 -2      2964      3254      3264      2974      2965      3255      3265      2975
 -1      1863    1    0    1
 -2      2965      3255      3265      2975      2966      3256      3266      2976
 -1      1864    1    0    1
 -2      2966      3256      3266      2976      2967      3257      3267      2977
 -1      1865    1    0    1
 -2      2967      3257      3267      2977      2968      3258      3268      2978
 -1      1866    1    0    1
 -2      2968      3258      3268      2978      2969      3259      3269      2979
 -1      1867    1    0    1
 -2      2969      3259      3269      2979      2970      3260      3270      2980
 -1      1868    1    0    1
 -2      2970      3260      3270      2980      2971      3261      3271      2981
 -1      1869    1    0    1
 -2      2971      3261      3271      2981      2972      3262      3272      2982
 -1      1870    1    0    1
 -2      2972      3262      3272      2982      1818      1847      1848      1819
 -1      1871    1    0    1
 -2       308       337       338       309      2973      3263      3273      2983
 -1      1872    1    0    1
 -2      2973      3263      3273      2983      2974      3264      3274      2984
 -1      1873    1    0    1
 -2      2974      3264      3274      2984      2975      3265      3275      2985
 -1      1874    1    0    1
 -2      2975      3265      3275      2985      2976      3266      3276      2986
 -1      1875    1    0    1
 -2      2976      3266      3276      2986      2977      3267      3277      2987
 -1      1876    1    0    1
 -2      2977      3267      3277      2987      2978      3268      3278      2988
 -1      1877    1    0    1
 -2      2978      3268      3278      2988      2979      3269      3279      2989
 -1      1878    1    0    1
 -2      2979      3269      3279      2989      2980      3270      3280      2990
 -1      1879    1    0    1
 -2      2980      3270      3280      2990      2981      3271      3281      2991
 -1      1880    1    0    1
 -2      2981      3271      3281      2991      2982      3272      3282      2992
 -1      1881    1    0    1
 -2      2982      3272      3282      2992      1819      1848      1849      1820
 -1      1882    1    0    1
 -2       309       338       339       310      2983      3273      3283      2993
 -1      1883    1    0    1
 -2      2983      3273      3283      2993      2984      3274      3284      2994
 -1      1884    1    0    1
 -2      2984      3274      3284      2994      2985      3275      3285      2995
 -1      1885    1    0    1
 -2      2985      3275      3285      2995      2986      3276      3286      2996
 -1      1886    1    0    1
 -2      2986      3276      3286      2996      2987      3277      3287      2997
 -1      1887    1    0    1
 -2      2987      3277      3287      2997      2988      3278      3288      2998
 -1      1888    1    0    1
 -2      2988      3278      3288      2998      2989      3279      3289      2999
 -1      1889    1    0    1
 -2      2989      3279      3289      2999      2990      3280      3290      3000
 -1      1890    1    0    1
 -2      2990      3280      3290      3000      2991      3281      3291      3001
 -1      1891    1    0    1
 -2      2991      3281      3291      3001      2992      3282      3292      3002
 -1      1892    1    0    1
 -2      2992      3282      3292      3002      1820      1849      1850      1821
 -1      1893    1    0    1
 -2       310       339       340       311      2993      3283      3293      3003
 -1      1894    1    0    1
 -2      2993      3283      3293      3003      2994      3284      3294      3004
 -1      1895    1    0    1
 -2      2994      3284      3294      3004      2995      3285      3295      3005
 -1      1896    1    0    1
 -2      2995      3285      3295      3005      2996      3286      3296      3006
 -1      1897    1    0    1
 -2      2996      3286      3296      3006      2997      3287      3297      3007
 -1      1898    1    0    1
 -2      2997      3287      3297      3007      2998      3288      3298      3008
 -1      1899    1    0    1
 -2      2998      3288      3298      3008      2999      3289      3299      3009
 -1      1900    1    0    1
 -2      2999      3289      3299      3009      3000      3290      3300      3010
 -1      1901    1    0    1
 -2      3000      3290      3300      3010      3001      3291      3301      3011
 -1      1902    1    0    1
 -2      3001      3291      3301      3011      3002      3292      3302      3012
 -1      1903    1    0    1
 -2      3002      3292      3302      3012      1821      1850      1851      1822
 -1      1904    1    0    1
 -2       311       340       341       312      3003      3293      3303      3013
 -1      1905    1    0    1
 -2      3003      3293      3303      3013      3004      3294      3304      3014
 -1      1906    1    0    1
 -2      3004      3294      3304      3014      3005      3295      3305      3015
 -1      1907    1    0    1
 -2      3005      3295      3305      3015      3006      3296      3306      3016
 -1      1908    1    0    1
 -2      3006      3296      3306      3016      3007      3297      3307      3017
 -1      1909    1    0    1
 -2      3007      3297      3307      3017      3008      3298      3308      3018
 -1      1910    1    0    1
 -2      3008      3298      3308      3018      3009      3299      3309      3019
 -1      1911    1    0    1
 -2      3009      3299      3309      3019      3010      3300      3310      3020
 -1      1912    1    0    1
 -2      3010      3300      3310      3020      3011      3301      3311      3021
 -1      1913    1    0    1
 -2      3011      3301      3311      3021      3012      3302      3312      3022
 -1      1914    1    0    1
 -2      3012      3302      3312      3022      1822      1851      1852      1823
 -1      1915    1    0    1
 -2       312       341       342       313      3013      3303      3313      3023
 -1      1916    1    0    1
 -2      3013      3303      3313      3023      3014      3304      3314      3024
 -1      1917    1    0    1
 -2      3014      3304      3314      3024      3015      3305      3315      3025
 -1      1918    1    0    1
 -2      3015      3305      3315      3025      3016      3306      3316      3026
 -1      1919    1    0    1
 -2      3016      3306      3316      3026      3017      3307      3317      3027
 -1      1920    1    0    1
 -2      3017      3307      3317      3027      3018      3308      3318      3028
 -1      1921    1    0    1
 -2      3018      3308      3318      3028      3019      3309      3319      3029
 -1      1922    1    0    1
 -2      3019      3309      3319      3029      3020      3310      3320      3030
 -1      1923    1    0    1
 -2      3020      3310      3320      3030      3021      3311      3321      3031
 -1      1924    1    0    1
 -2      3021      3311      3321      3031      3022      3312      3322      3032
 -1      1925    1    0    1
 -2      3022      3312      3322      3032      1823      1852      1853      1824
 -1      1926    1    0    1
 -2       313       342       343       314      3023      3313      3323      3033
 -1      1927    1    0    1
 -2      3023      3313      3323      3033      3024      3314      3324      3034
 -1      1928    1    0    1
 -2      3024      3314      3324      3034      3025      3315      3325      3035
 -1      1929    1    0    1
 -2      3025      3315      3325      3035      3026      3316      3326      3036
 -1      1930    1    0    1
 -2      3026      3316      3326      3036      3027      3317      3327      3037
 -1      1931    1    0    1
 -2      3027      3317      3327      3037      3028      3318      3328      3038
 -1      1932    1    0    1
 -2      3028      3318      3328      3038      3029      3319      3329      3039
 -1      1933    1    0    1
 -2      3029      3319      3329      3039      3030      3320      3330      3040
 -1      1934    1    0    1
 -2      3030      3320      3330      3040      3031      3321      3331      3041
 -1      1935    1    0    1
 -2      3031      3321      3331      3041      3032      3322      3332      3042
 -1      1936    1    0    1
 -2      3032      3322      3332      3042      1824      1853      1854      1825
 -1      1937    1    0    1
 -2       314       343       344       315      3033      3323      3333      3043
 -1      1938    1    0    1
 -2      3033      3323      3333      3043      3034      3324      3334      3044
 -1      1939    1    0    1
 -2      3034      3324      3334      3044      3035      3325      3335      3045
 -1      1940    1    0    1
 -2      3035      3325      3335      3045      3036      3326      3336      3046
 -1      1941    1    0    1
 -2      3036      3326      3336      3046      3037      3327      3337      3047
 -1      1942    1    0    1
 -2      3037      3327      3337      3047      3038      3328      3338      3048
 -1      1943    1    0    1
 -2      3038      3328      3338      3048      3039      3329      3339      3049
 -1      1944    1    0    1
 -2      3039      3329      3339      3049      3040      3330      3340      3050
 -1      1945    1    0    1
 -2      3040      3330      3340      3050      3041      3331      3341      3051
 -1      1946    1    0    1
 -2      3041      3331      3341      3051      3042      3332      3342      3052
 -1      1947    1    0    1
 -2      3042      3332      3342      3052      1825      1854      1855      1826
 -1      1948    1    0    1
 -2       315       344       345       316      3043      3333      3343      3053
 -1      1949    1    0    1
 -2      3043      3333      3343      3053      3044      3334      3344      3054
 -1      1950    1    0    1
 -2      3044      3334      3344      3054      3045      3335      3345      3055
 -1      1951    1    0    1
 -2      3045      3335      3345      3055      3046      3336      3346      3056
 -1      1952    1    0    1
 -2      3046      3336      3346      3056      3047      3337      3347      3057
 -1      1953    1    0    1
 -2      3047      3337      3347      3057      3048      3338      3348      3058
 -1      1954    1    0    1
 -2      3048      3338      3348      3058      3049      3339      3349      3059
 -1      1955    1    0    1
 -2      3049      3339      3349      3059      3050      3340      3350      3060
 -1      1956    1    0    1
 -2      3050      3340      3350      3060      3051      3341      3351      3061
 -1      1957    1    0    1
 -2      3051      3341      3351      3061      3052      3342      3352      3062
 -1      1958    1    0    1
 -2      3052      3342      3352      3062      1826      1855      1856      1827
 -1      1959    1    0    1
 -2       316       345       346       317      3053      3343      3353      3063
 -1      1960    1    0    1
 -2      3053      3343      3353      3063      3054      3344      3354      3064
 -1      1961    1    0    1
 -2      3054      3344      3354      3064      3055      3345      3355      3065
 -1      1962    1    0    1
 -2      3055      3345      3355      3065      3056      3346      3356      3066
 -1      1963    1    0    1
 -2      3056      3346      3356      3066      3057      3347      3357      3067
 -1      1964    1    0    1
 -2      3057      3347      3357      3067      3058      3348      3358      3068
 -1      1965    1    0    1
 -2      3058      3348      3358      3068      3059      3349      3359      3069
 -1      1966    1    0    1
 -2      3059      3349      3359      3069      3060      3350      3360      3070
 -1      1967    1    0    1
 -2      3060      3350      3360      3070      3061      3351      3361      3071
 -1      1968    1    0    1
 -2      3061      3351      3361      3071      3062      3352      3362      3072
 -1      1969    1    0    1
 -2      3062      3352      3362      3072      1827      1856      1857      1828
 -1      1970    1    0    1
 -2       317       346       347       318      3063      3353      3363      3073
 -1      1971    1    0    1
 -2      3063      3353      3363      3073      3064      3354      3364      3074
 -1      1972    1    0    1
 -2      3064      3354      3364      3074      3065      3355      3365      3075
 -1      1973    1    0    1
 -2      3065      3355      3365      3075      3066      3356      3366      3076
 -1      1974    1    0    1
 -2      3066      3356      3366      3076      3067      3357      3367      3077
 -1      1975    1    0    1
 -2      3067      3357      3367      3077      3068      3358      3368      3078
 -1      1976    1    0    1
 -2      3068      3358      3368      3078      3069      3359      3369      3079
 -1      1977    1    0    1
 -2      3069      3359      3369      3079      3070      3360      3370      3080
 -1      1978    1    0    1
 -2      3070      3360      3370      3080      3071      3361      3371      3081
 -1      1979    1    0    1
 -2      3071      3361      3371      3081      3072      3362      3372      3082
 -1      1980    1    0    1
 -2      3072      3362      3372      3082      1828      1857      1858      1829
 -1      1981    1    0    1
 -2       318       347       348       319      3073      3363      3373      3083
 -1      1982    1    0    1
 -2      3073      3363      3373      3083      3074      3364      3374      3084
 -1      1983    1    0    1
 -2      3074      3364      3374      3084      3075      3365      3375      3085
 -1      1984    1    0    1
 -2      3075      3365      3375      3085      3076      3366      3376      3086
 -1      1985    1    0    1
 -2      3076      3366      3376      3086      3077      3367      3377      3087
 -1      1986    1    0    1
 -2      3077      3367      3377      3087      3078      3368      3378      3088
 -1      1987    1    0    1
 -2      3078      3368      3378      3088      3079      3369      3379      3089
 -1      1988    1    0    1
 -2      3079      3369      3379      3089      3080      3370      3380      3090
 -1      1989    1    0    1
 -2      3080      3370      3380      3090      3081      3371      3381      3091
 -1      1990    1    0    1
 -2      3081      3371      3381      3091      3082      3372      3382      3092
 -1      1991    1    0    1
 -2      3082      3372      3382      3092      1829      1858      1859      1830
 -1      1992    1    0    1
 -2       319       348       349       320      3083      3373      3383      3093
 -1      1993    1    0    1
 -2      3083      3373      3383      3093      3084      3374      3384      3094
 -1      1994    1    0    1
 -2      3084      3374      3384      3094      3085      3375      3385      3095
 -1      1995    1    0    1
 -2      3085      3375      3385      3095      3086      3376      3386      3096
 -1      1996    1    0    1
 -2      3086      3376      3386      3096      3087      3377      3387      3097
 -1      1997    1    0    1
 -2      3087      3377      3387      3097      3088      3378      3388      3098
 -1      1998    1    0    1
 -2      3088      3378      3388      3098      3089      3379      3389      3099
 -1      1999    1    0    1
 -2      3089      3379      3389      3099      3090      3380      3390      3100
 -1      2000    1    0    1
 -2      3090      3380      3390      3100      3091      3381      3391      3101
 -1      2001    1    0    1
 -2      3091      3381      3391      3101      3092      3382      3392      3102
 -1      2002    1    0    1
 -2      3092      3382      3392      3102      1830      1859      1860      1831
 -1      2003    1    0    1
 -2       320       349       350       321      3093      3383      3393      3103
 -1      2004    1    0    1
 -2      3093      3383      3393      3103      3094      3384      3394      3104
 -1      2005    1    0    1
 -2      3094      3384      3394      3104      3095      3385      3395      3105
 -1      2006    1    0    1
 -2      3095      3385      3395      3105      3096      3386      3396      3106
 -1      2007    1    0    1
 -2      3096      3386      3396      3106      3097      3387      3397      3107
 -1      2008    1    0    1
 -2      3097      3387      3397      3107      3098      3388      3398      3108
 -1      2009    1    0    1
 -2      3098      3388      3398      3108      3099      3389      3399      3109
 -1      2010    1    0    1
 -2      3099      3389      3399      3109      3100      3390      3400      3110
 -1      2011    1    0    1
 -2      3100      3390      3400      3110      3101      3391      3401      3111
 -1      2012    1    0    1
 -2      3101      3391      3401      3111      3102      3392      3402      3112
 -1      2013    1    0    1
 -2      3102      3392      3402      3112      1831      1860      1861      1832
 -1      2014    1    0    1
 -2       321       350       351       322      3103      3393      3403      3113
 -1      2015    1    0    1
 -2      3103      3393      3403      3113      3104      3394      3404      3114
 -1      2016    1    0    1
 -2      3104      3394      3404      3114      3105      3395      3405      3115
 -1      2017    1    0    1
 -2      3105      3395      3405      3115      3106      3396      3406      3116
 -1      2018    1    0    1
 -2      3106      3396      3406      3116      3107      3397      3407      3117
 -1      2019    1    0    1
 -2      3107      3397      3407      3117      3108      3398      3408      3118
 -1      2020    1    0    1
 -2      3108      3398      3408      3118      3109      3399      3409      3119
 -1      2021    1    0    1
 -2      3109      3399      3409      3119      3110      3400      3410      3120
 -1      2022    1    0    1
 -2      3110      3400      3410      3120      3111      3401      3411      3121
 -1      2023    1    0    1
 -2      3111      3401      3411      3121      3112      3402      3412      3122
 -1      2024    1    0    1
 -2      3112      3402      3412      3122      1832      1861      1862      1833
 -1      2025    1    0    1
 -2       322       351       352       323      3113      3403      3413      3123
 -1      2026    1    0    1
 -2      3113      3403      3413      3123      3114      3404      3414      3124
 -1      2027    1    0    1
 -2      3114      3404      3414      3124      3115      3405      3415      3125
 -1      2028    1    0    1
 -2      3115      3405      3415      3125      3116      3406      3416      3126
 -1      2029    1    0    1
 -2      3116      3406      3416      3126      3117      3407      3417      3127
 -1      2030    1    0    1
 -2      3117      3407      3417      3127      3118      3408      3418      3128
 -1      2031    1    0    1
 -2      3118      3408      3418      3128      3119      3409      3419      3129
 -1      2032    1    0    1
 -2      3119      3409      3419      3129      3120      3410      3420      3130
 -1      2033    1    0    1
 -2      3120      3410      3420      3130      3121      3411      3421      3131
 -1      2034    1    0    1
 -2      3121      3411      3421      3131      3122      3412      3422      3132
 -1      2035    1    0    1
 -2      3122      3412      3422      3132      1833      1862      1863      1834
 -1      2036    1    0    1
 -2       323       352       353       324      3123      3413      3423      3133
 -1      2037    1    0    1
 -2      3123      3413      3423      3133      3124      3414      3424      3134
 -1      2038    1    0    1
 -2      3124      3414      3424      3134      3125      3415      3425      3135
 -1      2039    1    0    1
 -2      3125      3415      3425      3135      3126      3416      3426      3136
 -1      2040    1    0    1
 -2      3126      3416      3426      3136      3127      3417      3427      3137
 -1      2041    1    0    1
 -2      3127      3417      3427      3137      3128      3418      3428      3138
 -1      2042    1    0    1
 -2      3128      3418      3428      3138      3129      3419      3429      3139
 -1      2043    1    0    1
 -2      3129      3419      3429      3139      3130      3420      3430      3140
 -1      2044    1    0    1
 -2      3130      3420      3430      3140      3131      3421      3431      3141
 -1      2045    1    0    1
 -2      3131      3421      3431      3141      3132      3422      3432      3142
 -1      2046    1    0    1
 -2      3132      3422      3432      3142      1834      1863      1864      1835
 -1      2047    1    0    1
 -2       324       353       354       325      3133      3423      3433      3143
 -1      2048    1    0    1
 -2      3133      3423      3433      3143      3134      3424      3434      3144
 -1      2049    1    0    1
 -2      3134      3424      3434      3144      3135      3425      3435      3145
 -1      2050    1    0    1
 -2      3135      3425      3435      3145      3136      3426      3436      3146
 -1      2051    1    0    1
 -2      3136      3426      3436      3146      3137      3427      3437      3147
 -1      2052    1    0    1
 -2      3137      3427      3437      3147      3138      3428      3438      3148
 -1      2053    1    0    1
 -2      3138      3428      3438      3148      3139      3429      3439      3149
 -1      2054    1    0    1
 -2      3139      3429      3439      3149      3140      3430      3440      3150
 -1      2055    1    0    1
 -2      3140      3430      3440      3150      3141      3431      3441      3151
 -1      2056    1    0    1
 -2      3141      3431      3441      3151      3142      3432      3442      3152
 -1      2057    1    0    1
 -2      3142      3432      3442      3152      1835      1864      1865      1836
 -1      2058    1    0    1
 -2       325       354       355       326      3143      3433      3443      3153
 -1      2059    1    0    1
 -2      3143      3433      3443      3153      3144      3434      3444      3154
 -1      2060    1    0    1
 -2      3144      3434      3444      3154      3145      3435      3445      3155
 -1      2061    1    0    1
 -2      3145      3435      3445      3155      3146      3436      3446      3156
 -1      2062    1    0    1
 -2      3146      3436      3446      3156      3147      3437      3447      3157
 -1      2063    1    0    1
 -2      3147      3437      3447      3157      3148      3438      3448      3158
 -1      2064    1    0    1
 -2      3148      3438      3448      3158      3149      3439      3449      3159
 -1      2065    1    0    1
 -2      3149      3439      3449      3159      3150      3440      3450      3160
 -1      2066    1    0    1
 -2      3150      3440      3450      3160      3151      3441      3451      3161
 -1      2067    1    0    1
 -2      3151      3441      3451      3161      3152      3442      3452      3162
 -1      2068    1    0    1
 -2      3152      3442      3452      3162      1836      1865      1866      1837
 -1      2069    1    0    1
 -2       326       355       356       327      3153      3443      3453      3163
 -1      2070    1    0    1
 -2      3153      3443      3453      3163      3154      3444      3454      3164
 -1      2071    1    0    1
 -2      3154      3444      3454      3164      3155      3445      3455      3165
 -1      2072    1    0    1
 -2      3155      3445      3455      3165      3156      3446      3456      3166
 -1      2073    1    0    1
 -2      3156      3446      3456      3166      3157      3447      3457      3167
 -1      2074    1    0    1
 -2      3157      3447      3457      3167      3158      3448      3458      3168
 -1      2075    1    0    1
 -2      3158      3448      3458      3168      3159      3449      3459      3169
 -1      2076    1    0    1
 -2      3159      3449      3459      3169      3160      3450      3460      3170
 -1      2077    1    0    1
 -2      3160      3450      3460      3170      3161      3451      3461      3171
 -1      2078    1    0    1
 -2      3161      3451      3461      3171      3162      3452      3462      3172
 -1      2079    1    0    1
 -2      3162      3452      3462      3172      1837      1866      1867      1838
 -1      2080    1    0    1
 -2       327       356        72        73      3163      3453      1422      1432
 -1      2081    1    0    1
 -2      3163      3453      1422      1432      3164      3454      1423      1433
 -1      2082    1    0    1
 -2      3164      3454      1423      1433      3165      3455      1424      1434
 -1      2083    1    0    1
 -2      3165      3455      1424      1434      3166      3456      1425      1435
 -1      2084    1    0    1
 -2      3166      3456      1425      1435      3167      3457      1426      1436
 -1      2085    1    0    1
 -2      3167      3457      1426      1436      3168      3458      1427      1437
 -1      2086    1    0    1
 -2      3168      3458      1427      1437      3169      3459      1428      1438
 -1      2087    1    0    1
 -2      3169      3459      1428      1438      3170      3460      1429      1439
 -1      2088    1    0    1
 -2      3170      3460      1429      1439      3171      3461      1430      1440
 -1      2089    1    0    1
 -2      3171      3461      1430      1440      3172      3462      1431      1441
 -1      2090    1    0    1
 -2      3172      3462      1431      1441      1838      1867       168       169
 -1      2091    1    0    1
 -2        12        13       357       328       822       832      3463      3173
 -1      2092    1    0    1
 -2       822       832      3463      3173       823       833      3464      3174
 -1      2093    1    0    1
 -2       823       833      3464      3174       824       834      3465      3175
 -1      2094    1    0    1
 -2       824       834      3465      3175       825       835      3466      3176
 -1      2095    1    0    1
 -2       825       835      3466      3176       826       836      3467      3177
 -1      2096    1    0    1
 -2       826       836      3467      3177       827       837      3468      3178
 -1      2097    1    0    1
 -2       827       837      3468      3178       828       838      3469      3179
 -1      2098    1    0    1
 -2       828       838      3469      3179       829       839      3470      3180
 -1      2099    1    0    1
 -2       829       839      3470      3180       830       840      3471      3181
 -1      2100    1    0    1
 -2       830       840      3471      3181       831       841      3472      3182
 -1      2101    1    0    1
 -2       831       841      3472      3182       108       109      1868      1839
 -1      2102    1    0    1
 -2       328       357       358       329      3173      3463      3473      3183
 -1      2103    1    0    1
 -2      3173      3463      3473      3183      3174      3464      3474      3184
 -1      2104    1    0    1
 -2      3174      3464      3474      3184      3175      3465      3475      3185
 -1      2105    1    0    1
 -2      3175      3465      3475      3185      3176      3466      3476      3186
 -1      2106    1    0    1
 -2      3176      3466      3476      3186      3177      3467      3477      3187
 -1      2107    1    0    1
 -2      3177      3467      3477      3187      3178      3468      3478      3188
 -1      2108    1    0    1
 -2      3178      3468      3478      3188      3179      3469      3479      3189
 -1      2109    1    0    1
 -2      3179      3469      3479      3189      3180      3470      3480      3190
 -1      2110    1    0    1
 -2      3180      3470      3480      3190      3181      3471      3481      3191
 -1      2111    1    0    1
 -2      3181      3471      3481      3191      3182      3472      3482      3192
 -1      2112    1    0    1
 -2      3182      3472      3482      3192      1839      1868      1869      1840
 -1      2113    1    0    1
 -2       329       358       359       330      3183      3473      3483      3193
 -1      2114    1    0    1
 -2      3183      3473      3483      3193      3184      3474      3484      3194
 -1      2115    1    0    1
 -2      3184      3474      3484      3194      3185      3475      3485      3195
 -1      2116    1    0    1
 -2      3185      3475      3485      3195      3186      3476      3486      3196
 -1      2117    1    0    1
 -2      3186      3476      3486      3196      3187      3477      3487      3197
 -1      2118    1    0    1
 -2      3187      3477      3487      3197      3188      3478      3488      3198
 -1      2119    1    0    1
 -2      3188      3478      3488      3198      3189      3479      3489      3199
 -1      2120    1    0    1
 -2      3189      3479      3489      3199      3190      3480      3490      3200
 -1      2121    1    0    1
 -2      3190      3480      3490      3200      3191      3481      3491      3201
 -1      2122    1    0    1
 -2      3191      3481      3491      3201      3192      3482      3492      3202
 -1      2123    1    0    1
 -2      3192      3482      3492      3202      1840      1869      1870      1841
 -1      2124    1    0    1
 -2       330       359       360       331      3193      3483      3493      3203
 -1      2125    1    0    1
 -2      3193      3483      3493      3203      3194      3484      3494      3204
 -1      2126    1    0    1
 -2      3194      3484      3494      3204      3195      3485      3495      3205
 -1      2127    1    0    1
 -2      3195      3485      3495      3205      3196      3486      3496      3206
 -1      2128    1    0    1
 -2      3196      3486      3496      3206      3197      3487      3497      3207
 -1      2129    1    0    1
 -2      3197      3487      3497      3207      3198      3488      3498      3208
 -1      2130    1    0    1
 -2      3198      3488      3498      3208      3199      3489      3499      3209
 -1      2131    1    0    1
 -2      3199      3489      3499      3209      3200      3490      3500      3210
 -1      2132    1    0    1
 -2      3200      3490      3500      3210      3201      3491      3501      3211
 -1      2133    1    0    1
 -2      3201      3491      3501      3211      3202      3492      3502      3212
 -1      2134    1    0    1
 -2      3202      3492      3502      3212      1841      1870      1871      1842
 -1      2135    1    0    1
 -2       331       360       361       332      3203      3493      3503      3213
 -1      2136    1    0    1
 -2      3203      3493      3503      3213      3204      3494      3504      3214
 -1      2137    1    0    1
 -2      3204      3494      3504      3214      3205      3495      3505      3215
 -1      2138    1    0    1
 -2      3205      3495      3505      3215      3206      3496      3506      3216
 -1      2139    1    0    1
 -2      3206      3496      3506      3216      3207      3497      3507      3217
 -1      2140    1    0    1
 -2      3207      3497      3507      3217      3208      3498      3508      3218
 -1      2141    1    0    1
 -2      3208      3498      3508      3218      3209      3499      3509      3219
 -1      2142    1    0    1
 -2      3209      3499      3509      3219      3210      3500      3510      3220
 -1      2143    1    0    1
 -2      3210      3500      3510      3220      3211      3501      3511      3221
 -1      2144    1    0    1
 -2      3211      3501      3511      3221      3212      3502      3512      3222
 -1      2145    1    0    1
 -2      3212      3502      3512      3222      1842      1871      1872      1843
 -1      2146    1    0    1
 -2       332       361       362       333      3213      3503      3513      3223
 -1      2147    1    0    1
 -2      3213      3503      3513      3223      3214      3504      3514      3224
 -1      2148    1    0    1
 -2      3214      3504      3514      3224      3215      3505      3515      3225
 -1      2149    1    0    1
 -2      3215      3505      3515      3225      3216      3506      3516      3226
 -1      2150    1    0    1
 -2      3216      3506      3516      3226      3217      3507      3517      3227
 -1      2151    1    0    1
 -2      3217      3507      3517      3227      3218      3508      3518      3228
 -1      2152    1    0    1
 -2      3218      3508      3518      3228      3219      3509      3519      3229
 -1      2153    1    0    1
 -2      3219      3509      3519      3229      3220      3510      3520      3230
 -1      2154    1    0    1
 -2      3220      3510      3520      3230      3221      3511      3521      3231
 -1      2155    1    0    1
 -2      3221      3511      3521      3231      3222      3512      3522      3232
 -1      2156    1    0    1
 -2      3222      3512      3522      3232      1843      1872      1873      1844
 -1      2157    1    0    1
 -2       333       362       363       334      3223      3513      3523      3233
 -1      2158    1    0    1
 -2      3223      3513      3523      3233      3224      3514      3524      3234
 -1      2159    1    0    1
 -2      3224      3514      3524      3234      3225      3515      3525      3235
 -1      2160    1    0    1
 -2      3225      3515      3525      3235      3226      3516      3526      3236
 -1      2161    1    0    1
 -2      3226      3516      3526      3236      3227      3517      3527      3237
 -1      2162    1    0    1
 -2      3227      3517      3527      3237      3228      3518      3528      3238
 -1      2163    1    0    1
 -2      3228      3518      3528      3238      3229      3519      3529      3239
 -1      2164    1    0    1
 -2      3229      3519      3529      3239      3230      3520      3530      3240
 -1      2165    1    0    1
 -2      3230      3520      3530      3240      3231      3521      3531      3241
 -1      2166    1    0    1
 -2      3231      3521      3531      3241      3232      3522      3532      3242
 -1      2167    1    0    1
 -2      3232      3522      3532      3242      1844      1873      1874      1845
 -1      2168    1    0    1
 -2       334       363       364       335      3233      3523      3533      3243
 -1      2169    1    0    1
 -2      3233      3523      3533      3243      3234      3524      3534      3244
 -1      2170    1    0    1
 -2      3234      3524      3534      3244      3235      3525      3535      3245
 -1      2171    1    0    1
 -2      3235      3525      3535      3245      3236      3526      3536      3246
 -1      2172    1    0    1
 -2      3236      3526      3536      3246      3237      3527      3537      3247
 -1      2173    1    0    1
 -2      3237      3527      3537      3247      3238      3528      3538      3248
 -1      2174    1    0    1
 -2      3238      3528      3538      3248      3239      3529      3539      3249
 -1      2175    1    0    1
 -2      3239      3529      3539      3249      3240      3530      3540      3250
 -1      2176    1    0    1
 -2      3240      3530      3540      3250      3241      3531      3541      3251
 -1      2177    1    0    1
 -2      3241      3531      3541      3251      3242      3532      3542      3252
 -1      2178    1    0    1
 -2      3242      3532      3542      3252      1845      1874      1875      1846
 -1      2179    1    0    1
 -2       335       364       365       336      3243      3533      3543      3253
 -1      2180    1    0    1
 -2      3243      3533      3543      3253      3244      3534      3544      3254
 -1      2181    1    0    1
 -2      3244      3534      3544      3254      3245      3535      3545      3255
 -1      2182    1    0    1
 -2      3245      3535      3545      3255      3246      3536      3546      3256
 -1      2183    1    0    1
 -2      3246      3536      3546      3256      3247      3537      3547      3257
 -1      2184    1    0    1
 -2      3247      3537      3547      3257      3248      3538      3548      3258
 -1      2185    1    0    1
 -2      3248      3538      3548      3258      3249      3539      3549      3259
 -1      2186    1    0    1
 -2      3249      3539      3549      3259      3250      3540      3550      3260
 -1      2187    1    0    1
 -2      3250      3540      3550      3260      3251      3541      3551      3261
 -1      2188    1    0    1
 -2      3251      3541      3551      3261      3252      3542      3552      3262
 -1      2189    1    0    1
 -2      3252      3542      3552      3262      1846      1875      1876      1847
 -1      2190    1    0    1
 -2       336       365       366       337      3253      3543      3553      3263
 -1      2191    1    0    1
 -2      3253      3543      3553      3263      3254      3544      3554      3264
 -1      2192    1    0    1
 -2      3254      3544      3554      3264      3255      3545      3555      3265
 -1      2193    1    0    1
 -2      3255      3545      3555      3265      3256      3546      3556      3266
 -1      2194    1    0    1
 -2      3256      3546      3556      3266      3257      3547      3557      3267
 -1      2195    1    0    1
 -2      3257      3547      3557      3267      3258      3548      3558      3268
 -1      2196    1    0    1
 -2      3258      3548      3558      3268      3259      3549      3559      3269
 -1      2197    1    0    1
 -2      3259      3549      3559      3269      3260      3550      3560      3270
 -1      2198    1    0    1
 -2      3260      3550      3560      3270      3261      3551      3561      3271
 -1      2199    1    0    1
 -2      3261      3551      3561      3271      3262      3552      3562      3272
 -1      2200    1    0    1
 -2      3262      3552      3562      3272      1847      1876      1877      1848
 -1      2201    1    0    1
 -2       337       366       367       338      3263      3553      3563      3273
 -1      2202    1    0    1
 -2      3263      3553      3563      3273      3264      3554      3564      3274
 -1      2203    1    0    1
 -2      3264      3554      3564      3274      3265      3555      3565      3275
 -1      2204    1    0    1
 -2      3265      3555      3565      3275      3266      3556      3566      3276
 -1      2205    1    0    1
 -2      3266      3556      3566      3276      3267      3557      3567      3277
 -1      2206    1    0    1
 -2      3267      3557      3567      3277      3268      3558      3568      3278
 -1      2207    1    0    1
 -2      3268      3558      3568      3278      3269      3559      3569      3279
 -1      2208    1    0    1
 -2      3269      3559      3569      3279      3270      3560      3570      3280
 -1      2209    1    0    1
 -2      3270      3560      3570      3280      3271      3561      3571      3281
 -1      2210    1    0    1
 -2      3271      3561      3571      3281      3272      3562      3572      3282
 -1      2211    1    0    1
 -2      3272      3562      3572      3282      1848      1877      1878      1849
 -1      2212    1    0    1
 -2       338       367       368       339      3273      3563      3573      3283
 -1      2213    1    0    1
 -2      3273      3563      3573      3283      3274      3564      3574      3284
 -1      2214    1    0    1
 -2      3274      3564      3574      3284      3275      3565      3575      3285
 -1      2215    1    0    1
 -2      3275      3565      3575      3285      3276      3566      3576      3286
 -1      2216    1    0    1
 -2      3276      3566      3576      3286      3277      3567      3577      3287
 -1      2217    1    0    1
 -2      3277      3567      3577      3287      3278      3568      3578      3288
 -1      2218    1    0    1
 -2      3278      3568      3578      3288      3279      3569      3579      3289
 -1      2219    1    0    1
 -2      3279      3569      3579      3289      3280      3570      3580      3290
 -1      2220    1    0    1
 -2      3280      3570      3580      3290      3281      3571      3581      3291
 -1      2221    1    0    1
 -2      3281      3571      3581      3291      3282      3572      3582      3292
 -1      2222    1    0    1
 -2      3282      3572      3582      3292      1849      1878      1879      1850
 -1      2223    1    0    1
 -2       339       368       369       340      3283      3573      3583      3293
 -1      2224    1    0    1
 -2      3283      3573      3583      3293      3284      3574      3584      3294
 -1      2225    1    0    1
 -2      3284      3574      3584      3294      3285      3575      3585      3295
 -1      2226    1    0    1
 -2      3285      3575      3585      3295      3286      3576      3586      3296
 -1      2227    1    0    1
 -2      3286      3576      3586      3296      3287      3577      3587      3297
 -1      2228    1    0    1
 -2      3287      3577      3587      3297      3288      3578      3588      3298
 -1      2229    1    0    1
 -2      3288      3578      3588      3298      3289      3579      3589      3299
 -1      2230    1    0    1
 -2      3289      3579      3589      3299      3290      3580      3590      3300
 -1      2231    1    0    1
 -2      3290      3580      3590      3300      3291      3581      3591      3301
 -1      2232    1    0    1
 -2      3291      3581      3591      3301      3292      3582      3592      3302
 -1      2233    1    0    1
 -2      3292      3582      3592      3302      1850      1879      1880      1851
 -1      2234    1    0    1
 -2       340       369       370       341      3293      3583      3593      3303
 -1      2235    1    0    1
 -2      3293      3583      3593      3303      3294      3584      3594      3304
 -1      2236    1    0    1
 -2      3294      3584      3594      3304      3295      3585      3595      3305
 -1      2237    1    0    1
 -2      3295      3585      3595      3305      3296      3586      3596      3306
 -1      2238    1    0    1
 -2      3296      3586      3596      3306      3297      3587      3597      3307
 -1      2239    1    0    1
 -2      3297      3587      3597      3307      3298      3588      3598      3308
 -1      2240    1    0    1
 -2      3298      3588      3598      3308      3299      3589      3599      3309
 -1      2241    1    0    1
 -2      3299      3589      3599      3309      3300      3590      3600      3310
 -1      2242    1    0    1
 -2      3300      3590      3600      3310      3301      3591      3601      3311
 -1      2243    1    0    1
 -2      3301      3591      3601      3311      3302      3592      3602      3312
 -1      2244    1    0    1
 -2      3302      3592      3602      3312      1851      1880      1881      1852
 -1      2245    1    0    1
 -2       341       370       371       342      3303      3593      3603      3313
 -1      2246    1    0    1
 -2      3303      3593      3603      3313      3304      3594      3604      3314
 -1      2247    1    0    1
 -2      3304      3594      3604      3314      3305      3595      3605      3315
 -1      2248    1    0    1
 -2      3305      3595      3605      3315      3306      3596      3606      3316
 -1      2249    1    0    1
 -2      3306      3596      3606      3316      3307      3597      3607      3317
 -1      2250    1    0    1
 -2      3307      3597      3607      3317      3308      3598      3608      3318
 -1      2251    1    0    1
 -2      3308      3598      3608      3318      3309      3599      3609      3319
 -1      2252    1    0    1
 -2      3309      3599      3609      3319      3310      3600      3610      3320
 -1      2253    1    0    1
 -2      3310      3600      3610      3320      3311      3601      3611      3321
 -1      2254    1    0    1
 -2      3311      3601      3611      3321      3312      3602      3612      3322
 -1      2255    1    0    1
 -2      3312      3602      3612      3322      1852      1881      1882      1853
 -1      2256    1    0    1
 -2       342       371       372       343      3313      3603      3613      3323
 -1      2257    1    0    1
 -2      3313      3603      3613      3323      3314      3604      3614      3324
 -1      2258    1    0    1
 -2      3314      3604      3614      3324      3315      3605      3615      3325
 -1      2259    1    0    1
 -2      3315      3605      3615      3325      3316      3606      3616      3326
 -1      2260    1    0    1
 -2      3316      3606      3616      3326      3317      3607      3617      3327
 -1      2261    1    0    1
 -2      3317      3607      3617      3327      3318      3608      3618      3328
 -1      2262    1    0    1
 -2      3318      3608      3618      3328      3319      3609      3619      3329
 -1      2263    1    0    1
 -2      3319      3609      3619      3329      3320      3610      3620      3330
 -1      2264    1    0    1
 -2      3320      3610      3620      3330      3321      3611      3621      3331
 -1      2265    1    0    1
 -2      3321      3611      3621      3331      3322      3612      3622      3332
 -1      2266    1    0    1
 -2      3322      3612      3622      3332      1853      1882      1883      1854
 -1      2267    1    0    1
 -2       343       372       373       344      3323      3613      3623      3333
 -1      2268    1    0    1
 -2      3323      3613      3623      3333      3324      3614      3624      3334
 -1      2269    1    0    1
 -2      3324      3614      3624      3334      3325      3615      3625      3335
 -1      2270    1    0    1
 -2      3325      3615      3625      3335      3326      3616      3626      3336
 -1      2271    1    0    1
 -2      3326      3616      3626      3336      3327      3617      3627      3337
 -1      2272    1    0    1
 -2      3327      3617      3627      3337      3328      3618      3628      3338
 -1      2273    1    0    1
 -2      3328      3618      3628      3338      3329      3619      3629      3339
 -1      2274    1    0    1
 -2      3329      3619      3629      3339      3330      3620      3630      3340
 -1      2275    1    0    1
 -2      3330      3620      3630      3340      3331      3621      3631      3341
 -1      2276    1    0    1
 -2      3331      3621      3631      3341      3332      3622      3632      3342
 -1      2277    1    0    1
 -2      3332      3622      3632      3342      1854      1883      1884      1855
 -1      2278    1    0    1
 -2       344       373       374       345      3333      3623      3633      3343
 -1      2279    1    0    1
 -2      3333      3623      3633      3343      3334      3624      3634      3344
 -1      2280    1    0    1
 -2      3334      3624      3634      3344      3335      3625      3635      3345
 -1      2281    1    0    1
 -2      3335      3625      3635      3345      3336      3626      3636      3346
 -1      2282    1    0    1
 -2      3336      3626      3636      3346      3337      3627      3637      3347
 -1      2283    1    0    1
 -2      3337      3627      3637      3347      3338      3628      3638      3348
 -1      2284    1    0    1
 -2      3338      3628      3638      3348      3339      3629      3639      3349
 -1      2285    1    0    1
 -2      3339      3629      3639      3349      3340      3630      3640      3350
 -1      2286    1    0    1
 -2      3340      3630      3640      3350      3341      3631      3641      3351
 -1      2287    1    0    1
 -2      3341      3631      3641      3351      3342      3632      3642      3352
 -1      2288    1    0    1
 -2      3342      3632      3642      3352      1855      1884      1885      1856
 -1      2289    1    0    1
 -2       345       374       375       346      3343      3633      3643      3353
 -1      2290    1    0    1
 -2      3343      3633      3643      3353      3344      3634      3644      3354
 -1      2291    1    0    1
 -2      3344      3634      3644      3354      3345      3635      3645      3355
 -1      2292    1    0    1
 -2      3345      3635      3645      3355      3346      3636      3646      3356
 -1      2293    1    0    1
 -2      3346      3636      3646      3356      3347      3637      3647      3357
 -1      2294    1    0    1
 -2      3347      3637      3647      3357      3348      3638      3648      3358
 -1      2295    1    0    1
 -2      3348      3638      3648      3358      3349      3639      3649      3359
 -1      2296    1    0    1
 -2      3349      3639      3649      3359      3350      3640      3650      3360
 -1      2297    1    0    1
 -2      3350      3640      3650      3360      3351      3641      3651      3361
 -1      2298    1    0    1
 -2      3351      3641      3651      3361      3352      3642      3652      3362
 -1      2299    1    0    1
 -2      3352      3642      3652      3362      1856      1885      1886      1857
 -1      2300    1    0    1
 -2       346       375       376       347      3353      3643      3653      3363
 -1      2301    1    0    1
 -2      3353      3643      3653      3363      3354      3644      3654      3364
 -1      2302    1    0    1
 -2      3354      3644      3654      3364      3355      3645      3655      3365
 -1      2303    1    0    1
 -2      3355      3645      3655      3365      3356      3646      3656      3366
 -1      2304    1    0    1
 -2      3356      3646      3656      3366      3357      3647      3657      3367
 -1      2305    1    0    1
 -2      3357      3647      3657      3367      3358      3648      3658      3368
 -1      2306    1    0    1
 -2      3358      3648      3658      3368      3359      3649      3659      3369
 -1      2307    1    0    1
 -2      3359      3649      3659      3369      3360      3650      3660      3370
 -1      2308    1    0    1
 -2      3360      3650      3660      3370      3361      3651      3661      3371
 -1      2309    1    0    1
 -2      3361      3651      3661      3371      3362      3652      3662      3372
 -1      2310    1    0    1
 -2      3362      3652      3662      3372      1857      1886      1887      1858
 -1      2311    1    0    1
 -2       347       376       377       348      3363      3653      3663      3373
 -1      2312    1    0    1
 -2      3363      3653      3663      3373      3364      3654      3664      3374
 -1      2313    1    0    1
 -2      3364      3654      3664      3374      3365      3655      3665      3375
 -1      2314    1    0    1
 -2      3365      3655      3665      3375      3366      3656      3666      3376
 -1      2315    1    0    1
 -2      3366      3656      3666      3376      3367      3657      3667      3377
 -1      2316    1    0    1
 -2      3367      3657      3667      3377      3368      3658      3668      3378
 -1      2317    1    0    1
 -2      3368      3658      3668      3378      3369      3659      3669      3379
 -1      2318    1    0    1
 -2      3369      3659      3669      3379      3370      3660      3670      3380
 -1      2319    1    0    1
 -2      3370      3660      3670      3380      3371      3661      3671      3381
 -1      2320    1    0    1
 -2      3371      3661      3671      3381      3372      3662      3672      3382
 -1      2321    1    0    1
 -2      3372      3662      3672      3382      1858      1887      1888      1859
 -1      2322    1    0    1
 -2       348       377       378       349      3373      3663      3673      3383
 -1      2323    1    0    1
 -2      3373      3663      3673      3383      3374      3664      3674      3384
 -1      2324    1    0    1
 -2      3374      3664      3674      3384      3375      3665      3675      3385
 -1      2325    1    0    1
 -2      3375      3665      3675      3385      3376      3666      3676      3386
 -1      2326    1    0    1
 -2      3376      3666      3676      3386      3377      3667      3677      3387
 -1      2327    1    0    1
 -2      3377      3667      3677      3387      3378      3668      3678      3388
 -1      2328    1    0    1
 -2      3378      3668      3678      3388      3379      3669      3679      3389
 -1      2329    1    0    1
 -2      3379      3669      3679      3389      3380      3670      3680      3390
 -1      2330    1    0    1
 -2      3380      3670      3680      3390      3381      3671      3681      3391
 -1      2331    1    0    1
 -2      3381      3671      3681      3391      3382      3672      3682      3392
 -1      2332    1    0    1
 -2      3382      3672      3682      3392      1859      1888      1889      1860
 -1      2333    1    0    1
 -2       349       378       379       350      3383      3673      3683      3393
 -1      2334    1    0    1
 -2      3383      3673      3683      3393      3384      3674      3684      3394
 -1      2335    1    0    1
 -2      3384      3674      3684      3394      3385      3675      3685      3395
 -1      2336    1    0    1
 -2      3385      3675      3685      3395      3386      3676      3686      3396
 -1      2337    1    0    1
 -2      3386      3676      3686      3396      3387      3677      3687      3397
 -1      2338    1    0    1
 -2      3387      3677      3687      3397      3388      3678      3688      3398
 -1      2339    1    0    1
 -2      3388      3678      3688      3398      3389      3679      3689      3399
 -1      2340    1    0    1
 -2      3389      3679      3689      3399      3390      3680      3690      3400
 -1      2341    1    0    1
 -2      3390      3680      3690      3400      3391      3681      3691      3401
 -1      2342    1    0    1
 -2      3391      3681      3691      3401      3392      3682      3692      3402
 -1      2343    1    0    1
 -2      3392      3682      3692      3402      1860      1889      1890      1861
 -1      2344    1    0    1
 -2       350       379       380       351      3393      3683      3693      3403
 -1      2345    1    0    1
 -2      3393      3683      3693      3403      3394      3684      3694      3404
 -1      2346    1    0    1
 -2      3394      3684      3694      3404      3395      3685      3695      3405
 -1      2347    1    0    1
 -2      3395      3685      3695      3405      3396      3686      3696      3406
 -1      2348    1    0    1
 -2      3396      3686      3696      3406      3397      3687      3697      3407
 -1      2349    1    0    1
 -2      3397      3687      3697      3407      3398      3688      3698      3408
 -1      2350    1    0    1
 -2      3398      3688      3698      3408      3399      3689      3699      3409
 -1      2351    1    0    1
 -2      3399      3689      3699      3409      3400      3690      3700      3410
 -1      2352    1    0    1
 -2      3400      3690      3700      3410      3401      3691      3701      3411
 -1      2353    1    0    1
 -2      3401      3691      3701      3411      3402      3692      3702      3412
 -1      2354    1    0    1
 -2      3402      3692      3702      3412      1861      1890      1891      1862
 -1      2355    1    0    1
 -2       351       380       381       352      3403      3693      3703      3413
 -1      2356    1    0    1
 -2      3403      3693      3703      3413      3404      3694      3704      3414
 -1      2357    1    0    1
 -2      3404      3694      3704      3414      3405      3695      3705      3415
 -1      2358    1    0    1
 -2      3405      3695      3705      3415      3406      3696      3706      3416
 -1      2359    1    0    1
 -2      3406      3696      3706      3416      3407      3697      3707      3417
 -1      2360    1    0    1
 -2      3407      3697      3707      3417      3408      3698      3708      3418
 -1      2361    1    0    1
 -2      3408      3698      3708      3418      3409      3699      3709      3419
 -1      2362    1    0    1
 -2      3409      3699      3709      3419      3410      3700      3710      3420
 -1      2363    1    0    1
 -2      3410      3700      3710      3420      3411      3701      3711      3421
 -1      2364    1    0    1
 -2      3411      3701      3711      3421      3412      3702      3712      3422
 -1      2365    1    0    1
 -2      3412      3702      3712      3422      1862      1891      1892      1863
 -1      2366    1    0    1
 -2       352       381       382       353      3413      3703      3713      3423
 -1      2367    1    0    1
 -2      3413      3703      3713      3423      3414      3704      3714      3424
 -1      2368    1    0    1
 -2      3414      3704      3714      3424      3415      3705      3715      3425
 -1      2369    1    0    1
 -2      3415      3705      3715      3425      3416      3706      3716      3426
 -1      2370    1    0    1
 -2      3416      3706      3716      3426      3417      3707      3717      3427
 -1      2371    1    0    1
 -2      3417      3707      3717      3427      3418      3708      3718      3428
 -1      2372    1    0    1
 -2      3418      3708      3718      3428      3419      3709      3719      3429
 -1      2373    1    0    1
 -2      3419      3709      3719      3429      3420      3710      3720      3430
 -1      2374    1    0    1
 -2      3420      3710      3720      3430      3421      3711      3721      3431
 -1      2375    1    0    1
 -2      3421      3711      3721      3431      3422      3712      3722      3432
 -1      2376    1    0    1
 -2      3422      3712      3722      3432      1863      1892      1893      1864
 -1      2377    1    0    1
 -2       353       382       383       354      3423      3713      3723      3433
 -1      2378    1    0    1
 -2      3423      3713      3723      3433      3424      3714      3724      3434
 -1      2379    1    0    1
 -2      3424      3714      3724      3434      3425      3715      3725      3435
 -1      2380    1    0    1
 -2      3425      3715      3725      3435      3426      3716      3726      3436
 -1      2381    1    0    1
 -2      3426      3716      3726      3436      3427      3717      3727      3437
 -1      2382    1    0    1
 -2      3427      3717      3727      3437      3428      3718      3728      3438
 -1      2383    1    0    1
 -2      3428      3718      3728      3438      3429      3719      3729      3439
 -1      2384    1    0    1
 -2      3429      3719      3729      3439      3430      3720      3730      3440
 -1      2385    1    0    1
 -2      3430      3720      3730      3440      3431      3721      3731      3441
 -1      2386    1    0    1
 -2      3431      3721      3731      3441      3432      3722      3732      3442
 -1      2387    1    0    1
 -2      3432      3722      3732      3442      1864      1893      1894      1865
 -1      2388    1    0    1
 -2       354       383       384       355      3433      3723      3733      3443
 -1      2389    1    0    1
 -2      3433      3723      3733      3443      3434      3724      3734      3444
 -1      2390    1    0    1
 -2      3434      3724      3734      3444      3435      3725      3735      3445
 -1      2391    1    0    1
 -2      3435      3725      3735      3445      3436      3726      3736      3446
 -1      2392    1    0    1
 -2      3436      3726      3736      3446      3437      3727      3737      3447
 -1      2393    1    0    1
 -2      3437      3727      3737      3447      3438      3728      3738      3448
 -1      2394    1    0    1
 -2      3438      3728      3738      3448      3439      3729      3739      3449
 -1      2395    1    0    1
 -2      3439      3729      3739      3449      3440      3730      3740      3450
 -1      2396    1    0    1
 -2      3440      3730      3740      3450      3441      3731      3741      3451
 -1      2397    1    0    1
 -2      3441      3731      3741      3451      3442      3732      3742      3452
 -1      2398    1    0    1
 -2      3442      3732      3742      3452      1865      1894      1895      1866
 -1      2399    1    0    1
 -2       355       384       385       356      3443      3733      3743      3453
 -1      2400    1    0    1
 -2      3443      3733      3743      3453      3444      3734      3744      3454
 -1      2401    1    0    1
 -2      3444      3734      3744      3454      3445      3735      3745      3455
 -1      2402    1    0    1
 -2      3445      3735      3745      3455      3446      3736      3746      3456
 -1      2403    1    0    1
 -2      3446      3736      3746      3456      3447      3737      3747      3457
 -1      2404    1    0    1
 -2      3447      3737      3747      3457      3448      3738      3748      3458
 -1      2405    1    0    1
 -2      3448      3738      3748      3458      3449      3739      3749      3459
 -1      2406    1    0    1
 -2      3449      3739      3749      3459      3450      3740      3750      3460
 -1      2407    1    0    1
 -2      3450      3740      3750      3460      3451      3741      3751      3461
 -1      2408    1    0    1
 -2      3451      3741      3751      3461      3452      3742      3752      3462
 -1      2409    1    0    1
 -2      3452      3742      3752      3462      1866      1895      1896      1867
 -1      2410    1    0    1
 -2       356       385        71        72      3453      3743      1412      1422
 -1      2411    1    0    1
 -2      3453      3743      1412      1422      3454      3744      1413      1423
 -1      2412    1    0    1
 -2      3454      3744      1413      1423      3455      3745      1414      1424
 -1      2413    1    0    1
 -2      3455      3745      1414      1424      3456      3746      1415      1425
 -1      2414    1    0    1
 -2      3456      3746      1415      1425      3457      3747      1416      1426
 -1      2415    1    0    1
 -2      3457      3747      1416      1426      3458      3748      1417      1427
 -1      2416    1    0    1
 -2      3458      3748      1417      1427      3459      3749      1418      1428
 -1      2417    1    0    1
 -2      3459      3749      1418      1428      3460      3750      1419      1429
 -1      2418    1    0    1
 -2      3460      3750      1419      1429      3461      3751      1420      1430
 -1      2419    1    0    1
 -2      3461      3751      1420      1430      3462      3752      1421      1431
 -1      2420    1    0    1
 -2      3462      3752      1421      1431      1867      1896       167       168
 -1      2421    1    0    1
 -2        13        14       386       357       832       842      3753      3463
 -1      2422    1    0    1
 -2       832       842      3753      3463       833       843      3754      3464
 -1      2423    1    0    1
 -2       833       843      3754      3464       834       844      3755      3465
 -1      2424    1    0    1
 -2       834       844      3755      3465       835       845      3756      3466
 -1      2425    1    0    1
 -2       835       845      3756      3466       836       846      3757      3467
 -1      2426    1    0    1
 -2       836       846      3757      3467       837       847      3758      3468
 -1      2427    1    0    1
 -2       837       847      3758      3468       838       848      3759      3469
 -1      2428    1    0    1
 -2       838       848      3759      3469       839       849      3760      3470
 -1      2429    1    0    1
 -2       839       849      3760      3470       840       850      3761      3471
 -1      2430    1    0    1
 -2       840       850      3761      3471       841       851      3762      3472
 -1      2431    1    0    1
 -2       841       851      3762      3472       109       110      1897      1868
 -1      2432    1    0    1
 -2       357       386       387       358      3463      3753      3763      3473
 -1      2433    1    0    1
 -2      3463      3753      3763      3473      3464      3754      3764      3474
 -1      2434    1    0    1
 -2      3464      3754      3764      3474      3465      3755      3765      3475
 -1      2435    1    0    1
 -2      3465      3755      3765      3475      3466      3756      3766      3476
 -1      2436    1    0    1
 -2      3466      3756      3766      3476      3467      3757      3767      3477
 -1      2437    1    0    1
 -2      3467      3757      3767      3477      3468      3758      3768      3478
 -1      2438    1    0    1
 -2      3468      3758      3768      3478      3469      3759      3769      3479
 -1      2439    1    0    1
 -2      3469      3759      3769      3479      3470      3760      3770      3480
 -1      2440    1    0    1
 -2      3470      3760      3770      3480      3471      3761      3771      3481
 -1      2441    1    0    1
 -2      3471      3761      3771      3481      3472      3762      3772      3482
 -1      2442    1    0    1
 -2      3472      3762      3772      3482      1868      1897      1898      1869
 -1      2443    1    0    1
 -2       358       387       388       359      3473      3763      3773      3483
 -1      2444    1    0    1
 -2      3473      3763      3773      3483      3474      3764      3774      3484
 -1      2445    1    0    1
 -2      3474      3764      3774      3484      3475      3765      3775      3485
 -1      2446    1    0    1
 -2      3475      3765      3775      3485      3476      3766      3776      3486
 -1      2447    1    0    1
 -2      3476      3766      3776      3486      3477      3767      3777      3487
 -1      2448    1    0    1
 -2      3477      3767      3777      3487      3478      3768      3778      3488
 -1      2449    1    0    1
 -2      3478      3768      3778      3488      3479      3769      3779      3489
 -1      2450    1    0    1
 -2      3479      3769      3779      3489      3480      3770      3780      3490
 -1      2451    1    0    1
 -2      3480      3770      3780      3490      3481      3771      3781      3491
 -1      2452    1    0    1
 -2      3481      3771      3781      3491      3482      3772      3782      3492
 -1      2453    1    0    1
 -2      3482      3772      3782      3492      1869      1898      1899      1870
 -1      2454    1    0    1
 -2       359       388       389       360      3483      3773      3783      3493
 -1      2455    1    0    1
 -2      3483      3773      3783      3493      3484      3774      3784      3494
 -1      2456    1    0    1
 -2      3484      3774      3784      3494      3485      3775      3785      3495
 -1      2457    1    0    1
 -2      3485      3775      3785      3495      3486      3776      3786      3496
 -1      2458    1    0    1
 -2      3486      3776      3786      3496      3487      3777      3787      3497
 -1      2459    1    0    1
 -2      3487      3777      3787      3497      3488      3778      3788      3498
 -1      2460    1    0    1
 -2      3488      3778      3788      3498      3489      3779      3789      3499
 -1      2461    1    0    1
 -2      3489      3779      3789      3499      3490      3780      3790      3500
 -1      2462    1    0    1
 -2      3490      3780      3790      3500      3491      3781      3791      3501
 -1      2463    1    0    1
 -2      3491      3781      3791      3501      3492      3782      3792      3502
 -1      2464    1    0    1
 -2      3492      3782      3792      3502      1870      1899      1900      1871
 -1      2465    1    0    1
 -2       360       389       390       361      3493      3783      3793      3503
 -1      2466    1    0    1
 -2      3493      3783      3793      3503      3494      3784      3794      3504
 -1      2467    1    0    1
 -2      3494      3784      3794      3504      3495      3785      3795      3505
 -1      2468    1    0    1
 -2      3495      3785      3795      3505      3496      3786      3796      3506
 -1      2469    1    0    1
 -2      3496      3786      3796      3506      3497      3787      3797      3507
 -1      2470    1    0    1
 -2      3497      3787      3797      3507      3498      3788      3798      3508
 -1      2471    1    0    1
 -2      3498      3788      3798      3508      3499      3789      3799      3509
 -1      2472    1    0    1
 -2      3499      3789      3799      3509      3500      3790      3800      3510
 -1      2473    1    0    1
 -2      3500      3790      3800      3510      3501      3791      3801      3511
 -1      2474    1    0    1
 -2      3501      3791      3801      3511      3502      3792      3802      3512
 -1      2475    1    0    1
 -2      3502      3792      3802      3512      1871      1900      1901      1872
 -1      2476    1    0    1
 -2       361       390       391       362      3503      3793      3803      3513
 -1      2477    1    0    1
 -2      3503      3793      3803      3513      3504      3794      3804      3514
 -1      2478    1    0    1
 -2      3504      3794      3804      3514      3505      3795      3805      3515
 -1      2479    1    0    1
 -2      3505      3795      3805      3515      3506      3796      3806      3516
 -1      2480    1    0    1
 -2      3506      3796      3806      3516      3507      3797      3807      3517
 -1      2481    1    0    1
 -2      3507      3797      3807      3517      3508      3798      3808      3518
 -1      2482    1    0    1
 -2      3508      3798      3808      3518      3509      3799      3809      3519
 -1      2483    1    0    1
 -2      3509      3799      3809      3519      3510      3800      3810      3520
 -1      2484    1    0    1
 -2      3510      3800      3810      3520      3511      3801      3811      3521
 -1      2485    1    0    1
 -2      3511      3801      3811      3521      3512      3802      3812      3522
 -1      2486    1    0    1
 -2      3512      3802      3812      3522      1872      1901      1902      1873
 -1      2487    1    0    1
 -2       362       391       392       363      3513      3803      3813      3523
 -1      2488    1    0    1
 -2      3513      3803      3813      3523      3514      3804      3814      3524
 -1      2489    1    0    1
 -2      3514      3804      3814      3524      3515      3805      3815      3525
 -1      2490    1    0    1
 -2      3515      3805      3815      3525      3516      3806      3816      3526
 -1      2491    1    0    1
 -2      3516      3806      3816      3526      3517      3807      3817      3527
 -1      2492    1    0    1
 -2      3517      3807      3817      3527      3518      3808      3818      3528
 -1      2493    1    0    1
 -2      3518      3808      3818      3528      3519      3809      3819      3529
 -1      2494    1    0    1
 -2      3519      3809      3819      3529      3520      3810      3820      3530
 -1      2495    1    0    1
 -2      3520      3810      3820      3530      3521      3811      3821      3531
 -1      2496    1    0    1
 -2      3521      3811      3821      3531      3522      3812      3822      3532
 -1      2497    1    0    1
 -2      3522      3812      3822      3532      1873      1902      1903      1874
 -1      2498    1    0    1
 -2       363       392       393       364      3523      3813      3823      3533
 -1      2499    1    0    1
 -2      3523      3813      3823      3533      3524      3814      3824      3534
 -1      2500    1    0    1
 -2      3524      3814      3824      3534      3525      3815      3825      3535
 -1      2501    1    0    1
 -2      3525      3815      3825      3535      3526      3816      3826      3536
 -1      2502    1    0    1
 -2      3526      3816      3826      3536      3527      3817      3827      3537
 -1      2503    1    0    1
 -2      3527      3817      3827      3537      3528      3818      3828      3538
 -1      2504    1    0    1
 -2      3528      3818      3828      3538      3529      3819      3829      3539
 -1      2505    1    0    1
 -2      3529      3819      3829      3539      3530      3820      3830      3540
 -1      2506    1    0    1
 -2      3530      3820      3830      3540      3531      3821      3831      3541
 -1      2507    1    0    1
 -2      3531      3821      3831      3541      3532      3822      3832      3542
 -1      2508    1    0    1
 -2      3532      3822      3832      3542      1874      1903      1904      1875
 -1      2509    1    0    1
 -2       364       393       394       365      3533      3823      3833      3543
 -1      2510    1    0    1
 -2      3533      3823      3833      3543      3534      3824      3834      3544
 -1      2511    1    0    1
 -2      3534      3824      3834      3544      3535      3825      3835      3545
 -1      2512    1    0    1
 -2      3535      3825      3835      3545      3536      3826      3836      3546
 -1      2513    1    0    1
 -2      3536      3826      3836      3546      3537      3827      3837      3547
 -1      2514    1    0    1
 -2      3537      3827      3837      3547      3538      3828      3838      3548
 -1      2515    1    0    1
 -2      3538      3828      3838      3548      3539      3829      3839      3549
 -1      2516    1    0    1
 -2      3539      3829      3839      3549      3540      3830      3840      3550
 -1      2517    1    0    1
 -2      3540      3830      3840      3550      3541      3831      3841      3551
 -1      2518    1    0    1
 -2      3541      3831      3841      3551      3542      3832      3842      3552
 -1      2519    1    0    1
 -2      3542      3832      3842      3552      1875      1904      1905      1876
 -1      2520    1    0    1
 -2       365       394       395       366      3543      3833      3843      3553
 -1      2521    1    0    1
 -2      3543      3833      3843      3553      3544      3834      3844      3554
 -1      2522    1    0    1
 -2      3544      3834      3844      3554      3545      3835      3845      3555
 -1      2523    1    0    1
 -2      3545      3835      3845      3555      3546      3836      3846      3556
 -1      2524    1    0    1
 -2      3546      3836      3846      3556      3547      3837      3847      3557
 -1      2525    1    0    1
 -2      3547      3837      3847      3557      3548      3838      3848      3558
 -1      2526    1    0    1
 -2      3548      3838      3848      3558      3549      3839      3849      3559
 -1      2527    1    0    1
 -2      3549      3839      3849      3559      3550      3840      3850      3560
 -1      2528    1    0    1
 -2      3550      3840      3850      3560      3551      3841      3851      3561
 -1      2529    1    0    1
 -2      3551      3841      3851      3561      3552      3842      3852      3562
 -1      2530    1    0    1
 -2      3552      3842      3852      3562      1876      1905      1906      1877
 -1      2531    1    0    1
 -2       366       395       396       367      3553      3843      3853      3563
 -1      2532    1    0    1
 -2      3553      3843      3853      3563      3554      3844      3854      3564
 -1      2533    1    0    1
 -2      3554      3844      3854      3564      3555      3845      3855      3565
 -1      2534    1    0    1
 -2      3555      3845      3855      3565      3556      3846      3856      3566
 -1      2535    1    0    1
 -2      3556      3846      3856      3566      3557      3847      3857      3567
 -1      2536    1    0    1
 -2      3557      3847      3857      3567      3558      3848      3858      3568
 -1      2537    1    0    1
 -2      3558      3848      3858      3568      3559      3849      3859      3569
 -1      2538    1    0    1
 -2      3559      3849      3859      3569      3560      3850      3860      3570
 -1      2539    1    0    1
 -2      3560      3850      3860      3570      3561      3851      3861      3571
 -1      2540    1    0    1
 -2      3561      3851      3861      3571      3562      3852      3862      3572
 -1      2541    1    0    1
 -2      3562      3852      3862      3572      1877      1906      1907      1878
 -1      2542    1    0    1
 -2       367       396       397       368      3563      3853      3863      3573
 -1      2543    1    0    1
 -2      3563      3853      3863      3573      3564      3854      3864      3574
 -1      2544    1    0    1
 -2      3564      3854      3864      3574      3565      3855      3865      3575
 -1      2545    1    0    1
 -2      3565      3855      3865      3575      3566      3856      3866      3576
 -1      2546    1    0    1
 -2      3566      3856      3866      3576      3567      3857      3867      3577
 -1      2547    1    0    1
 -2      3567      3857      3867      3577      3568      3858      3868      3578
 -1      2548    1    0    1
 -2      3568      3858      3868      3578      3569      3859      3869      3579
 -1      2549    1    0    1
 -2      3569      3859      3869      3579      3570      3860      3870      3580
 -1      2550    1    0    1
 -2      3570      3860      3870      3580      3571      3861      3871      3581
 -1      2551    1    0    1
 -2      3571      3861      3871      3581      3572      3862      3872      3582
 -1      2552    1    0    1
 -2      3572      3862      3872      3582      1878      1907      1908      1879
 -1      2553    1    0    1
 -2       368       397       398       369      3573      3863      3873      3583
 -1      2554    1    0    1
 -2      3573      3863      3873      3583      3574      3864      3874      3584
 -1      2555    1    0    1
 -2      3574      3864      3874      3584      3575      3865      3875      3585
 -1      2556    1    0    1
 -2      3575      3865      3875      3585      3576      3866      3876      3586
 -1      2557    1    0    1
 -2      3576      3866      3876      3586      3577      3867      3877      3587
 -1      2558    1    0    1
 -2      3577      3867      3877      3587      3578      3868      3878      3588
 -1      2559    1    0    1
 -2      3578      3868      3878      3588      3579      3869      3879      3589
 -1      2560    1    0    1
 -2      3579      3869      3879      3589      3580      3870      3880      3590
 -1      2561    1    0    1
 -2      3580      3870      3880      3590      3581      3871      3881      3591
 -1      2562    1    0    1
 -2      3581      3871      3881      3591      3582      3872      3882      3592
 -1      2563    1    0    1
 -2      3582      3872      3882      3592      1879      1908      1909      1880
 -1      2564    1    0    1
 -2       369       398       399       370      3583      3873      3883      3593
 -1      2565    1    0    1
 -2      3583      3873      3883      3593      3584      3874      3884      3594
 -1      2566    1    0    1
 -2      3584      3874      3884      3594      3585      3875      3885      3595
 -1      2567    1    0    1
 -2      3585      3875      3885      3595      3586      3876      3886      3596
 -1      2568    1    0    1
 -2      3586      3876      3886      3596      3587      3877      3887      3597
 -1      2569    1    0    1
 -2      3587      3877      3887      3597      3588      3878      3888      3598
 -1      2570    1    0    1
 -2      3588      3878      3888      3598      3589      3879      3889      3599
 -1      2571    1    0    1
 -2      3589      3879      3889      3599      3590      3880      3890      3600
 -1      2572    1    0    1
 -2      3590      3880      3890      3600      3591      3881      3891      3601
 -1      2573    1    0    1
 -2      3591      3881      3891      3601      3592      3882      3892      3602
 -1      2574    1    0    1
 -2      3592      3882      3892      3602      1880      1909      1910      1881
 -1      2575    1    0    1
 -2       370       399       400       371      3593      3883      3893      3603
 -1      2576    1    0    1
 -2      3593      3883      3893      3603      3594      3884      3894      3604
 -1      2577    1    0    1
 -2      3594      3884      3894      3604      3595      3885      3895      3605
 -1      2578    1    0    1
 -2      3595      3885      3895      3605      3596      3886      3896      3606
 -1      2579    1    0    1
 -2      3596      3886      3896      3606      3597      3887      3897      3607
 -1      2580    1    0    1
 -2      3597      3887      3897      3607      3598      3888      3898      3608
 -1      2581    1    0    1
 -2      3598      3888      3898      3608      3599      3889      3899      3609
 -1      2582    1    0    1
 -2      3599      3889      3899      3609      3600      3890      3900      3610
 -1      2583    1    0    1
 -2      3600      3890      3900      3610      3601      3891      3901      3611
 -1      2584    1    0    1
 -2      3601      3891      3901      3611      3602      3892      3902      3612
 -1      2585    1    0    1
 -2      3602      3892      3902      3612      1881      1910      1911      1882
 -1      2586    1    0    1
 -2       371       400       401       372      3603      3893      3903      3613
 -1      2587    1    0    1
 -2      3603      3893      3903      3613      3604      3894      3904      3614
 -1      2588    1    0    1
 -2      3604      3894      3904      3614      3605      3895      3905      3615
 -1      2589    1    0    1
 -2      3605      3895      3905      3615      3606      3896      3906      3616
 -1      2590    1    0    1
 -2      3606      3896      3906      3616      3607      3897      3907      3617
 -1      2591    1    0    1
 -2      3607      3897      3907      3617      3608      3898      3908      3618
 -1      2592    1    0    1
 -2      3608      3898      3908      3618      3609      3899      3909      3619
 -1      2593    1    0    1
 -2      3609      3899      3909      3619      3610      3900      3910      3620
 -1      2594    1    0    1
 -2      3610      3900      3910      3620      3611      3901      3911      3621
 -1      2595    1    0    1
 -2      3611      3901      3911      3621      3612      3902      3912      3622
 -1      2596    1    0    1
 -2      3612      3902      3912      3622      1882      1911      1912      1883
 -1      2597    1    0    1
 -2       372       401       402       373      3613      3903      3913      3623
 -1      2598    1    0    1
 -2      3613      3903      3913      3623      3614      3904      3914      3624
 -1      2599    1    0    1
 -2      3614      3904      3914      3624      3615      3905      3915      3625
 -1      2600    1    0    1
 -2      3615      3905      3915      3625      3616      3906      3916      3626
 -1      2601    1    0    1
 -2      3616      3906      3916      3626      3617      3907      3917      3627
 -1      2602    1    0    1
 -2      3617      3907      3917      3627      3618      3908      3918      3628
 -1      2603    1    0    1
 -2      3618      3908      3918      3628      3619      3909      3919      3629
 -1      2604    1    0    1
 -2      3619      3909      3919      3629      3620      3910      3920      3630
 -1      2605    1    0    1
 -2      3620      3910      3920      3630      3621      3911      3921      3631
 -1      2606    1    0    1
 -2      3621      3911      3921      3631      3622      3912      3922      3632
 -1      2607    1    0    1
 -2      3622      3912      3922      3632      1883      1912      1913      1884
 -1      2608    1    0    1
 -2       373       402       403       374      3623      3913      3923      3633
 -1      2609    1    0    1
 -2      3623      3913      3923      3633      3624      3914      3924      3634
 -1      2610    1    0    1
 -2      3624      3914      3924      3634      3625      3915      3925      3635
 -1      2611    1    0    1
 -2      3625      3915      3925      3635      3626      3916      3926      3636
 -1      2612    1    0    1
 -2      3626      3916      3926      3636      3627      3917      3927      3637
 -1      2613    1    0    1
 -2      3627      3917      3927      3637      3628      3918      3928      3638
 -1      2614    1    0    1
 -2      3628      3918      3928      3638      3629      3919      3929      3639
 -1      2615    1    0    1
 -2      3629      3919      3929      3639      3630      3920      3930      3640
 -1      2616    1    0    1
 -2      3630      3920      3930      3640      3631      3921      3931      3641
 -1      2617    1    0    1
 -2      3631      3921      3931      3641      3632      3922      3932      3642
 -1      2618    1    0    1
 -2      3632      3922      3932      3642      1884      1913      1914      1885
 -1      2619    1    0    1
 -2       374       403       404       375      3633      3923      3933      3643
 -1      2620    1    0    1
 -2      3633      3923      3933      3643      3634      3924      3934      3644
 -1      2621    1    0    1
 -2      3634      3924      3934      3644      3635      3925      3935      3645
 -1      2622    1    0    1
 -2      3635      3925      3935      3645      3636      3926      3936      3646
 -1      2623    1    0    1
 -2      3636      3926      3936      3646      3637      3927      3937      3647
 -1      2624    1    0    1
 -2      3637      3927      3937      3647      3638      3928      3938      3648
 -1      2625    1    0    1
 -2      3638      3928      3938      3648      3639      3929      3939      3649
 -1      2626    1    0    1
 -2      3639      3929      3939      3649      3640      3930      3940      3650
 -1      2627    1    0    1
 -2      3640      3930      3940      3650      3641      3931      3941      3651
 -1      2628    1    0    1
 -2      3641      3931      3941      3651      3642      3932      3942      3652
 -1      2629    1    0    1
 -2      3642      3932      3942      3652      1885      1914      1915      1886
 -1      2630    1    0    1
 -2       375       404       405       376      3643      3933      3943      3653
 -1      2631    1    0    1
 -2      3643      3933      3943      3653      3644      3934      3944      3654
 -1      2632    1    0    1
 -2      3644      3934      3944      3654      3645      3935      3945      3655
 -1      2633    1    0    1
 -2      3645      3935      3945      3655      3646      3936      3946      3656
 -1      2634    1    0    1
 -2      3646      3936      3946      3656      3647      3937      3947      3657
 -1      2635    1    0    1
 -2      3647      3937      3947      3657      3648      3938      3948      3658
 -1      2636    1    0    1
 -2      3648      3938      3948      3658      3649      3939      3949      3659
 -1      2637    1    0    1
 -2      3649      3939      3949      3659      3650      3940      3950      3660
 -1      2638    1    0    1
 -2      3650      3940      3950      3660      3651      3941      3951      3661
 -1      2639    1    0    1
 -2      3651      3941      3951      3661      3652      3942      3952      3662
 -1      2640    1    0    1
 -2      3652      3942      3952      3662      1886      1915      1916      1887
 -1      2641    1    0    1
 -2       376       405       406       377      3653      3943      3953      3663
 -1      2642    1    0    1
 -2      3653      3943      3953      3663      3654      3944      3954      3664
 -1      2643    1    0    1
 -2      3654      3944      3954      3664      3655      3945      3955      3665
 -1      2644    1    0    1
 -2      3655      3945      3955      3665      3656      3946      3956      3666
 -1      2645    1    0    1
 -2      3656      3946      3956      3666      3657      3947      3957      3667
 -1      2646    1    0    1
 -2      3657      3947      3957      3667      3658      3948      3958      3668
 -1      2647    1    0    1
 -2      3658      3948      3958      3668      3659      3949      3959      3669
 -1      2648    1    0    1
 -2      3659      3949      3959      3669      3660      3950      3960      3670
 -1      2649    1    0    1
 -2      3660      3950      3960      3670      3661      3951      3961      3671
 -1      2650    1    0    1
 -2      3661      3951      3961      3671      3662      3952      3962      3672
 -1      2651    1    0    1
 -2      3662      3952      3962      3672      1887      1916      1917      1888
 -1      2652    1    0    1
 -2       377       406       407       378      3663      3953      3963      3673
 -1      2653    1    0    1
 -2      3663      3953      3963      3673      3664      3954      3964      3674
 -1      2654    1    0    1
 -2      3664      3954      3964      3674      3665      3955      3965      3675
 -1      2655    1    0    1
 -2      3665      3955      3965      3675      3666      3956      3966      3676
 -1      2656    1    0    1
 -2      3666      3956      3966      3676      3667      3957      3967      3677
 -1      2657    1    0    1
 -2      3667      3957      3967      3677      3668      3958      3968      3678
 -1      2658    1    0    1
 -2      3668      3958      3968      3678      3669      3959      3969      3679
 -1      2659    1    0    1
 -2      3669      3959      3969      3679      3670      3960      3970      3680
 -1      2660    1    0    1
 -2      3670      3960      3970      3680      3671      3961      3971      3681
 -1      2661    1    0    1
 -2      3671      3961      3971      3681      3672      3962      3972      3682
 -1      2662    1    0    1
 -2      3672      3962      3972      3682      1888      1917      1918      1889
 -1      2663    1    0    1
 -2       378       407       408       379      3673      3963      3973      3683
 -1      2664    1    0    1
 -2      3673      3963      3973      3683      3674      3964      3974      3684
 -1      2665    1    0    1
 -2      3674      3964      3974      3684      3675      3965      3975      3685
 -1      2666    1    0    1
 -2      3675      3965      3975      3685      3676      3966      3976      3686
 -1      2667    1    0    1
 -2      3676      3966      3976      3686      3677      3967      3977      3687
 -1      2668    1    0    1
 -2      3677      3967      3977      3687      3678      3968      3978      3688
 -1      2669    1    0    1
 -2      3678      3968      3978      3688      3679      3969      3979      3689
 -1      2670    1    0    1
 -2      3679      3969      3979      3689      3680      3970      3980      3690
 -1      2671    1    0    1
 -2      3680      3970      3980      3690      3681      3971      3981      3691
 -1      2672    1    0    1
 -2      3681      3971      3981      3691      3682      3972      3982      3692
 -1      2673    1    0    1
 -2      3682      3972      3982      3692      1889      1918      1919      1890
 -1      2674    1    0    1
 -2       379       408       409       380      3683      3973      3983      3693
 -1      2675    1    0    1
 -2      3683      3973      3983      3693      3684      3974      3984      3694
 -1      2676    1    0    1
 -2      3684      3974      3984      3694      3685      3975      3985      3695
 -1      2677    1    0    1
 -2      3685      3975      3985      3695      3686      3976      3986      3696
 -1      2678    1    0    1
 -2      3686      3976      3986      3696      3687      3977      3987      3697
 -1      2679    1    0    1
 -2      3687      3977      3987      3697      3688      3978      3988      3698
 -1      2680    1    0    1
 -2      3688      3978      3988      3698      3689      3979      3989      3699
 -1      2681    1    0    1
 -2      3689      3979      3989      3699      3690      3980      3990      3700
 -1      2682    1    0    1
 -2      3690      3980      3990      3700      3691      3981      3991      3701
 -1      2683    1    0    1
 -2      3691      3981      3991      3701      3692      3982      3992      3702
 -1      2684    1    0    1
 -2      3692      3982      3992      3702      1890      1919      1920      1891
 -1      2685    1    0    1
 -2       380       409       410       381      3693      3983      3993      3703
 -1      2686    1    0    1
 -2      3693      3983      3993      3703      3694      3984      3994      3704
 -1      2687    1    0    1
 -2      3694      3984      3994      3704      3695      3985      3995      3705
 -1      2688    1    0    1
 -2      3695      3985      3995      3705      3696      3986      3996      3706
 -1      2689    1    0    1
 -2      3696      3986      3996      3706      3697      3987      3997      3707
 -1      2690    1    0    1
 -2      3697      3987      3997      3707      3698      3988      3998      3708
 -1      2691    1    0    1
 -2      3698      3988      3998      3708      3699      3989      3999      3709
 -1      2692    1    0    1
 -2      3699      3989      3999      3709      3700      3990      4000      3710
 -1      2693    1    0    1
 -2      3700      3990      4000      3710      3701      3991      4001      3711
 -1      2694    1    0    1
 -2      3701      3991      4001      3711      3702      3992      4002      3712
 -1      2695    1    0    1
 -2      3702      3992      4002      3712      1891      1920      1921      1892
 -1      2696    1    0    1
 -2       381       410       411       382      3703      3993      4003      3713
 -1      2697    1    0    1
 -2      3703      3993      4003      3713      3704      3994      4004      3714
 -1      2698    1    0    1
 -2      3704      3994      4004      3714      3705      3995      4005      3715
 -1      2699    1    0    1
 -2      3705      3995      4005      3715      3706      3996      4006      3716
 -1      2700    1    0    1
 -2      3706      3996      4006      3716      3707      3997      4007      3717
 -1      2701    1    0    1
 -2      3707      3997      4007      3717      3708      3998      4008      3718
 -1      2702    1    0    1
 -2      3708      3998      4008      3718      3709      3999      4009      3719
 -1      2703    1    0    1
 -2      3709      3999      4009      3719      3710      4000      4010      3720
 -1      2704    1    0    1
 -2      3710      4000      4010      3720      3711      4001      4011      3721
 -1      2705    1    0    1
 -2      3711      4001      4011      3721      3712      4002      4012      3722
 -1      2706    1    0    1
 -2      3712      4002      4012      3722      1892      1921      1922      1893
 -1      2707    1    0    1
 -2       382       411       412       383      3713      4003      4013      3723
 -1      2708    1    0    1
 -2      3713      4003      4013      3723      3714      4004      4014      3724
 -1      2709    1    0    1
 -2      3714      4004      4014      3724      3715      4005      4015      3725
 -1      2710    1    0    1
 -2      3715      4005      4015      3725      3716      4006      4016      3726
 -1      2711    1    0    1
 -2      3716      4006      4016      3726      3717      4007      4017      3727
 -1      2712    1    0    1
 -2      3717      4007      4017      3727      3718      4008      4018      3728
 -1      2713    1    0    1
 -2      3718      4008      4018      3728      3719      4009      4019      3729
 -1      2714    1    0    1
 -2      3719      4009      4019      3729      3720      4010      4020      3730
 -1      2715    1    0    1
 -2      3720      4010      4020      3730      3721      4011      4021      3731
 -1      2716    1    0    1
 -2      3721      4011      4021      3731      3722      4012      4022      3732
 -1      2717    1    0    1
 -2      3722      4012      4022      3732      1893      1922      1923      1894
 -1      2718    1    0    1
 -2       383       412       413       384      3723      4013      4023      3733
 -1      2719    1    0    1
 -2      3723      4013      4023      3733      3724      4014      4024      3734
 -1      2720    1    0    1
 -2      3724      4014      4024      3734      3725      4015      4025      3735
 -1      2721    1    0    1
 -2      3725      4015      4025      3735      3726      4016      4026      3736
 -1      2722    1    0    1
 -2      3726      4016      4026      3736      3727      4017      4027      3737
 -1      2723    1    0    1
 -2      3727      4017      4027      3737      3728      4018      4028      3738
 -1      2724    1    0    1
 -2      3728      4018      4028      3738      3729      4019      4029      3739
 -1      2725    1    0    1
 -2      3729      4019      4029      3739      3730      4020      4030      3740
 -1      2726    1    0    1
 -2      3730      4020      4030      3740      3731      4021      4031      3741
 -1      2727    1    0    1
 -2      3731      4021      4031      3741      3732      4022      4032      3742
 -1      2728    1    0    1
 -2      3732      4022      4032      3742      1894      1923      1924      1895
 -1      2729    1    0    1
 -2       384       413       414       385      3733      4023      4033      3743
 -1      2730    1    0    1
 -2      3733      4023      4033      3743      3734      4024      4034      3744
 -1      2731    1    0    1
 -2      3734      4024      4034      3744      3735      4025      4035      3745
 -1      2732    1    0    1
 -2      3735      4025      4035      3745      3736      4026      4036      3746
 -1      2733    1    0    1
 -2      3736      4026      4036      3746      3737      4027      4037      3747
 -1      2734    1    0    1
 -2      3737      4027      4037      3747      3738      4028      4038      3748
 -1      2735    1    0    1
 -2      3738      4028      4038      3748      3739      4029      4039      3749
 -1      2736    1    0    1
 -2      3739      4029      4039      3749      3740      4030      4040      3750
 -1      2737    1    0    1
 -2      3740      4030      4040      3750      3741      4031      4041      3751
 -1      2738    1    0    1
 -2      3741      4031      4041      3751      3742      4032      4042      3752
 -1      2739    1    0    1
 -2      3742      4032      4042      3752      1895      1924      1925      1896
 -1      2740    1    0    1
 -2       385       414        70        71      3743      4033      1402      1412
 -1      2741    1    0    1
 -2      3743      4033      1402      1412      3744      4034      1403      1413
 -1      2742    1    0    1
 -2      3744      4034      1403      1413      3745      4035      1404      1414
 -1      2743    1    0    1
 -2      3745      4035      1404      1414      3746      4036      1405      1415
 -1      2744    1    0    1
 -2      3746      4036      1405      1415      3747      4037      1406      1416
 -1      2745    1    0    1
 -2      3747      4037      1406      1416      3748      4038      1407      1417
 -1      2746    1    0    1
 -2      3748      4038      1407      1417      3749      4039      1408      1418
 -1      2747    1    0    1
 -2      3749      4039      1408      1418      3750      4040      1409      1419
 -1      2748    1    0    1
 -2      3750      4040      1409      1419      3751      4041      1410      1420
 -1      2749    1    0    1
 -2      3751      4041      1410      1420      3752      4042      1411      1421
 -1      2750    1    0    1
 -2      3752      4042      1411      1421      1896      1925       166       167
 -1      2751    1    0    1
 -2        14        15       415       386       842       852      4043      3753
 -1      2752    1    0    1
 -2       842       852      4043      3753       843       853      4044      3754
 -1      2753    1    0    1
 -2       843       853      4044      3754       844       854      4045      3755
 -1      2754    1    0    1
 -2       844       854      4045      3755       845       855      4046      3756
 -1      2755    1    0    1
 -2       845       855      4046      3756       846       856      4047      3757
 -1      2756    1    0    1
 -2       846       856      4047      3757       847       857      4048      3758
 -1      2757    1    0    1
 -2       847       857      4048      3758       848       858      4049      3759
 -1      2758    1    0    1
 -2       848       858      4049      3759       849       859      4050      3760
 -1      2759    1    0    1
 -2       849       859      4050      3760       850       860      4051      3761
 -1      2760    1    0    1
 -2       850       860      4051      3761       851       861      4052      3762
 -1      2761    1    0    1
 -2       851       861      4052      3762       110       111      1926      1897
 -1      2762    1    0    1
 -2       386       415       416       387      3753      4043      4053      3763
 -1      2763    1    0    1
 -2      3753      4043      4053      3763      3754      4044      4054      3764
 -1      2764    1    0    1
 -2      3754      4044      4054      3764      3755      4045      4055      3765
 -1      2765    1    0    1
 -2      3755      4045      4055      3765      3756      4046      4056      3766
 -1      2766    1    0    1
 -2      3756      4046      4056      3766      3757      4047      4057      3767
 -1      2767    1    0    1
 -2      3757      4047      4057      3767      3758      4048      4058      3768
 -1      2768    1    0    1
 -2      3758      4048      4058      3768      3759      4049      4059      3769
 -1      2769    1    0    1
 -2      3759      4049      4059      3769      3760      4050      4060      3770
 -1      2770    1    0    1
 -2      3760      4050      4060      3770      3761      4051      4061      3771
 -1      2771    1    0    1
 -2      3761      4051      4061      3771      3762      4052      4062      3772
 -1      2772    1    0    1
 -2      3762      4052      4062      3772      1897      1926      1927      1898
 -1      2773    1    0    1
 -2       387       416       417       388      3763      4053      4063      3773
 -1      2774    1    0    1
 -2      3763      4053      4063      3773      3764      4054      4064      3774
 -1      2775    1    0    1
 -2      3764      4054      4064      3774      3765      4055      4065      3775
 -1      2776    1    0    1
 -2      3765      4055      4065      3775      3766      4056      4066      3776
 -1      2777    1    0    1
 -2      3766      4056      4066      3776      3767      4057      4067      3777
 -1      2778    1    0    1
 -2      3767      4057      4067      3777      3768      4058      4068      3778
 -1      2779    1    0    1
 -2      3768      4058      4068      3778      3769      4059      4069      3779
 -1      2780    1    0    1
 -2      3769      4059      4069      3779      3770      4060      4070      3780
 -1      2781    1    0    1
 -2      3770      4060      4070      3780      3771      4061      4071      3781
 -1      2782    1    0    1
 -2      3771      4061      4071      3781      3772      4062      4072      3782
 -1      2783    1    0    1
 -2      3772      4062      4072      3782      1898      1927      1928      1899
 -1      2784    1    0    1
 -2       388       417       418       389      3773      4063      4073      3783
 -1      2785    1    0    1
 -2      3773      4063      4073      3783      3774      4064      4074      3784
 -1      2786    1    0    1
 -2      3774      4064      4074      3784      3775      4065      4075      3785
 -1      2787    1    0    1
 -2      3775      4065      4075      3785      3776      4066      4076      3786
 -1      2788    1    0    1
 -2      3776      4066      4076      3786      3777      4067      4077      3787
 -1      2789    1    0    1
 -2      3777      4067      4077      3787      3778      4068      4078      3788
 -1      2790    1    0    1
 -2      3778      4068      4078      3788      3779      4069      4079      3789
 -1      2791    1    0    1
 -2      3779      4069      4079      3789      3780      4070      4080      3790
 -1      2792    1    0    1
 -2      3780      4070      4080      3790      3781      4071      4081      3791
 -1      2793    1    0    1
 -2      3781      4071      4081      3791      3782      4072      4082      3792
 -1      2794    1    0    1
 -2      3782      4072      4082      3792      1899      1928      1929      1900
 -1      2795    1    0    1
 -2       389       418       419       390      3783      4073      4083      3793
 -1      2796    1    0    1
 -2      3783      4073      4083      3793      3784      4074      4084      3794
 -1      2797    1    0    1
 -2      3784      4074      4084      3794      3785      4075      4085      3795
 -1      2798    1    0    1
 -2      3785      4075      4085      3795      3786      4076      4086      3796
 -1      2799    1    0    1
 -2      3786      4076      4086      3796      3787      4077      4087      3797
 -1      2800    1    0    1
 -2      3787      4077      4087      3797      3788      4078      4088      3798
 -1      2801    1    0    1
 -2      3788      4078      4088      3798      3789      4079      4089      3799
 -1      2802    1    0    1
 -2      3789      4079      4089      3799      3790      4080      4090      3800
 -1      2803    1    0    1
 -2      3790      4080      4090      3800      3791      4081      4091      3801
 -1      2804    1    0    1
 -2      3791      4081      4091      3801      3792      4082      4092      3802
 -1      2805    1    0    1
 -2      3792      4082      4092      3802      1900      1929      1930      1901
 -1      2806    1    0    1
 -2       390       419       420       391      3793      4083      4093      3803
 -1      2807    1    0    1
 -2      3793      4083      4093      3803      3794      4084      4094      3804
 -1      2808    1    0    1
 -2      3794      4084      4094      3804      3795      4085      4095      3805
 -1      2809    1    0    1
 -2      3795      4085      4095      3805      3796      4086      4096      3806
 -1      2810    1    0    1
 -2      3796      4086      4096      3806      3797      4087      4097      3807
 -1      2811    1    0    1
 -2      3797      4087      4097      3807      3798      4088      4098      3808
 -1      2812    1    0    1
 -2      3798      4088      4098      3808      3799      4089      4099      3809
 -1      2813    1    0    1
 -2      3799      4089      4099      3809      3800      4090      4100      3810
 -1      2814    1    0    1
 -2      3800      4090      4100      3810      3801      4091      4101      3811
 -1      2815    1    0    1
 -2      3801      4091      4101      3811      3802      4092      4102      3812
 -1      2816    1    0    1
 -2      3802      4092      4102      3812      1901      1930      1931      1902
 -1      2817    1    0    1
 -2       391       420       421       392      3803      4093      4103      3813
 -1      2818    1    0    1
 -2      3803      4093      4103      3813      3804      4094      4104      3814
 -1      2819    1    0    1
 -2      3804      4094      4104      3814      3805      4095      4105      3815
 -1      2820    1    0    1
 -2      3805      4095      4105      3815      3806      4096      4106      3816
 -1      2821    1    0    1
 -2      3806      4096      4106      3816      3807      4097      4107      3817
 -1      2822    1    0    1
 -2      3807      4097      4107      3817      3808      4098      4108      3818
 -1      2823    1    0    1
 -2      3808      4098      4108      3818      3809      4099      4109      3819
 -1      2824    1    0    1
 -2      3809      4099      4109      3819      3810      4100      4110      3820
 -1      2825    1    0    1
 -2      3810      4100      4110      3820      3811      4101      4111      3821
 -1      2826    1    0    1
 -2      3811      4101      4111      3821      3812      4102      4112      3822
 -1      2827    1    0    1
 -2      3812      4102      4112      3822      1902      1931      1932      1903
 -1      2828    1    0    1
 -2       392       421       422       393      3813      4103      4113      3823
 -1      2829    1    0    1
 -2      3813      4103      4113      3823      3814      4104      4114      3824
 -1      2830    1    0    1
 -2      3814      4104      4114      3824      3815      4105      4115      3825
 -1      2831    1    0    1
 -2      3815      4105      4115      3825      3816      4106      4116      3826
 -1      2832    1    0    1
 -2      3816      4106      4116      3826      3817      4107      4117      3827
 -1      2833    1    0    1
 -2      3817      4107      4117      3827      3818      4108      4118      3828
 -1      2834    1    0    1
 -2      3818      4108      4118      3828      3819      4109      4119      3829
 -1      2835    1    0    1
 -2      3819      4109      4119      3829      3820      4110      4120      3830
 -1      2836    1    0    1
 -2      3820      4110      4120      3830      3821      4111      4121      3831
 -1      2837    1    0    1
 -2      3821      4111      4121      3831      3822      4112      4122      3832
 -1      2838    1    0    1
 -2      3822      4112      4122      3832      1903      1932      1933      1904
 -1      2839    1    0    1
 -2       393       422       423       394      3823      4113      4123      3833
 -1      2840    1    0    1
 -2      3823      4113      4123      3833      3824      4114      4124      3834
 -1      2841    1    0    1
 -2      3824      4114      4124      3834      3825      4115      4125      3835
 -1      2842    1    0    1
 -2      3825      4115      4125      3835      3826      4116      4126      3836
 -1      2843    1    0    1
 -2      3826      4116      4126      3836      3827      4117      4127      3837
 -1      2844    1    0    1
 -2      3827      4117      4127      3837      3828      4118      4128      3838
 -1      2845    1    0    1
 -2      3828      4118      4128      3838      3829      4119      4129      3839
 -1      2846    1    0    1
 -2      3829      4119      4129      3839      3830      4120      4130      3840
 -1      2847    1    0    1
 -2      3830      4120      4130      3840      3831      4121      4131      3841
 -1      2848    1    0    1
 -2      3831      4121      4131      3841      3832      4122      4132      3842
 -1      2849    1    0    1
 -2      3832      4122      4132      3842      1904      1933      1934      1905
 -1      2850    1    0    1
 -2       394       423       424       395      3833      4123      4133      3843
 -1      2851    1    0    1
 -2      3833      4123      4133      3843      3834      4124      4134      3844
 -1      2852    1    0    1
 -2      3834      4124      4134      3844      3835      4125      4135      3845
 -1      2853    1    0    1
 -2      3835      4125      4135      3845      3836      4126      4136      3846
 -1      2854    1    0    1
 -2      3836      4126      4136      3846      3837      4127      4137      3847
 -1      2855    1    0    1
 -2      3837      4127      4137      3847      3838      4128      4138      3848
 -1      2856    1    0    1
 -2      3838      4128      4138      3848      3839      4129      4139      3849
 -1      2857    1    0    1
 -2      3839      4129      4139      3849      3840      4130      4140      3850
 -1      2858    1    0    1
 -2      3840      4130      4140      3850      3841      4131      4141      3851
 -1      2859    1    0    1
 -2      3841      4131      4141      3851      3842      4132      4142      3852
 -1      2860    1    0    1
 -2      3842      4132      4142      3852      1905      1934      1935      1906
 -1      2861    1    0    1
 -2       395       424       425       396      3843      4133      4143      3853
 -1      2862    1    0    1
 -2      3843      4133      4143      3853      3844      4134      4144      3854
 -1      2863    1    0    1
 -2      3844      4134      4144      3854      3845      4135      4145      3855
 -1      2864    1    0    1
 -2      3845      4135      4145      3855      3846      4136      4146      3856
 -1      2865    1    0    1
 -2      3846      4136      4146      3856      3847      4137      4147      3857
 -1      2866    1    0    1
 -2      3847      4137      4147      3857      3848      4138      4148      3858
 -1      2867    1    0    1
 -2      3848      4138      4148      3858      3849      4139      4149      3859
 -1      2868    1    0    1
 -2      3849      4139      4149      3859      3850      4140      4150      3860
 -1      2869    1    0    1
 -2      3850      4140      4150      3860      3851      4141      4151      3861
 -1      2870    1    0    1
 -2      3851      4141      4151      3861      3852      4142      4152      3862
 -1      2871    1    0    1
 -2      3852      4142      4152      3862      1906      1935      1936      1907
 -1      2872    1    0    1
 -2       396       425       426       397      3853      4143      4153      3863
 -1      2873    1    0    1
 -2      3853      4143      4153      3863      3854      4144      4154      3864
 -1      2874    1    0    1
 -2      3854      4144      4154      3864      3855      4145      4155      3865
 -1      2875    1    0    1
 -2      3855      4145      4155      3865      3856      4146      4156      3866
 -1      2876    1    0    1
 -2      3856      4146      4156      3866      3857      4147      4157      3867
 -1      2877    1    0    1
 -2      3857      4147      4157      3867      3858      4148      4158      3868
 -1      2878    1    0    1
 -2      3858      4148      4158      3868      3859      4149      4159      3869
 -1      2879    1    0    1
 -2      3859      4149      4159      3869      3860      4150      4160      3870
 -1      2880    1    0    1
 -2      3860      4150      4160      3870      3861      4151      4161      3871
 -1      2881    1    0    1
 -2      3861      4151      4161      3871      3862      4152      4162      3872
 -1      2882    1    0    1
 -2      3862      4152      4162      3872      1907      1936      1937      1908
 -1      2883    1    0    1
 -2       397       426       427       398      3863      4153      4163      3873
 -1      2884    1    0    1
 -2      3863      4153      4163      3873      3864      4154      4164      3874
 -1      2885    1    0    1
 -2      3864      4154      4164      3874      3865      4155      4165      3875
 -1      2886    1    0    1
 -2      3865      4155      4165      3875      3866      4156      4166      3876
 -1      2887    1    0    1
 -2      3866      4156      4166      3876      3867      4157      4167      3877
 -1      2888    1    0    1
 -2      3867      4157      4167      3877      3868      4158      4168      3878
 -1      2889    1    0    1
 -2      3868      4158      4168      3878      3869      4159      4169      3879
 -1      2890    1    0    1
 -2      3869      4159      4169      3879      3870      4160      4170      3880
 -1      2891    1    0    1
 -2      3870      4160      4170      3880      3871      4161      4171      3881
 -1      2892    1    0    1
 -2      3871      4161      4171      3881      3872      4162      4172      3882
 -1      2893    1    0    1
 -2      3872      4162      4172      3882      1908      1937      1938      1909
 -1      2894    1    0    1
 -2       398       427       428       399      3873      4163      4173      3883
 -1      2895    1    0    1
 -2      3873      4163      4173      3883      3874      4164      4174      3884
 -1      2896    1    0    1
 -2      3874      4164      4174      3884      3875      4165      4175      3885
 -1      2897    1    0    1
 -2      3875      4165      4175      3885      3876      4166      4176      3886
 -1      2898    1    0    1
 -2      3876      4166      4176      3886      3877      4167      4177      3887
 -1      2899    1    0    1
 -2      3877      4167      4177      3887      3878      4168      4178      3888
 -1      2900    1    0    1
 -2      3878      4168      4178      3888      3879      4169      4179      3889
 -1      2901    1    0    1
 -2      3879      4169      4179      3889      3880      4170      4180      3890
 -1      2902    1    0    1
 -2      3880      4170      4180      3890      3881      4171      4181      3891
 -1      2903    1    0    1
 -2      3881      4171      4181      3891      3882      4172      4182      3892
 -1      2904    1    0    1
 -2      3882      4172      4182      3892      1909      1938      1939      1910
 -1      2905    1    0    1
 -2       399       428       429       400      3883      4173      4183      3893
 -1      2906    1    0    1
 -2      3883      4173      4183      3893      3884      4174      4184      3894
 -1      2907    1    0    1
 -2      3884      4174      4184      3894      3885      4175      4185      3895
 -1      2908    1    0    1
 -2      3885      4175      4185      3895      3886      4176      4186      3896
 -1      2909    1    0    1
 -2      3886      4176      4186      3896      3887      4177      4187      3897
 -1      2910    1    0    1
 -2      3887      4177      4187      3897      3888      4178      4188      3898
 -1      2911    1    0    1
 -2      3888      4178      4188      3898      3889      4179      4189      3899
 -1      2912    1    0    1
 -2      3889      4179      4189      3899      3890      4180      4190      3900
 -1      2913    1    0    1
 -2      3890      4180      4190      3900      3891      4181      4191      3901
 -1      2914    1    0    1
 -2      3891      4181      4191      3901      3892      4182      4192      3902
 -1      2915    1    0    1
 -2      3892      4182      4192      3902      1910      1939      1940      1911
 -1      2916    1    0    1
 -2       400       429       430       401      3893      4183      4193      3903
 -1      2917    1    0    1
 -2      3893      4183      4193      3903      3894      4184      4194      3904
 -1      2918    1    0    1
 -2      3894      4184      4194      3904      3895      4185      4195      3905
 -1      2919    1    0    1
 -2      3895      4185      4195      3905      3896      4186      4196      3906
 -1      2920    1    0    1
 -2      3896      4186      4196      3906      3897      4187      4197      3907
 -1      2921    1    0    1
 -2      3897      4187      4197      3907      3898      4188      4198      3908
 -1      2922    1    0    1
 -2      3898      4188      4198      3908      3899      4189      4199      3909
 -1      2923    1    0    1
 -2      3899      4189      4199      3909      3900      4190      4200      3910
 -1      2924    1    0    1
 -2      3900      4190      4200      3910      3901      4191      4201      3911
 -1      2925    1    0    1
 -2      3901      4191      4201      3911      3902      4192      4202      3912
 -1      2926    1    0    1
 -2      3902      4192      4202      3912      1911      1940      1941      1912
 -1      2927    1    0    1
 -2       401       430       431       402      3903      4193      4203      3913
 -1      2928    1    0    1
 -2      3903      4193      4203      3913      3904      4194      4204      3914
 -1      2929    1    0    1
 -2      3904      4194      4204      3914      3905      4195      4205      3915
 -1      2930    1    0    1
 -2      3905      4195      4205      3915      3906      4196      4206      3916
 -1      2931    1    0    1
 -2      3906      4196      4206      3916      3907      4197      4207      3917
 -1      2932    1    0    1
 -2      3907      4197      4207      3917      3908      4198      4208      3918
 -1      2933    1    0    1
 -2      3908      4198      4208      3918      3909      4199      4209      3919
 -1      2934    1    0    1
 -2      3909      4199      4209      3919      3910      4200      4210      3920
 -1      2935    1    0    1
 -2      3910      4200      4210      3920      3911      4201      4211      3921
 -1      2936    1    0    1
 -2      3911      4201      4211      3921      3912      4202      4212      3922
 -1      2937    1    0    1
 -2      3912      4202      4212      3922      1912      1941      1942      1913
 -1      2938    1    0    1
 -2       402       431       432       403      3913      4203      4213      3923
 -1      2939    1    0    1
 -2      3913      4203      4213      3923      3914      4204      4214      3924
 -1      2940    1    0    1
 -2      3914      4204      4214      3924      3915      4205      4215      3925
 -1      2941    1    0    1
 -2      3915      4205      4215      3925      3916      4206      4216      3926
 -1      2942    1    0    1
 -2      3916      4206      4216      3926      3917      4207      4217      3927
 -1      2943    1    0    1
 -2      3917      4207      4217      3927      3918      4208      4218      3928
 -1      2944    1    0    1
 -2      3918      4208      4218      3928      3919      4209      4219      3929
 -1      2945    1    0    1
 -2      3919      4209      4219      3929      3920      4210      4220      3930
 -1      2946    1    0    1
 -2      3920      4210      4220      3930      3921      4211      4221      3931
 -1      2947    1    0    1
 -2      3921      4211      4221      3931      3922      4212      4222      3932
 -1      2948    1    0    1
 -2      3922      4212      4222      3932      1913      1942      1943      1914
 -1      2949    1    0    1
 -2       403       432       433       404      3923      4213      4223      3933
 -1      2950    1    0    1
 -2      3923      4213      4223      3933      3924      4214      4224      3934
 -1      2951    1    0    1
 -2      3924      4214      4224      3934      3925      4215      4225      3935
 -1      2952    1    0    1
 -2      3925      4215      4225      3935      3926      4216      4226      3936
 -1      2953    1    0    1
 -2      3926      4216      4226      3936      3927      4217      4227      3937
 -1      2954    1    0    1
 -2      3927      4217      4227      3937      3928      4218      4228      3938
 -1      2955    1    0    1
 -2      3928      4218      4228      3938      3929      4219      4229      3939
 -1      2956    1    0    1
 -2      3929      4219      4229      3939      3930      4220      4230      3940
 -1      2957    1    0    1
 -2      3930      4220      4230      3940      3931      4221      4231      3941
 -1      2958    1    0    1
 -2      3931      4221      4231      3941      3932      4222      4232      3942
 -1      2959    1    0    1
 -2      3932      4222      4232      3942      1914      1943      1944      1915
 -1      2960    1    0    1
 -2       404       433       434       405      3933      4223      4233      3943
 -1      2961    1    0    1
 -2      3933      4223      4233      3943      3934      4224      4234      3944
 -1      2962    1    0    1
 -2      3934      4224      4234      3944      3935      4225      4235      3945
 -1      2963    1    0    1
 -2      3935      4225      4235      3945      3936      4226      4236      3946
 -1      2964    1    0    1
 -2      3936      4226      4236      3946      3937      4227      4237      3947
 -1      2965    1    0    1
 -2      3937      4227      4237      3947      3938      4228      4238      3948
 -1      2966    1    0    1
 -2      3938      4228      4238      3948      3939      4229      4239      3949
 -1      2967    1    0    1
 -2      3939      4229      4239      3949      3940      4230      4240      3950
 -1      2968    1    0    1
 -2      3940      4230      4240      3950      3941      4231      4241      3951
 -1      2969    1    0    1
 -2      3941      4231      4241      3951      3942      4232      4242      3952
 -1      2970    1    0    1
 -2      3942      4232      4242      3952      1915      1944      1945      1916
 -1      2971    1    0    1
 -2       405       434       435       406      3943      4233      4243      3953
 -1      2972    1    0    1
 -2      3943      4233      4243      3953      3944      4234      4244      3954
 -1      2973    1    0    1
 -2      3944      4234      4244      3954      3945      4235      4245      3955
 -1      2974    1    0    1
 -2      3945      4235      4245      3955      3946      4236      4246      3956
 -1      2975    1    0    1
 -2      3946      4236      4246      3956      3947      4237      4247      3957
 -1      2976    1    0    1
 -2      3947      4237      4247      3957      3948      4238      4248      3958
 -1      2977    1    0    1
 -2      3948      4238      4248      3958      3949      4239      4249      3959
 -1      2978    1    0    1
 -2      3949      4239      4249      3959      3950      4240      4250      3960
 -1      2979    1    0    1
 -2      3950      4240      4250      3960      3951      4241      4251      3961
 -1      2980    1    0    1
 -2      3951      4241      4251      3961      3952      4242      4252      3962
 -1      2981    1    0    1
 -2      3952      4242      4252      3962      1916      1945      1946      1917
 -1      2982    1    0    1
 -2       406       435       436       407      3953      4243      4253      3963
 -1      2983    1    0    1
 -2      3953      4243      4253      3963      3954      4244      4254      3964
 -1      2984    1    0    1
 -2      3954      4244      4254      3964      3955      4245      4255      3965
 -1      2985    1    0    1
 -2      3955      4245      4255      3965      3956      4246      4256      3966
 -1      2986    1    0    1
 -2      3956      4246      4256      3966      3957      4247      4257      3967
 -1      2987    1    0    1
 -2      3957      4247      4257      3967      3958      4248      4258      3968
 -1      2988    1    0    1
 -2      3958      4248      4258      3968      3959      4249      4259      3969
 -1      2989    1    0    1
 -2      3959      4249      4259      3969      3960      4250      4260      3970
 -1      2990    1    0    1
 -2      3960      4250      4260      3970      3961      4251      4261      3971
 -1      2991    1    0    1
 -2      3961      4251      4261      3971      3962      4252      4262      3972
 -1      2992    1    0    1
 -2      3962      4252      4262      3972      1917      1946      1947      1918
 -1      2993    1    0    1
 -2       407       436       437       408      3963      4253      4263      3973
 -1      2994    1    0    1
 -2      3963      4253      4263      3973      3964      4254      4264      3974
 -1      2995    1    0    1
 -2      3964      4254      4264      3974      3965      4255      4265      3975
 -1      2996    1    0    1
 -2      3965      4255      4265      3975      3966      4256      4266      3976
 -1      2997    1    0    1
 -2      3966      4256      4266      3976      3967      4257      4267      3977
 -1      2998    1    0    1
 -2      3967      4257      4267      3977      3968      4258      4268      3978
 -1      2999    1    0    1
 -2      3968      4258      4268      3978      3969      4259      4269      3979
 -1      3000    1    0    1
 -2      3969      4259      4269      3979      3970      4260      4270      3980
 -1      3001    1    0    1
 -2      3970      4260      4270      3980      3971      4261      4271      3981
 -1      3002    1    0    1
 -2      3971      4261      4271      3981      3972      4262      4272      3982
 -1      3003    1    0    1
 -2      3972      4262      4272      3982      1918      1947      1948      1919
 -1      3004    1    0    1
 -2       408       437       438       409      3973      4263      4273      3983
 -1      3005    1    0    1
 -2      3973      4263      4273      3983      3974      4264      4274      3984
 -1      3006    1    0    1
 -2      3974      4264      4274      3984      3975      4265      4275      3985
 -1      3007    1    0    1
 -2      3975      4265      4275      3985      3976      4266      4276      3986
 -1      3008    1    0    1
 -2      3976      4266      4276      3986      3977      4267      4277      3987
 -1      3009    1    0    1
 -2      3977      4267      4277      3987      3978      4268      4278      3988
 -1      3010    1    0    1
 -2      3978      4268      4278      3988      3979      4269      4279      3989
 -1      3011    1    0    1
 -2      3979      4269      4279      3989      3980      4270      4280      3990
 -1      3012    1    0    1
 -2      3980      4270      4280      3990      3981      4271      4281      3991
 -1      3013    1    0    1
 -2      3981      4271      4281      3991      3982      4272      4282      3992
 -1      3014    1    0    1
 -2      3982      4272      4282      3992      1919      1948      1949      1920
 -1      3015    1    0    1
 -2       409       438       439       410      3983      4273      4283      3993
 -1      3016    1    0    1
 -2      3983      4273      4283      3993      3984      4274      4284      3994
 -1      3017    1    0    1
 -2      3984      4274      4284      3994      3985      4275      4285      3995
 -1      3018    1    0    1
 -2      3985      4275      4285      3995      3986      4276      4286      3996
 -1      3019    1    0    1
 -2      3986      4276      4286      3996      3987      4277      4287      3997
 -1      3020    1    0    1
 -2      3987      4277      4287      3997      3988      4278      4288      3998
 -1      3021    1    0    1
 -2      3988      4278      4288      3998      3989      4279      4289      3999
 -1      3022    1    0    1
 -2      3989      4279      4289      3999      3990      4280      4290      4000
 -1      3023    1    0    1
 -2      3990      4280      4290      4000      3991      4281      4291      4001
 -1      3024    1    0    1
 -2      3991      4281      4291      4001      3992      4282      4292      4002
 -1      3025    1    0    1
 -2      3992      4282      4292      4002      1920      1949      1950      1921
 -1      3026    1    0    1
 -2       410       439       440       411      3993      4283      4293      4003
 -1      3027    1    0    1
 -2      3993      4283      4293      4003      3994      4284      4294      4004
 -1      3028    1    0    1
 -2      3994      4284      4294      4004      3995      4285      4295      4005
 -1      3029    1    0    1
 -2      3995      4285      4295      4005      3996      4286      4296      4006
 -1      3030    1    0    1
 -2      3996      4286      4296      4006      3997      4287      4297      4007
 -1      3031    1    0    1
 -2      3997      4287      4297      4007      3998      4288      4298      4008
 -1      3032    1    0    1
 -2      3998      4288      4298      4008      3999      4289      4299      4009
 -1      3033    1    0    1
 -2      3999      4289      4299      4009      4000      4290      4300      4010
 -1      3034    1    0    1
 -2      4000      4290      4300      4010      4001      4291      4301      4011
 -1      3035    1    0    1
 -2      4001      4291      4301      4011      4002      4292      4302      4012
 -1      3036    1    0    1
 -2      4002      4292      4302      4012      1921      1950      1951      1922
 -1      3037    1    0    1
 -2       411       440       441       412      4003      4293      4303      4013
 -1      3038    1    0    1
 -2      4003      4293      4303      4013      4004      4294      4304      4014
 -1      3039    1    0    1
 -2      4004      4294      4304      4014      4005      4295      4305      4015
 -1      3040    1    0    1
 -2      4005      4295      4305      4015      4006      4296      4306      4016
 -1      3041    1    0    1
 -2      4006      4296      4306      4016      4007      4297      4307      4017
 -1      3042    1    0    1
 -2      4007      4297      4307      4017      4008      4298      4308      4018
 -1      3043    1    0    1
 -2      4008      4298      4308      4018      4009      4299      4309      4019
 -1      3044    1    0    1
 -2      4009      4299      4309      4019      4010      4300      4310      4020
 -1      3045    1    0    1
 -2      4010      4300      4310      4020      4011      4301      4311      4021
 -1      3046    1    0    1
 -2      4011      4301      4311      4021      4012      4302      4312      4022
 -1      3047    1    0    1
 -2      4012      4302      4312      4022      1922      1951      1952      1923
 -1      3048    1    0    1
 -2       412       441       442       413      4013      4303      4313      4023
 -1      3049    1    0    1
 -2      4013      4303      4313      4023      4014      4304      4314      4024
 -1      3050    1    0    1
 -2      4014      4304      4314      4024      4015      4305      4315      4025
 -1      3051    1    0    1
 -2      4015      4305      4315      4025      4016      4306      4316      4026
 -1      3052    1    0    1
 -2      4016      4306      4316      4026      4017      4307      4317      4027
 -1      3053    1    0    1
 -2      4017      4307      4317      4027      4018      4308      4318      4028
 -1      3054    1    0    1
 -2      4018      4308      4318      4028      4019      4309      4319      4029
 -1      3055    1    0    1
 -2      4019      4309      4319      4029      4020      4310      4320      4030
 -1      3056    1    0    1
 -2      4020      4310      4320      4030      4021      4311      4321      4031
 -1      3057    1    0    1
 -2      4021      4311      4321      4031      4022      4312      4322      4032
 -1      3058    1    0    1
 -2      4022      4312      4322      4032      1923      1952      1953      1924
 -1      3059    1    0    1
 -2       413       442       443       414      4023      4313      4323      4033
 -1      3060    1    0    1
 -2      4023      4313      4323      4033      4024      4314      4324      4034
 -1      3061    1    0    1
 -2      4024      4314      4324      4034      4025      4315      4325      4035
 -1      3062    1    0    1
 -2      4025      4315      4325      4035      4026      4316      4326      4036
 -1      3063    1    0    1
 -2      4026      4316      4326      4036      4027      4317      4327      4037
 -1      3064    1    0    1
 -2      4027      4317      4327      4037      4028      4318      4328      4038
 -1      3065    1    0    1
 -2      4028      4318      4328      4038      4029      4319      4329      4039
 -1      3066    1    0    1
 -2      4029      4319      4329      4039      4030      4320      4330      4040
 -1      3067    1    0    1
 -2      4030      4320      4330      4040      4031      4321      4331      4041
 -1      3068    1    0    1
 -2      4031      4321      4331      4041      4032      4322      4332      4042
 -1      3069    1    0    1
 -2      4032      4322      4332      4042      1924      1953      1954      1925
 -1      3070    1    0    1
 -2       414       443        69        70      4033      4323      1392      1402
 -1      3071    1    0    1
 -2      4033      4323      1392      1402      4034      4324      1393      1403
 -1      3072    1    0    1
 -2      4034      4324      1393      1403      4035      4325      1394      1404
 -1      3073    1    0    1
 -2      4035      4325      1394      1404      4036      4326      1395      1405
 -1      3074    1    0    1
 -2      4036      4326      1395      1405      4037      4327      1396      1406
 -1      3075    1    0    1
 -2      4037      4327      1396      1406      4038      4328      1397      1407
 -1      3076    1    0    1
 -2      4038      4328      1397      1407      4039      4329      1398      1408
 -1      3077    1    0    1
 -2      4039      4329      1398      1408      4040      4330      1399      1409
 -1      3078    1    0    1
 -2      4040      4330      1399      1409      4041      4331      1400      1410
 -1      3079    1    0    1
 -2      4041      4331      1400      1410      4042      4332      1401      1411
 -1      3080    1    0    1
 -2      4042      4332      1401      1411      1925      1954       165       166
 -1      3081    1    0    1
 -2        15        16       444       415       852       862      4333      4043
 -1      3082    1    0    1
 -2       852       862      4333      4043       853       863      4334      4044
 -1      3083    1    0    1
 -2       853       863      4334      4044       854       864      4335      4045
 -1      3084    1    0    1
 -2       854       864      4335      4045       855       865      4336      4046
 -1      3085    1    0    1
 -2       855       865      4336      4046       856       866      4337      4047
 -1      3086    1    0    1
 -2       856       866      4337      4047       857       867      4338      4048
 -1      3087    1    0    1
 -2       857       867      4338      4048       858       868      4339      4049
 -1      3088    1    0    1
 -2       858       868      4339      4049       859       869      4340      4050
 -1      3089    1    0    1
 -2       859       869      4340      4050       860       870      4341      4051
 -1      3090    1    0    1
 -2       860       870      4341      4051       861       871      4342      4052
 -1      3091    1    0    1
 -2       861       871      4342      4052       111       112      1955      1926
 -1      3092    1    0    1
 -2       415       444       445       416      4043      4333      4343      4053
 -1      3093    1    0    1
 -2      4043      4333      4343      4053      4044      4334      4344      4054
 -1      3094    1    0    1
 -2      4044      4334      4344      4054      4045      4335      4345      4055
 -1      3095    1    0    1
 -2      4045      4335      4345      4055      4046      4336      4346      4056
 -1      3096    1    0    1
 -2      4046      4336      4346      4056      4047      4337      4347      4057
 -1      3097    1    0    1
 -2      4047      4337      4347      4057      4048      4338      4348      4058
 -1      3098    1    0    1
 -2      4048      4338      4348      4058      4049      4339      4349      4059
 -1      3099    1    0    1
 -2      4049      4339      4349      4059      4050      4340      4350      4060
 -1      3100    1    0    1
 -2      4050      4340      4350      4060      4051      4341      4351      4061
 -1      3101    1    0    1
 -2      4051      4341      4351      4061      4052      4342      4352      4062
 -1      3102    1    0    1
 -2      4052      4342      4352      4062      1926      1955      1956      1927
 -1      3103    1    0    1
 -2       416       445       446       417      4053      4343      4353      4063
 -1      3104    1    0    1
 -2      4053      4343      4353      4063      4054      4344      4354      4064
 -1      3105    1    0    1
 -2      4054      4344      4354      4064      4055      4345      4355      4065
 -1      3106    1    0    1
 -2      4055      4345      4355      4065      4056      4346      4356      4066
 -1      3107    1    0    1
 -2      4056      4346      4356      4066      4057      4347      4357      4067
 -1      3108    1    0    1
 -2      4057      4347      4357      4067      4058      4348      4358      4068
 -1      3109    1    0    1
 -2      4058      4348      4358      4068      4059      4349      4359      4069
 -1      3110    1    0    1
 -2      4059      4349      4359      4069      4060      4350      4360      4070
 -1      3111    1    0    1
 -2      4060      4350      4360      4070      4061      4351      4361      4071
 -1      3112    1    0    1
 -2      4061      4351      4361      4071      4062      4352      4362      4072
 -1      3113    1    0    1
 -2      4062      4352      4362      4072      1927      1956      1957      1928
 -1      3114    1    0    1
 -2       417       446       447       418      4063      4353      4363      4073
 -1      3115    1    0    1
 -2      4063      4353      4363      4073      4064      4354      4364      4074
 -1      3116    1    0    1
 -2      4064      4354      4364      4074      4065      4355      4365      4075
 -1      3117    1    0    1
 -2      4065      4355      4365      4075      4066      4356      4366      4076
 -1      3118    1    0    1
 -2      4066      4356      4366      4076      4067      4357      4367      4077
 -1      3119    1    0    1
 -2      4067      4357      4367      4077      4068      4358      4368      4078
 -1      3120    1    0    1
 -2      4068      4358      4368      4078      4069      4359      4369      4079
 -1      3121    1    0    1
 -2      4069      4359      4369      4079      4070      4360      4370      4080
 -1      3122    1    0    1
 -2      4070      4360      4370      4080      4071      4361      4371      4081
 -1      3123    1    0    1
 -2      4071      4361      4371      4081      4072      4362      4372      4082
 -1      3124    1    0    1
 -2      4072      4362      4372      4082      1928      1957      1958      1929
 -1      3125    1    0    1
 -2       418       447       448       419      4073      4363      4373      4083
 -1      3126    1    0    1
 -2      4073      4363      4373      4083      4074      4364      4374      4084
 -1      3127    1    0    1
 -2      4074      4364      4374      4084      4075      4365      4375      4085
 -1      3128    1    0    1
 -2      4075      4365      4375      4085      4076      4366      4376      4086
 -1      3129    1    0    1
 -2      4076      4366      4376      4086      4077      4367      4377      4087
 -1      3130    1    0    1
 -2      4077      4367      4377      4087      4078      4368      4378      4088
 -1      3131    1    0    1
 -2      4078      4368      4378      4088      4079      4369      4379      4089
 -1      3132    1    0    1
 -2      4079      4369      4379      4089      4080      4370      4380      4090
 -1      3133    1    0    1
 -2      4080      4370      4380      4090      4081      4371      4381      4091
 -1      3134    1    0    1
 -2      4081      4371      4381      4091      4082      4372      4382      4092
 -1      3135    1    0    1
 -2      4082      4372      4382      4092      1929      1958      1959      1930
 -1      3136    1    0    1
 -2       419       448       449       420      4083      4373      4383      4093
 -1      3137    1    0    1
 -2      4083      4373      4383      4093      4084      4374      4384      4094
 -1      3138    1    0    1
 -2      4084      4374      4384      4094      4085      4375      4385      4095
 -1      3139    1    0    1
 -2      4085      4375      4385      4095      4086      4376      4386      4096
 -1      3140    1    0    1
 -2      4086      4376      4386      4096      4087      4377      4387      4097
 -1      3141    1    0    1
 -2      4087      4377      4387      4097      4088      4378      4388      4098
 -1      3142    1    0    1
 -2      4088      4378      4388      4098      4089      4379      4389      4099
 -1      3143    1    0    1
 -2      4089      4379      4389      4099      4090      4380      4390      4100
 -1      3144    1    0    1
 -2      4090      4380      4390      4100      4091      4381      4391      4101
 -1      3145    1    0    1
 -2      4091      4381      4391      4101      4092      4382      4392      4102
 -1      3146    1    0    1
 -2      4092      4382      4392      4102      1930      1959      1960      1931
 -1      3147    1    0    1
 -2       420       449       450       421      4093      4383      4393      4103
 -1      3148    1    0    1
 -2      4093      4383      4393      4103      4094      4384      4394      4104
 -1      3149    1    0    1
 -2      4094      4384      4394      4104      4095      4385      4395      4105
 -1      3150    1    0    1
 -2      4095      4385      4395      4105      4096      4386      4396      4106
 -1      3151    1    0    1
 -2      4096      4386      4396      4106      4097      4387      4397      4107
 -1      3152    1    0    1
 -2      4097      4387      4397      4107      4098      4388      4398      4108
 -1      3153    1    0    1
 -2      4098      4388      4398      4108      4099      4389      4399      4109
 -1      3154    1    0    1
 -2      4099      4389      4399      4109      4100      4390      4400      4110
 -1      3155    1    0    1
 -2      4100      4390      4400      4110      4101      4391      4401      4111
 -1      3156    1    0    1
 -2      4101      4391      4401      4111      4102      4392      4402      4112
 -1      3157    1    0    1
 -2      4102      4392      4402      4112      1931      1960      1961      1932
 -1      3158    1    0    1
 -2       421       450       451       422      4103      4393      4403      4113
 -1      3159    1    0    1
 -2      4103      4393      4403      4113      4104      4394      4404      4114
 -1      3160    1    0    1
 -2      4104      4394      4404      4114      4105      4395      4405      4115
 -1      3161    1    0    1
 -2      4105      4395      4405      4115      4106      4396      4406      4116
 -1      3162    1    0    1
 -2      4106      4396      4406      4116      4107      4397      4407      4117
 -1      3163    1    0    1
 -2      4107      4397      4407      4117      4108      4398      4408      4118
 -1      3164    1    0    1
 -2      4108      4398      4408      4118      4109      4399      4409      4119
 -1      3165    1    0    1
 -2      4109      4399      4409      4119      4110      4400      4410      4120
 -1      3166    1    0    1
 -2      4110      4400      4410      4120      4111      4401      4411      4121
 -1      3167    1    0    1
 -2      4111      4401      4411      4121      4112      4402      4412      4122
 -1      3168    1    0    1
 -2      4112      4402      4412      4122      1932      1961      1962      1933
 -1      3169    1    0    1
 -2       422       451       452       423      4113      4403      4413      4123
 -1      3170    1    0    1
 -2      4113      4403      4413      4123      4114      4404      4414      4124
 -1      3171    1    0    1
 -2      4114      4404      4414      4124      4115      4405      4415      4125
 -1      3172    1    0    1
 -2      4115      4405      4415      4125      4116      4406      4416      4126
 -1      3173    1    0    1
 -2      4116      4406      4416      4126      4117      4407      4417      4127
 -1      3174    1    0    1
 -2      4117      4407      4417      4127      4118      4408      4418      4128
 -1      3175    1    0    1
 -2      4118      4408      4418      4128      4119      4409      4419      4129
 -1      3176    1    0    1
 -2      4119      4409      4419      4129      4120      4410      4420      4130
 -1      3177    1    0    1
 -2      4120      4410      4420      4130      4121      4411      4421      4131
 -1      3178    1    0    1
 -2      4121      4411      4421      4131      4122      4412      4422      4132
 -1      3179    1    0    1
 -2      4122      4412      4422      4132      1933      1962      1963      1934
 -1      3180    1    0    1
 -2       423       452       453       424      4123      4413      4423      4133
 -1      3181    1    0    1
 -2      4123      4413      4423      4133      4124      4414      4424      4134
 -1      3182    1    0    1
 -2      4124      4414      4424      4134      4125      4415      4425      4135
 -1      3183    1    0    1
 -2      4125      4415      4425      4135      4126      4416      4426      4136
 -1      3184    1    0    1
 -2      4126      4416      4426      4136      4127      4417      4427      4137
 -1      3185    1    0    1
 -2      4127      4417      4427      4137      4128      4418      4428      4138
 -1      3186    1    0    1
 -2      4128      4418      4428      4138      4129      4419      4429      4139
 -1      3187    1    0    1
 -2      4129      4419      4429      4139      4130      4420      4430      4140
 -1      3188    1    0    1
 -2      4130      4420      4430      4140      4131      4421      4431      4141
 -1      3189    1    0    1
 -2      4131      4421      4431      4141      4132      4422      4432      4142
 -1      3190    1    0    1
 -2      4132      4422      4432      4142      1934      1963      1964      1935
 -1      3191    1    0    1
 -2       424       453       454       425      4133      4423      4433      4143
 -1      3192    1    0    1
 -2      4133      4423      4433      4143      4134      4424      4434      4144
 -1      3193    1    0    1
 -2      4134      4424      4434      4144      4135      4425      4435      4145
 -1      3194    1    0    1
 -2      4135      4425      4435      4145      4136      4426      4436      4146
 -1      3195    1    0    1
 -2      4136      4426      4436      4146      4137      4427      4437      4147
 -1      3196    1    0    1
 -2      4137      4427      4437      4147      4138      4428      4438      4148
 -1      3197    1    0    1
 -2      4138      4428      4438      4148      4139      4429      4439      4149
 -1      3198    1    0    1
 -2      4139      4429      4439      4149      4140      4430      4440      4150
 -1      3199    1    0    1
 -2      4140      4430      4440      4150      4141      4431      4441      4151
 -1      3200    1    0    1
 -2      4141      4431      4441      4151      4142      4432      4442      4152
 -1      3201    1    0    1
 -2      4142      4432      4442      4152      1935      1964      1965      1936
 -1      3202    1    0    1
 -2       425       454       455       426      4143      4433      4443      4153
 -1      3203    1    0    1
 -2      4143      4433      4443      4153      4144      4434      4444      4154
 -1      3204    1    0    1
 -2      4144      4434      4444      4154      4145      4435      4445      4155
 -1      3205    1    0    1
 -2      4145      4435      4445      4155      4146      4436      4446      4156
 -1      3206    1    0    1
 -2      4146      4436      4446      4156      4147      4437      4447      4157
 -1      3207    1    0    1
 -2      4147      4437      4447      4157      4148      4438      4448      4158
 -1      3208    1    0    1
 -2      4148      4438      4448      4158      4149      4439      4449      4159
 -1      3209    1    0    1
 -2      4149      4439      4449      4159      4150      4440      4450      4160
 -1      3210    1    0    1
 -2      4150      4440      4450      4160      4151      4441      4451      4161
 -1      3211    1    0    1
 -2      4151      4441      4451      4161      4152      4442      4452      4162
 -1      3212    1    0    1
 -2      4152      4442      4452      4162      1936      1965      1966      1937
 -1      3213    1    0    1
 -2       426       455       456       427      4153      4443      4453      4163
 -1      3214    1    0    1
 -2      4153      4443      4453      4163      4154      4444      4454      4164
 -1      3215    1    0    1
 -2      4154      4444      4454      4164      4155      4445      4455      4165
 -1      3216    1    0    1
 -2      4155      4445      4455      4165      4156      4446      4456      4166
 -1      3217    1    0    1
 -2      4156      4446      4456      4166      4157      4447      4457      4167
 -1      3218    1    0    1
 -2      4157      4447      4457      4167      4158      4448      4458      4168
 -1      3219    1    0    1
 -2      4158      4448      4458      4168      4159      4449      4459      4169
 -1      3220    1    0    1
 -2      4159      4449      4459      4169      4160      4450      4460      4170
 -1      3221    1    0    1
 -2      4160      4450      4460      4170      4161      4451      4461      4171
 -1      3222    1    0    1
 -2      4161      4451      4461      4171      4162      4452      4462      4172
 -1      3223    1    0    1
 -2      4162      4452      4462      4172      1937      1966      1967      1938
 -1      3224    1    0    1
 -2       427       456       457       428      4163      4453      4463      4173
 -1      3225    1    0    1
 -2      4163      4453      4463      4173      4164      4454      4464      4174
 -1      3226    1    0    1
 -2      4164      4454      4464      4174      4165      4455      4465      4175
 -1      3227    1    0    1
 -2      4165      4455      4465      4175      4166      4456      4466      4176
 -1      3228    1    0    1
 -2      4166      4456      4466      4176      4167      4457      4467      4177
 -1      3229    1    0    1
 -2      4167      4457      4467      4177      4168      4458      4468      4178
 -1      3230    1    0    1
 -2      4168      4458      4468      4178      4169      4459      4469      4179
 -1      3231    1    0    1
 -2      4169      4459      4469      4179      4170      4460      4470      4180
 -1      3232    1    0    1
 -2      4170      4460      4470      4180      4171      4461      4471      4181
 -1      3233    1    0    1
 -2      4171      4461      4471      4181      4172      4462      4472      4182
 -1      3234    1    0    1
 -2      4172      4462      4472      4182      1938      1967      1968      1939
 -1      3235    1    0    1
 -2       428       457       458       429      4173      4463      4473      4183
 -1      3236    1    0    1
 -2      4173      4463      4473      4183      4174      4464      4474      4184
 -1      3237    1    0    1
 -2      4174      4464      4474      4184      4175      4465      4475      4185
 -1      3238    1    0    1
 -2      4175      4465      4475      4185      4176      4466      4476      4186
 -1      3239    1    0    1
 -2      4176      4466      4476      4186      4177      4467      4477      4187
 -1      3240    1    0    1
 -2      4177      4467      4477      4187      4178      4468      4478      4188
 -1      3241    1    0    1
 -2      4178      4468      4478      4188      4179      4469      4479      4189
 -1      3242    1    0    1
 -2      4179      4469      4479      4189      4180      4470      4480      4190
 -1      3243    1    0    1
 -2      4180      4470      4480      4190      4181      4471      4481      4191
 -1      3244    1    0    1
 -2      4181      4471      4481      4191      4182      4472      4482      4192
 -1      3245    1    0    1
 -2      4182      4472      4482      4192      1939      1968      1969      1940
 -1      3246    1    0    1
 -2       429       458       459       430      4183      4473      4483      4193
 -1      3247    1    0    1
 -2      4183      4473      4483      4193      4184      4474      4484      4194
 -1      3248    1    0    1
 -2      4184      4474      4484      4194      4185      4475      4485      4195
 -1      3249    1    0    1
 -2      4185      4475      4485      4195      4186      4476      4486      4196
 -1      3250    1    0    1
 -2      4186      4476      4486      4196      4187      4477      4487      4197
 -1      3251    1    0    1
 -2      4187      4477      4487      4197      4188      4478      4488      4198
 -1      3252    1    0    1
 -2      4188      4478      4488      4198      4189      4479      4489      4199
 -1      3253    1    0    1
 -2      4189      4479      4489      4199      4190      4480      4490      4200
 -1      3254    1    0    1
 -2      4190      4480      4490      4200      4191      4481      4491      4201
 -1      3255    1    0    1
 -2      4191      4481      4491      4201      4192      4482      4492      4202
 -1      3256    1    0    1
 -2      4192      4482      4492      4202      1940      1969      1970      1941
 -1      3257    1    0    1
 -2       430       459       460       431      4193      4483      4493      4203
 -1      3258    1    0    1
 -2      4193      4483      4493      4203      4194      4484      4494      4204
 -1      3259    1    0    1
 -2      4194      4484      4494      4204      4195      4485      4495      4205
 -1      3260    1    0    1
 -2      4195      4485      4495      4205      4196      4486      4496      4206
 -1      3261    1    0    1
 -2      4196      4486      4496      4206      4197      4487      4497      4207
 -1      3262    1    0    1
 -2      4197      4487      4497      4207      4198      4488      4498      4208
 -1      3263    1    0    1
 -2      4198      4488      4498      4208      4199      4489      4499      4209
 -1      3264    1    0    1
 -2      4199      4489      4499      4209      4200      4490      4500      4210
 -1      3265    1    0    1
 -2      4200      4490      4500      4210      4201      4491      4501      4211
 -1      3266    1    0    1
 -2      4201      4491      4501      4211      4202      4492      4502      4212
 -1      3267    1    0    1
 -2      4202      4492      4502      4212      1941      1970      1971      1942
 -1      3268    1    0    1
 -2       431       460       461       432      4203      4493      4503      4213
 -1      3269    1    0    1
 -2      4203      4493      4503      4213      4204      4494      4504      4214
 -1      3270    1    0    1
 -2      4204      4494      4504      4214      4205      4495      4505      4215
 -1      3271    1    0    1
 -2      4205      4495      4505      4215      4206      4496      4506      4216
 -1      3272    1    0    1
 -2      4206      4496      4506      4216      4207      4497      4507      4217
 -1      3273    1    0    1
 -2      4207      4497      4507      4217      4208      4498      4508      4218
 -1      3274    1    0    1
 -2      4208      4498      4508      4218      4209      4499      4509      4219
 -1      3275    1    0    1
 -2      4209      4499      4509      4219      4210      4500      4510      4220
 -1      3276    1    0    1
 -2      4210      4500      4510      4220      4211      4501      4511      4221
 -1      3277    1    0    1
 -2      4211      4501      4511      4221      4212      4502      4512      4222
 -1      3278    1    0    1
 -2      4212      4502      4512      4222      1942      1971      1972      1943
 -1      3279    1    0    1
 -2       432       461       462       433      4213      4503      4513      4223
 -1      3280    1    0    1
 -2      4213      4503      4513      4223      4214      4504      4514      4224
 -1      3281    1    0    1
 -2      4214      4504      4514      4224      4215      4505      4515      4225
 -1      3282    1    0    1
 -2      4215      4505      4515      4225      4216      4506      4516      4226
 -1      3283    1    0    1
 -2      4216      4506      4516      4226      4217      4507      4517      4227
 -1      3284    1    0    1
 -2      4217      4507      4517      4227      4218      4508      4518      4228
 -1      3285    1    0    1
 -2      4218      4508      4518      4228      4219      4509      4519      4229
 -1      3286    1    0    1
 -2      4219      4509      4519      4229      4220      4510      4520      4230
 -1      3287    1    0    1
 -2      4220      4510      4520      4230      4221      4511      4521      4231
 -1      3288    1    0    1
 -2      4221      4511      4521      4231      4222      4512      4522      4232
 -1      3289    1    0    1
 -2      4222      4512      4522      4232      1943      1972      1973      1944
 -1      3290    1    0    1
 -2       433       462       463       434      4223      4513      4523      4233
 -1      3291    1    0    1
 -2      4223      4513      4523      4233      4224      4514      4524      4234
 -1      3292    1    0    1
 -2      4224      4514      4524      4234      4225      4515      4525      4235
 -1      3293    1    0    1
 -2      4225      4515      4525      4235      4226      4516      4526      4236
 -1      3294    1    0    1
 -2      4226      4516      4526      4236      4227      4517      4527      4237
 -1      3295    1    0    1
 -2      4227      4517      4527      4237      4228      4518      4528      4238
 -1      3296    1    0    1
 -2      4228      4518      4528      4238      4229      4519      4529      4239
 -1      3297    1    0    1
 -2      4229      4519      4529      4239      4230      4520      4530      4240
 -1      3298    1    0    1
 -2      4230      4520      4530      4240      4231      4521      4531      4241
 -1      3299    1    0    1
 -2      4231      4521      4531      4241      4232      4522      4532      4242
 -1      3300    1    0    1
 -2      4232      4522      4532      4242      1944      1973      1974      1945
 -1      3301    1    0    1
 -2       434       463       464       435      4233      4523      4533      4243
 -1      3302    1    0    1
 -2      4233      4523      4533      4243      4234      4524      4534      4244
 -1      3303    1    0    1
 -2      4234      4524      4534      4244      4235      4525      4535      4245
 -1      3304    1    0    1
 -2      4235      4525      4535      4245      4236      4526      4536      4246
 -1      3305    1    0    1
 -2      4236      4526      4536      4246      4237      4527      4537      4247
 -1      3306    1    0    1
 -2      4237      4527      4537      4247      4238      4528      4538      4248
 -1      3307    1    0    1
 -2      4238      4528      4538      4248      4239      4529      4539      4249
 -1      3308    1    0    1
 -2      4239      4529      4539      4249      4240      4530      4540      4250
 -1      3309    1    0    1
 -2      4240      4530      4540      4250      4241      4531      4541      4251
 -1      3310    1    0    1
 -2      4241      4531      4541      4251      4242      4532      4542      4252
 -1      3311    1    0    1
 -2      4242      4532      4542      4252      1945      1974      1975      1946
 -1      3312    1    0    1
 -2       435       464       465       436      4243      4533      4543      4253
 -1      3313    1    0    1
 -2      4243      4533      4543      4253      4244      4534      4544      4254
 -1      3314    1    0    1
 -2      4244      4534      4544      4254      4245      4535      4545      4255
 -1      3315    1    0    1
 -2      4245      4535      4545      4255      4246      4536      4546      4256
 -1      3316    1    0    1
 -2      4246      4536      4546      4256      4247      4537      4547      4257
 -1      3317    1    0    1
 -2      4247      4537      4547      4257      4248      4538      4548      4258
 -1      3318    1    0    1
 -2      4248      4538      4548      4258      4249      4539      4549      4259
 -1      3319    1    0    1
 -2      4249      4539      4549      4259      4250      4540      4550      4260
 -1      3320    1    0    1
 -2      4250      4540      4550      4260      4251      4541      4551      4261
 -1      3321    1    0    1
 -2      4251      4541      4551      4261      4252      4542      4552      4262
 -1      3322    1    0    1
 -2      4252      4542      4552      4262      1946      1975      1976      1947
 -1      3323    1    0    1
 -2       436       465       466       437      4253      4543      4553      4263
 -1      3324    1    0    1
 -2      4253      4543      4553      4263      4254      4544      4554      4264
 -1      3325    1    0    1
 -2      4254      4544      4554      4264      4255      4545      4555      4265
 -1      3326    1    0    1
 -2      4255      4545      4555      4265      4256      4546      4556      4266
 -1      3327    1    0    1
 -2      4256      4546      4556      4266      4257      4547      4557      4267
 -1      3328    1    0    1
 -2      4257      4547      4557      4267      4258      4548      4558      4268
 -1      3329    1    0    1
 -2      4258      4548      4558      4268      4259      4549      4559      4269
 -1      3330    1    0    1
 -2      4259      4549      4559      4269      4260      4550      4560      4270
 -1      3331    1    0    1
 -2      4260      4550      4560      4270      4261      4551      4561      4271
 -1      3332    1    0    1
 -2      4261      4551      4561      4271      4262      4552      4562      4272
 -1      3333    1    0    1
 -2      4262      4552      4562      4272      1947      1976      1977      1948
 -1      3334    1    0    1
 -2       437       466       467       438      4263      4553      4563      4273
 -1      3335    1    0    1
 -2      4263      4553      4563      4273      4264      4554      4564      4274
 -1      3336    1    0    1
 -2      4264      4554      4564      4274      4265      4555      4565      4275
 -1      3337    1    0    1
 -2      4265      4555      4565      4275      4266      4556      4566      4276
 -1      3338    1    0    1
 -2      4266      4556      4566      4276      4267      4557      4567      4277
 -1      3339    1    0    1
 -2      4267      4557      4567      4277      4268      4558      4568      4278
 -1      3340    1    0    1
 -2      4268      4558      4568      4278      4269      4559      4569      4279
 -1      3341    1    0    1
 -2      4269      4559      4569      4279      4270      4560      4570      4280
 -1      3342    1    0    1
 -2      4270      4560      4570      4280      4271      4561      4571      4281
 -1      3343    1    0    1
 -2      4271      4561      4571      4281      4272      4562      4572      4282
 -1      3344    1    0    1
 -2      4272      4562      4572      4282      1948      1977      1978      1949
 -1      3345    1    0    1
 -2       438       467       468       439      4273      4563      4573      4283
 -1      3346    1    0    1
 -2      4273      4563      4573      4283      4274      4564      4574      4284
 -1      3347    1    0    1
 -2      4274      4564      4574      4284      4275      4565      4575      4285
 -1      3348    1    0    1
 -2      4275      4565      4575      4285      4276      4566      4576      4286
 -1      3349    1    0    1
 -2      4276      4566      4576      4286      4277      4567      4577      4287
 -1      3350    1    0    1
 -2      4277      4567      4577      4287      4278      4568      4578      4288
 -1      3351    1    0    1
 -2      4278      4568      4578      4288      4279      4569      4579      4289
 -1      3352    1    0    1
 -2      4279      4569      4579      4289      4280      4570      4580      4290
 -1      3353    1    0    1
 -2      4280      4570      4580      4290      4281      4571      4581      4291
 -1      3354    1    0    1
 -2      4281      4571      4581      4291      4282      4572      4582      4292
 -1      3355    1    0    1
 -2      4282      4572      4582      4292      1949      1978      1979      1950
 -1      3356    1    0    1
 -2       439       468       469       440      4283      4573      4583      4293
 -1      3357    1    0    1
 -2      4283      4573      4583      4293      4284      4574      4584      4294
 -1      3358    1    0    1
 -2      4284      4574      4584      4294      4285      4575      4585      4295
 -1      3359    1    0    1
 -2      4285      4575      4585      4295      4286      4576      4586      4296
 -1      3360    1    0    1
 -2      4286      4576      4586      4296      4287      4577      4587      4297
 -1      3361    1    0    1
 -2      4287      4577      4587      4297      4288      4578      4588      4298
 -1      3362    1    0    1
 -2      4288      4578      4588      4298      4289      4579      4589      4299
 -1      3363    1    0    1
 -2      4289      4579      4589      4299      4290      4580      4590      4300
 -1      3364    1    0    1
 -2      4290      4580      4590      4300      4291      4581      4591      4301
 -1      3365    1    0    1
 -2      4291      4581      4591      4301      4292      4582      4592      4302
 -1      3366    1    0    1
 -2      4292      4582      4592      4302      1950      1979      1980      1951
 -1      3367    1    0    1
 -2       440       469       470       441      4293      4583      4593      4303
 -1      3368    1    0    1
 -2      4293      4583      4593      4303      4294      4584      4594      4304
 -1      3369    1    0    1
 -2      4294      4584      4594      4304      4295      4585      4595      4305
 -1      3370    1    0    1
 -2      4295      4585      4595      4305      4296      4586      4596      4306
 -1      3371    1    0    1
 -2      4296      4586      4596      4306      4297      4587      4597      4307
 -1      3372    1    0    1
 -2      4297      4587      4597      4307      4298      4588      4598      4308
 -1      3373    1    0    1
 -2      4298      4588      4598      4308      4299      4589      4599      4309
 -1      3374    1    0    1
 -2      4299      4589      4599      4309      4300      4590      4600      4310
 -1      3375    1    0    1
 -2      4300      4590      4600      4310      4301      4591      4601      4311
 -1      3376    1    0    1
 -2      4301      4591      4601      4311      4302      4592      4602      4312
 -1      3377    1    0    1
 -2      4302      4592      4602      4312      1951      1980      1981      1952
 -1      3378    1    0    1
 -2       441       470       471       442      4303      4593      4603      4313
 -1      3379    1    0    1
 -2      4303      4593      4603      4313      4304      4594      4604      4314
 -1      3380    1    0    1
 -2      4304      4594      4604      4314      4305      4595      4605      4315
 -1      3381    1    0    1
 -2      4305      4595      4605      4315      4306      4596      4606      4316
 -1      3382    1    0    1
 -2      4306      4596      4606      4316      4307      4597      4607      4317
 -1      3383    1    0    1
 -2      4307      4597      4607      4317      4308      4598      4608      4318
 -1      3384    1    0    1
 -2      4308      4598      4608      4318      4309      4599      4609      4319
 -1      3385    1    0    1
 -2      4309      4599      4609      4319      4310      4600      4610      4320
 -1      3386    1    0    1
 -2      4310      4600      4610      4320      4311      4601      4611      4321
 -1      3387    1    0    1
 -2      4311      4601      4611      4321      4312      4602      4612      4322
 -1      3388    1    0    1
 -2      4312      4602      4612      4322      1952      1981      1982      1953
 -1      3389    1    0    1
 -2       442       471       472       443      4313      4603      4613      4323
 -1      3390    1    0    1
 -2      4313      4603      4613      4323      4314      4604      4614      4324
 -1      3391    1    0    1
 -2      4314      4604      4614      4324      4315      4605      4615      4325
 -1      3392    1    0    1
 -2      4315      4605      4615      4325      4316      4606      4616      4326
 -1      3393    1    0    1
 -2      4316      4606      4616      4326      4317      4607      4617      4327
 -1      3394    1    0    1
 -2      4317      4607      4617      4327      4318      4608      4618      4328
 -1      3395    1    0    1
 -2      4318      4608      4618      4328      4319      4609      4619      4329
 -1      3396    1    0    1
 -2      4319      4609      4619      4329      4320      4610      4620      4330
 -1      3397    1    0    1
 -2      4320      4610      4620      4330      4321      4611      4621      4331
 -1      3398    1    0    1
 -2      4321      4611      4621      4331      4322      4612      4622      4332
 -1      3399    1    0    1
 -2      4322      4612      4622      4332      1953      1982      1983      1954
 -1      3400    1    0    1
 -2       443       472        68        69      4323      4613      1382      1392
 -1      3401    1    0    1
 -2      4323      4613      1382      1392      4324      4614      1383      1393
 -1      3402    1    0    1
 -2      4324      4614      1383      1393      4325      4615      1384      1394
 -1      3403    1    0    1
 -2      4325      4615      1384      1394      4326      4616      1385      1395
 -1      3404    1    0    1
 -2      4326      4616      1385      1395      4327      4617      1386      1396
 -1      3405    1    0    1
 -2      4327      4617      1386      1396      4328      4618      1387      1397
 -1      3406    1    0    1
 -2      4328      4618      1387      1397      4329      4619      1388      1398
 -1      3407    1    0    1
 -2      4329      4619      1388      1398      4330      4620      1389      1399
 -1      3408    1    0    1
 -2      4330      4620      1389      1399      4331      4621      1390      1400
 -1      3409    1    0    1
 -2      4331      4621      1390      1400      4332      4622      1391      1401
 -1      3410    1    0    1
 -2      4332      4622      1391      1401      1954      1983       164       165
 -1      3411    1    0    1
 -2        16        17       473       444       862       872      4623      4333
 -1      3412    1    0    1
 -2       862       872      4623      4333       863       873      4624      4334
 -1      3413    1    0    1
 -2       863       873      4624      4334       864       874      4625      4335
 -1      3414    1    0    1
 -2       864       874      4625      4335       865       875      4626      4336
 -1      3415    1    0    1
 -2       865       875      4626      4336       866       876      4627      4337
 -1      3416    1    0    1
 -2       866       876      4627      4337       867       877      4628      4338
 -1      3417    1    0    1
 -2       867       877      4628      4338       868       878      4629      4339
 -1      3418    1    0    1
 -2       868       878      4629      4339       869       879      4630      4340
 -1      3419    1    0    1
 -2       869       879      4630      4340       870       880      4631      4341
 -1      3420    1    0    1
 -2       870       880      4631      4341       871       881      4632      4342
 -1      3421    1    0    1
 -2       871       881      4632      4342       112       113      1984      1955
 -1      3422    1    0    1
 -2       444       473       474       445      4333      4623      4633      4343
 -1      3423    1    0    1
 -2      4333      4623      4633      4343      4334      4624      4634      4344
 -1      3424    1    0    1
 -2      4334      4624      4634      4344      4335      4625      4635      4345
 -1      3425    1    0    1
 -2      4335      4625      4635      4345      4336      4626      4636      4346
 -1      3426    1    0    1
 -2      4336      4626      4636      4346      4337      4627      4637      4347
 -1      3427    1    0    1
 -2      4337      4627      4637      4347      4338      4628      4638      4348
 -1      3428    1    0    1
 -2      4338      4628      4638      4348      4339      4629      4639      4349
 -1      3429    1    0    1
 -2      4339      4629      4639      4349      4340      4630      4640      4350
 -1      3430    1    0    1
 -2      4340      4630      4640      4350      4341      4631      4641      4351
 -1      3431    1    0    1
 -2      4341      4631      4641      4351      4342      4632      4642      4352
 -1      3432    1    0    1
 -2      4342      4632      4642      4352      1955      1984      1985      1956
 -1      3433    1    0    1
 -2       445       474       475       446      4343      4633      4643      4353
 -1      3434    1    0    1
 -2      4343      4633      4643      4353      4344      4634      4644      4354
 -1      3435    1    0    1
 -2      4344      4634      4644      4354      4345      4635      4645      4355
 -1      3436    1    0    1
 -2      4345      4635      4645      4355      4346      4636      4646      4356
 -1      3437    1    0    1
 -2      4346      4636      4646      4356      4347      4637      4647      4357
 -1      3438    1    0    1
 -2      4347      4637      4647      4357      4348      4638      4648      4358
 -1      3439    1    0    1
 -2      4348      4638      4648      4358      4349      4639      4649      4359
 -1      3440    1    0    1
 -2      4349      4639      4649      4359      4350      4640      4650      4360
 -1      3441    1    0    1
 -2      4350      4640      4650      4360      4351      4641      4651      4361
 -1      3442    1    0    1
 -2      4351      4641      4651      4361      4352      4642      4652      4362
 -1      3443    1    0    1
 -2      4352      4642      4652      4362      1956      1985      1986      1957
 -1      3444    1    0    1
 -2       446       475       476       447      4353      4643      4653      4363
 -1      3445    1    0    1
 -2      4353      4643      4653      4363      4354      4644      4654      4364
 -1      3446    1    0    1
 -2      4354      4644      4654      4364      4355      4645      4655      4365
 -1      3447    1    0    1
 -2      4355      4645      4655      4365      4356      4646      4656      4366
 -1      3448    1    0    1
 -2      4356      4646      4656      4366      4357      4647      4657      4367
 -1      3449    1    0    1
 -2      4357      4647      4657      4367      4358      4648      4658      4368
 -1      3450    1    0    1
 -2      4358      4648      4658      4368      4359      4649      4659      4369
 -1      3451    1    0    1
 -2      4359      4649      4659      4369      4360      4650      4660      4370
 -1      3452    1    0    1
 -2      4360      4650      4660      4370      4361      4651      4661      4371
 -1      3453    1    0    1
 -2      4361      4651      4661      4371      4362      4652      4662      4372
 -1      3454    1    0    1
 -2      4362      4652      4662      4372      1957      1986      1987      1958
 -1      3455    1    0    1
 -2       447       476       477       448      4363      4653      4663      4373
 -1      3456    1    0    1
 -2      4363      4653      4663      4373      4364      4654      4664      4374
 -1      3457    1    0    1
 -2      4364      4654      4664      4374      4365      4655      4665      4375
 -1      3458    1    0    1
 -2      4365      4655      4665      4375      4366      4656      4666      4376
 -1      3459    1    0    1
 -2      4366      4656      4666      4376      4367      4657      4667      4377
 -1      3460    1    0    1
 -2      4367      4657      4667      4377      4368      4658      4668      4378
 -1      3461    1    0    1
 -2      4368      4658      4668      4378      4369      4659      4669      4379
 -1      3462    1    0    1
 -2      4369      4659      4669      4379      4370      4660      4670      4380
 -1      3463    1    0    1
 -2      4370      4660      4670      4380      4371      4661      4671      4381
 -1      3464    1    0    1
 -2      4371      4661      4671      4381      4372      4662      4672      4382
 -1      3465    1    0    1
 -2      4372      4662      4672      4382      1958      1987      1988      1959
 -1      3466    1    0    1
 -2       448       477       478       449      4373      4663      4673      4383
 -1      3467    1    0    1
 -2      4373      4663      4673      4383      4374      4664      4674      4384
 -1      3468    1    0    1
 -2      4374      4664      4674      4384      4375      4665      4675      4385
 -1      3469    1    0    1
 -2      4375      4665      4675      4385      4376      4666      4676      4386
 -1      3470    1    0    1
 -2      4376      4666      4676      4386      4377      4667      4677      4387
 -1      3471    1    0    1
 -2      4377      4667      4677      4387      4378      4668      4678      4388
 -1      3472    1    0    1
 -2      4378      4668      4678      4388      4379      4669      4679      4389
 -1      3473    1    0    1
 -2      4379      4669      4679      4389      4380      4670      4680      4390
 -1      3474    1    0    1
 -2      4380      4670      4680      4390      4381      4671      4681      4391
 -1      3475    1    0    1
 -2      4381      4671      4681      4391      4382      4672      4682      4392
 -1      3476    1    0    1
 -2      4382      4672      4682      4392      1959      1988      1989      1960
 -1      3477    1    0    1
 -2       449       478       479       450      4383      4673      4683      4393
 -1      3478    1    0    1
 -2      4383      4673      4683      4393      4384      4674      4684      4394
 -1      3479    1    0    1
 -2      4384      4674      4684      4394      4385      4675      4685      4395
 -1      3480    1    0    1
 -2      4385      4675      4685      4395      4386      4676      4686      4396
 -1      3481    1    0    1
 -2      4386      4676      4686      4396      4387      4677      4687      4397
 -1      3482    1    0    1
 -2      4387      4677      4687      4397      4388      4678      4688      4398
 -1      3483    1    0    1
 -2      4388      4678      4688      4398      4389      4679      4689      4399
 -1      3484    1    0    1
 -2      4389      4679      4689      4399      4390      4680      4690      4400
 -1      3485    1    0    1
 -2      4390      4680      4690      4400      4391      4681      4691      4401
 -1      3486    1    0    1
 -2      4391      4681      4691      4401      4392      4682      4692      4402
 -1      3487    1    0    1
 -2      4392      4682      4692      4402      1960      1989      1990      1961
 -1      3488    1    0    1
 -2       450       479       480       451      4393      4683      4693      4403
 -1      3489    1    0    1
 -2      4393      4683      4693      4403      4394      4684      4694      4404
 -1      3490    1    0    1
 -2      4394      4684      4694      4404      4395      4685      4695      4405
 -1      3491    1    0    1
 -2      4395      4685      4695      4405      4396      4686      4696      4406
 -1      3492    1    0    1
 -2      4396      4686      4696      4406      4397      4687      4697      4407
 -1      3493    1    0    1
 -2      4397      4687      4697      4407      4398      4688      4698      4408
 -1      3494    1    0    1
 -2      4398      4688      4698      4408      4399      4689      4699      4409
 -1      3495    1    0    1
 -2      4399      4689      4699      4409      4400      4690      4700      4410
 -1      3496    1    0    1
 -2      4400      4690      4700      4410      4401      4691      4701      4411
 -1      3497    1    0    1
 -2      4401      4691      4701      4411      4402      4692      4702      4412
 -1      3498    1    0    1
 -2      4402      4692      4702      4412      1961      1990      1991      1962
 -1      3499    1    0    1
 -2       451       480       481       452      4403      4693      4703      4413
 -1      3500    1    0    1
 -2      4403      4693      4703      4413      4404      4694      4704      4414
 -1      3501    1    0    1
 -2      4404      4694      4704      4414      4405      4695      4705      4415
 -1      3502    1    0    1
 -2      4405      4695      4705      4415      4406      4696      4706      4416
 -1      3503    1    0    1
 -2      4406      4696      4706      4416      4407      4697      4707      4417
 -1      3504    1    0    1
 -2      4407      4697      4707      4417      4408      4698      4708      4418
 -1      3505    1    0    1
 -2      4408      4698      4708      4418      4409      4699      4709      4419
 -1      3506    1    0    1
 -2      4409      4699      4709      4419      4410      4700      4710      4420
 -1      3507    1    0    1
 -2      4410      4700      4710      4420      4411      4701      4711      4421
 -1      3508    1    0    1
 -2      4411      4701      4711      4421      4412      4702      4712      4422
 -1      3509    1    0    1
 -2      4412      4702      4712      4422      1962      1991      1992      1963
 -1      3510    1    0    1
 -2       452       481       482       453      4413      4703      4713      4423
 -1      3511    1    0    1
 -2      4413      4703      4713      4423      4414      4704      4714      4424
 -1      3512    1    0    1
 -2      4414      4704      4714      4424      4415      4705      4715      4425
 -1      3513    1    0    1
 -2      4415      4705      4715      4425      4416      4706      4716      4426
 -1      3514    1    0    1
 -2      4416      4706      4716      4426      4417      4707      4717      4427
 -1      3515    1    0    1
 -2      4417      4707      4717      4427      4418      4708      4718      4428
 -1      3516    1    0    1
 -2      4418      4708      4718      4428      4419      4709      4719      4429
 -1      3517    1    0    1
 -2      4419      4709      4719      4429      4420      4710      4720      4430
 -1      3518    1    0    1
 -2      4420      4710      4720      4430      4421      4711      4721      4431
 -1      3519    1    0    1
 -2      4421      4711      4721      4431      4422      4712      4722      4432
 -1      3520    1    0    1
 -2      4422      4712      4722      4432      1963      1992      1993      1964
 -1      3521    1    0    1
 -2       453       482       483       454      4423      4713      4723      4433
 -1      3522    1    0    1
 -2      4423      4713      4723      4433      4424      4714      4724      4434
 -1      3523    1    0    1
 -2      4424      4714      4724      4434      4425      4715      4725      4435
 -1      3524    1    0    1
 -2      4425      4715      4725      4435      4426      4716      4726      4436
 -1      3525    1    0    1
 -2      4426      4716      4726      4436      4427      4717      4727      4437
 -1      3526    1    0    1
 -2      4427      4717      4727      4437      4428      4718      4728      4438
 -1      3527    1    0    1
 -2      4428      4718      4728      4438      4429      4719      4729      4439
 -1      3528    1    0    1
 -2      4429      4719      4729      4439      4430      4720      4730      4440
 -1      3529    1    0    1
 -2      4430      4720      4730      4440      4431      4721      4731      4441
 -1      3530    1    0    1
 -2      4431      4721      4731      4441      4432      4722      4732      4442
 -1      3531    1    0    1
 -2      4432      4722      4732      4442      1964      1993      1994      1965
 -1      3532    1    0    1
 -2       454       483       484       455      4433      4723      4733      4443
 -1      3533    1    0    1
 -2      4433      4723      4733      4443      4434      4724      4734      4444
 -1      3534    1    0    1
 -2      4434      4724      4734      4444      4435      4725      4735      4445
 -1      3535    1    0    1
 -2      4435      4725      4735      4445      4436      4726      4736      4446
 -1      3536    1    0    1
 -2      4436      4726      4736      4446      4437      4727      4737      4447
 -1      3537    1    0    1
 -2      4437      4727      4737      4447      4438      4728      4738      4448
 -1      3538    1    0    1
 -2      4438      4728      4738      4448      4439      4729      4739      4449
 -1      3539    1    0    1
 -2      4439      4729      4739      4449      4440      4730      4740      4450
 -1      3540    1    0    1
 -2      4440      4730      4740      4450      4441      4731      4741      4451
 -1      3541    1    0    1
 -2      4441      4731      4741      4451      4442      4732      4742      4452
 -1      3542    1    0    1
 -2      4442      4732      4742      4452      1965      1994      1995      1966
 -1      3543    1    0    1
 -2       455       484       485       456      4443      4733      4743      4453
 -1      3544    1    0    1
 -2      4443      4733      4743      4453      4444      4734      4744      4454
 -1      3545    1    0    1
 -2      4444      4734      4744      4454      4445      4735      4745      4455
 -1      3546    1    0    1
 -2      4445      4735      4745      4455      4446      4736      4746      4456
 -1      3547    1    0    1
 -2      4446      4736      4746      4456      4447      4737      4747      4457
 -1      3548    1    0    1
 -2      4447      4737      4747      4457      4448      4738      4748      4458
 -1      3549    1    0    1
 -2      4448      4738      4748      4458      4449      4739      4749      4459
 -1      3550    1    0    1
 -2      4449      4739      4749      4459      4450      4740      4750      4460
 -1      3551    1    0    1
 -2      4450      4740      4750      4460      4451      4741      4751      4461
 -1      3552    1    0    1
 -2      4451      4741      4751      4461      4452      4742      4752      4462
 -1      3553    1    0    1
 -2      4452      4742      4752      4462      1966      1995      1996      1967
 -1      3554    1    0    1
 -2       456       485       486       457      4453      4743      4753      4463
 -1      3555    1    0    1
 -2      4453      4743      4753      4463      4454      4744      4754      4464
 -1      3556    1    0    1
 -2      4454      4744      4754      4464      4455      4745      4755      4465
 -1      3557    1    0    1
 -2      4455      4745      4755      4465      4456      4746      4756      4466
 -1      3558    1    0    1
 -2      4456      4746      4756      4466      4457      4747      4757      4467
 -1      3559    1    0    1
 -2      4457      4747      4757      4467      4458      4748      4758      4468
 -1      3560    1    0    1
 -2      4458      4748      4758      4468      4459      4749      4759      4469
 -1      3561    1    0    1
 -2      4459      4749      4759      4469      4460      4750      4760      4470
 -1      3562    1    0    1
 -2      4460      4750      4760      4470      4461      4751      4761      4471
 -1      3563    1    0    1
 -2      4461      4751      4761      4471      4462      4752      4762      4472
 -1      3564    1    0    1
 -2      4462      4752      4762      4472      1967      1996      1997      1968
 -1      3565    1    0    1
 -2       457       486       487       458      4463      4753      4763      4473
 -1      3566    1    0    1
 -2      4463      4753      4763      4473      4464      4754      4764      4474
 -1      3567    1    0    1
 -2      4464      4754      4764      4474      4465      4755      4765      4475
 -1      3568    1    0    1
 -2      4465      4755      4765      4475      4466      4756      4766      4476
 -1      3569    1    0    1
 -2      4466      4756      4766      4476      4467      4757      4767      4477
 -1      3570    1    0    1
 -2      4467      4757      4767      4477      4468      4758      4768      4478
 -1      3571    1    0    1
 -2      4468      4758      4768      4478      4469      4759      4769      4479
 -1      3572    1    0    1
 -2      4469      4759      4769      4479      4470      4760      4770      4480
 -1      3573    1    0    1
 -2      4470      4760      4770      4480      4471      4761      4771      4481
 -1      3574    1    0    1
 -2      4471      4761      4771      4481      4472      4762      4772      4482
 -1      3575    1    0    1
 -2      4472      4762      4772      4482      1968      1997      1998      1969
 -1      3576    1    0    1
 -2       458       487       488       459      4473      4763      4773      4483
 -1      3577    1    0    1
 -2      4473      4763      4773      4483      4474      4764      4774      4484
 -1      3578    1    0    1
 -2      4474      4764      4774      4484      4475      4765      4775      4485
 -1      3579    1    0    1
 -2      4475      4765      4775      4485      4476      4766      4776      4486
 -1      3580    1    0    1
 -2      4476      4766      4776      4486      4477      4767      4777      4487
 -1      3581    1    0    1
 -2      4477      4767      4777      4487      4478      4768      4778      4488
 -1      3582    1    0    1
 -2      4478      4768      4778      4488      4479      4769      4779      4489
 -1      3583    1    0    1
 -2      4479      4769      4779      4489      4480      4770      4780      4490
 -1      3584    1    0    1
 -2      4480      4770      4780      4490      4481      4771      4781      4491
 -1      3585    1    0    1
 -2      4481      4771      4781      4491      4482      4772      4782      4492
 -1      3586    1    0    1
 -2      4482      4772      4782      4492      1969      1998      1999      1970
 -1      3587    1    0    1
 -2       459       488       489       460      4483      4773      4783      4493
 -1      3588    1    0    1
 -2      4483      4773      4783      4493      4484      4774      4784      4494
 -1      3589    1    0    1
 -2      4484      4774      4784      4494      4485      4775      4785      4495
 -1      3590    1    0    1
 -2      4485      4775      4785      4495      4486      4776      4786      4496
 -1      3591    1    0    1
 -2      4486      4776      4786      4496      4487      4777      4787      4497
 -1      3592    1    0    1
 -2      4487      4777      4787      4497      4488      4778      4788      4498
 -1      3593    1    0    1
 -2      4488      4778      4788      4498      4489      4779      4789      4499
 -1      3594    1    0    1
 -2      4489      4779      4789      4499      4490      4780      4790      4500
 -1      3595    1    0    1
 -2      4490      4780      4790      4500      4491      4781      4791      4501
 -1      3596    1    0    1
 -2      4491      4781      4791      4501      4492      4782      4792      4502
 -1      3597    1    0    1
 -2      4492      4782      4792      4502      1970      1999      2000      1971
 -1      3598    1    0    1
 -2       460       489       490       461      4493      4783      4793      4503
 -1      3599    1    0    1
 -2      4493      4783      4793      4503      4494      4784      4794      4504
 -1      3600    1    0    1
 -2      4494      4784      4794      4504      4495      4785      4795      4505
 -1      3601    1    0    1
 -2      4495      4785      4795      4505      4496      4786      4796      4506
 -1      3602    1    0    1
 -2      4496      4786      4796      4506      4497      4787      4797      4507
 -1      3603    1    0    1
 -2      4497      4787      4797      4507      4498      4788      4798      4508
 -1      3604    1    0    1
 -2      4498      4788      4798      4508      4499      4789      4799      4509
 -1      3605    1    0    1
 -2      4499      4789      4799      4509      4500      4790      4800      4510
 -1      3606    1    0    1
 -2      4500      4790      4800      4510      4501      4791      4801      4511
 -1      3607    1    0    1
 -2      4501      4791      4801      4511      4502      4792      4802      4512
 -1      3608    1    0    1
 -2      4502      4792      4802      4512      1971      2000      2001      1972
 -1      3609    1    0    1
 -2       461       490       491       462      4503      4793      4803      4513
 -1      3610    1    0    1
 -2      4503      4793      4803      4513      4504      4794      4804      4514
 -1      3611    1    0    1
 -2      4504      4794      4804      4514      4505      4795      4805      4515
 -1      3612    1    0    1
 -2      4505      4795      4805      4515      4506      4796      4806      4516
 -1      3613    1    0    1
 -2      4506      4796      4806      4516      4507      4797      4807      4517
 -1      3614    1    0    1
 -2      4507      4797      4807      4517      4508      4798      4808      4518
 -1      3615    1    0    1
 -2      4508      4798      4808      4518      4509      4799      4809      4519
 -1      3616    1    0    1
 -2      4509      4799      4809      4519      4510      4800      4810      4520
 -1      3617    1    0    1
 -2      4510      4800      4810      4520      4511      4801      4811      4521
 -1      3618    1    0    1
 -2      4511      4801      4811      4521      4512      4802      4812      4522
 -1      3619    1    0    1
 -2      4512      4802      4812      4522      1972      2001      2002      1973
 -1      3620    1    0    1
 -2       462       491       492       463      4513      4803      4813      4523
 -1      3621    1    0    1
 -2      4513      4803      4813      4523      4514      4804      4814      4524
 -1      3622    1    0    1
 -2      4514      4804      4814      4524      4515      4805      4815      4525
 -1      3623    1    0    1
 -2      4515      4805      4815      4525      4516      4806      4816      4526
 -1      3624    1    0    1
 -2      4516      4806      4816      4526      4517      4807      4817      4527
 -1      3625    1    0    1
 -2      4517      4807      4817      4527      4518      4808      4818      4528
 -1      3626    1    0    1
 -2      4518      4808      4818      4528      4519      4809      4819      4529
 -1      3627    1    0    1
 -2      4519      4809      4819      4529      4520      4810      4820      4530
 -1      3628    1    0    1
 -2      4520      4810      4820      4530      4521      4811      4821      4531
 -1      3629    1    0    1
 -2      4521      4811      4821      4531      4522      4812      4822      4532
 -1      3630    1    0    1
 -2      4522      4812      4822      4532      1973      2002      2003      1974
 -1      3631    1    0    1
 -2       463       492       493       464      4523      4813      4823      4533
 -1      3632    1    0    1
 -2      4523      4813      4823      4533      4524      4814      4824      4534
 -1      3633    1    0    1
 -2      4524      4814      4824      4534      4525      4815      4825      4535
 -1      3634    1    0    1
 -2      4525      4815      4825      4535      4526      4816      4826      4536
 -1      3635    1    0    1
 -2      4526      4816      4826      4536      4527      4817      4827      4537
 -1      3636    1    0    1
 -2      4527      4817      4827      4537      4528      4818      4828      4538
 -1      3637    1    0    1
 -2      4528      4818      4828      4538      4529      4819      4829      4539
 -1      3638    1    0    1
 -2      4529      4819      4829      4539      4530      4820      4830      4540
 -1      3639    1    0    1
 -2      4530      4820      4830      4540      4531      4821      4831      4541
 -1      3640    1    0    1
 -2      4531      4821      4831      4541      4532      4822      4832      4542
 -1      3641    1    0    1
 -2      4532      4822      4832      4542      1974      2003      2004      1975
 -1      3642    1    0    1
 -2       464       493       494       465      4533      4823      4833      4543
 -1      3643    1    0    1
 -2      4533      4823      4833      4543      4534      4824      4834      4544
 -1      3644    1    0    1
 -2      4534      4824      4834      4544      4535      4825      4835      4545
 -1      3645    1    0    1
 -2      4535      4825      4835      4545      4536      4826      4836      4546
 -1      3646    1    0    1
 -2      4536      4826      4836      4546      4537      4827      4837      4547
 -1      3647    1    0    1
 -2      4537      4827      4837      4547      4538      4828      4838      4548
 -1      3648    1    0    1
 -2      4538      4828      4838      4548      4539      4829      4839      4549
 -1      3649    1    0    1
 -2      4539      4829      4839      4549      4540      4830      4840      4550
 -1      3650    1    0    1
 -2      4540      4830      4840      4550      4541      4831      4841      4551
 -1      3651    1    0    1
 -2      4541      4831      4841      4551      4542      4832      4842      4552
 -1      3652    1    0    1
 -2      4542      4832      4842      4552      1975      2004      2005      1976
 -1      3653    1    0    1
 -2       465       494       495       466      4543      4833      4843      4553
 -1      3654    1    0    1
 -2      4543      4833      4843      4553      4544      4834      4844      4554
 -1      3655    1    0    1
 -2      4544      4834      4844      4554      4545      4835      4845      4555
 -1      3656    1    0    1
 -2      4545      4835      4845      4555      4546      4836      4846      4556
 -1      3657    1    0    1
 -2      4546      4836      4846      4556      4547      4837      4847      4557
 -1      3658    1    0    1
 -2      4547      4837      4847      4557      4548      4838      4848      4558
 -1      3659    1    0    1
 -2      4548      4838      4848      4558      4549      4839      4849      4559
 -1      3660    1    0    1
 -2      4549      4839      4849      4559      4550      4840      4850      4560
 -1      3661    1    0    1
 -2      4550      4840      4850      4560      4551      4841      4851      4561
 -1      3662    1    0    1
 -2      4551      4841      4851      4561      4552      4842      4852      4562
 -1      3663    1    0    1
 -2      4552      4842      4852      4562      1976      2005      2006      1977
 -1      3664    1    0    1
 -2       466       495       496       467      4553      4843      4853      4563
 -1      3665    1    0    1
 -2      4553      4843      4853      4563      4554      4844      4854      4564
 -1      3666    1    0    1
 -2      4554      4844      4854      4564      4555      4845      4855      4565
 -1      3667    1    0    1
 -2      4555      4845      4855      4565      4556      4846      4856      4566
 -1      3668    1    0    1
 -2      4556      4846      4856      4566      4557      4847      4857      4567
 -1      3669    1    0    1
 -2      4557      4847      4857      4567      4558      4848      4858      4568
 -1      3670    1    0    1
 -2      4558      4848      4858      4568      4559      4849      4859      4569
 -1      3671    1    0    1
 -2      4559      4849      4859      4569      4560      4850      4860      4570
 -1      3672    1    0    1
 -2      4560      4850      4860      4570      4561      4851      4861      4571
 -1      3673    1    0    1
 -2      4561      4851      4861      4571      4562      4852      4862      4572
 -1      3674    1    0    1
 -2      4562      4852      4862      4572      1977      2006      2007      1978
 -1      3675    1    0    1
 -2       467       496       497       468      4563      4853      4863      4573
 -1      3676    1    0    1
 -2      4563      4853      4863      4573      4564      4854      4864      4574
 -1      3677    1    0    1
 -2      4564      4854      4864      4574      4565      4855      4865      4575
 -1      3678    1    0    1
 -2      4565      4855      4865      4575      4566      4856      4866      4576
 -1      3679    1    0    1
 -2      4566      4856      4866      4576      4567      4857      4867      4577
 -1      3680    1    0    1
 -2      4567      4857      4867      4577      4568      4858      4868      4578
 -1      3681    1    0    1
 -2      4568      4858      4868      4578      4569      4859      4869      4579
 -1      3682    1    0    1
 -2      4569      4859      4869      4579      4570      4860      4870      4580
 -1      3683    1    0    1
 -2      4570      4860      4870      4580      4571      4861      4871      4581
 -1      3684    1    0    1
 -2      4571      4861      4871      4581      4572      4862      4872      4582
 -1      3685    1    0    1
 -2      4572      4862      4872      4582      1978      2007      2008      1979
 -1      3686    1    0    1
 -2       468       497       498       469      4573      4863      4873      4583
 -1      3687    1    0    1
 -2      4573      4863      4873      4583      4574      4864      4874      4584
 -1      3688    1    0    1
 -2      4574      4864      4874      4584      4575      4865      4875      4585
 -1      3689    1    0    1
 -2      4575      4865      4875      4585      4576      4866      4876      4586
 -1      3690    1    0    1
 -2      4576      4866      4876      4586      4577      4867      4877      4587
 -1      3691    1    0    1
 -2      4577      4867      4877      4587      4578      4868      4878      4588
 -1      3692    1    0    1
 -2      4578      4868      4878      4588      4579      4869      4879      4589
 -1      3693    1    0    1
 -2      4579      4869      4879      4589      4580      4870      4880      4590
 -1      3694    1    0    1
 -2      4580      4870      4880      4590      4581      4871      4881      4591
 -1      3695    1    0    1
 -2      4581      4871      4881      4591      4582      4872      4882      4592
 -1      3696    1    0    1
 -2      4582      4872      4882      4592      1979      2008      2009      1980
 -1      3697    1    0    1
 -2       469       498       499       470      4583      4873      4883      4593
 -1      3698    1    0    1
 -2      4583      4873      4883      4593      4584      4874      4884      4594
 -1      3699    1    0    1
 -2      4584      4874      4884      4594      4585      4875      4885      4595
 -1      3700    1    0    1
 -2      4585      4875      4885      4595      4586      4876      4886      4596
 -1      3701    1    0    1
 -2      4586      4876      4886      4596      4587      4877      4887      4597
 -1      3702    1    0    1
 -2      4587      4877      4887      4597      4588      4878      4888      4598
 -1      3703    1    0    1
 -2      4588      4878      4888      4598      4589      4879      4889      4599
 -1      3704    1    0    1
 -2      4589      4879      4889      4599      4590      4880      4890      4600
 -1      3705    1    0    1
 -2      4590      4880      4890      4600      4591      4881      4891      4601
 -1      3706    1    0    1
 -2      4591      4881      4891      4601      4592      4882      4892      4602
 -1      3707    1    0    1
 -2      4592      4882      4892      4602      1980      2009      2010      1981
 -1      3708    1    0    1
 -2       470       499       500       471      4593      4883      4893      4603
 -1      3709    1    0    1
 -2      4593      4883      4893      4603      4594      4884      4894      4604
 -1      3710    1    0    1
 -2      4594      4884      4894      4604      4595      4885      4895      4605
 -1      3711    1    0    1
 -2      4595      4885      4895      4605      4596      4886      4896      4606
 -1      3712    1    0    1
 -2      4596      4886      4896      4606      4597      4887      4897      4607
 -1      3713    1    0    1
 -2      4597      4887      4897      4607      4598      4888      4898      4608
 -1      3714    1    0    1
 -2      4598      4888      4898      4608      4599      4889      4899      4609
 -1      3715    1    0    1
 -2      4599      4889      4899      4609      4600      4890      4900      4610
 -1      3716    1    0    1
 -2      4600      4890      4900      4610      4601      4891      4901      4611
 -1      3717    1    0    1
 -2      4601      4891      4901      4611      4602      4892      4902      4612
 -1      3718    1    0    1
 -2      4602      4892      4902      4612      1981      2010      2011      1982
 -1      3719    1    0    1
 -2       471       500       501       472      4603      4893      4903      4613
 -1      3720    1    0    1
 -2      4603      4893      4903      4613      4604      4894      4904      4614
 -1      3721    1    0    1
 -2      4604      4894      4904      4614      4605      4895      4905      4615
 -1      3722    1    0    1
 -2      4605      4895      4905      4615      4606      4896      4906      4616
 -1      3723    1    0    1
 -2      4606      4896      4906      4616      4607      4897      4907      4617
 -1      3724    1    0    1
 -2      4607      4897      4907      4617      4608      4898      4908      4618
 -1      3725    1    0    1
 -2      4608      4898      4908      4618      4609      4899      4909      4619
 -1      3726    1    0    1
 -2      4609      4899      4909      4619      4610      4900      4910      4620
 -1      3727    1    0    1
 -2      4610      4900      4910      4620      4611      4901      4911      4621
 -1      3728    1    0    1
 -2      4611      4901      4911      4621      4612      4902      4912      4622
 -1      3729    1    0    1
 -2      4612      4902      4912      4622      1982      2011      2012      1983
 -1      3730    1    0    1
 -2       472       501        67        68      4613      4903      1372      1382
 -1      3731    1    0    1
 -2      4613      4903      1372      1382      4614      4904      1373      1383
 -1      3732    1    0    1
 -2      4614      4904      1373      1383      4615      4905      1374      1384
 -1      3733    1    0    1
 -2      4615      4905      1374      1384      4616      4906      1375      1385
 -1      3734    1    0    1
 -2      4616      4906      1375      1385      4617      4907      1376      1386
 -1      3735    1    0    1
 -2      4617      4907      1376      1386      4618      4908      1377      1387
 -1      3736    1    0    1
 -2      4618      4908      1377      1387      4619      4909      1378      1388
 -1      3737    1    0    1
 -2      4619      4909      1378      1388      4620      4910      1379      1389
 -1      3738    1    0    1
 -2      4620      4910      1379      1389      4621      4911      1380      1390
 -1      3739    1    0    1
 -2      4621      4911      1380      1390      4622      4912      1381      1391
 -1      3740    1    0    1
 -2      4622      4912      1381      1391      1983      2012       163       164
 -1      3741    1    0    1
 -2        17        18       502       473       872       882      4913      4623
 -1      3742    1    0    1
 -2       872       882      4913      4623       873       883      4914      4624
 -1      3743    1    0    1
 -2       873       883      4914      4624       874       884      4915      4625
 -1      3744    1    0    1
 -2       874       884      4915      4625       875       885      4916      4626
 -1      3745    1    0    1
 -2       875       885      4916      4626       876       886      4917      4627
 -1      3746    1    0    1
 -2       876       886      4917      4627       877       887      4918      4628
 -1      3747    1    0    1
 -2       877       887      4918      4628       878       888      4919      4629
 -1      3748    1    0    1
 -2       878       888      4919      4629       879       889      4920      4630
 -1      3749    1    0    1
 -2       879       889      4920      4630       880       890      4921      4631
 -1      3750    1    0    1
 -2       880       890      4921      4631       881       891      4922      4632
 -1      3751    1    0    1
 -2       881       891      4922      4632       113       114      2013      1984
 -1      3752    1    0    1
 -2       473       502       503       474      4623      4913      4923      4633
 -1      3753    1    0    1
 -2      4623      4913      4923      4633      4624      4914      4924      4634
 -1      3754    1    0    1
 -2      4624      4914      4924      4634      4625      4915      4925      4635
 -1      3755    1    0    1
 -2      4625      4915      4925      4635      4626      4916      4926      4636
 -1      3756    1    0    1
 -2      4626      4916      4926      4636      4627      4917      4927      4637
 -1      3757    1    0    1
 -2      4627      4917      4927      4637      4628      4918      4928      4638
 -1      3758    1    0    1
 -2      4628      4918      4928      4638      4629      4919      4929      4639
 -1      3759    1    0    1
 -2      4629      4919      4929      4639      4630      4920      4930      4640
 -1      3760    1    0    1
 -2      4630      4920      4930      4640      4631      4921      4931      4641
 -1      3761    1    0    1
 -2      4631      4921      4931      4641      4632      4922      4932      4642
 -1      3762    1    0    1
 -2      4632      4922      4932      4642      1984      2013      2014      1985
 -1      3763    1    0    1
 -2       474       503       504       475      4633      4923      4933      4643
 -1      3764    1    0    1
 -2      4633      4923      4933      4643      4634      4924      4934      4644
 -1      3765    1    0    1
 -2      4634      4924      4934      4644      4635      4925      4935      4645
 -1      3766    1    0    1
 -2      4635      4925      4935      4645      4636      4926      4936      4646
 -1      3767    1    0    1
 -2      4636      4926      4936      4646      4637      4927      4937      4647
 -1      3768    1    0    1
 -2      4637      4927      4937      4647      4638      4928      4938      4648
 -1      3769    1    0    1
 -2      4638      4928      4938      4648      4639      4929      4939      4649
 -1      3770    1    0    1
 -2      4639      4929      4939      4649      4640      4930      4940      4650
 -1      3771    1    0    1
 -2      4640      4930      4940      4650      4641      4931      4941      4651
 -1      3772    1    0    1
 -2      4641      4931      4941      4651      4642      4932      4942      4652
 -1      3773    1    0    1
 -2      4642      4932      4942      4652      1985      2014      2015      1986
 -1      3774    1    0    1
 -2       475       504       505       476      4643      4933      4943      4653
 -1      3775    1    0    1
 -2      4643      4933      4943      4653      4644      4934      4944      4654
 -1      3776    1    0    1
 -2      4644      4934      4944      4654      4645      4935      4945      4655
 -1      3777    1    0    1
 -2      4645      4935      4945      4655      4646      4936      4946      4656
 -1      3778    1    0    1
 -2      4646      4936      4946      4656      4647      4937      4947      4657
 -1      3779    1    0    1
 -2      4647      4937      4947      4657      4648      4938      4948      4658
 -1      3780    1    0    1
 -2      4648      4938      4948      4658      4649      4939      4949      4659
 -1      3781    1    0    1
 -2      4649      4939      4949      4659      4650      4940      4950      4660
 -1      3782    1    0    1
 -2      4650      4940      4950      4660      4651      4941      4951      4661
 -1      3783    1    0    1
 -2      4651      4941      4951      4661      4652      4942      4952      4662
 -1      3784    1    0    1
 -2      4652      4942      4952      4662      1986      2015      2016      1987
 -1      3785    1    0    1
 -2       476       505       506       477      4653      4943      4953      4663
 -1      3786    1    0    1
 -2      4653      4943      4953      4663      4654      4944      4954      4664
 -1      3787    1    0    1
 -2      4654      4944      4954      4664      4655      4945      4955      4665
 -1      3788    1    0    1
 -2      4655      4945      4955      4665      4656      4946      4956      4666
 -1      3789    1    0    1
 -2      4656      4946      4956      4666      4657      4947      4957      4667
 -1      3790    1    0    1
 -2      4657      4947      4957      4667      4658      4948      4958      4668
 -1      3791    1    0    1
 -2      4658      4948      4958      4668      4659      4949      4959      4669
 -1      3792    1    0    1
 -2      4659      4949      4959      4669      4660      4950      4960      4670
 -1      3793    1    0    1
 -2      4660      4950      4960      4670      4661      4951      4961      4671
 -1      3794    1    0    1
 -2      4661      4951      4961      4671      4662      4952      4962      4672
 -1      3795    1    0    1
 -2      4662      4952      4962      4672      1987      2016      2017      1988
 -1      3796    1    0    1
 -2       477       506       507       478      4663      4953      4963      4673
 -1      3797    1    0    1
 -2      4663      4953      4963      4673      4664      4954      4964      4674
 -1      3798    1    0    1
 -2      4664      4954      4964      4674      4665      4955      4965      4675
 -1      3799    1    0    1
 -2      4665      4955      4965      4675      4666      4956      4966      4676
 -1      3800    1    0    1
 -2      4666      4956      4966      4676      4667      4957      4967      4677
 -1      3801    1    0    1
 -2      4667      4957      4967      4677      4668      4958      4968      4678
 -1      3802    1    0    1
 -2      4668      4958      4968      4678      4669      4959      4969      4679
 -1      3803    1    0    1
 -2      4669      4959      4969      4679      4670      4960      4970      4680
 -1      3804    1    0    1
 -2      4670      4960      4970      4680      4671      4961      4971      4681
 -1      3805    1    0    1
 -2      4671      4961      4971      4681      4672      4962      4972      4682
 -1      3806    1    0    1
 -2      4672      4962      4972      4682      1988      2017      2018      1989
 -1      3807    1    0    1
 -2       478       507       508       479      4673      4963      4973      4683
 -1      3808    1    0    1
 -2      4673      4963      4973      4683      4674      4964      4974      4684
 -1      3809    1    0    1
 -2      4674      4964      4974      4684      4675      4965      4975      4685
 -1      3810    1    0    1
 -2      4675      4965      4975      4685      4676      4966      4976      4686
 -1      3811    1    0    1
 -2      4676      4966      4976      4686      4677      4967      4977      4687
 -1      3812    1    0    1
 -2      4677      4967      4977      4687      4678      4968      4978      4688
 -1      3813    1    0    1
 -2      4678      4968      4978      4688      4679      4969      4979      4689
 -1      3814    1    0    1
 -2      4679      4969      4979      4689      4680      4970      4980      4690
 -1      3815    1    0    1
 -2      4680      4970      4980      4690      4681      4971      4981      4691
 -1      3816    1    0    1
 -2      4681      4971      4981      4691      4682      4972      4982      4692
 -1      3817    1    0    1
 -2      4682      4972      4982      4692      1989      2018      2019      1990
 -1      3818    1    0    1
 -2       479       508       509       480      4683      4973      4983      4693
 -1      3819    1    0    1
 -2      4683      4973      4983      4693      4684      4974      4984      4694
 -1      3820    1    0    1
 -2      4684      4974      4984      4694      4685      4975      4985      4695
 -1      3821    1    0    1
 -2      4685      4975      4985      4695      4686      4976      4986      4696
 -1      3822    1    0    1
 -2      4686      4976      4986      4696      4687      4977      4987      4697
 -1      3823    1    0    1
 -2      4687      4977      4987      4697      4688      4978      4988      4698
 -1      3824    1    0    1
 -2      4688      4978      4988      4698      4689      4979      4989      4699
 -1      3825    1    0    1
 -2      4689      4979      4989      4699      4690      4980      4990      4700
 -1      3826    1    0    1
 -2      4690      4980      4990      4700      4691      4981      4991      4701
 -1      3827    1    0    1
 -2      4691      4981      4991      4701      4692      4982      4992      4702
 -1      3828    1    0    1
 -2      4692      4982      4992      4702      1990      2019      2020      1991
 -1      3829    1    0    1
 -2       480       509       510       481      4693      4983      4993      4703
 -1      3830    1    0    1
 -2      4693      4983      4993      4703      4694      4984      4994      4704
 -1      3831    1    0    1
 -2      4694      4984      4994      4704      4695      4985      4995      4705
 -1      3832    1    0    1
 -2      4695      4985      4995      4705      4696      4986      4996      4706
 -1      3833    1    0    1
 -2      4696      4986      4996      4706      4697      4987      4997      4707
 -1      3834    1    0    1
 -2      4697      4987      4997      4707      4698      4988      4998      4708
 -1      3835    1    0    1
 -2      4698      4988      4998      4708      4699      4989      4999      4709
 -1      3836    1    0    1
 -2      4699      4989      4999      4709      4700      4990      5000      4710
 -1      3837    1    0    1
 -2      4700      4990      5000      4710      4701      4991      5001      4711
 -1      3838    1    0    1
 -2      4701      4991      5001      4711      4702      4992      5002      4712
 -1      3839    1    0    1
 -2      4702      4992      5002      4712      1991      2020      2021      1992
 -1      3840    1    0    1
 -2       481       510       511       482      4703      4993      5003      4713
 -1      3841    1    0    1
 -2      4703      4993      5003      4713      4704      4994      5004      4714
 -1      3842    1    0    1
 -2      4704      4994      5004      4714      4705      4995      5005      4715
 -1      3843    1    0    1
 -2      4705      4995      5005      4715      4706      4996      5006      4716
 -1      3844    1    0    1
 -2      4706      4996      5006      4716      4707      4997      5007      4717
 -1      3845    1    0    1
 -2      4707      4997      5007      4717      4708      4998      5008      4718
 -1      3846    1    0    1
 -2      4708      4998      5008      4718      4709      4999      5009      4719
 -1      3847    1    0    1
 -2      4709      4999      5009      4719      4710      5000      5010      4720
 -1      3848    1    0    1
 -2      4710      5000      5010      4720      4711      5001      5011      4721
 -1      3849    1    0    1
 -2      4711      5001      5011      4721      4712      5002      5012      4722
 -1      3850    1    0    1
 -2      4712      5002      5012      4722      1992      2021      2022      1993
 -1      3851    1    0    1
 -2       482       511       512       483      4713      5003      5013      4723
 -1      3852    1    0    1
 -2      4713      5003      5013      4723      4714      5004      5014      4724
 -1      3853    1    0    1
 -2      4714      5004      5014      4724      4715      5005      5015      4725
 -1      3854    1    0    1
 -2      4715      5005      5015      4725      4716      5006      5016      4726
 -1      3855    1    0    1
 -2      4716      5006      5016      4726      4717      5007      5017      4727
 -1      3856    1    0    1
 -2      4717      5007      5017      4727      4718      5008      5018      4728
 -1      3857    1    0    1
 -2      4718      5008      5018      4728      4719      5009      5019      4729
 -1      3858    1    0    1
 -2      4719      5009      5019      4729      4720      5010      5020      4730
 -1      3859    1    0    1
 -2      4720      5010      5020      4730      4721      5011      5021      4731
 -1      3860    1    0    1
 -2      4721      5011      5021      4731      4722      5012      5022      4732
 -1      3861    1    0    1
 -2      4722      5012      5022      4732      1993      2022      2023      1994
 -1      3862    1    0    1
 -2       483       512       513       484      4723      5013      5023      4733
 -1      3863    1    0    1
 -2      4723      5013      5023      4733      4724      5014      5024      4734
 -1      3864    1    0    1
 -2      4724      5014      5024      4734      4725      5015      5025      4735
 -1      3865    1    0    1
 -2      4725      5015      5025      4735      4726      5016      5026      4736
 -1      3866    1    0    1
 -2      4726      5016      5026      4736      4727      5017      5027      4737
 -1      3867    1    0    1
 -2      4727      5017      5027      4737      4728      5018      5028      4738
 -1      3868    1    0    1
 -2      4728      5018      5028      4738      4729      5019      5029      4739
 -1      3869    1    0    1
 -2      4729      5019      5029      4739      4730      5020      5030      4740
 -1      3870    1    0    1
 -2      4730      5020      5030      4740      4731      5021      5031      4741
 -1      3871    1    0    1
 -2      4731      5021      5031      4741      4732      5022      5032      4742
 -1      3872    1    0    1
 -2      4732      5022      5032      4742      1994      2023      2024      1995
 -1      3873    1    0    1
 -2       484       513       514       485      4733      5023      5033      4743
 -1      3874    1    0    1
 -2      4733      5023      5033      4743      4734      5024      5034      4744
 -1      3875    1    0    1
 -2      4734      5024      5034      4744      4735      5025      5035      4745
 -1      3876    1    0    1
 -2      4735      5025      5035      4745      4736      5026      5036      4746
 -1      3877    1    0    1
 -2      4736      5026      5036      4746      4737      5027      5037      4747
 -1      3878    1    0    1
 -2      4737      5027      5037      4747      4738      5028      5038      4748
 -1      3879    1    0    1
 -2      4738      5028      5038      4748      4739      5029      5039      4749
 -1      3880    1    0    1
 -2      4739      5029      5039      4749      4740      5030      5040      4750
 -1      3881    1    0    1
 -2      4740      5030      5040      4750      4741      5031      5041      4751
 -1      3882    1    0    1
 -2      4741      5031      5041      4751      4742      5032      5042      4752
 -1      3883    1    0    1
 -2      4742      5032      5042      4752      1995      2024      2025      1996
 -1      3884    1    0    1
 -2       485       514       515       486      4743      5033      5043      4753
 -1      3885    1    0    1
 -2      4743      5033      5043      4753      4744      5034      5044      4754
 -1      3886    1    0    1
 -2      4744      5034      5044      4754      4745      5035      5045      4755
 -1      3887    1    0    1
 -2      4745      5035      5045      4755      4746      5036      5046      4756
 -1      3888    1    0    1
 -2      4746      5036      5046      4756      4747      5037      5047      4757
 -1      3889    1    0    1
 -2      4747      5037      5047      4757      4748      5038      5048      4758
 -1      3890    1    0    1
 -2      4748      5038      5048      4758      4749      5039      5049      4759
 -1      3891    1    0    1
 -2      4749      5039      5049      4759      4750      5040      5050      4760
 -1      3892    1    0    1
 -2      4750      5040      5050      4760      4751      5041      5051      4761
 -1      3893    1    0    1
 -2      4751      5041      5051      4761      4752      5042      5052      4762
 -1      3894    1    0    1
 -2      4752      5042      5052      4762      1996      2025      2026      1997
 -1      3895    1    0    1
 -2       486       515       516       487      4753      5043      5053      4763
 -1      3896    1    0    1
 -2      4753      5043      5053      4763      4754      5044      5054      4764
 -1      3897    1    0    1
 -2      4754      5044      5054      4764      4755      5045      5055      4765
 -1      3898    1    0    1
 -2      4755      5045      5055      4765      4756      5046      5056      4766
 -1      3899    1    0    1
 -2      4756      5046      5056      4766      4757      5047      5057      4767
 -1      3900    1    0    1
 -2      4757      5047      5057      4767      4758      5048      5058      4768
 -1      3901    1    0    1
 -2      4758      5048      5058      4768      4759      5049      5059      4769
 -1      3902    1    0    1
 -2      4759      5049      5059      4769      4760      5050      5060      4770
 -1      3903    1    0    1
 -2      4760      5050      5060      4770      4761      5051      5061      4771
 -1      3904    1    0    1
 -2      4761      5051      5061      4771      4762      5052      5062      4772
 -1      3905    1    0    1
 -2      4762      5052      5062      4772      1997      2026      2027      1998
 -1      3906    1    0    1
 -2       487       516       517       488      4763      5053      5063      4773
 -1      3907    1    0    1
 -2      4763      5053      5063      4773      4764      5054      5064      4774
 -1      3908    1    0    1
 -2      4764      5054      5064      4774      4765      5055      5065      4775
 -1      3909    1    0    1
 -2      4765      5055      5065      4775      4766      5056      5066      4776
 -1      3910    1    0    1
 -2      4766      5056      5066      4776      4767      5057      5067      4777
 -1      3911    1    0    1
 -2      4767      5057      5067      4777      4768      5058      5068      4778
 -1      3912    1    0    1
 -2      4768      5058      5068      4778      4769      5059      5069      4779
 -1      3913    1    0    1
 -2      4769      5059      5069      4779      4770      5060      5070      4780
 -1      3914    1    0    1
 -2      4770      5060      5070      4780      4771      5061      5071      4781
 -1      3915    1    0    1
 -2      4771      5061      5071      4781      4772      5062      5072      4782
 -1      3916    1    0    1
 -2      4772      5062      5072      4782      1998      2027      2028      1999
 -1      3917    1    0    1
 -2       488       517       518       489      4773      5063      5073      4783
 -1      3918    1    0    1
 -2      4773      5063      5073      4783      4774      5064      5074      4784
 -1      3919    1    0    1
 -2      4774      5064      5074      4784      4775      5065      5075      4785
 -1      3920    1    0    1
 -2      4775      5065      5075      4785      4776      5066      5076      4786
 -1      3921    1    0    1
 -2      4776      5066      5076      4786      4777      5067      5077      4787
 -1      3922    1    0    1
 -2      4777      5067      5077      4787      4778      5068      5078      4788
 -1      3923    1    0    1
 -2      4778      5068      5078      4788      4779      5069      5079      4789
 -1      3924    1    0    1
 -2      4779      5069      5079      4789      4780      5070      5080      4790
 -1      3925    1    0    1
 -2      4780      5070      5080      4790      4781      5071      5081      4791
 -1      3926    1    0    1
 -2      4781      5071      5081      4791      4782      5072      5082      4792
 -1      3927    1    0    1
 -2      4782      5072      5082      4792      1999      2028      2029      2000
 -1      3928    1    0    1
 -2       489       518       519       490      4783      5073      5083      4793
 -1      3929    1    0    1
 -2      4783      5073      5083      4793      4784      5074      5084      4794
 -1      3930    1    0    1
 -2      4784      5074      5084      4794      4785      5075      5085      4795
 -1      3931    1    0    1
 -2      4785      5075      5085      4795      4786      5076      5086      4796
 -1      3932    1    0    1
 -2      4786      5076      5086      4796      4787      5077      5087      4797
 -1      3933    1    0    1
 -2      4787      5077      5087      4797      4788      5078      5088      4798
 -1      3934    1    0    1
 -2      4788      5078      5088      4798      4789      5079      5089      4799
 -1      3935    1    0    1
 -2      4789      5079      5089      4799      4790      5080      5090      4800
 -1      3936    1    0    1
 -2      4790      5080      5090      4800      4791      5081      5091      4801
 -1      3937    1    0    1
 -2      4791      5081      5091      4801      4792      5082      5092      4802
 -1      3938    1    0    1
 -2      4792      5082      5092      4802      2000      2029      2030      2001
 -1      3939    1    0    1
 -2       490       519       520       491      4793      5083      5093      4803
 -1      3940    1    0    1
 -2      4793      5083      5093      4803      4794      5084      5094      4804
 -1      3941    1    0    1
 -2      4794      5084      5094      4804      4795      5085      5095      4805
 -1      3942    1    0    1
 -2      4795      5085      5095      4805      4796      5086      5096      4806
 -1      3943    1    0    1
 -2      4796      5086      5096      4806      4797      5087      5097      4807
 -1      3944    1    0    1
 -2      4797      5087      5097      4807      4798      5088      5098      4808
 -1      3945    1    0    1
 -2      4798      5088      5098      4808      4799      5089      5099      4809
 -1      3946    1    0    1
 -2      4799      5089      5099      4809      4800      5090      5100      4810
 -1      3947    1    0    1
 -2      4800      5090      5100      4810      4801      5091      5101      4811
 -1      3948    1    0    1
 -2      4801      5091      5101      4811      4802      5092      5102      4812
 -1      3949    1    0    1
 -2      4802      5092      5102      4812      2001      2030      2031      2002
 -1      3950    1    0    1
 -2       491       520       521       492      4803      5093      5103      4813
 -1      3951    1    0    1
 -2      4803      5093      5103      4813      4804      5094      5104      4814
 -1      3952    1    0    1
 -2      4804      5094      5104      4814      4805      5095      5105      4815
 -1      3953    1    0    1
 -2      4805      5095      5105      4815      4806      5096      5106      4816
 -1      3954    1    0    1
 -2      4806      5096      5106      4816      4807      5097      5107      4817
 -1      3955    1    0    1
 -2      4807      5097      5107      4817      4808      5098      5108      4818
 -1      3956    1    0    1
 -2      4808      5098      5108      4818      4809      5099      5109      4819
 -1      3957    1    0    1
 -2      4809      5099      5109      4819      4810      5100      5110      4820
 -1      3958    1    0    1
 -2      4810      5100      5110      4820      4811      5101      5111      4821
 -1      3959    1    0    1
 -2      4811      5101      5111      4821      4812      5102      5112      4822
 -1      3960    1    0    1
 -2      4812      5102      5112      4822      2002      2031      2032      2003
 -1      3961    1    0    1
 -2       492       521       522       493      4813      5103      5113      4823
 -1      3962    1    0    1
 -2      4813      5103      5113      4823      4814      5104      5114      4824
 -1      3963    1    0    1
 -2      4814      5104      5114      4824      4815      5105      5115      4825
 -1      3964    1    0    1
 -2      4815      5105      5115      4825      4816      5106      5116      4826
 -1      3965    1    0    1
 -2      4816      5106      5116      4826      4817      5107      5117      4827
 -1      3966    1    0    1
 -2      4817      5107      5117      4827      4818      5108      5118      4828
 -1      3967    1    0    1
 -2      4818      5108      5118      4828      4819      5109      5119      4829
 -1      3968    1    0    1
 -2      4819      5109      5119      4829      4820      5110      5120      4830
 -1      3969    1    0    1
 -2      4820      5110      5120      4830      4821      5111      5121      4831
 -1      3970    1    0    1
 -2      4821      5111      5121      4831      4822      5112      5122      4832
 -1      3971    1    0    1
 -2      4822      5112      5122      4832      2003      2032      2033      2004
 -1      3972    1    0    1
 -2       493       522       523       494      4823      5113      5123      4833
 -1      3973    1    0    1
 -2      4823      5113      5123      4833      4824      5114      5124      4834
 -1      3974    1    0    1
 -2      4824      5114      5124      4834      4825      5115      5125      4835
 -1      3975    1    0    1
 -2      4825      5115      5125      4835      4826      5116      5126      4836
 -1      3976    1    0    1
 -2      4826      5116      5126      4836      4827      5117      5127      4837
 -1      3977    1    0    1
 -2      4827      5117      5127      4837      4828      5118      5128      4838
 -1      3978    1    0    1
 -2      4828      5118      5128      4838      4829      5119      5129      4839
 -1      3979    1    0    1
 -2      4829      5119      5129      4839      4830      5120      5130      4840
 -1      3980    1    0    1
 -2      4830      5120      5130      4840      4831      5121      5131      4841
 -1      3981    1    0    1
 -2      4831      5121      5131      4841      4832      5122      5132      4842
 -1      3982    1    0    1
 -2      4832      5122      5132      4842      2004      2033      2034      2005
 -1      3983    1    0    1
 -2       494       523       524       495      4833      5123      5133      4843
 -1      3984    1    0    1
 -2      4833      5123      5133      4843      4834      5124      5134      4844
 -1      3985    1    0    1
 -2      4834      5124      5134      4844      4835      5125      5135      4845
 -1      3986    1    0    1
 -2      4835      5125      5135      4845      4836      5126      5136      4846
 -1      3987    1    0    1
 -2      4836      5126      5136      4846      4837      5127      5137      4847
 -1      3988    1    0    1
 -2      4837      5127      5137      4847      4838      5128      5138      4848
 -1      3989    1    0    1
 -2      4838      5128      5138      4848      4839      5129      5139      4849
 -1      3990    1    0    1
 -2      4839      5129      5139      4849      4840      5130      5140      4850
 -1      3991    1    0    1
 -2      4840      5130      5140      4850      4841      5131      5141      4851
 -1      3992    1    0    1
 -2      4841      5131      5141      4851      4842      5132      5142      4852
 -1      3993    1    0    1
 -2      4842      5132      5142      4852      2005      2034      2035      2006
 -1      3994    1    0    1
 -2       495       524       525       496      4843      5133      5143      4853
 -1      3995    1    0    1
 -2      4843      5133      5143      4853      4844      5134      5144      4854
 -1      3996    1    0    1
 -2      4844      5134      5144      4854      4845      5135      5145      4855
 -1      3997    1    0    1
 -2      4845      5135      5145      4855      4846      5136      5146      4856
 -1      3998    1    0    1
 -2      4846      5136      5146      4856      4847      5137      5147      4857
 -1      3999    1    0    1
 -2      4847      5137      5147      4857      4848      5138      5148      4858
 -1      4000    1    0    1
 -2      4848      5138      5148      4858      4849      5139      5149      4859
 -1      4001    1    0    1
 -2      4849      5139      5149      4859      4850      5140      5150      4860
 -1      4002    1    0    1
 -2      4850      5140      5150      4860      4851      5141      5151      4861
 -1      4003    1    0    1
 -2      4851      5141      5151      4861      4852      5142      5152      4862
 -1      4004    1    0    1
 -2      4852      5142      5152      4862      2006      2035      2036      2007
 -1      4005    1    0    1
 -2       496       525       526       497      4853      5143      5153      4863
 -1      4006    1    0    1
 -2      4853      5143      5153      4863      4854      5144      5154      4864
 -1      4007    1    0    1
 -2      4854      5144      5154      4864      4855      5145      5155      4865
 -1      4008    1    0    1
 -2      4855      5145      5155      4865      4856      5146      5156      4866
 -1      4009    1    0    1
 -2      4856      5146      5156      4866      4857      5147      5157      4867
 -1      4010    1    0    1
 -2      4857      5147      5157      4867      4858      5148      5158      4868
 -1      4011    1    0    1
 -2      4858      5148      5158      4868      4859      5149      5159      4869
 -1      4012    1    0    1
 -2      4859      5149      5159      4869      4860      5150      5160      4870
 -1      4013    1    0    1
 -2      4860      5150      5160      4870      4861      5151      5161      4871
 -1      4014    1    0    1
 -2      4861      5151      5161      4871      4862      5152      5162      4872
 -1      4015    1    0    1
 -2      4862      5152      5162      4872      2007      2036      2037      2008
 -1      4016    1    0    1
 -2       497       526       527       498      4863      5153      5163      4873
 -1      4017    1    0    1
 -2      4863      5153      5163      4873      4864      5154      5164      4874
 -1      4018    1    0    1
 -2      4864      5154      5164      4874      4865      5155      5165      4875
 -1      4019    1    0    1
 -2      4865      5155      5165      4875      4866      5156      5166      4876
 -1      4020    1    0    1
 -2      4866      5156      5166      4876      4867      5157      5167      4877
 -1      4021    1    0    1
 -2      4867      5157      5167      4877      4868      5158      5168      4878
 -1      4022    1    0    1
 -2      4868      5158      5168      4878      4869      5159      5169      4879
 -1      4023    1    0    1
 -2      4869      5159      5169      4879      4870      5160      5170      4880
 -1      4024    1    0    1
 -2      4870      5160      5170      4880      4871      5161      5171      4881
 -1      4025    1    0    1
 -2      4871      5161      5171      4881      4872      5162      5172      4882
 -1      4026    1    0    1
 -2      4872      5162      5172      4882      2008      2037      2038      2009
 -1      4027    1    0    1
 -2       498       527       528       499      4873      5163      5173      4883
 -1      4028    1    0    1
 -2      4873      5163      5173      4883      4874      5164      5174      4884
 -1      4029    1    0    1
 -2      4874      5164      5174      4884      4875      5165      5175      4885
 -1      4030    1    0    1
 -2      4875      5165      5175      4885      4876      5166      5176      4886
 -1      4031    1    0    1
 -2      4876      5166      5176      4886      4877      5167      5177      4887
 -1      4032    1    0    1
 -2      4877      5167      5177      4887      4878      5168      5178      4888
 -1      4033    1    0    1
 -2      4878      5168      5178      4888      4879      5169      5179      4889
 -1      4034    1    0    1
 -2      4879      5169      5179      4889      4880      5170      5180      4890
 -1      4035    1    0    1
 -2      4880      5170      5180      4890      4881      5171      5181      4891
 -1      4036    1    0    1
 -2      4881      5171      5181      4891      4882      5172      5182      4892
 -1      4037    1    0    1
 -2      4882      5172      5182      4892      2009      2038      2039      2010
 -1      4038    1    0    1
 -2       499       528       529       500      4883      5173      5183      4893
 -1      4039    1    0    1
 -2      4883      5173      5183      4893      4884      5174      5184      4894
 -1      4040    1    0    1
 -2      4884      5174      5184      4894      4885      5175      5185      4895
 -1      4041    1    0    1
 -2      4885      5175      5185      4895      4886      5176      5186      4896
 -1      4042    1    0    1
 -2      4886      5176      5186      4896      4887      5177      5187      4897
 -1      4043    1    0    1
 -2      4887      5177      5187      4897      4888      5178      5188      4898
 -1      4044    1    0    1
 -2      4888      5178      5188      4898      4889      5179      5189      4899
 -1      4045    1    0    1
 -2      4889      5179      5189      4899      4890      5180      5190      4900
 -1      4046    1    0    1
 -2      4890      5180      5190      4900      4891      5181      5191      4901
 -1      4047    1    0    1
 -2      4891      5181      5191      4901      4892      5182      5192      4902
 -1      4048    1    0    1
 -2      4892      5182      5192      4902      2010      2039      2040      2011
 -1      4049    1    0    1
 -2       500       529       530       501      4893      5183      5193      4903
 -1      4050    1    0    1
 -2      4893      5183      5193      4903      4894      5184      5194      4904
 -1      4051    1    0    1
 -2      4894      5184      5194      4904      4895      5185      5195      4905
 -1      4052    1    0    1
 -2      4895      5185      5195      4905      4896      5186      5196      4906
 -1      4053    1    0    1
 -2      4896      5186      5196      4906      4897      5187      5197      4907
 -1      4054    1    0    1
 -2      4897      5187      5197      4907      4898      5188      5198      4908
 -1      4055    1    0    1
 -2      4898      5188      5198      4908      4899      5189      5199      4909
 -1      4056    1    0    1
 -2      4899      5189      5199      4909      4900      5190      5200      4910
 -1      4057    1    0    1
 -2      4900      5190      5200      4910      4901      5191      5201      4911
 -1      4058    1    0    1
 -2      4901      5191      5201      4911      4902      5192      5202      4912
 -1      4059    1    0    1
 -2      4902      5192      5202      4912      2011      2040      2041      2012
 -1      4060    1    0    1
 -2       501       530        66        67      4903      5193      1362      1372
 -1      4061    1    0    1
 -2      4903      5193      1362      1372      4904      5194      1363      1373
 -1      4062    1    0    1
 -2      4904      5194      1363      1373      4905      5195      1364      1374
 -1      4063    1    0    1
 -2      4905      5195      1364      1374      4906      5196      1365      1375
 -1      4064    1    0    1
 -2      4906      5196      1365      1375      4907      5197      1366      1376
 -1      4065    1    0    1
 -2      4907      5197      1366      1376      4908      5198      1367      1377
 -1      4066    1    0    1
 -2      4908      5198      1367      1377      4909      5199      1368      1378
 -1      4067    1    0    1
 -2      4909      5199      1368      1378      4910      5200      1369      1379
 -1      4068    1    0    1
 -2      4910      5200      1369      1379      4911      5201      1370      1380
 -1      4069    1    0    1
 -2      4911      5201      1370      1380      4912      5202      1371      1381
 -1      4070    1    0    1
 -2      4912      5202      1371      1381      2012      2041       162       163
 -1      4071    1    0    1
 -2        18        19       531       502       882       892      5203      4913
 -1      4072    1    0    1
 -2       882       892      5203      4913       883       893      5204      4914
 -1      4073    1    0    1
 -2       883       893      5204      4914       884       894      5205      4915
 -1      4074    1    0    1
 -2       884       894      5205      4915       885       895      5206      4916
 -1      4075    1    0    1
 -2       885       895      5206      4916       886       896      5207      4917
 -1      4076    1    0    1
 -2       886       896      5207      4917       887       897      5208      4918
 -1      4077    1    0    1
 -2       887       897      5208      4918       888       898      5209      4919
 -1      4078    1    0    1
 -2       888       898      5209      4919       889       899      5210      4920
 -1      4079    1    0    1
 -2       889       899      5210      4920       890       900      5211      4921
 -1      4080    1    0    1
 -2       890       900      5211      4921       891       901      5212      4922
 -1      4081    1    0    1
 -2       891       901      5212      4922       114       115      2042      2013
 -1      4082    1    0    1
 -2       502       531       532       503      4913      5203      5213      4923
 -1      4083    1    0    1
 -2      4913      5203      5213      4923      4914      5204      5214      4924
 -1      4084    1    0    1
 -2      4914      5204      5214      4924      4915      5205      5215      4925
 -1      4085    1    0    1
 -2      4915      5205      5215      4925      4916      5206      5216      4926
 -1      4086    1    0    1
 -2      4916      5206      5216      4926      4917      5207      5217      4927
 -1      4087    1    0    1
 -2      4917      5207      5217      4927      4918      5208      5218      4928
 -1      4088    1    0    1
 -2      4918      5208      5218      4928      4919      5209      5219      4929
 -1      4089    1    0    1
 -2      4919      5209      5219      4929      4920      5210      5220      4930
 -1      4090    1    0    1
 -2      4920      5210      5220      4930      4921      5211      5221      4931
 -1      4091    1    0    1
 -2      4921      5211      5221      4931      4922      5212      5222      4932
 -1      4092    1    0    1
 -2      4922      5212      5222      4932      2013      2042      2043      2014
 -1      4093    1    0    1
 -2       503       532       533       504      4923      5213      5223      4933
 -1      4094    1    0    1
 -2      4923      5213      5223      4933      4924      5214      5224      4934
 -1      4095    1    0    1
 -2      4924      5214      5224      4934      4925      5215      5225      4935
 -1      4096    1    0    1
 -2      4925      5215      5225      4935      4926      5216      5226      4936
 -1      4097    1    0    1
 -2      4926      5216      5226      4936      4927      5217      5227      4937
 -1      4098    1    0    1
 -2      4927      5217      5227      4937      4928      5218      5228      4938
 -1      4099    1    0    1
 -2      4928      5218      5228      4938      4929      5219      5229      4939
 -1      4100    1    0    1
 -2      4929      5219      5229      4939      4930      5220      5230      4940
 -1      4101    1    0    1
 -2      4930      5220      5230      4940      4931      5221      5231      4941
 -1      4102    1    0    1
 -2      4931      5221      5231      4941      4932      5222      5232      4942
 -1      4103    1    0    1
 -2      4932      5222      5232      4942      2014      2043      2044      2015
 -1      4104    1    0    1
 -2       504       533       534       505      4933      5223      5233      4943
 -1      4105    1    0    1
 -2      4933      5223      5233      4943      4934      5224      5234      4944
 -1      4106    1    0    1
 -2      4934      5224      5234      4944      4935      5225      5235      4945
 -1      4107    1    0    1
 -2      4935      5225      5235      4945      4936      5226      5236      4946
 -1      4108    1    0    1
 -2      4936      5226      5236      4946      4937      5227      5237      4947
 -1      4109    1    0    1
 -2      4937      5227      5237      4947      4938      5228      5238      4948
 -1      4110    1    0    1
 -2      4938      5228      5238      4948      4939      5229      5239      4949
 -1      4111    1    0    1
 -2      4939      5229      5239      4949      4940      5230      5240      4950
 -1      4112    1    0    1
 -2      4940      5230      5240      4950      4941      5231      5241      4951
 -1      4113    1    0    1
 -2      4941      5231      5241      4951      4942      5232      5242      4952
 -1      4114    1    0    1
 -2      4942      5232      5242      4952      2015      2044      2045      2016
 -1      4115    1    0    1
 -2       505       534       535       506      4943      5233      5243      4953
 -1      4116    1    0    1
 -2      4943      5233      5243      4953      4944      5234      5244      4954
 -1      4117    1    0    1
 -2      4944      5234      5244      4954      4945      5235      5245      4955
 -1      4118    1    0    1
 -2      4945      5235      5245      4955      4946      5236      5246      4956
 -1      4119    1    0    1
 -2      4946      5236      5246      4956      4947      5237      5247      4957
 -1      4120    1    0    1
 -2      4947      5237      5247      4957      4948      5238      5248      4958
 -1      4121    1    0    1
 -2      4948      5238      5248      4958      4949      5239      5249      4959
 -1      4122    1    0    1
 -2      4949      5239      5249      4959      4950      5240      5250      4960
 -1      4123    1    0    1
 -2      4950      5240      5250      4960      4951      5241      5251      4961
 -1      4124    1    0    1
 -2      4951      5241      5251      4961      4952      5242      5252      4962
 -1      4125    1    0    1
 -2      4952      5242      5252      4962      2016      2045      2046      2017
 -1      4126    1    0    1
 -2       506       535       536       507      4953      5243      5253      4963
 -1      4127    1    0    1
 -2      4953      5243      5253      4963      4954      5244      5254      4964
 -1      4128    1    0    1
 -2      4954      5244      5254      4964      4955      5245      5255      4965
 -1      4129    1    0    1
 -2      4955      5245      5255      4965      4956      5246      5256      4966
 -1      4130    1    0    1
 -2      4956      5246      5256      4966      4957      5247      5257      4967
 -1      4131    1    0    1
 -2      4957      5247      5257      4967      4958      5248      5258      4968
 -1      4132    1    0    1
 -2      4958      5248      5258      4968      4959      5249      5259      4969
 -1      4133    1    0    1
 -2      4959      5249      5259      4969      4960      5250      5260      4970
 -1      4134    1    0    1
 -2      4960      5250      5260      4970      4961      5251      5261      4971
 -1      4135    1    0    1
 -2      4961      5251      5261      4971      4962      5252      5262      4972
 -1      4136    1    0    1
 -2      4962      5252      5262      4972      2017      2046      2047      2018
 -1      4137    1    0    1
 -2       507       536       537       508      4963      5253      5263      4973
 -1      4138    1    0    1
 -2      4963      5253      5263      4973      4964      5254      5264      4974
 -1      4139    1    0    1
 -2      4964      5254      5264      4974      4965      5255      5265      4975
 -1      4140    1    0    1
 -2      4965      5255      5265      4975      4966      5256      5266      4976
 -1      4141    1    0    1
 -2      4966      5256      5266      4976      4967      5257      5267      4977
 -1      4142    1    0    1
 -2      4967      5257      5267      4977      4968      5258      5268      4978
 -1      4143    1    0    1
 -2      4968      5258      5268      4978      4969      5259      5269      4979
 -1      4144    1    0    1
 -2      4969      5259      5269      4979      4970      5260      5270      4980
 -1      4145    1    0    1
 -2      4970      5260      5270      4980      4971      5261      5271      4981
 -1      4146    1    0    1
 -2      4971      5261      5271      4981      4972      5262      5272      4982
 -1      4147    1    0    1
 -2      4972      5262      5272      4982      2018      2047      2048      2019
 -1      4148    1    0    1
 -2       508       537       538       509      4973      5263      5273      4983
 -1      4149    1    0    1
 -2      4973      5263      5273      4983      4974      5264      5274      4984
 -1      4150    1    0    1
 -2      4974      5264      5274      4984      4975      5265      5275      4985
 -1      4151    1    0    1
 -2      4975      5265      5275      4985      4976      5266      5276      4986
 -1      4152    1    0    1
 -2      4976      5266      5276      4986      4977      5267      5277      4987
 -1      4153    1    0    1
 -2      4977      5267      5277      4987      4978      5268      5278      4988
 -1      4154    1    0    1
 -2      4978      5268      5278      4988      4979      5269      5279      4989
 -1      4155    1    0    1
 -2      4979      5269      5279      4989      4980      5270      5280      4990
 -1      4156    1    0    1
 -2      4980      5270      5280      4990      4981      5271      5281      4991
 -1      4157    1    0    1
 -2      4981      5271      5281      4991      4982      5272      5282      4992
 -1      4158    1    0    1
 -2      4982      5272      5282      4992      2019      2048      2049      2020
 -1      4159    1    0    1
 -2       509       538       539       510      4983      5273      5283      4993
 -1      4160    1    0    1
 -2      4983      5273      5283      4993      4984      5274      5284      4994
 -1      4161    1    0    1
 -2      4984      5274      5284      4994      4985      5275      5285      4995
 -1      4162    1    0    1
 -2      4985      5275      5285      4995      4986      5276      5286      4996
 -1      4163    1    0    1
 -2      4986      5276      5286      4996      4987      5277      5287      4997
 -1      4164    1    0    1
 -2      4987      5277      5287      4997      4988      5278      5288      4998
 -1      4165    1    0    1
 -2      4988      5278      5288      4998      4989      5279      5289      4999
 -1      4166    1    0    1
 -2      4989      5279      5289      4999      4990      5280      5290      5000
 -1      4167    1    0    1
 -2      4990      5280      5290      5000      4991      5281      5291      5001
 -1      4168    1    0    1
 -2      4991      5281      5291      5001      4992      5282      5292      5002
 -1      4169    1    0    1
 -2      4992      5282      5292      5002      2020      2049      2050      2021
 -1      4170    1    0    1
 -2       510       539       540       511      4993      5283      5293      5003
 -1      4171    1    0    1
 -2      4993      5283      5293      5003      4994      5284      5294      5004
 -1      4172    1    0    1
 -2      4994      5284      5294      5004      4995      5285      5295      5005
 -1      4173    1    0    1
 -2      4995      5285      5295      5005      4996      5286      5296      5006
 -1      4174    1    0    1
 -2      4996      5286      5296      5006      4997      5287      5297      5007
 -1      4175    1    0    1
 -2      4997      5287      5297      5007      4998      5288      5298      5008
 -1      4176    1    0    1
 -2      4998      5288      5298      5008      4999      5289      5299      5009
 -1      4177    1    0    1
 -2      4999      5289      5299      5009      5000      5290      5300      5010
 -1      4178    1    0    1
 -2      5000      5290      5300      5010      5001      5291      5301      5011
 -1      4179    1    0    1
 -2      5001      5291      5301      5011      5002      5292      5302      5012
 -1      4180    1    0    1
 -2      5002      5292      5302      5012      2021      2050      2051      2022
 -1      4181    1    0    1
 -2       511       540       541       512      5003      5293      5303      5013
 -1      4182    1    0    1
 -2      5003      5293      5303      5013      5004      5294      5304      5014
 -1      4183    1    0    1
 -2      5004      5294      5304      5014      5005      5295      5305      5015
 -1      4184    1    0    1
 -2      5005      5295      5305      5015      5006      5296      5306      5016
 -1      4185    1    0    1
 -2      5006      5296      5306      5016      5007      5297      5307      5017
 -1      4186    1    0    1
 -2      5007      5297      5307      5017      5008      5298      5308      5018
 -1      4187    1    0    1
 -2      5008      5298      5308      5018      5009      5299      5309      5019
 -1      4188    1    0    1
 -2      5009      5299      5309      5019      5010      5300      5310      5020
 -1      4189    1    0    1
 -2      5010      5300      5310      5020      5011      5301      5311      5021
 -1      4190    1    0    1
 -2      5011      5301      5311      5021      5012      5302      5312      5022
 -1      4191    1    0    1
 -2      5012      5302      5312      5022      2022      2051      2052      2023
 -1      4192    1    0    1
 -2       512       541       542       513      5013      5303      5313      5023
 -1      4193    1    0    1
 -2      5013      5303      5313      5023      5014      5304      5314      5024
 -1      4194    1    0    1
 -2      5014      5304      5314      5024      5015      5305      5315      5025
 -1      4195    1    0    1
 -2      5015      5305      5315      5025      5016      5306      5316      5026
 -1      4196    1    0    1
 -2      5016      5306      5316      5026      5017      5307      5317      5027
 -1      4197    1    0    1
 -2      5017      5307      5317      5027      5018      5308      5318      5028
 -1      4198    1    0    1
 -2      5018      5308      5318      5028      5019      5309      5319      5029
 -1      4199    1    0    1
 -2      5019      5309      5319      5029      5020      5310      5320      5030
 -1      4200    1    0    1
 -2      5020      5310      5320      5030      5021      5311      5321      5031
 -1      4201    1    0    1
 -2      5021      5311      5321      5031      5022      5312      5322      5032
 -1      4202    1    0    1
 -2      5022      5312      5322      5032      2023      2052      2053      2024
 -1      4203    1    0    1
 -2       513       542       543       514      5023      5313      5323      5033
 -1      4204    1    0    1
 -2      5023      5313      5323      5033      5024      5314      5324      5034
 -1      4205    1    0    1
 -2      5024      5314      5324      5034      5025      5315      5325      5035
 -1      4206    1    0    1
 -2      5025      5315      5325      5035      5026      5316      5326      5036
 -1      4207    1    0    1
 -2      5026      5316      5326      5036      5027      5317      5327      5037
 -1      4208    1    0    1
 -2      5027      5317      5327      5037      5028      5318      5328      5038
 -1      4209    1    0    1
 -2      5028      5318      5328      5038      5029      5319      5329      5039
 -1      4210    1    0    1
 -2      5029      5319      5329      5039      5030      5320      5330      5040
 -1      4211    1    0    1
 -2      5030      5320      5330      5040      5031      5321      5331      5041
 -1      4212    1    0    1
 -2      5031      5321      5331      5041      5032      5322      5332      5042
 -1      4213    1    0    1
 -2      5032      5322      5332      5042      2024      2053      2054      2025
 -1      4214    1    0    1
 -2       514       543       544       515      5033      5323      5333      5043
 -1      4215    1    0    1
 -2      5033      5323      5333      5043      5034      5324      5334      5044
 -1      4216    1    0    1
 -2      5034      5324      5334      5044      5035      5325      5335      5045
 -1      4217    1    0    1
 -2      5035      5325      5335      5045      5036      5326      5336      5046
 -1      4218    1    0    1
 -2      5036      5326      5336      5046      5037      5327      5337      5047
 -1      4219    1    0    1
 -2      5037      5327      5337      5047      5038      5328      5338      5048
 -1      4220    1    0    1
 -2      5038      5328      5338      5048      5039      5329      5339      5049
 -1      4221    1    0    1
 -2      5039      5329      5339      5049      5040      5330      5340      5050
 -1      4222    1    0    1
 -2      5040      5330      5340      5050      5041      5331      5341      5051
 -1      4223    1    0    1
 -2      5041      5331      5341      5051      5042      5332      5342      5052
 -1      4224    1    0    1
 -2      5042      5332      5342      5052      2025      2054      2055      2026
 -1      4225    1    0    1
 -2       515       544       545       516      5043      5333      5343      5053
 -1      4226    1    0    1
 -2      5043      5333      5343      5053      5044      5334      5344      5054
 -1      4227    1    0    1
 -2      5044      5334      5344      5054      5045      5335      5345      5055
 -1      4228    1    0    1
 -2      5045      5335      5345      5055      5046      5336      5346      5056
 -1      4229    1    0    1
 -2      5046      5336      5346      5056      5047      5337      5347      5057
 -1      4230    1    0    1
 -2      5047      5337      5347      5057      5048      5338      5348      5058
 -1      4231    1    0    1
 -2      5048      5338      5348      5058      5049      5339      5349      5059
 -1      4232    1    0    1
 -2      5049      5339      5349      5059      5050      5340      5350      5060
 -1      4233    1    0    1
 -2      5050      5340      5350      5060      5051      5341      5351      5061
 -1      4234    1    0    1
 -2      5051      5341      5351      5061      5052      5342      5352      5062
 -1      4235    1    0    1
 -2      5052      5342      5352      5062      2026      2055      2056      2027
 -1      4236    1    0    1
 -2       516       545       546       517      5053      5343      5353      5063
 -1      4237    1    0    1
 -2      5053      5343      5353      5063      5054      5344      5354      5064
 -1      4238    1    0    1
 -2      5054      5344      5354      5064      5055      5345      5355      5065
 -1      4239    1    0    1
 -2      5055      5345      5355      5065      5056      5346      5356      5066
 -1      4240    1    0    1
 -2      5056      5346      5356      5066      5057      5347      5357      5067
 -1      4241    1    0    1
 -2      5057      5347      5357      5067      5058      5348      5358      5068
 -1      4242    1    0    1
 -2      5058      5348      5358      5068      5059      5349      5359      5069
 -1      4243    1    0    1
 -2      5059      5349      5359      5069      5060      5350      5360      5070
 -1      4244    1    0    1
 -2      5060      5350      5360      5070      5061      5351      5361      5071
 -1      4245    1    0    1
 -2      5061      5351      5361      5071      5062      5352      5362      5072
 -1      4246    1    0    1
 -2      5062      5352      5362      5072      2027      2056      2057      2028
 -1      4247    1    0    1
 -2       517       546       547       518      5063      5353      5363      5073
 -1      4248    1    0    1
 -2      5063      5353      5363      5073      5064      5354      5364      5074
 -1      4249    1    0    1
 -2      5064      5354      5364      5074      5065      5355      5365      5075
 -1      4250    1    0    1
 -2      5065      5355      5365      5075      5066      5356      5366      5076
 -1      4251    1    0    1
 -2      5066      5356      5366      5076      5067      5357      5367      5077
 -1      4252    1    0    1
 -2      5067      5357      5367      5077      5068      5358      5368      5078
 -1      4253    1    0    1
 -2      5068      5358      5368      5078      5069      5359      5369      5079
 -1      4254    1    0    1
 -2      5069      5359      5369      5079      5070      5360      5370      5080
 -1      4255    1    0    1
 -2      5070      5360      5370      5080      5071      5361      5371      5081
 -1      4256    1    0    1
 -2      5071      5361      5371      5081      5072      5362      5372      5082
 -1      4257    1    0    1
 -2      5072      5362      5372      5082      2028      2057      2058      2029
 -1      4258    1    0    1
 -2       518       547       548       519      5073      5363      5373      5083
 -1      4259    1    0    1
 -2      5073      5363      5373      5083      5074      5364      5374      5084
 -1      4260    1    0    1
 -2      5074      5364      5374      5084      5075      5365      5375      5085
 -1      4261    1    0    1
 -2      5075      5365      5375      5085      5076      5366      5376      5086
 -1      4262    1    0    1
 -2      5076      5366      5376      5086      5077      5367      5377      5087
 -1      4263    1    0    1
 -2      5077      5367      5377      5087      5078      5368      5378      5088
 -1      4264    1    0    1
 -2      5078      5368      5378      5088      5079      5369      5379      5089
 -1      4265    1    0    1
 -2      5079      5369      5379      5089      5080      5370      5380      5090
 -1      4266    1    0    1
 -2      5080      5370      5380      5090      5081      5371      5381      5091
 -1      4267    1    0    1
 -2      5081      5371      5381      5091      5082      5372      5382      5092
 -1      4268    1    0    1
 -2      5082      5372      5382      5092      2029      2058      2059      2030
 -1      4269    1    0    1
 -2       519       548       549       520      5083      5373      5383      5093
 -1      4270    1    0    1
 -2      5083      5373      5383      5093      5084      5374      5384      5094
 -1      4271    1    0    1
 -2      5084      5374      5384      5094      5085      5375      5385      5095
 -1      4272    1    0    1
 -2      5085      5375      5385      5095      5086      5376      5386      5096
 -1      4273    1    0    1
 -2      5086      5376      5386      5096      5087      5377      5387      5097
 -1      4274    1    0    1
 -2      5087      5377      5387      5097      5088      5378      5388      5098
 -1      4275    1    0    1
 -2      5088      5378      5388      5098      5089      5379      5389      5099
 -1      4276    1    0    1
 -2      5089      5379      5389      5099      5090      5380      5390      5100
 -1      4277    1    0    1
 -2      5090      5380      5390      5100      5091      5381      5391      5101
 -1      4278    1    0    1
 -2      5091      5381      5391      5101      5092      5382      5392      5102
 -1      4279    1    0    1
 -2      5092      5382      5392      5102      2030      2059      2060      2031
 -1      4280    1    0    1
 -2       520       549       550       521      5093      5383      5393      5103
 -1      4281    1    0    1
 -2      5093      5383      5393      5103      5094      5384      5394      5104
 -1      4282    1    0    1
 -2      5094      5384      5394      5104      5095      5385      5395      5105
 -1      4283    1    0    1
 -2      5095      5385      5395      5105      5096      5386      5396      5106
 -1      4284    1    0    1
 -2      5096      5386      5396      5106      5097      5387      5397      5107
 -1      4285    1    0    1
 -2      5097      5387      5397      5107      5098      5388      5398      5108
 -1      4286    1    0    1
 -2      5098      5388      5398      5108      5099      5389      5399      5109
 -1      4287    1    0    1
 -2      5099      5389      5399      5109      5100      5390      5400      5110
 -1      4288    1    0    1
 -2      5100      5390      5400      5110      5101      5391      5401      5111
 -1      4289    1    0    1
 -2      5101      5391      5401      5111      5102      5392      5402      5112
 -1      4290    1    0    1
 -2      5102      5392      5402      5112      2031      2060      2061      2032
 -1      4291    1    0    1
 -2       521       550       551       522      5103      5393      5403      5113
 -1      4292    1    0    1
 -2      5103      5393      5403      5113      5104      5394      5404      5114
 -1      4293    1    0    1
 -2      5104      5394      5404      5114      5105      5395      5405      5115
 -1      4294    1    0    1
 -2      5105      5395      5405      5115      5106      5396      5406      5116
 -1      4295    1    0    1
 -2      5106      5396      5406      5116      5107      5397      5407      5117
 -1      4296    1    0    1
 -2      5107      5397      5407      5117      5108      5398      5408      5118
 -1      4297    1    0    1
 -2      5108      5398      5408      5118      5109      5399      5409      5119
 -1      4298    1    0    1
 -2      5109      5399      5409      5119      5110      5400      5410      5120
 -1      4299    1    0    1
 -2      5110      5400      5410      5120      5111      5401      5411      5121
 -1      4300    1    0    1
 -2      5111      5401      5411      5121      5112      5402      5412      5122
 -1      4301    1    0    1
 -2      5112      5402      5412      5122      2032      2061      2062      2033
 -1      4302    1    0    1
 -2       522       551       552       523      5113      5403      5413      5123
 -1      4303    1    0    1
 -2      5113      5403      5413      5123      5114      5404      5414      5124
 -1      4304    1    0    1
 -2      5114      5404      5414      5124      5115      5405      5415      5125
 -1      4305    1    0    1
 -2      5115      5405      5415      5125      5116      5406      5416      5126
 -1      4306    1    0    1
 -2      5116      5406      5416      5126      5117      5407      5417      5127
 -1      4307    1    0    1
 -2      5117      5407      5417      5127      5118      5408      5418      5128
 -1      4308    1    0    1
 -2      5118      5408      5418      5128      5119      5409      5419      5129
 -1      4309    1    0    1
 -2      5119      5409      5419      5129      5120      5410      5420      5130
 -1      4310    1    0    1
 -2      5120      5410      5420      5130      5121      5411      5421      5131
 -1      4311    1    0    1
 -2      5121      5411      5421      5131      5122      5412      5422      5132
 -1      4312    1    0    1
 -2      5122      5412      5422      5132      2033      2062      2063      2034
 -1      4313    1    0    1
 -2       523       552       553       524      5123      5413      5423      5133
 -1      4314    1    0    1
 -2      5123      5413      5423      5133      5124      5414      5424      5134
 -1      4315    1    0    1
 -2      5124      5414      5424      5134      5125      5415      5425      5135
 -1      4316    1    0    1
 -2      5125      5415      5425      5135      5126      5416      5426      5136
 -1      4317    1    0    1
 -2      5126      5416      5426      5136      5127      5417      5427      5137
 -1      4318    1    0    1
 -2      5127      5417      5427      5137      5128      5418      5428      5138
 -1      4319    1    0    1
 -2      5128      5418      5428      5138      5129      5419      5429      5139
 -1      4320    1    0    1
 -2      5129      5419      5429      5139      5130      5420      5430      5140
 -1      4321    1    0    1
 -2      5130      5420      5430      5140      5131      5421      5431      5141
 -1      4322    1    0    1
 -2      5131      5421      5431      5141      5132      5422      5432      5142
 -1      4323    1    0    1
 -2      5132      5422      5432      5142      2034      2063      2064      2035
 -1      4324    1    0    1
 -2       524       553       554       525      5133      5423      5433      5143
 -1      4325    1    0    1
 -2      5133      5423      5433      5143      5134      5424      5434      5144
 -1      4326    1    0    1
 -2      5134      5424      5434      5144      5135      5425      5435      5145
 -1      4327    1    0    1
 -2      5135      5425      5435      5145      5136      5426      5436      5146
 -1      4328    1    0    1
 -2      5136      5426      5436      5146      5137      5427      5437      5147
 -1      4329    1    0    1
 -2      5137      5427      5437      5147      5138      5428      5438      5148
 -1      4330    1    0    1
 -2      5138      5428      5438      5148      5139      5429      5439      5149
 -1      4331    1    0    1
 -2      5139      5429      5439      5149      5140      5430      5440      5150
 -1      4332    1    0    1
 -2      5140      5430      5440      5150      5141      5431      5441      5151
 -1      4333    1    0    1
 -2      5141      5431      5441      5151      5142      5432      5442      5152
 -1      4334    1    0    1
 -2      5142      5432      5442      5152      2035      2064      2065      2036
 -1      4335    1    0    1
 -2       525       554       555       526      5143      5433      5443      5153
 -1      4336    1    0    1
 -2      5143      5433      5443      5153      5144      5434      5444      5154
 -1      4337    1    0    1
 -2      5144      5434      5444      5154      5145      5435      5445      5155
 -1      4338    1    0    1
 -2      5145      5435      5445      5155      5146      5436      5446      5156
 -1      4339    1    0    1
 -2      5146      5436      5446      5156      5147      5437      5447      5157
 -1      4340    1    0    1
 -2      5147      5437      5447      5157      5148      5438      5448      5158
 -1      4341    1    0    1
 -2      5148      5438      5448      5158      5149      5439      5449      5159
 -1      4342    1    0    1
 -2      5149      5439      5449      5159      5150      5440      5450      5160
 -1      4343    1    0    1
 -2      5150      5440      5450      5160      5151      5441      5451      5161
 -1      4344    1    0    1
 -2      5151      5441      5451      5161      5152      5442      5452      5162
 -1      4345    1    0    1
 -2      5152      5442      5452      5162      2036      2065      2066      2037
 -1      4346    1    0    1
 -2       526       555       556       527      5153      5443      5453      5163
 -1      4347    1    0    1
 -2      5153      5443      5453      5163      5154      5444      5454      5164
 -1      4348    1    0    1
 -2      5154      5444      5454      5164      5155      5445      5455      5165
 -1      4349    1    0    1
 -2      5155      5445      5455      5165      5156      5446      5456      5166
 -1      4350    1    0    1
 -2      5156      5446      5456      5166      5157      5447      5457      5167
 -1      4351    1    0    1
 -2      5157      5447      5457      5167      5158      5448      5458      5168
 -1      4352    1    0    1
 -2      5158      5448      5458      5168      5159      5449      5459      5169
 -1      4353    1    0    1
 -2      5159      5449      5459      5169      5160      5450      5460      5170
 -1      4354    1    0    1
 -2      5160      5450      5460      5170      5161      5451      5461      5171
 -1      4355    1    0    1
 -2      5161      5451      5461      5171      5162      5452      5462      5172
 -1      4356    1    0    1
 -2      5162      5452      5462      5172      2037      2066      2067      2038
 -1      4357    1    0    1
 -2       527       556       557       528      5163      5453      5463      5173
 -1      4358    1    0    1
 -2      5163      5453      5463      5173      5164      5454      5464      5174
 -1      4359    1    0    1
 -2      5164      5454      5464      5174      5165      5455      5465      5175
 -1      4360    1    0    1
 -2      5165      5455      5465      5175      5166      5456      5466      5176
 -1      4361    1    0    1
 -2      5166      5456      5466      5176      5167      5457      5467      5177
 -1      4362    1    0    1
 -2      5167      5457      5467      5177      5168      5458      5468      5178
 -1      4363    1    0    1
 -2      5168      5458      5468      5178      5169      5459      5469      5179
 -1      4364    1    0    1
 -2      5169      5459      5469      5179      5170      5460      5470      5180
 -1      4365    1    0    1
 -2      5170      5460      5470      5180      5171      5461      5471      5181
 -1      4366    1    0    1
 -2      5171      5461      5471      5181      5172      5462      5472      5182
 -1      4367    1    0    1
 -2      5172      5462      5472      5182      2038      2067      2068      2039
 -1      4368    1    0    1
 -2       528       557       558       529      5173      5463      5473      5183
 -1      4369    1    0    1
 -2      5173      5463      5473      5183      5174      5464      5474      5184
 -1      4370    1    0    1
 -2      5174      5464      5474      5184      5175      5465      5475      5185
 -1      4371    1    0    1
 -2      5175      5465      5475      5185      5176      5466      5476      5186
 -1      4372    1    0    1
 -2      5176      5466      5476      5186      5177      5467      5477      5187
 -1      4373    1    0    1
 -2      5177      5467      5477      5187      5178      5468      5478      5188
 -1      4374    1    0    1
 -2      5178      5468      5478      5188      5179      5469      5479      5189
 -1      4375    1    0    1
 -2      5179      5469      5479      5189      5180      5470      5480      5190
 -1      4376    1    0    1
 -2      5180      5470      5480      5190      5181      5471      5481      5191
 -1      4377    1    0    1
 -2      5181      5471      5481      5191      5182      5472      5482      5192
 -1      4378    1    0    1
 -2      5182      5472      5482      5192      2039      2068      2069      2040
 -1      4379    1    0    1
 -2       529       558       559       530      5183      5473      5483      5193
 -1      4380    1    0    1
 -2      5183      5473      5483      5193      5184      5474      5484      5194
 -1      4381    1    0    1
 -2      5184      5474      5484      5194      5185      5475      5485      5195
 -1      4382    1    0    1
 -2      5185      5475      5485      5195      5186      5476      5486      5196
 -1      4383    1    0    1
 -2      5186      5476      5486      5196      5187      5477      5487      5197
 -1      4384    1    0    1
 -2      5187      5477      5487      5197      5188      5478      5488      5198
 -1      4385    1    0    1
 -2      5188      5478      5488      5198      5189      5479      5489      5199
 -1      4386    1    0    1
 -2      5189      5479      5489      5199      5190      5480      5490      5200
 -1      4387    1    0    1
 -2      5190      5480      5490      5200      5191      5481      5491      5201
 -1      4388    1    0    1
 -2      5191      5481      5491      5201      5192      5482      5492      5202
 -1      4389    1    0    1
 -2      5192      5482      5492      5202      2040      2069      2070      2041
 -1      4390    1    0    1
 -2       530       559        65        66      5193      5483      1352      1362
 -1      4391    1    0    1
 -2      5193      5483      1352      1362      5194      5484      1353      1363
 -1      4392    1    0    1
 -2      5194      5484      1353      1363      5195      5485      1354      1364
 -1      4393    1    0    1
 -2      5195      5485      1354      1364      5196      5486      1355      1365
 -1      4394    1    0    1
 -2      5196      5486      1355      1365      5197      5487      1356      1366
 -1      4395    1    0    1
 -2      5197      5487      1356      1366      5198      5488      1357      1367
 -1      4396    1    0    1
 -2      5198      5488      1357      1367      5199      5489      1358      1368
 -1      4397    1    0    1
 -2      5199      5489      1358      1368      5200      5490      1359      1369
 -1      4398    1    0    1
 -2      5200      5490      1359      1369      5201      5491      1360      1370
 -1      4399    1    0    1
 -2      5201      5491      1360      1370      5202      5492      1361      1371
 -1      4400    1    0    1
 -2      5202      5492      1361      1371      2041      2070       161       162
 -1      4401    1    0    1
 -2        19        20       560       531       892       902      5493      5203
 -1      4402    1    0    1
 -2       892       902      5493      5203       893       903      5494      5204
 -1      4403    1    0    1
 -2       893       903      5494      5204       894       904      5495      5205
 -1      4404    1    0    1
 -2       894       904      5495      5205       895       905      5496      5206
 -1      4405    1    0    1
 -2       895       905      5496      5206       896       906      5497      5207
 -1      4406    1    0    1
 -2       896       906      5497      5207       897       907      5498      5208
 -1      4407    1    0    1
 -2       897       907      5498      5208       898       908      5499      5209
 -1      4408    1    0    1
 -2       898       908      5499      5209       899       909      5500      5210
 -1      4409    1    0    1
 -2       899       909      5500      5210       900       910      5501      5211
 -1      4410    1    0    1
 -2       900       910      5501      5211       901       911      5502      5212
 -1      4411    1    0    1
 -2       901       911      5502      5212       115       116      2071      2042
 -1      4412    1    0    1
 -2       531       560       561       532      5203      5493      5503      5213
 -1      4413    1    0    1
 -2      5203      5493      5503      5213      5204      5494      5504      5214
 -1      4414    1    0    1
 -2      5204      5494      5504      5214      5205      5495      5505      5215
 -1      4415    1    0    1
 -2      5205      5495      5505      5215      5206      5496      5506      5216
 -1      4416    1    0    1
 -2      5206      5496      5506      5216      5207      5497      5507      5217
 -1      4417    1    0    1
 -2      5207      5497      5507      5217      5208      5498      5508      5218
 -1      4418    1    0    1
 -2      5208      5498      5508      5218      5209      5499      5509      5219
 -1      4419    1    0    1
 -2      5209      5499      5509      5219      5210      5500      5510      5220
 -1      4420    1    0    1
 -2      5210      5500      5510      5220      5211      5501      5511      5221
 -1      4421    1    0    1
 -2      5211      5501      5511      5221      5212      5502      5512      5222
 -1      4422    1    0    1
 -2      5212      5502      5512      5222      2042      2071      2072      2043
 -1      4423    1    0    1
 -2       532       561       562       533      5213      5503      5513      5223
 -1      4424    1    0    1
 -2      5213      5503      5513      5223      5214      5504      5514      5224
 -1      4425    1    0    1
 -2      5214      5504      5514      5224      5215      5505      5515      5225
 -1      4426    1    0    1
 -2      5215      5505      5515      5225      5216      5506      5516      5226
 -1      4427    1    0    1
 -2      5216      5506      5516      5226      5217      5507      5517      5227
 -1      4428    1    0    1
 -2      5217      5507      5517      5227      5218      5508      5518      5228
 -1      4429    1    0    1
 -2      5218      5508      5518      5228      5219      5509      5519      5229
 -1      4430    1    0    1
 -2      5219      5509      5519      5229      5220      5510      5520      5230
 -1      4431    1    0    1
 -2      5220      5510      5520      5230      5221      5511      5521      5231
 -1      4432    1    0    1
 -2      5221      5511      5521      5231      5222      5512      5522      5232
 -1      4433    1    0    1
 -2      5222      5512      5522      5232      2043      2072      2073      2044
 -1      4434    1    0    1
 -2       533       562       563       534      5223      5513      5523      5233
 -1      4435    1    0    1
 -2      5223      5513      5523      5233      5224      5514      5524      5234
 -1      4436    1    0    1
 -2      5224      5514      5524      5234      5225      5515      5525      5235
 -1      4437    1    0    1
 -2      5225      5515      5525      5235      5226      5516      5526      5236
 -1      4438    1    0    1
 -2      5226      5516      5526      5236      5227      5517      5527      5237
 -1      4439    1    0    1
 -2      5227      5517      5527      5237      5228      5518      5528      5238
 -1      4440    1    0    1
 -2      5228      5518      5528      5238      5229      5519      5529      5239
 -1      4441    1    0    1
 -2      5229      5519      5529      5239      5230      5520      5530      5240
 -1      4442    1    0    1
 -2      5230      5520      5530      5240      5231      5521      5531      5241
 -1      4443    1    0    1
 -2      5231      5521      5531      5241      5232      5522      5532      5242
 -1      4444    1    0    1
 -2      5232      5522      5532      5242      2044      2073      2074      2045
 -1      4445    1    0    1
 -2       534       563       564       535      5233      5523      5533      5243
 -1      4446    1    0    1
 -2      5233      5523      5533      5243      5234      5524      5534      5244
 -1      4447    1    0    1
 -2      5234      5524      5534      5244      5235      5525      5535      5245
 -1      4448    1    0    1
 -2      5235      5525      5535      5245      5236      5526      5536      5246
 -1      4449    1    0    1
 -2      5236      5526      5536      5246      5237      5527      5537      5247
 -1      4450    1    0    1
 -2      5237      5527      5537      5247      5238      5528      5538      5248
 -1      4451    1    0    1
 -2      5238      5528      5538      5248      5239      5529      5539      5249
 -1      4452    1    0    1
 -2      5239      5529      5539      5249      5240      5530      5540      5250
 -1      4453    1    0    1
 -2      5240      5530      5540      5250      5241      5531      5541      5251
 -1      4454    1    0    1
 -2      5241      5531      5541      5251      5242      5532      5542      5252
 -1      4455    1    0    1
 -2      5242      5532      5542      5252      2045      2074      2075      2046
 -1      4456    1    0    1
 -2       535       564       565       536      5243      5533      5543      5253
 -1      4457    1    0    1
 -2      5243      5533      5543      5253      5244      5534      5544      5254
 -1      4458    1    0    1
 -2      5244      5534      5544      5254      5245      5535      5545      5255
 -1      4459    1    0    1
 -2      5245      5535      5545      5255      5246      5536      5546      5256
 -1      4460    1    0    1
 -2      5246      5536      5546      5256      5247      5537      5547      5257
 -1      4461    1    0    1
 -2      5247      5537      5547      5257      5248      5538      5548      5258
 -1      4462    1    0    1
 -2      5248      5538      5548      5258      5249      5539      5549      5259
 -1      4463    1    0    1
 -2      5249      5539      5549      5259      5250      5540      5550      5260
 -1      4464    1    0    1
 -2      5250      5540      5550      5260      5251      5541      5551      5261
 -1      4465    1    0    1
 -2      5251      5541      5551      5261      5252      5542      5552      5262
 -1      4466    1    0    1
 -2      5252      5542      5552      5262      2046      2075      2076      2047
 -1      4467    1    0    1
 -2       536       565       566       537      5253      5543      5553      5263
 -1      4468    1    0    1
 -2      5253      5543      5553      5263      5254      5544      5554      5264
 -1      4469    1    0    1
 -2      5254      5544      5554      5264      5255      5545      5555      5265
 -1      4470    1    0    1
 -2      5255      5545      5555      5265      5256      5546      5556      5266
 -1      4471    1    0    1
 -2      5256      5546      5556      5266      5257      5547      5557      5267
 -1      4472    1    0    1
 -2      5257      5547      5557      5267      5258      5548      5558      5268
 -1      4473    1    0    1
 -2      5258      5548      5558      5268      5259      5549      5559      5269
 -1      4474    1    0    1
 -2      5259      5549      5559      5269      5260      5550      5560      5270
 -1      4475    1    0    1
 -2      5260      5550      5560      5270      5261      5551      5561      5271
 -1      4476    1    0    1
 -2      5261      5551      5561      5271      5262      5552      5562      5272
 -1      4477    1    0    1
 -2      5262      5552      5562      5272      2047      2076      2077      2048
 -1      4478    1    0    1
 -2       537       566       567       538      5263      5553      5563      5273
 -1      4479    1    0    1
 -2      5263      5553      5563      5273      5264      5554      5564      5274
 -1      4480    1    0    1
 -2      5264      5554      5564      5274      5265      5555      5565      5275
 -1      4481    1    0    1
 -2      5265      5555      5565      5275      5266      5556      5566      5276
 -1      4482    1    0    1
 -2      5266      5556      5566      5276      5267      5557      5567      5277
 -1      4483    1    0    1
 -2      5267      5557      5567      5277      5268      5558      5568      5278
 -1      4484    1    0    1
 -2      5268      5558      5568      5278      5269      5559      5569      5279
 -1      4485    1    0    1
 -2      5269      5559      5569      5279      5270      5560      5570      5280
 -1      4486    1    0    1
 -2      5270      5560      5570      5280      5271      5561      5571      5281
 -1      4487    1    0    1
 -2      5271      5561      5571      5281      5272      5562      5572      5282
 -1      4488    1    0    1
 -2      5272      5562      5572      5282      2048      2077      2078      2049
 -1      4489    1    0    1
 -2       538       567       568       539      5273      5563      5573      5283
 -1      4490    1    0    1
 -2      5273      5563      5573      5283      5274      5564      5574      5284
 -1      4491    1    0    1
 -2      5274      5564      5574      5284      5275      5565      5575      5285
 -1      4492    1    0    1
 -2      5275      5565      5575      5285      5276      5566      5576      5286
 -1      4493    1    0    1
 -2      5276      5566      5576      5286      5277      5567      5577      5287
 -1      4494    1    0    1
 -2      5277      5567      5577      5287      5278      5568      5578      5288
 -1      4495    1    0    1
 -2      5278      5568      5578      5288      5279      5569      5579      5289
 -1      4496    1    0    1
 -2      5279      5569      5579      5289      5280      5570      5580      5290
 -1      4497    1    0    1
 -2      5280      5570      5580      5290      5281      5571      5581      5291
 -1      4498    1    0    1
 -2      5281      5571      5581      5291      5282      5572      5582      5292
 -1      4499    1    0    1
 -2      5282      5572      5582      5292      2049      2078      2079      2050
 -1      4500    1    0    1
 -2       539       568       569       540      5283      5573      5583      5293
 -1      4501    1    0    1
 -2      5283      5573      5583      5293      5284      5574      5584      5294
 -1      4502    1    0    1
 -2      5284      5574      5584      5294      5285      5575      5585      5295
 -1      4503    1    0    1
 -2      5285      5575      5585      5295      5286      5576      5586      5296
 -1      4504    1    0    1
 -2      5286      5576      5586      5296      5287      5577      5587      5297
 -1      4505    1    0    1
 -2      5287      5577      5587      5297      5288      5578      5588      5298
 -1      4506    1    0    1
 -2      5288      5578      5588      5298      5289      5579      5589      5299
 -1      4507    1    0    1
 -2      5289      5579      5589      5299      5290      5580      5590      5300
 -1      4508    1    0    1
 -2      5290      5580      5590      5300      5291      5581      5591      5301
 -1      4509    1    0    1
 -2      5291      5581      5591      5301      5292      5582      5592      5302
 -1      4510    1    0    1
 -2      5292      5582      5592      5302      2050      2079      2080      2051
 -1      4511    1    0    1
 -2       540       569       570       541      5293      5583      5593      5303
 -1      4512    1    0    1
 -2      5293      5583      5593      5303      5294      5584      5594      5304
 -1      4513    1    0    1
 -2      5294      5584      5594      5304      5295      5585      5595      5305
 -1      4514    1    0    1
 -2      5295      5585      5595      5305      5296      5586      5596      5306
 -1      4515    1    0    1
 -2      5296      5586      5596      5306      5297      5587      5597      5307
 -1      4516    1    0    1
 -2      5297      5587      5597      5307      5298      5588      5598      5308
 -1      4517    1    0    1
 -2      5298      5588      5598      5308      5299      5589      5599      5309
 -1      4518    1    0    1
 -2      5299      5589      5599      5309      5300      5590      5600      5310
 -1      4519    1    0    1
 -2      5300      5590      5600      5310      5301      5591      5601      5311
 -1      4520    1    0    1
 -2      5301      5591      5601      5311      5302      5592      5602      5312
 -1      4521    1    0    1
 -2      5302      5592      5602      5312      2051      2080      2081      2052
 -1      4522    1    0    1
 -2       541       570       571       542      5303      5593      5603      5313
 -1      4523    1    0    1
 -2      5303      5593      5603      5313      5304      5594      5604      5314
 -1      4524    1    0    1
 -2      5304      5594      5604      5314      5305      5595      5605      5315
 -1      4525    1    0    1
 -2      5305      5595      5605      5315      5306      5596      5606      5316
 -1      4526    1    0    1
 -2      5306      5596      5606      5316      5307      5597      5607      5317
 -1      4527    1    0    1
 -2      5307      5597      5607      5317      5308      5598      5608      5318
 -1      4528    1    0    1
 -2      5308      5598      5608      5318      5309      5599      5609      5319
 -1      4529    1    0    1
 -2      5309      5599      5609      5319      5310      5600      5610      5320
 -1      4530    1    0    1
 -2      5310      5600      5610      5320      5311      5601      5611      5321
 -1      4531    1    0    1
 -2      5311      5601      5611      5321      5312      5602      5612      5322
 -1      4532    1    0    1
 -2      5312      5602      5612      5322      2052      2081      2082      2053
 -1      4533    1    0    1
 -2       542       571       572       543      5313      5603      5613      5323
 -1      4534    1    0    1
 -2      5313      5603      5613      5323      5314      5604      5614      5324
 -1      4535    1    0    1
 -2      5314      5604      5614      5324      5315      5605      5615      5325
 -1      4536    1    0    1
 -2      5315      5605      5615      5325      5316      5606      5616      5326
 -1      4537    1    0    1
 -2      5316      5606      5616      5326      5317      5607      5617      5327
 -1      4538    1    0    1
 -2      5317      5607      5617      5327      5318      5608      5618      5328
 -1      4539    1    0    1
 -2      5318      5608      5618      5328      5319      5609      5619      5329
 -1      4540    1    0    1
 -2      5319      5609      5619      5329      5320      5610      5620      5330
 -1      4541    1    0    1
 -2      5320      5610      5620      5330      5321      5611      5621      5331
 -1      4542    1    0    1
 -2      5321      5611      5621      5331      5322      5612      5622      5332
 -1      4543    1    0    1
 -2      5322      5612      5622      5332      2053      2082      2083      2054
 -1      4544    1    0    1
 -2       543       572       573       544      5323      5613      5623      5333
 -1      4545    1    0    1
 -2      5323      5613      5623      5333      5324      5614      5624      5334
 -1      4546    1    0    1
 -2      5324      5614      5624      5334      5325      5615      5625      5335
 -1      4547    1    0    1
 -2      5325      5615      5625      5335      5326      5616      5626      5336
 -1      4548    1    0    1
 -2      5326      5616      5626      5336      5327      5617      5627      5337
 -1      4549    1    0    1
 -2      5327      5617      5627      5337      5328      5618      5628      5338
 -1      4550    1    0    1
 -2      5328      5618      5628      5338      5329      5619      5629      5339
 -1      4551    1    0    1
 -2      5329      5619      5629      5339      5330      5620      5630      5340
 -1      4552    1    0    1
 -2      5330      5620      5630      5340      5331      5621      5631      5341
 -1      4553    1    0    1
 -2      5331      5621      5631      5341      5332      5622      5632      5342
 -1      4554    1    0    1
 -2      5332      5622      5632      5342      2054      2083      2084      2055
 -1      4555    1    0    1
 -2       544       573       574       545      5333      5623      5633      5343
 -1      4556    1    0    1
 -2      5333      5623      5633      5343      5334      5624      5634      5344
 -1      4557    1    0    1
 -2      5334      5624      5634      5344      5335      5625      5635      5345
 -1      4558    1    0    1
 -2      5335      5625      5635      5345      5336      5626      5636      5346
 -1      4559    1    0    1
 -2      5336      5626      5636      5346      5337      5627      5637      5347
 -1      4560    1    0    1
 -2      5337      5627      5637      5347      5338      5628      5638      5348
 -1      4561    1    0    1
 -2      5338      5628      5638      5348      5339      5629      5639      5349
 -1      4562    1    0    1
 -2      5339      5629      5639      5349      5340      5630      5640      5350
 -1      4563    1    0    1
 -2      5340      5630      5640      5350      5341      5631      5641      5351
 -1      4564    1    0    1
 -2      5341      5631      5641      5351      5342      5632      5642      5352
 -1      4565    1    0    1
 -2      5342      5632      5642      5352      2055      2084      2085      2056
 -1      4566    1    0    1
 -2       545       574       575       546      5343      5633      5643      5353
 -1      4567    1    0    1
 -2      5343      5633      5643      5353      5344      5634      5644      5354
 -1      4568    1    0    1
 -2      5344      5634      5644      5354      5345      5635      5645      5355
 -1      4569    1    0    1
 -2      5345      5635      5645      5355      5346      5636      5646      5356
 -1      4570    1    0    1
 -2      5346      5636      5646      5356      5347      5637      5647      5357
 -1      4571    1    0    1
 -2      5347      5637      5647      5357      5348      5638      5648      5358
 -1      4572    1    0    1
 -2      5348      5638      5648      5358      5349      5639      5649      5359
 -1      4573    1    0    1
 -2      5349      5639      5649      5359      5350      5640      5650      5360
 -1      4574    1    0    1
 -2      5350      5640      5650      5360      5351      5641      5651      5361
 -1      4575    1    0    1
 -2      5351      5641      5651      5361      5352      5642      5652      5362
 -1      4576    1    0    1
 -2      5352      5642      5652      5362      2056      2085      2086      2057
 -1      4577    1    0    1
 -2       546       575       576       547      5353      5643      5653      5363
 -1      4578    1    0    1
 -2      5353      5643      5653      5363      5354      5644      5654      5364
 -1      4579    1    0    1
 -2      5354      5644      5654      5364      5355      5645      5655      5365
 -1      4580    1    0    1
 -2      5355      5645      5655      5365      5356      5646      5656      5366
 -1      4581    1    0    1
 -2      5356      5646      5656      5366      5357      5647      5657      5367
 -1      4582    1    0    1
 -2      5357      5647      5657      5367      5358      5648      5658      5368
 -1      4583    1    0    1
 -2      5358      5648      5658      5368      5359      5649      5659      5369
 -1      4584    1    0    1
 -2      5359      5649      5659      5369      5360      5650      5660      5370
 -1      4585    1    0    1
 -2      5360      5650      5660      5370      5361      5651      5661      5371
 -1      4586    1    0    1
 -2      5361      5651      5661      5371      5362      5652      5662      5372
 -1      4587    1    0    1
 -2      5362      5652      5662      5372      2057      2086      2087      2058
 -1      4588    1    0    1
 -2       547       576       577       548      5363      5653      5663      5373
 -1      4589    1    0    1
 -2      5363      5653      5663      5373      5364      5654      5664      5374
 -1      4590    1    0    1
 -2      5364      5654      5664      5374      5365      5655      5665      5375
 -1      4591    1    0    1
 -2      5365      5655      5665      5375      5366      5656      5666      5376
 -1      4592    1    0    1
 -2      5366      5656      5666      5376      5367      5657      5667      5377
 -1      4593    1    0    1
 -2      5367      5657      5667      5377      5368      5658      5668      5378
 -1      4594    1    0    1
 -2      5368      5658      5668      5378      5369      5659      5669      5379
 -1      4595    1    0    1
 -2      5369      5659      5669      5379      5370      5660      5670      5380
 -1      4596    1    0    1
 -2      5370      5660      5670      5380      5371      5661      5671      5381
 -1      4597    1    0    1
 -2      5371      5661      5671      5381      5372      5662      5672      5382
 -1      4598    1    0    1
 -2      5372      5662      5672      5382      2058      2087      2088      2059
 -1      4599    1    0    1
 -2       548       577       578       549      5373      5663      5673      5383
 -1      4600    1    0    1
 -2      5373      5663      5673      5383      5374      5664      5674      5384
 -1      4601    1    0    1
 -2      5374      5664      5674      5384      5375      5665      5675      5385
 -1      4602    1    0    1
 -2      5375      5665      5675      5385      5376      5666      5676      5386
 -1      4603    1    0    1
 -2      5376      5666      5676      5386      5377      5667      5677      5387
 -1      4604    1    0    1
 -2      5377      5667      5677      5387      5378      5668      5678      5388
 -1      4605    1    0    1
 -2      5378      5668      5678      5388      5379      5669      5679      5389
 -1      4606    1    0    1
 -2      5379      5669      5679      5389      5380      5670      5680      5390
 -1      4607    1    0    1
 -2      5380      5670      5680      5390      5381      5671      5681      5391
 -1      4608    1    0    1
 -2      5381      5671      5681      5391      5382      5672      5682      5392
 -1      4609    1    0    1
 -2      5382      5672      5682      5392      2059      2088      2089      2060
 -1      4610    1    0    1
 -2       549       578       579       550      5383      5673      5683      5393
 -1      4611    1    0    1
 -2      5383      5673      5683      5393      5384      5674      5684      5394
 -1      4612    1    0    1
 -2      5384      5674      5684      5394      5385      5675      5685      5395
 -1      4613    1    0    1
 -2      5385      5675      5685      5395      5386      5676      5686      5396
 -1      4614    1    0    1
 -2      5386      5676      5686      5396      5387      5677      5687      5397
 -1      4615    1    0    1
 -2      5387      5677      5687      5397      5388      5678      5688      5398
 -1      4616    1    0    1
 -2      5388      5678      5688      5398      5389      5679      5689      5399
 -1      4617    1    0    1
 -2      5389      5679      5689      5399      5390      5680      5690      5400
 -1      4618    1    0    1
 -2      5390      5680      5690      5400      5391      5681      5691      5401
 -1      4619    1    0    1
 -2      5391      5681      5691      5401      5392      5682      5692      5402
 -1      4620    1    0    1
 -2      5392      5682      5692      5402      2060      2089      2090      2061
 -1      4621    1    0    1
 -2       550       579       580       551      5393      5683      5693      5403
 -1      4622    1    0    1
 -2      5393      5683      5693      5403      5394      5684      5694      5404
 -1      4623    1    0    1
 -2      5394      5684      5694      5404      5395      5685      5695      5405
 -1      4624    1    0    1
 -2      5395      5685      5695      5405      5396      5686      5696      5406
 -1      4625    1    0    1
 -2      5396      5686      5696      5406      5397      5687      5697      5407
 -1      4626    1    0    1
 -2      5397      5687      5697      5407      5398      5688      5698      5408
 -1      4627    1    0    1
 -2      5398      5688      5698      5408      5399      5689      5699      5409
 -1      4628    1    0    1
 -2      5399      5689      5699      5409      5400      5690      5700      5410
 -1      4629    1    0    1
 -2      5400      5690      5700      5410      5401      5691      5701      5411
 -1      4630    1    0    1
 -2      5401      5691      5701      5411      5402      5692      5702      5412
 -1      4631    1    0    1
 -2      5402      5692      5702      5412      2061      2090      2091      2062
 -1      4632    1    0    1
 -2       551       580       581       552      5403      5693      5703      5413
 -1      4633    1    0    1
 -2      5403      5693      5703      5413      5404      5694      5704      5414
 -1      4634    1    0    1
 -2      5404      5694      5704      5414      5405      5695      5705      5415
 -1      4635    1    0    1
 -2      5405      5695      5705      5415      5406      5696      5706      5416
 -1      4636    1    0    1
 -2      5406      5696      5706      5416      5407      5697      5707      5417
 -1      4637    1    0    1
 -2      5407      5697      5707      5417      5408      5698      5708      5418
 -1      4638    1    0    1
 -2      5408      5698      5708      5418      5409      5699      5709      5419
 -1      4639    1    0    1
 -2      5409      5699      5709      5419      5410      5700      5710      5420
 -1      4640    1    0    1
 -2      5410      5700      5710      5420      5411      5701      5711      5421
 -1      4641    1    0    1
 -2      5411      5701      5711      5421      5412      5702      5712      5422
 -1      4642    1    0    1
 -2      5412      5702      5712      5422      2062      2091      2092      2063
 -1      4643    1    0    1
 -2       552       581       582       553      5413      5703      5713      5423
 -1      4644    1    0    1
 -2      5413      5703      5713      5423      5414      5704      5714      5424
 -1      4645    1    0    1
 -2      5414      5704      5714      5424      5415      5705      5715      5425
 -1      4646    1    0    1
 -2      5415      5705      5715      5425      5416      5706      5716      5426
 -1      4647    1    0    1
 -2      5416      5706      5716      5426      5417      5707      5717      5427
 -1      4648    1    0    1
 -2      5417      5707      5717      5427      5418      5708      5718      5428
 -1      4649    1    0    1
 -2      5418      5708      5718      5428      5419      5709      5719      5429
 -1      4650    1    0    1
 -2      5419      5709      5719      5429      5420      5710      5720      5430
 -1      4651    1    0    1
 -2      5420      5710      5720      5430      5421      5711      5721      5431
 -1      4652    1    0    1
 -2      5421      5711      5721      5431      5422      5712      5722      5432
 -1      4653    1    0    1
 -2      5422      5712      5722      5432      2063      2092      2093      2064
 -1      4654    1    0    1
 -2       553       582       583       554      5423      5713      5723      5433
 -1      4655    1    0    1
 -2      5423      5713      5723      5433      5424      5714      5724      5434
 -1      4656    1    0    1
 -2      5424      5714      5724      5434      5425      5715      5725      5435
 -1      4657    1    0    1
 -2      5425      5715      5725      5435      5426      5716      5726      5436
 -1      4658    1    0    1
 -2      5426      5716      5726      5436      5427      5717      5727      5437
 -1      4659    1    0    1
 -2      5427      5717      5727      5437      5428      5718      5728      5438
 -1      4660    1    0    1
 -2      5428      5718      5728      5438      5429      5719      5729      5439
 -1      4661    1    0    1
 -2      5429      5719      5729      5439      5430      5720      5730      5440
 -1      4662    1    0    1
 -2      5430      5720      5730      5440      5431      5721      5731      5441
 -1      4663    1    0    1
 -2      5431      5721      5731      5441      5432      5722      5732      5442
 -1      4664    1    0    1
 -2      5432      5722      5732      5442      2064      2093      2094      2065
 -1      4665    1    0    1
 -2       554       583       584       555      5433      5723      5733      5443
 -1      4666    1    0    1
 -2      5433      5723      5733      5443      5434      5724      5734      5444
 -1      4667    1    0    1
 -2      5434      5724      5734      5444      5435      5725      5735      5445
 -1      4668    1    0    1
 -2      5435      5725      5735      5445      5436      5726      5736      5446
 -1      4669    1    0    1
 -2      5436      5726      5736      5446      5437      5727      5737      5447
 -1      4670    1    0    1
 -2      5437      5727      5737      5447      5438      5728      5738      5448
 -1      4671    1    0    1
 -2      5438      5728      5738      5448      5439      5729      5739      5449
 -1      4672    1    0    1
 -2      5439      5729      5739      5449      5440      5730      5740      5450
 -1      4673    1    0    1
 -2      5440      5730      5740      5450      5441      5731      5741      5451
 -1      4674    1    0    1
 -2      5441      5731      5741      5451      5442      5732      5742      5452
 -1      4675    1    0    1
 -2      5442      5732      5742      5452      2065      2094      2095      2066
 -1      4676    1    0    1
 -2       555       584       585       556      5443      5733      5743      5453
 -1      4677    1    0    1
 -2      5443      5733      5743      5453      5444      5734      5744      5454
 -1      4678    1    0    1
 -2      5444      5734      5744      5454      5445      5735      5745      5455
 -1      4679    1    0    1
 -2      5445      5735      5745      5455      5446      5736      5746      5456
 -1      4680    1    0    1
 -2      5446      5736      5746      5456      5447      5737      5747      5457
 -1      4681    1    0    1
 -2      5447      5737      5747      5457      5448      5738      5748      5458
 -1      4682    1    0    1
 -2      5448      5738      5748      5458      5449      5739      5749      5459
 -1      4683    1    0    1
 -2      5449      5739      5749      5459      5450      5740      5750      5460
 -1      4684    1    0    1
 -2      5450      5740      5750      5460      5451      5741      5751      5461
 -1      4685    1    0    1
 -2      5451      5741      5751      5461      5452      5742      5752      5462
 -1      4686    1    0    1
 -2      5452      5742      5752      5462      2066      2095      2096      2067
 -1      4687    1    0    1
 -2       556       585       586       557      5453      5743      5753      5463
 -1      4688    1    0    1
 -2      5453      5743      5753      5463      5454      5744      5754      5464
 -1      4689    1    0    1
 -2      5454      5744      5754      5464      5455      5745      5755      5465
 -1      4690    1    0    1
 -2      5455      5745      5755      5465      5456      5746      5756      5466
 -1      4691    1    0    1
 -2      5456      5746      5756      5466      5457      5747      5757      5467
 -1      4692    1    0    1
 -2      5457      5747      5757      5467      5458      5748      5758      5468
 -1      4693    1    0    1
 -2      5458      5748      5758      5468      5459      5749      5759      5469
 -1      4694    1    0    1
 -2      5459      5749      5759      5469      5460      5750      5760      5470
 -1      4695    1    0    1
 -2      5460      5750      5760      5470      5461      5751      5761      5471
 -1      4696    1    0    1
 -2      5461      5751      5761      5471      5462      5752      5762      5472
 -1      4697    1    0    1
 -2      5462      5752      5762      5472      2067      2096      2097      2068
 -1      4698    1    0    1
 -2       557       586       587       558      5463      5753      5763      5473
 -1      4699    1    0    1
 -2      5463      5753      5763      5473      5464      5754      5764      5474
 -1      4700    1    0    1
 -2      5464      5754      5764      5474      5465      5755      5765      5475
 -1      4701    1    0    1
 -2      5465      5755      5765      5475      5466      5756      5766      5476
 -1      4702    1    0    1
 -2      5466      5756      5766      5476      5467      5757      5767      5477
 -1      4703    1    0    1
 -2      5467      5757      5767      5477      5468      5758      5768      5478
 -1      4704    1    0    1
 -2      5468      5758      5768      5478      5469      5759      5769      5479
 -1      4705    1    0    1
 -2      5469      5759      5769      5479      5470      5760      5770      5480
 -1      4706    1    0    1
 -2      5470      5760      5770      5480      5471      5761      5771      5481
 -1      4707    1    0    1
 -2      5471      5761      5771      5481      5472      5762      5772      5482
 -1      4708    1    0    1
 -2      5472      5762      5772      5482      2068      2097      2098      2069
 -1      4709    1    0    1
 -2       558       587       588       559      5473      5763      5773      5483
 -1      4710    1    0    1
 -2      5473      5763      5773      5483      5474      5764      5774      5484
 -1      4711    1    0    1
 -2      5474      5764      5774      5484      5475      5765      5775      5485
 -1      4712    1    0    1
 -2      5475      5765      5775      5485      5476      5766      5776      5486
 -1      4713    1    0    1
 -2      5476      5766      5776      5486      5477      5767      5777      5487
 -1      4714    1    0    1
 -2      5477      5767      5777      5487      5478      5768      5778      5488
 -1      4715    1    0    1
 -2      5478      5768      5778      5488      5479      5769      5779      5489
 -1      4716    1    0    1
 -2      5479      5769      5779      5489      5480      5770      5780      5490
 -1      4717    1    0    1
 -2      5480      5770      5780      5490      5481      5771      5781      5491
 -1      4718    1    0    1
 -2      5481      5771      5781      5491      5482      5772      5782      5492
 -1      4719    1    0    1
 -2      5482      5772      5782      5492      2069      2098      2099      2070
 -1      4720    1    0    1
 -2       559       588        64        65      5483      5773      1342      1352
 -1      4721    1    0    1
 -2      5483      5773      1342      1352      5484      5774      1343      1353
 -1      4722    1    0    1
 -2      5484      5774      1343      1353      5485      5775      1344      1354
 -1      4723    1    0    1
 -2      5485      5775      1344      1354      5486      5776      1345      1355
 -1      4724    1    0    1
 -2      5486      5776      1345      1355      5487      5777      1346      1356
 -1      4725    1    0    1
 -2      5487      5777      1346      1356      5488      5778      1347      1357
 -1      4726    1    0    1
 -2      5488      5778      1347      1357      5489      5779      1348      1358
 -1      4727    1    0    1
 -2      5489      5779      1348      1358      5490      5780      1349      1359
 -1      4728    1    0    1
 -2      5490      5780      1349      1359      5491      5781      1350      1360
 -1      4729    1    0    1
 -2      5491      5781      1350      1360      5492      5782      1351      1361
 -1      4730    1    0    1
 -2      5492      5782      1351      1361      2070      2099       160       161
 -1      4731    1    0    1
 -2        20        21       589       560       902       912      5783      5493
 -1      4732    1    0    1
 -2       902       912      5783      5493       903       913      5784      5494
 -1      4733    1    0    1
 -2       903       913      5784      5494       904       914      5785      5495
 -1      4734    1    0    1
 -2       904       914      5785      5495       905       915      5786      5496
 -1      4735    1    0    1
 -2       905       915      5786      5496       906       916      5787      5497
 -1      4736    1    0    1
 -2       906       916      5787      5497       907       917      5788      5498
 -1      4737    1    0    1
 -2       907       917      5788      5498       908       918      5789      5499
 -1      4738    1    0    1
 -2       908       918      5789      5499       909       919      5790      5500
 -1      4739    1    0    1
 -2       909       919      5790      5500       910       920      5791      5501
 -1      4740    1    0    1
 -2       910       920      5791      5501       911       921      5792      5502
 -1      4741    1    0    1
 -2       911       921      5792      5502       116       117      2100      2071
 -1      4742    1    0    1
 -2       560       589       590       561      5493      5783      5793      5503
 -1      4743    1    0    1
 -2      5493      5783      5793      5503      5494      5784      5794      5504
 -1      4744    1    0    1
 -2      5494      5784      5794      5504      5495      5785      5795      5505
 -1      4745    1    0    1
 -2      5495      5785      5795      5505      5496      5786      5796      5506
 -1      4746    1    0    1
 -2      5496      5786      5796      5506      5497      5787      5797      5507
 -1      4747    1    0    1
 -2      5497      5787      5797      5507      5498      5788      5798      5508
 -1      4748    1    0    1
 -2      5498      5788      5798      5508      5499      5789      5799      5509
 -1      4749    1    0    1
 -2      5499      5789      5799      5509      5500      5790      5800      5510
 -1      4750    1    0    1
 -2      5500      5790      5800      5510      5501      5791      5801      5511
 -1      4751    1    0    1
 -2      5501      5791      5801      5511      5502      5792      5802      5512
 -1      4752    1    0    1
 -2      5502      5792      5802      5512      2071      2100      2101      2072
 -1      4753    1    0    1
 -2       561       590       591       562      5503      5793      5803      5513
 -1      4754    1    0    1
 -2      5503      5793      5803      5513      5504      5794      5804      5514
 -1      4755    1    0    1
 -2      5504      5794      5804      5514      5505      5795      5805      5515
 -1      4756    1    0    1
 -2      5505      5795      5805      5515      5506      5796      5806      5516
 -1      4757    1    0    1
 -2      5506      5796      5806      5516      5507      5797      5807      5517
 -1      4758    1    0    1
 -2      5507      5797      5807      5517      5508      5798      5808      5518
 -1      4759    1    0    1
 -2      5508      5798      5808      5518      5509      5799      5809      5519
 -1      4760    1    0    1
 -2      5509      5799      5809      5519      5510      5800      5810      5520
 -1      4761    1    0    1
 -2      5510      5800      5810      5520      5511      5801      5811      5521
 -1      4762    1    0    1
 -2      5511      5801      5811      5521      5512      5802      5812      5522
 -1      4763    1    0    1
 -2      5512      5802      5812      5522      2072      2101      2102      2073
 -1      4764    1    0    1
 -2       562       591       592       563      5513      5803      5813      5523
 -1      4765    1    0    1
 -2      5513      5803      5813      5523      5514      5804      5814      5524
 -1      4766    1    0    1
 -2      5514      5804      5814      5524      5515      5805      5815      5525
 -1      4767    1    0    1
 -2      5515      5805      5815      5525      5516      5806      5816      5526
 -1      4768    1    0    1
 -2      5516      5806      5816      5526      5517      5807      5817      5527
 -1      4769    1    0    1
 -2      5517      5807      5817      5527      5518      5808      5818      5528
 -1      4770    1    0    1
 -2      5518      5808      5818      5528      5519      5809      5819      5529
 -1      4771    1    0    1
 -2      5519      5809      5819      5529      5520      5810      5820      5530
 -1      4772    1    0    1
 -2      5520      5810      5820      5530      5521      5811      5821      5531
 -1      4773    1    0    1
 -2      5521      5811      5821      5531      5522      5812      5822      5532
 -1      4774    1    0    1
 -2      5522      5812      5822      5532      2073      2102      2103      2074
 -1      4775    1    0    1
 -2       563       592       593       564      5523      5813      5823      5533
 -1      4776    1    0    1
 -2      5523      5813      5823      5533      5524      5814      5824      5534
 -1      4777    1    0    1
 -2      5524      5814      5824      5534      5525      5815      5825      5535
 -1      4778    1    0    1
 -2      5525      5815      5825      5535      5526      5816      5826      5536
 -1      4779    1    0    1
 -2      5526      5816      5826      5536      5527      5817      5827      5537
 -1      4780    1    0    1
 -2      5527      5817      5827      5537      5528      5818      5828      5538
 -1      4781    1    0    1
 -2      5528      5818      5828      5538      5529      5819      5829      5539
 -1      4782    1    0    1
 -2      5529      5819      5829      5539      5530      5820      5830      5540
 -1      4783    1    0    1
 -2      5530      5820      5830      5540      5531      5821      5831      5541
 -1      4784    1    0    1
 -2      5531      5821      5831      5541      5532      5822      5832      5542
 -1      4785    1    0    1
 -2      5532      5822      5832      5542      2074      2103      2104      2075
 -1      4786    1    0    1
 -2       564       593       594       565      5533      5823      5833      5543
 -1      4787    1    0    1
 -2      5533      5823      5833      5543      5534      5824      5834      5544
 -1      4788    1    0    1
 -2      5534      5824      5834      5544      5535      5825      5835      5545
 -1      4789    1    0    1
 -2      5535      5825      5835      5545      5536      5826      5836      5546
 -1      4790    1    0    1
 -2      5536      5826      5836      5546      5537      5827      5837      5547
 -1      4791    1    0    1
 -2      5537      5827      5837      5547      5538      5828      5838      5548
 -1      4792    1    0    1
 -2      5538      5828      5838      5548      5539      5829      5839      5549
 -1      4793    1    0    1
 -2      5539      5829      5839      5549      5540      5830      5840      5550
 -1      4794    1    0    1
 -2      5540      5830      5840      5550      5541      5831      5841      5551
 -1      4795    1    0    1
 -2      5541      5831      5841      5551      5542      5832      5842      5552
 -1      4796    1    0    1
 -2      5542      5832      5842      5552      2075      2104      2105      2076
 -1      4797    1    0    1
 -2       565       594       595       566      5543      5833      5843      5553
 -1      4798    1    0    1
 -2      5543      5833      5843      5553      5544      5834      5844      5554
 -1      4799    1    0    1
 -2      5544      5834      5844      5554      5545      5835      5845      5555
 -1      4800    1    0    1
 -2      5545      5835      5845      5555      5546      5836      5846      5556
 -1      4801    1    0    1
 -2      5546      5836      5846      5556      5547      5837      5847      5557
 -1      4802    1    0    1
 -2      5547      5837      5847      5557      5548      5838      5848      5558
 -1      4803    1    0    1
 -2      5548      5838      5848      5558      5549      5839      5849      5559
 -1      4804    1    0    1
 -2      5549      5839      5849      5559      5550      5840      5850      5560
 -1      4805    1    0    1
 -2      5550      5840      5850      5560      5551      5841      5851      5561
 -1      4806    1    0    1
 -2      5551      5841      5851      5561      5552      5842      5852      5562
 -1      4807    1    0    1
 -2      5552      5842      5852      5562      2076      2105      2106      2077
 -1      4808    1    0    1
 -2       566       595       596       567      5553      5843      5853      5563
 -1      4809    1    0    1
 -2      5553      5843      5853      5563      5554      5844      5854      5564
 -1      4810    1    0    1
 -2      5554      5844      5854      5564      5555      5845      5855      5565
 -1      4811    1    0    1
 -2      5555      5845      5855      5565      5556      5846      5856      5566
 -1      4812    1    0    1
 -2      5556      5846      5856      5566      5557      5847      5857      5567
 -1      4813    1    0    1
 -2      5557      5847      5857      5567      5558      5848      5858      5568
 -1      4814    1    0    1
 -2      5558      5848      5858      5568      5559      5849      5859      5569
 -1      4815    1    0    1
 -2      5559      5849      5859      5569      5560      5850      5860      5570
 -1      4816    1    0    1
 -2      5560      5850      5860      5570      5561      5851      5861      5571
 -1      4817    1    0    1
 -2      5561      5851      5861      5571      5562      5852      5862      5572
 -1      4818    1    0    1
 -2      5562      5852      5862      5572      2077      2106      2107      2078
 -1      4819    1    0    1
 -2       567       596       597       568      5563      5853      5863      5573
 -1      4820    1    0    1
 -2      5563      5853      5863      5573      5564      5854      5864      5574
 -1      4821    1    0    1
 -2      5564      5854      5864      5574      5565      5855      5865      5575
 -1      4822    1    0    1
 -2      5565      5855      5865      5575      5566      5856      5866      5576
 -1      4823    1    0    1
 -2      5566      5856      5866      5576      5567      5857      5867      5577
 -1      4824    1    0    1
 -2      5567      5857      5867      5577      5568      5858      5868      5578
 -1      4825    1    0    1
 -2      5568      5858      5868      5578      5569      5859      5869      5579
 -1      4826    1    0    1
 -2      5569      5859      5869      5579      5570      5860      5870      5580
 -1      4827    1    0    1
 -2      5570      5860      5870      5580      5571      5861      5871      5581
 -1      4828    1    0    1
 -2      5571      5861      5871      5581      5572      5862      5872      5582
 -1      4829    1    0    1
 -2      5572      5862      5872      5582      2078      2107      2108      2079
 -1      4830    1    0    1
 -2       568       597       598       569      5573      5863      5873      5583
 -1      4831    1    0    1
 -2      5573      5863      5873      5583      5574      5864      5874      5584
 -1      4832    1    0    1
 -2      5574      5864      5874      5584      5575      5865      5875      5585
 -1      4833    1    0    1
 -2      5575      5865      5875      5585      5576      5866      5876      5586
 -1      4834    1    0    1
 -2      5576      5866      5876      5586      5577      5867      5877      5587
 -1      4835    1    0    1
 -2      5577      5867      5877      5587      5578      5868      5878      5588
 -1      4836    1    0    1
 -2      5578      5868      5878      5588      5579      5869      5879      5589
 -1      4837    1    0    1
 -2      5579      5869      5879      5589      5580      5870      5880      5590
 -1      4838    1    0    1
 -2      5580      5870      5880      5590      5581      5871      5881      5591
 -1      4839    1    0    1
 -2      5581      5871      5881      5591      5582      5872      5882      5592
 -1      4840    1    0    1
 -2      5582      5872      5882      5592      2079      2108      2109      2080
 -1      4841    1    0    1
 -2       569       598       599       570      5583      5873      5883      5593
 -1      4842    1    0    1
 -2      5583      5873      5883      5593      5584      5874      5884      5594
 -1      4843    1    0    1
 -2      5584      5874      5884      5594      5585      5875      5885      5595
 -1      4844    1    0    1
 -2      5585      5875      5885      5595      5586      5876      5886      5596
 -1      4845    1    0    1
 -2      5586      5876      5886      5596      5587      5877      5887      5597
 -1      4846    1    0    1
 -2      5587      5877      5887      5597      5588      5878      5888      5598
 -1      4847    1    0    1
 -2      5588      5878      5888      5598      5589      5879      5889      5599
 -1      4848    1    0    1
 -2      5589      5879      5889      5599      5590      5880      5890      5600
 -1      4849    1    0    1
 -2      5590      5880      5890      5600      5591      5881      5891      5601
 -1      4850    1    0    1
 -2      5591      5881      5891      5601      5592      5882      5892      5602
 -1      4851    1    0    1
 -2      5592      5882      5892      5602      2080      2109      2110      2081
 -1      4852    1    0    1
 -2       570       599       600       571      5593      5883      5893      5603
 -1      4853    1    0    1
 -2      5593      5883      5893      5603      5594      5884      5894      5604
 -1      4854    1    0    1
 -2      5594      5884      5894      5604      5595      5885      5895      5605
 -1      4855    1    0    1
 -2      5595      5885      5895      5605      5596      5886      5896      5606
 -1      4856    1    0    1
 -2      5596      5886      5896      5606      5597      5887      5897      5607
 -1      4857    1    0    1
 -2      5597      5887      5897      5607      5598      5888      5898      5608
 -1      4858    1    0    1
 -2      5598      5888      5898      5608      5599      5889      5899      5609
 -1      4859    1    0    1
 -2      5599      5889      5899      5609      5600      5890      5900      5610
 -1      4860    1    0    1
 -2      5600      5890      5900      5610      5601      5891      5901      5611
 -1      4861    1    0    1
 -2      5601      5891      5901      5611      5602      5892      5902      5612
 -1      4862    1    0    1
 -2      5602      5892      5902      5612      2081      2110      2111      2082
 -1      4863    1    0    1
 -2       571       600       601       572      5603      5893      5903      5613
 -1      4864    1    0    1
 -2      5603      5893      5903      5613      5604      5894      5904      5614
 -1      4865    1    0    1
 -2      5604      5894      5904      5614      5605      5895      5905      5615
 -1      4866    1    0    1
 -2      5605      5895      5905      5615      5606      5896      5906      5616
 -1      4867    1    0    1
 -2      5606      5896      5906      5616      5607      5897      5907      5617
 -1      4868    1    0    1
 -2      5607      5897      5907      5617      5608      5898      5908      5618
 -1      4869    1    0    1
 -2      5608      5898      5908      5618      5609      5899      5909      5619
 -1      4870    1    0    1
 -2      5609      5899      5909      5619      5610      5900      5910      5620
 -1      4871    1    0    1
 -2      5610      5900      5910      5620      5611      5901      5911      5621
 -1      4872    1    0    1
 -2      5611      5901      5911      5621      5612      5902      5912      5622
 -1      4873    1    0    1
 -2      5612      5902      5912      5622      2082      2111      2112      2083
 -1      4874    1    0    1
 -2       572       601       602       573      5613      5903      5913      5623
 -1      4875    1    0    1
 -2      5613      5903      5913      5623      5614      5904      5914      5624
 -1      4876    1    0    1
 -2      5614      5904      5914      5624      5615      5905      5915      5625
 -1      4877    1    0    1
 -2      5615      5905      5915      5625      5616      5906      5916      5626
 -1      4878    1    0    1
 -2      5616      5906      5916      5626      5617      5907      5917      5627
 -1      4879    1    0    1
 -2      5617      5907      5917      5627      5618      5908      5918      5628
 -1      4880    1    0    1
 -2      5618      5908      5918      5628      5619      5909      5919      5629
 -1      4881    1    0    1
 -2      5619      5909      5919      5629      5620      5910      5920      5630
 -1      4882    1    0    1
 -2      5620      5910      5920      5630      5621      5911      5921      5631
 -1      4883    1    0    1
 -2      5621      5911      5921      5631      5622      5912      5922      5632
 -1      4884    1    0    1
 -2      5622      5912      5922      5632      2083      2112      2113      2084
 -1      4885    1    0    1
 -2       573       602       603       574      5623      5913      5923      5633
 -1      4886    1    0    1
 -2      5623      5913      5923      5633      5624      5914      5924      5634
 -1      4887    1    0    1
 -2      5624      5914      5924      5634      5625      5915      5925      5635
 -1      4888    1    0    1
 -2      5625      5915      5925      5635      5626      5916      5926      5636
 -1      4889    1    0    1
 -2      5626      5916      5926      5636      5627      5917      5927      5637
 -1      4890    1    0    1
 -2      5627      5917      5927      5637      5628      5918      5928      5638
 -1      4891    1    0    1
 -2      5628      5918      5928      5638      5629      5919      5929      5639
 -1      4892    1    0    1
 -2      5629      5919      5929      5639      5630      5920      5930      5640
 -1      4893    1    0    1
 -2      5630      5920      5930      5640      5631      5921      5931      5641
 -1      4894    1    0    1
 -2      5631      5921      5931      5641      5632      5922      5932      5642
 -1      4895    1    0    1
 -2      5632      5922      5932      5642      2084      2113      2114      2085
 -1      4896    1    0    1
 -2       574       603       604       575      5633      5923      5933      5643
 -1      4897    1    0    1
 -2      5633      5923      5933      5643      5634      5924      5934      5644
 -1      4898    1    0    1
 -2      5634      5924      5934      5644      5635      5925      5935      5645
 -1      4899    1    0    1
 -2      5635      5925      5935      5645      5636      5926      5936      5646
 -1      4900    1    0    1
 -2      5636      5926      5936      5646      5637      5927      5937      5647
 -1      4901    1    0    1
 -2      5637      5927      5937      5647      5638      5928      5938      5648
 -1      4902    1    0    1
 -2      5638      5928      5938      5648      5639      5929      5939      5649
 -1      4903    1    0    1
 -2      5639      5929      5939      5649      5640      5930      5940      5650
 -1      4904    1    0    1
 -2      5640      5930      5940      5650      5641      5931      5941      5651
 -1      4905    1    0    1
 -2      5641      5931      5941      5651      5642      5932      5942      5652
 -1      4906    1    0    1
 -2      5642      5932      5942      5652      2085      2114      2115      2086
 -1      4907    1    0    1
 -2       575       604       605       576      5643      5933      5943      5653
 -1      4908    1    0    1
 -2      5643      5933      5943      5653      5644      5934      5944      5654
 -1      4909    1    0    1
 -2      5644      5934      5944      5654      5645      5935      5945      5655
 -1      4910    1    0    1
 -2      5645      5935      5945      5655      5646      5936      5946      5656
 -1      4911    1    0    1
 -2      5646      5936      5946      5656      5647      5937      5947      5657
 -1      4912    1    0    1
 -2      5647      5937      5947      5657      5648      5938      5948      5658
 -1      4913    1    0    1
 -2      5648      5938      5948      5658      5649      5939      5949      5659
 -1      4914    1    0    1
 -2      5649      5939      5949      5659      5650      5940      5950      5660
 -1      4915    1    0    1
 -2      5650      5940      5950      5660      5651      5941      5951      5661
 -1      4916    1    0    1
 -2      5651      5941      5951      5661      5652      5942      5952      5662
 -1      4917    1    0    1
 -2      5652      5942      5952      5662      2086      2115      2116      2087
 -1      4918    1    0    1
 -2       576       605       606       577      5653      5943      5953      5663
 -1      4919    1    0    1
 -2      5653      5943      5953      5663      5654      5944      5954      5664
 -1      4920    1    0    1
 -2      5654      5944      5954      5664      5655      5945      5955      5665
 -1      4921    1    0    1
 -2      5655      5945      5955      5665      5656      5946      5956      5666
 -1      4922    1    0    1
 -2      5656      5946      5956      5666      5657      5947      5957      5667
 -1      4923    1    0    1
 -2      5657      5947      5957      5667      5658      5948      5958      5668
 -1      4924    1    0    1
 -2      5658      5948      5958      5668      5659      5949      5959      5669
 -1      4925    1    0    1
 -2      5659      5949      5959      5669      5660      5950      5960      5670
 -1      4926    1    0    1
 -2      5660      5950      5960      5670      5661      5951      5961      5671
 -1      4927    1    0    1
 -2      5661      5951      5961      5671      5662      5952      5962      5672
 -1      4928    1    0    1
 -2      5662      5952      5962      5672      2087      2116      2117      2088
 -1      4929    1    0    1
 -2       577       606       607       578      5663      5953      5963      5673
 -1      4930    1    0    1
 -2      5663      5953      5963      5673      5664      5954      5964      5674
 -1      4931    1    0    1
 -2      5664      5954      5964      5674      5665      5955      5965      5675
 -1      4932    1    0    1
 -2      5665      5955      5965      5675      5666      5956      5966      5676
 -1      4933    1    0    1
 -2      5666      5956      5966      5676      5667      5957      5967      5677
 -1      4934    1    0    1
 -2      5667      5957      5967      5677      5668      5958      5968      5678
 -1      4935    1    0    1
 -2      5668      5958      5968      5678      5669      5959      5969      5679
 -1      4936    1    0    1
 -2      5669      5959      5969      5679      5670      5960      5970      5680
 -1      4937    1    0    1
 -2      5670      5960      5970      5680      5671      5961      5971      5681
 -1      4938    1    0    1
 -2      5671      5961      5971      5681      5672      5962      5972      5682
 -1      4939    1    0    1
 -2      5672      5962      5972      5682      2088      2117      2118      2089
 -1      4940    1    0    1
 -2       578       607       608       579      5673      5963      5973      5683
 -1      4941    1    0    1
 -2      5673      5963      5973      5683      5674      5964      5974      5684
 -1      4942    1    0    1
 -2      5674      5964      5974      5684      5675      5965      5975      5685
 -1      4943    1    0    1
 -2      5675      5965      5975      5685      5676      5966      5976      5686
 -1      4944    1    0    1
 -2      5676      5966      5976      5686      5677      5967      5977      5687
 -1      4945    1    0    1
 -2      5677      5967      5977      5687      5678      5968      5978      5688
 -1      4946    1    0    1
 -2      5678      5968      5978      5688      5679      5969      5979      5689
 -1      4947    1    0    1
 -2      5679      5969      5979      5689      5680      5970      5980      5690
 -1      4948    1    0    1
 -2      5680      5970      5980      5690      5681      5971      5981      5691
 -1      4949    1    0    1
 -2      5681      5971      5981      5691      5682      5972      5982      5692
 -1      4950    1    0    1
 -2      5682      5972      5982      5692      2089      2118      2119      2090
 -1      4951    1    0    1
 -2       579       608       609       580      5683      5973      5983      5693
 -1      4952    1    0    1
 -2      5683      5973      5983      5693      5684      5974      5984      5694
 -1      4953    1    0    1
 -2      5684      5974      5984      5694      5685      5975      5985      5695
 -1      4954    1    0    1
 -2      5685      5975      5985      5695      5686      5976      5986      5696
 -1      4955    1    0    1
 -2      5686      5976      5986      5696      5687      5977      5987      5697
 -1      4956    1    0    1
 -2      5687      5977      5987      5697      5688      5978      5988      5698
 -1      4957    1    0    1
 -2      5688      5978      5988      5698      5689      5979      5989      5699
 -1      4958    1    0    1
 -2      5689      5979      5989      5699      5690      5980      5990      5700
 -1      4959    1    0    1
 -2      5690      5980      5990      5700      5691      5981      5991      5701
 -1      4960    1    0    1
 -2      5691      5981      5991      5701      5692      5982      5992      5702
 -1      4961    1    0    1
 -2      5692      5982      5992      5702      2090      2119      2120      2091
 -1      4962    1    0    1
 -2       580       609       610       581      5693      5983      5993      5703
 -1      4963    1    0    1
 -2      5693      5983      5993      5703      5694      5984      5994      5704
 -1      4964    1    0    1
 -2      5694      5984      5994      5704      5695      5985      5995      5705
 -1      4965    1    0    1
 -2      5695      5985      5995      5705      5696      5986      5996      5706
 -1      4966    1    0    1
 -2      5696      5986      5996      5706      5697      5987      5997      5707
 -1      4967    1    0    1
 -2      5697      5987      5997      5707      5698      5988      5998      5708
 -1      4968    1    0    1
 -2      5698      5988      5998      5708      5699      5989      5999      5709
 -1      4969    1    0    1
 -2      5699      5989      5999      5709      5700      5990      6000      5710
 -1      4970    1    0    1
 -2      5700      5990      6000      5710      5701      5991      6001      5711
 -1      4971    1    0    1
 -2      5701      5991      6001      5711      5702      5992      6002      5712
 -1      4972    1    0    1
 -2      5702      5992      6002      5712      2091      2120      2121      2092
 -1      4973    1    0    1
 -2       581       610       611       582      5703      5993      6003      5713
 -1      4974    1    0    1
 -2      5703      5993      6003      5713      5704      5994      6004      5714
 -1      4975    1    0    1
 -2      5704      5994      6004      5714      5705      5995      6005      5715
 -1      4976    1    0    1
 -2      5705      5995      6005      5715      5706      5996      6006      5716
 -1      4977    1    0    1
 -2      5706      5996      6006      5716      5707      5997      6007      5717
 -1      4978    1    0    1
 -2      5707      5997      6007      5717      5708      5998      6008      5718
 -1      4979    1    0    1
 -2      5708      5998      6008      5718      5709      5999      6009      5719
 -1      4980    1    0    1
 -2      5709      5999      6009      5719      5710      6000      6010      5720
 -1      4981    1    0    1
 -2      5710      6000      6010      5720      5711      6001      6011      5721
 -1      4982    1    0    1
 -2      5711      6001      6011      5721      5712      6002      6012      5722
 -1      4983    1    0    1
 -2      5712      6002      6012      5722      2092      2121      2122      2093
 -1      4984    1    0    1
 -2       582       611       612       583      5713      6003      6013      5723
 -1      4985    1    0    1
 -2      5713      6003      6013      5723      5714      6004      6014      5724
 -1      4986    1    0    1
 -2      5714      6004      6014      5724      5715      6005      6015      5725
 -1      4987    1    0    1
 -2      5715      6005      6015      5725      5716      6006      6016      5726
 -1      4988    1    0    1
 -2      5716      6006      6016      5726      5717      6007      6017      5727
 -1      4989    1    0    1
 -2      5717      6007      6017      5727      5718      6008      6018      5728
 -1      4990    1    0    1
 -2      5718      6008      6018      5728      5719      6009      6019      5729
 -1      4991    1    0    1
 -2      5719      6009      6019      5729      5720      6010      6020      5730
 -1      4992    1    0    1
 -2      5720      6010      6020      5730      5721      6011      6021      5731
 -1      4993    1    0    1
 -2      5721      6011      6021      5731      5722      6012      6022      5732
 -1      4994    1    0    1
 -2      5722      6012      6022      5732      2093      2122      2123      2094
 -1      4995    1    0    1
 -2       583       612       613       584      5723      6013      6023      5733
 -1      4996    1    0    1
 -2      5723      6013      6023      5733      5724      6014      6024      5734
 -1      4997    1    0    1
 -2      5724      6014      6024      5734      5725      6015      6025      5735
 -1      4998    1    0    1
 -2      5725      6015      6025      5735      5726      6016      6026      5736
 -1      4999    1    0    1
 -2      5726      6016      6026      5736      5727      6017      6027      5737
 -1      5000    1    0    1
 -2      5727      6017      6027      5737      5728      6018      6028      5738
 -1      5001    1    0    1
 -2      5728      6018      6028      5738      5729      6019      6029      5739
 -1      5002    1    0    1
 -2      5729      6019      6029      5739      5730      6020      6030      5740
 -1      5003    1    0    1
 -2      5730      6020      6030      5740      5731      6021      6031      5741
 -1      5004    1    0    1
 -2      5731      6021      6031      5741      5732      6022      6032      5742
 -1      5005    1    0    1
 -2      5732      6022      6032      5742      2094      2123      2124      2095
 -1      5006    1    0    1
 -2       584       613       614       585      5733      6023      6033      5743
 -1      5007    1    0    1
 -2      5733      6023      6033      5743      5734      6024      6034      5744
 -1      5008    1    0    1
 -2      5734      6024      6034      5744      5735      6025      6035      5745
 -1      5009    1    0    1
 -2      5735      6025      6035      5745      5736      6026      6036      5746
 -1      5010    1    0    1
 -2      5736      6026      6036      5746      5737      6027      6037      5747
 -1      5011    1    0    1
 -2      5737      6027      6037      5747      5738      6028      6038      5748
 -1      5012    1    0    1
 -2      5738      6028      6038      5748      5739      6029      6039      5749
 -1      5013    1    0    1
 -2      5739      6029      6039      5749      5740      6030      6040      5750
 -1      5014    1    0    1
 -2      5740      6030      6040      5750      5741      6031      6041      5751
 -1      5015    1    0    1
 -2      5741      6031      6041      5751      5742      6032      6042      5752
 -1      5016    1    0    1
 -2      5742      6032      6042      5752      2095      2124      2125      2096
 -1      5017    1    0    1
 -2       585       614       615       586      5743      6033      6043      5753
 -1      5018    1    0    1
 -2      5743      6033      6043      5753      5744      6034      6044      5754
 -1      5019    1    0    1
 -2      5744      6034      6044      5754      5745      6035      6045      5755
 -1      5020    1    0    1
 -2      5745      6035      6045      5755      5746      6036      6046      5756
 -1      5021    1    0    1
 -2      5746      6036      6046      5756      5747      6037      6047      5757
 -1      5022    1    0    1
 -2      5747      6037      6047      5757      5748      6038      6048      5758
 -1      5023    1    0    1
 -2      5748      6038      6048      5758      5749      6039      6049      5759
 -1      5024    1    0    1
 -2      5749      6039      6049      5759      5750      6040      6050      5760
 -1      5025    1    0    1
 -2      5750      6040      6050      5760      5751      6041      6051      5761
 -1      5026    1    0    1
 -2      5751      6041      6051      5761      5752      6042      6052      5762
 -1      5027    1    0    1
 -2      5752      6042      6052      5762      2096      2125      2126      2097
 -1      5028    1    0    1
 -2       586       615       616       587      5753      6043      6053      5763
 -1      5029    1    0    1
 -2      5753      6043      6053      5763      5754      6044      6054      5764
 -1      5030    1    0    1
 -2      5754      6044      6054      5764      5755      6045      6055      5765
 -1      5031    1    0    1
 -2      5755      6045      6055      5765      5756      6046      6056      5766
 -1      5032    1    0    1
 -2      5756      6046      6056      5766      5757      6047      6057      5767
 -1      5033    1    0    1
 -2      5757      6047      6057      5767      5758      6048      6058      5768
 -1      5034    1    0    1
 -2      5758      6048      6058      5768      5759      6049      6059      5769
 -1      5035    1    0    1
 -2      5759      6049      6059      5769      5760      6050      6060      5770
 -1      5036    1    0    1
 -2      5760      6050      6060      5770      5761      6051      6061      5771
 -1      5037    1    0    1
 -2      5761      6051      6061      5771      5762      6052      6062      5772
 -1      5038    1    0    1
 -2      5762      6052      6062      5772      2097      2126      2127      2098
 -1      5039    1    0    1
 -2       587       616       617       588      5763      6053      6063      5773
 -1      5040    1    0    1
 -2      5763      6053      6063      5773      5764      6054      6064      5774
 -1      5041    1    0    1
 -2      5764      6054      6064      5774      5765      6055      6065      5775
 -1      5042    1    0    1
 -2      5765      6055      6065      5775      5766      6056      6066      5776
 -1      5043    1    0    1
 -2      5766      6056      6066      5776      5767      6057      6067      5777
 -1      5044    1    0    1
 -2      5767      6057      6067      5777      5768      6058      6068      5778
 -1      5045    1    0    1
 -2      5768      6058      6068      5778      5769      6059      6069      5779
 -1      5046    1    0    1
 -2      5769      6059      6069      5779      5770      6060      6070      5780
 -1      5047    1    0    1
 -2      5770      6060      6070      5780      5771      6061      6071      5781
 -1      5048    1    0    1
 -2      5771      6061      6071      5781      5772      6062      6072      5782
 -1      5049    1    0    1
 -2      5772      6062      6072      5782      2098      2127      2128      2099
 -1      5050    1    0    1
 -2       588       617        63        64      5773      6063      1332      1342
 -1      5051    1    0    1
 -2      5773      6063      1332      1342      5774      6064      1333      1343
 -1      5052    1    0    1
 -2      5774      6064      1333      1343      5775      6065      1334      1344
 -1      5053    1    0    1
 -2      5775      6065      1334      1344      5776      6066      1335      1345
 -1      5054    1    0    1
 -2      5776      6066      1335      1345      5777      6067      1336      1346
 -1      5055    1    0    1
 -2      5777      6067      1336      1346      5778      6068      1337      1347
 -1      5056    1    0    1
 -2      5778      6068      1337      1347      5779      6069      1338      1348
 -1      5057    1    0    1
 -2      5779      6069      1338      1348      5780      6070      1339      1349
 -1      5058    1    0    1
 -2      5780      6070      1339      1349      5781      6071      1340      1350
 -1      5059    1    0    1
 -2      5781      6071      1340      1350      5782      6072      1341      1351
 -1      5060    1    0    1
 -2      5782      6072      1341      1351      2099      2128       159       160
 -1      5061    1    0    1
 -2        21        22       618       589       912       922      6073      5783
 -1      5062    1    0    1
 -2       912       922      6073      5783       913       923      6074      5784
 -1      5063    1    0    1
 -2       913       923      6074      5784       914       924      6075      5785
 -1      5064    1    0    1
 -2       914       924      6075      5785       915       925      6076      5786
 -1      5065    1    0    1
 -2       915       925      6076      5786       916       926      6077      5787
 -1      5066    1    0    1
 -2       916       926      6077      5787       917       927      6078      5788
 -1      5067    1    0    1
 -2       917       927      6078      5788       918       928      6079      5789
 -1      5068    1    0    1
 -2       918       928      6079      5789       919       929      6080      5790
 -1      5069    1    0    1
 -2       919       929      6080      5790       920       930      6081      5791
 -1      5070    1    0    1
 -2       920       930      6081      5791       921       931      6082      5792
 -1      5071    1    0    1
 -2       921       931      6082      5792       117       118      2129      2100
 -1      5072    1    0    1
 -2       589       618       619       590      5783      6073      6083      5793
 -1      5073    1    0    1
 -2      5783      6073      6083      5793      5784      6074      6084      5794
 -1      5074    1    0    1
 -2      5784      6074      6084      5794      5785      6075      6085      5795
 -1      5075    1    0    1
 -2      5785      6075      6085      5795      5786      6076      6086      5796
 -1      5076    1    0    1
 -2      5786      6076      6086      5796      5787      6077      6087      5797
 -1      5077    1    0    1
 -2      5787      6077      6087      5797      5788      6078      6088      5798
 -1      5078    1    0    1
 -2      5788      6078      6088      5798      5789      6079      6089      5799
 -1      5079    1    0    1
 -2      5789      6079      6089      5799      5790      6080      6090      5800
 -1      5080    1    0    1
 -2      5790      6080      6090      5800      5791      6081      6091      5801
 -1      5081    1    0    1
 -2      5791      6081      6091      5801      5792      6082      6092      5802
 -1      5082    1    0    1
 -2      5792      6082      6092      5802      2100      2129      2130      2101
 -1      5083    1    0    1
 -2       590       619       620       591      5793      6083      6093      5803
 -1      5084    1    0    1
 -2      5793      6083      6093      5803      5794      6084      6094      5804
 -1      5085    1    0    1
 -2      5794      6084      6094      5804      5795      6085      6095      5805
 -1      5086    1    0    1
 -2      5795      6085      6095      5805      5796      6086      6096      5806
 -1      5087    1    0    1
 -2      5796      6086      6096      5806      5797      6087      6097      5807
 -1      5088    1    0    1
 -2      5797      6087      6097      5807      5798      6088      6098      5808
 -1      5089    1    0    1
 -2      5798      6088      6098      5808      5799      6089      6099      5809
 -1      5090    1    0    1
 -2      5799      6089      6099      5809      5800      6090      6100      5810
 -1      5091    1    0    1
 -2      5800      6090      6100      5810      5801      6091      6101      5811
 -1      5092    1    0    1
 -2      5801      6091      6101      5811      5802      6092      6102      5812
 -1      5093    1    0    1
 -2      5802      6092      6102      5812      2101      2130      2131      2102
 -1      5094    1    0    1
 -2       591       620       621       592      5803      6093      6103      5813
 -1      5095    1    0    1
 -2      5803      6093      6103      5813      5804      6094      6104      5814
 -1      5096    1    0    1
 -2      5804      6094      6104      5814      5805      6095      6105      5815
 -1      5097    1    0    1
 -2      5805      6095      6105      5815      5806      6096      6106      5816
 -1      5098    1    0    1
 -2      5806      6096      6106      5816      5807      6097      6107      5817
 -1      5099    1    0    1
 -2      5807      6097      6107      5817      5808      6098      6108      5818
 -1      5100    1    0    1
 -2      5808      6098      6108      5818      5809      6099      6109      5819
 -1      5101    1    0    1
 -2      5809      6099      6109      5819      5810      6100      6110      5820
 -1      5102    1    0    1
 -2      5810      6100      6110      5820      5811      6101      6111      5821
 -1      5103    1    0    1
 -2      5811      6101      6111      5821      5812      6102      6112      5822
 -1      5104    1    0    1
 -2      5812      6102      6112      5822      2102      2131      2132      2103
 -1      5105    1    0    1
 -2       592       621       622       593      5813      6103      6113      5823
 -1      5106    1    0    1
 -2      5813      6103      6113      5823      5814      6104      6114      5824
 -1      5107    1    0    1
 -2      5814      6104      6114      5824      5815      6105      6115      5825
 -1      5108    1    0    1
 -2      5815      6105      6115      5825      5816      6106      6116      5826
 -1      5109    1    0    1
 -2      5816      6106      6116      5826      5817      6107      6117      5827
 -1      5110    1    0    1
 -2      5817      6107      6117      5827      5818      6108      6118      5828
 -1      5111    1    0    1
 -2      5818      6108      6118      5828      5819      6109      6119      5829
 -1      5112    1    0    1
 -2      5819      6109      6119      5829      5820      6110      6120      5830
 -1      5113    1    0    1
 -2      5820      6110      6120      5830      5821      6111      6121      5831
 -1      5114    1    0    1
 -2      5821      6111      6121      5831      5822      6112      6122      5832
 -1      5115    1    0    1
 -2      5822      6112      6122      5832      2103      2132      2133      2104
 -1      5116    1    0    1
 -2       593       622       623       594      5823      6113      6123      5833
 -1      5117    1    0    1
 -2      5823      6113      6123      5833      5824      6114      6124      5834
 -1      5118    1    0    1
 -2      5824      6114      6124      5834      5825      6115      6125      5835
 -1      5119    1    0    1
 -2      5825      6115      6125      5835      5826      6116      6126      5836
 -1      5120    1    0    1
 -2      5826      6116      6126      5836      5827      6117      6127      5837
 -1      5121    1    0    1
 -2      5827      6117      6127      5837      5828      6118      6128      5838
 -1      5122    1    0    1
 -2      5828      6118      6128      5838      5829      6119      6129      5839
 -1      5123    1    0    1
 -2      5829      6119      6129      5839      5830      6120      6130      5840
 -1      5124    1    0    1
 -2      5830      6120      6130      5840      5831      6121      6131      5841
 -1      5125    1    0    1
 -2      5831      6121      6131      5841      5832      6122      6132      5842
 -1      5126    1    0    1
 -2      5832      6122      6132      5842      2104      2133      2134      2105
 -1      5127    1    0    1
 -2       594       623       624       595      5833      6123      6133      5843
 -1      5128    1    0    1
 -2      5833      6123      6133      5843      5834      6124      6134      5844
 -1      5129    1    0    1
 -2      5834      6124      6134      5844      5835      6125      6135      5845
 -1      5130    1    0    1
 -2      5835      6125      6135      5845      5836      6126      6136      5846
 -1      5131    1    0    1
 -2      5836      6126      6136      5846      5837      6127      6137      5847
 -1      5132    1    0    1
 -2      5837      6127      6137      5847      5838      6128      6138      5848
 -1      5133    1    0    1
 -2      5838      6128      6138      5848      5839      6129      6139      5849
 -1      5134    1    0    1
 -2      5839      6129      6139      5849      5840      6130      6140      5850
 -1      5135    1    0    1
 -2      5840      6130      6140      5850      5841      6131      6141      5851
 -1      5136    1    0    1
 -2      5841      6131      6141      5851      5842      6132      6142      5852
 -1      5137    1    0    1
 -2      5842      6132      6142      5852      2105      2134      2135      2106
 -1      5138    1    0    1
 -2       595       624       625       596      5843      6133      6143      5853
 -1      5139    1    0    1
 -2      5843      6133      6143      5853      5844      6134      6144      5854
 -1      5140    1    0    1
 -2      5844      6134      6144      5854      5845      6135      6145      5855
 -1      5141    1    0    1
 -2      5845      6135      6145      5855      5846      6136      6146      5856
 -1      5142    1    0    1
 -2      5846      6136      6146      5856      5847      6137      6147      5857
 -1      5143    1    0    1
 -2      5847      6137      6147      5857      5848      6138      6148      5858
 -1      5144    1    0    1
 -2      5848      6138      6148      5858      5849      6139      6149      5859
 -1      5145    1    0    1
 -2      5849      6139      6149      5859      5850      6140      6150      5860
 -1      5146    1    0    1
 -2      5850      6140      6150      5860      5851      6141      6151      5861
 -1      5147    1    0    1
 -2      5851      6141      6151      5861      5852      6142      6152      5862
 -1      5148    1    0    1
 -2      5852      6142      6152      5862      2106      2135      2136      2107
 -1      5149    1    0    1
 -2       596       625       626       597      5853      6143      6153      5863
 -1      5150    1    0    1
 -2      5853      6143      6153      5863      5854      6144      6154      5864
 -1      5151    1    0    1
 -2      5854      6144      6154      5864      5855      6145      6155      5865
 -1      5152    1    0    1
 -2      5855      6145      6155      5865      5856      6146      6156      5866
 -1      5153    1    0    1
 -2      5856      6146      6156      5866      5857      6147      6157      5867
 -1      5154    1    0    1
 -2      5857      6147      6157      5867      5858      6148      6158      5868
 -1      5155    1    0    1
 -2      5858      6148      6158      5868      5859      6149      6159      5869
 -1      5156    1    0    1
 -2      5859      6149      6159      5869      5860      6150      6160      5870
 -1      5157    1    0    1
 -2      5860      6150      6160      5870      5861      6151      6161      5871
 -1      5158    1    0    1
 -2      5861      6151      6161      5871      5862      6152      6162      5872
 -1      5159    1    0    1
 -2      5862      6152      6162      5872      2107      2136      2137      2108
 -1      5160    1    0    1
 -2       597       626       627       598      5863      6153      6163      5873
 -1      5161    1    0    1
 -2      5863      6153      6163      5873      5864      6154      6164      5874
 -1      5162    1    0    1
 -2      5864      6154      6164      5874      5865      6155      6165      5875
 -1      5163    1    0    1
 -2      5865      6155      6165      5875      5866      6156      6166      5876
 -1      5164    1    0    1
 -2      5866      6156      6166      5876      5867      6157      6167      5877
 -1      5165    1    0    1
 -2      5867      6157      6167      5877      5868      6158      6168      5878
 -1      5166    1    0    1
 -2      5868      6158      6168      5878      5869      6159      6169      5879
 -1      5167    1    0    1
 -2      5869      6159      6169      5879      5870      6160      6170      5880
 -1      5168    1    0    1
 -2      5870      6160      6170      5880      5871      6161      6171      5881
 -1      5169    1    0    1
 -2      5871      6161      6171      5881      5872      6162      6172      5882
 -1      5170    1    0    1
 -2      5872      6162      6172      5882      2108      2137      2138      2109
 -1      5171    1    0    1
 -2       598       627       628       599      5873      6163      6173      5883
 -1      5172    1    0    1
 -2      5873      6163      6173      5883      5874      6164      6174      5884
 -1      5173    1    0    1
 -2      5874      6164      6174      5884      5875      6165      6175      5885
 -1      5174    1    0    1
 -2      5875      6165      6175      5885      5876      6166      6176      5886
 -1      5175    1    0    1
 -2      5876      6166      6176      5886      5877      6167      6177      5887
 -1      5176    1    0    1
 -2      5877      6167      6177      5887      5878      6168      6178      5888
 -1      5177    1    0    1
 -2      5878      6168      6178      5888      5879      6169      6179      5889
 -1      5178    1    0    1
 -2      5879      6169      6179      5889      5880      6170      6180      5890
 -1      5179    1    0    1
 -2      5880      6170      6180      5890      5881      6171      6181      5891
 -1      5180    1    0    1
 -2      5881      6171      6181      5891      5882      6172      6182      5892
 -1      5181    1    0    1
 -2      5882      6172      6182      5892      2109      2138      2139      2110
 -1      5182    1    0    1
 -2       599       628       629       600      5883      6173      6183      5893
 -1      5183    1    0    1
 -2      5883      6173      6183      5893      5884      6174      6184      5894
 -1      5184    1    0    1
 -2      5884      6174      6184      5894      5885      6175      6185      5895
 -1      5185    1    0    1
 -2      5885      6175      6185      5895      5886      6176      6186      5896
 -1      5186    1    0    1
 -2      5886      6176      6186      5896      5887      6177      6187      5897
 -1      5187    1    0    1
 -2      5887      6177      6187      5897      5888      6178      6188      5898
 -1      5188    1    0    1
 -2      5888      6178      6188      5898      5889      6179      6189      5899
 -1      5189    1    0    1
 -2      5889      6179      6189      5899      5890      6180      6190      5900
 -1      5190    1    0    1
 -2      5890      6180      6190      5900      5891      6181      6191      5901
 -1      5191    1    0    1
 -2      5891      6181      6191      5901      5892      6182      6192      5902
 -1      5192    1    0    1
 -2      5892      6182      6192      5902      2110      2139      2140      2111
 -1      5193    1    0    1
 -2       600       629       630       601      5893      6183      6193      5903
 -1      5194    1    0    1
 -2      5893      6183      6193      5903      5894      6184      6194      5904
 -1      5195    1    0    1
 -2      5894      6184      6194      5904      5895      6185      6195      5905
 -1      5196    1    0    1
 -2      5895      6185      6195      5905      5896      6186      6196      5906
 -1      5197    1    0    1
 -2      5896      6186      6196      5906      5897      6187      6197      5907
 -1      5198    1    0    1
 -2      5897      6187      6197      5907      5898      6188      6198      5908
 -1      5199    1    0    1
 -2      5898      6188      6198      5908      5899      6189      6199      5909
 -1      5200    1    0    1
 -2      5899      6189      6199      5909      5900      6190      6200      5910
 -1      5201    1    0    1
 -2      5900      6190      6200      5910      5901      6191      6201      5911
 -1      5202    1    0    1
 -2      5901      6191      6201      5911      5902      6192      6202      5912
 -1      5203    1    0    1
 -2      5902      6192      6202      5912      2111      2140      2141      2112
 -1      5204    1    0    1
 -2       601       630       631       602      5903      6193      6203      5913
 -1      5205    1    0    1
 -2      5903      6193      6203      5913      5904      6194      6204      5914
 -1      5206    1    0    1
 -2      5904      6194      6204      5914      5905      6195      6205      5915
 -1      5207    1    0    1
 -2      5905      6195      6205      5915      5906      6196      6206      5916
 -1      5208    1    0    1
 -2      5906      6196      6206      5916      5907      6197      6207      5917
 -1      5209    1    0    1
 -2      5907      6197      6207      5917      5908      6198      6208      5918
 -1      5210    1    0    1
 -2      5908      6198      6208      5918      5909      6199      6209      5919
 -1      5211    1    0    1
 -2      5909      6199      6209      5919      5910      6200      6210      5920
 -1      5212    1    0    1
 -2      5910      6200      6210      5920      5911      6201      6211      5921
 -1      5213    1    0    1
 -2      5911      6201      6211      5921      5912      6202      6212      5922
 -1      5214    1    0    1
 -2      5912      6202      6212      5922      2112      2141      2142      2113
 -1      5215    1    0    1
 -2       602       631       632       603      5913      6203      6213      5923
 -1      5216    1    0    1
 -2      5913      6203      6213      5923      5914      6204      6214      5924
 -1      5217    1    0    1
 -2      5914      6204      6214      5924      5915      6205      6215      5925
 -1      5218    1    0    1
 -2      5915      6205      6215      5925      5916      6206      6216      5926
 -1      5219    1    0    1
 -2      5916      6206      6216      5926      5917      6207      6217      5927
 -1      5220    1    0    1
 -2      5917      6207      6217      5927      5918      6208      6218      5928
 -1      5221    1    0    1
 -2      5918      6208      6218      5928      5919      6209      6219      5929
 -1      5222    1    0    1
 -2      5919      6209      6219      5929      5920      6210      6220      5930
 -1      5223    1    0    1
 -2      5920      6210      6220      5930      5921      6211      6221      5931
 -1      5224    1    0    1
 -2      5921      6211      6221      5931      5922      6212      6222      5932
 -1      5225    1    0    1
 -2      5922      6212      6222      5932      2113      2142      2143      2114
 -1      5226    1    0    1
 -2       603       632       633       604      5923      6213      6223      5933
 -1      5227    1    0    1
 -2      5923      6213      6223      5933      5924      6214      6224      5934
 -1      5228    1    0    1
 -2      5924      6214      6224      5934      5925      6215      6225      5935
 -1      5229    1    0    1
 -2      5925      6215      6225      5935      5926      6216      6226      5936
 -1      5230    1    0    1
 -2      5926      6216      6226      5936      5927      6217      6227      5937
 -1      5231    1    0    1
 -2      5927      6217      6227      5937      5928      6218      6228      5938
 -1      5232    1    0    1
 -2      5928      6218      6228      5938      5929      6219      6229      5939
 -1      5233    1    0    1
 -2      5929      6219      6229      5939      5930      6220      6230      5940
 -1      5234    1    0    1
 -2      5930      6220      6230      5940      5931      6221      6231      5941
 -1      5235    1    0    1
 -2      5931      6221      6231      5941      5932      6222      6232      5942
 -1      5236    1    0    1
 -2      5932      6222      6232      5942      2114      2143      2144      2115
 -1      5237    1    0    1
 -2       604       633       634       605      5933      6223      6233      5943
 -1      5238    1    0    1
 -2      5933      6223      6233      5943      5934      6224      6234      5944
 -1      5239    1    0    1
 -2      5934      6224      6234      5944      5935      6225      6235      5945
 -1      5240    1    0    1
 -2      5935      6225      6235      5945      5936      6226      6236      5946
 -1      5241    1    0    1
 -2      5936      6226      6236      5946      5937      6227      6237      5947
 -1      5242    1    0    1
 -2      5937      6227      6237      5947      5938      6228      6238      5948
 -1      5243    1    0    1
 -2      5938      6228      6238      5948      5939      6229      6239      5949
 -1      5244    1    0    1
 -2      5939      6229      6239      5949      5940      6230      6240      5950
 -1      5245    1    0    1
 -2      5940      6230      6240      5950      5941      6231      6241      5951
 -1      5246    1    0    1
 -2      5941      6231      6241      5951      5942      6232      6242      5952
 -1      5247    1    0    1
 -2      5942      6232      6242      5952      2115      2144      2145      2116
 -1      5248    1    0    1
 -2       605       634       635       606      5943      6233      6243      5953
 -1      5249    1    0    1
 -2      5943      6233      6243      5953      5944      6234      6244      5954
 -1      5250    1    0    1
 -2      5944      6234      6244      5954      5945      6235      6245      5955
 -1      5251    1    0    1
 -2      5945      6235      6245      5955      5946      6236      6246      5956
 -1      5252    1    0    1
 -2      5946      6236      6246      5956      5947      6237      6247      5957
 -1      5253    1    0    1
 -2      5947      6237      6247      5957      5948      6238      6248      5958
 -1      5254    1    0    1
 -2      5948      6238      6248      5958      5949      6239      6249      5959
 -1      5255    1    0    1
 -2      5949      6239      6249      5959      5950      6240      6250      5960
 -1      5256    1    0    1
 -2      5950      6240      6250      5960      5951      6241      6251      5961
 -1      5257    1    0    1
 -2      5951      6241      6251      5961      5952      6242      6252      5962
 -1      5258    1    0    1
 -2      5952      6242      6252      5962      2116      2145      2146      2117
 -1      5259    1    0    1
 -2       606       635       636       607      5953      6243      6253      5963
 -1      5260    1    0    1
 -2      5953      6243      6253      5963      5954      6244      6254      5964
 -1      5261    1    0    1
 -2      5954      6244      6254      5964      5955      6245      6255      5965
 -1      5262    1    0    1
 -2      5955      6245      6255      5965      5956      6246      6256      5966
 -1      5263    1    0    1
 -2      5956      6246      6256      5966      5957      6247      6257      5967
 -1      5264    1    0    1
 -2      5957      6247      6257      5967      5958      6248      6258      5968
 -1      5265    1    0    1
 -2      5958      6248      6258      5968      5959      6249      6259      5969
 -1      5266    1    0    1
 -2      5959      6249      6259      5969      5960      6250      6260      5970
 -1      5267    1    0    1
 -2      5960      6250      6260      5970      5961      6251      6261      5971
 -1      5268    1    0    1
 -2      5961      6251      6261      5971      5962      6252      6262      5972
 -1      5269    1    0    1
 -2      5962      6252      6262      5972      2117      2146      2147      2118
 -1      5270    1    0    1
 -2       607       636       637       608      5963      6253      6263      5973
 -1      5271    1    0    1
 -2      5963      6253      6263      5973      5964      6254      6264      5974
 -1      5272    1    0    1
 -2      5964      6254      6264      5974      5965      6255      6265      5975
 -1      5273    1    0    1
 -2      5965      6255      6265      5975      5966      6256      6266      5976
 -1      5274    1    0    1
 -2      5966      6256      6266      5976      5967      6257      6267      5977
 -1      5275    1    0    1
 -2      5967      6257      6267      5977      5968      6258      6268      5978
 -1      5276    1    0    1
 -2      5968      6258      6268      5978      5969      6259      6269      5979
 -1      5277    1    0    1
 -2      5969      6259      6269      5979      5970      6260      6270      5980
 -1      5278    1    0    1
 -2      5970      6260      6270      5980      5971      6261      6271      5981
 -1      5279    1    0    1
 -2      5971      6261      6271      5981      5972      6262      6272      5982
 -1      5280    1    0    1
 -2      5972      6262      6272      5982      2118      2147      2148      2119
 -1      5281    1    0    1
 -2       608       637       638       609      5973      6263      6273      5983
 -1      5282    1    0    1
 -2      5973      6263      6273      5983      5974      6264      6274      5984
 -1      5283    1    0    1
 -2      5974      6264      6274      5984      5975      6265      6275      5985
 -1      5284    1    0    1
 -2      5975      6265      6275      5985      5976      6266      6276      5986
 -1      5285    1    0    1
 -2      5976      6266      6276      5986      5977      6267      6277      5987
 -1      5286    1    0    1
 -2      5977      6267      6277      5987      5978      6268      6278      5988
 -1      5287    1    0    1
 -2      5978      6268      6278      5988      5979      6269      6279      5989
 -1      5288    1    0    1
 -2      5979      6269      6279      5989      5980      6270      6280      5990
 -1      5289    1    0    1
 -2      5980      6270      6280      5990      5981      6271      6281      5991
 -1      5290    1    0    1
 -2      5981      6271      6281      5991      5982      6272      6282      5992
 -1      5291    1    0    1
 -2      5982      6272      6282      5992      2119      2148      2149      2120
 -1      5292    1    0    1
 -2       609       638       639       610      5983      6273      6283      5993
 -1      5293    1    0    1
 -2      5983      6273      6283      5993      5984      6274      6284      5994
 -1      5294    1    0    1
 -2      5984      6274      6284      5994      5985      6275      6285      5995
 -1      5295    1    0    1
 -2      5985      6275      6285      5995      5986      6276      6286      5996
 -1      5296    1    0    1
 -2      5986      6276      6286      5996      5987      6277      6287      5997
 -1      5297    1    0    1
 -2      5987      6277      6287      5997      5988      6278      6288      5998
 -1      5298    1    0    1
 -2      5988      6278      6288      5998      5989      6279      6289      5999
 -1      5299    1    0    1
 -2      5989      6279      6289      5999      5990      6280      6290      6000
 -1      5300    1    0    1
 -2      5990      6280      6290      6000      5991      6281      6291      6001
 -1      5301    1    0    1
 -2      5991      6281      6291      6001      5992      6282      6292      6002
 -1      5302    1    0    1
 -2      5992      6282      6292      6002      2120      2149      2150      2121
 -1      5303    1    0    1
 -2       610       639       640       611      5993      6283      6293      6003
 -1      5304    1    0    1
 -2      5993      6283      6293      6003      5994      6284      6294      6004
 -1      5305    1    0    1
 -2      5994      6284      6294      6004      5995      6285      6295      6005
 -1      5306    1    0    1
 -2      5995      6285      6295      6005      5996      6286      6296      6006
 -1      5307    1    0    1
 -2      5996      6286      6296      6006      5997      6287      6297      6007
 -1      5308    1    0    1
 -2      5997      6287      6297      6007      5998      6288      6298      6008
 -1      5309    1    0    1
 -2      5998      6288      6298      6008      5999      6289      6299      6009
 -1      5310    1    0    1
 -2      5999      6289      6299      6009      6000      6290      6300      6010
 -1      5311    1    0    1
 -2      6000      6290      6300      6010      6001      6291      6301      6011
 -1      5312    1    0    1
 -2      6001      6291      6301      6011      6002      6292      6302      6012
 -1      5313    1    0    1
 -2      6002      6292      6302      6012      2121      2150      2151      2122
 -1      5314    1    0    1
 -2       611       640       641       612      6003      6293      6303      6013
 -1      5315    1    0    1
 -2      6003      6293      6303      6013      6004      6294      6304      6014
 -1      5316    1    0    1
 -2      6004      6294      6304      6014      6005      6295      6305      6015
 -1      5317    1    0    1
 -2      6005      6295      6305      6015      6006      6296      6306      6016
 -1      5318    1    0    1
 -2      6006      6296      6306      6016      6007      6297      6307      6017
 -1      5319    1    0    1
 -2      6007      6297      6307      6017      6008      6298      6308      6018
 -1      5320    1    0    1
 -2      6008      6298      6308      6018      6009      6299      6309      6019
 -1      5321    1    0    1
 -2      6009      6299      6309      6019      6010      6300      6310      6020
 -1      5322    1    0    1
 -2      6010      6300      6310      6020      6011      6301      6311      6021
 -1      5323    1    0    1
 -2      6011      6301      6311      6021      6012      6302      6312      6022
 -1      5324    1    0    1
 -2      6012      6302      6312      6022      2122      2151      2152      2123
 -1      5325    1    0    1
 -2       612       641       642       613      6013      6303      6313      6023
 -1      5326    1    0    1
 -2      6013      6303      6313      6023      6014      6304      6314      6024
 -1      5327    1    0    1
 -2      6014      6304      6314      6024      6015      6305      6315      6025
 -1      5328    1    0    1
 -2      6015      6305      6315      6025      6016      6306      6316      6026
 -1      5329    1    0    1
 -2      6016      6306      6316      6026      6017      6307      6317      6027
 -1      5330    1    0    1
 -2      6017      6307      6317      6027      6018      6308      6318      6028
 -1      5331    1    0    1
 -2      6018      6308      6318      6028      6019      6309      6319      6029
 -1      5332    1    0    1
 -2      6019      6309      6319      6029      6020      6310      6320      6030
 -1      5333    1    0    1
 -2      6020      6310      6320      6030      6021      6311      6321      6031
 -1      5334    1    0    1
 -2      6021      6311      6321      6031      6022      6312      6322      6032
 -1      5335    1    0    1
 -2      6022      6312      6322      6032      2123      2152      2153      2124
 -1      5336    1    0    1
 -2       613       642       643       614      6023      6313      6323      6033
 -1      5337    1    0    1
 -2      6023      6313      6323      6033      6024      6314      6324      6034
 -1      5338    1    0    1
 -2      6024      6314      6324      6034      6025      6315      6325      6035
 -1      5339    1    0    1
 -2      6025      6315      6325      6035      6026      6316      6326      6036
 -1      5340    1    0    1
 -2      6026      6316      6326      6036      6027      6317      6327      6037
 -1      5341    1    0    1
 -2      6027      6317      6327      6037      6028      6318      6328      6038
 -1      5342    1    0    1
 -2      6028      6318      6328      6038      6029      6319      6329      6039
 -1      5343    1    0    1
 -2      6029      6319      6329      6039      6030      6320      6330      6040
 -1      5344    1    0    1
 -2      6030      6320      6330      6040      6031      6321      6331      6041
 -1      5345    1    0    1
 -2      6031      6321      6331      6041      6032      6322      6332      6042
 -1      5346    1    0    1
 -2      6032      6322      6332      6042      2124      2153      2154      2125
 -1      5347    1    0    1
 -2       614       643       644       615      6033      6323      6333      6043
 -1      5348    1    0    1
 -2      6033      6323      6333      6043      6034      6324      6334      6044
 -1      5349    1    0    1
 -2      6034      6324      6334      6044      6035      6325      6335      6045
 -1      5350    1    0    1
 -2      6035      6325      6335      6045      6036      6326      6336      6046
 -1      5351    1    0    1
 -2      6036      6326      6336      6046      6037      6327      6337      6047
 -1      5352    1    0    1
 -2      6037      6327      6337      6047      6038      6328      6338      6048
 -1      5353    1    0    1
 -2      6038      6328      6338      6048      6039      6329      6339      6049
 -1      5354    1    0    1
 -2      6039      6329      6339      6049      6040      6330      6340      6050
 -1      5355    1    0    1
 -2      6040      6330      6340      6050      6041      6331      6341      6051
 -1      5356    1    0    1
 -2      6041      6331      6341      6051      6042      6332      6342      6052
 -1      5357    1    0    1
 -2      6042      6332      6342      6052      2125      2154      2155      2126
 -1      5358    1    0    1
 -2       615       644       645       616      6043      6333      6343      6053
 -1      5359    1    0    1
 -2      6043      6333      6343      6053      6044      6334      6344      6054
 -1      5360    1    0    1
 -2      6044      6334      6344      6054      6045      6335      6345      6055
 -1      5361    1    0    1
 -2      6045      6335      6345      6055      6046      6336      6346      6056
 -1      5362    1    0    1
 -2      6046      6336      6346      6056      6047      6337      6347      6057
 -1      5363    1    0    1
 -2      6047      6337      6347      6057      6048      6338      6348      6058
 -1      5364    1    0    1
 -2      6048      6338      6348      6058      6049      6339      6349      6059
 -1      5365    1    0    1
 -2      6049      6339      6349      6059      6050      6340      6350      6060
 -1      5366    1    0    1
 -2      6050      6340      6350      6060      6051      6341      6351      6061
 -1      5367    1    0    1
 -2      6051      6341      6351      6061      6052      6342      6352      6062
 -1      5368    1    0    1
 -2      6052      6342      6352      6062      2126      2155      2156      2127
 -1      5369    1    0    1
 -2       616       645       646       617      6053      6343      6353      6063
 -1      5370    1    0    1
 -2      6053      6343      6353      6063      6054      6344      6354      6064
 -1      5371    1    0    1
 -2      6054      6344      6354      6064      6055      6345      6355      6065
 -1      5372    1    0    1
 -2      6055      6345      6355      6065      6056      6346      6356      6066
 -1      5373    1    0    1
 -2      6056      6346      6356      6066      6057      6347      6357      6067
 -1      5374    1    0    1
 -2      6057      6347      6357      6067      6058      6348      6358      6068
 -1      5375    1    0    1
 -2      6058      6348      6358      6068      6059      6349      6359      6069
 -1      5376    1    0    1
 -2      6059      6349      6359      6069      6060      6350      6360      6070
 -1      5377    1    0    1
 -2      6060      6350      6360      6070      6061      6351      6361      6071
 -1      5378    1    0    1
 -2      6061      6351      6361      6071      6062      6352      6362      6072
 -1      5379    1    0    1
 -2      6062      6352      6362      6072      2127      2156      2157      2128
 -1      5380    1    0    1
 -2       617       646        62        63      6063      6353      1322      1332
 -1      5381    1    0    1
 -2      6063      6353      1322      1332      6064      6354      1323      1333
 -1      5382    1    0    1
 -2      6064      6354      1323      1333      6065      6355      1324      1334
 -1      5383    1    0    1
 -2      6065      6355      1324      1334      6066      6356      1325      1335
 -1      5384    1    0    1
 -2      6066      6356      1325      1335      6067      6357      1326      1336
 -1      5385    1    0    1
 -2      6067      6357      1326      1336      6068      6358      1327      1337
 -1      5386    1    0    1
 -2      6068      6358      1327      1337      6069      6359      1328      1338
 -1      5387    1    0    1
 -2      6069      6359      1328      1338      6070      6360      1329      1339
 -1      5388    1    0    1
 -2      6070      6360      1329      1339      6071      6361      1330      1340
 -1      5389    1    0    1
 -2      6071      6361      1330      1340      6072      6362      1331      1341
 -1      5390    1    0    1
 -2      6072      6362      1331      1341      2128      2157       158       159
 -1      5391    1    0    1
 -2        22        23       647       618       922       932      6363      6073
 -1      5392    1    0    1
 -2       922       932      6363      6073       923       933      6364      6074
 -1      5393    1    0    1
 -2       923       933      6364      6074       924       934      6365      6075
 -1      5394    1    0    1
 -2       924       934      6365      6075       925       935      6366      6076
 -1      5395    1    0    1
 -2       925       935      6366      6076       926       936      6367      6077
 -1      5396    1    0    1
 -2       926       936      6367      6077       927       937      6368      6078
 -1      5397    1    0    1
 -2       927       937      6368      6078       928       938      6369      6079
 -1      5398    1    0    1
 -2       928       938      6369      6079       929       939      6370      6080
 -1      5399    1    0    1
 -2       929       939      6370      6080       930       940      6371      6081
 -1      5400    1    0    1
 -2       930       940      6371      6081       931       941      6372      6082
 -1      5401    1    0    1
 -2       931       941      6372      6082       118       119      2158      2129
 -1      5402    1    0    1
 -2       618       647       648       619      6073      6363      6373      6083
 -1      5403    1    0    1
 -2      6073      6363      6373      6083      6074      6364      6374      6084
 -1      5404    1    0    1
 -2      6074      6364      6374      6084      6075      6365      6375      6085
 -1      5405    1    0    1
 -2      6075      6365      6375      6085      6076      6366      6376      6086
 -1      5406    1    0    1
 -2      6076      6366      6376      6086      6077      6367      6377      6087
 -1      5407    1    0    1
 -2      6077      6367      6377      6087      6078      6368      6378      6088
 -1      5408    1    0    1
 -2      6078      6368      6378      6088      6079      6369      6379      6089
 -1      5409    1    0    1
 -2      6079      6369      6379      6089      6080      6370      6380      6090
 -1      5410    1    0    1
 -2      6080      6370      6380      6090      6081      6371      6381      6091
 -1      5411    1    0    1
 -2      6081      6371      6381      6091      6082      6372      6382      6092
 -1      5412    1    0    1
 -2      6082      6372      6382      6092      2129      2158      2159      2130
 -1      5413    1    0    1
 -2       619       648       649       620      6083      6373      6383      6093
 -1      5414    1    0    1
 -2      6083      6373      6383      6093      6084      6374      6384      6094
 -1      5415    1    0    1
 -2      6084      6374      6384      6094      6085      6375      6385      6095
 -1      5416    1    0    1
 -2      6085      6375      6385      6095      6086      6376      6386      6096
 -1      5417    1    0    1
 -2      6086      6376      6386      6096      6087      6377      6387      6097
 -1      5418    1    0    1
 -2      6087      6377      6387      6097      6088      6378      6388      6098
 -1      5419    1    0    1
 -2      6088      6378      6388      6098      6089      6379      6389      6099
 -1      5420    1    0    1
 -2      6089      6379      6389      6099      6090      6380      6390      6100
 -1      5421    1    0    1
 -2      6090      6380      6390      6100      6091      6381      6391      6101
 -1      5422    1    0    1
 -2      6091      6381      6391      6101      6092      6382      6392      6102
 -1      5423    1    0    1
 -2      6092      6382      6392      6102      2130      2159      2160      2131
 -1      5424    1    0    1
 -2       620       649       650       621      6093      6383      6393      6103
 -1      5425    1    0    1
 -2      6093      6383      6393      6103      6094      6384      6394      6104
 -1      5426    1    0    1
 -2      6094      6384      6394      6104      6095      6385      6395      6105
 -1      5427    1    0    1
 -2      6095      6385      6395      6105      6096      6386      6396      6106
 -1      5428    1    0    1
 -2      6096      6386      6396      6106      6097      6387      6397      6107
 -1      5429    1    0    1
 -2      6097      6387      6397      6107      6098      6388      6398      6108
 -1      5430    1    0    1
 -2      6098      6388      6398      6108      6099      6389      6399      6109
 -1      5431    1    0    1
 -2      6099      6389      6399      6109      6100      6390      6400      6110
 -1      5432    1    0    1
 -2      6100      6390      6400      6110      6101      6391      6401      6111
 -1      5433    1    0    1
 -2      6101      6391      6401      6111      6102      6392      6402      6112
 -1      5434    1    0    1
 -2      6102      6392      6402      6112      2131      2160      2161      2132
 -1      5435    1    0    1
 -2       621       650       651       622      6103      6393      6403      6113
 -1      5436    1    0    1
 -2      6103      6393      6403      6113      6104      6394      6404      6114
 -1      5437    1    0    1
 -2      6104      6394      6404      6114      6105      6395      6405      6115
 -1      5438    1    0    1
 -2      6105      6395      6405      6115      6106      6396      6406      6116
 -1      5439    1    0    1
 -2      6106      6396      6406      6116      6107      6397      6407      6117
 -1      5440    1    0    1
 -2      6107      6397      6407      6117      6108      6398      6408      6118
 -1      5441    1    0    1
 -2      6108      6398      6408      6118      6109      6399      6409      6119
 -1      5442    1    0    1
 -2      6109      6399      6409      6119      6110      6400      6410      6120
 -1      5443    1    0    1
 -2      6110      6400      6410      6120      6111      6401      6411      6121
 -1      5444    1    0    1
 -2      6111      6401      6411      6121      6112      6402      6412      6122
 -1      5445    1    0    1
 -2      6112      6402      6412      6122      2132      2161      2162      2133
 -1      5446    1    0    1
 -2       622       651       652       623      6113      6403      6413      6123
 -1      5447    1    0    1
 -2      6113      6403      6413      6123      6114      6404      6414      6124
 -1      5448    1    0    1
 -2      6114      6404      6414      6124      6115      6405      6415      6125
 -1      5449    1    0    1
 -2      6115      6405      6415      6125      6116      6406      6416      6126
 -1      5450    1    0    1
 -2      6116      6406      6416      6126      6117      6407      6417      6127
 -1      5451    1    0    1
 -2      6117      6407      6417      6127      6118      6408      6418      6128
 -1      5452    1    0    1
 -2      6118      6408      6418      6128      6119      6409      6419      6129
 -1      5453    1    0    1
 -2      6119      6409      6419      6129      6120      6410      6420      6130
 -1      5454    1    0    1
 -2      6120      6410      6420      6130      6121      6411      6421      6131
 -1      5455    1    0    1
 -2      6121      6411      6421      6131      6122      6412      6422      6132
 -1      5456    1    0    1
 -2      6122      6412      6422      6132      2133      2162      2163      2134
 -1      5457    1    0    1
 -2       623       652       653       624      6123      6413      6423      6133
 -1      5458    1    0    1
 -2      6123      6413      6423      6133      6124      6414      6424      6134
 -1      5459    1    0    1
 -2      6124      6414      6424      6134      6125      6415      6425      6135
 -1      5460    1    0    1
 -2      6125      6415      6425      6135      6126      6416      6426      6136
 -1      5461    1    0    1
 -2      6126      6416      6426      6136      6127      6417      6427      6137
 -1      5462    1    0    1
 -2      6127      6417      6427      6137      6128      6418      6428      6138
 -1      5463    1    0    1
 -2      6128      6418      6428      6138      6129      6419      6429      6139
 -1      5464    1    0    1
 -2      6129      6419      6429      6139      6130      6420      6430      6140
 -1      5465    1    0    1
 -2      6130      6420      6430      6140      6131      6421      6431      6141
 -1      5466    1    0    1
 -2      6131      6421      6431      6141      6132      6422      6432      6142
 -1      5467    1    0    1
 -2      6132      6422      6432      6142      2134      2163      2164      2135
 -1      5468    1    0    1
 -2       624       653       654       625      6133      6423      6433      6143
 -1      5469    1    0    1
 -2      6133      6423      6433      6143      6134      6424      6434      6144
 -1      5470    1    0    1
 -2      6134      6424      6434      6144      6135      6425      6435      6145
 -1      5471    1    0    1
 -2      6135      6425      6435      6145      6136      6426      6436      6146
 -1      5472    1    0    1
 -2      6136      6426      6436      6146      6137      6427      6437      6147
 -1      5473    1    0    1
 -2      6137      6427      6437      6147      6138      6428      6438      6148
 -1      5474    1    0    1
 -2      6138      6428      6438      6148      6139      6429      6439      6149
 -1      5475    1    0    1
 -2      6139      6429      6439      6149      6140      6430      6440      6150
 -1      5476    1    0    1
 -2      6140      6430      6440      6150      6141      6431      6441      6151
 -1      5477    1    0    1
 -2      6141      6431      6441      6151      6142      6432      6442      6152
 -1      5478    1    0    1
 -2      6142      6432      6442      6152      2135      2164      2165      2136
 -1      5479    1    0    1
 -2       625       654       655       626      6143      6433      6443      6153
 -1      5480    1    0    1
 -2      6143      6433      6443      6153      6144      6434      6444      6154
 -1      5481    1    0    1
 -2      6144      6434      6444      6154      6145      6435      6445      6155
 -1      5482    1    0    1
 -2      6145      6435      6445      6155      6146      6436      6446      6156
 -1      5483    1    0    1
 -2      6146      6436      6446      6156      6147      6437      6447      6157
 -1      5484    1    0    1
 -2      6147      6437      6447      6157      6148      6438      6448      6158
 -1      5485    1    0    1
 -2      6148      6438      6448      6158      6149      6439      6449      6159
 -1      5486    1    0    1
 -2      6149      6439      6449      6159      6150      6440      6450      6160
 -1      5487    1    0    1
 -2      6150      6440      6450      6160      6151      6441      6451      6161
 -1      5488    1    0    1
 -2      6151      6441      6451      6161      6152      6442      6452      6162
 -1      5489    1    0    1
 -2      6152      6442      6452      6162      2136      2165      2166      2137
 -1      5490    1    0    1
 -2       626       655       656       627      6153      6443      6453      6163
 -1      5491    1    0    1
 -2      6153      6443      6453      6163      6154      6444      6454      6164
 -1      5492    1    0    1
 -2      6154      6444      6454      6164      6155      6445      6455      6165
 -1      5493    1    0    1
 -2      6155      6445      6455      6165      6156      6446      6456      6166
 -1      5494    1    0    1
 -2      6156      6446      6456      6166      6157      6447      6457      6167
 -1      5495    1    0    1
 -2      6157      6447      6457      6167      6158      6448      6458      6168
 -1      5496    1    0    1
 -2      6158      6448      6458      6168      6159      6449      6459      6169
 -1      5497    1    0    1
 -2      6159      6449      6459      6169      6160      6450      6460      6170
 -1      5498    1    0    1
 -2      6160      6450      6460      6170      6161      6451      6461      6171
 -1      5499    1    0    1
 -2      6161      6451      6461      6171      6162      6452      6462      6172
 -1      5500    1    0    1
 -2      6162      6452      6462      6172      2137      2166      2167      2138
 -1      5501    1    0    1
 -2       627       656       657       628      6163      6453      6463      6173
 -1      5502    1    0    1
 -2      6163      6453      6463      6173      6164      6454      6464      6174
 -1      5503    1    0    1
 -2      6164      6454      6464      6174      6165      6455      6465      6175
 -1      5504    1    0    1
 -2      6165      6455      6465      6175      6166      6456      6466      6176
 -1      5505    1    0    1
 -2      6166      6456      6466      6176      6167      6457      6467      6177
 -1      5506    1    0    1
 -2      6167      6457      6467      6177      6168      6458      6468      6178
 -1      5507    1    0    1
 -2      6168      6458      6468      6178      6169      6459      6469      6179
 -1      5508    1    0    1
 -2      6169      6459      6469      6179      6170      6460      6470      6180
 -1      5509    1    0    1
 -2      6170      6460      6470      6180      6171      6461      6471      6181
 -1      5510    1    0    1
 -2      6171      6461      6471      6181      6172      6462      6472      6182
 -1      5511    1    0    1
 -2      6172      6462      6472      6182      2138      2167      2168      2139
 -1      5512    1    0    1
 -2       628       657       658       629      6173      6463      6473      6183
 -1      5513    1    0    1
 -2      6173      6463      6473      6183      6174      6464      6474      6184
 -1      5514    1    0    1
 -2      6174      6464      6474      6184      6175      6465      6475      6185
 -1      5515    1    0    1
 -2      6175      6465      6475      6185      6176      6466      6476      6186
 -1      5516    1    0    1
 -2      6176      6466      6476      6186      6177      6467      6477      6187
 -1      5517    1    0    1
 -2      6177      6467      6477      6187      6178      6468      6478      6188
 -1      5518    1    0    1
 -2      6178      6468      6478      6188      6179      6469      6479      6189
 -1      5519    1    0    1
 -2      6179      6469      6479      6189      6180      6470      6480      6190
 -1      5520    1    0    1
 -2      6180      6470      6480      6190      6181      6471      6481      6191
 -1      5521    1    0    1
 -2      6181      6471      6481      6191      6182      6472      6482      6192
 -1      5522    1    0    1
 -2      6182      6472      6482      6192      2139      2168      2169      2140
 -1      5523    1    0    1
 -2       629       658       659       630      6183      6473      6483      6193
 -1      5524    1    0    1
 -2      6183      6473      6483      6193      6184      6474      6484      6194
 -1      5525    1    0    1
 -2      6184      6474      6484      6194      6185      6475      6485      6195
 -1      5526    1    0    1
 -2      6185      6475      6485      6195      6186      6476      6486      6196
 -1      5527    1    0    1
 -2      6186      6476      6486      6196      6187      6477      6487      6197
 -1      5528    1    0    1
 -2      6187      6477      6487      6197      6188      6478      6488      6198
 -1      5529    1    0    1
 -2      6188      6478      6488      6198      6189      6479      6489      6199
 -1      5530    1    0    1
 -2      6189      6479      6489      6199      6190      6480      6490      6200
 -1      5531    1    0    1
 -2      6190      6480      6490      6200      6191      6481      6491      6201
 -1      5532    1    0    1
 -2      6191      6481      6491      6201      6192      6482      6492      6202
 -1      5533    1    0    1
 -2      6192      6482      6492      6202      2140      2169      2170      2141
 -1      5534    1    0    1
 -2       630       659       660       631      6193      6483      6493      6203
 -1      5535    1    0    1
 -2      6193      6483      6493      6203      6194      6484      6494      6204
 -1      5536    1    0    1
 -2      6194      6484      6494      6204      6195      6485      6495      6205
 -1      5537    1    0    1
 -2      6195      6485      6495      6205      6196      6486      6496      6206
 -1      5538    1    0    1
 -2      6196      6486      6496      6206      6197      6487      6497      6207
 -1      5539    1    0    1
 -2      6197      6487      6497      6207      6198      6488      6498      6208
 -1      5540    1    0    1
 -2      6198      6488      6498      6208      6199      6489      6499      6209
 -1      5541    1    0    1
 -2      6199      6489      6499      6209      6200      6490      6500      6210
 -1      5542    1    0    1
 -2      6200      6490      6500      6210      6201      6491      6501      6211
 -1      5543    1    0    1
 -2      6201      6491      6501      6211      6202      6492      6502      6212
 -1      5544    1    0    1
 -2      6202      6492      6502      6212      2141      2170      2171      2142
 -1      5545    1    0    1
 -2       631       660       661       632      6203      6493      6503      6213
 -1      5546    1    0    1
 -2      6203      6493      6503      6213      6204      6494      6504      6214
 -1      5547    1    0    1
 -2      6204      6494      6504      6214      6205      6495      6505      6215
 -1      5548    1    0    1
 -2      6205      6495      6505      6215      6206      6496      6506      6216
 -1      5549    1    0    1
 -2      6206      6496      6506      6216      6207      6497      6507      6217
 -1      5550    1    0    1
 -2      6207      6497      6507      6217      6208      6498      6508      6218
 -1      5551    1    0    1
 -2      6208      6498      6508      6218      6209      6499      6509      6219
 -1      5552    1    0    1
 -2      6209      6499      6509      6219      6210      6500      6510      6220
 -1      5553    1    0    1
 -2      6210      6500      6510      6220      6211      6501      6511      6221
 -1      5554    1    0    1
 -2      6211      6501      6511      6221      6212      6502      6512      6222
 -1      5555    1    0    1
 -2      6212      6502      6512      6222      2142      2171      2172      2143
 -1      5556    1    0    1
 -2       632       661       662       633      6213      6503      6513      6223
 -1      5557    1    0    1
 -2      6213      6503      6513      6223      6214      6504      6514      6224
 -1      5558    1    0    1
 -2      6214      6504      6514      6224      6215      6505      6515      6225
 -1      5559    1    0    1
 -2      6215      6505      6515      6225      6216      6506      6516      6226
 -1      5560    1    0    1
 -2      6216      6506      6516      6226      6217      6507      6517      6227
 -1      5561    1    0    1
 -2      6217      6507      6517      6227      6218      6508      6518      6228
 -1      5562    1    0    1
 -2      6218      6508      6518      6228      6219      6509      6519      6229
 -1      5563    1    0    1
 -2      6219      6509      6519      6229      6220      6510      6520      6230
 -1      5564    1    0    1
 -2      6220      6510      6520      6230      6221      6511      6521      6231
 -1      5565    1    0    1
 -2      6221      6511      6521      6231      6222      6512      6522      6232
 -1      5566    1    0    1
 -2      6222      6512      6522      6232      2143      2172      2173      2144
 -1      5567    1    0    1
 -2       633       662       663       634      6223      6513      6523      6233
 -1      5568    1    0    1
 -2      6223      6513      6523      6233      6224      6514      6524      6234
 -1      5569    1    0    1
 -2      6224      6514      6524      6234      6225      6515      6525      6235
 -1      5570    1    0    1
 -2      6225      6515      6525      6235      6226      6516      6526      6236
 -1      5571    1    0    1
 -2      6226      6516      6526      6236      6227      6517      6527      6237
 -1      5572    1    0    1
 -2      6227      6517      6527      6237      6228      6518      6528      6238
 -1      5573    1    0    1
 -2      6228      6518      6528      6238      6229      6519      6529      6239
 -1      5574    1    0    1
 -2      6229      6519      6529      6239      6230      6520      6530      6240
 -1      5575    1    0    1
 -2      6230      6520      6530      6240      6231      6521      6531      6241
 -1      5576    1    0    1
 -2      6231      6521      6531      6241      6232      6522      6532      6242
 -1      5577    1    0    1
 -2      6232      6522      6532      6242      2144      2173      2174      2145
 -1      5578    1    0    1
 -2       634       663       664       635      6233      6523      6533      6243
 -1      5579    1    0    1
 -2      6233      6523      6533      6243      6234      6524      6534      6244
 -1      5580    1    0    1
 -2      6234      6524      6534      6244      6235      6525      6535      6245
 -1      5581    1    0    1
 -2      6235      6525      6535      6245      6236      6526      6536      6246
 -1      5582    1    0    1
 -2      6236      6526      6536      6246      6237      6527      6537      6247
 -1      5583    1    0    1
 -2      6237      6527      6537      6247      6238      6528      6538      6248
 -1      5584    1    0    1
 -2      6238      6528      6538      6248      6239      6529      6539      6249
 -1      5585    1    0    1
 -2      6239      6529      6539      6249      6240      6530      6540      6250
 -1      5586    1    0    1
 -2      6240      6530      6540      6250      6241      6531      6541      6251
 -1      5587    1    0    1
 -2      6241      6531      6541      6251      6242      6532      6542      6252
 -1      5588    1    0    1
 -2      6242      6532      6542      6252      2145      2174      2175      2146
 -1      5589    1    0    1
 -2       635       664       665       636      6243      6533      6543      6253
 -1      5590    1    0    1
 -2      6243      6533      6543      6253      6244      6534      6544      6254
 -1      5591    1    0    1
 -2      6244      6534      6544      6254      6245      6535      6545      6255
 -1      5592    1    0    1
 -2      6245      6535      6545      6255      6246      6536      6546      6256
 -1      5593    1    0    1
 -2      6246      6536      6546      6256      6247      6537      6547      6257
 -1      5594    1    0    1
 -2      6247      6537      6547      6257      6248      6538      6548      6258
 -1      5595    1    0    1
 -2      6248      6538      6548      6258      6249      6539      6549      6259
 -1      5596    1    0    1
 -2      6249      6539      6549      6259      6250      6540      6550      6260
 -1      5597    1    0    1
 -2      6250      6540      6550      6260      6251      6541      6551      6261
 -1      5598    1    0    1
 -2      6251      6541      6551      6261      6252      6542      6552      6262
 -1      5599    1    0    1
 -2      6252      6542      6552      6262      2146      2175      2176      2147
 -1      5600    1    0    1
 -2       636       665       666       637      6253      6543      6553      6263
 -1      5601    1    0    1
 -2      6253      6543      6553      6263      6254      6544      6554      6264
 -1      5602    1    0    1
 -2      6254      6544      6554      6264      6255      6545      6555      6265
 -1      5603    1    0    1
 -2      6255      6545      6555      6265      6256      6546      6556      6266
 -1      5604    1    0    1
 -2      6256      6546      6556      6266      6257      6547      6557      6267
 -1      5605    1    0    1
 -2      6257      6547      6557      6267      6258      6548      6558      6268
 -1      5606    1    0    1
 -2      6258      6548      6558      6268      6259      6549      6559      6269
 -1      5607    1    0    1
 -2      6259      6549      6559      6269      6260      6550      6560      6270
 -1      5608    1    0    1
 -2      6260      6550      6560      6270      6261      6551      6561      6271
 -1      5609    1    0    1
 -2      6261      6551      6561      6271      6262      6552      6562      6272
 -1      5610    1    0    1
 -2      6262      6552      6562      6272      2147      2176      2177      2148
 -1      5611    1    0    1
 -2       637       666       667       638      6263      6553      6563      6273
 -1      5612    1    0    1
 -2      6263      6553      6563      6273      6264      6554      6564      6274
 -1      5613    1    0    1
 -2      6264      6554      6564      6274      6265      6555      6565      6275
 -1      5614    1    0    1
 -2      6265      6555      6565      6275      6266      6556      6566      6276
 -1      5615    1    0    1
 -2      6266      6556      6566      6276      6267      6557      6567      6277
 -1      5616    1    0    1
 -2      6267      6557      6567      6277      6268      6558      6568      6278
 -1      5617    1    0    1
 -2      6268      6558      6568      6278      6269      6559      6569      6279
 -1      5618    1    0    1
 -2      6269      6559      6569      6279      6270      6560      6570      6280
 -1      5619    1    0    1
 -2      6270      6560      6570      6280      6271      6561      6571      6281
 -1      5620    1    0    1
 -2      6271      6561      6571      6281      6272      6562      6572      6282
 -1      5621    1    0    1
 -2      6272      6562      6572      6282      2148      2177      2178      2149
 -1      5622    1    0    1
 -2       638       667       668       639      6273      6563      6573      6283
 -1      5623    1    0    1
 -2      6273      6563      6573      6283      6274      6564      6574      6284
 -1      5624    1    0    1
 -2      6274      6564      6574      6284      6275      6565      6575      6285
 -1      5625    1    0    1
 -2      6275      6565      6575      6285      6276      6566      6576      6286
 -1      5626    1    0    1
 -2      6276      6566      6576      6286      6277      6567      6577      6287
 -1      5627    1    0    1
 -2      6277      6567      6577      6287      6278      6568      6578      6288
 -1      5628    1    0    1
 -2      6278      6568      6578      6288      6279      6569      6579      6289
 -1      5629    1    0    1
 -2      6279      6569      6579      6289      6280      6570      6580      6290
 -1      5630    1    0    1
 -2      6280      6570      6580      6290      6281      6571      6581      6291
 -1      5631    1    0    1
 -2      6281      6571      6581      6291      6282      6572      6582      6292
 -1      5632    1    0    1
 -2      6282      6572      6582      6292      2149      2178      2179      2150
 -1      5633    1    0    1
 -2       639       668       669       640      6283      6573      6583      6293
 -1      5634    1    0    1
 -2      6283      6573      6583      6293      6284      6574      6584      6294
 -1      5635    1    0    1
 -2      6284      6574      6584      6294      6285      6575      6585      6295
 -1      5636    1    0    1
 -2      6285      6575      6585      6295      6286      6576      6586      6296
 -1      5637    1    0    1
 -2      6286      6576      6586      6296      6287      6577      6587      6297
 -1      5638    1    0    1
 -2      6287      6577      6587      6297      6288      6578      6588      6298
 -1      5639    1    0    1
 -2      6288      6578      6588      6298      6289      6579      6589      6299
 -1      5640    1    0    1
 -2      6289      6579      6589      6299      6290      6580      6590      6300
 -1      5641    1    0    1
 -2      6290      6580      6590      6300      6291      6581      6591      6301
 -1      5642    1    0    1
 -2      6291      6581      6591      6301      6292      6582      6592      6302
 -1      5643    1    0    1
 -2      6292      6582      6592      6302      2150      2179      2180      2151
 -1      5644    1    0    1
 -2       640       669       670       641      6293      6583      6593      6303
 -1      5645    1    0    1
 -2      6293      6583      6593      6303      6294      6584      6594      6304
 -1      5646    1    0    1
 -2      6294      6584      6594      6304      6295      6585      6595      6305
 -1      5647    1    0    1
 -2      6295      6585      6595      6305      6296      6586      6596      6306
 -1      5648    1    0    1
 -2      6296      6586      6596      6306      6297      6587      6597      6307
 -1      5649    1    0    1
 -2      6297      6587      6597      6307      6298      6588      6598      6308
 -1      5650    1    0    1
 -2      6298      6588      6598      6308      6299      6589      6599      6309
 -1      5651    1    0    1
 -2      6299      6589      6599      6309      6300      6590      6600      6310
 -1      5652    1    0    1
 -2      6300      6590      6600      6310      6301      6591      6601      6311
 -1      5653    1    0    1
 -2      6301      6591      6601      6311      6302      6592      6602      6312
 -1      5654    1    0    1
 -2      6302      6592      6602      6312      2151      2180      2181      2152
 -1      5655    1    0    1
 -2       641       670       671       642      6303      6593      6603      6313
 -1      5656    1    0    1
 -2      6303      6593      6603      6313      6304      6594      6604      6314
 -1      5657    1    0    1
 -2      6304      6594      6604      6314      6305      6595      6605      6315
 -1      5658    1    0    1
 -2      6305      6595      6605      6315      6306      6596      6606      6316
 -1      5659    1    0    1
 -2      6306      6596      6606      6316      6307      6597      6607      6317
 -1      5660    1    0    1
 -2      6307      6597      6607      6317      6308      6598      6608      6318
 -1      5661    1    0    1
 -2      6308      6598      6608      6318      6309      6599      6609      6319
 -1      5662    1    0    1
 -2      6309      6599      6609      6319      6310      6600      6610      6320
 -1      5663    1    0    1
 -2      6310      6600      6610      6320      6311      6601      6611      6321
 -1      5664    1    0    1
 -2      6311      6601      6611      6321      6312      6602      6612      6322
 -1      5665    1    0    1
 -2      6312      6602      6612      6322      2152      2181      2182      2153
 -1      5666    1    0    1
 -2       642       671       672       643      6313      6603      6613      6323
 -1      5667    1    0    1
 -2      6313      6603      6613      6323      6314      6604      6614      6324
 -1      5668    1    0    1
 -2      6314      6604      6614      6324      6315      6605      6615      6325
 -1      5669    1    0    1
 -2      6315      6605      6615      6325      6316      6606      6616      6326
 -1      5670    1    0    1
 -2      6316      6606      6616      6326      6317      6607      6617      6327
 -1      5671    1    0    1
 -2      6317      6607      6617      6327      6318      6608      6618      6328
 -1      5672    1    0    1
 -2      6318      6608      6618      6328      6319      6609      6619      6329
 -1      5673    1    0    1
 -2      6319      6609      6619      6329      6320      6610      6620      6330
 -1      5674    1    0    1
 -2      6320      6610      6620      6330      6321      6611      6621      6331
 -1      5675    1    0    1
 -2      6321      6611      6621      6331      6322      6612      6622      6332
 -1      5676    1    0    1
 -2      6322      6612      6622      6332      2153      2182      2183      2154
 -1      5677    1    0    1
 -2       643       672       673       644      6323      6613      6623      6333
 -1      5678    1    0    1
 -2      6323      6613      6623      6333      6324      6614      6624      6334
 -1      5679    1    0    1
 -2      6324      6614      6624      6334      6325      6615      6625      6335
 -1      5680    1    0    1
 -2      6325      6615      6625      6335      6326      6616      6626      6336
 -1      5681    1    0    1
 -2      6326      6616      6626      6336      6327      6617      6627      6337
 -1      5682    1    0    1
 -2      6327      6617      6627      6337      6328      6618      6628      6338
 -1      5683    1    0    1
 -2      6328      6618      6628      6338      6329      6619      6629      6339
 -1      5684    1    0    1
 -2      6329      6619      6629      6339      6330      6620      6630      6340
 -1      5685    1    0    1
 -2      6330      6620      6630      6340      6331      6621      6631      6341
 -1      5686    1    0    1
 -2      6331      6621      6631      6341      6332      6622      6632      6342
 -1      5687    1    0    1
 -2      6332      6622      6632      6342      2154      2183      2184      2155
 -1      5688    1    0    1
 -2       644       673       674       645      6333      6623      6633      6343
 -1      5689    1    0    1
 -2      6333      6623      6633      6343      6334      6624      6634      6344
 -1      5690    1    0    1
 -2      6334      6624      6634      6344      6335      6625      6635      6345
 -1      5691    1    0    1
 -2      6335      6625      6635      6345      6336      6626      6636      6346
 -1      5692    1    0    1
 -2      6336      6626      6636      6346      6337      6627      6637      6347
 -1      5693    1    0    1
 -2      6337      6627      6637      6347      6338      6628      6638      6348
 -1      5694    1    0    1
 -2      6338      6628      6638      6348      6339      6629      6639      6349
 -1      5695    1    0    1
 -2      6339      6629      6639      6349      6340      6630      6640      6350
 -1      5696    1    0    1
 -2      6340      6630      6640      6350      6341      6631      6641      6351
 -1      5697    1    0    1
 -2      6341      6631      6641      6351      6342      6632      6642      6352
 -1      5698    1    0    1
 -2      6342      6632      6642      6352      2155      2184      2185      2156
 -1      5699    1    0    1
 -2       645       674       675       646      6343      6633      6643      6353
 -1      5700    1    0    1
 -2      6343      6633      6643      6353      6344      6634      6644      6354
 -1      5701    1    0    1
 -2      6344      6634      6644      6354      6345      6635      6645      6355
 -1      5702    1    0    1
 -2      6345      6635      6645      6355      6346      6636      6646      6356
 -1      5703    1    0    1
 -2      6346      6636      6646      6356      6347      6637      6647      6357
 -1      5704    1    0    1
 -2      6347      6637      6647      6357      6348      6638      6648      6358
 -1      5705    1    0    1
 -2      6348      6638      6648      6358      6349      6639      6649      6359
 -1      5706    1    0    1
 -2      6349      6639      6649      6359      6350      6640      6650      6360
 -1      5707    1    0    1
 -2      6350      6640      6650      6360      6351      6641      6651      6361
 -1      5708    1    0    1
 -2      6351      6641      6651      6361      6352      6642      6652      6362
 -1      5709    1    0    1
 -2      6352      6642      6652      6362      2156      2185      2186      2157
 -1      5710    1    0    1
 -2       646       675        61        62      6353      6643      1312      1322
 -1      5711    1    0    1
 -2      6353      6643      1312      1322      6354      6644      1313      1323
 -1      5712    1    0    1
 -2      6354      6644      1313      1323      6355      6645      1314      1324
 -1      5713    1    0    1
 -2      6355      6645      1314      1324      6356      6646      1315      1325
 -1      5714    1    0    1
 -2      6356      6646      1315      1325      6357      6647      1316      1326
 -1      5715    1    0    1
 -2      6357      6647      1316      1326      6358      6648      1317      1327
 -1      5716    1    0    1
 -2      6358      6648      1317      1327      6359      6649      1318      1328
 -1      5717    1    0    1
 -2      6359      6649      1318      1328      6360      6650      1319      1329
 -1      5718    1    0    1
 -2      6360      6650      1319      1329      6361      6651      1320      1330
 -1      5719    1    0    1
 -2      6361      6651      1320      1330      6362      6652      1321      1331
 -1      5720    1    0    1
 -2      6362      6652      1321      1331      2157      2186       157       158
 -1      5721    1    0    1
 -2        23        24       676       647       932       942      6653      6363
 -1      5722    1    0    1
 -2       932       942      6653      6363       933       943      6654      6364
 -1      5723    1    0    1
 -2       933       943      6654      6364       934       944      6655      6365
 -1      5724    1    0    1
 -2       934       944      6655      6365       935       945      6656      6366
 -1      5725    1    0    1
 -2       935       945      6656      6366       936       946      6657      6367
 -1      5726    1    0    1
 -2       936       946      6657      6367       937       947      6658      6368
 -1      5727    1    0    1
 -2       937       947      6658      6368       938       948      6659      6369
 -1      5728    1    0    1
 -2       938       948      6659      6369       939       949      6660      6370
 -1      5729    1    0    1
 -2       939       949      6660      6370       940       950      6661      6371
 -1      5730    1    0    1
 -2       940       950      6661      6371       941       951      6662      6372
 -1      5731    1    0    1
 -2       941       951      6662      6372       119       120      2187      2158
 -1      5732    1    0    1
 -2       647       676       677       648      6363      6653      6663      6373
 -1      5733    1    0    1
 -2      6363      6653      6663      6373      6364      6654      6664      6374
 -1      5734    1    0    1
 -2      6364      6654      6664      6374      6365      6655      6665      6375
 -1      5735    1    0    1
 -2      6365      6655      6665      6375      6366      6656      6666      6376
 -1      5736    1    0    1
 -2      6366      6656      6666      6376      6367      6657      6667      6377
 -1      5737    1    0    1
 -2      6367      6657      6667      6377      6368      6658      6668      6378
 -1      5738    1    0    1
 -2      6368      6658      6668      6378      6369      6659      6669      6379
 -1      5739    1    0    1
 -2      6369      6659      6669      6379      6370      6660      6670      6380
 -1      5740    1    0    1
 -2      6370      6660      6670      6380      6371      6661      6671      6381
 -1      5741    1    0    1
 -2      6371      6661      6671      6381      6372      6662      6672      6382
 -1      5742    1    0    1
 -2      6372      6662      6672      6382      2158      2187      2188      2159
 -1      5743    1    0    1
 -2       648       677       678       649      6373      6663      6673      6383
 -1      5744    1    0    1
 -2      6373      6663      6673      6383      6374      6664      6674      6384
 -1      5745    1    0    1
 -2      6374      6664      6674      6384      6375      6665      6675      6385
 -1      5746    1    0    1
 -2      6375      6665      6675      6385      6376      6666      6676      6386
 -1      5747    1    0    1
 -2      6376      6666      6676      6386      6377      6667      6677      6387
 -1      5748    1    0    1
 -2      6377      6667      6677      6387      6378      6668      6678      6388
 -1      5749    1    0    1
 -2      6378      6668      6678      6388      6379      6669      6679      6389
 -1      5750    1    0    1
 -2      6379      6669      6679      6389      6380      6670      6680      6390
 -1      5751    1    0    1
 -2      6380      6670      6680      6390      6381      6671      6681      6391
 -1      5752    1    0    1
 -2      6381      6671      6681      6391      6382      6672      6682      6392
 -1      5753    1    0    1
 -2      6382      6672      6682      6392      2159      2188      2189      2160
 -1      5754    1    0    1
 -2       649       678       679       650      6383      6673      6683      6393
 -1      5755    1    0    1
 -2      6383      6673      6683      6393      6384      6674      6684      6394
 -1      5756    1    0    1
 -2      6384      6674      6684      6394      6385      6675      6685      6395
 -1      5757    1    0    1
 -2      6385      6675      6685      6395      6386      6676      6686      6396
 -1      5758    1    0    1
 -2      6386      6676      6686      6396      6387      6677      6687      6397
 -1      5759    1    0    1
 -2      6387      6677      6687      6397      6388      6678      6688      6398
 -1      5760    1    0    1
 -2      6388      6678      6688      6398      6389      6679      6689      6399
 -1      5761    1    0    1
 -2      6389      6679      6689      6399      6390      6680      6690      6400
 -1      5762    1    0    1
 -2      6390      6680      6690      6400      6391      6681      6691      6401
 -1      5763    1    0    1
 -2      6391      6681      6691      6401      6392      6682      6692      6402
 -1      5764    1    0    1
 -2      6392      6682      6692      6402      2160      2189      2190      2161
 -1      5765    1    0    1
 -2       650       679       680       651      6393      6683      6693      6403
 -1      5766    1    0    1
 -2      6393      6683      6693      6403      6394      6684      6694      6404
 -1      5767    1    0    1
 -2      6394      6684      6694      6404      6395      6685      6695      6405
 -1      5768    1    0    1
 -2      6395      6685      6695      6405      6396      6686      6696      6406
 -1      5769    1    0    1
 -2      6396      6686      6696      6406      6397      6687      6697      6407
 -1      5770    1    0    1
 -2      6397      6687      6697      6407      6398      6688      6698      6408
 -1      5771    1    0    1
 -2      6398      6688      6698      6408      6399      6689      6699      6409
 -1      5772    1    0    1
 -2      6399      6689      6699      6409      6400      6690      6700      6410
 -1      5773    1    0    1
 -2      6400      6690      6700      6410      6401      6691      6701      6411
 -1      5774    1    0    1
 -2      6401      6691      6701      6411      6402      6692      6702      6412
 -1      5775    1    0    1
 -2      6402      6692      6702      6412      2161      2190      2191      2162
 -1      5776    1    0    1
 -2       651       680       681       652      6403      6693      6703      6413
 -1      5777    1    0    1
 -2      6403      6693      6703      6413      6404      6694      6704      6414
 -1      5778    1    0    1
 -2      6404      6694      6704      6414      6405      6695      6705      6415
 -1      5779    1    0    1
 -2      6405      6695      6705      6415      6406      6696      6706      6416
 -1      5780    1    0    1
 -2      6406      6696      6706      6416      6407      6697      6707      6417
 -1      5781    1    0    1
 -2      6407      6697      6707      6417      6408      6698      6708      6418
 -1      5782    1    0    1
 -2      6408      6698      6708      6418      6409      6699      6709      6419
 -1      5783    1    0    1
 -2      6409      6699      6709      6419      6410      6700      6710      6420
 -1      5784    1    0    1
 -2      6410      6700      6710      6420      6411      6701      6711      6421
 -1      5785    1    0    1
 -2      6411      6701      6711      6421      6412      6702      6712      6422
 -1      5786    1    0    1
 -2      6412      6702      6712      6422      2162      2191      2192      2163
 -1      5787    1    0    1
 -2       652       681       682       653      6413      6703      6713      6423
 -1      5788    1    0    1
 -2      6413      6703      6713      6423      6414      6704      6714      6424
 -1      5789    1    0    1
 -2      6414      6704      6714      6424      6415      6705      6715      6425
 -1      5790    1    0    1
 -2      6415      6705      6715      6425      6416      6706      6716      6426
 -1      5791    1    0    1
 -2      6416      6706      6716      6426      6417      6707      6717      6427
 -1      5792    1    0    1
 -2      6417      6707      6717      6427      6418      6708      6718      6428
 -1      5793    1    0    1
 -2      6418      6708      6718      6428      6419      6709      6719      6429
 -1      5794    1    0    1
 -2      6419      6709      6719      6429      6420      6710      6720      6430
 -1      5795    1    0    1
 -2      6420      6710      6720      6430      6421      6711      6721      6431
 -1      5796    1    0    1
 -2      6421      6711      6721      6431      6422      6712      6722      6432
 -1      5797    1    0    1
 -2      6422      6712      6722      6432      2163      2192      2193      2164
 -1      5798    1    0    1
 -2       653       682       683       654      6423      6713      6723      6433
 -1      5799    1    0    1
 -2      6423      6713      6723      6433      6424      6714      6724      6434
 -1      5800    1    0    1
 -2      6424      6714      6724      6434      6425      6715      6725      6435
 -1      5801    1    0    1
 -2      6425      6715      6725      6435      6426      6716      6726      6436
 -1      5802    1    0    1
 -2      6426      6716      6726      6436      6427      6717      6727      6437
 -1      5803    1    0    1
 -2      6427      6717      6727      6437      6428      6718      6728      6438
 -1      5804    1    0    1
 -2      6428      6718      6728      6438      6429      6719      6729      6439
 -1      5805    1    0    1
 -2      6429      6719      6729      6439      6430      6720      6730      6440
 -1      5806    1    0    1
 -2      6430      6720      6730      6440      6431      6721      6731      6441
 -1      5807    1    0    1
 -2      6431      6721      6731      6441      6432      6722      6732      6442
 -1      5808    1    0    1
 -2      6432      6722      6732      6442      2164      2193      2194      2165
 -1      5809    1    0    1
 -2       654       683       684       655      6433      6723      6733      6443
 -1      5810    1    0    1
 -2      6433      6723      6733      6443      6434      6724      6734      6444
 -1      5811    1    0    1
 -2      6434      6724      6734      6444      6435      6725      6735      6445
 -1      5812    1    0    1
 -2      6435      6725      6735      6445      6436      6726      6736      6446
 -1      5813    1    0    1
 -2      6436      6726      6736      6446      6437      6727      6737      6447
 -1      5814    1    0    1
 -2      6437      6727      6737      6447      6438      6728      6738      6448
 -1      5815    1    0    1
 -2      6438      6728      6738      6448      6439      6729      6739      6449
 -1      5816    1    0    1
 -2      6439      6729      6739      6449      6440      6730      6740      6450
 -1      5817    1    0    1
 -2      6440      6730      6740      6450      6441      6731      6741      6451
 -1      5818    1    0    1
 -2      6441      6731      6741      6451      6442      6732      6742      6452
 -1      5819    1    0    1
 -2      6442      6732      6742      6452      2165      2194      2195      2166
 -1      5820    1    0    1
 -2       655       684       685       656      6443      6733      6743      6453
 -1      5821    1    0    1
 -2      6443      6733      6743      6453      6444      6734      6744      6454
 -1      5822    1    0    1
 -2      6444      6734      6744      6454      6445      6735      6745      6455
 -1      5823    1    0    1
 -2      6445      6735      6745      6455      6446      6736      6746      6456
 -1      5824    1    0    1
 -2      6446      6736      6746      6456      6447      6737      6747      6457
 -1      5825    1    0    1
 -2      6447      6737      6747      6457      6448      6738      6748      6458
 -1      5826    1    0    1
 -2      6448      6738      6748      6458      6449      6739      6749      6459
 -1      5827    1    0    1
 -2      6449      6739      6749      6459      6450      6740      6750      6460
 -1      5828    1    0    1
 -2      6450      6740      6750      6460      6451      6741      6751      6461
 -1      5829    1    0    1
 -2      6451      6741      6751      6461      6452      6742      6752      6462
 -1      5830    1    0    1
 -2      6452      6742      6752      6462      2166      2195      2196      2167
 -1      5831    1    0    1
 -2       656       685       686       657      6453      6743      6753      6463
 -1      5832    1    0    1
 -2      6453      6743      6753      6463      6454      6744      6754      6464
 -1      5833    1    0    1
 -2      6454      6744      6754      6464      6455      6745      6755      6465
 -1      5834    1    0    1
 -2      6455      6745      6755      6465      6456      6746      6756      6466
 -1      5835    1    0    1
 -2      6456      6746      6756      6466      6457      6747      6757      6467
 -1      5836    1    0    1
 -2      6457      6747      6757      6467      6458      6748      6758      6468
 -1      5837    1    0    1
 -2      6458      6748      6758      6468      6459      6749      6759      6469
 -1      5838    1    0    1
 -2      6459      6749      6759      6469      6460      6750      6760      6470
 -1      5839    1    0    1
 -2      6460      6750      6760      6470      6461      6751      6761      6471
 -1      5840    1    0    1
 -2      6461      6751      6761      6471      6462      6752      6762      6472
 -1      5841    1    0    1
 -2      6462      6752      6762      6472      2167      2196      2197      2168
 -1      5842    1    0    1
 -2       657       686       687       658      6463      6753      6763      6473
 -1      5843    1    0    1
 -2      6463      6753      6763      6473      6464      6754      6764      6474
 -1      5844    1    0    1
 -2      6464      6754      6764      6474      6465      6755      6765      6475
 -1      5845    1    0    1
 -2      6465      6755      6765      6475      6466      6756      6766      6476
 -1      5846    1    0    1
 -2      6466      6756      6766      6476      6467      6757      6767      6477
 -1      5847    1    0    1
 -2      6467      6757      6767      6477      6468      6758      6768      6478
 -1      5848    1    0    1
 -2      6468      6758      6768      6478      6469      6759      6769      6479
 -1      5849    1    0    1
 -2      6469      6759      6769      6479      6470      6760      6770      6480
 -1      5850    1    0    1
 -2      6470      6760      6770      6480      6471      6761      6771      6481
 -1      5851    1    0    1
 -2      6471      6761      6771      6481      6472      6762      6772      6482
 -1      5852    1    0    1
 -2      6472      6762      6772      6482      2168      2197      2198      2169
 -1      5853    1    0    1
 -2       658       687       688       659      6473      6763      6773      6483
 -1      5854    1    0    1
 -2      6473      6763      6773      6483      6474      6764      6774      6484
 -1      5855    1    0    1
 -2      6474      6764      6774      6484      6475      6765      6775      6485
 -1      5856    1    0    1
 -2      6475      6765      6775      6485      6476      6766      6776      6486
 -1      5857    1    0    1
 -2      6476      6766      6776      6486      6477      6767      6777      6487
 -1      5858    1    0    1
 -2      6477      6767      6777      6487      6478      6768      6778      6488
 -1      5859    1    0    1
 -2      6478      6768      6778      6488      6479      6769      6779      6489
 -1      5860    1    0    1
 -2      6479      6769      6779      6489      6480      6770      6780      6490
 -1      5861    1    0    1
 -2      6480      6770      6780      6490      6481      6771      6781      6491
 -1      5862    1    0    1
 -2      6481      6771      6781      6491      6482      6772      6782      6492
 -1      5863    1    0    1
 -2      6482      6772      6782      6492      2169      2198      2199      2170
 -1      5864    1    0    1
 -2       659       688       689       660      6483      6773      6783      6493
 -1      5865    1    0    1
 -2      6483      6773      6783      6493      6484      6774      6784      6494
 -1      5866    1    0    1
 -2      6484      6774      6784      6494      6485      6775      6785      6495
 -1      5867    1    0    1
 -2      6485      6775      6785      6495      6486      6776      6786      6496
 -1      5868    1    0    1
 -2      6486      6776      6786      6496      6487      6777      6787      6497
 -1      5869    1    0    1
 -2      6487      6777      6787      6497      6488      6778      6788      6498
 -1      5870    1    0    1
 -2      6488      6778      6788      6498      6489      6779      6789      6499
 -1      5871    1    0    1
 -2      6489      6779      6789      6499      6490      6780      6790      6500
 -1      5872    1    0    1
 -2      6490      6780      6790      6500      6491      6781      6791      6501
 -1      5873    1    0    1
 -2      6491      6781      6791      6501      6492      6782      6792      6502
 -1      5874    1    0    1
 -2      6492      6782      6792      6502      2170      2199      2200      2171
 -1      5875    1    0    1
 -2       660       689       690       661      6493      6783      6793      6503
 -1      5876    1    0    1
 -2      6493      6783      6793      6503      6494      6784      6794      6504
 -1      5877    1    0    1
 -2      6494      6784      6794      6504      6495      6785      6795      6505
 -1      5878    1    0    1
 -2      6495      6785      6795      6505      6496      6786      6796      6506
 -1      5879    1    0    1
 -2      6496      6786      6796      6506      6497      6787      6797      6507
 -1      5880    1    0    1
 -2      6497      6787      6797      6507      6498      6788      6798      6508
 -1      5881    1    0    1
 -2      6498      6788      6798      6508      6499      6789      6799      6509
 -1      5882    1    0    1
 -2      6499      6789      6799      6509      6500      6790      6800      6510
 -1      5883    1    0    1
 -2      6500      6790      6800      6510      6501      6791      6801      6511
 -1      5884    1    0    1
 -2      6501      6791      6801      6511      6502      6792      6802      6512
 -1      5885    1    0    1
 -2      6502      6792      6802      6512      2171      2200      2201      2172
 -1      5886    1    0    1
 -2       661       690       691       662      6503      6793      6803      6513
 -1      5887    1    0    1
 -2      6503      6793      6803      6513      6504      6794      6804      6514
 -1      5888    1    0    1
 -2      6504      6794      6804      6514      6505      6795      6805      6515
 -1      5889    1    0    1
 -2      6505      6795      6805      6515      6506      6796      6806      6516
 -1      5890    1    0    1
 -2      6506      6796      6806      6516      6507      6797      6807      6517
 -1      5891    1    0    1
 -2      6507      6797      6807      6517      6508      6798      6808      6518
 -1      5892    1    0    1
 -2      6508      6798      6808      6518      6509      6799      6809      6519
 -1      5893    1    0    1
 -2      6509      6799      6809      6519      6510      6800      6810      6520
 -1      5894    1    0    1
 -2      6510      6800      6810      6520      6511      6801      6811      6521
 -1      5895    1    0    1
 -2      6511      6801      6811      6521      6512      6802      6812      6522
 -1      5896    1    0    1
 -2      6512      6802      6812      6522      2172      2201      2202      2173
 -1      5897    1    0    1
 -2       662       691       692       663      6513      6803      6813      6523
 -1      5898    1    0    1
 -2      6513      6803      6813      6523      6514      6804      6814      6524
 -1      5899    1    0    1
 -2      6514      6804      6814      6524      6515      6805      6815      6525
 -1      5900    1    0    1
 -2      6515      6805      6815      6525      6516      6806      6816      6526
 -1      5901    1    0    1
 -2      6516      6806      6816      6526      6517      6807      6817      6527
 -1      5902    1    0    1
 -2      6517      6807      6817      6527      6518      6808      6818      6528
 -1      5903    1    0    1
 -2      6518      6808      6818      6528      6519      6809      6819      6529
 -1      5904    1    0    1
 -2      6519      6809      6819      6529      6520      6810      6820      6530
 -1      5905    1    0    1
 -2      6520      6810      6820      6530      6521      6811      6821      6531
 -1      5906    1    0    1
 -2      6521      6811      6821      6531      6522      6812      6822      6532
 -1      5907    1    0    1
 -2      6522      6812      6822      6532      2173      2202      2203      2174
 -1      5908    1    0    1
 -2       663       692       693       664      6523      6813      6823      6533
 -1      5909    1    0    1
 -2      6523      6813      6823      6533      6524      6814      6824      6534
 -1      5910    1    0    1
 -2      6524      6814      6824      6534      6525      6815      6825      6535
 -1      5911    1    0    1
 -2      6525      6815      6825      6535      6526      6816      6826      6536
 -1      5912    1    0    1
 -2      6526      6816      6826      6536      6527      6817      6827      6537
 -1      5913    1    0    1
 -2      6527      6817      6827      6537      6528      6818      6828      6538
 -1      5914    1    0    1
 -2      6528      6818      6828      6538      6529      6819      6829      6539
 -1      5915    1    0    1
 -2      6529      6819      6829      6539      6530      6820      6830      6540
 -1      5916    1    0    1
 -2      6530      6820      6830      6540      6531      6821      6831      6541
 -1      5917    1    0    1
 -2      6531      6821      6831      6541      6532      6822      6832      6542
 -1      5918    1    0    1
 -2      6532      6822      6832      6542      2174      2203      2204      2175
 -1      5919    1    0    1
 -2       664       693       694       665      6533      6823      6833      6543
 -1      5920    1    0    1
 -2      6533      6823      6833      6543      6534      6824      6834      6544
 -1      5921    1    0    1
 -2      6534      6824      6834      6544      6535      6825      6835      6545
 -1      5922    1    0    1
 -2      6535      6825      6835      6545      6536      6826      6836      6546
 -1      5923    1    0    1
 -2      6536      6826      6836      6546      6537      6827      6837      6547
 -1      5924    1    0    1
 -2      6537      6827      6837      6547      6538      6828      6838      6548
 -1      5925    1    0    1
 -2      6538      6828      6838      6548      6539      6829      6839      6549
 -1      5926    1    0    1
 -2      6539      6829      6839      6549      6540      6830      6840      6550
 -1      5927    1    0    1
 -2      6540      6830      6840      6550      6541      6831      6841      6551
 -1      5928    1    0    1
 -2      6541      6831      6841      6551      6542      6832      6842      6552
 -1      5929    1    0    1
 -2      6542      6832      6842      6552      2175      2204      2205      2176
 -1      5930    1    0    1
 -2       665       694       695       666      6543      6833      6843      6553
 -1      5931    1    0    1
 -2      6543      6833      6843      6553      6544      6834      6844      6554
 -1      5932    1    0    1
 -2      6544      6834      6844      6554      6545      6835      6845      6555
 -1      5933    1    0    1
 -2      6545      6835      6845      6555      6546      6836      6846      6556
 -1      5934    1    0    1
 -2      6546      6836      6846      6556      6547      6837      6847      6557
 -1      5935    1    0    1
 -2      6547      6837      6847      6557      6548      6838      6848      6558
 -1      5936    1    0    1
 -2      6548      6838      6848      6558      6549      6839      6849      6559
 -1      5937    1    0    1
 -2      6549      6839      6849      6559      6550      6840      6850      6560
 -1      5938    1    0    1
 -2      6550      6840      6850      6560      6551      6841      6851      6561
 -1      5939    1    0    1
 -2      6551      6841      6851      6561      6552      6842      6852      6562
 -1      5940    1    0    1
 -2      6552      6842      6852      6562      2176      2205      2206      2177
 -1      5941    1    0    1
 -2       666       695       696       667      6553      6843      6853      6563
 -1      5942    1    0    1
 -2      6553      6843      6853      6563      6554      6844      6854      6564
 -1      5943    1    0    1
 -2      6554      6844      6854      6564      6555      6845      6855      6565
 -1      5944    1    0    1
 -2      6555      6845      6855      6565      6556      6846      6856      6566
 -1      5945    1    0    1
 -2      6556      6846      6856      6566      6557      6847      6857      6567
 -1      5946    1    0    1
 -2      6557      6847      6857      6567      6558      6848      6858      6568
 -1      5947    1    0    1
 -2      6558      6848      6858      6568      6559      6849      6859      6569
 -1      5948    1    0    1
 -2      6559      6849      6859      6569      6560      6850      6860      6570
 -1      5949    1    0    1
 -2      6560      6850      6860      6570      6561      6851      6861      6571
 -1      5950    1    0    1
 -2      6561      6851      6861      6571      6562      6852      6862      6572
 -1      5951    1    0    1
 -2      6562      6852      6862      6572      2177      2206      2207      2178
 -1      5952    1    0    1
 -2       667       696       697       668      6563      6853      6863      6573
 -1      5953    1    0    1
 -2      6563      6853      6863      6573      6564      6854      6864      6574
 -1      5954    1    0    1
 -2      6564      6854      6864      6574      6565      6855      6865      6575
 -1      5955    1    0    1
 -2      6565      6855      6865      6575      6566      6856      6866      6576
 -1      5956    1    0    1
 -2      6566      6856      6866      6576      6567      6857      6867      6577
 -1      5957    1    0    1
 -2      6567      6857      6867      6577      6568      6858      6868      6578
 -1      5958    1    0    1
 -2      6568      6858      6868      6578      6569      6859      6869      6579
 -1      5959    1    0    1
 -2      6569      6859      6869      6579      6570      6860      6870      6580
 -1      5960    1    0    1
 -2      6570      6860      6870      6580      6571      6861      6871      6581
 -1      5961    1    0    1
 -2      6571      6861      6871      6581      6572      6862      6872      6582
 -1      5962    1    0    1
 -2      6572      6862      6872      6582      2178      2207      2208      2179
 -1      5963    1    0    1
 -2       668       697       698       669      6573      6863      6873      6583
 -1      5964    1    0    1
 -2      6573      6863      6873      6583      6574      6864      6874      6584
 -1      5965    1    0    1
 -2      6574      6864      6874      6584      6575      6865      6875      6585
 -1      5966    1    0    1
 -2      6575      6865      6875      6585      6576      6866      6876      6586
 -1      5967    1    0    1
 -2      6576      6866      6876      6586      6577      6867      6877      6587
 -1      5968    1    0    1
 -2      6577      6867      6877      6587      6578      6868      6878      6588
 -1      5969    1    0    1
 -2      6578      6868      6878      6588      6579      6869      6879      6589
 -1      5970    1    0    1
 -2      6579      6869      6879      6589      6580      6870      6880      6590
 -1      5971    1    0    1
 -2      6580      6870      6880      6590      6581      6871      6881      6591
 -1      5972    1    0    1
 -2      6581      6871      6881      6591      6582      6872      6882      6592
 -1      5973    1    0    1
 -2      6582      6872      6882      6592      2179      2208      2209      2180
 -1      5974    1    0    1
 -2       669       698       699       670      6583      6873      6883      6593
 -1      5975    1    0    1
 -2      6583      6873      6883      6593      6584      6874      6884      6594
 -1      5976    1    0    1
 -2      6584      6874      6884      6594      6585      6875      6885      6595
 -1      5977    1    0    1
 -2      6585      6875      6885      6595      6586      6876      6886      6596
 -1      5978    1    0    1
 -2      6586      6876      6886      6596      6587      6877      6887      6597
 -1      5979    1    0    1
 -2      6587      6877      6887      6597      6588      6878      6888      6598
 -1      5980    1    0    1
 -2      6588      6878      6888      6598      6589      6879      6889      6599
 -1      5981    1    0    1
 -2      6589      6879      6889      6599      6590      6880      6890      6600
 -1      5982    1    0    1
 -2      6590      6880      6890      6600      6591      6881      6891      6601
 -1      5983    1    0    1
 -2      6591      6881      6891      6601      6592      6882      6892      6602
 -1      5984    1    0    1
 -2      6592      6882      6892      6602      2180      2209      2210      2181
 -1      5985    1    0    1
 -2       670       699       700       671      6593      6883      6893      6603
 -1      5986    1    0    1
 -2      6593      6883      6893      6603      6594      6884      6894      6604
 -1      5987    1    0    1
 -2      6594      6884      6894      6604      6595      6885      6895      6605
 -1      5988    1    0    1
 -2      6595      6885      6895      6605      6596      6886      6896      6606
 -1      5989    1    0    1
 -2      6596      6886      6896      6606      6597      6887      6897      6607
 -1      5990    1    0    1
 -2      6597      6887      6897      6607      6598      6888      6898      6608
 -1      5991    1    0    1
 -2      6598      6888      6898      6608      6599      6889      6899      6609
 -1      5992    1    0    1
 -2      6599      6889      6899      6609      6600      6890      6900      6610
 -1      5993    1    0    1
 -2      6600      6890      6900      6610      6601      6891      6901      6611
 -1      5994    1    0    1
 -2      6601      6891      6901      6611      6602      6892      6902      6612
 -1      5995    1    0    1
 -2      6602      6892      6902      6612      2181      2210      2211      2182
 -1      5996    1    0    1
 -2       671       700       701       672      6603      6893      6903      6613
 -1      5997    1    0    1
 -2      6603      6893      6903      6613      6604      6894      6904      6614
 -1      5998    1    0    1
 -2      6604      6894      6904      6614      6605      6895      6905      6615
 -1      5999    1    0    1
 -2      6605      6895      6905      6615      6606      6896      6906      6616
 -1      6000    1    0    1
 -2      6606      6896      6906      6616      6607      6897      6907      6617
 -1      6001    1    0    1
 -2      6607      6897      6907      6617      6608      6898      6908      6618
 -1      6002    1    0    1
 -2      6608      6898      6908      6618      6609      6899      6909      6619
 -1      6003    1    0    1
 -2      6609      6899      6909      6619      6610      6900      6910      6620
 -1      6004    1    0    1
 -2      6610      6900      6910      6620      6611      6901      6911      6621
 -1      6005    1    0    1
 -2      6611      6901      6911      6621      6612      6902      6912      6622
 -1      6006    1    0    1
 -2      6612      6902      6912      6622      2182      2211      2212      2183
 -1      6007    1    0    1
 -2       672       701       702       673      6613      6903      6913      6623
 -1      6008    1    0    1
 -2      6613      6903      6913      6623      6614      6904      6914      6624
 -1      6009    1    0    1
 -2      6614      6904      6914      6624      6615      6905      6915      6625
 -1      6010    1    0    1
 -2      6615      6905      6915      6625      6616      6906      6916      6626
 -1      6011    1    0    1
 -2      6616      6906      6916      6626      6617      6907      6917      6627
 -1      6012    1    0    1
 -2      6617      6907      6917      6627      6618      6908      6918      6628
 -1      6013    1    0    1
 -2      6618      6908      6918      6628      6619      6909      6919      6629
 -1      6014    1    0    1
 -2      6619      6909      6919      6629      6620      6910      6920      6630
 -1      6015    1    0    1
 -2      6620      6910      6920      6630      6621      6911      6921      6631
 -1      6016    1    0    1
 -2      6621      6911      6921      6631      6622      6912      6922      6632
 -1      6017    1    0    1
 -2      6622      6912      6922      6632      2183      2212      2213      2184
 -1      6018    1    0    1
 -2       673       702       703       674      6623      6913      6923      6633
 -1      6019    1    0    1
 -2      6623      6913      6923      6633      6624      6914      6924      6634
 -1      6020    1    0    1
 -2      6624      6914      6924      6634      6625      6915      6925      6635
 -1      6021    1    0    1
 -2      6625      6915      6925      6635      6626      6916      6926      6636
 -1      6022    1    0    1
 -2      6626      6916      6926      6636      6627      6917      6927      6637
 -1      6023    1    0    1
 -2      6627      6917      6927      6637      6628      6918      6928      6638
 -1      6024    1    0    1
 -2      6628      6918      6928      6638      6629      6919      6929      6639
 -1      6025    1    0    1
 -2      6629      6919      6929      6639      6630      6920      6930      6640
 -1      6026    1    0    1
 -2      6630      6920      6930      6640      6631      6921      6931      6641
 -1      6027    1    0    1
 -2      6631      6921      6931      6641      6632      6922      6932      6642
 -1      6028    1    0    1
 -2      6632      6922      6932      6642      2184      2213      2214      2185
 -1      6029    1    0    1
 -2       674       703       704       675      6633      6923      6933      6643
 -1      6030    1    0    1
 -2      6633      6923      6933      6643      6634      6924      6934      6644
 -1      6031    1    0    1
 -2      6634      6924      6934      6644      6635      6925      6935      6645
 -1      6032    1    0    1
 -2      6635      6925      6935      6645      6636      6926      6936      6646
 -1      6033    1    0    1
 -2      6636      6926      6936      6646      6637      6927      6937      6647
 -1      6034    1    0    1
 -2      6637      6927      6937      6647      6638      6928      6938      6648
 -1      6035    1    0    1
 -2      6638      6928      6938      6648      6639      6929      6939      6649
 -1      6036    1    0    1
 -2      6639      6929      6939      6649      6640      6930      6940      6650
 -1      6037    1    0    1
 -2      6640      6930      6940      6650      6641      6931      6941      6651
 -1      6038    1    0    1
 -2      6641      6931      6941      6651      6642      6932      6942      6652
 -1      6039    1    0    1
 -2      6642      6932      6942      6652      2185      2214      2215      2186
 -1      6040    1    0    1
 -2       675       704        60        61      6643      6933      1302      1312
 -1      6041    1    0    1
 -2      6643      6933      1302      1312      6644      6934      1303      1313
 -1      6042    1    0    1
 -2      6644      6934      1303      1313      6645      6935      1304      1314
 -1      6043    1    0    1
 -2      6645      6935      1304      1314      6646      6936      1305      1315
 -1      6044    1    0    1
 -2      6646      6936      1305      1315      6647      6937      1306      1316
 -1      6045    1    0    1
 -2      6647      6937      1306      1316      6648      6938      1307      1317
 -1      6046    1    0    1
 -2      6648      6938      1307      1317      6649      6939      1308      1318
 -1      6047    1    0    1
 -2      6649      6939      1308      1318      6650      6940      1309      1319
 -1      6048    1    0    1
 -2      6650      6940      1309      1319      6651      6941      1310      1320
 -1      6049    1    0    1
 -2      6651      6941      1310      1320      6652      6942      1311      1321
 -1      6050    1    0    1
 -2      6652      6942      1311      1321      2186      2215       156       157
 -1      6051    1    0    1
 -2        24        25       705       676       942       952      6943      6653
 -1      6052    1    0    1
 -2       942       952      6943      6653       943       953      6944      6654
 -1      6053    1    0    1
 -2       943       953      6944      6654       944       954      6945      6655
 -1      6054    1    0    1
 -2       944       954      6945      6655       945       955      6946      6656
 -1      6055    1    0    1
 -2       945       955      6946      6656       946       956      6947      6657
 -1      6056    1    0    1
 -2       946       956      6947      6657       947       957      6948      6658
 -1      6057    1    0    1
 -2       947       957      6948      6658       948       958      6949      6659
 -1      6058    1    0    1
 -2       948       958      6949      6659       949       959      6950      6660
 -1      6059    1    0    1
 -2       949       959      6950      6660       950       960      6951      6661
 -1      6060    1    0    1
 -2       950       960      6951      6661       951       961      6952      6662
 -1      6061    1    0    1
 -2       951       961      6952      6662       120       121      2216      2187
 -1      6062    1    0    1
 -2       676       705       706       677      6653      6943      6953      6663
 -1      6063    1    0    1
 -2      6653      6943      6953      6663      6654      6944      6954      6664
 -1      6064    1    0    1
 -2      6654      6944      6954      6664      6655      6945      6955      6665
 -1      6065    1    0    1
 -2      6655      6945      6955      6665      6656      6946      6956      6666
 -1      6066    1    0    1
 -2      6656      6946      6956      6666      6657      6947      6957      6667
 -1      6067    1    0    1
 -2      6657      6947      6957      6667      6658      6948      6958      6668
 -1      6068    1    0    1
 -2      6658      6948      6958      6668      6659      6949      6959      6669
 -1      6069    1    0    1
 -2      6659      6949      6959      6669      6660      6950      6960      6670
 -1      6070    1    0    1
 -2      6660      6950      6960      6670      6661      6951      6961      6671
 -1      6071    1    0    1
 -2      6661      6951      6961      6671      6662      6952      6962      6672
 -1      6072    1    0    1
 -2      6662      6952      6962      6672      2187      2216      2217      2188
 -1      6073    1    0    1
 -2       677       706       707       678      6663      6953      6963      6673
 -1      6074    1    0    1
 -2      6663      6953      6963      6673      6664      6954      6964      6674
 -1      6075    1    0    1
 -2      6664      6954      6964      6674      6665      6955      6965      6675
 -1      6076    1    0    1
 -2      6665      6955      6965      6675      6666      6956      6966      6676
 -1      6077    1    0    1
 -2      6666      6956      6966      6676      6667      6957      6967      6677
 -1      6078    1    0    1
 -2      6667      6957      6967      6677      6668      6958      6968      6678
 -1      6079    1    0    1
 -2      6668      6958      6968      6678      6669      6959      6969      6679
 -1      6080    1    0    1
 -2      6669      6959      6969      6679      6670      6960      6970      6680
 -1      6081    1    0    1
 -2      6670      6960      6970      6680      6671      6961      6971      6681
 -1      6082    1    0    1
 -2      6671      6961      6971      6681      6672      6962      6972      6682
 -1      6083    1    0    1
 -2      6672      6962      6972      6682      2188      2217      2218      2189
 -1      6084    1    0    1
 -2       678       707       708       679      6673      6963      6973      6683
 -1      6085    1    0    1
 -2      6673      6963      6973      6683      6674      6964      6974      6684
 -1      6086    1    0    1
 -2      6674      6964      6974      6684      6675      6965      6975      6685
 -1      6087    1    0    1
 -2      6675      6965      6975      6685      6676      6966      6976      6686
 -1      6088    1    0    1
 -2      6676      6966      6976      6686      6677      6967      6977      6687
 -1      6089    1    0    1
 -2      6677      6967      6977      6687      6678      6968      6978      6688
 -1      6090    1    0    1
 -2      6678      6968      6978      6688      6679      6969      6979      6689
 -1      6091    1    0    1
 -2      6679      6969      6979      6689      6680      6970      6980      6690
 -1      6092    1    0    1
 -2      6680      6970      6980      6690      6681      6971      6981      6691
 -1      6093    1    0    1
 -2      6681      6971      6981      6691      6682      6972      6982      6692
 -1      6094    1    0    1
 -2      6682      6972      6982      6692      2189      2218      2219      2190
 -1      6095    1    0    1
 -2       679       708       709       680      6683      6973      6983      6693
 -1      6096    1    0    1
 -2      6683      6973      6983      6693      6684      6974      6984      6694
 -1      6097    1    0    1
 -2      6684      6974      6984      6694      6685      6975      6985      6695
 -1      6098    1    0    1
 -2      6685      6975      6985      6695      6686      6976      6986      6696
 -1      6099    1    0    1
 -2      6686      6976      6986      6696      6687      6977      6987      6697
 -1      6100    1    0    1
 -2      6687      6977      6987      6697      6688      6978      6988      6698
 -1      6101    1    0    1
 -2      6688      6978      6988      6698      6689      6979      6989      6699
 -1      6102    1    0    1
 -2      6689      6979      6989      6699      6690      6980      6990      6700
 -1      6103    1    0    1
 -2      6690      6980      6990      6700      6691      6981      6991      6701
 -1      6104    1    0    1
 -2      6691      6981      6991      6701      6692      6982      6992      6702
 -1      6105    1    0    1
 -2      6692      6982      6992      6702      2190      2219      2220      2191
 -1      6106    1    0    1
 -2       680       709       710       681      6693      6983      6993      6703
 -1      6107    1    0    1
 -2      6693      6983      6993      6703      6694      6984      6994      6704
 -1      6108    1    0    1
 -2      6694      6984      6994      6704      6695      6985      6995      6705
 -1      6109    1    0    1
 -2      6695      6985      6995      6705      6696      6986      6996      6706
 -1      6110    1    0    1
 -2      6696      6986      6996      6706      6697      6987      6997      6707
 -1      6111    1    0    1
 -2      6697      6987      6997      6707      6698      6988      6998      6708
 -1      6112    1    0    1
 -2      6698      6988      6998      6708      6699      6989      6999      6709
 -1      6113    1    0    1
 -2      6699      6989      6999      6709      6700      6990      7000      6710
 -1      6114    1    0    1
 -2      6700      6990      7000      6710      6701      6991      7001      6711
 -1      6115    1    0    1
 -2      6701      6991      7001      6711      6702      6992      7002      6712
 -1      6116    1    0    1
 -2      6702      6992      7002      6712      2191      2220      2221      2192
 -1      6117    1    0    1
 -2       681       710       711       682      6703      6993      7003      6713
 -1      6118    1    0    1
 -2      6703      6993      7003      6713      6704      6994      7004      6714
 -1      6119    1    0    1
 -2      6704      6994      7004      6714      6705      6995      7005      6715
 -1      6120    1    0    1
 -2      6705      6995      7005      6715      6706      6996      7006      6716
 -1      6121    1    0    1
 -2      6706      6996      7006      6716      6707      6997      7007      6717
 -1      6122    1    0    1
 -2      6707      6997      7007      6717      6708      6998      7008      6718
 -1      6123    1    0    1
 -2      6708      6998      7008      6718      6709      6999      7009      6719
 -1      6124    1    0    1
 -2      6709      6999      7009      6719      6710      7000      7010      6720
 -1      6125    1    0    1
 -2      6710      7000      7010      6720      6711      7001      7011      6721
 -1      6126    1    0    1
 -2      6711      7001      7011      6721      6712      7002      7012      6722
 -1      6127    1    0    1
 -2      6712      7002      7012      6722      2192      2221      2222      2193
 -1      6128    1    0    1
 -2       682       711       712       683      6713      7003      7013      6723
 -1      6129    1    0    1
 -2      6713      7003      7013      6723      6714      7004      7014      6724
 -1      6130    1    0    1
 -2      6714      7004      7014      6724      6715      7005      7015      6725
 -1      6131    1    0    1
 -2      6715      7005      7015      6725      6716      7006      7016      6726
 -1      6132    1    0    1
 -2      6716      7006      7016      6726      6717      7007      7017      6727
 -1      6133    1    0    1
 -2      6717      7007      7017      6727      6718      7008      7018      6728
 -1      6134    1    0    1
 -2      6718      7008      7018      6728      6719      7009      7019      6729
 -1      6135    1    0    1
 -2      6719      7009      7019      6729      6720      7010      7020      6730
 -1      6136    1    0    1
 -2      6720      7010      7020      6730      6721      7011      7021      6731
 -1      6137    1    0    1
 -2      6721      7011      7021      6731      6722      7012      7022      6732
 -1      6138    1    0    1
 -2      6722      7012      7022      6732      2193      2222      2223      2194
 -1      6139    1    0    1
 -2       683       712       713       684      6723      7013      7023      6733
 -1      6140    1    0    1
 -2      6723      7013      7023      6733      6724      7014      7024      6734
 -1      6141    1    0    1
 -2      6724      7014      7024      6734      6725      7015      7025      6735
 -1      6142    1    0    1
 -2      6725      7015      7025      6735      6726      7016      7026      6736
 -1      6143    1    0    1
 -2      6726      7016      7026      6736      6727      7017      7027      6737
 -1      6144    1    0    1
 -2      6727      7017      7027      6737      6728      7018      7028      6738
 -1      6145    1    0    1
 -2      6728      7018      7028      6738      6729      7019      7029      6739
 -1      6146    1    0    1
 -2      6729      7019      7029      6739      6730      7020      7030      6740
 -1      6147    1    0    1
 -2      6730      7020      7030      6740      6731      7021      7031      6741
 -1      6148    1    0    1
 -2      6731      7021      7031      6741      6732      7022      7032      6742
 -1      6149    1    0    1
 -2      6732      7022      7032      6742      2194      2223      2224      2195
 -1      6150    1    0    1
 -2       684       713       714       685      6733      7023      7033      6743
 -1      6151    1    0    1
 -2      6733      7023      7033      6743      6734      7024      7034      6744
 -1      6152    1    0    1
 -2      6734      7024      7034      6744      6735      7025      7035      6745
 -1      6153    1    0    1
 -2      6735      7025      7035      6745      6736      7026      7036      6746
 -1      6154    1    0    1
 -2      6736      7026      7036      6746      6737      7027      7037      6747
 -1      6155    1    0    1
 -2      6737      7027      7037      6747      6738      7028      7038      6748
 -1      6156    1    0    1
 -2      6738      7028      7038      6748      6739      7029      7039      6749
 -1      6157    1    0    1
 -2      6739      7029      7039      6749      6740      7030      7040      6750
 -1      6158    1    0    1
 -2      6740      7030      7040      6750      6741      7031      7041      6751
 -1      6159    1    0    1
 -2      6741      7031      7041      6751      6742      7032      7042      6752
 -1      6160    1    0    1
 -2      6742      7032      7042      6752      2195      2224      2225      2196
 -1      6161    1    0    1
 -2       685       714       715       686      6743      7033      7043      6753
 -1      6162    1    0    1
 -2      6743      7033      7043      6753      6744      7034      7044      6754
 -1      6163    1    0    1
 -2      6744      7034      7044      6754      6745      7035      7045      6755
 -1      6164    1    0    1
 -2      6745      7035      7045      6755      6746      7036      7046      6756
 -1      6165    1    0    1
 -2      6746      7036      7046      6756      6747      7037      7047      6757
 -1      6166    1    0    1
 -2      6747      7037      7047      6757      6748      7038      7048      6758
 -1      6167    1    0    1
 -2      6748      7038      7048      6758      6749      7039      7049      6759
 -1      6168    1    0    1
 -2      6749      7039      7049      6759      6750      7040      7050      6760
 -1      6169    1    0    1
 -2      6750      7040      7050      6760      6751      7041      7051      6761
 -1      6170    1    0    1
 -2      6751      7041      7051      6761      6752      7042      7052      6762
 -1      6171    1    0    1
 -2      6752      7042      7052      6762      2196      2225      2226      2197
 -1      6172    1    0    1
 -2       686       715       716       687      6753      7043      7053      6763
 -1      6173    1    0    1
 -2      6753      7043      7053      6763      6754      7044      7054      6764
 -1      6174    1    0    1
 -2      6754      7044      7054      6764      6755      7045      7055      6765
 -1      6175    1    0    1
 -2      6755      7045      7055      6765      6756      7046      7056      6766
 -1      6176    1    0    1
 -2      6756      7046      7056      6766      6757      7047      7057      6767
 -1      6177    1    0    1
 -2      6757      7047      7057      6767      6758      7048      7058      6768
 -1      6178    1    0    1
 -2      6758      7048      7058      6768      6759      7049      7059      6769
 -1      6179    1    0    1
 -2      6759      7049      7059      6769      6760      7050      7060      6770
 -1      6180    1    0    1
 -2      6760      7050      7060      6770      6761      7051      7061      6771
 -1      6181    1    0    1
 -2      6761      7051      7061      6771      6762      7052      7062      6772
 -1      6182    1    0    1
 -2      6762      7052      7062      6772      2197      2226      2227      2198
 -1      6183    1    0    1
 -2       687       716       717       688      6763      7053      7063      6773
 -1      6184    1    0    1
 -2      6763      7053      7063      6773      6764      7054      7064      6774
 -1      6185    1    0    1
 -2      6764      7054      7064      6774      6765      7055      7065      6775
 -1      6186    1    0    1
 -2      6765      7055      7065      6775      6766      7056      7066      6776
 -1      6187    1    0    1
 -2      6766      7056      7066      6776      6767      7057      7067      6777
 -1      6188    1    0    1
 -2      6767      7057      7067      6777      6768      7058      7068      6778
 -1      6189    1    0    1
 -2      6768      7058      7068      6778      6769      7059      7069      6779
 -1      6190    1    0    1
 -2      6769      7059      7069      6779      6770      7060      7070      6780
 -1      6191    1    0    1
 -2      6770      7060      7070      6780      6771      7061      7071      6781
 -1      6192    1    0    1
 -2      6771      7061      7071      6781      6772      7062      7072      6782
 -1      6193    1    0    1
 -2      6772      7062      7072      6782      2198      2227      2228      2199
 -1      6194    1    0    1
 -2       688       717       718       689      6773      7063      7073      6783
 -1      6195    1    0    1
 -2      6773      7063      7073      6783      6774      7064      7074      6784
 -1      6196    1    0    1
 -2      6774      7064      7074      6784      6775      7065      7075      6785
 -1      6197    1    0    1
 -2      6775      7065      7075      6785      6776      7066      7076      6786
 -1      6198    1    0    1
 -2      6776      7066      7076      6786      6777      7067      7077      6787
 -1      6199    1    0    1
 -2      6777      7067      7077      6787      6778      7068      7078      6788
 -1      6200    1    0    1
 -2      6778      7068      7078      6788      6779      7069      7079      6789
 -1      6201    1    0    1
 -2      6779      7069      7079      6789      6780      7070      7080      6790
 -1      6202    1    0    1
 -2      6780      7070      7080      6790      6781      7071      7081      6791
 -1      6203    1    0    1
 -2      6781      7071      7081      6791      6782      7072      7082      6792
 -1      6204    1    0    1
 -2      6782      7072      7082      6792      2199      2228      2229      2200
 -1      6205    1    0    1
 -2       689       718       719       690      6783      7073      7083      6793
 -1      6206    1    0    1
 -2      6783      7073      7083      6793      6784      7074      7084      6794
 -1      6207    1    0    1
 -2      6784      7074      7084      6794      6785      7075      7085      6795
 -1      6208    1    0    1
 -2      6785      7075      7085      6795      6786      7076      7086      6796
 -1      6209    1    0    1
 -2      6786      7076      7086      6796      6787      7077      7087      6797
 -1      6210    1    0    1
 -2      6787      7077      7087      6797      6788      7078      7088      6798
 -1      6211    1    0    1
 -2      6788      7078      7088      6798      6789      7079      7089      6799
 -1      6212    1    0    1
 -2      6789      7079      7089      6799      6790      7080      7090      6800
 -1      6213    1    0    1
 -2      6790      7080      7090      6800      6791      7081      7091      6801
 -1      6214    1    0    1
 -2      6791      7081      7091      6801      6792      7082      7092      6802
 -1      6215    1    0    1
 -2      6792      7082      7092      6802      2200      2229      2230      2201
 -1      6216    1    0    1
 -2       690       719       720       691      6793      7083      7093      6803
 -1      6217    1    0    1
 -2      6793      7083      7093      6803      6794      7084      7094      6804
 -1      6218    1    0    1
 -2      6794      7084      7094      6804      6795      7085      7095      6805
 -1      6219    1    0    1
 -2      6795      7085      7095      6805      6796      7086      7096      6806
 -1      6220    1    0    1
 -2      6796      7086      7096      6806      6797      7087      7097      6807
 -1      6221    1    0    1
 -2      6797      7087      7097      6807      6798      7088      7098      6808
 -1      6222    1    0    1
 -2      6798      7088      7098      6808      6799      7089      7099      6809
 -1      6223    1    0    1
 -2      6799      7089      7099      6809      6800      7090      7100      6810
 -1      6224    1    0    1
 -2      6800      7090      7100      6810      6801      7091      7101      6811
 -1      6225    1    0    1
 -2      6801      7091      7101      6811      6802      7092      7102      6812
 -1      6226    1    0    1
 -2      6802      7092      7102      6812      2201      2230      2231      2202
 -1      6227    1    0    1
 -2       691       720       721       692      6803      7093      7103      6813
 -1      6228    1    0    1
 -2      6803      7093      7103      6813      6804      7094      7104      6814
 -1      6229    1    0    1
 -2      6804      7094      7104      6814      6805      7095      7105      6815
 -1      6230    1    0    1
 -2      6805      7095      7105      6815      6806      7096      7106      6816
 -1      6231    1    0    1
 -2      6806      7096      7106      6816      6807      7097      7107      6817
 -1      6232    1    0    1
 -2      6807      7097      7107      6817      6808      7098      7108      6818
 -1      6233    1    0    1
 -2      6808      7098      7108      6818      6809      7099      7109      6819
 -1      6234    1    0    1
 -2      6809      7099      7109      6819      6810      7100      7110      6820
 -1      6235    1    0    1
 -2      6810      7100      7110      6820      6811      7101      7111      6821
 -1      6236    1    0    1
 -2      6811      7101      7111      6821      6812      7102      7112      6822
 -1      6237    1    0    1
 -2      6812      7102      7112      6822      2202      2231      2232      2203
 -1      6238    1    0    1
 -2       692       721       722       693      6813      7103      7113      6823
 -1      6239    1    0    1
 -2      6813      7103      7113      6823      6814      7104      7114      6824
 -1      6240    1    0    1
 -2      6814      7104      7114      6824      6815      7105      7115      6825
 -1      6241    1    0    1
 -2      6815      7105      7115      6825      6816      7106      7116      6826
 -1      6242    1    0    1
 -2      6816      7106      7116      6826      6817      7107      7117      6827
 -1      6243    1    0    1
 -2      6817      7107      7117      6827      6818      7108      7118      6828
 -1      6244    1    0    1
 -2      6818      7108      7118      6828      6819      7109      7119      6829
 -1      6245    1    0    1
 -2      6819      7109      7119      6829      6820      7110      7120      6830
 -1      6246    1    0    1
 -2      6820      7110      7120      6830      6821      7111      7121      6831
 -1      6247    1    0    1
 -2      6821      7111      7121      6831      6822      7112      7122      6832
 -1      6248    1    0    1
 -2      6822      7112      7122      6832      2203      2232      2233      2204
 -1      6249    1    0    1
 -2       693       722       723       694      6823      7113      7123      6833
 -1      6250    1    0    1
 -2      6823      7113      7123      6833      6824      7114      7124      6834
 -1      6251    1    0    1
 -2      6824      7114      7124      6834      6825      7115      7125      6835
 -1      6252    1    0    1
 -2      6825      7115      7125      6835      6826      7116      7126      6836
 -1      6253    1    0    1
 -2      6826      7116      7126      6836      6827      7117      7127      6837
 -1      6254    1    0    1
 -2      6827      7117      7127      6837      6828      7118      7128      6838
 -1      6255    1    0    1
 -2      6828      7118      7128      6838      6829      7119      7129      6839
 -1      6256    1    0    1
 -2      6829      7119      7129      6839      6830      7120      7130      6840
 -1      6257    1    0    1
 -2      6830      7120      7130      6840      6831      7121      7131      6841
 -1      6258    1    0    1
 -2      6831      7121      7131      6841      6832      7122      7132      6842
 -1      6259    1    0    1
 -2      6832      7122      7132      6842      2204      2233      2234      2205
 -1      6260    1    0    1
 -2       694       723       724       695      6833      7123      7133      6843
 -1      6261    1    0    1
 -2      6833      7123      7133      6843      6834      7124      7134      6844
 -1      6262    1    0    1
 -2      6834      7124      7134      6844      6835      7125      7135      6845
 -1      6263    1    0    1
 -2      6835      7125      7135      6845      6836      7126      7136      6846
 -1      6264    1    0    1
 -2      6836      7126      7136      6846      6837      7127      7137      6847
 -1      6265    1    0    1
 -2      6837      7127      7137      6847      6838      7128      7138      6848
 -1      6266    1    0    1
 -2      6838      7128      7138      6848      6839      7129      7139      6849
 -1      6267    1    0    1
 -2      6839      7129      7139      6849      6840      7130      7140      6850
 -1      6268    1    0    1
 -2      6840      7130      7140      6850      6841      7131      7141      6851
 -1      6269    1    0    1
 -2      6841      7131      7141      6851      6842      7132      7142      6852
 -1      6270    1    0    1
 -2      6842      7132      7142      6852      2205      2234      2235      2206
 -1      6271    1    0    1
 -2       695       724       725       696      6843      7133      7143      6853
 -1      6272    1    0    1
 -2      6843      7133      7143      6853      6844      7134      7144      6854
 -1      6273    1    0    1
 -2      6844      7134      7144      6854      6845      7135      7145      6855
 -1      6274    1    0    1
 -2      6845      7135      7145      6855      6846      7136      7146      6856
 -1      6275    1    0    1
 -2      6846      7136      7146      6856      6847      7137      7147      6857
 -1      6276    1    0    1
 -2      6847      7137      7147      6857      6848      7138      7148      6858
 -1      6277    1    0    1
 -2      6848      7138      7148      6858      6849      7139      7149      6859
 -1      6278    1    0    1
 -2      6849      7139      7149      6859      6850      7140      7150      6860
 -1      6279    1    0    1
 -2      6850      7140      7150      6860      6851      7141      7151      6861
 -1      6280    1    0    1
 -2      6851      7141      7151      6861      6852      7142      7152      6862
 -1      6281    1    0    1
 -2      6852      7142      7152      6862      2206      2235      2236      2207
 -1      6282    1    0    1
 -2       696       725       726       697      6853      7143      7153      6863
 -1      6283    1    0    1
 -2      6853      7143      7153      6863      6854      7144      7154      6864
 -1      6284    1    0    1
 -2      6854      7144      7154      6864      6855      7145      7155      6865
 -1      6285    1    0    1
 -2      6855      7145      7155      6865      6856      7146      7156      6866
 -1      6286    1    0    1
 -2      6856      7146      7156      6866      6857      7147      7157      6867
 -1      6287    1    0    1
 -2      6857      7147      7157      6867      6858      7148      7158      6868
 -1      6288    1    0    1
 -2      6858      7148      7158      6868      6859      7149      7159      6869
 -1      6289    1    0    1
 -2      6859      7149      7159      6869      6860      7150      7160      6870
 -1      6290    1    0    1
 -2      6860      7150      7160      6870      6861      7151      7161      6871
 -1      6291    1    0    1
 -2      6861      7151      7161      6871      6862      7152      7162      6872
 -1      6292    1    0    1
 -2      6862      7152      7162      6872      2207      2236      2237      2208
 -1      6293    1    0    1
 -2       697       726       727       698      6863      7153      7163      6873
 -1      6294    1    0    1
 -2      6863      7153      7163      6873      6864      7154      7164      6874
 -1      6295    1    0    1
 -2      6864      7154      7164      6874      6865      7155      7165      6875
 -1      6296    1    0    1
 -2      6865      7155      7165      6875      6866      7156      7166      6876
 -1      6297    1    0    1
 -2      6866      7156      7166      6876      6867      7157      7167      6877
 -1      6298    1    0    1
 -2      6867      7157      7167      6877      6868      7158      7168      6878
 -1      6299    1    0    1
 -2      6868      7158      7168      6878      6869      7159      7169      6879
 -1      6300    1    0    1
 -2      6869      7159      7169      6879      6870      7160      7170      6880
 -1      6301    1    0    1
 -2      6870      7160      7170      6880      6871      7161      7171      6881
 -1      6302    1    0    1
 -2      6871      7161      7171      6881      6872      7162      7172      6882
 -1      6303    1    0    1
 -2      6872      7162      7172      6882      2208      2237      2238      2209
 -1      6304    1    0    1
 -2       698       727       728       699      6873      7163      7173      6883
 -1      6305    1    0    1
 -2      6873      7163      7173      6883      6874      7164      7174      6884
 -1      6306    1    0    1
 -2      6874      7164      7174      6884      6875      7165      7175      6885
 -1      6307    1    0    1
 -2      6875      7165      7175      6885      6876      7166      7176      6886
 -1      6308    1    0    1
 -2      6876      7166      7176      6886      6877      7167      7177      6887
 -1      6309    1    0    1
 -2      6877      7167      7177      6887      6878      7168      7178      6888
 -1      6310    1    0    1
 -2      6878      7168      7178      6888      6879      7169      7179      6889
 -1      6311    1    0    1
 -2      6879      7169      7179      6889      6880      7170      7180      6890
 -1      6312    1    0    1
 -2      6880      7170      7180      6890      6881      7171      7181      6891
 -1      6313    1    0    1
 -2      6881      7171      7181      6891      6882      7172      7182      6892
 -1      6314    1    0    1
 -2      6882      7172      7182      6892      2209      2238      2239      2210
 -1      6315    1    0    1
 -2       699       728       729       700      6883      7173      7183      6893
 -1      6316    1    0    1
 -2      6883      7173      7183      6893      6884      7174      7184      6894
 -1      6317    1    0    1
 -2      6884      7174      7184      6894      6885      7175      7185      6895
 -1      6318    1    0    1
 -2      6885      7175      7185      6895      6886      7176      7186      6896
 -1      6319    1    0    1
 -2      6886      7176      7186      6896      6887      7177      7187      6897
 -1      6320    1    0    1
 -2      6887      7177      7187      6897      6888      7178      7188      6898
 -1      6321    1    0    1
 -2      6888      7178      7188      6898      6889      7179      7189      6899
 -1      6322    1    0    1
 -2      6889      7179      7189      6899      6890      7180      7190      6900
 -1      6323    1    0    1
 -2      6890      7180      7190      6900      6891      7181      7191      6901
 -1      6324    1    0    1
 -2      6891      7181      7191      6901      6892      7182      7192      6902
 -1      6325    1    0    1
 -2      6892      7182      7192      6902      2210      2239      2240      2211
 -1      6326    1    0    1
 -2       700       729       730       701      6893      7183      7193      6903
 -1      6327    1    0    1
 -2      6893      7183      7193      6903      6894      7184      7194      6904
 -1      6328    1    0    1
 -2      6894      7184      7194      6904      6895      7185      7195      6905
 -1      6329    1    0    1
 -2      6895      7185      7195      6905      6896      7186      7196      6906
 -1      6330    1    0    1
 -2      6896      7186      7196      6906      6897      7187      7197      6907
 -1      6331    1    0    1
 -2      6897      7187      7197      6907      6898      7188      7198      6908
 -1      6332    1    0    1
 -2      6898      7188      7198      6908      6899      7189      7199      6909
 -1      6333    1    0    1
 -2      6899      7189      7199      6909      6900      7190      7200      6910
 -1      6334    1    0    1
 -2      6900      7190      7200      6910      6901      7191      7201      6911
 -1      6335    1    0    1
 -2      6901      7191      7201      6911      6902      7192      7202      6912
 -1      6336    1    0    1
 -2      6902      7192      7202      6912      2211      2240      2241      2212
 -1      6337    1    0    1
 -2       701       730       731       702      6903      7193      7203      6913
 -1      6338    1    0    1
 -2      6903      7193      7203      6913      6904      7194      7204      6914
 -1      6339    1    0    1
 -2      6904      7194      7204      6914      6905      7195      7205      6915
 -1      6340    1    0    1
 -2      6905      7195      7205      6915      6906      7196      7206      6916
 -1      6341    1    0    1
 -2      6906      7196      7206      6916      6907      7197      7207      6917
 -1      6342    1    0    1
 -2      6907      7197      7207      6917      6908      7198      7208      6918
 -1      6343    1    0    1
 -2      6908      7198      7208      6918      6909      7199      7209      6919
 -1      6344    1    0    1
 -2      6909      7199      7209      6919      6910      7200      7210      6920
 -1      6345    1    0    1
 -2      6910      7200      7210      6920      6911      7201      7211      6921
 -1      6346    1    0    1
 -2      6911      7201      7211      6921      6912      7202      7212      6922
 -1      6347    1    0    1
 -2      6912      7202      7212      6922      2212      2241      2242      2213
 -1      6348    1    0    1
 -2       702       731       732       703      6913      7203      7213      6923
 -1      6349    1    0    1
 -2      6913      7203      7213      6923      6914      7204      7214      6924
 -1      6350    1    0    1
 -2      6914      7204      7214      6924      6915      7205      7215      6925
 -1      6351    1    0    1
 -2      6915      7205      7215      6925      6916      7206      7216      6926
 -1      6352    1    0    1
 -2      6916      7206      7216      6926      6917      7207      7217      6927
 -1      6353    1    0    1
 -2      6917      7207      7217      6927      6918      7208      7218      6928
 -1      6354    1    0    1
 -2      6918      7208      7218      6928      6919      7209      7219      6929
 -1      6355    1    0    1
 -2      6919      7209      7219      6929      6920      7210      7220      6930
 -1      6356    1    0    1
 -2      6920      7210      7220      6930      6921      7211      7221      6931
 -1      6357    1    0    1
 -2      6921      7211      7221      6931      6922      7212      7222      6932
 -1      6358    1    0    1
 -2      6922      7212      7222      6932      2213      2242      2243      2214
 -1      6359    1    0    1
 -2       703       732       733       704      6923      7213      7223      6933
 -1      6360    1    0    1
 -2      6923      7213      7223      6933      6924      7214      7224      6934
 -1      6361    1    0    1
 -2      6924      7214      7224      6934      6925      7215      7225      6935
 -1      6362    1    0    1
 -2      6925      7215      7225      6935      6926      7216      7226      6936
 -1      6363    1    0    1
 -2      6926      7216      7226      6936      6927      7217      7227      6937
 -1      6364    1    0    1
 -2      6927      7217      7227      6937      6928      7218      7228      6938
 -1      6365    1    0    1
 -2      6928      7218      7228      6938      6929      7219      7229      6939
 -1      6366    1    0    1
 -2      6929      7219      7229      6939      6930      7220      7230      6940
 -1      6367    1    0    1
 -2      6930      7220      7230      6940      6931      7221      7231      6941
 -1      6368    1    0    1
 -2      6931      7221      7231      6941      6932      7222      7232      6942
 -1      6369    1    0    1
 -2      6932      7222      7232      6942      2214      2243      2244      2215
 -1      6370    1    0    1
 -2       704       733        59        60      6933      7223      1292      1302
 -1      6371    1    0    1
 -2      6933      7223      1292      1302      6934      7224      1293      1303
 -1      6372    1    0    1
 -2      6934      7224      1293      1303      6935      7225      1294      1304
 -1      6373    1    0    1
 -2      6935      7225      1294      1304      6936      7226      1295      1305
 -1      6374    1    0    1
 -2      6936      7226      1295      1305      6937      7227      1296      1306
 -1      6375    1    0    1
 -2      6937      7227      1296      1306      6938      7228      1297      1307
 -1      6376    1    0    1
 -2      6938      7228      1297      1307      6939      7229      1298      1308
 -1      6377    1    0    1
 -2      6939      7229      1298      1308      6940      7230      1299      1309
 -1      6378    1    0    1
 -2      6940      7230      1299      1309      6941      7231      1300      1310
 -1      6379    1    0    1
 -2      6941      7231      1300      1310      6942      7232      1301      1311
 -1      6380    1    0    1
 -2      6942      7232      1301      1311      2215      2244       155       156
 -1      6381    1    0    1
 -2        25        26       734       705       952       962      7233      6943
 -1      6382    1    0    1
 -2       952       962      7233      6943       953       963      7234      6944
 -1      6383    1    0    1
 -2       953       963      7234      6944       954       964      7235      6945
 -1      6384    1    0    1
 -2       954       964      7235      6945       955       965      7236      6946
 -1      6385    1    0    1
 -2       955       965      7236      6946       956       966      7237      6947
 -1      6386    1    0    1
 -2       956       966      7237      6947       957       967      7238      6948
 -1      6387    1    0    1
 -2       957       967      7238      6948       958       968      7239      6949
 -1      6388    1    0    1
 -2       958       968      7239      6949       959       969      7240      6950
 -1      6389    1    0    1
 -2       959       969      7240      6950       960       970      7241      6951
 -1      6390    1    0    1
 -2       960       970      7241      6951       961       971      7242      6952
 -1      6391    1    0    1
 -2       961       971      7242      6952       121       122      2245      2216
 -1      6392    1    0    1
 -2       705       734       735       706      6943      7233      7243      6953
 -1      6393    1    0    1
 -2      6943      7233      7243      6953      6944      7234      7244      6954
 -1      6394    1    0    1
 -2      6944      7234      7244      6954      6945      7235      7245      6955
 -1      6395    1    0    1
 -2      6945      7235      7245      6955      6946      7236      7246      6956
 -1      6396    1    0    1
 -2      6946      7236      7246      6956      6947      7237      7247      6957
 -1      6397    1    0    1
 -2      6947      7237      7247      6957      6948      7238      7248      6958
 -1      6398    1    0    1
 -2      6948      7238      7248      6958      6949      7239      7249      6959
 -1      6399    1    0    1
 -2      6949      7239      7249      6959      6950      7240      7250      6960
 -1      6400    1    0    1
 -2      6950      7240      7250      6960      6951      7241      7251      6961
 -1      6401    1    0    1
 -2      6951      7241      7251      6961      6952      7242      7252      6962
 -1      6402    1    0    1
 -2      6952      7242      7252      6962      2216      2245      2246      2217
 -1      6403    1    0    1
 -2       706       735       736       707      6953      7243      7253      6963
 -1      6404    1    0    1
 -2      6953      7243      7253      6963      6954      7244      7254      6964
 -1      6405    1    0    1
 -2      6954      7244      7254      6964      6955      7245      7255      6965
 -1      6406    1    0    1
 -2      6955      7245      7255      6965      6956      7246      7256      6966
 -1      6407    1    0    1
 -2      6956      7246      7256      6966      6957      7247      7257      6967
 -1      6408    1    0    1
 -2      6957      7247      7257      6967      6958      7248      7258      6968
 -1      6409    1    0    1
 -2      6958      7248      7258      6968      6959      7249      7259      6969
 -1      6410    1    0    1
 -2      6959      7249      7259      6969      6960      7250      7260      6970
 -1      6411    1    0    1
 -2      6960      7250      7260      6970      6961      7251      7261      6971
 -1      6412    1    0    1
 -2      6961      7251      7261      6971      6962      7252      7262      6972
 -1      6413    1    0    1
 -2      6962      7252      7262      6972      2217      2246      2247      2218
 -1      6414    1    0    1
 -2       707       736       737       708      6963      7253      7263      6973
 -1      6415    1    0    1
 -2      6963      7253      7263      6973      6964      7254      7264      6974
 -1      6416    1    0    1
 -2      6964      7254      7264      6974      6965      7255      7265      6975
 -1      6417    1    0    1
 -2      6965      7255      7265      6975      6966      7256      7266      6976
 -1      6418    1    0    1
 -2      6966      7256      7266      6976      6967      7257      7267      6977
 -1      6419    1    0    1
 -2      6967      7257      7267      6977      6968      7258      7268      6978
 -1      6420    1    0    1
 -2      6968      7258      7268      6978      6969      7259      7269      6979
 -1      6421    1    0    1
 -2      6969      7259      7269      6979      6970      7260      7270      6980
 -1      6422    1    0    1
 -2      6970      7260      7270      6980      6971      7261      7271      6981
 -1      6423    1    0    1
 -2      6971      7261      7271      6981      6972      7262      7272      6982
 -1      6424    1    0    1
 -2      6972      7262      7272      6982      2218      2247      2248      2219
 -1      6425    1    0    1
 -2       708       737       738       709      6973      7263      7273      6983
 -1      6426    1    0    1
 -2      6973      7263      7273      6983      6974      7264      7274      6984
 -1      6427    1    0    1
 -2      6974      7264      7274      6984      6975      7265      7275      6985
 -1      6428    1    0    1
 -2      6975      7265      7275      6985      6976      7266      7276      6986
 -1      6429    1    0    1
 -2      6976      7266      7276      6986      6977      7267      7277      6987
 -1      6430    1    0    1
 -2      6977      7267      7277      6987      6978      7268      7278      6988
 -1      6431    1    0    1
 -2      6978      7268      7278      6988      6979      7269      7279      6989
 -1      6432    1    0    1
 -2      6979      7269      7279      6989      6980      7270      7280      6990
 -1      6433    1    0    1
 -2      6980      7270      7280      6990      6981      7271      7281      6991
 -1      6434    1    0    1
 -2      6981      7271      7281      6991      6982      7272      7282      6992
 -1      6435    1    0    1
 -2      6982      7272      7282      6992      2219      2248      2249      2220
 -1      6436    1    0    1
 -2       709       738       739       710      6983      7273      7283      6993
 -1      6437    1    0    1
 -2      6983      7273      7283      6993      6984      7274      7284      6994
 -1      6438    1    0    1
 -2      6984      7274      7284      6994      6985      7275      7285      6995
 -1      6439    1    0    1
 -2      6985      7275      7285      6995      6986      7276      7286      6996
 -1      6440    1    0    1
 -2      6986      7276      7286      6996      6987      7277      7287      6997
 -1      6441    1    0    1
 -2      6987      7277      7287      6997      6988      7278      7288      6998
 -1      6442    1    0    1
 -2      6988      7278      7288      6998      6989      7279      7289      6999
 -1      6443    1    0    1
 -2      6989      7279      7289      6999      6990      7280      7290      7000
 -1      6444    1    0    1
 -2      6990      7280      7290      7000      6991      7281      7291      7001
 -1      6445    1    0    1
 -2      6991      7281      7291      7001      6992      7282      7292      7002
 -1      6446    1    0    1
 -2      6992      7282      7292      7002      2220      2249      2250      2221
 -1      6447    1    0    1
 -2       710       739       740       711      6993      7283      7293      7003
 -1      6448    1    0    1
 -2      6993      7283      7293      7003      6994      7284      7294      7004
 -1      6449    1    0    1
 -2      6994      7284      7294      7004      6995      7285      7295      7005
 -1      6450    1    0    1
 -2      6995      7285      7295      7005      6996      7286      7296      7006
 -1      6451    1    0    1
 -2      6996      7286      7296      7006      6997      7287      7297      7007
 -1      6452    1    0    1
 -2      6997      7287      7297      7007      6998      7288      7298      7008
 -1      6453    1    0    1
 -2      6998      7288      7298      7008      6999      7289      7299      7009
 -1      6454    1    0    1
 -2      6999      7289      7299      7009      7000      7290      7300      7010
 -1      6455    1    0    1
 -2      7000      7290      7300      7010      7001      7291      7301      7011
 -1      6456    1    0    1
 -2      7001      7291      7301      7011      7002      7292      7302      7012
 -1      6457    1    0    1
 -2      7002      7292      7302      7012      2221      2250      2251      2222
 -1      6458    1    0    1
 -2       711       740       741       712      7003      7293      7303      7013
 -1      6459    1    0    1
 -2      7003      7293      7303      7013      7004      7294      7304      7014
 -1      6460    1    0    1
 -2      7004      7294      7304      7014      7005      7295      7305      7015
 -1      6461    1    0    1
 -2      7005      7295      7305      7015      7006      7296      7306      7016
 -1      6462    1    0    1
 -2      7006      7296      7306      7016      7007      7297      7307      7017
 -1      6463    1    0    1
 -2      7007      7297      7307      7017      7008      7298      7308      7018
 -1      6464    1    0    1
 -2      7008      7298      7308      7018      7009      7299      7309      7019
 -1      6465    1    0    1
 -2      7009      7299      7309      7019      7010      7300      7310      7020
 -1      6466    1    0    1
 -2      7010      7300      7310      7020      7011      7301      7311      7021
 -1      6467    1    0    1
 -2      7011      7301      7311      7021      7012      7302      7312      7022
 -1      6468    1    0    1
 -2      7012      7302      7312      7022      2222      2251      2252      2223
 -1      6469    1    0    1
 -2       712       741       742       713      7013      7303      7313      7023
 -1      6470    1    0    1
 -2      7013      7303      7313      7023      7014      7304      7314      7024
 -1      6471    1    0    1
 -2      7014      7304      7314      7024      7015      7305      7315      7025
 -1      6472    1    0    1
 -2      7015      7305      7315      7025      7016      7306      7316      7026
 -1      6473    1    0    1
 -2      7016      7306      7316      7026      7017      7307      7317      7027
 -1      6474    1    0    1
 -2      7017      7307      7317      7027      7018      7308      7318      7028
 -1      6475    1    0    1
 -2      7018      7308      7318      7028      7019      7309      7319      7029
 -1      6476    1    0    1
 -2      7019      7309      7319      7029      7020      7310      7320      7030
 -1      6477    1    0    1
 -2      7020      7310      7320      7030      7021      7311      7321      7031
 -1      6478    1    0    1
 -2      7021      7311      7321      7031      7022      7312      7322      7032
 -1      6479    1    0    1
 -2      7022      7312      7322      7032      2223      2252      2253      2224
 -1      6480    1    0    1
 -2       713       742       743       714      7023      7313      7323      7033
 -1      6481    1    0    1
 -2      7023      7313      7323      7033      7024      7314      7324      7034
 -1      6482    1    0    1
 -2      7024      7314      7324      7034      7025      7315      7325      7035
 -1      6483    1    0    1
 -2      7025      7315      7325      7035      7026      7316      7326      7036
 -1      6484    1    0    1
 -2      7026      7316      7326      7036      7027      7317      7327      7037
 -1      6485    1    0    1
 -2      7027      7317      7327      7037      7028      7318      7328      7038
 -1      6486    1    0    1
 -2      7028      7318      7328      7038      7029      7319      7329      7039
 -1      6487    1    0    1
 -2      7029      7319      7329      7039      7030      7320      7330      7040
 -1      6488    1    0    1
 -2      7030      7320      7330      7040      7031      7321      7331      7041
 -1      6489    1    0    1
 -2      7031      7321      7331      7041      7032      7322      7332      7042
 -1      6490    1    0    1
 -2      7032      7322      7332      7042      2224      2253      2254      2225
 -1      6491    1    0    1
 -2       714       743       744       715      7033      7323      7333      7043
 -1      6492    1    0    1
 -2      7033      7323      7333      7043      7034      7324      7334      7044
 -1      6493    1    0    1
 -2      7034      7324      7334      7044      7035      7325      7335      7045
 -1      6494    1    0    1
 -2      7035      7325      7335      7045      7036      7326      7336      7046
 -1      6495    1    0    1
 -2      7036      7326      7336      7046      7037      7327      7337      7047
 -1      6496    1    0    1
 -2      7037      7327      7337      7047      7038      7328      7338      7048
 -1      6497    1    0    1
 -2      7038      7328      7338      7048      7039      7329      7339      7049
 -1      6498    1    0    1
 -2      7039      7329      7339      7049      7040      7330      7340      7050
 -1      6499    1    0    1
 -2      7040      7330      7340      7050      7041      7331      7341      7051
 -1      6500    1    0    1
 -2      7041      7331      7341      7051      7042      7332      7342      7052
 -1      6501    1    0    1
 -2      7042      7332      7342      7052      2225      2254      2255      2226
 -1      6502    1    0    1
 -2       715       744       745       716      7043      7333      7343      7053
 -1      6503    1    0    1
 -2      7043      7333      7343      7053      7044      7334      7344      7054
 -1      6504    1    0    1
 -2      7044      7334      7344      7054      7045      7335      7345      7055
 -1      6505    1    0    1
 -2      7045      7335      7345      7055      7046      7336      7346      7056
 -1      6506    1    0    1
 -2      7046      7336      7346      7056      7047      7337      7347      7057
 -1      6507    1    0    1
 -2      7047      7337      7347      7057      7048      7338      7348      7058
 -1      6508    1    0    1
 -2      7048      7338      7348      7058      7049      7339      7349      7059
 -1      6509    1    0    1
 -2      7049      7339      7349      7059      7050      7340      7350      7060
 -1      6510    1    0    1
 -2      7050      7340      7350      7060      7051      7341      7351      7061
 -1      6511    1    0    1
 -2      7051      7341      7351      7061      7052      7342      7352      7062
 -1      6512    1    0    1
 -2      7052      7342      7352      7062      2226      2255      2256      2227
 -1      6513    1    0    1
 -2       716       745       746       717      7053      7343      7353      7063
 -1      6514    1    0    1
 -2      7053      7343      7353      7063      7054      7344      7354      7064
 -1      6515    1    0    1
 -2      7054      7344      7354      7064      7055      7345      7355      7065
 -1      6516    1    0    1
 -2      7055      7345      7355      7065      7056      7346      7356      7066
 -1      6517    1    0    1
 -2      7056      7346      7356      7066      7057      7347      7357      7067
 -1      6518    1    0    1
 -2      7057      7347      7357      7067      7058      7348      7358      7068
 -1      6519    1    0    1
 -2      7058      7348      7358      7068      7059      7349      7359      7069
 -1      6520    1    0    1
 -2      7059      7349      7359      7069      7060      7350      7360      7070
 -1      6521    1    0    1
 -2      7060      7350      7360      7070      7061      7351      7361      7071
 -1      6522    1    0    1
 -2      7061      7351      7361      7071      7062      7352      7362      7072
 -1      6523    1    0    1
 -2      7062      7352      7362      7072      2227      2256      2257      2228
 -1      6524    1    0    1
 -2       717       746       747       718      7063      7353      7363      7073
 -1      6525    1    0    1
 -2      7063      7353      7363      7073      7064      7354      7364      7074
 -1      6526    1    0    1
 -2      7064      7354      7364      7074      7065      7355      7365      7075
 -1      6527    1    0    1
 -2      7065      7355      7365      7075      7066      7356      7366      7076
 -1      6528    1    0    1
 -2      7066      7356      7366      7076      7067      7357      7367      7077
 -1      6529    1    0    1
 -2      7067      7357      7367      7077      7068      7358      7368      7078
 -1      6530    1    0    1
 -2      7068      7358      7368      7078      7069      7359      7369      7079
 -1      6531    1    0    1
 -2      7069      7359      7369      7079      7070      7360      7370      7080
 -1      6532    1    0    1
 -2      7070      7360      7370      7080      7071      7361      7371      7081
 -1      6533    1    0    1
 -2      7071      7361      7371      7081      7072      7362      7372      7082
 -1      6534    1    0    1
 -2      7072      7362      7372      7082      2228      2257      2258      2229
 -1      6535    1    0    1
 -2       718       747       748       719      7073      7363      7373      7083
 -1      6536    1    0    1
 -2      7073      7363      7373      7083      7074      7364      7374      7084
 -1      6537    1    0    1
 -2      7074      7364      7374      7084      7075      7365      7375      7085
 -1      6538    1    0    1
 -2      7075      7365      7375      7085      7076      7366      7376      7086
 -1      6539    1    0    1
 -2      7076      7366      7376      7086      7077      7367      7377      7087
 -1      6540    1    0    1
 -2      7077      7367      7377      7087      7078      7368      7378      7088
 -1      6541    1    0    1
 -2      7078      7368      7378      7088      7079      7369      7379      7089
 -1      6542    1    0    1
 -2      7079      7369      7379      7089      7080      7370      7380      7090
 -1      6543    1    0    1
 -2      7080      7370      7380      7090      7081      7371      7381      7091
 -1      6544    1    0    1
 -2      7081      7371      7381      7091      7082      7372      7382      7092
 -1      6545    1    0    1
 -2      7082      7372      7382      7092      2229      2258      2259      2230
 -1      6546    1    0    1
 -2       719       748       749       720      7083      7373      7383      7093
 -1      6547    1    0    1
 -2      7083      7373      7383      7093      7084      7374      7384      7094
 -1      6548    1    0    1
 -2      7084      7374      7384      7094      7085      7375      7385      7095
 -1      6549    1    0    1
 -2      7085      7375      7385      7095      7086      7376      7386      7096
 -1      6550    1    0    1
 -2      7086      7376      7386      7096      7087      7377      7387      7097
 -1      6551    1    0    1
 -2      7087      7377      7387      7097      7088      7378      7388      7098
 -1      6552    1    0    1
 -2      7088      7378      7388      7098      7089      7379      7389      7099
 -1      6553    1    0    1
 -2      7089      7379      7389      7099      7090      7380      7390      7100
 -1      6554    1    0    1
 -2      7090      7380      7390      7100      7091      7381      7391      7101
 -1      6555    1    0    1
 -2      7091      7381      7391      7101      7092      7382      7392      7102
 -1      6556    1    0    1
 -2      7092      7382      7392      7102      2230      2259      2260      2231
 -1      6557    1    0    1
 -2       720       749       750       721      7093      7383      7393      7103
 -1      6558    1    0    1
 -2      7093      7383      7393      7103      7094      7384      7394      7104
 -1      6559    1    0    1
 -2      7094      7384      7394      7104      7095      7385      7395      7105
 -1      6560    1    0    1
 -2      7095      7385      7395      7105      7096      7386      7396      7106
 -1      6561    1    0    1
 -2      7096      7386      7396      7106      7097      7387      7397      7107
 -1      6562    1    0    1
 -2      7097      7387      7397      7107      7098      7388      7398      7108
 -1      6563    1    0    1
 -2      7098      7388      7398      7108      7099      7389      7399      7109
 -1      6564    1    0    1
 -2      7099      7389      7399      7109      7100      7390      7400      7110
 -1      6565    1    0    1
 -2      7100      7390      7400      7110      7101      7391      7401      7111
 -1      6566    1    0    1
 -2      7101      7391      7401      7111      7102      7392      7402      7112
 -1      6567    1    0    1
 -2      7102      7392      7402      7112      2231      2260      2261      2232
 -1      6568    1    0    1
 -2       721       750       751       722      7103      7393      7403      7113
 -1      6569    1    0    1
 -2      7103      7393      7403      7113      7104      7394      7404      7114
 -1      6570    1    0    1
 -2      7104      7394      7404      7114      7105      7395      7405      7115
 -1      6571    1    0    1
 -2      7105      7395      7405      7115      7106      7396      7406      7116
 -1      6572    1    0    1
 -2      7106      7396      7406      7116      7107      7397      7407      7117
 -1      6573    1    0    1
 -2      7107      7397      7407      7117      7108      7398      7408      7118
 -1      6574    1    0    1
 -2      7108      7398      7408      7118      7109      7399      7409      7119
 -1      6575    1    0    1
 -2      7109      7399      7409      7119      7110      7400      7410      7120
 -1      6576    1    0    1
 -2      7110      7400      7410      7120      7111      7401      7411      7121
 -1      6577    1    0    1
 -2      7111      7401      7411      7121      7112      7402      7412      7122
 -1      6578    1    0    1
 -2      7112      7402      7412      7122      2232      2261      2262      2233
 -1      6579    1    0    1
 -2       722       751       752       723      7113      7403      7413      7123
 -1      6580    1    0    1
 -2      7113      7403      7413      7123      7114      7404      7414      7124
 -1      6581    1    0    1
 -2      7114      7404      7414      7124      7115      7405      7415      7125
 -1      6582    1    0    1
 -2      7115      7405      7415      7125      7116      7406      7416      7126
 -1      6583    1    0    1
 -2      7116      7406      7416      7126      7117      7407      7417      7127
 -1      6584    1    0    1
 -2      7117      7407      7417      7127      7118      7408      7418      7128
 -1      6585    1    0    1
 -2      7118      7408      7418      7128      7119      7409      7419      7129
 -1      6586    1    0    1
 -2      7119      7409      7419      7129      7120      7410      7420      7130
 -1      6587    1    0    1
 -2      7120      7410      7420      7130      7121      7411      7421      7131
 -1      6588    1    0    1
 -2      7121      7411      7421      7131      7122      7412      7422      7132
 -1      6589    1    0    1
 -2      7122      7412      7422      7132      2233      2262      2263      2234
 -1      6590    1    0    1
 -2       723       752       753       724      7123      7413      7423      7133
 -1      6591    1    0    1
 -2      7123      7413      7423      7133      7124      7414      7424      7134
 -1      6592    1    0    1
 -2      7124      7414      7424      7134      7125      7415      7425      7135
 -1      6593    1    0    1
 -2      7125      7415      7425      7135      7126      7416      7426      7136
 -1      6594    1    0    1
 -2      7126      7416      7426      7136      7127      7417      7427      7137
 -1      6595    1    0    1
 -2      7127      7417      7427      7137      7128      7418      7428      7138
 -1      6596    1    0    1
 -2      7128      7418      7428      7138      7129      7419      7429      7139
 -1      6597    1    0    1
 -2      7129      7419      7429      7139      7130      7420      7430      7140
 -1      6598    1    0    1
 -2      7130      7420      7430      7140      7131      7421      7431      7141
 -1      6599    1    0    1
 -2      7131      7421      7431      7141      7132      7422      7432      7142
 -1      6600    1    0    1
 -2      7132      7422      7432      7142      2234      2263      2264      2235
 -1      6601    1    0    1
 -2       724       753       754       725      7133      7423      7433      7143
 -1      6602    1    0    1
 -2      7133      7423      7433      7143      7134      7424      7434      7144
 -1      6603    1    0    1
 -2      7134      7424      7434      7144      7135      7425      7435      7145
 -1      6604    1    0    1
 -2      7135      7425      7435      7145      7136      7426      7436      7146
 -1      6605    1    0    1
 -2      7136      7426      7436      7146      7137      7427      7437      7147
 -1      6606    1    0    1
 -2      7137      7427      7437      7147      7138      7428      7438      7148
 -1      6607    1    0    1
 -2      7138      7428      7438      7148      7139      7429      7439      7149
 -1      6608    1    0    1
 -2      7139      7429      7439      7149      7140      7430      7440      7150
 -1      6609    1    0    1
 -2      7140      7430      7440      7150      7141      7431      7441      7151
 -1      6610    1    0    1
 -2      7141      7431      7441      7151      7142      7432      7442      7152
 -1      6611    1    0    1
 -2      7142      7432      7442      7152      2235      2264      2265      2236
 -1      6612    1    0    1
 -2       725       754       755       726      7143      7433      7443      7153
 -1      6613    1    0    1
 -2      7143      7433      7443      7153      7144      7434      7444      7154
 -1      6614    1    0    1
 -2      7144      7434      7444      7154      7145      7435      7445      7155
 -1      6615    1    0    1
 -2      7145      7435      7445      7155      7146      7436      7446      7156
 -1      6616    1    0    1
 -2      7146      7436      7446      7156      7147      7437      7447      7157
 -1      6617    1    0    1
 -2      7147      7437      7447      7157      7148      7438      7448      7158
 -1      6618    1    0    1
 -2      7148      7438      7448      7158      7149      7439      7449      7159
 -1      6619    1    0    1
 -2      7149      7439      7449      7159      7150      7440      7450      7160
 -1      6620    1    0    1
 -2      7150      7440      7450      7160      7151      7441      7451      7161
 -1      6621    1    0    1
 -2      7151      7441      7451      7161      7152      7442      7452      7162
 -1      6622    1    0    1
 -2      7152      7442      7452      7162      2236      2265      2266      2237
 -1      6623    1    0    1
 -2       726       755       756       727      7153      7443      7453      7163
 -1      6624    1    0    1
 -2      7153      7443      7453      7163      7154      7444      7454      7164
 -1      6625    1    0    1
 -2      7154      7444      7454      7164      7155      7445      7455      7165
 -1      6626    1    0    1
 -2      7155      7445      7455      7165      7156      7446      7456      7166
 -1      6627    1    0    1
 -2      7156      7446      7456      7166      7157      7447      7457      7167
 -1      6628    1    0    1
 -2      7157      7447      7457      7167      7158      7448      7458      7168
 -1      6629    1    0    1
 -2      7158      7448      7458      7168      7159      7449      7459      7169
 -1      6630    1    0    1
 -2      7159      7449      7459      7169      7160      7450      7460      7170
 -1      6631    1    0    1
 -2      7160      7450      7460      7170      7161      7451      7461      7171
 -1      6632    1    0    1
 -2      7161      7451      7461      7171      7162      7452      7462      7172
 -1      6633    1    0    1
 -2      7162      7452      7462      7172      2237      2266      2267      2238
 -1      6634    1    0    1
 -2       727       756       757       728      7163      7453      7463      7173
 -1      6635    1    0    1
 -2      7163      7453      7463      7173      7164      7454      7464      7174
 -1      6636    1    0    1
 -2      7164      7454      7464      7174      7165      7455      7465      7175
 -1      6637    1    0    1
 -2      7165      7455      7465      7175      7166      7456      7466      7176
 -1      6638    1    0    1
 -2      7166      7456      7466      7176      7167      7457      7467      7177
 -1      6639    1    0    1
 -2      7167      7457      7467      7177      7168      7458      7468      7178
 -1      6640    1    0    1
 -2      7168      7458      7468      7178      7169      7459      7469      7179
 -1      6641    1    0    1
 -2      7169      7459      7469      7179      7170      7460      7470      7180
 -1      6642    1    0    1
 -2      7170      7460      7470      7180      7171      7461      7471      7181
 -1      6643    1    0    1
 -2      7171      7461      7471      7181      7172      7462      7472      7182
 -1      6644    1    0    1
 -2      7172      7462      7472      7182      2238      2267      2268      2239
 -1      6645    1    0    1
 -2       728       757       758       729      7173      7463      7473      7183
 -1      6646    1    0    1
 -2      7173      7463      7473      7183      7174      7464      7474      7184
 -1      6647    1    0    1
 -2      7174      7464      7474      7184      7175      7465      7475      7185
 -1      6648    1    0    1
 -2      7175      7465      7475      7185      7176      7466      7476      7186
 -1      6649    1    0    1
 -2      7176      7466      7476      7186      7177      7467      7477      7187
 -1      6650    1    0    1
 -2      7177      7467      7477      7187      7178      7468      7478      7188
 -1      6651    1    0    1
 -2      7178      7468      7478      7188      7179      7469      7479      7189
 -1      6652    1    0    1
 -2      7179      7469      7479      7189      7180      7470      7480      7190
 -1      6653    1    0    1
 -2      7180      7470      7480      7190      7181      7471      7481      7191
 -1      6654    1    0    1
 -2      7181      7471      7481      7191      7182      7472      7482      7192
 -1      6655    1    0    1
 -2      7182      7472      7482      7192      2239      2268      2269      2240
 -1      6656    1    0    1
 -2       729       758       759       730      7183      7473      7483      7193
 -1      6657    1    0    1
 -2      7183      7473      7483      7193      7184      7474      7484      7194
 -1      6658    1    0    1
 -2      7184      7474      7484      7194      7185      7475      7485      7195
 -1      6659    1    0    1
 -2      7185      7475      7485      7195      7186      7476      7486      7196
 -1      6660    1    0    1
 -2      7186      7476      7486      7196      7187      7477      7487      7197
 -1      6661    1    0    1
 -2      7187      7477      7487      7197      7188      7478      7488      7198
 -1      6662    1    0    1
 -2      7188      7478      7488      7198      7189      7479      7489      7199
 -1      6663    1    0    1
 -2      7189      7479      7489      7199      7190      7480      7490      7200
 -1      6664    1    0    1
 -2      7190      7480      7490      7200      7191      7481      7491      7201
 -1      6665    1    0    1
 -2      7191      7481      7491      7201      7192      7482      7492      7202
 -1      6666    1    0    1
 -2      7192      7482      7492      7202      2240      2269      2270      2241
 -1      6667    1    0    1
 -2       730       759       760       731      7193      7483      7493      7203
 -1      6668    1    0    1
 -2      7193      7483      7493      7203      7194      7484      7494      7204
 -1      6669    1    0    1
 -2      7194      7484      7494      7204      7195      7485      7495      7205
 -1      6670    1    0    1
 -2      7195      7485      7495      7205      7196      7486      7496      7206
 -1      6671    1    0    1
 -2      7196      7486      7496      7206      7197      7487      7497      7207
 -1      6672    1    0    1
 -2      7197      7487      7497      7207      7198      7488      7498      7208
 -1      6673    1    0    1
 -2      7198      7488      7498      7208      7199      7489      7499      7209
 -1      6674    1    0    1
 -2      7199      7489      7499      7209      7200      7490      7500      7210
 -1      6675    1    0    1
 -2      7200      7490      7500      7210      7201      7491      7501      7211
 -1      6676    1    0    1
 -2      7201      7491      7501      7211      7202      7492      7502      7212
 -1      6677    1    0    1
 -2      7202      7492      7502      7212      2241      2270      2271      2242
 -1      6678    1    0    1
 -2       731       760       761       732      7203      7493      7503      7213
 -1      6679    1    0    1
 -2      7203      7493      7503      7213      7204      7494      7504      7214
 -1      6680    1    0    1
 -2      7204      7494      7504      7214      7205      7495      7505      7215
 -1      6681    1    0    1
 -2      7205      7495      7505      7215      7206      7496      7506      7216
 -1      6682    1    0    1
 -2      7206      7496      7506      7216      7207      7497      7507      7217
 -1      6683    1    0    1
 -2      7207      7497      7507      7217      7208      7498      7508      7218
 -1      6684    1    0    1
 -2      7208      7498      7508      7218      7209      7499      7509      7219
 -1      6685    1    0    1
 -2      7209      7499      7509      7219      7210      7500      7510      7220
 -1      6686    1    0    1
 -2      7210      7500      7510      7220      7211      7501      7511      7221
 -1      6687    1    0    1
 -2      7211      7501      7511      7221      7212      7502      7512      7222
 -1      6688    1    0    1
 -2      7212      7502      7512      7222      2242      2271      2272      2243
 -1      6689    1    0    1
 -2       732       761       762       733      7213      7503      7513      7223
 -1      6690    1    0    1
 -2      7213      7503      7513      7223      7214      7504      7514      7224
 -1      6691    1    0    1
 -2      7214      7504      7514      7224      7215      7505      7515      7225
 -1      6692    1    0    1
 -2      7215      7505      7515      7225      7216      7506      7516      7226
 -1      6693    1    0    1
 -2      7216      7506      7516      7226      7217      7507      7517      7227
 -1      6694    1    0    1
 -2      7217      7507      7517      7227      7218      7508      7518      7228
 -1      6695    1    0    1
 -2      7218      7508      7518      7228      7219      7509      7519      7229
 -1      6696    1    0    1
 -2      7219      7509      7519      7229      7220      7510      7520      7230
 -1      6697    1    0    1
 -2      7220      7510      7520      7230      7221      7511      7521      7231
 -1      6698    1    0    1
 -2      7221      7511      7521      7231      7222      7512      7522      7232
 -1      6699    1    0    1
 -2      7222      7512      7522      7232      2243      2272      2273      2244
 -1      6700    1    0    1
 -2       733       762        58        59      7223      7513      1282      1292
 -1      6701    1    0    1
 -2      7223      7513      1282      1292      7224      7514      1283      1293
 -1      6702    1    0    1
 -2      7224      7514      1283      1293      7225      7515      1284      1294
 -1      6703    1    0    1
 -2      7225      7515      1284      1294      7226      7516      1285      1295
 -1      6704    1    0    1
 -2      7226      7516      1285      1295      7227      7517      1286      1296
 -1      6705    1    0    1
 -2      7227      7517      1286      1296      7228      7518      1287      1297
 -1      6706    1    0    1
 -2      7228      7518      1287      1297      7229      7519      1288      1298
 -1      6707    1    0    1
 -2      7229      7519      1288      1298      7230      7520      1289      1299
 -1      6708    1    0    1
 -2      7230      7520      1289      1299      7231      7521      1290      1300
 -1      6709    1    0    1
 -2      7231      7521      1290      1300      7232      7522      1291      1301
 -1      6710    1    0    1
 -2      7232      7522      1291      1301      2244      2273       154       155
 -1      6711    1    0    1
 -2        26        27       763       734       962       972      7523      7233
 -1      6712    1    0    1
 -2       962       972      7523      7233       963       973      7524      7234
 -1      6713    1    0    1
 -2       963       973      7524      7234       964       974      7525      7235
 -1      6714    1    0    1
 -2       964       974      7525      7235       965       975      7526      7236
 -1      6715    1    0    1
 -2       965       975      7526      7236       966       976      7527      7237
 -1      6716    1    0    1
 -2       966       976      7527      7237       967       977      7528      7238
 -1      6717    1    0    1
 -2       967       977      7528      7238       968       978      7529      7239
 -1      6718    1    0    1
 -2       968       978      7529      7239       969       979      7530      7240
 -1      6719    1    0    1
 -2       969       979      7530      7240       970       980      7531      7241
 -1      6720    1    0    1
 -2       970       980      7531      7241       971       981      7532      7242
 -1      6721    1    0    1
 -2       971       981      7532      7242       122       123      2274      2245
 -1      6722    1    0    1
 -2       734       763       764       735      7233      7523      7533      7243
 -1      6723    1    0    1
 -2      7233      7523      7533      7243      7234      7524      7534      7244
 -1      6724    1    0    1
 -2      7234      7524      7534      7244      7235      7525      7535      7245
 -1      6725    1    0    1
 -2      7235      7525      7535      7245      7236      7526      7536      7246
 -1      6726    1    0    1
 -2      7236      7526      7536      7246      7237      7527      7537      7247
 -1      6727    1    0    1
 -2      7237      7527      7537      7247      7238      7528      7538      7248
 -1      6728    1    0    1
 -2      7238      7528      7538      7248      7239      7529      7539      7249
 -1      6729    1    0    1
 -2      7239      7529      7539      7249      7240      7530      7540      7250
 -1      6730    1    0    1
 -2      7240      7530      7540      7250      7241      7531      7541      7251
 -1      6731    1    0    1
 -2      7241      7531      7541      7251      7242      7532      7542      7252
 -1      6732    1    0    1
 -2      7242      7532      7542      7252      2245      2274      2275      2246
 -1      6733    1    0    1
 -2       735       764       765       736      7243      7533      7543      7253
 -1      6734    1    0    1
 -2      7243      7533      7543      7253      7244      7534      7544      7254
 -1      6735    1    0    1
 -2      7244      7534      7544      7254      7245      7535      7545      7255
 -1      6736    1    0    1
 -2      7245      7535      7545      7255      7246      7536      7546      7256
 -1      6737    1    0    1
 -2      7246      7536      7546      7256      7247      7537      7547      7257
 -1      6738    1    0    1
 -2      7247      7537      7547      7257      7248      7538      7548      7258
 -1      6739    1    0    1
 -2      7248      7538      7548      7258      7249      7539      7549      7259
 -1      6740    1    0    1
 -2      7249      7539      7549      7259      7250      7540      7550      7260
 -1      6741    1    0    1
 -2      7250      7540      7550      7260      7251      7541      7551      7261
 -1      6742    1    0    1
 -2      7251      7541      7551      7261      7252      7542      7552      7262
 -1      6743    1    0    1
 -2      7252      7542      7552      7262      2246      2275      2276      2247
 -1      6744    1    0    1
 -2       736       765       766       737      7253      7543      7553      7263
 -1      6745    1    0    1
 -2      7253      7543      7553      7263      7254      7544      7554      7264
 -1      6746    1    0    1
 -2      7254      7544      7554      7264      7255      7545      7555      7265
 -1      6747    1    0    1
 -2      7255      7545      7555      7265      7256      7546      7556      7266
 -1      6748    1    0    1
 -2      7256      7546      7556      7266      7257      7547      7557      7267
 -1      6749    1    0    1
 -2      7257      7547      7557      7267      7258      7548      7558      7268
 -1      6750    1    0    1
 -2      7258      7548      7558      7268      7259      7549      7559      7269
 -1      6751    1    0    1
 -2      7259      7549      7559      7269      7260      7550      7560      7270
 -1      6752    1    0    1
 -2      7260      7550      7560      7270      7261      7551      7561      7271
 -1      6753    1    0    1
 -2      7261      7551      7561      7271      7262      7552      7562      7272
 -1      6754    1    0    1
 -2      7262      7552      7562      7272      2247      2276      2277      2248
 -1      6755    1    0    1
 -2       737       766       767       738      7263      7553      7563      7273
 -1      6756    1    0    1
 -2      7263      7553      7563      7273      7264      7554      7564      7274
 -1      6757    1    0    1
 -2      7264      7554      7564      7274      7265      7555      7565      7275
 -1      6758    1    0    1
 -2      7265      7555      7565      7275      7266      7556      7566      7276
 -1      6759    1    0    1
 -2      7266      7556      7566      7276      7267      7557      7567      7277
 -1      6760    1    0    1
 -2      7267      7557      7567      7277      7268      7558      7568      7278
 -1      6761    1    0    1
 -2      7268      7558      7568      7278      7269      7559      7569      7279
 -1      6762    1    0    1
 -2      7269      7559      7569      7279      7270      7560      7570      7280
 -1      6763    1    0    1
 -2      7270      7560      7570      7280      7271      7561      7571      7281
 -1      6764    1    0    1
 -2      7271      7561      7571      7281      7272      7562      7572      7282
 -1      6765    1    0    1
 -2      7272      7562      7572      7282      2248      2277      2278      2249
 -1      6766    1    0    1
 -2       738       767       768       739      7273      7563      7573      7283
 -1      6767    1    0    1
 -2      7273      7563      7573      7283      7274      7564      7574      7284
 -1      6768    1    0    1
 -2      7274      7564      7574      7284      7275      7565      7575      7285
 -1      6769    1    0    1
 -2      7275      7565      7575      7285      7276      7566      7576      7286
 -1      6770    1    0    1
 -2      7276      7566      7576      7286      7277      7567      7577      7287
 -1      6771    1    0    1
 -2      7277      7567      7577      7287      7278      7568      7578      7288
 -1      6772    1    0    1
 -2      7278      7568      7578      7288      7279      7569      7579      7289
 -1      6773    1    0    1
 -2      7279      7569      7579      7289      7280      7570      7580      7290
 -1      6774    1    0    1
 -2      7280      7570      7580      7290      7281      7571      7581      7291
 -1      6775    1    0    1
 -2      7281      7571      7581      7291      7282      7572      7582      7292
 -1      6776    1    0    1
 -2      7282      7572      7582      7292      2249      2278      2279      2250
 -1      6777    1    0    1
 -2       739       768       769       740      7283      7573      7583      7293
 -1      6778    1    0    1
 -2      7283      7573      7583      7293      7284      7574      7584      7294
 -1      6779    1    0    1
 -2      7284      7574      7584      7294      7285      7575      7585      7295
 -1      6780    1    0    1
 -2      7285      7575      7585      7295      7286      7576      7586      7296
 -1      6781    1    0    1
 -2      7286      7576      7586      7296      7287      7577      7587      7297
 -1      6782    1    0    1
 -2      7287      7577      7587      7297      7288      7578      7588      7298
 -1      6783    1    0    1
 -2      7288      7578      7588      7298      7289      7579      7589      7299
 -1      6784    1    0    1
 -2      7289      7579      7589      7299      7290      7580      7590      7300
 -1      6785    1    0    1
 -2      7290      7580      7590      7300      7291      7581      7591      7301
 -1      6786    1    0    1
 -2      7291      7581      7591      7301      7292      7582      7592      7302
 -1      6787    1    0    1
 -2      7292      7582      7592      7302      2250      2279      2280      2251
 -1      6788    1    0    1
 -2       740       769       770       741      7293      7583      7593      7303
 -1      6789    1    0    1
 -2      7293      7583      7593      7303      7294      7584      7594      7304
 -1      6790    1    0    1
 -2      7294      7584      7594      7304      7295      7585      7595      7305
 -1      6791    1    0    1
 -2      7295      7585      7595      7305      7296      7586      7596      7306
 -1      6792    1    0    1
 -2      7296      7586      7596      7306      7297      7587      7597      7307
 -1      6793    1    0    1
 -2      7297      7587      7597      7307      7298      7588      7598      7308
 -1      6794    1    0    1
 -2      7298      7588      7598      7308      7299      7589      7599      7309
 -1      6795    1    0    1
 -2      7299      7589      7599      7309      7300      7590      7600      7310
 -1      6796    1    0    1
 -2      7300      7590      7600      7310      7301      7591      7601      7311
 -1      6797    1    0    1
 -2      7301      7591      7601      7311      7302      7592      7602      7312
 -1      6798    1    0    1
 -2      7302      7592      7602      7312      2251      2280      2281      2252
 -1      6799    1    0    1
 -2       741       770       771       742      7303      7593      7603      7313
 -1      6800    1    0    1
 -2      7303      7593      7603      7313      7304      7594      7604      7314
 -1      6801    1    0    1
 -2      7304      7594      7604      7314      7305      7595      7605      7315
 -1      6802    1    0    1
 -2      7305      7595      7605      7315      7306      7596      7606      7316
 -1      6803    1    0    1
 -2      7306      7596      7606      7316      7307      7597      7607      7317
 -1      6804    1    0    1
 -2      7307      7597      7607      7317      7308      7598      7608      7318
 -1      6805    1    0    1
 -2      7308      7598      7608      7318      7309      7599      7609      7319
 -1      6806    1    0    1
 -2      7309      7599      7609      7319      7310      7600      7610      7320
 -1      6807    1    0    1
 -2      7310      7600      7610      7320      7311      7601      7611      7321
 -1      6808    1    0    1
 -2      7311      7601      7611      7321      7312      7602      7612      7322
 -1      6809    1    0    1
 -2      7312      7602      7612      7322      2252      2281      2282      2253
 -1      6810    1    0    1
 -2       742       771       772       743      7313      7603      7613      7323
 -1      6811    1    0    1
 -2      7313      7603      7613      7323      7314      7604      7614      7324
 -1      6812    1    0    1
 -2      7314      7604      7614      7324      7315      7605      7615      7325
 -1      6813    1    0    1
 -2      7315      7605      7615      7325      7316      7606      7616      7326
 -1      6814    1    0    1
 -2      7316      7606      7616      7326      7317      7607      7617      7327
 -1      6815    1    0    1
 -2      7317      7607      7617      7327      7318      7608      7618      7328
 -1      6816    1    0    1
 -2      7318      7608      7618      7328      7319      7609      7619      7329
 -1      6817    1    0    1
 -2      7319      7609      7619      7329      7320      7610      7620      7330
 -1      6818    1    0    1
 -2      7320      7610      7620      7330      7321      7611      7621      7331
 -1      6819    1    0    1
 -2      7321      7611      7621      7331      7322      7612      7622      7332
 -1      6820    1    0    1
 -2      7322      7612      7622      7332      2253      2282      2283      2254
 -1      6821    1    0    1
 -2       743       772       773       744      7323      7613      7623      7333
 -1      6822    1    0    1
 -2      7323      7613      7623      7333      7324      7614      7624      7334
 -1      6823    1    0    1
 -2      7324      7614      7624      7334      7325      7615      7625      7335
 -1      6824    1    0    1
 -2      7325      7615      7625      7335      7326      7616      7626      7336
 -1      6825    1    0    1
 -2      7326      7616      7626      7336      7327      7617      7627      7337
 -1      6826    1    0    1
 -2      7327      7617      7627      7337      7328      7618      7628      7338
 -1      6827    1    0    1
 -2      7328      7618      7628      7338      7329      7619      7629      7339
 -1      6828    1    0    1
 -2      7329      7619      7629      7339      7330      7620      7630      7340
 -1      6829    1    0    1
 -2      7330      7620      7630      7340      7331      7621      7631      7341
 -1      6830    1    0    1
 -2      7331      7621      7631      7341      7332      7622      7632      7342
 -1      6831    1    0    1
 -2      7332      7622      7632      7342      2254      2283      2284      2255
 -1      6832    1    0    1
 -2       744       773       774       745      7333      7623      7633      7343
 -1      6833    1    0    1
 -2      7333      7623      7633      7343      7334      7624      7634      7344
 -1      6834    1    0    1
 -2      7334      7624      7634      7344      7335      7625      7635      7345
 -1      6835    1    0    1
 -2      7335      7625      7635      7345      7336      7626      7636      7346
 -1      6836    1    0    1
 -2      7336      7626      7636      7346      7337      7627      7637      7347
 -1      6837    1    0    1
 -2      7337      7627      7637      7347      7338      7628      7638      7348
 -1      6838    1    0    1
 -2      7338      7628      7638      7348      7339      7629      7639      7349
 -1      6839    1    0    1
 -2      7339      7629      7639      7349      7340      7630      7640      7350
 -1      6840    1    0    1
 -2      7340      7630      7640      7350      7341      7631      7641      7351
 -1      6841    1    0    1
 -2      7341      7631      7641      7351      7342      7632      7642      7352
 -1      6842    1    0    1
 -2      7342      7632      7642      7352      2255      2284      2285      2256
 -1      6843    1    0    1
 -2       745       774       775       746      7343      7633      7643      7353
 -1      6844    1    0    1
 -2      7343      7633      7643      7353      7344      7634      7644      7354
 -1      6845    1    0    1
 -2      7344      7634      7644      7354      7345      7635      7645      7355
 -1      6846    1    0    1
 -2      7345      7635      7645      7355      7346      7636      7646      7356
 -1      6847    1    0    1
 -2      7346      7636      7646      7356      7347      7637      7647      7357
 -1      6848    1    0    1
 -2      7347      7637      7647      7357      7348      7638      7648      7358
 -1      6849    1    0    1
 -2      7348      7638      7648      7358      7349      7639      7649      7359
 -1      6850    1    0    1
 -2      7349      7639      7649      7359      7350      7640      7650      7360
 -1      6851    1    0    1
 -2      7350      7640      7650      7360      7351      7641      7651      7361
 -1      6852    1    0    1
 -2      7351      7641      7651      7361      7352      7642      7652      7362
 -1      6853    1    0    1
 -2      7352      7642      7652      7362      2256      2285      2286      2257
 -1      6854    1    0    1
 -2       746       775       776       747      7353      7643      7653      7363
 -1      6855    1    0    1
 -2      7353      7643      7653      7363      7354      7644      7654      7364
 -1      6856    1    0    1
 -2      7354      7644      7654      7364      7355      7645      7655      7365
 -1      6857    1    0    1
 -2      7355      7645      7655      7365      7356      7646      7656      7366
 -1      6858    1    0    1
 -2      7356      7646      7656      7366      7357      7647      7657      7367
 -1      6859    1    0    1
 -2      7357      7647      7657      7367      7358      7648      7658      7368
 -1      6860    1    0    1
 -2      7358      7648      7658      7368      7359      7649      7659      7369
 -1      6861    1    0    1
 -2      7359      7649      7659      7369      7360      7650      7660      7370
 -1      6862    1    0    1
 -2      7360      7650      7660      7370      7361      7651      7661      7371
 -1      6863    1    0    1
 -2      7361      7651      7661      7371      7362      7652      7662      7372
 -1      6864    1    0    1
 -2      7362      7652      7662      7372      2257      2286      2287      2258
 -1      6865    1    0    1
 -2       747       776       777       748      7363      7653      7663      7373
 -1      6866    1    0    1
 -2      7363      7653      7663      7373      7364      7654      7664      7374
 -1      6867    1    0    1
 -2      7364      7654      7664      7374      7365      7655      7665      7375
 -1      6868    1    0    1
 -2      7365      7655      7665      7375      7366      7656      7666      7376
 -1      6869    1    0    1
 -2      7366      7656      7666      7376      7367      7657      7667      7377
 -1      6870    1    0    1
 -2      7367      7657      7667      7377      7368      7658      7668      7378
 -1      6871    1    0    1
 -2      7368      7658      7668      7378      7369      7659      7669      7379
 -1      6872    1    0    1
 -2      7369      7659      7669      7379      7370      7660      7670      7380
 -1      6873    1    0    1
 -2      7370      7660      7670      7380      7371      7661      7671      7381
 -1      6874    1    0    1
 -2      7371      7661      7671      7381      7372      7662      7672      7382
 -1      6875    1    0    1
 -2      7372      7662      7672      7382      2258      2287      2288      2259
 -1      6876    1    0    1
 -2       748       777       778       749      7373      7663      7673      7383
 -1      6877    1    0    1
 -2      7373      7663      7673      7383      7374      7664      7674      7384
 -1      6878    1    0    1
 -2      7374      7664      7674      7384      7375      7665      7675      7385
 -1      6879    1    0    1
 -2      7375      7665      7675      7385      7376      7666      7676      7386
 -1      6880    1    0    1
 -2      7376      7666      7676      7386      7377      7667      7677      7387
 -1      6881    1    0    1
 -2      7377      7667      7677      7387      7378      7668      7678      7388
 -1      6882    1    0    1
 -2      7378      7668      7678      7388      7379      7669      7679      7389
 -1      6883    1    0    1
 -2      7379      7669      7679      7389      7380      7670      7680      7390
 -1      6884    1    0    1
 -2      7380      7670      7680      7390      7381      7671      7681      7391
 -1      6885    1    0    1
 -2      7381      7671      7681      7391      7382      7672      7682      7392
 -1      6886    1    0    1
 -2      7382      7672      7682      7392      2259      2288      2289      2260
 -1      6887    1    0    1
 -2       749       778       779       750      7383      7673      7683      7393
 -1      6888    1    0    1
 -2      7383      7673      7683      7393      7384      7674      7684      7394
 -1      6889    1    0    1
 -2      7384      7674      7684      7394      7385      7675      7685      7395
 -1      6890    1    0    1
 -2      7385      7675      7685      7395      7386      7676      7686      7396
 -1      6891    1    0    1
 -2      7386      7676      7686      7396      7387      7677      7687      7397
 -1      6892    1    0    1
 -2      7387      7677      7687      7397      7388      7678      7688      7398
 -1      6893    1    0    1
 -2      7388      7678      7688      7398      7389      7679      7689      7399
 -1      6894    1    0    1
 -2      7389      7679      7689      7399      7390      7680      7690      7400
 -1      6895    1    0    1
 -2      7390      7680      7690      7400      7391      7681      7691      7401
 -1      6896    1    0    1
 -2      7391      7681      7691      7401      7392      7682      7692      7402
 -1      6897    1    0    1
 -2      7392      7682      7692      7402      2260      2289      2290      2261
 -1      6898    1    0    1
 -2       750       779       780       751      7393      7683      7693      7403
 -1      6899    1    0    1
 -2      7393      7683      7693      7403      7394      7684      7694      7404
 -1      6900    1    0    1
 -2      7394      7684      7694      7404      7395      7685      7695      7405
 -1      6901    1    0    1
 -2      7395      7685      7695      7405      7396      7686      7696      7406
 -1      6902    1    0    1
 -2      7396      7686      7696      7406      7397      7687      7697      7407
 -1      6903    1    0    1
 -2      7397      7687      7697      7407      7398      7688      7698      7408
 -1      6904    1    0    1
 -2      7398      7688      7698      7408      7399      7689      7699      7409
 -1      6905    1    0    1
 -2      7399      7689      7699      7409      7400      7690      7700      7410
 -1      6906    1    0    1
 -2      7400      7690      7700      7410      7401      7691      7701      7411
 -1      6907    1    0    1
 -2      7401      7691      7701      7411      7402      7692      7702      7412
 -1      6908    1    0    1
 -2      7402      7692      7702      7412      2261      2290      2291      2262
 -1      6909    1    0    1
 -2       751       780       781       752      7403      7693      7703      7413
 -1      6910    1    0    1
 -2      7403      7693      7703      7413      7404      7694      7704      7414
 -1      6911    1    0    1
 -2      7404      7694      7704      7414      7405      7695      7705      7415
 -1      6912    1    0    1
 -2      7405      7695      7705      7415      7406      7696      7706      7416
 -1      6913    1    0    1
 -2      7406      7696      7706      7416      7407      7697      7707      7417
 -1      6914    1    0    1
 -2      7407      7697      7707      7417      7408      7698      7708      7418
 -1      6915    1    0    1
 -2      7408      7698      7708      7418      7409      7699      7709      7419
 -1      6916    1    0    1
 -2      7409      7699      7709      7419      7410      7700      7710      7420
 -1      6917    1    0    1
 -2      7410      7700      7710      7420      7411      7701      7711      7421
 -1      6918    1    0    1
 -2      7411      7701      7711      7421      7412      7702      7712      7422
 -1      6919    1    0    1
 -2      7412      7702      7712      7422      2262      2291      2292      2263
 -1      6920    1    0    1
 -2       752       781       782       753      7413      7703      7713      7423
 -1      6921    1    0    1
 -2      7413      7703      7713      7423      7414      7704      7714      7424
 -1      6922    1    0    1
 -2      7414      7704      7714      7424      7415      7705      7715      7425
 -1      6923    1    0    1
 -2      7415      7705      7715      7425      7416      7706      7716      7426
 -1      6924    1    0    1
 -2      7416      7706      7716      7426      7417      7707      7717      7427
 -1      6925    1    0    1
 -2      7417      7707      7717      7427      7418      7708      7718      7428
 -1      6926    1    0    1
 -2      7418      7708      7718      7428      7419      7709      7719      7429
 -1      6927    1    0    1
 -2      7419      7709      7719      7429      7420      7710      7720      7430
 -1      6928    1    0    1
 -2      7420      7710      7720      7430      7421      7711      7721      7431
 -1      6929    1    0    1
 -2      7421      7711      7721      7431      7422      7712      7722      7432
 -1      6930    1    0    1
 -2      7422      7712      7722      7432      2263      2292      2293      2264
 -1      6931    1    0    1
 -2       753       782       783       754      7423      7713      7723      7433
 -1      6932    1    0    1
 -2      7423      7713      7723      7433      7424      7714      7724      7434
 -1      6933    1    0    1
 -2      7424      7714      7724      7434      7425      7715      7725      7435
 -1      6934    1    0    1
 -2      7425      7715      7725      7435      7426      7716      7726      7436
 -1      6935    1    0    1
 -2      7426      7716      7726      7436      7427      7717      7727      7437
 -1      6936    1    0    1
 -2      7427      7717      7727      7437      7428      7718      7728      7438
 -1      6937    1    0    1
 -2      7428      7718      7728      7438      7429      7719      7729      7439
 -1      6938    1    0    1
 -2      7429      7719      7729      7439      7430      7720      7730      7440
 -1      6939    1    0    1
 -2      7430      7720      7730      7440      7431      7721      7731      7441
 -1      6940    1    0    1
 -2      7431      7721      7731      7441      7432      7722      7732      7442
 -1      6941    1    0    1
 -2      7432      7722      7732      7442      2264      2293      2294      2265
 -1      6942    1    0    1
 -2       754       783       784       755      7433      7723      7733      7443
 -1      6943    1    0    1
 -2      7433      7723      7733      7443      7434      7724      7734      7444
 -1      6944    1    0    1
 -2      7434      7724      7734      7444      7435      7725      7735      7445
 -1      6945    1    0    1
 -2      7435      7725      7735      7445      7436      7726      7736      7446
 -1      6946    1    0    1
 -2      7436      7726      7736      7446      7437      7727      7737      7447
 -1      6947    1    0    1
 -2      7437      7727      7737      7447      7438      7728      7738      7448
 -1      6948    1    0    1
 -2      7438      7728      7738      7448      7439      7729      7739      7449
 -1      6949    1    0    1
 -2      7439      7729      7739      7449      7440      7730      7740      7450
 -1      6950    1    0    1
 -2      7440      7730      7740      7450      7441      7731      7741      7451
 -1      6951    1    0    1
 -2      7441      7731      7741      7451      7442      7732      7742      7452
 -1      6952    1    0    1
 -2      7442      7732      7742      7452      2265      2294      2295      2266
 -1      6953    1    0    1
 -2       755       784       785       756      7443      7733      7743      7453
 -1      6954    1    0    1
 -2      7443      7733      7743      7453      7444      7734      7744      7454
 -1      6955    1    0    1
 -2      7444      7734      7744      7454      7445      7735      7745      7455
 -1      6956    1    0    1
 -2      7445      7735      7745      7455      7446      7736      7746      7456
 -1      6957    1    0    1
 -2      7446      7736      7746      7456      7447      7737      7747      7457
 -1      6958    1    0    1
 -2      7447      7737      7747      7457      7448      7738      7748      7458
 -1      6959    1    0    1
 -2      7448      7738      7748      7458      7449      7739      7749      7459
 -1      6960    1    0    1
 -2      7449      7739      7749      7459      7450      7740      7750      7460
 -1      6961    1    0    1
 -2      7450      7740      7750      7460      7451      7741      7751      7461
 -1      6962    1    0    1
 -2      7451      7741      7751      7461      7452      7742      7752      7462
 -1      6963    1    0    1
 -2      7452      7742      7752      7462      2266      2295      2296      2267
 -1      6964    1    0    1
 -2       756       785       786       757      7453      7743      7753      7463
 -1      6965    1    0    1
 -2      7453      7743      7753      7463      7454      7744      7754      7464
 -1      6966    1    0    1
 -2      7454      7744      7754      7464      7455      7745      7755      7465
 -1      6967    1    0    1
 -2      7455      7745      7755      7465      7456      7746      7756      7466
 -1      6968    1    0    1
 -2      7456      7746      7756      7466      7457      7747      7757      7467
 -1      6969    1    0    1
 -2      7457      7747      7757      7467      7458      7748      7758      7468
 -1      6970    1    0    1
 -2      7458      7748      7758      7468      7459      7749      7759      7469
 -1      6971    1    0    1
 -2      7459      7749      7759      7469      7460      7750      7760      7470
 -1      6972    1    0    1
 -2      7460      7750      7760      7470      7461      7751      7761      7471
 -1      6973    1    0    1
 -2      7461      7751      7761      7471      7462      7752      7762      7472
 -1      6974    1    0    1
 -2      7462      7752      7762      7472      2267      2296      2297      2268
 -1      6975    1    0    1
 -2       757       786       787       758      7463      7753      7763      7473
 -1      6976    1    0    1
 -2      7463      7753      7763      7473      7464      7754      7764      7474
 -1      6977    1    0    1
 -2      7464      7754      7764      7474      7465      7755      7765      7475
 -1      6978    1    0    1
 -2      7465      7755      7765      7475      7466      7756      7766      7476
 -1      6979    1    0    1
 -2      7466      7756      7766      7476      7467      7757      7767      7477
 -1      6980    1    0    1
 -2      7467      7757      7767      7477      7468      7758      7768      7478
 -1      6981    1    0    1
 -2      7468      7758      7768      7478      7469      7759      7769      7479
 -1      6982    1    0    1
 -2      7469      7759      7769      7479      7470      7760      7770      7480
 -1      6983    1    0    1
 -2      7470      7760      7770      7480      7471      7761      7771      7481
 -1      6984    1    0    1
 -2      7471      7761      7771      7481      7472      7762      7772      7482
 -1      6985    1    0    1
 -2      7472      7762      7772      7482      2268      2297      2298      2269
 -1      6986    1    0    1
 -2       758       787       788       759      7473      7763      7773      7483
 -1      6987    1    0    1
 -2      7473      7763      7773      7483      7474      7764      7774      7484
 -1      6988    1    0    1
 -2      7474      7764      7774      7484      7475      7765      7775      7485
 -1      6989    1    0    1
 -2      7475      7765      7775      7485      7476      7766      7776      7486
 -1      6990    1    0    1
 -2      7476      7766      7776      7486      7477      7767      7777      7487
 -1      6991    1    0    1
 -2      7477      7767      7777      7487      7478      7768      7778      7488
 -1      6992    1    0    1
 -2      7478      7768      7778      7488      7479      7769      7779      7489
 -1      6993    1    0    1
 -2      7479      7769      7779      7489      7480      7770      7780      7490
 -1      6994    1    0    1
 -2      7480      7770      7780      7490      7481      7771      7781      7491
 -1      6995    1    0    1
 -2      7481      7771      7781      7491      7482      7772      7782      7492
 -1      6996    1    0    1
 -2      7482      7772      7782      7492      2269      2298      2299      2270
 -1      6997    1    0    1
 -2       759       788       789       760      7483      7773      7783      7493
 -1      6998    1    0    1
 -2      7483      7773      7783      7493      7484      7774      7784      7494
 -1      6999    1    0    1
 -2      7484      7774      7784      7494      7485      7775      7785      7495
 -1      7000    1    0    1
 -2      7485      7775      7785      7495      7486      7776      7786      7496
 -1      7001    1    0    1
 -2      7486      7776      7786      7496      7487      7777      7787      7497
 -1      7002    1    0    1
 -2      7487      7777      7787      7497      7488      7778      7788      7498
 -1      7003    1    0    1
 -2      7488      7778      7788      7498      7489      7779      7789      7499
 -1      7004    1    0    1
 -2      7489      7779      7789      7499      7490      7780      7790      7500
 -1      7005    1    0    1
 -2      7490      7780      7790      7500      7491      7781      7791      7501
 -1      7006    1    0    1
 -2      7491      7781      7791      7501      7492      7782      7792      7502
 -1      7007    1    0    1
 -2      7492      7782      7792      7502      2270      2299      2300      2271
 -1      7008    1    0    1
 -2       760       789       790       761      7493      7783      7793      7503
 -1      7009    1    0    1
 -2      7493      7783      7793      7503      7494      7784      7794      7504
 -1      7010    1    0    1
 -2      7494      7784      7794      7504      7495      7785      7795      7505
 -1      7011    1    0    1
 -2      7495      7785      7795      7505      7496      7786      7796      7506
 -1      7012    1    0    1
 -2      7496      7786      7796      7506      7497      7787      7797      7507
 -1      7013    1    0    1
 -2      7497      7787      7797      7507      7498      7788      7798      7508
 -1      7014    1    0    1
 -2      7498      7788      7798      7508      7499      7789      7799      7509
 -1      7015    1    0    1
 -2      7499      7789      7799      7509      7500      7790      7800      7510
 -1      7016    1    0    1
 -2      7500      7790      7800      7510      7501      7791      7801      7511
 -1      7017    1    0    1
 -2      7501      7791      7801      7511      7502      7792      7802      7512
 -1      7018    1    0    1
 -2      7502      7792      7802      7512      2271      2300      2301      2272
 -1      7019    1    0    1
 -2       761       790       791       762      7503      7793      7803      7513
 -1      7020    1    0    1
 -2      7503      7793      7803      7513      7504      7794      7804      7514
 -1      7021    1    0    1
 -2      7504      7794      7804      7514      7505      7795      7805      7515
 -1      7022    1    0    1
 -2      7505      7795      7805      7515      7506      7796      7806      7516
 -1      7023    1    0    1
 -2      7506      7796      7806      7516      7507      7797      7807      7517
 -1      7024    1    0    1
 -2      7507      7797      7807      7517      7508      7798      7808      7518
 -1      7025    1    0    1
 -2      7508      7798      7808      7518      7509      7799      7809      7519
 -1      7026    1    0    1
 -2      7509      7799      7809      7519      7510      7800      7810      7520
 -1      7027    1    0    1
 -2      7510      7800      7810      7520      7511      7801      7811      7521
 -1      7028    1    0    1
 -2      7511      7801      7811      7521      7512      7802      7812      7522
 -1      7029    1    0    1
 -2      7512      7802      7812      7522      2272      2301      2302      2273
 -1      7030    1    0    1
 -2       762       791        57        58      7513      7803      1272      1282
 -1      7031    1    0    1
 -2      7513      7803      1272      1282      7514      7804      1273      1283
 -1      7032    1    0    1
 -2      7514      7804      1273      1283      7515      7805      1274      1284
 -1      7033    1    0    1
 -2      7515      7805      1274      1284      7516      7806      1275      1285
 -1      7034    1    0    1
 -2      7516      7806      1275      1285      7517      7807      1276      1286
 -1      7035    1    0    1
 -2      7517      7807      1276      1286      7518      7808      1277      1287
 -1      7036    1    0    1
 -2      7518      7808      1277      1287      7519      7809      1278      1288
 -1      7037    1    0    1
 -2      7519      7809      1278      1288      7520      7810      1279      1289
 -1      7038    1    0    1
 -2      7520      7810      1279      1289      7521      7811      1280      1290
 -1      7039    1    0    1
 -2      7521      7811      1280      1290      7522      7812      1281      1291
 -1      7040    1    0    1
 -2      7522      7812      1281      1291      2273      2302       153       154
 -1      7041    1    0    1
 -2        27         2        28       763       972       211       982      7523
 -1      7042    1    0    1
 -2       972       211       982      7523       973       212       983      7524
 -1      7043    1    0    1
 -2       973       212       983      7524       974       213       984      7525
 -1      7044    1    0    1
 -2       974       213       984      7525       975       214       985      7526
 -1      7045    1    0    1
 -2       975       214       985      7526       976       215       986      7527
 -1      7046    1    0    1
 -2       976       215       986      7527       977       216       987      7528
 -1      7047    1    0    1
 -2       977       216       987      7528       978       217       988      7529
 -1      7048    1    0    1
 -2       978       217       988      7529       979       218       989      7530
 -1      7049    1    0    1
 -2       979       218       989      7530       980       219       990      7531
 -1      7050    1    0    1
 -2       980       219       990      7531       981       220       991      7532
 -1      7051    1    0    1
 -2       981       220       991      7532       123         6       124      2274
 -1      7052    1    0    1
 -2       763        28        29       764      7523       982       992      7533
 -1      7053    1    0    1
 -2      7523       982       992      7533      7524       983       993      7534
 -1      7054    1    0    1
 -2      7524       983       993      7534      7525       984       994      7535
 -1      7055    1    0    1
 -2      7525       984       994      7535      7526       985       995      7536
 -1      7056    1    0    1
 -2      7526       985       995      7536      7527       986       996      7537
 -1      7057    1    0    1
 -2      7527       986       996      7537      7528       987       997      7538
 -1      7058    1    0    1
 -2      7528       987       997      7538      7529       988       998      7539
 -1      7059    1    0    1
 -2      7529       988       998      7539      7530       989       999      7540
 -1      7060    1    0    1
 -2      7530       989       999      7540      7531       990      1000      7541
 -1      7061    1    0    1
 -2      7531       990      1000      7541      7532       991      1001      7542
 -1      7062    1    0    1
 -2      7532       991      1001      7542      2274       124       125      2275
 -1      7063    1    0    1
 -2       764        29        30       765      7533       992      1002      7543
 -1      7064    1    0    1
 -2      7533       992      1002      7543      7534       993      1003      7544
 -1      7065    1    0    1
 -2      7534       993      1003      7544      7535       994      1004      7545
 -1      7066    1    0    1
 -2      7535       994      1004      7545      7536       995      1005      7546
 -1      7067    1    0    1
 -2      7536       995      1005      7546      7537       996      1006      7547
 -1      7068    1    0    1
 -2      7537       996      1006      7547      7538       997      1007      7548
 -1      7069    1    0    1
 -2      7538       997      1007      7548      7539       998      1008      7549
 -1      7070    1    0    1
 -2      7539       998      1008      7549      7540       999      1009      7550
 -1      7071    1    0    1
 -2      7540       999      1009      7550      7541      1000      1010      7551
 -1      7072    1    0    1
 -2      7541      1000      1010      7551      7542      1001      1011      7552
 -1      7073    1    0    1
 -2      7542      1001      1011      7552      2275       125       126      2276
 -1      7074    1    0    1
 -2       765        30        31       766      7543      1002      1012      7553
 -1      7075    1    0    1
 -2      7543      1002      1012      7553      7544      1003      1013      7554
 -1      7076    1    0    1
 -2      7544      1003      1013      7554      7545      1004      1014      7555
 -1      7077    1    0    1
 -2      7545      1004      1014      7555      7546      1005      1015      7556
 -1      7078    1    0    1
 -2      7546      1005      1015      7556      7547      1006      1016      7557
 -1      7079    1    0    1
 -2      7547      1006      1016      7557      7548      1007      1017      7558
 -1      7080    1    0    1
 -2      7548      1007      1017      7558      7549      1008      1018      7559
 -1      7081    1    0    1
 -2      7549      1008      1018      7559      7550      1009      1019      7560
 -1      7082    1    0    1
 -2      7550      1009      1019      7560      7551      1010      1020      7561
 -1      7083    1    0    1
 -2      7551      1010      1020      7561      7552      1011      1021      7562
 -1      7084    1    0    1
 -2      7552      1011      1021      7562      2276       126       127      2277
 -1      7085    1    0    1
 -2       766        31        32       767      7553      1012      1022      7563
 -1      7086    1    0    1
 -2      7553      1012      1022      7563      7554      1013      1023      7564
 -1      7087    1    0    1
 -2      7554      1013      1023      7564      7555      1014      1024      7565
 -1      7088    1    0    1
 -2      7555      1014      1024      7565      7556      1015      1025      7566
 -1      7089    1    0    1
 -2      7556      1015      1025      7566      7557      1016      1026      7567
 -1      7090    1    0    1
 -2      7557      1016      1026      7567      7558      1017      1027      7568
 -1      7091    1    0    1
 -2      7558      1017      1027      7568      7559      1018      1028      7569
 -1      7092    1    0    1
 -2      7559      1018      1028      7569      7560      1019      1029      7570
 -1      7093    1    0    1
 -2      7560      1019      1029      7570      7561      1020      1030      7571
 -1      7094    1    0    1
 -2      7561      1020      1030      7571      7562      1021      1031      7572
 -1      7095    1    0    1
 -2      7562      1021      1031      7572      2277       127       128      2278
 -1      7096    1    0    1
 -2       767        32        33       768      7563      1022      1032      7573
 -1      7097    1    0    1
 -2      7563      1022      1032      7573      7564      1023      1033      7574
 -1      7098    1    0    1
 -2      7564      1023      1033      7574      7565      1024      1034      7575
 -1      7099    1    0    1
 -2      7565      1024      1034      7575      7566      1025      1035      7576
 -1      7100    1    0    1
 -2      7566      1025      1035      7576      7567      1026      1036      7577
 -1      7101    1    0    1
 -2      7567      1026      1036      7577      7568      1027      1037      7578
 -1      7102    1    0    1
 -2      7568      1027      1037      7578      7569      1028      1038      7579
 -1      7103    1    0    1
 -2      7569      1028      1038      7579      7570      1029      1039      7580
 -1      7104    1    0    1
 -2      7570      1029      1039      7580      7571      1030      1040      7581
 -1      7105    1    0    1
 -2      7571      1030      1040      7581      7572      1031      1041      7582
 -1      7106    1    0    1
 -2      7572      1031      1041      7582      2278       128       129      2279
 -1      7107    1    0    1
 -2       768        33        34       769      7573      1032      1042      7583
 -1      7108    1    0    1
 -2      7573      1032      1042      7583      7574      1033      1043      7584
 -1      7109    1    0    1
 -2      7574      1033      1043      7584      7575      1034      1044      7585
 -1      7110    1    0    1
 -2      7575      1034      1044      7585      7576      1035      1045      7586
 -1      7111    1    0    1
 -2      7576      1035      1045      7586      7577      1036      1046      7587
 -1      7112    1    0    1
 -2      7577      1036      1046      7587      7578      1037      1047      7588
 -1      7113    1    0    1
 -2      7578      1037      1047      7588      7579      1038      1048      7589
 -1      7114    1    0    1
 -2      7579      1038      1048      7589      7580      1039      1049      7590
 -1      7115    1    0    1
 -2      7580      1039      1049      7590      7581      1040      1050      7591
 -1      7116    1    0    1
 -2      7581      1040      1050      7591      7582      1041      1051      7592
 -1      7117    1    0    1
 -2      7582      1041      1051      7592      2279       129       130      2280
 -1      7118    1    0    1
 -2       769        34        35       770      7583      1042      1052      7593
 -1      7119    1    0    1
 -2      7583      1042      1052      7593      7584      1043      1053      7594
 -1      7120    1    0    1
 -2      7584      1043      1053      7594      7585      1044      1054      7595
 -1      7121    1    0    1
 -2      7585      1044      1054      7595      7586      1045      1055      7596
 -1      7122    1    0    1
 -2      7586      1045      1055      7596      7587      1046      1056      7597
 -1      7123    1    0    1
 -2      7587      1046      1056      7597      7588      1047      1057      7598
 -1      7124    1    0    1
 -2      7588      1047      1057      7598      7589      1048      1058      7599
 -1      7125    1    0    1
 -2      7589      1048      1058      7599      7590      1049      1059      7600
 -1      7126    1    0    1
 -2      7590      1049      1059      7600      7591      1050      1060      7601
 -1      7127    1    0    1
 -2      7591      1050      1060      7601      7592      1051      1061      7602
 -1      7128    1    0    1
 -2      7592      1051      1061      7602      2280       130       131      2281
 -1      7129    1    0    1
 -2       770        35        36       771      7593      1052      1062      7603
 -1      7130    1    0    1
 -2      7593      1052      1062      7603      7594      1053      1063      7604
 -1      7131    1    0    1
 -2      7594      1053      1063      7604      7595      1054      1064      7605
 -1      7132    1    0    1
 -2      7595      1054      1064      7605      7596      1055      1065      7606
 -1      7133    1    0    1
 -2      7596      1055      1065      7606      7597      1056      1066      7607
 -1      7134    1    0    1
 -2      7597      1056      1066      7607      7598      1057      1067      7608
 -1      7135    1    0    1
 -2      7598      1057      1067      7608      7599      1058      1068      7609
 -1      7136    1    0    1
 -2      7599      1058      1068      7609      7600      1059      1069      7610
 -1      7137    1    0    1
 -2      7600      1059      1069      7610      7601      1060      1070      7611
 -1      7138    1    0    1
 -2      7601      1060      1070      7611      7602      1061      1071      7612
 -1      7139    1    0    1
 -2      7602      1061      1071      7612      2281       131       132      2282
 -1      7140    1    0    1
 -2       771        36        37       772      7603      1062      1072      7613
 -1      7141    1    0    1
 -2      7603      1062      1072      7613      7604      1063      1073      7614
 -1      7142    1    0    1
 -2      7604      1063      1073      7614      7605      1064      1074      7615
 -1      7143    1    0    1
 -2      7605      1064      1074      7615      7606      1065      1075      7616
 -1      7144    1    0    1
 -2      7606      1065      1075      7616      7607      1066      1076      7617
 -1      7145    1    0    1
 -2      7607      1066      1076      7617      7608      1067      1077      7618
 -1      7146    1    0    1
 -2      7608      1067      1077      7618      7609      1068      1078      7619
 -1      7147    1    0    1
 -2      7609      1068      1078      7619      7610      1069      1079      7620
 -1      7148    1    0    1
 -2      7610      1069      1079      7620      7611      1070      1080      7621
 -1      7149    1    0    1
 -2      7611      1070      1080      7621      7612      1071      1081      7622
 -1      7150    1    0    1
 -2      7612      1071      1081      7622      2282       132       133      2283
 -1      7151    1    0    1
 -2       772        37        38       773      7613      1072      1082      7623
 -1      7152    1    0    1
 -2      7613      1072      1082      7623      7614      1073      1083      7624
 -1      7153    1    0    1
 -2      7614      1073      1083      7624      7615      1074      1084      7625
 -1      7154    1    0    1
 -2      7615      1074      1084      7625      7616      1075      1085      7626
 -1      7155    1    0    1
 -2      7616      1075      1085      7626      7617      1076      1086      7627
 -1      7156    1    0    1
 -2      7617      1076      1086      7627      7618      1077      1087      7628
 -1      7157    1    0    1
 -2      7618      1077      1087      7628      7619      1078      1088      7629
 -1      7158    1    0    1
 -2      7619      1078      1088      7629      7620      1079      1089      7630
 -1      7159    1    0    1
 -2      7620      1079      1089      7630      7621      1080      1090      7631
 -1      7160    1    0    1
 -2      7621      1080      1090      7631      7622      1081      1091      7632
 -1      7161    1    0    1
 -2      7622      1081      1091      7632      2283       133       134      2284
 -1      7162    1    0    1
 -2       773        38        39       774      7623      1082      1092      7633
 -1      7163    1    0    1
 -2      7623      1082      1092      7633      7624      1083      1093      7634
 -1      7164    1    0    1
 -2      7624      1083      1093      7634      7625      1084      1094      7635
 -1      7165    1    0    1
 -2      7625      1084      1094      7635      7626      1085      1095      7636
 -1      7166    1    0    1
 -2      7626      1085      1095      7636      7627      1086      1096      7637
 -1      7167    1    0    1
 -2      7627      1086      1096      7637      7628      1087      1097      7638
 -1      7168    1    0    1
 -2      7628      1087      1097      7638      7629      1088      1098      7639
 -1      7169    1    0    1
 -2      7629      1088      1098      7639      7630      1089      1099      7640
 -1      7170    1    0    1
 -2      7630      1089      1099      7640      7631      1090      1100      7641
 -1      7171    1    0    1
 -2      7631      1090      1100      7641      7632      1091      1101      7642
 -1      7172    1    0    1
 -2      7632      1091      1101      7642      2284       134       135      2285
 -1      7173    1    0    1
 -2       774        39        40       775      7633      1092      1102      7643
 -1      7174    1    0    1
 -2      7633      1092      1102      7643      7634      1093      1103      7644
 -1      7175    1    0    1
 -2      7634      1093      1103      7644      7635      1094      1104      7645
 -1      7176    1    0    1
 -2      7635      1094      1104      7645      7636      1095      1105      7646
 -1      7177    1    0    1
 -2      7636      1095      1105      7646      7637      1096      1106      7647
 -1      7178    1    0    1
 -2      7637      1096      1106      7647      7638      1097      1107      7648
 -1      7179    1    0    1
 -2      7638      1097      1107      7648      7639      1098      1108      7649
 -1      7180    1    0    1
 -2      7639      1098      1108      7649      7640      1099      1109      7650
 -1      7181    1    0    1
 -2      7640      1099      1109      7650      7641      1100      1110      7651
 -1      7182    1    0    1
 -2      7641      1100      1110      7651      7642      1101      1111      7652
 -1      7183    1    0    1
 -2      7642      1101      1111      7652      2285       135       136      2286
 -1      7184    1    0    1
 -2       775        40        41       776      7643      1102      1112      7653
 -1      7185    1    0    1
 -2      7643      1102      1112      7653      7644      1103      1113      7654
 -1      7186    1    0    1
 -2      7644      1103      1113      7654      7645      1104      1114      7655
 -1      7187    1    0    1
 -2      7645      1104      1114      7655      7646      1105      1115      7656
 -1      7188    1    0    1
 -2      7646      1105      1115      7656      7647      1106      1116      7657
 -1      7189    1    0    1
 -2      7647      1106      1116      7657      7648      1107      1117      7658
 -1      7190    1    0    1
 -2      7648      1107      1117      7658      7649      1108      1118      7659
 -1      7191    1    0    1
 -2      7649      1108      1118      7659      7650      1109      1119      7660
 -1      7192    1    0    1
 -2      7650      1109      1119      7660      7651      1110      1120      7661
 -1      7193    1    0    1
 -2      7651      1110      1120      7661      7652      1111      1121      7662
 -1      7194    1    0    1
 -2      7652      1111      1121      7662      2286       136       137      2287
 -1      7195    1    0    1
 -2       776        41        42       777      7653      1112      1122      7663
 -1      7196    1    0    1
 -2      7653      1112      1122      7663      7654      1113      1123      7664
 -1      7197    1    0    1
 -2      7654      1113      1123      7664      7655      1114      1124      7665
 -1      7198    1    0    1
 -2      7655      1114      1124      7665      7656      1115      1125      7666
 -1      7199    1    0    1
 -2      7656      1115      1125      7666      7657      1116      1126      7667
 -1      7200    1    0    1
 -2      7657      1116      1126      7667      7658      1117      1127      7668
 -1      7201    1    0    1
 -2      7658      1117      1127      7668      7659      1118      1128      7669
 -1      7202    1    0    1
 -2      7659      1118      1128      7669      7660      1119      1129      7670
 -1      7203    1    0    1
 -2      7660      1119      1129      7670      7661      1120      1130      7671
 -1      7204    1    0    1
 -2      7661      1120      1130      7671      7662      1121      1131      7672
 -1      7205    1    0    1
 -2      7662      1121      1131      7672      2287       137       138      2288
 -1      7206    1    0    1
 -2       777        42        43       778      7663      1122      1132      7673
 -1      7207    1    0    1
 -2      7663      1122      1132      7673      7664      1123      1133      7674
 -1      7208    1    0    1
 -2      7664      1123      1133      7674      7665      1124      1134      7675
 -1      7209    1    0    1
 -2      7665      1124      1134      7675      7666      1125      1135      7676
 -1      7210    1    0    1
 -2      7666      1125      1135      7676      7667      1126      1136      7677
 -1      7211    1    0    1
 -2      7667      1126      1136      7677      7668      1127      1137      7678
 -1      7212    1    0    1
 -2      7668      1127      1137      7678      7669      1128      1138      7679
 -1      7213    1    0    1
 -2      7669      1128      1138      7679      7670      1129      1139      7680
 -1      7214    1    0    1
 -2      7670      1129      1139      7680      7671      1130      1140      7681
 -1      7215    1    0    1
 -2      7671      1130      1140      7681      7672      1131      1141      7682
 -1      7216    1    0    1
 -2      7672      1131      1141      7682      2288       138       139      2289
 -1      7217    1    0    1
 -2       778        43        44       779      7673      1132      1142      7683
 -1      7218    1    0    1
 -2      7673      1132      1142      7683      7674      1133      1143      7684
 -1      7219    1    0    1
 -2      7674      1133      1143      7684      7675      1134      1144      7685
 -1      7220    1    0    1
 -2      7675      1134      1144      7685      7676      1135      1145      7686
 -1      7221    1    0    1
 -2      7676      1135      1145      7686      7677      1136      1146      7687
 -1      7222    1    0    1
 -2      7677      1136      1146      7687      7678      1137      1147      7688
 -1      7223    1    0    1
 -2      7678      1137      1147      7688      7679      1138      1148      7689
 -1      7224    1    0    1
 -2      7679      1138      1148      7689      7680      1139      1149      7690
 -1      7225    1    0    1
 -2      7680      1139      1149      7690      7681      1140      1150      7691
 -1      7226    1    0    1
 -2      7681      1140      1150      7691      7682      1141      1151      7692
 -1      7227    1    0    1
 -2      7682      1141      1151      7692      2289       139       140      2290
 -1      7228    1    0    1
 -2       779        44        45       780      7683      1142      1152      7693
 -1      7229    1    0    1
 -2      7683      1142      1152      7693      7684      1143      1153      7694
 -1      7230    1    0    1
 -2      7684      1143      1153      7694      7685      1144      1154      7695
 -1      7231    1    0    1
 -2      7685      1144      1154      7695      7686      1145      1155      7696
 -1      7232    1    0    1
 -2      7686      1145      1155      7696      7687      1146      1156      7697
 -1      7233    1    0    1
 -2      7687      1146      1156      7697      7688      1147      1157      7698
 -1      7234    1    0    1
 -2      7688      1147      1157      7698      7689      1148      1158      7699
 -1      7235    1    0    1
 -2      7689      1148      1158      7699      7690      1149      1159      7700
 -1      7236    1    0    1
 -2      7690      1149      1159      7700      7691      1150      1160      7701
 -1      7237    1    0    1
 -2      7691      1150      1160      7701      7692      1151      1161      7702
 -1      7238    1    0    1
 -2      7692      1151      1161      7702      2290       140       141      2291
 -1      7239    1    0    1
 -2       780        45        46       781      7693      1152      1162      7703
 -1      7240    1    0    1
 -2      7693      1152      1162      7703      7694      1153      1163      7704
 -1      7241    1    0    1
 -2      7694      1153      1163      7704      7695      1154      1164      7705
 -1      7242    1    0    1
 -2      7695      1154      1164      7705      7696      1155      1165      7706
 -1      7243    1    0    1
 -2      7696      1155      1165      7706      7697      1156      1166      7707
 -1      7244    1    0    1
 -2      7697      1156      1166      7707      7698      1157      1167      7708
 -1      7245    1    0    1
 -2      7698      1157      1167      7708      7699      1158      1168      7709
 -1      7246    1    0    1
 -2      7699      1158      1168      7709      7700      1159      1169      7710
 -1      7247    1    0    1
 -2      7700      1159      1169      7710      7701      1160      1170      7711
 -1      7248    1    0    1
 -2      7701      1160      1170      7711      7702      1161      1171      7712
 -1      7249    1    0    1
 -2      7702      1161      1171      7712      2291       141       142      2292
 -1      7250    1    0    1
 -2       781        46        47       782      7703      1162      1172      7713
 -1      7251    1    0    1
 -2      7703      1162      1172      7713      7704      1163      1173      7714
 -1      7252    1    0    1
 -2      7704      1163      1173      7714      7705      1164      1174      7715
 -1      7253    1    0    1
 -2      7705      1164      1174      7715      7706      1165      1175      7716
 -1      7254    1    0    1
 -2      7706      1165      1175      7716      7707      1166      1176      7717
 -1      7255    1    0    1
 -2      7707      1166      1176      7717      7708      1167      1177      7718
 -1      7256    1    0    1
 -2      7708      1167      1177      7718      7709      1168      1178      7719
 -1      7257    1    0    1
 -2      7709      1168      1178      7719      7710      1169      1179      7720
 -1      7258    1    0    1
 -2      7710      1169      1179      7720      7711      1170      1180      7721
 -1      7259    1    0    1
 -2      7711      1170      1180      7721      7712      1171      1181      7722
 -1      7260    1    0    1
 -2      7712      1171      1181      7722      2292       142       143      2293
 -1      7261    1    0    1
 -2       782        47        48       783      7713      1172      1182      7723
 -1      7262    1    0    1
 -2      7713      1172      1182      7723      7714      1173      1183      7724
 -1      7263    1    0    1
 -2      7714      1173      1183      7724      7715      1174      1184      7725
 -1      7264    1    0    1
 -2      7715      1174      1184      7725      7716      1175      1185      7726
 -1      7265    1    0    1
 -2      7716      1175      1185      7726      7717      1176      1186      7727
 -1      7266    1    0    1
 -2      7717      1176      1186      7727      7718      1177      1187      7728
 -1      7267    1    0    1
 -2      7718      1177      1187      7728      7719      1178      1188      7729
 -1      7268    1    0    1
 -2      7719      1178      1188      7729      7720      1179      1189      7730
 -1      7269    1    0    1
 -2      7720      1179      1189      7730      7721      1180      1190      7731
 -1      7270    1    0    1
 -2      7721      1180      1190      7731      7722      1181      1191      7732
 -1      7271    1    0    1
 -2      7722      1181      1191      7732      2293       143       144      2294
 -1      7272    1    0    1
 -2       783        48        49       784      7723      1182      1192      7733
 -1      7273    1    0    1
 -2      7723      1182      1192      7733      7724      1183      1193      7734
 -1      7274    1    0    1
 -2      7724      1183      1193      7734      7725      1184      1194      7735
 -1      7275    1    0    1
 -2      7725      1184      1194      7735      7726      1185      1195      7736
 -1      7276    1    0    1
 -2      7726      1185      1195      7736      7727      1186      1196      7737
 -1      7277    1    0    1
 -2      7727      1186      1196      7737      7728      1187      1197      7738
 -1      7278    1    0    1
 -2      7728      1187      1197      7738      7729      1188      1198      7739
 -1      7279    1    0    1
 -2      7729      1188      1198      7739      7730      1189      1199      7740
 -1      7280    1    0    1
 -2      7730      1189      1199      7740      7731      1190      1200      7741
 -1      7281    1    0    1
 -2      7731      1190      1200      7741      7732      1191      1201      7742
 -1      7282    1    0    1
 -2      7732      1191      1201      7742      2294       144       145      2295
 -1      7283    1    0    1
 -2       784        49        50       785      7733      1192      1202      7743
 -1      7284    1    0    1
 -2      7733      1192      1202      7743      7734      1193      1203      7744
 -1      7285    1    0    1
 -2      7734      1193      1203      7744      7735      1194      1204      7745
 -1      7286    1    0    1
 -2      7735      1194      1204      7745      7736      1195      1205      7746
 -1      7287    1    0    1
 -2      7736      1195      1205      7746      7737      1196      1206      7747
 -1      7288    1    0    1
 -2      7737      1196      1206      7747      7738      1197      1207      7748
 -1      7289    1    0    1
 -2      7738      1197      1207      7748      7739      1198      1208      7749
 -1      7290    1    0    1
 -2      7739      1198      1208      7749      7740      1199      1209      7750
 -1      7291    1    0    1
 -2      7740      1199      1209      7750      7741      1200      1210      7751
 -1      7292    1    0    1
 -2      7741      1200      1210      7751      7742      1201      1211      7752
 -1      7293    1    0    1
 -2      7742      1201      1211      7752      2295       145       146      2296
 -1      7294    1    0    1
 -2       785        50        51       786      7743      1202      1212      7753
 -1      7295    1    0    1
 -2      7743      1202      1212      7753      7744      1203      1213      7754
 -1      7296    1    0    1
 -2      7744      1203      1213      7754      7745      1204      1214      7755
 -1      7297    1    0    1
 -2      7745      1204      1214      7755      7746      1205      1215      7756
 -1      7298    1    0    1
 -2      7746      1205      1215      7756      7747      1206      1216      7757
 -1      7299    1    0    1
 -2      7747      1206      1216      7757      7748      1207      1217      7758
 -1      7300    1    0    1
 -2      7748      1207      1217      7758      7749      1208      1218      7759
 -1      7301    1    0    1
 -2      7749      1208      1218      7759      7750      1209      1219      7760
 -1      7302    1    0    1
 -2      7750      1209      1219      7760      7751      1210      1220      7761
 -1      7303    1    0    1
 -2      7751      1210      1220      7761      7752      1211      1221      7762
 -1      7304    1    0    1
 -2      7752      1211      1221      7762      2296       146       147      2297
 -1      7305    1    0    1
 -2       786        51        52       787      7753      1212      1222      7763
 -1      7306    1    0    1
 -2      7753      1212      1222      7763      7754      1213      1223      7764
 -1      7307    1    0    1
 -2      7754      1213      1223      7764      7755      1214      1224      7765
 -1      7308    1    0    1
 -2      7755      1214      1224      7765      7756      1215      1225      7766
 -1      7309    1    0    1
 -2      7756      1215      1225      7766      7757      1216      1226      7767
 -1      7310    1    0    1
 -2      7757      1216      1226      7767      7758      1217      1227      7768
 -1      7311    1    0    1
 -2      7758      1217      1227      7768      7759      1218      1228      7769
 -1      7312    1    0    1
 -2      7759      1218      1228      7769      7760      1219      1229      7770
 -1      7313    1    0    1
 -2      7760      1219      1229      7770      7761      1220      1230      7771
 -1      7314    1    0    1
 -2      7761      1220      1230      7771      7762      1221      1231      7772
 -1      7315    1    0    1
 -2      7762      1221      1231      7772      2297       147       148      2298
 -1      7316    1    0    1
 -2       787        52        53       788      7763      1222      1232      7773
 -1      7317    1    0    1
 -2      7763      1222      1232      7773      7764      1223      1233      7774
 -1      7318    1    0    1
 -2      7764      1223      1233      7774      7765      1224      1234      7775
 -1      7319    1    0    1
 -2      7765      1224      1234      7775      7766      1225      1235      7776
 -1      7320    1    0    1
 -2      7766      1225      1235      7776      7767      1226      1236      7777
 -1      7321    1    0    1
 -2      7767      1226      1236      7777      7768      1227      1237      7778
 -1      7322    1    0    1
 -2      7768      1227      1237      7778      7769      1228      1238      7779
 -1      7323    1    0    1
 -2      7769      1228      1238      7779      7770      1229      1239      7780
 -1      7324    1    0    1
 -2      7770      1229      1239      7780      7771      1230      1240      7781
 -1      7325    1    0    1
 -2      7771      1230      1240      7781      7772      1231      1241      7782
 -1      7326    1    0    1
 -2      7772      1231      1241      7782      2298       148       149      2299
 -1      7327    1    0    1
 -2       788        53        54       789      7773      1232      1242      7783
 -1      7328    1    0    1
 -2      7773      1232      1242      7783      7774      1233      1243      7784
 -1      7329    1    0    1
 -2      7774      1233      1243      7784      7775      1234      1244      7785
 -1      7330    1    0    1
 -2      7775      1234      1244      7785      7776      1235      1245      7786
 -1      7331    1    0    1
 -2      7776      1235      1245      7786      7777      1236      1246      7787
 -1      7332    1    0    1
 -2      7777      1236      1246      7787      7778      1237      1247      7788
 -1      7333    1    0    1
 -2      7778      1237      1247      7788      7779      1238      1248      7789
 -1      7334    1    0    1
 -2      7779      1238      1248      7789      7780      1239      1249      7790
 -1      7335    1    0    1
 -2      7780      1239      1249      7790      7781      1240      1250      7791
 -1      7336    1    0    1
 -2      7781      1240      1250      7791      7782      1241      1251      7792
 -1      7337    1    0    1
 -2      7782      1241      1251      7792      2299       149       150      2300
 -1      7338    1    0    1
 -2       789        54        55       790      7783      1242      1252      7793
 -1      7339    1    0    1
 -2      7783      1242      1252      7793      7784      1243      1253      7794
 -1      7340    1    0    1
 -2      7784      1243      1253      7794      7785      1244      1254      7795
 -1      7341    1    0    1
 -2      7785      1244      1254      7795      7786      1245      1255      7796
 -1      7342    1    0    1
 -2      7786      1245      1255      7796      7787      1246      1256      7797
 -1      7343    1    0    1
 -2      7787      1246      1256      7797      7788      1247      1257      7798
 -1      7344    1    0    1
 -2      7788      1247      1257      7798      7789      1248      1258      7799
 -1      7345    1    0    1
 -2      7789      1248      1258      7799      7790      1249      1259      7800
 -1      7346    1    0    1
 -2      7790      1249      1259      7800      7791      1250      1260      7801
 -1      7347    1    0    1
 -2      7791      1250      1260      7801      7792      1251      1261      7802
 -1      7348    1    0    1
 -2      7792      1251      1261      7802      2300       150       151      2301
 -1      7349    1    0    1
 -2       790        55        56       791      7793      1252      1262      7803
 -1      7350    1    0    1
 -2      7793      1252      1262      7803      7794      1253      1263      7804
 -1      7351    1    0    1
 -2      7794      1253      1263      7804      7795      1254      1264      7805
 -1      7352    1    0    1
 -2      7795      1254      1264      7805      7796      1255      1265      7806
 -1      7353    1    0    1
 -2      7796      1255      1265      7806      7797      1256      1266      7807
 -1      7354    1    0    1
 -2      7797      1256      1266      7807      7798      1257      1267      7808
 -1      7355    1    0    1
 -2      7798      1257      1267      7808      7799      1258      1268      7809
 -1      7356    1    0    1
 -2      7799      1258      1268      7809      7800      1259      1269      7810
 -1      7357    1    0    1
 -2      7800      1259      1269      7810      7801      1260      1270      7811
 -1      7358    1    0    1
 -2      7801      1260      1270      7811      7802      1261      1271      7812
 -1      7359    1    0    1
 -2      7802      1261      1271      7812      2301       151       152      2302
 -1      7360    1    0    1
 -2       791        56         3        57      7803      1262       221      1272
 -1      7361    1    0    1
 -2      7803      1262       221      1272      7804      1263       222      1273
 -1      7362    1    0    1
 -2      7804      1263       222      1273      7805      1264       223      1274
 -1      7363    1    0    1
 -2      7805      1264       223      1274      7806      1265       224      1275
 -1      7364    1    0    1
 -2      7806      1265       224      1275      7807      1266       225      1276
 -1      7365    1    0    1
 -2      7807      1266       225      1276      7808      1267       226      1277
 -1      7366    1    0    1
 -2      7808      1267       226      1277      7809      1268       227      1278
 -1      7367    1    0    1
 -2      7809      1268       227      1278      7810      1269       228      1279
 -1      7368    1    0    1
 -2      7810      1269       228      1279      7811      1270       229      1280
 -1      7369    1    0    1
 -2      7811      1270       229      1280      7812      1271       230      1281
 -1      7370    1    0    1
 -2      7812      1271       230      1281      2302       152         7       153
 -3
    1PSTEP                         1           1           1          
  100CL  101 1.000000000        7812                     0    1           1
 -4  DISP        4    1
 -5  D1          1    2    1    0
 -5  D2          1    2    2    0
 -5  D3          1    2    3    0
 -5  ALL         1    2    0    0    1ALL
 -1         1 8.96153E-03 0.00000E+00-4.99391E-03
 -1         2 8.81429E-03 0.00000E+00-4.99397E-03
 -1         3 0.00000E+00 8.81429E-03-4.99397E-03
 -1         4 0.00000E+00 8.96153E-03-4.99391E-03
 -1         5 8.96153E-03 0.00000E+00-5.25844E-03
 -1         6 8.81429E-03 0.00000E+00-5.25838E-03
 -1         7 0.00000E+00 8.81429E-03-5.25838E-03
 -1         8 0.00000E+00 8.96153E-03-5.25844E-03
 -1         9 8.95342E-03 0.00000E+00-4.99392E-03
 -1        10 8.94539E-03 0.00000E+00-4.99393E-03
 -1        11 8.93744E-03 0.00000E+00-4.99393E-03
 -1        12 8.92958E-03 0.00000E+00-4.99393E-03
 -1        13 8.92179E-03 0.00000E+00-4.99394E-03
 -1        14 8.91409E-03 0.00000E+00-4.99394E-03
 -1        15 8.90646E-03 0.00000E+00-4.99394E-03
 -1        16 8.89891E-03 0.00000E+00-4.99394E-03
 -1        17 8.89144E-03 0.00000E+00-4.99394E-03
 -1        18 8.88405E-03 0.00000E+00-4.99394E-03
 -1        19 8.87674E-03 0.00000E+00-4.99395E-03
 -1        20 8.86950E-03 0.00000E+00-4.99395E-03
 -1        21 8.86234E-03 0.00000E+00-4.99395E-03
 -1        22 8.85526E-03 0.00000E+00-4.99395E-03
 -1        23 8.84824E-03 0.00000E+00-4.99395E-03
 -1        24 8.84131E-03 0.00000E+00-4.99395E-03
 -1        25 8.83444E-03 0.00000E+00-4.99396E-03
 -1        26 8.82765E-03 0.00000E+00-4.99396E-03
 -1        27 8.82094E-03 0.00000E+00-4.99396E-03
 -1        28 8.80221E-03 4.61304E-04-4.99397E-03
 -1        29 8.76600E-03 9.21344E-04-4.99397E-03
 -1        30 8.70577E-03 1.37886E-03-4.99397E-03
 -1        31 8.62168E-03 1.83259E-03-4.99397E-03
 -1        32 8.51395E-03 2.28131E-03-4.99397E-03
 -1        33 8.38289E-03 2.72377E-03-4.99397E-03
 -1        34 8.22885E-03 3.15876E-03-4.99397E-03
 -1        35 8.05226E-03 3.58510E-03-4.99397E-03
 -1        36 7.85359E-03 4.00160E-03-4.99397E-03
 -1        37 7.63340E-03 4.40715E-03-4.99397E-03
 -1        38 7.39229E-03 4.80061E-03-4.99397E-03
 -1        39 7.13091E-03 5.18091E-03-4.99397E-03
 -1        40 6.84999E-03 5.54701E-03-4.99397E-03
 -1        41 6.55029E-03 5.89791E-03-4.99397E-03
 -1        42 6.23264E-03 6.23264E-03-4.99397E-03
 -1        43 5.89791E-03 6.55029E-03-4.99397E-03
 -1        44 5.54701E-03 6.84999E-03-4.99397E-03
 -1        45 5.18091E-03 7.13091E-03-4.99397E-03
 -1        46 4.80061E-03 7.39229E-03-4.99397E-03
 -1        47 4.40715E-03 7.63340E-03-4.99397E-03
 -1        48 4.00160E-03 7.85359E-03-4.99397E-03
 -1        49 3.58510E-03 8.05226E-03-4.99397E-03
 -1        50 3.15876E-03 8.22885E-03-4.99397E-03
 -1        51 2.72377E-03 8.38289E-03-4.99397E-03
 -1        52 2.28131E-03 8.51395E-03-4.99397E-03
 -1        53 1.83259E-03 8.62168E-03-4.99397E-03
 -1        54 1.37886E-03 8.70577E-03-4.99397E-03
 -1        55 9.21344E-04 8.76600E-03-4.99397E-03
 -1        56 4.61304E-04 8.80221E-03-4.99397E-03
 -1        57 0.00000E+00 8.82094E-03-4.99396E-03
 -1        58 0.00000E+00 8.82765E-03-4.99396E-03
 -1        59 0.00000E+00 8.83444E-03-4.99396E-03
 -1        60 0.00000E+00 8.84131E-03-4.99395E-03
 -1        61 0.00000E+00 8.84824E-03-4.99395E-03
 -1        62 0.00000E+00 8.85526E-03-4.99395E-03
 -1        63 0.00000E+00 8.86234E-03-4.99395E-03
 -1        64 0.00000E+00 8.86950E-03-4.99395E-03
 -1        65 0.00000E+00 8.87674E-03-4.99395E-03
 -1        66 0.00000E+00 8.88405E-03-4.99394E-03
 -1        67 0.00000E+00 8.89144E-03-4.99394E-03
 -1        68 0.00000E+00 8.89891E-03-4.99394E-03
 -1        69 0.00000E+00 8.90646E-03-4.99394E-03
 -1        70 0.00000E+00 8.91409E-03-4.99394E-03
 -1        71 0.00000E+00 8.92179E-03-4.99394E-03
 -1        72 0.00000E+00 8.92958E-03-4.99393E-03
 -1        73 0.00000E+00 8.93744E-03-4.99393E-03
 -1        74 0.00000E+00 8.94539E-03-4.99393E-03
 -1        75 0.00000E+00 8.95342E-03-4.99392E-03
 -1        76 4.69010E-04 8.94925E-03-4.99391E-03
 -1        77 9.36735E-04 8.91244E-03-4.99391E-03
 -1        78 1.40189E-03 8.85120E-03-4.99391E-03
 -1        79 1.86321E-03 8.76570E-03-4.99391E-03
 -1        80 2.31942E-03 8.65618E-03-4.99391E-03
 -1        81 2.76927E-03 8.52292E-03-4.99391E-03
 -1        82 3.21153E-03 8.36631E-03-4.99391E-03
 -1        83 3.64498E-03 8.18677E-03-4.99391E-03
 -1        84 4.06845E-03 7.98478E-03-4.99391E-03
 -1        85 4.48077E-03 7.76092E-03-4.99391E-03
 -1        86 4.88080E-03 7.51577E-03-4.99391E-03
 -1        87 5.26746E-03 7.25003E-03-4.99391E-03
 -1        88 5.63968E-03 6.96442E-03-4.99391E-03
 -1        89 5.99644E-03 6.65972E-03-4.99391E-03
 -1        90 6.33676E-03 6.33676E-03-4.99391E-03
 -1        91 6.65972E-03 5.99644E-03-4.99391E-03
 -1        92 6.96442E-03 5.63968E-03-4.99391E-03
 -1        93 7.25003E-03 5.26746E-03-4.99391E-03
 -1        94 7.51577E-03 4.88080E-03-4.99391E-03
 -1        95 7.76092E-03 4.48077E-03-4.99391E-03
 -1        96 7.98478E-03 4.06845E-03-4.99391E-03
 -1        97 8.18677E-03 3.64498E-03-4.99391E-03
 -1        98 8.36631E-03 3.21153E-03-4.99391E-03
 -1        99 8.52292E-03 2.76927E-03-4.99391E-03
 -1       100 8.65618E-03 2.31942E-03-4.99391E-03
 -1       101 8.76570E-03 1.86321E-03-4.99391E-03
 -1       102 8.85120E-03 1.40189E-03-4.99391E-03
 -1       103 8.91244E-03 9.36735E-04-4.99391E-03
 -1       104 8.94925E-03 4.69010E-04-4.99391E-03
 -1       105 8.95342E-03 0.00000E+00-5.25843E-03
 -1       106 8.94539E-03 0.00000E+00-5.25843E-03
 -1       107 8.93744E-03 0.00000E+00-5.25843E-03
 -1       108 8.92958E-03 0.00000E+00-5.25842E-03
 -1       109 8.92179E-03 0.00000E+00-5.25842E-03
 -1       110 8.91409E-03 0.00000E+00-5.25842E-03
 -1       111 8.90646E-03 0.00000E+00-5.25842E-03
 -1       112 8.89891E-03 0.00000E+00-5.25842E-03
 -1       113 8.89144E-03 0.00000E+00-5.25841E-03
 -1       114 8.88405E-03 0.00000E+00-5.25841E-03
 -1       115 8.87674E-03 0.00000E+00-5.25841E-03
 -1       116 8.86950E-03 0.00000E+00-5.25841E-03
 -1       117 8.86234E-03 0.00000E+00-5.25841E-03
 -1       118 8.85526E-03 0.00000E+00-5.25841E-03
 -1       119 8.84824E-03 0.00000E+00-5.25841E-03
 -1       120 8.84131E-03 0.00000E+00-5.25840E-03
 -1       121 8.83444E-03 0.00000E+00-5.25840E-03
 -1       122 8.82765E-03 0.00000E+00-5.25840E-03
 -1       123 8.82094E-03 0.00000E+00-5.25839E-03
 -1       124 8.80221E-03 4.61304E-04-5.25838E-03
 -1       125 8.76600E-03 9.21344E-04-5.25838E-03
 -1       126 8.70577E-03 1.37886E-03-5.25838E-03
 -1       127 8.62168E-03 1.83259E-03-5.25838E-03
 -1       128 8.51395E-03 2.28131E-03-5.25838E-03
 -1       129 8.38289E-03 2.72377E-03-5.25838E-03
 -1       130 8.22885E-03 3.15876E-03-5.25838E-03
 -1       131 8.05226E-03 3.58510E-03-5.25838E-03
 -1       132 7.85359E-03 4.00160E-03-5.25838E-03
 -1       133 7.63340E-03 4.40715E-03-5.25838E-03
 -1       134 7.39229E-03 4.80061E-03-5.25838E-03
 -1       135 7.13091E-03 5.18091E-03-5.25838E-03
 -1       136 6.84999E-03 5.54701E-03-5.25838E-03
 -1       137 6.55029E-03 5.89791E-03-5.25838E-03
 -1       138 6.23264E-03 6.23264E-03-5.25838E-03
 -1       139 5.89791E-03 6.55029E-03-5.25838E-03
 -1       140 5.54701E-03 6.84999E-03-5.25838E-03
 -1       141 5.18091E-03 7.13091E-03-5.25838E-03
 -1       142 4.80061E-03 7.39229E-03-5.25838E-03
 -1       143 4.40715E-03 7.63340E-03-5.25838E-03
 -1       144 4.00160E-03 7.85359E-03-5.25838E-03
 -1       145 3.58510E-03 8.05226E-03-5.25838E-03
 -1       146 3.15876E-03 8.22885E-03-5.25838E-03
 -1       147 2.72377E-03 8.38289E-03-5.25838E-03
 -1       148 2.28131E-03 8.51395E-03-5.25838E-03
 -1       149 1.83259E-03 8.62168E-03-5.25838E-03
 -1       150 1.37886E-03 8.70577E-03-5.25838E-03
 -1       151 9.21344E-04 8.76600E-03-5.25838E-03
 -1       152 4.61304E-04 8.80221E-03-5.25838E-03
 -1       153 0.00000E+00 8.82094E-03-5.25839E-03
 -1       154 0.00000E+00 8.82765E-03-5.25840E-03
 -1       155 0.00000E+00 8.83444E-03-5.25840E-03
 -1       156 0.00000E+00 8.84131E-03-5.25840E-03
 -1       157 0.00000E+00 8.84824E-03-5.25841E-03
 -1       158 0.00000E+00 8.85526E-03-5.25841E-03
 -1       159 0.00000E+00 8.86234E-03-5.25841E-03
 -1       160 0.00000E+00 8.86950E-03-5.25841E-03
 -1       161 0.00000E+00 8.87674E-03-5.25841E-03
 -1       162 0.00000E+00 8.88405E-03-5.25841E-03
 -1       163 0.00000E+00 8.89144E-03-5.25841E-03
 -1       164 0.00000E+00 8.89891E-03-5.25842E-03
 -1       165 0.00000E+00 8.90646E-03-5.25842E-03
 -1       166 0.00000E+00 8.91409E-03-5.25842E-03
 -1       167 0.00000E+00 8.92179E-03-5.25842E-03
 -1       168 0.00000E+00 8.92958E-03-5.25842E-03
 -1       169 0.00000E+00 8.93744E-03-5.25843E-03
 -1       170 0.00000E+00 8.94539E-03-5.25843E-03
 -1       171 0.00000E+00 8.95342E-03-5.25843E-03
 -1       172 4.69010E-04 8.94925E-03-5.25844E-03
 -1       173 9.36735E-04 8.91244E-03-5.25844E-03
 -1       174 1.40189E-03 8.85120E-03-5.25844E-03
 -1       175 1.86321E-03 8.76570E-03-5.25844E-03
 -1       176 2.31942E-03 8.65618E-03-5.25844E-03
 -1       177 2.76927E-03 8.52292E-03-5.25844E-03
 -1       178 3.21153E-03 8.36631E-03-5.25844E-03
 -1       179 3.64498E-03 8.18677E-03-5.25844E-03
 -1       180 4.06845E-03 7.98478E-03-5.25844E-03
 -1       181 4.48077E-03 7.76092E-03-5.25844E-03
 -1       182 4.88080E-03 7.51577E-03-5.25844E-03
 -1       183 5.26746E-03 7.25003E-03-5.25844E-03
 -1       184 5.63968E-03 6.96442E-03-5.25844E-03
 -1       185 5.99644E-03 6.65972E-03-5.25844E-03
 -1       186 6.33676E-03 6.33676E-03-5.25844E-03
 -1       187 6.65972E-03 5.99644E-03-5.25844E-03
 -1       188 6.96442E-03 5.63968E-03-5.25844E-03
 -1       189 7.25003E-03 5.26746E-03-5.25844E-03
 -1       190 7.51577E-03 4.88080E-03-5.25844E-03
 -1       191 7.76092E-03 4.48077E-03-5.25844E-03
 -1       192 7.98478E-03 4.06845E-03-5.25844E-03
 -1       193 8.18677E-03 3.64498E-03-5.25844E-03
 -1       194 8.36631E-03 3.21153E-03-5.25844E-03
 -1       195 8.52292E-03 2.76927E-03-5.25844E-03
 -1       196 8.65618E-03 2.31942E-03-5.25844E-03
 -1       197 8.76570E-03 1.86321E-03-5.25844E-03
 -1       198 8.85120E-03 1.40189E-03-5.25844E-03
 -1       199 8.91244E-03 9.36735E-04-5.25844E-03
 -1       200 8.94925E-03 4.69010E-04-5.25844E-03
 -1       201 8.96155E-03 0.00000E+00-5.01797E-03
 -1       202 8.96155E-03 0.00000E+00-5.04202E-03
 -1       203 8.96156E-03 0.00000E+00-5.06606E-03
 -1       204 8.96156E-03 0.00000E+00-5.09011E-03
 -1       205 8.96156E-03 0.00000E+00-5.11416E-03
 -1       206 8.96156E-03 0.00000E+00-5.13820E-03
 -1       207 8.96156E-03 0.00000E+00-5.16225E-03
 -1       208 8.96156E-03 0.00000E+00-5.18629E-03
 -1       209 8.96155E-03 0.00000E+00-5.21034E-03
 -1       210 8.96155E-03 0.00000E+00-5.23439E-03
 -1       211 8.81430E-03 0.00000E+00-5.01800E-03
 -1       212 8.81431E-03 0.00000E+00-5.04204E-03
 -1       213 8.81431E-03 0.00000E+00-5.06608E-03
 -1       214 8.81431E-03 0.00000E+00-5.09012E-03
 -1       215 8.81432E-03 0.00000E+00-5.11416E-03
 -1       216 8.81432E-03 0.00000E+00-5.13820E-03
 -1       217 8.81431E-03 0.00000E+00-5.16224E-03
 -1       218 8.81431E-03 0.00000E+00-5.18628E-03
 -1       219 8.81431E-03 0.00000E+00-5.21031E-03
 -1       220 8.81430E-03 0.00000E+00-5.23435E-03
 -1       221 0.00000E+00 8.81430E-03-5.01800E-03
 -1       222 0.00000E+00 8.81431E-03-5.04204E-03
 -1       223 0.00000E+00 8.81431E-03-5.06608E-03
 -1       224 0.00000E+00 8.81431E-03-5.09012E-03
 -1       225 0.00000E+00 8.81432E-03-5.11416E-03
 -1       226 0.00000E+00 8.81432E-03-5.13820E-03
 -1       227 0.00000E+00 8.81431E-03-5.16224E-03
 -1       228 0.00000E+00 8.81431E-03-5.18628E-03
 -1       229 0.00000E+00 8.81431E-03-5.21031E-03
 -1       230 0.00000E+00 8.81430E-03-5.23435E-03
 -1       231 0.00000E+00 8.96155E-03-5.01797E-03
 -1       232 0.00000E+00 8.96155E-03-5.04202E-03
 -1       233 0.00000E+00 8.96156E-03-5.06606E-03
 -1       234 0.00000E+00 8.96156E-03-5.09011E-03
 -1       235 0.00000E+00 8.96156E-03-5.11416E-03
 -1       236 0.00000E+00 8.96156E-03-5.13820E-03
 -1       237 0.00000E+00 8.96156E-03-5.16225E-03
 -1       238 0.00000E+00 8.96156E-03-5.18629E-03
 -1       239 0.00000E+00 8.96155E-03-5.21034E-03
 -1       240 0.00000E+00 8.96155E-03-5.23439E-03
 -1       241 8.94115E-03 4.68586E-04-4.99392E-03
 -1       242 8.90437E-03 9.35887E-04-4.99392E-03
 -1       243 8.84319E-03 1.40062E-03-4.99392E-03
 -1       244 8.75777E-03 1.86152E-03-4.99392E-03
 -1       245 8.64834E-03 2.31732E-03-4.99392E-03
 -1       246 8.51521E-03 2.76676E-03-4.99392E-03
 -1       247 8.35874E-03 3.20862E-03-4.99392E-03
 -1       248 8.17936E-03 3.64168E-03-4.99392E-03
 -1       249 7.97756E-03 4.06477E-03-4.99392E-03
 -1       250 7.75389E-03 4.47671E-03-4.99392E-03
 -1       251 7.50897E-03 4.87638E-03-4.99392E-03
 -1       252 7.24347E-03 5.26269E-03-4.99392E-03
 -1       253 6.95811E-03 5.63457E-03-4.99392E-03
 -1       254 6.65369E-03 5.99101E-03-4.99392E-03
 -1       255 6.33102E-03 6.33102E-03-4.99392E-03
 -1       256 5.99101E-03 6.65369E-03-4.99392E-03
 -1       257 5.63457E-03 6.95811E-03-4.99392E-03
 -1       258 5.26269E-03 7.24347E-03-4.99392E-03
 -1       259 4.87638E-03 7.50897E-03-4.99392E-03
 -1       260 4.47671E-03 7.75389E-03-4.99392E-03
 -1       261 4.06477E-03 7.97756E-03-4.99392E-03
 -1       262 3.64168E-03 8.17936E-03-4.99392E-03
 -1       263 3.20862E-03 8.35874E-03-4.99392E-03
 -1       264 2.76676E-03 8.51521E-03-4.99392E-03
 -1       265 2.31732E-03 8.64834E-03-4.99392E-03
 -1       266 1.86152E-03 8.75777E-03-4.99392E-03
 -1       267 1.40062E-03 8.84319E-03-4.99392E-03
 -1       268 9.35887E-04 8.90437E-03-4.99392E-03
 -1       269 4.68586E-04 8.94115E-03-4.99392E-03
 -1       270 8.93313E-03 4.68166E-04-4.99393E-03
 -1       271 8.89639E-03 9.35048E-04-4.99393E-03
 -1       272 8.83526E-03 1.39937E-03-4.99393E-03
 -1       273 8.74991E-03 1.85985E-03-4.99393E-03
 -1       274 8.64058E-03 2.31524E-03-4.99393E-03
 -1       275 8.50757E-03 2.76428E-03-4.99393E-03
 -1       276 8.35124E-03 3.20574E-03-4.99393E-03
 -1       277 8.17202E-03 3.63842E-03-4.99393E-03
 -1       278 7.97040E-03 4.06112E-03-4.99393E-03
 -1       279 7.74694E-03 4.47270E-03-4.99393E-03
 -1       280 7.50224E-03 4.87201E-03-4.99393E-03
 -1       281 7.23697E-03 5.25797E-03-4.99393E-03
 -1       282 6.95187E-03 5.62952E-03-4.99393E-03
 -1       283 6.64772E-03 5.98563E-03-4.99393E-03
 -1       284 6.32535E-03 6.32535E-03-4.99393E-03
 -1       285 5.98563E-03 6.64772E-03-4.99393E-03
 -1       286 5.62952E-03 6.95187E-03-4.99393E-03
 -1       287 5.25797E-03 7.23697E-03-4.99393E-03
 -1       288 4.87201E-03 7.50224E-03-4.99393E-03
 -1       289 4.47270E-03 7.74694E-03-4.99393E-03
 -1       290 4.06112E-03 7.97040E-03-4.99393E-03
 -1       291 3.63842E-03 8.17202E-03-4.99393E-03
 -1       292 3.20574E-03 8.35124E-03-4.99393E-03
 -1       293 2.76428E-03 8.50757E-03-4.99393E-03
 -1       294 2.31524E-03 8.64058E-03-4.99393E-03
 -1       295 1.85985E-03 8.74991E-03-4.99393E-03
 -1       296 1.39937E-03 8.83526E-03-4.99393E-03
 -1       297 9.35048E-04 8.89639E-03-4.99393E-03
 -1       298 4.68166E-04 8.93313E-03-4.99393E-03
 -1       299 8.92519E-03 4.67750E-04-4.99393E-03
 -1       300 8.88848E-03 9.34217E-04-4.99393E-03
 -1       301 8.82741E-03 1.39812E-03-4.99393E-03
 -1       302 8.74214E-03 1.85820E-03-4.99393E-03
 -1       303 8.63291E-03 2.31318E-03-4.99393E-03
 -1       304 8.50001E-03 2.76182E-03-4.99393E-03
 -1       305 8.34382E-03 3.20289E-03-4.99393E-03
 -1       306 8.16476E-03 3.63519E-03-4.99393E-03
 -1       307 7.96332E-03 4.05751E-03-4.99393E-03
 -1       308 7.74005E-03 4.46872E-03-4.99393E-03
 -1       309 7.49557E-03 4.86768E-03-4.99393E-03
 -1       310 7.23054E-03 5.25330E-03-4.99393E-03
 -1       311 6.94570E-03 5.62452E-03-4.99393E-03
 -1       312 6.64181E-03 5.98032E-03-4.99393E-03
 -1       313 6.31973E-03 6.31973E-03-4.99393E-03
 -1       314 5.98032E-03 6.64181E-03-4.99393E-03
 -1       315 5.62452E-03 6.94570E-03-4.99393E-03
 -1       316 5.25330E-03 7.23054E-03-4.99393E-03
 -1       317 4.86768E-03 7.49557E-03-4.99393E-03
 -1       318 4.46872E-03 7.74005E-03-4.99393E-03
 -1       319 4.05751E-03 7.96332E-03-4.99393E-03
 -1       320 3.63519E-03 8.16476E-03-4.99393E-03
 -1       321 3.20289E-03 8.34382E-03-4.99393E-03
 -1       322 2.76182E-03 8.50001E-03-4.99393E-03
 -1       323 2.31318E-03 8.63291E-03-4.99393E-03
 -1       324 1.85820E-03 8.74214E-03-4.99393E-03
 -1       325 1.39812E-03 8.82741E-03-4.99393E-03
 -1       326 9.34217E-04 8.88848E-03-4.99393E-03
 -1       327 4.67750E-04 8.92519E-03-4.99393E-03
 -1       328 8.91734E-03 4.67338E-04-4.99393E-03
 -1       329 8.88066E-03 9.33395E-04-4.99393E-03
 -1       330 8.81964E-03 1.39689E-03-4.99393E-03
 -1       331 8.73444E-03 1.85656E-03-4.99393E-03
 -1       332 8.62531E-03 2.31114E-03-4.99393E-03
 -1       333 8.49253E-03 2.75939E-03-4.99393E-03
 -1       334 8.33648E-03 3.20007E-03-4.99393E-03
 -1       335 8.15757E-03 3.63199E-03-4.99393E-03
 -1       336 7.95631E-03 4.05394E-03-4.99393E-03
 -1       337 7.73324E-03 4.46479E-03-4.99393E-03
 -1       338 7.48897E-03 4.86340E-03-4.99393E-03
 -1       339 7.22418E-03 5.24867E-03-4.99393E-03
 -1       340 6.93958E-03 5.61956E-03-4.99393E-03
 -1       341 6.63597E-03 5.97505E-03-4.99393E-03
 -1       342 6.31416E-03 6.31416E-03-4.99393E-03
 -1       343 5.97505E-03 6.63597E-03-4.99393E-03
 -1       344 5.61957E-03 6.93958E-03-4.99393E-03
 -1       345 5.24867E-03 7.22418E-03-4.99393E-03
 -1       346 4.86340E-03 7.48897E-03-4.99393E-03
 -1       347 4.46479E-03 7.73324E-03-4.99393E-03
 -1       348 4.05394E-03 7.95631E-03-4.99393E-03
 -1       349 3.63199E-03 8.15757E-03-4.99393E-03
 -1       350 3.20007E-03 8.33648E-03-4.99393E-03
 -1       351 2.75939E-03 8.49253E-03-4.99393E-03
 -1       352 2.31114E-03 8.62531E-03-4.99393E-03
 -1       353 1.85656E-03 8.73444E-03-4.99393E-03
 -1       354 1.39689E-03 8.81964E-03-4.99393E-03
 -1       355 9.33395E-04 8.88066E-03-4.99393E-03
 -1       356 4.67338E-04 8.91734E-03-4.99393E-03
 -1       357 8.90956E-03 4.66930E-04-4.99394E-03
 -1       358 8.87292E-03 9.32581E-04-4.99394E-03
 -1       359 8.81195E-03 1.39568E-03-4.99394E-03
 -1       360 8.72683E-03 1.85494E-03-4.99394E-03
 -1       361 8.61779E-03 2.30913E-03-4.99394E-03
 -1       362 8.48513E-03 2.75699E-03-4.99394E-03
 -1       363 8.32921E-03 3.19728E-03-4.99394E-03
 -1       364 8.15046E-03 3.62882E-03-4.99394E-03
 -1       365 7.94937E-03 4.05041E-03-4.99394E-03
 -1       366 7.72650E-03 4.46090E-03-4.99394E-03
 -1       367 7.48244E-03 4.85916E-03-4.99394E-03
 -1       368 7.21788E-03 5.24410E-03-4.99394E-03
 -1       369 6.93353E-03 5.61467E-03-4.99394E-03
 -1       370 6.63018E-03 5.96984E-03-4.99394E-03
 -1       371 6.30866E-03 6.30866E-03-4.99394E-03
 -1       372 5.96984E-03 6.63018E-03-4.99394E-03
 -1       373 5.61467E-03 6.93353E-03-4.99394E-03
 -1       374 5.24410E-03 7.21788E-03-4.99394E-03
 -1       375 4.85916E-03 7.48244E-03-4.99394E-03
 -1       376 4.46090E-03 7.72650E-03-4.99394E-03
 -1       377 4.05041E-03 7.94937E-03-4.99394E-03
 -1       378 3.62882E-03 8.15046E-03-4.99394E-03
 -1       379 3.19728E-03 8.32921E-03-4.99394E-03
 -1       380 2.75699E-03 8.48513E-03-4.99394E-03
 -1       381 2.30913E-03 8.61779E-03-4.99394E-03
 -1       382 1.85494E-03 8.72683E-03-4.99394E-03
 -1       383 1.39568E-03 8.81195E-03-4.99394E-03
 -1       384 9.32581E-04 8.87292E-03-4.99394E-03
 -1       385 4.66930E-04 8.90956E-03-4.99394E-03
 -1       386 8.90187E-03 4.66527E-04-4.99394E-03
 -1       387 8.86525E-03 9.31776E-04-4.99394E-03
 -1       388 8.80434E-03 1.39447E-03-4.99394E-03
 -1       389 8.71929E-03 1.85334E-03-4.99394E-03
 -1       390 8.61035E-03 2.30714E-03-4.99394E-03
 -1       391 8.47780E-03 2.75460E-03-4.99394E-03
 -1       392 8.32202E-03 3.19452E-03-4.99394E-03
 -1       393 8.14342E-03 3.62569E-03-4.99394E-03
 -1       394 7.94251E-03 4.04691E-03-4.99394E-03
 -1       395 7.71982E-03 4.45704E-03-4.99394E-03
 -1       396 7.47598E-03 4.85496E-03-4.99394E-03
 -1       397 7.21165E-03 5.23957E-03-4.99394E-03
 -1       398 6.92755E-03 5.60982E-03-4.99394E-03
 -1       399 6.62446E-03 5.96469E-03-4.99394E-03
 -1       400 6.30321E-03 6.30321E-03-4.99394E-03
 -1       401 5.96469E-03 6.62446E-03-4.99394E-03
 -1       402 5.60982E-03 6.92755E-03-4.99394E-03
 -1       403 5.23957E-03 7.21165E-03-4.99394E-03
 -1       404 4.85496E-03 7.47598E-03-4.99394E-03
 -1       405 4.45704E-03 7.71982E-03-4.99394E-03
 -1       406 4.04691E-03 7.94251E-03-4.99394E-03
 -1       407 3.62569E-03 8.14342E-03-4.99394E-03
 -1       408 3.19452E-03 8.32202E-03-4.99394E-03
 -1       409 2.75460E-03 8.47780E-03-4.99394E-03
 -1       410 2.30714E-03 8.61035E-03-4.99394E-03
 -1       411 1.85334E-03 8.71929E-03-4.99394E-03
 -1       412 1.39447E-03 8.80434E-03-4.99394E-03
 -1       413 9.31776E-04 8.86525E-03-4.99394E-03
 -1       414 4.66527E-04 8.90187E-03-4.99394E-03
 -1       415 8.89425E-03 4.66128E-04-4.99394E-03
 -1       416 8.85767E-03 9.30979E-04-4.99394E-03
 -1       417 8.79681E-03 1.39328E-03-4.99394E-03
 -1       418 8.71183E-03 1.85176E-03-4.99394E-03
 -1       419 8.60298E-03 2.30516E-03-4.99394E-03
 -1       420 8.47055E-03 2.75225E-03-4.99394E-03
 -1       421 8.31490E-03 3.19179E-03-4.99394E-03
 -1       422 8.13646E-03 3.62258E-03-4.99394E-03
 -1       423 7.93571E-03 4.04345E-03-4.99394E-03
 -1       424 7.71322E-03 4.45323E-03-4.99394E-03
 -1       425 7.46959E-03 4.85081E-03-4.99394E-03
 -1       426 7.20548E-03 5.23509E-03-4.99394E-03
 -1       427 6.92162E-03 5.60502E-03-4.99394E-03
 -1       428 6.61879E-03 5.95958E-03-4.99394E-03
 -1       429 6.29782E-03 6.29782E-03-4.99394E-03
 -1       430 5.95958E-03 6.61879E-03-4.99394E-03
 -1       431 5.60502E-03 6.92162E-03-4.99394E-03
 -1       432 5.23509E-03 7.20548E-03-4.99394E-03
 -1       433 4.85081E-03 7.46959E-03-4.99394E-03
 -1       434 4.45323E-03 7.71322E-03-4.99394E-03
 -1       435 4.04345E-03 7.93571E-03-4.99394E-03
 -1       436 3.62258E-03 8.13646E-03-4.99394E-03
 -1       437 3.19179E-03 8.31490E-03-4.99394E-03
 -1       438 2.75225E-03 8.47055E-03-4.99394E-03
 -1       439 2.30516E-03 8.60298E-03-4.99394E-03
 -1       440 1.85176E-03 8.71183E-03-4.99394E-03
 -1       441 1.39328E-03 8.79681E-03-4.99394E-03
 -1       442 9.30979E-04 8.85767E-03-4.99394E-03
 -1       443 4.66128E-04 8.89425E-03-4.99394E-03
 -1       444 8.88672E-03 4.65733E-04-4.99394E-03
 -1       445 8.85016E-03 9.30190E-04-4.99394E-03
 -1       446 8.78935E-03 1.39210E-03-4.99394E-03
 -1       447 8.70445E-03 1.85019E-03-4.99394E-03
 -1       448 8.59569E-03 2.30321E-03-4.99394E-03
 -1       449 8.46337E-03 2.74992E-03-4.99394E-03
 -1       450 8.30785E-03 3.18909E-03-4.99394E-03
 -1       451 8.12956E-03 3.61951E-03-4.99394E-03
 -1       452 7.92899E-03 4.04002E-03-4.99394E-03
 -1       453 7.70668E-03 4.44946E-03-4.99394E-03
 -1       454 7.46326E-03 4.84670E-03-4.99394E-03
 -1       455 7.19937E-03 5.23065E-03-4.99394E-03
 -1       456 6.91575E-03 5.60027E-03-4.99394E-03
 -1       457 6.61318E-03 5.95454E-03-4.99394E-03
 -1       458 6.29248E-03 6.29248E-03-4.99394E-03
 -1       459 5.95454E-03 6.61318E-03-4.99394E-03
 -1       460 5.60027E-03 6.91575E-03-4.99394E-03
 -1       461 5.23065E-03 7.19937E-03-4.99394E-03
 -1       462 4.84670E-03 7.46326E-03-4.99394E-03
 -1       463 4.44946E-03 7.70668E-03-4.99394E-03
 -1       464 4.04002E-03 7.92899E-03-4.99394E-03
 -1       465 3.61951E-03 8.12956E-03-4.99394E-03
 -1       466 3.18909E-03 8.30785E-03-4.99394E-03
 -1       467 2.74992E-03 8.46337E-03-4.99394E-03
 -1       468 2.30321E-03 8.59569E-03-4.99394E-03
 -1       469 1.85019E-03 8.70445E-03-4.99394E-03
 -1       470 1.39210E-03 8.78935E-03-4.99394E-03
 -1       471 9.30190E-04 8.85016E-03-4.99394E-03
 -1       472 4.65733E-04 8.88672E-03-4.99394E-03
 -1       473 8.87926E-03 4.65342E-04-4.99394E-03
 -1       474 8.84274E-03 9.29409E-04-4.99394E-03
 -1       475 8.78198E-03 1.39093E-03-4.99394E-03
 -1       476 8.69714E-03 1.84864E-03-4.99394E-03
 -1       477 8.58848E-03 2.30128E-03-4.99394E-03
 -1       478 8.45627E-03 2.74761E-03-4.99394E-03
 -1       479 8.30088E-03 3.18641E-03-4.99394E-03
 -1       480 8.12274E-03 3.61648E-03-4.99394E-03
 -1       481 7.92233E-03 4.03663E-03-4.99394E-03
 -1       482 7.70022E-03 4.44572E-03-4.99394E-03
 -1       483 7.45699E-03 4.84263E-03-4.99394E-03
 -1       484 7.19333E-03 5.22626E-03-4.99394E-03
 -1       485 6.90995E-03 5.59557E-03-4.99394E-03
 -1       486 6.60763E-03 5.94954E-03-4.99394E-03
 -1       487 6.28720E-03 6.28720E-03-4.99394E-03
 -1       488 5.94954E-03 6.60763E-03-4.99394E-03
 -1       489 5.59557E-03 6.90995E-03-4.99394E-03
 -1       490 5.22626E-03 7.19333E-03-4.99394E-03
 -1       491 4.84263E-03 7.45699E-03-4.99394E-03
 -1       492 4.44572E-03 7.70022E-03-4.99394E-03
 -1       493 4.03663E-03 7.92233E-03-4.99394E-03
 -1       494 3.61648E-03 8.12274E-03-4.99394E-03
 -1       495 3.18641E-03 8.30088E-03-4.99394E-03
 -1       496 2.74761E-03 8.45627E-03-4.99394E-03
 -1       497 2.30128E-03 8.58848E-03-4.99394E-03
 -1       498 1.84864E-03 8.69714E-03-4.99394E-03
 -1       499 1.39093E-03 8.78198E-03-4.99394E-03
 -1       500 9.29409E-04 8.84274E-03-4.99394E-03
 -1       501 4.65342E-04 8.87926E-03-4.99394E-03
 -1       502 8.87188E-03 4.64955E-04-4.99394E-03
 -1       503 8.83539E-03 9.28636E-04-4.99394E-03
 -1       504 8.77468E-03 1.38977E-03-4.99394E-03
 -1       505 8.68992E-03 1.84710E-03-4.99394E-03
 -1       506 8.58134E-03 2.29936E-03-4.99394E-03
 -1       507 8.44924E-03 2.74532E-03-4.99394E-03
 -1       508 8.29398E-03 3.18376E-03-4.99394E-03
 -1       509 8.11599E-03 3.61347E-03-4.99394E-03
 -1       510 7.91575E-03 4.03328E-03-4.99394E-03
 -1       511 7.69382E-03 4.44203E-03-4.99394E-03
 -1       512 7.45079E-03 4.83860E-03-4.99394E-03
 -1       513 7.18735E-03 5.22192E-03-4.99394E-03
 -1       514 6.90421E-03 5.59092E-03-4.99394E-03
 -1       515 6.60214E-03 5.94459E-03-4.99394E-03
 -1       516 6.28197E-03 6.28197E-03-4.99394E-03
 -1       517 5.94459E-03 6.60214E-03-4.99394E-03
 -1       518 5.59092E-03 6.90421E-03-4.99394E-03
 -1       519 5.22192E-03 7.18735E-03-4.99394E-03
 -1       520 4.83860E-03 7.45079E-03-4.99394E-03
 -1       521 4.44203E-03 7.69382E-03-4.99394E-03
 -1       522 4.03328E-03 7.91575E-03-4.99394E-03
 -1       523 3.61347E-03 8.11599E-03-4.99394E-03
 -1       524 3.18376E-03 8.29398E-03-4.99394E-03
 -1       525 2.74532E-03 8.44924E-03-4.99394E-03
 -1       526 2.29936E-03 8.58134E-03-4.99394E-03
 -1       527 1.84710E-03 8.68992E-03-4.99394E-03
 -1       528 1.38977E-03 8.77468E-03-4.99394E-03
 -1       529 9.28636E-04 8.83539E-03-4.99394E-03
 -1       530 4.64955E-04 8.87188E-03-4.99394E-03
 -1       531 8.86457E-03 4.64573E-04-4.99395E-03
 -1       532 8.82811E-03 9.27872E-04-4.99395E-03
 -1       533 8.76745E-03 1.38863E-03-4.99395E-03
 -1       534 8.68276E-03 1.84558E-03-4.99395E-03
 -1       535 8.57427E-03 2.29747E-03-4.99395E-03
 -1       536 8.44228E-03 2.74306E-03-4.99395E-03
 -1       537 8.28715E-03 3.18114E-03-4.99395E-03
 -1       538 8.10931E-03 3.61050E-03-4.99395E-03
 -1       539 7.90923E-03 4.02996E-03-4.99395E-03
 -1       540 7.68748E-03 4.43837E-03-4.99395E-03
 -1       541 7.44466E-03 4.83462E-03-4.99395E-03
 -1       542 7.18143E-03 5.21762E-03-4.99395E-03
 -1       543 6.89852E-03 5.58631E-03-4.99395E-03
 -1       544 6.59670E-03 5.93970E-03-4.99395E-03
 -1       545 6.27680E-03 6.27680E-03-4.99395E-03
 -1       546 5.93970E-03 6.59670E-03-4.99395E-03
 -1       547 5.58631E-03 6.89852E-03-4.99395E-03
 -1       548 5.21762E-03 7.18143E-03-4.99395E-03
 -1       549 4.83462E-03 7.44466E-03-4.99395E-03
 -1       550 4.43837E-03 7.68748E-03-4.99395E-03
 -1       551 4.02996E-03 7.90923E-03-4.99395E-03
 -1       552 3.61050E-03 8.10931E-03-4.99395E-03
 -1       553 3.18114E-03 8.28715E-03-4.99395E-03
 -1       554 2.74306E-03 8.44228E-03-4.99395E-03
 -1       555 2.29747E-03 8.57427E-03-4.99395E-03
 -1       556 1.84558E-03 8.68276E-03-4.99395E-03
 -1       557 1.38863E-03 8.76745E-03-4.99395E-03
 -1       558 9.27872E-04 8.82811E-03-4.99395E-03
 -1       559 4.64573E-04 8.86457E-03-4.99395E-03
 -1       560 8.85735E-03 4.64194E-04-4.99395E-03
 -1       561 8.82091E-03 9.27115E-04-4.99395E-03
 -1       562 8.76030E-03 1.38750E-03-4.99395E-03
 -1       563 8.67568E-03 1.84407E-03-4.99395E-03
 -1       564 8.56728E-03 2.29560E-03-4.99395E-03
 -1       565 8.43540E-03 2.74083E-03-4.99395E-03
 -1       566 8.28039E-03 3.17855E-03-4.99395E-03
 -1       567 8.10269E-03 3.60755E-03-4.99395E-03
 -1       568 7.90278E-03 4.02667E-03-4.99395E-03
 -1       569 7.68121E-03 4.43475E-03-4.99395E-03
 -1       570 7.43859E-03 4.83068E-03-4.99395E-03
 -1       571 7.17558E-03 5.21336E-03-4.99395E-03
 -1       572 6.89290E-03 5.58176E-03-4.99395E-03
 -1       573 6.59132E-03 5.93486E-03-4.99395E-03
 -1       574 6.27169E-03 6.27169E-03-4.99395E-03
 -1       575 5.93486E-03 6.59132E-03-4.99395E-03
 -1       576 5.58176E-03 6.89290E-03-4.99395E-03
 -1       577 5.21336E-03 7.17558E-03-4.99395E-03
 -1       578 4.83068E-03 7.43859E-03-4.99395E-03
 -1       579 4.43475E-03 7.68121E-03-4.99395E-03
 -1       580 4.02667E-03 7.90278E-03-4.99395E-03
 -1       581 3.60755E-03 8.10269E-03-4.99395E-03
 -1       582 3.17855E-03 8.28039E-03-4.99395E-03
 -1       583 2.74083E-03 8.43540E-03-4.99395E-03
 -1       584 2.29560E-03 8.56728E-03-4.99395E-03
 -1       585 1.84407E-03 8.67568E-03-4.99395E-03
 -1       586 1.38750E-03 8.76030E-03-4.99395E-03
 -1       587 9.27115E-04 8.82091E-03-4.99395E-03
 -1       588 4.64194E-04 8.85735E-03-4.99395E-03
 -1       589 8.85020E-03 4.63819E-04-4.99395E-03
 -1       590 8.81379E-03 9.26367E-04-4.99395E-03
 -1       591 8.75323E-03 1.38638E-03-4.99395E-03
 -1       592 8.66868E-03 1.84258E-03-4.99395E-03
 -1       593 8.56036E-03 2.29374E-03-4.99395E-03
 -1       594 8.42859E-03 2.73861E-03-4.99395E-03
 -1       595 8.27371E-03 3.17598E-03-4.99395E-03
 -1       596 8.09615E-03 3.60464E-03-4.99395E-03
 -1       597 7.89640E-03 4.02342E-03-4.99395E-03
 -1       598 7.67501E-03 4.43117E-03-4.99395E-03
 -1       599 7.43258E-03 4.82678E-03-4.99395E-03
 -1       600 7.16978E-03 5.20915E-03-4.99395E-03
 -1       601 6.88733E-03 5.57725E-03-4.99395E-03
 -1       602 6.58600E-03 5.93006E-03-4.99395E-03
 -1       603 6.26662E-03 6.26662E-03-4.99395E-03
 -1       604 5.93006E-03 6.58600E-03-4.99395E-03
 -1       605 5.57725E-03 6.88733E-03-4.99395E-03
 -1       606 5.20915E-03 7.16978E-03-4.99395E-03
 -1       607 4.82678E-03 7.43258E-03-4.99395E-03
 -1       608 4.43117E-03 7.67501E-03-4.99395E-03
 -1       609 4.02342E-03 7.89640E-03-4.99395E-03
 -1       610 3.60464E-03 8.09615E-03-4.99395E-03
 -1       611 3.17598E-03 8.27371E-03-4.99395E-03
 -1       612 2.73861E-03 8.42859E-03-4.99395E-03
 -1       613 2.29374E-03 8.56036E-03-4.99395E-03
 -1       614 1.84258E-03 8.66868E-03-4.99395E-03
 -1       615 1.38638E-03 8.75323E-03-4.99395E-03
 -1       616 9.26367E-04 8.81379E-03-4.99395E-03
 -1       617 4.63819E-04 8.85020E-03-4.99395E-03
 -1       618 8.84312E-03 4.63448E-04-4.99395E-03
 -1       619 8.80675E-03 9.25626E-04-4.99395E-03
 -1       620 8.74623E-03 1.38527E-03-4.99395E-03
 -1       621 8.66175E-03 1.84111E-03-4.99395E-03
 -1       622 8.55352E-03 2.29191E-03-4.99395E-03
 -1       623 8.42185E-03 2.73642E-03-4.99395E-03
 -1       624 8.26709E-03 3.17344E-03-4.99395E-03
 -1       625 8.08968E-03 3.60176E-03-4.99395E-03
 -1       626 7.89009E-03 4.02020E-03-4.99395E-03
 -1       627 7.66888E-03 4.42763E-03-4.99395E-03
 -1       628 7.42664E-03 4.82292E-03-4.99395E-03
 -1       629 7.16405E-03 5.20499E-03-4.99395E-03
 -1       630 6.88183E-03 5.57279E-03-4.99395E-03
 -1       631 6.58074E-03 5.92532E-03-4.99395E-03
 -1       632 6.26161E-03 6.26161E-03-4.99395E-03
 -1       633 5.92532E-03 6.58074E-03-4.99395E-03
 -1       634 5.57279E-03 6.88183E-03-4.99395E-03
 -1       635 5.20499E-03 7.16405E-03-4.99395E-03
 -1       636 4.82292E-03 7.42664E-03-4.99395E-03
 -1       637 4.42763E-03 7.66888E-03-4.99395E-03
 -1       638 4.02020E-03 7.89009E-03-4.99395E-03
 -1       639 3.60176E-03 8.08968E-03-4.99395E-03
 -1       640 3.17344E-03 8.26709E-03-4.99395E-03
 -1       641 2.73642E-03 8.42185E-03-4.99395E-03
 -1       642 2.29191E-03 8.55352E-03-4.99395E-03
 -1       643 1.84111E-03 8.66175E-03-4.99395E-03
 -1       644 1.38527E-03 8.74623E-03-4.99395E-03
 -1       645 9.25626E-04 8.80675E-03-4.99395E-03
 -1       646 4.63448E-04 8.84312E-03-4.99395E-03
 -1       647 8.83612E-03 4.63081E-04-4.99395E-03
 -1       648 8.79977E-03 9.24893E-04-4.99395E-03
 -1       649 8.73931E-03 1.38417E-03-4.99395E-03
 -1       650 8.65489E-03 1.83965E-03-4.99395E-03
 -1       651 8.54675E-03 2.29009E-03-4.99395E-03
 -1       652 8.41518E-03 2.73426E-03-4.99395E-03
 -1       653 8.26055E-03 3.17093E-03-4.99395E-03
 -1       654 8.08327E-03 3.59890E-03-4.99395E-03
 -1       655 7.88384E-03 4.01702E-03-4.99395E-03
 -1       656 7.66280E-03 4.42412E-03-4.99395E-03
 -1       657 7.42076E-03 4.81910E-03-4.99395E-03
 -1       658 7.15838E-03 5.20087E-03-4.99395E-03
 -1       659 6.87638E-03 5.56838E-03-4.99395E-03
 -1       660 6.57553E-03 5.92063E-03-4.99395E-03
 -1       661 6.25665E-03 6.25665E-03-4.99395E-03
 -1       662 5.92063E-03 6.57553E-03-4.99395E-03
 -1       663 5.56838E-03 6.87638E-03-4.99395E-03
 -1       664 5.20087E-03 7.15838E-03-4.99395E-03
 -1       665 4.81910E-03 7.42076E-03-4.99395E-03
 -1       666 4.42412E-03 7.66280E-03-4.99395E-03
 -1       667 4.01702E-03 7.88384E-03-4.99395E-03
 -1       668 3.59890E-03 8.08327E-03-4.99395E-03
 -1       669 3.17093E-03 8.26055E-03-4.99395E-03
 -1       670 2.73426E-03 8.41518E-03-4.99395E-03
 -1       671 2.29009E-03 8.54675E-03-4.99395E-03
 -1       672 1.83965E-03 8.65489E-03-4.99395E-03
 -1       673 1.38417E-03 8.73931E-03-4.99395E-03
 -1       674 9.24893E-04 8.79977E-03-4.99395E-03
 -1       675 4.63081E-04 8.83612E-03-4.99395E-03
 -1       676 8.82919E-03 4.62718E-04-4.99395E-03
 -1       677 8.79287E-03 9.24168E-04-4.99395E-03
 -1       678 8.73246E-03 1.38309E-03-4.99395E-03
 -1       679 8.64810E-03 1.83821E-03-4.99395E-03
 -1       680 8.54005E-03 2.28830E-03-4.99395E-03
 -1       681 8.40858E-03 2.73211E-03-4.99395E-03
 -1       682 8.25407E-03 3.16844E-03-4.99395E-03
 -1       683 8.07694E-03 3.59608E-03-4.99395E-03
 -1       684 7.87766E-03 4.01387E-03-4.99395E-03
 -1       685 7.65680E-03 4.42065E-03-4.99395E-03
 -1       686 7.41494E-03 4.81532E-03-4.99395E-03
 -1       687 7.15277E-03 5.19679E-03-4.99395E-03
 -1       688 6.87099E-03 5.56401E-03-4.99395E-03
 -1       689 6.57037E-03 5.91599E-03-4.99395E-03
 -1       690 6.25175E-03 6.25175E-03-4.99395E-03
 -1       691 5.91599E-03 6.57037E-03-4.99395E-03
 -1       692 5.56401E-03 6.87099E-03-4.99395E-03
 -1       693 5.19679E-03 7.15277E-03-4.99395E-03
 -1       694 4.81532E-03 7.41494E-03-4.99395E-03
 -1       695 4.42065E-03 7.65680E-03-4.99395E-03
 -1       696 4.01387E-03 7.87766E-03-4.99395E-03
 -1       697 3.59608E-03 8.07694E-03-4.99395E-03
 -1       698 3.16844E-03 8.25407E-03-4.99395E-03
 -1       699 2.73211E-03 8.40858E-03-4.99395E-03
 -1       700 2.28830E-03 8.54005E-03-4.99395E-03
 -1       701 1.83821E-03 8.64810E-03-4.99395E-03
 -1       702 1.38309E-03 8.73246E-03-4.99395E-03
 -1       703 9.24168E-04 8.79287E-03-4.99395E-03
 -1       704 4.62718E-04 8.82919E-03-4.99395E-03
 -1       705 8.82234E-03 4.62359E-04-4.99396E-03
 -1       706 8.78605E-03 9.23451E-04-4.99396E-03
 -1       707 8.72568E-03 1.38201E-03-4.99396E-03
 -1       708 8.64139E-03 1.83678E-03-4.99396E-03
 -1       709 8.53342E-03 2.28652E-03-4.99396E-03
 -1       710 8.40206E-03 2.72999E-03-4.99396E-03
 -1       711 8.24766E-03 3.16598E-03-4.99396E-03
 -1       712 8.07067E-03 3.59329E-03-4.99396E-03
 -1       713 7.87155E-03 4.01075E-03-4.99396E-03
 -1       714 7.65085E-03 4.41722E-03-4.99396E-03
 -1       715 7.40919E-03 4.81158E-03-4.99396E-03
 -1       716 7.14722E-03 5.19276E-03-4.99396E-03
 -1       717 6.86565E-03 5.55970E-03-4.99396E-03
 -1       718 6.56527E-03 5.91140E-03-4.99396E-03
 -1       719 6.24690E-03 6.24690E-03-4.99396E-03
 -1       720 5.91140E-03 6.56527E-03-4.99396E-03
 -1       721 5.55970E-03 6.86565E-03-4.99396E-03
 -1       722 5.19276E-03 7.14722E-03-4.99396E-03
 -1       723 4.81158E-03 7.40919E-03-4.99396E-03
 -1       724 4.41722E-03 7.65085E-03-4.99396E-03
 -1       725 4.01075E-03 7.87155E-03-4.99396E-03
 -1       726 3.59329E-03 8.07067E-03-4.99396E-03
 -1       727 3.16598E-03 8.24766E-03-4.99396E-03
 -1       728 2.72999E-03 8.40206E-03-4.99396E-03
 -1       729 2.28652E-03 8.53342E-03-4.99396E-03
 -1       730 1.83678E-03 8.64139E-03-4.99396E-03
 -1       731 1.38201E-03 8.72568E-03-4.99396E-03
 -1       732 9.23451E-04 8.78605E-03-4.99396E-03
 -1       733 4.62359E-04 8.82234E-03-4.99396E-03
 -1       734 8.81556E-03 4.62004E-04-4.99396E-03
 -1       735 8.77929E-03 9.22741E-04-4.99396E-03
 -1       736 8.71897E-03 1.38095E-03-4.99396E-03
 -1       737 8.63475E-03 1.83537E-03-4.99396E-03
 -1       738 8.52686E-03 2.28477E-03-4.99396E-03
 -1       739 8.39560E-03 2.72790E-03-4.99396E-03
 -1       740 8.24132E-03 3.16355E-03-4.99396E-03
 -1       741 8.06446E-03 3.59053E-03-4.99396E-03
 -1       742 7.86550E-03 4.00767E-03-4.99396E-03
 -1       743 7.64497E-03 4.41383E-03-4.99396E-03
 -1       744 7.40349E-03 4.80788E-03-4.99396E-03
 -1       745 7.14172E-03 5.18876E-03-4.99396E-03
 -1       746 6.86038E-03 5.55542E-03-4.99396E-03
 -1       747 6.56023E-03 5.90685E-03-4.99396E-03
 -1       748 6.24209E-03 6.24209E-03-4.99396E-03
 -1       749 5.90685E-03 6.56023E-03-4.99396E-03
 -1       750 5.55542E-03 6.86038E-03-4.99396E-03
 -1       751 5.18876E-03 7.14172E-03-4.99396E-03
 -1       752 4.80788E-03 7.40349E-03-4.99396E-03
 -1       753 4.41383E-03 7.64497E-03-4.99396E-03
 -1       754 4.00767E-03 7.86550E-03-4.99396E-03
 -1       755 3.59053E-03 8.06446E-03-4.99396E-03
 -1       756 3.16355E-03 8.24132E-03-4.99396E-03
 -1       757 2.72790E-03 8.39560E-03-4.99396E-03
 -1       758 2.28476E-03 8.52686E-03-4.99396E-03
 -1       759 1.83537E-03 8.63475E-03-4.99396E-03
 -1       760 1.38095E-03 8.71897E-03-4.99396E-03
 -1       761 9.22741E-04 8.77929E-03-4.99396E-03
 -1       762 4.62004E-04 8.81556E-03-4.99396E-03
 -1       763 8.80885E-03 4.61652E-04-4.99396E-03
 -1       764 8.77261E-03 9.22039E-04-4.99396E-03
 -1       765 8.71234E-03 1.37990E-03-4.99396E-03
 -1       766 8.62818E-03 1.83398E-03-4.99396E-03
 -1       767 8.52037E-03 2.28303E-03-4.99396E-03
 -1       768 8.38921E-03 2.72582E-03-4.99396E-03
 -1       769 8.23505E-03 3.16114E-03-4.99396E-03
 -1       770 8.05833E-03 3.58780E-03-4.99396E-03
 -1       771 7.85951E-03 4.00462E-03-4.99396E-03
 -1       772 7.63915E-03 4.41047E-03-4.99396E-03
 -1       773 7.39786E-03 4.80423E-03-4.99396E-03
 -1       774 7.13629E-03 5.18482E-03-4.99396E-03
 -1       775 6.85515E-03 5.55120E-03-4.99396E-03
 -1       776 6.55523E-03 5.90236E-03-4.99396E-03
 -1       777 6.23734E-03 6.23734E-03-4.99396E-03
 -1       778 5.90236E-03 6.55523E-03-4.99396E-03
 -1       779 5.55119E-03 6.85515E-03-4.99396E-03
 -1       780 5.18482E-03 7.13629E-03-4.99396E-03
 -1       781 4.80423E-03 7.39786E-03-4.99396E-03
 -1       782 4.41047E-03 7.63915E-03-4.99396E-03
 -1       783 4.00462E-03 7.85951E-03-4.99396E-03
 -1       784 3.58780E-03 8.05833E-03-4.99396E-03
 -1       785 3.16114E-03 8.23505E-03-4.99396E-03
 -1       786 2.72582E-03 8.38921E-03-4.99396E-03
 -1       787 2.28303E-03 8.52037E-03-4.99396E-03
 -1       788 1.83398E-03 8.62818E-03-4.99396E-03
 -1       789 1.37990E-03 8.71234E-03-4.99396E-03
 -1       790 9.22039E-04 8.77261E-03-4.99396E-03
 -1       791 4.61652E-04 8.80885E-03-4.99396E-03
 -1       792 8.95343E-03 0.00000E+00-5.01797E-03
 -1       793 8.95344E-03 0.00000E+00-5.04202E-03
 -1       794 8.95344E-03 0.00000E+00-5.06606E-03
 -1       795 8.95344E-03 0.00000E+00-5.09011E-03
 -1       796 8.95345E-03 0.00000E+00-5.11416E-03
 -1       797 8.95345E-03 0.00000E+00-5.13820E-03
 -1       798 8.95344E-03 0.00000E+00-5.16225E-03
 -1       799 8.95344E-03 0.00000E+00-5.18629E-03
 -1       800 8.95344E-03 0.00000E+00-5.21034E-03
 -1       801 8.95343E-03 0.00000E+00-5.23439E-03
 -1       802 8.94540E-03 0.00000E+00-5.01797E-03
 -1       803 8.94541E-03 0.00000E+00-5.04202E-03
 -1       804 8.94541E-03 0.00000E+00-5.06606E-03
 -1       805 8.94541E-03 0.00000E+00-5.09011E-03
 -1       806 8.94541E-03 0.00000E+00-5.11416E-03
 -1       807 8.94541E-03 0.00000E+00-5.13820E-03
 -1       808 8.94541E-03 0.00000E+00-5.16225E-03
 -1       809 8.94541E-03 0.00000E+00-5.18629E-03
 -1       810 8.94541E-03 0.00000E+00-5.21034E-03
 -1       811 8.94540E-03 0.00000E+00-5.23438E-03
 -1       812 8.93745E-03 0.00000E+00-5.01798E-03
 -1       813 8.93746E-03 0.00000E+00-5.04202E-03
 -1       814 8.93746E-03 0.00000E+00-5.06607E-03
 -1       815 8.93747E-03 0.00000E+00-5.09011E-03
 -1       816 8.93747E-03 0.00000E+00-5.11416E-03
 -1       817 8.93747E-03 0.00000E+00-5.13820E-03
 -1       818 8.93747E-03 0.00000E+00-5.16225E-03
 -1       819 8.93746E-03 0.00000E+00-5.18629E-03
 -1       820 8.93746E-03 0.00000E+00-5.21034E-03
 -1       821 8.93745E-03 0.00000E+00-5.23438E-03
 -1       822 8.92959E-03 0.00000E+00-5.01798E-03
 -1       823 8.92959E-03 0.00000E+00-5.04202E-03
 -1       824 8.92960E-03 0.00000E+00-5.06607E-03
 -1       825 8.92960E-03 0.00000E+00-5.09011E-03
 -1       826 8.92960E-03 0.00000E+00-5.11416E-03
 -1       827 8.92960E-03 0.00000E+00-5.13820E-03
 -1       828 8.92960E-03 0.00000E+00-5.16225E-03
 -1       829 8.92960E-03 0.00000E+00-5.18629E-03
 -1       830 8.92959E-03 0.00000E+00-5.21034E-03
 -1       831 8.92959E-03 0.00000E+00-5.23438E-03
 -1       832 8.92180E-03 0.00000E+00-5.01798E-03
 -1       833 8.92181E-03 0.00000E+00-5.04202E-03
 -1       834 8.92181E-03 0.00000E+00-5.06607E-03
 -1       835 8.92181E-03 0.00000E+00-5.09011E-03
 -1       836 8.92181E-03 0.00000E+00-5.11416E-03
 -1       837 8.92181E-03 0.00000E+00-5.13820E-03
 -1       838 8.92181E-03 0.00000E+00-5.16225E-03
 -1       839 8.92181E-03 0.00000E+00-5.18629E-03
 -1       840 8.92181E-03 0.00000E+00-5.21033E-03
 -1       841 8.92180E-03 0.00000E+00-5.23438E-03
 -1       842 8.91409E-03 0.00000E+00-5.01798E-03
 -1       843 8.91410E-03 0.00000E+00-5.04202E-03
 -1       844 8.91410E-03 0.00000E+00-5.06607E-03
 -1       845 8.91411E-03 0.00000E+00-5.09011E-03
 -1       846 8.91411E-03 0.00000E+00-5.11416E-03
 -1       847 8.91411E-03 0.00000E+00-5.13820E-03
 -1       848 8.91411E-03 0.00000E+00-5.16224E-03
 -1       849 8.91410E-03 0.00000E+00-5.18629E-03
 -1       850 8.91410E-03 0.00000E+00-5.21033E-03
 -1       851 8.91409E-03 0.00000E+00-5.23438E-03
 -1       852 8.90647E-03 0.00000E+00-5.01798E-03
 -1       853 8.90647E-03 0.00000E+00-5.04203E-03
 -1       854 8.90648E-03 0.00000E+00-5.06607E-03
 -1       855 8.90648E-03 0.00000E+00-5.09011E-03
 -1       856 8.90648E-03 0.00000E+00-5.11416E-03
 -1       857 8.90648E-03 0.00000E+00-5.13820E-03
 -1       858 8.90648E-03 0.00000E+00-5.16224E-03
 -1       859 8.90648E-03 0.00000E+00-5.18629E-03
 -1       860 8.90647E-03 0.00000E+00-5.21033E-03
 -1       861 8.90647E-03 0.00000E+00-5.23437E-03
 -1       862 8.89892E-03 0.00000E+00-5.01798E-03
 -1       863 8.89893E-03 0.00000E+00-5.04203E-03
 -1       864 8.89893E-03 0.00000E+00-5.06607E-03
 -1       865 8.89893E-03 0.00000E+00-5.09011E-03
 -1       866 8.89893E-03 0.00000E+00-5.11416E-03
 -1       867 8.89893E-03 0.00000E+00-5.13820E-03
 -1       868 8.89893E-03 0.00000E+00-5.16224E-03
 -1       869 8.89893E-03 0.00000E+00-5.18629E-03
 -1       870 8.89893E-03 0.00000E+00-5.21033E-03
 -1       871 8.89892E-03 0.00000E+00-5.23437E-03
 -1       872 8.89145E-03 0.00000E+00-5.01799E-03
 -1       873 8.89146E-03 0.00000E+00-5.04203E-03
 -1       874 8.89146E-03 0.00000E+00-5.06607E-03
 -1       875 8.89146E-03 0.00000E+00-5.09011E-03
 -1       876 8.89147E-03 0.00000E+00-5.11416E-03
 -1       877 8.89147E-03 0.00000E+00-5.13820E-03
 -1       878 8.89146E-03 0.00000E+00-5.16224E-03
 -1       879 8.89146E-03 0.00000E+00-5.18629E-03
 -1       880 8.89146E-03 0.00000E+00-5.21033E-03
 -1       881 8.89145E-03 0.00000E+00-5.23437E-03
 -1       882 8.88406E-03 0.00000E+00-5.01799E-03
 -1       883 8.88407E-03 0.00000E+00-5.04203E-03
 -1       884 8.88407E-03 0.00000E+00-5.06607E-03
 -1       885 8.88407E-03 0.00000E+00-5.09011E-03
 -1       886 8.88407E-03 0.00000E+00-5.11416E-03
 -1       887 8.88407E-03 0.00000E+00-5.13820E-03
 -1       888 8.88407E-03 0.00000E+00-5.16224E-03
 -1       889 8.88407E-03 0.00000E+00-5.18628E-03
 -1       890 8.88407E-03 0.00000E+00-5.21033E-03
 -1       891 8.88406E-03 0.00000E+00-5.23437E-03
 -1       892 8.87675E-03 0.00000E+00-5.01799E-03
 -1       893 8.87675E-03 0.00000E+00-5.04203E-03
 -1       894 8.87676E-03 0.00000E+00-5.06607E-03
 -1       895 8.87676E-03 0.00000E+00-5.09012E-03
 -1       896 8.87676E-03 0.00000E+00-5.11416E-03
 -1       897 8.87676E-03 0.00000E+00-5.13820E-03
 -1       898 8.87676E-03 0.00000E+00-5.16224E-03
 -1       899 8.87676E-03 0.00000E+00-5.18628E-03
 -1       900 8.87675E-03 0.00000E+00-5.21033E-03
 -1       901 8.87675E-03 0.00000E+00-5.23437E-03
 -1       902 8.86951E-03 0.00000E+00-5.01799E-03
 -1       903 8.86951E-03 0.00000E+00-5.04203E-03
 -1       904 8.86952E-03 0.00000E+00-5.06607E-03
 -1       905 8.86952E-03 0.00000E+00-5.09012E-03
 -1       906 8.86952E-03 0.00000E+00-5.11416E-03
 -1       907 8.86952E-03 0.00000E+00-5.13820E-03
 -1       908 8.86952E-03 0.00000E+00-5.16224E-03
 -1       909 8.86952E-03 0.00000E+00-5.18628E-03
 -1       910 8.86951E-03 0.00000E+00-5.21033E-03
 -1       911 8.86951E-03 0.00000E+00-5.23437E-03
 -1       912 8.86235E-03 0.00000E+00-5.01799E-03
 -1       913 8.86235E-03 0.00000E+00-5.04203E-03
 -1       914 8.86236E-03 0.00000E+00-5.06607E-03
 -1       915 8.86236E-03 0.00000E+00-5.09012E-03
 -1       916 8.86236E-03 0.00000E+00-5.11416E-03
 -1       917 8.86236E-03 0.00000E+00-5.13820E-03
 -1       918 8.86236E-03 0.00000E+00-5.16224E-03
 -1       919 8.86236E-03 0.00000E+00-5.18628E-03
 -1       920 8.86235E-03 0.00000E+00-5.21032E-03
 -1       921 8.86235E-03 0.00000E+00-5.23437E-03
 -1       922 8.85526E-03 0.00000E+00-5.01799E-03
 -1       923 8.85527E-03 0.00000E+00-5.04203E-03
 -1       924 8.85527E-03 0.00000E+00-5.06608E-03
 -1       925 8.85527E-03 0.00000E+00-5.09012E-03
 -1       926 8.85528E-03 0.00000E+00-5.11416E-03
 -1       927 8.85528E-03 0.00000E+00-5.13820E-03
 -1       928 8.85527E-03 0.00000E+00-5.16224E-03
 -1       929 8.85527E-03 0.00000E+00-5.18628E-03
 -1       930 8.85527E-03 0.00000E+00-5.21032E-03
 -1       931 8.85526E-03 0.00000E+00-5.23437E-03
 -1       932 8.84825E-03 0.00000E+00-5.01799E-03
 -1       933 8.84826E-03 0.00000E+00-5.04204E-03
 -1       934 8.84826E-03 0.00000E+00-5.06608E-03
 -1       935 8.84826E-03 0.00000E+00-5.09012E-03
 -1       936 8.84827E-03 0.00000E+00-5.11416E-03
 -1       937 8.84827E-03 0.00000E+00-5.13820E-03
 -1       938 8.84826E-03 0.00000E+00-5.16224E-03
 -1       939 8.84826E-03 0.00000E+00-5.18628E-03
 -1       940 8.84826E-03 0.00000E+00-5.21032E-03
 -1       941 8.84825E-03 0.00000E+00-5.23436E-03
 -1       942 8.84132E-03 0.00000E+00-5.01799E-03
 -1       943 8.84132E-03 0.00000E+00-5.04204E-03
 -1       944 8.84132E-03 0.00000E+00-5.06608E-03
 -1       945 8.84133E-03 0.00000E+00-5.09012E-03
 -1       946 8.84133E-03 0.00000E+00-5.11416E-03
 -1       947 8.84133E-03 0.00000E+00-5.13820E-03
 -1       948 8.84133E-03 0.00000E+00-5.16224E-03
 -1       949 8.84132E-03 0.00000E+00-5.18628E-03
 -1       950 8.84132E-03 0.00000E+00-5.21032E-03
 -1       951 8.84132E-03 0.00000E+00-5.23436E-03
 -1       952 8.83445E-03 0.00000E+00-5.01800E-03
 -1       953 8.83446E-03 0.00000E+00-5.04204E-03
 -1       954 8.83446E-03 0.00000E+00-5.06608E-03
 -1       955 8.83446E-03 0.00000E+00-5.09012E-03
 -1       956 8.83447E-03 0.00000E+00-5.11416E-03
 -1       957 8.83447E-03 0.00000E+00-5.13820E-03
 -1       958 8.83446E-03 0.00000E+00-5.16224E-03
 -1       959 8.83446E-03 0.00000E+00-5.18628E-03
 -1       960 8.83446E-03 0.00000E+00-5.21032E-03
 -1       961 8.83445E-03 0.00000E+00-5.23436E-03
 -1       962 8.82766E-03 0.00000E+00-5.01800E-03
 -1       963 8.82767E-03 0.00000E+00-5.04204E-03
 -1       964 8.82767E-03 0.00000E+00-5.06608E-03
 -1       965 8.82768E-03 0.00000E+00-5.09012E-03
 -1       966 8.82768E-03 0.00000E+00-5.11416E-03
 -1       967 8.82768E-03 0.00000E+00-5.13820E-03
 -1       968 8.82768E-03 0.00000E+00-5.16224E-03
 -1       969 8.82767E-03 0.00000E+00-5.18628E-03
 -1       970 8.82767E-03 0.00000E+00-5.21032E-03
 -1       971 8.82766E-03 0.00000E+00-5.23436E-03
 -1       972 8.82095E-03 0.00000E+00-5.01800E-03
 -1       973 8.82095E-03 0.00000E+00-5.04204E-03
 -1       974 8.82096E-03 0.00000E+00-5.06608E-03
 -1       975 8.82096E-03 0.00000E+00-5.09012E-03
 -1       976 8.82096E-03 0.00000E+00-5.11416E-03
 -1       977 8.82096E-03 0.00000E+00-5.13820E-03
 -1       978 8.82096E-03 0.00000E+00-5.16224E-03
 -1       979 8.82096E-03 0.00000E+00-5.18628E-03
 -1       980 8.82095E-03 0.00000E+00-5.21032E-03
 -1       981 8.82095E-03 0.00000E+00-5.23435E-03
 -1       982 8.80222E-03 4.61305E-04-5.01800E-03
 -1       983 8.80223E-03 4.61305E-04-5.04204E-03
 -1       984 8.80223E-03 4.61305E-04-5.06608E-03
 -1       985 8.80223E-03 4.61306E-04-5.09012E-03
 -1       986 8.80224E-03 4.61306E-04-5.11416E-03
 -1       987 8.80224E-03 4.61306E-04-5.13820E-03
 -1       988 8.80223E-03 4.61306E-04-5.16224E-03
 -1       989 8.80223E-03 4.61305E-04-5.18628E-03
 -1       990 8.80223E-03 4.61305E-04-5.21031E-03
 -1       991 8.80222E-03 4.61305E-04-5.23435E-03
 -1       992 8.76602E-03 9.21346E-04-5.01800E-03
 -1       993 8.76602E-03 9.21346E-04-5.04204E-03
 -1       994 8.76603E-03 9.21346E-04-5.06608E-03
 -1       995 8.76603E-03 9.21347E-04-5.09012E-03
 -1       996 8.76603E-03 9.21347E-04-5.11416E-03
 -1       997 8.76603E-03 9.21347E-04-5.13820E-03
 -1       998 8.76603E-03 9.21347E-04-5.16224E-03
 -1       999 8.76603E-03 9.21346E-04-5.18628E-03
 -1      1000 8.76602E-03 9.21346E-04-5.21031E-03
 -1      1001 8.76602E-03 9.21346E-04-5.23435E-03
 -1      1002 8.70578E-03 1.37886E-03-5.01800E-03
 -1      1003 8.70579E-03 1.37886E-03-5.04204E-03
 -1      1004 8.70579E-03 1.37886E-03-5.06608E-03
 -1      1005 8.70579E-03 1.37886E-03-5.09012E-03
 -1      1006 8.70580E-03 1.37886E-03-5.11416E-03
 -1      1007 8.70580E-03 1.37886E-03-5.13820E-03
 -1      1008 8.70579E-03 1.37886E-03-5.16224E-03
 -1      1009 8.70579E-03 1.37886E-03-5.18628E-03
 -1      1010 8.70579E-03 1.37886E-03-5.21031E-03
 -1      1011 8.70578E-03 1.37886E-03-5.23435E-03
 -1      1012 8.62169E-03 1.83260E-03-5.01800E-03
 -1      1013 8.62169E-03 1.83260E-03-5.04204E-03
 -1      1014 8.62170E-03 1.83260E-03-5.06608E-03
 -1      1015 8.62170E-03 1.83260E-03-5.09012E-03
 -1      1016 8.62170E-03 1.83260E-03-5.11416E-03
 -1      1017 8.62170E-03 1.83260E-03-5.13820E-03
 -1      1018 8.62170E-03 1.83260E-03-5.16224E-03
 -1      1019 8.62170E-03 1.83260E-03-5.18628E-03
 -1      1020 8.62169E-03 1.83260E-03-5.21031E-03
 -1      1021 8.62169E-03 1.83260E-03-5.23435E-03
 -1      1022 8.51396E-03 2.28131E-03-5.01800E-03
 -1      1023 8.51397E-03 2.28131E-03-5.04204E-03
 -1      1024 8.51397E-03 2.28131E-03-5.06608E-03
 -1      1025 8.51397E-03 2.28131E-03-5.09012E-03
 -1      1026 8.51397E-03 2.28131E-03-5.11416E-03
 -1      1027 8.51397E-03 2.28131E-03-5.13820E-03
 -1      1028 8.51397E-03 2.28131E-03-5.16224E-03
 -1      1029 8.51397E-03 2.28131E-03-5.18628E-03
 -1      1030 8.51397E-03 2.28131E-03-5.21031E-03
 -1      1031 8.51396E-03 2.28131E-03-5.23435E-03
 -1      1032 8.38290E-03 2.72377E-03-5.01800E-03
 -1      1033 8.38290E-03 2.72377E-03-5.04204E-03
 -1      1034 8.38291E-03 2.72377E-03-5.06608E-03
 -1      1035 8.38291E-03 2.72377E-03-5.09012E-03
 -1      1036 8.38291E-03 2.72377E-03-5.11416E-03
 -1      1037 8.38291E-03 2.72377E-03-5.13820E-03
 -1      1038 8.38291E-03 2.72377E-03-5.16224E-03
 -1      1039 8.38291E-03 2.72377E-03-5.18628E-03
 -1      1040 8.38290E-03 2.72377E-03-5.21031E-03
 -1      1041 8.38290E-03 2.72377E-03-5.23435E-03
 -1      1042 8.22886E-03 3.15876E-03-5.01800E-03
 -1      1043 8.22886E-03 3.15877E-03-5.04204E-03
 -1      1044 8.22887E-03 3.15877E-03-5.06608E-03
 -1      1045 8.22887E-03 3.15877E-03-5.09012E-03
 -1      1046 8.22887E-03 3.15877E-03-5.11416E-03
 -1      1047 8.22887E-03 3.15877E-03-5.13820E-03
 -1      1048 8.22887E-03 3.15877E-03-5.16224E-03
 -1      1049 8.22887E-03 3.15877E-03-5.18628E-03
 -1      1050 8.22886E-03 3.15877E-03-5.21031E-03
 -1      1051 8.22886E-03 3.15876E-03-5.23435E-03
 -1      1052 8.05227E-03 3.58510E-03-5.01800E-03
 -1      1053 8.05227E-03 3.58510E-03-5.04204E-03
 -1      1054 8.05227E-03 3.58510E-03-5.06608E-03
 -1      1055 8.05228E-03 3.58510E-03-5.09012E-03
 -1      1056 8.05228E-03 3.58511E-03-5.11416E-03
 -1      1057 8.05228E-03 3.58511E-03-5.13820E-03
 -1      1058 8.05228E-03 3.58510E-03-5.16224E-03
 -1      1059 8.05227E-03 3.58510E-03-5.18628E-03
 -1      1060 8.05227E-03 3.58510E-03-5.21031E-03
 -1      1061 8.05227E-03 3.58510E-03-5.23435E-03
 -1      1062 7.85360E-03 4.00161E-03-5.01800E-03
 -1      1063 7.85361E-03 4.00161E-03-5.04204E-03
 -1      1064 7.85361E-03 4.00161E-03-5.06608E-03
 -1      1065 7.85361E-03 4.00161E-03-5.09012E-03
 -1      1066 7.85361E-03 4.00162E-03-5.11416E-03
 -1      1067 7.85361E-03 4.00162E-03-5.13820E-03
 -1      1068 7.85361E-03 4.00161E-03-5.16224E-03
 -1      1069 7.85361E-03 4.00161E-03-5.18628E-03
 -1      1070 7.85361E-03 4.00161E-03-5.21031E-03
 -1      1071 7.85360E-03 4.00161E-03-5.23435E-03
 -1      1072 7.63341E-03 4.40715E-03-5.01800E-03
 -1      1073 7.63341E-03 4.40715E-03-5.04204E-03
 -1      1074 7.63342E-03 4.40716E-03-5.06608E-03
 -1      1075 7.63342E-03 4.40716E-03-5.09012E-03
 -1      1076 7.63342E-03 4.40716E-03-5.11416E-03
 -1      1077 7.63342E-03 4.40716E-03-5.13820E-03
 -1      1078 7.63342E-03 4.40716E-03-5.16224E-03
 -1      1079 7.63342E-03 4.40716E-03-5.18628E-03
 -1      1080 7.63341E-03 4.40715E-03-5.21031E-03
 -1      1081 7.63341E-03 4.40715E-03-5.23435E-03
 -1      1082 7.39230E-03 4.80061E-03-5.01800E-03
 -1      1083 7.39230E-03 4.80062E-03-5.04204E-03
 -1      1084 7.39230E-03 4.80062E-03-5.06608E-03
 -1      1085 7.39231E-03 4.80062E-03-5.09012E-03
 -1      1086 7.39231E-03 4.80062E-03-5.11416E-03
 -1      1087 7.39231E-03 4.80062E-03-5.13820E-03
 -1      1088 7.39231E-03 4.80062E-03-5.16224E-03
 -1      1089 7.39230E-03 4.80062E-03-5.18628E-03
 -1      1090 7.39230E-03 4.80062E-03-5.21031E-03
 -1      1091 7.39230E-03 4.80061E-03-5.23435E-03
 -1      1092 7.13092E-03 5.18092E-03-5.01800E-03
 -1      1093 7.13092E-03 5.18092E-03-5.04204E-03
 -1      1094 7.13093E-03 5.18092E-03-5.06608E-03
 -1      1095 7.13093E-03 5.18092E-03-5.09012E-03
 -1      1096 7.13093E-03 5.18092E-03-5.11416E-03
 -1      1097 7.13093E-03 5.18092E-03-5.13820E-03
 -1      1098 7.13093E-03 5.18092E-03-5.16224E-03
 -1      1099 7.13093E-03 5.18092E-03-5.18628E-03
 -1      1100 7.13092E-03 5.18092E-03-5.21031E-03
 -1      1101 7.13092E-03 5.18092E-03-5.23435E-03
 -1      1102 6.85000E-03 5.54702E-03-5.01800E-03
 -1      1103 6.85000E-03 5.54702E-03-5.04204E-03
 -1      1104 6.85001E-03 5.54703E-03-5.06608E-03
 -1      1105 6.85001E-03 5.54703E-03-5.09012E-03
 -1      1106 6.85001E-03 5.54703E-03-5.11416E-03
 -1      1107 6.85001E-03 5.54703E-03-5.13820E-03
 -1      1108 6.85001E-03 5.54703E-03-5.16224E-03
 -1      1109 6.85001E-03 5.54703E-03-5.18628E-03
 -1      1110 6.85000E-03 5.54702E-03-5.21031E-03
 -1      1111 6.85000E-03 5.54702E-03-5.23435E-03
 -1      1112 6.55030E-03 5.89792E-03-5.01800E-03
 -1      1113 6.55031E-03 5.89792E-03-5.04204E-03
 -1      1114 6.55031E-03 5.89793E-03-5.06608E-03
 -1      1115 6.55031E-03 5.89793E-03-5.09012E-03
 -1      1116 6.55031E-03 5.89793E-03-5.11416E-03
 -1      1117 6.55031E-03 5.89793E-03-5.13820E-03
 -1      1118 6.55031E-03 5.89793E-03-5.16224E-03
 -1      1119 6.55031E-03 5.89793E-03-5.18628E-03
 -1      1120 6.55031E-03 5.89792E-03-5.21031E-03
 -1      1121 6.55030E-03 5.89792E-03-5.23435E-03
 -1      1122 6.23265E-03 6.23265E-03-5.01800E-03
 -1      1123 6.23266E-03 6.23266E-03-5.04204E-03
 -1      1124 6.23266E-03 6.23266E-03-5.06608E-03
 -1      1125 6.23266E-03 6.23266E-03-5.09012E-03
 -1      1126 6.23266E-03 6.23266E-03-5.11416E-03
 -1      1127 6.23266E-03 6.23266E-03-5.13820E-03
 -1      1128 6.23266E-03 6.23266E-03-5.16224E-03
 -1      1129 6.23266E-03 6.23266E-03-5.18628E-03
 -1      1130 6.23266E-03 6.23266E-03-5.21031E-03
 -1      1131 6.23265E-03 6.23265E-03-5.23435E-03
 -1      1132 5.89792E-03 6.55030E-03-5.01800E-03
 -1      1133 5.89792E-03 6.55031E-03-5.04204E-03
 -1      1134 5.89793E-03 6.55031E-03-5.06608E-03
 -1      1135 5.89793E-03 6.55031E-03-5.09012E-03
 -1      1136 5.89793E-03 6.55031E-03-5.11416E-03
 -1      1137 5.89793E-03 6.55031E-03-5.13820E-03
 -1      1138 5.89793E-03 6.55031E-03-5.16224E-03
 -1      1139 5.89793E-03 6.55031E-03-5.18628E-03
 -1      1140 5.89792E-03 6.55031E-03-5.21031E-03
 -1      1141 5.89792E-03 6.55030E-03-5.23435E-03
 -1      1142 5.54702E-03 6.85000E-03-5.01800E-03
 -1      1143 5.54702E-03 6.85000E-03-5.04204E-03
 -1      1144 5.54703E-03 6.85001E-03-5.06608E-03
 -1      1145 5.54703E-03 6.85001E-03-5.09012E-03
 -1      1146 5.54703E-03 6.85001E-03-5.11416E-03
 -1      1147 5.54703E-03 6.85001E-03-5.13820E-03
 -1      1148 5.54703E-03 6.85001E-03-5.16224E-03
 -1      1149 5.54703E-03 6.85001E-03-5.18628E-03
 -1      1150 5.54702E-03 6.85000E-03-5.21031E-03
 -1      1151 5.54702E-03 6.85000E-03-5.23435E-03
 -1      1152 5.18092E-03 7.13092E-03-5.01800E-03
 -1      1153 5.18092E-03 7.13092E-03-5.04204E-03
 -1      1154 5.18092E-03 7.13093E-03-5.06608E-03
 -1      1155 5.18092E-03 7.13093E-03-5.09012E-03
 -1      1156 5.18092E-03 7.13093E-03-5.11416E-03
 -1      1157 5.18092E-03 7.13093E-03-5.13820E-03
 -1      1158 5.18092E-03 7.13093E-03-5.16224E-03
 -1      1159 5.18092E-03 7.13093E-03-5.18628E-03
 -1      1160 5.18092E-03 7.13092E-03-5.21031E-03
 -1      1161 5.18092E-03 7.13092E-03-5.23435E-03
 -1      1162 4.80061E-03 7.39230E-03-5.01800E-03
 -1      1163 4.80062E-03 7.39230E-03-5.04204E-03
 -1      1164 4.80062E-03 7.39230E-03-5.06608E-03
 -1      1165 4.80062E-03 7.39231E-03-5.09012E-03
 -1      1166 4.80062E-03 7.39231E-03-5.11416E-03
 -1      1167 4.80062E-03 7.39231E-03-5.13820E-03
 -1      1168 4.80062E-03 7.39231E-03-5.16224E-03
 -1      1169 4.80062E-03 7.39230E-03-5.18628E-03
 -1      1170 4.80062E-03 7.39230E-03-5.21031E-03
 -1      1171 4.80061E-03 7.39230E-03-5.23435E-03
 -1      1172 4.40715E-03 7.63341E-03-5.01800E-03
 -1      1173 4.40715E-03 7.63341E-03-5.04204E-03
 -1      1174 4.40716E-03 7.63342E-03-5.06608E-03
 -1      1175 4.40716E-03 7.63342E-03-5.09012E-03
 -1      1176 4.40716E-03 7.63342E-03-5.11416E-03
 -1      1177 4.40716E-03 7.63342E-03-5.13820E-03
 -1      1178 4.40716E-03 7.63342E-03-5.16224E-03
 -1      1179 4.40716E-03 7.63342E-03-5.18628E-03
 -1      1180 4.40715E-03 7.63341E-03-5.21031E-03
 -1      1181 4.40715E-03 7.63341E-03-5.23435E-03
 -1      1182 4.00161E-03 7.85360E-03-5.01800E-03
 -1      1183 4.00161E-03 7.85361E-03-5.04204E-03
 -1      1184 4.00161E-03 7.85361E-03-5.06608E-03
 -1      1185 4.00161E-03 7.85361E-03-5.09012E-03
 -1      1186 4.00162E-03 7.85361E-03-5.11416E-03
 -1      1187 4.00162E-03 7.85361E-03-5.13820E-03
 -1      1188 4.00161E-03 7.85361E-03-5.16224E-03
 -1      1189 4.00161E-03 7.85361E-03-5.18628E-03
 -1      1190 4.00161E-03 7.85361E-03-5.21031E-03
 -1      1191 4.00161E-03 7.85360E-03-5.23435E-03
 -1      1192 3.58510E-03 8.05227E-03-5.01800E-03
 -1      1193 3.58510E-03 8.05227E-03-5.04204E-03
 -1      1194 3.58510E-03 8.05227E-03-5.06608E-03
 -1      1195 3.58510E-03 8.05228E-03-5.09012E-03
 -1      1196 3.58511E-03 8.05228E-03-5.11416E-03
 -1      1197 3.58511E-03 8.05228E-03-5.13820E-03
 -1      1198 3.58510E-03 8.05228E-03-5.16224E-03
 -1      1199 3.58510E-03 8.05227E-03-5.18628E-03
 -1      1200 3.58510E-03 8.05227E-03-5.21031E-03
 -1      1201 3.58510E-03 8.05227E-03-5.23435E-03
 -1      1202 3.15876E-03 8.22886E-03-5.01800E-03
 -1      1203 3.15877E-03 8.22886E-03-5.04204E-03
 -1      1204 3.15877E-03 8.22887E-03-5.06608E-03
 -1      1205 3.15877E-03 8.22887E-03-5.09012E-03
 -1      1206 3.15877E-03 8.22887E-03-5.11416E-03
 -1      1207 3.15877E-03 8.22887E-03-5.13820E-03
 -1      1208 3.15877E-03 8.22887E-03-5.16224E-03
 -1      1209 3.15877E-03 8.22887E-03-5.18628E-03
 -1      1210 3.15877E-03 8.22886E-03-5.21031E-03
 -1      1211 3.15876E-03 8.22886E-03-5.23435E-03
 -1      1212 2.72377E-03 8.38290E-03-5.01800E-03
 -1      1213 2.72377E-03 8.38290E-03-5.04204E-03
 -1      1214 2.72377E-03 8.38291E-03-5.06608E-03
 -1      1215 2.72377E-03 8.38291E-03-5.09012E-03
 -1      1216 2.72377E-03 8.38291E-03-5.11416E-03
 -1      1217 2.72377E-03 8.38291E-03-5.13820E-03
 -1      1218 2.72377E-03 8.38291E-03-5.16224E-03
 -1      1219 2.72377E-03 8.38291E-03-5.18628E-03
 -1      1220 2.72377E-03 8.38290E-03-5.21031E-03
 -1      1221 2.72377E-03 8.38290E-03-5.23435E-03
 -1      1222 2.28131E-03 8.51396E-03-5.01800E-03
 -1      1223 2.28131E-03 8.51397E-03-5.04204E-03
 -1      1224 2.28131E-03 8.51397E-03-5.06608E-03
 -1      1225 2.28131E-03 8.51397E-03-5.09012E-03
 -1      1226 2.28131E-03 8.51397E-03-5.11416E-03
 -1      1227 2.28131E-03 8.51397E-03-5.13820E-03
 -1      1228 2.28131E-03 8.51397E-03-5.16224E-03
 -1      1229 2.28131E-03 8.51397E-03-5.18628E-03
 -1      1230 2.28131E-03 8.51397E-03-5.21031E-03
 -1      1231 2.28131E-03 8.51396E-03-5.23435E-03
 -1      1232 1.83260E-03 8.62169E-03-5.01800E-03
 -1      1233 1.83260E-03 8.62169E-03-5.04204E-03
 -1      1234 1.83260E-03 8.62170E-03-5.06608E-03
 -1      1235 1.83260E-03 8.62170E-03-5.09012E-03
 -1      1236 1.83260E-03 8.62170E-03-5.11416E-03
 -1      1237 1.83260E-03 8.62170E-03-5.13820E-03
 -1      1238 1.83260E-03 8.62170E-03-5.16224E-03
 -1      1239 1.83260E-03 8.62170E-03-5.18628E-03
 -1      1240 1.83260E-03 8.62169E-03-5.21031E-03
 -1      1241 1.83260E-03 8.62169E-03-5.23435E-03
 -1      1242 1.37886E-03 8.70578E-03-5.01800E-03
 -1      1243 1.37886E-03 8.70579E-03-5.04204E-03
 -1      1244 1.37886E-03 8.70579E-03-5.06608E-03
 -1      1245 1.37886E-03 8.70579E-03-5.09012E-03
 -1      1246 1.37886E-03 8.70580E-03-5.11416E-03
 -1      1247 1.37886E-03 8.70580E-03-5.13820E-03
 -1      1248 1.37886E-03 8.70579E-03-5.16224E-03
 -1      1249 1.37886E-03 8.70579E-03-5.18628E-03
 -1      1250 1.37886E-03 8.70579E-03-5.21031E-03
 -1      1251 1.37886E-03 8.70578E-03-5.23435E-03
 -1      1252 9.21346E-04 8.76602E-03-5.01800E-03
 -1      1253 9.21346E-04 8.76602E-03-5.04204E-03
 -1      1254 9.21346E-04 8.76603E-03-5.06608E-03
 -1      1255 9.21347E-04 8.76603E-03-5.09012E-03
 -1      1256 9.21347E-04 8.76603E-03-5.11416E-03
 -1      1257 9.21347E-04 8.76603E-03-5.13820E-03
 -1      1258 9.21347E-04 8.76603E-03-5.16224E-03
 -1      1259 9.21346E-04 8.76603E-03-5.18628E-03
 -1      1260 9.21346E-04 8.76602E-03-5.21031E-03
 -1      1261 9.21346E-04 8.76602E-03-5.23435E-03
 -1      1262 4.61305E-04 8.80222E-03-5.01800E-03
 -1      1263 4.61305E-04 8.80223E-03-5.04204E-03
 -1      1264 4.61305E-04 8.80223E-03-5.06608E-03
 -1      1265 4.61306E-04 8.80223E-03-5.09012E-03
 -1      1266 4.61306E-04 8.80224E-03-5.11416E-03
 -1      1267 4.61306E-04 8.80224E-03-5.13820E-03
 -1      1268 4.61306E-04 8.80223E-03-5.16224E-03
 -1      1269 4.61305E-04 8.80223E-03-5.18628E-03
 -1      1270 4.61305E-04 8.80223E-03-5.21031E-03
 -1      1271 4.61305E-04 8.80222E-03-5.23435E-03
 -1      1272 0.00000E+00 8.82095E-03-5.01800E-03
 -1      1273 0.00000E+00 8.82095E-03-5.04204E-03
 -1      1274 0.00000E+00 8.82096E-03-5.06608E-03
 -1      1275 0.00000E+00 8.82096E-03-5.09012E-03
 -1      1276 0.00000E+00 8.82096E-03-5.11416E-03
 -1      1277 0.00000E+00 8.82096E-03-5.13820E-03
 -1      1278 0.00000E+00 8.82096E-03-5.16224E-03
 -1      1279 0.00000E+00 8.82096E-03-5.18628E-03
 -1      1280 0.00000E+00 8.82095E-03-5.21032E-03
 -1      1281 0.00000E+00 8.82095E-03-5.23435E-03
 -1      1282 0.00000E+00 8.82766E-03-5.01800E-03
 -1      1283 0.00000E+00 8.82767E-03-5.04204E-03
 -1      1284 0.00000E+00 8.82767E-03-5.06608E-03
 -1      1285 0.00000E+00 8.82768E-03-5.09012E-03
 -1      1286 0.00000E+00 8.82768E-03-5.11416E-03
 -1      1287 0.00000E+00 8.82768E-03-5.13820E-03
 -1      1288 0.00000E+00 8.82768E-03-5.16224E-03
 -1      1289 0.00000E+00 8.82767E-03-5.18628E-03
 -1      1290 0.00000E+00 8.82767E-03-5.21032E-03
 -1      1291 0.00000E+00 8.82766E-03-5.23436E-03
 -1      1292 0.00000E+00 8.83445E-03-5.01800E-03
 -1      1293 0.00000E+00 8.83446E-03-5.04204E-03
 -1      1294 0.00000E+00 8.83446E-03-5.06608E-03
 -1      1295 0.00000E+00 8.83446E-03-5.09012E-03
 -1      1296 0.00000E+00 8.83447E-03-5.11416E-03
 -1      1297 0.00000E+00 8.83447E-03-5.13820E-03
 -1      1298 0.00000E+00 8.83446E-03-5.16224E-03
 -1      1299 0.00000E+00 8.83446E-03-5.18628E-03
 -1      1300 0.00000E+00 8.83446E-03-5.21032E-03
 -1      1301 0.00000E+00 8.83445E-03-5.23436E-03
 -1      1302 0.00000E+00 8.84132E-03-5.01799E-03
 -1      1303 0.00000E+00 8.84132E-03-5.04204E-03
 -1      1304 0.00000E+00 8.84132E-03-5.06608E-03
 -1      1305 0.00000E+00 8.84133E-03-5.09012E-03
 -1      1306 0.00000E+00 8.84133E-03-5.11416E-03
 -1      1307 0.00000E+00 8.84133E-03-5.13820E-03
 -1      1308 0.00000E+00 8.84133E-03-5.16224E-03
 -1      1309 0.00000E+00 8.84132E-03-5.18628E-03
 -1      1310 0.00000E+00 8.84132E-03-5.21032E-03
 -1      1311 0.00000E+00 8.84132E-03-5.23436E-03
 -1      1312 0.00000E+00 8.84825E-03-5.01799E-03
 -1      1313 0.00000E+00 8.84826E-03-5.04204E-03
 -1      1314 0.00000E+00 8.84826E-03-5.06608E-03
 -1      1315 0.00000E+00 8.84826E-03-5.09012E-03
 -1      1316 0.00000E+00 8.84827E-03-5.11416E-03
 -1      1317 0.00000E+00 8.84827E-03-5.13820E-03
 -1      1318 0.00000E+00 8.84826E-03-5.16224E-03
 -1      1319 0.00000E+00 8.84826E-03-5.18628E-03
 -1      1320 0.00000E+00 8.84826E-03-5.21032E-03
 -1      1321 0.00000E+00 8.84825E-03-5.23436E-03
 -1      1322 0.00000E+00 8.85526E-03-5.01799E-03
 -1      1323 0.00000E+00 8.85527E-03-5.04203E-03
 -1      1324 0.00000E+00 8.85527E-03-5.06608E-03
 -1      1325 0.00000E+00 8.85527E-03-5.09012E-03
 -1      1326 0.00000E+00 8.85528E-03-5.11416E-03
 -1      1327 0.00000E+00 8.85528E-03-5.13820E-03
 -1      1328 0.00000E+00 8.85527E-03-5.16224E-03
 -1      1329 0.00000E+00 8.85527E-03-5.18628E-03
 -1      1330 0.00000E+00 8.85527E-03-5.21032E-03
 -1      1331 0.00000E+00 8.85526E-03-5.23437E-03
 -1      1332 0.00000E+00 8.86235E-03-5.01799E-03
 -1      1333 0.00000E+00 8.86235E-03-5.04203E-03
 -1      1334 0.00000E+00 8.86236E-03-5.06607E-03
 -1      1335 0.00000E+00 8.86236E-03-5.09012E-03
 -1      1336 0.00000E+00 8.86236E-03-5.11416E-03
 -1      1337 0.00000E+00 8.86236E-03-5.13820E-03
 -1      1338 0.00000E+00 8.86236E-03-5.16224E-03
 -1      1339 0.00000E+00 8.86236E-03-5.18628E-03
 -1      1340 0.00000E+00 8.86235E-03-5.21032E-03
 -1      1341 0.00000E+00 8.86235E-03-5.23437E-03
 -1      1342 0.00000E+00 8.86951E-03-5.01799E-03
 -1      1343 0.00000E+00 8.86951E-03-5.04203E-03
 -1      1344 0.00000E+00 8.86952E-03-5.06607E-03
 -1      1345 0.00000E+00 8.86952E-03-5.09012E-03
 -1      1346 0.00000E+00 8.86952E-03-5.11416E-03
 -1      1347 0.00000E+00 8.86952E-03-5.13820E-03
 -1      1348 0.00000E+00 8.86952E-03-5.16224E-03
 -1      1349 0.00000E+00 8.86952E-03-5.18628E-03
 -1      1350 0.00000E+00 8.86951E-03-5.21033E-03
 -1      1351 0.00000E+00 8.86951E-03-5.23437E-03
 -1      1352 0.00000E+00 8.87675E-03-5.01799E-03
 -1      1353 0.00000E+00 8.87675E-03-5.04203E-03
 -1      1354 0.00000E+00 8.87676E-03-5.06607E-03
 -1      1355 0.00000E+00 8.87676E-03-5.09012E-03
 -1      1356 0.00000E+00 8.87676E-03-5.11416E-03
 -1      1357 0.00000E+00 8.87676E-03-5.13820E-03
 -1      1358 0.00000E+00 8.87676E-03-5.16224E-03
 -1      1359 0.00000E+00 8.87676E-03-5.18628E-03
 -1      1360 0.00000E+00 8.87675E-03-5.21033E-03
 -1      1361 0.00000E+00 8.87675E-03-5.23437E-03
 -1      1362 0.00000E+00 8.88406E-03-5.01799E-03
 -1      1363 0.00000E+00 8.88407E-03-5.04203E-03
 -1      1364 0.00000E+00 8.88407E-03-5.06607E-03
 -1      1365 0.00000E+00 8.88407E-03-5.09011E-03
 -1      1366 0.00000E+00 8.88407E-03-5.11416E-03
 -1      1367 0.00000E+00 8.88407E-03-5.13820E-03
 -1      1368 0.00000E+00 8.88407E-03-5.16224E-03
 -1      1369 0.00000E+00 8.88407E-03-5.18628E-03
 -1      1370 0.00000E+00 8.88407E-03-5.21033E-03
 -1      1371 0.00000E+00 8.88406E-03-5.23437E-03
 -1      1372 0.00000E+00 8.89145E-03-5.01799E-03
 -1      1373 0.00000E+00 8.89146E-03-5.04203E-03
 -1      1374 0.00000E+00 8.89146E-03-5.06607E-03
 -1      1375 0.00000E+00 8.89146E-03-5.09011E-03
 -1      1376 0.00000E+00 8.89147E-03-5.11416E-03
 -1      1377 0.00000E+00 8.89147E-03-5.13820E-03
 -1      1378 0.00000E+00 8.89146E-03-5.16224E-03
 -1      1379 0.00000E+00 8.89146E-03-5.18629E-03
 -1      1380 0.00000E+00 8.89146E-03-5.21033E-03
 -1      1381 0.00000E+00 8.89145E-03-5.23437E-03
 -1      1382 0.00000E+00 8.89892E-03-5.01798E-03
 -1      1383 0.00000E+00 8.89893E-03-5.04203E-03
 -1      1384 0.00000E+00 8.89893E-03-5.06607E-03
 -1      1385 0.00000E+00 8.89893E-03-5.09011E-03
 -1      1386 0.00000E+00 8.89893E-03-5.11416E-03
 -1      1387 0.00000E+00 8.89893E-03-5.13820E-03
 -1      1388 0.00000E+00 8.89893E-03-5.16224E-03
 -1      1389 0.00000E+00 8.89893E-03-5.18629E-03
 -1      1390 0.00000E+00 8.89893E-03-5.21033E-03
 -1      1391 0.00000E+00 8.89892E-03-5.23437E-03
 -1      1392 0.00000E+00 8.90647E-03-5.01798E-03
 -1      1393 0.00000E+00 8.90647E-03-5.04203E-03
 -1      1394 0.00000E+00 8.90648E-03-5.06607E-03
 -1      1395 0.00000E+00 8.90648E-03-5.09011E-03
 -1      1396 0.00000E+00 8.90648E-03-5.11416E-03
 -1      1397 0.00000E+00 8.90648E-03-5.13820E-03
 -1      1398 0.00000E+00 8.90648E-03-5.16224E-03
 -1      1399 0.00000E+00 8.90648E-03-5.18629E-03
 -1      1400 0.00000E+00 8.90647E-03-5.21033E-03
 -1      1401 0.00000E+00 8.90647E-03-5.23437E-03
 -1      1402 0.00000E+00 8.91409E-03-5.01798E-03
 -1      1403 0.00000E+00 8.91410E-03-5.04202E-03
 -1      1404 0.00000E+00 8.91410E-03-5.06607E-03
 -1      1405 0.00000E+00 8.91411E-03-5.09011E-03
 -1      1406 0.00000E+00 8.91411E-03-5.11416E-03
 -1      1407 0.00000E+00 8.91411E-03-5.13820E-03
 -1      1408 0.00000E+00 8.91411E-03-5.16224E-03
 -1      1409 0.00000E+00 8.91410E-03-5.18629E-03
 -1      1410 0.00000E+00 8.91410E-03-5.21033E-03
 -1      1411 0.00000E+00 8.91409E-03-5.23438E-03
 -1      1412 0.00000E+00 8.92180E-03-5.01798E-03
 -1      1413 0.00000E+00 8.92181E-03-5.04202E-03
 -1      1414 0.00000E+00 8.92181E-03-5.06607E-03
 -1      1415 0.00000E+00 8.92181E-03-5.09011E-03
 -1      1416 0.00000E+00 8.92181E-03-5.11416E-03
 -1      1417 0.00000E+00 8.92181E-03-5.13820E-03
 -1      1418 0.00000E+00 8.92181E-03-5.16225E-03
 -1      1419 0.00000E+00 8.92181E-03-5.18629E-03
 -1      1420 0.00000E+00 8.92181E-03-5.21033E-03
 -1      1421 0.00000E+00 8.92180E-03-5.23438E-03
 -1      1422 0.00000E+00 8.92959E-03-5.01798E-03
 -1      1423 0.00000E+00 8.92959E-03-5.04202E-03
 -1      1424 0.00000E+00 8.92960E-03-5.06607E-03
 -1      1425 0.00000E+00 8.92960E-03-5.09011E-03
 -1      1426 0.00000E+00 8.92960E-03-5.11416E-03
 -1      1427 0.00000E+00 8.92960E-03-5.13820E-03
 -1      1428 0.00000E+00 8.92960E-03-5.16225E-03
 -1      1429 0.00000E+00 8.92960E-03-5.18629E-03
 -1      1430 0.00000E+00 8.92959E-03-5.21034E-03
 -1      1431 0.00000E+00 8.92959E-03-5.23438E-03
 -1      1432 0.00000E+00 8.93745E-03-5.01798E-03
 -1      1433 0.00000E+00 8.93746E-03-5.04202E-03
 -1      1434 0.00000E+00 8.93746E-03-5.06607E-03
 -1      1435 0.00000E+00 8.93747E-03-5.09011E-03
 -1      1436 0.00000E+00 8.93747E-03-5.11416E-03
 -1      1437 0.00000E+00 8.93747E-03-5.13820E-03
 -1      1438 0.00000E+00 8.93747E-03-5.16225E-03
 -1      1439 0.00000E+00 8.93746E-03-5.18629E-03
 -1      1440 0.00000E+00 8.93746E-03-5.21034E-03
 -1      1441 0.00000E+00 8.93745E-03-5.23438E-03
 -1      1442 0.00000E+00 8.94540E-03-5.01797E-03
 -1      1443 0.00000E+00 8.94541E-03-5.04202E-03
 -1      1444 0.00000E+00 8.94541E-03-5.06606E-03
 -1      1445 0.00000E+00 8.94541E-03-5.09011E-03
 -1      1446 0.00000E+00 8.94541E-03-5.11416E-03
 -1      1447 0.00000E+00 8.94541E-03-5.13820E-03
 -1      1448 0.00000E+00 8.94541E-03-5.16225E-03
 -1      1449 0.00000E+00 8.94541E-03-5.18629E-03
 -1      1450 0.00000E+00 8.94541E-03-5.21034E-03
 -1      1451 0.00000E+00 8.94540E-03-5.23438E-03
 -1      1452 0.00000E+00 8.95343E-03-5.01797E-03
 -1      1453 0.00000E+00 8.95344E-03-5.04202E-03
 -1      1454 0.00000E+00 8.95344E-03-5.06606E-03
 -1      1455 0.00000E+00 8.95344E-03-5.09011E-03
 -1      1456 0.00000E+00 8.95345E-03-5.11416E-03
 -1      1457 0.00000E+00 8.95345E-03-5.13820E-03
 -1      1458 0.00000E+00 8.95344E-03-5.16225E-03
 -1      1459 0.00000E+00 8.95344E-03-5.18629E-03
 -1      1460 0.00000E+00 8.95344E-03-5.21034E-03
 -1      1461 0.00000E+00 8.95343E-03-5.23439E-03
 -1      1462 4.69011E-04 8.94927E-03-5.01797E-03
 -1      1463 4.69011E-04 8.94927E-03-5.04202E-03
 -1      1464 4.69012E-04 8.94927E-03-5.06606E-03
 -1      1465 4.69012E-04 8.94928E-03-5.09011E-03
 -1      1466 4.69012E-04 8.94928E-03-5.11416E-03
 -1      1467 4.69012E-04 8.94928E-03-5.13820E-03
 -1      1468 4.69012E-04 8.94928E-03-5.16225E-03
 -1      1469 4.69012E-04 8.94927E-03-5.18629E-03
 -1      1470 4.69011E-04 8.94927E-03-5.21034E-03
 -1      1471 4.69011E-04 8.94927E-03-5.23439E-03
 -1      1472 9.36737E-04 8.91246E-03-5.01797E-03
 -1      1473 9.36737E-04 8.91246E-03-5.04202E-03
 -1      1474 9.36738E-04 8.91246E-03-5.06606E-03
 -1      1475 9.36738E-04 8.91247E-03-5.09011E-03
 -1      1476 9.36738E-04 8.91247E-03-5.11416E-03
 -1      1477 9.36738E-04 8.91247E-03-5.13820E-03
 -1      1478 9.36738E-04 8.91247E-03-5.16225E-03
 -1      1479 9.36738E-04 8.91246E-03-5.18629E-03
 -1      1480 9.36737E-04 8.91246E-03-5.21034E-03
 -1      1481 9.36737E-04 8.91246E-03-5.23439E-03
 -1      1482 1.40189E-03 8.85122E-03-5.01797E-03
 -1      1483 1.40190E-03 8.85122E-03-5.04202E-03
 -1      1484 1.40190E-03 8.85122E-03-5.06606E-03
 -1      1485 1.40190E-03 8.85123E-03-5.09011E-03
 -1      1486 1.40190E-03 8.85123E-03-5.11416E-03
 -1      1487 1.40190E-03 8.85123E-03-5.13820E-03
 -1      1488 1.40190E-03 8.85123E-03-5.16225E-03
 -1      1489 1.40190E-03 8.85122E-03-5.18629E-03
 -1      1490 1.40190E-03 8.85122E-03-5.21034E-03
 -1      1491 1.40189E-03 8.85122E-03-5.23439E-03
 -1      1492 1.86321E-03 8.76572E-03-5.01797E-03
 -1      1493 1.86321E-03 8.76572E-03-5.04202E-03
 -1      1494 1.86321E-03 8.76572E-03-5.06606E-03
 -1      1495 1.86321E-03 8.76573E-03-5.09011E-03
 -1      1496 1.86321E-03 8.76573E-03-5.11416E-03
 -1      1497 1.86321E-03 8.76573E-03-5.13820E-03
 -1      1498 1.86321E-03 8.76573E-03-5.16225E-03
 -1      1499 1.86321E-03 8.76572E-03-5.18629E-03
 -1      1500 1.86321E-03 8.76572E-03-5.21034E-03
 -1      1501 1.86321E-03 8.76572E-03-5.23439E-03
 -1      1502 2.31942E-03 8.65619E-03-5.01797E-03
 -1      1503 2.31942E-03 8.65619E-03-5.04202E-03
 -1      1504 2.31942E-03 8.65620E-03-5.06606E-03
 -1      1505 2.31942E-03 8.65620E-03-5.09011E-03
 -1      1506 2.31942E-03 8.65620E-03-5.11416E-03
 -1      1507 2.31942E-03 8.65620E-03-5.13820E-03
 -1      1508 2.31942E-03 8.65620E-03-5.16225E-03
 -1      1509 2.31942E-03 8.65620E-03-5.18629E-03
 -1      1510 2.31942E-03 8.65619E-03-5.21034E-03
 -1      1511 2.31942E-03 8.65619E-03-5.23439E-03
 -1      1512 2.76927E-03 8.52294E-03-5.01797E-03
 -1      1513 2.76927E-03 8.52294E-03-5.04202E-03
 -1      1514 2.76927E-03 8.52295E-03-5.06606E-03
 -1      1515 2.76927E-03 8.52295E-03-5.09011E-03
 -1      1516 2.76927E-03 8.52295E-03-5.11416E-03
 -1      1517 2.76927E-03 8.52295E-03-5.13820E-03
 -1      1518 2.76927E-03 8.52295E-03-5.16225E-03
 -1      1519 2.76927E-03 8.52295E-03-5.18629E-03
 -1      1520 2.76927E-03 8.52294E-03-5.21034E-03
 -1      1521 2.76927E-03 8.52294E-03-5.23439E-03
 -1      1522 3.21153E-03 8.36632E-03-5.01797E-03
 -1      1523 3.21153E-03 8.36633E-03-5.04202E-03
 -1      1524 3.21153E-03 8.36633E-03-5.06606E-03
 -1      1525 3.21154E-03 8.36634E-03-5.09011E-03
 -1      1526 3.21154E-03 8.36634E-03-5.11416E-03
 -1      1527 3.21154E-03 8.36634E-03-5.13820E-03
 -1      1528 3.21154E-03 8.36634E-03-5.16225E-03
 -1      1529 3.21153E-03 8.36633E-03-5.18629E-03
 -1      1530 3.21153E-03 8.36633E-03-5.21034E-03
 -1      1531 3.21153E-03 8.36632E-03-5.23439E-03
 -1      1532 3.64499E-03 8.18678E-03-5.01797E-03
 -1      1533 3.64499E-03 8.18679E-03-5.04202E-03
 -1      1534 3.64499E-03 8.18679E-03-5.06606E-03
 -1      1535 3.64499E-03 8.18679E-03-5.09011E-03
 -1      1536 3.64499E-03 8.18679E-03-5.11416E-03
 -1      1537 3.64499E-03 8.18679E-03-5.13820E-03
 -1      1538 3.64499E-03 8.18679E-03-5.16225E-03
 -1      1539 3.64499E-03 8.18679E-03-5.18629E-03
 -1      1540 3.64499E-03 8.18679E-03-5.21034E-03
 -1      1541 3.64499E-03 8.18678E-03-5.23439E-03
 -1      1542 4.06846E-03 7.98480E-03-5.01797E-03
 -1      1543 4.06846E-03 7.98480E-03-5.04202E-03
 -1      1544 4.06846E-03 7.98480E-03-5.06606E-03
 -1      1545 4.06846E-03 7.98481E-03-5.09011E-03
 -1      1546 4.06846E-03 7.98481E-03-5.11416E-03
 -1      1547 4.06846E-03 7.98481E-03-5.13820E-03
 -1      1548 4.06846E-03 7.98481E-03-5.16225E-03
 -1      1549 4.06846E-03 7.98480E-03-5.18629E-03
 -1      1550 4.06846E-03 7.98480E-03-5.21034E-03
 -1      1551 4.06846E-03 7.98480E-03-5.23439E-03
 -1      1552 4.48077E-03 7.76093E-03-5.01797E-03
 -1      1553 4.48078E-03 7.76093E-03-5.04202E-03
 -1      1554 4.48078E-03 7.76093E-03-5.06606E-03
 -1      1555 4.48078E-03 7.76094E-03-5.09011E-03
 -1      1556 4.48078E-03 7.76094E-03-5.11416E-03
 -1      1557 4.48078E-03 7.76094E-03-5.13820E-03
 -1      1558 4.48078E-03 7.76094E-03-5.16225E-03
 -1      1559 4.48078E-03 7.76093E-03-5.18629E-03
 -1      1560 4.48078E-03 7.76093E-03-5.21034E-03
 -1      1561 4.48077E-03 7.76093E-03-5.23439E-03
 -1      1562 4.88081E-03 7.51579E-03-5.01797E-03
 -1      1563 4.88081E-03 7.51579E-03-5.04202E-03
 -1      1564 4.88081E-03 7.51579E-03-5.06606E-03
 -1      1565 4.88081E-03 7.51580E-03-5.09011E-03
 -1      1566 4.88082E-03 7.51580E-03-5.11416E-03
 -1      1567 4.88082E-03 7.51580E-03-5.13820E-03
 -1      1568 4.88081E-03 7.51580E-03-5.16225E-03
 -1      1569 4.88081E-03 7.51579E-03-5.18629E-03
 -1      1570 4.88081E-03 7.51579E-03-5.21034E-03
 -1      1571 4.88081E-03 7.51579E-03-5.23439E-03
 -1      1572 5.26747E-03 7.25004E-03-5.01797E-03
 -1      1573 5.26747E-03 7.25005E-03-5.04202E-03
 -1      1574 5.26747E-03 7.25005E-03-5.06606E-03
 -1      1575 5.26747E-03 7.25005E-03-5.09011E-03
 -1      1576 5.26747E-03 7.25005E-03-5.11416E-03
 -1      1577 5.26747E-03 7.25005E-03-5.13820E-03
 -1      1578 5.26747E-03 7.25005E-03-5.16225E-03
 -1      1579 5.26747E-03 7.25005E-03-5.18629E-03
 -1      1580 5.26747E-03 7.25005E-03-5.21034E-03
 -1      1581 5.26747E-03 7.25004E-03-5.23439E-03
 -1      1582 5.63968E-03 6.96443E-03-5.01797E-03
 -1      1583 5.63969E-03 6.96443E-03-5.04202E-03
 -1      1584 5.63969E-03 6.96444E-03-5.06606E-03
 -1      1585 5.63969E-03 6.96444E-03-5.09011E-03
 -1      1586 5.63969E-03 6.96444E-03-5.11416E-03
 -1      1587 5.63969E-03 6.96444E-03-5.13820E-03
 -1      1588 5.63969E-03 6.96444E-03-5.16225E-03
 -1      1589 5.63969E-03 6.96444E-03-5.18629E-03
 -1      1590 5.63969E-03 6.96443E-03-5.21034E-03
 -1      1591 5.63968E-03 6.96443E-03-5.23439E-03
 -1      1592 5.99645E-03 6.65973E-03-5.01797E-03
 -1      1593 5.99645E-03 6.65973E-03-5.04202E-03
 -1      1594 5.99645E-03 6.65973E-03-5.06606E-03
 -1      1595 5.99645E-03 6.65974E-03-5.09011E-03
 -1      1596 5.99645E-03 6.65974E-03-5.11416E-03
 -1      1597 5.99645E-03 6.65974E-03-5.13820E-03
 -1      1598 5.99645E-03 6.65974E-03-5.16225E-03
 -1      1599 5.99645E-03 6.65973E-03-5.18629E-03
 -1      1600 5.99645E-03 6.65973E-03-5.21034E-03
 -1      1601 5.99645E-03 6.65973E-03-5.23439E-03
 -1      1602 6.33677E-03 6.33677E-03-5.01797E-03
 -1      1603 6.33677E-03 6.33677E-03-5.04202E-03
 -1      1604 6.33678E-03 6.33678E-03-5.06606E-03
 -1      1605 6.33678E-03 6.33678E-03-5.09011E-03
 -1      1606 6.33678E-03 6.33678E-03-5.11416E-03
 -1      1607 6.33678E-03 6.33678E-03-5.13820E-03
 -1      1608 6.33678E-03 6.33678E-03-5.16225E-03
 -1      1609 6.33678E-03 6.33678E-03-5.18629E-03
 -1      1610 6.33677E-03 6.33677E-03-5.21034E-03
 -1      1611 6.33677E-03 6.33677E-03-5.23439E-03
 -1      1612 6.65973E-03 5.99645E-03-5.01797E-03
 -1      1613 6.65973E-03 5.99645E-03-5.04202E-03
 -1      1614 6.65973E-03 5.99645E-03-5.06606E-03
 -1      1615 6.65974E-03 5.99645E-03-5.09011E-03
 -1      1616 6.65974E-03 5.99645E-03-5.11416E-03
 -1      1617 6.65974E-03 5.99645E-03-5.13820E-03
 -1      1618 6.65974E-03 5.99645E-03-5.16225E-03
 -1      1619 6.65973E-03 5.99645E-03-5.18629E-03
 -1      1620 6.65973E-03 5.99645E-03-5.21034E-03
 -1      1621 6.65973E-03 5.99645E-03-5.23439E-03
 -1      1622 6.96443E-03 5.63968E-03-5.01797E-03
 -1      1623 6.96443E-03 5.63969E-03-5.04202E-03
 -1      1624 6.96444E-03 5.63969E-03-5.06606E-03
 -1      1625 6.96444E-03 5.63969E-03-5.09011E-03
 -1      1626 6.96444E-03 5.63969E-03-5.11416E-03
 -1      1627 6.96444E-03 5.63969E-03-5.13820E-03
 -1      1628 6.96444E-03 5.63969E-03-5.16225E-03
 -1      1629 6.96444E-03 5.63969E-03-5.18629E-03
 -1      1630 6.96443E-03 5.63969E-03-5.21034E-03
 -1      1631 6.96443E-03 5.63968E-03-5.23439E-03
 -1      1632 7.25004E-03 5.26747E-03-5.01797E-03
 -1      1633 7.25005E-03 5.26747E-03-5.04202E-03
 -1      1634 7.25005E-03 5.26747E-03-5.06606E-03
 -1      1635 7.25005E-03 5.26747E-03-5.09011E-03
 -1      1636 7.25005E-03 5.26747E-03-5.11416E-03
 -1      1637 7.25005E-03 5.26747E-03-5.13820E-03
 -1      1638 7.25005E-03 5.26747E-03-5.16225E-03
 -1      1639 7.25005E-03 5.26747E-03-5.18629E-03
 -1      1640 7.25005E-03 5.26747E-03-5.21034E-03
 -1      1641 7.25004E-03 5.26747E-03-5.23439E-03
 -1      1642 7.51579E-03 4.88081E-03-5.01797E-03
 -1      1643 7.51579E-03 4.88081E-03-5.04202E-03
 -1      1644 7.51579E-03 4.88081E-03-5.06606E-03
 -1      1645 7.51580E-03 4.88081E-03-5.09011E-03
 -1      1646 7.51580E-03 4.88082E-03-5.11416E-03
 -1      1647 7.51580E-03 4.88082E-03-5.13820E-03
 -1      1648 7.51580E-03 4.88081E-03-5.16225E-03
 -1      1649 7.51579E-03 4.88081E-03-5.18629E-03
 -1      1650 7.51579E-03 4.88081E-03-5.21034E-03
 -1      1651 7.51579E-03 4.88081E-03-5.23439E-03
 -1      1652 7.76093E-03 4.48077E-03-5.01797E-03
 -1      1653 7.76093E-03 4.48078E-03-5.04202E-03
 -1      1654 7.76093E-03 4.48078E-03-5.06606E-03
 -1      1655 7.76094E-03 4.48078E-03-5.09011E-03
 -1      1656 7.76094E-03 4.48078E-03-5.11416E-03
 -1      1657 7.76094E-03 4.48078E-03-5.13820E-03
 -1      1658 7.76094E-03 4.48078E-03-5.16225E-03
 -1      1659 7.76093E-03 4.48078E-03-5.18629E-03
 -1      1660 7.76093E-03 4.48078E-03-5.21034E-03
 -1      1661 7.76093E-03 4.48077E-03-5.23439E-03
 -1      1662 7.98480E-03 4.06846E-03-5.01797E-03
 -1      1663 7.98480E-03 4.06846E-03-5.04202E-03
 -1      1664 7.98480E-03 4.06846E-03-5.06606E-03
 -1      1665 7.98481E-03 4.06846E-03-5.09011E-03
 -1      1666 7.98481E-03 4.06846E-03-5.11416E-03
 -1      1667 7.98481E-03 4.06846E-03-5.13820E-03
 -1      1668 7.98481E-03 4.06846E-03-5.16225E-03
 -1      1669 7.98480E-03 4.06846E-03-5.18629E-03
 -1      1670 7.98480E-03 4.06846E-03-5.21034E-03
 -1      1671 7.98480E-03 4.06846E-03-5.23439E-03
 -1      1672 8.18678E-03 3.64499E-03-5.01797E-03
 -1      1673 8.18679E-03 3.64499E-03-5.04202E-03
 -1      1674 8.18679E-03 3.64499E-03-5.06606E-03
 -1      1675 8.18679E-03 3.64499E-03-5.09011E-03
 -1      1676 8.18679E-03 3.64499E-03-5.11416E-03
 -1      1677 8.18679E-03 3.64499E-03-5.13820E-03
 -1      1678 8.18679E-03 3.64499E-03-5.16225E-03
 -1      1679 8.18679E-03 3.64499E-03-5.18629E-03
 -1      1680 8.18679E-03 3.64499E-03-5.21034E-03
 -1      1681 8.18678E-03 3.64499E-03-5.23439E-03
 -1      1682 8.36632E-03 3.21153E-03-5.01797E-03
 -1      1683 8.36633E-03 3.21153E-03-5.04202E-03
 -1      1684 8.36633E-03 3.21153E-03-5.06606E-03
 -1      1685 8.36634E-03 3.21154E-03-5.09011E-03
 -1      1686 8.36634E-03 3.21154E-03-5.11416E-03
 -1      1687 8.36634E-03 3.21154E-03-5.13820E-03
 -1      1688 8.36634E-03 3.21154E-03-5.16225E-03
 -1      1689 8.36633E-03 3.21153E-03-5.18629E-03
 -1      1690 8.36633E-03 3.21153E-03-5.21034E-03
 -1      1691 8.36632E-03 3.21153E-03-5.23439E-03
 -1      1692 8.52294E-03 2.76927E-03-5.01797E-03
 -1      1693 8.52294E-03 2.76927E-03-5.04202E-03
 -1      1694 8.52295E-03 2.76927E-03-5.06606E-03
 -1      1695 8.52295E-03 2.76927E-03-5.09011E-03
 -1      1696 8.52295E-03 2.76927E-03-5.11416E-03
 -1      1697 8.52295E-03 2.76927E-03-5.13820E-03
 -1      1698 8.52295E-03 2.76927E-03-5.16225E-03
 -1      1699 8.52295E-03 2.76927E-03-5.18629E-03
 -1      1700 8.52294E-03 2.76927E-03-5.21034E-03
 -1      1701 8.52294E-03 2.76927E-03-5.23439E-03
 -1      1702 8.65619E-03 2.31942E-03-5.01797E-03
 -1      1703 8.65619E-03 2.31942E-03-5.04202E-03
 -1      1704 8.65620E-03 2.31942E-03-5.06606E-03
 -1      1705 8.65620E-03 2.31942E-03-5.09011E-03
 -1      1706 8.65620E-03 2.31942E-03-5.11416E-03
 -1      1707 8.65620E-03 2.31942E-03-5.13820E-03
 -1      1708 8.65620E-03 2.31942E-03-5.16225E-03
 -1      1709 8.65620E-03 2.31942E-03-5.18629E-03
 -1      1710 8.65619E-03 2.31942E-03-5.21034E-03
 -1      1711 8.65619E-03 2.31942E-03-5.23439E-03
 -1      1712 8.76572E-03 1.86321E-03-5.01797E-03
 -1      1713 8.76572E-03 1.86321E-03-5.04202E-03
 -1      1714 8.76572E-03 1.86321E-03-5.06606E-03
 -1      1715 8.76573E-03 1.86321E-03-5.09011E-03
 -1      1716 8.76573E-03 1.86321E-03-5.11416E-03
 -1      1717 8.76573E-03 1.86321E-03-5.13820E-03
 -1      1718 8.76573E-03 1.86321E-03-5.16225E-03
 -1      1719 8.76572E-03 1.86321E-03-5.18629E-03
 -1      1720 8.76572E-03 1.86321E-03-5.21034E-03
 -1      1721 8.76572E-03 1.86321E-03-5.23439E-03
 -1      1722 8.85122E-03 1.40189E-03-5.01797E-03
 -1      1723 8.85122E-03 1.40190E-03-5.04202E-03
 -1      1724 8.85122E-03 1.40190E-03-5.06606E-03
 -1      1725 8.85123E-03 1.40190E-03-5.09011E-03
 -1      1726 8.85123E-03 1.40190E-03-5.11416E-03
 -1      1727 8.85123E-03 1.40190E-03-5.13820E-03
 -1      1728 8.85123E-03 1.40190E-03-5.16225E-03
 -1      1729 8.85122E-03 1.40190E-03-5.18629E-03
 -1      1730 8.85122E-03 1.40190E-03-5.21034E-03
 -1      1731 8.85122E-03 1.40189E-03-5.23439E-03
 -1      1732 8.91246E-03 9.36737E-04-5.01797E-03
 -1      1733 8.91246E-03 9.36737E-04-5.04202E-03
 -1      1734 8.91246E-03 9.36738E-04-5.06606E-03
 -1      1735 8.91247E-03 9.36738E-04-5.09011E-03
 -1      1736 8.91247E-03 9.36738E-04-5.11416E-03
 -1      1737 8.91247E-03 9.36738E-04-5.13820E-03
 -1      1738 8.91247E-03 9.36738E-04-5.16225E-03
 -1      1739 8.91246E-03 9.36738E-04-5.18629E-03
 -1      1740 8.91246E-03 9.36737E-04-5.21034E-03
 -1      1741 8.91246E-03 9.36737E-04-5.23439E-03
 -1      1742 8.94927E-03 4.69011E-04-5.01797E-03
 -1      1743 8.94927E-03 4.69011E-04-5.04202E-03
 -1      1744 8.94927E-03 4.69012E-04-5.06606E-03
 -1      1745 8.94928E-03 4.69012E-04-5.09011E-03
 -1      1746 8.94928E-03 4.69012E-04-5.11416E-03
 -1      1747 8.94928E-03 4.69012E-04-5.13820E-03
 -1      1748 8.94928E-03 4.69012E-04-5.16225E-03
 -1      1749 8.94927E-03 4.69012E-04-5.18629E-03
 -1      1750 8.94927E-03 4.69011E-04-5.21034E-03
 -1      1751 8.94927E-03 4.69011E-04-5.23439E-03
 -1      1752 8.94115E-03 4.68586E-04-5.25843E-03
 -1      1753 8.90437E-03 9.35887E-04-5.25843E-03
 -1      1754 8.84319E-03 1.40062E-03-5.25843E-03
 -1      1755 8.75777E-03 1.86152E-03-5.25843E-03
 -1      1756 8.64834E-03 2.31732E-03-5.25843E-03
 -1      1757 8.51521E-03 2.76676E-03-5.25843E-03
 -1      1758 8.35874E-03 3.20862E-03-5.25843E-03
 -1      1759 8.17936E-03 3.64168E-03-5.25843E-03
 -1      1760 7.97756E-03 4.06477E-03-5.25843E-03
 -1      1761 7.75389E-03 4.47671E-03-5.25843E-03
 -1      1762 7.50897E-03 4.87638E-03-5.25843E-03
 -1      1763 7.24347E-03 5.26269E-03-5.25843E-03
 -1      1764 6.95811E-03 5.63457E-03-5.25843E-03
 -1      1765 6.65369E-03 5.99101E-03-5.25843E-03
 -1      1766 6.33102E-03 6.33102E-03-5.25843E-03
 -1      1767 5.99101E-03 6.65369E-03-5.25843E-03
 -1      1768 5.63457E-03 6.95811E-03-5.25843E-03
 -1      1769 5.26269E-03 7.24347E-03-5.25843E-03
 -1      1770 4.87638E-03 7.50897E-03-5.25843E-03
 -1      1771 4.47671E-03 7.75389E-03-5.25843E-03
 -1      1772 4.06477E-03 7.97756E-03-5.25843E-03
 -1      1773 3.64168E-03 8.17936E-03-5.25843E-03
 -1      1774 3.20862E-03 8.35874E-03-5.25843E-03
 -1      1775 2.76676E-03 8.51521E-03-5.25843E-03
 -1      1776 2.31732E-03 8.64834E-03-5.25843E-03
 -1      1777 1.86152E-03 8.75777E-03-5.25843E-03
 -1      1778 1.40062E-03 8.84319E-03-5.25843E-03
 -1      1779 9.35887E-04 8.90437E-03-5.25843E-03
 -1      1780 4.68586E-04 8.94115E-03-5.25843E-03
 -1      1781 8.93313E-03 4.68166E-04-5.25843E-03
 -1      1782 8.89639E-03 9.35048E-04-5.25843E-03
 -1      1783 8.83526E-03 1.39937E-03-5.25843E-03
 -1      1784 8.74991E-03 1.85985E-03-5.25843E-03
 -1      1785 8.64058E-03 2.31524E-03-5.25843E-03
 -1      1786 8.50757E-03 2.76428E-03-5.25843E-03
 -1      1787 8.35124E-03 3.20574E-03-5.25843E-03
 -1      1788 8.17202E-03 3.63842E-03-5.25843E-03
 -1      1789 7.97040E-03 4.06112E-03-5.25843E-03
 -1      1790 7.74694E-03 4.47270E-03-5.25843E-03
 -1      1791 7.50224E-03 4.87201E-03-5.25843E-03
 -1      1792 7.23697E-03 5.25797E-03-5.25843E-03
 -1      1793 6.95187E-03 5.62952E-03-5.25843E-03
 -1      1794 6.64772E-03 5.98563E-03-5.25843E-03
 -1      1795 6.32535E-03 6.32535E-03-5.25843E-03
 -1      1796 5.98563E-03 6.64772E-03-5.25843E-03
 -1      1797 5.62952E-03 6.95187E-03-5.25843E-03
 -1      1798 5.25797E-03 7.23697E-03-5.25843E-03
 -1      1799 4.87201E-03 7.50224E-03-5.25843E-03
 -1      1800 4.47270E-03 7.74694E-03-5.25843E-03
 -1      1801 4.06112E-03 7.97040E-03-5.25843E-03
 -1      1802 3.63842E-03 8.17202E-03-5.25843E-03
 -1      1803 3.20574E-03 8.35124E-03-5.25843E-03
 -1      1804 2.76428E-03 8.50757E-03-5.25843E-03
 -1      1805 2.31524E-03 8.64058E-03-5.25843E-03
 -1      1806 1.85985E-03 8.74991E-03-5.25843E-03
 -1      1807 1.39937E-03 8.83526E-03-5.25843E-03
 -1      1808 9.35048E-04 8.89639E-03-5.25843E-03
 -1      1809 4.68166E-04 8.93313E-03-5.25843E-03
 -1      1810 8.92519E-03 4.67750E-04-5.25843E-03
 -1      1811 8.88848E-03 9.34217E-04-5.25843E-03
 -1      1812 8.82741E-03 1.39812E-03-5.25843E-03
 -1      1813 8.74214E-03 1.85820E-03-5.25843E-03
 -1      1814 8.63291E-03 2.31318E-03-5.25843E-03
 -1      1815 8.50001E-03 2.76182E-03-5.25843E-03
 -1      1816 8.34382E-03 3.20289E-03-5.25843E-03
 -1      1817 8.16476E-03 3.63519E-03-5.25843E-03
 -1      1818 7.96332E-03 4.05751E-03-5.25843E-03
 -1      1819 7.74005E-03 4.46872E-03-5.25843E-03
 -1      1820 7.49557E-03 4.86768E-03-5.25843E-03
 -1      1821 7.23054E-03 5.25330E-03-5.25843E-03
 -1      1822 6.94570E-03 5.62452E-03-5.25843E-03
 -1      1823 6.64181E-03 5.98032E-03-5.25843E-03
 -1      1824 6.31973E-03 6.31973E-03-5.25843E-03
 -1      1825 5.98032E-03 6.64181E-03-5.25843E-03
 -1      1826 5.62452E-03 6.94570E-03-5.25843E-03
 -1      1827 5.25330E-03 7.23054E-03-5.25843E-03
 -1      1828 4.86768E-03 7.49557E-03-5.25843E-03
 -1      1829 4.46872E-03 7.74005E-03-5.25843E-03
 -1      1830 4.05751E-03 7.96332E-03-5.25843E-03
 -1      1831 3.63519E-03 8.16476E-03-5.25843E-03
 -1      1832 3.20289E-03 8.34382E-03-5.25843E-03
 -1      1833 2.76182E-03 8.50001E-03-5.25843E-03
 -1      1834 2.31318E-03 8.63291E-03-5.25843E-03
 -1      1835 1.85820E-03 8.74214E-03-5.25843E-03
 -1      1836 1.39812E-03 8.82741E-03-5.25843E-03
 -1      1837 9.34217E-04 8.88848E-03-5.25843E-03
 -1      1838 4.67750E-04 8.92519E-03-5.25843E-03
 -1      1839 8.91734E-03 4.67338E-04-5.25842E-03
 -1      1840 8.88066E-03 9.33395E-04-5.25842E-03
 -1      1841 8.81964E-03 1.39689E-03-5.25842E-03
 -1      1842 8.73444E-03 1.85656E-03-5.25842E-03
 -1      1843 8.62531E-03 2.31114E-03-5.25842E-03
 -1      1844 8.49253E-03 2.75939E-03-5.25842E-03
 -1      1845 8.33648E-03 3.20007E-03-5.25842E-03
 -1      1846 8.15757E-03 3.63199E-03-5.25842E-03
 -1      1847 7.95631E-03 4.05394E-03-5.25842E-03
 -1      1848 7.73324E-03 4.46479E-03-5.25842E-03
 -1      1849 7.48897E-03 4.86340E-03-5.25842E-03
 -1      1850 7.22418E-03 5.24867E-03-5.25842E-03
 -1      1851 6.93958E-03 5.61956E-03-5.25842E-03
 -1      1852 6.63597E-03 5.97505E-03-5.25842E-03
 -1      1853 6.31416E-03 6.31416E-03-5.25842E-03
 -1      1854 5.97505E-03 6.63597E-03-5.25842E-03
 -1      1855 5.61957E-03 6.93958E-03-5.25842E-03
 -1      1856 5.24867E-03 7.22418E-03-5.25842E-03
 -1      1857 4.86340E-03 7.48897E-03-5.25842E-03
 -1      1858 4.46479E-03 7.73324E-03-5.25842E-03
 -1      1859 4.05394E-03 7.95631E-03-5.25842E-03
 -1      1860 3.63199E-03 8.15757E-03-5.25842E-03
 -1      1861 3.20007E-03 8.33648E-03-5.25842E-03
 -1      1862 2.75939E-03 8.49253E-03-5.25842E-03
 -1      1863 2.31114E-03 8.62531E-03-5.25842E-03
 -1      1864 1.85656E-03 8.73444E-03-5.25842E-03
 -1      1865 1.39689E-03 8.81964E-03-5.25842E-03
 -1      1866 9.33395E-04 8.88066E-03-5.25842E-03
 -1      1867 4.67338E-04 8.91734E-03-5.25842E-03
 -1      1868 8.90956E-03 4.66930E-04-5.25842E-03
 -1      1869 8.87292E-03 9.32581E-04-5.25842E-03
 -1      1870 8.81195E-03 1.39568E-03-5.25842E-03
 -1      1871 8.72683E-03 1.85494E-03-5.25842E-03
 -1      1872 8.61779E-03 2.30913E-03-5.25842E-03
 -1      1873 8.48513E-03 2.75699E-03-5.25842E-03
 -1      1874 8.32921E-03 3.19728E-03-5.25842E-03
 -1      1875 8.15046E-03 3.62882E-03-5.25842E-03
 -1      1876 7.94937E-03 4.05041E-03-5.25842E-03
 -1      1877 7.72650E-03 4.46090E-03-5.25842E-03
 -1      1878 7.48244E-03 4.85916E-03-5.25842E-03
 -1      1879 7.21788E-03 5.24410E-03-5.25842E-03
 -1      1880 6.93353E-03 5.61467E-03-5.25842E-03
 -1      1881 6.63018E-03 5.96984E-03-5.25842E-03
 -1      1882 6.30866E-03 6.30866E-03-5.25842E-03
 -1      1883 5.96984E-03 6.63018E-03-5.25842E-03
 -1      1884 5.61467E-03 6.93353E-03-5.25842E-03
 -1      1885 5.24410E-03 7.21788E-03-5.25842E-03
 -1      1886 4.85916E-03 7.48244E-03-5.25842E-03
 -1      1887 4.46090E-03 7.72650E-03-5.25842E-03
 -1      1888 4.05041E-03 7.94937E-03-5.25842E-03
 -1      1889 3.62882E-03 8.15046E-03-5.25842E-03
 -1      1890 3.19728E-03 8.32921E-03-5.25842E-03
 -1      1891 2.75699E-03 8.48513E-03-5.25842E-03
 -1      1892 2.30913E-03 8.61779E-03-5.25842E-03
 -1      1893 1.85494E-03 8.72683E-03-5.25842E-03
 -1      1894 1.39568E-03 8.81195E-03-5.25842E-03
 -1      1895 9.32581E-04 8.87292E-03-5.25842E-03
 -1      1896 4.66930E-04 8.90956E-03-5.25842E-03
 -1      1897 8.90187E-03 4.66527E-04-5.25842E-03
 -1      1898 8.86525E-03 9.31776E-04-5.25842E-03
 -1      1899 8.80434E-03 1.39447E-03-5.25842E-03
 -1      1900 8.71929E-03 1.85334E-03-5.25842E-03
 -1      1901 8.61035E-03 2.30714E-03-5.25842E-03
 -1      1902 8.47780E-03 2.75460E-03-5.25842E-03
 -1      1903 8.32202E-03 3.19452E-03-5.25842E-03
 -1      1904 8.14342E-03 3.62569E-03-5.25842E-03
 -1      1905 7.94251E-03 4.04691E-03-5.25842E-03
 -1      1906 7.71982E-03 4.45704E-03-5.25842E-03
 -1      1907 7.47598E-03 4.85496E-03-5.25842E-03
 -1      1908 7.21165E-03 5.23957E-03-5.25842E-03
 -1      1909 6.92755E-03 5.60982E-03-5.25842E-03
 -1      1910 6.62446E-03 5.96469E-03-5.25842E-03
 -1      1911 6.30321E-03 6.30321E-03-5.25842E-03
 -1      1912 5.96469E-03 6.62446E-03-5.25842E-03
 -1      1913 5.60982E-03 6.92755E-03-5.25842E-03
 -1      1914 5.23957E-03 7.21165E-03-5.25842E-03
 -1      1915 4.85496E-03 7.47598E-03-5.25842E-03
 -1      1916 4.45704E-03 7.71982E-03-5.25842E-03
 -1      1917 4.04691E-03 7.94251E-03-5.25842E-03
 -1      1918 3.62569E-03 8.14342E-03-5.25842E-03
 -1      1919 3.19452E-03 8.32202E-03-5.25842E-03
 -1      1920 2.75460E-03 8.47780E-03-5.25842E-03
 -1      1921 2.30714E-03 8.61035E-03-5.25842E-03
 -1      1922 1.85334E-03 8.71929E-03-5.25842E-03
 -1      1923 1.39447E-03 8.80434E-03-5.25842E-03
 -1      1924 9.31776E-04 8.86525E-03-5.25842E-03
 -1      1925 4.66527E-04 8.90187E-03-5.25842E-03
 -1      1926 8.89425E-03 4.66128E-04-5.25842E-03
 -1      1927 8.85767E-03 9.30979E-04-5.25842E-03
 -1      1928 8.79681E-03 1.39328E-03-5.25842E-03
 -1      1929 8.71183E-03 1.85176E-03-5.25842E-03
 -1      1930 8.60298E-03 2.30516E-03-5.25842E-03
 -1      1931 8.47055E-03 2.75225E-03-5.25842E-03
 -1      1932 8.31490E-03 3.19179E-03-5.25842E-03
 -1      1933 8.13646E-03 3.62258E-03-5.25842E-03
 -1      1934 7.93571E-03 4.04345E-03-5.25842E-03
 -1      1935 7.71322E-03 4.45323E-03-5.25842E-03
 -1      1936 7.46959E-03 4.85081E-03-5.25842E-03
 -1      1937 7.20548E-03 5.23509E-03-5.25842E-03
 -1      1938 6.92162E-03 5.60502E-03-5.25842E-03
 -1      1939 6.61879E-03 5.95958E-03-5.25842E-03
 -1      1940 6.29782E-03 6.29782E-03-5.25842E-03
 -1      1941 5.95958E-03 6.61879E-03-5.25842E-03
 -1      1942 5.60502E-03 6.92162E-03-5.25842E-03
 -1      1943 5.23509E-03 7.20548E-03-5.25842E-03
 -1      1944 4.85081E-03 7.46959E-03-5.25842E-03
 -1      1945 4.45323E-03 7.71322E-03-5.25842E-03
 -1      1946 4.04345E-03 7.93571E-03-5.25842E-03
 -1      1947 3.62258E-03 8.13646E-03-5.25842E-03
 -1      1948 3.19179E-03 8.31490E-03-5.25842E-03
 -1      1949 2.75225E-03 8.47055E-03-5.25842E-03
 -1      1950 2.30516E-03 8.60298E-03-5.25842E-03
 -1      1951 1.85176E-03 8.71183E-03-5.25842E-03
 -1      1952 1.39328E-03 8.79681E-03-5.25842E-03
 -1      1953 9.30979E-04 8.85767E-03-5.25842E-03
 -1      1954 4.66128E-04 8.89425E-03-5.25842E-03
 -1      1955 8.88672E-03 4.65733E-04-5.25842E-03
 -1      1956 8.85016E-03 9.30190E-04-5.25842E-03
 -1      1957 8.78935E-03 1.39210E-03-5.25842E-03
 -1      1958 8.70445E-03 1.85019E-03-5.25842E-03
 -1      1959 8.59569E-03 2.30321E-03-5.25842E-03
 -1      1960 8.46337E-03 2.74992E-03-5.25842E-03
 -1      1961 8.30785E-03 3.18909E-03-5.25842E-03
 -1      1962 8.12956E-03 3.61951E-03-5.25842E-03
 -1      1963 7.92899E-03 4.04002E-03-5.25842E-03
 -1      1964 7.70668E-03 4.44946E-03-5.25842E-03
 -1      1965 7.46326E-03 4.84670E-03-5.25842E-03
 -1      1966 7.19937E-03 5.23065E-03-5.25842E-03
 -1      1967 6.91575E-03 5.60027E-03-5.25842E-03
 -1      1968 6.61318E-03 5.95454E-03-5.25842E-03
 -1      1969 6.29248E-03 6.29248E-03-5.25842E-03
 -1      1970 5.95454E-03 6.61318E-03-5.25842E-03
 -1      1971 5.60027E-03 6.91575E-03-5.25842E-03
 -1      1972 5.23065E-03 7.19937E-03-5.25842E-03
 -1      1973 4.84670E-03 7.46326E-03-5.25842E-03
 -1      1974 4.44946E-03 7.70668E-03-5.25842E-03
 -1      1975 4.04002E-03 7.92899E-03-5.25842E-03
 -1      1976 3.61951E-03 8.12956E-03-5.25842E-03
 -1      1977 3.18909E-03 8.30785E-03-5.25842E-03
 -1      1978 2.74992E-03 8.46337E-03-5.25842E-03
 -1      1979 2.30321E-03 8.59569E-03-5.25842E-03
 -1      1980 1.85019E-03 8.70445E-03-5.25842E-03
 -1      1981 1.39210E-03 8.78935E-03-5.25842E-03
 -1      1982 9.30190E-04 8.85016E-03-5.25842E-03
 -1      1983 4.65733E-04 8.88672E-03-5.25842E-03
 -1      1984 8.87926E-03 4.65342E-04-5.25841E-03
 -1      1985 8.84274E-03 9.29409E-04-5.25841E-03
 -1      1986 8.78198E-03 1.39093E-03-5.25841E-03
 -1      1987 8.69714E-03 1.84864E-03-5.25841E-03
 -1      1988 8.58848E-03 2.30128E-03-5.25841E-03
 -1      1989 8.45627E-03 2.74761E-03-5.25841E-03
 -1      1990 8.30088E-03 3.18641E-03-5.25841E-03
 -1      1991 8.12274E-03 3.61648E-03-5.25841E-03
 -1      1992 7.92233E-03 4.03663E-03-5.25841E-03
 -1      1993 7.70022E-03 4.44572E-03-5.25841E-03
 -1      1994 7.45699E-03 4.84263E-03-5.25841E-03
 -1      1995 7.19333E-03 5.22626E-03-5.25841E-03
 -1      1996 6.90995E-03 5.59557E-03-5.25841E-03
 -1      1997 6.60763E-03 5.94954E-03-5.25841E-03
 -1      1998 6.28720E-03 6.28720E-03-5.25841E-03
 -1      1999 5.94954E-03 6.60763E-03-5.25841E-03
 -1      2000 5.59557E-03 6.90995E-03-5.25841E-03
 -1      2001 5.22626E-03 7.19333E-03-5.25841E-03
 -1      2002 4.84263E-03 7.45699E-03-5.25841E-03
 -1      2003 4.44572E-03 7.70022E-03-5.25841E-03
 -1      2004 4.03663E-03 7.92233E-03-5.25841E-03
 -1      2005 3.61648E-03 8.12274E-03-5.25841E-03
 -1      2006 3.18641E-03 8.30088E-03-5.25841E-03
 -1      2007 2.74761E-03 8.45627E-03-5.25841E-03
 -1      2008 2.30128E-03 8.58848E-03-5.25841E-03
 -1      2009 1.84864E-03 8.69714E-03-5.25841E-03
 -1      2010 1.39093E-03 8.78198E-03-5.25841E-03
 -1      2011 9.29409E-04 8.84274E-03-5.25841E-03
 -1      2012 4.65342E-04 8.87926E-03-5.25841E-03
 -1      2013 8.87188E-03 4.64955E-04-5.25841E-03
 -1      2014 8.83539E-03 9.28636E-04-5.25841E-03
 -1      2015 8.77468E-03 1.38977E-03-5.25841E-03
 -1      2016 8.68992E-03 1.84710E-03-5.25841E-03
 -1      2017 8.58134E-03 2.29936E-03-5.25841E-03
 -1      2018 8.44924E-03 2.74532E-03-5.25841E-03
 -1      2019 8.29398E-03 3.18376E-03-5.25841E-03
 -1      2020 8.11599E-03 3.61347E-03-5.25841E-03
 -1      2021 7.91575E-03 4.03328E-03-5.25841E-03
 -1      2022 7.69382E-03 4.44203E-03-5.25841E-03
 -1      2023 7.45079E-03 4.83860E-03-5.25841E-03
 -1      2024 7.18735E-03 5.22192E-03-5.25841E-03
 -1      2025 6.90421E-03 5.59092E-03-5.25841E-03
 -1      2026 6.60214E-03 5.94459E-03-5.25841E-03
 -1      2027 6.28197E-03 6.28197E-03-5.25841E-03
 -1      2028 5.94459E-03 6.60214E-03-5.25841E-03
 -1      2029 5.59092E-03 6.90421E-03-5.25841E-03
 -1      2030 5.22192E-03 7.18735E-03-5.25841E-03
 -1      2031 4.83860E-03 7.45079E-03-5.25841E-03
 -1      2032 4.44203E-03 7.69382E-03-5.25841E-03
 -1      2033 4.03328E-03 7.91575E-03-5.25841E-03
 -1      2034 3.61347E-03 8.11599E-03-5.25841E-03
 -1      2035 3.18376E-03 8.29398E-03-5.25841E-03
 -1      2036 2.74532E-03 8.44924E-03-5.25841E-03
 -1      2037 2.29936E-03 8.58134E-03-5.25841E-03
 -1      2038 1.84710E-03 8.68992E-03-5.25841E-03
 -1      2039 1.38977E-03 8.77468E-03-5.25841E-03
 -1      2040 9.28636E-04 8.83539E-03-5.25841E-03
 -1      2041 4.64955E-04 8.87188E-03-5.25841E-03
 -1      2042 8.86457E-03 4.64573E-04-5.25841E-03
 -1      2043 8.82811E-03 9.27872E-04-5.25841E-03
 -1      2044 8.76745E-03 1.38863E-03-5.25841E-03
 -1      2045 8.68276E-03 1.84558E-03-5.25841E-03
 -1      2046 8.57427E-03 2.29747E-03-5.25841E-03
 -1      2047 8.44228E-03 2.74306E-03-5.25841E-03
 -1      2048 8.28715E-03 3.18114E-03-5.25841E-03
 -1      2049 8.10931E-03 3.61050E-03-5.25841E-03
 -1      2050 7.90923E-03 4.02996E-03-5.25841E-03
 -1      2051 7.68748E-03 4.43837E-03-5.25841E-03
 -1      2052 7.44466E-03 4.83462E-03-5.25841E-03
 -1      2053 7.18143E-03 5.21762E-03-5.25841E-03
 -1      2054 6.89852E-03 5.58631E-03-5.25841E-03
 -1      2055 6.59670E-03 5.93970E-03-5.25841E-03
 -1      2056 6.27680E-03 6.27680E-03-5.25841E-03
 -1      2057 5.93970E-03 6.59670E-03-5.25841E-03
 -1      2058 5.58631E-03 6.89852E-03-5.25841E-03
 -1      2059 5.21762E-03 7.18143E-03-5.25841E-03
 -1      2060 4.83462E-03 7.44466E-03-5.25841E-03
 -1      2061 4.43837E-03 7.68748E-03-5.25841E-03
 -1      2062 4.02996E-03 7.90923E-03-5.25841E-03
 -1      2063 3.61050E-03 8.10931E-03-5.25841E-03
 -1      2064 3.18114E-03 8.28715E-03-5.25841E-03
 -1      2065 2.74306E-03 8.44228E-03-5.25841E-03
 -1      2066 2.29747E-03 8.57427E-03-5.25841E-03
 -1      2067 1.84558E-03 8.68276E-03-5.25841E-03
 -1      2068 1.38863E-03 8.76745E-03-5.25841E-03
 -1      2069 9.27872E-04 8.82811E-03-5.25841E-03
 -1      2070 4.64573E-04 8.86457E-03-5.25841E-03
 -1      2071 8.85735E-03 4.64194E-04-5.25841E-03
 -1      2072 8.82091E-03 9.27115E-04-5.25841E-03
 -1      2073 8.76030E-03 1.38750E-03-5.25841E-03
 -1      2074 8.67568E-03 1.84407E-03-5.25841E-03
 -1      2075 8.56728E-03 2.29560E-03-5.25841E-03
 -1      2076 8.43540E-03 2.74083E-03-5.25841E-03
 -1      2077 8.28039E-03 3.17855E-03-5.25841E-03
 -1      2078 8.10269E-03 3.60755E-03-5.25841E-03
 -1      2079 7.90278E-03 4.02667E-03-5.25841E-03
 -1      2080 7.68121E-03 4.43475E-03-5.25841E-03
 -1      2081 7.43859E-03 4.83068E-03-5.25841E-03
 -1      2082 7.17558E-03 5.21336E-03-5.25841E-03
 -1      2083 6.89290E-03 5.58176E-03-5.25841E-03
 -1      2084 6.59132E-03 5.93486E-03-5.25841E-03
 -1      2085 6.27169E-03 6.27169E-03-5.25841E-03
 -1      2086 5.93486E-03 6.59132E-03-5.25841E-03
 -1      2087 5.58176E-03 6.89290E-03-5.25841E-03
 -1      2088 5.21336E-03 7.17558E-03-5.25841E-03
 -1      2089 4.83068E-03 7.43859E-03-5.25841E-03
 -1      2090 4.43475E-03 7.68121E-03-5.25841E-03
 -1      2091 4.02667E-03 7.90278E-03-5.25841E-03
 -1      2092 3.60755E-03 8.10269E-03-5.25841E-03
 -1      2093 3.17855E-03 8.28039E-03-5.25841E-03
 -1      2094 2.74083E-03 8.43540E-03-5.25841E-03
 -1      2095 2.29560E-03 8.56728E-03-5.25841E-03
 -1      2096 1.84407E-03 8.67568E-03-5.25841E-03
 -1      2097 1.38750E-03 8.76030E-03-5.25841E-03
 -1      2098 9.27115E-04 8.82091E-03-5.25841E-03
 -1      2099 4.64194E-04 8.85735E-03-5.25841E-03
 -1      2100 8.85020E-03 4.63819E-04-5.25841E-03
 -1      2101 8.81379E-03 9.26367E-04-5.25841E-03
 -1      2102 8.75323E-03 1.38638E-03-5.25841E-03
 -1      2103 8.66868E-03 1.84258E-03-5.25841E-03
 -1      2104 8.56036E-03 2.29374E-03-5.25841E-03
 -1      2105 8.42859E-03 2.73861E-03-5.25841E-03
 -1      2106 8.27371E-03 3.17598E-03-5.25841E-03
 -1      2107 8.09615E-03 3.60464E-03-5.25841E-03
 -1      2108 7.89640E-03 4.02342E-03-5.25841E-03
 -1      2109 7.67501E-03 4.43117E-03-5.25841E-03
 -1      2110 7.43258E-03 4.82678E-03-5.25841E-03
 -1      2111 7.16978E-03 5.20915E-03-5.25841E-03
 -1      2112 6.88733E-03 5.57725E-03-5.25841E-03
 -1      2113 6.58600E-03 5.93006E-03-5.25841E-03
 -1      2114 6.26662E-03 6.26662E-03-5.25841E-03
 -1      2115 5.93006E-03 6.58600E-03-5.25841E-03
 -1      2116 5.57725E-03 6.88733E-03-5.25841E-03
 -1      2117 5.20915E-03 7.16978E-03-5.25841E-03
 -1      2118 4.82678E-03 7.43258E-03-5.25841E-03
 -1      2119 4.43117E-03 7.67501E-03-5.25841E-03
 -1      2120 4.02342E-03 7.89640E-03-5.25841E-03
 -1      2121 3.60464E-03 8.09615E-03-5.25841E-03
 -1      2122 3.17598E-03 8.27371E-03-5.25841E-03
 -1      2123 2.73861E-03 8.42859E-03-5.25841E-03
 -1      2124 2.29374E-03 8.56036E-03-5.25841E-03
 -1      2125 1.84258E-03 8.66868E-03-5.25841E-03
 -1      2126 1.38638E-03 8.75323E-03-5.25841E-03
 -1      2127 9.26367E-04 8.81379E-03-5.25841E-03
 -1      2128 4.63819E-04 8.85020E-03-5.25841E-03
 -1      2129 8.84312E-03 4.63448E-04-5.25841E-03
 -1      2130 8.80675E-03 9.25626E-04-5.25841E-03
 -1      2131 8.74623E-03 1.38527E-03-5.25841E-03
 -1      2132 8.66175E-03 1.84111E-03-5.25841E-03
 -1      2133 8.55352E-03 2.29191E-03-5.25841E-03
 -1      2134 8.42185E-03 2.73642E-03-5.25841E-03
 -1      2135 8.26709E-03 3.17344E-03-5.25841E-03
 -1      2136 8.08968E-03 3.60176E-03-5.25841E-03
 -1      2137 7.89009E-03 4.02020E-03-5.25841E-03
 -1      2138 7.66888E-03 4.42763E-03-5.25841E-03
 -1      2139 7.42664E-03 4.82292E-03-5.25841E-03
 -1      2140 7.16405E-03 5.20499E-03-5.25841E-03
 -1      2141 6.88183E-03 5.57279E-03-5.25841E-03
 -1      2142 6.58074E-03 5.92532E-03-5.25841E-03
 -1      2143 6.26161E-03 6.26161E-03-5.25841E-03
 -1      2144 5.92532E-03 6.58074E-03-5.25841E-03
 -1      2145 5.57279E-03 6.88183E-03-5.25841E-03
 -1      2146 5.20499E-03 7.16405E-03-5.25841E-03
 -1      2147 4.82292E-03 7.42664E-03-5.25841E-03
 -1      2148 4.42763E-03 7.66888E-03-5.25841E-03
 -1      2149 4.02020E-03 7.89009E-03-5.25841E-03
 -1      2150 3.60176E-03 8.08968E-03-5.25841E-03
 -1      2151 3.17344E-03 8.26709E-03-5.25841E-03
 -1      2152 2.73642E-03 8.42185E-03-5.25841E-03
 -1      2153 2.29191E-03 8.55352E-03-5.25841E-03
 -1      2154 1.84111E-03 8.66175E-03-5.25841E-03
 -1      2155 1.38527E-03 8.74623E-03-5.25841E-03
 -1      2156 9.25626E-04 8.80675E-03-5.25841E-03
 -1      2157 4.63448E-04 8.84312E-03-5.25841E-03
 -1      2158 8.83612E-03 4.63081E-04-5.25841E-03
 -1      2159 8.79977E-03 9.24893E-04-5.25841E-03
 -1      2160 8.73931E-03 1.38417E-03-5.25841E-03
 -1      2161 8.65489E-03 1.83965E-03-5.25841E-03
 -1      2162 8.54675E-03 2.29009E-03-5.25841E-03
 -1      2163 8.41518E-03 2.73426E-03-5.25841E-03
 -1      2164 8.26055E-03 3.17093E-03-5.25841E-03
 -1      2165 8.08327E-03 3.59890E-03-5.25841E-03
 -1      2166 7.88384E-03 4.01702E-03-5.25841E-03
 -1      2167 7.66280E-03 4.42412E-03-5.25841E-03
 -1      2168 7.42076E-03 4.81910E-03-5.25841E-03
 -1      2169 7.15838E-03 5.20087E-03-5.25841E-03
 -1      2170 6.87638E-03 5.56838E-03-5.25841E-03
 -1      2171 6.57553E-03 5.92063E-03-5.25841E-03
 -1      2172 6.25665E-03 6.25665E-03-5.25841E-03
 -1      2173 5.92063E-03 6.57553E-03-5.25841E-03
 -1      2174 5.56838E-03 6.87638E-03-5.25841E-03
 -1      2175 5.20087E-03 7.15838E-03-5.25841E-03
 -1      2176 4.81910E-03 7.42076E-03-5.25841E-03
 -1      2177 4.42412E-03 7.66280E-03-5.25841E-03
 -1      2178 4.01702E-03 7.88384E-03-5.25841E-03
 -1      2179 3.59890E-03 8.08327E-03-5.25841E-03
 -1      2180 3.17093E-03 8.26055E-03-5.25841E-03
 -1      2181 2.73426E-03 8.41518E-03-5.25841E-03
 -1      2182 2.29009E-03 8.54675E-03-5.25841E-03
 -1      2183 1.83965E-03 8.65489E-03-5.25841E-03
 -1      2184 1.38417E-03 8.73931E-03-5.25841E-03
 -1      2185 9.24893E-04 8.79977E-03-5.25841E-03
 -1      2186 4.63081E-04 8.83612E-03-5.25841E-03
 -1      2187 8.82919E-03 4.62718E-04-5.25840E-03
 -1      2188 8.79287E-03 9.24168E-04-5.25840E-03
 -1      2189 8.73246E-03 1.38309E-03-5.25840E-03
 -1      2190 8.64810E-03 1.83821E-03-5.25840E-03
 -1      2191 8.54005E-03 2.28830E-03-5.25840E-03
 -1      2192 8.40858E-03 2.73211E-03-5.25840E-03
 -1      2193 8.25407E-03 3.16844E-03-5.25840E-03
 -1      2194 8.07694E-03 3.59608E-03-5.25840E-03
 -1      2195 7.87766E-03 4.01387E-03-5.25840E-03
 -1      2196 7.65680E-03 4.42065E-03-5.25840E-03
 -1      2197 7.41494E-03 4.81532E-03-5.25840E-03
 -1      2198 7.15277E-03 5.19679E-03-5.25840E-03
 -1      2199 6.87099E-03 5.56401E-03-5.25840E-03
 -1      2200 6.57037E-03 5.91599E-03-5.25840E-03
 -1      2201 6.25175E-03 6.25175E-03-5.25840E-03
 -1      2202 5.91599E-03 6.57037E-03-5.25840E-03
 -1      2203 5.56401E-03 6.87099E-03-5.25840E-03
 -1      2204 5.19679E-03 7.15277E-03-5.25840E-03
 -1      2205 4.81532E-03 7.41494E-03-5.25840E-03
 -1      2206 4.42065E-03 7.65680E-03-5.25840E-03
 -1      2207 4.01387E-03 7.87766E-03-5.25840E-03
 -1      2208 3.59608E-03 8.07694E-03-5.25840E-03
 -1      2209 3.16844E-03 8.25407E-03-5.25840E-03
 -1      2210 2.73211E-03 8.40858E-03-5.25840E-03
 -1      2211 2.28830E-03 8.54005E-03-5.25840E-03
 -1      2212 1.83821E-03 8.64810E-03-5.25840E-03
 -1      2213 1.38309E-03 8.73246E-03-5.25840E-03
 -1      2214 9.24168E-04 8.79287E-03-5.25840E-03
 -1      2215 4.62718E-04 8.82919E-03-5.25840E-03
 -1      2216 8.82234E-03 4.62359E-04-5.25840E-03
 -1      2217 8.78605E-03 9.23451E-04-5.25840E-03
 -1      2218 8.72568E-03 1.38201E-03-5.25840E-03
 -1      2219 8.64139E-03 1.83678E-03-5.25840E-03
 -1      2220 8.53342E-03 2.28652E-03-5.25840E-03
 -1      2221 8.40206E-03 2.72999E-03-5.25840E-03
 -1      2222 8.24766E-03 3.16598E-03-5.25840E-03
 -1      2223 8.07067E-03 3.59329E-03-5.25840E-03
 -1      2224 7.87155E-03 4.01075E-03-5.25840E-03
 -1      2225 7.65085E-03 4.41722E-03-5.25840E-03
 -1      2226 7.40919E-03 4.81158E-03-5.25840E-03
 -1      2227 7.14722E-03 5.19276E-03-5.25840E-03
 -1      2228 6.86565E-03 5.55970E-03-5.25840E-03
 -1      2229 6.56527E-03 5.91140E-03-5.25840E-03
 -1      2230 6.24690E-03 6.24690E-03-5.25840E-03
 -1      2231 5.91140E-03 6.56527E-03-5.25840E-03
 -1      2232 5.55970E-03 6.86565E-03-5.25840E-03
 -1      2233 5.19276E-03 7.14722E-03-5.25840E-03
 -1      2234 4.81158E-03 7.40919E-03-5.25840E-03
 -1      2235 4.41722E-03 7.65085E-03-5.25840E-03
 -1      2236 4.01075E-03 7.87155E-03-5.25840E-03
 -1      2237 3.59329E-03 8.07067E-03-5.25840E-03
 -1      2238 3.16598E-03 8.24766E-03-5.25840E-03
 -1      2239 2.72999E-03 8.40206E-03-5.25840E-03
 -1      2240 2.28652E-03 8.53342E-03-5.25840E-03
 -1      2241 1.83678E-03 8.64139E-03-5.25840E-03
 -1      2242 1.38201E-03 8.72568E-03-5.25840E-03
 -1      2243 9.23451E-04 8.78605E-03-5.25840E-03
 -1      2244 4.62359E-04 8.82234E-03-5.25840E-03
 -1      2245 8.81556E-03 4.62004E-04-5.25840E-03
 -1      2246 8.77929E-03 9.22741E-04-5.25840E-03
 -1      2247 8.71897E-03 1.38095E-03-5.25840E-03
 -1      2248 8.63475E-03 1.83537E-03-5.25840E-03
 -1      2249 8.52686E-03 2.28477E-03-5.25840E-03
 -1      2250 8.39560E-03 2.72790E-03-5.25840E-03
 -1      2251 8.24132E-03 3.16355E-03-5.25840E-03
 -1      2252 8.06446E-03 3.59053E-03-5.25840E-03
 -1      2253 7.86550E-03 4.00767E-03-5.25840E-03
 -1      2254 7.64497E-03 4.41383E-03-5.25840E-03
 -1      2255 7.40349E-03 4.80788E-03-5.25840E-03
 -1      2256 7.14172E-03 5.18876E-03-5.25840E-03
 -1      2257 6.86038E-03 5.55542E-03-5.25840E-03
 -1      2258 6.56023E-03 5.90685E-03-5.25840E-03
 -1      2259 6.24209E-03 6.24209E-03-5.25840E-03
 -1      2260 5.90685E-03 6.56023E-03-5.25840E-03
 -1      2261 5.55542E-03 6.86038E-03-5.25840E-03
 -1      2262 5.18876E-03 7.14172E-03-5.25840E-03
 -1      2263 4.80788E-03 7.40349E-03-5.25840E-03
 -1      2264 4.41383E-03 7.64497E-03-5.25840E-03
 -1      2265 4.00767E-03 7.86550E-03-5.25840E-03
 -1      2266 3.59053E-03 8.06446E-03-5.25840E-03
 -1      2267 3.16355E-03 8.24132E-03-5.25840E-03
 -1      2268 2.72790E-03 8.39560E-03-5.25840E-03
 -1      2269 2.28476E-03 8.52686E-03-5.25840E-03
 -1      2270 1.83537E-03 8.63475E-03-5.25840E-03
 -1      2271 1.38095E-03 8.71897E-03-5.25840E-03
 -1      2272 9.22741E-04 8.77929E-03-5.25840E-03
 -1      2273 4.62004E-04 8.81556E-03-5.25840E-03
 -1      2274 8.80885E-03 4.61652E-04-5.25839E-03
 -1      2275 8.77261E-03 9.22039E-04-5.25839E-03
 -1      2276 8.71234E-03 1.37990E-03-5.25839E-03
 -1      2277 8.62818E-03 1.83398E-03-5.25839E-03
 -1      2278 8.52037E-03 2.28303E-03-5.25839E-03
 -1      2279 8.38921E-03 2.72582E-03-5.25839E-03
 -1      2280 8.23505E-03 3.16114E-03-5.25839E-03
 -1      2281 8.05833E-03 3.58780E-03-5.25839E-03
 -1      2282 7.85951E-03 4.00462E-03-5.25839E-03
 -1      2283 7.63915E-03 4.41047E-03-5.25839E-03
 -1      2284 7.39786E-03 4.80423E-03-5.25839E-03
 -1      2285 7.13629E-03 5.18482E-03-5.25839E-03
 -1      2286 6.85515E-03 5.55120E-03-5.25839E-03
 -1      2287 6.55523E-03 5.90236E-03-5.25839E-03
 -1      2288 6.23734E-03 6.23734E-03-5.25839E-03
 -1      2289 5.90236E-03 6.55523E-03-5.25839E-03
 -1      2290 5.55119E-03 6.85515E-03-5.25839E-03
 -1      2291 5.18482E-03 7.13629E-03-5.25839E-03
 -1      2292 4.80423E-03 7.39786E-03-5.25839E-03
 -1      2293 4.41047E-03 7.63915E-03-5.25839E-03
 -1      2294 4.00462E-03 7.85951E-03-5.25839E-03
 -1      2295 3.58780E-03 8.05833E-03-5.25839E-03
 -1      2296 3.16114E-03 8.23505E-03-5.25839E-03
 -1      2297 2.72582E-03 8.38921E-03-5.25839E-03
 -1      2298 2.28303E-03 8.52037E-03-5.25839E-03
 -1      2299 1.83398E-03 8.62818E-03-5.25839E-03
 -1      2300 1.37990E-03 8.71234E-03-5.25839E-03
 -1      2301 9.22039E-04 8.77261E-03-5.25839E-03
 -1      2302 4.61652E-04 8.80885E-03-5.25839E-03
 -1      2303 8.94116E-03 4.68587E-04-5.01797E-03
 -1      2304 8.94117E-03 4.68587E-04-5.04202E-03
 -1      2305 8.94117E-03 4.68587E-04-5.06606E-03
 -1      2306 8.94117E-03 4.68587E-04-5.09011E-03
 -1      2307 8.94118E-03 4.68587E-04-5.11416E-03
 -1      2308 8.94118E-03 4.68587E-04-5.13820E-03
 -1      2309 8.94117E-03 4.68587E-04-5.16225E-03
 -1      2310 8.94117E-03 4.68587E-04-5.18629E-03
 -1      2311 8.94117E-03 4.68587E-04-5.21034E-03
 -1      2312 8.94116E-03 4.68587E-04-5.23439E-03
 -1      2313 8.90439E-03 9.35889E-04-5.01797E-03
 -1      2314 8.90439E-03 9.35889E-04-5.04202E-03
 -1      2315 8.90439E-03 9.35890E-04-5.06606E-03
 -1      2316 8.90440E-03 9.35890E-04-5.09011E-03
 -1      2317 8.90440E-03 9.35890E-04-5.11416E-03
 -1      2318 8.90440E-03 9.35890E-04-5.13820E-03
 -1      2319 8.90440E-03 9.35890E-04-5.16225E-03
 -1      2320 8.90439E-03 9.35890E-04-5.18629E-03
 -1      2321 8.90439E-03 9.35889E-04-5.21034E-03
 -1      2322 8.90439E-03 9.35889E-04-5.23439E-03
 -1      2323 8.84320E-03 1.40063E-03-5.01797E-03
 -1      2324 8.84321E-03 1.40063E-03-5.04202E-03
 -1      2325 8.84321E-03 1.40063E-03-5.06606E-03
 -1      2326 8.84321E-03 1.40063E-03-5.09011E-03
 -1      2327 8.84321E-03 1.40063E-03-5.11416E-03
 -1      2328 8.84321E-03 1.40063E-03-5.13820E-03
 -1      2329 8.84321E-03 1.40063E-03-5.16225E-03
 -1      2330 8.84321E-03 1.40063E-03-5.18629E-03
 -1      2331 8.84321E-03 1.40063E-03-5.21034E-03
 -1      2332 8.84320E-03 1.40063E-03-5.23439E-03
 -1      2333 8.75778E-03 1.86152E-03-5.01797E-03
 -1      2334 8.75778E-03 1.86152E-03-5.04202E-03
 -1      2335 8.75779E-03 1.86153E-03-5.06606E-03
 -1      2336 8.75779E-03 1.86153E-03-5.09011E-03
 -1      2337 8.75779E-03 1.86153E-03-5.11416E-03
 -1      2338 8.75779E-03 1.86153E-03-5.13820E-03
 -1      2339 8.75779E-03 1.86153E-03-5.16225E-03
 -1      2340 8.75779E-03 1.86153E-03-5.18629E-03
 -1      2341 8.75778E-03 1.86152E-03-5.21034E-03
 -1      2342 8.75778E-03 1.86152E-03-5.23439E-03
 -1      2343 8.64835E-03 2.31732E-03-5.01797E-03
 -1      2344 8.64836E-03 2.31732E-03-5.04202E-03
 -1      2345 8.64836E-03 2.31732E-03-5.06606E-03
 -1      2346 8.64836E-03 2.31732E-03-5.09011E-03
 -1      2347 8.64836E-03 2.31732E-03-5.11416E-03
 -1      2348 8.64836E-03 2.31732E-03-5.13820E-03
 -1      2349 8.64836E-03 2.31732E-03-5.16225E-03
 -1      2350 8.64836E-03 2.31732E-03-5.18629E-03
 -1      2351 8.64836E-03 2.31732E-03-5.21034E-03
 -1      2352 8.64835E-03 2.31732E-03-5.23439E-03
 -1      2353 8.51522E-03 2.76676E-03-5.01797E-03
 -1      2354 8.51523E-03 2.76676E-03-5.04202E-03
 -1      2355 8.51523E-03 2.76677E-03-5.06606E-03
 -1      2356 8.51523E-03 2.76677E-03-5.09011E-03
 -1      2357 8.51523E-03 2.76677E-03-5.11416E-03
 -1      2358 8.51523E-03 2.76677E-03-5.13820E-03
 -1      2359 8.51523E-03 2.76677E-03-5.16225E-03
 -1      2360 8.51523E-03 2.76677E-03-5.18629E-03
 -1      2361 8.51523E-03 2.76676E-03-5.21034E-03
 -1      2362 8.51522E-03 2.76676E-03-5.23439E-03
 -1      2363 8.35875E-03 3.20862E-03-5.01797E-03
 -1      2364 8.35876E-03 3.20863E-03-5.04202E-03
 -1      2365 8.35876E-03 3.20863E-03-5.06606E-03
 -1      2366 8.35876E-03 3.20863E-03-5.09011E-03
 -1      2367 8.35876E-03 3.20863E-03-5.11416E-03
 -1      2368 8.35876E-03 3.20863E-03-5.13820E-03
 -1      2369 8.35876E-03 3.20863E-03-5.16225E-03
 -1      2370 8.35876E-03 3.20863E-03-5.18629E-03
 -1      2371 8.35876E-03 3.20863E-03-5.21034E-03
 -1      2372 8.35875E-03 3.20862E-03-5.23439E-03
 -1      2373 8.17937E-03 3.64169E-03-5.01797E-03
 -1      2374 8.17937E-03 3.64169E-03-5.04202E-03
 -1      2375 8.17938E-03 3.64169E-03-5.06606E-03
 -1      2376 8.17938E-03 3.64169E-03-5.09011E-03
 -1      2377 8.17938E-03 3.64169E-03-5.11416E-03
 -1      2378 8.17938E-03 3.64169E-03-5.13820E-03
 -1      2379 8.17938E-03 3.64169E-03-5.16225E-03
 -1      2380 8.17938E-03 3.64169E-03-5.18629E-03
 -1      2381 8.17937E-03 3.64169E-03-5.21034E-03
 -1      2382 8.17937E-03 3.64169E-03-5.23439E-03
 -1      2383 7.97757E-03 4.06477E-03-5.01797E-03
 -1      2384 7.97757E-03 4.06478E-03-5.04202E-03
 -1      2385 7.97758E-03 4.06478E-03-5.06606E-03
 -1      2386 7.97758E-03 4.06478E-03-5.09011E-03
 -1      2387 7.97758E-03 4.06478E-03-5.11416E-03
 -1      2388 7.97758E-03 4.06478E-03-5.13820E-03
 -1      2389 7.97758E-03 4.06478E-03-5.16225E-03
 -1      2390 7.97758E-03 4.06478E-03-5.18629E-03
 -1      2391 7.97757E-03 4.06478E-03-5.21034E-03
 -1      2392 7.97757E-03 4.06477E-03-5.23439E-03
 -1      2393 7.75390E-03 4.47672E-03-5.01797E-03
 -1      2394 7.75390E-03 4.47672E-03-5.04202E-03
 -1      2395 7.75391E-03 4.47672E-03-5.06606E-03
 -1      2396 7.75391E-03 4.47672E-03-5.09011E-03
 -1      2397 7.75391E-03 4.47672E-03-5.11416E-03
 -1      2398 7.75391E-03 4.47672E-03-5.13820E-03
 -1      2399 7.75391E-03 4.47672E-03-5.16225E-03
 -1      2400 7.75391E-03 4.47672E-03-5.18629E-03
 -1      2401 7.75390E-03 4.47672E-03-5.21034E-03
 -1      2402 7.75390E-03 4.47672E-03-5.23439E-03
 -1      2403 7.50898E-03 4.87639E-03-5.01797E-03
 -1      2404 7.50899E-03 4.87639E-03-5.04202E-03
 -1      2405 7.50899E-03 4.87639E-03-5.06606E-03
 -1      2406 7.50899E-03 4.87640E-03-5.09011E-03
 -1      2407 7.50899E-03 4.87640E-03-5.11416E-03
 -1      2408 7.50899E-03 4.87640E-03-5.13820E-03
 -1      2409 7.50899E-03 4.87640E-03-5.16225E-03
 -1      2410 7.50899E-03 4.87639E-03-5.18629E-03
 -1      2411 7.50899E-03 4.87639E-03-5.21034E-03
 -1      2412 7.50898E-03 4.87639E-03-5.23439E-03
 -1      2413 7.24348E-03 5.26270E-03-5.01797E-03
 -1      2414 7.24348E-03 5.26270E-03-5.04202E-03
 -1      2415 7.24349E-03 5.26270E-03-5.06606E-03
 -1      2416 7.24349E-03 5.26270E-03-5.09011E-03
 -1      2417 7.24349E-03 5.26270E-03-5.11416E-03
 -1      2418 7.24349E-03 5.26270E-03-5.13820E-03
 -1      2419 7.24349E-03 5.26270E-03-5.16225E-03
 -1      2420 7.24349E-03 5.26270E-03-5.18629E-03
 -1      2421 7.24348E-03 5.26270E-03-5.21034E-03
 -1      2422 7.24348E-03 5.26270E-03-5.23439E-03
 -1      2423 6.95813E-03 5.63458E-03-5.01797E-03
 -1      2424 6.95813E-03 5.63458E-03-5.04202E-03
 -1      2425 6.95813E-03 5.63458E-03-5.06606E-03
 -1      2426 6.95813E-03 5.63459E-03-5.09011E-03
 -1      2427 6.95813E-03 5.63459E-03-5.11416E-03
 -1      2428 6.95813E-03 5.63459E-03-5.13820E-03
 -1      2429 6.95813E-03 5.63459E-03-5.16225E-03
 -1      2430 6.95813E-03 5.63458E-03-5.18629E-03
 -1      2431 6.95813E-03 5.63458E-03-5.21034E-03
 -1      2432 6.95813E-03 5.63458E-03-5.23439E-03
 -1      2433 6.65370E-03 5.99102E-03-5.01797E-03
 -1      2434 6.65370E-03 5.99102E-03-5.04202E-03
 -1      2435 6.65370E-03 5.99102E-03-5.06606E-03
 -1      2436 6.65371E-03 5.99102E-03-5.09011E-03
 -1      2437 6.65371E-03 5.99102E-03-5.11416E-03
 -1      2438 6.65371E-03 5.99102E-03-5.13820E-03
 -1      2439 6.65371E-03 5.99102E-03-5.16225E-03
 -1      2440 6.65370E-03 5.99102E-03-5.18629E-03
 -1      2441 6.65370E-03 5.99102E-03-5.21034E-03
 -1      2442 6.65370E-03 5.99102E-03-5.23439E-03
 -1      2443 6.33103E-03 6.33103E-03-5.01797E-03
 -1      2444 6.33104E-03 6.33104E-03-5.04202E-03
 -1      2445 6.33104E-03 6.33104E-03-5.06606E-03
 -1      2446 6.33104E-03 6.33104E-03-5.09011E-03
 -1      2447 6.33104E-03 6.33104E-03-5.11416E-03
 -1      2448 6.33104E-03 6.33104E-03-5.13820E-03
 -1      2449 6.33104E-03 6.33104E-03-5.16225E-03
 -1      2450 6.33104E-03 6.33104E-03-5.18629E-03
 -1      2451 6.33104E-03 6.33104E-03-5.21034E-03
 -1      2452 6.33103E-03 6.33103E-03-5.23439E-03
 -1      2453 5.99102E-03 6.65370E-03-5.01797E-03
 -1      2454 5.99102E-03 6.65370E-03-5.04202E-03
 -1      2455 5.99102E-03 6.65370E-03-5.06606E-03
 -1      2456 5.99102E-03 6.65371E-03-5.09011E-03
 -1      2457 5.99102E-03 6.65371E-03-5.11416E-03
 -1      2458 5.99102E-03 6.65371E-03-5.13820E-03
 -1      2459 5.99102E-03 6.65371E-03-5.16225E-03
 -1      2460 5.99102E-03 6.65370E-03-5.18629E-03
 -1      2461 5.99102E-03 6.65370E-03-5.21034E-03
 -1      2462 5.99102E-03 6.65370E-03-5.23439E-03
 -1      2463 5.63458E-03 6.95813E-03-5.01797E-03
 -1      2464 5.63458E-03 6.95813E-03-5.04202E-03
 -1      2465 5.63458E-03 6.95813E-03-5.06606E-03
 -1      2466 5.63459E-03 6.95813E-03-5.09011E-03
 -1      2467 5.63459E-03 6.95813E-03-5.11416E-03
 -1      2468 5.63459E-03 6.95813E-03-5.13820E-03
 -1      2469 5.63459E-03 6.95813E-03-5.16225E-03
 -1      2470 5.63458E-03 6.95813E-03-5.18629E-03
 -1      2471 5.63458E-03 6.95813E-03-5.21034E-03
 -1      2472 5.63458E-03 6.95813E-03-5.23439E-03
 -1      2473 5.26270E-03 7.24348E-03-5.01797E-03
 -1      2474 5.26270E-03 7.24348E-03-5.04202E-03
 -1      2475 5.26270E-03 7.24349E-03-5.06606E-03
 -1      2476 5.26270E-03 7.24349E-03-5.09011E-03
 -1      2477 5.26270E-03 7.24349E-03-5.11416E-03
 -1      2478 5.26270E-03 7.24349E-03-5.13820E-03
 -1      2479 5.26270E-03 7.24349E-03-5.16225E-03
 -1      2480 5.26270E-03 7.24349E-03-5.18629E-03
 -1      2481 5.26270E-03 7.24348E-03-5.21034E-03
 -1      2482 5.26270E-03 7.24348E-03-5.23439E-03
 -1      2483 4.87639E-03 7.50898E-03-5.01797E-03
 -1      2484 4.87639E-03 7.50899E-03-5.04202E-03
 -1      2485 4.87639E-03 7.50899E-03-5.06606E-03
 -1      2486 4.87640E-03 7.50899E-03-5.09011E-03
 -1      2487 4.87640E-03 7.50899E-03-5.11416E-03
 -1      2488 4.87640E-03 7.50899E-03-5.13820E-03
 -1      2489 4.87640E-03 7.50899E-03-5.16225E-03
 -1      2490 4.87639E-03 7.50899E-03-5.18629E-03
 -1      2491 4.87639E-03 7.50899E-03-5.21034E-03
 -1      2492 4.87639E-03 7.50898E-03-5.23439E-03
 -1      2493 4.47672E-03 7.75390E-03-5.01797E-03
 -1      2494 4.47672E-03 7.75390E-03-5.04202E-03
 -1      2495 4.47672E-03 7.75391E-03-5.06606E-03
 -1      2496 4.47672E-03 7.75391E-03-5.09011E-03
 -1      2497 4.47672E-03 7.75391E-03-5.11416E-03
 -1      2498 4.47672E-03 7.75391E-03-5.13820E-03
 -1      2499 4.47672E-03 7.75391E-03-5.16225E-03
 -1      2500 4.47672E-03 7.75391E-03-5.18629E-03
 -1      2501 4.47672E-03 7.75390E-03-5.21034E-03
 -1      2502 4.47672E-03 7.75390E-03-5.23439E-03
 -1      2503 4.06477E-03 7.97757E-03-5.01797E-03
 -1      2504 4.06478E-03 7.97757E-03-5.04202E-03
 -1      2505 4.06478E-03 7.97758E-03-5.06606E-03
 -1      2506 4.06478E-03 7.97758E-03-5.09011E-03
 -1      2507 4.06478E-03 7.97758E-03-5.11416E-03
 -1      2508 4.06478E-03 7.97758E-03-5.13820E-03
 -1      2509 4.06478E-03 7.97758E-03-5.16225E-03
 -1      2510 4.06478E-03 7.97758E-03-5.18629E-03
 -1      2511 4.06478E-03 7.97757E-03-5.21034E-03
 -1      2512 4.06477E-03 7.97757E-03-5.23439E-03
 -1      2513 3.64169E-03 8.17937E-03-5.01797E-03
 -1      2514 3.64169E-03 8.17937E-03-5.04202E-03
 -1      2515 3.64169E-03 8.17938E-03-5.06606E-03
 -1      2516 3.64169E-03 8.17938E-03-5.09011E-03
 -1      2517 3.64169E-03 8.17938E-03-5.11416E-03
 -1      2518 3.64169E-03 8.17938E-03-5.13820E-03
 -1      2519 3.64169E-03 8.17938E-03-5.16225E-03
 -1      2520 3.64169E-03 8.17938E-03-5.18629E-03
 -1      2521 3.64169E-03 8.17937E-03-5.21034E-03
 -1      2522 3.64169E-03 8.17937E-03-5.23439E-03
 -1      2523 3.20862E-03 8.35875E-03-5.01797E-03
 -1      2524 3.20863E-03 8.35876E-03-5.04202E-03
 -1      2525 3.20863E-03 8.35876E-03-5.06606E-03
 -1      2526 3.20863E-03 8.35876E-03-5.09011E-03
 -1      2527 3.20863E-03 8.35876E-03-5.11416E-03
 -1      2528 3.20863E-03 8.35876E-03-5.13820E-03
 -1      2529 3.20863E-03 8.35876E-03-5.16225E-03
 -1      2530 3.20863E-03 8.35876E-03-5.18629E-03
 -1      2531 3.20863E-03 8.35876E-03-5.21034E-03
 -1      2532 3.20862E-03 8.35875E-03-5.23439E-03
 -1      2533 2.76676E-03 8.51522E-03-5.01797E-03
 -1      2534 2.76676E-03 8.51523E-03-5.04202E-03
 -1      2535 2.76677E-03 8.51523E-03-5.06606E-03
 -1      2536 2.76677E-03 8.51523E-03-5.09011E-03
 -1      2537 2.76677E-03 8.51523E-03-5.11416E-03
 -1      2538 2.76677E-03 8.51523E-03-5.13820E-03
 -1      2539 2.76677E-03 8.51523E-03-5.16225E-03
 -1      2540 2.76677E-03 8.51523E-03-5.18629E-03
 -1      2541 2.76676E-03 8.51523E-03-5.21034E-03
 -1      2542 2.76676E-03 8.51522E-03-5.23439E-03
 -1      2543 2.31732E-03 8.64835E-03-5.01797E-03
 -1      2544 2.31732E-03 8.64836E-03-5.04202E-03
 -1      2545 2.31732E-03 8.64836E-03-5.06606E-03
 -1      2546 2.31732E-03 8.64836E-03-5.09011E-03
 -1      2547 2.31732E-03 8.64836E-03-5.11416E-03
 -1      2548 2.31732E-03 8.64836E-03-5.13820E-03
 -1      2549 2.31732E-03 8.64836E-03-5.16225E-03
 -1      2550 2.31732E-03 8.64836E-03-5.18629E-03
 -1      2551 2.31732E-03 8.64836E-03-5.21034E-03
 -1      2552 2.31732E-03 8.64835E-03-5.23439E-03
 -1      2553 1.86152E-03 8.75778E-03-5.01797E-03
 -1      2554 1.86152E-03 8.75778E-03-5.04202E-03
 -1      2555 1.86153E-03 8.75779E-03-5.06606E-03
 -1      2556 1.86153E-03 8.75779E-03-5.09011E-03
 -1      2557 1.86153E-03 8.75779E-03-5.11416E-03
 -1      2558 1.86153E-03 8.75779E-03-5.13820E-03
 -1      2559 1.86153E-03 8.75779E-03-5.16225E-03
 -1      2560 1.86153E-03 8.75779E-03-5.18629E-03
 -1      2561 1.86152E-03 8.75778E-03-5.21034E-03
 -1      2562 1.86152E-03 8.75778E-03-5.23439E-03
 -1      2563 1.40063E-03 8.84320E-03-5.01797E-03
 -1      2564 1.40063E-03 8.84321E-03-5.04202E-03
 -1      2565 1.40063E-03 8.84321E-03-5.06606E-03
 -1      2566 1.40063E-03 8.84321E-03-5.09011E-03
 -1      2567 1.40063E-03 8.84321E-03-5.11416E-03
 -1      2568 1.40063E-03 8.84321E-03-5.13820E-03
 -1      2569 1.40063E-03 8.84321E-03-5.16225E-03
 -1      2570 1.40063E-03 8.84321E-03-5.18629E-03
 -1      2571 1.40063E-03 8.84321E-03-5.21034E-03
 -1      2572 1.40063E-03 8.84320E-03-5.23439E-03
 -1      2573 9.35889E-04 8.90439E-03-5.01797E-03
 -1      2574 9.35889E-04 8.90439E-03-5.04202E-03
 -1      2575 9.35890E-04 8.90439E-03-5.06606E-03
 -1      2576 9.35890E-04 8.90440E-03-5.09011E-03
 -1      2577 9.35890E-04 8.90440E-03-5.11416E-03
 -1      2578 9.35890E-04 8.90440E-03-5.13820E-03
 -1      2579 9.35890E-04 8.90440E-03-5.16225E-03
 -1      2580 9.35890E-04 8.90439E-03-5.18629E-03
 -1      2581 9.35889E-04 8.90439E-03-5.21034E-03
 -1      2582 9.35889E-04 8.90439E-03-5.23439E-03
 -1      2583 4.68587E-04 8.94116E-03-5.01797E-03
 -1      2584 4.68587E-04 8.94117E-03-5.04202E-03
 -1      2585 4.68587E-04 8.94117E-03-5.06606E-03
 -1      2586 4.68587E-04 8.94117E-03-5.09011E-03
 -1      2587 4.68587E-04 8.94118E-03-5.11416E-03
 -1      2588 4.68587E-04 8.94118E-03-5.13820E-03
 -1      2589 4.68587E-04 8.94117E-03-5.16225E-03
 -1      2590 4.68587E-04 8.94117E-03-5.18629E-03
 -1      2591 4.68587E-04 8.94117E-03-5.21034E-03
 -1      2592 4.68587E-04 8.94116E-03-5.23439E-03
 -1      2593 8.93314E-03 4.68166E-04-5.01797E-03
 -1      2594 8.93315E-03 4.68166E-04-5.04202E-03
 -1      2595 8.93315E-03 4.68167E-04-5.06606E-03
 -1      2596 8.93315E-03 4.68167E-04-5.09011E-03
 -1      2597 8.93316E-03 4.68167E-04-5.11416E-03
 -1      2598 8.93316E-03 4.68167E-04-5.13820E-03
 -1      2599 8.93315E-03 4.68167E-04-5.16225E-03
 -1      2600 8.93315E-03 4.68167E-04-5.18629E-03
 -1      2601 8.93315E-03 4.68166E-04-5.21034E-03
 -1      2602 8.93314E-03 4.68166E-04-5.23438E-03
 -1      2603 8.89640E-03 9.35049E-04-5.01797E-03
 -1      2604 8.89640E-03 9.35050E-04-5.04202E-03
 -1      2605 8.89641E-03 9.35050E-04-5.06606E-03
 -1      2606 8.89641E-03 9.35050E-04-5.09011E-03
 -1      2607 8.89641E-03 9.35050E-04-5.11416E-03
 -1      2608 8.89641E-03 9.35050E-04-5.13820E-03
 -1      2609 8.89641E-03 9.35050E-04-5.16225E-03
 -1      2610 8.89641E-03 9.35050E-04-5.18629E-03
 -1      2611 8.89640E-03 9.35050E-04-5.21034E-03
 -1      2612 8.89640E-03 9.35049E-04-5.23438E-03
 -1      2613 8.83527E-03 1.39937E-03-5.01797E-03
 -1      2614 8.83527E-03 1.39937E-03-5.04202E-03
 -1      2615 8.83528E-03 1.39937E-03-5.06606E-03
 -1      2616 8.83528E-03 1.39937E-03-5.09011E-03
 -1      2617 8.83528E-03 1.39937E-03-5.11416E-03
 -1      2618 8.83528E-03 1.39937E-03-5.13820E-03
 -1      2619 8.83528E-03 1.39937E-03-5.16225E-03
 -1      2620 8.83528E-03 1.39937E-03-5.18629E-03
 -1      2621 8.83527E-03 1.39937E-03-5.21034E-03
 -1      2622 8.83527E-03 1.39937E-03-5.23438E-03
 -1      2623 8.74992E-03 1.85985E-03-5.01797E-03
 -1      2624 8.74993E-03 1.85985E-03-5.04202E-03
 -1      2625 8.74993E-03 1.85986E-03-5.06606E-03
 -1      2626 8.74993E-03 1.85986E-03-5.09011E-03
 -1      2627 8.74994E-03 1.85986E-03-5.11416E-03
 -1      2628 8.74994E-03 1.85986E-03-5.13820E-03
 -1      2629 8.74993E-03 1.85986E-03-5.16225E-03
 -1      2630 8.74993E-03 1.85986E-03-5.18629E-03
 -1      2631 8.74993E-03 1.85985E-03-5.21034E-03
 -1      2632 8.74992E-03 1.85985E-03-5.23438E-03
 -1      2633 8.64060E-03 2.31524E-03-5.01797E-03
 -1      2634 8.64060E-03 2.31524E-03-5.04202E-03
 -1      2635 8.64060E-03 2.31524E-03-5.06606E-03
 -1      2636 8.64061E-03 2.31524E-03-5.09011E-03
 -1      2637 8.64061E-03 2.31524E-03-5.11416E-03
 -1      2638 8.64061E-03 2.31524E-03-5.13820E-03
 -1      2639 8.64061E-03 2.31524E-03-5.16225E-03
 -1      2640 8.64060E-03 2.31524E-03-5.18629E-03
 -1      2641 8.64060E-03 2.31524E-03-5.21034E-03
 -1      2642 8.64060E-03 2.31524E-03-5.23438E-03
 -1      2643 8.50758E-03 2.76428E-03-5.01797E-03
 -1      2644 8.50759E-03 2.76428E-03-5.04202E-03
 -1      2645 8.50759E-03 2.76428E-03-5.06606E-03
 -1      2646 8.50759E-03 2.76428E-03-5.09011E-03
 -1      2647 8.50760E-03 2.76429E-03-5.11416E-03
 -1      2648 8.50760E-03 2.76429E-03-5.13820E-03
 -1      2649 8.50759E-03 2.76428E-03-5.16225E-03
 -1      2650 8.50759E-03 2.76428E-03-5.18629E-03
 -1      2651 8.50759E-03 2.76428E-03-5.21034E-03
 -1      2652 8.50758E-03 2.76428E-03-5.23438E-03
 -1      2653 8.35125E-03 3.20575E-03-5.01797E-03
 -1      2654 8.35126E-03 3.20575E-03-5.04202E-03
 -1      2655 8.35126E-03 3.20575E-03-5.06606E-03
 -1      2656 8.35126E-03 3.20575E-03-5.09011E-03
 -1      2657 8.35126E-03 3.20575E-03-5.11416E-03
 -1      2658 8.35126E-03 3.20575E-03-5.13820E-03
 -1      2659 8.35126E-03 3.20575E-03-5.16225E-03
 -1      2660 8.35126E-03 3.20575E-03-5.18629E-03
 -1      2661 8.35126E-03 3.20575E-03-5.21034E-03
 -1      2662 8.35125E-03 3.20575E-03-5.23438E-03
 -1      2663 8.17203E-03 3.63842E-03-5.01797E-03
 -1      2664 8.17204E-03 3.63843E-03-5.04202E-03
 -1      2665 8.17204E-03 3.63843E-03-5.06606E-03
 -1      2666 8.17204E-03 3.63843E-03-5.09011E-03
 -1      2667 8.17204E-03 3.63843E-03-5.11416E-03
 -1      2668 8.17204E-03 3.63843E-03-5.13820E-03
 -1      2669 8.17204E-03 3.63843E-03-5.16225E-03
 -1      2670 8.17204E-03 3.63843E-03-5.18629E-03
 -1      2671 8.17204E-03 3.63843E-03-5.21034E-03
 -1      2672 8.17203E-03 3.63842E-03-5.23438E-03
 -1      2673 7.97041E-03 4.06113E-03-5.01797E-03
 -1      2674 7.97042E-03 4.06113E-03-5.04202E-03
 -1      2675 7.97042E-03 4.06113E-03-5.06606E-03
 -1      2676 7.97042E-03 4.06113E-03-5.09011E-03
 -1      2677 7.97042E-03 4.06113E-03-5.11416E-03
 -1      2678 7.97042E-03 4.06113E-03-5.13820E-03
 -1      2679 7.97042E-03 4.06113E-03-5.16225E-03
 -1      2680 7.97042E-03 4.06113E-03-5.18629E-03
 -1      2681 7.97042E-03 4.06113E-03-5.21034E-03
 -1      2682 7.97041E-03 4.06113E-03-5.23438E-03
 -1      2683 7.74695E-03 4.47270E-03-5.01797E-03
 -1      2684 7.74695E-03 4.47270E-03-5.04202E-03
 -1      2685 7.74695E-03 4.47271E-03-5.06606E-03
 -1      2686 7.74696E-03 4.47271E-03-5.09011E-03
 -1      2687 7.74696E-03 4.47271E-03-5.11416E-03
 -1      2688 7.74696E-03 4.47271E-03-5.13820E-03
 -1      2689 7.74696E-03 4.47271E-03-5.16225E-03
 -1      2690 7.74695E-03 4.47271E-03-5.18629E-03
 -1      2691 7.74695E-03 4.47270E-03-5.21034E-03
 -1      2692 7.74695E-03 4.47270E-03-5.23438E-03
 -1      2693 7.50225E-03 4.87202E-03-5.01797E-03
 -1      2694 7.50225E-03 4.87202E-03-5.04202E-03
 -1      2695 7.50225E-03 4.87202E-03-5.06606E-03
 -1      2696 7.50226E-03 4.87202E-03-5.09011E-03
 -1      2697 7.50226E-03 4.87202E-03-5.11416E-03
 -1      2698 7.50226E-03 4.87202E-03-5.13820E-03
 -1      2699 7.50226E-03 4.87202E-03-5.16225E-03
 -1      2700 7.50225E-03 4.87202E-03-5.18629E-03
 -1      2701 7.50225E-03 4.87202E-03-5.21034E-03
 -1      2702 7.50225E-03 4.87202E-03-5.23438E-03
 -1      2703 7.23698E-03 5.25798E-03-5.01797E-03
 -1      2704 7.23699E-03 5.25798E-03-5.04202E-03
 -1      2705 7.23699E-03 5.25798E-03-5.06606E-03
 -1      2706 7.23699E-03 5.25798E-03-5.09011E-03
 -1      2707 7.23699E-03 5.25798E-03-5.11416E-03
 -1      2708 7.23699E-03 5.25798E-03-5.13820E-03
 -1      2709 7.23699E-03 5.25798E-03-5.16225E-03
 -1      2710 7.23699E-03 5.25798E-03-5.18629E-03
 -1      2711 7.23699E-03 5.25798E-03-5.21034E-03
 -1      2712 7.23698E-03 5.25798E-03-5.23438E-03
 -1      2713 6.95188E-03 5.62952E-03-5.01797E-03
 -1      2714 6.95189E-03 5.62953E-03-5.04202E-03
 -1      2715 6.95189E-03 5.62953E-03-5.06606E-03
 -1      2716 6.95189E-03 5.62953E-03-5.09011E-03
 -1      2717 6.95189E-03 5.62953E-03-5.11416E-03
 -1      2718 6.95189E-03 5.62953E-03-5.13820E-03
 -1      2719 6.95189E-03 5.62953E-03-5.16225E-03
 -1      2720 6.95189E-03 5.62953E-03-5.18629E-03
 -1      2721 6.95189E-03 5.62953E-03-5.21034E-03
 -1      2722 6.95188E-03 5.62952E-03-5.23438E-03
 -1      2723 6.64773E-03 5.98564E-03-5.01797E-03
 -1      2724 6.64773E-03 5.98565E-03-5.04202E-03
 -1      2725 6.64774E-03 5.98565E-03-5.06606E-03
 -1      2726 6.64774E-03 5.98565E-03-5.09011E-03
 -1      2727 6.64774E-03 5.98565E-03-5.11416E-03
 -1      2728 6.64774E-03 5.98565E-03-5.13820E-03
 -1      2729 6.64774E-03 5.98565E-03-5.16225E-03
 -1      2730 6.64774E-03 5.98565E-03-5.18629E-03
 -1      2731 6.64773E-03 5.98565E-03-5.21034E-03
 -1      2732 6.64773E-03 5.98564E-03-5.23438E-03
 -1      2733 6.32535E-03 6.32535E-03-5.01797E-03
 -1      2734 6.32536E-03 6.32536E-03-5.04202E-03
 -1      2735 6.32536E-03 6.32536E-03-5.06606E-03
 -1      2736 6.32536E-03 6.32536E-03-5.09011E-03
 -1      2737 6.32536E-03 6.32536E-03-5.11416E-03
 -1      2738 6.32536E-03 6.32536E-03-5.13820E-03
 -1      2739 6.32536E-03 6.32536E-03-5.16225E-03
 -1      2740 6.32536E-03 6.32536E-03-5.18629E-03
 -1      2741 6.32536E-03 6.32536E-03-5.21034E-03
 -1      2742 6.32535E-03 6.32535E-03-5.23438E-03
 -1      2743 5.98564E-03 6.64773E-03-5.01797E-03
 -1      2744 5.98565E-03 6.64773E-03-5.04202E-03
 -1      2745 5.98565E-03 6.64774E-03-5.06606E-03
 -1      2746 5.98565E-03 6.64774E-03-5.09011E-03
 -1      2747 5.98565E-03 6.64774E-03-5.11416E-03
 -1      2748 5.98565E-03 6.64774E-03-5.13820E-03
 -1      2749 5.98565E-03 6.64774E-03-5.16225E-03
 -1      2750 5.98565E-03 6.64774E-03-5.18629E-03
 -1      2751 5.98565E-03 6.64773E-03-5.21034E-03
 -1      2752 5.98564E-03 6.64773E-03-5.23438E-03
 -1      2753 5.62952E-03 6.95188E-03-5.01797E-03
 -1      2754 5.62953E-03 6.95189E-03-5.04202E-03
 -1      2755 5.62953E-03 6.95189E-03-5.06606E-03
 -1      2756 5.62953E-03 6.95189E-03-5.09011E-03
 -1      2757 5.62953E-03 6.95189E-03-5.11416E-03
 -1      2758 5.62953E-03 6.95189E-03-5.13820E-03
 -1      2759 5.62953E-03 6.95189E-03-5.16225E-03
 -1      2760 5.62953E-03 6.95189E-03-5.18629E-03
 -1      2761 5.62953E-03 6.95189E-03-5.21034E-03
 -1      2762 5.62952E-03 6.95188E-03-5.23438E-03
 -1      2763 5.25798E-03 7.23698E-03-5.01797E-03
 -1      2764 5.25798E-03 7.23699E-03-5.04202E-03
 -1      2765 5.25798E-03 7.23699E-03-5.06606E-03
 -1      2766 5.25798E-03 7.23699E-03-5.09011E-03
 -1      2767 5.25798E-03 7.23699E-03-5.11416E-03
 -1      2768 5.25798E-03 7.23699E-03-5.13820E-03
 -1      2769 5.25798E-03 7.23699E-03-5.16225E-03
 -1      2770 5.25798E-03 7.23699E-03-5.18629E-03
 -1      2771 5.25798E-03 7.23699E-03-5.21034E-03
 -1      2772 5.25798E-03 7.23698E-03-5.23438E-03
 -1      2773 4.87202E-03 7.50225E-03-5.01797E-03
 -1      2774 4.87202E-03 7.50225E-03-5.04202E-03
 -1      2775 4.87202E-03 7.50225E-03-5.06606E-03
 -1      2776 4.87202E-03 7.50226E-03-5.09011E-03
 -1      2777 4.87202E-03 7.50226E-03-5.11416E-03
 -1      2778 4.87202E-03 7.50226E-03-5.13820E-03
 -1      2779 4.87202E-03 7.50226E-03-5.16225E-03
 -1      2780 4.87202E-03 7.50225E-03-5.18629E-03
 -1      2781 4.87202E-03 7.50225E-03-5.21034E-03
 -1      2782 4.87202E-03 7.50225E-03-5.23438E-03
 -1      2783 4.47270E-03 7.74695E-03-5.01797E-03
 -1      2784 4.47270E-03 7.74695E-03-5.04202E-03
 -1      2785 4.47271E-03 7.74695E-03-5.06606E-03
 -1      2786 4.47271E-03 7.74696E-03-5.09011E-03
 -1      2787 4.47271E-03 7.74696E-03-5.11416E-03
 -1      2788 4.47271E-03 7.74696E-03-5.13820E-03
 -1      2789 4.47271E-03 7.74696E-03-5.16225E-03
 -1      2790 4.47271E-03 7.74695E-03-5.18629E-03
 -1      2791 4.47270E-03 7.74695E-03-5.21034E-03
 -1      2792 4.47270E-03 7.74695E-03-5.23438E-03
 -1      2793 4.06113E-03 7.97041E-03-5.01797E-03
 -1      2794 4.06113E-03 7.97042E-03-5.04202E-03
 -1      2795 4.06113E-03 7.97042E-03-5.06606E-03
 -1      2796 4.06113E-03 7.97042E-03-5.09011E-03
 -1      2797 4.06113E-03 7.97042E-03-5.11416E-03
 -1      2798 4.06113E-03 7.97042E-03-5.13820E-03
 -1      2799 4.06113E-03 7.97042E-03-5.16225E-03
 -1      2800 4.06113E-03 7.97042E-03-5.18629E-03
 -1      2801 4.06113E-03 7.97042E-03-5.21034E-03
 -1      2802 4.06113E-03 7.97041E-03-5.23438E-03
 -1      2803 3.63842E-03 8.17203E-03-5.01797E-03
 -1      2804 3.63843E-03 8.17204E-03-5.04202E-03
 -1      2805 3.63843E-03 8.17204E-03-5.06606E-03
 -1      2806 3.63843E-03 8.17204E-03-5.09011E-03
 -1      2807 3.63843E-03 8.17204E-03-5.11416E-03
 -1      2808 3.63843E-03 8.17204E-03-5.13820E-03
 -1      2809 3.63843E-03 8.17204E-03-5.16225E-03
 -1      2810 3.63843E-03 8.17204E-03-5.18629E-03
 -1      2811 3.63843E-03 8.17204E-03-5.21034E-03
 -1      2812 3.63842E-03 8.17203E-03-5.23438E-03
 -1      2813 3.20575E-03 8.35125E-03-5.01797E-03
 -1      2814 3.20575E-03 8.35126E-03-5.04202E-03
 -1      2815 3.20575E-03 8.35126E-03-5.06606E-03
 -1      2816 3.20575E-03 8.35126E-03-5.09011E-03
 -1      2817 3.20575E-03 8.35126E-03-5.11416E-03
 -1      2818 3.20575E-03 8.35126E-03-5.13820E-03
 -1      2819 3.20575E-03 8.35126E-03-5.16225E-03
 -1      2820 3.20575E-03 8.35126E-03-5.18629E-03
 -1      2821 3.20575E-03 8.35126E-03-5.21034E-03
 -1      2822 3.20575E-03 8.35125E-03-5.23438E-03
 -1      2823 2.76428E-03 8.50758E-03-5.01797E-03
 -1      2824 2.76428E-03 8.50759E-03-5.04202E-03
 -1      2825 2.76428E-03 8.50759E-03-5.06606E-03
 -1      2826 2.76428E-03 8.50759E-03-5.09011E-03
 -1      2827 2.76429E-03 8.50760E-03-5.11416E-03
 -1      2828 2.76429E-03 8.50760E-03-5.13820E-03
 -1      2829 2.76428E-03 8.50759E-03-5.16225E-03
 -1      2830 2.76428E-03 8.50759E-03-5.18629E-03
 -1      2831 2.76428E-03 8.50759E-03-5.21034E-03
 -1      2832 2.76428E-03 8.50758E-03-5.23438E-03
 -1      2833 2.31524E-03 8.64060E-03-5.01797E-03
 -1      2834 2.31524E-03 8.64060E-03-5.04202E-03
 -1      2835 2.31524E-03 8.64060E-03-5.06606E-03
 -1      2836 2.31524E-03 8.64061E-03-5.09011E-03
 -1      2837 2.31524E-03 8.64061E-03-5.11416E-03
 -1      2838 2.31524E-03 8.64061E-03-5.13820E-03
 -1      2839 2.31524E-03 8.64061E-03-5.16225E-03
 -1      2840 2.31524E-03 8.64060E-03-5.18629E-03
 -1      2841 2.31524E-03 8.64060E-03-5.21034E-03
 -1      2842 2.31524E-03 8.64060E-03-5.23438E-03
 -1      2843 1.85985E-03 8.74992E-03-5.01797E-03
 -1      2844 1.85985E-03 8.74993E-03-5.04202E-03
 -1      2845 1.85986E-03 8.74993E-03-5.06606E-03
 -1      2846 1.85986E-03 8.74993E-03-5.09011E-03
 -1      2847 1.85986E-03 8.74994E-03-5.11416E-03
 -1      2848 1.85986E-03 8.74994E-03-5.13820E-03
 -1      2849 1.85986E-03 8.74993E-03-5.16225E-03
 -1      2850 1.85986E-03 8.74993E-03-5.18629E-03
 -1      2851 1.85985E-03 8.74993E-03-5.21034E-03
 -1      2852 1.85985E-03 8.74992E-03-5.23438E-03
 -1      2853 1.39937E-03 8.83527E-03-5.01797E-03
 -1      2854 1.39937E-03 8.83527E-03-5.04202E-03
 -1      2855 1.39937E-03 8.83528E-03-5.06606E-03
 -1      2856 1.39937E-03 8.83528E-03-5.09011E-03
 -1      2857 1.39937E-03 8.83528E-03-5.11416E-03
 -1      2858 1.39937E-03 8.83528E-03-5.13820E-03
 -1      2859 1.39937E-03 8.83528E-03-5.16225E-03
 -1      2860 1.39937E-03 8.83528E-03-5.18629E-03
 -1      2861 1.39937E-03 8.83527E-03-5.21034E-03
 -1      2862 1.39937E-03 8.83527E-03-5.23438E-03
 -1      2863 9.35049E-04 8.89640E-03-5.01797E-03
 -1      2864 9.35050E-04 8.89640E-03-5.04202E-03
 -1      2865 9.35050E-04 8.89641E-03-5.06606E-03
 -1      2866 9.35050E-04 8.89641E-03-5.09011E-03
 -1      2867 9.35050E-04 8.89641E-03-5.11416E-03
 -1      2868 9.35050E-04 8.89641E-03-5.13820E-03
 -1      2869 9.35050E-04 8.89641E-03-5.16225E-03
 -1      2870 9.35050E-04 8.89641E-03-5.18629E-03
 -1      2871 9.35050E-04 8.89640E-03-5.21034E-03
 -1      2872 9.35049E-04 8.89640E-03-5.23438E-03
 -1      2873 4.68166E-04 8.93314E-03-5.01797E-03
 -1      2874 4.68166E-04 8.93315E-03-5.04202E-03
 -1      2875 4.68167E-04 8.93315E-03-5.06606E-03
 -1      2876 4.68167E-04 8.93315E-03-5.09011E-03
 -1      2877 4.68167E-04 8.93316E-03-5.11416E-03
 -1      2878 4.68167E-04 8.93316E-03-5.13820E-03
 -1      2879 4.68167E-04 8.93315E-03-5.16225E-03
 -1      2880 4.68167E-04 8.93315E-03-5.18629E-03
 -1      2881 4.68166E-04 8.93315E-03-5.21034E-03
 -1      2882 4.68166E-04 8.93314E-03-5.23438E-03
 -1      2883 8.92521E-03 4.67750E-04-5.01798E-03
 -1      2884 8.92521E-03 4.67750E-04-5.04202E-03
 -1      2885 8.92521E-03 4.67751E-04-5.06607E-03
 -1      2886 8.92522E-03 4.67751E-04-5.09011E-03
 -1      2887 8.92522E-03 4.67751E-04-5.11416E-03
 -1      2888 8.92522E-03 4.67751E-04-5.13820E-03
 -1      2889 8.92522E-03 4.67751E-04-5.16225E-03
 -1      2890 8.92521E-03 4.67751E-04-5.18629E-03
 -1      2891 8.92521E-03 4.67750E-04-5.21034E-03
 -1      2892 8.92521E-03 4.67750E-04-5.23438E-03
 -1      2893 8.88849E-03 9.34218E-04-5.01798E-03
 -1      2894 8.88850E-03 9.34219E-04-5.04202E-03
 -1      2895 8.88850E-03 9.34219E-04-5.06607E-03
 -1      2896 8.88850E-03 9.34220E-04-5.09011E-03
 -1      2897 8.88851E-03 9.34220E-04-5.11416E-03
 -1      2898 8.88851E-03 9.34220E-04-5.13820E-03
 -1      2899 8.88850E-03 9.34220E-04-5.16225E-03
 -1      2900 8.88850E-03 9.34219E-04-5.18629E-03
 -1      2901 8.88850E-03 9.34219E-04-5.21034E-03
 -1      2902 8.88849E-03 9.34218E-04-5.23438E-03
 -1      2903 8.82742E-03 1.39813E-03-5.01798E-03
 -1      2904 8.82742E-03 1.39813E-03-5.04202E-03
 -1      2905 8.82743E-03 1.39813E-03-5.06607E-03
 -1      2906 8.82743E-03 1.39813E-03-5.09011E-03
 -1      2907 8.82743E-03 1.39813E-03-5.11416E-03
 -1      2908 8.82743E-03 1.39813E-03-5.13820E-03
 -1      2909 8.82743E-03 1.39813E-03-5.16225E-03
 -1      2910 8.82743E-03 1.39813E-03-5.18629E-03
 -1      2911 8.82742E-03 1.39813E-03-5.21034E-03
 -1      2912 8.82742E-03 1.39813E-03-5.23438E-03
 -1      2913 8.74215E-03 1.85820E-03-5.01798E-03
 -1      2914 8.74215E-03 1.85820E-03-5.04202E-03
 -1      2915 8.74216E-03 1.85820E-03-5.06607E-03
 -1      2916 8.74216E-03 1.85820E-03-5.09011E-03
 -1      2917 8.74216E-03 1.85820E-03-5.11416E-03
 -1      2918 8.74216E-03 1.85820E-03-5.13820E-03
 -1      2919 8.74216E-03 1.85820E-03-5.16225E-03
 -1      2920 8.74216E-03 1.85820E-03-5.18629E-03
 -1      2921 8.74215E-03 1.85820E-03-5.21034E-03
 -1      2922 8.74215E-03 1.85820E-03-5.23438E-03
 -1      2923 8.63292E-03 2.31318E-03-5.01798E-03
 -1      2924 8.63292E-03 2.31318E-03-5.04202E-03
 -1      2925 8.63293E-03 2.31319E-03-5.06607E-03
 -1      2926 8.63293E-03 2.31319E-03-5.09011E-03
 -1      2927 8.63293E-03 2.31319E-03-5.11416E-03
 -1      2928 8.63293E-03 2.31319E-03-5.13820E-03
 -1      2929 8.63293E-03 2.31319E-03-5.16225E-03
 -1      2930 8.63293E-03 2.31319E-03-5.18629E-03
 -1      2931 8.63292E-03 2.31318E-03-5.21034E-03
 -1      2932 8.63292E-03 2.31318E-03-5.23438E-03
 -1      2933 8.50002E-03 2.76182E-03-5.01798E-03
 -1      2934 8.50003E-03 2.76183E-03-5.04202E-03
 -1      2935 8.50003E-03 2.76183E-03-5.06607E-03
 -1      2936 8.50003E-03 2.76183E-03-5.09011E-03
 -1      2937 8.50004E-03 2.76183E-03-5.11416E-03
 -1      2938 8.50004E-03 2.76183E-03-5.13820E-03
 -1      2939 8.50003E-03 2.76183E-03-5.16225E-03
 -1      2940 8.50003E-03 2.76183E-03-5.18629E-03
 -1      2941 8.50003E-03 2.76183E-03-5.21034E-03
 -1      2942 8.50002E-03 2.76182E-03-5.23438E-03
 -1      2943 8.34383E-03 3.20290E-03-5.01798E-03
 -1      2944 8.34384E-03 3.20290E-03-5.04202E-03
 -1      2945 8.34384E-03 3.20290E-03-5.06607E-03
 -1      2946 8.34384E-03 3.20290E-03-5.09011E-03
 -1      2947 8.34384E-03 3.20290E-03-5.11416E-03
 -1      2948 8.34384E-03 3.20290E-03-5.13820E-03
 -1      2949 8.34384E-03 3.20290E-03-5.16225E-03
 -1      2950 8.34384E-03 3.20290E-03-5.18629E-03
 -1      2951 8.34384E-03 3.20290E-03-5.21034E-03
 -1      2952 8.34383E-03 3.20290E-03-5.23438E-03
 -1      2953 8.16477E-03 3.63519E-03-5.01798E-03
 -1      2954 8.16478E-03 3.63519E-03-5.04202E-03
 -1      2955 8.16478E-03 3.63519E-03-5.06607E-03
 -1      2956 8.16478E-03 3.63519E-03-5.09011E-03
 -1      2957 8.16478E-03 3.63520E-03-5.11416E-03
 -1      2958 8.16478E-03 3.63520E-03-5.13820E-03
 -1      2959 8.16478E-03 3.63519E-03-5.16225E-03
 -1      2960 8.16478E-03 3.63519E-03-5.18629E-03
 -1      2961 8.16478E-03 3.63519E-03-5.21034E-03
 -1      2962 8.16477E-03 3.63519E-03-5.23438E-03
 -1      2963 7.96333E-03 4.05752E-03-5.01798E-03
 -1      2964 7.96333E-03 4.05752E-03-5.04202E-03
 -1      2965 7.96334E-03 4.05752E-03-5.06607E-03
 -1      2966 7.96334E-03 4.05752E-03-5.09011E-03
 -1      2967 7.96334E-03 4.05752E-03-5.11416E-03
 -1      2968 7.96334E-03 4.05752E-03-5.13820E-03
 -1      2969 7.96334E-03 4.05752E-03-5.16225E-03
 -1      2970 7.96334E-03 4.05752E-03-5.18629E-03
 -1      2971 7.96333E-03 4.05752E-03-5.21034E-03
 -1      2972 7.96333E-03 4.05752E-03-5.23438E-03
 -1      2973 7.74006E-03 4.46873E-03-5.01798E-03
 -1      2974 7.74007E-03 4.46873E-03-5.04202E-03
 -1      2975 7.74007E-03 4.46873E-03-5.06607E-03
 -1      2976 7.74007E-03 4.46873E-03-5.09011E-03
 -1      2977 7.74007E-03 4.46873E-03-5.11416E-03
 -1      2978 7.74007E-03 4.46873E-03-5.13820E-03
 -1      2979 7.74007E-03 4.46873E-03-5.16225E-03
 -1      2980 7.74007E-03 4.46873E-03-5.18629E-03
 -1      2981 7.74007E-03 4.46873E-03-5.21034E-03
 -1      2982 7.74006E-03 4.46873E-03-5.23438E-03
 -1      2983 7.49558E-03 4.86769E-03-5.01798E-03
 -1      2984 7.49558E-03 4.86769E-03-5.04202E-03
 -1      2985 7.49559E-03 4.86769E-03-5.06607E-03
 -1      2986 7.49559E-03 4.86769E-03-5.09011E-03
 -1      2987 7.49559E-03 4.86769E-03-5.11416E-03
 -1      2988 7.49559E-03 4.86769E-03-5.13820E-03
 -1      2989 7.49559E-03 4.86769E-03-5.16225E-03
 -1      2990 7.49559E-03 4.86769E-03-5.18629E-03
 -1      2991 7.49558E-03 4.86769E-03-5.21034E-03
 -1      2992 7.49558E-03 4.86769E-03-5.23438E-03
 -1      2993 7.23055E-03 5.25330E-03-5.01798E-03
 -1      2994 7.23056E-03 5.25331E-03-5.04202E-03
 -1      2995 7.23056E-03 5.25331E-03-5.06607E-03
 -1      2996 7.23056E-03 5.25331E-03-5.09011E-03
 -1      2997 7.23056E-03 5.25331E-03-5.11416E-03
 -1      2998 7.23056E-03 5.25331E-03-5.13820E-03
 -1      2999 7.23056E-03 5.25331E-03-5.16225E-03
 -1      3000 7.23056E-03 5.25331E-03-5.18629E-03
 -1      3001 7.23056E-03 5.25331E-03-5.21034E-03
 -1      3002 7.23055E-03 5.25330E-03-5.23438E-03
 -1      3003 6.94571E-03 5.62452E-03-5.01798E-03
 -1      3004 6.94571E-03 5.62453E-03-5.04202E-03
 -1      3005 6.94571E-03 5.62453E-03-5.06607E-03
 -1      3006 6.94572E-03 5.62453E-03-5.09011E-03
 -1      3007 6.94572E-03 5.62453E-03-5.11416E-03
 -1      3008 6.94572E-03 5.62453E-03-5.13820E-03
 -1      3009 6.94572E-03 5.62453E-03-5.16225E-03
 -1      3010 6.94571E-03 5.62453E-03-5.18629E-03
 -1      3011 6.94571E-03 5.62453E-03-5.21034E-03
 -1      3012 6.94571E-03 5.62452E-03-5.23438E-03
 -1      3013 6.64182E-03 5.98032E-03-5.01798E-03
 -1      3014 6.64183E-03 5.98033E-03-5.04202E-03
 -1      3015 6.64183E-03 5.98033E-03-5.06607E-03
 -1      3016 6.64183E-03 5.98033E-03-5.09011E-03
 -1      3017 6.64183E-03 5.98033E-03-5.11416E-03
 -1      3018 6.64183E-03 5.98033E-03-5.13820E-03
 -1      3019 6.64183E-03 5.98033E-03-5.16225E-03
 -1      3020 6.64183E-03 5.98033E-03-5.18629E-03
 -1      3021 6.64183E-03 5.98033E-03-5.21034E-03
 -1      3022 6.64182E-03 5.98032E-03-5.23438E-03
 -1      3023 6.31973E-03 6.31973E-03-5.01798E-03
 -1      3024 6.31974E-03 6.31974E-03-5.04202E-03
 -1      3025 6.31974E-03 6.31974E-03-5.06607E-03
 -1      3026 6.31974E-03 6.31974E-03-5.09011E-03
 -1      3027 6.31974E-03 6.31974E-03-5.11416E-03
 -1      3028 6.31974E-03 6.31974E-03-5.13820E-03
 -1      3029 6.31974E-03 6.31974E-03-5.16225E-03
 -1      3030 6.31974E-03 6.31974E-03-5.18629E-03
 -1      3031 6.31974E-03 6.31974E-03-5.21034E-03
 -1      3032 6.31973E-03 6.31973E-03-5.23438E-03
 -1      3033 5.98032E-03 6.64182E-03-5.01798E-03
 -1      3034 5.98033E-03 6.64183E-03-5.04202E-03
 -1      3035 5.98033E-03 6.64183E-03-5.06607E-03
 -1      3036 5.98033E-03 6.64183E-03-5.09011E-03
 -1      3037 5.98033E-03 6.64183E-03-5.11416E-03
 -1      3038 5.98033E-03 6.64183E-03-5.13820E-03
 -1      3039 5.98033E-03 6.64183E-03-5.16225E-03
 -1      3040 5.98033E-03 6.64183E-03-5.18629E-03
 -1      3041 5.98033E-03 6.64183E-03-5.21034E-03
 -1      3042 5.98032E-03 6.64182E-03-5.23438E-03
 -1      3043 5.62452E-03 6.94571E-03-5.01798E-03
 -1      3044 5.62453E-03 6.94571E-03-5.04202E-03
 -1      3045 5.62453E-03 6.94571E-03-5.06607E-03
 -1      3046 5.62453E-03 6.94571E-03-5.09011E-03
 -1      3047 5.62453E-03 6.94572E-03-5.11416E-03
 -1      3048 5.62453E-03 6.94572E-03-5.13820E-03
 -1      3049 5.62453E-03 6.94571E-03-5.16225E-03
 -1      3050 5.62453E-03 6.94571E-03-5.18629E-03
 -1      3051 5.62453E-03 6.94571E-03-5.21034E-03
 -1      3052 5.62452E-03 6.94571E-03-5.23438E-03
 -1      3053 5.25330E-03 7.23055E-03-5.01798E-03
 -1      3054 5.25331E-03 7.23056E-03-5.04202E-03
 -1      3055 5.25331E-03 7.23056E-03-5.06607E-03
 -1      3056 5.25331E-03 7.23056E-03-5.09011E-03
 -1      3057 5.25331E-03 7.23056E-03-5.11416E-03
 -1      3058 5.25331E-03 7.23056E-03-5.13820E-03
 -1      3059 5.25331E-03 7.23056E-03-5.16225E-03
 -1      3060 5.25331E-03 7.23056E-03-5.18629E-03
 -1      3061 5.25331E-03 7.23056E-03-5.21034E-03
 -1      3062 5.25330E-03 7.23055E-03-5.23438E-03
 -1      3063 4.86769E-03 7.49558E-03-5.01798E-03
 -1      3064 4.86769E-03 7.49558E-03-5.04202E-03
 -1      3065 4.86769E-03 7.49559E-03-5.06607E-03
 -1      3066 4.86769E-03 7.49559E-03-5.09011E-03
 -1      3067 4.86769E-03 7.49559E-03-5.11416E-03
 -1      3068 4.86769E-03 7.49559E-03-5.13820E-03
 -1      3069 4.86769E-03 7.49559E-03-5.16225E-03
 -1      3070 4.86769E-03 7.49559E-03-5.18629E-03
 -1      3071 4.86769E-03 7.49558E-03-5.21034E-03
 -1      3072 4.86769E-03 7.49558E-03-5.23438E-03
 -1      3073 4.46873E-03 7.74006E-03-5.01798E-03
 -1      3074 4.46873E-03 7.74007E-03-5.04202E-03
 -1      3075 4.46873E-03 7.74007E-03-5.06607E-03
 -1      3076 4.46873E-03 7.74007E-03-5.09011E-03
 -1      3077 4.46873E-03 7.74007E-03-5.11416E-03
 -1      3078 4.46873E-03 7.74007E-03-5.13820E-03
 -1      3079 4.46873E-03 7.74007E-03-5.16225E-03
 -1      3080 4.46873E-03 7.74007E-03-5.18629E-03
 -1      3081 4.46873E-03 7.74007E-03-5.21034E-03
 -1      3082 4.46873E-03 7.74006E-03-5.23438E-03
 -1      3083 4.05752E-03 7.96333E-03-5.01798E-03
 -1      3084 4.05752E-03 7.96333E-03-5.04202E-03
 -1      3085 4.05752E-03 7.96334E-03-5.06607E-03
 -1      3086 4.05752E-03 7.96334E-03-5.09011E-03
 -1      3087 4.05752E-03 7.96334E-03-5.11416E-03
 -1      3088 4.05752E-03 7.96334E-03-5.13820E-03
 -1      3089 4.05752E-03 7.96334E-03-5.16225E-03
 -1      3090 4.05752E-03 7.96334E-03-5.18629E-03
 -1      3091 4.05752E-03 7.96333E-03-5.21034E-03
 -1      3092 4.05752E-03 7.96333E-03-5.23438E-03
 -1      3093 3.63519E-03 8.16477E-03-5.01798E-03
 -1      3094 3.63519E-03 8.16478E-03-5.04202E-03
 -1      3095 3.63519E-03 8.16478E-03-5.06607E-03
 -1      3096 3.63519E-03 8.16478E-03-5.09011E-03
 -1      3097 3.63520E-03 8.16478E-03-5.11416E-03
 -1      3098 3.63520E-03 8.16478E-03-5.13820E-03
 -1      3099 3.63519E-03 8.16478E-03-5.16225E-03
 -1      3100 3.63519E-03 8.16478E-03-5.18629E-03
 -1      3101 3.63519E-03 8.16478E-03-5.21034E-03
 -1      3102 3.63519E-03 8.16477E-03-5.23438E-03
 -1      3103 3.20290E-03 8.34383E-03-5.01798E-03
 -1      3104 3.20290E-03 8.34384E-03-5.04202E-03
 -1      3105 3.20290E-03 8.34384E-03-5.06607E-03
 -1      3106 3.20290E-03 8.34384E-03-5.09011E-03
 -1      3107 3.20290E-03 8.34384E-03-5.11416E-03
 -1      3108 3.20290E-03 8.34384E-03-5.13820E-03
 -1      3109 3.20290E-03 8.34384E-03-5.16225E-03
 -1      3110 3.20290E-03 8.34384E-03-5.18629E-03
 -1      3111 3.20290E-03 8.34384E-03-5.21034E-03
 -1      3112 3.20290E-03 8.34383E-03-5.23438E-03
 -1      3113 2.76182E-03 8.50002E-03-5.01798E-03
 -1      3114 2.76183E-03 8.50003E-03-5.04202E-03
 -1      3115 2.76183E-03 8.50003E-03-5.06607E-03
 -1      3116 2.76183E-03 8.50003E-03-5.09011E-03
 -1      3117 2.76183E-03 8.50004E-03-5.11416E-03
 -1      3118 2.76183E-03 8.50004E-03-5.13820E-03
 -1      3119 2.76183E-03 8.50003E-03-5.16225E-03
 -1      3120 2.76183E-03 8.50003E-03-5.18629E-03
 -1      3121 2.76183E-03 8.50003E-03-5.21034E-03
 -1      3122 2.76182E-03 8.50002E-03-5.23438E-03
 -1      3123 2.31318E-03 8.63292E-03-5.01798E-03
 -1      3124 2.31318E-03 8.63292E-03-5.04202E-03
 -1      3125 2.31319E-03 8.63293E-03-5.06607E-03
 -1      3126 2.31319E-03 8.63293E-03-5.09011E-03
 -1      3127 2.31319E-03 8.63293E-03-5.11416E-03
 -1      3128 2.31319E-03 8.63293E-03-5.13820E-03
 -1      3129 2.31319E-03 8.63293E-03-5.16225E-03
 -1      3130 2.31319E-03 8.63293E-03-5.18629E-03
 -1      3131 2.31318E-03 8.63292E-03-5.21034E-03
 -1      3132 2.31318E-03 8.63292E-03-5.23438E-03
 -1      3133 1.85820E-03 8.74215E-03-5.01798E-03
 -1      3134 1.85820E-03 8.74215E-03-5.04202E-03
 -1      3135 1.85820E-03 8.74216E-03-5.06607E-03
 -1      3136 1.85820E-03 8.74216E-03-5.09011E-03
 -1      3137 1.85820E-03 8.74216E-03-5.11416E-03
 -1      3138 1.85820E-03 8.74216E-03-5.13820E-03
 -1      3139 1.85820E-03 8.74216E-03-5.16225E-03
 -1      3140 1.85820E-03 8.74216E-03-5.18629E-03
 -1      3141 1.85820E-03 8.74215E-03-5.21034E-03
 -1      3142 1.85820E-03 8.74215E-03-5.23438E-03
 -1      3143 1.39813E-03 8.82742E-03-5.01798E-03
 -1      3144 1.39813E-03 8.82742E-03-5.04202E-03
 -1      3145 1.39813E-03 8.82743E-03-5.06607E-03
 -1      3146 1.39813E-03 8.82743E-03-5.09011E-03
 -1      3147 1.39813E-03 8.82743E-03-5.11416E-03
 -1      3148 1.39813E-03 8.82743E-03-5.13820E-03
 -1      3149 1.39813E-03 8.82743E-03-5.16225E-03
 -1      3150 1.39813E-03 8.82743E-03-5.18629E-03
 -1      3151 1.39813E-03 8.82742E-03-5.21034E-03
 -1      3152 1.39813E-03 8.82742E-03-5.23438E-03
 -1      3153 9.34218E-04 8.88849E-03-5.01798E-03
 -1      3154 9.34219E-04 8.88850E-03-5.04202E-03
 -1      3155 9.34219E-04 8.88850E-03-5.06607E-03
 -1      3156 9.34220E-04 8.88850E-03-5.09011E-03
 -1      3157 9.34220E-04 8.88851E-03-5.11416E-03
 -1      3158 9.34220E-04 8.88851E-03-5.13820E-03
 -1      3159 9.34220E-04 8.88850E-03-5.16225E-03
 -1      3160 9.34219E-04 8.88850E-03-5.18629E-03
 -1      3161 9.34219E-04 8.88850E-03-5.21034E-03
 -1      3162 9.34218E-04 8.88849E-03-5.23438E-03
 -1      3163 4.67750E-04 8.92521E-03-5.01798E-03
 -1      3164 4.67750E-04 8.92521E-03-5.04202E-03
 -1      3165 4.67751E-04 8.92521E-03-5.06607E-03
 -1      3166 4.67751E-04 8.92522E-03-5.09011E-03
 -1      3167 4.67751E-04 8.92522E-03-5.11416E-03
 -1      3168 4.67751E-04 8.92522E-03-5.13820E-03
 -1      3169 4.67751E-04 8.92522E-03-5.16225E-03
 -1      3170 4.67751E-04 8.92521E-03-5.18629E-03
 -1      3171 4.67750E-04 8.92521E-03-5.21034E-03
 -1      3172 4.67750E-04 8.92521E-03-5.23438E-03
 -1      3173 8.91735E-03 4.67338E-04-5.01798E-03
 -1      3174 8.91735E-03 4.67339E-04-5.04202E-03
 -1      3175 8.91736E-03 4.67339E-04-5.06607E-03
 -1      3176 8.91736E-03 4.67339E-04-5.09011E-03
 -1      3177 8.91736E-03 4.67339E-04-5.11416E-03
 -1      3178 8.91736E-03 4.67339E-04-5.13820E-03
 -1      3179 8.91736E-03 4.67339E-04-5.16225E-03
 -1      3180 8.91736E-03 4.67339E-04-5.18629E-03
 -1      3181 8.91735E-03 4.67339E-04-5.21034E-03
 -1      3182 8.91735E-03 4.67338E-04-5.23438E-03
 -1      3183 8.88067E-03 9.33396E-04-5.01798E-03
 -1      3184 8.88067E-03 9.33397E-04-5.04202E-03
 -1      3185 8.88068E-03 9.33397E-04-5.06607E-03
 -1      3186 8.88068E-03 9.33397E-04-5.09011E-03
 -1      3187 8.88068E-03 9.33397E-04-5.11416E-03
 -1      3188 8.88068E-03 9.33397E-04-5.13820E-03
 -1      3189 8.88068E-03 9.33397E-04-5.16225E-03
 -1      3190 8.88068E-03 9.33397E-04-5.18629E-03
 -1      3191 8.88067E-03 9.33397E-04-5.21034E-03
 -1      3192 8.88067E-03 9.33396E-04-5.23438E-03
 -1      3193 8.81965E-03 1.39690E-03-5.01798E-03
 -1      3194 8.81965E-03 1.39690E-03-5.04202E-03
 -1      3195 8.81966E-03 1.39690E-03-5.06607E-03
 -1      3196 8.81966E-03 1.39690E-03-5.09011E-03
 -1      3197 8.81966E-03 1.39690E-03-5.11416E-03
 -1      3198 8.81966E-03 1.39690E-03-5.13820E-03
 -1      3199 8.81966E-03 1.39690E-03-5.16225E-03
 -1      3200 8.81966E-03 1.39690E-03-5.18629E-03
 -1      3201 8.81965E-03 1.39690E-03-5.21034E-03
 -1      3202 8.81965E-03 1.39690E-03-5.23438E-03
 -1      3203 8.73445E-03 1.85657E-03-5.01798E-03
 -1      3204 8.73446E-03 1.85657E-03-5.04202E-03
 -1      3205 8.73446E-03 1.85657E-03-5.06607E-03
 -1      3206 8.73446E-03 1.85657E-03-5.09011E-03
 -1      3207 8.73447E-03 1.85657E-03-5.11416E-03
 -1      3208 8.73447E-03 1.85657E-03-5.13820E-03
 -1      3209 8.73446E-03 1.85657E-03-5.16225E-03
 -1      3210 8.73446E-03 1.85657E-03-5.18629E-03
 -1      3211 8.73446E-03 1.85657E-03-5.21034E-03
 -1      3212 8.73445E-03 1.85657E-03-5.23438E-03
 -1      3213 8.62532E-03 2.31115E-03-5.01798E-03
 -1      3214 8.62532E-03 2.31115E-03-5.04202E-03
 -1      3215 8.62533E-03 2.31115E-03-5.06607E-03
 -1      3216 8.62533E-03 2.31115E-03-5.09011E-03
 -1      3217 8.62533E-03 2.31115E-03-5.11416E-03
 -1      3218 8.62533E-03 2.31115E-03-5.13820E-03
 -1      3219 8.62533E-03 2.31115E-03-5.16225E-03
 -1      3220 8.62533E-03 2.31115E-03-5.18629E-03
 -1      3221 8.62532E-03 2.31115E-03-5.21034E-03
 -1      3222 8.62532E-03 2.31115E-03-5.23438E-03
 -1      3223 8.49254E-03 2.75939E-03-5.01798E-03
 -1      3224 8.49255E-03 2.75940E-03-5.04202E-03
 -1      3225 8.49255E-03 2.75940E-03-5.06607E-03
 -1      3226 8.49255E-03 2.75940E-03-5.09011E-03
 -1      3227 8.49255E-03 2.75940E-03-5.11416E-03
 -1      3228 8.49255E-03 2.75940E-03-5.13820E-03
 -1      3229 8.49255E-03 2.75940E-03-5.16225E-03
 -1      3230 8.49255E-03 2.75940E-03-5.18629E-03
 -1      3231 8.49255E-03 2.75940E-03-5.21034E-03
 -1      3232 8.49254E-03 2.75939E-03-5.23438E-03
 -1      3233 8.33649E-03 3.20008E-03-5.01798E-03
 -1      3234 8.33649E-03 3.20008E-03-5.04202E-03
 -1      3235 8.33650E-03 3.20008E-03-5.06607E-03
 -1      3236 8.33650E-03 3.20008E-03-5.09011E-03
 -1      3237 8.33650E-03 3.20008E-03-5.11416E-03
 -1      3238 8.33650E-03 3.20008E-03-5.13820E-03
 -1      3239 8.33650E-03 3.20008E-03-5.16225E-03
 -1      3240 8.33650E-03 3.20008E-03-5.18629E-03
 -1      3241 8.33649E-03 3.20008E-03-5.21034E-03
 -1      3242 8.33649E-03 3.20008E-03-5.23438E-03
 -1      3243 8.15758E-03 3.63199E-03-5.01798E-03
 -1      3244 8.15759E-03 3.63199E-03-5.04202E-03
 -1      3245 8.15759E-03 3.63199E-03-5.06607E-03
 -1      3246 8.15759E-03 3.63199E-03-5.09011E-03
 -1      3247 8.15760E-03 3.63200E-03-5.11416E-03
 -1      3248 8.15760E-03 3.63200E-03-5.13820E-03
 -1      3249 8.15759E-03 3.63199E-03-5.16225E-03
 -1      3250 8.15759E-03 3.63199E-03-5.18629E-03
 -1      3251 8.15759E-03 3.63199E-03-5.21034E-03
 -1      3252 8.15758E-03 3.63199E-03-5.23438E-03
 -1      3253 7.95632E-03 4.05395E-03-5.01798E-03
 -1      3254 7.95632E-03 4.05395E-03-5.04202E-03
 -1      3255 7.95633E-03 4.05395E-03-5.06607E-03
 -1      3256 7.95633E-03 4.05395E-03-5.09011E-03
 -1      3257 7.95633E-03 4.05395E-03-5.11416E-03
 -1      3258 7.95633E-03 4.05395E-03-5.13820E-03
 -1      3259 7.95633E-03 4.05395E-03-5.16225E-03
 -1      3260 7.95633E-03 4.05395E-03-5.18629E-03
 -1      3261 7.95632E-03 4.05395E-03-5.21034E-03
 -1      3262 7.95632E-03 4.05395E-03-5.23438E-03
 -1      3263 7.73325E-03 4.46479E-03-5.01798E-03
 -1      3264 7.73325E-03 4.46480E-03-5.04202E-03
 -1      3265 7.73326E-03 4.46480E-03-5.06607E-03
 -1      3266 7.73326E-03 4.46480E-03-5.09011E-03
 -1      3267 7.73326E-03 4.46480E-03-5.11416E-03
 -1      3268 7.73326E-03 4.46480E-03-5.13820E-03
 -1      3269 7.73326E-03 4.46480E-03-5.16225E-03
 -1      3270 7.73326E-03 4.46480E-03-5.18629E-03
 -1      3271 7.73325E-03 4.46480E-03-5.21034E-03
 -1      3272 7.73325E-03 4.46479E-03-5.23438E-03
 -1      3273 7.48898E-03 4.86340E-03-5.01798E-03
 -1      3274 7.48899E-03 4.86340E-03-5.04202E-03
 -1      3275 7.48899E-03 4.86341E-03-5.06607E-03
 -1      3276 7.48899E-03 4.86341E-03-5.09011E-03
 -1      3277 7.48899E-03 4.86341E-03-5.11416E-03
 -1      3278 7.48899E-03 4.86341E-03-5.13820E-03
 -1      3279 7.48899E-03 4.86341E-03-5.16225E-03
 -1      3280 7.48899E-03 4.86341E-03-5.18629E-03
 -1      3281 7.48899E-03 4.86340E-03-5.21034E-03
 -1      3282 7.48898E-03 4.86340E-03-5.23438E-03
 -1      3283 7.22419E-03 5.24868E-03-5.01798E-03
 -1      3284 7.22419E-03 5.24868E-03-5.04202E-03
 -1      3285 7.22419E-03 5.24868E-03-5.06607E-03
 -1      3286 7.22420E-03 5.24869E-03-5.09011E-03
 -1      3287 7.22420E-03 5.24869E-03-5.11416E-03
 -1      3288 7.22420E-03 5.24869E-03-5.13820E-03
 -1      3289 7.22420E-03 5.24869E-03-5.16225E-03
 -1      3290 7.22419E-03 5.24868E-03-5.18629E-03
 -1      3291 7.22419E-03 5.24868E-03-5.21034E-03
 -1      3292 7.22419E-03 5.24868E-03-5.23438E-03
 -1      3293 6.93959E-03 5.61957E-03-5.01798E-03
 -1      3294 6.93960E-03 5.61957E-03-5.04202E-03
 -1      3295 6.93960E-03 5.61958E-03-5.06607E-03
 -1      3296 6.93960E-03 5.61958E-03-5.09011E-03
 -1      3297 6.93960E-03 5.61958E-03-5.11416E-03
 -1      3298 6.93960E-03 5.61958E-03-5.13820E-03
 -1      3299 6.93960E-03 5.61958E-03-5.16225E-03
 -1      3300 6.93960E-03 5.61958E-03-5.18629E-03
 -1      3301 6.93960E-03 5.61957E-03-5.21034E-03
 -1      3302 6.93959E-03 5.61957E-03-5.23438E-03
 -1      3303 6.63598E-03 5.97506E-03-5.01798E-03
 -1      3304 6.63598E-03 5.97506E-03-5.04202E-03
 -1      3305 6.63598E-03 5.97507E-03-5.06607E-03
 -1      3306 6.63598E-03 5.97507E-03-5.09011E-03
 -1      3307 6.63599E-03 5.97507E-03-5.11416E-03
 -1      3308 6.63599E-03 5.97507E-03-5.13820E-03
 -1      3309 6.63598E-03 5.97507E-03-5.16225E-03
 -1      3310 6.63598E-03 5.97507E-03-5.18629E-03
 -1      3311 6.63598E-03 5.97506E-03-5.21034E-03
 -1      3312 6.63598E-03 5.97506E-03-5.23438E-03
 -1      3313 6.31417E-03 6.31417E-03-5.01798E-03
 -1      3314 6.31417E-03 6.31417E-03-5.04202E-03
 -1      3315 6.31418E-03 6.31418E-03-5.06607E-03
 -1      3316 6.31418E-03 6.31418E-03-5.09011E-03
 -1      3317 6.31418E-03 6.31418E-03-5.11416E-03
 -1      3318 6.31418E-03 6.31418E-03-5.13820E-03
 -1      3319 6.31418E-03 6.31418E-03-5.16225E-03
 -1      3320 6.31418E-03 6.31418E-03-5.18629E-03
 -1      3321 6.31417E-03 6.31417E-03-5.21034E-03
 -1      3322 6.31417E-03 6.31417E-03-5.23438E-03
 -1      3323 5.97506E-03 6.63598E-03-5.01798E-03
 -1      3324 5.97506E-03 6.63598E-03-5.04202E-03
 -1      3325 5.97507E-03 6.63598E-03-5.06607E-03
 -1      3326 5.97507E-03 6.63598E-03-5.09011E-03
 -1      3327 5.97507E-03 6.63599E-03-5.11416E-03
 -1      3328 5.97507E-03 6.63599E-03-5.13820E-03
 -1      3329 5.97507E-03 6.63598E-03-5.16225E-03
 -1      3330 5.97507E-03 6.63598E-03-5.18629E-03
 -1      3331 5.97506E-03 6.63598E-03-5.21034E-03
 -1      3332 5.97506E-03 6.63598E-03-5.23438E-03
 -1      3333 5.61957E-03 6.93959E-03-5.01798E-03
 -1      3334 5.61957E-03 6.93960E-03-5.04202E-03
 -1      3335 5.61958E-03 6.93960E-03-5.06607E-03
 -1      3336 5.61958E-03 6.93960E-03-5.09011E-03
 -1      3337 5.61958E-03 6.93960E-03-5.11416E-03
 -1      3338 5.61958E-03 6.93960E-03-5.13820E-03
 -1      3339 5.61958E-03 6.93960E-03-5.16225E-03
 -1      3340 5.61958E-03 6.93960E-03-5.18629E-03
 -1      3341 5.61957E-03 6.93960E-03-5.21034E-03
 -1      3342 5.61957E-03 6.93959E-03-5.23438E-03
 -1      3343 5.24868E-03 7.22419E-03-5.01798E-03
 -1      3344 5.24868E-03 7.22419E-03-5.04202E-03
 -1      3345 5.24868E-03 7.22419E-03-5.06607E-03
 -1      3346 5.24869E-03 7.22420E-03-5.09011E-03
 -1      3347 5.24869E-03 7.22420E-03-5.11416E-03
 -1      3348 5.24869E-03 7.22420E-03-5.13820E-03
 -1      3349 5.24869E-03 7.22420E-03-5.16225E-03
 -1      3350 5.24868E-03 7.22419E-03-5.18629E-03
 -1      3351 5.24868E-03 7.22419E-03-5.21034E-03
 -1      3352 5.24868E-03 7.22419E-03-5.23438E-03
 -1      3353 4.86340E-03 7.48898E-03-5.01798E-03
 -1      3354 4.86340E-03 7.48899E-03-5.04202E-03
 -1      3355 4.86341E-03 7.48899E-03-5.06607E-03
 -1      3356 4.86341E-03 7.48899E-03-5.09011E-03
 -1      3357 4.86341E-03 7.48899E-03-5.11416E-03
 -1      3358 4.86341E-03 7.48899E-03-5.13820E-03
 -1      3359 4.86341E-03 7.48899E-03-5.16225E-03
 -1      3360 4.86341E-03 7.48899E-03-5.18629E-03
 -1      3361 4.86340E-03 7.48899E-03-5.21034E-03
 -1      3362 4.86340E-03 7.48898E-03-5.23438E-03
 -1      3363 4.46479E-03 7.73325E-03-5.01798E-03
 -1      3364 4.46480E-03 7.73325E-03-5.04202E-03
 -1      3365 4.46480E-03 7.73326E-03-5.06607E-03
 -1      3366 4.46480E-03 7.73326E-03-5.09011E-03
 -1      3367 4.46480E-03 7.73326E-03-5.11416E-03
 -1      3368 4.46480E-03 7.73326E-03-5.13820E-03
 -1      3369 4.46480E-03 7.73326E-03-5.16225E-03
 -1      3370 4.46480E-03 7.73326E-03-5.18629E-03
 -1      3371 4.46480E-03 7.73325E-03-5.21034E-03
 -1      3372 4.46479E-03 7.73325E-03-5.23438E-03
 -1      3373 4.05395E-03 7.95632E-03-5.01798E-03
 -1      3374 4.05395E-03 7.95632E-03-5.04202E-03
 -1      3375 4.05395E-03 7.95633E-03-5.06607E-03
 -1      3376 4.05395E-03 7.95633E-03-5.09011E-03
 -1      3377 4.05395E-03 7.95633E-03-5.11416E-03
 -1      3378 4.05395E-03 7.95633E-03-5.13820E-03
 -1      3379 4.05395E-03 7.95633E-03-5.16225E-03
 -1      3380 4.05395E-03 7.95633E-03-5.18629E-03
 -1      3381 4.05395E-03 7.95632E-03-5.21034E-03
 -1      3382 4.05395E-03 7.95632E-03-5.23438E-03
 -1      3383 3.63199E-03 8.15758E-03-5.01798E-03
 -1      3384 3.63199E-03 8.15759E-03-5.04202E-03
 -1      3385 3.63199E-03 8.15759E-03-5.06607E-03
 -1      3386 3.63199E-03 8.15759E-03-5.09011E-03
 -1      3387 3.63200E-03 8.15760E-03-5.11416E-03
 -1      3388 3.63200E-03 8.15760E-03-5.13820E-03
 -1      3389 3.63199E-03 8.15759E-03-5.16225E-03
 -1      3390 3.63199E-03 8.15759E-03-5.18629E-03
 -1      3391 3.63199E-03 8.15759E-03-5.21034E-03
 -1      3392 3.63199E-03 8.15758E-03-5.23438E-03
 -1      3393 3.20008E-03 8.33649E-03-5.01798E-03
 -1      3394 3.20008E-03 8.33649E-03-5.04202E-03
 -1      3395 3.20008E-03 8.33650E-03-5.06607E-03
 -1      3396 3.20008E-03 8.33650E-03-5.09011E-03
 -1      3397 3.20008E-03 8.33650E-03-5.11416E-03
 -1      3398 3.20008E-03 8.33650E-03-5.13820E-03
 -1      3399 3.20008E-03 8.33650E-03-5.16225E-03
 -1      3400 3.20008E-03 8.33650E-03-5.18629E-03
 -1      3401 3.20008E-03 8.33649E-03-5.21034E-03
 -1      3402 3.20008E-03 8.33649E-03-5.23438E-03
 -1      3403 2.75939E-03 8.49254E-03-5.01798E-03
 -1      3404 2.75940E-03 8.49255E-03-5.04202E-03
 -1      3405 2.75940E-03 8.49255E-03-5.06607E-03
 -1      3406 2.75940E-03 8.49255E-03-5.09011E-03
 -1      3407 2.75940E-03 8.49255E-03-5.11416E-03
 -1      3408 2.75940E-03 8.49255E-03-5.13820E-03
 -1      3409 2.75940E-03 8.49255E-03-5.16225E-03
 -1      3410 2.75940E-03 8.49255E-03-5.18629E-03
 -1      3411 2.75940E-03 8.49255E-03-5.21034E-03
 -1      3412 2.75939E-03 8.49254E-03-5.23438E-03
 -1      3413 2.31115E-03 8.62532E-03-5.01798E-03
 -1      3414 2.31115E-03 8.62532E-03-5.04202E-03
 -1      3415 2.31115E-03 8.62533E-03-5.06607E-03
 -1      3416 2.31115E-03 8.62533E-03-5.09011E-03
 -1      3417 2.31115E-03 8.62533E-03-5.11416E-03
 -1      3418 2.31115E-03 8.62533E-03-5.13820E-03
 -1      3419 2.31115E-03 8.62533E-03-5.16225E-03
 -1      3420 2.31115E-03 8.62533E-03-5.18629E-03
 -1      3421 2.31115E-03 8.62532E-03-5.21034E-03
 -1      3422 2.31115E-03 8.62532E-03-5.23438E-03
 -1      3423 1.85657E-03 8.73445E-03-5.01798E-03
 -1      3424 1.85657E-03 8.73446E-03-5.04202E-03
 -1      3425 1.85657E-03 8.73446E-03-5.06607E-03
 -1      3426 1.85657E-03 8.73446E-03-5.09011E-03
 -1      3427 1.85657E-03 8.73447E-03-5.11416E-03
 -1      3428 1.85657E-03 8.73447E-03-5.13820E-03
 -1      3429 1.85657E-03 8.73446E-03-5.16225E-03
 -1      3430 1.85657E-03 8.73446E-03-5.18629E-03
 -1      3431 1.85657E-03 8.73446E-03-5.21034E-03
 -1      3432 1.85657E-03 8.73445E-03-5.23438E-03
 -1      3433 1.39690E-03 8.81965E-03-5.01798E-03
 -1      3434 1.39690E-03 8.81965E-03-5.04202E-03
 -1      3435 1.39690E-03 8.81966E-03-5.06607E-03
 -1      3436 1.39690E-03 8.81966E-03-5.09011E-03
 -1      3437 1.39690E-03 8.81966E-03-5.11416E-03
 -1      3438 1.39690E-03 8.81966E-03-5.13820E-03
 -1      3439 1.39690E-03 8.81966E-03-5.16225E-03
 -1      3440 1.39690E-03 8.81966E-03-5.18629E-03
 -1      3441 1.39690E-03 8.81965E-03-5.21034E-03
 -1      3442 1.39690E-03 8.81965E-03-5.23438E-03
 -1      3443 9.33396E-04 8.88067E-03-5.01798E-03
 -1      3444 9.33397E-04 8.88067E-03-5.04202E-03
 -1      3445 9.33397E-04 8.88068E-03-5.06607E-03
 -1      3446 9.33397E-04 8.88068E-03-5.09011E-03
 -1      3447 9.33397E-04 8.88068E-03-5.11416E-03
 -1      3448 9.33397E-04 8.88068E-03-5.13820E-03
 -1      3449 9.33397E-04 8.88068E-03-5.16225E-03
 -1      3450 9.33397E-04 8.88068E-03-5.18629E-03
 -1      3451 9.33397E-04 8.88067E-03-5.21034E-03
 -1      3452 9.33396E-04 8.88067E-03-5.23438E-03
 -1      3453 4.67338E-04 8.91735E-03-5.01798E-03
 -1      3454 4.67339E-04 8.91735E-03-5.04202E-03
 -1      3455 4.67339E-04 8.91736E-03-5.06607E-03
 -1      3456 4.67339E-04 8.91736E-03-5.09011E-03
 -1      3457 4.67339E-04 8.91736E-03-5.11416E-03
 -1      3458 4.67339E-04 8.91736E-03-5.13820E-03
 -1      3459 4.67339E-04 8.91736E-03-5.16225E-03
 -1      3460 4.67339E-04 8.91736E-03-5.18629E-03
 -1      3461 4.67339E-04 8.91735E-03-5.21034E-03
 -1      3462 4.67338E-04 8.91735E-03-5.23438E-03
 -1      3463 8.90957E-03 4.66931E-04-5.01798E-03
 -1      3464 8.90958E-03 4.66931E-04-5.04202E-03
 -1      3465 8.90958E-03 4.66931E-04-5.06607E-03
 -1      3466 8.90958E-03 4.66932E-04-5.09011E-03
 -1      3467 8.90959E-03 4.66932E-04-5.11416E-03
 -1      3468 8.90959E-03 4.66932E-04-5.13820E-03
 -1      3469 8.90958E-03 4.66932E-04-5.16225E-03
 -1      3470 8.90958E-03 4.66931E-04-5.18629E-03
 -1      3471 8.90958E-03 4.66931E-04-5.21033E-03
 -1      3472 8.90957E-03 4.66931E-04-5.23438E-03
 -1      3473 8.87293E-03 9.32582E-04-5.01798E-03
 -1      3474 8.87293E-03 9.32583E-04-5.04202E-03
 -1      3475 8.87293E-03 9.32583E-04-5.06607E-03
 -1      3476 8.87294E-03 9.32583E-04-5.09011E-03
 -1      3477 8.87294E-03 9.32583E-04-5.11416E-03
 -1      3478 8.87294E-03 9.32583E-04-5.13820E-03
 -1      3479 8.87294E-03 9.32583E-04-5.16225E-03
 -1      3480 8.87293E-03 9.32583E-04-5.18629E-03
 -1      3481 8.87293E-03 9.32583E-04-5.21033E-03
 -1      3482 8.87293E-03 9.32582E-04-5.23438E-03
 -1      3483 8.81196E-03 1.39568E-03-5.01798E-03
 -1      3484 8.81196E-03 1.39568E-03-5.04202E-03
 -1      3485 8.81197E-03 1.39568E-03-5.06607E-03
 -1      3486 8.81197E-03 1.39568E-03-5.09011E-03
 -1      3487 8.81197E-03 1.39568E-03-5.11416E-03
 -1      3488 8.81197E-03 1.39568E-03-5.13820E-03
 -1      3489 8.81197E-03 1.39568E-03-5.16225E-03
 -1      3490 8.81197E-03 1.39568E-03-5.18629E-03
 -1      3491 8.81196E-03 1.39568E-03-5.21033E-03
 -1      3492 8.81196E-03 1.39568E-03-5.23438E-03
 -1      3493 8.72684E-03 1.85495E-03-5.01798E-03
 -1      3494 8.72684E-03 1.85495E-03-5.04202E-03
 -1      3495 8.72685E-03 1.85495E-03-5.06607E-03
 -1      3496 8.72685E-03 1.85495E-03-5.09011E-03
 -1      3497 8.72685E-03 1.85495E-03-5.11416E-03
 -1      3498 8.72685E-03 1.85495E-03-5.13820E-03
 -1      3499 8.72685E-03 1.85495E-03-5.16225E-03
 -1      3500 8.72685E-03 1.85495E-03-5.18629E-03
 -1      3501 8.72684E-03 1.85495E-03-5.21033E-03
 -1      3502 8.72684E-03 1.85495E-03-5.23438E-03
 -1      3503 8.61780E-03 2.30913E-03-5.01798E-03
 -1      3504 8.61780E-03 2.30913E-03-5.04202E-03
 -1      3505 8.61781E-03 2.30913E-03-5.06607E-03
 -1      3506 8.61781E-03 2.30913E-03-5.09011E-03
 -1      3507 8.61781E-03 2.30914E-03-5.11416E-03
 -1      3508 8.61781E-03 2.30914E-03-5.13820E-03
 -1      3509 8.61781E-03 2.30913E-03-5.16225E-03
 -1      3510 8.61781E-03 2.30913E-03-5.18629E-03
 -1      3511 8.61780E-03 2.30913E-03-5.21033E-03
 -1      3512 8.61780E-03 2.30913E-03-5.23438E-03
 -1      3513 8.48514E-03 2.75699E-03-5.01798E-03
 -1      3514 8.48514E-03 2.75699E-03-5.04202E-03
 -1      3515 8.48514E-03 2.75699E-03-5.06607E-03
 -1      3516 8.48515E-03 2.75699E-03-5.09011E-03
 -1      3517 8.48515E-03 2.75699E-03-5.11416E-03
 -1      3518 8.48515E-03 2.75699E-03-5.13820E-03
 -1      3519 8.48515E-03 2.75699E-03-5.16225E-03
 -1      3520 8.48514E-03 2.75699E-03-5.18629E-03
 -1      3521 8.48514E-03 2.75699E-03-5.21033E-03
 -1      3522 8.48514E-03 2.75699E-03-5.23438E-03
 -1      3523 8.32922E-03 3.19729E-03-5.01798E-03
 -1      3524 8.32922E-03 3.19729E-03-5.04202E-03
 -1      3525 8.32923E-03 3.19729E-03-5.06607E-03
 -1      3526 8.32923E-03 3.19729E-03-5.09011E-03
 -1      3527 8.32923E-03 3.19729E-03-5.11416E-03
 -1      3528 8.32923E-03 3.19729E-03-5.13820E-03
 -1      3529 8.32923E-03 3.19729E-03-5.16225E-03
 -1      3530 8.32923E-03 3.19729E-03-5.18629E-03
 -1      3531 8.32922E-03 3.19729E-03-5.21033E-03
 -1      3532 8.32922E-03 3.19729E-03-5.23438E-03
 -1      3533 8.15047E-03 3.62882E-03-5.01798E-03
 -1      3534 8.15048E-03 3.62883E-03-5.04202E-03
 -1      3535 8.15048E-03 3.62883E-03-5.06607E-03
 -1      3536 8.15048E-03 3.62883E-03-5.09011E-03
 -1      3537 8.15048E-03 3.62883E-03-5.11416E-03
 -1      3538 8.15048E-03 3.62883E-03-5.13820E-03
 -1      3539 8.15048E-03 3.62883E-03-5.16225E-03
 -1      3540 8.15048E-03 3.62883E-03-5.18629E-03
 -1      3541 8.15048E-03 3.62883E-03-5.21033E-03
 -1      3542 8.15047E-03 3.62882E-03-5.23438E-03
 -1      3543 7.94938E-03 4.05041E-03-5.01798E-03
 -1      3544 7.94939E-03 4.05042E-03-5.04202E-03
 -1      3545 7.94939E-03 4.05042E-03-5.06607E-03
 -1      3546 7.94939E-03 4.05042E-03-5.09011E-03
 -1      3547 7.94939E-03 4.05042E-03-5.11416E-03
 -1      3548 7.94939E-03 4.05042E-03-5.13820E-03
 -1      3549 7.94939E-03 4.05042E-03-5.16225E-03
 -1      3550 7.94939E-03 4.05042E-03-5.18629E-03
 -1      3551 7.94939E-03 4.05042E-03-5.21033E-03
 -1      3552 7.94938E-03 4.05041E-03-5.23438E-03
 -1      3553 7.72650E-03 4.46090E-03-5.01798E-03
 -1      3554 7.72651E-03 4.46090E-03-5.04202E-03
 -1      3555 7.72651E-03 4.46090E-03-5.06607E-03
 -1      3556 7.72652E-03 4.46091E-03-5.09011E-03
 -1      3557 7.72652E-03 4.46091E-03-5.11416E-03
 -1      3558 7.72652E-03 4.46091E-03-5.13820E-03
 -1      3559 7.72652E-03 4.46091E-03-5.16225E-03
 -1      3560 7.72651E-03 4.46090E-03-5.18629E-03
 -1      3561 7.72651E-03 4.46090E-03-5.21033E-03
 -1      3562 7.72650E-03 4.46090E-03-5.23438E-03
 -1      3563 7.48245E-03 4.85916E-03-5.01798E-03
 -1      3564 7.48246E-03 4.85916E-03-5.04202E-03
 -1      3565 7.48246E-03 4.85917E-03-5.06607E-03
 -1      3566 7.48246E-03 4.85917E-03-5.09011E-03
 -1      3567 7.48246E-03 4.85917E-03-5.11416E-03
 -1      3568 7.48246E-03 4.85917E-03-5.13820E-03
 -1      3569 7.48246E-03 4.85917E-03-5.16225E-03
 -1      3570 7.48246E-03 4.85917E-03-5.18629E-03
 -1      3571 7.48246E-03 4.85916E-03-5.21033E-03
 -1      3572 7.48245E-03 4.85916E-03-5.23438E-03
 -1      3573 7.21789E-03 5.24410E-03-5.01798E-03
 -1      3574 7.21789E-03 5.24411E-03-5.04202E-03
 -1      3575 7.21790E-03 5.24411E-03-5.06607E-03
 -1      3576 7.21790E-03 5.24411E-03-5.09011E-03
 -1      3577 7.21790E-03 5.24411E-03-5.11416E-03
 -1      3578 7.21790E-03 5.24411E-03-5.13820E-03
 -1      3579 7.21790E-03 5.24411E-03-5.16225E-03
 -1      3580 7.21790E-03 5.24411E-03-5.18629E-03
 -1      3581 7.21789E-03 5.24411E-03-5.21033E-03
 -1      3582 7.21789E-03 5.24410E-03-5.23438E-03
 -1      3583 6.93354E-03 5.61467E-03-5.01798E-03
 -1      3584 6.93355E-03 5.61467E-03-5.04202E-03
 -1      3585 6.93355E-03 5.61468E-03-5.06607E-03
 -1      3586 6.93355E-03 5.61468E-03-5.09011E-03
 -1      3587 6.93355E-03 5.61468E-03-5.11416E-03
 -1      3588 6.93355E-03 5.61468E-03-5.13820E-03
 -1      3589 6.93355E-03 5.61468E-03-5.16225E-03
 -1      3590 6.93355E-03 5.61468E-03-5.18629E-03
 -1      3591 6.93355E-03 5.61467E-03-5.21033E-03
 -1      3592 6.93354E-03 5.61467E-03-5.23438E-03
 -1      3593 6.63019E-03 5.96985E-03-5.01798E-03
 -1      3594 6.63019E-03 5.96985E-03-5.04202E-03
 -1      3595 6.63020E-03 5.96986E-03-5.06607E-03
 -1      3596 6.63020E-03 5.96986E-03-5.09011E-03
 -1      3597 6.63020E-03 5.96986E-03-5.11416E-03
 -1      3598 6.63020E-03 5.96986E-03-5.13820E-03
 -1      3599 6.63020E-03 5.96986E-03-5.16225E-03
 -1      3600 6.63020E-03 5.96986E-03-5.18629E-03
 -1      3601 6.63019E-03 5.96985E-03-5.21033E-03
 -1      3602 6.63019E-03 5.96985E-03-5.23438E-03
 -1      3603 6.30867E-03 6.30867E-03-5.01798E-03
 -1      3604 6.30867E-03 6.30867E-03-5.04202E-03
 -1      3605 6.30867E-03 6.30867E-03-5.06607E-03
 -1      3606 6.30867E-03 6.30867E-03-5.09011E-03
 -1      3607 6.30867E-03 6.30867E-03-5.11416E-03
 -1      3608 6.30867E-03 6.30867E-03-5.13820E-03
 -1      3609 6.30867E-03 6.30867E-03-5.16225E-03
 -1      3610 6.30867E-03 6.30867E-03-5.18629E-03
 -1      3611 6.30867E-03 6.30867E-03-5.21033E-03
 -1      3612 6.30867E-03 6.30867E-03-5.23438E-03
 -1      3613 5.96985E-03 6.63019E-03-5.01798E-03
 -1      3614 5.96985E-03 6.63019E-03-5.04202E-03
 -1      3615 5.96986E-03 6.63020E-03-5.06607E-03
 -1      3616 5.96986E-03 6.63020E-03-5.09011E-03
 -1      3617 5.96986E-03 6.63020E-03-5.11416E-03
 -1      3618 5.96986E-03 6.63020E-03-5.13820E-03
 -1      3619 5.96986E-03 6.63020E-03-5.16225E-03
 -1      3620 5.96986E-03 6.63020E-03-5.18629E-03
 -1      3621 5.96985E-03 6.63019E-03-5.21033E-03
 -1      3622 5.96985E-03 6.63019E-03-5.23438E-03
 -1      3623 5.61467E-03 6.93354E-03-5.01798E-03
 -1      3624 5.61467E-03 6.93355E-03-5.04202E-03
 -1      3625 5.61468E-03 6.93355E-03-5.06607E-03
 -1      3626 5.61468E-03 6.93355E-03-5.09011E-03
 -1      3627 5.61468E-03 6.93355E-03-5.11416E-03
 -1      3628 5.61468E-03 6.93355E-03-5.13820E-03
 -1      3629 5.61468E-03 6.93355E-03-5.16225E-03
 -1      3630 5.61468E-03 6.93355E-03-5.18629E-03
 -1      3631 5.61467E-03 6.93355E-03-5.21033E-03
 -1      3632 5.61467E-03 6.93354E-03-5.23438E-03
 -1      3633 5.24410E-03 7.21789E-03-5.01798E-03
 -1      3634 5.24411E-03 7.21789E-03-5.04202E-03
 -1      3635 5.24411E-03 7.21790E-03-5.06607E-03
 -1      3636 5.24411E-03 7.21790E-03-5.09011E-03
 -1      3637 5.24411E-03 7.21790E-03-5.11416E-03
 -1      3638 5.24411E-03 7.21790E-03-5.13820E-03
 -1      3639 5.24411E-03 7.21790E-03-5.16225E-03
 -1      3640 5.24411E-03 7.21790E-03-5.18629E-03
 -1      3641 5.24411E-03 7.21789E-03-5.21033E-03
 -1      3642 5.24410E-03 7.21789E-03-5.23438E-03
 -1      3643 4.85916E-03 7.48245E-03-5.01798E-03
 -1      3644 4.85916E-03 7.48246E-03-5.04202E-03
 -1      3645 4.85917E-03 7.48246E-03-5.06607E-03
 -1      3646 4.85917E-03 7.48246E-03-5.09011E-03
 -1      3647 4.85917E-03 7.48246E-03-5.11416E-03
 -1      3648 4.85917E-03 7.48246E-03-5.13820E-03
 -1      3649 4.85917E-03 7.48246E-03-5.16225E-03
 -1      3650 4.85917E-03 7.48246E-03-5.18629E-03
 -1      3651 4.85916E-03 7.48246E-03-5.21033E-03
 -1      3652 4.85916E-03 7.48245E-03-5.23438E-03
 -1      3653 4.46090E-03 7.72650E-03-5.01798E-03
 -1      3654 4.46090E-03 7.72651E-03-5.04202E-03
 -1      3655 4.46090E-03 7.72651E-03-5.06607E-03
 -1      3656 4.46091E-03 7.72652E-03-5.09011E-03
 -1      3657 4.46091E-03 7.72652E-03-5.11416E-03
 -1      3658 4.46091E-03 7.72652E-03-5.13820E-03
 -1      3659 4.46091E-03 7.72652E-03-5.16225E-03
 -1      3660 4.46090E-03 7.72651E-03-5.18629E-03
 -1      3661 4.46090E-03 7.72651E-03-5.21033E-03
 -1      3662 4.46090E-03 7.72650E-03-5.23438E-03
 -1      3663 4.05041E-03 7.94938E-03-5.01798E-03
 -1      3664 4.05042E-03 7.94939E-03-5.04202E-03
 -1      3665 4.05042E-03 7.94939E-03-5.06607E-03
 -1      3666 4.05042E-03 7.94939E-03-5.09011E-03
 -1      3667 4.05042E-03 7.94939E-03-5.11416E-03
 -1      3668 4.05042E-03 7.94939E-03-5.13820E-03
 -1      3669 4.05042E-03 7.94939E-03-5.16225E-03
 -1      3670 4.05042E-03 7.94939E-03-5.18629E-03
 -1      3671 4.05042E-03 7.94939E-03-5.21033E-03
 -1      3672 4.05041E-03 7.94938E-03-5.23438E-03
 -1      3673 3.62882E-03 8.15047E-03-5.01798E-03
 -1      3674 3.62883E-03 8.15048E-03-5.04202E-03
 -1      3675 3.62883E-03 8.15048E-03-5.06607E-03
 -1      3676 3.62883E-03 8.15048E-03-5.09011E-03
 -1      3677 3.62883E-03 8.15048E-03-5.11416E-03
 -1      3678 3.62883E-03 8.15048E-03-5.13820E-03
 -1      3679 3.62883E-03 8.15048E-03-5.16225E-03
 -1      3680 3.62883E-03 8.15048E-03-5.18629E-03
 -1      3681 3.62883E-03 8.15048E-03-5.21033E-03
 -1      3682 3.62882E-03 8.15047E-03-5.23438E-03
 -1      3683 3.19729E-03 8.32922E-03-5.01798E-03
 -1      3684 3.19729E-03 8.32922E-03-5.04202E-03
 -1      3685 3.19729E-03 8.32923E-03-5.06607E-03
 -1      3686 3.19729E-03 8.32923E-03-5.09011E-03
 -1      3687 3.19729E-03 8.32923E-03-5.11416E-03
 -1      3688 3.19729E-03 8.32923E-03-5.13820E-03
 -1      3689 3.19729E-03 8.32923E-03-5.16225E-03
 -1      3690 3.19729E-03 8.32923E-03-5.18629E-03
 -1      3691 3.19729E-03 8.32922E-03-5.21033E-03
 -1      3692 3.19729E-03 8.32922E-03-5.23438E-03
 -1      3693 2.75699E-03 8.48514E-03-5.01798E-03
 -1      3694 2.75699E-03 8.48514E-03-5.04202E-03
 -1      3695 2.75699E-03 8.48514E-03-5.06607E-03
 -1      3696 2.75699E-03 8.48515E-03-5.09011E-03
 -1      3697 2.75699E-03 8.48515E-03-5.11416E-03
 -1      3698 2.75699E-03 8.48515E-03-5.13820E-03
 -1      3699 2.75699E-03 8.48515E-03-5.16225E-03
 -1      3700 2.75699E-03 8.48514E-03-5.18629E-03
 -1      3701 2.75699E-03 8.48514E-03-5.21033E-03
 -1      3702 2.75699E-03 8.48514E-03-5.23438E-03
 -1      3703 2.30913E-03 8.61780E-03-5.01798E-03
 -1      3704 2.30913E-03 8.61780E-03-5.04202E-03
 -1      3705 2.30913E-03 8.61781E-03-5.06607E-03
 -1      3706 2.30913E-03 8.61781E-03-5.09011E-03
 -1      3707 2.30914E-03 8.61781E-03-5.11416E-03
 -1      3708 2.30914E-03 8.61781E-03-5.13820E-03
 -1      3709 2.30913E-03 8.61781E-03-5.16225E-03
 -1      3710 2.30913E-03 8.61781E-03-5.18629E-03
 -1      3711 2.30913E-03 8.61780E-03-5.21033E-03
 -1      3712 2.30913E-03 8.61780E-03-5.23438E-03
 -1      3713 1.85495E-03 8.72684E-03-5.01798E-03
 -1      3714 1.85495E-03 8.72684E-03-5.04202E-03
 -1      3715 1.85495E-03 8.72685E-03-5.06607E-03
 -1      3716 1.85495E-03 8.72685E-03-5.09011E-03
 -1      3717 1.85495E-03 8.72685E-03-5.11416E-03
 -1      3718 1.85495E-03 8.72685E-03-5.13820E-03
 -1      3719 1.85495E-03 8.72685E-03-5.16225E-03
 -1      3720 1.85495E-03 8.72685E-03-5.18629E-03
 -1      3721 1.85495E-03 8.72684E-03-5.21033E-03
 -1      3722 1.85495E-03 8.72684E-03-5.23438E-03
 -1      3723 1.39568E-03 8.81196E-03-5.01798E-03
 -1      3724 1.39568E-03 8.81196E-03-5.04202E-03
 -1      3725 1.39568E-03 8.81197E-03-5.06607E-03
 -1      3726 1.39568E-03 8.81197E-03-5.09011E-03
 -1      3727 1.39568E-03 8.81197E-03-5.11416E-03
 -1      3728 1.39568E-03 8.81197E-03-5.13820E-03
 -1      3729 1.39568E-03 8.81197E-03-5.16225E-03
 -1      3730 1.39568E-03 8.81197E-03-5.18629E-03
 -1      3731 1.39568E-03 8.81196E-03-5.21033E-03
 -1      3732 1.39568E-03 8.81196E-03-5.23438E-03
 -1      3733 9.32582E-04 8.87293E-03-5.01798E-03
 -1      3734 9.32583E-04 8.87293E-03-5.04202E-03
 -1      3735 9.32583E-04 8.87293E-03-5.06607E-03
 -1      3736 9.32583E-04 8.87294E-03-5.09011E-03
 -1      3737 9.32583E-04 8.87294E-03-5.11416E-03
 -1      3738 9.32583E-04 8.87294E-03-5.13820E-03
 -1      3739 9.32583E-04 8.87294E-03-5.16225E-03
 -1      3740 9.32583E-04 8.87293E-03-5.18629E-03
 -1      3741 9.32583E-04 8.87293E-03-5.21033E-03
 -1      3742 9.32582E-04 8.87293E-03-5.23438E-03
 -1      3743 4.66931E-04 8.90957E-03-5.01798E-03
 -1      3744 4.66931E-04 8.90958E-03-5.04202E-03
 -1      3745 4.66931E-04 8.90958E-03-5.06607E-03
 -1      3746 4.66932E-04 8.90958E-03-5.09011E-03
 -1      3747 4.66932E-04 8.90959E-03-5.11416E-03
 -1      3748 4.66932E-04 8.90959E-03-5.13820E-03
 -1      3749 4.66932E-04 8.90958E-03-5.16225E-03
 -1      3750 4.66931E-04 8.90958E-03-5.18629E-03
 -1      3751 4.66931E-04 8.90958E-03-5.21033E-03
 -1      3752 4.66931E-04 8.90957E-03-5.23438E-03
 -1      3753 8.90188E-03 4.66528E-04-5.01798E-03
 -1      3754 8.90188E-03 4.66528E-04-5.04202E-03
 -1      3755 8.90189E-03 4.66528E-04-5.06607E-03
 -1      3756 8.90189E-03 4.66528E-04-5.09011E-03
 -1      3757 8.90189E-03 4.66528E-04-5.11416E-03
 -1      3758 8.90189E-03 4.66528E-04-5.13820E-03
 -1      3759 8.90189E-03 4.66528E-04-5.16224E-03
 -1      3760 8.90189E-03 4.66528E-04-5.18629E-03
 -1      3761 8.90188E-03 4.66528E-04-5.21033E-03
 -1      3762 8.90188E-03 4.66528E-04-5.23438E-03
 -1      3763 8.86526E-03 9.31776E-04-5.01798E-03
 -1      3764 8.86527E-03 9.31777E-04-5.04202E-03
 -1      3765 8.86527E-03 9.31778E-04-5.06607E-03
 -1      3766 8.86527E-03 9.31778E-04-5.09011E-03
 -1      3767 8.86527E-03 9.31778E-04-5.11416E-03
 -1      3768 8.86527E-03 9.31778E-04-5.13820E-03
 -1      3769 8.86527E-03 9.31778E-04-5.16224E-03
 -1      3770 8.86527E-03 9.31778E-04-5.18629E-03
 -1      3771 8.86527E-03 9.31777E-04-5.21033E-03
 -1      3772 8.86526E-03 9.31776E-04-5.23438E-03
 -1      3773 8.80435E-03 1.39447E-03-5.01798E-03
 -1      3774 8.80435E-03 1.39447E-03-5.04202E-03
 -1      3775 8.80436E-03 1.39447E-03-5.06607E-03
 -1      3776 8.80436E-03 1.39447E-03-5.09011E-03
 -1      3777 8.80436E-03 1.39447E-03-5.11416E-03
 -1      3778 8.80436E-03 1.39447E-03-5.13820E-03
 -1      3779 8.80436E-03 1.39447E-03-5.16224E-03
 -1      3780 8.80436E-03 1.39447E-03-5.18629E-03
 -1      3781 8.80435E-03 1.39447E-03-5.21033E-03
 -1      3782 8.80435E-03 1.39447E-03-5.23438E-03
 -1      3783 8.71930E-03 1.85334E-03-5.01798E-03
 -1      3784 8.71930E-03 1.85335E-03-5.04202E-03
 -1      3785 8.71931E-03 1.85335E-03-5.06607E-03
 -1      3786 8.71931E-03 1.85335E-03-5.09011E-03
 -1      3787 8.71931E-03 1.85335E-03-5.11416E-03
 -1      3788 8.71931E-03 1.85335E-03-5.13820E-03
 -1      3789 8.71931E-03 1.85335E-03-5.16224E-03
 -1      3790 8.71931E-03 1.85335E-03-5.18629E-03
 -1      3791 8.71930E-03 1.85335E-03-5.21033E-03
 -1      3792 8.71930E-03 1.85334E-03-5.23438E-03
 -1      3793 8.61035E-03 2.30714E-03-5.01798E-03
 -1      3794 8.61036E-03 2.30714E-03-5.04202E-03
 -1      3795 8.61036E-03 2.30714E-03-5.06607E-03
 -1      3796 8.61036E-03 2.30714E-03-5.09011E-03
 -1      3797 8.61037E-03 2.30714E-03-5.11416E-03
 -1      3798 8.61037E-03 2.30714E-03-5.13820E-03
 -1      3799 8.61036E-03 2.30714E-03-5.16224E-03
 -1      3800 8.61036E-03 2.30714E-03-5.18629E-03
 -1      3801 8.61036E-03 2.30714E-03-5.21033E-03
 -1      3802 8.61035E-03 2.30714E-03-5.23438E-03
 -1      3803 8.47781E-03 2.75461E-03-5.01798E-03
 -1      3804 8.47781E-03 2.75461E-03-5.04202E-03
 -1      3805 8.47782E-03 2.75461E-03-5.06607E-03
 -1      3806 8.47782E-03 2.75461E-03-5.09011E-03
 -1      3807 8.47782E-03 2.75461E-03-5.11416E-03
 -1      3808 8.47782E-03 2.75461E-03-5.13820E-03
 -1      3809 8.47782E-03 2.75461E-03-5.16224E-03
 -1      3810 8.47782E-03 2.75461E-03-5.18629E-03
 -1      3811 8.47781E-03 2.75461E-03-5.21033E-03
 -1      3812 8.47781E-03 2.75461E-03-5.23438E-03
 -1      3813 8.32202E-03 3.19453E-03-5.01798E-03
 -1      3814 8.32203E-03 3.19453E-03-5.04202E-03
 -1      3815 8.32203E-03 3.19453E-03-5.06607E-03
 -1      3816 8.32203E-03 3.19453E-03-5.09011E-03
 -1      3817 8.32204E-03 3.19453E-03-5.11416E-03
 -1      3818 8.32204E-03 3.19453E-03-5.13820E-03
 -1      3819 8.32203E-03 3.19453E-03-5.16224E-03
 -1      3820 8.32203E-03 3.19453E-03-5.18629E-03
 -1      3821 8.32203E-03 3.19453E-03-5.21033E-03
 -1      3822 8.32202E-03 3.19453E-03-5.23438E-03
 -1      3823 8.14343E-03 3.62569E-03-5.01798E-03
 -1      3824 8.14344E-03 3.62569E-03-5.04202E-03
 -1      3825 8.14344E-03 3.62569E-03-5.06607E-03
 -1      3826 8.14344E-03 3.62569E-03-5.09011E-03
 -1      3827 8.14344E-03 3.62569E-03-5.11416E-03
 -1      3828 8.14344E-03 3.62569E-03-5.13820E-03
 -1      3829 8.14344E-03 3.62569E-03-5.16224E-03
 -1      3830 8.14344E-03 3.62569E-03-5.18629E-03
 -1      3831 8.14344E-03 3.62569E-03-5.21033E-03
 -1      3832 8.14343E-03 3.62569E-03-5.23438E-03
 -1      3833 7.94252E-03 4.04691E-03-5.01798E-03
 -1      3834 7.94252E-03 4.04692E-03-5.04202E-03
 -1      3835 7.94252E-03 4.04692E-03-5.06607E-03
 -1      3836 7.94253E-03 4.04692E-03-5.09011E-03
 -1      3837 7.94253E-03 4.04692E-03-5.11416E-03
 -1      3838 7.94253E-03 4.04692E-03-5.13820E-03
 -1      3839 7.94253E-03 4.04692E-03-5.16224E-03
 -1      3840 7.94252E-03 4.04692E-03-5.18629E-03
 -1      3841 7.94252E-03 4.04692E-03-5.21033E-03
 -1      3842 7.94252E-03 4.04691E-03-5.23438E-03
 -1      3843 7.71983E-03 4.45705E-03-5.01798E-03
 -1      3844 7.71984E-03 4.45705E-03-5.04202E-03
 -1      3845 7.71984E-03 4.45705E-03-5.06607E-03
 -1      3846 7.71984E-03 4.45705E-03-5.09011E-03
 -1      3847 7.71984E-03 4.45705E-03-5.11416E-03
 -1      3848 7.71984E-03 4.45705E-03-5.13820E-03
 -1      3849 7.71984E-03 4.45705E-03-5.16224E-03
 -1      3850 7.71984E-03 4.45705E-03-5.18629E-03
 -1      3851 7.71984E-03 4.45705E-03-5.21033E-03
 -1      3852 7.71983E-03 4.45705E-03-5.23438E-03
 -1      3853 7.47599E-03 4.85496E-03-5.01798E-03
 -1      3854 7.47599E-03 4.85497E-03-5.04202E-03
 -1      3855 7.47600E-03 4.85497E-03-5.06607E-03
 -1      3856 7.47600E-03 4.85497E-03-5.09011E-03
 -1      3857 7.47600E-03 4.85497E-03-5.11416E-03
 -1      3858 7.47600E-03 4.85497E-03-5.13820E-03
 -1      3859 7.47600E-03 4.85497E-03-5.16224E-03
 -1      3860 7.47600E-03 4.85497E-03-5.18629E-03
 -1      3861 7.47599E-03 4.85497E-03-5.21033E-03
 -1      3862 7.47599E-03 4.85496E-03-5.23438E-03
 -1      3863 7.21165E-03 5.23957E-03-5.01798E-03
 -1      3864 7.21166E-03 5.23958E-03-5.04202E-03
 -1      3865 7.21166E-03 5.23958E-03-5.06607E-03
 -1      3866 7.21166E-03 5.23958E-03-5.09011E-03
 -1      3867 7.21166E-03 5.23958E-03-5.11416E-03
 -1      3868 7.21166E-03 5.23958E-03-5.13820E-03
 -1      3869 7.21166E-03 5.23958E-03-5.16224E-03
 -1      3870 7.21166E-03 5.23958E-03-5.18629E-03
 -1      3871 7.21166E-03 5.23958E-03-5.21033E-03
 -1      3872 7.21165E-03 5.23957E-03-5.23438E-03
 -1      3873 6.92755E-03 5.60982E-03-5.01798E-03
 -1      3874 6.92756E-03 5.60982E-03-5.04202E-03
 -1      3875 6.92756E-03 5.60983E-03-5.06607E-03
 -1      3876 6.92756E-03 5.60983E-03-5.09011E-03
 -1      3877 6.92756E-03 5.60983E-03-5.11416E-03
 -1      3878 6.92756E-03 5.60983E-03-5.13820E-03
 -1      3879 6.92756E-03 5.60983E-03-5.16224E-03
 -1      3880 6.92756E-03 5.60983E-03-5.18629E-03
 -1      3881 6.92756E-03 5.60982E-03-5.21033E-03
 -1      3882 6.92755E-03 5.60982E-03-5.23438E-03
 -1      3883 6.62446E-03 5.96469E-03-5.01798E-03
 -1      3884 6.62447E-03 5.96470E-03-5.04202E-03
 -1      3885 6.62447E-03 5.96470E-03-5.06607E-03
 -1      3886 6.62447E-03 5.96470E-03-5.09011E-03
 -1      3887 6.62447E-03 5.96470E-03-5.11416E-03
 -1      3888 6.62447E-03 5.96470E-03-5.13820E-03
 -1      3889 6.62447E-03 5.96470E-03-5.16224E-03
 -1      3890 6.62447E-03 5.96470E-03-5.18629E-03
 -1      3891 6.62447E-03 5.96470E-03-5.21033E-03
 -1      3892 6.62446E-03 5.96469E-03-5.23438E-03
 -1      3893 6.30322E-03 6.30322E-03-5.01798E-03
 -1      3894 6.30322E-03 6.30322E-03-5.04202E-03
 -1      3895 6.30322E-03 6.30322E-03-5.06607E-03
 -1      3896 6.30322E-03 6.30322E-03-5.09011E-03
 -1      3897 6.30323E-03 6.30323E-03-5.11416E-03
 -1      3898 6.30323E-03 6.30323E-03-5.13820E-03
 -1      3899 6.30322E-03 6.30322E-03-5.16224E-03
 -1      3900 6.30322E-03 6.30322E-03-5.18629E-03
 -1      3901 6.30322E-03 6.30322E-03-5.21033E-03
 -1      3902 6.30322E-03 6.30322E-03-5.23438E-03
 -1      3903 5.96469E-03 6.62446E-03-5.01798E-03
 -1      3904 5.96470E-03 6.62447E-03-5.04202E-03
 -1      3905 5.96470E-03 6.62447E-03-5.06607E-03
 -1      3906 5.96470E-03 6.62447E-03-5.09011E-03
 -1      3907 5.96470E-03 6.62447E-03-5.11416E-03
 -1      3908 5.96470E-03 6.62447E-03-5.13820E-03
 -1      3909 5.96470E-03 6.62447E-03-5.16224E-03
 -1      3910 5.96470E-03 6.62447E-03-5.18629E-03
 -1      3911 5.96470E-03 6.62447E-03-5.21033E-03
 -1      3912 5.96469E-03 6.62446E-03-5.23438E-03
 -1      3913 5.60982E-03 6.92755E-03-5.01798E-03
 -1      3914 5.60982E-03 6.92756E-03-5.04202E-03
 -1      3915 5.60983E-03 6.92756E-03-5.06607E-03
 -1      3916 5.60983E-03 6.92756E-03-5.09011E-03
 -1      3917 5.60983E-03 6.92756E-03-5.11416E-03
 -1      3918 5.60983E-03 6.92756E-03-5.13820E-03
 -1      3919 5.60983E-03 6.92756E-03-5.16224E-03
 -1      3920 5.60983E-03 6.92756E-03-5.18629E-03
 -1      3921 5.60982E-03 6.92756E-03-5.21033E-03
 -1      3922 5.60982E-03 6.92755E-03-5.23438E-03
 -1      3923 5.23957E-03 7.21165E-03-5.01798E-03
 -1      3924 5.23958E-03 7.21166E-03-5.04202E-03
 -1      3925 5.23958E-03 7.21166E-03-5.06607E-03
 -1      3926 5.23958E-03 7.21166E-03-5.09011E-03
 -1      3927 5.23958E-03 7.21166E-03-5.11416E-03
 -1      3928 5.23958E-03 7.21166E-03-5.13820E-03
 -1      3929 5.23958E-03 7.21166E-03-5.16224E-03
 -1      3930 5.23958E-03 7.21166E-03-5.18629E-03
 -1      3931 5.23958E-03 7.21166E-03-5.21033E-03
 -1      3932 5.23957E-03 7.21165E-03-5.23438E-03
 -1      3933 4.85496E-03 7.47599E-03-5.01798E-03
 -1      3934 4.85497E-03 7.47599E-03-5.04202E-03
 -1      3935 4.85497E-03 7.47600E-03-5.06607E-03
 -1      3936 4.85497E-03 7.47600E-03-5.09011E-03
 -1      3937 4.85497E-03 7.47600E-03-5.11416E-03
 -1      3938 4.85497E-03 7.47600E-03-5.13820E-03
 -1      3939 4.85497E-03 7.47600E-03-5.16224E-03
 -1      3940 4.85497E-03 7.47600E-03-5.18629E-03
 -1      3941 4.85497E-03 7.47599E-03-5.21033E-03
 -1      3942 4.85496E-03 7.47599E-03-5.23438E-03
 -1      3943 4.45705E-03 7.71983E-03-5.01798E-03
 -1      3944 4.45705E-03 7.71984E-03-5.04202E-03
 -1      3945 4.45705E-03 7.71984E-03-5.06607E-03
 -1      3946 4.45705E-03 7.71984E-03-5.09011E-03
 -1      3947 4.45705E-03 7.71984E-03-5.11416E-03
 -1      3948 4.45705E-03 7.71984E-03-5.13820E-03
 -1      3949 4.45705E-03 7.71984E-03-5.16224E-03
 -1      3950 4.45705E-03 7.71984E-03-5.18629E-03
 -1      3951 4.45705E-03 7.71984E-03-5.21033E-03
 -1      3952 4.45705E-03 7.71983E-03-5.23438E-03
 -1      3953 4.04691E-03 7.94252E-03-5.01798E-03
 -1      3954 4.04692E-03 7.94252E-03-5.04202E-03
 -1      3955 4.04692E-03 7.94252E-03-5.06607E-03
 -1      3956 4.04692E-03 7.94253E-03-5.09011E-03
 -1      3957 4.04692E-03 7.94253E-03-5.11416E-03
 -1      3958 4.04692E-03 7.94253E-03-5.13820E-03
 -1      3959 4.04692E-03 7.94253E-03-5.16224E-03
 -1      3960 4.04692E-03 7.94252E-03-5.18629E-03
 -1      3961 4.04692E-03 7.94252E-03-5.21033E-03
 -1      3962 4.04691E-03 7.94252E-03-5.23438E-03
 -1      3963 3.62569E-03 8.14343E-03-5.01798E-03
 -1      3964 3.62569E-03 8.14344E-03-5.04202E-03
 -1      3965 3.62569E-03 8.14344E-03-5.06607E-03
 -1      3966 3.62569E-03 8.14344E-03-5.09011E-03
 -1      3967 3.62569E-03 8.14344E-03-5.11416E-03
 -1      3968 3.62569E-03 8.14344E-03-5.13820E-03
 -1      3969 3.62569E-03 8.14344E-03-5.16224E-03
 -1      3970 3.62569E-03 8.14344E-03-5.18629E-03
 -1      3971 3.62569E-03 8.14344E-03-5.21033E-03
 -1      3972 3.62569E-03 8.14343E-03-5.23438E-03
 -1      3973 3.19453E-03 8.32202E-03-5.01798E-03
 -1      3974 3.19453E-03 8.32203E-03-5.04202E-03
 -1      3975 3.19453E-03 8.32203E-03-5.06607E-03
 -1      3976 3.19453E-03 8.32203E-03-5.09011E-03
 -1      3977 3.19453E-03 8.32204E-03-5.11416E-03
 -1      3978 3.19453E-03 8.32204E-03-5.13820E-03
 -1      3979 3.19453E-03 8.32203E-03-5.16224E-03
 -1      3980 3.19453E-03 8.32203E-03-5.18629E-03
 -1      3981 3.19453E-03 8.32203E-03-5.21033E-03
 -1      3982 3.19453E-03 8.32202E-03-5.23438E-03
 -1      3983 2.75461E-03 8.47781E-03-5.01798E-03
 -1      3984 2.75461E-03 8.47781E-03-5.04202E-03
 -1      3985 2.75461E-03 8.47782E-03-5.06607E-03
 -1      3986 2.75461E-03 8.47782E-03-5.09011E-03
 -1      3987 2.75461E-03 8.47782E-03-5.11416E-03
 -1      3988 2.75461E-03 8.47782E-03-5.13820E-03
 -1      3989 2.75461E-03 8.47782E-03-5.16224E-03
 -1      3990 2.75461E-03 8.47782E-03-5.18629E-03
 -1      3991 2.75461E-03 8.47781E-03-5.21033E-03
 -1      3992 2.75461E-03 8.47781E-03-5.23438E-03
 -1      3993 2.30714E-03 8.61035E-03-5.01798E-03
 -1      3994 2.30714E-03 8.61036E-03-5.04202E-03
 -1      3995 2.30714E-03 8.61036E-03-5.06607E-03
 -1      3996 2.30714E-03 8.61036E-03-5.09011E-03
 -1      3997 2.30714E-03 8.61037E-03-5.11416E-03
 -1      3998 2.30714E-03 8.61037E-03-5.13820E-03
 -1      3999 2.30714E-03 8.61036E-03-5.16224E-03
 -1      4000 2.30714E-03 8.61036E-03-5.18629E-03
 -1      4001 2.30714E-03 8.61036E-03-5.21033E-03
 -1      4002 2.30714E-03 8.61035E-03-5.23438E-03
 -1      4003 1.85334E-03 8.71930E-03-5.01798E-03
 -1      4004 1.85335E-03 8.71930E-03-5.04202E-03
 -1      4005 1.85335E-03 8.71931E-03-5.06607E-03
 -1      4006 1.85335E-03 8.71931E-03-5.09011E-03
 -1      4007 1.85335E-03 8.71931E-03-5.11416E-03
 -1      4008 1.85335E-03 8.71931E-03-5.13820E-03
 -1      4009 1.85335E-03 8.71931E-03-5.16224E-03
 -1      4010 1.85335E-03 8.71931E-03-5.18629E-03
 -1      4011 1.85335E-03 8.71930E-03-5.21033E-03
 -1      4012 1.85334E-03 8.71930E-03-5.23438E-03
 -1      4013 1.39447E-03 8.80435E-03-5.01798E-03
 -1      4014 1.39447E-03 8.80435E-03-5.04202E-03
 -1      4015 1.39447E-03 8.80436E-03-5.06607E-03
 -1      4016 1.39447E-03 8.80436E-03-5.09011E-03
 -1      4017 1.39447E-03 8.80436E-03-5.11416E-03
 -1      4018 1.39447E-03 8.80436E-03-5.13820E-03
 -1      4019 1.39447E-03 8.80436E-03-5.16224E-03
 -1      4020 1.39447E-03 8.80436E-03-5.18629E-03
 -1      4021 1.39447E-03 8.80435E-03-5.21033E-03
 -1      4022 1.39447E-03 8.80435E-03-5.23438E-03
 -1      4023 9.31776E-04 8.86526E-03-5.01798E-03
 -1      4024 9.31777E-04 8.86527E-03-5.04202E-03
 -1      4025 9.31778E-04 8.86527E-03-5.06607E-03
 -1      4026 9.31778E-04 8.86527E-03-5.09011E-03
 -1      4027 9.31778E-04 8.86527E-03-5.11416E-03
 -1      4028 9.31778E-04 8.86527E-03-5.13820E-03
 -1      4029 9.31778E-04 8.86527E-03-5.16224E-03
 -1      4030 9.31778E-04 8.86527E-03-5.18629E-03
 -1      4031 9.31777E-04 8.86527E-03-5.21033E-03
 -1      4032 9.31776E-04 8.86526E-03-5.23438E-03
 -1      4033 4.66528E-04 8.90188E-03-5.01798E-03
 -1      4034 4.66528E-04 8.90188E-03-5.04202E-03
 -1      4035 4.66528E-04 8.90189E-03-5.06607E-03
 -1      4036 4.66528E-04 8.90189E-03-5.09011E-03
 -1      4037 4.66528E-04 8.90189E-03-5.11416E-03
 -1      4038 4.66528E-04 8.90189E-03-5.13820E-03
 -1      4039 4.66528E-04 8.90189E-03-5.16224E-03
 -1      4040 4.66528E-04 8.90189E-03-5.18629E-03
 -1      4041 4.66528E-04 8.90188E-03-5.21033E-03
 -1      4042 4.66528E-04 8.90188E-03-5.23438E-03
 -1      4043 8.89426E-03 4.66128E-04-5.01798E-03
 -1      4044 8.89427E-03 4.66129E-04-5.04203E-03
 -1      4045 8.89427E-03 4.66129E-04-5.06607E-03
 -1      4046 8.89427E-03 4.66129E-04-5.09011E-03
 -1      4047 8.89427E-03 4.66129E-04-5.11416E-03
 -1      4048 8.89427E-03 4.66129E-04-5.13820E-03
 -1      4049 8.89427E-03 4.66129E-04-5.16224E-03
 -1      4050 8.89427E-03 4.66129E-04-5.18629E-03
 -1      4051 8.89427E-03 4.66129E-04-5.21033E-03
 -1      4052 8.89426E-03 4.66128E-04-5.23437E-03
 -1      4053 8.85768E-03 9.30979E-04-5.01798E-03
 -1      4054 8.85768E-03 9.30980E-04-5.04203E-03
 -1      4055 8.85769E-03 9.30980E-04-5.06607E-03
 -1      4056 8.85769E-03 9.30981E-04-5.09011E-03
 -1      4057 8.85769E-03 9.30981E-04-5.11416E-03
 -1      4058 8.85769E-03 9.30981E-04-5.13820E-03
 -1      4059 8.85769E-03 9.30981E-04-5.16224E-03
 -1      4060 8.85769E-03 9.30980E-04-5.18629E-03
 -1      4061 8.85768E-03 9.30980E-04-5.21033E-03
 -1      4062 8.85768E-03 9.30979E-04-5.23437E-03
 -1      4063 8.79681E-03 1.39328E-03-5.01798E-03
 -1      4064 8.79682E-03 1.39328E-03-5.04203E-03
 -1      4065 8.79682E-03 1.39328E-03-5.06607E-03
 -1      4066 8.79683E-03 1.39328E-03-5.09011E-03
 -1      4067 8.79683E-03 1.39328E-03-5.11416E-03
 -1      4068 8.79683E-03 1.39328E-03-5.13820E-03
 -1      4069 8.79683E-03 1.39328E-03-5.16224E-03
 -1      4070 8.79682E-03 1.39328E-03-5.18629E-03
 -1      4071 8.79682E-03 1.39328E-03-5.21033E-03
 -1      4072 8.79681E-03 1.39328E-03-5.23437E-03
 -1      4073 8.71184E-03 1.85176E-03-5.01798E-03
 -1      4074 8.71184E-03 1.85176E-03-5.04203E-03
 -1      4075 8.71185E-03 1.85176E-03-5.06607E-03
 -1      4076 8.71185E-03 1.85176E-03-5.09011E-03
 -1      4077 8.71185E-03 1.85176E-03-5.11416E-03
 -1      4078 8.71185E-03 1.85176E-03-5.13820E-03
 -1      4079 8.71185E-03 1.85176E-03-5.16224E-03
 -1      4080 8.71185E-03 1.85176E-03-5.18629E-03
 -1      4081 8.71184E-03 1.85176E-03-5.21033E-03
 -1      4082 8.71184E-03 1.85176E-03-5.23437E-03
 -1      4083 8.60299E-03 2.30516E-03-5.01798E-03
 -1      4084 8.60299E-03 2.30516E-03-5.04203E-03
 -1      4085 8.60300E-03 2.30517E-03-5.06607E-03
 -1      4086 8.60300E-03 2.30517E-03-5.09011E-03
 -1      4087 8.60300E-03 2.30517E-03-5.11416E-03
 -1      4088 8.60300E-03 2.30517E-03-5.13820E-03
 -1      4089 8.60300E-03 2.30517E-03-5.16224E-03
 -1      4090 8.60300E-03 2.30517E-03-5.18629E-03
 -1      4091 8.60299E-03 2.30516E-03-5.21033E-03
 -1      4092 8.60299E-03 2.30516E-03-5.23437E-03
 -1      4093 8.47055E-03 2.75225E-03-5.01798E-03
 -1      4094 8.47056E-03 2.75225E-03-5.04203E-03
 -1      4095 8.47056E-03 2.75225E-03-5.06607E-03
 -1      4096 8.47057E-03 2.75225E-03-5.09011E-03
 -1      4097 8.47057E-03 2.75225E-03-5.11416E-03
 -1      4098 8.47057E-03 2.75225E-03-5.13820E-03
 -1      4099 8.47057E-03 2.75225E-03-5.16224E-03
 -1      4100 8.47056E-03 2.75225E-03-5.18629E-03
 -1      4101 8.47056E-03 2.75225E-03-5.21033E-03
 -1      4102 8.47055E-03 2.75225E-03-5.23437E-03
 -1      4103 8.31490E-03 3.19179E-03-5.01798E-03
 -1      4104 8.31491E-03 3.19179E-03-5.04203E-03
 -1      4105 8.31491E-03 3.19180E-03-5.06607E-03
 -1      4106 8.31492E-03 3.19180E-03-5.09011E-03
 -1      4107 8.31492E-03 3.19180E-03-5.11416E-03
 -1      4108 8.31492E-03 3.19180E-03-5.13820E-03
 -1      4109 8.31492E-03 3.19180E-03-5.16224E-03
 -1      4110 8.31491E-03 3.19180E-03-5.18629E-03
 -1      4111 8.31491E-03 3.19179E-03-5.21033E-03
 -1      4112 8.31490E-03 3.19179E-03-5.23437E-03
 -1      4113 8.13646E-03 3.62259E-03-5.01798E-03
 -1      4114 8.13647E-03 3.62259E-03-5.04203E-03
 -1      4115 8.13647E-03 3.62259E-03-5.06607E-03
 -1      4116 8.13647E-03 3.62259E-03-5.09011E-03
 -1      4117 8.13648E-03 3.62259E-03-5.11416E-03
 -1      4118 8.13648E-03 3.62259E-03-5.13820E-03
 -1      4119 8.13647E-03 3.62259E-03-5.16224E-03
 -1      4120 8.13647E-03 3.62259E-03-5.18629E-03
 -1      4121 8.13647E-03 3.62259E-03-5.21033E-03
 -1      4122 8.13646E-03 3.62259E-03-5.23437E-03
 -1      4123 7.93572E-03 4.04345E-03-5.01798E-03
 -1      4124 7.93573E-03 4.04345E-03-5.04203E-03
 -1      4125 7.93573E-03 4.04346E-03-5.06607E-03
 -1      4126 7.93573E-03 4.04346E-03-5.09011E-03
 -1      4127 7.93573E-03 4.04346E-03-5.11416E-03
 -1      4128 7.93573E-03 4.04346E-03-5.13820E-03
 -1      4129 7.93573E-03 4.04346E-03-5.16224E-03
 -1      4130 7.93573E-03 4.04346E-03-5.18629E-03
 -1      4131 7.93573E-03 4.04345E-03-5.21033E-03
 -1      4132 7.93572E-03 4.04345E-03-5.23437E-03
 -1      4133 7.71323E-03 4.45323E-03-5.01798E-03
 -1      4134 7.71323E-03 4.45324E-03-5.04203E-03
 -1      4135 7.71324E-03 4.45324E-03-5.06607E-03
 -1      4136 7.71324E-03 4.45324E-03-5.09011E-03
 -1      4137 7.71324E-03 4.45324E-03-5.11416E-03
 -1      4138 7.71324E-03 4.45324E-03-5.13820E-03
 -1      4139 7.71324E-03 4.45324E-03-5.16224E-03
 -1      4140 7.71324E-03 4.45324E-03-5.18629E-03
 -1      4141 7.71323E-03 4.45324E-03-5.21033E-03
 -1      4142 7.71323E-03 4.45323E-03-5.23437E-03
 -1      4143 7.46959E-03 4.85081E-03-5.01798E-03
 -1      4144 7.46960E-03 4.85081E-03-5.04203E-03
 -1      4145 7.46960E-03 4.85082E-03-5.06607E-03
 -1      4146 7.46960E-03 4.85082E-03-5.09011E-03
 -1      4147 7.46960E-03 4.85082E-03-5.11416E-03
 -1      4148 7.46960E-03 4.85082E-03-5.13820E-03
 -1      4149 7.46960E-03 4.85082E-03-5.16224E-03
 -1      4150 7.46960E-03 4.85082E-03-5.18629E-03
 -1      4151 7.46960E-03 4.85081E-03-5.21033E-03
 -1      4152 7.46959E-03 4.85081E-03-5.23437E-03
 -1      4153 7.20548E-03 5.23509E-03-5.01798E-03
 -1      4154 7.20549E-03 5.23509E-03-5.04203E-03
 -1      4155 7.20549E-03 5.23510E-03-5.06607E-03
 -1      4156 7.20549E-03 5.23510E-03-5.09011E-03
 -1      4157 7.20549E-03 5.23510E-03-5.11416E-03
 -1      4158 7.20549E-03 5.23510E-03-5.13820E-03
 -1      4159 7.20549E-03 5.23510E-03-5.16224E-03
 -1      4160 7.20549E-03 5.23510E-03-5.18629E-03
 -1      4161 7.20549E-03 5.23509E-03-5.21033E-03
 -1      4162 7.20548E-03 5.23509E-03-5.23437E-03
 -1      4163 6.92162E-03 5.60502E-03-5.01798E-03
 -1      4164 6.92163E-03 5.60502E-03-5.04203E-03
 -1      4165 6.92163E-03 5.60503E-03-5.06607E-03
 -1      4166 6.92163E-03 5.60503E-03-5.09011E-03
 -1      4167 6.92164E-03 5.60503E-03-5.11416E-03
 -1      4168 6.92164E-03 5.60503E-03-5.13820E-03
 -1      4169 6.92163E-03 5.60503E-03-5.16224E-03
 -1      4170 6.92163E-03 5.60503E-03-5.18629E-03
 -1      4171 6.92163E-03 5.60502E-03-5.21033E-03
 -1      4172 6.92162E-03 5.60502E-03-5.23437E-03
 -1      4173 6.61879E-03 5.95959E-03-5.01798E-03
 -1      4174 6.61880E-03 5.95959E-03-5.04203E-03
 -1      4175 6.61880E-03 5.95960E-03-5.06607E-03
 -1      4176 6.61880E-03 5.95960E-03-5.09011E-03
 -1      4177 6.61881E-03 5.95960E-03-5.11416E-03
 -1      4178 6.61881E-03 5.95960E-03-5.13820E-03
 -1      4179 6.61880E-03 5.95960E-03-5.16224E-03
 -1      4180 6.61880E-03 5.95960E-03-5.18629E-03
 -1      4181 6.61880E-03 5.95959E-03-5.21033E-03
 -1      4182 6.61879E-03 5.95959E-03-5.23437E-03
 -1      4183 6.29782E-03 6.29782E-03-5.01798E-03
 -1      4184 6.29783E-03 6.29783E-03-5.04203E-03
 -1      4185 6.29783E-03 6.29783E-03-5.06607E-03
 -1      4186 6.29783E-03 6.29783E-03-5.09011E-03
 -1      4187 6.29783E-03 6.29783E-03-5.11416E-03
 -1      4188 6.29783E-03 6.29783E-03-5.13820E-03
 -1      4189 6.29783E-03 6.29783E-03-5.16224E-03
 -1      4190 6.29783E-03 6.29783E-03-5.18629E-03
 -1      4191 6.29783E-03 6.29783E-03-5.21033E-03
 -1      4192 6.29782E-03 6.29782E-03-5.23437E-03
 -1      4193 5.95959E-03 6.61879E-03-5.01798E-03
 -1      4194 5.95959E-03 6.61880E-03-5.04203E-03
 -1      4195 5.95960E-03 6.61880E-03-5.06607E-03
 -1      4196 5.95960E-03 6.61880E-03-5.09011E-03
 -1      4197 5.95960E-03 6.61881E-03-5.11416E-03
 -1      4198 5.95960E-03 6.61881E-03-5.13820E-03
 -1      4199 5.95960E-03 6.61880E-03-5.16224E-03
 -1      4200 5.95960E-03 6.61880E-03-5.18629E-03
 -1      4201 5.95959E-03 6.61880E-03-5.21033E-03
 -1      4202 5.95959E-03 6.61879E-03-5.23437E-03
 -1      4203 5.60502E-03 6.92162E-03-5.01798E-03
 -1      4204 5.60502E-03 6.92163E-03-5.04203E-03
 -1      4205 5.60503E-03 6.92163E-03-5.06607E-03
 -1      4206 5.60503E-03 6.92163E-03-5.09011E-03
 -1      4207 5.60503E-03 6.92164E-03-5.11416E-03
 -1      4208 5.60503E-03 6.92164E-03-5.13820E-03
 -1      4209 5.60503E-03 6.92163E-03-5.16224E-03
 -1      4210 5.60503E-03 6.92163E-03-5.18629E-03
 -1      4211 5.60502E-03 6.92163E-03-5.21033E-03
 -1      4212 5.60502E-03 6.92162E-03-5.23437E-03
 -1      4213 5.23509E-03 7.20548E-03-5.01798E-03
 -1      4214 5.23509E-03 7.20549E-03-5.04203E-03
 -1      4215 5.23510E-03 7.20549E-03-5.06607E-03
 -1      4216 5.23510E-03 7.20549E-03-5.09011E-03
 -1      4217 5.23510E-03 7.20549E-03-5.11416E-03
 -1      4218 5.23510E-03 7.20549E-03-5.13820E-03
 -1      4219 5.23510E-03 7.20549E-03-5.16224E-03
 -1      4220 5.23510E-03 7.20549E-03-5.18629E-03
 -1      4221 5.23509E-03 7.20549E-03-5.21033E-03
 -1      4222 5.23509E-03 7.20548E-03-5.23437E-03
 -1      4223 4.85081E-03 7.46959E-03-5.01798E-03
 -1      4224 4.85081E-03 7.46960E-03-5.04203E-03
 -1      4225 4.85082E-03 7.46960E-03-5.06607E-03
 -1      4226 4.85082E-03 7.46960E-03-5.09011E-03
 -1      4227 4.85082E-03 7.46960E-03-5.11416E-03
 -1      4228 4.85082E-03 7.46960E-03-5.13820E-03
 -1      4229 4.85082E-03 7.46960E-03-5.16224E-03
 -1      4230 4.85082E-03 7.46960E-03-5.18629E-03
 -1      4231 4.85081E-03 7.46960E-03-5.21033E-03
 -1      4232 4.85081E-03 7.46959E-03-5.23437E-03
 -1      4233 4.45323E-03 7.71323E-03-5.01798E-03
 -1      4234 4.45324E-03 7.71323E-03-5.04203E-03
 -1      4235 4.45324E-03 7.71324E-03-5.06607E-03
 -1      4236 4.45324E-03 7.71324E-03-5.09011E-03
 -1      4237 4.45324E-03 7.71324E-03-5.11416E-03
 -1      4238 4.45324E-03 7.71324E-03-5.13820E-03
 -1      4239 4.45324E-03 7.71324E-03-5.16224E-03
 -1      4240 4.45324E-03 7.71324E-03-5.18629E-03
 -1      4241 4.45324E-03 7.71323E-03-5.21033E-03
 -1      4242 4.45323E-03 7.71323E-03-5.23437E-03
 -1      4243 4.04345E-03 7.93572E-03-5.01798E-03
 -1      4244 4.04345E-03 7.93573E-03-5.04203E-03
 -1      4245 4.04346E-03 7.93573E-03-5.06607E-03
 -1      4246 4.04346E-03 7.93573E-03-5.09011E-03
 -1      4247 4.04346E-03 7.93573E-03-5.11416E-03
 -1      4248 4.04346E-03 7.93573E-03-5.13820E-03
 -1      4249 4.04346E-03 7.93573E-03-5.16224E-03
 -1      4250 4.04346E-03 7.93573E-03-5.18629E-03
 -1      4251 4.04345E-03 7.93573E-03-5.21033E-03
 -1      4252 4.04345E-03 7.93572E-03-5.23437E-03
 -1      4253 3.62259E-03 8.13646E-03-5.01798E-03
 -1      4254 3.62259E-03 8.13647E-03-5.04203E-03
 -1      4255 3.62259E-03 8.13647E-03-5.06607E-03
 -1      4256 3.62259E-03 8.13647E-03-5.09011E-03
 -1      4257 3.62259E-03 8.13648E-03-5.11416E-03
 -1      4258 3.62259E-03 8.13648E-03-5.13820E-03
 -1      4259 3.62259E-03 8.13647E-03-5.16224E-03
 -1      4260 3.62259E-03 8.13647E-03-5.18629E-03
 -1      4261 3.62259E-03 8.13647E-03-5.21033E-03
 -1      4262 3.62259E-03 8.13646E-03-5.23437E-03
 -1      4263 3.19179E-03 8.31490E-03-5.01798E-03
 -1      4264 3.19179E-03 8.31491E-03-5.04203E-03
 -1      4265 3.19180E-03 8.31491E-03-5.06607E-03
 -1      4266 3.19180E-03 8.31492E-03-5.09011E-03
 -1      4267 3.19180E-03 8.31492E-03-5.11416E-03
 -1      4268 3.19180E-03 8.31492E-03-5.13820E-03
 -1      4269 3.19180E-03 8.31492E-03-5.16224E-03
 -1      4270 3.19180E-03 8.31491E-03-5.18629E-03
 -1      4271 3.19179E-03 8.31491E-03-5.21033E-03
 -1      4272 3.19179E-03 8.31490E-03-5.23437E-03
 -1      4273 2.75225E-03 8.47055E-03-5.01798E-03
 -1      4274 2.75225E-03 8.47056E-03-5.04203E-03
 -1      4275 2.75225E-03 8.47056E-03-5.06607E-03
 -1      4276 2.75225E-03 8.47057E-03-5.09011E-03
 -1      4277 2.75225E-03 8.47057E-03-5.11416E-03
 -1      4278 2.75225E-03 8.47057E-03-5.13820E-03
 -1      4279 2.75225E-03 8.47057E-03-5.16224E-03
 -1      4280 2.75225E-03 8.47056E-03-5.18629E-03
 -1      4281 2.75225E-03 8.47056E-03-5.21033E-03
 -1      4282 2.75225E-03 8.47055E-03-5.23437E-03
 -1      4283 2.30516E-03 8.60299E-03-5.01798E-03
 -1      4284 2.30516E-03 8.60299E-03-5.04203E-03
 -1      4285 2.30517E-03 8.60300E-03-5.06607E-03
 -1      4286 2.30517E-03 8.60300E-03-5.09011E-03
 -1      4287 2.30517E-03 8.60300E-03-5.11416E-03
 -1      4288 2.30517E-03 8.60300E-03-5.13820E-03
 -1      4289 2.30517E-03 8.60300E-03-5.16224E-03
 -1      4290 2.30517E-03 8.60300E-03-5.18629E-03
 -1      4291 2.30516E-03 8.60299E-03-5.21033E-03
 -1      4292 2.30516E-03 8.60299E-03-5.23437E-03
 -1      4293 1.85176E-03 8.71184E-03-5.01798E-03
 -1      4294 1.85176E-03 8.71184E-03-5.04203E-03
 -1      4295 1.85176E-03 8.71185E-03-5.06607E-03
 -1      4296 1.85176E-03 8.71185E-03-5.09011E-03
 -1      4297 1.85176E-03 8.71185E-03-5.11416E-03
 -1      4298 1.85176E-03 8.71185E-03-5.13820E-03
 -1      4299 1.85176E-03 8.71185E-03-5.16224E-03
 -1      4300 1.85176E-03 8.71185E-03-5.18629E-03
 -1      4301 1.85176E-03 8.71184E-03-5.21033E-03
 -1      4302 1.85176E-03 8.71184E-03-5.23437E-03
 -1      4303 1.39328E-03 8.79681E-03-5.01798E-03
 -1      4304 1.39328E-03 8.79682E-03-5.04203E-03
 -1      4305 1.39328E-03 8.79682E-03-5.06607E-03
 -1      4306 1.39328E-03 8.79683E-03-5.09011E-03
 -1      4307 1.39328E-03 8.79683E-03-5.11416E-03
 -1      4308 1.39328E-03 8.79683E-03-5.13820E-03
 -1      4309 1.39328E-03 8.79683E-03-5.16224E-03
 -1      4310 1.39328E-03 8.79682E-03-5.18629E-03
 -1      4311 1.39328E-03 8.79682E-03-5.21033E-03
 -1      4312 1.39328E-03 8.79681E-03-5.23437E-03
 -1      4313 9.30979E-04 8.85768E-03-5.01798E-03
 -1      4314 9.30980E-04 8.85768E-03-5.04203E-03
 -1      4315 9.30980E-04 8.85769E-03-5.06607E-03
 -1      4316 9.30981E-04 8.85769E-03-5.09011E-03
 -1      4317 9.30981E-04 8.85769E-03-5.11416E-03
 -1      4318 9.30981E-04 8.85769E-03-5.13820E-03
 -1      4319 9.30981E-04 8.85769E-03-5.16224E-03
 -1      4320 9.30980E-04 8.85769E-03-5.18629E-03
 -1      4321 9.30980E-04 8.85768E-03-5.21033E-03
 -1      4322 9.30979E-04 8.85768E-03-5.23437E-03
 -1      4323 4.66128E-04 8.89426E-03-5.01798E-03
 -1      4324 4.66129E-04 8.89427E-03-5.04203E-03
 -1      4325 4.66129E-04 8.89427E-03-5.06607E-03
 -1      4326 4.66129E-04 8.89427E-03-5.09011E-03
 -1      4327 4.66129E-04 8.89427E-03-5.11416E-03
 -1      4328 4.66129E-04 8.89427E-03-5.13820E-03
 -1      4329 4.66129E-04 8.89427E-03-5.16224E-03
 -1      4330 4.66129E-04 8.89427E-03-5.18629E-03
 -1      4331 4.66129E-04 8.89427E-03-5.21033E-03
 -1      4332 4.66128E-04 8.89426E-03-5.23437E-03
 -1      4333 8.88672E-03 4.65733E-04-5.01798E-03
 -1      4334 8.88673E-03 4.65734E-04-5.04203E-03
 -1      4335 8.88673E-03 4.65734E-04-5.06607E-03
 -1      4336 8.88674E-03 4.65734E-04-5.09011E-03
 -1      4337 8.88674E-03 4.65734E-04-5.11416E-03
 -1      4338 8.88674E-03 4.65734E-04-5.13820E-03
 -1      4339 8.88674E-03 4.65734E-04-5.16224E-03
 -1      4340 8.88673E-03 4.65734E-04-5.18629E-03
 -1      4341 8.88673E-03 4.65734E-04-5.21033E-03
 -1      4342 8.88672E-03 4.65733E-04-5.23437E-03
 -1      4343 8.85017E-03 9.30190E-04-5.01798E-03
 -1      4344 8.85018E-03 9.30191E-04-5.04203E-03
 -1      4345 8.85018E-03 9.30191E-04-5.06607E-03
 -1      4346 8.85018E-03 9.30192E-04-5.09011E-03
 -1      4347 8.85018E-03 9.30192E-04-5.11416E-03
 -1      4348 8.85018E-03 9.30192E-04-5.13820E-03
 -1      4349 8.85018E-03 9.30192E-04-5.16224E-03
 -1      4350 8.85018E-03 9.30191E-04-5.18629E-03
 -1      4351 8.85018E-03 9.30191E-04-5.21033E-03
 -1      4352 8.85017E-03 9.30190E-04-5.23437E-03
 -1      4353 8.78936E-03 1.39210E-03-5.01798E-03
 -1      4354 8.78937E-03 1.39210E-03-5.04203E-03
 -1      4355 8.78937E-03 1.39210E-03-5.06607E-03
 -1      4356 8.78937E-03 1.39210E-03-5.09011E-03
 -1      4357 8.78937E-03 1.39210E-03-5.11416E-03
 -1      4358 8.78937E-03 1.39210E-03-5.13820E-03
 -1      4359 8.78937E-03 1.39210E-03-5.16224E-03
 -1      4360 8.78937E-03 1.39210E-03-5.18629E-03
 -1      4361 8.78937E-03 1.39210E-03-5.21033E-03
 -1      4362 8.78936E-03 1.39210E-03-5.23437E-03
 -1      4363 8.70446E-03 1.85019E-03-5.01798E-03
 -1      4364 8.70446E-03 1.85019E-03-5.04203E-03
 -1      4365 8.70447E-03 1.85019E-03-5.06607E-03
 -1      4366 8.70447E-03 1.85019E-03-5.09011E-03
 -1      4367 8.70447E-03 1.85019E-03-5.11416E-03
 -1      4368 8.70447E-03 1.85019E-03-5.13820E-03
 -1      4369 8.70447E-03 1.85019E-03-5.16224E-03
 -1      4370 8.70447E-03 1.85019E-03-5.18629E-03
 -1      4371 8.70446E-03 1.85019E-03-5.21033E-03
 -1      4372 8.70446E-03 1.85019E-03-5.23437E-03
 -1      4373 8.59570E-03 2.30321E-03-5.01798E-03
 -1      4374 8.59570E-03 2.30321E-03-5.04203E-03
 -1      4375 8.59571E-03 2.30321E-03-5.06607E-03
 -1      4376 8.59571E-03 2.30321E-03-5.09011E-03
 -1      4377 8.59571E-03 2.30321E-03-5.11416E-03
 -1      4378 8.59571E-03 2.30321E-03-5.13820E-03
 -1      4379 8.59571E-03 2.30321E-03-5.16224E-03
 -1      4380 8.59571E-03 2.30321E-03-5.18629E-03
 -1      4381 8.59570E-03 2.30321E-03-5.21033E-03
 -1      4382 8.59570E-03 2.30321E-03-5.23437E-03
 -1      4383 8.46338E-03 2.74992E-03-5.01798E-03
 -1      4384 8.46338E-03 2.74992E-03-5.04203E-03
 -1      4385 8.46339E-03 2.74992E-03-5.06607E-03
 -1      4386 8.46339E-03 2.74992E-03-5.09011E-03
 -1      4387 8.46339E-03 2.74992E-03-5.11416E-03
 -1      4388 8.46339E-03 2.74992E-03-5.13820E-03
 -1      4389 8.46339E-03 2.74992E-03-5.16224E-03
 -1      4390 8.46339E-03 2.74992E-03-5.18629E-03
 -1      4391 8.46338E-03 2.74992E-03-5.21033E-03
 -1      4392 8.46338E-03 2.74992E-03-5.23437E-03
 -1      4393 8.30786E-03 3.18909E-03-5.01798E-03
 -1      4394 8.30786E-03 3.18909E-03-5.04203E-03
 -1      4395 8.30787E-03 3.18909E-03-5.06607E-03
 -1      4396 8.30787E-03 3.18909E-03-5.09011E-03
 -1      4397 8.30787E-03 3.18909E-03-5.11416E-03
 -1      4398 8.30787E-03 3.18909E-03-5.13820E-03
 -1      4399 8.30787E-03 3.18909E-03-5.16224E-03
 -1      4400 8.30787E-03 3.18909E-03-5.18629E-03
 -1      4401 8.30786E-03 3.18909E-03-5.21033E-03
 -1      4402 8.30786E-03 3.18909E-03-5.23437E-03
 -1      4403 8.12957E-03 3.61952E-03-5.01798E-03
 -1      4404 8.12957E-03 3.61952E-03-5.04203E-03
 -1      4405 8.12958E-03 3.61952E-03-5.06607E-03
 -1      4406 8.12958E-03 3.61952E-03-5.09011E-03
 -1      4407 8.12958E-03 3.61952E-03-5.11416E-03
 -1      4408 8.12958E-03 3.61952E-03-5.13820E-03
 -1      4409 8.12958E-03 3.61952E-03-5.16224E-03
 -1      4410 8.12958E-03 3.61952E-03-5.18629E-03
 -1      4411 8.12957E-03 3.61952E-03-5.21033E-03
 -1      4412 8.12957E-03 3.61952E-03-5.23437E-03
 -1      4413 7.92900E-03 4.04002E-03-5.01798E-03
 -1      4414 7.92900E-03 4.04003E-03-5.04203E-03
 -1      4415 7.92900E-03 4.04003E-03-5.06607E-03
 -1      4416 7.92901E-03 4.04003E-03-5.09011E-03
 -1      4417 7.92901E-03 4.04003E-03-5.11416E-03
 -1      4418 7.92901E-03 4.04003E-03-5.13820E-03
 -1      4419 7.92901E-03 4.04003E-03-5.16224E-03
 -1      4420 7.92900E-03 4.04003E-03-5.18629E-03
 -1      4421 7.92900E-03 4.04003E-03-5.21033E-03
 -1      4422 7.92900E-03 4.04002E-03-5.23437E-03
 -1      4423 7.70669E-03 4.44946E-03-5.01798E-03
 -1      4424 7.70670E-03 4.44946E-03-5.04203E-03
 -1      4425 7.70670E-03 4.44946E-03-5.06607E-03
 -1      4426 7.70670E-03 4.44947E-03-5.09011E-03
 -1      4427 7.70670E-03 4.44947E-03-5.11416E-03
 -1      4428 7.70670E-03 4.44947E-03-5.13820E-03
 -1      4429 7.70670E-03 4.44947E-03-5.16224E-03
 -1      4430 7.70670E-03 4.44946E-03-5.18629E-03
 -1      4431 7.70670E-03 4.44946E-03-5.21033E-03
 -1      4432 7.70669E-03 4.44946E-03-5.23437E-03
 -1      4433 7.46326E-03 4.84670E-03-5.01798E-03
 -1      4434 7.46327E-03 4.84670E-03-5.04203E-03
 -1      4435 7.46327E-03 4.84670E-03-5.06607E-03
 -1      4436 7.46327E-03 4.84671E-03-5.09011E-03
 -1      4437 7.46327E-03 4.84671E-03-5.11416E-03
 -1      4438 7.46327E-03 4.84671E-03-5.13820E-03
 -1      4439 7.46327E-03 4.84671E-03-5.16224E-03
 -1      4440 7.46327E-03 4.84670E-03-5.18629E-03
 -1      4441 7.46327E-03 4.84670E-03-5.21033E-03
 -1      4442 7.46326E-03 4.84670E-03-5.23437E-03
 -1      4443 7.19938E-03 5.23065E-03-5.01798E-03
 -1      4444 7.19938E-03 5.23066E-03-5.04203E-03
 -1      4445 7.19939E-03 5.23066E-03-5.06607E-03
 -1      4446 7.19939E-03 5.23066E-03-5.09011E-03
 -1      4447 7.19939E-03 5.23066E-03-5.11416E-03
 -1      4448 7.19939E-03 5.23066E-03-5.13820E-03
 -1      4449 7.19939E-03 5.23066E-03-5.16224E-03
 -1      4450 7.19939E-03 5.23066E-03-5.18629E-03
 -1      4451 7.19938E-03 5.23066E-03-5.21033E-03
 -1      4452 7.19938E-03 5.23065E-03-5.23437E-03
 -1      4453 6.91576E-03 5.60027E-03-5.01798E-03
 -1      4454 6.91576E-03 5.60028E-03-5.04203E-03
 -1      4455 6.91577E-03 5.60028E-03-5.06607E-03
 -1      4456 6.91577E-03 5.60028E-03-5.09011E-03
 -1      4457 6.91577E-03 5.60028E-03-5.11416E-03
 -1      4458 6.91577E-03 5.60028E-03-5.13820E-03
 -1      4459 6.91577E-03 5.60028E-03-5.16224E-03
 -1      4460 6.91577E-03 5.60028E-03-5.18629E-03
 -1      4461 6.91576E-03 5.60028E-03-5.21033E-03
 -1      4462 6.91576E-03 5.60027E-03-5.23437E-03
 -1      4463 6.61319E-03 5.95454E-03-5.01798E-03
 -1      4464 6.61319E-03 5.95454E-03-5.04203E-03
 -1      4465 6.61319E-03 5.95455E-03-5.06607E-03
 -1      4466 6.61320E-03 5.95455E-03-5.09011E-03
 -1      4467 6.61320E-03 5.95455E-03-5.11416E-03
 -1      4468 6.61320E-03 5.95455E-03-5.13820E-03
 -1      4469 6.61320E-03 5.95455E-03-5.16224E-03
 -1      4470 6.61319E-03 5.95455E-03-5.18629E-03
 -1      4471 6.61319E-03 5.95454E-03-5.21033E-03
 -1      4472 6.61319E-03 5.95454E-03-5.23437E-03
 -1      4473 6.29249E-03 6.29249E-03-5.01798E-03
 -1      4474 6.29249E-03 6.29249E-03-5.04203E-03
 -1      4475 6.29249E-03 6.29249E-03-5.06607E-03
 -1      4476 6.29250E-03 6.29250E-03-5.09011E-03
 -1      4477 6.29250E-03 6.29250E-03-5.11416E-03
 -1      4478 6.29250E-03 6.29250E-03-5.13820E-03
 -1      4479 6.29250E-03 6.29250E-03-5.16224E-03
 -1      4480 6.29249E-03 6.29249E-03-5.18629E-03
 -1      4481 6.29249E-03 6.29249E-03-5.21033E-03
 -1      4482 6.29249E-03 6.29249E-03-5.23437E-03
 -1      4483 5.95454E-03 6.61319E-03-5.01798E-03
 -1      4484 5.95454E-03 6.61319E-03-5.04203E-03
 -1      4485 5.95455E-03 6.61319E-03-5.06607E-03
 -1      4486 5.95455E-03 6.61320E-03-5.09011E-03
 -1      4487 5.95455E-03 6.61320E-03-5.11416E-03
 -1      4488 5.95455E-03 6.61320E-03-5.13820E-03
 -1      4489 5.95455E-03 6.61320E-03-5.16224E-03
 -1      4490 5.95455E-03 6.61319E-03-5.18629E-03
 -1      4491 5.95454E-03 6.61319E-03-5.21033E-03
 -1      4492 5.95454E-03 6.61319E-03-5.23437E-03
 -1      4493 5.60027E-03 6.91576E-03-5.01798E-03
 -1      4494 5.60028E-03 6.91576E-03-5.04203E-03
 -1      4495 5.60028E-03 6.91577E-03-5.06607E-03
 -1      4496 5.60028E-03 6.91577E-03-5.09011E-03
 -1      4497 5.60028E-03 6.91577E-03-5.11416E-03
 -1      4498 5.60028E-03 6.91577E-03-5.13820E-03
 -1      4499 5.60028E-03 6.91577E-03-5.16224E-03
 -1      4500 5.60028E-03 6.91577E-03-5.18629E-03
 -1      4501 5.60028E-03 6.91576E-03-5.21033E-03
 -1      4502 5.60027E-03 6.91576E-03-5.23437E-03
 -1      4503 5.23065E-03 7.19938E-03-5.01798E-03
 -1      4504 5.23066E-03 7.19938E-03-5.04203E-03
 -1      4505 5.23066E-03 7.19939E-03-5.06607E-03
 -1      4506 5.23066E-03 7.19939E-03-5.09011E-03
 -1      4507 5.23066E-03 7.19939E-03-5.11416E-03
 -1      4508 5.23066E-03 7.19939E-03-5.13820E-03
 -1      4509 5.23066E-03 7.19939E-03-5.16224E-03
 -1      4510 5.23066E-03 7.19939E-03-5.18629E-03
 -1      4511 5.23066E-03 7.19938E-03-5.21033E-03
 -1      4512 5.23065E-03 7.19938E-03-5.23437E-03
 -1      4513 4.84670E-03 7.46326E-03-5.01798E-03
 -1      4514 4.84670E-03 7.46327E-03-5.04203E-03
 -1      4515 4.84670E-03 7.46327E-03-5.06607E-03
 -1      4516 4.84671E-03 7.46327E-03-5.09011E-03
 -1      4517 4.84671E-03 7.46327E-03-5.11416E-03
 -1      4518 4.84671E-03 7.46327E-03-5.13820E-03
 -1      4519 4.84671E-03 7.46327E-03-5.16224E-03
 -1      4520 4.84670E-03 7.46327E-03-5.18629E-03
 -1      4521 4.84670E-03 7.46327E-03-5.21033E-03
 -1      4522 4.84670E-03 7.46326E-03-5.23437E-03
 -1      4523 4.44946E-03 7.70669E-03-5.01798E-03
 -1      4524 4.44946E-03 7.70670E-03-5.04203E-03
 -1      4525 4.44946E-03 7.70670E-03-5.06607E-03
 -1      4526 4.44947E-03 7.70670E-03-5.09011E-03
 -1      4527 4.44947E-03 7.70670E-03-5.11416E-03
 -1      4528 4.44947E-03 7.70670E-03-5.13820E-03
 -1      4529 4.44947E-03 7.70670E-03-5.16224E-03
 -1      4530 4.44946E-03 7.70670E-03-5.18629E-03
 -1      4531 4.44946E-03 7.70670E-03-5.21033E-03
 -1      4532 4.44946E-03 7.70669E-03-5.23437E-03
 -1      4533 4.04002E-03 7.92900E-03-5.01798E-03
 -1      4534 4.04003E-03 7.92900E-03-5.04203E-03
 -1      4535 4.04003E-03 7.92900E-03-5.06607E-03
 -1      4536 4.04003E-03 7.92901E-03-5.09011E-03
 -1      4537 4.04003E-03 7.92901E-03-5.11416E-03
 -1      4538 4.04003E-03 7.92901E-03-5.13820E-03
 -1      4539 4.04003E-03 7.92901E-03-5.16224E-03
 -1      4540 4.04003E-03 7.92900E-03-5.18629E-03
 -1      4541 4.04003E-03 7.92900E-03-5.21033E-03
 -1      4542 4.04002E-03 7.92900E-03-5.23437E-03
 -1      4543 3.61952E-03 8.12957E-03-5.01798E-03
 -1      4544 3.61952E-03 8.12957E-03-5.04203E-03
 -1      4545 3.61952E-03 8.12958E-03-5.06607E-03
 -1      4546 3.61952E-03 8.12958E-03-5.09011E-03
 -1      4547 3.61952E-03 8.12958E-03-5.11416E-03
 -1      4548 3.61952E-03 8.12958E-03-5.13820E-03
 -1      4549 3.61952E-03 8.12958E-03-5.16224E-03
 -1      4550 3.61952E-03 8.12958E-03-5.18629E-03
 -1      4551 3.61952E-03 8.12957E-03-5.21033E-03
 -1      4552 3.61952E-03 8.12957E-03-5.23437E-03
 -1      4553 3.18909E-03 8.30786E-03-5.01798E-03
 -1      4554 3.18909E-03 8.30786E-03-5.04203E-03
 -1      4555 3.18909E-03 8.30787E-03-5.06607E-03
 -1      4556 3.18909E-03 8.30787E-03-5.09011E-03
 -1      4557 3.18909E-03 8.30787E-03-5.11416E-03
 -1      4558 3.18909E-03 8.30787E-03-5.13820E-03
 -1      4559 3.18909E-03 8.30787E-03-5.16224E-03
 -1      4560 3.18909E-03 8.30787E-03-5.18629E-03
 -1      4561 3.18909E-03 8.30786E-03-5.21033E-03
 -1      4562 3.18909E-03 8.30786E-03-5.23437E-03
 -1      4563 2.74992E-03 8.46338E-03-5.01798E-03
 -1      4564 2.74992E-03 8.46338E-03-5.04203E-03
 -1      4565 2.74992E-03 8.46339E-03-5.06607E-03
 -1      4566 2.74992E-03 8.46339E-03-5.09011E-03
 -1      4567 2.74992E-03 8.46339E-03-5.11416E-03
 -1      4568 2.74992E-03 8.46339E-03-5.13820E-03
 -1      4569 2.74992E-03 8.46339E-03-5.16224E-03
 -1      4570 2.74992E-03 8.46339E-03-5.18629E-03
 -1      4571 2.74992E-03 8.46338E-03-5.21033E-03
 -1      4572 2.74992E-03 8.46338E-03-5.23437E-03
 -1      4573 2.30321E-03 8.59570E-03-5.01798E-03
 -1      4574 2.30321E-03 8.59570E-03-5.04203E-03
 -1      4575 2.30321E-03 8.59571E-03-5.06607E-03
 -1      4576 2.30321E-03 8.59571E-03-5.09011E-03
 -1      4577 2.30321E-03 8.59571E-03-5.11416E-03
 -1      4578 2.30321E-03 8.59571E-03-5.13820E-03
 -1      4579 2.30321E-03 8.59571E-03-5.16224E-03
 -1      4580 2.30321E-03 8.59571E-03-5.18629E-03
 -1      4581 2.30321E-03 8.59570E-03-5.21033E-03
 -1      4582 2.30321E-03 8.59570E-03-5.23437E-03
 -1      4583 1.85019E-03 8.70446E-03-5.01798E-03
 -1      4584 1.85019E-03 8.70446E-03-5.04203E-03
 -1      4585 1.85019E-03 8.70447E-03-5.06607E-03
 -1      4586 1.85019E-03 8.70447E-03-5.09011E-03
 -1      4587 1.85019E-03 8.70447E-03-5.11416E-03
 -1      4588 1.85019E-03 8.70447E-03-5.13820E-03
 -1      4589 1.85019E-03 8.70447E-03-5.16224E-03
 -1      4590 1.85019E-03 8.70447E-03-5.18629E-03
 -1      4591 1.85019E-03 8.70446E-03-5.21033E-03
 -1      4592 1.85019E-03 8.70446E-03-5.23437E-03
 -1      4593 1.39210E-03 8.78936E-03-5.01798E-03
 -1      4594 1.39210E-03 8.78937E-03-5.04203E-03
 -1      4595 1.39210E-03 8.78937E-03-5.06607E-03
 -1      4596 1.39210E-03 8.78937E-03-5.09011E-03
 -1      4597 1.39210E-03 8.78937E-03-5.11416E-03
 -1      4598 1.39210E-03 8.78937E-03-5.13820E-03
 -1      4599 1.39210E-03 8.78937E-03-5.16224E-03
 -1      4600 1.39210E-03 8.78937E-03-5.18629E-03
 -1      4601 1.39210E-03 8.78937E-03-5.21033E-03
 -1      4602 1.39210E-03 8.78936E-03-5.23437E-03
 -1      4603 9.30190E-04 8.85017E-03-5.01798E-03
 -1      4604 9.30191E-04 8.85018E-03-5.04203E-03
 -1      4605 9.30191E-04 8.85018E-03-5.06607E-03
 -1      4606 9.30192E-04 8.85018E-03-5.09011E-03
 -1      4607 9.30192E-04 8.85018E-03-5.11416E-03
 -1      4608 9.30192E-04 8.85018E-03-5.13820E-03
 -1      4609 9.30192E-04 8.85018E-03-5.16224E-03
 -1      4610 9.30191E-04 8.85018E-03-5.18629E-03
 -1      4611 9.30191E-04 8.85018E-03-5.21033E-03
 -1      4612 9.30190E-04 8.85017E-03-5.23437E-03
 -1      4613 4.65733E-04 8.88672E-03-5.01798E-03
 -1      4614 4.65734E-04 8.88673E-03-5.04203E-03
 -1      4615 4.65734E-04 8.88673E-03-5.06607E-03
 -1      4616 4.65734E-04 8.88674E-03-5.09011E-03
 -1      4617 4.65734E-04 8.88674E-03-5.11416E-03
 -1      4618 4.65734E-04 8.88674E-03-5.13820E-03
 -1      4619 4.65734E-04 8.88674E-03-5.16224E-03
 -1      4620 4.65734E-04 8.88673E-03-5.18629E-03
 -1      4621 4.65734E-04 8.88673E-03-5.21033E-03
 -1      4622 4.65733E-04 8.88672E-03-5.23437E-03
 -1      4623 8.87926E-03 4.65343E-04-5.01799E-03
 -1      4624 8.87927E-03 4.65343E-04-5.04203E-03
 -1      4625 8.87928E-03 4.65343E-04-5.06607E-03
 -1      4626 8.87928E-03 4.65343E-04-5.09011E-03
 -1      4627 8.87928E-03 4.65343E-04-5.11416E-03
 -1      4628 8.87928E-03 4.65343E-04-5.13820E-03
 -1      4629 8.87928E-03 4.65343E-04-5.16224E-03
 -1      4630 8.87928E-03 4.65343E-04-5.18629E-03
 -1      4631 8.87927E-03 4.65343E-04-5.21033E-03
 -1      4632 8.87926E-03 4.65343E-04-5.23437E-03
 -1      4633 8.84274E-03 9.29410E-04-5.01799E-03
 -1      4634 8.84275E-03 9.29410E-04-5.04203E-03
 -1      4635 8.84275E-03 9.29411E-04-5.06607E-03
 -1      4636 8.84276E-03 9.29411E-04-5.09011E-03
 -1      4637 8.84276E-03 9.29411E-04-5.11416E-03
 -1      4638 8.84276E-03 9.29411E-04-5.13820E-03
 -1      4639 8.84276E-03 9.29411E-04-5.16224E-03
 -1      4640 8.84275E-03 9.29411E-04-5.18629E-03
 -1      4641 8.84275E-03 9.29410E-04-5.21033E-03
 -1      4642 8.84274E-03 9.29410E-04-5.23437E-03
 -1      4643 8.78198E-03 1.39093E-03-5.01799E-03
 -1      4644 8.78199E-03 1.39093E-03-5.04203E-03
 -1      4645 8.78199E-03 1.39093E-03-5.06607E-03
 -1      4646 8.78199E-03 1.39093E-03-5.09011E-03
 -1      4647 8.78200E-03 1.39093E-03-5.11416E-03
 -1      4648 8.78200E-03 1.39093E-03-5.13820E-03
 -1      4649 8.78199E-03 1.39093E-03-5.16224E-03
 -1      4650 8.78199E-03 1.39093E-03-5.18629E-03
 -1      4651 8.78199E-03 1.39093E-03-5.21033E-03
 -1      4652 8.78198E-03 1.39093E-03-5.23437E-03
 -1      4653 8.69715E-03 1.84864E-03-5.01799E-03
 -1      4654 8.69716E-03 1.84864E-03-5.04203E-03
 -1      4655 8.69716E-03 1.84864E-03-5.06607E-03
 -1      4656 8.69716E-03 1.84864E-03-5.09011E-03
 -1      4657 8.69717E-03 1.84864E-03-5.11416E-03
 -1      4658 8.69717E-03 1.84864E-03-5.13820E-03
 -1      4659 8.69716E-03 1.84864E-03-5.16224E-03
 -1      4660 8.69716E-03 1.84864E-03-5.18629E-03
 -1      4661 8.69716E-03 1.84864E-03-5.21033E-03
 -1      4662 8.69715E-03 1.84864E-03-5.23437E-03
 -1      4663 8.58848E-03 2.30128E-03-5.01799E-03
 -1      4664 8.58849E-03 2.30128E-03-5.04203E-03
 -1      4665 8.58849E-03 2.30128E-03-5.06607E-03
 -1      4666 8.58849E-03 2.30128E-03-5.09011E-03
 -1      4667 8.58850E-03 2.30128E-03-5.11416E-03
 -1      4668 8.58850E-03 2.30128E-03-5.13820E-03
 -1      4669 8.58849E-03 2.30128E-03-5.16224E-03
 -1      4670 8.58849E-03 2.30128E-03-5.18629E-03
 -1      4671 8.58849E-03 2.30128E-03-5.21033E-03
 -1      4672 8.58848E-03 2.30128E-03-5.23437E-03
 -1      4673 8.45627E-03 2.74761E-03-5.01799E-03
 -1      4674 8.45628E-03 2.74761E-03-5.04203E-03
 -1      4675 8.45628E-03 2.74761E-03-5.06607E-03
 -1      4676 8.45628E-03 2.74761E-03-5.09011E-03
 -1      4677 8.45629E-03 2.74761E-03-5.11416E-03
 -1      4678 8.45629E-03 2.74761E-03-5.13820E-03
 -1      4679 8.45628E-03 2.74761E-03-5.16224E-03
 -1      4680 8.45628E-03 2.74761E-03-5.18629E-03
 -1      4681 8.45628E-03 2.74761E-03-5.21033E-03
 -1      4682 8.45627E-03 2.74761E-03-5.23437E-03
 -1      4683 8.30088E-03 3.18641E-03-5.01799E-03
 -1      4684 8.30089E-03 3.18641E-03-5.04203E-03
 -1      4685 8.30089E-03 3.18641E-03-5.06607E-03
 -1      4686 8.30090E-03 3.18642E-03-5.09011E-03
 -1      4687 8.30090E-03 3.18642E-03-5.11416E-03
 -1      4688 8.30090E-03 3.18642E-03-5.13820E-03
 -1      4689 8.30090E-03 3.18642E-03-5.16224E-03
 -1      4690 8.30089E-03 3.18641E-03-5.18629E-03
 -1      4691 8.30089E-03 3.18641E-03-5.21033E-03
 -1      4692 8.30088E-03 3.18641E-03-5.23437E-03
 -1      4693 8.12274E-03 3.61648E-03-5.01799E-03
 -1      4694 8.12275E-03 3.61648E-03-5.04203E-03
 -1      4695 8.12275E-03 3.61648E-03-5.06607E-03
 -1      4696 8.12276E-03 3.61648E-03-5.09011E-03
 -1      4697 8.12276E-03 3.61648E-03-5.11416E-03
 -1      4698 8.12276E-03 3.61648E-03-5.13820E-03
 -1      4699 8.12276E-03 3.61648E-03-5.16224E-03
 -1      4700 8.12275E-03 3.61648E-03-5.18629E-03
 -1      4701 8.12275E-03 3.61648E-03-5.21033E-03
 -1      4702 8.12274E-03 3.61648E-03-5.23437E-03
 -1      4703 7.92234E-03 4.03663E-03-5.01799E-03
 -1      4704 7.92235E-03 4.03664E-03-5.04203E-03
 -1      4705 7.92235E-03 4.03664E-03-5.06607E-03
 -1      4706 7.92235E-03 4.03664E-03-5.09011E-03
 -1      4707 7.92235E-03 4.03664E-03-5.11416E-03
 -1      4708 7.92235E-03 4.03664E-03-5.13820E-03
 -1      4709 7.92235E-03 4.03664E-03-5.16224E-03
 -1      4710 7.92235E-03 4.03664E-03-5.18629E-03
 -1      4711 7.92235E-03 4.03664E-03-5.21033E-03
 -1      4712 7.92234E-03 4.03663E-03-5.23437E-03
 -1      4713 7.70022E-03 4.44573E-03-5.01799E-03
 -1      4714 7.70023E-03 4.44573E-03-5.04203E-03
 -1      4715 7.70023E-03 4.44573E-03-5.06607E-03
 -1      4716 7.70023E-03 4.44573E-03-5.09011E-03
 -1      4717 7.70023E-03 4.44573E-03-5.11416E-03
 -1      4718 7.70023E-03 4.44573E-03-5.13820E-03
 -1      4719 7.70023E-03 4.44573E-03-5.16224E-03
 -1      4720 7.70023E-03 4.44573E-03-5.18629E-03
 -1      4721 7.70023E-03 4.44573E-03-5.21033E-03
 -1      4722 7.70022E-03 4.44573E-03-5.23437E-03
 -1      4723 7.45700E-03 4.84263E-03-5.01799E-03
 -1      4724 7.45700E-03 4.84263E-03-5.04203E-03
 -1      4725 7.45701E-03 4.84264E-03-5.06607E-03
 -1      4726 7.45701E-03 4.84264E-03-5.09011E-03
 -1      4727 7.45701E-03 4.84264E-03-5.11416E-03
 -1      4728 7.45701E-03 4.84264E-03-5.13820E-03
 -1      4729 7.45701E-03 4.84264E-03-5.16224E-03
 -1      4730 7.45701E-03 4.84264E-03-5.18629E-03
 -1      4731 7.45700E-03 4.84263E-03-5.21033E-03
 -1      4732 7.45700E-03 4.84263E-03-5.23437E-03
 -1      4733 7.19333E-03 5.22626E-03-5.01799E-03
 -1      4734 7.19334E-03 5.22627E-03-5.04203E-03
 -1      4735 7.19334E-03 5.22627E-03-5.06607E-03
 -1      4736 7.19335E-03 5.22627E-03-5.09011E-03
 -1      4737 7.19335E-03 5.22627E-03-5.11416E-03
 -1      4738 7.19335E-03 5.22627E-03-5.13820E-03
 -1      4739 7.19335E-03 5.22627E-03-5.16224E-03
 -1      4740 7.19334E-03 5.22627E-03-5.18629E-03
 -1      4741 7.19334E-03 5.22627E-03-5.21033E-03
 -1      4742 7.19333E-03 5.22626E-03-5.23437E-03
 -1      4743 6.90995E-03 5.59557E-03-5.01799E-03
 -1      4744 6.90996E-03 5.59558E-03-5.04203E-03
 -1      4745 6.90996E-03 5.59558E-03-5.06607E-03
 -1      4746 6.90997E-03 5.59558E-03-5.09011E-03
 -1      4747 6.90997E-03 5.59558E-03-5.11416E-03
 -1      4748 6.90997E-03 5.59558E-03-5.13820E-03
 -1      4749 6.90997E-03 5.59558E-03-5.16224E-03
 -1      4750 6.90996E-03 5.59558E-03-5.18629E-03
 -1      4751 6.90996E-03 5.59558E-03-5.21033E-03
 -1      4752 6.90995E-03 5.59557E-03-5.23437E-03
 -1      4753 6.60764E-03 5.94954E-03-5.01799E-03
 -1      4754 6.60764E-03 5.94955E-03-5.04203E-03
 -1      4755 6.60764E-03 5.94955E-03-5.06607E-03
 -1      4756 6.60765E-03 5.94955E-03-5.09011E-03
 -1      4757 6.60765E-03 5.94955E-03-5.11416E-03
 -1      4758 6.60765E-03 5.94955E-03-5.13820E-03
 -1      4759 6.60765E-03 5.94955E-03-5.16224E-03
 -1      4760 6.60764E-03 5.94955E-03-5.18629E-03
 -1      4761 6.60764E-03 5.94955E-03-5.21033E-03
 -1      4762 6.60764E-03 5.94954E-03-5.23437E-03
 -1      4763 6.28721E-03 6.28721E-03-5.01799E-03
 -1      4764 6.28721E-03 6.28721E-03-5.04203E-03
 -1      4765 6.28721E-03 6.28721E-03-5.06607E-03
 -1      4766 6.28721E-03 6.28721E-03-5.09011E-03
 -1      4767 6.28722E-03 6.28722E-03-5.11416E-03
 -1      4768 6.28722E-03 6.28722E-03-5.13820E-03
 -1      4769 6.28721E-03 6.28721E-03-5.16224E-03
 -1      4770 6.28721E-03 6.28721E-03-5.18629E-03
 -1      4771 6.28721E-03 6.28721E-03-5.21033E-03
 -1      4772 6.28721E-03 6.28721E-03-5.23437E-03
 -1      4773 5.94954E-03 6.60764E-03-5.01799E-03
 -1      4774 5.94955E-03 6.60764E-03-5.04203E-03
 -1      4775 5.94955E-03 6.60764E-03-5.06607E-03
 -1      4776 5.94955E-03 6.60765E-03-5.09011E-03
 -1      4777 5.94955E-03 6.60765E-03-5.11416E-03
 -1      4778 5.94955E-03 6.60765E-03-5.13820E-03
 -1      4779 5.94955E-03 6.60765E-03-5.16224E-03
 -1      4780 5.94955E-03 6.60764E-03-5.18629E-03
 -1      4781 5.94955E-03 6.60764E-03-5.21033E-03
 -1      4782 5.94954E-03 6.60764E-03-5.23437E-03
 -1      4783 5.59557E-03 6.90995E-03-5.01799E-03
 -1      4784 5.59558E-03 6.90996E-03-5.04203E-03
 -1      4785 5.59558E-03 6.90996E-03-5.06607E-03
 -1      4786 5.59558E-03 6.90997E-03-5.09011E-03
 -1      4787 5.59558E-03 6.90997E-03-5.11416E-03
 -1      4788 5.59558E-03 6.90997E-03-5.13820E-03
 -1      4789 5.59558E-03 6.90997E-03-5.16224E-03
 -1      4790 5.59558E-03 6.90996E-03-5.18629E-03
 -1      4791 5.59558E-03 6.90996E-03-5.21033E-03
 -1      4792 5.59557E-03 6.90995E-03-5.23437E-03
 -1      4793 5.22626E-03 7.19333E-03-5.01799E-03
 -1      4794 5.22627E-03 7.19334E-03-5.04203E-03
 -1      4795 5.22627E-03 7.19334E-03-5.06607E-03
 -1      4796 5.22627E-03 7.19335E-03-5.09011E-03
 -1      4797 5.22627E-03 7.19335E-03-5.11416E-03
 -1      4798 5.22627E-03 7.19335E-03-5.13820E-03
 -1      4799 5.22627E-03 7.19335E-03-5.16224E-03
 -1      4800 5.22627E-03 7.19334E-03-5.18629E-03
 -1      4801 5.22627E-03 7.19334E-03-5.21033E-03
 -1      4802 5.22626E-03 7.19333E-03-5.23437E-03
 -1      4803 4.84263E-03 7.45700E-03-5.01799E-03
 -1      4804 4.84263E-03 7.45700E-03-5.04203E-03
 -1      4805 4.84264E-03 7.45701E-03-5.06607E-03
 -1      4806 4.84264E-03 7.45701E-03-5.09011E-03
 -1      4807 4.84264E-03 7.45701E-03-5.11416E-03
 -1      4808 4.84264E-03 7.45701E-03-5.13820E-03
 -1      4809 4.84264E-03 7.45701E-03-5.16224E-03
 -1      4810 4.84264E-03 7.45701E-03-5.18629E-03
 -1      4811 4.84263E-03 7.45700E-03-5.21033E-03
 -1      4812 4.84263E-03 7.45700E-03-5.23437E-03
 -1      4813 4.44573E-03 7.70022E-03-5.01799E-03
 -1      4814 4.44573E-03 7.70023E-03-5.04203E-03
 -1      4815 4.44573E-03 7.70023E-03-5.06607E-03
 -1      4816 4.44573E-03 7.70023E-03-5.09011E-03
 -1      4817 4.44573E-03 7.70023E-03-5.11416E-03
 -1      4818 4.44573E-03 7.70023E-03-5.13820E-03
 -1      4819 4.44573E-03 7.70023E-03-5.16224E-03
 -1      4820 4.44573E-03 7.70023E-03-5.18629E-03
 -1      4821 4.44573E-03 7.70023E-03-5.21033E-03
 -1      4822 4.44573E-03 7.70022E-03-5.23437E-03
 -1      4823 4.03663E-03 7.92234E-03-5.01799E-03
 -1      4824 4.03664E-03 7.92235E-03-5.04203E-03
 -1      4825 4.03664E-03 7.92235E-03-5.06607E-03
 -1      4826 4.03664E-03 7.92235E-03-5.09011E-03
 -1      4827 4.03664E-03 7.92235E-03-5.11416E-03
 -1      4828 4.03664E-03 7.92235E-03-5.13820E-03
 -1      4829 4.03664E-03 7.92235E-03-5.16224E-03
 -1      4830 4.03664E-03 7.92235E-03-5.18629E-03
 -1      4831 4.03664E-03 7.92235E-03-5.21033E-03
 -1      4832 4.03663E-03 7.92234E-03-5.23437E-03
 -1      4833 3.61648E-03 8.12274E-03-5.01799E-03
 -1      4834 3.61648E-03 8.12275E-03-5.04203E-03
 -1      4835 3.61648E-03 8.12275E-03-5.06607E-03
 -1      4836 3.61648E-03 8.12276E-03-5.09011E-03
 -1      4837 3.61648E-03 8.12276E-03-5.11416E-03
 -1      4838 3.61648E-03 8.12276E-03-5.13820E-03
 -1      4839 3.61648E-03 8.12276E-03-5.16224E-03
 -1      4840 3.61648E-03 8.12275E-03-5.18629E-03
 -1      4841 3.61648E-03 8.12275E-03-5.21033E-03
 -1      4842 3.61648E-03 8.12274E-03-5.23437E-03
 -1      4843 3.18641E-03 8.30088E-03-5.01799E-03
 -1      4844 3.18641E-03 8.30089E-03-5.04203E-03
 -1      4845 3.18641E-03 8.30089E-03-5.06607E-03
 -1      4846 3.18642E-03 8.30090E-03-5.09011E-03
 -1      4847 3.18642E-03 8.30090E-03-5.11416E-03
 -1      4848 3.18642E-03 8.30090E-03-5.13820E-03
 -1      4849 3.18642E-03 8.30090E-03-5.16224E-03
 -1      4850 3.18641E-03 8.30089E-03-5.18629E-03
 -1      4851 3.18641E-03 8.30089E-03-5.21033E-03
 -1      4852 3.18641E-03 8.30088E-03-5.23437E-03
 -1      4853 2.74761E-03 8.45627E-03-5.01799E-03
 -1      4854 2.74761E-03 8.45628E-03-5.04203E-03
 -1      4855 2.74761E-03 8.45628E-03-5.06607E-03
 -1      4856 2.74761E-03 8.45628E-03-5.09011E-03
 -1      4857 2.74761E-03 8.45629E-03-5.11416E-03
 -1      4858 2.74761E-03 8.45629E-03-5.13820E-03
 -1      4859 2.74761E-03 8.45628E-03-5.16224E-03
 -1      4860 2.74761E-03 8.45628E-03-5.18629E-03
 -1      4861 2.74761E-03 8.45628E-03-5.21033E-03
 -1      4862 2.74761E-03 8.45627E-03-5.23437E-03
 -1      4863 2.30128E-03 8.58848E-03-5.01799E-03
 -1      4864 2.30128E-03 8.58849E-03-5.04203E-03
 -1      4865 2.30128E-03 8.58849E-03-5.06607E-03
 -1      4866 2.30128E-03 8.58849E-03-5.09011E-03
 -1      4867 2.30128E-03 8.58850E-03-5.11416E-03
 -1      4868 2.30128E-03 8.58850E-03-5.13820E-03
 -1      4869 2.30128E-03 8.58849E-03-5.16224E-03
 -1      4870 2.30128E-03 8.58849E-03-5.18629E-03
 -1      4871 2.30128E-03 8.58849E-03-5.21033E-03
 -1      4872 2.30128E-03 8.58848E-03-5.23437E-03
 -1      4873 1.84864E-03 8.69715E-03-5.01799E-03
 -1      4874 1.84864E-03 8.69716E-03-5.04203E-03
 -1      4875 1.84864E-03 8.69716E-03-5.06607E-03
 -1      4876 1.84864E-03 8.69716E-03-5.09011E-03
 -1      4877 1.84864E-03 8.69717E-03-5.11416E-03
 -1      4878 1.84864E-03 8.69717E-03-5.13820E-03
 -1      4879 1.84864E-03 8.69716E-03-5.16224E-03
 -1      4880 1.84864E-03 8.69716E-03-5.18629E-03
 -1      4881 1.84864E-03 8.69716E-03-5.21033E-03
 -1      4882 1.84864E-03 8.69715E-03-5.23437E-03
 -1      4883 1.39093E-03 8.78198E-03-5.01799E-03
 -1      4884 1.39093E-03 8.78199E-03-5.04203E-03
 -1      4885 1.39093E-03 8.78199E-03-5.06607E-03
 -1      4886 1.39093E-03 8.78199E-03-5.09011E-03
 -1      4887 1.39093E-03 8.78200E-03-5.11416E-03
 -1      4888 1.39093E-03 8.78200E-03-5.13820E-03
 -1      4889 1.39093E-03 8.78199E-03-5.16224E-03
 -1      4890 1.39093E-03 8.78199E-03-5.18629E-03
 -1      4891 1.39093E-03 8.78199E-03-5.21033E-03
 -1      4892 1.39093E-03 8.78198E-03-5.23437E-03
 -1      4893 9.29410E-04 8.84274E-03-5.01799E-03
 -1      4894 9.29410E-04 8.84275E-03-5.04203E-03
 -1      4895 9.29411E-04 8.84275E-03-5.06607E-03
 -1      4896 9.29411E-04 8.84276E-03-5.09011E-03
 -1      4897 9.29411E-04 8.84276E-03-5.11416E-03
 -1      4898 9.29411E-04 8.84276E-03-5.13820E-03
 -1      4899 9.29411E-04 8.84276E-03-5.16224E-03
 -1      4900 9.29411E-04 8.84275E-03-5.18629E-03
 -1      4901 9.29410E-04 8.84275E-03-5.21033E-03
 -1      4902 9.29410E-04 8.84274E-03-5.23437E-03
 -1      4903 4.65343E-04 8.87926E-03-5.01799E-03
 -1      4904 4.65343E-04 8.87927E-03-5.04203E-03
 -1      4905 4.65343E-04 8.87928E-03-5.06607E-03
 -1      4906 4.65343E-04 8.87928E-03-5.09011E-03
 -1      4907 4.65343E-04 8.87928E-03-5.11416E-03
 -1      4908 4.65343E-04 8.87928E-03-5.13820E-03
 -1      4909 4.65343E-04 8.87928E-03-5.16224E-03
 -1      4910 4.65343E-04 8.87928E-03-5.18629E-03
 -1      4911 4.65343E-04 8.87927E-03-5.21033E-03
 -1      4912 4.65343E-04 8.87926E-03-5.23437E-03
 -1      4913 8.87188E-03 4.64956E-04-5.01799E-03
 -1      4914 8.87189E-03 4.64956E-04-5.04203E-03
 -1      4915 8.87189E-03 4.64956E-04-5.06607E-03
 -1      4916 8.87190E-03 4.64956E-04-5.09011E-03
 -1      4917 8.87190E-03 4.64957E-04-5.11416E-03
 -1      4918 8.87190E-03 4.64957E-04-5.13820E-03
 -1      4919 8.87190E-03 4.64956E-04-5.16224E-03
 -1      4920 8.87189E-03 4.64956E-04-5.18628E-03
 -1      4921 8.87189E-03 4.64956E-04-5.21033E-03
 -1      4922 8.87188E-03 4.64956E-04-5.23437E-03
 -1      4923 8.83539E-03 9.28637E-04-5.01799E-03
 -1      4924 8.83540E-03 9.28638E-04-5.04203E-03
 -1      4925 8.83540E-03 9.28638E-04-5.06607E-03
 -1      4926 8.83541E-03 9.28638E-04-5.09011E-03
 -1      4927 8.83541E-03 9.28639E-04-5.11416E-03
 -1      4928 8.83541E-03 9.28639E-04-5.13820E-03
 -1      4929 8.83541E-03 9.28638E-04-5.16224E-03
 -1      4930 8.83540E-03 9.28638E-04-5.18628E-03
 -1      4931 8.83540E-03 9.28638E-04-5.21033E-03
 -1      4932 8.83539E-03 9.28637E-04-5.23437E-03
 -1      4933 8.77468E-03 1.38977E-03-5.01799E-03
 -1      4934 8.77469E-03 1.38977E-03-5.04203E-03
 -1      4935 8.77469E-03 1.38977E-03-5.06607E-03
 -1      4936 8.77469E-03 1.38978E-03-5.09011E-03
 -1      4937 8.77470E-03 1.38978E-03-5.11416E-03
 -1      4938 8.77470E-03 1.38978E-03-5.13820E-03
 -1      4939 8.77469E-03 1.38978E-03-5.16224E-03
 -1      4940 8.77469E-03 1.38977E-03-5.18628E-03
 -1      4941 8.77469E-03 1.38977E-03-5.21033E-03
 -1      4942 8.77468E-03 1.38977E-03-5.23437E-03
 -1      4943 8.68992E-03 1.84710E-03-5.01799E-03
 -1      4944 8.68993E-03 1.84710E-03-5.04203E-03
 -1      4945 8.68993E-03 1.84710E-03-5.06607E-03
 -1      4946 8.68993E-03 1.84710E-03-5.09011E-03
 -1      4947 8.68994E-03 1.84710E-03-5.11416E-03
 -1      4948 8.68994E-03 1.84710E-03-5.13820E-03
 -1      4949 8.68993E-03 1.84710E-03-5.16224E-03
 -1      4950 8.68993E-03 1.84710E-03-5.18628E-03
 -1      4951 8.68993E-03 1.84710E-03-5.21033E-03
 -1      4952 8.68992E-03 1.84710E-03-5.23437E-03
 -1      4953 8.58134E-03 2.29936E-03-5.01799E-03
 -1      4954 8.58135E-03 2.29937E-03-5.04203E-03
 -1      4955 8.58135E-03 2.29937E-03-5.06607E-03
 -1      4956 8.58136E-03 2.29937E-03-5.09011E-03
 -1      4957 8.58136E-03 2.29937E-03-5.11416E-03
 -1      4958 8.58136E-03 2.29937E-03-5.13820E-03
 -1      4959 8.58136E-03 2.29937E-03-5.16224E-03
 -1      4960 8.58135E-03 2.29937E-03-5.18628E-03
 -1      4961 8.58135E-03 2.29937E-03-5.21033E-03
 -1      4962 8.58134E-03 2.29936E-03-5.23437E-03
 -1      4963 8.44924E-03 2.74533E-03-5.01799E-03
 -1      4964 8.44925E-03 2.74533E-03-5.04203E-03
 -1      4965 8.44925E-03 2.74533E-03-5.06607E-03
 -1      4966 8.44926E-03 2.74533E-03-5.09011E-03
 -1      4967 8.44926E-03 2.74533E-03-5.11416E-03
 -1      4968 8.44926E-03 2.74533E-03-5.13820E-03
 -1      4969 8.44926E-03 2.74533E-03-5.16224E-03
 -1      4970 8.44925E-03 2.74533E-03-5.18628E-03
 -1      4971 8.44925E-03 2.74533E-03-5.21033E-03
 -1      4972 8.44924E-03 2.74533E-03-5.23437E-03
 -1      4973 8.29398E-03 3.18376E-03-5.01799E-03
 -1      4974 8.29399E-03 3.18376E-03-5.04203E-03
 -1      4975 8.29399E-03 3.18377E-03-5.06607E-03
 -1      4976 8.29400E-03 3.18377E-03-5.09011E-03
 -1      4977 8.29400E-03 3.18377E-03-5.11416E-03
 -1      4978 8.29400E-03 3.18377E-03-5.13820E-03
 -1      4979 8.29400E-03 3.18377E-03-5.16224E-03
 -1      4980 8.29399E-03 3.18377E-03-5.18628E-03
 -1      4981 8.29399E-03 3.18376E-03-5.21033E-03
 -1      4982 8.29398E-03 3.18376E-03-5.23437E-03
 -1      4983 8.11599E-03 3.61347E-03-5.01799E-03
 -1      4984 8.11600E-03 3.61348E-03-5.04203E-03
 -1      4985 8.11600E-03 3.61348E-03-5.06607E-03
 -1      4986 8.11600E-03 3.61348E-03-5.09011E-03
 -1      4987 8.11600E-03 3.61348E-03-5.11416E-03
 -1      4988 8.11600E-03 3.61348E-03-5.13820E-03
 -1      4989 8.11600E-03 3.61348E-03-5.16224E-03
 -1      4990 8.11600E-03 3.61348E-03-5.18628E-03
 -1      4991 8.11600E-03 3.61348E-03-5.21033E-03
 -1      4992 8.11599E-03 3.61347E-03-5.23437E-03
 -1      4993 7.91575E-03 4.03328E-03-5.01799E-03
 -1      4994 7.91576E-03 4.03328E-03-5.04203E-03
 -1      4995 7.91576E-03 4.03328E-03-5.06607E-03
 -1      4996 7.91577E-03 4.03328E-03-5.09011E-03
 -1      4997 7.91577E-03 4.03329E-03-5.11416E-03
 -1      4998 7.91577E-03 4.03329E-03-5.13820E-03
 -1      4999 7.91577E-03 4.03328E-03-5.16224E-03
 -1      5000 7.91576E-03 4.03328E-03-5.18628E-03
 -1      5001 7.91576E-03 4.03328E-03-5.21033E-03
 -1      5002 7.91575E-03 4.03328E-03-5.23437E-03
 -1      5003 7.69382E-03 4.44203E-03-5.01799E-03
 -1      5004 7.69383E-03 4.44203E-03-5.04203E-03
 -1      5005 7.69383E-03 4.44203E-03-5.06607E-03
 -1      5006 7.69383E-03 4.44204E-03-5.09011E-03
 -1      5007 7.69383E-03 4.44204E-03-5.11416E-03
 -1      5008 7.69383E-03 4.44204E-03-5.13820E-03
 -1      5009 7.69383E-03 4.44204E-03-5.16224E-03
 -1      5010 7.69383E-03 4.44203E-03-5.18628E-03
 -1      5011 7.69383E-03 4.44203E-03-5.21033E-03
 -1      5012 7.69382E-03 4.44203E-03-5.23437E-03
 -1      5013 7.45080E-03 4.83861E-03-5.01799E-03
 -1      5014 7.45080E-03 4.83861E-03-5.04203E-03
 -1      5015 7.45081E-03 4.83861E-03-5.06607E-03
 -1      5016 7.45081E-03 4.83861E-03-5.09011E-03
 -1      5017 7.45081E-03 4.83861E-03-5.11416E-03
 -1      5018 7.45081E-03 4.83861E-03-5.13820E-03
 -1      5019 7.45081E-03 4.83861E-03-5.16224E-03
 -1      5020 7.45081E-03 4.83861E-03-5.18628E-03
 -1      5021 7.45080E-03 4.83861E-03-5.21033E-03
 -1      5022 7.45080E-03 4.83861E-03-5.23437E-03
 -1      5023 7.18736E-03 5.22192E-03-5.01799E-03
 -1      5024 7.18736E-03 5.22192E-03-5.04203E-03
 -1      5025 7.18736E-03 5.22193E-03-5.06607E-03
 -1      5026 7.18737E-03 5.22193E-03-5.09011E-03
 -1      5027 7.18737E-03 5.22193E-03-5.11416E-03
 -1      5028 7.18737E-03 5.22193E-03-5.13820E-03
 -1      5029 7.18737E-03 5.22193E-03-5.16224E-03
 -1      5030 7.18736E-03 5.22193E-03-5.18628E-03
 -1      5031 7.18736E-03 5.22192E-03-5.21033E-03
 -1      5032 7.18736E-03 5.22192E-03-5.23437E-03
 -1      5033 6.90421E-03 5.59092E-03-5.01799E-03
 -1      5034 6.90422E-03 5.59092E-03-5.04203E-03
 -1      5035 6.90422E-03 5.59093E-03-5.06607E-03
 -1      5036 6.90422E-03 5.59093E-03-5.09011E-03
 -1      5037 6.90422E-03 5.59093E-03-5.11416E-03
 -1      5038 6.90422E-03 5.59093E-03-5.13820E-03
 -1      5039 6.90422E-03 5.59093E-03-5.16224E-03
 -1      5040 6.90422E-03 5.59093E-03-5.18628E-03
 -1      5041 6.90422E-03 5.59092E-03-5.21033E-03
 -1      5042 6.90421E-03 5.59092E-03-5.23437E-03
 -1      5043 6.60214E-03 5.94460E-03-5.01799E-03
 -1      5044 6.60215E-03 5.94460E-03-5.04203E-03
 -1      5045 6.60215E-03 5.94460E-03-5.06607E-03
 -1      5046 6.60215E-03 5.94460E-03-5.09011E-03
 -1      5047 6.60215E-03 5.94461E-03-5.11416E-03
 -1      5048 6.60215E-03 5.94461E-03-5.13820E-03
 -1      5049 6.60215E-03 5.94460E-03-5.16224E-03
 -1      5050 6.60215E-03 5.94460E-03-5.18628E-03
 -1      5051 6.60215E-03 5.94460E-03-5.21033E-03
 -1      5052 6.60214E-03 5.94460E-03-5.23437E-03
 -1      5053 6.28198E-03 6.28198E-03-5.01799E-03
 -1      5054 6.28198E-03 6.28198E-03-5.04203E-03
 -1      5055 6.28199E-03 6.28199E-03-5.06607E-03
 -1      5056 6.28199E-03 6.28199E-03-5.09011E-03
 -1      5057 6.28199E-03 6.28199E-03-5.11416E-03
 -1      5058 6.28199E-03 6.28199E-03-5.13820E-03
 -1      5059 6.28199E-03 6.28199E-03-5.16224E-03
 -1      5060 6.28199E-03 6.28199E-03-5.18628E-03
 -1      5061 6.28198E-03 6.28198E-03-5.21033E-03
 -1      5062 6.28198E-03 6.28198E-03-5.23437E-03
 -1      5063 5.94460E-03 6.60214E-03-5.01799E-03
 -1      5064 5.94460E-03 6.60215E-03-5.04203E-03
 -1      5065 5.94460E-03 6.60215E-03-5.06607E-03
 -1      5066 5.94460E-03 6.60215E-03-5.09011E-03
 -1      5067 5.94461E-03 6.60215E-03-5.11416E-03
 -1      5068 5.94461E-03 6.60215E-03-5.13820E-03
 -1      5069 5.94460E-03 6.60215E-03-5.16224E-03
 -1      5070 5.94460E-03 6.60215E-03-5.18628E-03
 -1      5071 5.94460E-03 6.60215E-03-5.21033E-03
 -1      5072 5.94460E-03 6.60214E-03-5.23437E-03
 -1      5073 5.59092E-03 6.90421E-03-5.01799E-03
 -1      5074 5.59092E-03 6.90422E-03-5.04203E-03
 -1      5075 5.59093E-03 6.90422E-03-5.06607E-03
 -1      5076 5.59093E-03 6.90422E-03-5.09011E-03
 -1      5077 5.59093E-03 6.90422E-03-5.11416E-03
 -1      5078 5.59093E-03 6.90422E-03-5.13820E-03
 -1      5079 5.59093E-03 6.90422E-03-5.16224E-03
 -1      5080 5.59093E-03 6.90422E-03-5.18628E-03
 -1      5081 5.59092E-03 6.90422E-03-5.21033E-03
 -1      5082 5.59092E-03 6.90421E-03-5.23437E-03
 -1      5083 5.22192E-03 7.18736E-03-5.01799E-03
 -1      5084 5.22192E-03 7.18736E-03-5.04203E-03
 -1      5085 5.22193E-03 7.18736E-03-5.06607E-03
 -1      5086 5.22193E-03 7.18737E-03-5.09011E-03
 -1      5087 5.22193E-03 7.18737E-03-5.11416E-03
 -1      5088 5.22193E-03 7.18737E-03-5.13820E-03
 -1      5089 5.22193E-03 7.18737E-03-5.16224E-03
 -1      5090 5.22193E-03 7.18736E-03-5.18628E-03
 -1      5091 5.22192E-03 7.18736E-03-5.21033E-03
 -1      5092 5.22192E-03 7.18736E-03-5.23437E-03
 -1      5093 4.83861E-03 7.45080E-03-5.01799E-03
 -1      5094 4.83861E-03 7.45080E-03-5.04203E-03
 -1      5095 4.83861E-03 7.45081E-03-5.06607E-03
 -1      5096 4.83861E-03 7.45081E-03-5.09011E-03
 -1      5097 4.83861E-03 7.45081E-03-5.11416E-03
 -1      5098 4.83861E-03 7.45081E-03-5.13820E-03
 -1      5099 4.83861E-03 7.45081E-03-5.16224E-03
 -1      5100 4.83861E-03 7.45081E-03-5.18628E-03
 -1      5101 4.83861E-03 7.45080E-03-5.21033E-03
 -1      5102 4.83861E-03 7.45080E-03-5.23437E-03
 -1      5103 4.44203E-03 7.69382E-03-5.01799E-03
 -1      5104 4.44203E-03 7.69383E-03-5.04203E-03
 -1      5105 4.44203E-03 7.69383E-03-5.06607E-03
 -1      5106 4.44204E-03 7.69383E-03-5.09011E-03
 -1      5107 4.44204E-03 7.69383E-03-5.11416E-03
 -1      5108 4.44204E-03 7.69383E-03-5.13820E-03
 -1      5109 4.44204E-03 7.69383E-03-5.16224E-03
 -1      5110 4.44203E-03 7.69383E-03-5.18628E-03
 -1      5111 4.44203E-03 7.69383E-03-5.21033E-03
 -1      5112 4.44203E-03 7.69382E-03-5.23437E-03
 -1      5113 4.03328E-03 7.91575E-03-5.01799E-03
 -1      5114 4.03328E-03 7.91576E-03-5.04203E-03
 -1      5115 4.03328E-03 7.91576E-03-5.06607E-03
 -1      5116 4.03328E-03 7.91577E-03-5.09011E-03
 -1      5117 4.03329E-03 7.91577E-03-5.11416E-03
 -1      5118 4.03329E-03 7.91577E-03-5.13820E-03
 -1      5119 4.03328E-03 7.91577E-03-5.16224E-03
 -1      5120 4.03328E-03 7.91576E-03-5.18628E-03
 -1      5121 4.03328E-03 7.91576E-03-5.21033E-03
 -1      5122 4.03328E-03 7.91575E-03-5.23437E-03
 -1      5123 3.61347E-03 8.11599E-03-5.01799E-03
 -1      5124 3.61348E-03 8.11600E-03-5.04203E-03
 -1      5125 3.61348E-03 8.11600E-03-5.06607E-03
 -1      5126 3.61348E-03 8.11600E-03-5.09011E-03
 -1      5127 3.61348E-03 8.11600E-03-5.11416E-03
 -1      5128 3.61348E-03 8.11600E-03-5.13820E-03
 -1      5129 3.61348E-03 8.11600E-03-5.16224E-03
 -1      5130 3.61348E-03 8.11600E-03-5.18628E-03
 -1      5131 3.61348E-03 8.11600E-03-5.21033E-03
 -1      5132 3.61347E-03 8.11599E-03-5.23437E-03
 -1      5133 3.18376E-03 8.29398E-03-5.01799E-03
 -1      5134 3.18376E-03 8.29399E-03-5.04203E-03
 -1      5135 3.18377E-03 8.29399E-03-5.06607E-03
 -1      5136 3.18377E-03 8.29400E-03-5.09011E-03
 -1      5137 3.18377E-03 8.29400E-03-5.11416E-03
 -1      5138 3.18377E-03 8.29400E-03-5.13820E-03
 -1      5139 3.18377E-03 8.29400E-03-5.16224E-03
 -1      5140 3.18377E-03 8.29399E-03-5.18628E-03
 -1      5141 3.18376E-03 8.29399E-03-5.21033E-03
 -1      5142 3.18376E-03 8.29398E-03-5.23437E-03
 -1      5143 2.74533E-03 8.44924E-03-5.01799E-03
 -1      5144 2.74533E-03 8.44925E-03-5.04203E-03
 -1      5145 2.74533E-03 8.44925E-03-5.06607E-03
 -1      5146 2.74533E-03 8.44926E-03-5.09011E-03
 -1      5147 2.74533E-03 8.44926E-03-5.11416E-03
 -1      5148 2.74533E-03 8.44926E-03-5.13820E-03
 -1      5149 2.74533E-03 8.44926E-03-5.16224E-03
 -1      5150 2.74533E-03 8.44925E-03-5.18628E-03
 -1      5151 2.74533E-03 8.44925E-03-5.21033E-03
 -1      5152 2.74533E-03 8.44924E-03-5.23437E-03
 -1      5153 2.29936E-03 8.58134E-03-5.01799E-03
 -1      5154 2.29937E-03 8.58135E-03-5.04203E-03
 -1      5155 2.29937E-03 8.58135E-03-5.06607E-03
 -1      5156 2.29937E-03 8.58136E-03-5.09011E-03
 -1      5157 2.29937E-03 8.58136E-03-5.11416E-03
 -1      5158 2.29937E-03 8.58136E-03-5.13820E-03
 -1      5159 2.29937E-03 8.58136E-03-5.16224E-03
 -1      5160 2.29937E-03 8.58135E-03-5.18628E-03
 -1      5161 2.29937E-03 8.58135E-03-5.21033E-03
 -1      5162 2.29936E-03 8.58134E-03-5.23437E-03
 -1      5163 1.84710E-03 8.68992E-03-5.01799E-03
 -1      5164 1.84710E-03 8.68993E-03-5.04203E-03
 -1      5165 1.84710E-03 8.68993E-03-5.06607E-03
 -1      5166 1.84710E-03 8.68993E-03-5.09011E-03
 -1      5167 1.84710E-03 8.68994E-03-5.11416E-03
 -1      5168 1.84710E-03 8.68994E-03-5.13820E-03
 -1      5169 1.84710E-03 8.68993E-03-5.16224E-03
 -1      5170 1.84710E-03 8.68993E-03-5.18628E-03
 -1      5171 1.84710E-03 8.68993E-03-5.21033E-03
 -1      5172 1.84710E-03 8.68992E-03-5.23437E-03
 -1      5173 1.38977E-03 8.77468E-03-5.01799E-03
 -1      5174 1.38977E-03 8.77469E-03-5.04203E-03
 -1      5175 1.38977E-03 8.77469E-03-5.06607E-03
 -1      5176 1.38978E-03 8.77469E-03-5.09011E-03
 -1      5177 1.38978E-03 8.77470E-03-5.11416E-03
 -1      5178 1.38978E-03 8.77470E-03-5.13820E-03
 -1      5179 1.38978E-03 8.77469E-03-5.16224E-03
 -1      5180 1.38977E-03 8.77469E-03-5.18628E-03
 -1      5181 1.38977E-03 8.77469E-03-5.21033E-03
 -1      5182 1.38977E-03 8.77468E-03-5.23437E-03
 -1      5183 9.28637E-04 8.83539E-03-5.01799E-03
 -1      5184 9.28638E-04 8.83540E-03-5.04203E-03
 -1      5185 9.28638E-04 8.83540E-03-5.06607E-03
 -1      5186 9.28638E-04 8.83541E-03-5.09011E-03
 -1      5187 9.28639E-04 8.83541E-03-5.11416E-03
 -1      5188 9.28639E-04 8.83541E-03-5.13820E-03
 -1      5189 9.28638E-04 8.83541E-03-5.16224E-03
 -1      5190 9.28638E-04 8.83540E-03-5.18628E-03
 -1      5191 9.28638E-04 8.83540E-03-5.21033E-03
 -1      5192 9.28637E-04 8.83539E-03-5.23437E-03
 -1      5193 4.64956E-04 8.87188E-03-5.01799E-03
 -1      5194 4.64956E-04 8.87189E-03-5.04203E-03
 -1      5195 4.64956E-04 8.87189E-03-5.06607E-03
 -1      5196 4.64956E-04 8.87190E-03-5.09011E-03
 -1      5197 4.64957E-04 8.87190E-03-5.11416E-03
 -1      5198 4.64957E-04 8.87190E-03-5.13820E-03
 -1      5199 4.64956E-04 8.87190E-03-5.16224E-03
 -1      5200 4.64956E-04 8.87189E-03-5.18628E-03
 -1      5201 4.64956E-04 8.87189E-03-5.21033E-03
 -1      5202 4.64956E-04 8.87188E-03-5.23437E-03
 -1      5203 8.86458E-03 4.64573E-04-5.01799E-03
 -1      5204 8.86459E-03 4.64573E-04-5.04203E-03
 -1      5205 8.86459E-03 4.64574E-04-5.06607E-03
 -1      5206 8.86459E-03 4.64574E-04-5.09012E-03
 -1      5207 8.86459E-03 4.64574E-04-5.11416E-03
 -1      5208 8.86459E-03 4.64574E-04-5.13820E-03
 -1      5209 8.86459E-03 4.64574E-04-5.16224E-03
 -1      5210 8.86459E-03 4.64574E-04-5.18628E-03
 -1      5211 8.86459E-03 4.64573E-04-5.21033E-03
 -1      5212 8.86458E-03 4.64573E-04-5.23437E-03
 -1      5213 8.82812E-03 9.27873E-04-5.01799E-03
 -1      5214 8.82812E-03 9.27873E-04-5.04203E-03
 -1      5215 8.82813E-03 9.27874E-04-5.06607E-03
 -1      5216 8.82813E-03 9.27874E-04-5.09012E-03
 -1      5217 8.82813E-03 9.27874E-04-5.11416E-03
 -1      5218 8.82813E-03 9.27874E-04-5.13820E-03
 -1      5219 8.82813E-03 9.27874E-04-5.16224E-03
 -1      5220 8.82813E-03 9.27874E-04-5.18628E-03
 -1      5221 8.82812E-03 9.27873E-04-5.21033E-03
 -1      5222 8.82812E-03 9.27873E-04-5.23437E-03
 -1      5223 8.76746E-03 1.38863E-03-5.01799E-03
 -1      5224 8.76746E-03 1.38863E-03-5.04203E-03
 -1      5225 8.76747E-03 1.38863E-03-5.06607E-03
 -1      5226 8.76747E-03 1.38863E-03-5.09012E-03
 -1      5227 8.76747E-03 1.38863E-03-5.11416E-03
 -1      5228 8.76747E-03 1.38863E-03-5.13820E-03
 -1      5229 8.76747E-03 1.38863E-03-5.16224E-03
 -1      5230 8.76747E-03 1.38863E-03-5.18628E-03
 -1      5231 8.76746E-03 1.38863E-03-5.21033E-03
 -1      5232 8.76746E-03 1.38863E-03-5.23437E-03
 -1      5233 8.68277E-03 1.84558E-03-5.01799E-03
 -1      5234 8.68277E-03 1.84558E-03-5.04203E-03
 -1      5235 8.68278E-03 1.84558E-03-5.06607E-03
 -1      5236 8.68278E-03 1.84558E-03-5.09012E-03
 -1      5237 8.68278E-03 1.84558E-03-5.11416E-03
 -1      5238 8.68278E-03 1.84558E-03-5.13820E-03
 -1      5239 8.68278E-03 1.84558E-03-5.16224E-03
 -1      5240 8.68278E-03 1.84558E-03-5.18628E-03
 -1      5241 8.68277E-03 1.84558E-03-5.21033E-03
 -1      5242 8.68277E-03 1.84558E-03-5.23437E-03
 -1      5243 8.57428E-03 2.29747E-03-5.01799E-03
 -1      5244 8.57428E-03 2.29747E-03-5.04203E-03
 -1      5245 8.57429E-03 2.29747E-03-5.06607E-03
 -1      5246 8.57429E-03 2.29747E-03-5.09012E-03
 -1      5247 8.57429E-03 2.29747E-03-5.11416E-03
 -1      5248 8.57429E-03 2.29747E-03-5.13820E-03
 -1      5249 8.57429E-03 2.29747E-03-5.16224E-03
 -1      5250 8.57429E-03 2.29747E-03-5.18628E-03
 -1      5251 8.57428E-03 2.29747E-03-5.21033E-03
 -1      5252 8.57428E-03 2.29747E-03-5.23437E-03
 -1      5253 8.44229E-03 2.74307E-03-5.01799E-03
 -1      5254 8.44229E-03 2.74307E-03-5.04203E-03
 -1      5255 8.44230E-03 2.74307E-03-5.06607E-03
 -1      5256 8.44230E-03 2.74307E-03-5.09012E-03
 -1      5257 8.44230E-03 2.74307E-03-5.11416E-03
 -1      5258 8.44230E-03 2.74307E-03-5.13820E-03
 -1      5259 8.44230E-03 2.74307E-03-5.16224E-03
 -1      5260 8.44230E-03 2.74307E-03-5.18628E-03
 -1      5261 8.44229E-03 2.74307E-03-5.21033E-03
 -1      5262 8.44229E-03 2.74307E-03-5.23437E-03
 -1      5263 8.28716E-03 3.18114E-03-5.01799E-03
 -1      5264 8.28716E-03 3.18114E-03-5.04203E-03
 -1      5265 8.28717E-03 3.18114E-03-5.06607E-03
 -1      5266 8.28717E-03 3.18115E-03-5.09012E-03
 -1      5267 8.28717E-03 3.18115E-03-5.11416E-03
 -1      5268 8.28717E-03 3.18115E-03-5.13820E-03
 -1      5269 8.28717E-03 3.18115E-03-5.16224E-03
 -1      5270 8.28717E-03 3.18114E-03-5.18628E-03
 -1      5271 8.28716E-03 3.18114E-03-5.21033E-03
 -1      5272 8.28716E-03 3.18114E-03-5.23437E-03
 -1      5273 8.10931E-03 3.61050E-03-5.01799E-03
 -1      5274 8.10932E-03 3.61050E-03-5.04203E-03
 -1      5275 8.10932E-03 3.61050E-03-5.06607E-03
 -1      5276 8.10932E-03 3.61050E-03-5.09012E-03
 -1      5277 8.10932E-03 3.61050E-03-5.11416E-03
 -1      5278 8.10932E-03 3.61050E-03-5.13820E-03
 -1      5279 8.10932E-03 3.61050E-03-5.16224E-03
 -1      5280 8.10932E-03 3.61050E-03-5.18628E-03
 -1      5281 8.10932E-03 3.61050E-03-5.21033E-03
 -1      5282 8.10931E-03 3.61050E-03-5.23437E-03
 -1      5283 7.90924E-03 4.02996E-03-5.01799E-03
 -1      5284 7.90924E-03 4.02996E-03-5.04203E-03
 -1      5285 7.90925E-03 4.02996E-03-5.06607E-03
 -1      5286 7.90925E-03 4.02996E-03-5.09012E-03
 -1      5287 7.90925E-03 4.02996E-03-5.11416E-03
 -1      5288 7.90925E-03 4.02996E-03-5.13820E-03
 -1      5289 7.90925E-03 4.02996E-03-5.16224E-03
 -1      5290 7.90925E-03 4.02996E-03-5.18628E-03
 -1      5291 7.90924E-03 4.02996E-03-5.21033E-03
 -1      5292 7.90924E-03 4.02996E-03-5.23437E-03
 -1      5293 7.68749E-03 4.43837E-03-5.01799E-03
 -1      5294 7.68749E-03 4.43838E-03-5.04203E-03
 -1      5295 7.68750E-03 4.43838E-03-5.06607E-03
 -1      5296 7.68750E-03 4.43838E-03-5.09012E-03
 -1      5297 7.68750E-03 4.43838E-03-5.11416E-03
 -1      5298 7.68750E-03 4.43838E-03-5.13820E-03
 -1      5299 7.68750E-03 4.43838E-03-5.16224E-03
 -1      5300 7.68750E-03 4.43838E-03-5.18628E-03
 -1      5301 7.68749E-03 4.43838E-03-5.21033E-03
 -1      5302 7.68749E-03 4.43837E-03-5.23437E-03
 -1      5303 7.44467E-03 4.83462E-03-5.01799E-03
 -1      5304 7.44467E-03 4.83463E-03-5.04203E-03
 -1      5305 7.44467E-03 4.83463E-03-5.06607E-03
 -1      5306 7.44468E-03 4.83463E-03-5.09012E-03
 -1      5307 7.44468E-03 4.83463E-03-5.11416E-03
 -1      5308 7.44468E-03 4.83463E-03-5.13820E-03
 -1      5309 7.44468E-03 4.83463E-03-5.16224E-03
 -1      5310 7.44467E-03 4.83463E-03-5.18628E-03
 -1      5311 7.44467E-03 4.83463E-03-5.21033E-03
 -1      5312 7.44467E-03 4.83462E-03-5.23437E-03
 -1      5313 7.18144E-03 5.21762E-03-5.01799E-03
 -1      5314 7.18144E-03 5.21762E-03-5.04203E-03
 -1      5315 7.18145E-03 5.21763E-03-5.06607E-03
 -1      5316 7.18145E-03 5.21763E-03-5.09012E-03
 -1      5317 7.18145E-03 5.21763E-03-5.11416E-03
 -1      5318 7.18145E-03 5.21763E-03-5.13820E-03
 -1      5319 7.18145E-03 5.21763E-03-5.16224E-03
 -1      5320 7.18145E-03 5.21763E-03-5.18628E-03
 -1      5321 7.18144E-03 5.21762E-03-5.21033E-03
 -1      5322 7.18144E-03 5.21762E-03-5.23437E-03
 -1      5323 6.89853E-03 5.58632E-03-5.01799E-03
 -1      5324 6.89853E-03 5.58632E-03-5.04203E-03
 -1      5325 6.89853E-03 5.58632E-03-5.06607E-03
 -1      5326 6.89854E-03 5.58633E-03-5.09012E-03
 -1      5327 6.89854E-03 5.58633E-03-5.11416E-03
 -1      5328 6.89854E-03 5.58633E-03-5.13820E-03
 -1      5329 6.89854E-03 5.58633E-03-5.16224E-03
 -1      5330 6.89853E-03 5.58632E-03-5.18628E-03
 -1      5331 6.89853E-03 5.58632E-03-5.21033E-03
 -1      5332 6.89853E-03 5.58632E-03-5.23437E-03
 -1      5333 6.59671E-03 5.93970E-03-5.01799E-03
 -1      5334 6.59671E-03 5.93971E-03-5.04203E-03
 -1      5335 6.59672E-03 5.93971E-03-5.06607E-03
 -1      5336 6.59672E-03 5.93971E-03-5.09012E-03
 -1      5337 6.59672E-03 5.93971E-03-5.11416E-03
 -1      5338 6.59672E-03 5.93971E-03-5.13820E-03
 -1      5339 6.59672E-03 5.93971E-03-5.16224E-03
 -1      5340 6.59672E-03 5.93971E-03-5.18628E-03
 -1      5341 6.59671E-03 5.93971E-03-5.21033E-03
 -1      5342 6.59671E-03 5.93970E-03-5.23437E-03
 -1      5343 6.27681E-03 6.27681E-03-5.01799E-03
 -1      5344 6.27681E-03 6.27681E-03-5.04203E-03
 -1      5345 6.27681E-03 6.27681E-03-5.06607E-03
 -1      5346 6.27682E-03 6.27682E-03-5.09012E-03
 -1      5347 6.27682E-03 6.27682E-03-5.11416E-03
 -1      5348 6.27682E-03 6.27682E-03-5.13820E-03
 -1      5349 6.27682E-03 6.27682E-03-5.16224E-03
 -1      5350 6.27681E-03 6.27681E-03-5.18628E-03
 -1      5351 6.27681E-03 6.27681E-03-5.21033E-03
 -1      5352 6.27681E-03 6.27681E-03-5.23437E-03
 -1      5353 5.93970E-03 6.59671E-03-5.01799E-03
 -1      5354 5.93971E-03 6.59671E-03-5.04203E-03
 -1      5355 5.93971E-03 6.59672E-03-5.06607E-03
 -1      5356 5.93971E-03 6.59672E-03-5.09012E-03
 -1      5357 5.93971E-03 6.59672E-03-5.11416E-03
 -1      5358 5.93971E-03 6.59672E-03-5.13820E-03
 -1      5359 5.93971E-03 6.59672E-03-5.16224E-03
 -1      5360 5.93971E-03 6.59672E-03-5.18628E-03
 -1      5361 5.93971E-03 6.59671E-03-5.21033E-03
 -1      5362 5.93970E-03 6.59671E-03-5.23437E-03
 -1      5363 5.58632E-03 6.89853E-03-5.01799E-03
 -1      5364 5.58632E-03 6.89853E-03-5.04203E-03
 -1      5365 5.58632E-03 6.89853E-03-5.06607E-03
 -1      5366 5.58633E-03 6.89854E-03-5.09012E-03
 -1      5367 5.58633E-03 6.89854E-03-5.11416E-03
 -1      5368 5.58633E-03 6.89854E-03-5.13820E-03
 -1      5369 5.58633E-03 6.89854E-03-5.16224E-03
 -1      5370 5.58632E-03 6.89853E-03-5.18628E-03
 -1      5371 5.58632E-03 6.89853E-03-5.21033E-03
 -1      5372 5.58632E-03 6.89853E-03-5.23437E-03
 -1      5373 5.21762E-03 7.18144E-03-5.01799E-03
 -1      5374 5.21762E-03 7.18144E-03-5.04203E-03
 -1      5375 5.21763E-03 7.18145E-03-5.06607E-03
 -1      5376 5.21763E-03 7.18145E-03-5.09012E-03
 -1      5377 5.21763E-03 7.18145E-03-5.11416E-03
 -1      5378 5.21763E-03 7.18145E-03-5.13820E-03
 -1      5379 5.21763E-03 7.18145E-03-5.16224E-03
 -1      5380 5.21763E-03 7.18145E-03-5.18628E-03
 -1      5381 5.21762E-03 7.18144E-03-5.21033E-03
 -1      5382 5.21762E-03 7.18144E-03-5.23437E-03
 -1      5383 4.83462E-03 7.44467E-03-5.01799E-03
 -1      5384 4.83463E-03 7.44467E-03-5.04203E-03
 -1      5385 4.83463E-03 7.44467E-03-5.06607E-03
 -1      5386 4.83463E-03 7.44468E-03-5.09012E-03
 -1      5387 4.83463E-03 7.44468E-03-5.11416E-03
 -1      5388 4.83463E-03 7.44468E-03-5.13820E-03
 -1      5389 4.83463E-03 7.44468E-03-5.16224E-03
 -1      5390 4.83463E-03 7.44467E-03-5.18628E-03
 -1      5391 4.83463E-03 7.44467E-03-5.21033E-03
 -1      5392 4.83462E-03 7.44467E-03-5.23437E-03
 -1      5393 4.43837E-03 7.68749E-03-5.01799E-03
 -1      5394 4.43838E-03 7.68749E-03-5.04203E-03
 -1      5395 4.43838E-03 7.68750E-03-5.06607E-03
 -1      5396 4.43838E-03 7.68750E-03-5.09012E-03
 -1      5397 4.43838E-03 7.68750E-03-5.11416E-03
 -1      5398 4.43838E-03 7.68750E-03-5.13820E-03
 -1      5399 4.43838E-03 7.68750E-03-5.16224E-03
 -1      5400 4.43838E-03 7.68750E-03-5.18628E-03
 -1      5401 4.43838E-03 7.68749E-03-5.21033E-03
 -1      5402 4.43837E-03 7.68749E-03-5.23437E-03
 -1      5403 4.02996E-03 7.90924E-03-5.01799E-03
 -1      5404 4.02996E-03 7.90924E-03-5.04203E-03
 -1      5405 4.02996E-03 7.90925E-03-5.06607E-03
 -1      5406 4.02996E-03 7.90925E-03-5.09012E-03
 -1      5407 4.02996E-03 7.90925E-03-5.11416E-03
 -1      5408 4.02996E-03 7.90925E-03-5.13820E-03
 -1      5409 4.02996E-03 7.90925E-03-5.16224E-03
 -1      5410 4.02996E-03 7.90925E-03-5.18628E-03
 -1      5411 4.02996E-03 7.90924E-03-5.21033E-03
 -1      5412 4.02996E-03 7.90924E-03-5.23437E-03
 -1      5413 3.61050E-03 8.10931E-03-5.01799E-03
 -1      5414 3.61050E-03 8.10932E-03-5.04203E-03
 -1      5415 3.61050E-03 8.10932E-03-5.06607E-03
 -1      5416 3.61050E-03 8.10932E-03-5.09012E-03
 -1      5417 3.61050E-03 8.10932E-03-5.11416E-03
 -1      5418 3.61050E-03 8.10932E-03-5.13820E-03
 -1      5419 3.61050E-03 8.10932E-03-5.16224E-03
 -1      5420 3.61050E-03 8.10932E-03-5.18628E-03
 -1      5421 3.61050E-03 8.10932E-03-5.21033E-03
 -1      5422 3.61050E-03 8.10931E-03-5.23437E-03
 -1      5423 3.18114E-03 8.28716E-03-5.01799E-03
 -1      5424 3.18114E-03 8.28716E-03-5.04203E-03
 -1      5425 3.18114E-03 8.28717E-03-5.06607E-03
 -1      5426 3.18115E-03 8.28717E-03-5.09012E-03
 -1      5427 3.18115E-03 8.28717E-03-5.11416E-03
 -1      5428 3.18115E-03 8.28717E-03-5.13820E-03
 -1      5429 3.18115E-03 8.28717E-03-5.16224E-03
 -1      5430 3.18114E-03 8.28717E-03-5.18628E-03
 -1      5431 3.18114E-03 8.28716E-03-5.21033E-03
 -1      5432 3.18114E-03 8.28716E-03-5.23437E-03
 -1      5433 2.74307E-03 8.44229E-03-5.01799E-03
 -1      5434 2.74307E-03 8.44229E-03-5.04203E-03
 -1      5435 2.74307E-03 8.44230E-03-5.06607E-03
 -1      5436 2.74307E-03 8.44230E-03-5.09012E-03
 -1      5437 2.74307E-03 8.44230E-03-5.11416E-03
 -1      5438 2.74307E-03 8.44230E-03-5.13820E-03
 -1      5439 2.74307E-03 8.44230E-03-5.16224E-03
 -1      5440 2.74307E-03 8.44230E-03-5.18628E-03
 -1      5441 2.74307E-03 8.44229E-03-5.21033E-03
 -1      5442 2.74307E-03 8.44229E-03-5.23437E-03
 -1      5443 2.29747E-03 8.57428E-03-5.01799E-03
 -1      5444 2.29747E-03 8.57428E-03-5.04203E-03
 -1      5445 2.29747E-03 8.57429E-03-5.06607E-03
 -1      5446 2.29747E-03 8.57429E-03-5.09012E-03
 -1      5447 2.29747E-03 8.57429E-03-5.11416E-03
 -1      5448 2.29747E-03 8.57429E-03-5.13820E-03
 -1      5449 2.29747E-03 8.57429E-03-5.16224E-03
 -1      5450 2.29747E-03 8.57429E-03-5.18628E-03
 -1      5451 2.29747E-03 8.57428E-03-5.21033E-03
 -1      5452 2.29747E-03 8.57428E-03-5.23437E-03
 -1      5453 1.84558E-03 8.68277E-03-5.01799E-03
 -1      5454 1.84558E-03 8.68277E-03-5.04203E-03
 -1      5455 1.84558E-03 8.68278E-03-5.06607E-03
 -1      5456 1.84558E-03 8.68278E-03-5.09012E-03
 -1      5457 1.84558E-03 8.68278E-03-5.11416E-03
 -1      5458 1.84558E-03 8.68278E-03-5.13820E-03
 -1      5459 1.84558E-03 8.68278E-03-5.16224E-03
 -1      5460 1.84558E-03 8.68278E-03-5.18628E-03
 -1      5461 1.84558E-03 8.68277E-03-5.21033E-03
 -1      5462 1.84558E-03 8.68277E-03-5.23437E-03
 -1      5463 1.38863E-03 8.76746E-03-5.01799E-03
 -1      5464 1.38863E-03 8.76746E-03-5.04203E-03
 -1      5465 1.38863E-03 8.76747E-03-5.06607E-03
 -1      5466 1.38863E-03 8.76747E-03-5.09012E-03
 -1      5467 1.38863E-03 8.76747E-03-5.11416E-03
 -1      5468 1.38863E-03 8.76747E-03-5.13820E-03
 -1      5469 1.38863E-03 8.76747E-03-5.16224E-03
 -1      5470 1.38863E-03 8.76747E-03-5.18628E-03
 -1      5471 1.38863E-03 8.76746E-03-5.21033E-03
 -1      5472 1.38863E-03 8.76746E-03-5.23437E-03
 -1      5473 9.27873E-04 8.82812E-03-5.01799E-03
 -1      5474 9.27873E-04 8.82812E-03-5.04203E-03
 -1      5475 9.27874E-04 8.82813E-03-5.06607E-03
 -1      5476 9.27874E-04 8.82813E-03-5.09012E-03
 -1      5477 9.27874E-04 8.82813E-03-5.11416E-03
 -1      5478 9.27874E-04 8.82813E-03-5.13820E-03
 -1      5479 9.27874E-04 8.82813E-03-5.16224E-03
 -1      5480 9.27874E-04 8.82813E-03-5.18628E-03
 -1      5481 9.27873E-04 8.82812E-03-5.21033E-03
 -1      5482 9.27873E-04 8.82812E-03-5.23437E-03
 -1      5483 4.64573E-04 8.86458E-03-5.01799E-03
 -1      5484 4.64573E-04 8.86459E-03-5.04203E-03
 -1      5485 4.64574E-04 8.86459E-03-5.06607E-03
 -1      5486 4.64574E-04 8.86459E-03-5.09012E-03
 -1      5487 4.64574E-04 8.86459E-03-5.11416E-03
 -1      5488 4.64574E-04 8.86459E-03-5.13820E-03
 -1      5489 4.64574E-04 8.86459E-03-5.16224E-03
 -1      5490 4.64574E-04 8.86459E-03-5.18628E-03
 -1      5491 4.64573E-04 8.86459E-03-5.21033E-03
 -1      5492 4.64573E-04 8.86458E-03-5.23437E-03
 -1      5493 8.85735E-03 4.64194E-04-5.01799E-03
 -1      5494 8.85736E-03 4.64195E-04-5.04203E-03
 -1      5495 8.85736E-03 4.64195E-04-5.06607E-03
 -1      5496 8.85737E-03 4.64195E-04-5.09012E-03
 -1      5497 8.85737E-03 4.64195E-04-5.11416E-03
 -1      5498 8.85737E-03 4.64195E-04-5.13820E-03
 -1      5499 8.85737E-03 4.64195E-04-5.16224E-03
 -1      5500 8.85736E-03 4.64195E-04-5.18628E-03
 -1      5501 8.85736E-03 4.64195E-04-5.21033E-03
 -1      5502 8.85735E-03 4.64194E-04-5.23437E-03
 -1      5503 8.82092E-03 9.27116E-04-5.01799E-03
 -1      5504 8.82093E-03 9.27117E-04-5.04203E-03
 -1      5505 8.82093E-03 9.27117E-04-5.06607E-03
 -1      5506 8.82093E-03 9.27117E-04-5.09012E-03
 -1      5507 8.82094E-03 9.27118E-04-5.11416E-03
 -1      5508 8.82094E-03 9.27118E-04-5.13820E-03
 -1      5509 8.82093E-03 9.27117E-04-5.16224E-03
 -1      5510 8.82093E-03 9.27117E-04-5.18628E-03
 -1      5511 8.82093E-03 9.27117E-04-5.21033E-03
 -1      5512 8.82092E-03 9.27116E-04-5.23437E-03
 -1      5513 8.76031E-03 1.38750E-03-5.01799E-03
 -1      5514 8.76032E-03 1.38750E-03-5.04203E-03
 -1      5515 8.76032E-03 1.38750E-03-5.06607E-03
 -1      5516 8.76032E-03 1.38750E-03-5.09012E-03
 -1      5517 8.76032E-03 1.38750E-03-5.11416E-03
 -1      5518 8.76032E-03 1.38750E-03-5.13820E-03
 -1      5519 8.76032E-03 1.38750E-03-5.16224E-03
 -1      5520 8.76032E-03 1.38750E-03-5.18628E-03
 -1      5521 8.76032E-03 1.38750E-03-5.21033E-03
 -1      5522 8.76031E-03 1.38750E-03-5.23437E-03
 -1      5523 8.67569E-03 1.84407E-03-5.01799E-03
 -1      5524 8.67569E-03 1.84408E-03-5.04203E-03
 -1      5525 8.67570E-03 1.84408E-03-5.06607E-03
 -1      5526 8.67570E-03 1.84408E-03-5.09012E-03
 -1      5527 8.67570E-03 1.84408E-03-5.11416E-03
 -1      5528 8.67570E-03 1.84408E-03-5.13820E-03
 -1      5529 8.67570E-03 1.84408E-03-5.16224E-03
 -1      5530 8.67570E-03 1.84408E-03-5.18628E-03
 -1      5531 8.67569E-03 1.84408E-03-5.21033E-03
 -1      5532 8.67569E-03 1.84407E-03-5.23437E-03
 -1      5533 8.56729E-03 2.29560E-03-5.01799E-03
 -1      5534 8.56729E-03 2.29560E-03-5.04203E-03
 -1      5535 8.56730E-03 2.29560E-03-5.06607E-03
 -1      5536 8.56730E-03 2.29560E-03-5.09012E-03
 -1      5537 8.56730E-03 2.29560E-03-5.11416E-03
 -1      5538 8.56730E-03 2.29560E-03-5.13820E-03
 -1      5539 8.56730E-03 2.29560E-03-5.16224E-03
 -1      5540 8.56730E-03 2.29560E-03-5.18628E-03
 -1      5541 8.56729E-03 2.29560E-03-5.21033E-03
 -1      5542 8.56729E-03 2.29560E-03-5.23437E-03
 -1      5543 8.43540E-03 2.74083E-03-5.01799E-03
 -1      5544 8.43541E-03 2.74083E-03-5.04203E-03
 -1      5545 8.43541E-03 2.74083E-03-5.06607E-03
 -1      5546 8.43542E-03 2.74083E-03-5.09012E-03
 -1      5547 8.43542E-03 2.74083E-03-5.11416E-03
 -1      5548 8.43542E-03 2.74083E-03-5.13820E-03
 -1      5549 8.43542E-03 2.74083E-03-5.16224E-03
 -1      5550 8.43541E-03 2.74083E-03-5.18628E-03
 -1      5551 8.43541E-03 2.74083E-03-5.21033E-03
 -1      5552 8.43540E-03 2.74083E-03-5.23437E-03
 -1      5553 8.28040E-03 3.17855E-03-5.01799E-03
 -1      5554 8.28040E-03 3.17855E-03-5.04203E-03
 -1      5555 8.28041E-03 3.17855E-03-5.06607E-03
 -1      5556 8.28041E-03 3.17855E-03-5.09012E-03
 -1      5557 8.28041E-03 3.17855E-03-5.11416E-03
 -1      5558 8.28041E-03 3.17855E-03-5.13820E-03
 -1      5559 8.28041E-03 3.17855E-03-5.16224E-03
 -1      5560 8.28041E-03 3.17855E-03-5.18628E-03
 -1      5561 8.28040E-03 3.17855E-03-5.21033E-03
 -1      5562 8.28040E-03 3.17855E-03-5.23437E-03
 -1      5563 8.10270E-03 3.60755E-03-5.01799E-03
 -1      5564 8.10270E-03 3.60756E-03-5.04203E-03
 -1      5565 8.10271E-03 3.60756E-03-5.06607E-03
 -1      5566 8.10271E-03 3.60756E-03-5.09012E-03
 -1      5567 8.10271E-03 3.60756E-03-5.11416E-03
 -1      5568 8.10271E-03 3.60756E-03-5.13820E-03
 -1      5569 8.10271E-03 3.60756E-03-5.16224E-03
 -1      5570 8.10271E-03 3.60756E-03-5.18628E-03
 -1      5571 8.10270E-03 3.60756E-03-5.21033E-03
 -1      5572 8.10270E-03 3.60755E-03-5.23437E-03
 -1      5573 7.90279E-03 4.02667E-03-5.01799E-03
 -1      5574 7.90280E-03 4.02668E-03-5.04203E-03
 -1      5575 7.90280E-03 4.02668E-03-5.06607E-03
 -1      5576 7.90280E-03 4.02668E-03-5.09012E-03
 -1      5577 7.90280E-03 4.02668E-03-5.11416E-03
 -1      5578 7.90280E-03 4.02668E-03-5.13820E-03
 -1      5579 7.90280E-03 4.02668E-03-5.16224E-03
 -1      5580 7.90280E-03 4.02668E-03-5.18628E-03
 -1      5581 7.90280E-03 4.02668E-03-5.21033E-03
 -1      5582 7.90279E-03 4.02667E-03-5.23437E-03
 -1      5583 7.68122E-03 4.43475E-03-5.01799E-03
 -1      5584 7.68122E-03 4.43476E-03-5.04203E-03
 -1      5585 7.68123E-03 4.43476E-03-5.06607E-03
 -1      5586 7.68123E-03 4.43476E-03-5.09012E-03
 -1      5587 7.68123E-03 4.43476E-03-5.11416E-03
 -1      5588 7.68123E-03 4.43476E-03-5.13820E-03
 -1      5589 7.68123E-03 4.43476E-03-5.16224E-03
 -1      5590 7.68123E-03 4.43476E-03-5.18628E-03
 -1      5591 7.68122E-03 4.43476E-03-5.21033E-03
 -1      5592 7.68122E-03 4.43475E-03-5.23437E-03
 -1      5593 7.43860E-03 4.83068E-03-5.01799E-03
 -1      5594 7.43860E-03 4.83068E-03-5.04203E-03
 -1      5595 7.43860E-03 4.83069E-03-5.06607E-03
 -1      5596 7.43861E-03 4.83069E-03-5.09012E-03
 -1      5597 7.43861E-03 4.83069E-03-5.11416E-03
 -1      5598 7.43861E-03 4.83069E-03-5.13820E-03
 -1      5599 7.43861E-03 4.83069E-03-5.16224E-03
 -1      5600 7.43860E-03 4.83069E-03-5.18628E-03
 -1      5601 7.43860E-03 4.83068E-03-5.21033E-03
 -1      5602 7.43860E-03 4.83068E-03-5.23437E-03
 -1      5603 7.17558E-03 5.21337E-03-5.01799E-03
 -1      5604 7.17559E-03 5.21337E-03-5.04203E-03
 -1      5605 7.17559E-03 5.21337E-03-5.06607E-03
 -1      5606 7.17559E-03 5.21337E-03-5.09012E-03
 -1      5607 7.17560E-03 5.21337E-03-5.11416E-03
 -1      5608 7.17560E-03 5.21337E-03-5.13820E-03
 -1      5609 7.17559E-03 5.21337E-03-5.16224E-03
 -1      5610 7.17559E-03 5.21337E-03-5.18628E-03
 -1      5611 7.17559E-03 5.21337E-03-5.21033E-03
 -1      5612 7.17558E-03 5.21337E-03-5.23437E-03
 -1      5613 6.89290E-03 5.58176E-03-5.01799E-03
 -1      5614 6.89291E-03 5.58177E-03-5.04203E-03
 -1      5615 6.89291E-03 5.58177E-03-5.06607E-03
 -1      5616 6.89291E-03 5.58177E-03-5.09012E-03
 -1      5617 6.89291E-03 5.58177E-03-5.11416E-03
 -1      5618 6.89291E-03 5.58177E-03-5.13820E-03
 -1      5619 6.89291E-03 5.58177E-03-5.16224E-03
 -1      5620 6.89291E-03 5.58177E-03-5.18628E-03
 -1      5621 6.89291E-03 5.58177E-03-5.21033E-03
 -1      5622 6.89290E-03 5.58176E-03-5.23437E-03
 -1      5623 6.59133E-03 5.93486E-03-5.01799E-03
 -1      5624 6.59133E-03 5.93486E-03-5.04203E-03
 -1      5625 6.59134E-03 5.93487E-03-5.06607E-03
 -1      5626 6.59134E-03 5.93487E-03-5.09012E-03
 -1      5627 6.59134E-03 5.93487E-03-5.11416E-03
 -1      5628 6.59134E-03 5.93487E-03-5.13820E-03
 -1      5629 6.59134E-03 5.93487E-03-5.16224E-03
 -1      5630 6.59134E-03 5.93487E-03-5.18628E-03
 -1      5631 6.59133E-03 5.93486E-03-5.21033E-03
 -1      5632 6.59133E-03 5.93486E-03-5.23437E-03
 -1      5633 6.27169E-03 6.27169E-03-5.01799E-03
 -1      5634 6.27169E-03 6.27169E-03-5.04203E-03
 -1      5635 6.27170E-03 6.27170E-03-5.06607E-03
 -1      5636 6.27170E-03 6.27170E-03-5.09012E-03
 -1      5637 6.27170E-03 6.27170E-03-5.11416E-03
 -1      5638 6.27170E-03 6.27170E-03-5.13820E-03
 -1      5639 6.27170E-03 6.27170E-03-5.16224E-03
 -1      5640 6.27170E-03 6.27170E-03-5.18628E-03
 -1      5641 6.27169E-03 6.27169E-03-5.21033E-03
 -1      5642 6.27169E-03 6.27169E-03-5.23437E-03
 -1      5643 5.93486E-03 6.59133E-03-5.01799E-03
 -1      5644 5.93486E-03 6.59133E-03-5.04203E-03
 -1      5645 5.93487E-03 6.59134E-03-5.06607E-03
 -1      5646 5.93487E-03 6.59134E-03-5.09012E-03
 -1      5647 5.93487E-03 6.59134E-03-5.11416E-03
 -1      5648 5.93487E-03 6.59134E-03-5.13820E-03
 -1      5649 5.93487E-03 6.59134E-03-5.16224E-03
 -1      5650 5.93487E-03 6.59134E-03-5.18628E-03
 -1      5651 5.93486E-03 6.59133E-03-5.21033E-03
 -1      5652 5.93486E-03 6.59133E-03-5.23437E-03
 -1      5653 5.58176E-03 6.89290E-03-5.01799E-03
 -1      5654 5.58177E-03 6.89291E-03-5.04203E-03
 -1      5655 5.58177E-03 6.89291E-03-5.06607E-03
 -1      5656 5.58177E-03 6.89291E-03-5.09012E-03
 -1      5657 5.58177E-03 6.89291E-03-5.11416E-03
 -1      5658 5.58177E-03 6.89291E-03-5.13820E-03
 -1      5659 5.58177E-03 6.89291E-03-5.16224E-03
 -1      5660 5.58177E-03 6.89291E-03-5.18628E-03
 -1      5661 5.58177E-03 6.89291E-03-5.21033E-03
 -1      5662 5.58176E-03 6.89290E-03-5.23437E-03
 -1      5663 5.21337E-03 7.17558E-03-5.01799E-03
 -1      5664 5.21337E-03 7.17559E-03-5.04203E-03
 -1      5665 5.21337E-03 7.17559E-03-5.06607E-03
 -1      5666 5.21337E-03 7.17559E-03-5.09012E-03
 -1      5667 5.21337E-03 7.17560E-03-5.11416E-03
 -1      5668 5.21337E-03 7.17560E-03-5.13820E-03
 -1      5669 5.21337E-03 7.17559E-03-5.16224E-03
 -1      5670 5.21337E-03 7.17559E-03-5.18628E-03
 -1      5671 5.21337E-03 7.17559E-03-5.21033E-03
 -1      5672 5.21337E-03 7.17558E-03-5.23437E-03
 -1      5673 4.83068E-03 7.43860E-03-5.01799E-03
 -1      5674 4.83068E-03 7.43860E-03-5.04203E-03
 -1      5675 4.83069E-03 7.43860E-03-5.06607E-03
 -1      5676 4.83069E-03 7.43861E-03-5.09012E-03
 -1      5677 4.83069E-03 7.43861E-03-5.11416E-03
 -1      5678 4.83069E-03 7.43861E-03-5.13820E-03
 -1      5679 4.83069E-03 7.43861E-03-5.16224E-03
 -1      5680 4.83069E-03 7.43860E-03-5.18628E-03
 -1      5681 4.83068E-03 7.43860E-03-5.21033E-03
 -1      5682 4.83068E-03 7.43860E-03-5.23437E-03
 -1      5683 4.43475E-03 7.68122E-03-5.01799E-03
 -1      5684 4.43476E-03 7.68122E-03-5.04203E-03
 -1      5685 4.43476E-03 7.68123E-03-5.06607E-03
 -1      5686 4.43476E-03 7.68123E-03-5.09012E-03
 -1      5687 4.43476E-03 7.68123E-03-5.11416E-03
 -1      5688 4.43476E-03 7.68123E-03-5.13820E-03
 -1      5689 4.43476E-03 7.68123E-03-5.16224E-03
 -1      5690 4.43476E-03 7.68123E-03-5.18628E-03
 -1      5691 4.43476E-03 7.68122E-03-5.21033E-03
 -1      5692 4.43475E-03 7.68122E-03-5.23437E-03
 -1      5693 4.02667E-03 7.90279E-03-5.01799E-03
 -1      5694 4.02668E-03 7.90280E-03-5.04203E-03
 -1      5695 4.02668E-03 7.90280E-03-5.06607E-03
 -1      5696 4.02668E-03 7.90280E-03-5.09012E-03
 -1      5697 4.02668E-03 7.90280E-03-5.11416E-03
 -1      5698 4.02668E-03 7.90280E-03-5.13820E-03
 -1      5699 4.02668E-03 7.90280E-03-5.16224E-03
 -1      5700 4.02668E-03 7.90280E-03-5.18628E-03
 -1      5701 4.02668E-03 7.90280E-03-5.21033E-03
 -1      5702 4.02667E-03 7.90279E-03-5.23437E-03
 -1      5703 3.60755E-03 8.10270E-03-5.01799E-03
 -1      5704 3.60756E-03 8.10270E-03-5.04203E-03
 -1      5705 3.60756E-03 8.10271E-03-5.06607E-03
 -1      5706 3.60756E-03 8.10271E-03-5.09012E-03
 -1      5707 3.60756E-03 8.10271E-03-5.11416E-03
 -1      5708 3.60756E-03 8.10271E-03-5.13820E-03
 -1      5709 3.60756E-03 8.10271E-03-5.16224E-03
 -1      5710 3.60756E-03 8.10271E-03-5.18628E-03
 -1      5711 3.60756E-03 8.10270E-03-5.21033E-03
 -1      5712 3.60755E-03 8.10270E-03-5.23437E-03
 -1      5713 3.17855E-03 8.28040E-03-5.01799E-03
 -1      5714 3.17855E-03 8.28040E-03-5.04203E-03
 -1      5715 3.17855E-03 8.28041E-03-5.06607E-03
 -1      5716 3.17855E-03 8.28041E-03-5.09012E-03
 -1      5717 3.17855E-03 8.28041E-03-5.11416E-03
 -1      5718 3.17855E-03 8.28041E-03-5.13820E-03
 -1      5719 3.17855E-03 8.28041E-03-5.16224E-03
 -1      5720 3.17855E-03 8.28041E-03-5.18628E-03
 -1      5721 3.17855E-03 8.28040E-03-5.21033E-03
 -1      5722 3.17855E-03 8.28040E-03-5.23437E-03
 -1      5723 2.74083E-03 8.43540E-03-5.01799E-03
 -1      5724 2.74083E-03 8.43541E-03-5.04203E-03
 -1      5725 2.74083E-03 8.43541E-03-5.06607E-03
 -1      5726 2.74083E-03 8.43542E-03-5.09012E-03
 -1      5727 2.74083E-03 8.43542E-03-5.11416E-03
 -1      5728 2.74083E-03 8.43542E-03-5.13820E-03
 -1      5729 2.74083E-03 8.43542E-03-5.16224E-03
 -1      5730 2.74083E-03 8.43541E-03-5.18628E-03
 -1      5731 2.74083E-03 8.43541E-03-5.21033E-03
 -1      5732 2.74083E-03 8.43540E-03-5.23437E-03
 -1      5733 2.29560E-03 8.56729E-03-5.01799E-03
 -1      5734 2.29560E-03 8.56729E-03-5.04203E-03
 -1      5735 2.29560E-03 8.56730E-03-5.06607E-03
 -1      5736 2.29560E-03 8.56730E-03-5.09012E-03
 -1      5737 2.29560E-03 8.56730E-03-5.11416E-03
 -1      5738 2.29560E-03 8.56730E-03-5.13820E-03
 -1      5739 2.29560E-03 8.56730E-03-5.16224E-03
 -1      5740 2.29560E-03 8.56730E-03-5.18628E-03
 -1      5741 2.29560E-03 8.56729E-03-5.21033E-03
 -1      5742 2.29560E-03 8.56729E-03-5.23437E-03
 -1      5743 1.84407E-03 8.67569E-03-5.01799E-03
 -1      5744 1.84408E-03 8.67569E-03-5.04203E-03
 -1      5745 1.84408E-03 8.67570E-03-5.06607E-03
 -1      5746 1.84408E-03 8.67570E-03-5.09012E-03
 -1      5747 1.84408E-03 8.67570E-03-5.11416E-03
 -1      5748 1.84408E-03 8.67570E-03-5.13820E-03
 -1      5749 1.84408E-03 8.67570E-03-5.16224E-03
 -1      5750 1.84408E-03 8.67570E-03-5.18628E-03
 -1      5751 1.84408E-03 8.67569E-03-5.21033E-03
 -1      5752 1.84407E-03 8.67569E-03-5.23437E-03
 -1      5753 1.38750E-03 8.76031E-03-5.01799E-03
 -1      5754 1.38750E-03 8.76032E-03-5.04203E-03
 -1      5755 1.38750E-03 8.76032E-03-5.06607E-03
 -1      5756 1.38750E-03 8.76032E-03-5.09012E-03
 -1      5757 1.38750E-03 8.76032E-03-5.11416E-03
 -1      5758 1.38750E-03 8.76032E-03-5.13820E-03
 -1      5759 1.38750E-03 8.76032E-03-5.16224E-03
 -1      5760 1.38750E-03 8.76032E-03-5.18628E-03
 -1      5761 1.38750E-03 8.76032E-03-5.21033E-03
 -1      5762 1.38750E-03 8.76031E-03-5.23437E-03
 -1      5763 9.27116E-04 8.82092E-03-5.01799E-03
 -1      5764 9.27117E-04 8.82093E-03-5.04203E-03
 -1      5765 9.27117E-04 8.82093E-03-5.06607E-03
 -1      5766 9.27117E-04 8.82093E-03-5.09012E-03
 -1      5767 9.27118E-04 8.82094E-03-5.11416E-03
 -1      5768 9.27118E-04 8.82094E-03-5.13820E-03
 -1      5769 9.27117E-04 8.82093E-03-5.16224E-03
 -1      5770 9.27117E-04 8.82093E-03-5.18628E-03
 -1      5771 9.27117E-04 8.82093E-03-5.21033E-03
 -1      5772 9.27116E-04 8.82092E-03-5.23437E-03
 -1      5773 4.64194E-04 8.85735E-03-5.01799E-03
 -1      5774 4.64195E-04 8.85736E-03-5.04203E-03
 -1      5775 4.64195E-04 8.85736E-03-5.06607E-03
 -1      5776 4.64195E-04 8.85737E-03-5.09012E-03
 -1      5777 4.64195E-04 8.85737E-03-5.11416E-03
 -1      5778 4.64195E-04 8.85737E-03-5.13820E-03
 -1      5779 4.64195E-04 8.85737E-03-5.16224E-03
 -1      5780 4.64195E-04 8.85736E-03-5.18628E-03
 -1      5781 4.64195E-04 8.85736E-03-5.21033E-03
 -1      5782 4.64194E-04 8.85735E-03-5.23437E-03
 -1      5783 8.85020E-03 4.63819E-04-5.01799E-03
 -1      5784 8.85021E-03 4.63820E-04-5.04203E-03
 -1      5785 8.85021E-03 4.63820E-04-5.06607E-03
 -1      5786 8.85022E-03 4.63820E-04-5.09012E-03
 -1      5787 8.85022E-03 4.63820E-04-5.11416E-03
 -1      5788 8.85022E-03 4.63820E-04-5.13820E-03
 -1      5789 8.85022E-03 4.63820E-04-5.16224E-03
 -1      5790 8.85021E-03 4.63820E-04-5.18628E-03
 -1      5791 8.85021E-03 4.63820E-04-5.21032E-03
 -1      5792 8.85020E-03 4.63819E-04-5.23437E-03
 -1      5793 8.81380E-03 9.26368E-04-5.01799E-03
 -1      5794 8.81380E-03 9.26368E-04-5.04203E-03
 -1      5795 8.81381E-03 9.26369E-04-5.06607E-03
 -1      5796 8.81381E-03 9.26369E-04-5.09012E-03
 -1      5797 8.81381E-03 9.26369E-04-5.11416E-03
 -1      5798 8.81381E-03 9.26369E-04-5.13820E-03
 -1      5799 8.81381E-03 9.26369E-04-5.16224E-03
 -1      5800 8.81381E-03 9.26369E-04-5.18628E-03
 -1      5801 8.81380E-03 9.26368E-04-5.21032E-03
 -1      5802 8.81380E-03 9.26368E-04-5.23437E-03
 -1      5803 8.75324E-03 1.38638E-03-5.01799E-03
 -1      5804 8.75324E-03 1.38638E-03-5.04203E-03
 -1      5805 8.75325E-03 1.38638E-03-5.06607E-03
 -1      5806 8.75325E-03 1.38638E-03-5.09012E-03
 -1      5807 8.75325E-03 1.38638E-03-5.11416E-03
 -1      5808 8.75325E-03 1.38638E-03-5.13820E-03
 -1      5809 8.75325E-03 1.38638E-03-5.16224E-03
 -1      5810 8.75325E-03 1.38638E-03-5.18628E-03
 -1      5811 8.75324E-03 1.38638E-03-5.21032E-03
 -1      5812 8.75324E-03 1.38638E-03-5.23437E-03
 -1      5813 8.66868E-03 1.84259E-03-5.01799E-03
 -1      5814 8.66869E-03 1.84259E-03-5.04203E-03
 -1      5815 8.66869E-03 1.84259E-03-5.06607E-03
 -1      5816 8.66870E-03 1.84259E-03-5.09012E-03
 -1      5817 8.66870E-03 1.84259E-03-5.11416E-03
 -1      5818 8.66870E-03 1.84259E-03-5.13820E-03
 -1      5819 8.66870E-03 1.84259E-03-5.16224E-03
 -1      5820 8.66869E-03 1.84259E-03-5.18628E-03
 -1      5821 8.66869E-03 1.84259E-03-5.21032E-03
 -1      5822 8.66868E-03 1.84259E-03-5.23437E-03
 -1      5823 8.56037E-03 2.29374E-03-5.01799E-03
 -1      5824 8.56038E-03 2.29375E-03-5.04203E-03
 -1      5825 8.56038E-03 2.29375E-03-5.06607E-03
 -1      5826 8.56038E-03 2.29375E-03-5.09012E-03
 -1      5827 8.56038E-03 2.29375E-03-5.11416E-03
 -1      5828 8.56038E-03 2.29375E-03-5.13820E-03
 -1      5829 8.56038E-03 2.29375E-03-5.16224E-03
 -1      5830 8.56038E-03 2.29375E-03-5.18628E-03
 -1      5831 8.56038E-03 2.29375E-03-5.21032E-03
 -1      5832 8.56037E-03 2.29374E-03-5.23437E-03
 -1      5833 8.42859E-03 2.73862E-03-5.01799E-03
 -1      5834 8.42860E-03 2.73862E-03-5.04203E-03
 -1      5835 8.42860E-03 2.73862E-03-5.06607E-03
 -1      5836 8.42861E-03 2.73862E-03-5.09012E-03
 -1      5837 8.42861E-03 2.73862E-03-5.11416E-03
 -1      5838 8.42861E-03 2.73862E-03-5.13820E-03
 -1      5839 8.42861E-03 2.73862E-03-5.16224E-03
 -1      5840 8.42860E-03 2.73862E-03-5.18628E-03
 -1      5841 8.42860E-03 2.73862E-03-5.21032E-03
 -1      5842 8.42859E-03 2.73862E-03-5.23437E-03
 -1      5843 8.27371E-03 3.17598E-03-5.01799E-03
 -1      5844 8.27372E-03 3.17598E-03-5.04203E-03
 -1      5845 8.27372E-03 3.17599E-03-5.06607E-03
 -1      5846 8.27373E-03 3.17599E-03-5.09012E-03
 -1      5847 8.27373E-03 3.17599E-03-5.11416E-03
 -1      5848 8.27373E-03 3.17599E-03-5.13820E-03
 -1      5849 8.27373E-03 3.17599E-03-5.16224E-03
 -1      5850 8.27372E-03 3.17599E-03-5.18628E-03
 -1      5851 8.27372E-03 3.17598E-03-5.21032E-03
 -1      5852 8.27371E-03 3.17598E-03-5.23437E-03
 -1      5853 8.09616E-03 3.60464E-03-5.01799E-03
 -1      5854 8.09616E-03 3.60464E-03-5.04203E-03
 -1      5855 8.09617E-03 3.60465E-03-5.06607E-03
 -1      5856 8.09617E-03 3.60465E-03-5.09012E-03
 -1      5857 8.09617E-03 3.60465E-03-5.11416E-03
 -1      5858 8.09617E-03 3.60465E-03-5.13820E-03
 -1      5859 8.09617E-03 3.60465E-03-5.16224E-03
 -1      5860 8.09617E-03 3.60465E-03-5.18628E-03
 -1      5861 8.09616E-03 3.60464E-03-5.21032E-03
 -1      5862 8.09616E-03 3.60464E-03-5.23437E-03
 -1      5863 7.89641E-03 4.02342E-03-5.01799E-03
 -1      5864 7.89641E-03 4.02342E-03-5.04203E-03
 -1      5865 7.89642E-03 4.02343E-03-5.06607E-03
 -1      5866 7.89642E-03 4.02343E-03-5.09012E-03
 -1      5867 7.89642E-03 4.02343E-03-5.11416E-03
 -1      5868 7.89642E-03 4.02343E-03-5.13820E-03
 -1      5869 7.89642E-03 4.02343E-03-5.16224E-03
 -1      5870 7.89642E-03 4.02343E-03-5.18628E-03
 -1      5871 7.89641E-03 4.02342E-03-5.21032E-03
 -1      5872 7.89641E-03 4.02342E-03-5.23437E-03
 -1      5873 7.67502E-03 4.43117E-03-5.01799E-03
 -1      5874 7.67502E-03 4.43118E-03-5.04203E-03
 -1      5875 7.67503E-03 4.43118E-03-5.06607E-03
 -1      5876 7.67503E-03 4.43118E-03-5.09012E-03
 -1      5877 7.67503E-03 4.43118E-03-5.11416E-03
 -1      5878 7.67503E-03 4.43118E-03-5.13820E-03
 -1      5879 7.67503E-03 4.43118E-03-5.16224E-03
 -1      5880 7.67503E-03 4.43118E-03-5.18628E-03
 -1      5881 7.67502E-03 4.43118E-03-5.21032E-03
 -1      5882 7.67502E-03 4.43117E-03-5.23437E-03
 -1      5883 7.43259E-03 4.82678E-03-5.01799E-03
 -1      5884 7.43259E-03 4.82678E-03-5.04203E-03
 -1      5885 7.43260E-03 4.82679E-03-5.06607E-03
 -1      5886 7.43260E-03 4.82679E-03-5.09012E-03
 -1      5887 7.43260E-03 4.82679E-03-5.11416E-03
 -1      5888 7.43260E-03 4.82679E-03-5.13820E-03
 -1      5889 7.43260E-03 4.82679E-03-5.16224E-03
 -1      5890 7.43260E-03 4.82679E-03-5.18628E-03
 -1      5891 7.43259E-03 4.82678E-03-5.21032E-03
 -1      5892 7.43259E-03 4.82678E-03-5.23437E-03
 -1      5893 7.16979E-03 5.20916E-03-5.01799E-03
 -1      5894 7.16979E-03 5.20916E-03-5.04203E-03
 -1      5895 7.16980E-03 5.20916E-03-5.06607E-03
 -1      5896 7.16980E-03 5.20916E-03-5.09012E-03
 -1      5897 7.16980E-03 5.20917E-03-5.11416E-03
 -1      5898 7.16980E-03 5.20917E-03-5.13820E-03
 -1      5899 7.16980E-03 5.20916E-03-5.16224E-03
 -1      5900 7.16980E-03 5.20916E-03-5.18628E-03
 -1      5901 7.16979E-03 5.20916E-03-5.21032E-03
 -1      5902 7.16979E-03 5.20916E-03-5.23437E-03
 -1      5903 6.88734E-03 5.57726E-03-5.01799E-03
 -1      5904 6.88734E-03 5.57726E-03-5.04203E-03
 -1      5905 6.88735E-03 5.57726E-03-5.06607E-03
 -1      5906 6.88735E-03 5.57726E-03-5.09012E-03
 -1      5907 6.88735E-03 5.57726E-03-5.11416E-03
 -1      5908 6.88735E-03 5.57726E-03-5.13820E-03
 -1      5909 6.88735E-03 5.57726E-03-5.16224E-03
 -1      5910 6.88735E-03 5.57726E-03-5.18628E-03
 -1      5911 6.88734E-03 5.57726E-03-5.21032E-03
 -1      5912 6.88734E-03 5.57726E-03-5.23437E-03
 -1      5913 6.58601E-03 5.93007E-03-5.01799E-03
 -1      5914 6.58601E-03 5.93007E-03-5.04203E-03
 -1      5915 6.58602E-03 5.93007E-03-5.06607E-03
 -1      5916 6.58602E-03 5.93008E-03-5.09012E-03
 -1      5917 6.58602E-03 5.93008E-03-5.11416E-03
 -1      5918 6.58602E-03 5.93008E-03-5.13820E-03
 -1      5919 6.58602E-03 5.93008E-03-5.16224E-03
 -1      5920 6.58602E-03 5.93007E-03-5.18628E-03
 -1      5921 6.58601E-03 5.93007E-03-5.21032E-03
 -1      5922 6.58601E-03 5.93007E-03-5.23437E-03
 -1      5923 6.26663E-03 6.26663E-03-5.01799E-03
 -1      5924 6.26663E-03 6.26663E-03-5.04203E-03
 -1      5925 6.26663E-03 6.26663E-03-5.06607E-03
 -1      5926 6.26664E-03 6.26664E-03-5.09012E-03
 -1      5927 6.26664E-03 6.26664E-03-5.11416E-03
 -1      5928 6.26664E-03 6.26664E-03-5.13820E-03
 -1      5929 6.26664E-03 6.26664E-03-5.16224E-03
 -1      5930 6.26663E-03 6.26663E-03-5.18628E-03
 -1      5931 6.26663E-03 6.26663E-03-5.21032E-03
 -1      5932 6.26663E-03 6.26663E-03-5.23437E-03
 -1      5933 5.93007E-03 6.58601E-03-5.01799E-03
 -1      5934 5.93007E-03 6.58601E-03-5.04203E-03
 -1      5935 5.93007E-03 6.58602E-03-5.06607E-03
 -1      5936 5.93008E-03 6.58602E-03-5.09012E-03
 -1      5937 5.93008E-03 6.58602E-03-5.11416E-03
 -1      5938 5.93008E-03 6.58602E-03-5.13820E-03
 -1      5939 5.93008E-03 6.58602E-03-5.16224E-03
 -1      5940 5.93007E-03 6.58602E-03-5.18628E-03
 -1      5941 5.93007E-03 6.58601E-03-5.21032E-03
 -1      5942 5.93007E-03 6.58601E-03-5.23437E-03
 -1      5943 5.57726E-03 6.88734E-03-5.01799E-03
 -1      5944 5.57726E-03 6.88734E-03-5.04203E-03
 -1      5945 5.57726E-03 6.88735E-03-5.06607E-03
 -1      5946 5.57726E-03 6.88735E-03-5.09012E-03
 -1      5947 5.57726E-03 6.88735E-03-5.11416E-03
 -1      5948 5.57726E-03 6.88735E-03-5.13820E-03
 -1      5949 5.57726E-03 6.88735E-03-5.16224E-03
 -1      5950 5.57726E-03 6.88735E-03-5.18628E-03
 -1      5951 5.57726E-03 6.88734E-03-5.21032E-03
 -1      5952 5.57726E-03 6.88734E-03-5.23437E-03
 -1      5953 5.20916E-03 7.16979E-03-5.01799E-03
 -1      5954 5.20916E-03 7.16979E-03-5.04203E-03
 -1      5955 5.20916E-03 7.16980E-03-5.06607E-03
 -1      5956 5.20916E-03 7.16980E-03-5.09012E-03
 -1      5957 5.20917E-03 7.16980E-03-5.11416E-03
 -1      5958 5.20917E-03 7.16980E-03-5.13820E-03
 -1      5959 5.20916E-03 7.16980E-03-5.16224E-03
 -1      5960 5.20916E-03 7.16980E-03-5.18628E-03
 -1      5961 5.20916E-03 7.16979E-03-5.21032E-03
 -1      5962 5.20916E-03 7.16979E-03-5.23437E-03
 -1      5963 4.82678E-03 7.43259E-03-5.01799E-03
 -1      5964 4.82678E-03 7.43259E-03-5.04203E-03
 -1      5965 4.82679E-03 7.43260E-03-5.06607E-03
 -1      5966 4.82679E-03 7.43260E-03-5.09012E-03
 -1      5967 4.82679E-03 7.43260E-03-5.11416E-03
 -1      5968 4.82679E-03 7.43260E-03-5.13820E-03
 -1      5969 4.82679E-03 7.43260E-03-5.16224E-03
 -1      5970 4.82679E-03 7.43260E-03-5.18628E-03
 -1      5971 4.82678E-03 7.43259E-03-5.21032E-03
 -1      5972 4.82678E-03 7.43259E-03-5.23437E-03
 -1      5973 4.43117E-03 7.67502E-03-5.01799E-03
 -1      5974 4.43118E-03 7.67502E-03-5.04203E-03
 -1      5975 4.43118E-03 7.67503E-03-5.06607E-03
 -1      5976 4.43118E-03 7.67503E-03-5.09012E-03
 -1      5977 4.43118E-03 7.67503E-03-5.11416E-03
 -1      5978 4.43118E-03 7.67503E-03-5.13820E-03
 -1      5979 4.43118E-03 7.67503E-03-5.16224E-03
 -1      5980 4.43118E-03 7.67503E-03-5.18628E-03
 -1      5981 4.43118E-03 7.67502E-03-5.21032E-03
 -1      5982 4.43117E-03 7.67502E-03-5.23437E-03
 -1      5983 4.02342E-03 7.89641E-03-5.01799E-03
 -1      5984 4.02342E-03 7.89641E-03-5.04203E-03
 -1      5985 4.02343E-03 7.89642E-03-5.06607E-03
 -1      5986 4.02343E-03 7.89642E-03-5.09012E-03
 -1      5987 4.02343E-03 7.89642E-03-5.11416E-03
 -1      5988 4.02343E-03 7.89642E-03-5.13820E-03
 -1      5989 4.02343E-03 7.89642E-03-5.16224E-03
 -1      5990 4.02343E-03 7.89642E-03-5.18628E-03
 -1      5991 4.02342E-03 7.89641E-03-5.21032E-03
 -1      5992 4.02342E-03 7.89641E-03-5.23437E-03
 -1      5993 3.60464E-03 8.09616E-03-5.01799E-03
 -1      5994 3.60464E-03 8.09616E-03-5.04203E-03
 -1      5995 3.60465E-03 8.09617E-03-5.06607E-03
 -1      5996 3.60465E-03 8.09617E-03-5.09012E-03
 -1      5997 3.60465E-03 8.09617E-03-5.11416E-03
 -1      5998 3.60465E-03 8.09617E-03-5.13820E-03
 -1      5999 3.60465E-03 8.09617E-03-5.16224E-03
 -1      6000 3.60465E-03 8.09617E-03-5.18628E-03
 -1      6001 3.60464E-03 8.09616E-03-5.21032E-03
 -1      6002 3.60464E-03 8.09616E-03-5.23437E-03
 -1      6003 3.17598E-03 8.27371E-03-5.01799E-03
 -1      6004 3.17598E-03 8.27372E-03-5.04203E-03
 -1      6005 3.17599E-03 8.27372E-03-5.06607E-03
 -1      6006 3.17599E-03 8.27373E-03-5.09012E-03
 -1      6007 3.17599E-03 8.27373E-03-5.11416E-03
 -1      6008 3.17599E-03 8.27373E-03-5.13820E-03
 -1      6009 3.17599E-03 8.27373E-03-5.16224E-03
 -1      6010 3.17599E-03 8.27372E-03-5.18628E-03
 -1      6011 3.17598E-03 8.27372E-03-5.21032E-03
 -1      6012 3.17598E-03 8.27371E-03-5.23437E-03
 -1      6013 2.73862E-03 8.42859E-03-5.01799E-03
 -1      6014 2.73862E-03 8.42860E-03-5.04203E-03
 -1      6015 2.73862E-03 8.42860E-03-5.06607E-03
 -1      6016 2.73862E-03 8.42861E-03-5.09012E-03
 -1      6017 2.73862E-03 8.42861E-03-5.11416E-03
 -1      6018 2.73862E-03 8.42861E-03-5.13820E-03
 -1      6019 2.73862E-03 8.42861E-03-5.16224E-03
 -1      6020 2.73862E-03 8.42860E-03-5.18628E-03
 -1      6021 2.73862E-03 8.42860E-03-5.21032E-03
 -1      6022 2.73862E-03 8.42859E-03-5.23437E-03
 -1      6023 2.29374E-03 8.56037E-03-5.01799E-03
 -1      6024 2.29375E-03 8.56038E-03-5.04203E-03
 -1      6025 2.29375E-03 8.56038E-03-5.06607E-03
 -1      6026 2.29375E-03 8.56038E-03-5.09012E-03
 -1      6027 2.29375E-03 8.56038E-03-5.11416E-03
 -1      6028 2.29375E-03 8.56038E-03-5.13820E-03
 -1      6029 2.29375E-03 8.56038E-03-5.16224E-03
 -1      6030 2.29375E-03 8.56038E-03-5.18628E-03
 -1      6031 2.29375E-03 8.56038E-03-5.21032E-03
 -1      6032 2.29374E-03 8.56037E-03-5.23437E-03
 -1      6033 1.84259E-03 8.66868E-03-5.01799E-03
 -1      6034 1.84259E-03 8.66869E-03-5.04203E-03
 -1      6035 1.84259E-03 8.66869E-03-5.06607E-03
 -1      6036 1.84259E-03 8.66870E-03-5.09012E-03
 -1      6037 1.84259E-03 8.66870E-03-5.11416E-03
 -1      6038 1.84259E-03 8.66870E-03-5.13820E-03
 -1      6039 1.84259E-03 8.66870E-03-5.16224E-03
 -1      6040 1.84259E-03 8.66869E-03-5.18628E-03
 -1      6041 1.84259E-03 8.66869E-03-5.21032E-03
 -1      6042 1.84259E-03 8.66868E-03-5.23437E-03
 -1      6043 1.38638E-03 8.75324E-03-5.01799E-03
 -1      6044 1.38638E-03 8.75324E-03-5.04203E-03
 -1      6045 1.38638E-03 8.75325E-03-5.06607E-03
 -1      6046 1.38638E-03 8.75325E-03-5.09012E-03
 -1      6047 1.38638E-03 8.75325E-03-5.11416E-03
 -1      6048 1.38638E-03 8.75325E-03-5.13820E-03
 -1      6049 1.38638E-03 8.75325E-03-5.16224E-03
 -1      6050 1.38638E-03 8.75325E-03-5.18628E-03
 -1      6051 1.38638E-03 8.75324E-03-5.21032E-03
 -1      6052 1.38638E-03 8.75324E-03-5.23437E-03
 -1      6053 9.26368E-04 8.81380E-03-5.01799E-03
 -1      6054 9.26368E-04 8.81380E-03-5.04203E-03
 -1      6055 9.26369E-04 8.81381E-03-5.06607E-03
 -1      6056 9.26369E-04 8.81381E-03-5.09012E-03
 -1      6057 9.26369E-04 8.81381E-03-5.11416E-03
 -1      6058 9.26369E-04 8.81381E-03-5.13820E-03
 -1      6059 9.26369E-04 8.81381E-03-5.16224E-03
 -1      6060 9.26369E-04 8.81381E-03-5.18628E-03
 -1      6061 9.26368E-04 8.81380E-03-5.21032E-03
 -1      6062 9.26368E-04 8.81380E-03-5.23437E-03
 -1      6063 4.63819E-04 8.85020E-03-5.01799E-03
 -1      6064 4.63820E-04 8.85021E-03-5.04203E-03
 -1      6065 4.63820E-04 8.85021E-03-5.06607E-03
 -1      6066 4.63820E-04 8.85022E-03-5.09012E-03
 -1      6067 4.63820E-04 8.85022E-03-5.11416E-03
 -1      6068 4.63820E-04 8.85022E-03-5.13820E-03
 -1      6069 4.63820E-04 8.85022E-03-5.16224E-03
 -1      6070 4.63820E-04 8.85021E-03-5.18628E-03
 -1      6071 4.63820E-04 8.85021E-03-5.21032E-03
 -1      6072 4.63819E-04 8.85020E-03-5.23437E-03
 -1      6073 8.84313E-03 4.63449E-04-5.01799E-03
 -1      6074 8.84313E-03 4.63449E-04-5.04203E-03
 -1      6075 8.84314E-03 4.63449E-04-5.06608E-03
 -1      6076 8.84314E-03 4.63449E-04-5.09012E-03
 -1      6077 8.84314E-03 4.63449E-04-5.11416E-03
 -1      6078 8.84314E-03 4.63449E-04-5.13820E-03
 -1      6079 8.84314E-03 4.63449E-04-5.16224E-03
 -1      6080 8.84314E-03 4.63449E-04-5.18628E-03
 -1      6081 8.84313E-03 4.63449E-04-5.21032E-03
 -1      6082 8.84313E-03 4.63449E-04-5.23437E-03
 -1      6083 8.80675E-03 9.25627E-04-5.01799E-03
 -1      6084 8.80676E-03 9.25628E-04-5.04203E-03
 -1      6085 8.80676E-03 9.25628E-04-5.06608E-03
 -1      6086 8.80677E-03 9.25628E-04-5.09012E-03
 -1      6087 8.80677E-03 9.25628E-04-5.11416E-03
 -1      6088 8.80677E-03 9.25628E-04-5.13820E-03
 -1      6089 8.80677E-03 9.25628E-04-5.16224E-03
 -1      6090 8.80676E-03 9.25628E-04-5.18628E-03
 -1      6091 8.80676E-03 9.25628E-04-5.21032E-03
 -1      6092 8.80675E-03 9.25627E-04-5.23437E-03
 -1      6093 8.74624E-03 1.38527E-03-5.01799E-03
 -1      6094 8.74624E-03 1.38527E-03-5.04203E-03
 -1      6095 8.74625E-03 1.38527E-03-5.06608E-03
 -1      6096 8.74625E-03 1.38527E-03-5.09012E-03
 -1      6097 8.74625E-03 1.38527E-03-5.11416E-03
 -1      6098 8.74625E-03 1.38527E-03-5.13820E-03
 -1      6099 8.74625E-03 1.38527E-03-5.16224E-03
 -1      6100 8.74625E-03 1.38527E-03-5.18628E-03
 -1      6101 8.74624E-03 1.38527E-03-5.21032E-03
 -1      6102 8.74624E-03 1.38527E-03-5.23437E-03
 -1      6103 8.66175E-03 1.84111E-03-5.01799E-03
 -1      6104 8.66176E-03 1.84111E-03-5.04203E-03
 -1      6105 8.66176E-03 1.84111E-03-5.06608E-03
 -1      6106 8.66177E-03 1.84112E-03-5.09012E-03
 -1      6107 8.66177E-03 1.84112E-03-5.11416E-03
 -1      6108 8.66177E-03 1.84112E-03-5.13820E-03
 -1      6109 8.66177E-03 1.84112E-03-5.16224E-03
 -1      6110 8.66176E-03 1.84111E-03-5.18628E-03
 -1      6111 8.66176E-03 1.84111E-03-5.21032E-03
 -1      6112 8.66175E-03 1.84111E-03-5.23437E-03
 -1      6113 8.55353E-03 2.29191E-03-5.01799E-03
 -1      6114 8.55353E-03 2.29191E-03-5.04203E-03
 -1      6115 8.55354E-03 2.29191E-03-5.06608E-03
 -1      6116 8.55354E-03 2.29191E-03-5.09012E-03
 -1      6117 8.55354E-03 2.29191E-03-5.11416E-03
 -1      6118 8.55354E-03 2.29191E-03-5.13820E-03
 -1      6119 8.55354E-03 2.29191E-03-5.16224E-03
 -1      6120 8.55354E-03 2.29191E-03-5.18628E-03
 -1      6121 8.55353E-03 2.29191E-03-5.21032E-03
 -1      6122 8.55353E-03 2.29191E-03-5.23437E-03
 -1      6123 8.42186E-03 2.73643E-03-5.01799E-03
 -1      6124 8.42186E-03 2.73643E-03-5.04203E-03
 -1      6125 8.42186E-03 2.73643E-03-5.06608E-03
 -1      6126 8.42187E-03 2.73643E-03-5.09012E-03
 -1      6127 8.42187E-03 2.73643E-03-5.11416E-03
 -1      6128 8.42187E-03 2.73643E-03-5.13820E-03
 -1      6129 8.42187E-03 2.73643E-03-5.16224E-03
 -1      6130 8.42186E-03 2.73643E-03-5.18628E-03
 -1      6131 8.42186E-03 2.73643E-03-5.21032E-03
 -1      6132 8.42186E-03 2.73643E-03-5.23437E-03
 -1      6133 8.26710E-03 3.17344E-03-5.01799E-03
 -1      6134 8.26710E-03 3.17344E-03-5.04203E-03
 -1      6135 8.26711E-03 3.17345E-03-5.06608E-03
 -1      6136 8.26711E-03 3.17345E-03-5.09012E-03
 -1      6137 8.26711E-03 3.17345E-03-5.11416E-03
 -1      6138 8.26711E-03 3.17345E-03-5.13820E-03
 -1      6139 8.26711E-03 3.17345E-03-5.16224E-03
 -1      6140 8.26711E-03 3.17345E-03-5.18628E-03
 -1      6141 8.26710E-03 3.17344E-03-5.21032E-03
 -1      6142 8.26710E-03 3.17344E-03-5.23437E-03
 -1      6143 8.08968E-03 3.60176E-03-5.01799E-03
 -1      6144 8.08969E-03 3.60176E-03-5.04203E-03
 -1      6145 8.08969E-03 3.60176E-03-5.06608E-03
 -1      6146 8.08970E-03 3.60176E-03-5.09012E-03
 -1      6147 8.08970E-03 3.60177E-03-5.11416E-03
 -1      6148 8.08970E-03 3.60177E-03-5.13820E-03
 -1      6149 8.08970E-03 3.60176E-03-5.16224E-03
 -1      6150 8.08969E-03 3.60176E-03-5.18628E-03
 -1      6151 8.08969E-03 3.60176E-03-5.21032E-03
 -1      6152 8.08968E-03 3.60176E-03-5.23437E-03
 -1      6153 7.89010E-03 4.02020E-03-5.01799E-03
 -1      6154 7.89010E-03 4.02021E-03-5.04203E-03
 -1      6155 7.89011E-03 4.02021E-03-5.06608E-03
 -1      6156 7.89011E-03 4.02021E-03-5.09012E-03
 -1      6157 7.89011E-03 4.02021E-03-5.11416E-03
 -1      6158 7.89011E-03 4.02021E-03-5.13820E-03
 -1      6159 7.89011E-03 4.02021E-03-5.16224E-03
 -1      6160 7.89011E-03 4.02021E-03-5.18628E-03
 -1      6161 7.89010E-03 4.02021E-03-5.21032E-03
 -1      6162 7.89010E-03 4.02020E-03-5.23437E-03
 -1      6163 7.66888E-03 4.42763E-03-5.01799E-03
 -1      6164 7.66889E-03 4.42763E-03-5.04203E-03
 -1      6165 7.66889E-03 4.42764E-03-5.06608E-03
 -1      6166 7.66889E-03 4.42764E-03-5.09012E-03
 -1      6167 7.66889E-03 4.42764E-03-5.11416E-03
 -1      6168 7.66889E-03 4.42764E-03-5.13820E-03
 -1      6169 7.66889E-03 4.42764E-03-5.16224E-03
 -1      6170 7.66889E-03 4.42764E-03-5.18628E-03
 -1      6171 7.66889E-03 4.42763E-03-5.21032E-03
 -1      6172 7.66888E-03 4.42763E-03-5.23437E-03
 -1      6173 7.42665E-03 4.82292E-03-5.01799E-03
 -1      6174 7.42665E-03 4.82292E-03-5.04203E-03
 -1      6175 7.42666E-03 4.82293E-03-5.06608E-03
 -1      6176 7.42666E-03 4.82293E-03-5.09012E-03
 -1      6177 7.42666E-03 4.82293E-03-5.11416E-03
 -1      6178 7.42666E-03 4.82293E-03-5.13820E-03
 -1      6179 7.42666E-03 4.82293E-03-5.16224E-03
 -1      6180 7.42666E-03 4.82293E-03-5.18628E-03
 -1      6181 7.42665E-03 4.82292E-03-5.21032E-03
 -1      6182 7.42665E-03 4.82292E-03-5.23437E-03
 -1      6183 7.16406E-03 5.20499E-03-5.01799E-03
 -1      6184 7.16406E-03 5.20500E-03-5.04203E-03
 -1      6185 7.16407E-03 5.20500E-03-5.06608E-03
 -1      6186 7.16407E-03 5.20500E-03-5.09012E-03
 -1      6187 7.16407E-03 5.20500E-03-5.11416E-03
 -1      6188 7.16407E-03 5.20500E-03-5.13820E-03
 -1      6189 7.16407E-03 5.20500E-03-5.16224E-03
 -1      6190 7.16407E-03 5.20500E-03-5.18628E-03
 -1      6191 7.16406E-03 5.20500E-03-5.21032E-03
 -1      6192 7.16406E-03 5.20499E-03-5.23437E-03
 -1      6193 6.88183E-03 5.57280E-03-5.01799E-03
 -1      6194 6.88184E-03 5.57280E-03-5.04203E-03
 -1      6195 6.88184E-03 5.57280E-03-5.06608E-03
 -1      6196 6.88184E-03 5.57281E-03-5.09012E-03
 -1      6197 6.88184E-03 5.57281E-03-5.11416E-03
 -1      6198 6.88184E-03 5.57281E-03-5.13820E-03
 -1      6199 6.88184E-03 5.57281E-03-5.16224E-03
 -1      6200 6.88184E-03 5.57280E-03-5.18628E-03
 -1      6201 6.88184E-03 5.57280E-03-5.21032E-03
 -1      6202 6.88183E-03 5.57280E-03-5.23437E-03
 -1      6203 6.58074E-03 5.92533E-03-5.01799E-03
 -1      6204 6.58075E-03 5.92533E-03-5.04203E-03
 -1      6205 6.58075E-03 5.92533E-03-5.06608E-03
 -1      6206 6.58075E-03 5.92534E-03-5.09012E-03
 -1      6207 6.58075E-03 5.92534E-03-5.11416E-03
 -1      6208 6.58075E-03 5.92534E-03-5.13820E-03
 -1      6209 6.58075E-03 5.92534E-03-5.16224E-03
 -1      6210 6.58075E-03 5.92533E-03-5.18628E-03
 -1      6211 6.58075E-03 5.92533E-03-5.21032E-03
 -1      6212 6.58074E-03 5.92533E-03-5.23437E-03
 -1      6213 6.26162E-03 6.26162E-03-5.01799E-03
 -1      6214 6.26162E-03 6.26162E-03-5.04203E-03
 -1      6215 6.26162E-03 6.26162E-03-5.06608E-03
 -1      6216 6.26162E-03 6.26162E-03-5.09012E-03
 -1      6217 6.26163E-03 6.26163E-03-5.11416E-03
 -1      6218 6.26163E-03 6.26163E-03-5.13820E-03
 -1      6219 6.26162E-03 6.26162E-03-5.16224E-03
 -1      6220 6.26162E-03 6.26162E-03-5.18628E-03
 -1      6221 6.26162E-03 6.26162E-03-5.21032E-03
 -1      6222 6.26162E-03 6.26162E-03-5.23437E-03
 -1      6223 5.92533E-03 6.58074E-03-5.01799E-03
 -1      6224 5.92533E-03 6.58075E-03-5.04203E-03
 -1      6225 5.92533E-03 6.58075E-03-5.06608E-03
 -1      6226 5.92534E-03 6.58075E-03-5.09012E-03
 -1      6227 5.92534E-03 6.58075E-03-5.11416E-03
 -1      6228 5.92534E-03 6.58075E-03-5.13820E-03
 -1      6229 5.92534E-03 6.58075E-03-5.16224E-03
 -1      6230 5.92533E-03 6.58075E-03-5.18628E-03
 -1      6231 5.92533E-03 6.58075E-03-5.21032E-03
 -1      6232 5.92533E-03 6.58074E-03-5.23437E-03
 -1      6233 5.57280E-03 6.88183E-03-5.01799E-03
 -1      6234 5.57280E-03 6.88184E-03-5.04203E-03
 -1      6235 5.57280E-03 6.88184E-03-5.06608E-03
 -1      6236 5.57281E-03 6.88184E-03-5.09012E-03
 -1      6237 5.57281E-03 6.88184E-03-5.11416E-03
 -1      6238 5.57281E-03 6.88184E-03-5.13820E-03
 -1      6239 5.57281E-03 6.88184E-03-5.16224E-03
 -1      6240 5.57280E-03 6.88184E-03-5.18628E-03
 -1      6241 5.57280E-03 6.88184E-03-5.21032E-03
 -1      6242 5.57280E-03 6.88183E-03-5.23437E-03
 -1      6243 5.20499E-03 7.16406E-03-5.01799E-03
 -1      6244 5.20500E-03 7.16406E-03-5.04203E-03
 -1      6245 5.20500E-03 7.16407E-03-5.06608E-03
 -1      6246 5.20500E-03 7.16407E-03-5.09012E-03
 -1      6247 5.20500E-03 7.16407E-03-5.11416E-03
 -1      6248 5.20500E-03 7.16407E-03-5.13820E-03
 -1      6249 5.20500E-03 7.16407E-03-5.16224E-03
 -1      6250 5.20500E-03 7.16407E-03-5.18628E-03
 -1      6251 5.20500E-03 7.16406E-03-5.21032E-03
 -1      6252 5.20499E-03 7.16406E-03-5.23437E-03
 -1      6253 4.82292E-03 7.42665E-03-5.01799E-03
 -1      6254 4.82292E-03 7.42665E-03-5.04203E-03
 -1      6255 4.82293E-03 7.42666E-03-5.06608E-03
 -1      6256 4.82293E-03 7.42666E-03-5.09012E-03
 -1      6257 4.82293E-03 7.42666E-03-5.11416E-03
 -1      6258 4.82293E-03 7.42666E-03-5.13820E-03
 -1      6259 4.82293E-03 7.42666E-03-5.16224E-03
 -1      6260 4.82293E-03 7.42666E-03-5.18628E-03
 -1      6261 4.82292E-03 7.42665E-03-5.21032E-03
 -1      6262 4.82292E-03 7.42665E-03-5.23437E-03
 -1      6263 4.42763E-03 7.66888E-03-5.01799E-03
 -1      6264 4.42763E-03 7.66889E-03-5.04203E-03
 -1      6265 4.42764E-03 7.66889E-03-5.06608E-03
 -1      6266 4.42764E-03 7.66889E-03-5.09012E-03
 -1      6267 4.42764E-03 7.66889E-03-5.11416E-03
 -1      6268 4.42764E-03 7.66889E-03-5.13820E-03
 -1      6269 4.42764E-03 7.66889E-03-5.16224E-03
 -1      6270 4.42764E-03 7.66889E-03-5.18628E-03
 -1      6271 4.42763E-03 7.66889E-03-5.21032E-03
 -1      6272 4.42763E-03 7.66888E-03-5.23437E-03
 -1      6273 4.02020E-03 7.89010E-03-5.01799E-03
 -1      6274 4.02021E-03 7.89010E-03-5.04203E-03
 -1      6275 4.02021E-03 7.89011E-03-5.06608E-03
 -1      6276 4.02021E-03 7.89011E-03-5.09012E-03
 -1      6277 4.02021E-03 7.89011E-03-5.11416E-03
 -1      6278 4.02021E-03 7.89011E-03-5.13820E-03
 -1      6279 4.02021E-03 7.89011E-03-5.16224E-03
 -1      6280 4.02021E-03 7.89011E-03-5.18628E-03
 -1      6281 4.02021E-03 7.89010E-03-5.21032E-03
 -1      6282 4.02020E-03 7.89010E-03-5.23437E-03
 -1      6283 3.60176E-03 8.08968E-03-5.01799E-03
 -1      6284 3.60176E-03 8.08969E-03-5.04203E-03
 -1      6285 3.60176E-03 8.08969E-03-5.06608E-03
 -1      6286 3.60176E-03 8.08970E-03-5.09012E-03
 -1      6287 3.60177E-03 8.08970E-03-5.11416E-03
 -1      6288 3.60177E-03 8.08970E-03-5.13820E-03
 -1      6289 3.60176E-03 8.08970E-03-5.16224E-03
 -1      6290 3.60176E-03 8.08969E-03-5.18628E-03
 -1      6291 3.60176E-03 8.08969E-03-5.21032E-03
 -1      6292 3.60176E-03 8.08968E-03-5.23437E-03
 -1      6293 3.17344E-03 8.26710E-03-5.01799E-03
 -1      6294 3.17344E-03 8.26710E-03-5.04203E-03
 -1      6295 3.17345E-03 8.26711E-03-5.06608E-03
 -1      6296 3.17345E-03 8.26711E-03-5.09012E-03
 -1      6297 3.17345E-03 8.26711E-03-5.11416E-03
 -1      6298 3.17345E-03 8.26711E-03-5.13820E-03
 -1      6299 3.17345E-03 8.26711E-03-5.16224E-03
 -1      6300 3.17345E-03 8.26711E-03-5.18628E-03
 -1      6301 3.17344E-03 8.26710E-03-5.21032E-03
 -1      6302 3.17344E-03 8.26710E-03-5.23437E-03
 -1      6303 2.73643E-03 8.42186E-03-5.01799E-03
 -1      6304 2.73643E-03 8.42186E-03-5.04203E-03
 -1      6305 2.73643E-03 8.42186E-03-5.06608E-03
 -1      6306 2.73643E-03 8.42187E-03-5.09012E-03
 -1      6307 2.73643E-03 8.42187E-03-5.11416E-03
 -1      6308 2.73643E-03 8.42187E-03-5.13820E-03
 -1      6309 2.73643E-03 8.42187E-03-5.16224E-03
 -1      6310 2.73643E-03 8.42186E-03-5.18628E-03
 -1      6311 2.73643E-03 8.42186E-03-5.21032E-03
 -1      6312 2.73643E-03 8.42186E-03-5.23437E-03
 -1      6313 2.29191E-03 8.55353E-03-5.01799E-03
 -1      6314 2.29191E-03 8.55353E-03-5.04203E-03
 -1      6315 2.29191E-03 8.55354E-03-5.06608E-03
 -1      6316 2.29191E-03 8.55354E-03-5.09012E-03
 -1      6317 2.29191E-03 8.55354E-03-5.11416E-03
 -1      6318 2.29191E-03 8.55354E-03-5.13820E-03
 -1      6319 2.29191E-03 8.55354E-03-5.16224E-03
 -1      6320 2.29191E-03 8.55354E-03-5.18628E-03
 -1      6321 2.29191E-03 8.55353E-03-5.21032E-03
 -1      6322 2.29191E-03 8.55353E-03-5.23437E-03
 -1      6323 1.84111E-03 8.66175E-03-5.01799E-03
 -1      6324 1.84111E-03 8.66176E-03-5.04203E-03
 -1      6325 1.84111E-03 8.66176E-03-5.06608E-03
 -1      6326 1.84112E-03 8.66177E-03-5.09012E-03
 -1      6327 1.84112E-03 8.66177E-03-5.11416E-03
 -1      6328 1.84112E-03 8.66177E-03-5.13820E-03
 -1      6329 1.84112E-03 8.66177E-03-5.16224E-03
 -1      6330 1.84111E-03 8.66176E-03-5.18628E-03
 -1      6331 1.84111E-03 8.66176E-03-5.21032E-03
 -1      6332 1.84111E-03 8.66175E-03-5.23437E-03
 -1      6333 1.38527E-03 8.74624E-03-5.01799E-03
 -1      6334 1.38527E-03 8.74624E-03-5.04203E-03
 -1      6335 1.38527E-03 8.74625E-03-5.06608E-03
 -1      6336 1.38527E-03 8.74625E-03-5.09012E-03
 -1      6337 1.38527E-03 8.74625E-03-5.11416E-03
 -1      6338 1.38527E-03 8.74625E-03-5.13820E-03
 -1      6339 1.38527E-03 8.74625E-03-5.16224E-03
 -1      6340 1.38527E-03 8.74625E-03-5.18628E-03
 -1      6341 1.38527E-03 8.74624E-03-5.21032E-03
 -1      6342 1.38527E-03 8.74624E-03-5.23437E-03
 -1      6343 9.25627E-04 8.80675E-03-5.01799E-03
 -1      6344 9.25628E-04 8.80676E-03-5.04203E-03
 -1      6345 9.25628E-04 8.80676E-03-5.06608E-03
 -1      6346 9.25628E-04 8.80677E-03-5.09012E-03
 -1      6347 9.25628E-04 8.80677E-03-5.11416E-03
 -1      6348 9.25628E-04 8.80677E-03-5.13820E-03
 -1      6349 9.25628E-04 8.80677E-03-5.16224E-03
 -1      6350 9.25628E-04 8.80676E-03-5.18628E-03
 -1      6351 9.25628E-04 8.80676E-03-5.21032E-03
 -1      6352 9.25627E-04 8.80675E-03-5.23437E-03
 -1      6353 4.63449E-04 8.84313E-03-5.01799E-03
 -1      6354 4.63449E-04 8.84313E-03-5.04203E-03
 -1      6355 4.63449E-04 8.84314E-03-5.06608E-03
 -1      6356 4.63449E-04 8.84314E-03-5.09012E-03
 -1      6357 4.63449E-04 8.84314E-03-5.11416E-03
 -1      6358 4.63449E-04 8.84314E-03-5.13820E-03
 -1      6359 4.63449E-04 8.84314E-03-5.16224E-03
 -1      6360 4.63449E-04 8.84314E-03-5.18628E-03
 -1      6361 4.63449E-04 8.84313E-03-5.21032E-03
 -1      6362 4.63449E-04 8.84313E-03-5.23437E-03
 -1      6363 8.83613E-03 4.63082E-04-5.01799E-03
 -1      6364 8.83613E-03 4.63082E-04-5.04204E-03
 -1      6365 8.83614E-03 4.63082E-04-5.06608E-03
 -1      6366 8.83614E-03 4.63082E-04-5.09012E-03
 -1      6367 8.83614E-03 4.63082E-04-5.11416E-03
 -1      6368 8.83614E-03 4.63082E-04-5.13820E-03
 -1      6369 8.83614E-03 4.63082E-04-5.16224E-03
 -1      6370 8.83614E-03 4.63082E-04-5.18628E-03
 -1      6371 8.83613E-03 4.63082E-04-5.21032E-03
 -1      6372 8.83613E-03 4.63082E-04-5.23436E-03
 -1      6373 8.79978E-03 9.24894E-04-5.01799E-03
 -1      6374 8.79979E-03 9.24895E-04-5.04204E-03
 -1      6375 8.79979E-03 9.24895E-04-5.06608E-03
 -1      6376 8.79979E-03 9.24895E-04-5.09012E-03
 -1      6377 8.79979E-03 9.24896E-04-5.11416E-03
 -1      6378 8.79979E-03 9.24896E-04-5.13820E-03
 -1      6379 8.79979E-03 9.24895E-04-5.16224E-03
 -1      6380 8.79979E-03 9.24895E-04-5.18628E-03
 -1      6381 8.79979E-03 9.24895E-04-5.21032E-03
 -1      6382 8.79978E-03 9.24894E-04-5.23436E-03
 -1      6383 8.73931E-03 1.38417E-03-5.01799E-03
 -1      6384 8.73932E-03 1.38417E-03-5.04204E-03
 -1      6385 8.73932E-03 1.38417E-03-5.06608E-03
 -1      6386 8.73933E-03 1.38417E-03-5.09012E-03
 -1      6387 8.73933E-03 1.38417E-03-5.11416E-03
 -1      6388 8.73933E-03 1.38417E-03-5.13820E-03
 -1      6389 8.73933E-03 1.38417E-03-5.16224E-03
 -1      6390 8.73932E-03 1.38417E-03-5.18628E-03
 -1      6391 8.73932E-03 1.38417E-03-5.21032E-03
 -1      6392 8.73931E-03 1.38417E-03-5.23436E-03
 -1      6393 8.65490E-03 1.83965E-03-5.01799E-03
 -1      6394 8.65490E-03 1.83966E-03-5.04204E-03
 -1      6395 8.65491E-03 1.83966E-03-5.06608E-03
 -1      6396 8.65491E-03 1.83966E-03-5.09012E-03
 -1      6397 8.65491E-03 1.83966E-03-5.11416E-03
 -1      6398 8.65491E-03 1.83966E-03-5.13820E-03
 -1      6399 8.65491E-03 1.83966E-03-5.16224E-03
 -1      6400 8.65491E-03 1.83966E-03-5.18628E-03
 -1      6401 8.65490E-03 1.83966E-03-5.21032E-03
 -1      6402 8.65490E-03 1.83965E-03-5.23436E-03
 -1      6403 8.54675E-03 2.29010E-03-5.01799E-03
 -1      6404 8.54676E-03 2.29010E-03-5.04204E-03
 -1      6405 8.54676E-03 2.29010E-03-5.06608E-03
 -1      6406 8.54677E-03 2.29010E-03-5.09012E-03
 -1      6407 8.54677E-03 2.29010E-03-5.11416E-03
 -1      6408 8.54677E-03 2.29010E-03-5.13820E-03
 -1      6409 8.54677E-03 2.29010E-03-5.16224E-03
 -1      6410 8.54676E-03 2.29010E-03-5.18628E-03
 -1      6411 8.54676E-03 2.29010E-03-5.21032E-03
 -1      6412 8.54675E-03 2.29010E-03-5.23436E-03
 -1      6413 8.41519E-03 2.73426E-03-5.01799E-03
 -1      6414 8.41519E-03 2.73426E-03-5.04204E-03
 -1      6415 8.41520E-03 2.73426E-03-5.06608E-03
 -1      6416 8.41520E-03 2.73426E-03-5.09012E-03
 -1      6417 8.41520E-03 2.73426E-03-5.11416E-03
 -1      6418 8.41520E-03 2.73426E-03-5.13820E-03
 -1      6419 8.41520E-03 2.73426E-03-5.16224E-03
 -1      6420 8.41520E-03 2.73426E-03-5.18628E-03
 -1      6421 8.41519E-03 2.73426E-03-5.21032E-03
 -1      6422 8.41519E-03 2.73426E-03-5.23436E-03
 -1      6423 8.26055E-03 3.17093E-03-5.01799E-03
 -1      6424 8.26056E-03 3.17093E-03-5.04204E-03
 -1      6425 8.26056E-03 3.17093E-03-5.06608E-03
 -1      6426 8.26057E-03 3.17093E-03-5.09012E-03
 -1      6427 8.26057E-03 3.17093E-03-5.11416E-03
 -1      6428 8.26057E-03 3.17093E-03-5.13820E-03
 -1      6429 8.26057E-03 3.17093E-03-5.16224E-03
 -1      6430 8.26056E-03 3.17093E-03-5.18628E-03
 -1      6431 8.26056E-03 3.17093E-03-5.21032E-03
 -1      6432 8.26055E-03 3.17093E-03-5.23436E-03
 -1      6433 8.08328E-03 3.59891E-03-5.01799E-03
 -1      6434 8.08329E-03 3.59891E-03-5.04204E-03
 -1      6435 8.08329E-03 3.59891E-03-5.06608E-03
 -1      6436 8.08329E-03 3.59891E-03-5.09012E-03
 -1      6437 8.08329E-03 3.59891E-03-5.11416E-03
 -1      6438 8.08329E-03 3.59891E-03-5.13820E-03
 -1      6439 8.08329E-03 3.59891E-03-5.16224E-03
 -1      6440 8.08329E-03 3.59891E-03-5.18628E-03
 -1      6441 8.08329E-03 3.59891E-03-5.21032E-03
 -1      6442 8.08328E-03 3.59891E-03-5.23436E-03
 -1      6443 7.88385E-03 4.01702E-03-5.01799E-03
 -1      6444 7.88386E-03 4.01702E-03-5.04204E-03
 -1      6445 7.88386E-03 4.01703E-03-5.06608E-03
 -1      6446 7.88386E-03 4.01703E-03-5.09012E-03
 -1      6447 7.88386E-03 4.01703E-03-5.11416E-03
 -1      6448 7.88386E-03 4.01703E-03-5.13820E-03
 -1      6449 7.88386E-03 4.01703E-03-5.16224E-03
 -1      6450 7.88386E-03 4.01703E-03-5.18628E-03
 -1      6451 7.88386E-03 4.01702E-03-5.21032E-03
 -1      6452 7.88385E-03 4.01702E-03-5.23436E-03
 -1      6453 7.66281E-03 4.42413E-03-5.01799E-03
 -1      6454 7.66282E-03 4.42413E-03-5.04204E-03
 -1      6455 7.66282E-03 4.42413E-03-5.06608E-03
 -1      6456 7.66282E-03 4.42413E-03-5.09012E-03
 -1      6457 7.66282E-03 4.42413E-03-5.11416E-03
 -1      6458 7.66282E-03 4.42413E-03-5.13820E-03
 -1      6459 7.66282E-03 4.42413E-03-5.16224E-03
 -1      6460 7.66282E-03 4.42413E-03-5.18628E-03
 -1      6461 7.66282E-03 4.42413E-03-5.21032E-03
 -1      6462 7.66281E-03 4.42413E-03-5.23436E-03
 -1      6463 7.42077E-03 4.81910E-03-5.01799E-03
 -1      6464 7.42077E-03 4.81911E-03-5.04204E-03
 -1      6465 7.42078E-03 4.81911E-03-5.06608E-03
 -1      6466 7.42078E-03 4.81911E-03-5.09012E-03
 -1      6467 7.42078E-03 4.81911E-03-5.11416E-03
 -1      6468 7.42078E-03 4.81911E-03-5.13820E-03
 -1      6469 7.42078E-03 4.81911E-03-5.16224E-03
 -1      6470 7.42078E-03 4.81911E-03-5.18628E-03
 -1      6471 7.42077E-03 4.81911E-03-5.21032E-03
 -1      6472 7.42077E-03 4.81910E-03-5.23436E-03
 -1      6473 7.15839E-03 5.20087E-03-5.01799E-03
 -1      6474 7.15839E-03 5.20088E-03-5.04204E-03
 -1      6475 7.15839E-03 5.20088E-03-5.06608E-03
 -1      6476 7.15840E-03 5.20088E-03-5.09012E-03
 -1      6477 7.15840E-03 5.20088E-03-5.11416E-03
 -1      6478 7.15840E-03 5.20088E-03-5.13820E-03
 -1      6479 7.15840E-03 5.20088E-03-5.16224E-03
 -1      6480 7.15839E-03 5.20088E-03-5.18628E-03
 -1      6481 7.15839E-03 5.20088E-03-5.21032E-03
 -1      6482 7.15839E-03 5.20087E-03-5.23436E-03
 -1      6483 6.87638E-03 5.56839E-03-5.01799E-03
 -1      6484 6.87639E-03 5.56839E-03-5.04204E-03
 -1      6485 6.87639E-03 5.56839E-03-5.06608E-03
 -1      6486 6.87639E-03 5.56839E-03-5.09012E-03
 -1      6487 6.87639E-03 5.56839E-03-5.11416E-03
 -1      6488 6.87639E-03 5.56839E-03-5.13820E-03
 -1      6489 6.87639E-03 5.56839E-03-5.16224E-03
 -1      6490 6.87639E-03 5.56839E-03-5.18628E-03
 -1      6491 6.87639E-03 5.56839E-03-5.21032E-03
 -1      6492 6.87638E-03 5.56839E-03-5.23436E-03
 -1      6493 6.57553E-03 5.92064E-03-5.01799E-03
 -1      6494 6.57554E-03 5.92064E-03-5.04204E-03
 -1      6495 6.57554E-03 5.92064E-03-5.06608E-03
 -1      6496 6.57554E-03 5.92064E-03-5.09012E-03
 -1      6497 6.57554E-03 5.92065E-03-5.11416E-03
 -1      6498 6.57554E-03 5.92065E-03-5.13820E-03
 -1      6499 6.57554E-03 5.92064E-03-5.16224E-03
 -1      6500 6.57554E-03 5.92064E-03-5.18628E-03
 -1      6501 6.57554E-03 5.92064E-03-5.21032E-03
 -1      6502 6.57553E-03 5.92064E-03-5.23436E-03
 -1      6503 6.25666E-03 6.25666E-03-5.01799E-03
 -1      6504 6.25666E-03 6.25666E-03-5.04204E-03
 -1      6505 6.25667E-03 6.25667E-03-5.06608E-03
 -1      6506 6.25667E-03 6.25667E-03-5.09012E-03
 -1      6507 6.25667E-03 6.25667E-03-5.11416E-03
 -1      6508 6.25667E-03 6.25667E-03-5.13820E-03
 -1      6509 6.25667E-03 6.25667E-03-5.16224E-03
 -1      6510 6.25667E-03 6.25667E-03-5.18628E-03
 -1      6511 6.25666E-03 6.25666E-03-5.21032E-03
 -1      6512 6.25666E-03 6.25666E-03-5.23436E-03
 -1      6513 5.92064E-03 6.57553E-03-5.01799E-03
 -1      6514 5.92064E-03 6.57554E-03-5.04204E-03
 -1      6515 5.92064E-03 6.57554E-03-5.06608E-03
 -1      6516 5.92064E-03 6.57554E-03-5.09012E-03
 -1      6517 5.92065E-03 6.57554E-03-5.11416E-03
 -1      6518 5.92065E-03 6.57554E-03-5.13820E-03
 -1      6519 5.92064E-03 6.57554E-03-5.16224E-03
 -1      6520 5.92064E-03 6.57554E-03-5.18628E-03
 -1      6521 5.92064E-03 6.57554E-03-5.21032E-03
 -1      6522 5.92064E-03 6.57553E-03-5.23436E-03
 -1      6523 5.56839E-03 6.87638E-03-5.01799E-03
 -1      6524 5.56839E-03 6.87639E-03-5.04204E-03
 -1      6525 5.56839E-03 6.87639E-03-5.06608E-03
 -1      6526 5.56839E-03 6.87639E-03-5.09012E-03
 -1      6527 5.56839E-03 6.87639E-03-5.11416E-03
 -1      6528 5.56839E-03 6.87639E-03-5.13820E-03
 -1      6529 5.56839E-03 6.87639E-03-5.16224E-03
 -1      6530 5.56839E-03 6.87639E-03-5.18628E-03
 -1      6531 5.56839E-03 6.87639E-03-5.21032E-03
 -1      6532 5.56839E-03 6.87638E-03-5.23436E-03
 -1      6533 5.20087E-03 7.15839E-03-5.01799E-03
 -1      6534 5.20088E-03 7.15839E-03-5.04204E-03
 -1      6535 5.20088E-03 7.15839E-03-5.06608E-03
 -1      6536 5.20088E-03 7.15840E-03-5.09012E-03
 -1      6537 5.20088E-03 7.15840E-03-5.11416E-03
 -1      6538 5.20088E-03 7.15840E-03-5.13820E-03
 -1      6539 5.20088E-03 7.15840E-03-5.16224E-03
 -1      6540 5.20088E-03 7.15839E-03-5.18628E-03
 -1      6541 5.20088E-03 7.15839E-03-5.21032E-03
 -1      6542 5.20087E-03 7.15839E-03-5.23436E-03
 -1      6543 4.81910E-03 7.42077E-03-5.01799E-03
 -1      6544 4.81911E-03 7.42077E-03-5.04204E-03
 -1      6545 4.81911E-03 7.42078E-03-5.06608E-03
 -1      6546 4.81911E-03 7.42078E-03-5.09012E-03
 -1      6547 4.81911E-03 7.42078E-03-5.11416E-03
 -1      6548 4.81911E-03 7.42078E-03-5.13820E-03
 -1      6549 4.81911E-03 7.42078E-03-5.16224E-03
 -1      6550 4.81911E-03 7.42078E-03-5.18628E-03
 -1      6551 4.81911E-03 7.42077E-03-5.21032E-03
 -1      6552 4.81910E-03 7.42077E-03-5.23436E-03
 -1      6553 4.42413E-03 7.66281E-03-5.01799E-03
 -1      6554 4.42413E-03 7.66282E-03-5.04204E-03
 -1      6555 4.42413E-03 7.66282E-03-5.06608E-03
 -1      6556 4.42413E-03 7.66282E-03-5.09012E-03
 -1      6557 4.42413E-03 7.66282E-03-5.11416E-03
 -1      6558 4.42413E-03 7.66282E-03-5.13820E-03
 -1      6559 4.42413E-03 7.66282E-03-5.16224E-03
 -1      6560 4.42413E-03 7.66282E-03-5.18628E-03
 -1      6561 4.42413E-03 7.66282E-03-5.21032E-03
 -1      6562 4.42413E-03 7.66281E-03-5.23436E-03
 -1      6563 4.01702E-03 7.88385E-03-5.01799E-03
 -1      6564 4.01702E-03 7.88386E-03-5.04204E-03
 -1      6565 4.01703E-03 7.88386E-03-5.06608E-03
 -1      6566 4.01703E-03 7.88386E-03-5.09012E-03
 -1      6567 4.01703E-03 7.88386E-03-5.11416E-03
 -1      6568 4.01703E-03 7.88386E-03-5.13820E-03
 -1      6569 4.01703E-03 7.88386E-03-5.16224E-03
 -1      6570 4.01703E-03 7.88386E-03-5.18628E-03
 -1      6571 4.01702E-03 7.88386E-03-5.21032E-03
 -1      6572 4.01702E-03 7.88385E-03-5.23436E-03
 -1      6573 3.59891E-03 8.08328E-03-5.01799E-03
 -1      6574 3.59891E-03 8.08329E-03-5.04204E-03
 -1      6575 3.59891E-03 8.08329E-03-5.06608E-03
 -1      6576 3.59891E-03 8.08329E-03-5.09012E-03
 -1      6577 3.59891E-03 8.08329E-03-5.11416E-03
 -1      6578 3.59891E-03 8.08329E-03-5.13820E-03
 -1      6579 3.59891E-03 8.08329E-03-5.16224E-03
 -1      6580 3.59891E-03 8.08329E-03-5.18628E-03
 -1      6581 3.59891E-03 8.08329E-03-5.21032E-03
 -1      6582 3.59891E-03 8.08328E-03-5.23436E-03
 -1      6583 3.17093E-03 8.26055E-03-5.01799E-03
 -1      6584 3.17093E-03 8.26056E-03-5.04204E-03
 -1      6585 3.17093E-03 8.26056E-03-5.06608E-03
 -1      6586 3.17093E-03 8.26057E-03-5.09012E-03
 -1      6587 3.17093E-03 8.26057E-03-5.11416E-03
 -1      6588 3.17093E-03 8.26057E-03-5.13820E-03
 -1      6589 3.17093E-03 8.26057E-03-5.16224E-03
 -1      6590 3.17093E-03 8.26056E-03-5.18628E-03
 -1      6591 3.17093E-03 8.26056E-03-5.21032E-03
 -1      6592 3.17093E-03 8.26055E-03-5.23436E-03
 -1      6593 2.73426E-03 8.41519E-03-5.01799E-03
 -1      6594 2.73426E-03 8.41519E-03-5.04204E-03
 -1      6595 2.73426E-03 8.41520E-03-5.06608E-03
 -1      6596 2.73426E-03 8.41520E-03-5.09012E-03
 -1      6597 2.73426E-03 8.41520E-03-5.11416E-03
 -1      6598 2.73426E-03 8.41520E-03-5.13820E-03
 -1      6599 2.73426E-03 8.41520E-03-5.16224E-03
 -1      6600 2.73426E-03 8.41520E-03-5.18628E-03
 -1      6601 2.73426E-03 8.41519E-03-5.21032E-03
 -1      6602 2.73426E-03 8.41519E-03-5.23436E-03
 -1      6603 2.29010E-03 8.54675E-03-5.01799E-03
 -1      6604 2.29010E-03 8.54676E-03-5.04204E-03
 -1      6605 2.29010E-03 8.54676E-03-5.06608E-03
 -1      6606 2.29010E-03 8.54677E-03-5.09012E-03
 -1      6607 2.29010E-03 8.54677E-03-5.11416E-03
 -1      6608 2.29010E-03 8.54677E-03-5.13820E-03
 -1      6609 2.29010E-03 8.54677E-03-5.16224E-03
 -1      6610 2.29010E-03 8.54676E-03-5.18628E-03
 -1      6611 2.29010E-03 8.54676E-03-5.21032E-03
 -1      6612 2.29010E-03 8.54675E-03-5.23436E-03
 -1      6613 1.83965E-03 8.65490E-03-5.01799E-03
 -1      6614 1.83966E-03 8.65490E-03-5.04204E-03
 -1      6615 1.83966E-03 8.65491E-03-5.06608E-03
 -1      6616 1.83966E-03 8.65491E-03-5.09012E-03
 -1      6617 1.83966E-03 8.65491E-03-5.11416E-03
 -1      6618 1.83966E-03 8.65491E-03-5.13820E-03
 -1      6619 1.83966E-03 8.65491E-03-5.16224E-03
 -1      6620 1.83966E-03 8.65491E-03-5.18628E-03
 -1      6621 1.83966E-03 8.65490E-03-5.21032E-03
 -1      6622 1.83965E-03 8.65490E-03-5.23436E-03
 -1      6623 1.38417E-03 8.73931E-03-5.01799E-03
 -1      6624 1.38417E-03 8.73932E-03-5.04204E-03
 -1      6625 1.38417E-03 8.73932E-03-5.06608E-03
 -1      6626 1.38417E-03 8.73933E-03-5.09012E-03
 -1      6627 1.38417E-03 8.73933E-03-5.11416E-03
 -1      6628 1.38417E-03 8.73933E-03-5.13820E-03
 -1      6629 1.38417E-03 8.73933E-03-5.16224E-03
 -1      6630 1.38417E-03 8.73932E-03-5.18628E-03
 -1      6631 1.38417E-03 8.73932E-03-5.21032E-03
 -1      6632 1.38417E-03 8.73931E-03-5.23436E-03
 -1      6633 9.24894E-04 8.79978E-03-5.01799E-03
 -1      6634 9.24895E-04 8.79979E-03-5.04204E-03
 -1      6635 9.24895E-04 8.79979E-03-5.06608E-03
 -1      6636 9.24895E-04 8.79979E-03-5.09012E-03
 -1      6637 9.24896E-04 8.79979E-03-5.11416E-03
 -1      6638 9.24896E-04 8.79979E-03-5.13820E-03
 -1      6639 9.24895E-04 8.79979E-03-5.16224E-03
 -1      6640 9.24895E-04 8.79979E-03-5.18628E-03
 -1      6641 9.24895E-04 8.79979E-03-5.21032E-03
 -1      6642 9.24894E-04 8.79978E-03-5.23436E-03
 -1      6643 4.63082E-04 8.83613E-03-5.01799E-03
 -1      6644 4.63082E-04 8.83613E-03-5.04204E-03
 -1      6645 4.63082E-04 8.83614E-03-5.06608E-03
 -1      6646 4.63082E-04 8.83614E-03-5.09012E-03
 -1      6647 4.63082E-04 8.83614E-03-5.11416E-03
 -1      6648 4.63082E-04 8.83614E-03-5.13820E-03
 -1      6649 4.63082E-04 8.83614E-03-5.16224E-03
 -1      6650 4.63082E-04 8.83614E-03-5.18628E-03
 -1      6651 4.63082E-04 8.83613E-03-5.21032E-03
 -1      6652 4.63082E-04 8.83613E-03-5.23436E-03
 -1      6653 8.82920E-03 4.62719E-04-5.01799E-03
 -1      6654 8.82920E-03 4.62719E-04-5.04204E-03
 -1      6655 8.82921E-03 4.62719E-04-5.06608E-03
 -1      6656 8.82921E-03 4.62719E-04-5.09012E-03
 -1      6657 8.82921E-03 4.62719E-04-5.11416E-03
 -1      6658 8.82921E-03 4.62719E-04-5.13820E-03
 -1      6659 8.82921E-03 4.62719E-04-5.16224E-03
 -1      6660 8.82921E-03 4.62719E-04-5.18628E-03
 -1      6661 8.82920E-03 4.62719E-04-5.21032E-03
 -1      6662 8.82920E-03 4.62719E-04-5.23436E-03
 -1      6663 8.79288E-03 9.24169E-04-5.01799E-03
 -1      6664 8.79289E-03 9.24170E-04-5.04204E-03
 -1      6665 8.79289E-03 9.24170E-04-5.06608E-03
 -1      6666 8.79289E-03 9.24170E-04-5.09012E-03
 -1      6667 8.79289E-03 9.24171E-04-5.11416E-03
 -1      6668 8.79289E-03 9.24171E-04-5.13820E-03
 -1      6669 8.79289E-03 9.24170E-04-5.16224E-03
 -1      6670 8.79289E-03 9.24170E-04-5.18628E-03
 -1      6671 8.79289E-03 9.24170E-04-5.21032E-03
 -1      6672 8.79288E-03 9.24169E-04-5.23436E-03
 -1      6673 8.73246E-03 1.38309E-03-5.01799E-03
 -1      6674 8.73247E-03 1.38309E-03-5.04204E-03
 -1      6675 8.73247E-03 1.38309E-03-5.06608E-03
 -1      6676 8.73248E-03 1.38309E-03-5.09012E-03
 -1      6677 8.73248E-03 1.38309E-03-5.11416E-03
 -1      6678 8.73248E-03 1.38309E-03-5.13820E-03
 -1      6679 8.73248E-03 1.38309E-03-5.16224E-03
 -1      6680 8.73247E-03 1.38309E-03-5.18628E-03
 -1      6681 8.73247E-03 1.38309E-03-5.21032E-03
 -1      6682 8.73246E-03 1.38309E-03-5.23436E-03
 -1      6683 8.64811E-03 1.83821E-03-5.01799E-03
 -1      6684 8.64812E-03 1.83821E-03-5.04204E-03
 -1      6685 8.64812E-03 1.83821E-03-5.06608E-03
 -1      6686 8.64812E-03 1.83822E-03-5.09012E-03
 -1      6687 8.64812E-03 1.83822E-03-5.11416E-03
 -1      6688 8.64812E-03 1.83822E-03-5.13820E-03
 -1      6689 8.64812E-03 1.83822E-03-5.16224E-03
 -1      6690 8.64812E-03 1.83821E-03-5.18628E-03
 -1      6691 8.64812E-03 1.83821E-03-5.21032E-03
 -1      6692 8.64811E-03 1.83821E-03-5.23436E-03
 -1      6693 8.54005E-03 2.28830E-03-5.01799E-03
 -1      6694 8.54006E-03 2.28830E-03-5.04204E-03
 -1      6695 8.54006E-03 2.28830E-03-5.06608E-03
 -1      6696 8.54007E-03 2.28830E-03-5.09012E-03
 -1      6697 8.54007E-03 2.28830E-03-5.11416E-03
 -1      6698 8.54007E-03 2.28830E-03-5.13820E-03
 -1      6699 8.54007E-03 2.28830E-03-5.16224E-03
 -1      6700 8.54006E-03 2.28830E-03-5.18628E-03
 -1      6701 8.54006E-03 2.28830E-03-5.21032E-03
 -1      6702 8.54005E-03 2.28830E-03-5.23436E-03
 -1      6703 8.40859E-03 2.73212E-03-5.01799E-03
 -1      6704 8.40860E-03 2.73212E-03-5.04204E-03
 -1      6705 8.40860E-03 2.73212E-03-5.06608E-03
 -1      6706 8.40860E-03 2.73212E-03-5.09012E-03
 -1      6707 8.40860E-03 2.73212E-03-5.11416E-03
 -1      6708 8.40860E-03 2.73212E-03-5.13820E-03
 -1      6709 8.40860E-03 2.73212E-03-5.16224E-03
 -1      6710 8.40860E-03 2.73212E-03-5.18628E-03
 -1      6711 8.40860E-03 2.73212E-03-5.21032E-03
 -1      6712 8.40859E-03 2.73212E-03-5.23436E-03
 -1      6713 8.25408E-03 3.16844E-03-5.01799E-03
 -1      6714 8.25408E-03 3.16845E-03-5.04204E-03
 -1      6715 8.25409E-03 3.16845E-03-5.06608E-03
 -1      6716 8.25409E-03 3.16845E-03-5.09012E-03
 -1      6717 8.25409E-03 3.16845E-03-5.11416E-03
 -1      6718 8.25409E-03 3.16845E-03-5.13820E-03
 -1      6719 8.25409E-03 3.16845E-03-5.16224E-03
 -1      6720 8.25409E-03 3.16845E-03-5.18628E-03
 -1      6721 8.25408E-03 3.16845E-03-5.21032E-03
 -1      6722 8.25408E-03 3.16844E-03-5.23436E-03
 -1      6723 8.07694E-03 3.59609E-03-5.01799E-03
 -1      6724 8.07695E-03 3.59609E-03-5.04204E-03
 -1      6725 8.07695E-03 3.59609E-03-5.06608E-03
 -1      6726 8.07695E-03 3.59609E-03-5.09012E-03
 -1      6727 8.07696E-03 3.59609E-03-5.11416E-03
 -1      6728 8.07696E-03 3.59609E-03-5.13820E-03
 -1      6729 8.07695E-03 3.59609E-03-5.16224E-03
 -1      6730 8.07695E-03 3.59609E-03-5.18628E-03
 -1      6731 8.07695E-03 3.59609E-03-5.21032E-03
 -1      6732 8.07694E-03 3.59609E-03-5.23436E-03
 -1      6733 7.87767E-03 4.01387E-03-5.01799E-03
 -1      6734 7.87767E-03 4.01388E-03-5.04204E-03
 -1      6735 7.87768E-03 4.01388E-03-5.06608E-03
 -1      6736 7.87768E-03 4.01388E-03-5.09012E-03
 -1      6737 7.87768E-03 4.01388E-03-5.11416E-03
 -1      6738 7.87768E-03 4.01388E-03-5.13820E-03
 -1      6739 7.87768E-03 4.01388E-03-5.16224E-03
 -1      6740 7.87768E-03 4.01388E-03-5.18628E-03
 -1      6741 7.87767E-03 4.01388E-03-5.21032E-03
 -1      6742 7.87767E-03 4.01387E-03-5.23436E-03
 -1      6743 7.65680E-03 4.42066E-03-5.01799E-03
 -1      6744 7.65681E-03 4.42066E-03-5.04204E-03
 -1      6745 7.65681E-03 4.42066E-03-5.06608E-03
 -1      6746 7.65681E-03 4.42066E-03-5.09012E-03
 -1      6747 7.65682E-03 4.42066E-03-5.11416E-03
 -1      6748 7.65682E-03 4.42066E-03-5.13820E-03
 -1      6749 7.65681E-03 4.42066E-03-5.16224E-03
 -1      6750 7.65681E-03 4.42066E-03-5.18628E-03
 -1      6751 7.65681E-03 4.42066E-03-5.21032E-03
 -1      6752 7.65680E-03 4.42066E-03-5.23436E-03
 -1      6753 7.41495E-03 4.81533E-03-5.01799E-03
 -1      6754 7.41496E-03 4.81533E-03-5.04204E-03
 -1      6755 7.41496E-03 4.81533E-03-5.06608E-03
 -1      6756 7.41496E-03 4.81533E-03-5.09012E-03
 -1      6757 7.41496E-03 4.81533E-03-5.11416E-03
 -1      6758 7.41496E-03 4.81533E-03-5.13820E-03
 -1      6759 7.41496E-03 4.81533E-03-5.16224E-03
 -1      6760 7.41496E-03 4.81533E-03-5.18628E-03
 -1      6761 7.41496E-03 4.81533E-03-5.21032E-03
 -1      6762 7.41495E-03 4.81533E-03-5.23436E-03
 -1      6763 7.15277E-03 5.19679E-03-5.01799E-03
 -1      6764 7.15278E-03 5.19680E-03-5.04204E-03
 -1      6765 7.15278E-03 5.19680E-03-5.06608E-03
 -1      6766 7.15278E-03 5.19680E-03-5.09012E-03
 -1      6767 7.15279E-03 5.19680E-03-5.11416E-03
 -1      6768 7.15279E-03 5.19680E-03-5.13820E-03
 -1      6769 7.15278E-03 5.19680E-03-5.16224E-03
 -1      6770 7.15278E-03 5.19680E-03-5.18628E-03
 -1      6771 7.15278E-03 5.19680E-03-5.21032E-03
 -1      6772 7.15277E-03 5.19679E-03-5.23436E-03
 -1      6773 6.87099E-03 5.56402E-03-5.01799E-03
 -1      6774 6.87100E-03 5.56402E-03-5.04204E-03
 -1      6775 6.87100E-03 5.56403E-03-5.06608E-03
 -1      6776 6.87100E-03 5.56403E-03-5.09012E-03
 -1      6777 6.87100E-03 5.56403E-03-5.11416E-03
 -1      6778 6.87100E-03 5.56403E-03-5.13820E-03
 -1      6779 6.87100E-03 5.56403E-03-5.16224E-03
 -1      6780 6.87100E-03 5.56403E-03-5.18628E-03
 -1      6781 6.87100E-03 5.56402E-03-5.21032E-03
 -1      6782 6.87099E-03 5.56402E-03-5.23436E-03
 -1      6783 6.57038E-03 5.91599E-03-5.01799E-03
 -1      6784 6.57038E-03 5.91600E-03-5.04204E-03
 -1      6785 6.57038E-03 5.91600E-03-5.06608E-03
 -1      6786 6.57039E-03 5.91600E-03-5.09012E-03
 -1      6787 6.57039E-03 5.91600E-03-5.11416E-03
 -1      6788 6.57039E-03 5.91600E-03-5.13820E-03
 -1      6789 6.57039E-03 5.91600E-03-5.16224E-03
 -1      6790 6.57038E-03 5.91600E-03-5.18628E-03
 -1      6791 6.57038E-03 5.91600E-03-5.21032E-03
 -1      6792 6.57038E-03 5.91599E-03-5.23436E-03
 -1      6793 6.25175E-03 6.25175E-03-5.01799E-03
 -1      6794 6.25176E-03 6.25176E-03-5.04204E-03
 -1      6795 6.25176E-03 6.25176E-03-5.06608E-03
 -1      6796 6.25176E-03 6.25176E-03-5.09012E-03
 -1      6797 6.25176E-03 6.25176E-03-5.11416E-03
 -1      6798 6.25176E-03 6.25176E-03-5.13820E-03
 -1      6799 6.25176E-03 6.25176E-03-5.16224E-03
 -1      6800 6.25176E-03 6.25176E-03-5.18628E-03
 -1      6801 6.25176E-03 6.25176E-03-5.21032E-03
 -1      6802 6.25175E-03 6.25175E-03-5.23436E-03
 -1      6803 5.91599E-03 6.57038E-03-5.01799E-03
 -1      6804 5.91600E-03 6.57038E-03-5.04204E-03
 -1      6805 5.91600E-03 6.57038E-03-5.06608E-03
 -1      6806 5.91600E-03 6.57039E-03-5.09012E-03
 -1      6807 5.91600E-03 6.57039E-03-5.11416E-03
 -1      6808 5.91600E-03 6.57039E-03-5.13820E-03
 -1      6809 5.91600E-03 6.57039E-03-5.16224E-03
 -1      6810 5.91600E-03 6.57038E-03-5.18628E-03
 -1      6811 5.91600E-03 6.57038E-03-5.21032E-03
 -1      6812 5.91599E-03 6.57038E-03-5.23436E-03
 -1      6813 5.56402E-03 6.87099E-03-5.01799E-03
 -1      6814 5.56402E-03 6.87100E-03-5.04204E-03
 -1      6815 5.56403E-03 6.87100E-03-5.06608E-03
 -1      6816 5.56403E-03 6.87100E-03-5.09012E-03
 -1      6817 5.56403E-03 6.87100E-03-5.11416E-03
 -1      6818 5.56403E-03 6.87100E-03-5.13820E-03
 -1      6819 5.56403E-03 6.87100E-03-5.16224E-03
 -1      6820 5.56403E-03 6.87100E-03-5.18628E-03
 -1      6821 5.56402E-03 6.87100E-03-5.21032E-03
 -1      6822 5.56402E-03 6.87099E-03-5.23436E-03
 -1      6823 5.19679E-03 7.15277E-03-5.01799E-03
 -1      6824 5.19680E-03 7.15278E-03-5.04204E-03
 -1      6825 5.19680E-03 7.15278E-03-5.06608E-03
 -1      6826 5.19680E-03 7.15278E-03-5.09012E-03
 -1      6827 5.19680E-03 7.15279E-03-5.11416E-03
 -1      6828 5.19680E-03 7.15279E-03-5.13820E-03
 -1      6829 5.19680E-03 7.15278E-03-5.16224E-03
 -1      6830 5.19680E-03 7.15278E-03-5.18628E-03
 -1      6831 5.19680E-03 7.15278E-03-5.21032E-03
 -1      6832 5.19679E-03 7.15277E-03-5.23436E-03
 -1      6833 4.81533E-03 7.41495E-03-5.01799E-03
 -1      6834 4.81533E-03 7.41496E-03-5.04204E-03
 -1      6835 4.81533E-03 7.41496E-03-5.06608E-03
 -1      6836 4.81533E-03 7.41496E-03-5.09012E-03
 -1      6837 4.81533E-03 7.41496E-03-5.11416E-03
 -1      6838 4.81533E-03 7.41496E-03-5.13820E-03
 -1      6839 4.81533E-03 7.41496E-03-5.16224E-03
 -1      6840 4.81533E-03 7.41496E-03-5.18628E-03
 -1      6841 4.81533E-03 7.41496E-03-5.21032E-03
 -1      6842 4.81533E-03 7.41495E-03-5.23436E-03
 -1      6843 4.42066E-03 7.65680E-03-5.01799E-03
 -1      6844 4.42066E-03 7.65681E-03-5.04204E-03
 -1      6845 4.42066E-03 7.65681E-03-5.06608E-03
 -1      6846 4.42066E-03 7.65681E-03-5.09012E-03
 -1      6847 4.42066E-03 7.65682E-03-5.11416E-03
 -1      6848 4.42066E-03 7.65682E-03-5.13820E-03
 -1      6849 4.42066E-03 7.65681E-03-5.16224E-03
 -1      6850 4.42066E-03 7.65681E-03-5.18628E-03
 -1      6851 4.42066E-03 7.65681E-03-5.21032E-03
 -1      6852 4.42066E-03 7.65680E-03-5.23436E-03
 -1      6853 4.01387E-03 7.87767E-03-5.01799E-03
 -1      6854 4.01388E-03 7.87767E-03-5.04204E-03
 -1      6855 4.01388E-03 7.87768E-03-5.06608E-03
 -1      6856 4.01388E-03 7.87768E-03-5.09012E-03
 -1      6857 4.01388E-03 7.87768E-03-5.11416E-03
 -1      6858 4.01388E-03 7.87768E-03-5.13820E-03
 -1      6859 4.01388E-03 7.87768E-03-5.16224E-03
 -1      6860 4.01388E-03 7.87768E-03-5.18628E-03
 -1      6861 4.01388E-03 7.87767E-03-5.21032E-03
 -1      6862 4.01387E-03 7.87767E-03-5.23436E-03
 -1      6863 3.59609E-03 8.07694E-03-5.01799E-03
 -1      6864 3.59609E-03 8.07695E-03-5.04204E-03
 -1      6865 3.59609E-03 8.07695E-03-5.06608E-03
 -1      6866 3.59609E-03 8.07695E-03-5.09012E-03
 -1      6867 3.59609E-03 8.07696E-03-5.11416E-03
 -1      6868 3.59609E-03 8.07696E-03-5.13820E-03
 -1      6869 3.59609E-03 8.07695E-03-5.16224E-03
 -1      6870 3.59609E-03 8.07695E-03-5.18628E-03
 -1      6871 3.59609E-03 8.07695E-03-5.21032E-03
 -1      6872 3.59609E-03 8.07694E-03-5.23436E-03
 -1      6873 3.16844E-03 8.25408E-03-5.01799E-03
 -1      6874 3.16845E-03 8.25408E-03-5.04204E-03
 -1      6875 3.16845E-03 8.25409E-03-5.06608E-03
 -1      6876 3.16845E-03 8.25409E-03-5.09012E-03
 -1      6877 3.16845E-03 8.25409E-03-5.11416E-03
 -1      6878 3.16845E-03 8.25409E-03-5.13820E-03
 -1      6879 3.16845E-03 8.25409E-03-5.16224E-03
 -1      6880 3.16845E-03 8.25409E-03-5.18628E-03
 -1      6881 3.16845E-03 8.25408E-03-5.21032E-03
 -1      6882 3.16844E-03 8.25408E-03-5.23436E-03
 -1      6883 2.73212E-03 8.40859E-03-5.01799E-03
 -1      6884 2.73212E-03 8.40860E-03-5.04204E-03
 -1      6885 2.73212E-03 8.40860E-03-5.06608E-03
 -1      6886 2.73212E-03 8.40860E-03-5.09012E-03
 -1      6887 2.73212E-03 8.40860E-03-5.11416E-03
 -1      6888 2.73212E-03 8.40860E-03-5.13820E-03
 -1      6889 2.73212E-03 8.40860E-03-5.16224E-03
 -1      6890 2.73212E-03 8.40860E-03-5.18628E-03
 -1      6891 2.73212E-03 8.40860E-03-5.21032E-03
 -1      6892 2.73212E-03 8.40859E-03-5.23436E-03
 -1      6893 2.28830E-03 8.54005E-03-5.01799E-03
 -1      6894 2.28830E-03 8.54006E-03-5.04204E-03
 -1      6895 2.28830E-03 8.54006E-03-5.06608E-03
 -1      6896 2.28830E-03 8.54007E-03-5.09012E-03
 -1      6897 2.28830E-03 8.54007E-03-5.11416E-03
 -1      6898 2.28830E-03 8.54007E-03-5.13820E-03
 -1      6899 2.28830E-03 8.54007E-03-5.16224E-03
 -1      6900 2.28830E-03 8.54006E-03-5.18628E-03
 -1      6901 2.28830E-03 8.54006E-03-5.21032E-03
 -1      6902 2.28830E-03 8.54005E-03-5.23436E-03
 -1      6903 1.83821E-03 8.64811E-03-5.01799E-03
 -1      6904 1.83821E-03 8.64812E-03-5.04204E-03
 -1      6905 1.83821E-03 8.64812E-03-5.06608E-03
 -1      6906 1.83822E-03 8.64812E-03-5.09012E-03
 -1      6907 1.83822E-03 8.64812E-03-5.11416E-03
 -1      6908 1.83822E-03 8.64812E-03-5.13820E-03
 -1      6909 1.83822E-03 8.64812E-03-5.16224E-03
 -1      6910 1.83821E-03 8.64812E-03-5.18628E-03
 -1      6911 1.83821E-03 8.64812E-03-5.21032E-03
 -1      6912 1.83821E-03 8.64811E-03-5.23436E-03
 -1      6913 1.38309E-03 8.73246E-03-5.01799E-03
 -1      6914 1.38309E-03 8.73247E-03-5.04204E-03
 -1      6915 1.38309E-03 8.73247E-03-5.06608E-03
 -1      6916 1.38309E-03 8.73248E-03-5.09012E-03
 -1      6917 1.38309E-03 8.73248E-03-5.11416E-03
 -1      6918 1.38309E-03 8.73248E-03-5.13820E-03
 -1      6919 1.38309E-03 8.73248E-03-5.16224E-03
 -1      6920 1.38309E-03 8.73247E-03-5.18628E-03
 -1      6921 1.38309E-03 8.73247E-03-5.21032E-03
 -1      6922 1.38309E-03 8.73246E-03-5.23436E-03
 -1      6923 9.24169E-04 8.79288E-03-5.01799E-03
 -1      6924 9.24170E-04 8.79289E-03-5.04204E-03
 -1      6925 9.24170E-04 8.79289E-03-5.06608E-03
 -1      6926 9.24170E-04 8.79289E-03-5.09012E-03
 -1      6927 9.24171E-04 8.79289E-03-5.11416E-03
 -1      6928 9.24171E-04 8.79289E-03-5.13820E-03
 -1      6929 9.24170E-04 8.79289E-03-5.16224E-03
 -1      6930 9.24170E-04 8.79289E-03-5.18628E-03
 -1      6931 9.24170E-04 8.79289E-03-5.21032E-03
 -1      6932 9.24169E-04 8.79288E-03-5.23436E-03
 -1      6933 4.62719E-04 8.82920E-03-5.01799E-03
 -1      6934 4.62719E-04 8.82920E-03-5.04204E-03
 -1      6935 4.62719E-04 8.82921E-03-5.06608E-03
 -1      6936 4.62719E-04 8.82921E-03-5.09012E-03
 -1      6937 4.62719E-04 8.82921E-03-5.11416E-03
 -1      6938 4.62719E-04 8.82921E-03-5.13820E-03
 -1      6939 4.62719E-04 8.82921E-03-5.16224E-03
 -1      6940 4.62719E-04 8.82921E-03-5.18628E-03
 -1      6941 4.62719E-04 8.82920E-03-5.21032E-03
 -1      6942 4.62719E-04 8.82920E-03-5.23436E-03
 -1      6943 8.82235E-03 4.62360E-04-5.01800E-03
 -1      6944 8.82235E-03 4.62360E-04-5.04204E-03
 -1      6945 8.82236E-03 4.62360E-04-5.06608E-03
 -1      6946 8.82236E-03 4.62360E-04-5.09012E-03
 -1      6947 8.82236E-03 4.62360E-04-5.11416E-03
 -1      6948 8.82236E-03 4.62360E-04-5.13820E-03
 -1      6949 8.82236E-03 4.62360E-04-5.16224E-03
 -1      6950 8.82236E-03 4.62360E-04-5.18628E-03
 -1      6951 8.82235E-03 4.62360E-04-5.21032E-03
 -1      6952 8.82235E-03 4.62360E-04-5.23436E-03
 -1      6953 8.78606E-03 9.23452E-04-5.01800E-03
 -1      6954 8.78606E-03 9.23452E-04-5.04204E-03
 -1      6955 8.78607E-03 9.23453E-04-5.06608E-03
 -1      6956 8.78607E-03 9.23453E-04-5.09012E-03
 -1      6957 8.78607E-03 9.23453E-04-5.11416E-03
 -1      6958 8.78607E-03 9.23453E-04-5.13820E-03
 -1      6959 8.78607E-03 9.23453E-04-5.16224E-03
 -1      6960 8.78607E-03 9.23453E-04-5.18628E-03
 -1      6961 8.78606E-03 9.23452E-04-5.21032E-03
 -1      6962 8.78606E-03 9.23452E-04-5.23436E-03
 -1      6963 8.72569E-03 1.38201E-03-5.01800E-03
 -1      6964 8.72569E-03 1.38201E-03-5.04204E-03
 -1      6965 8.72570E-03 1.38201E-03-5.06608E-03
 -1      6966 8.72570E-03 1.38201E-03-5.09012E-03
 -1      6967 8.72570E-03 1.38201E-03-5.11416E-03
 -1      6968 8.72570E-03 1.38201E-03-5.13820E-03
 -1      6969 8.72570E-03 1.38201E-03-5.16224E-03
 -1      6970 8.72570E-03 1.38201E-03-5.18628E-03
 -1      6971 8.72569E-03 1.38201E-03-5.21032E-03
 -1      6972 8.72569E-03 1.38201E-03-5.23436E-03
 -1      6973 8.64140E-03 1.83679E-03-5.01800E-03
 -1      6974 8.64140E-03 1.83679E-03-5.04204E-03
 -1      6975 8.64141E-03 1.83679E-03-5.06608E-03
 -1      6976 8.64141E-03 1.83679E-03-5.09012E-03
 -1      6977 8.64141E-03 1.83679E-03-5.11416E-03
 -1      6978 8.64141E-03 1.83679E-03-5.13820E-03
 -1      6979 8.64141E-03 1.83679E-03-5.16224E-03
 -1      6980 8.64141E-03 1.83679E-03-5.18628E-03
 -1      6981 8.64140E-03 1.83679E-03-5.21032E-03
 -1      6982 8.64140E-03 1.83679E-03-5.23436E-03
 -1      6983 8.53343E-03 2.28652E-03-5.01800E-03
 -1      6984 8.53343E-03 2.28653E-03-5.04204E-03
 -1      6985 8.53343E-03 2.28653E-03-5.06608E-03
 -1      6986 8.53344E-03 2.28653E-03-5.09012E-03
 -1      6987 8.53344E-03 2.28653E-03-5.11416E-03
 -1      6988 8.53344E-03 2.28653E-03-5.13820E-03
 -1      6989 8.53344E-03 2.28653E-03-5.16224E-03
 -1      6990 8.53343E-03 2.28653E-03-5.18628E-03
 -1      6991 8.53343E-03 2.28653E-03-5.21032E-03
 -1      6992 8.53343E-03 2.28652E-03-5.23436E-03
 -1      6993 8.40206E-03 2.73000E-03-5.01800E-03
 -1      6994 8.40207E-03 2.73000E-03-5.04204E-03
 -1      6995 8.40207E-03 2.73000E-03-5.06608E-03
 -1      6996 8.40208E-03 2.73000E-03-5.09012E-03
 -1      6997 8.40208E-03 2.73000E-03-5.11416E-03
 -1      6998 8.40208E-03 2.73000E-03-5.13820E-03
 -1      6999 8.40208E-03 2.73000E-03-5.16224E-03
 -1      7000 8.40207E-03 2.73000E-03-5.18628E-03
 -1      7001 8.40207E-03 2.73000E-03-5.21032E-03
 -1      7002 8.40206E-03 2.73000E-03-5.23436E-03
 -1      7003 8.24767E-03 3.16598E-03-5.01800E-03
 -1      7004 8.24768E-03 3.16599E-03-5.04204E-03
 -1      7005 8.24768E-03 3.16599E-03-5.06608E-03
 -1      7006 8.24768E-03 3.16599E-03-5.09012E-03
 -1      7007 8.24768E-03 3.16599E-03-5.11416E-03
 -1      7008 8.24768E-03 3.16599E-03-5.13820E-03
 -1      7009 8.24768E-03 3.16599E-03-5.16224E-03
 -1      7010 8.24768E-03 3.16599E-03-5.18628E-03
 -1      7011 8.24768E-03 3.16599E-03-5.21032E-03
 -1      7012 8.24767E-03 3.16598E-03-5.23436E-03
 -1      7013 8.07067E-03 3.59330E-03-5.01800E-03
 -1      7014 8.07068E-03 3.59330E-03-5.04204E-03
 -1      7015 8.07068E-03 3.59330E-03-5.06608E-03
 -1      7016 8.07068E-03 3.59330E-03-5.09012E-03
 -1      7017 8.07069E-03 3.59330E-03-5.11416E-03
 -1      7018 8.07069E-03 3.59330E-03-5.13820E-03
 -1      7019 8.07068E-03 3.59330E-03-5.16224E-03
 -1      7020 8.07068E-03 3.59330E-03-5.18628E-03
 -1      7021 8.07068E-03 3.59330E-03-5.21032E-03
 -1      7022 8.07067E-03 3.59330E-03-5.23436E-03
 -1      7023 7.87156E-03 4.01076E-03-5.01800E-03
 -1      7024 7.87156E-03 4.01076E-03-5.04204E-03
 -1      7025 7.87156E-03 4.01076E-03-5.06608E-03
 -1      7026 7.87157E-03 4.01076E-03-5.09012E-03
 -1      7027 7.87157E-03 4.01076E-03-5.11416E-03
 -1      7028 7.87157E-03 4.01076E-03-5.13820E-03
 -1      7029 7.87157E-03 4.01076E-03-5.16224E-03
 -1      7030 7.87156E-03 4.01076E-03-5.18628E-03
 -1      7031 7.87156E-03 4.01076E-03-5.21032E-03
 -1      7032 7.87156E-03 4.01076E-03-5.23436E-03
 -1      7033 7.65086E-03 4.41723E-03-5.01800E-03
 -1      7034 7.65087E-03 4.41723E-03-5.04204E-03
 -1      7035 7.65087E-03 4.41723E-03-5.06608E-03
 -1      7036 7.65087E-03 4.41723E-03-5.09012E-03
 -1      7037 7.65087E-03 4.41723E-03-5.11416E-03
 -1      7038 7.65087E-03 4.41723E-03-5.13820E-03
 -1      7039 7.65087E-03 4.41723E-03-5.16224E-03
 -1      7040 7.65087E-03 4.41723E-03-5.18628E-03
 -1      7041 7.65087E-03 4.41723E-03-5.21032E-03
 -1      7042 7.65086E-03 4.41723E-03-5.23436E-03
 -1      7043 7.40920E-03 4.81159E-03-5.01800E-03
 -1      7044 7.40920E-03 4.81159E-03-5.04204E-03
 -1      7045 7.40920E-03 4.81159E-03-5.06608E-03
 -1      7046 7.40921E-03 4.81159E-03-5.09012E-03
 -1      7047 7.40921E-03 4.81160E-03-5.11416E-03
 -1      7048 7.40921E-03 4.81160E-03-5.13820E-03
 -1      7049 7.40921E-03 4.81159E-03-5.16224E-03
 -1      7050 7.40920E-03 4.81159E-03-5.18628E-03
 -1      7051 7.40920E-03 4.81159E-03-5.21032E-03
 -1      7052 7.40920E-03 4.81159E-03-5.23436E-03
 -1      7053 7.14722E-03 5.19276E-03-5.01800E-03
 -1      7054 7.14723E-03 5.19276E-03-5.04204E-03
 -1      7055 7.14723E-03 5.19277E-03-5.06608E-03
 -1      7056 7.14723E-03 5.19277E-03-5.09012E-03
 -1      7057 7.14723E-03 5.19277E-03-5.11416E-03
 -1      7058 7.14723E-03 5.19277E-03-5.13820E-03
 -1      7059 7.14723E-03 5.19277E-03-5.16224E-03
 -1      7060 7.14723E-03 5.19277E-03-5.18628E-03
 -1      7061 7.14723E-03 5.19276E-03-5.21032E-03
 -1      7062 7.14722E-03 5.19276E-03-5.23436E-03
 -1      7063 6.86566E-03 5.55970E-03-5.01800E-03
 -1      7064 6.86566E-03 5.55971E-03-5.04204E-03
 -1      7065 6.86567E-03 5.55971E-03-5.06608E-03
 -1      7066 6.86567E-03 5.55971E-03-5.09012E-03
 -1      7067 6.86567E-03 5.55971E-03-5.11416E-03
 -1      7068 6.86567E-03 5.55971E-03-5.13820E-03
 -1      7069 6.86567E-03 5.55971E-03-5.16224E-03
 -1      7070 6.86567E-03 5.55971E-03-5.18628E-03
 -1      7071 6.86566E-03 5.55971E-03-5.21032E-03
 -1      7072 6.86566E-03 5.55970E-03-5.23436E-03
 -1      7073 6.56528E-03 5.91140E-03-5.01800E-03
 -1      7074 6.56528E-03 5.91141E-03-5.04204E-03
 -1      7075 6.56528E-03 5.91141E-03-5.06608E-03
 -1      7076 6.56529E-03 5.91141E-03-5.09012E-03
 -1      7077 6.56529E-03 5.91141E-03-5.11416E-03
 -1      7078 6.56529E-03 5.91141E-03-5.13820E-03
 -1      7079 6.56529E-03 5.91141E-03-5.16224E-03
 -1      7080 6.56528E-03 5.91141E-03-5.18628E-03
 -1      7081 6.56528E-03 5.91141E-03-5.21032E-03
 -1      7082 6.56528E-03 5.91140E-03-5.23436E-03
 -1      7083 6.24690E-03 6.24690E-03-5.01800E-03
 -1      7084 6.24691E-03 6.24691E-03-5.04204E-03
 -1      7085 6.24691E-03 6.24691E-03-5.06608E-03
 -1      7086 6.24691E-03 6.24691E-03-5.09012E-03
 -1      7087 6.24691E-03 6.24691E-03-5.11416E-03
 -1      7088 6.24691E-03 6.24691E-03-5.13820E-03
 -1      7089 6.24691E-03 6.24691E-03-5.16224E-03
 -1      7090 6.24691E-03 6.24691E-03-5.18628E-03
 -1      7091 6.24691E-03 6.24691E-03-5.21032E-03
 -1      7092 6.24690E-03 6.24690E-03-5.23436E-03
 -1      7093 5.91140E-03 6.56528E-03-5.01800E-03
 -1      7094 5.91141E-03 6.56528E-03-5.04204E-03
 -1      7095 5.91141E-03 6.56528E-03-5.06608E-03
 -1      7096 5.91141E-03 6.56529E-03-5.09012E-03
 -1      7097 5.91141E-03 6.56529E-03-5.11416E-03
 -1      7098 5.91141E-03 6.56529E-03-5.13820E-03
 -1      7099 5.91141E-03 6.56529E-03-5.16224E-03
 -1      7100 5.91141E-03 6.56528E-03-5.18628E-03
 -1      7101 5.91141E-03 6.56528E-03-5.21032E-03
 -1      7102 5.91140E-03 6.56528E-03-5.23436E-03
 -1      7103 5.55970E-03 6.86566E-03-5.01800E-03
 -1      7104 5.55970E-03 6.86566E-03-5.04204E-03
 -1      7105 5.55971E-03 6.86567E-03-5.06608E-03
 -1      7106 5.55971E-03 6.86567E-03-5.09012E-03
 -1      7107 5.55971E-03 6.86567E-03-5.11416E-03
 -1      7108 5.55971E-03 6.86567E-03-5.13820E-03
 -1      7109 5.55971E-03 6.86567E-03-5.16224E-03
 -1      7110 5.55971E-03 6.86567E-03-5.18628E-03
 -1      7111 5.55970E-03 6.86566E-03-5.21032E-03
 -1      7112 5.55970E-03 6.86566E-03-5.23436E-03
 -1      7113 5.19276E-03 7.14722E-03-5.01800E-03
 -1      7114 5.19276E-03 7.14723E-03-5.04204E-03
 -1      7115 5.19277E-03 7.14723E-03-5.06608E-03
 -1      7116 5.19277E-03 7.14723E-03-5.09012E-03
 -1      7117 5.19277E-03 7.14723E-03-5.11416E-03
 -1      7118 5.19277E-03 7.14723E-03-5.13820E-03
 -1      7119 5.19277E-03 7.14723E-03-5.16224E-03
 -1      7120 5.19277E-03 7.14723E-03-5.18628E-03
 -1      7121 5.19276E-03 7.14723E-03-5.21032E-03
 -1      7122 5.19276E-03 7.14722E-03-5.23436E-03
 -1      7123 4.81159E-03 7.40920E-03-5.01800E-03
 -1      7124 4.81159E-03 7.40920E-03-5.04204E-03
 -1      7125 4.81159E-03 7.40920E-03-5.06608E-03
 -1      7126 4.81159E-03 7.40921E-03-5.09012E-03
 -1      7127 4.81160E-03 7.40921E-03-5.11416E-03
 -1      7128 4.81160E-03 7.40921E-03-5.13820E-03
 -1      7129 4.81159E-03 7.40921E-03-5.16224E-03
 -1      7130 4.81159E-03 7.40920E-03-5.18628E-03
 -1      7131 4.81159E-03 7.40920E-03-5.21032E-03
 -1      7132 4.81159E-03 7.40920E-03-5.23436E-03
 -1      7133 4.41723E-03 7.65086E-03-5.01800E-03
 -1      7134 4.41723E-03 7.65087E-03-5.04204E-03
 -1      7135 4.41723E-03 7.65087E-03-5.06608E-03
 -1      7136 4.41723E-03 7.65087E-03-5.09012E-03
 -1      7137 4.41723E-03 7.65087E-03-5.11416E-03
 -1      7138 4.41723E-03 7.65087E-03-5.13820E-03
 -1      7139 4.41723E-03 7.65087E-03-5.16224E-03
 -1      7140 4.41723E-03 7.65087E-03-5.18628E-03
 -1      7141 4.41723E-03 7.65087E-03-5.21032E-03
 -1      7142 4.41723E-03 7.65086E-03-5.23436E-03
 -1      7143 4.01076E-03 7.87156E-03-5.01800E-03
 -1      7144 4.01076E-03 7.87156E-03-5.04204E-03
 -1      7145 4.01076E-03 7.87156E-03-5.06608E-03
 -1      7146 4.01076E-03 7.87157E-03-5.09012E-03
 -1      7147 4.01076E-03 7.87157E-03-5.11416E-03
 -1      7148 4.01076E-03 7.87157E-03-5.13820E-03
 -1      7149 4.01076E-03 7.87157E-03-5.16224E-03
 -1      7150 4.01076E-03 7.87156E-03-5.18628E-03
 -1      7151 4.01076E-03 7.87156E-03-5.21032E-03
 -1      7152 4.01076E-03 7.87156E-03-5.23436E-03
 -1      7153 3.59330E-03 8.07067E-03-5.01800E-03
 -1      7154 3.59330E-03 8.07068E-03-5.04204E-03
 -1      7155 3.59330E-03 8.07068E-03-5.06608E-03
 -1      7156 3.59330E-03 8.07068E-03-5.09012E-03
 -1      7157 3.59330E-03 8.07069E-03-5.11416E-03
 -1      7158 3.59330E-03 8.07069E-03-5.13820E-03
 -1      7159 3.59330E-03 8.07068E-03-5.16224E-03
 -1      7160 3.59330E-03 8.07068E-03-5.18628E-03
 -1      7161 3.59330E-03 8.07068E-03-5.21032E-03
 -1      7162 3.59330E-03 8.07067E-03-5.23436E-03
 -1      7163 3.16598E-03 8.24767E-03-5.01800E-03
 -1      7164 3.16599E-03 8.24768E-03-5.04204E-03
 -1      7165 3.16599E-03 8.24768E-03-5.06608E-03
 -1      7166 3.16599E-03 8.24768E-03-5.09012E-03
 -1      7167 3.16599E-03 8.24768E-03-5.11416E-03
 -1      7168 3.16599E-03 8.24768E-03-5.13820E-03
 -1      7169 3.16599E-03 8.24768E-03-5.16224E-03
 -1      7170 3.16599E-03 8.24768E-03-5.18628E-03
 -1      7171 3.16599E-03 8.24768E-03-5.21032E-03
 -1      7172 3.16598E-03 8.24767E-03-5.23436E-03
 -1      7173 2.73000E-03 8.40206E-03-5.01800E-03
 -1      7174 2.73000E-03 8.40207E-03-5.04204E-03
 -1      7175 2.73000E-03 8.40207E-03-5.06608E-03
 -1      7176 2.73000E-03 8.40208E-03-5.09012E-03
 -1      7177 2.73000E-03 8.40208E-03-5.11416E-03
 -1      7178 2.73000E-03 8.40208E-03-5.13820E-03
 -1      7179 2.73000E-03 8.40208E-03-5.16224E-03
 -1      7180 2.73000E-03 8.40207E-03-5.18628E-03
 -1      7181 2.73000E-03 8.40207E-03-5.21032E-03
 -1      7182 2.73000E-03 8.40206E-03-5.23436E-03
 -1      7183 2.28652E-03 8.53343E-03-5.01800E-03
 -1      7184 2.28653E-03 8.53343E-03-5.04204E-03
 -1      7185 2.28653E-03 8.53343E-03-5.06608E-03
 -1      7186 2.28653E-03 8.53344E-03-5.09012E-03
 -1      7187 2.28653E-03 8.53344E-03-5.11416E-03
 -1      7188 2.28653E-03 8.53344E-03-5.13820E-03
 -1      7189 2.28653E-03 8.53344E-03-5.16224E-03
 -1      7190 2.28653E-03 8.53343E-03-5.18628E-03
 -1      7191 2.28653E-03 8.53343E-03-5.21032E-03
 -1      7192 2.28652E-03 8.53343E-03-5.23436E-03
 -1      7193 1.83679E-03 8.64140E-03-5.01800E-03
 -1      7194 1.83679E-03 8.64140E-03-5.04204E-03
 -1      7195 1.83679E-03 8.64141E-03-5.06608E-03
 -1      7196 1.83679E-03 8.64141E-03-5.09012E-03
 -1      7197 1.83679E-03 8.64141E-03-5.11416E-03
 -1      7198 1.83679E-03 8.64141E-03-5.13820E-03
 -1      7199 1.83679E-03 8.64141E-03-5.16224E-03
 -1      7200 1.83679E-03 8.64141E-03-5.18628E-03
 -1      7201 1.83679E-03 8.64140E-03-5.21032E-03
 -1      7202 1.83679E-03 8.64140E-03-5.23436E-03
 -1      7203 1.38201E-03 8.72569E-03-5.01800E-03
 -1      7204 1.38201E-03 8.72569E-03-5.04204E-03
 -1      7205 1.38201E-03 8.72570E-03-5.06608E-03
 -1      7206 1.38201E-03 8.72570E-03-5.09012E-03
 -1      7207 1.38201E-03 8.72570E-03-5.11416E-03
 -1      7208 1.38201E-03 8.72570E-03-5.13820E-03
 -1      7209 1.38201E-03 8.72570E-03-5.16224E-03
 -1      7210 1.38201E-03 8.72570E-03-5.18628E-03
 -1      7211 1.38201E-03 8.72569E-03-5.21032E-03
 -1      7212 1.38201E-03 8.72569E-03-5.23436E-03
 -1      7213 9.23452E-04 8.78606E-03-5.01800E-03
 -1      7214 9.23452E-04 8.78606E-03-5.04204E-03
 -1      7215 9.23453E-04 8.78607E-03-5.06608E-03
 -1      7216 9.23453E-04 8.78607E-03-5.09012E-03
 -1      7217 9.23453E-04 8.78607E-03-5.11416E-03
 -1      7218 9.23453E-04 8.78607E-03-5.13820E-03
 -1      7219 9.23453E-04 8.78607E-03-5.16224E-03
 -1      7220 9.23453E-04 8.78607E-03-5.18628E-03
 -1      7221 9.23452E-04 8.78606E-03-5.21032E-03
 -1      7222 9.23452E-04 8.78606E-03-5.23436E-03
 -1      7223 4.62360E-04 8.82235E-03-5.01800E-03
 -1      7224 4.62360E-04 8.82235E-03-5.04204E-03
 -1      7225 4.62360E-04 8.82236E-03-5.06608E-03
 -1      7226 4.62360E-04 8.82236E-03-5.09012E-03
 -1      7227 4.62360E-04 8.82236E-03-5.11416E-03
 -1      7228 4.62360E-04 8.82236E-03-5.13820E-03
 -1      7229 4.62360E-04 8.82236E-03-5.16224E-03
 -1      7230 4.62360E-04 8.82236E-03-5.18628E-03
 -1      7231 4.62360E-04 8.82235E-03-5.21032E-03
 -1      7232 4.62360E-04 8.82235E-03-5.23436E-03
 -1      7233 8.81557E-03 4.62004E-04-5.01800E-03
 -1      7234 8.81557E-03 4.62005E-04-5.04204E-03
 -1      7235 8.81557E-03 4.62005E-04-5.06608E-03
 -1      7236 8.81558E-03 4.62005E-04-5.09012E-03
 -1      7237 8.81558E-03 4.62005E-04-5.11416E-03
 -1      7238 8.81558E-03 4.62005E-04-5.13820E-03
 -1      7239 8.81558E-03 4.62005E-04-5.16224E-03
 -1      7240 8.81557E-03 4.62005E-04-5.18628E-03
 -1      7241 8.81557E-03 4.62005E-04-5.21032E-03
 -1      7242 8.81557E-03 4.62004E-04-5.23436E-03
 -1      7243 8.77931E-03 9.22742E-04-5.01800E-03
 -1      7244 8.77931E-03 9.22743E-04-5.04204E-03
 -1      7245 8.77931E-03 9.22743E-04-5.06608E-03
 -1      7246 8.77932E-03 9.22743E-04-5.09012E-03
 -1      7247 8.77932E-03 9.22743E-04-5.11416E-03
 -1      7248 8.77932E-03 9.22743E-04-5.13820E-03
 -1      7249 8.77932E-03 9.22743E-04-5.16224E-03
 -1      7250 8.77931E-03 9.22743E-04-5.18628E-03
 -1      7251 8.77931E-03 9.22743E-04-5.21032E-03
 -1      7252 8.77931E-03 9.22742E-04-5.23436E-03
 -1      7253 8.71898E-03 1.38095E-03-5.01800E-03
 -1      7254 8.71899E-03 1.38095E-03-5.04204E-03
 -1      7255 8.71899E-03 1.38095E-03-5.06608E-03
 -1      7256 8.71899E-03 1.38095E-03-5.09012E-03
 -1      7257 8.71899E-03 1.38095E-03-5.11416E-03
 -1      7258 8.71899E-03 1.38095E-03-5.13820E-03
 -1      7259 8.71899E-03 1.38095E-03-5.16224E-03
 -1      7260 8.71899E-03 1.38095E-03-5.18628E-03
 -1      7261 8.71899E-03 1.38095E-03-5.21032E-03
 -1      7262 8.71898E-03 1.38095E-03-5.23436E-03
 -1      7263 8.63476E-03 1.83537E-03-5.01800E-03
 -1      7264 8.63476E-03 1.83538E-03-5.04204E-03
 -1      7265 8.63477E-03 1.83538E-03-5.06608E-03
 -1      7266 8.63477E-03 1.83538E-03-5.09012E-03
 -1      7267 8.63477E-03 1.83538E-03-5.11416E-03
 -1      7268 8.63477E-03 1.83538E-03-5.13820E-03
 -1      7269 8.63477E-03 1.83538E-03-5.16224E-03
 -1      7270 8.63477E-03 1.83538E-03-5.18628E-03
 -1      7271 8.63476E-03 1.83538E-03-5.21032E-03
 -1      7272 8.63476E-03 1.83537E-03-5.23436E-03
 -1      7273 8.52687E-03 2.28477E-03-5.01800E-03
 -1      7274 8.52687E-03 2.28477E-03-5.04204E-03
 -1      7275 8.52688E-03 2.28477E-03-5.06608E-03
 -1      7276 8.52688E-03 2.28477E-03-5.09012E-03
 -1      7277 8.52688E-03 2.28477E-03-5.11416E-03
 -1      7278 8.52688E-03 2.28477E-03-5.13820E-03
 -1      7279 8.52688E-03 2.28477E-03-5.16224E-03
 -1      7280 8.52688E-03 2.28477E-03-5.18628E-03
 -1      7281 8.52687E-03 2.28477E-03-5.21032E-03
 -1      7282 8.52687E-03 2.28477E-03-5.23436E-03
 -1      7283 8.39561E-03 2.72790E-03-5.01800E-03
 -1      7284 8.39561E-03 2.72790E-03-5.04204E-03
 -1      7285 8.39562E-03 2.72790E-03-5.06608E-03
 -1      7286 8.39562E-03 2.72790E-03-5.09012E-03
 -1      7287 8.39562E-03 2.72790E-03-5.11416E-03
 -1      7288 8.39562E-03 2.72790E-03-5.13820E-03
 -1      7289 8.39562E-03 2.72790E-03-5.16224E-03
 -1      7290 8.39562E-03 2.72790E-03-5.18628E-03
 -1      7291 8.39561E-03 2.72790E-03-5.21032E-03
 -1      7292 8.39561E-03 2.72790E-03-5.23436E-03
 -1      7293 8.24133E-03 3.16355E-03-5.01800E-03
 -1      7294 8.24134E-03 3.16355E-03-5.04204E-03
 -1      7295 8.24134E-03 3.16355E-03-5.06608E-03
 -1      7296 8.24135E-03 3.16356E-03-5.09012E-03
 -1      7297 8.24135E-03 3.16356E-03-5.11416E-03
 -1      7298 8.24135E-03 3.16356E-03-5.13820E-03
 -1      7299 8.24135E-03 3.16356E-03-5.16224E-03
 -1      7300 8.24134E-03 3.16355E-03-5.18628E-03
 -1      7301 8.24134E-03 3.16355E-03-5.21032E-03
 -1      7302 8.24133E-03 3.16355E-03-5.23436E-03
 -1      7303 8.06447E-03 3.59053E-03-5.01800E-03
 -1      7304 8.06448E-03 3.59054E-03-5.04204E-03
 -1      7305 8.06448E-03 3.59054E-03-5.06608E-03
 -1      7306 8.06448E-03 3.59054E-03-5.09012E-03
 -1      7307 8.06448E-03 3.59054E-03-5.11416E-03
 -1      7308 8.06448E-03 3.59054E-03-5.13820E-03
 -1      7309 8.06448E-03 3.59054E-03-5.16224E-03
 -1      7310 8.06448E-03 3.59054E-03-5.18628E-03
 -1      7311 8.06448E-03 3.59054E-03-5.21032E-03
 -1      7312 8.06447E-03 3.59053E-03-5.23436E-03
 -1      7313 7.86551E-03 4.00768E-03-5.01800E-03
 -1      7314 7.86551E-03 4.00768E-03-5.04204E-03
 -1      7315 7.86551E-03 4.00768E-03-5.06608E-03
 -1      7316 7.86552E-03 4.00768E-03-5.09012E-03
 -1      7317 7.86552E-03 4.00768E-03-5.11416E-03
 -1      7318 7.86552E-03 4.00768E-03-5.13820E-03
 -1      7319 7.86552E-03 4.00768E-03-5.16224E-03
 -1      7320 7.86551E-03 4.00768E-03-5.18628E-03
 -1      7321 7.86551E-03 4.00768E-03-5.21032E-03
 -1      7322 7.86551E-03 4.00768E-03-5.23436E-03
 -1      7323 7.64498E-03 4.41383E-03-5.01800E-03
 -1      7324 7.64499E-03 4.41383E-03-5.04204E-03
 -1      7325 7.64499E-03 4.41384E-03-5.06608E-03
 -1      7326 7.64499E-03 4.41384E-03-5.09012E-03
 -1      7327 7.64499E-03 4.41384E-03-5.11416E-03
 -1      7328 7.64499E-03 4.41384E-03-5.13820E-03
 -1      7329 7.64499E-03 4.41384E-03-5.16224E-03
 -1      7330 7.64499E-03 4.41384E-03-5.18628E-03
 -1      7331 7.64499E-03 4.41383E-03-5.21032E-03
 -1      7332 7.64498E-03 4.41383E-03-5.23436E-03
 -1      7333 7.40350E-03 4.80789E-03-5.01800E-03
 -1      7334 7.40351E-03 4.80789E-03-5.04204E-03
 -1      7335 7.40351E-03 4.80790E-03-5.06608E-03
 -1      7336 7.40351E-03 4.80790E-03-5.09012E-03
 -1      7337 7.40351E-03 4.80790E-03-5.11416E-03
 -1      7338 7.40351E-03 4.80790E-03-5.13820E-03
 -1      7339 7.40351E-03 4.80790E-03-5.16224E-03
 -1      7340 7.40351E-03 4.80790E-03-5.18628E-03
 -1      7341 7.40351E-03 4.80789E-03-5.21032E-03
 -1      7342 7.40350E-03 4.80789E-03-5.23436E-03
 -1      7343 7.14173E-03 5.18877E-03-5.01800E-03
 -1      7344 7.14173E-03 5.18877E-03-5.04204E-03
 -1      7345 7.14174E-03 5.18878E-03-5.06608E-03
 -1      7346 7.14174E-03 5.18878E-03-5.09012E-03
 -1      7347 7.14174E-03 5.18878E-03-5.11416E-03
 -1      7348 7.14174E-03 5.18878E-03-5.13820E-03
 -1      7349 7.14174E-03 5.18878E-03-5.16224E-03
 -1      7350 7.14174E-03 5.18878E-03-5.18628E-03
 -1      7351 7.14173E-03 5.18877E-03-5.21032E-03
 -1      7352 7.14173E-03 5.18877E-03-5.23436E-03
 -1      7353 6.86038E-03 5.55543E-03-5.01800E-03
 -1      7354 6.86039E-03 5.55543E-03-5.04204E-03
 -1      7355 6.86039E-03 5.55543E-03-5.06608E-03
 -1      7356 6.86039E-03 5.55544E-03-5.09012E-03
 -1      7357 6.86039E-03 5.55544E-03-5.11416E-03
 -1      7358 6.86039E-03 5.55544E-03-5.13820E-03
 -1      7359 6.86039E-03 5.55544E-03-5.16224E-03
 -1      7360 6.86039E-03 5.55543E-03-5.18628E-03
 -1      7361 6.86039E-03 5.55543E-03-5.21032E-03
 -1      7362 6.86038E-03 5.55543E-03-5.23436E-03
 -1      7363 6.56023E-03 5.90686E-03-5.01800E-03
 -1      7364 6.56024E-03 5.90686E-03-5.04204E-03
 -1      7365 6.56024E-03 5.90687E-03-5.06608E-03
 -1      7366 6.56024E-03 5.90687E-03-5.09012E-03
 -1      7367 6.56024E-03 5.90687E-03-5.11416E-03
 -1      7368 6.56024E-03 5.90687E-03-5.13820E-03
 -1      7369 6.56024E-03 5.90687E-03-5.16224E-03
 -1      7370 6.56024E-03 5.90687E-03-5.18628E-03
 -1      7371 6.56024E-03 5.90686E-03-5.21032E-03
 -1      7372 6.56023E-03 5.90686E-03-5.23436E-03
 -1      7373 6.24210E-03 6.24210E-03-5.01800E-03
 -1      7374 6.24210E-03 6.24210E-03-5.04204E-03
 -1      7375 6.24211E-03 6.24211E-03-5.06608E-03
 -1      7376 6.24211E-03 6.24211E-03-5.09012E-03
 -1      7377 6.24211E-03 6.24211E-03-5.11416E-03
 -1      7378 6.24211E-03 6.24211E-03-5.13820E-03
 -1      7379 6.24211E-03 6.24211E-03-5.16224E-03
 -1      7380 6.24211E-03 6.24211E-03-5.18628E-03
 -1      7381 6.24210E-03 6.24210E-03-5.21032E-03
 -1      7382 6.24210E-03 6.24210E-03-5.23436E-03
 -1      7383 5.90686E-03 6.56023E-03-5.01800E-03
 -1      7384 5.90686E-03 6.56024E-03-5.04204E-03
 -1      7385 5.90687E-03 6.56024E-03-5.06608E-03
 -1      7386 5.90687E-03 6.56024E-03-5.09012E-03
 -1      7387 5.90687E-03 6.56024E-03-5.11416E-03
 -1      7388 5.90687E-03 6.56024E-03-5.13820E-03
 -1      7389 5.90687E-03 6.56024E-03-5.16224E-03
 -1      7390 5.90687E-03 6.56024E-03-5.18628E-03
 -1      7391 5.90686E-03 6.56024E-03-5.21032E-03
 -1      7392 5.90686E-03 6.56023E-03-5.23436E-03
 -1      7393 5.55543E-03 6.86038E-03-5.01800E-03
 -1      7394 5.55543E-03 6.86039E-03-5.04204E-03
 -1      7395 5.55543E-03 6.86039E-03-5.06608E-03
 -1      7396 5.55544E-03 6.86039E-03-5.09012E-03
 -1      7397 5.55544E-03 6.86039E-03-5.11416E-03
 -1      7398 5.55544E-03 6.86039E-03-5.13820E-03
 -1      7399 5.55544E-03 6.86039E-03-5.16224E-03
 -1      7400 5.55543E-03 6.86039E-03-5.18628E-03
 -1      7401 5.55543E-03 6.86039E-03-5.21032E-03
 -1      7402 5.55543E-03 6.86038E-03-5.23436E-03
 -1      7403 5.18877E-03 7.14173E-03-5.01800E-03
 -1      7404 5.18877E-03 7.14173E-03-5.04204E-03
 -1      7405 5.18878E-03 7.14174E-03-5.06608E-03
 -1      7406 5.18878E-03 7.14174E-03-5.09012E-03
 -1      7407 5.18878E-03 7.14174E-03-5.11416E-03
 -1      7408 5.18878E-03 7.14174E-03-5.13820E-03
 -1      7409 5.18878E-03 7.14174E-03-5.16224E-03
 -1      7410 5.18878E-03 7.14174E-03-5.18628E-03
 -1      7411 5.18877E-03 7.14173E-03-5.21032E-03
 -1      7412 5.18877E-03 7.14173E-03-5.23436E-03
 -1      7413 4.80789E-03 7.40350E-03-5.01800E-03
 -1      7414 4.80789E-03 7.40351E-03-5.04204E-03
 -1      7415 4.80790E-03 7.40351E-03-5.06608E-03
 -1      7416 4.80790E-03 7.40351E-03-5.09012E-03
 -1      7417 4.80790E-03 7.40351E-03-5.11416E-03
 -1      7418 4.80790E-03 7.40351E-03-5.13820E-03
 -1      7419 4.80790E-03 7.40351E-03-5.16224E-03
 -1      7420 4.80790E-03 7.40351E-03-5.18628E-03
 -1      7421 4.80789E-03 7.40351E-03-5.21032E-03
 -1      7422 4.80789E-03 7.40350E-03-5.23436E-03
 -1      7423 4.41383E-03 7.64498E-03-5.01800E-03
 -1      7424 4.41383E-03 7.64499E-03-5.04204E-03
 -1      7425 4.41384E-03 7.64499E-03-5.06608E-03
 -1      7426 4.41384E-03 7.64499E-03-5.09012E-03
 -1      7427 4.41384E-03 7.64499E-03-5.11416E-03
 -1      7428 4.41384E-03 7.64499E-03-5.13820E-03
 -1      7429 4.41384E-03 7.64499E-03-5.16224E-03
 -1      7430 4.41384E-03 7.64499E-03-5.18628E-03
 -1      7431 4.41383E-03 7.64499E-03-5.21032E-03
 -1      7432 4.41383E-03 7.64498E-03-5.23436E-03
 -1      7433 4.00768E-03 7.86551E-03-5.01800E-03
 -1      7434 4.00768E-03 7.86551E-03-5.04204E-03
 -1      7435 4.00768E-03 7.86551E-03-5.06608E-03
 -1      7436 4.00768E-03 7.86552E-03-5.09012E-03
 -1      7437 4.00768E-03 7.86552E-03-5.11416E-03
 -1      7438 4.00768E-03 7.86552E-03-5.13820E-03
 -1      7439 4.00768E-03 7.86552E-03-5.16224E-03
 -1      7440 4.00768E-03 7.86551E-03-5.18628E-03
 -1      7441 4.00768E-03 7.86551E-03-5.21032E-03
 -1      7442 4.00768E-03 7.86551E-03-5.23436E-03
 -1      7443 3.59053E-03 8.06447E-03-5.01800E-03
 -1      7444 3.59054E-03 8.06448E-03-5.04204E-03
 -1      7445 3.59054E-03 8.06448E-03-5.06608E-03
 -1      7446 3.59054E-03 8.06448E-03-5.09012E-03
 -1      7447 3.59054E-03 8.06448E-03-5.11416E-03
 -1      7448 3.59054E-03 8.06448E-03-5.13820E-03
 -1      7449 3.59054E-03 8.06448E-03-5.16224E-03
 -1      7450 3.59054E-03 8.06448E-03-5.18628E-03
 -1      7451 3.59054E-03 8.06448E-03-5.21032E-03
 -1      7452 3.59053E-03 8.06447E-03-5.23436E-03
 -1      7453 3.16355E-03 8.24133E-03-5.01800E-03
 -1      7454 3.16355E-03 8.24134E-03-5.04204E-03
 -1      7455 3.16355E-03 8.24134E-03-5.06608E-03
 -1      7456 3.16356E-03 8.24135E-03-5.09012E-03
 -1      7457 3.16356E-03 8.24135E-03-5.11416E-03
 -1      7458 3.16356E-03 8.24135E-03-5.13820E-03
 -1      7459 3.16356E-03 8.24135E-03-5.16224E-03
 -1      7460 3.16355E-03 8.24134E-03-5.18628E-03
 -1      7461 3.16355E-03 8.24134E-03-5.21032E-03
 -1      7462 3.16355E-03 8.24133E-03-5.23436E-03
 -1      7463 2.72790E-03 8.39561E-03-5.01800E-03
 -1      7464 2.72790E-03 8.39561E-03-5.04204E-03
 -1      7465 2.72790E-03 8.39562E-03-5.06608E-03
 -1      7466 2.72790E-03 8.39562E-03-5.09012E-03
 -1      7467 2.72790E-03 8.39562E-03-5.11416E-03
 -1      7468 2.72790E-03 8.39562E-03-5.13820E-03
 -1      7469 2.72790E-03 8.39562E-03-5.16224E-03
 -1      7470 2.72790E-03 8.39562E-03-5.18628E-03
 -1      7471 2.72790E-03 8.39561E-03-5.21032E-03
 -1      7472 2.72790E-03 8.39561E-03-5.23436E-03
 -1      7473 2.28477E-03 8.52687E-03-5.01800E-03
 -1      7474 2.28477E-03 8.52687E-03-5.04204E-03
 -1      7475 2.28477E-03 8.52688E-03-5.06608E-03
 -1      7476 2.28477E-03 8.52688E-03-5.09012E-03
 -1      7477 2.28477E-03 8.52688E-03-5.11416E-03
 -1      7478 2.28477E-03 8.52688E-03-5.13820E-03
 -1      7479 2.28477E-03 8.52688E-03-5.16224E-03
 -1      7480 2.28477E-03 8.52688E-03-5.18628E-03
 -1      7481 2.28477E-03 8.52687E-03-5.21032E-03
 -1      7482 2.28477E-03 8.52687E-03-5.23436E-03
 -1      7483 1.83537E-03 8.63476E-03-5.01800E-03
 -1      7484 1.83538E-03 8.63476E-03-5.04204E-03
 -1      7485 1.83538E-03 8.63477E-03-5.06608E-03
 -1      7486 1.83538E-03 8.63477E-03-5.09012E-03
 -1      7487 1.83538E-03 8.63477E-03-5.11416E-03
 -1      7488 1.83538E-03 8.63477E-03-5.13820E-03
 -1      7489 1.83538E-03 8.63477E-03-5.16224E-03
 -1      7490 1.83538E-03 8.63477E-03-5.18628E-03
 -1      7491 1.83538E-03 8.63476E-03-5.21032E-03
 -1      7492 1.83537E-03 8.63476E-03-5.23436E-03
 -1      7493 1.38095E-03 8.71898E-03-5.01800E-03
 -1      7494 1.38095E-03 8.71899E-03-5.04204E-03
 -1      7495 1.38095E-03 8.71899E-03-5.06608E-03
 -1      7496 1.38095E-03 8.71899E-03-5.09012E-03
 -1      7497 1.38095E-03 8.71899E-03-5.11416E-03
 -1      7498 1.38095E-03 8.71899E-03-5.13820E-03
 -1      7499 1.38095E-03 8.71899E-03-5.16224E-03
 -1      7500 1.38095E-03 8.71899E-03-5.18628E-03
 -1      7501 1.38095E-03 8.71899E-03-5.21032E-03
 -1      7502 1.38095E-03 8.71898E-03-5.23436E-03
 -1      7503 9.22742E-04 8.77931E-03-5.01800E-03
 -1      7504 9.22743E-04 8.77931E-03-5.04204E-03
 -1      7505 9.22743E-04 8.77931E-03-5.06608E-03
 -1      7506 9.22743E-04 8.77932E-03-5.09012E-03
 -1      7507 9.22743E-04 8.77932E-03-5.11416E-03
 -1      7508 9.22743E-04 8.77932E-03-5.13820E-03
 -1      7509 9.22743E-04 8.77932E-03-5.16224E-03
 -1      7510 9.22743E-04 8.77931E-03-5.18628E-03
 -1      7511 9.22743E-04 8.77931E-03-5.21032E-03
 -1      7512 9.22742E-04 8.77931E-03-5.23436E-03
 -1      7513 4.62004E-04 8.81557E-03-5.01800E-03
 -1      7514 4.62005E-04 8.81557E-03-5.04204E-03
 -1      7515 4.62005E-04 8.81557E-03-5.06608E-03
 -1      7516 4.62005E-04 8.81558E-03-5.09012E-03
 -1      7517 4.62005E-04 8.81558E-03-5.11416E-03
 -1      7518 4.62005E-04 8.81558E-03-5.13820E-03
 -1      7519 4.62005E-04 8.81558E-03-5.16224E-03
 -1      7520 4.62005E-04 8.81557E-03-5.18628E-03
 -1      7521 4.62005E-04 8.81557E-03-5.21032E-03
 -1      7522 4.62004E-04 8.81557E-03-5.23436E-03
 -1      7523 8.80886E-03 4.61653E-04-5.01800E-03
 -1      7524 8.80886E-03 4.61653E-04-5.04204E-03
 -1      7525 8.80887E-03 4.61653E-04-5.06608E-03
 -1      7526 8.80887E-03 4.61653E-04-5.09012E-03
 -1      7527 8.80887E-03 4.61653E-04-5.11416E-03
 -1      7528 8.80887E-03 4.61653E-04-5.13820E-03
 -1      7529 8.80887E-03 4.61653E-04-5.16224E-03
 -1      7530 8.80887E-03 4.61653E-04-5.18628E-03
 -1      7531 8.80886E-03 4.61653E-04-5.21032E-03
 -1      7532 8.80886E-03 4.61653E-04-5.23435E-03
 -1      7533 8.77263E-03 9.22040E-04-5.01800E-03
 -1      7534 8.77263E-03 9.22041E-04-5.04204E-03
 -1      7535 8.77263E-03 9.22041E-04-5.06608E-03
 -1      7536 8.77264E-03 9.22041E-04-5.09012E-03
 -1      7537 8.77264E-03 9.22041E-04-5.11416E-03
 -1      7538 8.77264E-03 9.22041E-04-5.13820E-03
 -1      7539 8.77264E-03 9.22041E-04-5.16224E-03
 -1      7540 8.77263E-03 9.22041E-04-5.18628E-03
 -1      7541 8.77263E-03 9.22041E-04-5.21032E-03
 -1      7542 8.77263E-03 9.22040E-04-5.23435E-03
 -1      7543 8.71235E-03 1.37990E-03-5.01800E-03
 -1      7544 8.71235E-03 1.37990E-03-5.04204E-03
 -1      7545 8.71236E-03 1.37990E-03-5.06608E-03
 -1      7546 8.71236E-03 1.37990E-03-5.09012E-03
 -1      7547 8.71236E-03 1.37990E-03-5.11416E-03
 -1      7548 8.71236E-03 1.37990E-03-5.13820E-03
 -1      7549 8.71236E-03 1.37990E-03-5.16224E-03
 -1      7550 8.71236E-03 1.37990E-03-5.18628E-03
 -1      7551 8.71235E-03 1.37990E-03-5.21032E-03
 -1      7552 8.71235E-03 1.37990E-03-5.23435E-03
 -1      7553 8.62819E-03 1.83398E-03-5.01800E-03
 -1      7554 8.62819E-03 1.83398E-03-5.04204E-03
 -1      7555 8.62820E-03 1.83398E-03-5.06608E-03
 -1      7556 8.62820E-03 1.83398E-03-5.09012E-03
 -1      7557 8.62820E-03 1.83398E-03-5.11416E-03
 -1      7558 8.62820E-03 1.83398E-03-5.13820E-03
 -1      7559 8.62820E-03 1.83398E-03-5.16224E-03
 -1      7560 8.62820E-03 1.83398E-03-5.18628E-03
 -1      7561 8.62819E-03 1.83398E-03-5.21032E-03
 -1      7562 8.62819E-03 1.83398E-03-5.23435E-03
 -1      7563 8.52038E-03 2.28303E-03-5.01800E-03
 -1      7564 8.52039E-03 2.28303E-03-5.04204E-03
 -1      7565 8.52039E-03 2.28303E-03-5.06608E-03
 -1      7566 8.52039E-03 2.28303E-03-5.09012E-03
 -1      7567 8.52039E-03 2.28303E-03-5.11416E-03
 -1      7568 8.52039E-03 2.28303E-03-5.13820E-03
 -1      7569 8.52039E-03 2.28303E-03-5.16224E-03
 -1      7570 8.52039E-03 2.28303E-03-5.18628E-03
 -1      7571 8.52039E-03 2.28303E-03-5.21032E-03
 -1      7572 8.52038E-03 2.28303E-03-5.23435E-03
 -1      7573 8.38922E-03 2.72582E-03-5.01800E-03
 -1      7574 8.38922E-03 2.72582E-03-5.04204E-03
 -1      7575 8.38923E-03 2.72583E-03-5.06608E-03
 -1      7576 8.38923E-03 2.72583E-03-5.09012E-03
 -1      7577 8.38923E-03 2.72583E-03-5.11416E-03
 -1      7578 8.38923E-03 2.72583E-03-5.13820E-03
 -1      7579 8.38923E-03 2.72583E-03-5.16224E-03
 -1      7580 8.38923E-03 2.72583E-03-5.18628E-03
 -1      7581 8.38922E-03 2.72582E-03-5.21032E-03
 -1      7582 8.38922E-03 2.72582E-03-5.23435E-03
 -1      7583 8.23506E-03 3.16114E-03-5.01800E-03
 -1      7584 8.23507E-03 3.16115E-03-5.04204E-03
 -1      7585 8.23507E-03 3.16115E-03-5.06608E-03
 -1      7586 8.23507E-03 3.16115E-03-5.09012E-03
 -1      7587 8.23508E-03 3.16115E-03-5.11416E-03
 -1      7588 8.23508E-03 3.16115E-03-5.13820E-03
 -1      7589 8.23507E-03 3.16115E-03-5.16224E-03
 -1      7590 8.23507E-03 3.16115E-03-5.18628E-03
 -1      7591 8.23507E-03 3.16115E-03-5.21032E-03
 -1      7592 8.23506E-03 3.16114E-03-5.23435E-03
 -1      7593 8.05834E-03 3.58780E-03-5.01800E-03
 -1      7594 8.05834E-03 3.58780E-03-5.04204E-03
 -1      7595 8.05834E-03 3.58781E-03-5.06608E-03
 -1      7596 8.05835E-03 3.58781E-03-5.09012E-03
 -1      7597 8.05835E-03 3.58781E-03-5.11416E-03
 -1      7598 8.05835E-03 3.58781E-03-5.13820E-03
 -1      7599 8.05835E-03 3.58781E-03-5.16224E-03
 -1      7600 8.05834E-03 3.58781E-03-5.18628E-03
 -1      7601 8.05834E-03 3.58780E-03-5.21032E-03
 -1      7602 8.05834E-03 3.58780E-03-5.23435E-03
 -1      7603 7.85952E-03 4.00463E-03-5.01800E-03
 -1      7604 7.85953E-03 4.00463E-03-5.04204E-03
 -1      7605 7.85953E-03 4.00463E-03-5.06608E-03
 -1      7606 7.85953E-03 4.00463E-03-5.09012E-03
 -1      7607 7.85953E-03 4.00463E-03-5.11416E-03
 -1      7608 7.85953E-03 4.00463E-03-5.13820E-03
 -1      7609 7.85953E-03 4.00463E-03-5.16224E-03
 -1      7610 7.85953E-03 4.00463E-03-5.18628E-03
 -1      7611 7.85953E-03 4.00463E-03-5.21032E-03
 -1      7612 7.85952E-03 4.00463E-03-5.23435E-03
 -1      7613 7.63917E-03 4.41047E-03-5.01800E-03
 -1      7614 7.63917E-03 4.41048E-03-5.04204E-03
 -1      7615 7.63917E-03 4.41048E-03-5.06608E-03
 -1      7616 7.63917E-03 4.41048E-03-5.09012E-03
 -1      7617 7.63918E-03 4.41048E-03-5.11416E-03
 -1      7618 7.63918E-03 4.41048E-03-5.13820E-03
 -1      7619 7.63917E-03 4.41048E-03-5.16224E-03
 -1      7620 7.63917E-03 4.41048E-03-5.18628E-03
 -1      7621 7.63917E-03 4.41048E-03-5.21032E-03
 -1      7622 7.63917E-03 4.41047E-03-5.23435E-03
 -1      7623 7.39787E-03 4.80423E-03-5.01800E-03
 -1      7624 7.39787E-03 4.80423E-03-5.04204E-03
 -1      7625 7.39788E-03 4.80424E-03-5.06608E-03
 -1      7626 7.39788E-03 4.80424E-03-5.09012E-03
 -1      7627 7.39788E-03 4.80424E-03-5.11416E-03
 -1      7628 7.39788E-03 4.80424E-03-5.13820E-03
 -1      7629 7.39788E-03 4.80424E-03-5.16224E-03
 -1      7630 7.39788E-03 4.80424E-03-5.18628E-03
 -1      7631 7.39787E-03 4.80423E-03-5.21032E-03
 -1      7632 7.39787E-03 4.80423E-03-5.23435E-03
 -1      7633 7.13630E-03 5.18482E-03-5.01800E-03
 -1      7634 7.13630E-03 5.18483E-03-5.04204E-03
 -1      7635 7.13630E-03 5.18483E-03-5.06608E-03
 -1      7636 7.13631E-03 5.18483E-03-5.09012E-03
 -1      7637 7.13631E-03 5.18483E-03-5.11416E-03
 -1      7638 7.13631E-03 5.18483E-03-5.13820E-03
 -1      7639 7.13631E-03 5.18483E-03-5.16224E-03
 -1      7640 7.13630E-03 5.18483E-03-5.18628E-03
 -1      7641 7.13630E-03 5.18483E-03-5.21032E-03
 -1      7642 7.13630E-03 5.18482E-03-5.23435E-03
 -1      7643 6.85516E-03 5.55120E-03-5.01800E-03
 -1      7644 6.85517E-03 5.55121E-03-5.04204E-03
 -1      7645 6.85517E-03 5.55121E-03-5.06608E-03
 -1      7646 6.85517E-03 5.55121E-03-5.09012E-03
 -1      7647 6.85517E-03 5.55121E-03-5.11416E-03
 -1      7648 6.85517E-03 5.55121E-03-5.13820E-03
 -1      7649 6.85517E-03 5.55121E-03-5.16224E-03
 -1      7650 6.85517E-03 5.55121E-03-5.18628E-03
 -1      7651 6.85517E-03 5.55121E-03-5.21032E-03
 -1      7652 6.85516E-03 5.55120E-03-5.23435E-03
 -1      7653 6.55524E-03 5.90237E-03-5.01800E-03
 -1      7654 6.55525E-03 5.90237E-03-5.04204E-03
 -1      7655 6.55525E-03 5.90237E-03-5.06608E-03
 -1      7656 6.55525E-03 5.90237E-03-5.09012E-03
 -1      7657 6.55525E-03 5.90237E-03-5.11416E-03
 -1      7658 6.55525E-03 5.90237E-03-5.13820E-03
 -1      7659 6.55525E-03 5.90237E-03-5.16224E-03
 -1      7660 6.55525E-03 5.90237E-03-5.18628E-03
 -1      7661 6.55525E-03 5.90237E-03-5.21032E-03
 -1      7662 6.55524E-03 5.90237E-03-5.23435E-03
 -1      7663 6.23735E-03 6.23735E-03-5.01800E-03
 -1      7664 6.23736E-03 6.23736E-03-5.04204E-03
 -1      7665 6.23736E-03 6.23736E-03-5.06608E-03
 -1      7666 6.23736E-03 6.23736E-03-5.09012E-03
 -1      7667 6.23736E-03 6.23736E-03-5.11416E-03
 -1      7668 6.23736E-03 6.23736E-03-5.13820E-03
 -1      7669 6.23736E-03 6.23736E-03-5.16224E-03
 -1      7670 6.23736E-03 6.23736E-03-5.18628E-03
 -1      7671 6.23736E-03 6.23736E-03-5.21032E-03
 -1      7672 6.23735E-03 6.23735E-03-5.23435E-03
 -1      7673 5.90237E-03 6.55524E-03-5.01800E-03
 -1      7674 5.90237E-03 6.55525E-03-5.04204E-03
 -1      7675 5.90237E-03 6.55525E-03-5.06608E-03
 -1      7676 5.90237E-03 6.55525E-03-5.09012E-03
 -1      7677 5.90237E-03 6.55525E-03-5.11416E-03
 -1      7678 5.90237E-03 6.55525E-03-5.13820E-03
 -1      7679 5.90237E-03 6.55525E-03-5.16224E-03
 -1      7680 5.90237E-03 6.55525E-03-5.18628E-03
 -1      7681 5.90237E-03 6.55525E-03-5.21032E-03
 -1      7682 5.90237E-03 6.55524E-03-5.23435E-03
 -1      7683 5.55120E-03 6.85516E-03-5.01800E-03
 -1      7684 5.55121E-03 6.85517E-03-5.04204E-03
 -1      7685 5.55121E-03 6.85517E-03-5.06608E-03
 -1      7686 5.55121E-03 6.85517E-03-5.09012E-03
 -1      7687 5.55121E-03 6.85517E-03-5.11416E-03
 -1      7688 5.55121E-03 6.85517E-03-5.13820E-03
 -1      7689 5.55121E-03 6.85517E-03-5.16224E-03
 -1      7690 5.55121E-03 6.85517E-03-5.18628E-03
 -1      7691 5.55121E-03 6.85517E-03-5.21032E-03
 -1      7692 5.55120E-03 6.85516E-03-5.23435E-03
 -1      7693 5.18482E-03 7.13630E-03-5.01800E-03
 -1      7694 5.18483E-03 7.13630E-03-5.04204E-03
 -1      7695 5.18483E-03 7.13630E-03-5.06608E-03
 -1      7696 5.18483E-03 7.13631E-03-5.09012E-03
 -1      7697 5.18483E-03 7.13631E-03-5.11416E-03
 -1      7698 5.18483E-03 7.13631E-03-5.13820E-03
 -1      7699 5.18483E-03 7.13631E-03-5.16224E-03
 -1      7700 5.18483E-03 7.13630E-03-5.18628E-03
 -1      7701 5.18483E-03 7.13630E-03-5.21032E-03
 -1      7702 5.18482E-03 7.13630E-03-5.23435E-03
 -1      7703 4.80423E-03 7.39787E-03-5.01800E-03
 -1      7704 4.80423E-03 7.39787E-03-5.04204E-03
 -1      7705 4.80424E-03 7.39788E-03-5.06608E-03
 -1      7706 4.80424E-03 7.39788E-03-5.09012E-03
 -1      7707 4.80424E-03 7.39788E-03-5.11416E-03
 -1      7708 4.80424E-03 7.39788E-03-5.13820E-03
 -1      7709 4.80424E-03 7.39788E-03-5.16224E-03
 -1      7710 4.80424E-03 7.39788E-03-5.18628E-03
 -1      7711 4.80423E-03 7.39787E-03-5.21032E-03
 -1      7712 4.80423E-03 7.39787E-03-5.23435E-03
 -1      7713 4.41047E-03 7.63917E-03-5.01800E-03
 -1      7714 4.41048E-03 7.63917E-03-5.04204E-03
 -1      7715 4.41048E-03 7.63917E-03-5.06608E-03
 -1      7716 4.41048E-03 7.63917E-03-5.09012E-03
 -1      7717 4.41048E-03 7.63918E-03-5.11416E-03
 -1      7718 4.41048E-03 7.63918E-03-5.13820E-03
 -1      7719 4.41048E-03 7.63917E-03-5.16224E-03
 -1      7720 4.41048E-03 7.63917E-03-5.18628E-03
 -1      7721 4.41048E-03 7.63917E-03-5.21032E-03
 -1      7722 4.41047E-03 7.63917E-03-5.23435E-03
 -1      7723 4.00463E-03 7.85952E-03-5.01800E-03
 -1      7724 4.00463E-03 7.85953E-03-5.04204E-03
 -1      7725 4.00463E-03 7.85953E-03-5.06608E-03
 -1      7726 4.00463E-03 7.85953E-03-5.09012E-03
 -1      7727 4.00463E-03 7.85953E-03-5.11416E-03
 -1      7728 4.00463E-03 7.85953E-03-5.13820E-03
 -1      7729 4.00463E-03 7.85953E-03-5.16224E-03
 -1      7730 4.00463E-03 7.85953E-03-5.18628E-03
 -1      7731 4.00463E-03 7.85953E-03-5.21032E-03
 -1      7732 4.00463E-03 7.85952E-03-5.23435E-03
 -1      7733 3.58780E-03 8.05834E-03-5.01800E-03
 -1      7734 3.58780E-03 8.05834E-03-5.04204E-03
 -1      7735 3.58781E-03 8.05834E-03-5.06608E-03
 -1      7736 3.58781E-03 8.05835E-03-5.09012E-03
 -1      7737 3.58781E-03 8.05835E-03-5.11416E-03
 -1      7738 3.58781E-03 8.05835E-03-5.13820E-03
 -1      7739 3.58781E-03 8.05835E-03-5.16224E-03
 -1      7740 3.58781E-03 8.05834E-03-5.18628E-03
 -1      7741 3.58780E-03 8.05834E-03-5.21032E-03
 -1      7742 3.58780E-03 8.05834E-03-5.23435E-03
 -1      7743 3.16114E-03 8.23506E-03-5.01800E-03
 -1      7744 3.16115E-03 8.23507E-03-5.04204E-03
 -1      7745 3.16115E-03 8.23507E-03-5.06608E-03
 -1      7746 3.16115E-03 8.23507E-03-5.09012E-03
 -1      7747 3.16115E-03 8.23508E-03-5.11416E-03
 -1      7748 3.16115E-03 8.23508E-03-5.13820E-03
 -1      7749 3.16115E-03 8.23507E-03-5.16224E-03
 -1      7750 3.16115E-03 8.23507E-03-5.18628E-03
 -1      7751 3.16115E-03 8.23507E-03-5.21032E-03
 -1      7752 3.16114E-03 8.23506E-03-5.23435E-03
 -1      7753 2.72582E-03 8.38922E-03-5.01800E-03
 -1      7754 2.72582E-03 8.38922E-03-5.04204E-03
 -1      7755 2.72583E-03 8.38923E-03-5.06608E-03
 -1      7756 2.72583E-03 8.38923E-03-5.09012E-03
 -1      7757 2.72583E-03 8.38923E-03-5.11416E-03
 -1      7758 2.72583E-03 8.38923E-03-5.13820E-03
 -1      7759 2.72583E-03 8.38923E-03-5.16224E-03
 -1      7760 2.72583E-03 8.38923E-03-5.18628E-03
 -1      7761 2.72582E-03 8.38922E-03-5.21032E-03
 -1      7762 2.72582E-03 8.38922E-03-5.23435E-03
 -1      7763 2.28303E-03 8.52038E-03-5.01800E-03
 -1      7764 2.28303E-03 8.52039E-03-5.04204E-03
 -1      7765 2.28303E-03 8.52039E-03-5.06608E-03
 -1      7766 2.28303E-03 8.52039E-03-5.09012E-03
 -1      7767 2.28303E-03 8.52039E-03-5.11416E-03
 -1      7768 2.28303E-03 8.52039E-03-5.13820E-03
 -1      7769 2.28303E-03 8.52039E-03-5.16224E-03
 -1      7770 2.28303E-03 8.52039E-03-5.18628E-03
 -1      7771 2.28303E-03 8.52039E-03-5.21032E-03
 -1      7772 2.28303E-03 8.52038E-03-5.23435E-03
 -1      7773 1.83398E-03 8.62819E-03-5.01800E-03
 -1      7774 1.83398E-03 8.62819E-03-5.04204E-03
 -1      7775 1.83398E-03 8.62820E-03-5.06608E-03
 -1      7776 1.83398E-03 8.62820E-03-5.09012E-03
 -1      7777 1.83398E-03 8.62820E-03-5.11416E-03
 -1      7778 1.83398E-03 8.62820E-03-5.13820E-03
 -1      7779 1.83398E-03 8.62820E-03-5.16224E-03
 -1      7780 1.83398E-03 8.62820E-03-5.18628E-03
 -1      7781 1.83398E-03 8.62819E-03-5.21032E-03
 -1      7782 1.83398E-03 8.62819E-03-5.23435E-03
 -1      7783 1.37990E-03 8.71235E-03-5.01800E-03
 -1      7784 1.37990E-03 8.71235E-03-5.04204E-03
 -1      7785 1.37990E-03 8.71236E-03-5.06608E-03
 -1      7786 1.37990E-03 8.71236E-03-5.09012E-03
 -1      7787 1.37990E-03 8.71236E-03-5.11416E-03
 -1      7788 1.37990E-03 8.71236E-03-5.13820E-03
 -1      7789 1.37990E-03 8.71236E-03-5.16224E-03
 -1      7790 1.37990E-03 8.71236E-03-5.18628E-03
 -1      7791 1.37990E-03 8.71235E-03-5.21032E-03
 -1      7792 1.37990E-03 8.71235E-03-5.23435E-03
 -1      7793 9.22040E-04 8.77263E-03-5.01800E-03
 -1      7794 9.22041E-04 8.77263E-03-5.04204E-03
 -1      7795 9.22041E-04 8.77263E-03-5.06608E-03
 -1      7796 9.22041E-04 8.77264E-03-5.09012E-03
 -1      7797 9.22041E-04 8.77264E-03-5.11416E-03
 -1      7798 9.22041E-04 8.77264E-03-5.13820E-03
 -1      7799 9.22041E-04 8.77264E-03-5.16224E-03
 -1      7800 9.22041E-04 8.77263E-03-5.18628E-03
 -1      7801 9.22041E-04 8.77263E-03-5.21032E-03
 -1      7802 9.22040E-04 8.77263E-03-5.23435E-03
 -1      7803 4.61653E-04 8.80886E-03-5.01800E-03
 -1      7804 4.61653E-04 8.80886E-03-5.04204E-03
 -1      7805 4.61653E-04 8.80887E-03-5.06608E-03
 -1      7806 4.61653E-04 8.80887E-03-5.09012E-03
 -1      7807 4.61653E-04 8.80887E-03-5.11416E-03
 -1      7808 4.61653E-04 8.80887E-03-5.13820E-03
 -1      7809 4.61653E-04 8.80887E-03-5.16224E-03
 -1      7810 4.61653E-04 8.80887E-03-5.18628E-03
 -1      7811 4.61653E-04 8.80886E-03-5.21032E-03
 -1      7812 4.61653E-04 8.80886E-03-5.23435E-03
 -3
    1PSTEP                         2           1           1          
  100CL  101 1.000000000        7812                     0    1           1
 -4  STRESS      6    1
 -5  SXX         1    4    1    1
 -5  SYY         1    4    2    2
 -5  SZZ         1    4    3    3
 -5  SXY         1    4    1    2
 -5  SYZ         1    4    2    3
 -5  SZX         1    4    3    1
 -1         1-9.50528E-01 1.95288E+01 1.69337E-02-2.68126E-01-8.31792E-05-1.95500E-03
 -1         2-3.84644E-02 1.84933E+01-1.46055E-02-2.42628E-01-7.27183E-05-1.67861E-03
 -1         3 1.84933E+01-3.84644E-02-1.46055E-02-2.42628E-01-1.67861E-03-7.27183E-05
 -1         4 1.95288E+01-9.50528E-01 1.69337E-02-2.68126E-01-1.95500E-03-8.31792E-05
 -1         5-9.50528E-01 1.95288E+01 1.69337E-02-2.68126E-01 8.31792E-05 1.95500E-03
 -1         6-3.84644E-02 1.84933E+01-1.46055E-02-2.42628E-01 7.27183E-05 1.67861E-03
 -1         7 1.84933E+01-3.84644E-02-1.46055E-02-2.42628E-01 1.67861E-03 7.27183E-05
 -1         8 1.95288E+01-9.50528E-01 1.69337E-02-2.68126E-01 1.95500E-03 8.31793E-05
 -1         9-9.43085E-01 1.94558E+01-8.68719E-04-2.67073E-01-6.42338E-05-1.31288E-03
 -1        10-8.89653E-01 1.94027E+01-2.07299E-04-2.65678E-01-3.79324E-05-4.16184E-04
 -1        11-8.36745E-01 1.93499E+01 2.65875E-05-2.64294E-01-2.67918E-05-1.03174E-04
 -1        12-7.84332E-01 1.92974E+01 9.91524E-05-2.62920E-01-2.07080E-05 2.68264E-05
 -1        13-7.32368E-01 1.92452E+01 1.06534E-04-2.61557E-01-1.68924E-05 8.61467E-05
 -1        14-6.80822E-01 1.91935E+01 8.73491E-05-2.60205E-01-1.43435E-05 1.14224E-04
 -1        15-6.29679E-01 1.91422E+01 5.79659E-05-2.58863E-01-1.26146E-05 1.27448E-04
 -1        16-5.78931E-01 1.90912E+01 2.53146E-05-2.57532E-01-1.14763E-05 1.33356E-04
 -1        17-5.28571E-01 1.90407E+01-7.88868E-06-2.56211E-01-1.08041E-05 1.35555E-04
 -1        18-4.78597E-01 1.89905E+01-4.08121E-05-2.54900E-01-1.05331E-05 1.35697E-04
 -1        19-4.29006E-01 1.89407E+01-7.33597E-05-2.53598E-01-1.06392E-05 1.34295E-04
 -1        20-3.79794E-01 1.88913E+01-1.05472E-04-2.52307E-01-1.11326E-05 1.30974E-04
 -1        21-3.30959E-01 1.88423E+01-1.36464E-04-2.51026E-01-1.20616E-05 1.24314E-04
 -1        22-2.82496E-01 1.87936E+01-1.64005E-04-2.49755E-01-1.35274E-05 1.11175E-04
 -1        23-2.34398E-01 1.87454E+01-1.82105E-04-2.48493E-01-1.57218E-05 8.50298E-05
 -1        24-1.86649E-01 1.86975E+01-1.76623E-04-2.47241E-01-1.90233E-05 3.17482E-05
 -1        25-1.39224E-01 1.86500E+01-1.14285E-04-2.45998E-01-2.42846E-05-8.25370E-05
 -1        26-9.20833E-02 1.86029E+01 8.75330E-05-2.44764E-01-3.38872E-05-3.54074E-04
 -1        27-4.52026E-02 1.85563E+01 6.57185E-04-2.43540E-01-5.64689E-05-1.12570E-03
 -1        28 1.22951E-02 1.84426E+01-1.46055E-02-9.68550E-01-8.78515E-05-1.67631E-03
 -1        29 1.64018E-01 1.82908E+01-1.46055E-02-1.92649E+00-1.75462E-04-1.66941E-03
 -1        30 4.15041E-01 1.80398E+01-1.46055E-02-2.86332E+00-2.62592E-04-1.65794E-03
 -1        31 7.62614E-01 1.76922E+01-1.46055E-02-3.76878E+00-3.49002E-04-1.64193E-03
 -1        32 1.20293E+00 1.72519E+01-1.46055E-02-4.63295E+00-4.34456E-04-1.62141E-03
 -1        33 1.73116E+00 1.67237E+01-1.46055E-02-5.44636E+00-5.18718E-04-1.59645E-03
 -1        34 2.34153E+00 1.61133E+01-1.46055E-02-6.20009E+00-6.01559E-04-1.56712E-03
 -1        35 3.02734E+00 1.54275E+01-1.46055E-02-6.88590E+00-6.82751E-04-1.53348E-03
 -1        36 3.78107E+00 1.46738E+01-1.46055E-02-7.49627E+00-7.62072E-04-1.49565E-03
 -1        37 4.59448E+00 1.38604E+01-1.46055E-02-8.02450E+00-8.39304E-04-1.45372E-03
 -1        38 5.45865E+00 1.29962E+01-1.46055E-02-8.46482E+00-9.14235E-04-1.40780E-03
 -1        39 6.36411E+00 1.20907E+01-1.46055E-02-8.81239E+00-9.86661E-04-1.35802E-03
 -1        40 7.30094E+00 1.11539E+01-1.46055E-02-9.06341E+00-1.05638E-03-1.30452E-03
 -1        41 8.25888E+00 1.01960E+01-1.46055E-02-9.21513E+00-1.12321E-03-1.24745E-03
 -1        42 9.22743E+00 9.22743E+00-1.46055E-02-9.26589E+00-1.18695E-03-1.18695E-03
 -1        43 1.01960E+01 8.25888E+00-1.46055E-02-9.21513E+00-1.24745E-03-1.12321E-03
 -1        44 1.11539E+01 7.30094E+00-1.46055E-02-9.06341E+00-1.30452E-03-1.05638E-03
 -1        45 1.20907E+01 6.36411E+00-1.46055E-02-8.81239E+00-1.35802E-03-9.86661E-04
 -1        46 1.29962E+01 5.45865E+00-1.46055E-02-8.46482E+00-1.40780E-03-9.14235E-04
 -1        47 1.38604E+01 4.59448E+00-1.46055E-02-8.02450E+00-1.45372E-03-8.39304E-04
 -1        48 1.46738E+01 3.78107E+00-1.46055E-02-7.49627E+00-1.49565E-03-7.62072E-04
 -1        49 1.54275E+01 3.02734E+00-1.46055E-02-6.88590E+00-1.53348E-03-6.82751E-04
 -1        50 1.61133E+01 2.34153E+00-1.46055E-02-6.20009E+00-1.56712E-03-6.01559E-04
 -1        51 1.67237E+01 1.73116E+00-1.46055E-02-5.44636E+00-1.59645E-03-5.18718E-04
 -1        52 1.72519E+01 1.20293E+00-1.46055E-02-4.63295E+00-1.62141E-03-4.34456E-04
 -1        53 1.76922E+01 7.62614E-01-1.46055E-02-3.76878E+00-1.64193E-03-3.49002E-04
 -1        54 1.80398E+01 4.15041E-01-1.46055E-02-2.86332E+00-1.65794E-03-2.62592E-04
 -1        55 1.82908E+01 1.64018E-01-1.46055E-02-1.92649E+00-1.66941E-03-1.75462E-04
 -1        56 1.84426E+01 1.22951E-02-1.46055E-02-9.68550E-01-1.67631E-03-8.78515E-05
 -1        57 1.85563E+01-4.52026E-02 6.57184E-04-2.43540E-01-1.12570E-03-5.64689E-05
 -1        58 1.86029E+01-9.20833E-02 8.75318E-05-2.44764E-01-3.54074E-04-3.38872E-05
 -1        59 1.86500E+01-1.39224E-01-1.14286E-04-2.45998E-01-8.25370E-05-2.42846E-05
 -1        60 1.86975E+01-1.86649E-01-1.76624E-04-2.47241E-01 3.17482E-05-1.90233E-05
 -1        61 1.87454E+01-2.34398E-01-1.82106E-04-2.48493E-01 8.50298E-05-1.57218E-05
 -1        62 1.87936E+01-2.82496E-01-1.64006E-04-2.49755E-01 1.11175E-04-1.35274E-05
 -1        63 1.88423E+01-3.30959E-01-1.36465E-04-2.51026E-01 1.24314E-04-1.20616E-05
 -1        64 1.88913E+01-3.79794E-01-1.05473E-04-2.52307E-01 1.30974E-04-1.11326E-05
 -1        65 1.89407E+01-4.29006E-01-7.33610E-05-2.53598E-01 1.34295E-04-1.06392E-05
 -1        66 1.89905E+01-4.78597E-01-4.08134E-05-2.54900E-01 1.35697E-04-1.05331E-05
 -1        67 1.90407E+01-5.28571E-01-7.88999E-06-2.56211E-01 1.35555E-04-1.08041E-05
 -1        68 1.90912E+01-5.78931E-01 2.53133E-05-2.57532E-01 1.33356E-04-1.14763E-05
 -1        69 1.91422E+01-6.29679E-01 5.79645E-05-2.58863E-01 1.27448E-04-1.26146E-05
 -1        70 1.91935E+01-6.80822E-01 8.73477E-05-2.60205E-01 1.14224E-04-1.43435E-05
 -1        71 1.92452E+01-7.32368E-01 1.06533E-04-2.61557E-01 8.61467E-05-1.68924E-05
 -1        72 1.92974E+01-7.84332E-01 9.91511E-05-2.62920E-01 2.68264E-05-2.07081E-05
 -1        73 1.93499E+01-8.36745E-01 2.65862E-05-2.64294E-01-1.03174E-04-2.67918E-05
 -1        74 1.94027E+01-8.89653E-01-2.07301E-04-2.65678E-01-4.16184E-04-3.79324E-05
 -1        75 1.94558E+01-9.43085E-01-8.68721E-04-2.67073E-01-1.31288E-03-6.42338E-05
 -1        76 1.94727E+01-8.94434E-01 1.69337E-02-1.07034E+00-1.95232E-03-1.02317E-04
 -1        77 1.93050E+01-7.26767E-01 1.69337E-02-2.12895E+00-1.94429E-03-2.04353E-04
 -1        78 1.90276E+01-4.49363E-01 1.69337E-02-3.16423E+00-1.93093E-03-3.05829E-04
 -1        79 1.86435E+01-6.52626E-02 1.69337E-02-4.16485E+00-1.91228E-03-4.06467E-04
 -1        80 1.81569E+01 4.21327E-01 1.69337E-02-5.11983E+00-1.88838E-03-5.05991E-04
 -1        81 1.75732E+01 1.00507E+00 1.69337E-02-6.01873E+00-1.85931E-03-6.04128E-04
 -1        82 1.68987E+01 1.67958E+00 1.69337E-02-6.85167E+00-1.82515E-03-7.00609E-04
 -1        83 1.61408E+01 2.43746E+00 1.69337E-02-7.60956E+00-1.78598E-03-7.95170E-04
 -1        84 1.53079E+01 3.27041E+00 1.69337E-02-8.28407E+00-1.74192E-03-8.87551E-04
 -1        85 1.44090E+01 4.16931E+00 1.69337E-02-8.86781E+00-1.69308E-03-9.77499E-04
 -1        86 1.34540E+01 5.12429E+00 1.69337E-02-9.35440E+00-1.63960E-03-1.06477E-03
 -1        87 1.24534E+01 6.12491E+00 1.69337E-02-9.73850E+00-1.58163E-03-1.14912E-03
 -1        88 1.14181E+01 7.16019E+00 1.69337E-02-1.00159E+01-1.51932E-03-1.23032E-03
 -1        89 1.03595E+01 8.21880E+00 1.69337E-02-1.01836E+01-1.45285E-03-1.30815E-03
 -1        90 9.28914E+00 9.28914E+00 1.69337E-02-1.02397E+01-1.38239E-03-1.38239E-03
 -1        91 8.21880E+00 1.03595E+01 1.69337E-02-1.01836E+01-1.30815E-03-1.45285E-03
 -1        92 7.16019E+00 1.14181E+01 1.69337E-02-1.00159E+01-1.23032E-03-1.51932E-03
 -1        93 6.12491E+00 1.24534E+01 1.69337E-02-9.73850E+00-1.14912E-03-1.58163E-03
 -1        94 5.12429E+00 1.34540E+01 1.69337E-02-9.35440E+00-1.06477E-03-1.63960E-03
 -1        95 4.16931E+00 1.44090E+01 1.69337E-02-8.86781E+00-9.77499E-04-1.69308E-03
 -1        96 3.27041E+00 1.53079E+01 1.69337E-02-8.28407E+00-8.87551E-04-1.74192E-03
 -1        97 2.43746E+00 1.61408E+01 1.69337E-02-7.60956E+00-7.95170E-04-1.78598E-03
 -1        98 1.67958E+00 1.68987E+01 1.69337E-02-6.85167E+00-7.00609E-04-1.82515E-03
 -1        99 1.00507E+00 1.75732E+01 1.69337E-02-6.01873E+00-6.04128E-04-1.85931E-03
 -1       100 4.21327E-01 1.81569E+01 1.69337E-02-5.11983E+00-5.05991E-04-1.88838E-03
 -1       101-6.52626E-02 1.86435E+01 1.69337E-02-4.16485E+00-4.06467E-04-1.91228E-03
 -1       102-4.49363E-01 1.90276E+01 1.69337E-02-3.16423E+00-3.05829E-04-1.93093E-03
 -1       103-7.26767E-01 1.93050E+01 1.69337E-02-2.12895E+00-2.04353E-04-1.94429E-03
 -1       104-8.94434E-01 1.94727E+01 1.69337E-02-1.07034E+00-1.02317E-04-1.95232E-03
 -1       105-9.43085E-01 1.94558E+01-8.68719E-04-2.67073E-01 6.42338E-05 1.31288E-03
 -1       106-8.89653E-01 1.94027E+01-2.07299E-04-2.65678E-01 3.79324E-05 4.16184E-04
 -1       107-8.36745E-01 1.93499E+01 2.65875E-05-2.64294E-01 2.67918E-05 1.03174E-04
 -1       108-7.84332E-01 1.92974E+01 9.91524E-05-2.62920E-01 2.07080E-05-2.68264E-05
 -1       109-7.32368E-01 1.92452E+01 1.06534E-04-2.61557E-01 1.68923E-05-8.61467E-05
 -1       110-6.80822E-01 1.91935E+01 8.73491E-05-2.60205E-01 1.43435E-05-1.14224E-04
 -1       111-6.29679E-01 1.91422E+01 5.79659E-05-2.58863E-01 1.26145E-05-1.27448E-04
 -1       112-5.78931E-01 1.90912E+01 2.53146E-05-2.57532E-01 1.14763E-05-1.33356E-04
 -1       113-5.28571E-01 1.90407E+01-7.88868E-06-2.56211E-01 1.08041E-05-1.35555E-04
 -1       114-4.78597E-01 1.89905E+01-4.08121E-05-2.54900E-01 1.05331E-05-1.35697E-04
 -1       115-4.29006E-01 1.89407E+01-7.33597E-05-2.53598E-01 1.06392E-05-1.34295E-04
 -1       116-3.79794E-01 1.88913E+01-1.05472E-04-2.52307E-01 1.11326E-05-1.30974E-04
 -1       117-3.30959E-01 1.88423E+01-1.36464E-04-2.51026E-01 1.20616E-05-1.24314E-04
 -1       118-2.82496E-01 1.87936E+01-1.64005E-04-2.49755E-01 1.35274E-05-1.11175E-04
 -1       119-2.34398E-01 1.87454E+01-1.82105E-04-2.48493E-01 1.57218E-05-8.50298E-05
 -1       120-1.86649E-01 1.86975E+01-1.76623E-04-2.47241E-01 1.90233E-05-3.17482E-05
 -1       121-1.39224E-01 1.86500E+01-1.14285E-04-2.45998E-01 2.42846E-05 8.25370E-05
 -1       122-9.20833E-02 1.86029E+01 8.75330E-05-2.44764E-01 3.38872E-05 3.54074E-04
 -1       123-4.52026E-02 1.85563E+01 6.57185E-04-2.43540E-01 5.64689E-05 1.12570E-03
 -1       124 1.22951E-02 1.84426E+01-1.46055E-02-9.68550E-01 8.78515E-05 1.67631E-03
 -1       125 1.64018E-01 1.82908E+01-1.46055E-02-1.92649E+00 1.75462E-04 1.66941E-03
 -1       126 4.15041E-01 1.80398E+01-1.46055E-02-2.86332E+00 2.62592E-04 1.65794E-03
 -1       127 7.62614E-01 1.76922E+01-1.46055E-02-3.76878E+00 3.49002E-04 1.64193E-03
 -1       128 1.20293E+00 1.72519E+01-1.46055E-02-4.63295E+00 4.34456E-04 1.62141E-03
 -1       129 1.73116E+00 1.67237E+01-1.46055E-02-5.44636E+00 5.18718E-04 1.59645E-03
 -1       130 2.34153E+00 1.61133E+01-1.46055E-02-6.20009E+00 6.01559E-04 1.56712E-03
 -1       131 3.02734E+00 1.54275E+01-1.46055E-02-6.88590E+00 6.82751E-04 1.53348E-03
 -1       132 3.78107E+00 1.46738E+01-1.46055E-02-7.49627E+00 7.62072E-04 1.49565E-03
 -1       133 4.59448E+00 1.38604E+01-1.46055E-02-8.02450E+00 8.39304E-04 1.45372E-03
 -1       134 5.45865E+00 1.29962E+01-1.46055E-02-8.46482E+00 9.14235E-04 1.40780E-03
 -1       135 6.36411E+00 1.20907E+01-1.46055E-02-8.81239E+00 9.86661E-04 1.35802E-03
 -1       136 7.30094E+00 1.11539E+01-1.46055E-02-9.06341E+00 1.05638E-03 1.30452E-03
 -1       137 8.25888E+00 1.01960E+01-1.46055E-02-9.21513E+00 1.12321E-03 1.24745E-03
 -1       138 9.22743E+00 9.22743E+00-1.46055E-02-9.26589E+00 1.18695E-03 1.18695E-03
 -1       139 1.01960E+01 8.25888E+00-1.46055E-02-9.21513E+00 1.24745E-03 1.12321E-03
 -1       140 1.11539E+01 7.30094E+00-1.46055E-02-9.06341E+00 1.30452E-03 1.05638E-03
 -1       141 1.20907E+01 6.36411E+00-1.46055E-02-8.81239E+00 1.35802E-03 9.86661E-04
 -1       142 1.29962E+01 5.45865E+00-1.46055E-02-8.46482E+00 1.40780E-03 9.14235E-04
 -1       143 1.38604E+01 4.59448E+00-1.46055E-02-8.02450E+00 1.45372E-03 8.39304E-04
 -1       144 1.46738E+01 3.78107E+00-1.46055E-02-7.49627E+00 1.49565E-03 7.62072E-04
 -1       145 1.54275E+01 3.02734E+00-1.46055E-02-6.88590E+00 1.53348E-03 6.82751E-04
 -1       146 1.61133E+01 2.34153E+00-1.46055E-02-6.20009E+00 1.56712E-03 6.01559E-04
 -1       147 1.67237E+01 1.73116E+00-1.46055E-02-5.44636E+00 1.59645E-03 5.18718E-04
 -1       148 1.72519E+01 1.20293E+00-1.46055E-02-4.63295E+00 1.62141E-03 4.34456E-04
 -1       149 1.76922E+01 7.62614E-01-1.46055E-02-3.76878E+00 1.64193E-03 3.49002E-04
 -1       150 1.80398E+01 4.15041E-01-1.46055E-02-2.86332E+00 1.65794E-03 2.62592E-04
 -1       151 1.82908E+01 1.64018E-01-1.46055E-02-1.92649E+00 1.66941E-03 1.75462E-04
 -1       152 1.84426E+01 1.22951E-02-1.46055E-02-9.68550E-01 1.67631E-03 8.78515E-05
 -1       153 1.85563E+01-4.52026E-02 6.57184E-04-2.43540E-01 1.12570E-03 5.64689E-05
 -1       154 1.86029E+01-9.20833E-02 8.75318E-05-2.44764E-01 3.54074E-04 3.38872E-05
 -1       155 1.86500E+01-1.39224E-01-1.14286E-04-2.45998E-01 8.25370E-05 2.42846E-05
 -1       156 1.86975E+01-1.86649E-01-1.76624E-04-2.47241E-01-3.17482E-05 1.90234E-05
 -1       157 1.87454E+01-2.34398E-01-1.82106E-04-2.48493E-01-8.50298E-05 1.57218E-05
 -1       158 1.87936E+01-2.82496E-01-1.64006E-04-2.49755E-01-1.11175E-04 1.35274E-05
 -1       159 1.88423E+01-3.30959E-01-1.36465E-04-2.51026E-01-1.24314E-04 1.20616E-05
 -1       160 1.88913E+01-3.79794E-01-1.05473E-04-2.52307E-01-1.30974E-04 1.11326E-05
 -1       161 1.89407E+01-4.29006E-01-7.33610E-05-2.53598E-01-1.34295E-04 1.06392E-05
 -1       162 1.89905E+01-4.78597E-01-4.08134E-05-2.54900E-01-1.35697E-04 1.05332E-05
 -1       163 1.90407E+01-5.28571E-01-7.89000E-06-2.56211E-01-1.35555E-04 1.08041E-05
 -1       164 1.90912E+01-5.78931E-01 2.53133E-05-2.57532E-01-1.33356E-04 1.14763E-05
 -1       165 1.91422E+01-6.29679E-01 5.79645E-05-2.58863E-01-1.27448E-04 1.26146E-05
 -1       166 1.91935E+01-6.80822E-01 8.73477E-05-2.60205E-01-1.14224E-04 1.43435E-05
 -1       167 1.92452E+01-7.32368E-01 1.06533E-04-2.61557E-01-8.61467E-05 1.68924E-05
 -1       168 1.92974E+01-7.84332E-01 9.91511E-05-2.62920E-01-2.68264E-05 2.07081E-05
 -1       169 1.93499E+01-8.36745E-01 2.65862E-05-2.64294E-01 1.03174E-04 2.67918E-05
 -1       170 1.94027E+01-8.89653E-01-2.07301E-04-2.65678E-01 4.16184E-04 3.79324E-05
 -1       171 1.94558E+01-9.43085E-01-8.68721E-04-2.67073E-01 1.31288E-03 6.42338E-05
 -1       172 1.94727E+01-8.94434E-01 1.69337E-02-1.07034E+00 1.95232E-03 1.02317E-04
 -1       173 1.93050E+01-7.26767E-01 1.69337E-02-2.12895E+00 1.94429E-03 2.04353E-04
 -1       174 1.90276E+01-4.49363E-01 1.69337E-02-3.16423E+00 1.93093E-03 3.05829E-04
 -1       175 1.86435E+01-6.52626E-02 1.69337E-02-4.16485E+00 1.91228E-03 4.06467E-04
 -1       176 1.81569E+01 4.21327E-01 1.69337E-02-5.11983E+00 1.88838E-03 5.05991E-04
 -1       177 1.75732E+01 1.00507E+00 1.69337E-02-6.01873E+00 1.85931E-03 6.04128E-04
 -1       178 1.68987E+01 1.67958E+00 1.69337E-02-6.85167E+00 1.82515E-03 7.00609E-04
 -1       179 1.61408E+01 2.43746E+00 1.69337E-02-7.60956E+00 1.78598E-03 7.95170E-04
 -1       180 1.53079E+01 3.27041E+00 1.69337E-02-8.28407E+00 1.74192E-03 8.87551E-04
 -1       181 1.44090E+01 4.16931E+00 1.69337E-02-8.86781E+00 1.69308E-03 9.77499E-04
 -1       182 1.34540E+01 5.12429E+00 1.69337E-02-9.35440E+00 1.63960E-03 1.06477E-03
 -1       183 1.24534E+01 6.12491E+00 1.69337E-02-9.73850E+00 1.58163E-03 1.14912E-03
 -1       184 1.14181E+01 7.16019E+00 1.69337E-02-1.00159E+01 1.51932E-03 1.23032E-03
 -1       185 1.03595E+01 8.21880E+00 1.69337E-02-1.01836E+01 1.45285E-03 1.30815E-03
 -1       186 9.28914E+00 9.28914E+00 1.69337E-02-1.02397E+01 1.38239E-03 1.38239E-03
 -1       187 8.21880E+00 1.03595E+01 1.69337E-02-1.01836E+01 1.30815E-03 1.45285E-03
 -1       188 7.16019E+00 1.14181E+01 1.69337E-02-1.00159E+01 1.23032E-03 1.51932E-03
 -1       189 6.12491E+00 1.24534E+01 1.69337E-02-9.73850E+00 1.14912E-03 1.58163E-03
 -1       190 5.12429E+00 1.34540E+01 1.69337E-02-9.35440E+00 1.06477E-03 1.63960E-03
 -1       191 4.16931E+00 1.44090E+01 1.69337E-02-8.86781E+00 9.77499E-04 1.69308E-03
 -1       192 3.27041E+00 1.53079E+01 1.69337E-02-8.28407E+00 8.87551E-04 1.74192E-03
 -1       193 2.43746E+00 1.61408E+01 1.69337E-02-7.60956E+00 7.95170E-04 1.78598E-03
 -1       194 1.67958E+00 1.68987E+01 1.69337E-02-6.85167E+00 7.00609E-04 1.82515E-03
 -1       195 1.00507E+00 1.75732E+01 1.69337E-02-6.01873E+00 6.04128E-04 1.85931E-03
 -1       196 4.21327E-01 1.81569E+01 1.69337E-02-5.11983E+00 5.05991E-04 1.88838E-03
 -1       197-6.52626E-02 1.86435E+01 1.69337E-02-4.16485E+00 4.06467E-04 1.91228E-03
 -1       198-4.49363E-01 1.90276E+01 1.69337E-02-3.16423E+00 3.05829E-04 1.93093E-03
 -1       199-7.26767E-01 1.93050E+01 1.69337E-02-2.12895E+00 2.04353E-04 1.94429E-03
 -1       200-8.94434E-01 1.94727E+01 1.69337E-02-1.07034E+00 1.02317E-04 1.95232E-03
 -1       201-9.51040E-01 1.95289E+01 1.76896E-02-2.68134E-01-1.50506E-05 2.42230E-04
 -1       202-9.50559E-01 1.95295E+01 1.90061E-02-2.68135E-01-1.05313E-05-2.61905E-05
 -1       203-9.50555E-01 1.95295E+01 1.91800E-02-2.68136E-01-7.55944E-06-5.48588E-06
 -1       204-9.50542E-01 1.95295E+01 1.92201E-02-2.68136E-01-4.50414E-06-8.44975E-07
 -1       205-9.50541E-01 1.95295E+01 1.92264E-02-2.68136E-01-1.52025E-06-3.54387E-07
 -1       206-9.50541E-01 1.95295E+01 1.92264E-02-2.68136E-01 1.52023E-06 3.54387E-07
 -1       207-9.50542E-01 1.95295E+01 1.92201E-02-2.68136E-01 4.50412E-06 8.44975E-07
 -1       208-9.50555E-01 1.95295E+01 1.91800E-02-2.68136E-01 7.55943E-06 5.48589E-06
 -1       209-9.50559E-01 1.95295E+01 1.90061E-02-2.68135E-01 1.05313E-05 2.61905E-05
 -1       210-9.51040E-01 1.95289E+01 1.76896E-02-2.68134E-01 1.50506E-05-2.42230E-04
 -1       211-3.80217E-02 1.84933E+01-1.52320E-02-2.42622E-01-1.42264E-05 2.09054E-04
 -1       212-3.84342E-02 1.84928E+01-1.63429E-02-2.42621E-01-1.02862E-05-2.11449E-05
 -1       213-3.84372E-02 1.84928E+01-1.64706E-02-2.42621E-01-7.48821E-06-3.65080E-06
 -1       214-3.84478E-02 1.84928E+01-1.64909E-02-2.42621E-01-4.50038E-06-1.21258E-07
 -1       215-3.84478E-02 1.84928E+01-1.64900E-02-2.42621E-01-1.52069E-06-1.17704E-07
 -1       216-3.84478E-02 1.84928E+01-1.64900E-02-2.42621E-01 1.52068E-06 1.17705E-07
 -1       217-3.84478E-02 1.84928E+01-1.64909E-02-2.42621E-01 4.50037E-06 1.21259E-07
 -1       218-3.84372E-02 1.84928E+01-1.64706E-02-2.42621E-01 7.48821E-06 3.65080E-06
 -1       219-3.84342E-02 1.84928E+01-1.63429E-02-2.42621E-01 1.02862E-05 2.11449E-05
 -1       220-3.80217E-02 1.84933E+01-1.52320E-02-2.42622E-01 1.42264E-05-2.09054E-04
 -1       221 1.84933E+01-3.80217E-02-1.52320E-02-2.42622E-01 2.09054E-04-1.42264E-05
 -1       222 1.84928E+01-3.84342E-02-1.63429E-02-2.42621E-01-2.11449E-05-1.02862E-05
 -1       223 1.84928E+01-3.84372E-02-1.64706E-02-2.42621E-01-3.65080E-06-7.48821E-06
 -1       224 1.84928E+01-3.84478E-02-1.64909E-02-2.42621E-01-1.21258E-07-4.50036E-06
 -1       225 1.84928E+01-3.84478E-02-1.64900E-02-2.42621E-01-1.17702E-07-1.52068E-06
 -1       226 1.84928E+01-3.84478E-02-1.64900E-02-2.42621E-01 1.17702E-07 1.52070E-06
 -1       227 1.84928E+01-3.84478E-02-1.64909E-02-2.42621E-01 1.21260E-07 4.50039E-06
 -1       228 1.84928E+01-3.84372E-02-1.64706E-02-2.42621E-01 3.65080E-06 7.48823E-06
 -1       229 1.84928E+01-3.84342E-02-1.63429E-02-2.42621E-01 2.11449E-05 1.02863E-05
 -1       230 1.84933E+01-3.80217E-02-1.52320E-02-2.42622E-01-2.09054E-04 1.42265E-05
 -1       231 1.95289E+01-9.51040E-01 1.76896E-02-2.68134E-01 2.42230E-04-1.50506E-05
 -1       232 1.95295E+01-9.50559E-01 1.90061E-02-2.68135E-01-2.61905E-05-1.05313E-05
 -1       233 1.95295E+01-9.50555E-01 1.91800E-02-2.68136E-01-5.48589E-06-7.55943E-06
 -1       234 1.95295E+01-9.50542E-01 1.92201E-02-2.68136E-01-8.44975E-07-4.50413E-06
 -1       235 1.95295E+01-9.50541E-01 1.92264E-02-2.68136E-01-3.54388E-07-1.52023E-06
 -1       236 1.95295E+01-9.50541E-01 1.92264E-02-2.68136E-01 3.54388E-07 1.52025E-06
 -1       237 1.95295E+01-9.50542E-01 1.92201E-02-2.68136E-01 8.44975E-07 4.50414E-06
 -1       238 1.95295E+01-9.50555E-01 1.91800E-02-2.68136E-01 5.48588E-06 7.55945E-06
 -1       239 1.95295E+01-9.50559E-01 1.90061E-02-2.68135E-01 2.61905E-05 1.05313E-05
 -1       240 1.95289E+01-9.51040E-01 1.76896E-02-2.68134E-01-2.42230E-04 1.50507E-05
 -1       241-8.87211E-01 1.93999E+01-8.68719E-04-1.06613E+00-6.87107E-05-1.31108E-03
 -1       242-7.20202E-01 1.92329E+01-8.68719E-04-2.12059E+00-1.37233E-04-1.30569E-03
 -1       243-4.43888E-01 1.89566E+01-8.68719E-04-3.15180E+00-2.05379E-04-1.29671E-03
 -1       244-6.12958E-02 1.85740E+01-8.68719E-04-4.14849E+00-2.72963E-04-1.28419E-03
 -1       245 4.23383E-01 1.80894E+01-8.68719E-04-5.09973E+00-3.39798E-04-1.26814E-03
 -1       246 1.00484E+00 1.75079E+01-8.68719E-04-5.99509E+00-4.05702E-04-1.24862E-03
 -1       247 1.67670E+00 1.68360E+01-8.68719E-04-6.82477E+00-4.70494E-04-1.22568E-03
 -1       248 2.43160E+00 1.60811E+01-8.68719E-04-7.57967E+00-5.33996E-04-1.19937E-03
 -1       249 3.26128E+00 1.52515E+01-8.68719E-04-8.25153E+00-5.96034E-04-1.16978E-03
 -1       250 4.15664E+00 1.43561E+01-8.68719E-04-8.83298E+00-6.56439E-04-1.13699E-03
 -1       251 5.10788E+00 1.34049E+01-8.68719E-04-9.31766E+00-7.15045E-04-1.10107E-03
 -1       252 6.10456E+00 1.24082E+01-8.68719E-04-9.70026E+00-7.71691E-04-1.06214E-03
 -1       253 7.13578E+00 1.13770E+01-8.68719E-04-9.97657E+00-8.26221E-04-1.02030E-03
 -1       254 8.19023E+00 1.03225E+01-8.68719E-04-1.01436E+01-8.78487E-04-9.75659E-04
 -1       255 9.25637E+00 9.25637E+00-8.68720E-04-1.01995E+01-9.28345E-04-9.28345E-04
 -1       256 1.03225E+01 8.19024E+00-8.68721E-04-1.01436E+01-9.75659E-04-8.78487E-04
 -1       257 1.13770E+01 7.13578E+00-8.68721E-04-9.97657E+00-1.02030E-03-8.26221E-04
 -1       258 1.24082E+01 6.10456E+00-8.68721E-04-9.70026E+00-1.06214E-03-7.71691E-04
 -1       259 1.34049E+01 5.10788E+00-8.68721E-04-9.31766E+00-1.10107E-03-7.15045E-04
 -1       260 1.43561E+01 4.15664E+00-8.68721E-04-8.83298E+00-1.13699E-03-6.56439E-04
 -1       261 1.52515E+01 3.26128E+00-8.68721E-04-8.25153E+00-1.16978E-03-5.96034E-04
 -1       262 1.60811E+01 2.43160E+00-8.68721E-04-7.57967E+00-1.19937E-03-5.33996E-04
 -1       263 1.68360E+01 1.67670E+00-8.68721E-04-6.82477E+00-1.22568E-03-4.70494E-04
 -1       264 1.75079E+01 1.00484E+00-8.68721E-04-5.99509E+00-1.24862E-03-4.05702E-04
 -1       265 1.80894E+01 4.23383E-01-8.68721E-04-5.09973E+00-1.26814E-03-3.39798E-04
 -1       266 1.85740E+01-6.12958E-02-8.68721E-04-4.14849E+00-1.28419E-03-2.72963E-04
 -1       267 1.89566E+01-4.43888E-01-8.68721E-04-3.15180E+00-1.29671E-03-2.05379E-04
 -1       268 1.92329E+01-7.20202E-01-8.68721E-04-2.12059E+00-1.30569E-03-1.37233E-04
 -1       269 1.93999E+01-8.87211E-01-8.68721E-04-1.06613E+00-1.31108E-03-6.87108E-05
 -1       270-8.34072E-01 1.93471E+01-2.07299E-04-1.06057E+00-2.17814E-05-4.15614E-04
 -1       271-6.67935E-01 1.91810E+01-2.07299E-04-2.10951E+00-4.35031E-05-4.13904E-04
 -1       272-3.93064E-01 1.89061E+01-2.07299E-04-3.13534E+00-6.51056E-05-4.11060E-04
 -1       273-1.24695E-02 1.85255E+01-2.07299E-04-4.12683E+00-8.65296E-05-4.07090E-04
 -1       274 4.69678E-01 1.80434E+01-2.07299E-04-5.07309E+00-1.07716E-04-4.02003E-04
 -1       275 1.04810E+00 1.74650E+01-2.07299E-04-5.96378E+00-1.28608E-04-3.95815E-04
 -1       276 1.71645E+00 1.67966E+01-2.07299E-04-6.78912E+00-1.49147E-04-3.88541E-04
 -1       277 2.46741E+00 1.60457E+01-2.07299E-04-7.54009E+00-1.69277E-04-3.80203E-04
 -1       278 3.29275E+00 1.52203E+01-2.07299E-04-8.20844E+00-1.88944E-04-3.70823E-04
 -1       279 4.18344E+00 1.43296E+01-2.07299E-04-8.78685E+00-2.08092E-04-3.60426E-04
 -1       280 5.12971E+00 1.33834E+01-2.07299E-04-9.26900E+00-2.26670E-04-3.49041E-04
 -1       281 6.12119E+00 1.23919E+01-2.07299E-04-9.64960E+00-2.44627E-04-3.36700E-04
 -1       282 7.14702E+00 1.13660E+01-2.07299E-04-9.92447E+00-2.61913E-04-3.23436E-04
 -1       283 8.19597E+00 1.03171E+01-2.07299E-04-1.00906E+01-2.78482E-04-3.09285E-04
 -1       284 9.25653E+00 9.25653E+00-2.07300E-04-1.01462E+01-2.94287E-04-2.94287E-04
 -1       285 1.03171E+01 8.19597E+00-2.07300E-04-1.00906E+01-3.09285E-04-2.78482E-04
 -1       286 1.13660E+01 7.14702E+00-2.07301E-04-9.92447E+00-3.23436E-04-2.61913E-04
 -1       287 1.23919E+01 6.12119E+00-2.07301E-04-9.64960E+00-3.36700E-04-2.44627E-04
 -1       288 1.33834E+01 5.12971E+00-2.07300E-04-9.26900E+00-3.49041E-04-2.26670E-04
 -1       289 1.43296E+01 4.18344E+00-2.07300E-04-8.78685E+00-3.60426E-04-2.08092E-04
 -1       290 1.52203E+01 3.29275E+00-2.07301E-04-8.20844E+00-3.70823E-04-1.88944E-04
 -1       291 1.60457E+01 2.46741E+00-2.07301E-04-7.54009E+00-3.80203E-04-1.69277E-04
 -1       292 1.67966E+01 1.71645E+00-2.07301E-04-6.78912E+00-3.88541E-04-1.49147E-04
 -1       293 1.74650E+01 1.04810E+00-2.07301E-04-5.96378E+00-3.95815E-04-1.28608E-04
 -1       294 1.80434E+01 4.69678E-01-2.07301E-04-5.07309E+00-4.02003E-04-1.07716E-04
 -1       295 1.85255E+01-1.24695E-02-2.07301E-04-4.12683E+00-4.07090E-04-8.65296E-05
 -1       296 1.89061E+01-3.93064E-01-2.07301E-04-3.13534E+00-4.11060E-04-6.51056E-05
 -1       297 1.91810E+01-6.67935E-01-2.07301E-04-2.10951E+00-4.13904E-04-4.35031E-05
 -1       298 1.93471E+01-8.34072E-01-2.07301E-04-1.06057E+00-4.15614E-04-2.17814E-05
 -1       299-7.81452E-01 1.92946E+01 2.65875E-05-1.05504E+00-5.39971E-06-1.03033E-04
 -1       300-6.16182E-01 1.91293E+01 2.65876E-05-2.09852E+00-1.07846E-05-1.02609E-04
 -1       301-3.42743E-01 1.88559E+01 2.65877E-05-3.11900E+00-1.61400E-05-1.01904E-04
 -1       302 3.58679E-02 1.84773E+01 2.65876E-05-4.10532E+00-2.14511E-05-1.00919E-04
 -1       303 5.15503E-01 1.79976E+01 2.65876E-05-5.04665E+00-2.67034E-05-9.96584E-05
 -1       304 1.09091E+00 1.74222E+01 2.65877E-05-5.93270E+00-3.18825E-05-9.81243E-05
 -1       305 1.75577E+00 1.67574E+01 2.65878E-05-6.75374E+00-3.69743E-05-9.63213E-05
 -1       306 2.50282E+00 1.60103E+01 2.65877E-05-7.50079E+00-4.19646E-05-9.42542E-05
 -1       307 3.32387E+00 1.51893E+01 2.65875E-05-8.16566E+00-4.68400E-05-9.19287E-05
 -1       308 4.20991E+00 1.43032E+01 2.65875E-05-8.74106E+00-5.15870E-05-8.93513E-05
 -1       309 5.15125E+00 1.33619E+01 2.65876E-05-9.22070E+00-5.61926E-05-8.65290E-05
 -1       310 6.13756E+00 1.23756E+01 2.65877E-05-9.59931E+00-6.06442E-05-8.34695E-05
 -1       311 7.15805E+00 1.13551E+01 2.65880E-05-9.87275E+00-6.49295E-05-8.01813E-05
 -1       312 8.20153E+00 1.03116E+01 2.65879E-05-1.00380E+01-6.90369E-05-7.66733E-05
 -1       313 9.25657E+00 9.25657E+00 2.65870E-05-1.00933E+01-7.29550E-05-7.29551E-05
 -1       314 1.03116E+01 8.20153E+00 2.65862E-05-1.00380E+01-7.66732E-05-6.90369E-05
 -1       315 1.13551E+01 7.15805E+00 2.65860E-05-9.87275E+00-8.01813E-05-6.49295E-05
 -1       316 1.23756E+01 6.13756E+00 2.65862E-05-9.59931E+00-8.34695E-05-6.06442E-05
 -1       317 1.33619E+01 5.15125E+00 2.65863E-05-9.22070E+00-8.65290E-05-5.61926E-05
 -1       318 1.43032E+01 4.20991E+00 2.65863E-05-8.74106E+00-8.93513E-05-5.15870E-05
 -1       319 1.51893E+01 3.32387E+00 2.65862E-05-8.16566E+00-9.19287E-05-4.68401E-05
 -1       320 1.60103E+01 2.50282E+00 2.65859E-05-7.50079E+00-9.42542E-05-4.19647E-05
 -1       321 1.67574E+01 1.75577E+00 2.65859E-05-6.75374E+00-9.63213E-05-3.69743E-05
 -1       322 1.74222E+01 1.09091E+00 2.65860E-05-5.93270E+00-9.81243E-05-3.18825E-05
 -1       323 1.79976E+01 5.15503E-01 2.65860E-05-5.04665E+00-9.96585E-05-2.67034E-05
 -1       324 1.84773E+01 3.58679E-02 2.65860E-05-4.10532E+00-1.00919E-04-2.14511E-05
 -1       325 1.88559E+01-3.42743E-01 2.65860E-05-3.11900E+00-1.01904E-04-1.61400E-05
 -1       326 1.91293E+01-6.16182E-01 2.65861E-05-2.09852E+00-1.02609E-04-1.07846E-05
 -1       327 1.92946E+01-7.81452E-01 2.65861E-05-1.05504E+00-1.03033E-04-5.39972E-06
 -1       328-7.29327E-01 1.92424E+01 9.91524E-05-1.04955E+00 1.40399E-06 2.67896E-05
 -1       329-5.64915E-01 1.90780E+01 9.91525E-05-2.08761E+00 2.80412E-06 2.66794E-05
 -1       330-2.92898E-01 1.88059E+01 9.91526E-05-3.10279E+00 4.19657E-06 2.64961E-05
 -1       331 8.37452E-02 1.84293E+01 9.91525E-05-4.08398E+00 5.57752E-06 2.62402E-05
 -1       332 5.60887E-01 1.79522E+01 9.91525E-05-5.02043E+00 6.94319E-06 2.59123E-05
 -1       333 1.13330E+00 1.73797E+01 9.91525E-05-5.90186E+00 8.28982E-06 2.55134E-05
 -1       334 1.79471E+00 1.67183E+01 9.91527E-05-6.71864E+00 9.61372E-06 2.50446E-05
 -1       335 2.53788E+00 1.59752E+01 9.91526E-05-7.46181E+00 1.09113E-05 2.45071E-05
 -1       336 3.35465E+00 1.51584E+01 9.91524E-05-8.12322E+00 1.21789E-05 2.39025E-05
 -1       337 4.23609E+00 1.42769E+01 9.91524E-05-8.69563E+00 1.34132E-05 2.32323E-05
 -1       338 5.17254E+00 1.33405E+01 9.91525E-05-9.17277E+00 1.46107E-05 2.24985E-05
 -1       339 6.15373E+00 1.23593E+01 9.91526E-05-9.54942E+00 1.57682E-05 2.17030E-05
 -1       340 7.16891E+00 1.13441E+01 9.91529E-05-9.82143E+00 1.68824E-05 2.08480E-05
 -1       341 8.20696E+00 1.03061E+01 9.91527E-05-9.98585E+00 1.79504E-05 1.99359E-05
 -1       342 9.25652E+00 9.25652E+00 9.91519E-05-1.00409E+01 1.89691E-05 1.89691E-05
 -1       343 1.03061E+01 8.20696E+00 9.91511E-05-9.98585E+00 1.99359E-05 1.79504E-05
 -1       344 1.13441E+01 7.16891E+00 9.91510E-05-9.82143E+00 2.08480E-05 1.68824E-05
 -1       345 1.23593E+01 6.15373E+00 9.91511E-05-9.54942E+00 2.17030E-05 1.57682E-05
 -1       346 1.33405E+01 5.17254E+00 9.91512E-05-9.17277E+00 2.24985E-05 1.46107E-05
 -1       347 1.42769E+01 4.23609E+00 9.91512E-05-8.69563E+00 2.32323E-05 1.34132E-05
 -1       348 1.51584E+01 3.35465E+00 9.91511E-05-8.12322E+00 2.39025E-05 1.21789E-05
 -1       349 1.59752E+01 2.53788E+00 9.91508E-05-7.46181E+00 2.45071E-05 1.09113E-05
 -1       350 1.67183E+01 1.79471E+00 9.91508E-05-6.71864E+00 2.50446E-05 9.61372E-06
 -1       351 1.73797E+01 1.13330E+00 9.91509E-05-5.90186E+00 2.55134E-05 8.28981E-06
 -1       352 1.79522E+01 5.60887E-01 9.91509E-05-5.02043E+00 2.59123E-05 6.94317E-06
 -1       353 1.84293E+01 8.37452E-02 9.91509E-05-4.08398E+00 2.62402E-05 5.57751E-06
 -1       354 1.88059E+01-2.92898E-01 9.91509E-05-3.10279E+00 2.64961E-05 4.19656E-06
 -1       355 1.90780E+01-5.64915E-01 9.91510E-05-2.08761E+00 2.66794E-05 2.80412E-06
 -1       356 1.92424E+01-7.29327E-01 9.91510E-05-1.04955E+00 2.67896E-05 1.40398E-06
 -1       357-6.77648E-01 1.91905E+01 1.06534E-04-1.04411E+00 4.50857E-06 8.60286E-05
 -1       358-5.14088E-01 1.90270E+01 1.06534E-04-2.07679E+00 9.00478E-06 8.56748E-05
 -1       359-2.43481E-01 1.87564E+01 1.06534E-04-3.08671E+00 1.34763E-05 8.50861E-05
 -1       360 1.31210E-01 1.83817E+01 1.06534E-04-4.06281E+00 1.79109E-05 8.42642E-05
 -1       361 6.05878E-01 1.79070E+01 1.06534E-04-4.99440E+00 2.22964E-05 8.32113E-05
 -1       362 1.17532E+00 1.73375E+01 1.06534E-04-5.87127E+00 2.66208E-05 8.19304E-05
 -1       363 1.83331E+00 1.66796E+01 1.06534E-04-6.68381E+00 3.08722E-05 8.04249E-05
 -1       364 2.57262E+00 1.59403E+01 1.06534E-04-7.42313E+00 3.50390E-05 7.86989E-05
 -1       365 3.38516E+00 1.51277E+01 1.06534E-04-8.08111E+00 3.91098E-05 7.67573E-05
 -1       366 4.26203E+00 1.42508E+01 1.06534E-04-8.65056E+00 4.30733E-05 7.46052E-05
 -1       367 5.19362E+00 1.33192E+01 1.06534E-04-9.12523E+00 4.69189E-05 7.22487E-05
 -1       368 6.16973E+00 1.23431E+01 1.06534E-04-9.49992E+00 5.06358E-05 6.96941E-05
 -1       369 7.17965E+00 1.13332E+01 1.06535E-04-9.77052E+00 5.42139E-05 6.69485E-05
 -1       370 8.21232E+00 1.03006E+01 1.06534E-04-9.93408E+00 5.76434E-05 6.40195E-05
 -1       371 9.25644E+00 9.25644E+00 1.06534E-04-9.98880E+00 6.09149E-05 6.09149E-05
 -1       372 1.03006E+01 8.21232E+00 1.06533E-04-9.93408E+00 6.40195E-05 5.76434E-05
 -1       373 1.13332E+01 7.17965E+00 1.06533E-04-9.77052E+00 6.69485E-05 5.42139E-05
 -1       374 1.23431E+01 6.16973E+00 1.06533E-04-9.49992E+00 6.96941E-05 5.06357E-05
 -1       375 1.33192E+01 5.19362E+00 1.06533E-04-9.12523E+00 7.22487E-05 4.69188E-05
 -1       376 1.42508E+01 4.26203E+00 1.06533E-04-8.65056E+00 7.46052E-05 4.30733E-05
 -1       377 1.51277E+01 3.38516E+00 1.06533E-04-8.08111E+00 7.67572E-05 3.91098E-05
 -1       378 1.59403E+01 2.57262E+00 1.06533E-04-7.42313E+00 7.86989E-05 3.50390E-05
 -1       379 1.66796E+01 1.83331E+00 1.06532E-04-6.68381E+00 8.04248E-05 3.08722E-05
 -1       380 1.73375E+01 1.17532E+00 1.06533E-04-5.87127E+00 8.19304E-05 2.66208E-05
 -1       381 1.79070E+01 6.05878E-01 1.06533E-04-4.99440E+00 8.32113E-05 2.22964E-05
 -1       382 1.83817E+01 1.31210E-01 1.06533E-04-4.06281E+00 8.42642E-05 1.79109E-05
 -1       383 1.87564E+01-2.43481E-01 1.06533E-04-3.08671E+00 8.50861E-05 1.34763E-05
 -1       384 1.90270E+01-5.14088E-01 1.06533E-04-2.07679E+00 8.56747E-05 9.00478E-06
 -1       385 1.91905E+01-6.77648E-01 1.06533E-04-1.04411E+00 8.60286E-05 4.50856E-06
 -1       386-6.26385E-01 1.91391E+01 8.73491E-05-1.03872E+00 5.97802E-06 1.14067E-04
 -1       387-4.63671E-01 1.89764E+01 8.73492E-05-2.06605E+00 1.19397E-05 1.13598E-04
 -1       388-1.94463E-01 1.87071E+01 8.73492E-05-3.07075E+00 1.78686E-05 1.12818E-04
 -1       389 1.78291E-01 1.83344E+01 8.73492E-05-4.04181E+00 2.37485E-05 1.11728E-04
 -1       390 6.50505E-01 1.78622E+01 8.73491E-05-4.96858E+00 2.95634E-05 1.10332E-04
 -1       391 1.21701E+00 1.72957E+01 8.73492E-05-5.84092E+00 3.52972E-05 1.08634E-04
 -1       392 1.87159E+00 1.66411E+01 8.73493E-05-6.64926E+00 4.09342E-05 1.06637E-04
 -1       393 2.60708E+00 1.59056E+01 8.73493E-05-7.38475E+00 4.64591E-05 1.04349E-04
 -1       394 3.41542E+00 1.50973E+01 8.73490E-05-8.03933E+00 5.18566E-05 1.01774E-04
 -1       395 4.28776E+00 1.42249E+01 8.73491E-05-8.60584E+00 5.71120E-05 9.89209E-05
 -1       396 5.21453E+00 1.32981E+01 8.73491E-05-9.07805E+00 6.22109E-05 9.57963E-05
 -1       397 6.18559E+00 1.23271E+01 8.73492E-05-9.45080E+00 6.71392E-05 9.24092E-05
 -1       398 7.19029E+00 1.13224E+01 8.73495E-05-9.72001E+00 7.18835E-05 8.87687E-05
 -1       399 8.21762E+00 1.02951E+01 8.73494E-05-9.88273E+00 7.64308E-05 8.48850E-05
 -1       400 9.25634E+00 9.25634E+00 8.73485E-05-9.93716E+00 8.07686E-05 8.07686E-05
 -1       401 1.02951E+01 8.21762E+00 8.73478E-05-9.88273E+00 8.48850E-05 7.64308E-05
 -1       402 1.13224E+01 7.19029E+00 8.73476E-05-9.72001E+00 8.87687E-05 7.18835E-05
 -1       403 1.23271E+01 6.18559E+00 8.73477E-05-9.45080E+00 9.24092E-05 6.71392E-05
 -1       404 1.32981E+01 5.21453E+00 8.73478E-05-9.07805E+00 9.57963E-05 6.22108E-05
 -1       405 1.42249E+01 4.28776E+00 8.73478E-05-8.60584E+00 9.89209E-05 5.71120E-05
 -1       406 1.50973E+01 3.41542E+00 8.73478E-05-8.03933E+00 1.01774E-04 5.18566E-05
 -1       407 1.59056E+01 2.60708E+00 8.73475E-05-7.38475E+00 1.04349E-04 4.64591E-05
 -1       408 1.66411E+01 1.87159E+00 8.73474E-05-6.64926E+00 1.06637E-04 4.09342E-05
 -1       409 1.72957E+01 1.21701E+00 8.73476E-05-5.84092E+00 1.08633E-04 3.52972E-05
 -1       410 1.78622E+01 6.50505E-01 8.73476E-05-4.96858E+00 1.10332E-04 2.95633E-05
 -1       411 1.83344E+01 1.78291E-01 8.73475E-05-4.04181E+00 1.11728E-04 2.37485E-05
 -1       412 1.87071E+01-1.94463E-01 8.73475E-05-3.07075E+00 1.12818E-04 1.78686E-05
 -1       413 1.89764E+01-4.63671E-01 8.73476E-05-2.06605E+00 1.13598E-04 1.19397E-05
 -1       414 1.91391E+01-6.26385E-01 8.73477E-05-1.03872E+00 1.14067E-04 5.97802E-06
 -1       415-5.75523E-01 1.90880E+01 5.79659E-05-1.03336E+00 6.67012E-06 1.27273E-04
 -1       416-4.13648E-01 1.89261E+01 5.79660E-05-2.05540E+00 1.33220E-05 1.26750E-04
 -1       417-1.45828E-01 1.86583E+01 5.79660E-05-3.05492E+00 1.99373E-05 1.25879E-04
 -1       418 2.25004E-01 1.82875E+01 5.79660E-05-4.02097E+00 2.64980E-05 1.24663E-04
 -1       419 6.94783E-01 1.78177E+01 5.79659E-05-4.94296E+00 3.29860E-05 1.23105E-04
 -1       420 1.25836E+00 1.72541E+01 5.79660E-05-5.81080E+00 3.93836E-05 1.21210E-04
 -1       421 1.90957E+00 1.66029E+01 5.79661E-05-6.61497E+00 4.56733E-05 1.18983E-04
 -1       422 2.64127E+00 1.58712E+01 5.79661E-05-7.34667E+00 5.18378E-05 1.16430E-04
 -1       423 3.44544E+00 1.50670E+01 5.79659E-05-7.99788E+00 5.78603E-05 1.13557E-04
 -1       424 4.31328E+00 1.41992E+01 5.79659E-05-8.56146E+00 6.37241E-05 1.10373E-04
 -1       425 5.23528E+00 1.32772E+01 5.79659E-05-9.03124E+00 6.94133E-05 1.06887E-04
 -1       426 6.20132E+00 1.23112E+01 5.79660E-05-9.40207E+00 7.49121E-05 1.03108E-04
 -1       427 7.20084E+00 1.13116E+01 5.79663E-05-9.66989E+00 8.02057E-05 9.90458E-05
 -1       428 8.22288E+00 1.02896E+01 5.79662E-05-9.83177E+00 8.52795E-05 9.47124E-05
 -1       429 9.25624E+00 9.25624E+00 5.79653E-05-9.88592E+00 9.01195E-05 9.01195E-05
 -1       430 1.02896E+01 8.22288E+00 5.79646E-05-9.83177E+00 9.47124E-05 8.52795E-05
 -1       431 1.13116E+01 7.20084E+00 5.79645E-05-9.66989E+00 9.90458E-05 8.02057E-05
 -1       432 1.23112E+01 6.20132E+00 5.79645E-05-9.40207E+00 1.03108E-04 7.49121E-05
 -1       433 1.32772E+01 5.23528E+00 5.79647E-05-9.03124E+00 1.06887E-04 6.94132E-05
 -1       434 1.41992E+01 4.31328E+00 5.79647E-05-8.56146E+00 1.10373E-04 6.37241E-05
 -1       435 1.50670E+01 3.44544E+00 5.79646E-05-7.99788E+00 1.13557E-04 5.78602E-05
 -1       436 1.58712E+01 2.64127E+00 5.79643E-05-7.34667E+00 1.16430E-04 5.18378E-05
 -1       437 1.66029E+01 1.90957E+00 5.79643E-05-6.61497E+00 1.18983E-04 4.56733E-05
 -1       438 1.72541E+01 1.25836E+00 5.79644E-05-5.81080E+00 1.21210E-04 3.93836E-05
 -1       439 1.78177E+01 6.94783E-01 5.79644E-05-4.94296E+00 1.23105E-04 3.29860E-05
 -1       440 1.82875E+01 2.25004E-01 5.79643E-05-4.02097E+00 1.24663E-04 2.64980E-05
 -1       441 1.86583E+01-1.45828E-01 5.79644E-05-3.05492E+00 1.25879E-04 1.99373E-05
 -1       442 1.89261E+01-4.13648E-01 5.79644E-05-2.05540E+00 1.26750E-04 1.33220E-05
 -1       443 1.90880E+01-5.75523E-01 5.79645E-05-1.03336E+00 1.27273E-04 6.67012E-06
 -1       444-5.25053E-01 1.90373E+01 2.53147E-05-1.02805E+00 6.97929E-06 1.33173E-04
 -1       445-3.64011E-01 1.88763E+01 2.53147E-05-2.04483E+00 1.39394E-05 1.32625E-04
 -1       446-9.75678E-02 1.86099E+01 2.53148E-05-3.03921E+00 2.08614E-05 1.31714E-04
 -1       447 2.71356E-01 1.82409E+01 2.53147E-05-4.00029E+00 2.77262E-05 1.30441E-04
 -1       448 7.38720E-01 1.77736E+01 2.53147E-05-4.91754E+00 3.45150E-05 1.28812E-04
 -1       449 1.29940E+00 1.72129E+01 2.53147E-05-5.78091E+00 4.12091E-05 1.26829E-04
 -1       450 1.94726E+00 1.65650E+01 2.53149E-05-6.58095E+00 4.77904E-05 1.24498E-04
 -1       451 2.67519E+00 1.58371E+01 2.53148E-05-7.30888E+00 5.42406E-05 1.21826E-04
 -1       452 3.47523E+00 1.50371E+01 2.53146E-05-7.95674E+00 6.05422E-05 1.18821E-04
 -1       453 4.33861E+00 1.41737E+01 2.53147E-05-8.51742E+00 6.66778E-05 1.15489E-04
 -1       454 5.25586E+00 1.32564E+01 2.53146E-05-8.98479E+00 7.26307E-05 1.11841E-04
 -1       455 6.21694E+00 1.22953E+01 2.53148E-05-9.35371E+00 7.83844E-05 1.07887E-04
 -1       456 7.21132E+00 1.13010E+01 2.53151E-05-9.62015E+00 8.39234E-05 1.03637E-04
 -1       457 8.22810E+00 1.02842E+01 2.53150E-05-9.78120E+00 8.92323E-05 9.91025E-05
 -1       458 9.25614E+00 9.25614E+00 2.53141E-05-9.83507E+00 9.42966E-05 9.42966E-05
 -1       459 1.02842E+01 8.22810E+00 2.53134E-05-9.78120E+00 9.91025E-05 8.92323E-05
 -1       460 1.13010E+01 7.21132E+00 2.53132E-05-9.62015E+00 1.03637E-04 8.39234E-05
 -1       461 1.22953E+01 6.21694E+00 2.53133E-05-9.35371E+00 1.07887E-04 7.83844E-05
 -1       462 1.32564E+01 5.25586E+00 2.53134E-05-8.98479E+00 1.11841E-04 7.26306E-05
 -1       463 1.41737E+01 4.33861E+00 2.53134E-05-8.51742E+00 1.15489E-04 6.66778E-05
 -1       464 1.50371E+01 3.47523E+00 2.53134E-05-7.95674E+00 1.18821E-04 6.05421E-05
 -1       465 1.58371E+01 2.67519E+00 2.53131E-05-7.30888E+00 1.21826E-04 5.42406E-05
 -1       466 1.65650E+01 1.94726E+00 2.53130E-05-6.58095E+00 1.24498E-04 4.77904E-05
 -1       467 1.72129E+01 1.29940E+00 2.53132E-05-5.78091E+00 1.26829E-04 4.12091E-05
 -1       468 1.77736E+01 7.38720E-01 2.53132E-05-4.91754E+00 1.28812E-04 3.45149E-05
 -1       469 1.82409E+01 2.71356E-01 2.53131E-05-4.00029E+00 1.30441E-04 2.77262E-05
 -1       470 1.86099E+01-9.75678E-02 2.53131E-05-3.03921E+00 1.31714E-04 2.08614E-05
 -1       471 1.88763E+01-3.64011E-01 2.53132E-05-2.04483E+00 1.32625E-04 1.39394E-05
 -1       472 1.90373E+01-5.25053E-01 2.53133E-05-1.02805E+00 1.33173E-04 6.97929E-06
 -1       473-4.74970E-01 1.89871E+01-7.88866E-06-1.02277E+00 7.09440E-06 1.35369E-04
 -1       474-3.14754E-01 1.88268E+01-7.88858E-06-2.03434E+00 1.41693E-05 1.34812E-04
 -1       475-4.96777E-02 1.85618E+01-7.88851E-06-3.02361E+00 2.12055E-05 1.33886E-04
 -1       476 3.17354E-01 1.81947E+01-7.88859E-06-3.97976E+00 2.81834E-05 1.32593E-04
 -1       477 7.82319E-01 1.77298E+01-7.88863E-06-4.89231E+00 3.50842E-05 1.30936E-04
 -1       478 1.34012E+00 1.71720E+01-7.88858E-06-5.75125E+00 4.18888E-05 1.28920E-04
 -1       479 1.98466E+00 1.65274E+01-7.88845E-06-6.54719E+00 4.85785E-05 1.26551E-04
 -1       480 2.70886E+00 1.58032E+01-7.88849E-06-7.27139E+00 5.51352E-05 1.23836E-04
 -1       481 3.50479E+00 1.50073E+01-7.88870E-06-7.91592E+00 6.15406E-05 1.20780E-04
 -1       482 4.36374E+00 1.41484E+01-7.88866E-06-8.47373E+00 6.77775E-05 1.17394E-04
 -1       483 5.27628E+00 1.32358E+01-7.88868E-06-8.93869E+00 7.38285E-05 1.13686E-04
 -1       484 6.23243E+00 1.22797E+01-7.88851E-06-9.30573E+00 7.96772E-05 1.09666E-04
 -1       485 7.22171E+00 1.12904E+01-7.88823E-06-9.57080E+00 8.53074E-05 1.05346E-04
 -1       486 8.23328E+00 1.02788E+01-7.88836E-06-9.73102E+00 9.07039E-05 1.00737E-04
 -1       487 9.25605E+00 9.25605E+00-7.88921E-06-9.78462E+00 9.58518E-05 9.58518E-05
 -1       488 1.02788E+01 8.23328E+00-7.88995E-06-9.73102E+00 1.00737E-04 9.07039E-05
 -1       489 1.12904E+01 7.22171E+00-7.89007E-06-9.57080E+00 1.05346E-04 8.53075E-05
 -1       490 1.22797E+01 6.23243E+00-7.88999E-06-9.30573E+00 1.09666E-04 7.96772E-05
 -1       491 1.32358E+01 5.27628E+00-7.88988E-06-8.93869E+00 1.13686E-04 7.38285E-05
 -1       492 1.41484E+01 4.36374E+00-7.88989E-06-8.47373E+00 1.17394E-04 6.77774E-05
 -1       493 1.50073E+01 3.50479E+00-7.88990E-06-7.91592E+00 1.20780E-04 6.15406E-05
 -1       494 1.58032E+01 2.70886E+00-7.89022E-06-7.27139E+00 1.23836E-04 5.51351E-05
 -1       495 1.65274E+01 1.98466E+00-7.89028E-06-6.54719E+00 1.26551E-04 4.85785E-05
 -1       496 1.71720E+01 1.34012E+00-7.89011E-06-5.75125E+00 1.28920E-04 4.18888E-05
 -1       497 1.77298E+01 7.82319E-01-7.89012E-06-4.89231E+00 1.30936E-04 3.50842E-05
 -1       498 1.81947E+01 3.17354E-01-7.89018E-06-3.97976E+00 1.32593E-04 2.81834E-05
 -1       499 1.85618E+01-4.96777E-02-7.89018E-06-3.02361E+00 1.33886E-04 2.12055E-05
 -1       500 1.88268E+01-3.14754E-01-7.89009E-06-2.03434E+00 1.34812E-04 1.41693E-05
 -1       501 1.89871E+01-4.74970E-01-7.89002E-06-1.02277E+00 1.35369E-04 7.09439E-06
 -1       502-4.25270E-01 1.89372E+01-4.08121E-05-1.01754E+00 7.10185E-06 1.35511E-04
 -1       503-2.65874E-01 1.87778E+01-4.08120E-05-2.02393E+00 1.41842E-05 1.34954E-04
 -1       504-2.15419E-03 1.85141E+01-4.08119E-05-3.00814E+00 2.12277E-05 1.34027E-04
 -1       505 3.62999E-01 1.81489E+01-4.08120E-05-3.95940E+00 2.82130E-05 1.32732E-04
 -1       506 8.25585E-01 1.76863E+01-4.08120E-05-4.86727E+00 3.51210E-05 1.31073E-04
 -1       507 1.38054E+00 1.71314E+01-4.08120E-05-5.72182E+00 4.19328E-05 1.29056E-04
 -1       508 2.02177E+00 1.64901E+01-4.08119E-05-6.51368E+00 4.86295E-05 1.26684E-04
 -1       509 2.74227E+00 1.57696E+01-4.08119E-05-7.23418E+00 5.51931E-05 1.23966E-04
 -1       510 3.53413E+00 1.49778E+01-4.08121E-05-7.87542E+00 6.16053E-05 1.20907E-04
 -1       511 4.38868E+00 1.41232E+01-4.08121E-05-8.43037E+00 6.78486E-05 1.17517E-04
 -1       512 5.29655E+00 1.32153E+01-4.08121E-05-8.89295E+00 7.39060E-05 1.13805E-04
 -1       513 6.24781E+00 1.22641E+01-4.08119E-05-9.25811E+00 7.97608E-05 1.09781E-04
 -1       514 7.23203E+00 1.12799E+01-4.08116E-05-9.52183E+00 8.53970E-05 1.05457E-04
 -1       515 8.23841E+00 1.02735E+01-4.08118E-05-9.68122E+00 9.07992E-05 1.00843E-04
 -1       516 9.25595E+00 9.25595E+00-4.08126E-05-9.73455E+00 9.59525E-05 9.59524E-05
 -1       517 1.02735E+01 8.23841E+00-4.08134E-05-9.68122E+00 1.00843E-04 9.07992E-05
 -1       518 1.12799E+01 7.23203E+00-4.08135E-05-9.52183E+00 1.05457E-04 8.53971E-05
 -1       519 1.22641E+01 6.24781E+00-4.08134E-05-9.25811E+00 1.09781E-04 7.97608E-05
 -1       520 1.32153E+01 5.29655E+00-4.08133E-05-8.89295E+00 1.13805E-04 7.39060E-05
 -1       521 1.41232E+01 4.38868E+00-4.08133E-05-8.43037E+00 1.17517E-04 6.78486E-05
 -1       522 1.49778E+01 3.53413E+00-4.08133E-05-7.87542E+00 1.20907E-04 6.16053E-05
 -1       523 1.57696E+01 2.74227E+00-4.08136E-05-7.23418E+00 1.23966E-04 5.51930E-05
 -1       524 1.64901E+01 2.02177E+00-4.08137E-05-6.51368E+00 1.26684E-04 4.86296E-05
 -1       525 1.71314E+01 1.38054E+00-4.08135E-05-5.72182E+00 1.29056E-04 4.19328E-05
 -1       526 1.76863E+01 8.25585E-01-4.08135E-05-4.86727E+00 1.31073E-04 3.51210E-05
 -1       527 1.81489E+01 3.62999E-01-4.08136E-05-3.95940E+00 1.32732E-04 2.82130E-05
 -1       528 1.85141E+01-2.15419E-03-4.08136E-05-3.00814E+00 1.34027E-04 2.12277E-05
 -1       529 1.87778E+01-2.65874E-01-4.08135E-05-2.02393E+00 1.34954E-04 1.41842E-05
 -1       530 1.89372E+01-4.25270E-01-4.08134E-05-1.01754E+00 1.35511E-04 7.10184E-06
 -1       531-3.75951E-01 1.88877E+01-7.33596E-05-1.01234E+00 7.02846E-06 1.34111E-04
 -1       532-2.17368E-01 1.87291E+01-7.33596E-05-2.01360E+00 1.40377E-05 1.33559E-04
 -1       533 4.50054E-02 1.84667E+01-7.33595E-05-2.99279E+00 2.10084E-05 1.32642E-04
 -1       534 4.08295E-01 1.81034E+01-7.33596E-05-3.93919E+00 2.79215E-05 1.31360E-04
 -1       535 8.68520E-01 1.76432E+01-7.33596E-05-4.84243E+00 3.47581E-05 1.29719E-04
 -1       536 1.42064E+00 1.70911E+01-7.33596E-05-5.69262E+00 4.14995E-05 1.27722E-04
 -1       537 2.05860E+00 1.64531E+01-7.33594E-05-6.48044E+00 4.81270E-05 1.25375E-04
 -1       538 2.77542E+00 1.57363E+01-7.33595E-05-7.19726E+00 5.46227E-05 1.22685E-04
 -1       539 3.56324E+00 1.49485E+01-7.33597E-05-7.83522E+00 6.09687E-05 1.19658E-04
 -1       540 4.41343E+00 1.40983E+01-7.33596E-05-8.38734E+00 6.71475E-05 1.16303E-04
 -1       541 5.31667E+00 1.31950E+01-7.33597E-05-8.84756E+00 7.31423E-05 1.12629E-04
 -1       542 6.26307E+00 1.22486E+01-7.33595E-05-9.21085E+00 7.89366E-05 1.08647E-04
 -1       543 7.24226E+00 1.12695E+01-7.33592E-05-9.47323E+00 8.45146E-05 1.04367E-04
 -1       544 8.24351E+00 1.02682E+01-7.33593E-05-9.63181E+00 8.98609E-05 9.98007E-05
 -1       545 9.25586E+00 9.25586E+00-7.33602E-05-9.68486E+00 9.49610E-05 9.49609E-05
 -1       546 1.02682E+01 8.24351E+00-7.33609E-05-9.63181E+00 9.98007E-05 8.98609E-05
 -1       547 1.12695E+01 7.24226E+00-7.33610E-05-9.47323E+00 1.04367E-04 8.45146E-05
 -1       548 1.22486E+01 6.26307E+00-7.33609E-05-9.21085E+00 1.08647E-04 7.89367E-05
 -1       549 1.31950E+01 5.31667E+00-7.33608E-05-8.84756E+00 1.12629E-04 7.31423E-05
 -1       550 1.40983E+01 4.41343E+00-7.33609E-05-8.38734E+00 1.16303E-04 6.71475E-05
 -1       551 1.49485E+01 3.56324E+00-7.33609E-05-7.83522E+00 1.19658E-04 6.09687E-05
 -1       552 1.57363E+01 2.77542E+00-7.33612E-05-7.19726E+00 1.22685E-04 5.46227E-05
 -1       553 1.64531E+01 2.05860E+00-7.33612E-05-6.48044E+00 1.25375E-04 4.81270E-05
 -1       554 1.70911E+01 1.42064E+00-7.33611E-05-5.69262E+00 1.27722E-04 4.14995E-05
 -1       555 1.76432E+01 8.68520E-01-7.33611E-05-4.84243E+00 1.29719E-04 3.47581E-05
 -1       556 1.81034E+01 4.08295E-01-7.33611E-05-3.93919E+00 1.31360E-04 2.79215E-05
 -1       557 1.84667E+01 4.50054E-02-7.33611E-05-2.99279E+00 1.32642E-04 2.10084E-05
 -1       558 1.87291E+01-2.17368E-01-7.33610E-05-2.01360E+00 1.33559E-04 1.40377E-05
 -1       559 1.88877E+01-3.75951E-01-7.33610E-05-1.01234E+00 1.34111E-04 7.02846E-06
 -1       560-3.27010E-01 1.88385E+01-1.05472E-04-1.00719E+00 6.85464E-06 1.30794E-04
 -1       561-1.69234E-01 1.86808E+01-1.05472E-04-2.00335E+00 1.36905E-05 1.30256E-04
 -1       562 9.18036E-02 1.84197E+01-1.05472E-04-2.97755E+00 2.04888E-05 1.29361E-04
 -1       563 4.53244E-01 1.80583E+01-1.05472E-04-3.91913E+00 2.72310E-05 1.28112E-04
 -1       564 9.11126E-01 1.76004E+01-1.05472E-04-4.81778E+00 3.38985E-05 1.26511E-04
 -1       565 1.46043E+00 1.70511E+01-1.05472E-04-5.66364E+00 4.04731E-05 1.24564E-04
 -1       566 2.09515E+00 1.64164E+01-1.05472E-04-6.44745E+00 4.69368E-05 1.22275E-04
 -1       567 2.80832E+00 1.57032E+01-1.05472E-04-7.16061E+00 5.32719E-05 1.19651E-04
 -1       568 3.59212E+00 1.49194E+01-1.05472E-04-7.79533E+00 5.94609E-05 1.16699E-04
 -1       569 4.43798E+00 1.40735E+01-1.05472E-04-8.34464E+00 6.54869E-05 1.13427E-04
 -1       570 5.33663E+00 1.31749E+01-1.05472E-04-8.80252E+00 7.13335E-05 1.09844E-04
 -1       571 6.27821E+00 1.22333E+01-1.05472E-04-9.16396E+00 7.69845E-05 1.05960E-04
 -1       572 7.25242E+00 1.12591E+01-1.05472E-04-9.42500E+00 8.24245E-05 1.01786E-04
 -1       573 8.24857E+00 1.02630E+01-1.05472E-04-9.58277E+00 8.76386E-05 9.73325E-05
 -1       574 9.25576E+00 9.25576E+00-1.05473E-04-9.63556E+00 9.26125E-05 9.26125E-05
 -1       575 1.02630E+01 8.24857E+00-1.05473E-04-9.58277E+00 9.73325E-05 8.76386E-05
 -1       576 1.12591E+01 7.25242E+00-1.05474E-04-9.42500E+00 1.01786E-04 8.24245E-05
 -1       577 1.22333E+01 6.27821E+00-1.05473E-04-9.16396E+00 1.05960E-04 7.69845E-05
 -1       578 1.31749E+01 5.33663E+00-1.05473E-04-8.80252E+00 1.09844E-04 7.13335E-05
 -1       579 1.40735E+01 4.43798E+00-1.05473E-04-8.34464E+00 1.13427E-04 6.54869E-05
 -1       580 1.49194E+01 3.59212E+00-1.05473E-04-7.79533E+00 1.16699E-04 5.94609E-05
 -1       581 1.57032E+01 2.80832E+00-1.05474E-04-7.16061E+00 1.19651E-04 5.32719E-05
 -1       582 1.64164E+01 2.09515E+00-1.05474E-04-6.44745E+00 1.22275E-04 4.69368E-05
 -1       583 1.70511E+01 1.46043E+00-1.05474E-04-5.66364E+00 1.24564E-04 4.04731E-05
 -1       584 1.76004E+01 9.11126E-01-1.05474E-04-4.81778E+00 1.26511E-04 3.38985E-05
 -1       585 1.80583E+01 4.53244E-01-1.05474E-04-3.91913E+00 1.28112E-04 2.72310E-05
 -1       586 1.84197E+01 9.18036E-02-1.05474E-04-2.97755E+00 1.29361E-04 2.04888E-05
 -1       587 1.86808E+01-1.69234E-01-1.05474E-04-2.00335E+00 1.30256E-04 1.36905E-05
 -1       588 1.88385E+01-3.27010E-01-1.05473E-04-1.00719E+00 1.30794E-04 6.85464E-06
 -1       589-2.78443E-01 1.87898E+01-1.36464E-04-1.00208E+00 6.50607E-06 1.24143E-04
 -1       590-1.21469E-01 1.86328E+01-1.36464E-04-1.99317E+00 1.29943E-05 1.23633E-04
 -1       591 1.38244E-01 1.83731E+01-1.36464E-04-2.96243E+00 1.94469E-05 1.22783E-04
 -1       592 4.97848E-01 1.80135E+01-1.36464E-04-3.89923E+00 2.58462E-05 1.21597E-04
 -1       593 9.53405E-01 1.75579E+01-1.36464E-04-4.79331E+00 3.21747E-05 1.20078E-04
 -1       594 1.49992E+00 1.70114E+01-1.36464E-04-5.63488E+00 3.84150E-05 1.18229E-04
 -1       595 2.13142E+00 1.63799E+01-1.36464E-04-6.41471E+00 4.45500E-05 1.16057E-04
 -1       596 2.84096E+00 1.56704E+01-1.36464E-04-7.12425E+00 5.05629E-05 1.13566E-04
 -1       597 3.62079E+00 1.48905E+01-1.36464E-04-7.75574E+00 5.64372E-05 1.10764E-04
 -1       598 4.46235E+00 1.40490E+01-1.36464E-04-8.30226E+00 6.21568E-05 1.07659E-04
 -1       599 5.35644E+00 1.31549E+01-1.36464E-04-8.75782E+00 6.77060E-05 1.04258E-04
 -1       600 6.29324E+00 1.22181E+01-1.36464E-04-9.11742E+00 7.30696E-05 1.00572E-04
 -1       601 7.26250E+00 1.12488E+01-1.36463E-04-9.37714E+00 7.82330E-05 9.66098E-05
 -1       602 8.25359E+00 1.02577E+01-1.36464E-04-9.53411E+00 8.31820E-05 9.23830E-05
 -1       603 9.25567E+00 9.25567E+00-1.36464E-04-9.58663E+00 8.79029E-05 8.79029E-05
 -1       604 1.02577E+01 8.25359E+00-1.36465E-04-9.53411E+00 9.23829E-05 8.31820E-05
 -1       605 1.12488E+01 7.26250E+00-1.36465E-04-9.37714E+00 9.66097E-05 7.82330E-05
 -1       606 1.22181E+01 6.29324E+00-1.36465E-04-9.11742E+00 1.00572E-04 7.30697E-05
 -1       607 1.31549E+01 5.35644E+00-1.36465E-04-8.75782E+00 1.04258E-04 6.77060E-05
 -1       608 1.40490E+01 4.46235E+00-1.36465E-04-8.30226E+00 1.07659E-04 6.21568E-05
 -1       609 1.48905E+01 3.62079E+00-1.36465E-04-7.75574E+00 1.10764E-04 5.64372E-05
 -1       610 1.56704E+01 2.84096E+00-1.36465E-04-7.12425E+00 1.13566E-04 5.05629E-05
 -1       611 1.63799E+01 2.13142E+00-1.36465E-04-6.41471E+00 1.16057E-04 4.45500E-05
 -1       612 1.70114E+01 1.49992E+00-1.36465E-04-5.63488E+00 1.18229E-04 3.84150E-05
 -1       613 1.75579E+01 9.53405E-01-1.36465E-04-4.79331E+00 1.20078E-04 3.21747E-05
 -1       614 1.80135E+01 4.97848E-01-1.36465E-04-3.89923E+00 1.21597E-04 2.58462E-05
 -1       615 1.83731E+01 1.38244E-01-1.36465E-04-2.96243E+00 1.22783E-04 1.94469E-05
 -1       616 1.86328E+01-1.21469E-01-1.36465E-04-1.99317E+00 1.23633E-04 1.29943E-05
 -1       617 1.87898E+01-2.78443E-01-1.36465E-04-1.00208E+00 1.24143E-04 6.50607E-06
 -1       618-2.30246E-01 1.87414E+01-1.64005E-04-9.97000E-01 5.81847E-06 1.11023E-04
 -1       619-7.40667E-02 1.85852E+01-1.64005E-04-1.98308E+00 1.16210E-05 1.10566E-04
 -1       620 1.84330E-01 1.83268E+01-1.64005E-04-2.94743E+00 1.73917E-05 1.09807E-04
 -1       621 5.42113E-01 1.79690E+01-1.64005E-04-3.87948E+00 2.31147E-05 1.08746E-04
 -1       622 9.95363E-01 1.75158E+01-1.64005E-04-4.76904E+00 2.87743E-05 1.07387E-04
 -1       623 1.53911E+00 1.69720E+01-1.64005E-04-5.60634E+00 3.43551E-05 1.05734E-04
 -1       624 2.16741E+00 1.63437E+01-1.64005E-04-6.38222E+00 3.98417E-05 1.03791E-04
 -1       625 2.87336E+00 1.56378E+01-1.64005E-04-7.08817E+00 4.52191E-05 1.01564E-04
 -1       626 3.64924E+00 1.48619E+01-1.64005E-04-7.71646E+00 5.04726E-05 9.90580E-05
 -1       627 4.48654E+00 1.40246E+01-1.64005E-04-8.26021E+00 5.55877E-05 9.62808E-05
 -1       628 5.37609E+00 1.31351E+01-1.64005E-04-8.71346E+00 6.05505E-05 9.32396E-05
 -1       629 6.30815E+00 1.22030E+01-1.64005E-04-9.07124E+00 6.53473E-05 8.99428E-05
 -1       630 7.27250E+00 1.12387E+01-1.64004E-04-9.32964E+00 6.99649E-05 8.63995E-05
 -1       631 8.25857E+00 1.02526E+01-1.64005E-04-9.48582E+00 7.43909E-05 8.26195E-05
 -1       632 9.25557E+00 9.25557E+00-1.64005E-04-9.53807E+00 7.86129E-05 7.86129E-05
 -1       633 1.02526E+01 8.25857E+00-1.64006E-04-9.48582E+00 8.26194E-05 7.43909E-05
 -1       634 1.12387E+01 7.27250E+00-1.64006E-04-9.32964E+00 8.63995E-05 6.99650E-05
 -1       635 1.22030E+01 6.30815E+00-1.64006E-04-9.07124E+00 8.99428E-05 6.53473E-05
 -1       636 1.31351E+01 5.37609E+00-1.64006E-04-8.71346E+00 9.32396E-05 6.05505E-05
 -1       637 1.40246E+01 4.48654E+00-1.64006E-04-8.26021E+00 9.62807E-05 5.55877E-05
 -1       638 1.48619E+01 3.64924E+00-1.64006E-04-7.71646E+00 9.90580E-05 5.04726E-05
 -1       639 1.56378E+01 2.87336E+00-1.64006E-04-7.08817E+00 1.01564E-04 4.52191E-05
 -1       640 1.63437E+01 2.16741E+00-1.64006E-04-6.38222E+00 1.03791E-04 3.98417E-05
 -1       641 1.69720E+01 1.53911E+00-1.64006E-04-5.60634E+00 1.05734E-04 3.43551E-05
 -1       642 1.75158E+01 9.95363E-01-1.64006E-04-4.76904E+00 1.07387E-04 2.87743E-05
 -1       643 1.79690E+01 5.42113E-01-1.64006E-04-3.87948E+00 1.08746E-04 2.31147E-05
 -1       644 1.83268E+01 1.84330E-01-1.64006E-04-2.94743E+00 1.09807E-04 1.73917E-05
 -1       645 1.85852E+01-7.40667E-02-1.64006E-04-1.98308E+00 1.10566E-04 1.16210E-05
 -1       646 1.87414E+01-2.30246E-01-1.64006E-04-9.97000E-01 1.11023E-04 5.81847E-06
 -1       647-1.82411E-01 1.86934E+01-1.82105E-04-9.91963E-01 4.45012E-06 8.49133E-05
 -1       648-2.70208E-02 1.85380E+01-1.82105E-04-1.97306E+00 8.88803E-06 8.45640E-05
 -1       649 2.30070E-01 1.82809E+01-1.82105E-04-2.93253E+00 1.33016E-05 8.39830E-05
 -1       650 5.86046E-01 1.79249E+01-1.82105E-04-3.85988E+00 1.76787E-05 8.31717E-05
 -1       651 1.03701E+00 1.74740E+01-1.82105E-04-4.74494E+00 2.20073E-05 8.21325E-05
 -1       652 1.57801E+00 1.69330E+01-1.82105E-04-5.57801E+00 2.62757E-05 8.08682E-05
 -1       653 2.20313E+00 1.63078E+01-1.82105E-04-6.34997E+00 3.04720E-05 7.93822E-05
 -1       654 2.90551E+00 1.56055E+01-1.82105E-04-7.05236E+00 3.45847E-05 7.76786E-05
 -1       655 3.67747E+00 1.48335E+01-1.82105E-04-7.67748E+00 3.86027E-05 7.57621E-05
 -1       656 4.51054E+00 1.40004E+01-1.82105E-04-8.21848E+00 4.25149E-05 7.36380E-05
 -1       657 5.39560E+00 1.31154E+01-1.82105E-04-8.66944E+00 4.63106E-05 7.13120E-05
 -1       658 6.32295E+00 1.21880E+01-1.82105E-04-9.02541E+00 4.99793E-05 6.87906E-05
 -1       659 7.28243E+00 1.12285E+01-1.82104E-04-9.28251E+00 5.35110E-05 6.60806E-05
 -1       660 8.26352E+00 1.02474E+01-1.82105E-04-9.43790E+00 5.68960E-05 6.31895E-05
 -1       661 9.25548E+00 9.25548E+00-1.82105E-04-9.48988E+00 6.01252E-05 6.01251E-05
 -1       662 1.02474E+01 8.26352E+00-1.82106E-04-9.43790E+00 6.31894E-05 5.68960E-05
 -1       663 1.12285E+01 7.28243E+00-1.82106E-04-9.28251E+00 6.60805E-05 5.35110E-05
 -1       664 1.21880E+01 6.32295E+00-1.82106E-04-9.02541E+00 6.87905E-05 4.99793E-05
 -1       665 1.31154E+01 5.39560E+00-1.82106E-04-8.66944E+00 7.13120E-05 4.63106E-05
 -1       666 1.40004E+01 4.51054E+00-1.82106E-04-8.21848E+00 7.36380E-05 4.25149E-05
 -1       667 1.48335E+01 3.67747E+00-1.82106E-04-7.67748E+00 7.57621E-05 3.86027E-05
 -1       668 1.56055E+01 2.90551E+00-1.82106E-04-7.05236E+00 7.76786E-05 3.45847E-05
 -1       669 1.63078E+01 2.20313E+00-1.82106E-04-6.34997E+00 7.93821E-05 3.04720E-05
 -1       670 1.69330E+01 1.57801E+00-1.82106E-04-5.57801E+00 8.08681E-05 2.62757E-05
 -1       671 1.74740E+01 1.03701E+00-1.82106E-04-4.74494E+00 8.21325E-05 2.20073E-05
 -1       672 1.79249E+01 5.86046E-01-1.82106E-04-3.85988E+00 8.31717E-05 1.76787E-05
 -1       673 1.82809E+01 2.30070E-01-1.82106E-04-2.93253E+00 8.39829E-05 1.33016E-05
 -1       674 1.85380E+01-2.70208E-02-1.82106E-04-1.97306E+00 8.45640E-05 8.88804E-06
 -1       675 1.86934E+01-1.82411E-01-1.82106E-04-9.91963E-01 8.49132E-05 4.45011E-06
 -1       676-1.34924E-01 1.86457E+01-1.76623E-04-9.86964E-01 1.66157E-06 3.17047E-05
 -1       677 1.96829E-02 1.84911E+01-1.76623E-04-1.96311E+00 3.31859E-06 3.15743E-05
 -1       678 2.75478E-01 1.82353E+01-1.76623E-04-2.91776E+00 4.96652E-06 3.13574E-05
 -1       679 6.29660E-01 1.78812E+01-1.76623E-04-3.84043E+00 6.60083E-06 3.10544E-05
 -1       680 1.07835E+00 1.74325E+01-1.76623E-04-4.72103E+00 8.21705E-06 3.06664E-05
 -1       681 1.61662E+00 1.68942E+01-1.76623E-04-5.54990E+00 9.81074E-06 3.01944E-05
 -1       682 2.23859E+00 1.62722E+01-1.76623E-04-6.31797E+00 1.13775E-05 2.96395E-05
 -1       683 2.93744E+00 1.55734E+01-1.76623E-04-7.01682E+00 1.29132E-05 2.90035E-05
 -1       684 3.70551E+00 1.48053E+01-1.76623E-04-7.63878E+00 1.44134E-05 2.82879E-05
 -1       685 4.53438E+00 1.39764E+01-1.76623E-04-8.17706E+00 1.58741E-05 2.74948E-05
 -1       686 5.41498E+00 1.30958E+01-1.76623E-04-8.62575E+00 1.72913E-05 2.66263E-05
 -1       687 6.33765E+00 1.21732E+01-1.76623E-04-8.97993E+00 1.86611E-05 2.56849E-05
 -1       688 7.29229E+00 1.12185E+01-1.76622E-04-9.23573E+00 1.99798E-05 2.46730E-05
 -1       689 8.26844E+00 1.02424E+01-1.76623E-04-9.39033E+00 2.12437E-05 2.35935E-05
 -1       690 9.25541E+00 9.25541E+00-1.76623E-04-9.44206E+00 2.24494E-05 2.24494E-05
 -1       691 1.02424E+01 8.26844E+00-1.76624E-04-9.39033E+00 2.35935E-05 2.12437E-05
 -1       692 1.12185E+01 7.29229E+00-1.76624E-04-9.23573E+00 2.46730E-05 1.99798E-05
 -1       693 1.21732E+01 6.33765E+00-1.76624E-04-8.97993E+00 2.56848E-05 1.86611E-05
 -1       694 1.30958E+01 5.41498E+00-1.76624E-04-8.62575E+00 2.66263E-05 1.72913E-05
 -1       695 1.39764E+01 4.53438E+00-1.76624E-04-8.17706E+00 2.74948E-05 1.58741E-05
 -1       696 1.48053E+01 3.70551E+00-1.76624E-04-7.63878E+00 2.82879E-05 1.44134E-05
 -1       697 1.55734E+01 2.93744E+00-1.76624E-04-7.01682E+00 2.90034E-05 1.29132E-05
 -1       698 1.62722E+01 2.23859E+00-1.76624E-04-6.31797E+00 2.96395E-05 1.13776E-05
 -1       699 1.68942E+01 1.61662E+00-1.76624E-04-5.54990E+00 3.01943E-05 9.81074E-06
 -1       700 1.74325E+01 1.07835E+00-1.76624E-04-4.72103E+00 3.06664E-05 8.21704E-06
 -1       701 1.78812E+01 6.29660E-01-1.76624E-04-3.84043E+00 3.10544E-05 6.60083E-06
 -1       702 1.82353E+01 2.75478E-01-1.76624E-04-2.91776E+00 3.13573E-05 4.96652E-06
 -1       703 1.84911E+01 1.96829E-02-1.76624E-04-1.96311E+00 3.15743E-05 3.31859E-06
 -1       704 1.86457E+01-1.34924E-01-1.76624E-04-9.86964E-01 3.17047E-05 1.66157E-06
 -1       705-8.77599E-02 1.85985E+01-1.14285E-04-9.82002E-01-4.31965E-06-8.24239E-05
 -1       706 6.60699E-02 1.84447E+01-1.14285E-04-1.95324E+00-8.62747E-06-8.20849E-05
 -1       707 3.20579E-01 1.81901E+01-1.14285E-04-2.90309E+00-1.29116E-05-8.15208E-05
 -1       708 6.72980E-01 1.78377E+01-1.14285E-04-3.82112E+00-1.71604E-05-8.07334E-05
 -1       709 1.11941E+00 1.73913E+01-1.14285E-04-4.69729E+00-2.13621E-05-7.97246E-05
 -1       710 1.65498E+00 1.68557E+01-1.14285E-04-5.52200E+00-2.55053E-05-7.84973E-05
 -1       711 2.27382E+00 1.62369E+01-1.14285E-04-6.28621E+00-2.95786E-05-7.70549E-05
 -1       712 2.96916E+00 1.55416E+01-1.14285E-04-6.98154E+00-3.35708E-05-7.54013E-05
 -1       713 3.73336E+00 1.47774E+01-1.14285E-04-7.60038E+00-3.74710E-05-7.35410E-05
 -1       714 4.55807E+00 1.39527E+01-1.14285E-04-8.13595E+00-4.12685E-05-7.14791E-05
 -1       715 5.43424E+00 1.30765E+01-1.14285E-04-8.58238E+00-4.49529E-05-6.92213E-05
 -1       716 6.35228E+00 1.21585E+01-1.14285E-04-8.93478E+00-4.85140E-05-6.67738E-05
 -1       717 7.30212E+00 1.12086E+01-1.14284E-04-9.18929E+00-5.19422E-05-6.41433E-05
 -1       718 8.27336E+00 1.02374E+01-1.14285E-04-9.34312E+00-5.52280E-05-6.13369E-05
 -1       719 9.25536E+00 9.25536E+00-1.14285E-04-9.39459E+00-5.83625E-05-5.83625E-05
 -1       720 1.02374E+01 8.27336E+00-1.14286E-04-9.34312E+00-6.13370E-05-5.52280E-05
 -1       721 1.12086E+01 7.30212E+00-1.14286E-04-9.18929E+00-6.41433E-05-5.19422E-05
 -1       722 1.21585E+01 6.35228E+00-1.14286E-04-8.93478E+00-6.67738E-05-4.85140E-05
 -1       723 1.30765E+01 5.43424E+00-1.14286E-04-8.58238E+00-6.92214E-05-4.49529E-05
 -1       724 1.39527E+01 4.55807E+00-1.14286E-04-8.13595E+00-7.14791E-05-4.12685E-05
 -1       725 1.47774E+01 3.73336E+00-1.14286E-04-7.60038E+00-7.35410E-05-3.74710E-05
 -1       726 1.55416E+01 2.96916E+00-1.14286E-04-6.98154E+00-7.54013E-05-3.35708E-05
 -1       727 1.62369E+01 2.27382E+00-1.14286E-04-6.28621E+00-7.70549E-05-2.95786E-05
 -1       728 1.68557E+01 1.65498E+00-1.14286E-04-5.52200E+00-7.84974E-05-2.55053E-05
 -1       729 1.73913E+01 1.11941E+00-1.14286E-04-4.69729E+00-7.97246E-05-2.13621E-05
 -1       730 1.78377E+01 6.72980E-01-1.14286E-04-3.82112E+00-8.07334E-05-1.71604E-05
 -1       731 1.81901E+01 3.20579E-01-1.14286E-04-2.90309E+00-8.15208E-05-1.29116E-05
 -1       732 1.84447E+01 6.60699E-02-1.14286E-04-1.95324E+00-8.20849E-05-8.62746E-06
 -1       733 1.85985E+01-8.77599E-02-1.14286E-04-9.82002E-01-8.24239E-05-4.31965E-06
 -1       734-4.08768E-02 1.85517E+01 8.75331E-05-9.77077E-01-1.85308E-05-3.53588E-04
 -1       735 1.12181E-01 1.83986E+01 8.75331E-05-1.94345E+00-3.70108E-05-3.52134E-04
 -1       736 3.65415E-01 1.81454E+01 8.75332E-05-2.88853E+00-5.53893E-05-3.49714E-04
 -1       737 7.16048E-01 1.77947E+01 8.75331E-05-3.80196E+00-7.36161E-05-3.46336E-04
 -1       738 1.16024E+00 1.73505E+01 8.75331E-05-4.67374E+00-9.16410E-05-3.42009E-04
 -1       739 1.69313E+00 1.68177E+01 8.75331E-05-5.49431E+00-1.09415E-04-3.36744E-04
 -1       740 2.30886E+00 1.62019E+01 8.75333E-05-6.25468E+00-1.26889E-04-3.30556E-04
 -1       741 3.00071E+00 1.55101E+01 8.75332E-05-6.94653E+00-1.44015E-04-3.23462E-04
 -1       742 3.76108E+00 1.47497E+01 8.75330E-05-7.56226E+00-1.60746E-04-3.15482E-04
 -1       743 4.58165E+00 1.39291E+01 8.75330E-05-8.09515E+00-1.77037E-04-3.06637E-04
 -1       744 5.45343E+00 1.30573E+01 8.75330E-05-8.53934E+00-1.92842E-04-2.96951E-04
 -1       745 6.36686E+00 1.21439E+01 8.75332E-05-8.88997E+00-2.08119E-04-2.86452E-04
 -1       746 7.31194E+00 1.11988E+01 8.75335E-05-9.14321E+00-2.22826E-04-2.75167E-04
 -1       747 8.27831E+00 1.02325E+01 8.75333E-05-9.29627E+00-2.36922E-04-2.63128E-04
 -1       748 9.25539E+00 9.25539E+00 8.75325E-05-9.34747E+00-2.50368E-04-2.50368E-04
 -1       749 1.02325E+01 8.27831E+00 8.75319E-05-9.29627E+00-2.63128E-04-2.36922E-04
 -1       750 1.11988E+01 7.31194E+00 8.75317E-05-9.14321E+00-2.75167E-04-2.22826E-04
 -1       751 1.21439E+01 6.36686E+00 8.75318E-05-8.88997E+00-2.86452E-04-2.08119E-04
 -1       752 1.30573E+01 5.45343E+00 8.75319E-05-8.53934E+00-2.96951E-04-1.92842E-04
 -1       753 1.39291E+01 4.58165E+00 8.75319E-05-8.09515E+00-3.06637E-04-1.77037E-04
 -1       754 1.47497E+01 3.76108E+00 8.75319E-05-7.56226E+00-3.15482E-04-1.60746E-04
 -1       755 1.55101E+01 3.00071E+00 8.75316E-05-6.94653E+00-3.23462E-04-1.44015E-04
 -1       756 1.62019E+01 2.30886E+00 8.75315E-05-6.25468E+00-3.30556E-04-1.26889E-04
 -1       757 1.68177E+01 1.69312E+00 8.75317E-05-5.49431E+00-3.36744E-04-1.09415E-04
 -1       758 1.73505E+01 1.16024E+00 8.75317E-05-4.67374E+00-3.42009E-04-9.16410E-05
 -1       759 1.77947E+01 7.16048E-01 8.75316E-05-3.80196E+00-3.46336E-04-7.36161E-05
 -1       760 1.81454E+01 3.65415E-01 8.75316E-05-2.88853E+00-3.49714E-04-5.53893E-05
 -1       761 1.83986E+01 1.12181E-01 8.75317E-05-1.94345E+00-3.52134E-04-3.70108E-05
 -1       762 1.85517E+01-4.08769E-02 8.75318E-05-9.77077E-01-3.53588E-04-1.85308E-05
 -1       763 5.74777E-03 1.85053E+01 6.57185E-04-9.72191E-01-5.89145E-05-1.12416E-03
 -1       764 1.58041E-01 1.83530E+01 6.57185E-04-1.93373E+00-1.17667E-04-1.11953E-03
 -1       765 4.10008E-01 1.81011E+01 6.57185E-04-2.87408E+00-1.76098E-04-1.11184E-03
 -1       766 7.58888E-01 1.77522E+01 6.57185E-04-3.78295E+00-2.34046E-04-1.10110E-03
 -1       767 1.20086E+00 1.73102E+01 6.57185E-04-4.65037E+00-2.91352E-04-1.08734E-03
 -1       768 1.73108E+00 1.67800E+01 6.57185E-04-5.46683E+00-3.47860E-04-1.07060E-03
 -1       769 2.34374E+00 1.61673E+01 6.57186E-04-6.22340E+00-4.03414E-04-1.05093E-03
 -1       770 3.03212E+00 1.54789E+01 6.57185E-04-6.91179E+00-4.57863E-04-1.02838E-03
 -1       771 3.78870E+00 1.47224E+01 6.57185E-04-7.52445E+00-5.11056E-04-1.00300E-03
 -1       772 4.60516E+00 1.39059E+01 6.57185E-04-8.05467E+00-5.62849E-04-9.74883E-04
 -1       773 5.47258E+00 1.30385E+01 6.57185E-04-8.49664E+00-6.13099E-04-9.44090E-04
 -1       774 6.38144E+00 1.21296E+01 6.57186E-04-8.84552E+00-6.61669E-04-9.10709E-04
 -1       775 7.32180E+00 1.11893E+01 6.57186E-04-9.09749E+00-7.08425E-04-8.74831E-04
 -1       776 8.28334E+00 1.02277E+01 6.57186E-04-9.24978E+00-7.53239E-04-8.36556E-04
 -1       777 9.25553E+00 9.25553E+00 6.57185E-04-9.30073E+00-7.95989E-04-7.95989E-04
 -1       778 1.02277E+01 8.28334E+00 6.57184E-04-9.24978E+00-8.36556E-04-7.53239E-04
 -1       779 1.11893E+01 7.32180E+00 6.57184E-04-9.09749E+00-8.74832E-04-7.08425E-04
 -1       780 1.21296E+01 6.38144E+00 6.57184E-04-8.84552E+00-9.10709E-04-6.61669E-04
 -1       781 1.30385E+01 5.47258E+00 6.57184E-04-8.49664E+00-9.44090E-04-6.13099E-04
 -1       782 1.39059E+01 4.60516E+00 6.57184E-04-8.05467E+00-9.74883E-04-5.62849E-04
 -1       783 1.47224E+01 3.78870E+00 6.57184E-04-7.52445E+00-1.00300E-03-5.11056E-04
 -1       784 1.54789E+01 3.03212E+00 6.57184E-04-6.91179E+00-1.02838E-03-4.57863E-04
 -1       785 1.61673E+01 2.34374E+00 6.57184E-04-6.22340E+00-1.05093E-03-4.03414E-04
 -1       786 1.67800E+01 1.73108E+00 6.57184E-04-5.46683E+00-1.07060E-03-3.47860E-04
 -1       787 1.73102E+01 1.20086E+00 6.57184E-04-4.65037E+00-1.08734E-03-2.91352E-04
 -1       788 1.77522E+01 7.58888E-01 6.57184E-04-3.78295E+00-1.10110E-03-2.34046E-04
 -1       789 1.81011E+01 4.10008E-01 6.57184E-04-2.87408E+00-1.11184E-03-1.76098E-04
 -1       790 1.83530E+01 1.58041E-01 6.57184E-04-1.93373E+00-1.11953E-03-1.17667E-04
 -1       791 1.85053E+01 5.74776E-03 6.57184E-04-9.72191E-01-1.12416E-03-5.89145E-05
 -1       792-9.44266E-01 1.94553E+01-1.35492E-03-2.67082E-01-1.98699E-05 1.33283E-05
 -1       793-9.43979E-01 1.94555E+01-1.09891E-03-2.67081E-01-1.08097E-05-4.45245E-05
 -1       794-9.44005E-01 1.94556E+01-9.59865E-04-2.67082E-01-7.66751E-06-1.34128E-05
 -1       795-9.43984E-01 1.94556E+01-9.16523E-04-2.67082E-01-4.53398E-06-2.40689E-06
 -1       796-9.43984E-01 1.94556E+01-9.10495E-04-2.67082E-01-1.51880E-06-4.51394E-07
 -1       797-9.43984E-01 1.94556E+01-9.10495E-04-2.67082E-01 1.51879E-06 4.51393E-07
 -1       798-9.43984E-01 1.94556E+01-9.16523E-04-2.67082E-01 4.53397E-06 2.40689E-06
 -1       799-9.44005E-01 1.94556E+01-9.59865E-04-2.67082E-01 7.66750E-06 1.34128E-05
 -1       800-9.43979E-01 1.94555E+01-1.09891E-03-2.67081E-01 1.08096E-05 4.45245E-05
 -1       801-9.44266E-01 1.94553E+01-1.35492E-03-2.67082E-01 1.98699E-05-1.33283E-05
 -1       802-8.91089E-01 1.94021E+01-9.08388E-04-2.65689E-01-2.37033E-05-1.65973E-04
 -1       803-8.90629E-01 1.94023E+01-8.37171E-04-2.65685E-01-1.20002E-05-7.39943E-05
 -1       804-8.90671E-01 1.94023E+01-8.61048E-04-2.65686E-01-7.76985E-06-2.19870E-05
 -1       805-8.90653E-01 1.94023E+01-8.22856E-04-2.65686E-01-4.60283E-06-4.90504E-06
 -1       806-8.90650E-01 1.94023E+01-8.18484E-04-2.65686E-01-1.51945E-06-6.33988E-07
 -1       807-8.90650E-01 1.94023E+01-8.18484E-04-2.65686E-01 1.51944E-06 6.33987E-07
 -1       808-8.90653E-01 1.94023E+01-8.22856E-04-2.65686E-01 4.60282E-06 4.90504E-06
 -1       809-8.90671E-01 1.94023E+01-8.61048E-04-2.65686E-01 7.76984E-06 2.19870E-05
 -1       810-8.90629E-01 1.94023E+01-8.37171E-04-2.65685E-01 1.20002E-05 7.39943E-05
 -1       811-8.91089E-01 1.94021E+01-9.08388E-04-2.65689E-01 2.37033E-05 1.65973E-04
 -1       812-8.38132E-01 1.93493E+01-6.25678E-04-2.64304E-01-2.10244E-05-9.98049E-05
 -1       813-8.37785E-01 1.93494E+01-6.43325E-04-2.64301E-01-1.30697E-05-9.31193E-05
 -1       814-8.37743E-01 1.93494E+01-7.31573E-04-2.64300E-01-7.89049E-06-2.52777E-05
 -1       815-8.37740E-01 1.93494E+01-7.29928E-04-2.64300E-01-4.64174E-06-6.56656E-06
 -1       816-8.37734E-01 1.93494E+01-7.25294E-04-2.64300E-01-1.53224E-06-9.79770E-07
 -1       817-8.37734E-01 1.93494E+01-7.25294E-04-2.64300E-01 1.53223E-06 9.79769E-07
 -1       818-8.37740E-01 1.93494E+01-7.29928E-04-2.64300E-01 4.64173E-06 6.56656E-06
 -1       819-8.37743E-01 1.93494E+01-7.31573E-04-2.64300E-01 7.89047E-06 2.52777E-05
 -1       820-8.37785E-01 1.93494E+01-6.43325E-04-2.64301E-01 1.30697E-05 9.31193E-05
 -1       821-8.38132E-01 1.93493E+01-6.25678E-04-2.64304E-01 2.10244E-05 9.98049E-05
 -1       822-7.85536E-01 1.92969E+01-4.38958E-04-2.62929E-01-1.78338E-05-1.54367E-05
 -1       823-7.85335E-01 1.92969E+01-4.95820E-04-2.62927E-01-1.29359E-05-6.85680E-05
 -1       824-7.85245E-01 1.92969E+01-6.04336E-04-2.62926E-01-8.08712E-06-2.66085E-05
 -1       825-7.85236E-01 1.92969E+01-6.31863E-04-2.62926E-01-4.65383E-06-6.44605E-06
 -1       826-7.85231E-01 1.92969E+01-6.32125E-04-2.62926E-01-1.54539E-06-1.32449E-06
 -1       827-7.85231E-01 1.92969E+01-6.32125E-04-2.62926E-01 1.54538E-06 1.32449E-06
 -1       828-7.85236E-01 1.92969E+01-6.31863E-04-2.62926E-01 4.65382E-06 6.44605E-06
 -1       829-7.85245E-01 1.92969E+01-6.04336E-04-2.62926E-01 8.08711E-06 2.66085E-05
 -1       830-7.85335E-01 1.92969E+01-4.95820E-04-2.62927E-01 1.29359E-05 6.85680E-05
 -1       831-7.85536E-01 1.92969E+01-4.38958E-04-2.62929E-01 1.78338E-05 1.54367E-05
 -1       832-7.33350E-01 1.92448E+01-3.12887E-04-2.61565E-01-1.51576E-05 5.12216E-05
 -1       833-7.33261E-01 1.92449E+01-3.81704E-04-2.61564E-01-1.21922E-05-2.54275E-05
 -1       834-7.33161E-01 1.92449E+01-4.88482E-04-2.61563E-01-8.13410E-06-1.98698E-05
 -1       835-7.33141E-01 1.92449E+01-5.31952E-04-2.61562E-01-4.68046E-06-5.79583E-06
 -1       836-7.33136E-01 1.92449E+01-5.38432E-04-2.61562E-01-1.54951E-06-1.26242E-06
 -1       837-7.33136E-01 1.92449E+01-5.38432E-04-2.61562E-01 1.54950E-06 1.26241E-06
 -1       838-7.33141E-01 1.92449E+01-5.31952E-04-2.61562E-01 4.68045E-06 5.79583E-06
 -1       839-7.33161E-01 1.92449E+01-4.88482E-04-2.61563E-01 8.13409E-06 1.98698E-05
 -1       840-7.33261E-01 1.92449E+01-3.81704E-04-2.61564E-01 1.21922E-05 2.54275E-05
 -1       841-7.33350E-01 1.92448E+01-3.12887E-04-2.61565E-01 1.51576E-05-5.12216E-05
 -1       842-6.81585E-01 1.91932E+01-2.25982E-04-2.60211E-01-1.30955E-05 9.86668E-05
 -1       843-6.81567E-01 1.91932E+01-2.91755E-04-2.60211E-01-1.12815E-05 1.93861E-05
 -1       844-6.81478E-01 1.91932E+01-3.85378E-04-2.60210E-01-8.02423E-06-6.85338E-06
 -1       845-6.81451E-01 1.91932E+01-4.33262E-04-2.60209E-01-4.69984E-06-4.07620E-06
 -1       846-6.81446E-01 1.91932E+01-4.44199E-04-2.60209E-01-1.55405E-06-1.08516E-06
 -1       847-6.81446E-01 1.91932E+01-4.44199E-04-2.60209E-01 1.55404E-06 1.08516E-06
 -1       848-6.81451E-01 1.91932E+01-4.33262E-04-2.60209E-01 4.69983E-06 4.07620E-06
 -1       849-6.81478E-01 1.91932E+01-3.85378E-04-2.60210E-01 8.02422E-06 6.85337E-06
 -1       850-6.81567E-01 1.91932E+01-2.91755E-04-2.60211E-01 1.12815E-05-1.93861E-05
 -1       851-6.81585E-01 1.91932E+01-2.25982E-04-2.60211E-01 1.30954E-05-9.86668E-05
 -1       852-6.30239E-01 1.91419E+01-1.64370E-04-2.58868E-01-1.15816E-05 1.30756E-04
 -1       853-6.30258E-01 1.91419E+01-2.19011E-04-2.58868E-01-1.04363E-05 5.78427E-05
 -1       854-6.30188E-01 1.91419E+01-2.93588E-04-2.58867E-01-7.82885E-06 8.37097E-06
 -1       855-6.30161E-01 1.91419E+01-3.37338E-04-2.58867E-01-4.69861E-06-1.30876E-06
 -1       856-6.30156E-01 1.91419E+01-3.49777E-04-2.58867E-01-1.55950E-06-8.35546E-07
 -1       857-6.30156E-01 1.91419E+01-3.49777E-04-2.58867E-01 1.55949E-06 8.35544E-07
 -1       858-6.30161E-01 1.91419E+01-3.37338E-04-2.58867E-01 4.69860E-06 1.30876E-06
 -1       859-6.30188E-01 1.91419E+01-2.93588E-04-2.58867E-01 7.82884E-06-8.37097E-06
 -1       860-6.30258E-01 1.91419E+01-2.19011E-04-2.58868E-01 1.04363E-05-5.78427E-05
 -1       861-6.30239E-01 1.91419E+01-1.64370E-04-2.58868E-01 1.15816E-05-1.30756E-04
 -1       862-5.79305E-01 1.90911E+01-1.18764E-04-2.57535E-01-1.05383E-05 1.51164E-04
 -1       863-5.79335E-01 1.90911E+01-1.58073E-04-2.57535E-01-9.76762E-06 8.66872E-05
 -1       864-5.79289E-01 1.90911E+01-2.10676E-04-2.57535E-01-7.62202E-06 2.22067E-05
 -1       865-5.79267E-01 1.90911E+01-2.44487E-04-2.57534E-01-4.67971E-06 1.86195E-06
 -1       866-5.79262E-01 1.90911E+01-2.55537E-04-2.57534E-01-1.56308E-06-4.97691E-07
 -1       867-5.79262E-01 1.90911E+01-2.55537E-04-2.57534E-01 1.56307E-06 4.97692E-07
 -1       868-5.79267E-01 1.90911E+01-2.44487E-04-2.57534E-01 4.67970E-06-1.86194E-06
 -1       869-5.79289E-01 1.90911E+01-2.10676E-04-2.57535E-01 7.62201E-06-2.22067E-05
 -1       870-5.79335E-01 1.90911E+01-1.58073E-04-2.57535E-01 9.76760E-06-8.66872E-05
 -1       871-5.79305E-01 1.90911E+01-1.18764E-04-2.57535E-01 1.05383E-05-1.51164E-04
 -1       872-5.28774E-01 1.90406E+01-8.26709E-05-2.56212E-01-9.90594E-06 1.62484E-04
 -1       873-5.28801E-01 1.90406E+01-1.04623E-04-2.56213E-01-9.32514E-06 1.04842E-04
 -1       874-5.28778E-01 1.90406E+01-1.33906E-04-2.56212E-01-7.45831E-06 3.21841E-05
 -1       875-5.28764E-01 1.90406E+01-1.54222E-04-2.56212E-01-4.65353E-06 4.62333E-06
 -1       876-5.28760E-01 1.90406E+01-1.61691E-04-2.56212E-01-1.56315E-06-1.14777E-07
 -1       877-5.28760E-01 1.90406E+01-1.61691E-04-2.56212E-01 1.56314E-06 1.14777E-07
 -1       878-5.28764E-01 1.90406E+01-1.54222E-04-2.56212E-01 4.65352E-06-4.62332E-06
 -1       879-5.28778E-01 1.90406E+01-1.33906E-04-2.56212E-01 7.45830E-06-3.21841E-05
 -1       880-5.28801E-01 1.90406E+01-1.04623E-04-2.56213E-01 9.32513E-06-1.04842E-04
 -1       881-5.28774E-01 1.90406E+01-8.26709E-05-2.56212E-01 9.90593E-06-1.62484E-04
 -1       882-4.78636E-01 1.89905E+01-5.12293E-05-2.54900E-01-9.64749E-06 1.66241E-04
 -1       883-4.78652E-01 1.89905E+01-5.50299E-05-2.54900E-01-9.12857E-06 1.12095E-04
 -1       884-4.78652E-01 1.89905E+01-6.05073E-05-2.54900E-01-7.36997E-06 3.69131E-05
 -1       885-4.78648E-01 1.89905E+01-6.56004E-05-2.54900E-01-4.62994E-06 6.33955E-06
 -1       886-4.78646E-01 1.89905E+01-6.82689E-05-2.54900E-01-1.55961E-06 2.36683E-07
 -1       887-4.78646E-01 1.89905E+01-6.82689E-05-2.54900E-01 1.55960E-06-2.36683E-07
 -1       888-4.78648E-01 1.89905E+01-6.56004E-05-2.54900E-01 4.62993E-06-6.33955E-06
 -1       889-4.78652E-01 1.89905E+01-6.05073E-05-2.54900E-01 7.36996E-06-3.69131E-05
 -1       890-4.78652E-01 1.89905E+01-5.50299E-05-2.54900E-01 9.12856E-06-1.12095E-04
 -1       891-4.78636E-01 1.89905E+01-5.12293E-05-2.54900E-01 9.64748E-06-1.66241E-04
 -1       892-4.28884E-01 1.89408E+01-2.03736E-05-2.53598E-01-9.74727E-06 1.63019E-04
 -1       893-4.28887E-01 1.89408E+01-6.02937E-06-2.53598E-01-9.18215E-06 1.08511E-04
 -1       894-4.28909E-01 1.89408E+01 1.22487E-05-2.53598E-01-7.36879E-06 3.59208E-05
 -1       895-4.28916E-01 1.89408E+01 2.25237E-05-2.53599E-01-4.61396E-06 6.72589E-06
 -1       896-4.28916E-01 1.89408E+01 2.48271E-05-2.53599E-01-1.55297E-06 5.02466E-07
 -1       897-4.28916E-01 1.89408E+01 2.48271E-05-2.53599E-01 1.55296E-06-5.02465E-07
 -1       898-4.28916E-01 1.89408E+01 2.25237E-05-2.53599E-01 4.61395E-06-6.72588E-06
 -1       899-4.28909E-01 1.89408E+01 1.22487E-05-2.53598E-01 7.36878E-06-3.59208E-05
 -1       900-4.28887E-01 1.89408E+01-6.02937E-06-2.53598E-01 9.18214E-06-1.08511E-04
 -1       901-4.28884E-01 1.89408E+01-2.03736E-05-2.53598E-01 9.74726E-06-1.63019E-04
 -1       902-3.79508E-01 1.88915E+01 1.38456E-05-2.52305E-01-1.02100E-05 1.52530E-04
 -1       903-3.79505E-01 1.88915E+01 4.55754E-05-2.52306E-01-9.47932E-06 9.42499E-05
 -1       904-3.79549E-01 1.88915E+01 8.70569E-05-2.52306E-01-7.44747E-06 2.95628E-05
 -1       905-3.79564E-01 1.88915E+01 1.11309E-04-2.52307E-01-4.60444E-06 5.89708E-06
 -1       906-3.79565E-01 1.88915E+01 1.17725E-04-2.52307E-01-1.54387E-06 6.76354E-07
 -1       907-3.79565E-01 1.88915E+01 1.17725E-04-2.52307E-01 1.54386E-06-6.76357E-07
 -1       908-3.79564E-01 1.88915E+01 1.11309E-04-2.52307E-01 4.60443E-06-5.89708E-06
 -1       909-3.79549E-01 1.88915E+01 8.70569E-05-2.52306E-01 7.44746E-06-2.95628E-05
 -1       910-3.79505E-01 1.88915E+01 4.55754E-05-2.52306E-01 9.47931E-06-9.42499E-05
 -1       911-3.79508E-01 1.88915E+01 1.38456E-05-2.52305E-01 1.02100E-05-1.52530E-04
 -1       912-3.30500E-01 1.88425E+01 5.59184E-05-2.51023E-01-1.10608E-05 1.33599E-04
 -1       913-3.30504E-01 1.88425E+01 1.03198E-04-2.51023E-01-9.99967E-06 6.96943E-05
 -1       914-3.30568E-01 1.88425E+01 1.66583E-04-2.51024E-01-7.57948E-06 1.90500E-05
 -1       915-3.30589E-01 1.88426E+01 2.01744E-04-2.51025E-01-4.59525E-06 4.31571E-06
 -1       916-3.30590E-01 1.88426E+01 2.10486E-04-2.51025E-01-1.53335E-06 7.81916E-07
 -1       917-3.30590E-01 1.88426E+01 2.10486E-04-2.51025E-01 1.53334E-06-7.81919E-07
 -1       918-3.30589E-01 1.88426E+01 2.01744E-04-2.51025E-01 4.59524E-06-4.31571E-06
 -1       919-3.30568E-01 1.88425E+01 1.66583E-04-2.51024E-01 7.57947E-06-1.90500E-05
 -1       920-3.30504E-01 1.88425E+01 1.03198E-04-2.51023E-01 9.99966E-06-6.96943E-05
 -1       921-3.30500E-01 1.88425E+01 5.59184E-05-2.51023E-01 1.10608E-05-1.33599E-04
 -1       922-2.81851E-01 1.87939E+01 1.11636E-04-2.49750E-01-1.23453E-05 1.04079E-04
 -1       923-2.81884E-01 1.87940E+01 1.70771E-04-2.49751E-01-1.06969E-05 3.59514E-05
 -1       924-2.81965E-01 1.87940E+01 2.53409E-04-2.49752E-01-7.71823E-06 6.55068E-06
 -1       925-2.81986E-01 1.87940E+01 2.94421E-04-2.49752E-01-4.57918E-06 2.62733E-06
 -1       926-2.81988E-01 1.87940E+01 3.03046E-04-2.49752E-01-1.52358E-06 8.24831E-07
 -1       927-2.81988E-01 1.87940E+01 3.03046E-04-2.49752E-01 1.52357E-06-8.24834E-07
 -1       928-2.81986E-01 1.87940E+01 2.94421E-04-2.49752E-01 4.57918E-06-2.62732E-06
 -1       929-2.81965E-01 1.87940E+01 2.53409E-04-2.49752E-01 7.71823E-06-6.55068E-06
 -1       930-2.81884E-01 1.87940E+01 1.70771E-04-2.49751E-01 1.06969E-05-3.59514E-05
 -1       931-2.81851E-01 1.87939E+01 1.11636E-04-2.49750E-01 1.23453E-05-1.04079E-04
 -1       932-2.33555E-01 1.87457E+01 1.89115E-04-2.48487E-01-1.41252E-05 6.08760E-05
 -1       933-2.33646E-01 1.87458E+01 2.53095E-04-2.48488E-01-1.14723E-05-4.02330E-06
 -1       934-2.33736E-01 1.87458E+01 3.49810E-04-2.48489E-01-7.80027E-06-4.79990E-06
 -1       935-2.33752E-01 1.87458E+01 3.89243E-04-2.48490E-01-4.55504E-06 1.34996E-06
 -1       936-2.33754E-01 1.87458E+01 3.95228E-04-2.48490E-01-1.51752E-06 7.70265E-07
 -1       937-2.33754E-01 1.87458E+01 3.95228E-04-2.48490E-01 1.51751E-06-7.70271E-07
 -1       938-2.33752E-01 1.87458E+01 3.89243E-04-2.48490E-01 4.55503E-06-1.34996E-06
 -1       939-2.33736E-01 1.87458E+01 3.49810E-04-2.48489E-01 7.80026E-06 4.79990E-06
 -1       940-2.33646E-01 1.87458E+01 2.53095E-04-2.48488E-01 1.14723E-05 4.02330E-06
 -1       941-2.33555E-01 1.87457E+01 1.89115E-04-2.48487E-01 1.41252E-05-6.08760E-05
 -1       942-1.85610E-01 1.86979E+01 3.00329E-04-2.47233E-01-1.64517E-05 7.43683E-07
 -1       943-1.85795E-01 1.86979E+01 3.56251E-04-2.47235E-01-1.21235E-05-4.32049E-05
 -1       944-1.85875E-01 1.86979E+01 4.57151E-04-2.47237E-01-7.76502E-06-1.14924E-05
 -1       945-1.85882E-01 1.86979E+01 4.85040E-04-2.47237E-01-4.53528E-06 4.75460E-07
 -1       946-1.85884E-01 1.86979E+01 4.86892E-04-2.47237E-01-1.51500E-06 6.44659E-07
 -1       947-1.85884E-01 1.86979E+01 4.86892E-04-2.47237E-01 1.51500E-06-6.44665E-07
 -1       948-1.85882E-01 1.86979E+01 4.85040E-04-2.47237E-01 4.53527E-06-4.75455E-07
 -1       949-1.85875E-01 1.86979E+01 4.57151E-04-2.47237E-01 7.76501E-06 1.14924E-05
 -1       950-1.85795E-01 1.86979E+01 3.56251E-04-2.47235E-01 1.21234E-05 4.32049E-05
 -1       951-1.85610E-01 1.86979E+01 3.00329E-04-2.47233E-01 1.64517E-05-7.43682E-07
 -1       952-1.38026E-01 1.86505E+01 4.63700E-04-2.45989E-01-1.92328E-05-7.49145E-05
 -1       953-1.38333E-01 1.86504E+01 4.88192E-04-2.45992E-01-1.22691E-05-6.70111E-05
 -1       954-1.38370E-01 1.86505E+01 5.74351E-04-2.45993E-01-7.62043E-06-1.20348E-05
 -1       955-1.38372E-01 1.86505E+01 5.79349E-04-2.45993E-01-4.53907E-06-4.72815E-07
 -1       956-1.38377E-01 1.86505E+01 5.78227E-04-2.45993E-01-1.50795E-06 6.98928E-07
 -1       957-1.38377E-01 1.86505E+01 5.78227E-04-2.45993E-01 1.50794E-06-6.98932E-07
 -1       958-1.38372E-01 1.86505E+01 5.79349E-04-2.45993E-01 4.53906E-06 4.72821E-07
 -1       959-1.38370E-01 1.86505E+01 5.74351E-04-2.45993E-01 7.62043E-06 1.20348E-05
 -1       960-1.38333E-01 1.86504E+01 4.88192E-04-2.45992E-01 1.22691E-05 6.70111E-05
 -1       961-1.38026E-01 1.86505E+01 4.63700E-04-2.45989E-01 1.92328E-05 7.49145E-05
 -1       962-9.08436E-02 1.86034E+01 7.09414E-04-2.44755E-01-2.15793E-05-1.35082E-04
 -1       963-9.12447E-02 1.86033E+01 6.59973E-04-2.44759E-01-1.14038E-05-5.40405E-05
 -1       964-9.12094E-02 1.86033E+01 6.93630E-04-2.44759E-01-7.56272E-06-1.17741E-05
 -1       965-9.12243E-02 1.86033E+01 6.69546E-04-2.44759E-01-4.53044E-06-4.03945E-07
 -1       966-9.12261E-02 1.86033E+01 6.69877E-04-2.44759E-01-1.50434E-06 5.91025E-07
 -1       967-9.12261E-02 1.86033E+01 6.69877E-04-2.44759E-01 1.50433E-06-5.91029E-07
 -1       968-9.12243E-02 1.86033E+01 6.69546E-04-2.44759E-01 4.53043E-06 4.03949E-07
 -1       969-9.12094E-02 1.86033E+01 6.93630E-04-2.44759E-01 7.56271E-06 1.17741E-05
 -1       970-9.12447E-02 1.86033E+01 6.59973E-04-2.44759E-01 1.14038E-05 5.40405E-05
 -1       971-9.08436E-02 1.86034E+01 7.09414E-04-2.44755E-01 2.15793E-05 1.35082E-04
 -1       972-4.41841E-02 1.85567E+01 1.09535E-03-2.43533E-01-1.83377E-05 1.53267E-05
 -1       973-4.44337E-02 1.85566E+01 8.89829E-04-2.43534E-01-1.04699E-05-3.34302E-05
 -1       974-4.44122E-02 1.85566E+01 7.86892E-04-2.43534E-01-7.54225E-06-7.89954E-06
 -1       975-4.44297E-02 1.85566E+01 7.60929E-04-2.43534E-01-4.50613E-06-1.03572E-07
 -1       976-4.44296E-02 1.85566E+01 7.60978E-04-2.43534E-01-1.51385E-06 2.03186E-07
 -1       977-4.44296E-02 1.85566E+01 7.60978E-04-2.43534E-01 1.51384E-06-2.03188E-07
 -1       978-4.44297E-02 1.85566E+01 7.60929E-04-2.43534E-01 4.50612E-06 1.03573E-07
 -1       979-4.44122E-02 1.85566E+01 7.86892E-04-2.43534E-01 7.54224E-06 7.89954E-06
 -1       980-4.44337E-02 1.85566E+01 8.89829E-04-2.43534E-01 1.04699E-05 3.34302E-05
 -1       981-4.41841E-02 1.85567E+01 1.09535E-03-2.43533E-01 1.83377E-05-1.53267E-05
 -1       982 1.27365E-02 1.84425E+01-1.52320E-02-9.68525E-01 1.09410E-05 2.08767E-04
 -1       983 1.23240E-02 1.84421E+01-1.63429E-02-9.68523E-01-1.10664E-06-2.11159E-05
 -1       984 1.23209E-02 1.84421E+01-1.64706E-02-9.68522E-01-1.91069E-07-3.64579E-06
 -1       985 1.23103E-02 1.84421E+01-1.64909E-02-9.68522E-01-6.34561E-09-1.21092E-07
 -1       986 1.23103E-02 1.84421E+01-1.64900E-02-9.68522E-01-6.15823E-09-1.17541E-07
 -1       987 1.23103E-02 1.84421E+01-1.64900E-02-9.68522E-01 6.16301E-09 1.17541E-07
 -1       988 1.23103E-02 1.84421E+01-1.64909E-02-9.68522E-01 6.35141E-09 1.21094E-07
 -1       989 1.23209E-02 1.84421E+01-1.64706E-02-9.68522E-01 1.91074E-07 3.64579E-06
 -1       990 1.23240E-02 1.84421E+01-1.63429E-02-9.68523E-01 1.10664E-06 2.11159E-05
 -1       991 1.27365E-02 1.84425E+01-1.52320E-02-9.68525E-01-1.09410E-05-2.08767E-04
 -1       992 1.64455E-01 1.82908E+01-1.52320E-02-1.92644E+00 2.18521E-05 2.07908E-04
 -1       993 1.64042E-01 1.82904E+01-1.63429E-02-1.92643E+00-2.21024E-06-2.10291E-05
 -1       994 1.64039E-01 1.82903E+01-1.64706E-02-1.92643E+00-3.81607E-07-3.63080E-06
 -1       995 1.64028E-01 1.82903E+01-1.64909E-02-1.92643E+00-1.26712E-08-1.20596E-07
 -1       996 1.64028E-01 1.82903E+01-1.64900E-02-1.92643E+00-1.23018E-08-1.17059E-07
 -1       997 1.64028E-01 1.82903E+01-1.64900E-02-1.92643E+00 1.23030E-08 1.17057E-07
 -1       998 1.64028E-01 1.82903E+01-1.64909E-02-1.92643E+00 1.26724E-08 1.20595E-07
 -1       999 1.64039E-01 1.82903E+01-1.64706E-02-1.92643E+00 3.81609E-07 3.63080E-06
 -1      1000 1.64042E-01 1.82904E+01-1.63429E-02-1.92643E+00 2.21024E-06 2.10291E-05
 -1      1001 1.64455E-01 1.82908E+01-1.52320E-02-1.92644E+00-2.18521E-05-2.07908E-04
 -1      1002 4.15472E-01 1.80398E+01-1.52320E-02-2.86325E+00 3.27032E-05 2.06480E-04
 -1      1003 4.15059E-01 1.80394E+01-1.63429E-02-2.86324E+00-3.30779E-06-2.08846E-05
 -1      1004 4.15055E-01 1.80393E+01-1.64706E-02-2.86324E+00-5.71112E-07-3.60585E-06
 -1      1005 4.15044E-01 1.80393E+01-1.64909E-02-2.86324E+00-1.89727E-08-1.19765E-07
 -1      1006 4.15044E-01 1.80393E+01-1.64900E-02-2.86324E+00-1.84180E-08-1.16253E-07
 -1      1007 4.15044E-01 1.80393E+01-1.64900E-02-2.86324E+00 1.84073E-08 1.16257E-07
 -1      1008 4.15044E-01 1.80393E+01-1.64909E-02-2.86324E+00 1.89628E-08 1.19767E-07
 -1      1009 4.15055E-01 1.80393E+01-1.64706E-02-2.86324E+00 5.71103E-07 3.60585E-06
 -1      1010 4.15059E-01 1.80394E+01-1.63429E-02-2.86324E+00 3.30778E-06 2.08846E-05
 -1      1011 4.15472E-01 1.80398E+01-1.52320E-02-2.86325E+00-3.27032E-05-2.06480E-04
 -1      1012 7.63036E-01 1.76922E+01-1.52320E-02-3.76868E+00 4.34647E-05 2.04485E-04
 -1      1013 7.62623E-01 1.76918E+01-1.63429E-02-3.76868E+00-4.39627E-06-2.06828E-05
 -1      1014 7.62618E-01 1.76918E+01-1.64706E-02-3.76867E+00-7.59047E-07-3.57102E-06
 -1      1015 7.62608E-01 1.76918E+01-1.64909E-02-3.76867E+00-2.52159E-08-1.18607E-07
 -1      1016 7.62608E-01 1.76918E+01-1.64900E-02-3.76867E+00-2.44773E-08-1.15129E-07
 -1      1017 7.62608E-01 1.76918E+01-1.64900E-02-3.76867E+00 2.44657E-08 1.15132E-07
 -1      1018 7.62608E-01 1.76918E+01-1.64909E-02-3.76867E+00 2.52056E-08 1.18611E-07
 -1      1019 7.62618E-01 1.76918E+01-1.64706E-02-3.76867E+00 7.59036E-07 3.57102E-06
 -1      1020 7.62623E-01 1.76918E+01-1.63429E-02-3.76868E+00 4.39626E-06 2.06828E-05
 -1      1021 7.63036E-01 1.76922E+01-1.52320E-02-3.76868E+00-4.34647E-05-2.04485E-04
 -1      1022 1.20334E+00 1.72519E+01-1.52320E-02-4.63283E+00 5.41071E-05 2.01930E-04
 -1      1023 1.20293E+00 1.72515E+01-1.63429E-02-4.63282E+00-5.47270E-06-2.04244E-05
 -1      1024 1.20292E+00 1.72515E+01-1.64706E-02-4.63281E+00-9.44900E-07-3.52640E-06
 -1      1025 1.20291E+00 1.72515E+01-1.64909E-02-4.63281E+00-3.13888E-08-1.17125E-07
 -1      1026 1.20291E+00 1.72515E+01-1.64900E-02-4.63282E+00-3.04700E-08-1.13691E-07
 -1      1027 1.20291E+00 1.72515E+01-1.64900E-02-4.63282E+00 3.04564E-08 1.13694E-07
 -1      1028 1.20291E+00 1.72515E+01-1.64909E-02-4.63281E+00 3.13754E-08 1.17128E-07
 -1      1029 1.20292E+00 1.72515E+01-1.64706E-02-4.63281E+00 9.44887E-07 3.52640E-06
 -1      1030 1.20293E+00 1.72515E+01-1.63429E-02-4.63282E+00 5.47269E-06 2.04244E-05
 -1      1031 1.20334E+00 1.72519E+01-1.52320E-02-4.63283E+00-5.41071E-05-2.01930E-04
 -1      1032 1.73156E+00 1.67237E+01-1.52320E-02-5.44622E+00 6.46011E-05 1.98822E-04
 -1      1033 1.73115E+00 1.67233E+01-1.63429E-02-5.44621E+00-6.53414E-06-2.01100E-05
 -1      1034 1.73114E+00 1.67232E+01-1.64706E-02-5.44620E+00-1.12817E-06-3.47211E-06
 -1      1035 1.73113E+00 1.67232E+01-1.64909E-02-5.44620E+00-3.74845E-08-1.15320E-07
 -1      1036 1.73113E+00 1.67232E+01-1.64900E-02-5.44620E+00-3.63870E-08-1.11937E-07
 -1      1037 1.73113E+00 1.67232E+01-1.64900E-02-5.44620E+00 3.63566E-08 1.11948E-07
 -1      1038 1.73113E+00 1.67232E+01-1.64909E-02-5.44620E+00 3.74552E-08 1.15330E-07
 -1      1039 1.73114E+00 1.67232E+01-1.64706E-02-5.44620E+00 1.12814E-06 3.47212E-06
 -1      1040 1.73115E+00 1.67233E+01-1.63429E-02-5.44621E+00 6.53412E-06 2.01100E-05
 -1      1041 1.73156E+00 1.67237E+01-1.52320E-02-5.44622E+00-6.46011E-05-1.98822E-04
 -1      1042 2.34191E+00 1.61134E+01-1.52320E-02-6.19994E+00 7.49181E-05 1.95168E-04
 -1      1043 2.34149E+00 1.61129E+01-1.63429E-02-6.19992E+00-7.57767E-06-1.97405E-05
 -1      1044 2.34149E+00 1.61129E+01-1.64706E-02-6.19991E+00-1.30834E-06-3.40831E-06
 -1      1045 2.34148E+00 1.61129E+01-1.64909E-02-6.19992E+00-4.34718E-08-1.13199E-07
 -1      1046 2.34148E+00 1.61129E+01-1.64900E-02-6.19992E+00-4.22007E-08-1.09879E-07
 -1      1047 2.34148E+00 1.61129E+01-1.64900E-02-6.19992E+00 4.21595E-08 1.09891E-07
 -1      1048 2.34148E+00 1.61129E+01-1.64909E-02-6.19992E+00 4.34336E-08 1.13213E-07
 -1      1049 2.34149E+00 1.61129E+01-1.64706E-02-6.19991E+00 1.30831E-06 3.40832E-06
 -1      1050 2.34149E+00 1.61129E+01-1.63429E-02-6.19992E+00 7.57763E-06 1.97405E-05
 -1      1051 2.34191E+00 1.61134E+01-1.52320E-02-6.19994E+00-7.49181E-05-1.95168E-04
 -1      1052 3.02770E+00 1.54276E+01-1.52320E-02-6.88573E+00 8.50298E-05 1.90980E-04
 -1      1053 3.02728E+00 1.54271E+01-1.63429E-02-6.88571E+00-8.60043E-06-1.93168E-05
 -1      1054 3.02728E+00 1.54271E+01-1.64706E-02-6.88570E+00-1.48494E-06-3.33516E-06
 -1      1055 3.02727E+00 1.54271E+01-1.64909E-02-6.88570E+00-4.93496E-08-1.10763E-07
 -1      1056 3.02727E+00 1.54271E+01-1.64900E-02-6.88571E+00-4.79005E-08-1.07515E-07
 -1      1057 3.02727E+00 1.54271E+01-1.64900E-02-6.88571E+00 4.78496E-08 1.07538E-07
 -1      1058 3.02727E+00 1.54271E+01-1.64909E-02-6.88570E+00 4.92985E-08 1.10785E-07
 -1      1059 3.02728E+00 1.54271E+01-1.64706E-02-6.88570E+00 1.48490E-06 3.33518E-06
 -1      1060 3.02728E+00 1.54271E+01-1.63429E-02-6.88571E+00 8.60039E-06 1.93168E-05
 -1      1061 3.02770E+00 1.54276E+01-1.52320E-02-6.88573E+00-8.50298E-05-1.90980E-04
 -1      1062 3.78142E+00 1.46739E+01-1.52320E-02-7.49607E+00 9.49084E-05 1.86268E-04
 -1      1063 3.78100E+00 1.46734E+01-1.63429E-02-7.49606E+00-9.59960E-06-1.88402E-05
 -1      1064 3.78099E+00 1.46734E+01-1.64706E-02-7.49605E+00-1.65746E-06-3.25287E-06
 -1      1065 3.78098E+00 1.46734E+01-1.64909E-02-7.49605E+00-5.50825E-08-1.08025E-07
 -1      1066 3.78098E+00 1.46734E+01-1.64900E-02-7.49605E+00-5.34688E-08-1.04858E-07
 -1      1067 3.78098E+00 1.46734E+01-1.64900E-02-7.49605E+00 5.34043E-08 1.04890E-07
 -1      1068 3.78098E+00 1.46734E+01-1.64909E-02-7.49605E+00 5.50214E-08 1.08057E-07
 -1      1069 3.78099E+00 1.46734E+01-1.64706E-02-7.49605E+00 1.65740E-06 3.25290E-06
 -1      1070 3.78100E+00 1.46734E+01-1.63429E-02-7.49606E+00 9.59955E-06 1.88403E-05
 -1      1071 3.78142E+00 1.46739E+01-1.52320E-02-7.49607E+00-9.49084E-05-1.86268E-04
 -1      1072 4.59481E+00 1.38605E+01-1.52320E-02-8.02429E+00 1.04527E-04 1.81046E-04
 -1      1073 4.59439E+00 1.38600E+01-1.63429E-02-8.02428E+00-1.05725E-05-1.83120E-05
 -1      1074 4.59438E+00 1.38600E+01-1.64706E-02-8.02427E+00-1.82543E-06-3.16166E-06
 -1      1075 4.59437E+00 1.38600E+01-1.64909E-02-8.02427E+00-6.06658E-08-1.04992E-07
 -1      1076 4.59437E+00 1.38600E+01-1.64900E-02-8.02427E+00-5.88877E-08-1.01910E-07
 -1      1077 4.59437E+00 1.38600E+01-1.64900E-02-8.02427E+00 5.88164E-08 1.01955E-07
 -1      1078 4.59437E+00 1.38600E+01-1.64909E-02-8.02427E+00 6.05957E-08 1.05033E-07
 -1      1079 4.59438E+00 1.38600E+01-1.64706E-02-8.02427E+00 1.82537E-06 3.16170E-06
 -1      1080 4.59439E+00 1.38600E+01-1.63429E-02-8.02428E+00 1.05724E-05 1.83120E-05
 -1      1081 4.59481E+00 1.38605E+01-1.52320E-02-8.02429E+00-1.04527E-04-1.81046E-04
 -1      1082 5.45895E+00 1.29963E+01-1.52320E-02-8.46460E+00 1.13859E-04 1.75327E-04
 -1      1083 5.45853E+00 1.29959E+01-1.63429E-02-8.46458E+00-1.15164E-05-1.77336E-05
 -1      1084 5.45852E+00 1.29959E+01-1.64706E-02-8.46457E+00-1.98841E-06-3.06178E-06
 -1      1085 5.45851E+00 1.29959E+01-1.64909E-02-8.46457E+00-6.60866E-08-1.01666E-07
 -1      1086 5.45851E+00 1.29959E+01-1.64900E-02-8.46457E+00-6.41464E-08-9.86879E-08
 -1      1087 5.45851E+00 1.29959E+01-1.64900E-02-8.46457E+00 6.40724E-08 9.87353E-08
 -1      1088 5.45851E+00 1.29959E+01-1.64909E-02-8.46457E+00 6.60162E-08 1.01713E-07
 -1      1089 5.45852E+00 1.29959E+01-1.64706E-02-8.46457E+00 1.98835E-06 3.06183E-06
 -1      1090 5.45853E+00 1.29959E+01-1.63429E-02-8.46458E+00 1.15163E-05 1.77336E-05
 -1      1091 5.45895E+00 1.29963E+01-1.52320E-02-8.46460E+00-1.13859E-04-1.75327E-04
 -1      1092 6.36439E+00 1.20909E+01-1.52320E-02-8.81216E+00 1.22879E-04 1.69128E-04
 -1      1093 6.36397E+00 1.20904E+01-1.63429E-02-8.81215E+00-1.24287E-05-1.71066E-05
 -1      1094 6.36395E+00 1.20904E+01-1.64706E-02-8.81213E+00-2.14592E-06-2.95353E-06
 -1      1095 6.36395E+00 1.20904E+01-1.64909E-02-8.81214E+00-7.13140E-08-9.80734E-08
 -1      1096 6.36395E+00 1.20904E+01-1.64900E-02-8.81214E+00-6.92235E-08-9.51948E-08
 -1      1097 6.36395E+00 1.20904E+01-1.64900E-02-8.81214E+00 6.91468E-08 9.52504E-08
 -1      1098 6.36395E+00 1.20904E+01-1.64909E-02-8.81214E+00 7.12412E-08 9.81237E-08
 -1      1099 6.36395E+00 1.20904E+01-1.64706E-02-8.81213E+00 2.14585E-06 2.95358E-06
 -1      1100 6.36397E+00 1.20904E+01-1.63429E-02-8.81215E+00 1.24286E-05 1.71066E-05
 -1      1101 6.36439E+00 1.20909E+01-1.52320E-02-8.81216E+00-1.22879E-04-1.69128E-04
 -1      1102 7.30120E+00 1.11541E+01-1.52320E-02-9.06318E+00 1.31562E-04 1.62465E-04
 -1      1103 7.30077E+00 1.11536E+01-1.63429E-02-9.06316E+00-1.33069E-05-1.64327E-05
 -1      1104 7.30076E+00 1.11536E+01-1.64705E-02-9.06315E+00-2.29755E-06-2.83718E-06
 -1      1105 7.30075E+00 1.11536E+01-1.64909E-02-9.06315E+00-7.63417E-08-9.42099E-08
 -1      1106 7.30075E+00 1.11536E+01-1.64900E-02-9.06316E+00-7.41089E-08-9.14421E-08
 -1      1107 7.30075E+00 1.11536E+01-1.64900E-02-9.06316E+00 7.40305E-08 9.15053E-08
 -1      1108 7.30075E+00 1.11536E+01-1.64909E-02-9.06315E+00 7.62671E-08 9.42729E-08
 -1      1109 7.30076E+00 1.11536E+01-1.64705E-02-9.06315E+00 2.29748E-06 2.83724E-06
 -1      1110 7.30077E+00 1.11536E+01-1.63429E-02-9.06316E+00 1.33069E-05 1.64327E-05
 -1      1111 7.30120E+00 1.11541E+01-1.52320E-02-9.06318E+00-1.31562E-04-1.62465E-04
 -1      1112 8.25911E+00 1.01962E+01-1.52320E-02-9.21490E+00 1.39884E-04 1.55357E-04
 -1      1113 8.25868E+00 1.01957E+01-1.63429E-02-9.21488E+00-1.41487E-05-1.57137E-05
 -1      1114 8.25867E+00 1.01957E+01-1.64706E-02-9.21487E+00-2.44290E-06-2.71303E-06
 -1      1115 8.25866E+00 1.01957E+01-1.64909E-02-9.21487E+00-8.11773E-08-9.00778E-08
 -1      1116 8.25866E+00 1.01957E+01-1.64900E-02-9.21487E+00-7.87974E-08-8.74359E-08
 -1      1117 8.25866E+00 1.01957E+01-1.64900E-02-9.21487E+00 7.87237E-08 8.75028E-08
 -1      1118 8.25866E+00 1.01957E+01-1.64909E-02-9.21487E+00 8.11054E-08 9.01399E-08
 -1      1119 8.25867E+00 1.01957E+01-1.64706E-02-9.21487E+00 2.44283E-06 2.71310E-06
 -1      1120 8.25868E+00 1.01957E+01-1.63429E-02-9.21488E+00 1.41487E-05 1.57137E-05
 -1      1121 8.25911E+00 1.01962E+01-1.52320E-02-9.21490E+00-1.39884E-04-1.55357E-04
 -1      1122 9.22764E+00 9.22764E+00-1.52320E-02-9.26566E+00 1.47823E-04 1.47823E-04
 -1      1123 9.22721E+00 9.22721E+00-1.63429E-02-9.26564E+00-1.49517E-05-1.49516E-05
 -1      1124 9.22719E+00 9.22719E+00-1.64706E-02-9.26563E+00-2.58156E-06-2.58145E-06
 -1      1125 9.22718E+00 9.22718E+00-1.64909E-02-9.26563E+00-8.57941E-08-8.56901E-08
 -1      1126 9.22718E+00 9.22718E+00-1.64900E-02-9.26563E+00-8.32739E-08-8.31842E-08
 -1      1127 9.22718E+00 9.22718E+00-1.64900E-02-9.26563E+00 8.31959E-08 8.32611E-08
 -1      1128 9.22718E+00 9.22718E+00-1.64909E-02-9.26563E+00 8.57211E-08 8.57668E-08
 -1      1129 9.22719E+00 9.22719E+00-1.64706E-02-9.26563E+00 2.58149E-06 2.58152E-06
 -1      1130 9.22721E+00 9.22721E+00-1.63429E-02-9.26564E+00 1.49517E-05 1.49517E-05
 -1      1131 9.22764E+00 9.22764E+00-1.52320E-02-9.26566E+00-1.47823E-04-1.47823E-04
 -1      1132 1.01962E+01 8.25911E+00-1.52320E-02-9.21490E+00 1.55357E-04 1.39884E-04
 -1      1133 1.01957E+01 8.25868E+00-1.63429E-02-9.21488E+00-1.57138E-05-1.41487E-05
 -1      1134 1.01957E+01 8.25867E+00-1.64706E-02-9.21487E+00-2.71311E-06-2.44281E-06
 -1      1135 1.01957E+01 8.25866E+00-1.64909E-02-9.21487E+00-9.01551E-08-8.10906E-08
 -1      1136 1.01957E+01 8.25866E+00-1.64900E-02-9.21487E+00-8.75105E-08-7.87144E-08
 -1      1137 1.01957E+01 8.25866E+00-1.64900E-02-9.21487E+00 8.74336E-08 7.88011E-08
 -1      1138 1.01957E+01 8.25866E+00-1.64909E-02-9.21487E+00 9.00788E-08 8.11748E-08
 -1      1139 1.01957E+01 8.25867E+00-1.64706E-02-9.21487E+00 2.71304E-06 2.44289E-06
 -1      1140 1.01957E+01 8.25868E+00-1.63429E-02-9.21488E+00 1.57137E-05 1.41487E-05
 -1      1141 1.01962E+01 8.25911E+00-1.52320E-02-9.21490E+00-1.55357E-04-1.39884E-04
 -1      1142 1.11541E+01 7.30120E+00-1.52320E-02-9.06318E+00 1.62465E-04 1.31562E-04
 -1      1143 1.11536E+01 7.30077E+00-1.63429E-02-9.06316E+00-1.64327E-05-1.33069E-05
 -1      1144 1.11536E+01 7.30076E+00-1.64706E-02-9.06315E+00-2.83723E-06-2.29749E-06
 -1      1145 1.11536E+01 7.30075E+00-1.64909E-02-9.06315E+00-9.42647E-08-7.62737E-08
 -1      1146 1.11536E+01 7.30075E+00-1.64900E-02-9.06316E+00-9.15084E-08-7.40300E-08
 -1      1147 1.11536E+01 7.30075E+00-1.64900E-02-9.06316E+00 9.14342E-08 7.41189E-08
 -1      1148 1.11536E+01 7.30075E+00-1.64909E-02-9.06315E+00 9.41991E-08 7.63571E-08
 -1      1149 1.11536E+01 7.30076E+00-1.64706E-02-9.06315E+00 2.83717E-06 2.29757E-06
 -1      1150 1.11536E+01 7.30077E+00-1.63429E-02-9.06316E+00 1.64326E-05 1.33070E-05
 -1      1151 1.11541E+01 7.30120E+00-1.52320E-02-9.06318E+00-1.62465E-04-1.31562E-04
 -1      1152 1.20909E+01 6.36439E+00-1.52320E-02-8.81216E+00 1.69128E-04 1.22879E-04
 -1      1153 1.20904E+01 6.36397E+00-1.63429E-02-8.81215E+00-1.71066E-05-1.24286E-05
 -1      1154 1.20904E+01 6.36395E+00-1.64706E-02-8.81213E+00-2.95358E-06-2.14585E-06
 -1      1155 1.20904E+01 6.36395E+00-1.64909E-02-8.81214E+00-9.81257E-08-7.12388E-08
 -1      1156 1.20904E+01 6.36395E+00-1.64900E-02-8.81214E+00-9.52521E-08-6.91433E-08
 -1      1157 1.20904E+01 6.36395E+00-1.64900E-02-8.81214E+00 9.51921E-08 6.92291E-08
 -1      1158 1.20904E+01 6.36395E+00-1.64909E-02-8.81214E+00 9.80656E-08 7.13224E-08
 -1      1159 1.20904E+01 6.36395E+00-1.64706E-02-8.81213E+00 2.95352E-06 2.14593E-06
 -1      1160 1.20904E+01 6.36397E+00-1.63429E-02-8.81215E+00 1.71065E-05 1.24287E-05
 -1      1161 1.20909E+01 6.36439E+00-1.52320E-02-8.81216E+00-1.69128E-04-1.22879E-04
 -1      1162 1.29963E+01 5.45895E+00-1.52320E-02-8.46460E+00 1.75327E-04 1.13859E-04
 -1      1163 1.29959E+01 5.45853E+00-1.63429E-02-8.46458E+00-1.77336E-05-1.15163E-05
 -1      1164 1.29959E+01 5.45852E+00-1.64706E-02-8.46457E+00-3.06184E-06-1.98833E-06
 -1      1165 1.29959E+01 5.45851E+00-1.64909E-02-8.46457E+00-1.01723E-07-6.60005E-08
 -1      1166 1.29959E+01 5.45851E+00-1.64900E-02-8.46457E+00-9.87414E-08-6.40637E-08
 -1      1167 1.29959E+01 5.45851E+00-1.64900E-02-8.46457E+00 9.86855E-08 6.41474E-08
 -1      1168 1.29959E+01 5.45851E+00-1.64909E-02-8.46457E+00 1.01669E-07 6.60823E-08
 -1      1169 1.29959E+01 5.45852E+00-1.64706E-02-8.46457E+00 3.06179E-06 1.98840E-06
 -1      1170 1.29959E+01 5.45853E+00-1.63429E-02-8.46458E+00 1.77336E-05 1.15164E-05
 -1      1171 1.29963E+01 5.45895E+00-1.52320E-02-8.46460E+00-1.75327E-04-1.13859E-04
 -1      1172 1.38605E+01 4.59481E+00-1.52320E-02-8.02429E+00 1.81046E-04 1.04527E-04
 -1      1173 1.38600E+01 4.59439E+00-1.63429E-02-8.02428E+00-1.83120E-05-1.05724E-05
 -1      1174 1.38600E+01 4.59438E+00-1.64706E-02-8.02427E+00-3.16171E-06-1.82535E-06
 -1      1175 1.38600E+01 4.59437E+00-1.64909E-02-8.02427E+00-1.05038E-07-6.05855E-08
 -1      1176 1.38600E+01 4.59437E+00-1.64900E-02-8.02427E+00-1.01958E-07-5.88101E-08
 -1      1177 1.38600E+01 4.59437E+00-1.64900E-02-8.02427E+00 1.01913E-07 5.88877E-08
 -1      1178 1.38600E+01 4.59437E+00-1.64909E-02-8.02427E+00 1.04997E-07 6.06580E-08
 -1      1179 1.38600E+01 4.59438E+00-1.64706E-02-8.02427E+00 3.16167E-06 1.82542E-06
 -1      1180 1.38600E+01 4.59439E+00-1.63429E-02-8.02428E+00 1.83120E-05 1.05725E-05
 -1      1181 1.38605E+01 4.59481E+00-1.52320E-02-8.02429E+00-1.81046E-04-1.04527E-04
 -1      1182 1.46739E+01 3.78142E+00-1.52320E-02-7.49607E+00 1.86268E-04 9.49084E-05
 -1      1183 1.46734E+01 3.78100E+00-1.63429E-02-7.49606E+00-1.88403E-05-9.59954E-06
 -1      1184 1.46734E+01 3.78099E+00-1.64706E-02-7.49605E+00-3.25290E-06-1.65739E-06
 -1      1185 1.46734E+01 3.78098E+00-1.64909E-02-7.49605E+00-1.08063E-07-5.50115E-08
 -1      1186 1.46734E+01 3.78098E+00-1.64900E-02-7.49605E+00-1.04890E-07-5.34017E-08
 -1      1187 1.46734E+01 3.78098E+00-1.64900E-02-7.49605E+00 1.04860E-07 5.34638E-08
 -1      1188 1.46734E+01 3.78098E+00-1.64909E-02-7.49605E+00 1.08031E-07 5.50725E-08
 -1      1189 1.46734E+01 3.78099E+00-1.64706E-02-7.49605E+00 3.25288E-06 1.65744E-06
 -1      1190 1.46734E+01 3.78100E+00-1.63429E-02-7.49606E+00 1.88402E-05 9.59959E-06
 -1      1191 1.46739E+01 3.78142E+00-1.52320E-02-7.49607E+00-1.86268E-04-9.49084E-05
 -1      1192 1.54276E+01 3.02770E+00-1.52320E-02-6.88573E+00 1.90980E-04 8.50298E-05
 -1      1193 1.54271E+01 3.02728E+00-1.63429E-02-6.88571E+00-1.93168E-05-8.60037E-06
 -1      1194 1.54271E+01 3.02727E+00-1.64706E-02-6.88570E+00-3.33518E-06-1.48488E-06
 -1      1195 1.54271E+01 3.02727E+00-1.64909E-02-6.88570E+00-1.10789E-07-4.92887E-08
 -1      1196 1.54271E+01 3.02727E+00-1.64900E-02-6.88571E+00-1.07539E-07-4.78436E-08
 -1      1197 1.54271E+01 3.02727E+00-1.64900E-02-6.88571E+00 1.07515E-07 4.78987E-08
 -1      1198 1.54271E+01 3.02727E+00-1.64909E-02-6.88570E+00 1.10766E-07 4.93405E-08
 -1      1199 1.54271E+01 3.02727E+00-1.64706E-02-6.88570E+00 3.33516E-06 1.48493E-06
 -1      1200 1.54271E+01 3.02728E+00-1.63429E-02-6.88571E+00 1.93168E-05 8.60042E-06
 -1      1201 1.54276E+01 3.02770E+00-1.52320E-02-6.88573E+00-1.90980E-04-8.50298E-05
 -1      1202 1.61134E+01 2.34191E+00-1.52320E-02-6.19994E+00 1.95168E-04 7.49181E-05
 -1      1203 1.61129E+01 2.34149E+00-1.63429E-02-6.19992E+00-1.97405E-05-7.57764E-06
 -1      1204 1.61129E+01 2.34149E+00-1.64706E-02-6.19991E+00-3.40832E-06-1.30831E-06
 -1      1205 1.61129E+01 2.34148E+00-1.64909E-02-6.19992E+00-1.13214E-07-4.34341E-08
 -1      1206 1.61129E+01 2.34148E+00-1.64900E-02-6.19992E+00-1.09897E-07-4.21564E-08
 -1      1207 1.61129E+01 2.34148E+00-1.64900E-02-6.19992E+00 1.09874E-07 4.22132E-08
 -1      1208 1.61129E+01 2.34148E+00-1.64909E-02-6.19992E+00 1.13191E-07 4.34896E-08
 -1      1209 1.61129E+01 2.34149E+00-1.64706E-02-6.19991E+00 3.40830E-06 1.30836E-06
 -1      1210 1.61129E+01 2.34149E+00-1.63429E-02-6.19992E+00 1.97404E-05 7.57769E-06
 -1      1211 1.61134E+01 2.34191E+00-1.52320E-02-6.19994E+00-1.95168E-04-7.49181E-05
 -1      1212 1.67237E+01 1.73156E+00-1.52320E-02-5.44622E+00 1.98822E-04 6.46012E-05
 -1      1213 1.67233E+01 1.73115E+00-1.63429E-02-5.44621E+00-2.01100E-05-6.53410E-06
 -1      1214 1.67232E+01 1.73114E+00-1.64706E-02-5.44620E+00-3.47212E-06-1.12813E-06
 -1      1215 1.67232E+01 1.73113E+00-1.64909E-02-5.44620E+00-1.15334E-07-3.74402E-08
 -1      1216 1.67232E+01 1.73113E+00-1.64900E-02-5.44620E+00-1.11953E-07-3.63375E-08
 -1      1217 1.67232E+01 1.73113E+00-1.64900E-02-5.44620E+00 1.11931E-07 3.64075E-08
 -1      1218 1.67232E+01 1.73113E+00-1.64909E-02-5.44620E+00 1.15311E-07 3.75071E-08
 -1      1219 1.67232E+01 1.73114E+00-1.64706E-02-5.44620E+00 3.47210E-06 1.12819E-06
 -1      1220 1.67233E+01 1.73115E+00-1.63429E-02-5.44621E+00 2.01100E-05 6.53416E-06
 -1      1221 1.67237E+01 1.73156E+00-1.52320E-02-5.44622E+00-1.98822E-04-6.46011E-05
 -1      1222 1.72519E+01 1.20334E+00-1.52320E-02-4.63283E+00 2.01930E-04 5.41071E-05
 -1      1223 1.72515E+01 1.20293E+00-1.63429E-02-4.63282E+00-2.04244E-05-5.47266E-06
 -1      1224 1.72515E+01 1.20292E+00-1.64706E-02-4.63281E+00-3.52641E-06-9.44847E-07
 -1      1225 1.72515E+01 1.20291E+00-1.64909E-02-4.63281E+00-1.17140E-07-3.13361E-08
 -1      1226 1.72515E+01 1.20291E+00-1.64900E-02-4.63282E+00-1.13704E-07-3.04203E-08
 -1      1227 1.72515E+01 1.20291E+00-1.64900E-02-4.63282E+00 1.13683E-07 3.05026E-08
 -1      1228 1.72515E+01 1.20291E+00-1.64909E-02-4.63281E+00 1.17118E-07 3.14171E-08
 -1      1229 1.72515E+01 1.20292E+00-1.64706E-02-4.63281E+00 3.52639E-06 9.44923E-07
 -1      1230 1.72515E+01 1.20293E+00-1.63429E-02-4.63282E+00 2.04244E-05 5.47272E-06
 -1      1231 1.72519E+01 1.20334E+00-1.52320E-02-4.63283E+00-2.01930E-04-5.41071E-05
 -1      1232 1.76922E+01 7.63036E-01-1.52320E-02-3.76868E+00 2.04485E-04 4.34647E-05
 -1      1233 1.76918E+01 7.62622E-01-1.63429E-02-3.76868E+00-2.06828E-05-4.39623E-06
 -1      1234 1.76918E+01 7.62618E-01-1.64706E-02-3.76867E+00-3.57103E-06-7.58996E-07
 -1      1235 1.76918E+01 7.62608E-01-1.64909E-02-3.76867E+00-1.18620E-07-2.51649E-08
 -1      1236 1.76918E+01 7.62608E-01-1.64900E-02-3.76867E+00-1.15140E-07-2.44294E-08
 -1      1237 1.76918E+01 7.62608E-01-1.64900E-02-3.76867E+00 1.15122E-07 2.45096E-08
 -1      1238 1.76918E+01 7.62608E-01-1.64909E-02-3.76867E+00 1.18602E-07 2.52428E-08
 -1      1239 1.76918E+01 7.62618E-01-1.64706E-02-3.76867E+00 3.57101E-06 7.59069E-07
 -1      1240 1.76918E+01 7.62622E-01-1.63429E-02-3.76868E+00 2.06828E-05 4.39629E-06
 -1      1241 1.76922E+01 7.63036E-01-1.52320E-02-3.76868E+00-2.04485E-04-4.34647E-05
 -1      1242 1.80398E+01 4.15472E-01-1.52320E-02-2.86325E+00 2.06480E-04 3.27032E-05
 -1      1243 1.80394E+01 4.15059E-01-1.63429E-02-2.86324E+00-2.08846E-05-3.30776E-06
 -1      1244 1.80393E+01 4.15055E-01-1.64706E-02-2.86324E+00-3.60585E-06-5.71077E-07
 -1      1245 1.80393E+01 4.15044E-01-1.64909E-02-2.86324E+00-1.19770E-07-1.89363E-08
 -1      1246 1.80393E+01 4.15044E-01-1.64900E-02-2.86324E+00-1.16257E-07-1.83797E-08
 -1      1247 1.80393E+01 4.15044E-01-1.64900E-02-2.86324E+00 1.16247E-07 1.84434E-08
 -1      1248 1.80393E+01 4.15044E-01-1.64909E-02-2.86324E+00 1.19763E-07 1.89980E-08
 -1      1249 1.80393E+01 4.15055E-01-1.64706E-02-2.86324E+00 3.60584E-06 5.71136E-07
 -1      1250 1.80394E+01 4.15059E-01-1.63429E-02-2.86324E+00 2.08846E-05 3.30781E-06
 -1      1251 1.80398E+01 4.15472E-01-1.52320E-02-2.86325E+00-2.06480E-04-3.27032E-05
 -1      1252 1.82908E+01 1.64455E-01-1.52320E-02-1.92644E+00 2.07908E-04 2.18521E-05
 -1      1253 1.82904E+01 1.64042E-01-1.63429E-02-1.92643E+00-2.10291E-05-2.21023E-06
 -1      1254 1.82903E+01 1.64039E-01-1.64706E-02-1.92643E+00-3.63080E-06-3.81593E-07
 -1      1255 1.82903E+01 1.64028E-01-1.64909E-02-1.92643E+00-1.20598E-07-1.26546E-08
 -1      1256 1.82903E+01 1.64028E-01-1.64900E-02-1.92643E+00-1.17061E-07-1.22825E-08
 -1      1257 1.82903E+01 1.64028E-01-1.64900E-02-1.92643E+00 1.17056E-07 1.23239E-08
 -1      1258 1.82903E+01 1.64028E-01-1.64909E-02-1.92643E+00 1.20593E-07 1.26944E-08
 -1      1259 1.82903E+01 1.64039E-01-1.64706E-02-1.92643E+00 3.63079E-06 3.81629E-07
 -1      1260 1.82904E+01 1.64042E-01-1.63429E-02-1.92643E+00 2.10291E-05 2.21026E-06
 -1      1261 1.82908E+01 1.64455E-01-1.52320E-02-1.92644E+00-2.07908E-04-2.18521E-05
 -1      1262 1.84425E+01 1.27365E-02-1.52320E-02-9.68525E-01 2.08767E-04 1.09410E-05
 -1      1263 1.84421E+01 1.23240E-02-1.63429E-02-9.68523E-01-2.11159E-05-1.10663E-06
 -1      1264 1.84421E+01 1.23209E-02-1.64706E-02-9.68522E-01-3.64579E-06-1.91062E-07
 -1      1265 1.84421E+01 1.23103E-02-1.64909E-02-9.68522E-01-1.21092E-07-6.33919E-09
 -1      1266 1.84421E+01 1.23103E-02-1.64900E-02-9.68522E-01-1.17542E-07-6.15185E-09
 -1      1267 1.84421E+01 1.23103E-02-1.64900E-02-9.68522E-01 1.17542E-07 6.17010E-09
 -1      1268 1.84421E+01 1.23103E-02-1.64909E-02-9.68522E-01 1.21091E-07 6.35673E-09
 -1      1269 1.84421E+01 1.23209E-02-1.64706E-02-9.68522E-01 3.64579E-06 1.91078E-07
 -1      1270 1.84421E+01 1.23240E-02-1.63429E-02-9.68523E-01 2.11159E-05 1.10665E-06
 -1      1271 1.84425E+01 1.27365E-02-1.52320E-02-9.68525E-01-2.08767E-04-1.09410E-05
 -1      1272 1.85567E+01-4.41841E-02 1.09535E-03-2.43533E-01 1.53267E-05-1.83377E-05
 -1      1273 1.85566E+01-4.44337E-02 8.89828E-04-2.43534E-01-3.34302E-05-1.04699E-05
 -1      1274 1.85566E+01-4.44122E-02 7.86891E-04-2.43534E-01-7.89954E-06-7.54224E-06
 -1      1275 1.85566E+01-4.44297E-02 7.60928E-04-2.43534E-01-1.03571E-07-4.50612E-06
 -1      1276 1.85566E+01-4.44296E-02 7.60977E-04-2.43534E-01 2.03188E-07-1.51383E-06
 -1      1277 1.85566E+01-4.44296E-02 7.60977E-04-2.43534E-01-2.03187E-07 1.51386E-06
 -1      1278 1.85566E+01-4.44297E-02 7.60928E-04-2.43534E-01 1.03573E-07 4.50614E-06
 -1      1279 1.85566E+01-4.44122E-02 7.86891E-04-2.43534E-01 7.89954E-06 7.54227E-06
 -1      1280 1.85566E+01-4.44337E-02 8.89828E-04-2.43534E-01 3.34302E-05 1.04699E-05
 -1      1281 1.85567E+01-4.41841E-02 1.09535E-03-2.43533E-01-1.53267E-05 1.83378E-05
 -1      1282 1.86034E+01-9.08436E-02 7.09413E-04-2.44755E-01-1.35082E-04-2.15793E-05
 -1      1283 1.86033E+01-9.12447E-02 6.59971E-04-2.44759E-01-5.40405E-05-1.14038E-05
 -1      1284 1.86033E+01-9.12094E-02 6.93629E-04-2.44759E-01-1.17741E-05-7.56271E-06
 -1      1285 1.86033E+01-9.12243E-02 6.69544E-04-2.44759E-01-4.03945E-07-4.53043E-06
 -1      1286 1.86033E+01-9.12261E-02 6.69876E-04-2.44759E-01 5.91028E-07-1.50432E-06
 -1      1287 1.86033E+01-9.12261E-02 6.69876E-04-2.44759E-01-5.91025E-07 1.50435E-06
 -1      1288 1.86033E+01-9.12243E-02 6.69544E-04-2.44759E-01 4.03949E-07 4.53045E-06
 -1      1289 1.86033E+01-9.12094E-02 6.93629E-04-2.44759E-01 1.17741E-05 7.56274E-06
 -1      1290 1.86033E+01-9.12447E-02 6.59971E-04-2.44759E-01 5.40405E-05 1.14038E-05
 -1      1291 1.86034E+01-9.08436E-02 7.09413E-04-2.44755E-01 1.35082E-04 2.15794E-05
 -1      1292 1.86505E+01-1.38026E-01 4.63699E-04-2.45989E-01-7.49145E-05-1.92328E-05
 -1      1293 1.86504E+01-1.38333E-01 4.88191E-04-2.45992E-01-6.70111E-05-1.22691E-05
 -1      1294 1.86505E+01-1.38370E-01 5.74350E-04-2.45993E-01-1.20348E-05-7.62043E-06
 -1      1295 1.86505E+01-1.38372E-01 5.79348E-04-2.45993E-01-4.72816E-07-4.53905E-06
 -1      1296 1.86505E+01-1.38377E-01 5.78226E-04-2.45993E-01 6.98931E-07-1.50793E-06
 -1      1297 1.86505E+01-1.38377E-01 5.78226E-04-2.45993E-01-6.98928E-07 1.50796E-06
 -1      1298 1.86505E+01-1.38372E-01 5.79348E-04-2.45993E-01 4.72820E-07 4.53908E-06
 -1      1299 1.86505E+01-1.38370E-01 5.74350E-04-2.45993E-01 1.20348E-05 7.62045E-06
 -1      1300 1.86504E+01-1.38333E-01 4.88191E-04-2.45992E-01 6.70111E-05 1.22691E-05
 -1      1301 1.86505E+01-1.38026E-01 4.63699E-04-2.45989E-01 7.49145E-05 1.92328E-05
 -1      1302 1.86979E+01-1.85610E-01 3.00327E-04-2.47233E-01 7.43681E-07-1.64517E-05
 -1      1303 1.86979E+01-1.85795E-01 3.56250E-04-2.47235E-01-4.32049E-05-1.21235E-05
 -1      1304 1.86979E+01-1.85875E-01 4.57150E-04-2.47236E-01-1.14924E-05-7.76501E-06
 -1      1305 1.86979E+01-1.85882E-01 4.85039E-04-2.47237E-01 4.75460E-07-4.53527E-06
 -1      1306 1.86979E+01-1.85884E-01 4.86891E-04-2.47237E-01 6.44664E-07-1.51499E-06
 -1      1307 1.86979E+01-1.85884E-01 4.86891E-04-2.47237E-01-6.44660E-07 1.51501E-06
 -1      1308 1.86979E+01-1.85882E-01 4.85039E-04-2.47237E-01-4.75454E-07 4.53530E-06
 -1      1309 1.86979E+01-1.85875E-01 4.57150E-04-2.47236E-01 1.14924E-05 7.76504E-06
 -1      1310 1.86979E+01-1.85795E-01 3.56250E-04-2.47235E-01 4.32049E-05 1.21235E-05
 -1      1311 1.86979E+01-1.85610E-01 3.00327E-04-2.47233E-01-7.43681E-07 1.64518E-05
 -1      1312 1.87457E+01-2.33555E-01 1.89113E-04-2.48487E-01 6.08760E-05-1.41252E-05
 -1      1313 1.87458E+01-2.33646E-01 2.53094E-04-2.48488E-01-4.02331E-06-1.14723E-05
 -1      1314 1.87458E+01-2.33736E-01 3.49809E-04-2.48489E-01-4.79991E-06-7.80026E-06
 -1      1315 1.87458E+01-2.33752E-01 3.89241E-04-2.48490E-01 1.34996E-06-4.55503E-06
 -1      1316 1.87458E+01-2.33754E-01 3.95226E-04-2.48490E-01 7.70271E-07-1.51751E-06
 -1      1317 1.87458E+01-2.33754E-01 3.95226E-04-2.48490E-01-7.70266E-07 1.51753E-06
 -1      1318 1.87458E+01-2.33752E-01 3.89241E-04-2.48490E-01-1.34995E-06 4.55505E-06
 -1      1319 1.87458E+01-2.33736E-01 3.49809E-04-2.48489E-01 4.79991E-06 7.80029E-06
 -1      1320 1.87458E+01-2.33646E-01 2.53094E-04-2.48488E-01 4.02331E-06 1.14723E-05
 -1      1321 1.87457E+01-2.33555E-01 1.89113E-04-2.48487E-01-6.08760E-05 1.41252E-05
 -1      1322 1.87939E+01-2.81851E-01 1.11635E-04-2.49750E-01 1.04079E-04-1.23453E-05
 -1      1323 1.87940E+01-2.81884E-01 1.70770E-04-2.49751E-01 3.59513E-05-1.06969E-05
 -1      1324 1.87940E+01-2.81965E-01 2.53408E-04-2.49752E-01 6.55068E-06-7.71823E-06
 -1      1325 1.87940E+01-2.81986E-01 2.94420E-04-2.49752E-01 2.62732E-06-4.57917E-06
 -1      1326 1.87940E+01-2.81988E-01 3.03044E-04-2.49752E-01 8.24835E-07-1.52357E-06
 -1      1327 1.87940E+01-2.81988E-01 3.03044E-04-2.49752E-01-8.24828E-07 1.52359E-06
 -1      1328 1.87940E+01-2.81986E-01 2.94420E-04-2.49752E-01-2.62732E-06 4.57920E-06
 -1      1329 1.87940E+01-2.81965E-01 2.53408E-04-2.49752E-01-6.55067E-06 7.71825E-06
 -1      1330 1.87940E+01-2.81884E-01 1.70770E-04-2.49751E-01-3.59514E-05 1.06969E-05
 -1      1331 1.87939E+01-2.81851E-01 1.11635E-04-2.49750E-01-1.04079E-04 1.23453E-05
 -1      1332 1.88425E+01-3.30500E-01 5.59171E-05-2.51023E-01 1.33599E-04-1.10608E-05
 -1      1333 1.88425E+01-3.30504E-01 1.03196E-04-2.51023E-01 6.96943E-05-9.99966E-06
 -1      1334 1.88425E+01-3.30568E-01 1.66582E-04-2.51024E-01 1.90500E-05-7.57947E-06
 -1      1335 1.88426E+01-3.30589E-01 2.01742E-04-2.51025E-01 4.31571E-06-4.59524E-06
 -1      1336 1.88426E+01-3.30590E-01 2.10485E-04-2.51025E-01 7.81920E-07-1.53333E-06
 -1      1337 1.88426E+01-3.30590E-01 2.10485E-04-2.51025E-01-7.81911E-07 1.53336E-06
 -1      1338 1.88426E+01-3.30589E-01 2.01742E-04-2.51025E-01-4.31570E-06 4.59526E-06
 -1      1339 1.88425E+01-3.30568E-01 1.66582E-04-2.51024E-01-1.90500E-05 7.57949E-06
 -1      1340 1.88425E+01-3.30504E-01 1.03196E-04-2.51023E-01-6.96943E-05 9.99969E-06
 -1      1341 1.88425E+01-3.30500E-01 5.59171E-05-2.51023E-01-1.33599E-04 1.10608E-05
 -1      1342 1.88915E+01-3.79508E-01 1.38443E-05-2.52305E-01 1.52530E-04-1.02100E-05
 -1      1343 1.88915E+01-3.79505E-01 4.55741E-05-2.52306E-01 9.42499E-05-9.47932E-06
 -1      1344 1.88915E+01-3.79549E-01 8.70556E-05-2.52306E-01 2.95628E-05-7.44747E-06
 -1      1345 1.88915E+01-3.79564E-01 1.11308E-04-2.52307E-01 5.89708E-06-4.60443E-06
 -1      1346 1.88915E+01-3.79565E-01 1.17723E-04-2.52307E-01 6.76361E-07-1.54385E-06
 -1      1347 1.88915E+01-3.79565E-01 1.17723E-04-2.52307E-01-6.76350E-07 1.54388E-06
 -1      1348 1.88915E+01-3.79564E-01 1.11308E-04-2.52307E-01-5.89707E-06 4.60445E-06
 -1      1349 1.88915E+01-3.79549E-01 8.70556E-05-2.52306E-01-2.95628E-05 7.44749E-06
 -1      1350 1.88915E+01-3.79505E-01 4.55741E-05-2.52306E-01-9.42499E-05 9.47934E-06
 -1      1351 1.88915E+01-3.79508E-01 1.38444E-05-2.52305E-01-1.52530E-04 1.02100E-05
 -1      1352 1.89408E+01-4.28884E-01-2.03749E-05-2.53598E-01 1.63019E-04-9.74727E-06
 -1      1353 1.89408E+01-4.28887E-01-6.03066E-06-2.53598E-01 1.08511E-04-9.18215E-06
 -1      1354 1.89408E+01-4.28909E-01 1.22474E-05-2.53598E-01 3.59208E-05-7.36878E-06
 -1      1355 1.89408E+01-4.28916E-01 2.25224E-05-2.53599E-01 6.72589E-06-4.61395E-06
 -1      1356 1.89408E+01-4.28916E-01 2.48258E-05-2.53599E-01 5.02469E-07-1.55296E-06
 -1      1357 1.89408E+01-4.28916E-01 2.48258E-05-2.53599E-01-5.02459E-07 1.55298E-06
 -1      1358 1.89408E+01-4.28916E-01 2.25224E-05-2.53599E-01-6.72588E-06 4.61397E-06
 -1      1359 1.89408E+01-4.28909E-01 1.22474E-05-2.53598E-01-3.59208E-05 7.36881E-06
 -1      1360 1.89408E+01-4.28887E-01-6.03066E-06-2.53598E-01-1.08511E-04 9.18217E-06
 -1      1361 1.89408E+01-4.28884E-01-2.03749E-05-2.53598E-01-1.63019E-04 9.74729E-06
 -1      1362 1.89905E+01-4.78636E-01-5.12306E-05-2.54900E-01 1.66241E-04-9.64750E-06
 -1      1363 1.89905E+01-4.78652E-01-5.50313E-05-2.54900E-01 1.12095E-04-9.12857E-06
 -1      1364 1.89905E+01-4.78652E-01-6.05086E-05-2.54900E-01 3.69131E-05-7.36997E-06
 -1      1365 1.89905E+01-4.78648E-01-6.56017E-05-2.54900E-01 6.33955E-06-4.62993E-06
 -1      1366 1.89905E+01-4.78646E-01-6.82702E-05-2.54900E-01 2.36688E-07-1.55960E-06
 -1      1367 1.89905E+01-4.78646E-01-6.82702E-05-2.54900E-01-2.36678E-07 1.55962E-06
 -1      1368 1.89905E+01-4.78648E-01-6.56017E-05-2.54900E-01-6.33954E-06 4.62995E-06
 -1      1369 1.89905E+01-4.78652E-01-6.05086E-05-2.54900E-01-3.69131E-05 7.36999E-06
 -1      1370 1.89905E+01-4.78652E-01-5.50313E-05-2.54900E-01-1.12095E-04 9.12859E-06
 -1      1371 1.89905E+01-4.78636E-01-5.12306E-05-2.54900E-01-1.66241E-04 9.64752E-06
 -1      1372 1.90406E+01-5.28774E-01-8.26722E-05-2.56212E-01 1.62484E-04-9.90594E-06
 -1      1373 1.90406E+01-5.28801E-01-1.04624E-04-2.56213E-01 1.04842E-04-9.32514E-06
 -1      1374 1.90406E+01-5.28778E-01-1.33907E-04-2.56212E-01 3.21841E-05-7.45831E-06
 -1      1375 1.90406E+01-5.28764E-01-1.54223E-04-2.56212E-01 4.62332E-06-4.65352E-06
 -1      1376 1.90406E+01-5.28760E-01-1.61692E-04-2.56212E-01-1.14771E-07-1.56314E-06
 -1      1377 1.90406E+01-5.28760E-01-1.61692E-04-2.56212E-01 1.14783E-07 1.56316E-06
 -1      1378 1.90406E+01-5.28764E-01-1.54223E-04-2.56212E-01-4.62332E-06 4.65354E-06
 -1      1379 1.90406E+01-5.28778E-01-1.33907E-04-2.56212E-01-3.21841E-05 7.45833E-06
 -1      1380 1.90406E+01-5.28801E-01-1.04624E-04-2.56213E-01-1.04842E-04 9.32516E-06
 -1      1381 1.90406E+01-5.28774E-01-8.26722E-05-2.56212E-01-1.62484E-04 9.90596E-06
 -1      1382 1.90911E+01-5.79305E-01-1.18765E-04-2.57535E-01 1.51164E-04-1.05383E-05
 -1      1383 1.90911E+01-5.79335E-01-1.58075E-04-2.57535E-01 8.66872E-05-9.76761E-06
 -1      1384 1.90911E+01-5.79289E-01-2.10678E-04-2.57535E-01 2.22067E-05-7.62201E-06
 -1      1385 1.90911E+01-5.79267E-01-2.44489E-04-2.57534E-01 1.86195E-06-4.67970E-06
 -1      1386 1.90911E+01-5.79262E-01-2.55538E-04-2.57534E-01-4.97687E-07-1.56307E-06
 -1      1387 1.90911E+01-5.79262E-01-2.55538E-04-2.57534E-01 4.97697E-07 1.56309E-06
 -1      1388 1.90911E+01-5.79267E-01-2.44489E-04-2.57534E-01-1.86194E-06 4.67972E-06
 -1      1389 1.90911E+01-5.79289E-01-2.10678E-04-2.57535E-01-2.22067E-05 7.62203E-06
 -1      1390 1.90911E+01-5.79335E-01-1.58075E-04-2.57535E-01-8.66872E-05 9.76763E-06
 -1      1391 1.90911E+01-5.79305E-01-1.18765E-04-2.57535E-01-1.51164E-04 1.05383E-05
 -1      1392 1.91419E+01-6.30239E-01-1.64371E-04-2.58868E-01 1.30756E-04-1.15816E-05
 -1      1393 1.91419E+01-6.30258E-01-2.19012E-04-2.58868E-01 5.78427E-05-1.04363E-05
 -1      1394 1.91419E+01-6.30188E-01-2.93590E-04-2.58867E-01 8.37096E-06-7.82884E-06
 -1      1395 1.91419E+01-6.30161E-01-3.37339E-04-2.58867E-01-1.30876E-06-4.69860E-06
 -1      1396 1.91419E+01-6.30156E-01-3.49778E-04-2.58867E-01-8.35542E-07-1.55949E-06
 -1      1397 1.91419E+01-6.30156E-01-3.49778E-04-2.58867E-01 8.35550E-07 1.55951E-06
 -1      1398 1.91419E+01-6.30161E-01-3.37339E-04-2.58867E-01 1.30876E-06 4.69862E-06
 -1      1399 1.91419E+01-6.30188E-01-2.93590E-04-2.58867E-01-8.37096E-06 7.82886E-06
 -1      1400 1.91419E+01-6.30258E-01-2.19012E-04-2.58868E-01-5.78427E-05 1.04363E-05
 -1      1401 1.91419E+01-6.30239E-01-1.64371E-04-2.58868E-01-1.30756E-04 1.15816E-05
 -1      1402 1.91932E+01-6.81585E-01-2.25983E-04-2.60211E-01 9.86668E-05-1.30955E-05
 -1      1403 1.91932E+01-6.81567E-01-2.91756E-04-2.60211E-01 1.93861E-05-1.12815E-05
 -1      1404 1.91932E+01-6.81478E-01-3.85379E-04-2.60210E-01-6.85338E-06-8.02423E-06
 -1      1405 1.91932E+01-6.81451E-01-4.33263E-04-2.60209E-01-4.07620E-06-4.69983E-06
 -1      1406 1.91932E+01-6.81446E-01-4.44200E-04-2.60209E-01-1.08515E-06-1.55404E-06
 -1      1407 1.91932E+01-6.81446E-01-4.44200E-04-2.60209E-01 1.08516E-06 1.55406E-06
 -1      1408 1.91932E+01-6.81451E-01-4.33263E-04-2.60209E-01 4.07621E-06 4.69985E-06
 -1      1409 1.91932E+01-6.81478E-01-3.85379E-04-2.60210E-01 6.85338E-06 8.02425E-06
 -1      1410 1.91932E+01-6.81567E-01-2.91756E-04-2.60211E-01-1.93861E-05 1.12815E-05
 -1      1411 1.91932E+01-6.81585E-01-2.25983E-04-2.60211E-01-9.86668E-05 1.30955E-05
 -1      1412 1.92448E+01-7.33350E-01-3.12889E-04-2.61565E-01 5.12216E-05-1.51576E-05
 -1      1413 1.92449E+01-7.33261E-01-3.81705E-04-2.61564E-01-2.54275E-05-1.21922E-05
 -1      1414 1.92449E+01-7.33161E-01-4.88484E-04-2.61563E-01-1.98698E-05-8.13409E-06
 -1      1415 1.92449E+01-7.33141E-01-5.31954E-04-2.61562E-01-5.79583E-06-4.68045E-06
 -1      1416 1.92449E+01-7.33136E-01-5.38433E-04-2.61562E-01-1.26241E-06-1.54950E-06
 -1      1417 1.92449E+01-7.33136E-01-5.38433E-04-2.61562E-01 1.26242E-06 1.54952E-06
 -1      1418 1.92449E+01-7.33141E-01-5.31954E-04-2.61562E-01 5.79583E-06 4.68047E-06
 -1      1419 1.92449E+01-7.33161E-01-4.88484E-04-2.61563E-01 1.98698E-05 8.13411E-06
 -1      1420 1.92449E+01-7.33261E-01-3.81705E-04-2.61564E-01 2.54275E-05 1.21922E-05
 -1      1421 1.92448E+01-7.33350E-01-3.12889E-04-2.61565E-01-5.12216E-05 1.51576E-05
 -1      1422 1.92969E+01-7.85536E-01-4.38959E-04-2.62929E-01-1.54367E-05-1.78338E-05
 -1      1423 1.92969E+01-7.85335E-01-4.95822E-04-2.62927E-01-6.85680E-05-1.29359E-05
 -1      1424 1.92969E+01-7.85245E-01-6.04338E-04-2.62926E-01-2.66085E-05-8.08712E-06
 -1      1425 1.92969E+01-7.85236E-01-6.31864E-04-2.62926E-01-6.44605E-06-4.65382E-06
 -1      1426 1.92969E+01-7.85231E-01-6.32126E-04-2.62926E-01-1.32448E-06-1.54537E-06
 -1      1427 1.92969E+01-7.85231E-01-6.32126E-04-2.62926E-01 1.32449E-06 1.54539E-06
 -1      1428 1.92969E+01-7.85236E-01-6.31864E-04-2.62926E-01 6.44605E-06 4.65384E-06
 -1      1429 1.92969E+01-7.85245E-01-6.04338E-04-2.62926E-01 2.66085E-05 8.08713E-06
 -1      1430 1.92969E+01-7.85335E-01-4.95822E-04-2.62927E-01 6.85680E-05 1.29359E-05
 -1      1431 1.92969E+01-7.85536E-01-4.38959E-04-2.62929E-01 1.54367E-05 1.78339E-05
 -1      1432 1.93493E+01-8.38132E-01-6.25680E-04-2.64304E-01-9.98049E-05-2.10244E-05
 -1      1433 1.93494E+01-8.37785E-01-6.43326E-04-2.64301E-01-9.31194E-05-1.30697E-05
 -1      1434 1.93494E+01-8.37743E-01-7.31574E-04-2.64300E-01-2.52777E-05-7.89048E-06
 -1      1435 1.93494E+01-8.37740E-01-7.29930E-04-2.64300E-01-6.56656E-06-4.64173E-06
 -1      1436 1.93494E+01-8.37734E-01-7.25296E-04-2.64300E-01-9.79766E-07-1.53222E-06
 -1      1437 1.93494E+01-8.37734E-01-7.25296E-04-2.64300E-01 9.79772E-07 1.53224E-06
 -1      1438 1.93494E+01-8.37740E-01-7.29930E-04-2.64300E-01 6.56656E-06 4.64175E-06
 -1      1439 1.93494E+01-8.37743E-01-7.31574E-04-2.64300E-01 2.52777E-05 7.89050E-06
 -1      1440 1.93494E+01-8.37785E-01-6.43326E-04-2.64301E-01 9.31194E-05 1.30697E-05
 -1      1441 1.93493E+01-8.38132E-01-6.25680E-04-2.64304E-01 9.98049E-05 2.10245E-05
 -1      1442 1.94021E+01-8.91089E-01-9.08389E-04-2.65689E-01-1.65973E-04-2.37033E-05
 -1      1443 1.94023E+01-8.90629E-01-8.37173E-04-2.65685E-01-7.39943E-05-1.20002E-05
 -1      1444 1.94023E+01-8.90671E-01-8.61049E-04-2.65686E-01-2.19870E-05-7.76985E-06
 -1      1445 1.94023E+01-8.90653E-01-8.22857E-04-2.65686E-01-4.90504E-06-4.60282E-06
 -1      1446 1.94023E+01-8.90650E-01-8.18486E-04-2.65686E-01-6.33984E-07-1.51944E-06
 -1      1447 1.94023E+01-8.90650E-01-8.18486E-04-2.65686E-01 6.33989E-07 1.51946E-06
 -1      1448 1.94023E+01-8.90653E-01-8.22857E-04-2.65686E-01 4.90504E-06 4.60284E-06
 -1      1449 1.94023E+01-8.90671E-01-8.61049E-04-2.65686E-01 2.19870E-05 7.76986E-06
 -1      1450 1.94023E+01-8.90629E-01-8.37173E-04-2.65685E-01 7.39943E-05 1.20002E-05
 -1      1451 1.94021E+01-8.91089E-01-9.08389E-04-2.65689E-01 1.65973E-04 2.37033E-05
 -1      1452 1.94553E+01-9.44266E-01-1.35493E-03-2.67082E-01 1.33283E-05-1.98699E-05
 -1      1453 1.94555E+01-9.43979E-01-1.09891E-03-2.67081E-01-4.45245E-05-1.08097E-05
 -1      1454 1.94556E+01-9.44005E-01-9.59867E-04-2.67082E-01-1.34128E-05-7.66750E-06
 -1      1455 1.94556E+01-9.43984E-01-9.16525E-04-2.67082E-01-2.40689E-06-4.53397E-06
 -1      1456 1.94556E+01-9.43984E-01-9.10496E-04-2.67082E-01-4.51393E-07-1.51879E-06
 -1      1457 1.94556E+01-9.43984E-01-9.10496E-04-2.67082E-01 4.51395E-07 1.51881E-06
 -1      1458 1.94556E+01-9.43984E-01-9.16525E-04-2.67082E-01 2.40689E-06 4.53399E-06
 -1      1459 1.94556E+01-9.44005E-01-9.59867E-04-2.67082E-01 1.34128E-05 7.66752E-06
 -1      1460 1.94555E+01-9.43979E-01-1.09891E-03-2.67081E-01 4.45245E-05 1.08097E-05
 -1      1461 1.94553E+01-9.44266E-01-1.35493E-03-2.67082E-01-1.33283E-05 1.98699E-05
 -1      1462 1.94728E+01-8.94944E-01 1.76896E-02-1.07037E+00 2.41898E-04 1.26773E-05
 -1      1463 1.94734E+01-8.94463E-01 1.90061E-02-1.07037E+00-2.61546E-05-1.37071E-06
 -1      1464 1.94734E+01-8.94459E-01 1.91800E-02-1.07038E+00-5.47837E-06-2.87116E-07
 -1      1465 1.94734E+01-8.94446E-01 1.92201E-02-1.07038E+00-8.43818E-07-4.42315E-08
 -1      1466 1.94735E+01-8.94445E-01 1.92264E-02-1.07038E+00-3.53901E-07-1.85576E-08
 -1      1467 1.94735E+01-8.94445E-01 1.92264E-02-1.07038E+00 3.53901E-07 1.85354E-08
 -1      1468 1.94734E+01-8.94446E-01 1.92201E-02-1.07038E+00 8.43819E-07 4.42104E-08
 -1      1469 1.94734E+01-8.94459E-01 1.91800E-02-1.07038E+00 5.47837E-06 2.87097E-07
 -1      1470 1.94734E+01-8.94463E-01 1.90061E-02-1.07037E+00 2.61546E-05 1.37069E-06
 -1      1471 1.94728E+01-8.94944E-01 1.76896E-02-1.07037E+00-2.41898E-04-1.26773E-05
 -1      1472 1.93051E+01-7.27272E-01 1.76896E-02-2.12901E+00 2.40903E-04 2.53199E-05
 -1      1473 1.93057E+01-7.26790E-01 1.90061E-02-2.12902E+00-2.60470E-05-2.73768E-06
 -1      1474 1.93058E+01-7.26786E-01 1.91800E-02-2.12902E+00-5.45583E-06-5.73458E-07
 -1      1475 1.93058E+01-7.26772E-01 1.92201E-02-2.12902E+00-8.40343E-07-8.83501E-08
 -1      1476 1.93058E+01-7.26772E-01 1.92264E-02-2.12902E+00-3.52445E-07-3.70689E-08
 -1      1477 1.93058E+01-7.26772E-01 1.92264E-02-2.12902E+00 3.52447E-07 3.70197E-08
 -1      1478 1.93058E+01-7.26772E-01 1.92201E-02-2.12902E+00 8.40351E-07 8.83036E-08
 -1      1479 1.93058E+01-7.26786E-01 1.91800E-02-2.12902E+00 5.45583E-06 5.73414E-07
 -1      1480 1.93057E+01-7.26790E-01 1.90061E-02-2.12902E+00 2.60470E-05 2.73764E-06
 -1      1481 1.93051E+01-7.27272E-01 1.76896E-02-2.12901E+00-2.40903E-04-2.53199E-05
 -1      1482 1.90277E+01-4.49860E-01 1.76896E-02-3.16433E+00 2.39247E-04 3.78930E-05
 -1      1483 1.90283E+01-4.49377E-01 1.90061E-02-3.16434E+00-2.58681E-05-4.09714E-06
 -1      1484 1.90283E+01-4.49372E-01 1.91800E-02-3.16435E+00-5.41834E-06-8.58221E-07
 -1      1485 1.90284E+01-4.49358E-01 1.92201E-02-3.16435E+00-8.34567E-07-1.32223E-07
 -1      1486 1.90284E+01-4.49358E-01 1.92264E-02-3.16435E+00-3.50017E-07-5.54752E-08
 -1      1487 1.90284E+01-4.49358E-01 1.92264E-02-3.16435E+00 3.50028E-07 5.54054E-08
 -1      1488 1.90284E+01-4.49358E-01 1.92201E-02-3.16435E+00 8.34576E-07 1.32155E-07
 -1      1489 1.90283E+01-4.49372E-01 1.91800E-02-3.16435E+00 5.41835E-06 8.58159E-07
 -1      1490 1.90283E+01-4.49377E-01 1.90061E-02-3.16434E+00 2.58681E-05 4.09708E-06
 -1      1491 1.90277E+01-4.49860E-01 1.76896E-02-3.16433E+00-2.39247E-04-3.78931E-05
 -1      1492 1.86436E+01-6.57475E-02 1.76896E-02-4.16497E+00 2.36936E-04 5.03623E-05
 -1      1493 1.86442E+01-6.52637E-02 1.90061E-02-4.16499E+00-2.56182E-05-5.44536E-06
 -1      1494 1.86442E+01-6.52572E-02 1.91800E-02-4.16500E+00-5.36600E-06-1.14062E-06
 -1      1495 1.86442E+01-6.52434E-02 1.92201E-02-4.16500E+00-8.26502E-07-1.75724E-07
 -1      1496 1.86442E+01-6.52427E-02 1.92264E-02-4.16500E+00-3.46635E-07-7.37243E-08
 -1      1497 1.86442E+01-6.52427E-02 1.92264E-02-4.16500E+00 3.46651E-07 7.36406E-08
 -1      1498 1.86442E+01-6.52434E-02 1.92201E-02-4.16500E+00 8.26521E-07 1.75644E-07
 -1      1499 1.86442E+01-6.52572E-02 1.91800E-02-4.16500E+00 5.36601E-06 1.14055E-06
 -1      1500 1.86442E+01-6.52637E-02 1.90061E-02-4.16499E+00 2.56182E-05 5.44529E-06
 -1      1501 1.86436E+01-6.57475E-02 1.76896E-02-4.16497E+00-2.36936E-04-5.03624E-05
 -1      1502 1.81570E+01 4.20857E-01 1.76896E-02-5.11999E+00 2.33976E-04 6.26936E-05
 -1      1503 1.81576E+01 4.21342E-01 1.90061E-02-5.12000E+00-2.52981E-05-6.77864E-06
 -1      1504 1.81576E+01 4.21350E-01 1.91800E-02-5.12002E+00-5.29895E-06-1.41989E-06
 -1      1505 1.81576E+01 4.21364E-01 1.92201E-02-5.12002E+00-8.16173E-07-2.18737E-07
 -1      1506 1.81576E+01 4.21365E-01 1.92264E-02-5.12002E+00-3.42300E-07-9.17622E-08
 -1      1507 1.81576E+01 4.21365E-01 1.92264E-02-5.12002E+00 3.42322E-07 9.16817E-08
 -1      1508 1.81576E+01 4.21364E-01 1.92201E-02-5.12002E+00 8.16194E-07 2.18657E-07
 -1      1509 1.81576E+01 4.21350E-01 1.91800E-02-5.12002E+00 5.29897E-06 1.41982E-06
 -1      1510 1.81576E+01 4.21342E-01 1.90061E-02-5.12000E+00 2.52981E-05 6.77858E-06
 -1      1511 1.81570E+01 4.20857E-01 1.76896E-02-5.11999E+00-2.33976E-04-6.26937E-05
 -1      1512 1.75732E+01 1.00462E+00 1.76896E-02-6.01891E+00 2.30374E-04 7.48531E-05
 -1      1513 1.75738E+01 1.00511E+00 1.90061E-02-6.01893E+00-2.49087E-05-8.09335E-06
 -1      1514 1.75738E+01 1.00512E+00 1.91800E-02-6.01894E+00-5.21737E-06-1.69527E-06
 -1      1515 1.75739E+01 1.00513E+00 1.92201E-02-6.01895E+00-8.03607E-07-2.61152E-07
 -1      1516 1.75739E+01 1.00513E+00 1.92264E-02-6.01895E+00-3.37031E-07-1.09549E-07
 -1      1517 1.75739E+01 1.00513E+00 1.92264E-02-6.01895E+00 3.37052E-07 1.09479E-07
 -1      1518 1.75739E+01 1.00513E+00 1.92201E-02-6.01895E+00 8.03628E-07 2.61084E-07
 -1      1519 1.75738E+01 1.00512E+00 1.91800E-02-6.01894E+00 5.21739E-06 1.69521E-06
 -1      1520 1.75738E+01 1.00511E+00 1.90061E-02-6.01893E+00 2.49087E-05 8.09330E-06
 -1      1521 1.75732E+01 1.00462E+00 1.76896E-02-6.01891E+00-2.30374E-04-7.48531E-05
 -1      1522 1.68987E+01 1.67915E+00 1.76896E-02-6.85188E+00 2.26141E-04 8.68073E-05
 -1      1523 1.68993E+01 1.67964E+00 1.90061E-02-6.85190E+00-2.44509E-05-9.38587E-06
 -1      1524 1.68993E+01 1.67965E+00 1.91800E-02-6.85192E+00-5.12150E-06-1.96600E-06
 -1      1525 1.68993E+01 1.67967E+00 1.92201E-02-6.85193E+00-7.88842E-07-3.02841E-07
 -1      1526 1.68993E+01 1.67967E+00 1.92264E-02-6.85193E+00-3.30837E-07-1.27028E-07
 -1      1527 1.68993E+01 1.67967E+00 1.92264E-02-6.85193E+00 3.30858E-07 1.26974E-07
 -1      1528 1.68993E+01 1.67967E+00 1.92201E-02-6.85193E+00 7.88860E-07 3.02786E-07
 -1      1529 1.68993E+01 1.67965E+00 1.91800E-02-6.85192E+00 5.12152E-06 1.96594E-06
 -1      1530 1.68993E+01 1.67964E+00 1.90061E-02-6.85190E+00 2.44510E-05 9.38582E-06
 -1      1531 1.68987E+01 1.67915E+00 1.76896E-02-6.85188E+00-2.26141E-04-8.68074E-05
 -1      1532 1.61408E+01 2.43705E+00 1.76896E-02-7.60978E+00 2.21288E-04 9.85237E-05
 -1      1533 1.61414E+01 2.43755E+00 1.90061E-02-7.60981E+00-2.39262E-05-1.06527E-05
 -1      1534 1.61414E+01 2.43756E+00 1.91800E-02-7.60983E+00-5.01160E-06-2.23132E-06
 -1      1535 1.61414E+01 2.43757E+00 1.92201E-02-7.60983E+00-7.71915E-07-3.43705E-07
 -1      1536 1.61414E+01 2.43758E+00 1.92264E-02-7.60984E+00-3.23737E-07-1.44169E-07
 -1      1537 1.61414E+01 2.43758E+00 1.92264E-02-7.60984E+00 3.23763E-07 1.44114E-07
 -1      1538 1.61414E+01 2.43757E+00 1.92201E-02-7.60983E+00 7.71939E-07 3.43649E-07
 -1      1539 1.61414E+01 2.43756E+00 1.91800E-02-7.60983E+00 5.01162E-06 2.23127E-06
 -1      1540 1.61414E+01 2.43755E+00 1.90061E-02-7.60981E+00 2.39262E-05 1.06526E-05
 -1      1541 1.61408E+01 2.43705E+00 1.76896E-02-7.60978E+00-2.21288E-04-9.85237E-05
 -1      1542 1.53078E+01 3.27003E+00 1.76896E-02-8.28431E+00 2.15828E-04 1.09970E-04
 -1      1543 1.53084E+01 3.27052E+00 1.90061E-02-8.28434E+00-2.33359E-05-1.18903E-05
 -1      1544 1.53084E+01 3.27054E+00 1.91800E-02-8.28436E+00-4.88794E-06-2.49058E-06
 -1      1545 1.53084E+01 3.27055E+00 1.92201E-02-8.28437E+00-7.52862E-07-3.83646E-07
 -1      1546 1.53085E+01 3.27056E+00 1.92264E-02-8.28437E+00-3.15743E-07-1.60920E-07
 -1      1547 1.53085E+01 3.27056E+00 1.92264E-02-8.28437E+00 3.15775E-07 1.60859E-07
 -1      1548 1.53084E+01 3.27055E+00 1.92201E-02-8.28437E+00 7.52892E-07 3.83586E-07
 -1      1549 1.53084E+01 3.27054E+00 1.91800E-02-8.28436E+00 4.88797E-06 2.49052E-06
 -1      1550 1.53084E+01 3.27052E+00 1.90061E-02-8.28434E+00 2.33359E-05 1.18902E-05
 -1      1551 1.53078E+01 3.27003E+00 1.76896E-02-8.28431E+00-2.15828E-04-1.09970E-04
 -1      1552 1.44089E+01 4.16895E+00 1.76896E-02-8.86808E+00 2.09777E-04 1.21115E-04
 -1      1553 1.44095E+01 4.16945E+00 1.90061E-02-8.86811E+00-2.26816E-05-1.30953E-05
 -1      1554 1.44095E+01 4.16946E+00 1.91800E-02-8.86813E+00-4.75089E-06-2.74299E-06
 -1      1555 1.44095E+01 4.16948E+00 1.92201E-02-8.86814E+00-7.31744E-07-4.22534E-07
 -1      1556 1.44095E+01 4.16948E+00 1.92264E-02-8.86814E+00-3.06887E-07-1.77232E-07
 -1      1557 1.44095E+01 4.16948E+00 1.92264E-02-8.86814E+00 3.06926E-07 1.77162E-07
 -1      1558 1.44095E+01 4.16948E+00 1.92201E-02-8.86814E+00 7.31783E-07 4.22465E-07
 -1      1559 1.44095E+01 4.16946E+00 1.91800E-02-8.86813E+00 4.75092E-06 2.74293E-06
 -1      1560 1.44095E+01 4.16945E+00 1.90061E-02-8.86811E+00 2.26817E-05 1.30953E-05
 -1      1561 1.44089E+01 4.16895E+00 1.76896E-02-8.86808E+00-2.09777E-04-1.21115E-04
 -1      1562 1.34539E+01 5.12396E+00 1.76896E-02-9.35468E+00 2.03151E-04 1.31928E-04
 -1      1563 1.34544E+01 5.12446E+00 1.90061E-02-9.35471E+00-2.19652E-05-1.42644E-05
 -1      1564 1.34545E+01 5.12448E+00 1.91800E-02-9.35474E+00-4.60083E-06-2.98786E-06
 -1      1565 1.34545E+01 5.12450E+00 1.92201E-02-9.35474E+00-7.08630E-07-4.60246E-07
 -1      1566 1.34545E+01 5.12450E+00 1.92264E-02-9.35475E+00-2.97188E-07-1.93051E-07
 -1      1567 1.34545E+01 5.12450E+00 1.92264E-02-9.35475E+00 2.97236E-07 1.92976E-07
 -1      1568 1.34545E+01 5.12450E+00 1.92201E-02-9.35474E+00 7.08680E-07 4.60171E-07
 -1      1569 1.34545E+01 5.12448E+00 1.91800E-02-9.35474E+00 4.60087E-06 2.98779E-06
 -1      1570 1.34544E+01 5.12446E+00 1.90061E-02-9.35471E+00 2.19652E-05 1.42643E-05
 -1      1571 1.34539E+01 5.12396E+00 1.76896E-02-9.35468E+00-2.03151E-04-1.31928E-04
 -1      1572 1.24533E+01 6.12461E+00 1.76896E-02-9.73880E+00 1.95968E-04 1.42379E-04
 -1      1573 1.24538E+01 6.12511E+00 1.90061E-02-9.73883E+00-2.11886E-05-1.53944E-05
 -1      1574 1.24538E+01 6.12514E+00 1.91800E-02-9.73886E+00-4.43815E-06-3.22456E-06
 -1      1575 1.24538E+01 6.12515E+00 1.92201E-02-9.73886E+00-6.83572E-07-4.96702E-07
 -1      1576 1.24539E+01 6.12516E+00 1.92264E-02-9.73886E+00-2.86677E-07-2.08344E-07
 -1      1577 1.24539E+01 6.12516E+00 1.92264E-02-9.73886E+00 2.86734E-07 2.08263E-07
 -1      1578 1.24538E+01 6.12515E+00 1.92201E-02-9.73886E+00 6.83628E-07 4.96626E-07
 -1      1579 1.24538E+01 6.12514E+00 1.91800E-02-9.73886E+00 4.43820E-06 3.22448E-06
 -1      1580 1.24538E+01 6.12511E+00 1.90061E-02-9.73883E+00 2.11886E-05 1.53944E-05
 -1      1581 1.24533E+01 6.12461E+00 1.76896E-02-9.73880E+00-1.95968E-04-1.42379E-04
 -1      1582 1.14179E+01 7.15992E+00 1.76896E-02-1.00162E+01 1.88248E-04 1.52440E-04
 -1      1583 1.14185E+01 7.16043E+00 1.90061E-02-1.00162E+01-2.03538E-05-1.64823E-05
 -1      1584 1.14185E+01 7.16046E+00 1.91800E-02-1.00163E+01-4.26330E-06-3.45242E-06
 -1      1585 1.14185E+01 7.16048E+00 1.92201E-02-1.00163E+01-6.56635E-07-5.31806E-07
 -1      1586 1.14185E+01 7.16048E+00 1.92264E-02-1.00163E+01-2.75378E-07-2.23065E-07
 -1      1587 1.14185E+01 7.16048E+00 1.92264E-02-1.00163E+01 2.75438E-07 2.22987E-07
 -1      1588 1.14185E+01 7.16048E+00 1.92201E-02-1.00163E+01 6.56695E-07 5.31730E-07
 -1      1589 1.14185E+01 7.16046E+00 1.91800E-02-1.00163E+01 4.26335E-06 3.45235E-06
 -1      1590 1.14185E+01 7.16043E+00 1.90061E-02-1.00162E+01 2.03539E-05 1.64822E-05
 -1      1591 1.14179E+01 7.15992E+00 1.76896E-02-1.00162E+01-1.88248E-04-1.52440E-04
 -1      1592 1.03593E+01 8.21857E+00 1.76896E-02-1.01839E+01 1.80012E-04 1.62083E-04
 -1      1593 1.03598E+01 8.21908E+00 1.90061E-02-1.01839E+01-1.94633E-05-1.75249E-05
 -1      1594 1.03599E+01 8.21911E+00 1.91800E-02-1.01839E+01-4.07677E-06-3.67081E-06
 -1      1595 1.03599E+01 8.21912E+00 1.92201E-02-1.01839E+01-6.27906E-07-5.65437E-07
 -1      1596 1.03599E+01 8.21913E+00 1.92264E-02-1.01839E+01-2.63330E-07-2.37169E-07
 -1      1597 1.03599E+01 8.21913E+00 1.92264E-02-1.01839E+01 2.63394E-07 2.37096E-07
 -1      1598 1.03599E+01 8.21912E+00 1.92201E-02-1.01839E+01 6.27969E-07 5.65366E-07
 -1      1599 1.03599E+01 8.21911E+00 1.91800E-02-1.01839E+01 4.07683E-06 3.67075E-06
 -1      1600 1.03598E+01 8.21908E+00 1.90061E-02-1.01839E+01 1.94634E-05 1.75249E-05
 -1      1601 1.03593E+01 8.21857E+00 1.76896E-02-1.01839E+01-1.80012E-04-1.62083E-04
 -1      1602 9.28893E+00 9.28893E+00 1.76896E-02-1.02400E+01 1.71282E-04 1.71282E-04
 -1      1603 9.28945E+00 9.28945E+00 1.90061E-02-1.02400E+01-1.85195E-05-1.85195E-05
 -1      1604 9.28948E+00 9.28948E+00 1.91800E-02-1.02400E+01-3.87909E-06-3.87912E-06
 -1      1605 9.28950E+00 9.28950E+00 1.92201E-02-1.02400E+01-5.97463E-07-5.97516E-07
 -1      1606 9.28950E+00 9.28950E+00 1.92264E-02-1.02400E+01-2.50552E-07-2.50624E-07
 -1      1607 9.28950E+00 9.28950E+00 1.92264E-02-1.02400E+01 2.50626E-07 2.50546E-07
 -1      1608 9.28950E+00 9.28950E+00 1.92201E-02-1.02400E+01 5.97531E-07 5.97445E-07
 -1      1609 9.28948E+00 9.28948E+00 1.91800E-02-1.02400E+01 3.87915E-06 3.87906E-06
 -1      1610 9.28945E+00 9.28945E+00 1.90061E-02-1.02400E+01 1.85195E-05 1.85195E-05
 -1      1611 9.28893E+00 9.28893E+00 1.76896E-02-1.02400E+01-1.71282E-04-1.71282E-04
 -1      1612 8.21857E+00 1.03593E+01 1.76896E-02-1.01839E+01 1.62083E-04 1.80012E-04
 -1      1613 8.21908E+00 1.03598E+01 1.90061E-02-1.01839E+01-1.75249E-05-1.94634E-05
 -1      1614 8.21911E+00 1.03599E+01 1.91800E-02-1.01839E+01-3.67075E-06-4.07683E-06
 -1      1615 8.21912E+00 1.03599E+01 1.92201E-02-1.01839E+01-5.65371E-07-6.27963E-07
 -1      1616 8.21913E+00 1.03599E+01 1.92264E-02-1.01839E+01-2.37100E-07-2.63389E-07
 -1      1617 8.21913E+00 1.03599E+01 1.92264E-02-1.01839E+01 2.37168E-07 2.63327E-07
 -1      1618 8.21912E+00 1.03599E+01 1.92201E-02-1.01839E+01 5.65438E-07 6.27904E-07
 -1      1619 8.21911E+00 1.03599E+01 1.91800E-02-1.01839E+01 3.67081E-06 4.07677E-06
 -1      1620 8.21908E+00 1.03598E+01 1.90061E-02-1.01839E+01 1.75249E-05 1.94633E-05
 -1      1621 8.21857E+00 1.03593E+01 1.76896E-02-1.01839E+01-1.62083E-04-1.80012E-04
 -1      1622 7.15992E+00 1.14179E+01 1.76896E-02-1.00162E+01 1.52440E-04 1.88248E-04
 -1      1623 7.16043E+00 1.14185E+01 1.90061E-02-1.00162E+01-1.64822E-05-2.03539E-05
 -1      1624 7.16046E+00 1.14185E+01 1.91800E-02-1.00163E+01-3.45233E-06-4.26337E-06
 -1      1625 7.16048E+00 1.14185E+01 1.92201E-02-1.00163E+01-5.31716E-07-6.56705E-07
 -1      1626 7.16048E+00 1.14185E+01 1.92264E-02-1.00163E+01-2.22984E-07-2.75441E-07
 -1      1627 7.16048E+00 1.14185E+01 1.92264E-02-1.00163E+01 2.23054E-07 2.75385E-07
 -1      1628 7.16048E+00 1.14185E+01 1.92201E-02-1.00163E+01 5.31786E-07 6.56649E-07
 -1      1629 7.16046E+00 1.14185E+01 1.91800E-02-1.00163E+01 3.45240E-06 4.26332E-06
 -1      1630 7.16043E+00 1.14185E+01 1.90061E-02-1.00162E+01 1.64822E-05 2.03538E-05
 -1      1631 7.15992E+00 1.14179E+01 1.76896E-02-1.00162E+01-1.52440E-04-1.88248E-04
 -1      1632 6.12461E+00 1.24533E+01 1.76896E-02-9.73879E+00 1.42379E-04 1.95968E-04
 -1      1633 6.12511E+00 1.24538E+01 1.90061E-02-9.73883E+00-1.53944E-05-2.11886E-05
 -1      1634 6.12514E+00 1.24538E+01 1.91800E-02-9.73886E+00-3.22447E-06-4.43821E-06
 -1      1635 6.12515E+00 1.24538E+01 1.92201E-02-9.73886E+00-4.96614E-07-6.83635E-07
 -1      1636 6.12516E+00 1.24539E+01 1.92264E-02-9.73886E+00-2.08263E-07-2.86735E-07
 -1      1637 6.12516E+00 1.24539E+01 1.92264E-02-9.73886E+00 2.08333E-07 2.86684E-07
 -1      1638 6.12515E+00 1.24538E+01 1.92201E-02-9.73886E+00 4.96684E-07 6.83587E-07
 -1      1639 6.12514E+00 1.24538E+01 1.91800E-02-9.73886E+00 3.22454E-06 4.43816E-06
 -1      1640 6.12511E+00 1.24538E+01 1.90061E-02-9.73883E+00 1.53944E-05 2.11886E-05
 -1      1641 6.12461E+00 1.24533E+01 1.76896E-02-9.73879E+00-1.42379E-04-1.95968E-04
 -1      1642 5.12396E+00 1.34539E+01 1.76896E-02-9.35468E+00 1.31928E-04 2.03151E-04
 -1      1643 5.12446E+00 1.34544E+01 1.90061E-02-9.35471E+00-1.42643E-05-2.19652E-05
 -1      1644 5.12448E+00 1.34545E+01 1.91800E-02-9.35474E+00-2.98779E-06-4.60088E-06
 -1      1645 5.12450E+00 1.34545E+01 1.92201E-02-9.35474E+00-4.60168E-07-7.08682E-07
 -1      1646 5.12450E+00 1.34545E+01 1.92264E-02-9.35475E+00-1.92977E-07-2.97236E-07
 -1      1647 5.12450E+00 1.34545E+01 1.92264E-02-9.35475E+00 1.93046E-07 2.97192E-07
 -1      1648 5.12450E+00 1.34545E+01 1.92201E-02-9.35474E+00 4.60235E-07 7.08639E-07
 -1      1649 5.12448E+00 1.34545E+01 1.91800E-02-9.35474E+00 2.98785E-06 4.60084E-06
 -1      1650 5.12446E+00 1.34544E+01 1.90061E-02-9.35471E+00 1.42644E-05 2.19652E-05
 -1      1651 5.12396E+00 1.34539E+01 1.76896E-02-9.35468E+00-1.31928E-04-2.03151E-04
 -1      1652 4.16895E+00 1.44089E+01 1.76896E-02-8.86808E+00 1.21115E-04 2.09777E-04
 -1      1653 4.16945E+00 1.44095E+01 1.90061E-02-8.86811E+00-1.30952E-05-2.26817E-05
 -1      1654 4.16946E+00 1.44095E+01 1.91800E-02-8.86813E+00-2.74291E-06-4.75094E-06
 -1      1655 4.16948E+00 1.44095E+01 1.92201E-02-8.86814E+00-4.22451E-07-7.31792E-07
 -1      1656 4.16948E+00 1.44095E+01 1.92264E-02-8.86814E+00-1.77157E-07-3.06928E-07
 -1      1657 4.16948E+00 1.44095E+01 1.92264E-02-8.86814E+00 1.77229E-07 3.06889E-07
 -1      1658 4.16948E+00 1.44095E+01 1.92201E-02-8.86814E+00 4.22518E-07 7.31752E-07
 -1      1659 4.16946E+00 1.44095E+01 1.91800E-02-8.86813E+00 2.74297E-06 4.75090E-06
 -1      1660 4.16945E+00 1.44095E+01 1.90061E-02-8.86811E+00 1.30953E-05 2.26816E-05
 -1      1661 4.16895E+00 1.44089E+01 1.76896E-02-8.86808E+00-1.21115E-04-2.09777E-04
 -1      1662 3.27003E+00 1.53078E+01 1.76896E-02-8.28431E+00 1.09970E-04 2.15828E-04
 -1      1663 3.27052E+00 1.53084E+01 1.90061E-02-8.28434E+00-1.18902E-05-2.33359E-05
 -1      1664 3.27054E+00 1.53084E+01 1.91800E-02-8.28436E+00-2.49051E-06-4.88797E-06
 -1      1665 3.27055E+00 1.53084E+01 1.92201E-02-8.28437E+00-3.83582E-07-7.52894E-07
 -1      1666 3.27056E+00 1.53085E+01 1.92264E-02-8.28437E+00-1.60858E-07-3.15775E-07
 -1      1667 3.27056E+00 1.53085E+01 1.92264E-02-8.28437E+00 1.60919E-07 3.15746E-07
 -1      1668 3.27055E+00 1.53084E+01 1.92201E-02-8.28437E+00 3.83645E-07 7.52864E-07
 -1      1669 3.27054E+00 1.53084E+01 1.91800E-02-8.28436E+00 2.49057E-06 4.88794E-06
 -1      1670 3.27052E+00 1.53084E+01 1.90061E-02-8.28434E+00 1.18903E-05 2.33359E-05
 -1      1671 3.27003E+00 1.53078E+01 1.76896E-02-8.28431E+00-1.09970E-04-2.15828E-04
 -1      1672 2.43705E+00 1.61408E+01 1.76896E-02-7.60978E+00 9.85237E-05 2.21288E-04
 -1      1673 2.43755E+00 1.61414E+01 1.90061E-02-7.60981E+00-1.06526E-05-2.39262E-05
 -1      1674 2.43756E+00 1.61414E+01 1.91800E-02-7.60983E+00-2.23130E-06-5.01161E-06
 -1      1675 2.43757E+00 1.61414E+01 1.92201E-02-7.60983E+00-3.43664E-07-7.71932E-07
 -1      1676 2.43758E+00 1.61414E+01 1.92264E-02-7.60984E+00-1.44117E-07-3.23759E-07
 -1      1677 2.43758E+00 1.61414E+01 1.92264E-02-7.60984E+00 1.44170E-07 3.23734E-07
 -1      1678 2.43757E+00 1.61414E+01 1.92201E-02-7.60983E+00 3.43713E-07 7.71909E-07
 -1      1679 2.43756E+00 1.61414E+01 1.91800E-02-7.60983E+00 2.23134E-06 5.01159E-06
 -1      1680 2.43755E+00 1.61414E+01 1.90061E-02-7.60981E+00 1.06527E-05 2.39262E-05
 -1      1681 2.43705E+00 1.61408E+01 1.76896E-02-7.60978E+00-9.85237E-05-2.21288E-04
 -1      1682 1.67915E+00 1.68987E+01 1.76896E-02-6.85188E+00 8.68074E-05 2.26141E-04
 -1      1683 1.67964E+00 1.68993E+01 1.90061E-02-6.85190E+00-9.38582E-06-2.44510E-05
 -1      1684 1.67965E+00 1.68993E+01 1.91800E-02-6.85192E+00-1.96594E-06-5.12152E-06
 -1      1685 1.67967E+00 1.68993E+01 1.92201E-02-6.85193E+00-3.02787E-07-7.88863E-07
 -1      1686 1.67967E+00 1.68993E+01 1.92264E-02-6.85193E+00-1.26978E-07-3.30854E-07
 -1      1687 1.67967E+00 1.68993E+01 1.92264E-02-6.85193E+00 1.27021E-07 3.30841E-07
 -1      1688 1.67967E+00 1.68993E+01 1.92201E-02-6.85193E+00 3.02830E-07 7.88846E-07
 -1      1689 1.67965E+00 1.68993E+01 1.91800E-02-6.85192E+00 1.96598E-06 5.12151E-06
 -1      1690 1.67964E+00 1.68993E+01 1.90061E-02-6.85190E+00 9.38585E-06 2.44510E-05
 -1      1691 1.67915E+00 1.68987E+01 1.76896E-02-6.85188E+00-8.68073E-05-2.26141E-04
 -1      1692 1.00462E+00 1.75732E+01 1.76896E-02-6.01891E+00 7.48531E-05 2.30374E-04
 -1      1693 1.00511E+00 1.75738E+01 1.90061E-02-6.01893E+00-8.09330E-06-2.49087E-05
 -1      1694 1.00512E+00 1.75738E+01 1.91800E-02-6.01894E+00-1.69521E-06-5.21739E-06
 -1      1695 1.00513E+00 1.75739E+01 1.92201E-02-6.01895E+00-2.61092E-07-8.03626E-07
 -1      1696 1.00513E+00 1.75739E+01 1.92264E-02-6.01895E+00-1.09495E-07-3.37049E-07
 -1      1697 1.00513E+00 1.75739E+01 1.92264E-02-6.01895E+00 1.09524E-07 3.37037E-07
 -1      1698 1.00513E+00 1.75739E+01 1.92201E-02-6.01895E+00 2.61121E-07 8.03617E-07
 -1      1699 1.00512E+00 1.75738E+01 1.91800E-02-6.01894E+00 1.69524E-06 5.21738E-06
 -1      1700 1.00511E+00 1.75738E+01 1.90061E-02-6.01893E+00 8.09332E-06 2.49087E-05
 -1      1701 1.00462E+00 1.75732E+01 1.76896E-02-6.01891E+00-7.48531E-05-2.30374E-04
 -1      1702 4.20857E-01 1.81570E+01 1.76896E-02-5.11999E+00 6.26936E-05 2.33976E-04
 -1      1703 4.21342E-01 1.81576E+01 1.90061E-02-5.12000E+00-6.77861E-06-2.52981E-05
 -1      1704 4.21350E-01 1.81576E+01 1.91800E-02-5.12002E+00-1.41985E-06-5.29896E-06
 -1      1705 4.21364E-01 1.81576E+01 1.92201E-02-5.12002E+00-2.18692E-07-8.16185E-07
 -1      1706 4.21365E-01 1.81576E+01 1.92264E-02-5.12002E+00-9.17164E-08-3.42313E-07
 -1      1707 4.21365E-01 1.81576E+01 1.92264E-02-5.12002E+00 9.17296E-08 3.42310E-07
 -1      1708 4.21364E-01 1.81576E+01 1.92201E-02-5.12002E+00 2.18707E-07 8.16181E-07
 -1      1709 4.21350E-01 1.81576E+01 1.91800E-02-5.12002E+00 1.41987E-06 5.29895E-06
 -1      1710 4.21342E-01 1.81576E+01 1.90061E-02-5.12000E+00 6.77862E-06 2.52981E-05
 -1      1711 4.20857E-01 1.81570E+01 1.76896E-02-5.11999E+00-6.26936E-05-2.33976E-04
 -1      1712-6.57475E-02 1.86436E+01 1.76896E-02-4.16497E+00 5.03624E-05 2.36936E-04
 -1      1713-6.52637E-02 1.86442E+01 1.90061E-02-4.16499E+00-5.44532E-06-2.56182E-05
 -1      1714-6.52572E-02 1.86442E+01 1.91800E-02-4.16500E+00-1.14058E-06-5.36600E-06
 -1      1715-6.52434E-02 1.86442E+01 1.92201E-02-4.16500E+00-1.75682E-07-8.26509E-07
 -1      1716-6.52428E-02 1.86442E+01 1.92264E-02-4.16500E+00-7.36768E-08-3.46643E-07
 -1      1717-6.52428E-02 1.86442E+01 1.92264E-02-4.16500E+00 7.36904E-08 3.46640E-07
 -1      1718-6.52434E-02 1.86442E+01 1.92201E-02-4.16500E+00 1.75694E-07 8.26510E-07
 -1      1719-6.52572E-02 1.86442E+01 1.91800E-02-4.16500E+00 1.14059E-06 5.36600E-06
 -1      1720-6.52637E-02 1.86442E+01 1.90061E-02-4.16499E+00 5.44533E-06 2.56182E-05
 -1      1721-6.57475E-02 1.86436E+01 1.76896E-02-4.16497E+00-5.03624E-05-2.36936E-04
 -1      1722-4.49860E-01 1.90277E+01 1.76896E-02-3.16433E+00 3.78931E-05 2.39247E-04
 -1      1723-4.49377E-01 1.90283E+01 1.90061E-02-3.16434E+00-4.09710E-06-2.58681E-05
 -1      1724-4.49372E-01 1.90283E+01 1.91800E-02-3.16435E+00-8.58181E-07-5.41834E-06
 -1      1725-4.49358E-01 1.90284E+01 1.92201E-02-3.16435E+00-1.32180E-07-8.34574E-07
 -1      1726-4.49358E-01 1.90284E+01 1.92264E-02-3.16435E+00-5.54327E-08-3.50023E-07
 -1      1727-4.49358E-01 1.90284E+01 1.92264E-02-3.16435E+00 5.54457E-08 3.50024E-07
 -1      1728-4.49358E-01 1.90284E+01 1.92201E-02-3.16435E+00 1.32193E-07 8.34570E-07
 -1      1729-4.49372E-01 1.90283E+01 1.91800E-02-3.16435E+00 8.58194E-07 5.41834E-06
 -1      1730-4.49377E-01 1.90283E+01 1.90061E-02-3.16434E+00 4.09711E-06 2.58681E-05
 -1      1731-4.49860E-01 1.90277E+01 1.76896E-02-3.16433E+00-3.78931E-05-2.39247E-04
 -1      1732-7.27272E-01 1.93051E+01 1.76896E-02-2.12901E+00 2.53199E-05 2.40903E-04
 -1      1733-7.26790E-01 1.93057E+01 1.90061E-02-2.12902E+00-2.73765E-06-2.60470E-05
 -1      1734-7.26786E-01 1.93058E+01 1.91800E-02-2.12902E+00-5.73426E-07-5.45583E-06
 -1      1735-7.26772E-01 1.93058E+01 1.92201E-02-2.12902E+00-8.83196E-08-8.40346E-07
 -1      1736-7.26772E-01 1.93058E+01 1.92264E-02-2.12902E+00-3.70412E-08-3.52447E-07
 -1      1737-7.26772E-01 1.93058E+01 1.92264E-02-2.12902E+00 3.70441E-08 3.52444E-07
 -1      1738-7.26772E-01 1.93058E+01 1.92201E-02-2.12902E+00 8.83228E-08 8.40347E-07
 -1      1739-7.26786E-01 1.93058E+01 1.91800E-02-2.12902E+00 5.73428E-07 5.45583E-06
 -1      1740-7.26790E-01 1.93057E+01 1.90061E-02-2.12902E+00 2.73765E-06 2.60470E-05
 -1      1741-7.27272E-01 1.93051E+01 1.76896E-02-2.12901E+00-2.53199E-05-2.40903E-04
 -1      1742-8.94944E-01 1.94728E+01 1.76896E-02-1.07037E+00 1.26773E-05 2.41898E-04
 -1      1743-8.94463E-01 1.94734E+01 1.90061E-02-1.07037E+00-1.37070E-06-2.61546E-05
 -1      1744-8.94459E-01 1.94734E+01 1.91800E-02-1.07038E+00-2.87106E-07-5.47837E-06
 -1      1745-8.94446E-01 1.94734E+01 1.92201E-02-1.07038E+00-4.42211E-08-8.43819E-07
 -1      1746-8.94445E-01 1.94735E+01 1.92264E-02-1.07038E+00-1.85477E-08-3.53901E-07
 -1      1747-8.94445E-01 1.94735E+01 1.92264E-02-1.07038E+00 1.85442E-08 3.53901E-07
 -1      1748-8.94446E-01 1.94734E+01 1.92201E-02-1.07038E+00 4.42175E-08 8.43819E-07
 -1      1749-8.94459E-01 1.94734E+01 1.91800E-02-1.07038E+00 2.87103E-07 5.47837E-06
 -1      1750-8.94463E-01 1.94734E+01 1.90061E-02-1.07037E+00 1.37070E-06 2.61546E-05
 -1      1751-8.94944E-01 1.94728E+01 1.76896E-02-1.07037E+00-1.26773E-05-2.41898E-04
 -1      1752-8.87211E-01 1.93999E+01-8.68719E-04-1.06613E+00 6.87107E-05 1.31108E-03
 -1      1753-7.20202E-01 1.92329E+01-8.68719E-04-2.12059E+00 1.37233E-04 1.30569E-03
 -1      1754-4.43888E-01 1.89566E+01-8.68719E-04-3.15180E+00 2.05379E-04 1.29671E-03
 -1      1755-6.12958E-02 1.85740E+01-8.68719E-04-4.14849E+00 2.72963E-04 1.28419E-03
 -1      1756 4.23383E-01 1.80894E+01-8.68719E-04-5.09973E+00 3.39798E-04 1.26814E-03
 -1      1757 1.00484E+00 1.75079E+01-8.68719E-04-5.99509E+00 4.05702E-04 1.24862E-03
 -1      1758 1.67670E+00 1.68360E+01-8.68719E-04-6.82477E+00 4.70494E-04 1.22568E-03
 -1      1759 2.43160E+00 1.60811E+01-8.68719E-04-7.57967E+00 5.33996E-04 1.19937E-03
 -1      1760 3.26128E+00 1.52515E+01-8.68719E-04-8.25153E+00 5.96034E-04 1.16978E-03
 -1      1761 4.15664E+00 1.43561E+01-8.68719E-04-8.83298E+00 6.56439E-04 1.13699E-03
 -1      1762 5.10788E+00 1.34049E+01-8.68719E-04-9.31766E+00 7.15045E-04 1.10107E-03
 -1      1763 6.10456E+00 1.24082E+01-8.68719E-04-9.70026E+00 7.71691E-04 1.06214E-03
 -1      1764 7.13578E+00 1.13770E+01-8.68719E-04-9.97657E+00 8.26221E-04 1.02030E-03
 -1      1765 8.19023E+00 1.03225E+01-8.68719E-04-1.01436E+01 8.78487E-04 9.75659E-04
 -1      1766 9.25637E+00 9.25637E+00-8.68720E-04-1.01995E+01 9.28345E-04 9.28345E-04
 -1      1767 1.03225E+01 8.19024E+00-8.68721E-04-1.01436E+01 9.75659E-04 8.78487E-04
 -1      1768 1.13770E+01 7.13578E+00-8.68721E-04-9.97657E+00 1.02030E-03 8.26221E-04
 -1      1769 1.24082E+01 6.10456E+00-8.68721E-04-9.70026E+00 1.06214E-03 7.71691E-04
 -1      1770 1.34049E+01 5.10788E+00-8.68721E-04-9.31766E+00 1.10107E-03 7.15045E-04
 -1      1771 1.43561E+01 4.15664E+00-8.68721E-04-8.83298E+00 1.13699E-03 6.56439E-04
 -1      1772 1.52515E+01 3.26128E+00-8.68721E-04-8.25153E+00 1.16978E-03 5.96034E-04
 -1      1773 1.60811E+01 2.43160E+00-8.68721E-04-7.57967E+00 1.19937E-03 5.33996E-04
 -1      1774 1.68360E+01 1.67670E+00-8.68721E-04-6.82477E+00 1.22568E-03 4.70494E-04
 -1      1775 1.75079E+01 1.00484E+00-8.68721E-04-5.99509E+00 1.24862E-03 4.05702E-04
 -1      1776 1.80894E+01 4.23383E-01-8.68721E-04-5.09973E+00 1.26814E-03 3.39798E-04
 -1      1777 1.85740E+01-6.12958E-02-8.68721E-04-4.14849E+00 1.28419E-03 2.72963E-04
 -1      1778 1.89566E+01-4.43888E-01-8.68721E-04-3.15180E+00 1.29671E-03 2.05379E-04
 -1      1779 1.92329E+01-7.20202E-01-8.68721E-04-2.12059E+00 1.30569E-03 1.37233E-04
 -1      1780 1.93999E+01-8.87211E-01-8.68721E-04-1.06613E+00 1.31108E-03 6.87107E-05
 -1      1781-8.34072E-01 1.93471E+01-2.07299E-04-1.06057E+00 2.17814E-05 4.15614E-04
 -1      1782-6.67935E-01 1.91810E+01-2.07299E-04-2.10951E+00 4.35031E-05 4.13904E-04
 -1      1783-3.93064E-01 1.89061E+01-2.07299E-04-3.13534E+00 6.51056E-05 4.11060E-04
 -1      1784-1.24695E-02 1.85255E+01-2.07299E-04-4.12683E+00 8.65296E-05 4.07090E-04
 -1      1785 4.69678E-01 1.80434E+01-2.07299E-04-5.07309E+00 1.07716E-04 4.02003E-04
 -1      1786 1.04810E+00 1.74650E+01-2.07299E-04-5.96378E+00 1.28608E-04 3.95815E-04
 -1      1787 1.71645E+00 1.67966E+01-2.07299E-04-6.78912E+00 1.49147E-04 3.88541E-04
 -1      1788 2.46741E+00 1.60457E+01-2.07299E-04-7.54009E+00 1.69277E-04 3.80203E-04
 -1      1789 3.29275E+00 1.52203E+01-2.07299E-04-8.20844E+00 1.88944E-04 3.70823E-04
 -1      1790 4.18344E+00 1.43296E+01-2.07299E-04-8.78685E+00 2.08092E-04 3.60426E-04
 -1      1791 5.12971E+00 1.33834E+01-2.07299E-04-9.26900E+00 2.26670E-04 3.49041E-04
 -1      1792 6.12119E+00 1.23919E+01-2.07299E-04-9.64960E+00 2.44627E-04 3.36700E-04
 -1      1793 7.14702E+00 1.13660E+01-2.07299E-04-9.92447E+00 2.61913E-04 3.23436E-04
 -1      1794 8.19597E+00 1.03171E+01-2.07299E-04-1.00906E+01 2.78482E-04 3.09285E-04
 -1      1795 9.25653E+00 9.25653E+00-2.07300E-04-1.01462E+01 2.94287E-04 2.94287E-04
 -1      1796 1.03171E+01 8.19597E+00-2.07300E-04-1.00906E+01 3.09285E-04 2.78482E-04
 -1      1797 1.13660E+01 7.14702E+00-2.07301E-04-9.92447E+00 3.23436E-04 2.61913E-04
 -1      1798 1.23919E+01 6.12119E+00-2.07301E-04-9.64960E+00 3.36700E-04 2.44627E-04
 -1      1799 1.33834E+01 5.12971E+00-2.07300E-04-9.26900E+00 3.49041E-04 2.26670E-04
 -1      1800 1.43296E+01 4.18344E+00-2.07300E-04-8.78685E+00 3.60426E-04 2.08092E-04
 -1      1801 1.52203E+01 3.29275E+00-2.07301E-04-8.20844E+00 3.70823E-04 1.88944E-04
 -1      1802 1.60457E+01 2.46741E+00-2.07301E-04-7.54009E+00 3.80203E-04 1.69277E-04
 -1      1803 1.67966E+01 1.71645E+00-2.07301E-04-6.78912E+00 3.88541E-04 1.49147E-04
 -1      1804 1.74650E+01 1.04810E+00-2.07301E-04-5.96378E+00 3.95815E-04 1.28608E-04
 -1      1805 1.80434E+01 4.69678E-01-2.07301E-04-5.07309E+00 4.02003E-04 1.07716E-04
 -1      1806 1.85255E+01-1.24695E-02-2.07301E-04-4.12683E+00 4.07090E-04 8.65296E-05
 -1      1807 1.89061E+01-3.93064E-01-2.07301E-04-3.13534E+00 4.11060E-04 6.51056E-05
 -1      1808 1.91810E+01-6.67935E-01-2.07301E-04-2.10951E+00 4.13904E-04 4.35031E-05
 -1      1809 1.93471E+01-8.34072E-01-2.07301E-04-1.06057E+00 4.15614E-04 2.17814E-05
 -1      1810-7.81452E-01 1.92946E+01 2.65876E-05-1.05504E+00 5.39971E-06 1.03033E-04
 -1      1811-6.16182E-01 1.91293E+01 2.65876E-05-2.09852E+00 1.07846E-05 1.02609E-04
 -1      1812-3.42743E-01 1.88559E+01 2.65877E-05-3.11900E+00 1.61400E-05 1.01904E-04
 -1      1813 3.58679E-02 1.84773E+01 2.65876E-05-4.10532E+00 2.14511E-05 1.00919E-04
 -1      1814 5.15503E-01 1.79976E+01 2.65876E-05-5.04665E+00 2.67034E-05 9.96584E-05
 -1      1815 1.09091E+00 1.74222E+01 2.65877E-05-5.93270E+00 3.18825E-05 9.81243E-05
 -1      1816 1.75577E+00 1.67574E+01 2.65878E-05-6.75374E+00 3.69743E-05 9.63213E-05
 -1      1817 2.50282E+00 1.60103E+01 2.65877E-05-7.50079E+00 4.19647E-05 9.42542E-05
 -1      1818 3.32387E+00 1.51893E+01 2.65875E-05-8.16566E+00 4.68400E-05 9.19287E-05
 -1      1819 4.20991E+00 1.43032E+01 2.65875E-05-8.74106E+00 5.15870E-05 8.93513E-05
 -1      1820 5.15125E+00 1.33619E+01 2.65876E-05-9.22070E+00 5.61926E-05 8.65290E-05
 -1      1821 6.13756E+00 1.23756E+01 2.65877E-05-9.59931E+00 6.06442E-05 8.34695E-05
 -1      1822 7.15805E+00 1.13551E+01 2.65880E-05-9.87275E+00 6.49295E-05 8.01813E-05
 -1      1823 8.20153E+00 1.03116E+01 2.65878E-05-1.00380E+01 6.90369E-05 7.66732E-05
 -1      1824 9.25657E+00 9.25657E+00 2.65870E-05-1.00933E+01 7.29551E-05 7.29551E-05
 -1      1825 1.03116E+01 8.20153E+00 2.65862E-05-1.00380E+01 7.66732E-05 6.90369E-05
 -1      1826 1.13551E+01 7.15805E+00 2.65860E-05-9.87275E+00 8.01813E-05 6.49295E-05
 -1      1827 1.23756E+01 6.13756E+00 2.65862E-05-9.59931E+00 8.34696E-05 6.06442E-05
 -1      1828 1.33619E+01 5.15125E+00 2.65863E-05-9.22070E+00 8.65290E-05 5.61926E-05
 -1      1829 1.43032E+01 4.20991E+00 2.65863E-05-8.74106E+00 8.93513E-05 5.15870E-05
 -1      1830 1.51893E+01 3.32387E+00 2.65862E-05-8.16566E+00 9.19288E-05 4.68400E-05
 -1      1831 1.60103E+01 2.50282E+00 2.65859E-05-7.50079E+00 9.42542E-05 4.19647E-05
 -1      1832 1.67574E+01 1.75577E+00 2.65859E-05-6.75374E+00 9.63213E-05 3.69743E-05
 -1      1833 1.74222E+01 1.09091E+00 2.65860E-05-5.93270E+00 9.81244E-05 3.18825E-05
 -1      1834 1.79976E+01 5.15503E-01 2.65860E-05-5.04665E+00 9.96585E-05 2.67034E-05
 -1      1835 1.84773E+01 3.58679E-02 2.65860E-05-4.10532E+00 1.00919E-04 2.14511E-05
 -1      1836 1.88559E+01-3.42743E-01 2.65860E-05-3.11900E+00 1.01904E-04 1.61400E-05
 -1      1837 1.91293E+01-6.16182E-01 2.65861E-05-2.09852E+00 1.02609E-04 1.07846E-05
 -1      1838 1.92946E+01-7.81452E-01 2.65861E-05-1.05504E+00 1.03033E-04 5.39971E-06
 -1      1839-7.29327E-01 1.92424E+01 9.91524E-05-1.04955E+00-1.40399E-06-2.67896E-05
 -1      1840-5.64915E-01 1.90780E+01 9.91525E-05-2.08761E+00-2.80412E-06-2.66794E-05
 -1      1841-2.92898E-01 1.88059E+01 9.91526E-05-3.10279E+00-4.19657E-06-2.64961E-05
 -1      1842 8.37452E-02 1.84293E+01 9.91525E-05-4.08398E+00-5.57752E-06-2.62402E-05
 -1      1843 5.60887E-01 1.79522E+01 9.91525E-05-5.02043E+00-6.94318E-06-2.59123E-05
 -1      1844 1.13330E+00 1.73797E+01 9.91525E-05-5.90186E+00-8.28981E-06-2.55134E-05
 -1      1845 1.79471E+00 1.67183E+01 9.91527E-05-6.71864E+00-9.61371E-06-2.50446E-05
 -1      1846 2.53788E+00 1.59752E+01 9.91526E-05-7.46181E+00-1.09113E-05-2.45071E-05
 -1      1847 3.35465E+00 1.51584E+01 9.91524E-05-8.12322E+00-1.21789E-05-2.39025E-05
 -1      1848 4.23609E+00 1.42769E+01 9.91524E-05-8.69563E+00-1.34132E-05-2.32323E-05
 -1      1849 5.17254E+00 1.33405E+01 9.91525E-05-9.17277E+00-1.46107E-05-2.24985E-05
 -1      1850 6.15373E+00 1.23593E+01 9.91526E-05-9.54942E+00-1.57682E-05-2.17030E-05
 -1      1851 7.16891E+00 1.13441E+01 9.91529E-05-9.82143E+00-1.68824E-05-2.08480E-05
 -1      1852 8.20696E+00 1.03061E+01 9.91527E-05-9.98585E+00-1.79503E-05-1.99359E-05
 -1      1853 9.25652E+00 9.25652E+00 9.91519E-05-1.00409E+01-1.89691E-05-1.89691E-05
 -1      1854 1.03061E+01 8.20696E+00 9.91511E-05-9.98585E+00-1.99359E-05-1.79504E-05
 -1      1855 1.13441E+01 7.16891E+00 9.91510E-05-9.82143E+00-2.08480E-05-1.68824E-05
 -1      1856 1.23593E+01 6.15373E+00 9.91511E-05-9.54942E+00-2.17030E-05-1.57682E-05
 -1      1857 1.33405E+01 5.17254E+00 9.91512E-05-9.17277E+00-2.24985E-05-1.46107E-05
 -1      1858 1.42769E+01 4.23609E+00 9.91512E-05-8.69563E+00-2.32323E-05-1.34132E-05
 -1      1859 1.51584E+01 3.35465E+00 9.91511E-05-8.12322E+00-2.39025E-05-1.21789E-05
 -1      1860 1.59752E+01 2.53788E+00 9.91508E-05-7.46181E+00-2.45071E-05-1.09113E-05
 -1      1861 1.67183E+01 1.79471E+00 9.91508E-05-6.71864E+00-2.50446E-05-9.61373E-06
 -1      1862 1.73797E+01 1.13330E+00 9.91509E-05-5.90186E+00-2.55134E-05-8.28981E-06
 -1      1863 1.79522E+01 5.60887E-01 9.91509E-05-5.02043E+00-2.59123E-05-6.94318E-06
 -1      1864 1.84293E+01 8.37452E-02 9.91509E-05-4.08398E+00-2.62402E-05-5.57752E-06
 -1      1865 1.88059E+01-2.92898E-01 9.91509E-05-3.10279E+00-2.64961E-05-4.19657E-06
 -1      1866 1.90780E+01-5.64915E-01 9.91510E-05-2.08761E+00-2.66794E-05-2.80412E-06
 -1      1867 1.92424E+01-7.29327E-01 9.91510E-05-1.04955E+00-2.67896E-05-1.40398E-06
 -1      1868-6.77648E-01 1.91905E+01 1.06534E-04-1.04411E+00-4.50857E-06-8.60286E-05
 -1      1869-5.14088E-01 1.90270E+01 1.06534E-04-2.07679E+00-9.00478E-06-8.56748E-05
 -1      1870-2.43481E-01 1.87564E+01 1.06534E-04-3.08671E+00-1.34763E-05-8.50861E-05
 -1      1871 1.31210E-01 1.83817E+01 1.06534E-04-4.06281E+00-1.79109E-05-8.42642E-05
 -1      1872 6.05878E-01 1.79070E+01 1.06534E-04-4.99440E+00-2.22964E-05-8.32113E-05
 -1      1873 1.17532E+00 1.73375E+01 1.06534E-04-5.87127E+00-2.66208E-05-8.19304E-05
 -1      1874 1.83331E+00 1.66796E+01 1.06534E-04-6.68381E+00-3.08722E-05-8.04249E-05
 -1      1875 2.57262E+00 1.59403E+01 1.06534E-04-7.42313E+00-3.50390E-05-7.86989E-05
 -1      1876 3.38516E+00 1.51277E+01 1.06534E-04-8.08111E+00-3.91098E-05-7.67573E-05
 -1      1877 4.26203E+00 1.42508E+01 1.06534E-04-8.65056E+00-4.30733E-05-7.46052E-05
 -1      1878 5.19362E+00 1.33192E+01 1.06534E-04-9.12523E+00-4.69189E-05-7.22487E-05
 -1      1879 6.16973E+00 1.23431E+01 1.06534E-04-9.49992E+00-5.06357E-05-6.96941E-05
 -1      1880 7.17965E+00 1.13332E+01 1.06535E-04-9.77052E+00-5.42138E-05-6.69486E-05
 -1      1881 8.21232E+00 1.03006E+01 1.06534E-04-9.93408E+00-5.76434E-05-6.40195E-05
 -1      1882 9.25644E+00 9.25644E+00 1.06534E-04-9.98880E+00-6.09149E-05-6.09149E-05
 -1      1883 1.03006E+01 8.21232E+00 1.06533E-04-9.93408E+00-6.40195E-05-5.76434E-05
 -1      1884 1.13332E+01 7.17965E+00 1.06533E-04-9.77052E+00-6.69485E-05-5.42139E-05
 -1      1885 1.23431E+01 6.16973E+00 1.06533E-04-9.49992E+00-6.96941E-05-5.06358E-05
 -1      1886 1.33192E+01 5.19362E+00 1.06533E-04-9.12523E+00-7.22487E-05-4.69188E-05
 -1      1887 1.42508E+01 4.26203E+00 1.06533E-04-8.65056E+00-7.46052E-05-4.30733E-05
 -1      1888 1.51277E+01 3.38516E+00 1.06533E-04-8.08111E+00-7.67572E-05-3.91098E-05
 -1      1889 1.59403E+01 2.57262E+00 1.06533E-04-7.42313E+00-7.86989E-05-3.50390E-05
 -1      1890 1.66796E+01 1.83331E+00 1.06532E-04-6.68381E+00-8.04248E-05-3.08722E-05
 -1      1891 1.73375E+01 1.17532E+00 1.06533E-04-5.87127E+00-8.19303E-05-2.66208E-05
 -1      1892 1.79070E+01 6.05878E-01 1.06533E-04-4.99440E+00-8.32113E-05-2.22964E-05
 -1      1893 1.83817E+01 1.31210E-01 1.06533E-04-4.06281E+00-8.42642E-05-1.79109E-05
 -1      1894 1.87564E+01-2.43481E-01 1.06533E-04-3.08671E+00-8.50861E-05-1.34763E-05
 -1      1895 1.90270E+01-5.14088E-01 1.06533E-04-2.07679E+00-8.56747E-05-9.00478E-06
 -1      1896 1.91905E+01-6.77648E-01 1.06533E-04-1.04411E+00-8.60286E-05-4.50857E-06
 -1      1897-6.26385E-01 1.91391E+01 8.73491E-05-1.03872E+00-5.97802E-06-1.14067E-04
 -1      1898-4.63671E-01 1.89764E+01 8.73492E-05-2.06605E+00-1.19397E-05-1.13598E-04
 -1      1899-1.94463E-01 1.87071E+01 8.73492E-05-3.07075E+00-1.78686E-05-1.12818E-04
 -1      1900 1.78291E-01 1.83344E+01 8.73492E-05-4.04181E+00-2.37485E-05-1.11728E-04
 -1      1901 6.50505E-01 1.78622E+01 8.73491E-05-4.96858E+00-2.95634E-05-1.10332E-04
 -1      1902 1.21701E+00 1.72957E+01 8.73492E-05-5.84092E+00-3.52972E-05-1.08634E-04
 -1      1903 1.87159E+00 1.66411E+01 8.73493E-05-6.64926E+00-4.09342E-05-1.06637E-04
 -1      1904 2.60708E+00 1.59056E+01 8.73493E-05-7.38475E+00-4.64591E-05-1.04349E-04
 -1      1905 3.41542E+00 1.50973E+01 8.73490E-05-8.03933E+00-5.18566E-05-1.01774E-04
 -1      1906 4.28776E+00 1.42249E+01 8.73491E-05-8.60584E+00-5.71120E-05-9.89209E-05
 -1      1907 5.21453E+00 1.32981E+01 8.73491E-05-9.07805E+00-6.22109E-05-9.57963E-05
 -1      1908 6.18559E+00 1.23271E+01 8.73492E-05-9.45080E+00-6.71392E-05-9.24092E-05
 -1      1909 7.19029E+00 1.13224E+01 8.73495E-05-9.72001E+00-7.18835E-05-8.87687E-05
 -1      1910 8.21762E+00 1.02951E+01 8.73494E-05-9.88273E+00-7.64308E-05-8.48850E-05
 -1      1911 9.25634E+00 9.25634E+00 8.73485E-05-9.93716E+00-8.07686E-05-8.07686E-05
 -1      1912 1.02951E+01 8.21762E+00 8.73478E-05-9.88273E+00-8.48850E-05-7.64308E-05
 -1      1913 1.13224E+01 7.19029E+00 8.73476E-05-9.72001E+00-8.87687E-05-7.18835E-05
 -1      1914 1.23271E+01 6.18559E+00 8.73477E-05-9.45080E+00-9.24092E-05-6.71392E-05
 -1      1915 1.32981E+01 5.21453E+00 8.73478E-05-9.07805E+00-9.57963E-05-6.22108E-05
 -1      1916 1.42249E+01 4.28776E+00 8.73478E-05-8.60584E+00-9.89209E-05-5.71120E-05
 -1      1917 1.50973E+01 3.41542E+00 8.73478E-05-8.03933E+00-1.01774E-04-5.18566E-05
 -1      1918 1.59056E+01 2.60708E+00 8.73475E-05-7.38475E+00-1.04349E-04-4.64591E-05
 -1      1919 1.66411E+01 1.87159E+00 8.73474E-05-6.64926E+00-1.06637E-04-4.09342E-05
 -1      1920 1.72957E+01 1.21701E+00 8.73476E-05-5.84092E+00-1.08633E-04-3.52972E-05
 -1      1921 1.78622E+01 6.50505E-01 8.73476E-05-4.96858E+00-1.10332E-04-2.95633E-05
 -1      1922 1.83344E+01 1.78291E-01 8.73475E-05-4.04181E+00-1.11728E-04-2.37485E-05
 -1      1923 1.87071E+01-1.94463E-01 8.73475E-05-3.07075E+00-1.12818E-04-1.78686E-05
 -1      1924 1.89764E+01-4.63671E-01 8.73476E-05-2.06605E+00-1.13598E-04-1.19397E-05
 -1      1925 1.91391E+01-6.26385E-01 8.73477E-05-1.03872E+00-1.14067E-04-5.97802E-06
 -1      1926-5.75523E-01 1.90880E+01 5.79659E-05-1.03336E+00-6.67012E-06-1.27273E-04
 -1      1927-4.13648E-01 1.89261E+01 5.79660E-05-2.05540E+00-1.33220E-05-1.26750E-04
 -1      1928-1.45828E-01 1.86583E+01 5.79660E-05-3.05492E+00-1.99373E-05-1.25879E-04
 -1      1929 2.25004E-01 1.82875E+01 5.79660E-05-4.02097E+00-2.64980E-05-1.24663E-04
 -1      1930 6.94783E-01 1.78177E+01 5.79659E-05-4.94296E+00-3.29860E-05-1.23105E-04
 -1      1931 1.25836E+00 1.72541E+01 5.79660E-05-5.81080E+00-3.93836E-05-1.21210E-04
 -1      1932 1.90957E+00 1.66029E+01 5.79661E-05-6.61497E+00-4.56733E-05-1.18983E-04
 -1      1933 2.64127E+00 1.58712E+01 5.79661E-05-7.34667E+00-5.18378E-05-1.16430E-04
 -1      1934 3.44544E+00 1.50670E+01 5.79659E-05-7.99788E+00-5.78603E-05-1.13557E-04
 -1      1935 4.31328E+00 1.41992E+01 5.79659E-05-8.56146E+00-6.37241E-05-1.10373E-04
 -1      1936 5.23528E+00 1.32772E+01 5.79659E-05-9.03124E+00-6.94133E-05-1.06887E-04
 -1      1937 6.20132E+00 1.23112E+01 5.79660E-05-9.40207E+00-7.49121E-05-1.03108E-04
 -1      1938 7.20084E+00 1.13116E+01 5.79663E-05-9.66989E+00-8.02057E-05-9.90458E-05
 -1      1939 8.22288E+00 1.02896E+01 5.79662E-05-9.83177E+00-8.52794E-05-9.47124E-05
 -1      1940 9.25624E+00 9.25624E+00 5.79653E-05-9.88592E+00-9.01195E-05-9.01195E-05
 -1      1941 1.02896E+01 8.22288E+00 5.79646E-05-9.83177E+00-9.47124E-05-8.52795E-05
 -1      1942 1.13116E+01 7.20084E+00 5.79644E-05-9.66989E+00-9.90458E-05-8.02057E-05
 -1      1943 1.23112E+01 6.20132E+00 5.79645E-05-9.40207E+00-1.03108E-04-7.49121E-05
 -1      1944 1.32772E+01 5.23528E+00 5.79647E-05-9.03124E+00-1.06887E-04-6.94132E-05
 -1      1945 1.41992E+01 4.31328E+00 5.79647E-05-8.56146E+00-1.10373E-04-6.37241E-05
 -1      1946 1.50670E+01 3.44544E+00 5.79646E-05-7.99788E+00-1.13557E-04-5.78602E-05
 -1      1947 1.58712E+01 2.64127E+00 5.79643E-05-7.34667E+00-1.16430E-04-5.18378E-05
 -1      1948 1.66029E+01 1.90957E+00 5.79642E-05-6.61497E+00-1.18983E-04-4.56733E-05
 -1      1949 1.72541E+01 1.25836E+00 5.79644E-05-5.81080E+00-1.21210E-04-3.93836E-05
 -1      1950 1.78177E+01 6.94783E-01 5.79644E-05-4.94296E+00-1.23105E-04-3.29860E-05
 -1      1951 1.82875E+01 2.25004E-01 5.79643E-05-4.02097E+00-1.24663E-04-2.64980E-05
 -1      1952 1.86583E+01-1.45828E-01 5.79644E-05-3.05492E+00-1.25879E-04-1.99373E-05
 -1      1953 1.89261E+01-4.13648E-01 5.79644E-05-2.05540E+00-1.26750E-04-1.33220E-05
 -1      1954 1.90880E+01-5.75523E-01 5.79645E-05-1.03336E+00-1.27273E-04-6.67012E-06
 -1      1955-5.25053E-01 1.90373E+01 2.53147E-05-1.02805E+00-6.97929E-06-1.33173E-04
 -1      1956-3.64011E-01 1.88763E+01 2.53147E-05-2.04483E+00-1.39395E-05-1.32625E-04
 -1      1957-9.75678E-02 1.86099E+01 2.53148E-05-3.03921E+00-2.08614E-05-1.31714E-04
 -1      1958 2.71356E-01 1.82409E+01 2.53147E-05-4.00029E+00-2.77262E-05-1.30441E-04
 -1      1959 7.38720E-01 1.77736E+01 2.53147E-05-4.91754E+00-3.45150E-05-1.28812E-04
 -1      1960 1.29940E+00 1.72129E+01 2.53147E-05-5.78091E+00-4.12091E-05-1.26829E-04
 -1      1961 1.94726E+00 1.65650E+01 2.53149E-05-6.58095E+00-4.77904E-05-1.24498E-04
 -1      1962 2.67519E+00 1.58371E+01 2.53148E-05-7.30888E+00-5.42406E-05-1.21826E-04
 -1      1963 3.47523E+00 1.50371E+01 2.53146E-05-7.95674E+00-6.05422E-05-1.18821E-04
 -1      1964 4.33861E+00 1.41737E+01 2.53147E-05-8.51742E+00-6.66778E-05-1.15489E-04
 -1      1965 5.25586E+00 1.32564E+01 2.53146E-05-8.98479E+00-7.26307E-05-1.11841E-04
 -1      1966 6.21694E+00 1.22953E+01 2.53148E-05-9.35371E+00-7.83844E-05-1.07887E-04
 -1      1967 7.21132E+00 1.13010E+01 2.53151E-05-9.62015E+00-8.39234E-05-1.03637E-04
 -1      1968 8.22810E+00 1.02842E+01 2.53150E-05-9.78120E+00-8.92323E-05-9.91025E-05
 -1      1969 9.25614E+00 9.25614E+00 2.53141E-05-9.83507E+00-9.42966E-05-9.42966E-05
 -1      1970 1.02842E+01 8.22810E+00 2.53134E-05-9.78120E+00-9.91025E-05-8.92323E-05
 -1      1971 1.13010E+01 7.21132E+00 2.53132E-05-9.62015E+00-1.03637E-04-8.39234E-05
 -1      1972 1.22953E+01 6.21694E+00 2.53133E-05-9.35371E+00-1.07887E-04-7.83844E-05
 -1      1973 1.32564E+01 5.25586E+00 2.53134E-05-8.98479E+00-1.11841E-04-7.26306E-05
 -1      1974 1.41737E+01 4.33861E+00 2.53134E-05-8.51742E+00-1.15489E-04-6.66778E-05
 -1      1975 1.50371E+01 3.47523E+00 2.53134E-05-7.95674E+00-1.18821E-04-6.05421E-05
 -1      1976 1.58371E+01 2.67519E+00 2.53131E-05-7.30888E+00-1.21826E-04-5.42406E-05
 -1      1977 1.65650E+01 1.94726E+00 2.53130E-05-6.58095E+00-1.24498E-04-4.77904E-05
 -1      1978 1.72129E+01 1.29940E+00 2.53132E-05-5.78091E+00-1.26829E-04-4.12091E-05
 -1      1979 1.77736E+01 7.38720E-01 2.53132E-05-4.91754E+00-1.28812E-04-3.45150E-05
 -1      1980 1.82409E+01 2.71356E-01 2.53131E-05-4.00029E+00-1.30441E-04-2.77262E-05
 -1      1981 1.86099E+01-9.75678E-02 2.53131E-05-3.03921E+00-1.31714E-04-2.08614E-05
 -1      1982 1.88763E+01-3.64011E-01 2.53132E-05-2.04483E+00-1.32625E-04-1.39395E-05
 -1      1983 1.90373E+01-5.25053E-01 2.53133E-05-1.02805E+00-1.33173E-04-6.97929E-06
 -1      1984-4.74970E-01 1.89871E+01-7.88867E-06-1.02277E+00-7.09440E-06-1.35369E-04
 -1      1985-3.14754E-01 1.88268E+01-7.88858E-06-2.03434E+00-1.41693E-05-1.34812E-04
 -1      1986-4.96777E-02 1.85618E+01-7.88851E-06-3.02361E+00-2.12055E-05-1.33886E-04
 -1      1987 3.17354E-01 1.81947E+01-7.88859E-06-3.97976E+00-2.81834E-05-1.32593E-04
 -1      1988 7.82319E-01 1.77298E+01-7.88862E-06-4.89231E+00-3.50842E-05-1.30936E-04
 -1      1989 1.34012E+00 1.71720E+01-7.88858E-06-5.75125E+00-4.18888E-05-1.28920E-04
 -1      1990 1.98466E+00 1.65274E+01-7.88844E-06-6.54719E+00-4.85785E-05-1.26551E-04
 -1      1991 2.70886E+00 1.58032E+01-7.88849E-06-7.27139E+00-5.51352E-05-1.23836E-04
 -1      1992 3.50479E+00 1.50073E+01-7.88871E-06-7.91592E+00-6.15406E-05-1.20780E-04
 -1      1993 4.36374E+00 1.41484E+01-7.88865E-06-8.47373E+00-6.77774E-05-1.17394E-04
 -1      1994 5.27628E+00 1.32358E+01-7.88869E-06-8.93869E+00-7.38285E-05-1.13686E-04
 -1      1995 6.23243E+00 1.22797E+01-7.88851E-06-9.30573E+00-7.96772E-05-1.09666E-04
 -1      1996 7.22171E+00 1.12904E+01-7.88823E-06-9.57080E+00-8.53074E-05-1.05346E-04
 -1      1997 8.23328E+00 1.02788E+01-7.88836E-06-9.73102E+00-9.07039E-05-1.00737E-04
 -1      1998 9.25605E+00 9.25605E+00-7.88921E-06-9.78462E+00-9.58518E-05-9.58518E-05
 -1      1999 1.02788E+01 8.23328E+00-7.88995E-06-9.73102E+00-1.00737E-04-9.07039E-05
 -1      2000 1.12904E+01 7.22171E+00-7.89008E-06-9.57080E+00-1.05346E-04-8.53075E-05
 -1      2001 1.22797E+01 6.23243E+00-7.88998E-06-9.30573E+00-1.09666E-04-7.96772E-05
 -1      2002 1.32358E+01 5.27628E+00-7.88988E-06-8.93869E+00-1.13686E-04-7.38285E-05
 -1      2003 1.41484E+01 4.36374E+00-7.88989E-06-8.47373E+00-1.17394E-04-6.77775E-05
 -1      2004 1.50073E+01 3.50479E+00-7.88991E-06-7.91592E+00-1.20780E-04-6.15406E-05
 -1      2005 1.58032E+01 2.70886E+00-7.89022E-06-7.27139E+00-1.23836E-04-5.51351E-05
 -1      2006 1.65274E+01 1.98466E+00-7.89028E-06-6.54719E+00-1.26551E-04-4.85785E-05
 -1      2007 1.71720E+01 1.34012E+00-7.89012E-06-5.75125E+00-1.28920E-04-4.18888E-05
 -1      2008 1.77298E+01 7.82319E-01-7.89012E-06-4.89231E+00-1.30936E-04-3.50842E-05
 -1      2009 1.81947E+01 3.17354E-01-7.89019E-06-3.97976E+00-1.32593E-04-2.81834E-05
 -1      2010 1.85618E+01-4.96777E-02-7.89019E-06-3.02361E+00-1.33886E-04-2.12055E-05
 -1      2011 1.88268E+01-3.14754E-01-7.89008E-06-2.03434E+00-1.34812E-04-1.41693E-05
 -1      2012 1.89871E+01-4.74970E-01-7.89003E-06-1.02277E+00-1.35369E-04-7.09439E-06
 -1      2013-4.25270E-01 1.89372E+01-4.08121E-05-1.01754E+00-7.10185E-06-1.35511E-04
 -1      2014-2.65874E-01 1.87778E+01-4.08120E-05-2.02393E+00-1.41842E-05-1.34954E-04
 -1      2015-2.15419E-03 1.85141E+01-4.08119E-05-3.00814E+00-2.12277E-05-1.34027E-04
 -1      2016 3.62999E-01 1.81489E+01-4.08120E-05-3.95940E+00-2.82130E-05-1.32732E-04
 -1      2017 8.25585E-01 1.76863E+01-4.08120E-05-4.86727E+00-3.51210E-05-1.31073E-04
 -1      2018 1.38054E+00 1.71314E+01-4.08120E-05-5.72182E+00-4.19328E-05-1.29056E-04
 -1      2019 2.02177E+00 1.64901E+01-4.08119E-05-6.51368E+00-4.86295E-05-1.26684E-04
 -1      2020 2.74227E+00 1.57696E+01-4.08119E-05-7.23418E+00-5.51931E-05-1.23966E-04
 -1      2021 3.53413E+00 1.49778E+01-4.08121E-05-7.87542E+00-6.16053E-05-1.20907E-04
 -1      2022 4.38868E+00 1.41232E+01-4.08121E-05-8.43037E+00-6.78486E-05-1.17517E-04
 -1      2023 5.29655E+00 1.32153E+01-4.08121E-05-8.89295E+00-7.39060E-05-1.13805E-04
 -1      2024 6.24781E+00 1.22641E+01-4.08119E-05-9.25811E+00-7.97608E-05-1.09781E-04
 -1      2025 7.23203E+00 1.12799E+01-4.08116E-05-9.52183E+00-8.53970E-05-1.05457E-04
 -1      2026 8.23841E+00 1.02735E+01-4.08118E-05-9.68122E+00-9.07992E-05-1.00843E-04
 -1      2027 9.25595E+00 9.25595E+00-4.08126E-05-9.73455E+00-9.59525E-05-9.59524E-05
 -1      2028 1.02735E+01 8.23841E+00-4.08134E-05-9.68122E+00-1.00843E-04-9.07992E-05
 -1      2029 1.12799E+01 7.23203E+00-4.08135E-05-9.52183E+00-1.05457E-04-8.53971E-05
 -1      2030 1.22641E+01 6.24781E+00-4.08134E-05-9.25811E+00-1.09781E-04-7.97608E-05
 -1      2031 1.32153E+01 5.29655E+00-4.08133E-05-8.89295E+00-1.13805E-04-7.39060E-05
 -1      2032 1.41232E+01 4.38868E+00-4.08133E-05-8.43037E+00-1.17517E-04-6.78486E-05
 -1      2033 1.49778E+01 3.53413E+00-4.08133E-05-7.87542E+00-1.20907E-04-6.16053E-05
 -1      2034 1.57696E+01 2.74227E+00-4.08136E-05-7.23418E+00-1.23966E-04-5.51930E-05
 -1      2035 1.64901E+01 2.02177E+00-4.08137E-05-6.51368E+00-1.26684E-04-4.86296E-05
 -1      2036 1.71314E+01 1.38054E+00-4.08135E-05-5.72182E+00-1.29056E-04-4.19328E-05
 -1      2037 1.76863E+01 8.25585E-01-4.08135E-05-4.86727E+00-1.31073E-04-3.51210E-05
 -1      2038 1.81489E+01 3.62999E-01-4.08136E-05-3.95940E+00-1.32732E-04-2.82130E-05
 -1      2039 1.85141E+01-2.15419E-03-4.08136E-05-3.00814E+00-1.34027E-04-2.12277E-05
 -1      2040 1.87778E+01-2.65874E-01-4.08135E-05-2.02393E+00-1.34954E-04-1.41842E-05
 -1      2041 1.89372E+01-4.25270E-01-4.08134E-05-1.01754E+00-1.35511E-04-7.10184E-06
 -1      2042-3.75951E-01 1.88877E+01-7.33596E-05-1.01234E+00-7.02846E-06-1.34111E-04
 -1      2043-2.17368E-01 1.87291E+01-7.33596E-05-2.01360E+00-1.40377E-05-1.33559E-04
 -1      2044 4.50054E-02 1.84667E+01-7.33595E-05-2.99279E+00-2.10084E-05-1.32642E-04
 -1      2045 4.08295E-01 1.81034E+01-7.33596E-05-3.93919E+00-2.79215E-05-1.31360E-04
 -1      2046 8.68520E-01 1.76432E+01-7.33596E-05-4.84243E+00-3.47581E-05-1.29719E-04
 -1      2047 1.42064E+00 1.70911E+01-7.33596E-05-5.69262E+00-4.14995E-05-1.27722E-04
 -1      2048 2.05860E+00 1.64531E+01-7.33594E-05-6.48044E+00-4.81270E-05-1.25375E-04
 -1      2049 2.77542E+00 1.57363E+01-7.33595E-05-7.19726E+00-5.46227E-05-1.22685E-04
 -1      2050 3.56324E+00 1.49485E+01-7.33597E-05-7.83522E+00-6.09687E-05-1.19658E-04
 -1      2051 4.41343E+00 1.40983E+01-7.33596E-05-8.38734E+00-6.71475E-05-1.16303E-04
 -1      2052 5.31667E+00 1.31950E+01-7.33597E-05-8.84756E+00-7.31423E-05-1.12629E-04
 -1      2053 6.26307E+00 1.22486E+01-7.33595E-05-9.21085E+00-7.89367E-05-1.08647E-04
 -1      2054 7.24226E+00 1.12695E+01-7.33592E-05-9.47323E+00-8.45146E-05-1.04367E-04
 -1      2055 8.24351E+00 1.02682E+01-7.33593E-05-9.63181E+00-8.98609E-05-9.98007E-05
 -1      2056 9.25586E+00 9.25586E+00-7.33602E-05-9.68486E+00-9.49610E-05-9.49609E-05
 -1      2057 1.02682E+01 8.24351E+00-7.33609E-05-9.63181E+00-9.98007E-05-8.98609E-05
 -1      2058 1.12695E+01 7.24226E+00-7.33610E-05-9.47323E+00-1.04367E-04-8.45146E-05
 -1      2059 1.22486E+01 6.26307E+00-7.33609E-05-9.21085E+00-1.08647E-04-7.89367E-05
 -1      2060 1.31950E+01 5.31667E+00-7.33608E-05-8.84756E+00-1.12629E-04-7.31423E-05
 -1      2061 1.40983E+01 4.41343E+00-7.33609E-05-8.38734E+00-1.16303E-04-6.71475E-05
 -1      2062 1.49485E+01 3.56324E+00-7.33609E-05-7.83522E+00-1.19658E-04-6.09687E-05
 -1      2063 1.57363E+01 2.77542E+00-7.33612E-05-7.19726E+00-1.22685E-04-5.46227E-05
 -1      2064 1.64531E+01 2.05860E+00-7.33612E-05-6.48044E+00-1.25375E-04-4.81270E-05
 -1      2065 1.70911E+01 1.42064E+00-7.33611E-05-5.69262E+00-1.27722E-04-4.14995E-05
 -1      2066 1.76432E+01 8.68520E-01-7.33611E-05-4.84243E+00-1.29719E-04-3.47581E-05
 -1      2067 1.81034E+01 4.08295E-01-7.33611E-05-3.93919E+00-1.31360E-04-2.79215E-05
 -1      2068 1.84667E+01 4.50054E-02-7.33611E-05-2.99279E+00-1.32642E-04-2.10084E-05
 -1      2069 1.87291E+01-2.17368E-01-7.33610E-05-2.01360E+00-1.33559E-04-1.40377E-05
 -1      2070 1.88877E+01-3.75951E-01-7.33610E-05-1.01234E+00-1.34111E-04-7.02846E-06
 -1      2071-3.27010E-01 1.88385E+01-1.05472E-04-1.00719E+00-6.85464E-06-1.30794E-04
 -1      2072-1.69234E-01 1.86808E+01-1.05472E-04-2.00335E+00-1.36905E-05-1.30256E-04
 -1      2073 9.18036E-02 1.84197E+01-1.05472E-04-2.97755E+00-2.04888E-05-1.29361E-04
 -1      2074 4.53244E-01 1.80583E+01-1.05472E-04-3.91913E+00-2.72310E-05-1.28112E-04
 -1      2075 9.11126E-01 1.76004E+01-1.05472E-04-4.81778E+00-3.38985E-05-1.26511E-04
 -1      2076 1.46043E+00 1.70511E+01-1.05472E-04-5.66364E+00-4.04731E-05-1.24564E-04
 -1      2077 2.09515E+00 1.64164E+01-1.05472E-04-6.44745E+00-4.69368E-05-1.22275E-04
 -1      2078 2.80832E+00 1.57032E+01-1.05472E-04-7.16061E+00-5.32719E-05-1.19651E-04
 -1      2079 3.59212E+00 1.49194E+01-1.05472E-04-7.79533E+00-5.94609E-05-1.16699E-04
 -1      2080 4.43798E+00 1.40735E+01-1.05472E-04-8.34464E+00-6.54869E-05-1.13427E-04
 -1      2081 5.33663E+00 1.31749E+01-1.05472E-04-8.80252E+00-7.13335E-05-1.09844E-04
 -1      2082 6.27821E+00 1.22333E+01-1.05472E-04-9.16396E+00-7.69845E-05-1.05960E-04
 -1      2083 7.25242E+00 1.12591E+01-1.05472E-04-9.42500E+00-8.24245E-05-1.01786E-04
 -1      2084 8.24857E+00 1.02630E+01-1.05472E-04-9.58277E+00-8.76386E-05-9.73325E-05
 -1      2085 9.25576E+00 9.25576E+00-1.05473E-04-9.63556E+00-9.26125E-05-9.26125E-05
 -1      2086 1.02630E+01 8.24857E+00-1.05473E-04-9.58277E+00-9.73325E-05-8.76386E-05
 -1      2087 1.12591E+01 7.25242E+00-1.05474E-04-9.42500E+00-1.01786E-04-8.24245E-05
 -1      2088 1.22333E+01 6.27821E+00-1.05473E-04-9.16396E+00-1.05960E-04-7.69845E-05
 -1      2089 1.31749E+01 5.33663E+00-1.05473E-04-8.80252E+00-1.09844E-04-7.13335E-05
 -1      2090 1.40735E+01 4.43798E+00-1.05473E-04-8.34464E+00-1.13427E-04-6.54869E-05
 -1      2091 1.49194E+01 3.59212E+00-1.05473E-04-7.79533E+00-1.16699E-04-5.94609E-05
 -1      2092 1.57032E+01 2.80832E+00-1.05474E-04-7.16061E+00-1.19651E-04-5.32719E-05
 -1      2093 1.64164E+01 2.09515E+00-1.05474E-04-6.44745E+00-1.22275E-04-4.69368E-05
 -1      2094 1.70511E+01 1.46043E+00-1.05474E-04-5.66364E+00-1.24564E-04-4.04731E-05
 -1      2095 1.76004E+01 9.11126E-01-1.05474E-04-4.81778E+00-1.26511E-04-3.38985E-05
 -1      2096 1.80583E+01 4.53244E-01-1.05474E-04-3.91913E+00-1.28112E-04-2.72310E-05
 -1      2097 1.84197E+01 9.18036E-02-1.05474E-04-2.97755E+00-1.29361E-04-2.04888E-05
 -1      2098 1.86808E+01-1.69234E-01-1.05474E-04-2.00335E+00-1.30256E-04-1.36905E-05
 -1      2099 1.88385E+01-3.27010E-01-1.05473E-04-1.00719E+00-1.30794E-04-6.85464E-06
 -1      2100-2.78443E-01 1.87898E+01-1.36464E-04-1.00208E+00-6.50607E-06-1.24143E-04
 -1      2101-1.21469E-01 1.86328E+01-1.36464E-04-1.99317E+00-1.29943E-05-1.23633E-04
 -1      2102 1.38244E-01 1.83731E+01-1.36464E-04-2.96243E+00-1.94469E-05-1.22783E-04
 -1      2103 4.97848E-01 1.80135E+01-1.36464E-04-3.89923E+00-2.58462E-05-1.21597E-04
 -1      2104 9.53405E-01 1.75579E+01-1.36464E-04-4.79331E+00-3.21747E-05-1.20078E-04
 -1      2105 1.49992E+00 1.70114E+01-1.36464E-04-5.63488E+00-3.84150E-05-1.18229E-04
 -1      2106 2.13142E+00 1.63799E+01-1.36464E-04-6.41471E+00-4.45500E-05-1.16057E-04
 -1      2107 2.84096E+00 1.56704E+01-1.36464E-04-7.12425E+00-5.05629E-05-1.13566E-04
 -1      2108 3.62079E+00 1.48905E+01-1.36464E-04-7.75574E+00-5.64372E-05-1.10764E-04
 -1      2109 4.46235E+00 1.40490E+01-1.36464E-04-8.30226E+00-6.21568E-05-1.07659E-04
 -1      2110 5.35644E+00 1.31549E+01-1.36464E-04-8.75782E+00-6.77060E-05-1.04258E-04
 -1      2111 6.29324E+00 1.22181E+01-1.36464E-04-9.11742E+00-7.30696E-05-1.00572E-04
 -1      2112 7.26250E+00 1.12488E+01-1.36463E-04-9.37714E+00-7.82330E-05-9.66098E-05
 -1      2113 8.25359E+00 1.02577E+01-1.36464E-04-9.53411E+00-8.31820E-05-9.23830E-05
 -1      2114 9.25567E+00 9.25567E+00-1.36464E-04-9.58663E+00-8.79029E-05-8.79029E-05
 -1      2115 1.02577E+01 8.25359E+00-1.36465E-04-9.53411E+00-9.23829E-05-8.31820E-05
 -1      2116 1.12488E+01 7.26250E+00-1.36465E-04-9.37714E+00-9.66097E-05-7.82330E-05
 -1      2117 1.22181E+01 6.29324E+00-1.36465E-04-9.11742E+00-1.00572E-04-7.30696E-05
 -1      2118 1.31549E+01 5.35644E+00-1.36465E-04-8.75782E+00-1.04258E-04-6.77060E-05
 -1      2119 1.40490E+01 4.46235E+00-1.36465E-04-8.30226E+00-1.07659E-04-6.21568E-05
 -1      2120 1.48905E+01 3.62079E+00-1.36465E-04-7.75574E+00-1.10764E-04-5.64371E-05
 -1      2121 1.56704E+01 2.84096E+00-1.36465E-04-7.12425E+00-1.13566E-04-5.05628E-05
 -1      2122 1.63799E+01 2.13142E+00-1.36465E-04-6.41471E+00-1.16057E-04-4.45500E-05
 -1      2123 1.70114E+01 1.49992E+00-1.36465E-04-5.63488E+00-1.18229E-04-3.84150E-05
 -1      2124 1.75579E+01 9.53405E-01-1.36465E-04-4.79331E+00-1.20078E-04-3.21747E-05
 -1      2125 1.80135E+01 4.97848E-01-1.36465E-04-3.89923E+00-1.21597E-04-2.58462E-05
 -1      2126 1.83731E+01 1.38244E-01-1.36465E-04-2.96243E+00-1.22783E-04-1.94469E-05
 -1      2127 1.86328E+01-1.21469E-01-1.36465E-04-1.99317E+00-1.23632E-04-1.29943E-05
 -1      2128 1.87898E+01-2.78443E-01-1.36465E-04-1.00208E+00-1.24143E-04-6.50606E-06
 -1      2129-2.30246E-01 1.87414E+01-1.64005E-04-9.97000E-01-5.81847E-06-1.11023E-04
 -1      2130-7.40667E-02 1.85852E+01-1.64005E-04-1.98308E+00-1.16210E-05-1.10566E-04
 -1      2131 1.84330E-01 1.83268E+01-1.64005E-04-2.94743E+00-1.73917E-05-1.09807E-04
 -1      2132 5.42113E-01 1.79690E+01-1.64005E-04-3.87948E+00-2.31147E-05-1.08746E-04
 -1      2133 9.95363E-01 1.75158E+01-1.64005E-04-4.76904E+00-2.87743E-05-1.07387E-04
 -1      2134 1.53911E+00 1.69720E+01-1.64005E-04-5.60634E+00-3.43551E-05-1.05734E-04
 -1      2135 2.16741E+00 1.63437E+01-1.64005E-04-6.38222E+00-3.98417E-05-1.03791E-04
 -1      2136 2.87336E+00 1.56378E+01-1.64005E-04-7.08817E+00-4.52191E-05-1.01564E-04
 -1      2137 3.64924E+00 1.48619E+01-1.64005E-04-7.71646E+00-5.04726E-05-9.90580E-05
 -1      2138 4.48654E+00 1.40246E+01-1.64005E-04-8.26021E+00-5.55877E-05-9.62808E-05
 -1      2139 5.37609E+00 1.31351E+01-1.64005E-04-8.71346E+00-6.05505E-05-9.32396E-05
 -1      2140 6.30815E+00 1.22030E+01-1.64005E-04-9.07124E+00-6.53473E-05-8.99428E-05
 -1      2141 7.27250E+00 1.12387E+01-1.64004E-04-9.32964E+00-6.99650E-05-8.63995E-05
 -1      2142 8.25857E+00 1.02526E+01-1.64005E-04-9.48582E+00-7.43909E-05-8.26195E-05
 -1      2143 9.25557E+00 9.25557E+00-1.64005E-04-9.53807E+00-7.86129E-05-7.86129E-05
 -1      2144 1.02526E+01 8.25857E+00-1.64006E-04-9.48582E+00-8.26194E-05-7.43909E-05
 -1      2145 1.12387E+01 7.27250E+00-1.64006E-04-9.32964E+00-8.63995E-05-6.99650E-05
 -1      2146 1.22030E+01 6.30815E+00-1.64006E-04-9.07124E+00-8.99428E-05-6.53473E-05
 -1      2147 1.31351E+01 5.37609E+00-1.64006E-04-8.71346E+00-9.32396E-05-6.05505E-05
 -1      2148 1.40246E+01 4.48654E+00-1.64006E-04-8.26021E+00-9.62807E-05-5.55877E-05
 -1      2149 1.48619E+01 3.64924E+00-1.64006E-04-7.71646E+00-9.90580E-05-5.04726E-05
 -1      2150 1.56378E+01 2.87336E+00-1.64006E-04-7.08817E+00-1.01564E-04-4.52191E-05
 -1      2151 1.63437E+01 2.16741E+00-1.64006E-04-6.38222E+00-1.03791E-04-3.98417E-05
 -1      2152 1.69720E+01 1.53911E+00-1.64006E-04-5.60634E+00-1.05734E-04-3.43551E-05
 -1      2153 1.75158E+01 9.95363E-01-1.64006E-04-4.76904E+00-1.07387E-04-2.87743E-05
 -1      2154 1.79690E+01 5.42113E-01-1.64006E-04-3.87948E+00-1.08746E-04-2.31147E-05
 -1      2155 1.83268E+01 1.84330E-01-1.64006E-04-2.94743E+00-1.09807E-04-1.73917E-05
 -1      2156 1.85852E+01-7.40667E-02-1.64006E-04-1.98308E+00-1.10566E-04-1.16210E-05
 -1      2157 1.87414E+01-2.30246E-01-1.64006E-04-9.97000E-01-1.11023E-04-5.81847E-06
 -1      2158-1.82411E-01 1.86934E+01-1.82105E-04-9.91963E-01-4.45012E-06-8.49133E-05
 -1      2159-2.70208E-02 1.85380E+01-1.82105E-04-1.97306E+00-8.88803E-06-8.45640E-05
 -1      2160 2.30070E-01 1.82809E+01-1.82105E-04-2.93253E+00-1.33016E-05-8.39830E-05
 -1      2161 5.86046E-01 1.79249E+01-1.82105E-04-3.85988E+00-1.76787E-05-8.31717E-05
 -1      2162 1.03701E+00 1.74740E+01-1.82105E-04-4.74494E+00-2.20073E-05-8.21325E-05
 -1      2163 1.57801E+00 1.69330E+01-1.82105E-04-5.57801E+00-2.62757E-05-8.08682E-05
 -1      2164 2.20313E+00 1.63078E+01-1.82105E-04-6.34997E+00-3.04720E-05-7.93822E-05
 -1      2165 2.90551E+00 1.56055E+01-1.82105E-04-7.05236E+00-3.45848E-05-7.76786E-05
 -1      2166 3.67747E+00 1.48335E+01-1.82105E-04-7.67748E+00-3.86027E-05-7.57621E-05
 -1      2167 4.51054E+00 1.40004E+01-1.82105E-04-8.21848E+00-4.25149E-05-7.36380E-05
 -1      2168 5.39560E+00 1.31154E+01-1.82105E-04-8.66944E+00-4.63106E-05-7.13120E-05
 -1      2169 6.32295E+00 1.21880E+01-1.82105E-04-9.02541E+00-4.99793E-05-6.87905E-05
 -1      2170 7.28243E+00 1.12285E+01-1.82104E-04-9.28251E+00-5.35110E-05-6.60806E-05
 -1      2171 8.26352E+00 1.02474E+01-1.82105E-04-9.43790E+00-5.68960E-05-6.31895E-05
 -1      2172 9.25548E+00 9.25548E+00-1.82105E-04-9.48988E+00-6.01252E-05-6.01251E-05
 -1      2173 1.02474E+01 8.26352E+00-1.82106E-04-9.43790E+00-6.31894E-05-5.68960E-05
 -1      2174 1.12285E+01 7.28243E+00-1.82106E-04-9.28251E+00-6.60806E-05-5.35110E-05
 -1      2175 1.21880E+01 6.32295E+00-1.82106E-04-9.02541E+00-6.87905E-05-4.99793E-05
 -1      2176 1.31154E+01 5.39560E+00-1.82106E-04-8.66944E+00-7.13120E-05-4.63105E-05
 -1      2177 1.40004E+01 4.51054E+00-1.82106E-04-8.21848E+00-7.36380E-05-4.25149E-05
 -1      2178 1.48335E+01 3.67747E+00-1.82106E-04-7.67748E+00-7.57621E-05-3.86027E-05
 -1      2179 1.56055E+01 2.90551E+00-1.82106E-04-7.05236E+00-7.76786E-05-3.45847E-05
 -1      2180 1.63078E+01 2.20313E+00-1.82106E-04-6.34997E+00-7.93821E-05-3.04720E-05
 -1      2181 1.69330E+01 1.57801E+00-1.82106E-04-5.57801E+00-8.08681E-05-2.62757E-05
 -1      2182 1.74740E+01 1.03701E+00-1.82106E-04-4.74494E+00-8.21325E-05-2.20073E-05
 -1      2183 1.79249E+01 5.86046E-01-1.82106E-04-3.85988E+00-8.31717E-05-1.76787E-05
 -1      2184 1.82809E+01 2.30070E-01-1.82106E-04-2.93253E+00-8.39829E-05-1.33016E-05
 -1      2185 1.85380E+01-2.70208E-02-1.82106E-04-1.97306E+00-8.45640E-05-8.88803E-06
 -1      2186 1.86934E+01-1.82411E-01-1.82106E-04-9.91963E-01-8.49132E-05-4.45011E-06
 -1      2187-1.34924E-01 1.86457E+01-1.76623E-04-9.86964E-01-1.66157E-06-3.17047E-05
 -1      2188 1.96829E-02 1.84911E+01-1.76623E-04-1.96311E+00-3.31859E-06-3.15743E-05
 -1      2189 2.75478E-01 1.82353E+01-1.76623E-04-2.91776E+00-4.96652E-06-3.13574E-05
 -1      2190 6.29660E-01 1.78812E+01-1.76623E-04-3.84043E+00-6.60083E-06-3.10544E-05
 -1      2191 1.07835E+00 1.74325E+01-1.76623E-04-4.72103E+00-8.21705E-06-3.06664E-05
 -1      2192 1.61662E+00 1.68942E+01-1.76623E-04-5.54990E+00-9.81074E-06-3.01944E-05
 -1      2193 2.23859E+00 1.62722E+01-1.76623E-04-6.31797E+00-1.13775E-05-2.96395E-05
 -1      2194 2.93744E+00 1.55734E+01-1.76623E-04-7.01682E+00-1.29132E-05-2.90034E-05
 -1      2195 3.70551E+00 1.48053E+01-1.76623E-04-7.63878E+00-1.44134E-05-2.82879E-05
 -1      2196 4.53438E+00 1.39764E+01-1.76623E-04-8.17706E+00-1.58741E-05-2.74948E-05
 -1      2197 5.41498E+00 1.30958E+01-1.76623E-04-8.62575E+00-1.72913E-05-2.66263E-05
 -1      2198 6.33765E+00 1.21732E+01-1.76623E-04-8.97993E+00-1.86611E-05-2.56848E-05
 -1      2199 7.29229E+00 1.12185E+01-1.76622E-04-9.23573E+00-1.99798E-05-2.46730E-05
 -1      2200 8.26844E+00 1.02424E+01-1.76623E-04-9.39033E+00-2.12437E-05-2.35935E-05
 -1      2201 9.25541E+00 9.25541E+00-1.76623E-04-9.44206E+00-2.24494E-05-2.24494E-05
 -1      2202 1.02424E+01 8.26844E+00-1.76624E-04-9.39033E+00-2.35935E-05-2.12437E-05
 -1      2203 1.12185E+01 7.29229E+00-1.76624E-04-9.23573E+00-2.46730E-05-1.99798E-05
 -1      2204 1.21732E+01 6.33765E+00-1.76624E-04-8.97993E+00-2.56848E-05-1.86611E-05
 -1      2205 1.30958E+01 5.41498E+00-1.76624E-04-8.62575E+00-2.66263E-05-1.72913E-05
 -1      2206 1.39764E+01 4.53438E+00-1.76624E-04-8.17706E+00-2.74948E-05-1.58741E-05
 -1      2207 1.48053E+01 3.70551E+00-1.76624E-04-7.63878E+00-2.82879E-05-1.44134E-05
 -1      2208 1.55734E+01 2.93744E+00-1.76624E-04-7.01682E+00-2.90034E-05-1.29131E-05
 -1      2209 1.62722E+01 2.23859E+00-1.76624E-04-6.31797E+00-2.96395E-05-1.13775E-05
 -1      2210 1.68942E+01 1.61662E+00-1.76624E-04-5.54990E+00-3.01943E-05-9.81074E-06
 -1      2211 1.74325E+01 1.07835E+00-1.76624E-04-4.72103E+00-3.06664E-05-8.21703E-06
 -1      2212 1.78812E+01 6.29660E-01-1.76624E-04-3.84043E+00-3.10544E-05-6.60082E-06
 -1      2213 1.82353E+01 2.75478E-01-1.76624E-04-2.91776E+00-3.13573E-05-4.96651E-06
 -1      2214 1.84911E+01 1.96829E-02-1.76624E-04-1.96311E+00-3.15743E-05-3.31859E-06
 -1      2215 1.86457E+01-1.34924E-01-1.76624E-04-9.86964E-01-3.17047E-05-1.66157E-06
 -1      2216-8.77599E-02 1.85985E+01-1.14285E-04-9.82002E-01 4.31965E-06 8.24239E-05
 -1      2217 6.60699E-02 1.84447E+01-1.14285E-04-1.95324E+00 8.62747E-06 8.20848E-05
 -1      2218 3.20579E-01 1.81901E+01-1.14285E-04-2.90309E+00 1.29116E-05 8.15208E-05
 -1      2219 6.72980E-01 1.78377E+01-1.14285E-04-3.82112E+00 1.71604E-05 8.07334E-05
 -1      2220 1.11941E+00 1.73913E+01-1.14285E-04-4.69729E+00 2.13621E-05 7.97246E-05
 -1      2221 1.65498E+00 1.68557E+01-1.14285E-04-5.52200E+00 2.55053E-05 7.84973E-05
 -1      2222 2.27382E+00 1.62369E+01-1.14285E-04-6.28621E+00 2.95786E-05 7.70549E-05
 -1      2223 2.96916E+00 1.55416E+01-1.14285E-04-6.98154E+00 3.35708E-05 7.54013E-05
 -1      2224 3.73336E+00 1.47774E+01-1.14285E-04-7.60038E+00 3.74710E-05 7.35410E-05
 -1      2225 4.55807E+00 1.39527E+01-1.14285E-04-8.13595E+00 4.12685E-05 7.14791E-05
 -1      2226 5.43424E+00 1.30765E+01-1.14285E-04-8.58238E+00 4.49529E-05 6.92213E-05
 -1      2227 6.35228E+00 1.21585E+01-1.14285E-04-8.93478E+00 4.85140E-05 6.67738E-05
 -1      2228 7.30212E+00 1.12086E+01-1.14284E-04-9.18929E+00 5.19422E-05 6.41433E-05
 -1      2229 8.27336E+00 1.02374E+01-1.14285E-04-9.34312E+00 5.52280E-05 6.13369E-05
 -1      2230 9.25536E+00 9.25536E+00-1.14285E-04-9.39459E+00 5.83625E-05 5.83625E-05
 -1      2231 1.02374E+01 8.27336E+00-1.14286E-04-9.34312E+00 6.13370E-05 5.52280E-05
 -1      2232 1.12086E+01 7.30212E+00-1.14286E-04-9.18929E+00 6.41433E-05 5.19422E-05
 -1      2233 1.21585E+01 6.35228E+00-1.14286E-04-8.93478E+00 6.67738E-05 4.85140E-05
 -1      2234 1.30765E+01 5.43424E+00-1.14286E-04-8.58238E+00 6.92213E-05 4.49529E-05
 -1      2235 1.39527E+01 4.55807E+00-1.14286E-04-8.13595E+00 7.14791E-05 4.12685E-05
 -1      2236 1.47774E+01 3.73336E+00-1.14286E-04-7.60038E+00 7.35410E-05 3.74710E-05
 -1      2237 1.55416E+01 2.96916E+00-1.14286E-04-6.98154E+00 7.54013E-05 3.35708E-05
 -1      2238 1.62369E+01 2.27382E+00-1.14286E-04-6.28621E+00 7.70549E-05 2.95786E-05
 -1      2239 1.68557E+01 1.65498E+00-1.14286E-04-5.52200E+00 7.84974E-05 2.55053E-05
 -1      2240 1.73913E+01 1.11941E+00-1.14286E-04-4.69729E+00 7.97246E-05 2.13622E-05
 -1      2241 1.78377E+01 6.72980E-01-1.14286E-04-3.82112E+00 8.07334E-05 1.71604E-05
 -1      2242 1.81901E+01 3.20579E-01-1.14286E-04-2.90309E+00 8.15208E-05 1.29116E-05
 -1      2243 1.84447E+01 6.60699E-02-1.14286E-04-1.95324E+00 8.20849E-05 8.62747E-06
 -1      2244 1.85985E+01-8.77599E-02-1.14286E-04-9.82002E-01 8.24239E-05 4.31966E-06
 -1      2245-4.08768E-02 1.85517E+01 8.75331E-05-9.77077E-01 1.85308E-05 3.53588E-04
 -1      2246 1.12181E-01 1.83986E+01 8.75331E-05-1.94345E+00 3.70108E-05 3.52134E-04
 -1      2247 3.65415E-01 1.81454E+01 8.75332E-05-2.88853E+00 5.53893E-05 3.49714E-04
 -1      2248 7.16048E-01 1.77947E+01 8.75331E-05-3.80196E+00 7.36161E-05 3.46336E-04
 -1      2249 1.16024E+00 1.73505E+01 8.75331E-05-4.67374E+00 9.16410E-05 3.42009E-04
 -1      2250 1.69313E+00 1.68177E+01 8.75331E-05-5.49431E+00 1.09415E-04 3.36744E-04
 -1      2251 2.30886E+00 1.62019E+01 8.75333E-05-6.25468E+00 1.26889E-04 3.30556E-04
 -1      2252 3.00071E+00 1.55101E+01 8.75332E-05-6.94653E+00 1.44015E-04 3.23462E-04
 -1      2253 3.76108E+00 1.47497E+01 8.75330E-05-7.56226E+00 1.60746E-04 3.15482E-04
 -1      2254 4.58165E+00 1.39291E+01 8.75330E-05-8.09515E+00 1.77037E-04 3.06637E-04
 -1      2255 5.45343E+00 1.30573E+01 8.75330E-05-8.53934E+00 1.92842E-04 2.96951E-04
 -1      2256 6.36686E+00 1.21439E+01 8.75332E-05-8.88997E+00 2.08119E-04 2.86452E-04
 -1      2257 7.31194E+00 1.11988E+01 8.75335E-05-9.14321E+00 2.22826E-04 2.75167E-04
 -1      2258 8.27831E+00 1.02325E+01 8.75333E-05-9.29627E+00 2.36922E-04 2.63128E-04
 -1      2259 9.25539E+00 9.25539E+00 8.75325E-05-9.34747E+00 2.50368E-04 2.50368E-04
 -1      2260 1.02325E+01 8.27831E+00 8.75319E-05-9.29627E+00 2.63128E-04 2.36922E-04
 -1      2261 1.11988E+01 7.31194E+00 8.75317E-05-9.14321E+00 2.75167E-04 2.22826E-04
 -1      2262 1.21439E+01 6.36686E+00 8.75318E-05-8.88997E+00 2.86452E-04 2.08119E-04
 -1      2263 1.30573E+01 5.45343E+00 8.75319E-05-8.53934E+00 2.96951E-04 1.92842E-04
 -1      2264 1.39291E+01 4.58165E+00 8.75319E-05-8.09515E+00 3.06637E-04 1.77037E-04
 -1      2265 1.47497E+01 3.76108E+00 8.75319E-05-7.56226E+00 3.15482E-04 1.60746E-04
 -1      2266 1.55101E+01 3.00071E+00 8.75316E-05-6.94653E+00 3.23462E-04 1.44015E-04
 -1      2267 1.62019E+01 2.30886E+00 8.75315E-05-6.25468E+00 3.30556E-04 1.26889E-04
 -1      2268 1.68177E+01 1.69312E+00 8.75317E-05-5.49431E+00 3.36744E-04 1.09415E-04
 -1      2269 1.73505E+01 1.16024E+00 8.75317E-05-4.67374E+00 3.42009E-04 9.16410E-05
 -1      2270 1.77947E+01 7.16048E-01 8.75316E-05-3.80196E+00 3.46336E-04 7.36161E-05
 -1      2271 1.81454E+01 3.65415E-01 8.75316E-05-2.88853E+00 3.49714E-04 5.53893E-05
 -1      2272 1.83986E+01 1.12181E-01 8.75317E-05-1.94345E+00 3.52134E-04 3.70108E-05
 -1      2273 1.85517E+01-4.08769E-02 8.75318E-05-9.77077E-01 3.53588E-04 1.85308E-05
 -1      2274 5.74777E-03 1.85053E+01 6.57185E-04-9.72191E-01 5.89145E-05 1.12416E-03
 -1      2275 1.58041E-01 1.83530E+01 6.57185E-04-1.93373E+00 1.17667E-04 1.11953E-03
 -1      2276 4.10008E-01 1.81011E+01 6.57185E-04-2.87408E+00 1.76098E-04 1.11184E-03
 -1      2277 7.58888E-01 1.77522E+01 6.57185E-04-3.78295E+00 2.34046E-04 1.10110E-03
 -1      2278 1.20086E+00 1.73102E+01 6.57185E-04-4.65037E+00 2.91352E-04 1.08734E-03
 -1      2279 1.73108E+00 1.67800E+01 6.57185E-04-5.46683E+00 3.47860E-04 1.07060E-03
 -1      2280 2.34374E+00 1.61673E+01 6.57186E-04-6.22340E+00 4.03414E-04 1.05093E-03
 -1      2281 3.03212E+00 1.54789E+01 6.57185E-04-6.91179E+00 4.57863E-04 1.02838E-03
 -1      2282 3.78870E+00 1.47224E+01 6.57185E-04-7.52445E+00 5.11056E-04 1.00300E-03
 -1      2283 4.60516E+00 1.39059E+01 6.57185E-04-8.05467E+00 5.62849E-04 9.74883E-04
 -1      2284 5.47258E+00 1.30385E+01 6.57185E-04-8.49664E+00 6.13099E-04 9.44090E-04
 -1      2285 6.38144E+00 1.21296E+01 6.57186E-04-8.84552E+00 6.61669E-04 9.10709E-04
 -1      2286 7.32180E+00 1.11893E+01 6.57186E-04-9.09749E+00 7.08425E-04 8.74831E-04
 -1      2287 8.28334E+00 1.02277E+01 6.57186E-04-9.24978E+00 7.53239E-04 8.36556E-04
 -1      2288 9.25553E+00 9.25553E+00 6.57185E-04-9.30073E+00 7.95989E-04 7.95989E-04
 -1      2289 1.02277E+01 8.28334E+00 6.57184E-04-9.24978E+00 8.36556E-04 7.53239E-04
 -1      2290 1.11893E+01 7.32180E+00 6.57184E-04-9.09749E+00 8.74831E-04 7.08425E-04
 -1      2291 1.21296E+01 6.38144E+00 6.57184E-04-8.84552E+00 9.10709E-04 6.61669E-04
 -1      2292 1.30385E+01 5.47258E+00 6.57184E-04-8.49664E+00 9.44090E-04 6.13099E-04
 -1      2293 1.39059E+01 4.60516E+00 6.57184E-04-8.05467E+00 9.74883E-04 5.62849E-04
 -1      2294 1.47224E+01 3.78870E+00 6.57184E-04-7.52445E+00 1.00300E-03 5.11056E-04
 -1      2295 1.54789E+01 3.03212E+00 6.57184E-04-6.91179E+00 1.02838E-03 4.57863E-04
 -1      2296 1.61673E+01 2.34374E+00 6.57184E-04-6.22340E+00 1.05093E-03 4.03414E-04
 -1      2297 1.67800E+01 1.73108E+00 6.57184E-04-5.46683E+00 1.07060E-03 3.47860E-04
 -1      2298 1.73102E+01 1.20086E+00 6.57184E-04-4.65037E+00 1.08734E-03 2.91352E-04
 -1      2299 1.77522E+01 7.58888E-01 6.57184E-04-3.78295E+00 1.10110E-03 2.34046E-04
 -1      2300 1.81011E+01 4.10008E-01 6.57184E-04-2.87408E+00 1.11184E-03 1.76098E-04
 -1      2301 1.83530E+01 1.58041E-01 6.57184E-04-1.93373E+00 1.11953E-03 1.17667E-04
 -1      2302 1.85053E+01 5.74776E-03 6.57184E-04-9.72191E-01 1.12416E-03 5.89145E-05
 -1      2303-8.88391E-01 1.93995E+01-1.35492E-03-1.06617E+00 6.97554E-07 1.33101E-05
 -1      2304-8.88104E-01 1.93996E+01-1.09891E-03-1.06616E+00-2.33023E-06-4.44635E-05
 -1      2305-8.88129E-01 1.93997E+01-9.59865E-04-1.06617E+00-7.01968E-07-1.33944E-05
 -1      2306-8.88109E-01 1.93997E+01-9.16523E-04-1.06617E+00-1.25965E-07-2.40359E-06
 -1      2307-8.88108E-01 1.93997E+01-9.10495E-04-1.06617E+00-2.36244E-08-4.50775E-07
 -1      2308-8.88108E-01 1.93997E+01-9.10495E-04-1.06617E+00 2.36216E-08 4.50774E-07
 -1      2309-8.88109E-01 1.93997E+01-9.16523E-04-1.06617E+00 1.25962E-07 2.40359E-06
 -1      2310-8.88129E-01 1.93997E+01-9.59865E-04-1.06617E+00 7.01965E-07 1.33944E-05
 -1      2311-8.88104E-01 1.93996E+01-1.09891E-03-1.06616E+00 2.33023E-06 4.44635E-05
 -1      2312-8.88391E-01 1.93995E+01-1.35492E-03-1.06617E+00-6.97555E-07-1.33101E-05
 -1      2313-7.21376E-01 1.92325E+01-1.35492E-03-2.12066E+00 1.39319E-06 1.32553E-05
 -1      2314-7.21090E-01 1.92326E+01-1.09891E-03-2.12065E+00-4.65408E-06-4.42806E-05
 -1      2315-7.21115E-01 1.92327E+01-9.59865E-04-2.12065E+00-1.40201E-06-1.33393E-05
 -1      2316-7.21094E-01 1.92327E+01-9.16523E-04-2.12065E+00-2.51584E-07-2.39370E-06
 -1      2317-7.21094E-01 1.92327E+01-9.10495E-04-2.12066E+00-4.71812E-08-4.48922E-07
 -1      2318-7.21094E-01 1.92327E+01-9.10495E-04-2.12066E+00 4.71839E-08 4.48920E-07
 -1      2319-7.21094E-01 1.92327E+01-9.16523E-04-2.12065E+00 2.51587E-07 2.39370E-06
 -1      2320-7.21115E-01 1.92327E+01-9.59865E-04-2.12065E+00 1.40202E-06 1.33393E-05
 -1      2321-7.21090E-01 1.92326E+01-1.09891E-03-2.12065E+00 4.65408E-06 4.42806E-05
 -1      2322-7.21376E-01 1.92325E+01-1.35492E-03-2.12066E+00-1.39319E-06-1.32553E-05
 -1      2323-4.45052E-01 1.89561E+01-1.35492E-03-3.15191E+00 2.08501E-06 1.31643E-05
 -1      2324-4.44768E-01 1.89563E+01-1.09891E-03-3.15190E+00-6.96517E-06-4.39764E-05
 -1      2325-4.44792E-01 1.89564E+01-9.59865E-04-3.15191E+00-2.09822E-06-1.32477E-05
 -1      2326-4.44771E-01 1.89564E+01-9.16523E-04-3.15191E+00-3.76518E-07-2.37726E-06
 -1      2327-4.44771E-01 1.89564E+01-9.10495E-04-3.15191E+00-7.06086E-08-4.45835E-07
 -1      2328-4.44771E-01 1.89564E+01-9.10495E-04-3.15191E+00 7.06200E-08 4.45835E-07
 -1      2329-4.44771E-01 1.89564E+01-9.16523E-04-3.15191E+00 3.76529E-07 2.37726E-06
 -1      2330-4.44792E-01 1.89564E+01-9.59865E-04-3.15191E+00 2.09823E-06 1.32477E-05
 -1      2331-4.44768E-01 1.89563E+01-1.09891E-03-3.15190E+00 6.96518E-06 4.39764E-05
 -1      2332-4.45052E-01 1.89561E+01-1.35492E-03-3.15191E+00-2.08501E-06-1.31643E-05
 -1      2333-6.24465E-02 1.85735E+01-1.35492E-03-4.14864E+00 2.77112E-06 1.30371E-05
 -1      2334-6.21641E-02 1.85737E+01-1.09891E-03-4.14861E+00-9.25717E-06-4.35516E-05
 -1      2335-6.21870E-02 1.85737E+01-9.59865E-04-4.14863E+00-2.78868E-06-1.31197E-05
 -1      2336-6.21662E-02 1.85738E+01-9.16523E-04-4.14863E+00-5.00421E-07-2.35429E-06
 -1      2337-6.21657E-02 1.85738E+01-9.10495E-04-4.14863E+00-9.38460E-08-4.41528E-07
 -1      2338-6.21657E-02 1.85738E+01-9.10495E-04-4.14863E+00 9.38579E-08 4.41527E-07
 -1      2339-6.21662E-02 1.85738E+01-9.16523E-04-4.14863E+00 5.00432E-07 2.35429E-06
 -1      2340-6.21870E-02 1.85737E+01-9.59865E-04-4.14863E+00 2.78869E-06 1.31197E-05
 -1      2341-6.21641E-02 1.85737E+01-1.09891E-03-4.14861E+00 9.25718E-06 4.35516E-05
 -1      2342-6.24465E-02 1.85735E+01-1.35492E-03-4.14864E+00-2.77111E-06-1.30371E-05
 -1      2343 4.22249E-01 1.80888E+01-1.35492E-03-5.09990E+00 3.44963E-06 1.28742E-05
 -1      2344 4.22529E-01 1.80890E+01-1.09891E-03-5.09987E+00-1.15238E-05-4.30074E-05
 -1      2345 4.22507E-01 1.80891E+01-9.59865E-04-5.09989E+00-3.47148E-06-1.29558E-05
 -1      2346 4.22528E-01 1.80891E+01-9.16523E-04-5.09989E+00-6.22945E-07-2.32488E-06
 -1      2347 4.22529E-01 1.80891E+01-9.10495E-04-5.09989E+00-1.16824E-07-4.36014E-07
 -1      2348 4.22529E-01 1.80891E+01-9.10495E-04-5.09989E+00 1.16836E-07 4.36010E-07
 -1      2349 4.22528E-01 1.80891E+01-9.16523E-04-5.09989E+00 6.22958E-07 2.32487E-06
 -1      2350 4.22507E-01 1.80891E+01-9.59865E-04-5.09989E+00 3.47150E-06 1.29558E-05
 -1      2351 4.22529E-01 1.80890E+01-1.09891E-03-5.09987E+00 1.15238E-05 4.30074E-05
 -1      2352 4.22249E-01 1.80888E+01-1.35492E-03-5.09990E+00-3.44962E-06-1.28742E-05
 -1      2353 1.00372E+00 1.75074E+01-1.35492E-03-5.99530E+00 4.11869E-06 1.26760E-05
 -1      2354 1.00400E+00 1.75075E+01-1.09891E-03-5.99526E+00-1.37588E-05-4.23453E-05
 -1      2355 1.00398E+00 1.75076E+01-9.59865E-04-5.99528E+00-4.14476E-06-1.27563E-05
 -1      2356 1.00400E+00 1.75076E+01-9.16523E-04-5.99528E+00-7.43752E-07-2.28909E-06
 -1      2357 1.00400E+00 1.75076E+01-9.10495E-04-5.99529E+00-1.39473E-07-4.29306E-07
 -1      2358 1.00400E+00 1.75076E+01-9.10495E-04-5.99529E+00 1.39499E-07 4.29296E-07
 -1      2359 1.00400E+00 1.75076E+01-9.16523E-04-5.99528E+00 7.43777E-07 2.28908E-06
 -1      2360 1.00398E+00 1.75076E+01-9.59865E-04-5.99528E+00 4.14478E-06 1.27563E-05
 -1      2361 1.00400E+00 1.75075E+01-1.09891E-03-5.99526E+00 1.37588E-05 4.23453E-05
 -1      2362 1.00372E+00 1.75074E+01-1.35492E-03-5.99530E+00-4.11868E-06-1.26760E-05
 -1      2363 1.67561E+00 1.68355E+01-1.35492E-03-6.82500E+00 4.77646E-06 1.24431E-05
 -1      2364 1.67588E+00 1.68357E+01-1.09891E-03-6.82497E+00-1.59561E-05-4.15672E-05
 -1      2365 1.67586E+00 1.68357E+01-9.59865E-04-6.82499E+00-4.80669E-06-1.25219E-05
 -1      2366 1.67588E+00 1.68357E+01-9.16523E-04-6.82499E+00-8.62529E-07-2.24703E-06
 -1      2367 1.67588E+00 1.68357E+01-9.10495E-04-6.82499E+00-1.61744E-07-4.21417E-07
 -1      2368 1.67588E+00 1.68357E+01-9.10495E-04-6.82499E+00 1.61782E-07 4.21404E-07
 -1      2369 1.67588E+00 1.68357E+01-9.16523E-04-6.82499E+00 8.62568E-07 2.24702E-06
 -1      2370 1.67586E+00 1.68357E+01-9.59865E-04-6.82499E+00 4.80673E-06 1.25219E-05
 -1      2371 1.67588E+00 1.68357E+01-1.09891E-03-6.82497E+00 1.59562E-05 4.15672E-05
 -1      2372 1.67561E+00 1.68355E+01-1.35492E-03-6.82500E+00-4.77645E-06-1.24431E-05
 -1      2373 2.43054E+00 1.60805E+01-1.35492E-03-7.57993E+00 5.42114E-06 1.21760E-05
 -1      2374 2.43081E+00 1.60807E+01-1.09891E-03-7.57989E+00-1.81097E-05-4.06752E-05
 -1      2375 2.43079E+00 1.60808E+01-9.59865E-04-7.57992E+00-5.45546E-06-1.22532E-05
 -1      2376 2.43081E+00 1.60808E+01-9.16523E-04-7.57992E+00-9.78954E-07-2.19881E-06
 -1      2377 2.43081E+00 1.60808E+01-9.10495E-04-7.57992E+00-1.83577E-07-4.12378E-07
 -1      2378 2.43081E+00 1.60808E+01-9.10495E-04-7.57992E+00 1.83624E-07 4.12356E-07
 -1      2379 2.43081E+00 1.60808E+01-9.16523E-04-7.57992E+00 9.78996E-07 2.19879E-06
 -1      2380 2.43079E+00 1.60808E+01-9.59865E-04-7.57992E+00 5.45550E-06 1.22532E-05
 -1      2381 2.43081E+00 1.60807E+01-1.09891E-03-7.57989E+00 1.81098E-05 4.06752E-05
 -1      2382 2.43054E+00 1.60805E+01-1.35492E-03-7.57993E+00-5.42112E-06-1.21761E-05
 -1      2383 3.26024E+00 1.52508E+01-1.35492E-03-8.25182E+00 6.05096E-06 1.18756E-05
 -1      2384 3.26051E+00 1.52510E+01-1.09891E-03-8.25177E+00-2.02137E-05-3.96717E-05
 -1      2385 3.26050E+00 1.52511E+01-9.59865E-04-8.25180E+00-6.08925E-06-1.19509E-05
 -1      2386 3.26052E+00 1.52511E+01-9.16523E-04-8.25180E+00-1.09268E-06-2.14457E-06
 -1      2387 3.26052E+00 1.52511E+01-9.10495E-04-8.25180E+00-2.04901E-07-4.02207E-07
 -1      2388 3.26052E+00 1.52511E+01-9.10495E-04-8.25180E+00 2.04955E-07 4.02180E-07
 -1      2389 3.26052E+00 1.52511E+01-9.16523E-04-8.25180E+00 1.09273E-06 2.14454E-06
 -1      2390 3.26050E+00 1.52511E+01-9.59865E-04-8.25180E+00 6.08931E-06 1.19509E-05
 -1      2391 3.26051E+00 1.52510E+01-1.09891E-03-8.25177E+00 2.02137E-05 3.96716E-05
 -1      2392 3.26024E+00 1.52508E+01-1.35492E-03-8.25182E+00-6.05093E-06-1.18757E-05
 -1      2393 4.15564E+00 1.43554E+01-1.35492E-03-8.83329E+00 6.66419E-06 1.15427E-05
 -1      2394 4.15590E+00 1.43556E+01-1.09891E-03-8.83324E+00-2.22622E-05-3.85594E-05
 -1      2395 4.15589E+00 1.43557E+01-9.59865E-04-8.83327E+00-6.70636E-06-1.16158E-05
 -1      2396 4.15591E+00 1.43557E+01-9.16523E-04-8.83327E+00-1.20341E-06-2.08445E-06
 -1      2397 4.15591E+00 1.43557E+01-9.10495E-04-8.83328E+00-2.25664E-07-3.90936E-07
 -1      2398 4.15591E+00 1.43557E+01-9.10495E-04-8.83328E+00 2.25728E-07 3.90901E-07
 -1      2399 4.15591E+00 1.43557E+01-9.16523E-04-8.83327E+00 1.20347E-06 2.08441E-06
 -1      2400 4.15589E+00 1.43557E+01-9.59865E-04-8.83327E+00 6.70642E-06 1.16158E-05
 -1      2401 4.15590E+00 1.43556E+01-1.09891E-03-8.83324E+00 2.22623E-05 3.85594E-05
 -1      2402 4.15564E+00 1.43554E+01-1.35492E-03-8.83329E+00-6.66416E-06-1.15427E-05
 -1      2403 5.10691E+00 1.34042E+01-1.35492E-03-9.31799E+00 7.25916E-06 1.11781E-05
 -1      2404 5.10716E+00 1.34044E+01-1.09891E-03-9.31793E+00-2.42498E-05-3.73414E-05
 -1      2405 5.10715E+00 1.34044E+01-9.59865E-04-9.31797E+00-7.30509E-06-1.12489E-05
 -1      2406 5.10718E+00 1.34044E+01-9.16523E-04-9.31797E+00-1.31085E-06-2.01861E-06
 -1      2407 5.10718E+00 1.34044E+01-9.10495E-04-9.31797E+00-2.45814E-07-3.78588E-07
 -1      2408 5.10718E+00 1.34044E+01-9.10495E-04-9.31797E+00 2.45874E-07 3.78550E-07
 -1      2409 5.10718E+00 1.34044E+01-9.16523E-04-9.31797E+00 1.31091E-06 2.01857E-06
 -1      2410 5.10715E+00 1.34044E+01-9.59865E-04-9.31797E+00 7.30515E-06 1.12489E-05
 -1      2411 5.10716E+00 1.34044E+01-1.09891E-03-9.31793E+00 2.42498E-05 3.73414E-05
 -1      2412 5.10691E+00 1.34042E+01-1.35492E-03-9.31799E+00-7.25913E-06-1.11781E-05
 -1      2413 6.10363E+00 1.24075E+01-1.35492E-03-9.70059E+00 7.83423E-06 1.07828E-05
 -1      2414 6.10388E+00 1.24077E+01-1.09891E-03-9.70054E+00-2.61708E-05-3.60211E-05
 -1      2415 6.10387E+00 1.24077E+01-9.59865E-04-9.70057E+00-7.88379E-06-1.08512E-05
 -1      2416 6.10389E+00 1.24077E+01-9.16523E-04-9.70057E+00-1.41469E-06-1.94725E-06
 -1      2417 6.10390E+00 1.24077E+01-9.10495E-04-9.70057E+00-2.65286E-07-3.65213E-07
 -1      2418 6.10390E+00 1.24077E+01-9.10495E-04-9.70057E+00 2.65349E-07 3.65166E-07
 -1      2419 6.10389E+00 1.24077E+01-9.16523E-04-9.70057E+00 1.41475E-06 1.94720E-06
 -1      2420 6.10387E+00 1.24077E+01-9.59865E-04-9.70057E+00 7.88385E-06 1.08512E-05
 -1      2421 6.10388E+00 1.24077E+01-1.09891E-03-9.70054E+00 2.61709E-05 3.60211E-05
 -1      2422 6.10363E+00 1.24075E+01-1.35492E-03-9.70059E+00-7.83420E-06-1.07829E-05
 -1      2423 7.13488E+00 1.13762E+01-1.35492E-03-9.97692E+00 8.38781E-06 1.03581E-05
 -1      2424 7.13512E+00 1.13764E+01-1.09891E-03-9.97686E+00-2.80202E-05-3.46021E-05
 -1      2425 7.13513E+00 1.13764E+01-9.59865E-04-9.97689E+00-8.44090E-06-1.04237E-05
 -1      2426 7.13515E+00 1.13765E+01-9.16523E-04-9.97690E+00-1.51466E-06-1.87054E-06
 -1      2427 7.13515E+00 1.13765E+01-9.10494E-04-9.97690E+00-2.84037E-07-3.50824E-07
 -1      2428 7.13515E+00 1.13765E+01-9.10494E-04-9.97690E+00 2.84098E-07 3.50775E-07
 -1      2429 7.13515E+00 1.13765E+01-9.16523E-04-9.97690E+00 1.51473E-06 1.87049E-06
 -1      2430 7.13513E+00 1.13764E+01-9.59865E-04-9.97689E+00 8.44096E-06 1.04237E-05
 -1      2431 7.13512E+00 1.13764E+01-1.09891E-03-9.97686E+00 2.80202E-05 3.46020E-05
 -1      2432 7.13488E+00 1.13762E+01-1.35492E-03-9.97692E+00-8.38778E-06-1.03581E-05
 -1      2433 8.18937E+00 1.03217E+01-1.35492E-03-1.01439E+01 8.91842E-06 9.90488E-06
 -1      2434 8.18961E+00 1.03219E+01-1.09891E-03-1.01439E+01-2.97927E-05-3.30882E-05
 -1      2435 8.18961E+00 1.03219E+01-9.59865E-04-1.01439E+01-8.97489E-06-9.96766E-06
 -1      2436 8.18963E+00 1.03220E+01-9.16523E-04-1.01439E+01-1.61050E-06-1.78869E-06
 -1      2437 8.18964E+00 1.03220E+01-9.10495E-04-1.01439E+01-3.02014E-07-3.35476E-07
 -1      2438 8.18964E+00 1.03220E+01-9.10495E-04-1.01439E+01 3.02074E-07 3.35421E-07
 -1      2439 8.18963E+00 1.03220E+01-9.16523E-04-1.01439E+01 1.61056E-06 1.78863E-06
 -1      2440 8.18961E+00 1.03219E+01-9.59865E-04-1.01439E+01 8.97494E-06 9.96761E-06
 -1      2441 8.18961E+00 1.03219E+01-1.09891E-03-1.01439E+01 2.97928E-05 3.30881E-05
 -1      2442 8.18937E+00 1.03217E+01-1.35492E-03-1.01439E+01-8.91839E-06-9.90491E-06
 -1      2443 9.25554E+00 9.25554E+00-1.35493E-03-1.01998E+01 9.42458E-06 9.42454E-06
 -1      2444 9.25577E+00 9.25577E+00-1.09891E-03-1.01997E+01-3.14836E-05-3.14836E-05
 -1      2445 9.25578E+00 9.25578E+00-9.59866E-04-1.01998E+01-9.48426E-06-9.48429E-06
 -1      2446 9.25580E+00 9.25580E+00-9.16524E-04-1.01998E+01-1.70191E-06-1.70195E-06
 -1      2447 9.25581E+00 9.25581E+00-9.10495E-04-1.01998E+01-3.19151E-07-3.19214E-07
 -1      2448 9.25581E+00 9.25581E+00-9.10495E-04-1.01998E+01 3.19217E-07 3.19145E-07
 -1      2449 9.25580E+00 9.25580E+00-9.16524E-04-1.01998E+01 1.70197E-06 1.70189E-06
 -1      2450 9.25578E+00 9.25578E+00-9.59866E-04-1.01998E+01 9.48432E-06 9.48423E-06
 -1      2451 9.25577E+00 9.25577E+00-1.09891E-03-1.01997E+01 3.14836E-05 3.14836E-05
 -1      2452 9.25554E+00 9.25554E+00-1.35493E-03-1.01998E+01-9.42455E-06-9.42457E-06
 -1      2453 1.03217E+01 8.18937E+00-1.35493E-03-1.01439E+01 9.90491E-06 8.91838E-06
 -1      2454 1.03219E+01 8.18961E+00-1.09891E-03-1.01439E+01-3.30881E-05-2.97928E-05
 -1      2455 1.03219E+01 8.18961E+00-9.59867E-04-1.01439E+01-9.96761E-06-8.97494E-06
 -1      2456 1.03220E+01 8.18963E+00-9.16525E-04-1.01439E+01-1.78864E-06-1.61055E-06
 -1      2457 1.03220E+01 8.18964E+00-9.10496E-04-1.01439E+01-3.35422E-07-3.02072E-07
 -1      2458 1.03220E+01 8.18964E+00-9.10496E-04-1.01439E+01 3.35480E-07 3.02010E-07
 -1      2459 1.03220E+01 8.18963E+00-9.16525E-04-1.01439E+01 1.78869E-06 1.61049E-06
 -1      2460 1.03219E+01 8.18961E+00-9.59867E-04-1.01439E+01 9.96767E-06 8.97488E-06
 -1      2461 1.03219E+01 8.18961E+00-1.09891E-03-1.01439E+01 3.30882E-05 2.97927E-05
 -1      2462 1.03217E+01 8.18937E+00-1.35493E-03-1.01439E+01-9.90488E-06-8.91842E-06
 -1      2463 1.13762E+01 7.13488E+00-1.35493E-03-9.97692E+00 1.03581E-05 8.38778E-06
 -1      2464 1.13764E+01 7.13512E+00-1.09891E-03-9.97686E+00-3.46020E-05-2.80202E-05
 -1      2465 1.13764E+01 7.13513E+00-9.59867E-04-9.97689E+00-1.04237E-05-8.44098E-06
 -1      2466 1.13765E+01 7.13515E+00-9.16525E-04-9.97690E+00-1.87047E-06-1.51474E-06
 -1      2467 1.13765E+01 7.13515E+00-9.10496E-04-9.97690E+00-3.50769E-07-2.84109E-07
 -1      2468 1.13765E+01 7.13515E+00-9.10496E-04-9.97690E+00 3.50822E-07 2.84039E-07
 -1      2469 1.13765E+01 7.13515E+00-9.16525E-04-9.97690E+00 1.87053E-06 1.51468E-06
 -1      2470 1.13764E+01 7.13513E+00-9.59867E-04-9.97689E+00 1.04237E-05 8.44092E-06
 -1      2471 1.13764E+01 7.13512E+00-1.09891E-03-9.97686E+00 3.46021E-05 2.80202E-05
 -1      2472 1.13762E+01 7.13488E+00-1.35493E-03-9.97692E+00-1.03581E-05-8.38782E-06
 -1      2473 1.24075E+01 6.10363E+00-1.35493E-03-9.70059E+00 1.07829E-05 7.83419E-06
 -1      2474 1.24077E+01 6.10388E+00-1.09891E-03-9.70054E+00-3.60211E-05-2.61709E-05
 -1      2475 1.24077E+01 6.10387E+00-9.59867E-04-9.70057E+00-1.08512E-05-7.88387E-06
 -1      2476 1.24077E+01 6.10390E+00-9.16525E-04-9.70057E+00-1.94719E-06-1.41477E-06
 -1      2477 1.24077E+01 6.10390E+00-9.10496E-04-9.70057E+00-3.65160E-07-2.65358E-07
 -1      2478 1.24077E+01 6.10390E+00-9.10496E-04-9.70057E+00 3.65210E-07 2.65287E-07
 -1      2479 1.24077E+01 6.10390E+00-9.16525E-04-9.70057E+00 1.94724E-06 1.41470E-06
 -1      2480 1.24077E+01 6.10387E+00-9.59867E-04-9.70057E+00 1.08512E-05 7.88381E-06
 -1      2481 1.24077E+01 6.10388E+00-1.09891E-03-9.70054E+00 3.60211E-05 2.61708E-05
 -1      2482 1.24075E+01 6.10363E+00-1.35493E-03-9.70059E+00-1.07828E-05-7.83423E-06
 -1      2483 1.34042E+01 5.10691E+00-1.35493E-03-9.31799E+00 1.11781E-05 7.25912E-06
 -1      2484 1.34044E+01 5.10716E+00-1.09891E-03-9.31793E+00-3.73414E-05-2.42498E-05
 -1      2485 1.34044E+01 5.10715E+00-9.59866E-04-9.31797E+00-1.12489E-05-7.30516E-06
 -1      2486 1.34044E+01 5.10718E+00-9.16524E-04-9.31797E+00-2.01856E-06-1.31092E-06
 -1      2487 1.34044E+01 5.10718E+00-9.10496E-04-9.31797E+00-3.78546E-07-2.45879E-07
 -1      2488 1.34044E+01 5.10718E+00-9.10496E-04-9.31797E+00 3.78591E-07 2.45814E-07
 -1      2489 1.34044E+01 5.10718E+00-9.16524E-04-9.31797E+00 2.01861E-06 1.31085E-06
 -1      2490 1.34044E+01 5.10715E+00-9.59866E-04-9.31797E+00 1.12489E-05 7.30510E-06
 -1      2491 1.34044E+01 5.10716E+00-1.09891E-03-9.31793E+00 3.73414E-05 2.42498E-05
 -1      2492 1.34042E+01 5.10691E+00-1.35493E-03-9.31799E+00-1.11781E-05-7.25915E-06
 -1      2493 1.43554E+01 4.15564E+00-1.35493E-03-8.83329E+00 1.15427E-05 6.66415E-06
 -1      2494 1.43556E+01 4.15590E+00-1.09891E-03-8.83324E+00-3.85593E-05-2.22623E-05
 -1      2495 1.43557E+01 4.15589E+00-9.59866E-04-8.83327E+00-1.16158E-05-6.70644E-06
 -1      2496 1.43557E+01 4.15591E+00-9.16524E-04-8.83327E+00-2.08440E-06-1.20349E-06
 -1      2497 1.43557E+01 4.15591E+00-9.10496E-04-8.83328E+00-3.90899E-07-2.25731E-07
 -1      2498 1.43557E+01 4.15591E+00-9.10496E-04-8.83328E+00 3.90933E-07 2.25669E-07
 -1      2499 1.43557E+01 4.15591E+00-9.16524E-04-8.83327E+00 2.08444E-06 1.20342E-06
 -1      2500 1.43557E+01 4.15589E+00-9.59866E-04-8.83327E+00 1.16158E-05 6.70638E-06
 -1      2501 1.43556E+01 4.15590E+00-1.09891E-03-8.83324E+00 3.85594E-05 2.22623E-05
 -1      2502 1.43554E+01 4.15564E+00-1.35493E-03-8.83329E+00-1.15427E-05-6.66418E-06
 -1      2503 1.52508E+01 3.26024E+00-1.35493E-03-8.25182E+00 1.18757E-05 6.05092E-06
 -1      2504 1.52510E+01 3.26051E+00-1.09891E-03-8.25177E+00-3.96716E-05-2.02137E-05
 -1      2505 1.52511E+01 3.26050E+00-9.59866E-04-8.25180E+00-1.19509E-05-6.08931E-06
 -1      2506 1.52511E+01 3.26052E+00-9.16524E-04-8.25180E+00-2.14454E-06-1.09274E-06
 -1      2507 1.52511E+01 3.26052E+00-9.10496E-04-8.25180E+00-4.02179E-07-2.04956E-07
 -1      2508 1.52511E+01 3.26052E+00-9.10496E-04-8.25180E+00 4.02208E-07 2.04902E-07
 -1      2509 1.52511E+01 3.26052E+00-9.16524E-04-8.25180E+00 2.14456E-06 1.09268E-06
 -1      2510 1.52511E+01 3.26050E+00-9.59866E-04-8.25180E+00 1.19509E-05 6.08926E-06
 -1      2511 1.52510E+01 3.26051E+00-1.09891E-03-8.25177E+00 3.96716E-05 2.02137E-05
 -1      2512 1.52508E+01 3.26024E+00-1.35493E-03-8.25182E+00-1.18756E-05-6.05095E-06
 -1      2513 1.60805E+01 2.43054E+00-1.35493E-03-7.57993E+00 1.21761E-05 5.42111E-06
 -1      2514 1.60807E+01 2.43081E+00-1.09891E-03-7.57989E+00-4.06752E-05-1.81098E-05
 -1      2515 1.60808E+01 2.43079E+00-9.59867E-04-7.57992E+00-1.22532E-05-5.45548E-06
 -1      2516 1.60808E+01 2.43081E+00-9.16525E-04-7.57992E+00-2.19879E-06-9.78989E-07
 -1      2517 1.60808E+01 2.43081E+00-9.10497E-04-7.57992E+00-4.12358E-07-1.83623E-07
 -1      2518 1.60808E+01 2.43081E+00-9.10497E-04-7.57992E+00 4.12380E-07 1.83572E-07
 -1      2519 1.60808E+01 2.43081E+00-9.16525E-04-7.57992E+00 2.19882E-06 9.78940E-07
 -1      2520 1.60808E+01 2.43079E+00-9.59867E-04-7.57992E+00 1.22532E-05 5.45544E-06
 -1      2521 1.60807E+01 2.43081E+00-1.09891E-03-7.57989E+00 4.06752E-05 1.81097E-05
 -1      2522 1.60805E+01 2.43054E+00-1.35493E-03-7.57993E+00-1.21760E-05-5.42114E-06
 -1      2523 1.68355E+01 1.67561E+00-1.35493E-03-6.82500E+00 1.24431E-05 4.77644E-06
 -1      2524 1.68357E+01 1.67588E+00-1.09891E-03-6.82497E+00-4.15672E-05-1.59562E-05
 -1      2525 1.68357E+01 1.67586E+00-9.59867E-04-6.82499E+00-1.25219E-05-4.80674E-06
 -1      2526 1.68357E+01 1.67588E+00-9.16525E-04-6.82499E+00-2.24701E-06-8.62577E-07
 -1      2527 1.68357E+01 1.67588E+00-9.10497E-04-6.82499E+00-4.21401E-07-1.61789E-07
 -1      2528 1.68357E+01 1.67588E+00-9.10497E-04-6.82499E+00 4.21419E-07 1.61740E-07
 -1      2529 1.68357E+01 1.67588E+00-9.16525E-04-6.82499E+00 2.24703E-06 8.62528E-07
 -1      2530 1.68357E+01 1.67586E+00-9.59867E-04-6.82499E+00 1.25219E-05 4.80669E-06
 -1      2531 1.68357E+01 1.67588E+00-1.09891E-03-6.82497E+00 4.15672E-05 1.59561E-05
 -1      2532 1.68355E+01 1.67561E+00-1.35493E-03-6.82500E+00-1.24431E-05-4.77647E-06
 -1      2533 1.75074E+01 1.00372E+00-1.35493E-03-5.99530E+00 1.26760E-05 4.11867E-06
 -1      2534 1.75075E+01 1.00400E+00-1.09891E-03-5.99526E+00-4.23453E-05-1.37589E-05
 -1      2535 1.75076E+01 1.00398E+00-9.59867E-04-5.99528E+00-1.27563E-05-4.14481E-06
 -1      2536 1.75076E+01 1.00400E+00-9.16525E-04-5.99528E+00-2.28908E-06-7.43805E-07
 -1      2537 1.75076E+01 1.00400E+00-9.10496E-04-5.99529E+00-4.29289E-07-1.39521E-07
 -1      2538 1.75076E+01 1.00400E+00-9.10496E-04-5.99529E+00 4.29309E-07 1.39459E-07
 -1      2539 1.75076E+01 1.00400E+00-9.16525E-04-5.99528E+00 2.28909E-06 7.43745E-07
 -1      2540 1.75076E+01 1.00398E+00-9.59867E-04-5.99528E+00 1.27563E-05 4.14476E-06
 -1      2541 1.75075E+01 1.00400E+00-1.09891E-03-5.99526E+00 4.23453E-05 1.37588E-05
 -1      2542 1.75074E+01 1.00372E+00-1.35493E-03-5.99530E+00-1.26760E-05-4.11870E-06
 -1      2543 1.80888E+01 4.22249E-01-1.35493E-03-5.09990E+00 1.28742E-05 3.44961E-06
 -1      2544 1.80890E+01 4.22529E-01-1.09891E-03-5.09987E+00-4.30074E-05-1.15238E-05
 -1      2545 1.80891E+01 4.22507E-01-9.59867E-04-5.09989E+00-1.29558E-05-3.47152E-06
 -1      2546 1.80891E+01 4.22528E-01-9.16525E-04-5.09989E+00-2.32487E-06-6.22985E-07
 -1      2547 1.80891E+01 4.22529E-01-9.10496E-04-5.09989E+00-4.36003E-07-1.16865E-07
 -1      2548 1.80891E+01 4.22529E-01-9.10496E-04-5.09989E+00 4.36021E-07 1.16793E-07
 -1      2549 1.80891E+01 4.22528E-01-9.16525E-04-5.09989E+00 2.32488E-06 6.22914E-07
 -1      2550 1.80891E+01 4.22507E-01-9.59867E-04-5.09989E+00 1.29558E-05 3.47145E-06
 -1      2551 1.80890E+01 4.22529E-01-1.09891E-03-5.09987E+00 4.30074E-05 1.15238E-05
 -1      2552 1.80888E+01 4.22249E-01-1.35493E-03-5.09990E+00-1.28742E-05-3.44964E-06
 -1      2553 1.85735E+01-6.24465E-02-1.35493E-03-4.14864E+00 1.30371E-05 2.77110E-06
 -1      2554 1.85737E+01-6.21641E-02-1.09891E-03-4.14861E+00-4.35516E-05-9.25720E-06
 -1      2555 1.85737E+01-6.21870E-02-9.59867E-04-4.14863E+00-1.31197E-05-2.78871E-06
 -1      2556 1.85738E+01-6.21662E-02-9.16525E-04-4.14863E+00-2.35429E-06-5.00459E-07
 -1      2557 1.85738E+01-6.21657E-02-9.10497E-04-4.14863E+00-4.41523E-07-9.38879E-08
 -1      2558 1.85738E+01-6.21657E-02-9.10497E-04-4.14863E+00 4.41538E-07 9.38141E-08
 -1      2559 1.85738E+01-6.21662E-02-9.16525E-04-4.14863E+00 2.35430E-06 5.00388E-07
 -1      2560 1.85737E+01-6.21870E-02-9.59867E-04-4.14863E+00 1.31197E-05 2.78865E-06
 -1      2561 1.85737E+01-6.21641E-02-1.09891E-03-4.14861E+00 4.35516E-05 9.25715E-06
 -1      2562 1.85735E+01-6.24465E-02-1.35493E-03-4.14864E+00-1.30371E-05-2.77113E-06
 -1      2563 1.89561E+01-4.45052E-01-1.35493E-03-3.15191E+00 1.31643E-05 2.08499E-06
 -1      2564 1.89563E+01-4.44768E-01-1.09891E-03-3.15190E+00-4.39763E-05-6.96520E-06
 -1      2565 1.89564E+01-4.44792E-01-9.59867E-04-3.15191E+00-1.32476E-05-2.09826E-06
 -1      2566 1.89564E+01-4.44771E-01-9.16525E-04-3.15191E+00-2.37725E-06-3.76555E-07
 -1      2567 1.89564E+01-4.44771E-01-9.10497E-04-3.15191E+00-4.45830E-07-7.06465E-08
 -1      2568 1.89564E+01-4.44771E-01-9.10497E-04-3.15191E+00 4.45839E-07 7.05840E-08
 -1      2569 1.89564E+01-4.44771E-01-9.16525E-04-3.15191E+00 2.37726E-06 3.76496E-07
 -1      2570 1.89564E+01-4.44792E-01-9.59867E-04-3.15191E+00 1.32477E-05 2.09820E-06
 -1      2571 1.89563E+01-4.44768E-01-1.09891E-03-3.15190E+00 4.39764E-05 6.96516E-06
 -1      2572 1.89561E+01-4.45052E-01-1.35493E-03-3.15191E+00-1.31643E-05-2.08502E-06
 -1      2573 1.92325E+01-7.21376E-01-1.35493E-03-2.12066E+00 1.32553E-05 1.39318E-06
 -1      2574 1.92326E+01-7.21090E-01-1.09891E-03-2.12065E+00-4.42806E-05-4.65410E-06
 -1      2575 1.92327E+01-7.21115E-01-9.59867E-04-2.12065E+00-1.33393E-05-1.40204E-06
 -1      2576 1.92327E+01-7.21094E-01-9.16525E-04-2.12065E+00-2.39370E-06-2.51612E-07
 -1      2577 1.92327E+01-7.21094E-01-9.10496E-04-2.12066E+00-4.48919E-07-4.72060E-08
 -1      2578 1.92327E+01-7.21094E-01-9.10496E-04-2.12066E+00 4.48924E-07 4.71625E-08
 -1      2579 1.92327E+01-7.21094E-01-9.16525E-04-2.12065E+00 2.39371E-06 2.51570E-07
 -1      2580 1.92327E+01-7.21115E-01-9.59867E-04-2.12065E+00 1.33393E-05 1.40200E-06
 -1      2581 1.92326E+01-7.21090E-01-1.09891E-03-2.12065E+00 4.42806E-05 4.65407E-06
 -1      2582 1.92325E+01-7.21376E-01-1.35493E-03-2.12066E+00-1.32553E-05-1.39320E-06
 -1      2583 1.93995E+01-8.88391E-01-1.35493E-03-1.06617E+00 1.33101E-05 6.97547E-07
 -1      2584 1.93996E+01-8.88104E-01-1.09891E-03-1.06616E+00-4.44635E-05-2.33024E-06
 -1      2585 1.93997E+01-8.88129E-01-9.59867E-04-1.06617E+00-1.33944E-05-7.01978E-07
 -1      2586 1.93997E+01-8.88109E-01-9.16525E-04-1.06617E+00-2.40359E-06-1.25975E-07
 -1      2587 1.93997E+01-8.88108E-01-9.10496E-04-1.06617E+00-4.50774E-07-2.36336E-08
 -1      2588 1.93997E+01-8.88108E-01-9.10496E-04-1.06617E+00 4.50775E-07 2.36133E-08
 -1      2589 1.93997E+01-8.88109E-01-9.16525E-04-1.06617E+00 2.40359E-06 1.25956E-07
 -1      2590 1.93997E+01-8.88129E-01-9.59867E-04-1.06617E+00 1.33944E-05 7.01960E-07
 -1      2591 1.93996E+01-8.88104E-01-1.09891E-03-1.06616E+00 4.44635E-05 2.33022E-06
 -1      2592 1.93995E+01-8.88391E-01-1.35493E-03-1.06617E+00-1.33101E-05-6.97557E-07
 -1      2593-8.35505E-01 1.93465E+01-9.08388E-04-1.06061E+00-8.68633E-06-1.65745E-04
 -1      2594-8.35045E-01 1.93467E+01-8.37171E-04-1.06059E+00-3.87256E-06-7.38929E-05
 -1      2595-8.35087E-01 1.93467E+01-8.61048E-04-1.06059E+00-1.15071E-06-2.19569E-05
 -1      2596-8.35069E-01 1.93467E+01-8.22856E-04-1.06059E+00-2.56708E-07-4.89832E-06
 -1      2597-8.35067E-01 1.93467E+01-8.18484E-04-1.06059E+00-3.31804E-08-6.33118E-07
 -1      2598-8.35067E-01 1.93467E+01-8.18484E-04-1.06059E+00 3.31782E-08 6.33115E-07
 -1      2599-8.35069E-01 1.93467E+01-8.22856E-04-1.06059E+00 2.56706E-07 4.89832E-06
 -1      2600-8.35087E-01 1.93467E+01-8.61048E-04-1.06059E+00 1.15071E-06 2.19569E-05
 -1      2601-8.35045E-01 1.93467E+01-8.37171E-04-1.06059E+00 3.87256E-06 7.38929E-05
 -1      2602-8.35505E-01 1.93465E+01-9.08388E-04-1.06061E+00 8.68633E-06 1.65745E-04
 -1      2603-6.69362E-01 1.91804E+01-9.08387E-04-2.10960E+00-1.73489E-05-1.65063E-04
 -1      2604-6.68904E-01 1.91805E+01-8.37171E-04-2.10957E+00-7.73450E-06-7.35889E-05
 -1      2605-6.68946E-01 1.91805E+01-8.61048E-04-2.10957E+00-2.29826E-06-2.18666E-05
 -1      2606-6.68928E-01 1.91806E+01-8.22856E-04-2.10957E+00-5.12713E-07-4.87818E-06
 -1      2607-6.68925E-01 1.91806E+01-8.18484E-04-2.10957E+00-6.62675E-08-6.30515E-07
 -1      2608-6.68925E-01 1.91806E+01-8.18484E-04-2.10957E+00 6.62700E-08 6.30512E-07
 -1      2609-6.68928E-01 1.91806E+01-8.22856E-04-2.10957E+00 5.12716E-07 4.87817E-06
 -1      2610-6.68946E-01 1.91805E+01-8.61048E-04-2.10957E+00 2.29827E-06 2.18666E-05
 -1      2611-6.68904E-01 1.91805E+01-8.37171E-04-2.10957E+00 7.73450E-06 7.35889E-05
 -1      2612-6.69362E-01 1.91804E+01-9.08387E-04-2.10960E+00 1.73489E-05 1.65063E-04
 -1      2613-3.94479E-01 1.89055E+01-9.08387E-04-3.13547E+00-2.59638E-05-1.63929E-04
 -1      2614-3.94026E-01 1.89057E+01-8.37171E-04-3.13543E+00-1.15753E-05-7.30833E-05
 -1      2615-3.94067E-01 1.89057E+01-8.61048E-04-3.13543E+00-3.43953E-06-2.17163E-05
 -1      2616-3.94049E-01 1.89057E+01-8.22856E-04-3.13543E+00-7.67316E-07-4.84465E-06
 -1      2617-3.94047E-01 1.89057E+01-8.18484E-04-3.13543E+00-9.91732E-08-6.26180E-07
 -1      2618-3.94047E-01 1.89057E+01-8.18484E-04-3.13543E+00 9.91830E-08 6.26180E-07
 -1      2619-3.94049E-01 1.89057E+01-8.22856E-04-3.13543E+00 7.67326E-07 4.84465E-06
 -1      2620-3.94067E-01 1.89057E+01-8.61048E-04-3.13543E+00 3.43953E-06 2.17163E-05
 -1      2621-3.94026E-01 1.89057E+01-8.37171E-04-3.13543E+00 1.15753E-05 7.30833E-05
 -1      2622-3.94479E-01 1.89055E+01-9.08387E-04-3.13547E+00 2.59638E-05 1.63929E-04
 -1      2623-1.38697E-02 1.85249E+01-9.08387E-04-4.12699E+00-3.45076E-05-1.62346E-04
 -1      2624-1.34218E-02 1.85251E+01-8.37171E-04-4.12693E+00-1.53843E-05-7.23773E-05
 -1      2625-1.34626E-02 1.85251E+01-8.61048E-04-4.12694E+00-4.57136E-06-2.15065E-05
 -1      2626-1.34445E-02 1.85251E+01-8.22856E-04-4.12694E+00-1.01982E-06-4.79785E-06
 -1      2627-1.34417E-02 1.85251E+01-8.18484E-04-4.12694E+00-1.31810E-07-6.20132E-07
 -1      2628-1.34417E-02 1.85251E+01-8.18484E-04-4.12694E+00 1.31820E-07 6.20130E-07
 -1      2629-1.34445E-02 1.85251E+01-8.22856E-04-4.12694E+00 1.01983E-06 4.79785E-06
 -1      2630-1.34626E-02 1.85251E+01-8.61048E-04-4.12694E+00 4.57137E-06 2.15065E-05
 -1      2631-1.34218E-02 1.85251E+01-8.37171E-04-4.12693E+00 1.53843E-05 7.23773E-05
 -1      2632-1.38697E-02 1.85249E+01-9.08387E-04-4.12699E+00 3.45077E-05 1.62346E-04
 -1      2633 4.68297E-01 1.80427E+01-9.08387E-04-5.07330E+00-4.29569E-05-1.60317E-04
 -1      2634 4.68738E-01 1.80429E+01-8.37171E-04-5.07323E+00-1.91511E-05-7.14730E-05
 -1      2635 4.68698E-01 1.80429E+01-8.61048E-04-5.07323E+00-5.69066E-06-2.12378E-05
 -1      2636 4.68716E-01 1.80429E+01-8.22856E-04-5.07323E+00-1.26952E-06-4.73791E-06
 -1      2637 4.68719E-01 1.80429E+01-8.18484E-04-5.07324E+00-1.64083E-07-6.12386E-07
 -1      2638 4.68719E-01 1.80429E+01-8.18484E-04-5.07324E+00 1.64094E-07 6.12381E-07
 -1      2639 4.68716E-01 1.80429E+01-8.22856E-04-5.07323E+00 1.26953E-06 4.73791E-06
 -1      2640 4.68698E-01 1.80429E+01-8.61048E-04-5.07323E+00 5.69067E-06 2.12378E-05
 -1      2641 4.68738E-01 1.80429E+01-8.37171E-04-5.07323E+00 1.91511E-05 7.14730E-05
 -1      2642 4.68297E-01 1.80427E+01-9.08387E-04-5.07330E+00 4.29569E-05 1.60317E-04
 -1      2643 1.04674E+00 1.74643E+01-9.08387E-04-5.96402E+00-5.12884E-05-1.57849E-04
 -1      2644 1.04717E+00 1.74645E+01-8.37171E-04-5.96393E+00-2.28655E-05-7.03727E-05
 -1      2645 1.04713E+00 1.74645E+01-8.61048E-04-5.96394E+00-6.79434E-06-2.09109E-05
 -1      2646 1.04715E+00 1.74645E+01-8.22856E-04-5.96394E+00-1.51573E-06-4.66498E-06
 -1      2647 1.04715E+00 1.74645E+01-8.18484E-04-5.96395E+00-1.95899E-07-6.02961E-07
 -1      2648 1.04715E+00 1.74645E+01-8.18484E-04-5.96395E+00 1.95922E-07 6.02953E-07
 -1      2649 1.04715E+00 1.74645E+01-8.22856E-04-5.96394E+00 1.51575E-06 4.66497E-06
 -1      2650 1.04713E+00 1.74645E+01-8.61048E-04-5.96394E+00 6.79436E-06 2.09109E-05
 -1      2651 1.04717E+00 1.74645E+01-8.37171E-04-5.96393E+00 2.28655E-05 7.03727E-05
 -1      2652 1.04674E+00 1.74643E+01-9.08387E-04-5.96402E+00 5.12884E-05 1.57849E-04
 -1      2653 1.71512E+00 1.67959E+01-9.08387E-04-6.78940E+00-5.94793E-05-1.54949E-04
 -1      2654 1.71554E+00 1.67961E+01-8.37171E-04-6.78930E+00-2.65172E-05-6.90796E-05
 -1      2655 1.71550E+00 1.67961E+01-8.61047E-04-6.78931E+00-7.87942E-06-2.05266E-05
 -1      2656 1.71552E+00 1.67961E+01-8.22856E-04-6.78931E+00-1.75779E-06-4.57926E-06
 -1      2657 1.71552E+00 1.67961E+01-8.18484E-04-6.78931E+00-2.27182E-07-5.91883E-07
 -1      2658 1.71552E+00 1.67961E+01-8.18484E-04-6.78931E+00 2.27215E-07 5.91869E-07
 -1      2659 1.71552E+00 1.67961E+01-8.22856E-04-6.78931E+00 1.75782E-06 4.57925E-06
 -1      2660 1.71550E+00 1.67961E+01-8.61047E-04-6.78931E+00 7.87945E-06 2.05266E-05
 -1      2661 1.71554E+00 1.67961E+01-8.37171E-04-6.78930E+00 2.65172E-05 6.90796E-05
 -1      2662 1.71512E+00 1.67959E+01-9.08387E-04-6.78940E+00 5.94793E-05 1.54949E-04
 -1      2663 2.46611E+00 1.60449E+01-9.08387E-04-7.54039E+00-6.75071E-05-1.51624E-04
 -1      2664 2.46652E+00 1.60451E+01-8.37171E-04-7.54028E+00-3.00962E-05-6.75971E-05
 -1      2665 2.46648E+00 1.60451E+01-8.61047E-04-7.54029E+00-8.94291E-06-2.00861E-05
 -1      2666 2.46650E+00 1.60451E+01-8.22856E-04-7.54030E+00-1.99505E-06-4.48099E-06
 -1      2667 2.46651E+00 1.60451E+01-8.18484E-04-7.54030E+00-2.57847E-07-5.79186E-07
 -1      2668 2.46651E+00 1.60451E+01-8.18484E-04-7.54030E+00 2.57888E-07 5.79165E-07
 -1      2669 2.46650E+00 1.60451E+01-8.22856E-04-7.54030E+00 1.99508E-06 4.48097E-06
 -1      2670 2.46648E+00 1.60451E+01-8.61047E-04-7.54029E+00 8.94295E-06 2.00861E-05
 -1      2671 2.46652E+00 1.60451E+01-8.37171E-04-7.54028E+00 3.00962E-05 6.75971E-05
 -1      2672 2.46611E+00 1.60449E+01-9.08387E-04-7.54039E+00 6.75071E-05 1.51624E-04
 -1      2673 3.29149E+00 1.52195E+01-9.08388E-04-8.20877E+00-7.53500E-05-1.47883E-04
 -1      2674 3.29189E+00 1.52198E+01-8.37171E-04-8.20865E+00-3.35927E-05-6.59294E-05
 -1      2675 3.29185E+00 1.52197E+01-8.61048E-04-8.20866E+00-9.98187E-06-1.95906E-05
 -1      2676 3.29187E+00 1.52198E+01-8.22856E-04-8.20867E+00-2.22682E-06-4.37044E-06
 -1      2677 3.29187E+00 1.52198E+01-8.18484E-04-8.20867E+00-2.87800E-07-5.64897E-07
 -1      2678 3.29187E+00 1.52198E+01-8.18484E-04-8.20867E+00 2.87846E-07 5.64871E-07
 -1      2679 3.29187E+00 1.52198E+01-8.22856E-04-8.20867E+00 2.22687E-06 4.37041E-06
 -1      2680 3.29185E+00 1.52197E+01-8.61048E-04-8.20866E+00 9.98192E-06 1.95906E-05
 -1      2681 3.29189E+00 1.52198E+01-8.37171E-04-8.20865E+00 3.35927E-05 6.59294E-05
 -1      2682 3.29149E+00 1.52195E+01-9.08388E-04-8.20877E+00 7.53500E-05 1.47883E-04
 -1      2683 4.18221E+00 1.43288E+01-9.08388E-04-8.78721E+00-8.29863E-05-1.43736E-04
 -1      2684 4.18260E+00 1.43290E+01-8.37171E-04-8.78708E+00-3.69971E-05-6.40809E-05
 -1      2685 4.18256E+00 1.43290E+01-8.61048E-04-8.78710E+00-1.09935E-05-1.90413E-05
 -1      2686 4.18258E+00 1.43291E+01-8.22856E-04-8.78710E+00-2.45249E-06-4.24791E-06
 -1      2687 4.18258E+00 1.43291E+01-8.18484E-04-8.78710E+00-3.16965E-07-5.49064E-07
 -1      2688 4.18258E+00 1.43291E+01-8.18484E-04-8.78710E+00 3.17020E-07 5.49033E-07
 -1      2689 4.18258E+00 1.43291E+01-8.22856E-04-8.78710E+00 2.45255E-06 4.24788E-06
 -1      2690 4.18256E+00 1.43290E+01-8.61048E-04-8.78710E+00 1.09935E-05 1.90413E-05
 -1      2691 4.18260E+00 1.43290E+01-8.37171E-04-8.78708E+00 3.69971E-05 6.40809E-05
 -1      2692 4.18221E+00 1.43288E+01-9.08388E-04-8.78721E+00 8.29863E-05 1.43736E-04
 -1      2693 5.12851E+00 1.33825E+01-9.08387E-04-9.26938E+00-9.03951E-05-1.39196E-04
 -1      2694 5.12889E+00 1.33828E+01-8.37171E-04-9.26924E+00-4.03001E-05-6.20568E-05
 -1      2695 5.12886E+00 1.33827E+01-8.61048E-04-9.26926E+00-1.19749E-05-1.84399E-05
 -1      2696 5.12888E+00 1.33828E+01-8.22856E-04-9.26926E+00-2.67145E-06-4.11373E-06
 -1      2697 5.12888E+00 1.33828E+01-8.18484E-04-9.26926E+00-3.45265E-07-5.31721E-07
 -1      2698 5.12888E+00 1.33828E+01-8.18484E-04-9.26926E+00 3.45318E-07 5.31688E-07
 -1      2699 5.12888E+00 1.33828E+01-8.22856E-04-9.26926E+00 2.67150E-06 4.11370E-06
 -1      2700 5.12886E+00 1.33827E+01-8.61048E-04-9.26926E+00 1.19750E-05 1.84398E-05
 -1      2701 5.12889E+00 1.33828E+01-8.37171E-04-9.26924E+00 4.03002E-05 6.20568E-05
 -1      2702 5.12851E+00 1.33825E+01-9.08387E-04-9.26938E+00 9.03952E-05 1.39196E-04
 -1      2703 6.12004E+00 1.23910E+01-9.08387E-04-9.64999E+00-9.75562E-05-1.34275E-04
 -1      2704 6.12040E+00 1.23912E+01-8.37171E-04-9.64985E+00-4.34927E-05-5.98626E-05
 -1      2705 6.12037E+00 1.23912E+01-8.61048E-04-9.64986E+00-1.29236E-05-1.77879E-05
 -1      2706 6.12038E+00 1.23912E+01-8.22856E-04-9.64987E+00-2.88307E-06-3.96830E-06
 -1      2707 6.12039E+00 1.23913E+01-8.18484E-04-9.64987E+00-3.72616E-07-5.12931E-07
 -1      2708 6.12039E+00 1.23913E+01-8.18484E-04-9.64987E+00 3.72670E-07 5.12889E-07
 -1      2709 6.12038E+00 1.23912E+01-8.22856E-04-9.64987E+00 2.88313E-06 3.96825E-06
 -1      2710 6.12037E+00 1.23912E+01-8.61048E-04-9.64986E+00 1.29236E-05 1.77879E-05
 -1      2711 6.12040E+00 1.23912E+01-8.37171E-04-9.64985E+00 4.34927E-05 5.98626E-05
 -1      2712 6.12004E+00 1.23910E+01-9.08387E-04-9.64999E+00 9.75563E-05 1.34275E-04
 -1      2713 7.14591E+00 1.13651E+01-9.08387E-04-9.92487E+00-1.04450E-04-1.28985E-04
 -1      2714 7.14626E+00 1.13654E+01-8.37171E-04-9.92473E+00-4.65661E-05-5.75044E-05
 -1      2715 7.14623E+00 1.13654E+01-8.61047E-04-9.92474E+00-1.38368E-05-1.70871E-05
 -1      2716 7.14625E+00 1.13654E+01-8.22855E-04-9.92474E+00-3.08681E-06-3.81196E-06
 -1      2717 7.14625E+00 1.13654E+01-8.18484E-04-9.92475E+00-3.98950E-07-4.92721E-07
 -1      2718 7.14625E+00 1.13654E+01-8.18484E-04-9.92475E+00 3.99004E-07 4.92680E-07
 -1      2719 7.14625E+00 1.13654E+01-8.22855E-04-9.92474E+00 3.08686E-06 3.81192E-06
 -1      2720 7.14623E+00 1.13654E+01-8.61047E-04-9.92474E+00 1.38369E-05 1.70871E-05
 -1      2721 7.14626E+00 1.13654E+01-8.37171E-04-9.92473E+00 4.65661E-05 5.75043E-05
 -1      2722 7.14591E+00 1.13651E+01-9.08387E-04-9.92487E+00 1.04450E-04 1.28985E-04
 -1      2723 8.19490E+00 1.03161E+01-9.08387E-04-1.00910E+01-1.11057E-04-1.23342E-04
 -1      2724 8.19523E+00 1.03164E+01-8.37171E-04-1.00909E+01-4.95118E-05-5.49885E-05
 -1      2725 8.19520E+00 1.03164E+01-8.61047E-04-1.00909E+01-1.47122E-05-1.63395E-05
 -1      2726 8.19522E+00 1.03164E+01-8.22855E-04-1.00909E+01-3.28209E-06-3.64518E-06
 -1      2727 8.19522E+00 1.03164E+01-8.18484E-04-1.00909E+01-4.24195E-07-4.71166E-07
 -1      2728 8.19522E+00 1.03164E+01-8.18484E-04-1.00909E+01 4.24247E-07 4.71117E-07
 -1      2729 8.19522E+00 1.03164E+01-8.22855E-04-1.00909E+01 3.28215E-06 3.64513E-06
 -1      2730 8.19520E+00 1.03164E+01-8.61047E-04-1.00909E+01 1.47122E-05 1.63395E-05
 -1      2731 8.19523E+00 1.03164E+01-8.37171E-04-1.00909E+01 4.95119E-05 5.49884E-05
 -1      2732 8.19490E+00 1.03161E+01-9.08387E-04-1.00910E+01 1.11057E-04 1.23342E-04
 -1      2733 9.25551E+00 9.25551E+00-9.08388E-04-1.01466E+01-1.17360E-04-1.17360E-04
 -1      2734 9.25582E+00 9.25582E+00-8.37172E-04-1.01465E+01-5.23218E-05-5.23219E-05
 -1      2735 9.25580E+00 9.25580E+00-8.61048E-04-1.01465E+01-1.55472E-05-1.55472E-05
 -1      2736 9.25582E+00 9.25582E+00-8.22856E-04-1.01465E+01-3.46837E-06-3.46841E-06
 -1      2737 9.25582E+00 9.25582E+00-8.18485E-04-1.01465E+01-4.48270E-07-4.48324E-07
 -1      2738 9.25582E+00 9.25582E+00-8.18485E-04-1.01465E+01 4.48328E-07 4.48264E-07
 -1      2739 9.25582E+00 9.25582E+00-8.22856E-04-1.01465E+01 3.46842E-06 3.46835E-06
 -1      2740 9.25580E+00 9.25580E+00-8.61048E-04-1.01465E+01 1.55472E-05 1.55471E-05
 -1      2741 9.25582E+00 9.25582E+00-8.37172E-04-1.01465E+01 5.23219E-05 5.23218E-05
 -1      2742 9.25551E+00 9.25551E+00-9.08388E-04-1.01466E+01 1.17360E-04 1.17360E-04
 -1      2743 1.03161E+01 8.19490E+00-9.08389E-04-1.00910E+01-1.23342E-04-1.11057E-04
 -1      2744 1.03164E+01 8.19523E+00-8.37173E-04-1.00909E+01-5.49884E-05-4.95118E-05
 -1      2745 1.03164E+01 8.19520E+00-8.61049E-04-1.00909E+01-1.63395E-05-1.47122E-05
 -1      2746 1.03164E+01 8.19522E+00-8.22857E-04-1.00909E+01-3.64513E-06-3.28214E-06
 -1      2747 1.03164E+01 8.19522E+00-8.18486E-04-1.00909E+01-4.71117E-07-4.24246E-07
 -1      2748 1.03164E+01 8.19522E+00-8.18486E-04-1.00909E+01 4.71169E-07 4.24191E-07
 -1      2749 1.03164E+01 8.19522E+00-8.22857E-04-1.00909E+01 3.64518E-06 3.28209E-06
 -1      2750 1.03164E+01 8.19520E+00-8.61049E-04-1.00909E+01 1.63395E-05 1.47122E-05
 -1      2751 1.03164E+01 8.19523E+00-8.37173E-04-1.00909E+01 5.49885E-05 4.95118E-05
 -1      2752 1.03161E+01 8.19490E+00-9.08389E-04-1.00910E+01 1.23342E-04 1.11057E-04
 -1      2753 1.13651E+01 7.14591E+00-9.08389E-04-9.92487E+00-1.28985E-04-1.04450E-04
 -1      2754 1.13654E+01 7.14626E+00-8.37173E-04-9.92473E+00-5.75043E-05-4.65661E-05
 -1      2755 1.13654E+01 7.14623E+00-8.61049E-04-9.92474E+00-1.70871E-05-1.38369E-05
 -1      2756 1.13654E+01 7.14625E+00-8.22857E-04-9.92474E+00-3.81191E-06-3.08688E-06
 -1      2757 1.13654E+01 7.14625E+00-8.18486E-04-9.92475E+00-4.92675E-07-3.99014E-07
 -1      2758 1.13654E+01 7.14625E+00-8.18486E-04-9.92475E+00 4.92719E-07 3.98953E-07
 -1      2759 1.13654E+01 7.14625E+00-8.22857E-04-9.92474E+00 3.81195E-06 3.08682E-06
 -1      2760 1.13654E+01 7.14623E+00-8.61049E-04-9.92474E+00 1.70871E-05 1.38369E-05
 -1      2761 1.13654E+01 7.14626E+00-8.37173E-04-9.92473E+00 5.75044E-05 4.65661E-05
 -1      2762 1.13651E+01 7.14591E+00-9.08389E-04-9.92487E+00 1.28985E-04 1.04450E-04
 -1      2763 1.23910E+01 6.12004E+00-9.08389E-04-9.64999E+00-1.34275E-04-9.75563E-05
 -1      2764 1.23912E+01 6.12040E+00-8.37173E-04-9.64985E+00-5.98626E-05-4.34928E-05
 -1      2765 1.23912E+01 6.12037E+00-8.61049E-04-9.64986E+00-1.77878E-05-1.29237E-05
 -1      2766 1.23912E+01 6.12038E+00-8.22857E-04-9.64987E+00-3.96824E-06-2.88314E-06
 -1      2767 1.23913E+01 6.12039E+00-8.18486E-04-9.64987E+00-5.12883E-07-3.72679E-07
 -1      2768 1.23913E+01 6.12039E+00-8.18486E-04-9.64987E+00 5.12928E-07 3.72617E-07
 -1      2769 1.23912E+01 6.12038E+00-8.22857E-04-9.64987E+00 3.96828E-06 2.88308E-06
 -1      2770 1.23912E+01 6.12037E+00-8.61049E-04-9.64986E+00 1.77879E-05 1.29236E-05
 -1      2771 1.23912E+01 6.12040E+00-8.37173E-04-9.64985E+00 5.98626E-05 4.34927E-05
 -1      2772 1.23910E+01 6.12004E+00-9.08389E-04-9.64999E+00 1.34275E-04 9.75562E-05
 -1      2773 1.33825E+01 5.12851E+00-9.08389E-04-9.26938E+00-1.39196E-04-9.03952E-05
 -1      2774 1.33828E+01 5.12889E+00-8.37173E-04-9.26924E+00-6.20568E-05-4.03002E-05
 -1      2775 1.33827E+01 5.12886E+00-8.61049E-04-9.26926E+00-1.84398E-05-1.19750E-05
 -1      2776 1.33828E+01 5.12888E+00-8.22857E-04-9.26926E+00-4.11369E-06-2.67151E-06
 -1      2777 1.33828E+01 5.12888E+00-8.18485E-04-9.26926E+00-5.31683E-07-3.45321E-07
 -1      2778 1.33828E+01 5.12888E+00-8.18485E-04-9.26926E+00 5.31723E-07 3.45265E-07
 -1      2779 1.33828E+01 5.12888E+00-8.22857E-04-9.26926E+00 4.11373E-06 2.67145E-06
 -1      2780 1.33827E+01 5.12886E+00-8.61049E-04-9.26926E+00 1.84399E-05 1.19750E-05
 -1      2781 1.33828E+01 5.12889E+00-8.37173E-04-9.26924E+00 6.20568E-05 4.03001E-05
 -1      2782 1.33825E+01 5.12851E+00-9.08389E-04-9.26938E+00 1.39196E-04 9.03952E-05
 -1      2783 1.43288E+01 4.18221E+00-9.08389E-04-8.78721E+00-1.43736E-04-8.29863E-05
 -1      2784 1.43290E+01 4.18260E+00-8.37173E-04-8.78708E+00-6.40809E-05-3.69972E-05
 -1      2785 1.43290E+01 4.18256E+00-8.61049E-04-8.78710E+00-1.90413E-05-1.09935E-05
 -1      2786 1.43291E+01 4.18258E+00-8.22857E-04-8.78710E+00-4.24787E-06-2.45256E-06
 -1      2787 1.43291E+01 4.18258E+00-8.18486E-04-8.78710E+00-5.49031E-07-3.17023E-07
 -1      2788 1.43291E+01 4.18258E+00-8.18486E-04-8.78710E+00 5.49061E-07 3.16968E-07
 -1      2789 1.43291E+01 4.18258E+00-8.22857E-04-8.78710E+00 4.24790E-06 2.45250E-06
 -1      2790 1.43290E+01 4.18256E+00-8.61049E-04-8.78710E+00 1.90413E-05 1.09935E-05
 -1      2791 1.43290E+01 4.18260E+00-8.37173E-04-8.78708E+00 6.40809E-05 3.69971E-05
 -1      2792 1.43288E+01 4.18221E+00-9.08389E-04-8.78721E+00 1.43736E-04 8.29863E-05
 -1      2793 1.52195E+01 3.29149E+00-9.08389E-04-8.20877E+00-1.47883E-04-7.53500E-05
 -1      2794 1.52198E+01 3.29189E+00-8.37173E-04-8.20865E+00-6.59294E-05-3.35927E-05
 -1      2795 1.52197E+01 3.29185E+00-8.61049E-04-8.20866E+00-1.95906E-05-9.98192E-06
 -1      2796 1.52198E+01 3.29187E+00-8.22857E-04-8.20867E+00-4.37041E-06-2.22687E-06
 -1      2797 1.52198E+01 3.29187E+00-8.18485E-04-8.20867E+00-5.64872E-07-2.87848E-07
 -1      2798 1.52198E+01 3.29187E+00-8.18485E-04-8.20867E+00 5.64899E-07 2.87801E-07
 -1      2799 1.52198E+01 3.29187E+00-8.22857E-04-8.20867E+00 4.37044E-06 2.22682E-06
 -1      2800 1.52197E+01 3.29185E+00-8.61049E-04-8.20866E+00 1.95906E-05 9.98188E-06
 -1      2801 1.52198E+01 3.29189E+00-8.37173E-04-8.20865E+00 6.59294E-05 3.35927E-05
 -1      2802 1.52195E+01 3.29149E+00-9.08389E-04-8.20877E+00 1.47883E-04 7.53500E-05
 -1      2803 1.60449E+01 2.46611E+00-9.08389E-04-7.54039E+00-1.51624E-04-6.75072E-05
 -1      2804 1.60451E+01 2.46652E+00-8.37173E-04-7.54028E+00-6.75971E-05-3.00962E-05
 -1      2805 1.60451E+01 2.46648E+00-8.61049E-04-7.54029E+00-2.00861E-05-8.94293E-06
 -1      2806 1.60451E+01 2.46650E+00-8.22857E-04-7.54030E+00-4.48097E-06-1.99508E-06
 -1      2807 1.60451E+01 2.46651E+00-8.18486E-04-7.54030E+00-5.79166E-07-2.57887E-07
 -1      2808 1.60451E+01 2.46651E+00-8.18486E-04-7.54030E+00 5.79187E-07 2.57842E-07
 -1      2809 1.60451E+01 2.46650E+00-8.22857E-04-7.54030E+00 4.48100E-06 1.99503E-06
 -1      2810 1.60451E+01 2.46648E+00-8.61049E-04-7.54029E+00 2.00861E-05 8.94289E-06
 -1      2811 1.60451E+01 2.46652E+00-8.37173E-04-7.54028E+00 6.75971E-05 3.00962E-05
 -1      2812 1.60449E+01 2.46611E+00-9.08389E-04-7.54039E+00 1.51624E-04 6.75071E-05
 -1      2813 1.67959E+01 1.71512E+00-9.08389E-04-6.78940E+00-1.54949E-04-5.94793E-05
 -1      2814 1.67961E+01 1.71554E+00-8.37173E-04-6.78930E+00-6.90796E-05-2.65172E-05
 -1      2815 1.67961E+01 1.71550E+00-8.61049E-04-6.78931E+00-2.05266E-05-7.87946E-06
 -1      2816 1.67961E+01 1.71552E+00-8.22857E-04-6.78931E+00-4.57924E-06-1.75783E-06
 -1      2817 1.67961E+01 1.71552E+00-8.18486E-04-6.78931E+00-5.91867E-07-2.27221E-07
 -1      2818 1.67961E+01 1.71552E+00-8.18486E-04-6.78931E+00 5.91883E-07 2.27179E-07
 -1      2819 1.67961E+01 1.71552E+00-8.22857E-04-6.78931E+00 4.57926E-06 1.75779E-06
 -1      2820 1.67961E+01 1.71550E+00-8.61049E-04-6.78931E+00 2.05266E-05 7.87942E-06
 -1      2821 1.67961E+01 1.71554E+00-8.37173E-04-6.78930E+00 6.90796E-05 2.65172E-05
 -1      2822 1.67959E+01 1.71512E+00-9.08389E-04-6.78940E+00 1.54949E-04 5.94792E-05
 -1      2823 1.74643E+01 1.04674E+00-9.08389E-04-5.96402E+00-1.57849E-04-5.12884E-05
 -1      2824 1.74645E+01 1.04717E+00-8.37173E-04-5.96393E+00-7.03727E-05-2.28655E-05
 -1      2825 1.74645E+01 1.04713E+00-8.61049E-04-5.96394E+00-2.09109E-05-6.79439E-06
 -1      2826 1.74645E+01 1.04715E+00-8.22857E-04-5.96394E+00-4.66497E-06-1.51577E-06
 -1      2827 1.74645E+01 1.04715E+00-8.18486E-04-5.96395E+00-6.02947E-07-1.95941E-07
 -1      2828 1.74645E+01 1.04715E+00-8.18486E-04-5.96395E+00 6.02964E-07 1.95887E-07
 -1      2829 1.74645E+01 1.04715E+00-8.22857E-04-5.96394E+00 4.66498E-06 1.51572E-06
 -1      2830 1.74645E+01 1.04713E+00-8.61049E-04-5.96394E+00 2.09109E-05 6.79434E-06
 -1      2831 1.74645E+01 1.04717E+00-8.37173E-04-5.96393E+00 7.03727E-05 2.28655E-05
 -1      2832 1.74643E+01 1.04674E+00-9.08389E-04-5.96402E+00 1.57849E-04 5.12883E-05
 -1      2833 1.80427E+01 4.68297E-01-9.08389E-04-5.07330E+00-1.60317E-04-4.29569E-05
 -1      2834 1.80429E+01 4.68738E-01-8.37173E-04-5.07323E+00-7.14730E-05-1.91512E-05
 -1      2835 1.80429E+01 4.68698E-01-8.61049E-04-5.07323E+00-2.12378E-05-5.69069E-06
 -1      2836 1.80429E+01 4.68716E-01-8.22857E-04-5.07323E+00-4.73790E-06-1.26955E-06
 -1      2837 1.80429E+01 4.68719E-01-8.18486E-04-5.07324E+00-6.12377E-07-1.64119E-07
 -1      2838 1.80429E+01 4.68719E-01-8.18486E-04-5.07324E+00 6.12391E-07 1.64057E-07
 -1      2839 1.80429E+01 4.68716E-01-8.22857E-04-5.07323E+00 4.73792E-06 1.26949E-06
 -1      2840 1.80429E+01 4.68698E-01-8.61049E-04-5.07323E+00 2.12378E-05 5.69063E-06
 -1      2841 1.80429E+01 4.68738E-01-8.37173E-04-5.07323E+00 7.14730E-05 1.91511E-05
 -1      2842 1.80427E+01 4.68297E-01-9.08389E-04-5.07330E+00 1.60317E-04 4.29569E-05
 -1      2843 1.85249E+01-1.38697E-02-9.08389E-04-4.12699E+00-1.62346E-04-3.45077E-05
 -1      2844 1.85251E+01-1.34218E-02-8.37173E-04-4.12693E+00-7.23773E-05-1.53843E-05
 -1      2845 1.85251E+01-1.34626E-02-8.61049E-04-4.12694E+00-2.15065E-05-4.57139E-06
 -1      2846 1.85251E+01-1.34445E-02-8.22857E-04-4.12694E+00-4.79785E-06-1.01985E-06
 -1      2847 1.85251E+01-1.34417E-02-8.18486E-04-4.12694E+00-6.20124E-07-1.31846E-07
 -1      2848 1.85251E+01-1.34417E-02-8.18486E-04-4.12694E+00 6.20142E-07 1.31782E-07
 -1      2849 1.85251E+01-1.34445E-02-8.22857E-04-4.12694E+00 4.79786E-06 1.01979E-06
 -1      2850 1.85251E+01-1.34626E-02-8.61049E-04-4.12694E+00 2.15065E-05 4.57133E-06
 -1      2851 1.85251E+01-1.34218E-02-8.37173E-04-4.12693E+00 7.23773E-05 1.53843E-05
 -1      2852 1.85249E+01-1.38697E-02-9.08389E-04-4.12699E+00 1.62346E-04 3.45076E-05
 -1      2853 1.89055E+01-3.94479E-01-9.08389E-04-3.13547E+00-1.63929E-04-2.59639E-05
 -1      2854 1.89057E+01-3.94026E-01-8.37173E-04-3.13543E+00-7.30833E-05-1.15753E-05
 -1      2855 1.89057E+01-3.94067E-01-8.61049E-04-3.13543E+00-2.17163E-05-3.43956E-06
 -1      2856 1.89057E+01-3.94049E-01-8.22857E-04-3.13543E+00-4.84464E-06-7.67349E-07
 -1      2857 1.89057E+01-3.94047E-01-8.18486E-04-3.13543E+00-6.26175E-07-9.92069E-08
 -1      2858 1.89057E+01-3.94047E-01-8.18486E-04-3.13543E+00 6.26182E-07 9.91515E-08
 -1      2859 1.89057E+01-3.94049E-01-8.22857E-04-3.13543E+00 4.84466E-06 7.67297E-07
 -1      2860 1.89057E+01-3.94067E-01-8.61049E-04-3.13543E+00 2.17163E-05 3.43951E-06
 -1      2861 1.89057E+01-3.94026E-01-8.37173E-04-3.13543E+00 7.30833E-05 1.15752E-05
 -1      2862 1.89055E+01-3.94479E-01-9.08389E-04-3.13547E+00 1.63929E-04 2.59638E-05
 -1      2863 1.91804E+01-6.69362E-01-9.08389E-04-2.10960E+00-1.65063E-04-1.73489E-05
 -1      2864 1.91805E+01-6.68904E-01-8.37173E-04-2.10957E+00-7.35889E-05-7.73452E-06
 -1      2865 1.91805E+01-6.68946E-01-8.61049E-04-2.10957E+00-2.18666E-05-2.29829E-06
 -1      2866 1.91806E+01-6.68928E-01-8.22857E-04-2.10957E+00-4.87817E-06-5.12738E-07
 -1      2867 1.91806E+01-6.68925E-01-8.18486E-04-2.10957E+00-6.30510E-07-6.62897E-08
 -1      2868 1.91806E+01-6.68925E-01-8.18486E-04-2.10957E+00 6.30519E-07 6.62513E-08
 -1      2869 1.91806E+01-6.68928E-01-8.22857E-04-2.10957E+00 4.87818E-06 5.12701E-07
 -1      2870 1.91805E+01-6.68946E-01-8.61049E-04-2.10957E+00 2.18666E-05 2.29826E-06
 -1      2871 1.91805E+01-6.68904E-01-8.37173E-04-2.10957E+00 7.35889E-05 7.73450E-06
 -1      2872 1.91804E+01-6.69362E-01-9.08389E-04-2.10960E+00 1.65063E-04 1.73489E-05
 -1      2873 1.93465E+01-8.35505E-01-9.08389E-04-1.06061E+00-1.65745E-04-8.68634E-06
 -1      2874 1.93467E+01-8.35045E-01-8.37173E-04-1.06059E+00-7.38929E-05-3.87256E-06
 -1      2875 1.93467E+01-8.35087E-01-8.61049E-04-1.06059E+00-2.19569E-05-1.15072E-06
 -1      2876 1.93467E+01-8.35069E-01-8.22857E-04-1.06059E+00-4.89832E-06-2.56717E-07
 -1      2877 1.93467E+01-8.35067E-01-8.18486E-04-1.06059E+00-6.33117E-07-3.31889E-08
 -1      2878 1.93467E+01-8.35067E-01-8.18486E-04-1.06059E+00 6.33119E-07 3.31708E-08
 -1      2879 1.93467E+01-8.35069E-01-8.22857E-04-1.06059E+00 4.89832E-06 2.56701E-07
 -1      2880 1.93467E+01-8.35087E-01-8.61049E-04-1.06059E+00 2.19569E-05 1.15070E-06
 -1      2881 1.93467E+01-8.35045E-01-8.37173E-04-1.06059E+00 7.38929E-05 3.87255E-06
 -1      2882 1.93465E+01-8.35505E-01-9.08389E-04-1.06061E+00 1.65745E-04 8.68633E-06
 -1      2883-7.82838E-01 1.92940E+01-6.25678E-04-1.05508E+00-5.22339E-06-9.96682E-05
 -1      2884-7.82491E-01 1.92941E+01-6.43325E-04-1.05507E+00-4.87349E-06-9.29917E-05
 -1      2885-7.82450E-01 1.92941E+01-7.31573E-04-1.05507E+00-1.32293E-06-2.52431E-05
 -1      2886-7.82446E-01 1.92941E+01-7.29928E-04-1.05507E+00-3.43665E-07-6.55756E-06
 -1      2887-7.82440E-01 1.92941E+01-7.25294E-04-1.05507E+00-5.12769E-08-9.78424E-07
 -1      2888-7.82440E-01 1.92941E+01-7.25294E-04-1.05507E+00 5.12754E-08 9.78422E-07
 -1      2889-7.82446E-01 1.92941E+01-7.29928E-04-1.05507E+00 3.43663E-07 6.55756E-06
 -1      2890-7.82450E-01 1.92941E+01-7.31573E-04-1.05507E+00 1.32293E-06 2.52431E-05
 -1      2891-7.82491E-01 1.92941E+01-6.43325E-04-1.05507E+00 4.87349E-06 9.29917E-05
 -1      2892-7.82838E-01 1.92940E+01-6.25678E-04-1.05508E+00 5.22338E-06 9.96682E-05
 -1      2893-6.17561E-01 1.91287E+01-6.25678E-04-2.09860E+00-1.04325E-05-9.92582E-05
 -1      2894-6.17216E-01 1.91288E+01-6.43325E-04-2.09858E+00-9.73362E-06-9.26092E-05
 -1      2895-6.17175E-01 1.91288E+01-7.31573E-04-2.09857E+00-2.64224E-06-2.51392E-05
 -1      2896-6.17171E-01 1.91288E+01-7.29928E-04-2.09857E+00-6.86389E-07-6.53059E-06
 -1      2897-6.17165E-01 1.91288E+01-7.25294E-04-2.09857E+00-1.02412E-07-9.74403E-07
 -1      2898-6.17165E-01 1.91288E+01-7.25294E-04-2.09857E+00 1.02414E-07 9.74401E-07
 -1      2899-6.17171E-01 1.91288E+01-7.29928E-04-2.09857E+00 6.86391E-07 6.53059E-06
 -1      2900-6.17175E-01 1.91288E+01-7.31573E-04-2.09857E+00 2.64224E-06 2.51392E-05
 -1      2901-6.17216E-01 1.91288E+01-6.43325E-04-2.09858E+00 9.73362E-06 9.26092E-05
 -1      2902-6.17561E-01 1.91287E+01-6.25678E-04-2.09860E+00 1.04325E-05 9.92582E-05
 -1      2903-3.44111E-01 1.88553E+01-6.25678E-04-3.11913E+00-1.56129E-05-9.85762E-05
 -1      2904-3.43770E-01 1.88554E+01-6.43325E-04-3.11909E+00-1.45671E-05-9.19729E-05
 -1      2905-3.43729E-01 1.88554E+01-7.31572E-04-3.11908E+00-3.95430E-06-2.49665E-05
 -1      2906-3.43725E-01 1.88554E+01-7.29928E-04-3.11908E+00-1.02723E-06-6.48571E-06
 -1      2907-3.43719E-01 1.88554E+01-7.25294E-04-3.11908E+00-1.53266E-07-9.67705E-07
 -1      2908-3.43719E-01 1.88554E+01-7.25294E-04-3.11908E+00 1.53274E-07 9.67705E-07
 -1      2909-3.43725E-01 1.88554E+01-7.29928E-04-3.11908E+00 1.02724E-06 6.48571E-06
 -1      2910-3.43729E-01 1.88554E+01-7.31572E-04-3.11908E+00 3.95431E-06 2.49665E-05
 -1      2911-3.43770E-01 1.88554E+01-6.43325E-04-3.11909E+00 1.45671E-05 9.19729E-05
 -1      2912-3.44111E-01 1.88553E+01-6.25678E-04-3.11913E+00 1.56129E-05 9.85762E-05
 -1      2913 3.45147E-02 1.84766E+01-6.25678E-04-4.10548E+00-2.07506E-05-9.76240E-05
 -1      2914 3.48517E-02 1.84768E+01-6.43325E-04-4.10543E+00-1.93606E-05-9.10845E-05
 -1      2915 3.48913E-02 1.84768E+01-7.31573E-04-4.10542E+00-5.25553E-06-2.47253E-05
 -1      2916 3.48951E-02 1.84768E+01-7.29928E-04-4.10542E+00-1.36527E-06-6.42306E-06
 -1      2917 3.49011E-02 1.84768E+01-7.25294E-04-4.10542E+00-2.03703E-07-9.58359E-07
 -1      2918 3.49011E-02 1.84768E+01-7.25294E-04-4.10542E+00 2.03712E-07 9.58357E-07
 -1      2919 3.48951E-02 1.84768E+01-7.29928E-04-4.10542E+00 1.36527E-06 6.42306E-06
 -1      2920 3.48913E-02 1.84768E+01-7.31573E-04-4.10542E+00 5.25554E-06 2.47253E-05
 -1      2921 3.48517E-02 1.84768E+01-6.43325E-04-4.10543E+00 1.93606E-05 9.10845E-05
 -1      2922 3.45147E-02 1.84766E+01-6.25678E-04-4.10548E+00 2.07506E-05 9.76240E-05
 -1      2923 5.14168E-01 1.79970E+01-6.25678E-04-5.04685E+00-2.58314E-05-9.64042E-05
 -1      2924 5.14500E-01 1.79971E+01-6.43325E-04-5.04680E+00-2.41011E-05-8.99464E-05
 -1      2925 5.14538E-01 1.79971E+01-7.31573E-04-5.04678E+00-6.54235E-06-2.44164E-05
 -1      2926 5.14542E-01 1.79971E+01-7.29928E-04-5.04678E+00-1.69955E-06-6.34281E-06
 -1      2927 5.14548E-01 1.79971E+01-7.25294E-04-5.04678E+00-2.53579E-07-9.46386E-07
 -1      2928 5.14548E-01 1.79971E+01-7.25294E-04-5.04678E+00 2.53588E-07 9.46381E-07
 -1      2929 5.14542E-01 1.79971E+01-7.29928E-04-5.04678E+00 1.69956E-06 6.34281E-06
 -1      2930 5.14538E-01 1.79971E+01-7.31573E-04-5.04678E+00 6.54236E-06 2.44164E-05
 -1      2931 5.14500E-01 1.79971E+01-6.43325E-04-5.04680E+00 2.41011E-05 8.99464E-05
 -1      2932 5.14168E-01 1.79970E+01-6.25678E-04-5.04685E+00 2.58314E-05 9.64042E-05
 -1      2933 1.08959E+00 1.74216E+01-6.25678E-04-5.93293E+00-3.08414E-05-9.49201E-05
 -1      2934 1.08992E+00 1.74217E+01-6.43325E-04-5.93286E+00-2.87755E-05-8.85618E-05
 -1      2935 1.08996E+00 1.74217E+01-7.31573E-04-5.93285E+00-7.81123E-06-2.40405E-05
 -1      2936 1.08996E+00 1.74217E+01-7.29928E-04-5.93285E+00-2.02916E-06-6.24517E-06
 -1      2937 1.08997E+00 1.74217E+01-7.25294E-04-5.93285E+00-3.02753E-07-9.31819E-07
 -1      2938 1.08997E+00 1.74217E+01-7.25294E-04-5.93285E+00 3.02773E-07 9.31811E-07
 -1      2939 1.08996E+00 1.74217E+01-7.29928E-04-5.93285E+00 2.02918E-06 6.24516E-06
 -1      2940 1.08996E+00 1.74217E+01-7.31573E-04-5.93285E+00 7.81124E-06 2.40405E-05
 -1      2941 1.08992E+00 1.74217E+01-6.43325E-04-5.93286E+00 2.87755E-05 8.85618E-05
 -1      2942 1.08959E+00 1.74216E+01-6.25678E-04-5.93293E+00 3.08414E-05 9.49201E-05
 -1      2943 1.75449E+00 1.67567E+01-6.25678E-04-6.75401E+00-3.57669E-05-9.31759E-05
 -1      2944 1.75481E+00 1.67568E+01-6.43325E-04-6.75393E+00-3.33710E-05-8.69344E-05
 -1      2945 1.75484E+00 1.67568E+01-7.31572E-04-6.75391E+00-9.05870E-06-2.35988E-05
 -1      2946 1.75485E+00 1.67568E+01-7.29928E-04-6.75392E+00-2.35323E-06-6.13042E-06
 -1      2947 1.75485E+00 1.67568E+01-7.25294E-04-6.75392E+00-3.51102E-07-9.14697E-07
 -1      2948 1.75485E+00 1.67568E+01-7.25294E-04-6.75392E+00 3.51131E-07 9.14686E-07
 -1      2949 1.75485E+00 1.67568E+01-7.29928E-04-6.75392E+00 2.35326E-06 6.13041E-06
 -1      2950 1.75484E+00 1.67568E+01-7.31572E-04-6.75391E+00 9.05873E-06 2.35988E-05
 -1      2951 1.75481E+00 1.67568E+01-6.43325E-04-6.75393E+00 3.33710E-05 8.69344E-05
 -1      2952 1.75449E+00 1.67567E+01-6.25678E-04-6.75401E+00 3.57669E-05 9.31759E-05
 -1      2953 2.50157E+00 1.60096E+01-6.25678E-04-7.50109E+00-4.05943E-05-9.11763E-05
 -1      2954 2.50188E+00 1.60097E+01-6.43325E-04-7.50100E+00-3.78750E-05-8.50688E-05
 -1      2955 2.50191E+00 1.60097E+01-7.31572E-04-7.50098E+00-1.02814E-05-2.30923E-05
 -1      2956 2.50191E+00 1.60097E+01-7.29928E-04-7.50098E+00-2.67085E-06-5.99886E-06
 -1      2957 2.50192E+00 1.60098E+01-7.25294E-04-7.50098E+00-3.98493E-07-8.95074E-07
 -1      2958 2.50192E+00 1.60098E+01-7.25294E-04-7.50098E+00 3.98527E-07 8.95054E-07
 -1      2959 2.50191E+00 1.60097E+01-7.29928E-04-7.50098E+00 2.67088E-06 5.99884E-06
 -1      2960 2.50191E+00 1.60097E+01-7.31572E-04-7.50098E+00 1.02814E-05 2.30923E-05
 -1      2961 2.50188E+00 1.60097E+01-6.43325E-04-7.50100E+00 3.78751E-05 8.50688E-05
 -1      2962 2.50157E+00 1.60096E+01-6.25678E-04-7.50109E+00 4.05943E-05 9.11763E-05
 -1      2963 3.32264E+00 1.51885E+01-6.25678E-04-8.16598E+00-4.53105E-05-8.89268E-05
 -1      2964 3.32294E+00 1.51887E+01-6.43325E-04-8.16589E+00-4.22753E-05-8.29700E-05
 -1      2965 3.32297E+00 1.51887E+01-7.31573E-04-8.16587E+00-1.14758E-05-2.25226E-05
 -1      2966 3.32298E+00 1.51887E+01-7.29928E-04-8.16587E+00-2.98113E-06-5.85086E-06
 -1      2967 3.32298E+00 1.51887E+01-7.25294E-04-8.16587E+00-4.44784E-07-8.72989E-07
 -1      2968 3.32298E+00 1.51887E+01-7.25294E-04-8.16587E+00 4.44825E-07 8.72967E-07
 -1      2969 3.32298E+00 1.51887E+01-7.29928E-04-8.16587E+00 2.98118E-06 5.85083E-06
 -1      2970 3.32297E+00 1.51887E+01-7.31573E-04-8.16587E+00 1.14759E-05 2.25226E-05
 -1      2971 3.32294E+00 1.51887E+01-6.43325E-04-8.16589E+00 4.22753E-05 8.29699E-05
 -1      2972 3.32264E+00 1.51885E+01-6.25678E-04-8.16598E+00 4.53105E-05 8.89268E-05
 -1      2973 4.20872E+00 1.43024E+01-6.25678E-04-8.74141E+00-4.99025E-05-8.64336E-05
 -1      2974 4.20901E+00 1.43026E+01-6.43325E-04-8.74131E+00-4.65597E-05-8.06437E-05
 -1      2975 4.20904E+00 1.43026E+01-7.31573E-04-8.74129E+00-1.26388E-05-2.18911E-05
 -1      2976 4.20904E+00 1.43026E+01-7.29928E-04-8.74129E+00-3.28325E-06-5.68682E-06
 -1      2977 4.20905E+00 1.43026E+01-7.25294E-04-8.74129E+00-4.89860E-07-8.48518E-07
 -1      2978 4.20905E+00 1.43026E+01-7.25294E-04-8.74129E+00 4.89907E-07 8.48491E-07
 -1      2979 4.20904E+00 1.43026E+01-7.29928E-04-8.74129E+00 3.28330E-06 5.68679E-06
 -1      2980 4.20904E+00 1.43026E+01-7.31573E-04-8.74129E+00 1.26389E-05 2.18911E-05
 -1      2981 4.20901E+00 1.43026E+01-6.43325E-04-8.74131E+00 4.65597E-05 8.06437E-05
 -1      2982 4.20872E+00 1.43024E+01-6.25678E-04-8.74141E+00 4.99025E-05 8.64336E-05
 -1      2983 5.15010E+00 1.33611E+01-6.25678E-04-9.22106E+00-5.43576E-05-8.37035E-05
 -1      2984 5.15037E+00 1.33612E+01-6.43325E-04-9.22095E+00-5.07164E-05-7.80965E-05
 -1      2985 5.15040E+00 1.33612E+01-7.31573E-04-9.22093E+00-1.37672E-05-2.11997E-05
 -1      2986 5.15040E+00 1.33613E+01-7.29928E-04-9.22093E+00-3.57638E-06-5.50719E-06
 -1      2987 5.15041E+00 1.33613E+01-7.25294E-04-9.22093E+00-5.33596E-07-8.21717E-07
 -1      2988 5.15041E+00 1.33613E+01-7.25294E-04-9.22093E+00 5.33642E-07 8.21689E-07
 -1      2989 5.15040E+00 1.33613E+01-7.29928E-04-9.22093E+00 3.57642E-06 5.50716E-06
 -1      2990 5.15040E+00 1.33612E+01-7.31573E-04-9.22093E+00 1.37672E-05 2.11997E-05
 -1      2991 5.15037E+00 1.33612E+01-6.43325E-04-9.22095E+00 5.07164E-05 7.80965E-05
 -1      2992 5.15010E+00 1.33611E+01-6.25678E-04-9.22106E+00 5.43577E-05 8.37035E-05
 -1      2993 6.13645E+00 1.23747E+01-6.25678E-04-9.59969E+00-5.86639E-05-8.07439E-05
 -1      2994 6.13671E+00 1.23749E+01-6.43325E-04-9.59958E+00-5.47342E-05-7.53352E-05
 -1      2995 6.13674E+00 1.23749E+01-7.31572E-04-9.59955E+00-1.48578E-05-2.04501E-05
 -1      2996 6.13674E+00 1.23749E+01-7.29928E-04-9.59955E+00-3.85969E-06-5.31249E-06
 -1      2997 6.13675E+00 1.23749E+01-7.25294E-04-9.59955E+00-5.75866E-07-7.92671E-07
 -1      2998 6.13675E+00 1.23749E+01-7.25294E-04-9.59955E+00 5.75911E-07 7.92634E-07
 -1      2999 6.13674E+00 1.23749E+01-7.29928E-04-9.59955E+00 3.85974E-06 5.31245E-06
 -1      3000 6.13674E+00 1.23749E+01-7.31572E-04-9.59955E+00 1.48579E-05 2.04501E-05
 -1      3001 6.13671E+00 1.23749E+01-6.43325E-04-9.59958E+00 5.47342E-05 7.53351E-05
 -1      3002 6.13645E+00 1.23747E+01-6.25678E-04-9.59969E+00 5.86639E-05 8.07439E-05
 -1      3003 7.15698E+00 1.13542E+01-6.25678E-04-9.87314E+00-6.28093E-05-7.75630E-05
 -1      3004 7.15723E+00 1.13544E+01-6.43325E-04-9.87302E+00-5.86019E-05-7.23674E-05
 -1      3005 7.15725E+00 1.13544E+01-7.31572E-04-9.87300E+00-1.59077E-05-1.96445E-05
 -1      3006 7.15726E+00 1.13544E+01-7.29928E-04-9.87300E+00-4.13244E-06-5.10320E-06
 -1      3007 7.15726E+00 1.13544E+01-7.25294E-04-9.87300E+00-6.16562E-07-7.61442E-07
 -1      3008 7.15726E+00 1.13544E+01-7.25294E-04-9.87300E+00 6.16608E-07 7.61408E-07
 -1      3009 7.15726E+00 1.13544E+01-7.29928E-04-9.87300E+00 4.13248E-06 5.10316E-06
 -1      3010 7.15725E+00 1.13544E+01-7.31572E-04-9.87300E+00 1.59078E-05 1.96445E-05
 -1      3011 7.15723E+00 1.13544E+01-6.43325E-04-9.87302E+00 5.86019E-05 7.23673E-05
 -1      3012 7.15698E+00 1.13542E+01-6.25678E-04-9.87314E+00 6.28093E-05 7.75630E-05
 -1      3013 8.20050E+00 1.03107E+01-6.25678E-04-1.00384E+01-6.67825E-05-7.41695E-05
 -1      3014 8.20074E+00 1.03109E+01-6.43325E-04-1.00383E+01-6.23090E-05-6.92012E-05
 -1      3015 8.20076E+00 1.03109E+01-7.31572E-04-1.00383E+01-1.69141E-05-1.87850E-05
 -1      3016 8.20076E+00 1.03109E+01-7.29928E-04-1.00383E+01-4.39387E-06-4.87992E-06
 -1      3017 8.20077E+00 1.03109E+01-7.25294E-04-1.00383E+01-6.55572E-07-7.28130E-07
 -1      3018 8.20077E+00 1.03109E+01-7.25294E-04-1.00383E+01 6.55616E-07 7.28086E-07
 -1      3019 8.20076E+00 1.03109E+01-7.29928E-04-1.00383E+01 4.39391E-06 4.87988E-06
 -1      3020 8.20076E+00 1.03109E+01-7.31572E-04-1.00383E+01 1.69141E-05 1.87850E-05
 -1      3021 8.20074E+00 1.03109E+01-6.43325E-04-1.00383E+01 6.23090E-05 6.92012E-05
 -1      3022 8.20050E+00 1.03107E+01-6.25678E-04-1.00384E+01 6.67825E-05 7.41695E-05
 -1      3023 9.25558E+00 9.25558E+00-6.25679E-04-1.00937E+01-7.05727E-05-7.05728E-05
 -1      3024 9.25581E+00 9.25581E+00-6.43326E-04-1.00936E+01-6.58453E-05-6.58453E-05
 -1      3025 9.25582E+00 9.25582E+00-7.31573E-04-1.00936E+01-1.78740E-05-1.78740E-05
 -1      3026 9.25583E+00 9.25583E+00-7.29929E-04-1.00936E+01-4.64325E-06-4.64328E-06
 -1      3027 9.25583E+00 9.25583E+00-7.25295E-04-1.00936E+01-6.92780E-07-6.92825E-07
 -1      3028 9.25583E+00 9.25583E+00-7.25295E-04-1.00936E+01 6.92830E-07 6.92773E-07
 -1      3029 9.25583E+00 9.25583E+00-7.29929E-04-1.00936E+01 4.64329E-06 4.64322E-06
 -1      3030 9.25582E+00 9.25582E+00-7.31573E-04-1.00936E+01 1.78741E-05 1.78740E-05
 -1      3031 9.25581E+00 9.25581E+00-6.43326E-04-1.00936E+01 6.58454E-05 6.58453E-05
 -1      3032 9.25558E+00 9.25558E+00-6.25679E-04-1.00937E+01 7.05728E-05 7.05727E-05
 -1      3033 1.03107E+01 8.20050E+00-6.25680E-04-1.00384E+01-7.41695E-05-6.67825E-05
 -1      3034 1.03109E+01 8.20074E+00-6.43326E-04-1.00383E+01-6.92011E-05-6.23090E-05
 -1      3035 1.03109E+01 8.20076E+00-7.31574E-04-1.00383E+01-1.87850E-05-1.69141E-05
 -1      3036 1.03109E+01 8.20076E+00-7.29930E-04-1.00383E+01-4.87988E-06-4.39390E-06
 -1      3037 1.03109E+01 8.20077E+00-7.25296E-04-1.00383E+01-7.28086E-07-6.55615E-07
 -1      3038 1.03109E+01 8.20077E+00-7.25296E-04-1.00383E+01 7.28131E-07 6.55567E-07
 -1      3039 1.03109E+01 8.20076E+00-7.29930E-04-1.00383E+01 4.87992E-06 4.39386E-06
 -1      3040 1.03109E+01 8.20076E+00-7.31574E-04-1.00383E+01 1.87850E-05 1.69141E-05
 -1      3041 1.03109E+01 8.20074E+00-6.43326E-04-1.00383E+01 6.92012E-05 6.23090E-05
 -1      3042 1.03107E+01 8.20050E+00-6.25680E-04-1.00384E+01 7.41695E-05 6.67825E-05
 -1      3043 1.13542E+01 7.15698E+00-6.25680E-04-9.87314E+00-7.75630E-05-6.28093E-05
 -1      3044 1.13544E+01 7.15723E+00-6.43326E-04-9.87302E+00-7.23673E-05-5.86019E-05
 -1      3045 1.13544E+01 7.15725E+00-7.31574E-04-9.87300E+00-1.96444E-05-1.59078E-05
 -1      3046 1.13544E+01 7.15726E+00-7.29930E-04-9.87300E+00-5.10315E-06-4.13250E-06
 -1      3047 1.13544E+01 7.15726E+00-7.25296E-04-9.87300E+00-7.61402E-07-6.16617E-07
 -1      3048 1.13544E+01 7.15726E+00-7.25296E-04-9.87300E+00 7.61439E-07 6.16566E-07
 -1      3049 1.13544E+01 7.15726E+00-7.29930E-04-9.87300E+00 5.10319E-06 4.13245E-06
 -1      3050 1.13544E+01 7.15725E+00-7.31574E-04-9.87300E+00 1.96445E-05 1.59078E-05
 -1      3051 1.13544E+01 7.15723E+00-6.43326E-04-9.87302E+00 7.23673E-05 5.86019E-05
 -1      3052 1.13542E+01 7.15698E+00-6.25680E-04-9.87314E+00 7.75630E-05 6.28093E-05
 -1      3053 1.23747E+01 6.13645E+00-6.25680E-04-9.59969E+00-8.07439E-05-5.86639E-05
 -1      3054 1.23749E+01 6.13671E+00-6.43326E-04-9.59958E+00-7.53351E-05-5.47342E-05
 -1      3055 1.23749E+01 6.13674E+00-7.31574E-04-9.59955E+00-2.04501E-05-1.48579E-05
 -1      3056 1.23749E+01 6.13674E+00-7.29930E-04-9.59955E+00-5.31244E-06-3.85975E-06
 -1      3057 1.23749E+01 6.13675E+00-7.25296E-04-9.59955E+00-7.92630E-07-5.75920E-07
 -1      3058 1.23749E+01 6.13675E+00-7.25296E-04-9.59955E+00 7.92669E-07 5.75867E-07
 -1      3059 1.23749E+01 6.13674E+00-7.29930E-04-9.59955E+00 5.31247E-06 3.85970E-06
 -1      3060 1.23749E+01 6.13674E+00-7.31574E-04-9.59955E+00 2.04501E-05 1.48578E-05
 -1      3061 1.23749E+01 6.13671E+00-6.43326E-04-9.59958E+00 7.53352E-05 5.47342E-05
 -1      3062 1.23747E+01 6.13645E+00-6.25680E-04-9.59969E+00 8.07439E-05 5.86639E-05
 -1      3063 1.33611E+01 5.15010E+00-6.25680E-04-9.22106E+00-8.37035E-05-5.43577E-05
 -1      3064 1.33612E+01 5.15037E+00-6.43326E-04-9.22095E+00-7.80964E-05-5.07165E-05
 -1      3065 1.33612E+01 5.15040E+00-7.31574E-04-9.22093E+00-2.11997E-05-1.37672E-05
 -1      3066 1.33613E+01 5.15040E+00-7.29930E-04-9.22093E+00-5.50716E-06-3.57643E-06
 -1      3067 1.33613E+01 5.15041E+00-7.25295E-04-9.22093E+00-8.21684E-07-5.33644E-07
 -1      3068 1.33613E+01 5.15041E+00-7.25295E-04-9.22093E+00 8.21718E-07 5.33595E-07
 -1      3069 1.33613E+01 5.15040E+00-7.29930E-04-9.22093E+00 5.50719E-06 3.57638E-06
 -1      3070 1.33612E+01 5.15040E+00-7.31574E-04-9.22093E+00 2.11997E-05 1.37672E-05
 -1      3071 1.33612E+01 5.15037E+00-6.43326E-04-9.22095E+00 7.80965E-05 5.07164E-05
 -1      3072 1.33611E+01 5.15010E+00-6.25680E-04-9.22106E+00 8.37035E-05 5.43576E-05
 -1      3073 1.43024E+01 4.20872E+00-6.25680E-04-8.74141E+00-8.64336E-05-4.99025E-05
 -1      3074 1.43026E+01 4.20901E+00-6.43326E-04-8.74131E+00-8.06437E-05-4.65597E-05
 -1      3075 1.43026E+01 4.20904E+00-7.31574E-04-8.74129E+00-2.18911E-05-1.26389E-05
 -1      3076 1.43026E+01 4.20904E+00-7.29930E-04-8.74129E+00-5.68679E-06-3.28331E-06
 -1      3077 1.43026E+01 4.20905E+00-7.25295E-04-8.74129E+00-8.48488E-07-4.89910E-07
 -1      3078 1.43026E+01 4.20905E+00-7.25295E-04-8.74129E+00 8.48515E-07 4.89863E-07
 -1      3079 1.43026E+01 4.20904E+00-7.29930E-04-8.74129E+00 5.68681E-06 3.28326E-06
 -1      3080 1.43026E+01 4.20904E+00-7.31574E-04-8.74129E+00 2.18911E-05 1.26388E-05
 -1      3081 1.43026E+01 4.20901E+00-6.43326E-04-8.74131E+00 8.06437E-05 4.65597E-05
 -1      3082 1.43024E+01 4.20872E+00-6.25680E-04-8.74141E+00 8.64336E-05 4.99025E-05
 -1      3083 1.51885E+01 3.32264E+00-6.25680E-04-8.16598E+00-8.89268E-05-4.53105E-05
 -1      3084 1.51887E+01 3.32294E+00-6.43326E-04-8.16589E+00-8.29699E-05-4.22753E-05
 -1      3085 1.51887E+01 3.32297E+00-7.31574E-04-8.16587E+00-2.25226E-05-1.14759E-05
 -1      3086 1.51887E+01 3.32298E+00-7.29930E-04-8.16587E+00-5.85084E-06-2.98118E-06
 -1      3087 1.51887E+01 3.32298E+00-7.25295E-04-8.16587E+00-8.72967E-07-4.44827E-07
 -1      3088 1.51887E+01 3.32298E+00-7.25295E-04-8.16587E+00 8.72992E-07 4.44787E-07
 -1      3089 1.51887E+01 3.32298E+00-7.29930E-04-8.16587E+00 5.85086E-06 2.98114E-06
 -1      3090 1.51887E+01 3.32297E+00-7.31574E-04-8.16587E+00 2.25226E-05 1.14758E-05
 -1      3091 1.51887E+01 3.32294E+00-6.43326E-04-8.16589E+00 8.29700E-05 4.22753E-05
 -1      3092 1.51885E+01 3.32264E+00-6.25680E-04-8.16598E+00 8.89269E-05 4.53105E-05
 -1      3093 1.60096E+01 2.50157E+00-6.25680E-04-7.50109E+00-9.11763E-05-4.05943E-05
 -1      3094 1.60097E+01 2.50188E+00-6.43327E-04-7.50100E+00-8.50688E-05-3.78751E-05
 -1      3095 1.60097E+01 2.50191E+00-7.31574E-04-7.50098E+00-2.30923E-05-1.02814E-05
 -1      3096 1.60097E+01 2.50191E+00-7.29930E-04-7.50098E+00-5.99884E-06-2.67087E-06
 -1      3097 1.60098E+01 2.50192E+00-7.25296E-04-7.50098E+00-8.95053E-07-3.98525E-07
 -1      3098 1.60098E+01 2.50192E+00-7.25296E-04-7.50098E+00 8.95074E-07 3.98487E-07
 -1      3099 1.60097E+01 2.50191E+00-7.29930E-04-7.50098E+00 5.99886E-06 2.67084E-06
 -1      3100 1.60097E+01 2.50191E+00-7.31574E-04-7.50098E+00 2.30923E-05 1.02813E-05
 -1      3101 1.60097E+01 2.50188E+00-6.43327E-04-7.50100E+00 8.50688E-05 3.78750E-05
 -1      3102 1.60096E+01 2.50157E+00-6.25680E-04-7.50109E+00 9.11763E-05 4.05943E-05
 -1      3103 1.67567E+01 1.75449E+00-6.25680E-04-6.75401E+00-9.31759E-05-3.57669E-05
 -1      3104 1.67568E+01 1.75481E+00-6.43327E-04-6.75393E+00-8.69344E-05-3.33710E-05
 -1      3105 1.67568E+01 1.75484E+00-7.31574E-04-6.75391E+00-2.35988E-05-9.05874E-06
 -1      3106 1.67568E+01 1.75485E+00-7.29930E-04-6.75392E+00-6.13040E-06-2.35326E-06
 -1      3107 1.67568E+01 1.75485E+00-7.25296E-04-6.75392E+00-9.14685E-07-3.51136E-07
 -1      3108 1.67568E+01 1.75485E+00-7.25296E-04-6.75392E+00 9.14696E-07 3.51099E-07
 -1      3109 1.67568E+01 1.75485E+00-7.29930E-04-6.75392E+00 6.13041E-06 2.35323E-06
 -1      3110 1.67568E+01 1.75484E+00-7.31574E-04-6.75391E+00 2.35988E-05 9.05870E-06
 -1      3111 1.67568E+01 1.75481E+00-6.43327E-04-6.75393E+00 8.69344E-05 3.33710E-05
 -1      3112 1.67567E+01 1.75449E+00-6.25680E-04-6.75401E+00 9.31759E-05 3.57669E-05
 -1      3113 1.74216E+01 1.08959E+00-6.25680E-04-5.93293E+00-9.49201E-05-3.08414E-05
 -1      3114 1.74217E+01 1.08992E+00-6.43326E-04-5.93286E+00-8.85618E-05-2.87755E-05
 -1      3115 1.74217E+01 1.08996E+00-7.31574E-04-5.93285E+00-2.40405E-05-7.81127E-06
 -1      3116 1.74217E+01 1.08996E+00-7.29930E-04-5.93285E+00-6.24516E-06-2.02921E-06
 -1      3117 1.74217E+01 1.08997E+00-7.25296E-04-5.93285E+00-9.31809E-07-3.02790E-07
 -1      3118 1.74217E+01 1.08997E+00-7.25296E-04-5.93285E+00 9.31821E-07 3.02744E-07
 -1      3119 1.74217E+01 1.08996E+00-7.29930E-04-5.93285E+00 6.24517E-06 2.02916E-06
 -1      3120 1.74217E+01 1.08996E+00-7.31574E-04-5.93285E+00 2.40405E-05 7.81123E-06
 -1      3121 1.74217E+01 1.08992E+00-6.43326E-04-5.93286E+00 8.85618E-05 2.87755E-05
 -1      3122 1.74216E+01 1.08959E+00-6.25680E-04-5.93293E+00 9.49201E-05 3.08414E-05
 -1      3123 1.79970E+01 5.14168E-01-6.25680E-04-5.04685E+00-9.64042E-05-2.58314E-05
 -1      3124 1.79971E+01 5.14500E-01-6.43326E-04-5.04680E+00-8.99464E-05-2.41011E-05
 -1      3125 1.79971E+01 5.14538E-01-7.31574E-04-5.04678E+00-2.44164E-05-6.54238E-06
 -1      3126 1.79971E+01 5.14542E-01-7.29930E-04-5.04678E+00-6.34280E-06-1.69958E-06
 -1      3127 1.79971E+01 5.14548E-01-7.25296E-04-5.04678E+00-9.46377E-07-2.53609E-07
 -1      3128 1.79971E+01 5.14548E-01-7.25296E-04-5.04678E+00 9.46391E-07 2.53556E-07
 -1      3129 1.79971E+01 5.14542E-01-7.29930E-04-5.04678E+00 6.34282E-06 1.69952E-06
 -1      3130 1.79971E+01 5.14538E-01-7.31574E-04-5.04678E+00 2.44164E-05 6.54233E-06
 -1      3131 1.79971E+01 5.14500E-01-6.43326E-04-5.04680E+00 8.99464E-05 2.41010E-05
 -1      3132 1.79970E+01 5.14168E-01-6.25680E-04-5.04685E+00 9.64042E-05 2.58314E-05
 -1      3133 1.84766E+01 3.45147E-02-6.25680E-04-4.10548E+00-9.76240E-05-2.07506E-05
 -1      3134 1.84768E+01 3.48517E-02-6.43327E-04-4.10543E+00-9.10845E-05-1.93606E-05
 -1      3135 1.84768E+01 3.48913E-02-7.31574E-04-4.10542E+00-2.47253E-05-5.25556E-06
 -1      3136 1.84768E+01 3.48951E-02-7.29930E-04-4.10542E+00-6.42306E-06-1.36529E-06
 -1      3137 1.84768E+01 3.49011E-02-7.25296E-04-4.10542E+00-9.58350E-07-2.03733E-07
 -1      3138 1.84768E+01 3.49011E-02-7.25296E-04-4.10542E+00 9.58367E-07 2.03678E-07
 -1      3139 1.84768E+01 3.48951E-02-7.29930E-04-4.10542E+00 6.42307E-06 1.36524E-06
 -1      3140 1.84768E+01 3.48913E-02-7.31574E-04-4.10542E+00 2.47253E-05 5.25551E-06
 -1      3141 1.84768E+01 3.48517E-02-6.43327E-04-4.10543E+00 9.10845E-05 1.93606E-05
 -1      3142 1.84766E+01 3.45147E-02-6.25680E-04-4.10548E+00 9.76240E-05 2.07506E-05
 -1      3143 1.88553E+01-3.44111E-01-6.25680E-04-3.11913E+00-9.85762E-05-1.56129E-05
 -1      3144 1.88554E+01-3.43770E-01-6.43327E-04-3.11909E+00-9.19729E-05-1.45671E-05
 -1      3145 1.88554E+01-3.43729E-01-7.31574E-04-3.11908E+00-2.49665E-05-3.95433E-06
 -1      3146 1.88554E+01-3.43725E-01-7.29930E-04-3.11908E+00-6.48570E-06-1.02726E-06
 -1      3147 1.88554E+01-3.43719E-01-7.25296E-04-3.11908E+00-9.67700E-07-1.53295E-07
 -1      3148 1.88554E+01-3.43719E-01-7.25296E-04-3.11908E+00 9.67707E-07 1.53247E-07
 -1      3149 1.88554E+01-3.43725E-01-7.29930E-04-3.11908E+00 6.48571E-06 1.02722E-06
 -1      3150 1.88554E+01-3.43729E-01-7.31574E-04-3.11908E+00 2.49665E-05 3.95429E-06
 -1      3151 1.88554E+01-3.43770E-01-6.43327E-04-3.11909E+00 9.19729E-05 1.45671E-05
 -1      3152 1.88553E+01-3.44111E-01-6.25680E-04-3.11913E+00 9.85762E-05 1.56129E-05
 -1      3153 1.91287E+01-6.17561E-01-6.25680E-04-2.09860E+00-9.92582E-05-1.04325E-05
 -1      3154 1.91288E+01-6.17216E-01-6.43326E-04-2.09858E+00-9.26092E-05-9.73364E-06
 -1      3155 1.91288E+01-6.17175E-01-7.31574E-04-2.09857E+00-2.51392E-05-2.64226E-06
 -1      3156 1.91288E+01-6.17171E-01-7.29930E-04-2.09857E+00-6.53058E-06-6.86411E-07
 -1      3157 1.91288E+01-6.17165E-01-7.25296E-04-2.09857E+00-9.74396E-07-1.02431E-07
 -1      3158 1.91288E+01-6.17165E-01-7.25296E-04-2.09857E+00 9.74407E-07 1.02398E-07
 -1      3159 1.91288E+01-6.17171E-01-7.29930E-04-2.09857E+00 6.53059E-06 6.86379E-07
 -1      3160 1.91288E+01-6.17175E-01-7.31574E-04-2.09857E+00 2.51392E-05 2.64223E-06
 -1      3161 1.91288E+01-6.17216E-01-6.43326E-04-2.09858E+00 9.26092E-05 9.73362E-06
 -1      3162 1.91287E+01-6.17561E-01-6.25680E-04-2.09860E+00 9.92582E-05 1.04325E-05
 -1      3163 1.92940E+01-7.82838E-01-6.25680E-04-1.05508E+00-9.96682E-05-5.22339E-06
 -1      3164 1.92941E+01-7.82491E-01-6.43326E-04-1.05507E+00-9.29917E-05-4.87349E-06
 -1      3165 1.92941E+01-7.82450E-01-7.31574E-04-1.05507E+00-2.52431E-05-1.32294E-06
 -1      3166 1.92941E+01-7.82446E-01-7.29930E-04-1.05507E+00-6.55756E-06-3.43673E-07
 -1      3167 1.92941E+01-7.82440E-01-7.25296E-04-1.05507E+00-9.78425E-07-5.12848E-08
 -1      3168 1.92941E+01-7.82440E-01-7.25296E-04-1.05507E+00 9.78429E-07 5.12687E-08
 -1      3169 1.92941E+01-7.82446E-01-7.29930E-04-1.05507E+00 6.55756E-06 3.43659E-07
 -1      3170 1.92941E+01-7.82450E-01-7.31574E-04-1.05507E+00 2.52431E-05 1.32292E-06
 -1      3171 1.92941E+01-7.82491E-01-6.43326E-04-1.05507E+00 9.29917E-05 4.87348E-06
 -1      3172 1.92940E+01-7.82838E-01-6.25680E-04-1.05508E+00 9.96682E-05 5.22338E-06
 -1      3173-7.30530E-01 1.92419E+01-4.38958E-04-1.04959E+00-8.07893E-07-1.54155E-05
 -1      3174-7.30328E-01 1.92419E+01-4.95820E-04-1.04958E+00-3.58857E-06-6.84740E-05
 -1      3175-7.30239E-01 1.92419E+01-6.04336E-04-1.04958E+00-1.39258E-06-2.65720E-05
 -1      3176-7.30230E-01 1.92419E+01-6.31863E-04-1.04958E+00-3.37358E-07-6.43721E-06
 -1      3177-7.30225E-01 1.92419E+01-6.32125E-04-1.04958E+00-6.93180E-08-1.32267E-06
 -1      3178-7.30225E-01 1.92419E+01-6.32125E-04-1.04958E+00 6.93170E-08 1.32267E-06
 -1      3179-7.30230E-01 1.92419E+01-6.31863E-04-1.04958E+00 3.37357E-07 6.43721E-06
 -1      3180-7.30239E-01 1.92419E+01-6.04336E-04-1.04958E+00 1.39258E-06 2.65720E-05
 -1      3181-7.30328E-01 1.92419E+01-4.95820E-04-1.04958E+00 3.58857E-06 6.84740E-05
 -1      3182-7.30530E-01 1.92419E+01-4.38958E-04-1.04959E+00 8.07892E-07 1.54155E-05
 -1      3183-5.66112E-01 1.90774E+01-4.38958E-04-2.08768E+00-1.61357E-06-1.53521E-05
 -1      3184-5.65912E-01 1.90775E+01-4.95820E-04-2.08767E+00-7.16730E-06-6.81923E-05
 -1      3185-5.65823E-01 1.90775E+01-6.04336E-04-2.08766E+00-2.78134E-06-2.64627E-05
 -1      3186-5.65814E-01 1.90775E+01-6.31863E-04-2.08766E+00-6.73792E-07-6.41074E-06
 -1      3187-5.65809E-01 1.90775E+01-6.32125E-04-2.08766E+00-1.38445E-07-1.31723E-06
 -1      3188-5.65809E-01 1.90775E+01-6.32125E-04-2.08766E+00 1.38447E-07 1.31723E-06
 -1      3189-5.65814E-01 1.90775E+01-6.31863E-04-2.08766E+00 6.73795E-07 6.41074E-06
 -1      3190-5.65823E-01 1.90775E+01-6.04336E-04-2.08766E+00 2.78134E-06 2.64627E-05
 -1      3191-5.65912E-01 1.90775E+01-4.95820E-04-2.08767E+00 7.16730E-06 6.81923E-05
 -1      3192-5.66112E-01 1.90774E+01-4.38958E-04-2.08768E+00 1.61357E-06 1.53521E-05
 -1      3193-2.94085E-01 1.88054E+01-4.38958E-04-3.10290E+00-2.41483E-06-1.52466E-05
 -1      3194-2.93887E-01 1.88055E+01-4.95820E-04-3.10288E+00-1.07264E-05-6.77238E-05
 -1      3195-2.93799E-01 1.88055E+01-6.04336E-04-3.10287E+00-4.16248E-06-2.62809E-05
 -1      3196-2.93790E-01 1.88055E+01-6.31863E-04-3.10286E+00-1.00838E-06-6.36669E-06
 -1      3197-2.93785E-01 1.88055E+01-6.32125E-04-3.10286E+00-2.07193E-07-1.30818E-06
 -1      3198-2.93785E-01 1.88055E+01-6.32125E-04-3.10286E+00 2.07199E-07 1.30818E-06
 -1      3199-2.93790E-01 1.88055E+01-6.31863E-04-3.10286E+00 1.00839E-06 6.36669E-06
 -1      3200-2.93799E-01 1.88055E+01-6.04336E-04-3.10287E+00 4.16249E-06 2.62809E-05
 -1      3201-2.93887E-01 1.88055E+01-4.95820E-04-3.10288E+00 1.07264E-05 6.77238E-05
 -1      3202-2.94085E-01 1.88054E+01-4.38958E-04-3.10290E+00 2.41483E-06 1.52466E-05
 -1      3203 8.25711E-02 1.84288E+01-4.38958E-04-4.08412E+00-3.20946E-06-1.50993E-05
 -1      3204 8.27664E-02 1.84288E+01-4.95820E-04-4.08410E+00-1.42561E-05-6.70696E-05
 -1      3205 8.28523E-02 1.84288E+01-6.04336E-04-4.08408E+00-5.53222E-06-2.60270E-05
 -1      3206 8.28613E-02 1.84288E+01-6.31863E-04-4.08408E+00-1.34021E-06-6.30518E-06
 -1      3207 8.28661E-02 1.84288E+01-6.32125E-04-4.08408E+00-2.75374E-07-1.29554E-06
 -1      3208 8.28661E-02 1.84288E+01-6.32125E-04-4.08408E+00 2.75382E-07 1.29554E-06
 -1      3209 8.28613E-02 1.84288E+01-6.31863E-04-4.08408E+00 1.34022E-06 6.30518E-06
 -1      3210 8.28523E-02 1.84288E+01-6.04336E-04-4.08408E+00 5.53222E-06 2.60270E-05
 -1      3211 8.27664E-02 1.84288E+01-4.95820E-04-4.08410E+00 1.42561E-05 6.70696E-05
 -1      3212 8.25711E-02 1.84288E+01-4.38958E-04-4.08412E+00 3.20947E-06 1.50993E-05
 -1      3213 5.59730E-01 1.79516E+01-4.38958E-04-5.02060E+00-3.99530E-06-1.49107E-05
 -1      3214 5.59921E-01 1.79517E+01-4.95820E-04-5.02056E+00-1.77467E-05-6.62316E-05
 -1      3215 5.60005E-01 1.79517E+01-6.04336E-04-5.02054E+00-6.88678E-06-2.57018E-05
 -1      3216 5.60014E-01 1.79517E+01-6.31863E-04-5.02054E+00-1.66836E-06-6.22641E-06
 -1      3217 5.60019E-01 1.79517E+01-6.32125E-04-5.02054E+00-3.42799E-07-1.27936E-06
 -1      3218 5.60019E-01 1.79517E+01-6.32125E-04-5.02054E+00 3.42808E-07 1.27936E-06
 -1      3219 5.60014E-01 1.79517E+01-6.31863E-04-5.02054E+00 1.66837E-06 6.22640E-06
 -1      3220 5.60005E-01 1.79517E+01-6.04336E-04-5.02054E+00 6.88679E-06 2.57018E-05
 -1      3221 5.59921E-01 1.79517E+01-4.95820E-04-5.02056E+00 1.77467E-05 6.62316E-05
 -1      3222 5.59730E-01 1.79516E+01-4.38958E-04-5.02060E+00 3.99531E-06 1.49107E-05
 -1      3223 1.13216E+00 1.73792E+01-4.38958E-04-5.90207E+00-4.77019E-06-1.46811E-05
 -1      3224 1.13235E+00 1.73792E+01-4.95820E-04-5.90203E+00-2.11887E-05-6.52120E-05
 -1      3225 1.13243E+00 1.73792E+01-6.04336E-04-5.90200E+00-8.22246E-06-2.53062E-05
 -1      3226 1.13244E+00 1.73792E+01-6.31863E-04-5.90200E+00-1.99193E-06-6.13056E-06
 -1      3227 1.13244E+00 1.73793E+01-6.32125E-04-5.90200E+00-4.09278E-07-1.25967E-06
 -1      3228 1.13244E+00 1.73793E+01-6.32125E-04-5.90200E+00 4.09296E-07 1.25966E-06
 -1      3229 1.13244E+00 1.73792E+01-6.31863E-04-5.90200E+00 1.99194E-06 6.13055E-06
 -1      3230 1.13243E+00 1.73792E+01-6.04336E-04-5.90200E+00 8.22248E-06 2.53062E-05
 -1      3231 1.13235E+00 1.73792E+01-4.95820E-04-5.90203E+00 2.11887E-05 6.52120E-05
 -1      3232 1.13216E+00 1.73792E+01-4.38958E-04-5.90207E+00 4.77020E-06 1.46811E-05
 -1      3233 1.79360E+00 1.67177E+01-4.38958E-04-6.71888E+00-5.53200E-06-1.44114E-05
 -1      3234 1.79378E+00 1.67178E+01-4.95820E-04-6.71883E+00-2.45726E-05-6.40137E-05
 -1      3235 1.79386E+00 1.67178E+01-6.04336E-04-6.71880E+00-9.53561E-06-2.48412E-05
 -1      3236 1.79387E+00 1.67178E+01-6.31863E-04-6.71879E+00-2.31004E-06-6.01791E-06
 -1      3237 1.79387E+00 1.67178E+01-6.32125E-04-6.71879E+00-4.74641E-07-1.23652E-06
 -1      3238 1.79387E+00 1.67178E+01-6.32125E-04-6.71879E+00 4.74666E-07 1.23651E-06
 -1      3239 1.79387E+00 1.67178E+01-6.31863E-04-6.71879E+00 2.31007E-06 6.01790E-06
 -1      3240 1.79386E+00 1.67178E+01-6.04336E-04-6.71880E+00 9.53563E-06 2.48412E-05
 -1      3241 1.79378E+00 1.67178E+01-4.95820E-04-6.71883E+00 2.45726E-05 6.40137E-05
 -1      3242 1.79360E+00 1.67177E+01-4.38958E-04-6.71888E+00 5.53202E-06 1.44114E-05
 -1      3243 2.53679E+00 1.59745E+01-4.38958E-04-7.46207E+00-6.27865E-06-1.41021E-05
 -1      3244 2.53697E+00 1.59746E+01-4.95820E-04-7.46201E+00-2.78891E-05-6.26400E-05
 -1      3245 2.53704E+00 1.59746E+01-6.04336E-04-7.46198E+00-1.08226E-05-2.43081E-05
 -1      3246 2.53705E+00 1.59746E+01-6.31863E-04-7.46198E+00-2.62184E-06-5.88876E-06
 -1      3247 2.53706E+00 1.59746E+01-6.32125E-04-7.46198E+00-5.38705E-07-1.20999E-06
 -1      3248 2.53706E+00 1.59746E+01-6.32125E-04-7.46198E+00 5.38734E-07 1.20997E-06
 -1      3249 2.53705E+00 1.59746E+01-6.31863E-04-7.46198E+00 2.62186E-06 5.88875E-06
 -1      3250 2.53704E+00 1.59746E+01-6.04336E-04-7.46198E+00 1.08227E-05 2.43080E-05
 -1      3251 2.53697E+00 1.59746E+01-4.95820E-04-7.46201E+00 2.78891E-05 6.26399E-05
 -1      3252 2.53679E+00 1.59745E+01-4.38958E-04-7.46207E+00 6.27866E-06 1.41021E-05
 -1      3253 3.35360E+00 1.51577E+01-4.38958E-04-8.12350E+00-7.00809E-06-1.37542E-05
 -1      3254 3.35377E+00 1.51578E+01-4.95820E-04-8.12344E+00-3.11292E-05-6.10945E-05
 -1      3255 3.35384E+00 1.51578E+01-6.04336E-04-8.12341E+00-1.20800E-05-2.37083E-05
 -1      3256 3.35385E+00 1.51578E+01-6.31863E-04-8.12340E+00-2.92643E-06-5.74348E-06
 -1      3257 3.35385E+00 1.51578E+01-6.32125E-04-8.12340E+00-6.01287E-07-1.18014E-06
 -1      3258 3.35385E+00 1.51578E+01-6.32125E-04-8.12340E+00 6.01322E-07 1.18012E-06
 -1      3259 3.35385E+00 1.51578E+01-6.31863E-04-8.12340E+00 2.92646E-06 5.74346E-06
 -1      3260 3.35384E+00 1.51578E+01-6.04336E-04-8.12341E+00 1.20800E-05 2.37083E-05
 -1      3261 3.35377E+00 1.51578E+01-4.95820E-04-8.12344E+00 3.11292E-05 6.10945E-05
 -1      3262 3.35360E+00 1.51577E+01-4.38958E-04-8.12350E+00 7.00811E-06 1.37542E-05
 -1      3263 4.23506E+00 1.42763E+01-4.38958E-04-8.69594E+00-7.71833E-06-1.33686E-05
 -1      3264 4.23523E+00 1.42764E+01-4.95820E-04-8.69587E+00-3.42840E-05-5.93816E-05
 -1      3265 4.23530E+00 1.42764E+01-6.04336E-04-8.69584E+00-1.33042E-05-2.30436E-05
 -1      3266 4.23530E+00 1.42764E+01-6.31863E-04-8.69583E+00-3.22300E-06-5.58245E-06
 -1      3267 4.23531E+00 1.42764E+01-6.32125E-04-8.69583E+00-6.62223E-07-1.14705E-06
 -1      3268 4.23531E+00 1.42764E+01-6.32125E-04-8.69583E+00 6.62262E-07 1.14703E-06
 -1      3269 4.23530E+00 1.42764E+01-6.31863E-04-8.69583E+00 3.22304E-06 5.58243E-06
 -1      3270 4.23530E+00 1.42764E+01-6.04336E-04-8.69584E+00 1.33043E-05 2.30436E-05
 -1      3271 4.23523E+00 1.42764E+01-4.95820E-04-8.69587E+00 3.42840E-05 5.93816E-05
 -1      3272 4.23506E+00 1.42763E+01-4.38958E-04-8.69594E+00 7.71834E-06 1.33685E-05
 -1      3273 5.17154E+00 1.33398E+01-4.38958E-04-9.17309E+00-8.40740E-06-1.29463E-05
 -1      3274 5.17170E+00 1.33399E+01-4.95820E-04-9.17303E+00-3.73448E-05-5.75059E-05
 -1      3275 5.17176E+00 1.33399E+01-6.04336E-04-9.17299E+00-1.44920E-05-2.23158E-05
 -1      3276 5.17177E+00 1.33399E+01-6.31863E-04-9.17298E+00-3.51075E-06-5.40612E-06
 -1      3277 5.17177E+00 1.33399E+01-6.32125E-04-9.17298E+00-7.21347E-07-1.11082E-06
 -1      3278 5.17177E+00 1.33399E+01-6.32125E-04-9.17298E+00 7.21385E-07 1.11080E-06
 -1      3279 5.17177E+00 1.33399E+01-6.31863E-04-9.17298E+00 3.51078E-06 5.40610E-06
 -1      3280 5.17176E+00 1.33399E+01-6.04336E-04-9.17299E+00 1.44920E-05 2.23157E-05
 -1      3281 5.17170E+00 1.33399E+01-4.95820E-04-9.17303E+00 3.73448E-05 5.75059E-05
 -1      3282 5.17154E+00 1.33398E+01-4.38958E-04-9.17309E+00 8.40741E-06 1.29463E-05
 -1      3283 6.15276E+00 1.23586E+01-4.38958E-04-9.54975E+00-9.07344E-06-1.24885E-05
 -1      3284 6.15291E+00 1.23587E+01-4.95820E-04-9.54968E+00-4.03032E-05-5.54727E-05
 -1      3285 6.15297E+00 1.23587E+01-6.04336E-04-9.54964E+00-1.56400E-05-2.15267E-05
 -1      3286 6.15298E+00 1.23587E+01-6.31863E-04-9.54963E+00-3.78887E-06-5.21499E-06
 -1      3287 6.15299E+00 1.23587E+01-6.32125E-04-9.54963E+00-7.78490E-07-1.07155E-06
 -1      3288 6.15299E+00 1.23587E+01-6.32125E-04-9.54963E+00 7.78528E-07 1.07152E-06
 -1      3289 6.15298E+00 1.23587E+01-6.31863E-04-9.54963E+00 3.78890E-06 5.21496E-06
 -1      3290 6.15297E+00 1.23587E+01-6.04336E-04-9.54964E+00 1.56401E-05 2.15267E-05
 -1      3291 6.15291E+00 1.23587E+01-4.95820E-04-9.54968E+00 4.03032E-05 5.54727E-05
 -1      3292 6.15276E+00 1.23586E+01-4.38958E-04-9.54975E+00 9.07345E-06 1.24885E-05
 -1      3293 7.16798E+00 1.13433E+01-4.38957E-04-9.82178E+00-9.71461E-06-1.19966E-05
 -1      3294 7.16813E+00 1.13435E+01-4.95820E-04-9.82171E+00-4.31512E-05-5.32873E-05
 -1      3295 7.16818E+00 1.13435E+01-6.04336E-04-9.82166E+00-1.67452E-05-2.06787E-05
 -1      3296 7.16819E+00 1.13435E+01-6.31862E-04-9.82166E+00-4.05660E-06-5.00954E-06
 -1      3297 7.16819E+00 1.13435E+01-6.32125E-04-9.82166E+00-8.33505E-07-1.02934E-06
 -1      3298 7.16819E+00 1.13435E+01-6.32125E-04-9.82166E+00 8.33543E-07 1.02931E-06
 -1      3299 7.16819E+00 1.13435E+01-6.31862E-04-9.82166E+00 4.05664E-06 5.00951E-06
 -1      3300 7.16818E+00 1.13435E+01-6.04336E-04-9.82166E+00 1.67453E-05 2.06787E-05
 -1      3301 7.16813E+00 1.13435E+01-4.95820E-04-9.82171E+00 4.31512E-05 5.32873E-05
 -1      3302 7.16798E+00 1.13433E+01-4.38957E-04-9.82178E+00 9.71463E-06 1.19965E-05
 -1      3303 8.20607E+00 1.03053E+01-4.38958E-04-9.98619E+00-1.03291E-05-1.14717E-05
 -1      3304 8.20621E+00 1.03054E+01-4.95820E-04-9.98612E+00-4.58809E-05-5.09559E-05
 -1      3305 8.20626E+00 1.03054E+01-6.04336E-04-9.98608E+00-1.78045E-05-1.97740E-05
 -1      3306 8.20627E+00 1.03054E+01-6.31863E-04-9.98607E+00-4.31323E-06-4.79036E-06
 -1      3307 8.20627E+00 1.03054E+01-6.32125E-04-9.98607E+00-8.86237E-07-9.84302E-07
 -1      3308 8.20627E+00 1.03054E+01-6.32125E-04-9.98607E+00 8.86275E-07 9.84266E-07
 -1      3309 8.20627E+00 1.03054E+01-6.31863E-04-9.98607E+00 4.31327E-06 4.79033E-06
 -1      3310 8.20626E+00 1.03054E+01-6.04336E-04-9.98608E+00 1.78046E-05 1.97739E-05
 -1      3311 8.20621E+00 1.03054E+01-4.95820E-04-9.98612E+00 4.58809E-05 5.09559E-05
 -1      3312 8.20607E+00 1.03053E+01-4.38958E-04-9.98619E+00 1.03292E-05 1.14717E-05
 -1      3313 9.25566E+00 9.25566E+00-4.38958E-04-1.00412E+01-1.09154E-05-1.09154E-05
 -1      3314 9.25579E+00 9.25579E+00-4.95821E-04-1.00411E+01-4.84849E-05-4.84849E-05
 -1      3315 9.25584E+00 9.25584E+00-6.04337E-04-1.00411E+01-1.88150E-05-1.88150E-05
 -1      3316 9.25585E+00 9.25585E+00-6.31864E-04-1.00411E+01-4.55804E-06-4.55806E-06
 -1      3317 9.25585E+00 9.25585E+00-6.32126E-04-1.00411E+01-9.36537E-07-9.36576E-07
 -1      3318 9.25585E+00 9.25585E+00-6.32126E-04-1.00411E+01 9.36578E-07 9.36529E-07
 -1      3319 9.25585E+00 9.25585E+00-6.31864E-04-1.00411E+01 4.55807E-06 4.55802E-06
 -1      3320 9.25584E+00 9.25584E+00-6.04337E-04-1.00411E+01 1.88151E-05 1.88150E-05
 -1      3321 9.25579E+00 9.25579E+00-4.95821E-04-1.00411E+01 4.84849E-05 4.84849E-05
 -1      3322 9.25566E+00 9.25566E+00-4.38958E-04-1.00412E+01 1.09154E-05 1.09154E-05
 -1      3323 1.03053E+01 8.20607E+00-4.38959E-04-9.98619E+00-1.14717E-05-1.03292E-05
 -1      3324 1.03054E+01 8.20621E+00-4.95822E-04-9.98612E+00-5.09559E-05-4.58809E-05
 -1      3325 1.03054E+01 8.20626E+00-6.04338E-04-9.98608E+00-1.97739E-05-1.78046E-05
 -1      3326 1.03054E+01 8.20627E+00-6.31864E-04-9.98607E+00-4.79033E-06-4.31326E-06
 -1      3327 1.03054E+01 8.20627E+00-6.32126E-04-9.98607E+00-9.84267E-07-8.86272E-07
 -1      3328 1.03054E+01 8.20627E+00-6.32126E-04-9.98607E+00 9.84304E-07 8.86233E-07
 -1      3329 1.03054E+01 8.20627E+00-6.31864E-04-9.98607E+00 4.79036E-06 4.31323E-06
 -1      3330 1.03054E+01 8.20626E+00-6.04338E-04-9.98608E+00 1.97740E-05 1.78045E-05
 -1      3331 1.03054E+01 8.20621E+00-4.95822E-04-9.98612E+00 5.09559E-05 4.58809E-05
 -1      3332 1.03053E+01 8.20607E+00-4.38959E-04-9.98619E+00 1.14717E-05 1.03291E-05
 -1      3333 1.13433E+01 7.16798E+00-4.38959E-04-9.82178E+00-1.19965E-05-9.71462E-06
 -1      3334 1.13435E+01 7.16813E+00-4.95822E-04-9.82171E+00-5.32873E-05-4.31512E-05
 -1      3335 1.13435E+01 7.16818E+00-6.04338E-04-9.82166E+00-2.06787E-05-1.67453E-05
 -1      3336 1.13435E+01 7.16819E+00-6.31864E-04-9.82166E+00-5.00950E-06-4.05666E-06
 -1      3337 1.13435E+01 7.16819E+00-6.32126E-04-9.82166E+00-1.02930E-06-8.33550E-07
 -1      3338 1.13435E+01 7.16819E+00-6.32126E-04-9.82166E+00 1.02933E-06 8.33509E-07
 -1      3339 1.13435E+01 7.16819E+00-6.31864E-04-9.82166E+00 5.00953E-06 4.05661E-06
 -1      3340 1.13435E+01 7.16818E+00-6.04338E-04-9.82166E+00 2.06787E-05 1.67452E-05
 -1      3341 1.13435E+01 7.16813E+00-4.95822E-04-9.82171E+00 5.32873E-05 4.31512E-05
 -1      3342 1.13433E+01 7.16798E+00-4.38959E-04-9.82178E+00 1.19966E-05 9.71460E-06
 -1      3343 1.23586E+01 6.15276E+00-4.38959E-04-9.54975E+00-1.24885E-05-9.07345E-06
 -1      3344 1.23587E+01 6.15291E+00-4.95822E-04-9.54968E+00-5.54726E-05-4.03033E-05
 -1      3345 1.23587E+01 6.15297E+00-6.04338E-04-9.54964E+00-2.15267E-05-1.56401E-05
 -1      3346 1.23587E+01 6.15298E+00-6.31864E-04-9.54963E+00-5.21495E-06-3.78891E-06
 -1      3347 1.23587E+01 6.15299E+00-6.32126E-04-9.54963E+00-1.07152E-06-7.78538E-07
 -1      3348 1.23587E+01 6.15299E+00-6.32126E-04-9.54963E+00 1.07155E-06 7.78491E-07
 -1      3349 1.23587E+01 6.15298E+00-6.31864E-04-9.54963E+00 5.21498E-06 3.78887E-06
 -1      3350 1.23587E+01 6.15297E+00-6.04338E-04-9.54964E+00 2.15267E-05 1.56401E-05
 -1      3351 1.23587E+01 6.15291E+00-4.95822E-04-9.54968E+00 5.54727E-05 4.03032E-05
 -1      3352 1.23586E+01 6.15276E+00-4.38959E-04-9.54975E+00 1.24885E-05 9.07344E-06
 -1      3353 1.33398E+01 5.17154E+00-4.38959E-04-9.17309E+00-1.29463E-05-8.40742E-06
 -1      3354 1.33399E+01 5.17170E+00-4.95821E-04-9.17303E+00-5.75059E-05-3.73448E-05
 -1      3355 1.33399E+01 5.17176E+00-6.04338E-04-9.17299E+00-2.23157E-05-1.44920E-05
 -1      3356 1.33399E+01 5.17177E+00-6.31864E-04-9.17298E+00-5.40609E-06-3.51079E-06
 -1      3357 1.33399E+01 5.17177E+00-6.32126E-04-9.17298E+00-1.11079E-06-7.21387E-07
 -1      3358 1.33399E+01 5.17177E+00-6.32126E-04-9.17298E+00 1.11082E-06 7.21347E-07
 -1      3359 1.33399E+01 5.17177E+00-6.31864E-04-9.17298E+00 5.40612E-06 3.51075E-06
 -1      3360 1.33399E+01 5.17176E+00-6.04338E-04-9.17299E+00 2.23158E-05 1.44920E-05
 -1      3361 1.33399E+01 5.17170E+00-4.95821E-04-9.17303E+00 5.75059E-05 3.73448E-05
 -1      3362 1.33398E+01 5.17154E+00-4.38959E-04-9.17309E+00 1.29463E-05 8.40740E-06
 -1      3363 1.42763E+01 4.23506E+00-4.38959E-04-8.69594E+00-1.33685E-05-7.71834E-06
 -1      3364 1.42764E+01 4.23523E+00-4.95822E-04-8.69587E+00-5.93816E-05-3.42840E-05
 -1      3365 1.42764E+01 4.23530E+00-6.04338E-04-8.69584E+00-2.30436E-05-1.33043E-05
 -1      3366 1.42764E+01 4.23530E+00-6.31864E-04-8.69583E+00-5.58242E-06-3.22305E-06
 -1      3367 1.42764E+01 4.23531E+00-6.32126E-04-8.69583E+00-1.14703E-06-6.62265E-07
 -1      3368 1.42764E+01 4.23531E+00-6.32126E-04-8.69583E+00 1.14705E-06 6.62226E-07
 -1      3369 1.42764E+01 4.23530E+00-6.31864E-04-8.69583E+00 5.58245E-06 3.22301E-06
 -1      3370 1.42764E+01 4.23530E+00-6.04338E-04-8.69584E+00 2.30436E-05 1.33042E-05
 -1      3371 1.42764E+01 4.23523E+00-4.95821E-04-8.69587E+00 5.93816E-05 3.42840E-05
 -1      3372 1.42763E+01 4.23506E+00-4.38959E-04-8.69594E+00 1.33685E-05 7.71833E-06
 -1      3373 1.51577E+01 3.35360E+00-4.38959E-04-8.12350E+00-1.37542E-05-7.00812E-06
 -1      3374 1.51578E+01 3.35377E+00-4.95822E-04-8.12344E+00-6.10945E-05-3.11292E-05
 -1      3375 1.51578E+01 3.35384E+00-6.04338E-04-8.12341E+00-2.37083E-05-1.20800E-05
 -1      3376 1.51578E+01 3.35385E+00-6.31864E-04-8.12340E+00-5.74346E-06-2.92646E-06
 -1      3377 1.51578E+01 3.35385E+00-6.32126E-04-8.12340E+00-1.18012E-06-6.01323E-07
 -1      3378 1.51578E+01 3.35385E+00-6.32126E-04-8.12340E+00 1.18014E-06 6.01289E-07
 -1      3379 1.51578E+01 3.35385E+00-6.31864E-04-8.12340E+00 5.74348E-06 2.92643E-06
 -1      3380 1.51578E+01 3.35384E+00-6.04338E-04-8.12341E+00 2.37083E-05 1.20800E-05
 -1      3381 1.51578E+01 3.35377E+00-4.95822E-04-8.12344E+00 6.10945E-05 3.11292E-05
 -1      3382 1.51577E+01 3.35360E+00-4.38959E-04-8.12350E+00 1.37542E-05 7.00810E-06
 -1      3383 1.59745E+01 2.53679E+00-4.38960E-04-7.46207E+00-1.41021E-05-6.27867E-06
 -1      3384 1.59746E+01 2.53697E+00-4.95822E-04-7.46201E+00-6.26400E-05-2.78891E-05
 -1      3385 1.59746E+01 2.53704E+00-6.04338E-04-7.46198E+00-2.43081E-05-1.08227E-05
 -1      3386 1.59746E+01 2.53705E+00-6.31865E-04-7.46198E+00-5.88875E-06-2.62185E-06
 -1      3387 1.59746E+01 2.53706E+00-6.32127E-04-7.46198E+00-1.20997E-06-5.38732E-07
 -1      3388 1.59746E+01 2.53706E+00-6.32127E-04-7.46198E+00 1.20999E-06 5.38699E-07
 -1      3389 1.59746E+01 2.53705E+00-6.31865E-04-7.46198E+00 5.88877E-06 2.62182E-06
 -1      3390 1.59746E+01 2.53704E+00-6.04338E-04-7.46198E+00 2.43081E-05 1.08226E-05
 -1      3391 1.59746E+01 2.53697E+00-4.95822E-04-7.46201E+00 6.26400E-05 2.78891E-05
 -1      3392 1.59745E+01 2.53679E+00-4.38960E-04-7.46207E+00 1.41021E-05 6.27866E-06
 -1      3393 1.67177E+01 1.79360E+00-4.38960E-04-6.71888E+00-1.44114E-05-5.53201E-06
 -1      3394 1.67178E+01 1.79378E+00-4.95822E-04-6.71883E+00-6.40137E-05-2.45726E-05
 -1      3395 1.67178E+01 1.79386E+00-6.04338E-04-6.71880E+00-2.48411E-05-9.53564E-06
 -1      3396 1.67178E+01 1.79387E+00-6.31865E-04-6.71879E+00-6.01790E-06-2.31007E-06
 -1      3397 1.67178E+01 1.79387E+00-6.32127E-04-6.71879E+00-1.23651E-06-4.74670E-07
 -1      3398 1.67178E+01 1.79387E+00-6.32127E-04-6.71879E+00 1.23652E-06 4.74638E-07
 -1      3399 1.67178E+01 1.79387E+00-6.31865E-04-6.71879E+00 6.01791E-06 2.31004E-06
 -1      3400 1.67178E+01 1.79386E+00-6.04338E-04-6.71880E+00 2.48412E-05 9.53561E-06
 -1      3401 1.67178E+01 1.79378E+00-4.95822E-04-6.71883E+00 6.40137E-05 2.45726E-05
 -1      3402 1.67177E+01 1.79360E+00-4.38960E-04-6.71888E+00 1.44114E-05 5.53199E-06
 -1      3403 1.73792E+01 1.13216E+00-4.38959E-04-5.90207E+00-1.46811E-05-4.77020E-06
 -1      3404 1.73792E+01 1.13235E+00-4.95822E-04-5.90203E+00-6.52120E-05-2.11887E-05
 -1      3405 1.73792E+01 1.13243E+00-6.04338E-04-5.90200E+00-2.53062E-05-8.22250E-06
 -1      3406 1.73792E+01 1.13244E+00-6.31864E-04-5.90200E+00-6.13055E-06-1.99196E-06
 -1      3407 1.73793E+01 1.13244E+00-6.32126E-04-5.90200E+00-1.25966E-06-4.09311E-07
 -1      3408 1.73793E+01 1.13244E+00-6.32126E-04-5.90200E+00 1.25967E-06 4.09271E-07
 -1      3409 1.73792E+01 1.13244E+00-6.31864E-04-5.90200E+00 6.13056E-06 1.99192E-06
 -1      3410 1.73792E+01 1.13243E+00-6.04338E-04-5.90200E+00 2.53062E-05 8.22246E-06
 -1      3411 1.73792E+01 1.13235E+00-4.95822E-04-5.90203E+00 6.52120E-05 2.11887E-05
 -1      3412 1.73792E+01 1.13216E+00-4.38959E-04-5.90207E+00 1.46811E-05 4.77018E-06
 -1      3413 1.79516E+01 5.59730E-01-4.38959E-04-5.02060E+00-1.49107E-05-3.99532E-06
 -1      3414 1.79517E+01 5.59921E-01-4.95822E-04-5.02056E+00-6.62316E-05-1.77467E-05
 -1      3415 1.79517E+01 5.60005E-01-6.04338E-04-5.02054E+00-2.57018E-05-6.88680E-06
 -1      3416 1.79517E+01 5.60014E-01-6.31864E-04-5.02054E+00-6.22640E-06-1.66838E-06
 -1      3417 1.79517E+01 5.60019E-01-6.32127E-04-5.02054E+00-1.27935E-06-3.42825E-07
 -1      3418 1.79517E+01 5.60019E-01-6.32127E-04-5.02054E+00 1.27936E-06 3.42780E-07
 -1      3419 1.79517E+01 5.60014E-01-6.31864E-04-5.02054E+00 6.22641E-06 1.66834E-06
 -1      3420 1.79517E+01 5.60005E-01-6.04338E-04-5.02054E+00 2.57018E-05 6.88676E-06
 -1      3421 1.79517E+01 5.59921E-01-4.95822E-04-5.02056E+00 6.62316E-05 1.77467E-05
 -1      3422 1.79516E+01 5.59730E-01-4.38959E-04-5.02060E+00 1.49107E-05 3.99530E-06
 -1      3423 1.84288E+01 8.25711E-02-4.38960E-04-4.08412E+00-1.50993E-05-3.20948E-06
 -1      3424 1.84288E+01 8.27664E-02-4.95822E-04-4.08410E+00-6.70696E-05-1.42561E-05
 -1      3425 1.84288E+01 8.28523E-02-6.04338E-04-4.08408E+00-2.60270E-05-5.53224E-06
 -1      3426 1.84288E+01 8.28613E-02-6.31865E-04-4.08408E+00-6.30518E-06-1.34023E-06
 -1      3427 1.84288E+01 8.28661E-02-6.32127E-04-4.08408E+00-1.29554E-06-2.75400E-07
 -1      3428 1.84288E+01 8.28661E-02-6.32127E-04-4.08408E+00 1.29555E-06 2.75353E-07
 -1      3429 1.84288E+01 8.28613E-02-6.31865E-04-4.08408E+00 6.30519E-06 1.34019E-06
 -1      3430 1.84288E+01 8.28523E-02-6.04338E-04-4.08408E+00 2.60270E-05 5.53219E-06
 -1      3431 1.84288E+01 8.27664E-02-4.95822E-04-4.08410E+00 6.70696E-05 1.42561E-05
 -1      3432 1.84288E+01 8.25711E-02-4.38960E-04-4.08412E+00 1.50993E-05 3.20946E-06
 -1      3433 1.88054E+01-2.94085E-01-4.38960E-04-3.10290E+00-1.52466E-05-2.41484E-06
 -1      3434 1.88055E+01-2.93887E-01-4.95822E-04-3.10288E+00-6.77238E-05-1.07264E-05
 -1      3435 1.88055E+01-2.93799E-01-6.04338E-04-3.10287E+00-2.62809E-05-4.16251E-06
 -1      3436 1.88055E+01-2.93790E-01-6.31865E-04-3.10286E+00-6.36668E-06-1.00841E-06
 -1      3437 1.88055E+01-2.93785E-01-6.32127E-04-3.10286E+00-1.30817E-06-2.07217E-07
 -1      3438 1.88055E+01-2.93785E-01-6.32127E-04-3.10286E+00 1.30818E-06 2.07176E-07
 -1      3439 1.88055E+01-2.93790E-01-6.31865E-04-3.10286E+00 6.36669E-06 1.00837E-06
 -1      3440 1.88055E+01-2.93799E-01-6.04338E-04-3.10287E+00 2.62809E-05 4.16247E-06
 -1      3441 1.88055E+01-2.93887E-01-4.95822E-04-3.10288E+00 6.77238E-05 1.07264E-05
 -1      3442 1.88054E+01-2.94085E-01-4.38960E-04-3.10290E+00 1.52466E-05 2.41482E-06
 -1      3443 1.90774E+01-5.66112E-01-4.38959E-04-2.08768E+00-1.53521E-05-1.61358E-06
 -1      3444 1.90775E+01-5.65912E-01-4.95822E-04-2.08767E+00-6.81923E-05-7.16732E-06
 -1      3445 1.90775E+01-5.65823E-01-6.04338E-04-2.08766E+00-2.64627E-05-2.78136E-06
 -1      3446 1.90775E+01-5.65814E-01-6.31864E-04-2.08766E+00-6.41073E-06-6.73813E-07
 -1      3447 1.90775E+01-5.65809E-01-6.32126E-04-2.08766E+00-1.31723E-06-1.38462E-07
 -1      3448 1.90775E+01-5.65809E-01-6.32126E-04-2.08766E+00 1.31724E-06 1.38433E-07
 -1      3449 1.90775E+01-5.65814E-01-6.31864E-04-2.08766E+00 6.41074E-06 6.73784E-07
 -1      3450 1.90775E+01-5.65823E-01-6.04338E-04-2.08766E+00 2.64627E-05 2.78133E-06
 -1      3451 1.90775E+01-5.65912E-01-4.95822E-04-2.08767E+00 6.81923E-05 7.16730E-06
 -1      3452 1.90774E+01-5.66112E-01-4.38959E-04-2.08768E+00 1.53521E-05 1.61357E-06
 -1      3453 1.92419E+01-7.30530E-01-4.38959E-04-1.04959E+00-1.54155E-05-8.07896E-07
 -1      3454 1.92419E+01-7.30328E-01-4.95822E-04-1.04958E+00-6.84740E-05-3.58857E-06
 -1      3455 1.92419E+01-7.30239E-01-6.04338E-04-1.04958E+00-2.65720E-05-1.39258E-06
 -1      3456 1.92419E+01-7.30230E-01-6.31864E-04-1.04958E+00-6.43721E-06-3.37365E-07
 -1      3457 1.92419E+01-7.30225E-01-6.32126E-04-1.04958E+00-1.32267E-06-6.93248E-08
 -1      3458 1.92419E+01-7.30225E-01-6.32126E-04-1.04958E+00 1.32267E-06 6.93110E-08
 -1      3459 1.92419E+01-7.30230E-01-6.31864E-04-1.04958E+00 6.43722E-06 3.37353E-07
 -1      3460 1.92419E+01-7.30239E-01-6.04338E-04-1.04958E+00 2.65720E-05 1.39257E-06
 -1      3461 1.92419E+01-7.30328E-01-4.95822E-04-1.04958E+00 6.84740E-05 3.58856E-06
 -1      3462 1.92419E+01-7.30530E-01-4.38959E-04-1.04959E+00 1.54155E-05 8.07890E-07
 -1      3463-6.78629E-01 1.91901E+01-3.12887E-04-1.04414E+00 2.68073E-06 5.11514E-05
 -1      3464-6.78540E-01 1.91901E+01-3.81704E-04-1.04414E+00-1.33077E-06-2.53926E-05
 -1      3465-6.78440E-01 1.91901E+01-4.88482E-04-1.04414E+00-1.03990E-06-1.98426E-05
 -1      3466-6.78420E-01 1.91901E+01-5.31952E-04-1.04413E+00-3.03328E-07-5.78788E-06
 -1      3467-6.78416E-01 1.91901E+01-5.38432E-04-1.04413E+00-6.60691E-08-1.26068E-06
 -1      3468-6.78416E-01 1.91901E+01-5.38432E-04-1.04413E+00 6.60686E-08 1.26068E-06
 -1      3469-6.78420E-01 1.91901E+01-5.31952E-04-1.04413E+00 3.03328E-07 5.78788E-06
 -1      3470-6.78440E-01 1.91901E+01-4.88482E-04-1.04414E+00 1.03990E-06 1.98426E-05
 -1      3471-6.78540E-01 1.91901E+01-3.81704E-04-1.04414E+00 1.33077E-06 2.53926E-05
 -1      3472-6.78629E-01 1.91901E+01-3.12887E-04-1.04414E+00-2.68073E-06-5.11514E-05
 -1      3473-5.15064E-01 1.90266E+01-3.12887E-04-2.07685E+00 5.35412E-06 5.09410E-05
 -1      3474-5.14976E-01 1.90266E+01-3.81704E-04-2.07684E+00-2.65789E-06-2.52882E-05
 -1      3475-5.14877E-01 1.90266E+01-4.88482E-04-2.07683E+00-2.07696E-06-1.97610E-05
 -1      3476-5.14857E-01 1.90266E+01-5.31952E-04-2.07683E+00-6.05826E-07-5.76408E-06
 -1      3477-5.14853E-01 1.90266E+01-5.38432E-04-2.07683E+00-1.31957E-07-1.25550E-06
 -1      3478-5.14853E-01 1.90266E+01-5.38432E-04-2.07683E+00 1.31958E-07 1.25550E-06
 -1      3479-5.14857E-01 1.90266E+01-5.31952E-04-2.07683E+00 6.05828E-07 5.76408E-06
 -1      3480-5.14877E-01 1.90266E+01-4.88482E-04-2.07683E+00 2.07696E-06 1.97610E-05
 -1      3481-5.14976E-01 1.90266E+01-3.81704E-04-2.07684E+00 2.65789E-06 2.52882E-05
 -1      3482-5.15064E-01 1.90266E+01-3.12887E-04-2.07685E+00-5.35412E-06-5.09410E-05
 -1      3483-2.44449E-01 1.87559E+01-3.12887E-04-3.08680E+00 8.01283E-06 5.05910E-05
 -1      3484-2.44362E-01 1.87560E+01-3.81704E-04-3.08679E+00-3.97773E-06-2.51144E-05
 -1      3485-2.44264E-01 1.87560E+01-4.88482E-04-3.08677E+00-3.10832E-06-1.96252E-05
 -1      3486-2.44244E-01 1.87560E+01-5.31952E-04-3.08677E+00-9.06666E-07-5.72447E-06
 -1      3487-2.44240E-01 1.87560E+01-5.38432E-04-3.08677E+00-1.97483E-07-1.24687E-06
 -1      3488-2.44240E-01 1.87560E+01-5.38432E-04-3.08677E+00 1.97489E-07 1.24687E-06
 -1      3489-2.44244E-01 1.87560E+01-5.31952E-04-3.08677E+00 9.06672E-07 5.72447E-06
 -1      3490-2.44264E-01 1.87560E+01-4.88482E-04-3.08677E+00 3.10833E-06 1.96252E-05
 -1      3491-2.44362E-01 1.87560E+01-3.81704E-04-3.08679E+00 3.97774E-06 2.51144E-05
 -1      3492-2.44449E-01 1.87559E+01-3.12887E-04-3.08680E+00-8.01283E-06-5.05910E-05
 -1      3493 1.30253E-01 1.83812E+01-3.12887E-04-4.06293E+00 1.06496E-05 5.01023E-05
 -1      3494 1.30338E-01 1.83813E+01-3.81704E-04-4.06292E+00-5.28667E-06-2.48718E-05
 -1      3495 1.30435E-01 1.83813E+01-4.88482E-04-4.06290E+00-4.13117E-06-1.94356E-05
 -1      3496 1.30454E-01 1.83813E+01-5.31952E-04-4.06289E+00-1.20502E-06-5.66917E-06
 -1      3497 1.30458E-01 1.83813E+01-5.38432E-04-4.06289E+00-2.62469E-07-1.23483E-06
 -1      3498 1.30458E-01 1.83813E+01-5.38432E-04-4.06289E+00 2.62475E-07 1.23482E-06
 -1      3499 1.30454E-01 1.83813E+01-5.31952E-04-4.06289E+00 1.20503E-06 5.66917E-06
 -1      3500 1.30435E-01 1.83813E+01-4.88482E-04-4.06290E+00 4.13117E-06 1.94356E-05
 -1      3501 1.30338E-01 1.83813E+01-3.81704E-04-4.06292E+00 5.28668E-06 2.48718E-05
 -1      3502 1.30253E-01 1.83812E+01-3.12887E-04-4.06293E+00-1.06496E-05-5.01023E-05
 -1      3503 6.04935E-01 1.79066E+01-3.12887E-04-4.99455E+00 1.32571E-05 4.94763E-05
 -1      3504 6.05019E-01 1.79066E+01-3.81704E-04-4.99453E+00-6.58111E-06-2.45610E-05
 -1      3505 6.05113E-01 1.79066E+01-4.88482E-04-4.99451E+00-5.14269E-06-1.91928E-05
 -1      3506 6.05132E-01 1.79066E+01-5.31952E-04-4.99450E+00-1.50007E-06-5.59834E-06
 -1      3507 6.05136E-01 1.79066E+01-5.38432E-04-4.99450E+00-3.26734E-07-1.21940E-06
 -1      3508 6.05136E-01 1.79066E+01-5.38432E-04-4.99450E+00 3.26741E-07 1.21940E-06
 -1      3509 6.05132E-01 1.79066E+01-5.31952E-04-4.99450E+00 1.50008E-06 5.59834E-06
 -1      3510 6.05113E-01 1.79066E+01-4.88482E-04-4.99451E+00 5.14269E-06 1.91928E-05
 -1      3511 6.05019E-01 1.79066E+01-3.81704E-04-4.99453E+00 6.58112E-06 2.45610E-05
 -1      3512 6.04935E-01 1.79066E+01-3.12887E-04-4.99455E+00-1.32571E-05-4.94763E-05
 -1      3513 1.17440E+00 1.73371E+01-3.12887E-04-5.87144E+00 1.58284E-05 4.87147E-05
 -1      3514 1.17448E+00 1.73371E+01-3.81704E-04-5.87142E+00-7.85751E-06-2.41830E-05
 -1      3515 1.17457E+00 1.73371E+01-4.88482E-04-5.87139E+00-6.14010E-06-1.88973E-05
 -1      3516 1.17459E+00 1.73371E+01-5.31952E-04-5.87139E+00-1.79100E-06-5.51216E-06
 -1      3517 1.17459E+00 1.73371E+01-5.38432E-04-5.87139E+00-3.90099E-07-1.20063E-06
 -1      3518 1.17459E+00 1.73371E+01-5.38432E-04-5.87139E+00 3.90113E-07 1.20062E-06
 -1      3519 1.17459E+00 1.73371E+01-5.31952E-04-5.87139E+00 1.79101E-06 5.51216E-06
 -1      3520 1.17457E+00 1.73371E+01-4.88482E-04-5.87139E+00 6.14011E-06 1.88973E-05
 -1      3521 1.17448E+00 1.73371E+01-3.81704E-04-5.87142E+00 7.85752E-06 2.41830E-05
 -1      3522 1.17440E+00 1.73371E+01-3.12887E-04-5.87144E+00-1.58284E-05-4.87147E-05
 -1      3523 1.83240E+00 1.66791E+01-3.12887E-04-6.68401E+00 1.83562E-05 4.78195E-05
 -1      3524 1.83248E+00 1.66791E+01-3.81704E-04-6.68399E+00-9.11238E-06-2.37386E-05
 -1      3525 1.83257E+00 1.66791E+01-4.88482E-04-6.68395E+00-7.12069E-06-1.85501E-05
 -1      3526 1.83259E+00 1.66791E+01-5.31952E-04-6.68395E+00-2.07703E-06-5.41088E-06
 -1      3527 1.83259E+00 1.66791E+01-5.38432E-04-6.68395E+00-4.52397E-07-1.17857E-06
 -1      3528 1.83259E+00 1.66791E+01-5.38432E-04-6.68395E+00 4.52418E-07 1.17856E-06
 -1      3529 1.83259E+00 1.66791E+01-5.31952E-04-6.68395E+00 2.07705E-06 5.41087E-06
 -1      3530 1.83257E+00 1.66791E+01-4.88482E-04-6.68395E+00 7.12071E-06 1.85501E-05
 -1      3531 1.83248E+00 1.66791E+01-3.81704E-04-6.68399E+00 9.11239E-06 2.37386E-05
 -1      3532 1.83240E+00 1.66791E+01-3.12887E-04-6.68401E+00-1.83562E-05-4.78195E-05
 -1      3533 2.57174E+00 1.59398E+01-3.12887E-04-7.42334E+00 2.08337E-05 4.67933E-05
 -1      3534 2.57181E+00 1.59398E+01-3.81704E-04-7.42332E+00-1.03423E-05-2.32292E-05
 -1      3535 2.57190E+00 1.59398E+01-4.88482E-04-7.42328E+00-8.08178E-06-1.81520E-05
 -1      3536 2.57191E+00 1.59398E+01-5.31952E-04-7.42327E+00-2.35737E-06-5.29476E-06
 -1      3537 2.57192E+00 1.59398E+01-5.38432E-04-7.42327E+00-5.13459E-07-1.15328E-06
 -1      3538 2.57192E+00 1.59398E+01-5.38432E-04-7.42327E+00 5.13483E-07 1.15327E-06
 -1      3539 2.57191E+00 1.59398E+01-5.31952E-04-7.42327E+00 2.35739E-06 5.29474E-06
 -1      3540 2.57190E+00 1.59398E+01-4.88482E-04-7.42328E+00 8.08180E-06 1.81520E-05
 -1      3541 2.57181E+00 1.59398E+01-3.81704E-04-7.42332E+00 1.03423E-05 2.32291E-05
 -1      3542 2.57174E+00 1.59398E+01-3.12887E-04-7.42334E+00-2.08337E-05-4.67933E-05
 -1      3543 3.38430E+00 1.51272E+01-3.12887E-04-8.08135E+00 2.32541E-05 4.56388E-05
 -1      3544 3.38438E+00 1.51272E+01-3.81704E-04-8.08132E+00-1.15438E-05-2.26560E-05
 -1      3545 3.38446E+00 1.51272E+01-4.88482E-04-8.08128E+00-9.02070E-06-1.77041E-05
 -1      3546 3.38447E+00 1.51272E+01-5.31952E-04-8.08127E+00-2.63124E-06-5.16413E-06
 -1      3547 3.38448E+00 1.51273E+01-5.38432E-04-8.08127E+00-5.73109E-07-1.12483E-06
 -1      3548 3.38448E+00 1.51273E+01-5.38432E-04-8.08127E+00 5.73137E-07 1.12481E-06
 -1      3549 3.38447E+00 1.51272E+01-5.31952E-04-8.08127E+00 2.63126E-06 5.16411E-06
 -1      3550 3.38446E+00 1.51272E+01-4.88482E-04-8.08128E+00 9.02072E-06 1.77041E-05
 -1      3551 3.38438E+00 1.51272E+01-3.81704E-04-8.08132E+00 1.15438E-05 2.26560E-05
 -1      3552 3.38430E+00 1.51272E+01-3.12887E-04-8.08135E+00-2.32541E-05-4.56388E-05
 -1      3553 4.26120E+00 1.42503E+01-3.12887E-04-8.65081E+00 2.56108E-05 4.43592E-05
 -1      3554 4.26127E+00 1.42503E+01-3.81704E-04-8.65078E+00-1.27137E-05-2.20208E-05
 -1      3555 4.26135E+00 1.42504E+01-4.88482E-04-8.65074E+00-9.93489E-06-1.72078E-05
 -1      3556 4.26136E+00 1.42504E+01-5.31952E-04-8.65073E+00-2.89790E-06-5.01934E-06
 -1      3557 4.26136E+00 1.42504E+01-5.38432E-04-8.65073E+00-6.31191E-07-1.09329E-06
 -1      3558 4.26136E+00 1.42504E+01-5.38432E-04-8.65073E+00 6.31222E-07 1.09327E-06
 -1      3559 4.26136E+00 1.42504E+01-5.31952E-04-8.65073E+00 2.89793E-06 5.01933E-06
 -1      3560 4.26135E+00 1.42504E+01-4.88482E-04-8.65074E+00 9.93492E-06 1.72078E-05
 -1      3561 4.26127E+00 1.42503E+01-3.81704E-04-8.65078E+00 1.27137E-05 2.20208E-05
 -1      3562 4.26120E+00 1.42503E+01-3.12887E-04-8.65081E+00-2.56108E-05-4.43592E-05
 -1      3563 5.19281E+00 1.33187E+01-3.12887E-04-9.12549E+00 2.78973E-05 4.29581E-05
 -1      3564 5.19288E+00 1.33187E+01-3.81704E-04-9.12546E+00-1.38488E-05-2.13253E-05
 -1      3565 5.19295E+00 1.33187E+01-4.88482E-04-9.12542E+00-1.08219E-05-1.66642E-05
 -1      3566 5.19297E+00 1.33188E+01-5.31952E-04-9.12541E+00-3.15661E-06-4.86080E-06
 -1      3567 5.19297E+00 1.33188E+01-5.38432E-04-9.12541E+00-6.87542E-07-1.05876E-06
 -1      3568 5.19297E+00 1.33188E+01-5.38432E-04-9.12541E+00 6.87573E-07 1.05874E-06
 -1      3569 5.19297E+00 1.33188E+01-5.31952E-04-9.12541E+00 3.15665E-06 4.86078E-06
 -1      3570 5.19295E+00 1.33187E+01-4.88482E-04-9.12542E+00 1.08219E-05 1.66642E-05
 -1      3571 5.19288E+00 1.33187E+01-3.81704E-04-9.12546E+00 1.38488E-05 2.13253E-05
 -1      3572 5.19281E+00 1.33187E+01-3.12887E-04-9.12549E+00-2.78973E-05-4.29581E-05
 -1      3573 6.16894E+00 1.23425E+01-3.12887E-04-9.50019E+00 3.01073E-05 4.14392E-05
 -1      3574 6.16901E+00 1.23426E+01-3.81704E-04-9.50016E+00-1.49459E-05-2.05713E-05
 -1      3575 6.16908E+00 1.23426E+01-4.88482E-04-9.50012E+00-1.16792E-05-1.60750E-05
 -1      3576 6.16909E+00 1.23426E+01-5.31952E-04-9.50010E+00-3.40668E-06-4.68895E-06
 -1      3577 6.16909E+00 1.23426E+01-5.38432E-04-9.50010E+00-7.42010E-07-1.02133E-06
 -1      3578 6.16909E+00 1.23426E+01-5.38432E-04-9.50010E+00 7.42039E-07 1.02130E-06
 -1      3579 6.16909E+00 1.23426E+01-5.31952E-04-9.50010E+00 3.40671E-06 4.68892E-06
 -1      3580 6.16908E+00 1.23426E+01-4.88482E-04-9.50012E+00 1.16792E-05 1.60750E-05
 -1      3581 6.16901E+00 1.23426E+01-3.81704E-04-9.50016E+00 1.49459E-05 2.05713E-05
 -1      3582 6.16894E+00 1.23425E+01-3.12887E-04-9.50019E+00-3.01073E-05-4.14392E-05
 -1      3583 7.17889E+00 1.13326E+01-3.12887E-04-9.77081E+00 3.22348E-05 3.98067E-05
 -1      3584 7.17896E+00 1.13326E+01-3.81703E-04-9.77077E+00-1.60020E-05-1.97609E-05
 -1      3585 7.17902E+00 1.13327E+01-4.88482E-04-9.77073E+00-1.25045E-05-1.54418E-05
 -1      3586 7.17903E+00 1.13327E+01-5.31952E-04-9.77072E+00-3.64741E-06-4.50422E-06
 -1      3587 7.17903E+00 1.13327E+01-5.38431E-04-9.77072E+00-7.94444E-07-9.81094E-07
 -1      3588 7.17903E+00 1.13327E+01-5.38431E-04-9.77072E+00 7.94476E-07 9.81070E-07
 -1      3589 7.17903E+00 1.13327E+01-5.31952E-04-9.77072E+00 3.64744E-06 4.50420E-06
 -1      3590 7.17902E+00 1.13327E+01-4.88482E-04-9.77073E+00 1.25045E-05 1.54417E-05
 -1      3591 7.17896E+00 1.13326E+01-3.81703E-04-9.77077E+00 1.60020E-05 1.97609E-05
 -1      3592 7.17889E+00 1.13326E+01-3.12887E-04-9.77081E+00-3.22348E-05-3.98067E-05
 -1      3593 8.21160E+00 1.02999E+01-3.12887E-04-9.93437E+00 3.42740E-05 3.80651E-05
 -1      3594 8.21166E+00 1.02999E+01-3.81704E-04-9.93434E+00-1.70143E-05-1.88963E-05
 -1      3595 8.21172E+00 1.03000E+01-4.88482E-04-9.93429E+00-1.32955E-05-1.47662E-05
 -1      3596 8.21173E+00 1.03000E+01-5.31952E-04-9.93428E+00-3.87816E-06-4.30715E-06
 -1      3597 8.21173E+00 1.03000E+01-5.38432E-04-9.93428E+00-8.44705E-07-9.38169E-07
 -1      3598 8.21173E+00 1.03000E+01-5.38432E-04-9.93428E+00 8.44735E-07 9.38139E-07
 -1      3599 8.21173E+00 1.03000E+01-5.31952E-04-9.93428E+00 3.87818E-06 4.30712E-06
 -1      3600 8.21172E+00 1.03000E+01-4.88482E-04-9.93429E+00 1.32955E-05 1.47661E-05
 -1      3601 8.21166E+00 1.02999E+01-3.81704E-04-9.93434E+00 1.70143E-05 1.88963E-05
 -1      3602 8.21160E+00 1.02999E+01-3.12887E-04-9.93437E+00-3.42740E-05-3.80651E-05
 -1      3603 9.25574E+00 9.25574E+00-3.12888E-04-9.98909E+00 3.62192E-05 3.62192E-05
 -1      3604 9.25580E+00 9.25580E+00-3.81705E-04-9.98906E+00-1.79799E-05-1.79799E-05
 -1      3605 9.25585E+00 9.25585E+00-4.88483E-04-9.98901E+00-1.40501E-05-1.40501E-05
 -1      3606 9.25586E+00 9.25586E+00-5.31953E-04-9.98900E+00-4.09826E-06-4.09828E-06
 -1      3607 9.25586E+00 9.25586E+00-5.38432E-04-9.98900E+00-8.92649E-07-8.92680E-07
 -1      3608 9.25586E+00 9.25586E+00-5.38432E-04-9.98900E+00 8.92680E-07 8.92639E-07
 -1      3609 9.25586E+00 9.25586E+00-5.31953E-04-9.98900E+00 4.09829E-06 4.09824E-06
 -1      3610 9.25585E+00 9.25585E+00-4.88483E-04-9.98901E+00 1.40501E-05 1.40501E-05
 -1      3611 9.25580E+00 9.25580E+00-3.81705E-04-9.98906E+00 1.79800E-05 1.79799E-05
 -1      3612 9.25574E+00 9.25574E+00-3.12888E-04-9.98909E+00-3.62192E-05-3.62192E-05
 -1      3613 1.02999E+01 8.21160E+00-3.12889E-04-9.93437E+00 3.80651E-05 3.42740E-05
 -1      3614 1.02999E+01 8.21166E+00-3.81705E-04-9.93434E+00-1.88963E-05-1.70143E-05
 -1      3615 1.03000E+01 8.21172E+00-4.88484E-04-9.93429E+00-1.47661E-05-1.32955E-05
 -1      3616 1.03000E+01 8.21173E+00-5.31954E-04-9.93428E+00-4.30712E-06-3.87818E-06
 -1      3617 1.03000E+01 8.21173E+00-5.38433E-04-9.93428E+00-9.38140E-07-8.44733E-07
 -1      3618 1.03000E+01 8.21173E+00-5.38433E-04-9.93428E+00 9.38170E-07 8.44702E-07
 -1      3619 1.03000E+01 8.21173E+00-5.31954E-04-9.93428E+00 4.30715E-06 3.87815E-06
 -1      3620 1.03000E+01 8.21172E+00-4.88484E-04-9.93429E+00 1.47662E-05 1.32955E-05
 -1      3621 1.02999E+01 8.21166E+00-3.81705E-04-9.93434E+00 1.88963E-05 1.70143E-05
 -1      3622 1.02999E+01 8.21160E+00-3.12889E-04-9.93437E+00-3.80651E-05-3.42740E-05
 -1      3623 1.13326E+01 7.17889E+00-3.12889E-04-9.77081E+00 3.98067E-05 3.22348E-05
 -1      3624 1.13326E+01 7.17896E+00-3.81705E-04-9.77077E+00-1.97608E-05-1.60020E-05
 -1      3625 1.13327E+01 7.17902E+00-4.88484E-04-9.77073E+00-1.54417E-05-1.25045E-05
 -1      3626 1.13327E+01 7.17903E+00-5.31954E-04-9.77072E+00-4.50419E-06-3.64745E-06
 -1      3627 1.13327E+01 7.17903E+00-5.38433E-04-9.77072E+00-9.81064E-07-7.94481E-07
 -1      3628 1.13327E+01 7.17903E+00-5.38433E-04-9.77072E+00 9.81090E-07 7.94448E-07
 -1      3629 1.13327E+01 7.17903E+00-5.31954E-04-9.77072E+00 4.50422E-06 3.64742E-06
 -1      3630 1.13327E+01 7.17902E+00-4.88484E-04-9.77073E+00 1.54418E-05 1.25045E-05
 -1      3631 1.13326E+01 7.17896E+00-3.81705E-04-9.77077E+00 1.97609E-05 1.60020E-05
 -1      3632 1.13326E+01 7.17889E+00-3.12889E-04-9.77081E+00-3.98067E-05-3.22348E-05
 -1      3633 1.23425E+01 6.16894E+00-3.12889E-04-9.50019E+00 4.14392E-05 3.01073E-05
 -1      3634 1.23426E+01 6.16901E+00-3.81705E-04-9.50016E+00-2.05712E-05-1.49459E-05
 -1      3635 1.23426E+01 6.16908E+00-4.88484E-04-9.50012E+00-1.60750E-05-1.16792E-05
 -1      3636 1.23426E+01 6.16909E+00-5.31954E-04-9.50010E+00-4.68891E-06-3.40672E-06
 -1      3637 1.23426E+01 6.16909E+00-5.38433E-04-9.50010E+00-1.02130E-06-7.42047E-07
 -1      3638 1.23426E+01 6.16909E+00-5.38433E-04-9.50010E+00 1.02133E-06 7.42010E-07
 -1      3639 1.23426E+01 6.16909E+00-5.31954E-04-9.50010E+00 4.68893E-06 3.40668E-06
 -1      3640 1.23426E+01 6.16908E+00-4.88484E-04-9.50012E+00 1.60750E-05 1.16792E-05
 -1      3641 1.23426E+01 6.16901E+00-3.81705E-04-9.50016E+00 2.05713E-05 1.49459E-05
 -1      3642 1.23425E+01 6.16894E+00-3.12889E-04-9.50019E+00-4.14392E-05-3.01073E-05
 -1      3643 1.33187E+01 5.19281E+00-3.12889E-04-9.12549E+00 4.29581E-05 2.78973E-05
 -1      3644 1.33187E+01 5.19288E+00-3.81705E-04-9.12546E+00-2.13253E-05-1.38488E-05
 -1      3645 1.33187E+01 5.19295E+00-4.88484E-04-9.12542E+00-1.66642E-05-1.08219E-05
 -1      3646 1.33188E+01 5.19297E+00-5.31954E-04-9.12541E+00-4.86078E-06-3.15665E-06
 -1      3647 1.33188E+01 5.19297E+00-5.38433E-04-9.12541E+00-1.05874E-06-6.87575E-07
 -1      3648 1.33188E+01 5.19297E+00-5.38433E-04-9.12541E+00 1.05876E-06 6.87543E-07
 -1      3649 1.33188E+01 5.19297E+00-5.31954E-04-9.12541E+00 4.86080E-06 3.15662E-06
 -1      3650 1.33187E+01 5.19295E+00-4.88484E-04-9.12542E+00 1.66642E-05 1.08219E-05
 -1      3651 1.33187E+01 5.19288E+00-3.81705E-04-9.12546E+00 2.13253E-05 1.38488E-05
 -1      3652 1.33187E+01 5.19281E+00-3.12889E-04-9.12549E+00-4.29581E-05-2.78973E-05
 -1      3653 1.42503E+01 4.26120E+00-3.12889E-04-8.65081E+00 4.43592E-05 2.56108E-05
 -1      3654 1.42503E+01 4.26127E+00-3.81705E-04-8.65078E+00-2.20208E-05-1.27138E-05
 -1      3655 1.42504E+01 4.26135E+00-4.88484E-04-8.65074E+00-1.72078E-05-9.93493E-06
 -1      3656 1.42504E+01 4.26136E+00-5.31954E-04-8.65073E+00-5.01932E-06-2.89793E-06
 -1      3657 1.42504E+01 4.26136E+00-5.38433E-04-8.65073E+00-1.09327E-06-6.31224E-07
 -1      3658 1.42504E+01 4.26136E+00-5.38433E-04-8.65073E+00 1.09329E-06 6.31193E-07
 -1      3659 1.42504E+01 4.26136E+00-5.31954E-04-8.65073E+00 5.01934E-06 2.89791E-06
 -1      3660 1.42504E+01 4.26135E+00-4.88484E-04-8.65074E+00 1.72078E-05 9.93490E-06
 -1      3661 1.42503E+01 4.26127E+00-3.81705E-04-8.65078E+00 2.20208E-05 1.27137E-05
 -1      3662 1.42503E+01 4.26120E+00-3.12889E-04-8.65081E+00-4.43592E-05-2.56108E-05
 -1      3663 1.51272E+01 3.38430E+00-3.12889E-04-8.08135E+00 4.56388E-05 2.32541E-05
 -1      3664 1.51272E+01 3.38438E+00-3.81705E-04-8.08132E+00-2.26560E-05-1.15438E-05
 -1      3665 1.51272E+01 3.38446E+00-4.88484E-04-8.08128E+00-1.77041E-05-9.02072E-06
 -1      3666 1.51272E+01 3.38447E+00-5.31954E-04-8.08127E+00-5.16412E-06-2.63127E-06
 -1      3667 1.51273E+01 3.38448E+00-5.38433E-04-8.08127E+00-1.12481E-06-5.73139E-07
 -1      3668 1.51273E+01 3.38448E+00-5.38433E-04-8.08127E+00 1.12483E-06 5.73111E-07
 -1      3669 1.51272E+01 3.38447E+00-5.31954E-04-8.08127E+00 5.16413E-06 2.63124E-06
 -1      3670 1.51272E+01 3.38446E+00-4.88484E-04-8.08128E+00 1.77041E-05 9.02070E-06
 -1      3671 1.51272E+01 3.38438E+00-3.81705E-04-8.08132E+00 2.26560E-05 1.15438E-05
 -1      3672 1.51272E+01 3.38430E+00-3.12889E-04-8.08135E+00-4.56388E-05-2.32541E-05
 -1      3673 1.59398E+01 2.57174E+00-3.12889E-04-7.42334E+00 4.67933E-05 2.08337E-05
 -1      3674 1.59398E+01 2.57181E+00-3.81706E-04-7.42332E+00-2.32291E-05-1.03423E-05
 -1      3675 1.59398E+01 2.57190E+00-4.88484E-04-7.42328E+00-1.81520E-05-8.08179E-06
 -1      3676 1.59398E+01 2.57191E+00-5.31954E-04-7.42327E+00-5.29475E-06-2.35738E-06
 -1      3677 1.59398E+01 2.57192E+00-5.38433E-04-7.42327E+00-1.15327E-06-5.13482E-07
 -1      3678 1.59398E+01 2.57192E+00-5.38433E-04-7.42327E+00 1.15328E-06 5.13455E-07
 -1      3679 1.59398E+01 2.57191E+00-5.31954E-04-7.42327E+00 5.29476E-06 2.35736E-06
 -1      3680 1.59398E+01 2.57190E+00-4.88484E-04-7.42328E+00 1.81520E-05 8.08176E-06
 -1      3681 1.59398E+01 2.57181E+00-3.81706E-04-7.42332E+00 2.32292E-05 1.03423E-05
 -1      3682 1.59398E+01 2.57174E+00-3.12889E-04-7.42334E+00-4.67933E-05-2.08337E-05
 -1      3683 1.66791E+01 1.83240E+00-3.12889E-04-6.68401E+00 4.78195E-05 1.83562E-05
 -1      3684 1.66791E+01 1.83248E+00-3.81706E-04-6.68399E+00-2.37386E-05-9.11240E-06
 -1      3685 1.66791E+01 1.83257E+00-4.88484E-04-6.68395E+00-1.85501E-05-7.12072E-06
 -1      3686 1.66791E+01 1.83259E+00-5.31954E-04-6.68395E+00-5.41087E-06-2.07705E-06
 -1      3687 1.66791E+01 1.83259E+00-5.38433E-04-6.68395E+00-1.17856E-06-4.52423E-07
 -1      3688 1.66791E+01 1.83259E+00-5.38433E-04-6.68395E+00 1.17857E-06 4.52396E-07
 -1      3689 1.66791E+01 1.83259E+00-5.31954E-04-6.68395E+00 5.41087E-06 2.07703E-06
 -1      3690 1.66791E+01 1.83257E+00-4.88484E-04-6.68395E+00 1.85501E-05 7.12070E-06
 -1      3691 1.66791E+01 1.83248E+00-3.81706E-04-6.68399E+00 2.37386E-05 9.11238E-06
 -1      3692 1.66791E+01 1.83240E+00-3.12889E-04-6.68401E+00-4.78195E-05-1.83562E-05
 -1      3693 1.73371E+01 1.17440E+00-3.12889E-04-5.87144E+00 4.87147E-05 1.58284E-05
 -1      3694 1.73371E+01 1.17448E+00-3.81705E-04-5.87142E+00-2.41830E-05-7.85754E-06
 -1      3695 1.73371E+01 1.17457E+00-4.88484E-04-5.87139E+00-1.88973E-05-6.14013E-06
 -1      3696 1.73371E+01 1.17459E+00-5.31954E-04-5.87139E+00-5.51216E-06-1.79103E-06
 -1      3697 1.73371E+01 1.17459E+00-5.38433E-04-5.87139E+00-1.20062E-06-3.90125E-07
 -1      3698 1.73371E+01 1.17459E+00-5.38433E-04-5.87139E+00 1.20063E-06 3.90092E-07
 -1      3699 1.73371E+01 1.17459E+00-5.31954E-04-5.87139E+00 5.51216E-06 1.79100E-06
 -1      3700 1.73371E+01 1.17457E+00-4.88484E-04-5.87139E+00 1.88973E-05 6.14010E-06
 -1      3701 1.73371E+01 1.17448E+00-3.81705E-04-5.87142E+00 2.41830E-05 7.85751E-06
 -1      3702 1.73371E+01 1.17440E+00-3.12889E-04-5.87144E+00-4.87147E-05-1.58284E-05
 -1      3703 1.79066E+01 6.04935E-01-3.12889E-04-4.99455E+00 4.94763E-05 1.32571E-05
 -1      3704 1.79066E+01 6.05019E-01-3.81705E-04-4.99453E+00-2.45611E-05-6.58113E-06
 -1      3705 1.79066E+01 6.05113E-01-4.88484E-04-4.99451E+00-1.91928E-05-5.14270E-06
 -1      3706 1.79066E+01 6.05132E-01-5.31954E-04-4.99450E+00-5.59834E-06-1.50009E-06
 -1      3707 1.79066E+01 6.05136E-01-5.38433E-04-4.99450E+00-1.21939E-06-3.26755E-07
 -1      3708 1.79066E+01 6.05136E-01-5.38433E-04-4.99450E+00 1.21940E-06 3.26718E-07
 -1      3709 1.79066E+01 6.05132E-01-5.31954E-04-4.99450E+00 5.59834E-06 1.50005E-06
 -1      3710 1.79066E+01 6.05113E-01-4.88484E-04-4.99451E+00 1.91928E-05 5.14267E-06
 -1      3711 1.79066E+01 6.05019E-01-3.81705E-04-4.99453E+00 2.45611E-05 6.58110E-06
 -1      3712 1.79066E+01 6.04935E-01-3.12889E-04-4.99455E+00-4.94763E-05-1.32571E-05
 -1      3713 1.83812E+01 1.30253E-01-3.12889E-04-4.06293E+00 5.01023E-05 1.06496E-05
 -1      3714 1.83813E+01 1.30338E-01-3.81705E-04-4.06292E+00-2.48718E-05-5.28668E-06
 -1      3715 1.83813E+01 1.30435E-01-4.88484E-04-4.06290E+00-1.94356E-05-4.13118E-06
 -1      3716 1.83813E+01 1.30454E-01-5.31954E-04-4.06289E+00-5.66917E-06-1.20504E-06
 -1      3717 1.83813E+01 1.30458E-01-5.38433E-04-4.06289E+00-1.23482E-06-2.62490E-07
 -1      3718 1.83813E+01 1.30458E-01-5.38433E-04-4.06289E+00 1.23483E-06 2.62452E-07
 -1      3719 1.83813E+01 1.30454E-01-5.31954E-04-4.06289E+00 5.66918E-06 1.20500E-06
 -1      3720 1.83813E+01 1.30435E-01-4.88484E-04-4.06290E+00 1.94356E-05 4.13115E-06
 -1      3721 1.83813E+01 1.30338E-01-3.81705E-04-4.06292E+00 2.48718E-05 5.28666E-06
 -1      3722 1.83812E+01 1.30253E-01-3.12889E-04-4.06293E+00-5.01023E-05-1.06496E-05
 -1      3723 1.87559E+01-2.44449E-01-3.12889E-04-3.08680E+00 5.05910E-05 8.01282E-06
 -1      3724 1.87560E+01-2.44362E-01-3.81705E-04-3.08679E+00-2.51144E-05-3.97775E-06
 -1      3725 1.87560E+01-2.44264E-01-4.88484E-04-3.08677E+00-1.96252E-05-3.10834E-06
 -1      3726 1.87560E+01-2.44244E-01-5.31954E-04-3.08677E+00-5.72446E-06-9.06686E-07
 -1      3727 1.87560E+01-2.44240E-01-5.38433E-04-3.08677E+00-1.24687E-06-1.97503E-07
 -1      3728 1.87560E+01-2.44240E-01-5.38433E-04-3.08677E+00 1.24687E-06 1.97469E-07
 -1      3729 1.87560E+01-2.44244E-01-5.31954E-04-3.08677E+00 5.72447E-06 9.06654E-07
 -1      3730 1.87560E+01-2.44264E-01-4.88484E-04-3.08677E+00 1.96252E-05 3.10831E-06
 -1      3731 1.87560E+01-2.44362E-01-3.81705E-04-3.08679E+00 2.51144E-05 3.97772E-06
 -1      3732 1.87559E+01-2.44449E-01-3.12889E-04-3.08680E+00-5.05910E-05-8.01284E-06
 -1      3733 1.90266E+01-5.15064E-01-3.12889E-04-2.07685E+00 5.09410E-05 5.35411E-06
 -1      3734 1.90266E+01-5.14976E-01-3.81705E-04-2.07684E+00-2.52882E-05-2.65791E-06
 -1      3735 1.90266E+01-5.14877E-01-4.88484E-04-2.07683E+00-1.97610E-05-2.07698E-06
 -1      3736 1.90266E+01-5.14857E-01-5.31954E-04-2.07683E+00-5.76408E-06-6.05844E-07
 -1      3737 1.90266E+01-5.14853E-01-5.38433E-04-2.07683E+00-1.25549E-06-1.31971E-07
 -1      3738 1.90266E+01-5.14853E-01-5.38433E-04-2.07683E+00 1.25551E-06 1.31947E-07
 -1      3739 1.90266E+01-5.14857E-01-5.31954E-04-2.07683E+00 5.76408E-06 6.05820E-07
 -1      3740 1.90266E+01-5.14877E-01-4.88484E-04-2.07683E+00 1.97610E-05 2.07695E-06
 -1      3741 1.90266E+01-5.14976E-01-3.81705E-04-2.07684E+00 2.52882E-05 2.65789E-06
 -1      3742 1.90266E+01-5.15064E-01-3.12889E-04-2.07685E+00-5.09410E-05-5.35412E-06
 -1      3743 1.91901E+01-6.78629E-01-3.12889E-04-1.04414E+00 5.11514E-05 2.68073E-06
 -1      3744 1.91901E+01-6.78540E-01-3.81705E-04-1.04414E+00-2.53926E-05-1.33077E-06
 -1      3745 1.91901E+01-6.78440E-01-4.88484E-04-1.04414E+00-1.98426E-05-1.03991E-06
 -1      3746 1.91901E+01-6.78420E-01-5.31954E-04-1.04413E+00-5.78788E-06-3.03335E-07
 -1      3747 1.91901E+01-6.78416E-01-5.38433E-04-1.04413E+00-1.26068E-06-6.60751E-08
 -1      3748 1.91901E+01-6.78416E-01-5.38433E-04-1.04413E+00 1.26069E-06 6.60636E-08
 -1      3749 1.91901E+01-6.78420E-01-5.31954E-04-1.04413E+00 5.78789E-06 3.03324E-07
 -1      3750 1.91901E+01-6.78440E-01-4.88484E-04-1.04414E+00 1.98426E-05 1.03990E-06
 -1      3751 1.91901E+01-6.78540E-01-3.81705E-04-1.04414E+00 2.53926E-05 1.33077E-06
 -1      3752 1.91901E+01-6.78629E-01-3.12889E-04-1.04414E+00-5.11514E-05-2.68074E-06
 -1      3753-6.27147E-01 1.91388E+01-2.25982E-04-1.03874E+00 5.16382E-06 9.85316E-05
 -1      3754-6.27129E-01 1.91388E+01-2.91755E-04-1.03874E+00 1.01459E-06 1.93595E-05
 -1      3755-6.27040E-01 1.91388E+01-3.85378E-04-1.03873E+00-3.58676E-07-6.84399E-06
 -1      3756-6.27013E-01 1.91388E+01-4.33262E-04-1.03873E+00-2.13330E-07-4.07061E-06
 -1      3757-6.27008E-01 1.91388E+01-4.44199E-04-1.03873E+00-5.67919E-08-1.08367E-06
 -1      3758-6.27008E-01 1.91388E+01-4.44199E-04-1.03873E+00 5.67919E-08 1.08367E-06
 -1      3759-6.27013E-01 1.91388E+01-4.33262E-04-1.03873E+00 2.13330E-07 4.07061E-06
 -1      3760-6.27040E-01 1.91388E+01-3.85378E-04-1.03873E+00 3.58676E-07 6.84399E-06
 -1      3761-6.27129E-01 1.91388E+01-2.91755E-04-1.03874E+00-1.01459E-06-1.93595E-05
 -1      3762-6.27147E-01 1.91388E+01-2.25982E-04-1.03874E+00-5.16382E-06-9.85316E-05
 -1      3763-4.64429E-01 1.89760E+01-2.25981E-04-2.06610E+00 1.03135E-05 9.81263E-05
 -1      3764-4.64412E-01 1.89760E+01-2.91755E-04-2.06610E+00 2.02640E-06 1.92799E-05
 -1      3765-4.64323E-01 1.89760E+01-3.85378E-04-2.06609E+00-7.16371E-07-6.81584E-06
 -1      3766-4.64296E-01 1.89760E+01-4.33262E-04-2.06609E+00-4.26077E-07-4.05388E-06
 -1      3767-4.64292E-01 1.89760E+01-4.44199E-04-2.06609E+00-1.13428E-07-1.07921E-06
 -1      3768-4.64292E-01 1.89760E+01-4.44199E-04-2.06609E+00 1.13430E-07 1.07921E-06
 -1      3769-4.64296E-01 1.89760E+01-4.33262E-04-2.06609E+00 4.26078E-07 4.05387E-06
 -1      3770-4.64323E-01 1.89760E+01-3.85378E-04-2.06609E+00 7.16372E-07 6.81584E-06
 -1      3771-4.64412E-01 1.89760E+01-2.91755E-04-2.06610E+00-2.02640E-06-1.92799E-05
 -1      3772-4.64429E-01 1.89760E+01-2.25981E-04-2.06610E+00-1.03135E-05-9.81263E-05
 -1      3773-1.95214E-01 1.87068E+01-2.25981E-04-3.07082E+00 1.54349E-05 9.74520E-05
 -1      3774-1.95197E-01 1.87068E+01-2.91755E-04-3.07082E+00 3.03265E-06 1.91474E-05
 -1      3775-1.95109E-01 1.87068E+01-3.85378E-04-3.07081E+00-1.07211E-06-6.76901E-06
 -1      3776-1.95083E-01 1.87068E+01-4.33262E-04-3.07080E+00-6.37657E-07-4.02602E-06
 -1      3777-1.95079E-01 1.87068E+01-4.44199E-04-3.07080E+00-1.69754E-07-1.07180E-06
 -1      3778-1.95079E-01 1.87068E+01-4.44199E-04-3.07080E+00 1.69758E-07 1.07179E-06
 -1      3779-1.95083E-01 1.87068E+01-4.33262E-04-3.07080E+00 6.37663E-07 4.02602E-06
 -1      3780-1.95109E-01 1.87068E+01-3.85378E-04-3.07081E+00 1.07211E-06 6.76901E-06
 -1      3781-1.95197E-01 1.87068E+01-2.91754E-04-3.07082E+00-3.03265E-06-1.91474E-05
 -1      3782-1.95214E-01 1.87068E+01-2.25981E-04-3.07082E+00-1.54349E-05-9.74520E-05
 -1      3783 1.77548E-01 1.83341E+01-2.25981E-04-4.04190E+00 2.05140E-05 9.65107E-05
 -1      3784 1.77565E-01 1.83341E+01-2.91755E-04-4.04190E+00 4.03059E-06 1.89624E-05
 -1      3785 1.77651E-01 1.83341E+01-3.85378E-04-4.04188E+00-1.42490E-06-6.70362E-06
 -1      3786 1.77676E-01 1.83341E+01-4.33262E-04-4.04187E+00-8.47491E-07-3.98712E-06
 -1      3787 1.77681E-01 1.83341E+01-4.44199E-04-4.04187E+00-2.25615E-07-1.06144E-06
 -1      3788 1.77681E-01 1.83341E+01-4.44199E-04-4.04187E+00 2.25621E-07 1.06144E-06
 -1      3789 1.77676E-01 1.83341E+01-4.33262E-04-4.04187E+00 8.47496E-07 3.98712E-06
 -1      3790 1.77651E-01 1.83341E+01-3.85378E-04-4.04188E+00 1.42491E-06 6.70361E-06
 -1      3791 1.77565E-01 1.83341E+01-2.91755E-04-4.04190E+00-4.03058E-06-1.89624E-05
 -1      3792 1.77548E-01 1.83341E+01-2.25981E-04-4.04190E+00-2.05140E-05-9.65107E-05
 -1      3793 6.49773E-01 1.78618E+01-2.25982E-04-4.96870E+00 2.55368E-05 9.53048E-05
 -1      3794 6.49789E-01 1.78618E+01-2.91755E-04-4.96869E+00 5.01749E-06 1.87255E-05
 -1      3795 6.49874E-01 1.78619E+01-3.85378E-04-4.96867E+00-1.77378E-06-6.61986E-06
 -1      3796 6.49899E-01 1.78619E+01-4.33262E-04-4.96866E+00-1.05500E-06-3.93731E-06
 -1      3797 6.49903E-01 1.78619E+01-4.44199E-04-4.96866E+00-2.80857E-07-1.04818E-06
 -1      3798 6.49903E-01 1.78619E+01-4.44199E-04-4.96866E+00 2.80862E-07 1.04818E-06
 -1      3799 6.49899E-01 1.78619E+01-4.33262E-04-4.96866E+00 1.05500E-06 3.93731E-06
 -1      3800 6.49874E-01 1.78619E+01-3.85378E-04-4.96867E+00 1.77379E-06 6.61985E-06
 -1      3801 6.49789E-01 1.78618E+01-2.91755E-04-4.96869E+00-5.01748E-06-1.87255E-05
 -1      3802 6.49773E-01 1.78618E+01-2.25982E-04-4.96870E+00-2.55368E-05-9.53048E-05
 -1      3803 1.21629E+00 1.72953E+01-2.25981E-04-5.84105E+00 3.04897E-05 9.38377E-05
 -1      3804 1.21630E+00 1.72953E+01-2.91755E-04-5.84105E+00 5.99063E-06 1.84372E-05
 -1      3805 1.21639E+00 1.72953E+01-3.85378E-04-5.84102E+00-2.11780E-06-6.51796E-06
 -1      3806 1.21641E+00 1.72953E+01-4.33262E-04-5.84101E+00-1.25961E-06-3.87670E-06
 -1      3807 1.21641E+00 1.72953E+01-4.44199E-04-5.84101E+00-3.35324E-07-1.03205E-06
 -1      3808 1.21641E+00 1.72953E+01-4.44199E-04-5.84101E+00 3.35336E-07 1.03204E-06
 -1      3809 1.21641E+00 1.72953E+01-4.33262E-04-5.84101E+00 1.25962E-06 3.87669E-06
 -1      3810 1.21639E+00 1.72953E+01-3.85378E-04-5.84102E+00 2.11781E-06 6.51795E-06
 -1      3811 1.21630E+00 1.72953E+01-2.91755E-04-5.84105E+00-5.99062E-06-1.84372E-05
 -1      3812 1.21629E+00 1.72953E+01-2.25981E-04-5.84105E+00-3.04897E-05-9.38377E-05
 -1      3813 1.87089E+00 1.66407E+01-2.25981E-04-6.64941E+00 3.53590E-05 9.21134E-05
 -1      3814 1.87090E+00 1.66407E+01-2.91754E-04-6.64941E+00 6.94735E-06 1.80984E-05
 -1      3815 1.87098E+00 1.66407E+01-3.85377E-04-6.64938E+00-2.45602E-06-6.39819E-06
 -1      3816 1.87100E+00 1.66407E+01-4.33262E-04-6.64937E+00-1.46077E-06-3.80547E-06
 -1      3817 1.87101E+00 1.66408E+01-4.44199E-04-6.64937E+00-3.88876E-07-1.01308E-06
 -1      3818 1.87101E+00 1.66408E+01-4.44199E-04-6.64937E+00 3.88892E-07 1.01307E-06
 -1      3819 1.87100E+00 1.66407E+01-4.33262E-04-6.64937E+00 1.46079E-06 3.80546E-06
 -1      3820 1.87098E+00 1.66407E+01-3.85377E-04-6.64938E+00 2.45603E-06 6.39818E-06
 -1      3821 1.87090E+00 1.66407E+01-2.91754E-04-6.64941E+00-6.94734E-06-1.80985E-05
 -1      3822 1.87089E+00 1.66407E+01-2.25981E-04-6.64941E+00-3.53590E-05-9.21134E-05
 -1      3823 2.60639E+00 1.59052E+01-2.25981E-04-7.38492E+00 4.01314E-05 9.01366E-05
 -1      3824 2.60641E+00 1.59052E+01-2.91754E-04-7.38491E+00 7.88503E-06 1.77101E-05
 -1      3825 2.60648E+00 1.59052E+01-3.85378E-04-7.38488E+00-2.78752E-06-6.26088E-06
 -1      3826 2.60651E+00 1.59052E+01-4.33262E-04-7.38487E+00-1.65794E-06-3.72380E-06
 -1      3827 2.60651E+00 1.59052E+01-4.44199E-04-7.38487E+00-4.41364E-07-9.91347E-07
 -1      3828 2.60651E+00 1.59052E+01-4.44199E-04-7.38487E+00 4.41383E-07 9.91332E-07
 -1      3829 2.60651E+00 1.59052E+01-4.33262E-04-7.38487E+00 1.65795E-06 3.72379E-06
 -1      3830 2.60648E+00 1.59052E+01-3.85378E-04-7.38488E+00 2.78753E-06 6.26087E-06
 -1      3831 2.60641E+00 1.59052E+01-2.91754E-04-7.38491E+00-7.88501E-06-1.77101E-05
 -1      3832 2.60639E+00 1.59052E+01-2.25981E-04-7.38492E+00-4.01314E-05-9.01366E-05
 -1      3833 3.41475E+00 1.50969E+01-2.25982E-04-8.03952E+00 4.47938E-05 8.79127E-05
 -1      3834 3.41477E+00 1.50969E+01-2.91755E-04-8.03951E+00 8.80110E-06 1.72731E-05
 -1      3835 3.41484E+00 1.50969E+01-3.85378E-04-8.03948E+00-3.11136E-06-6.10641E-06
 -1      3836 3.41486E+00 1.50969E+01-4.33262E-04-8.03947E+00-1.85055E-06-3.63193E-06
 -1      3837 3.41487E+00 1.50969E+01-4.44199E-04-8.03946E+00-4.92639E-07-9.66888E-07
 -1      3838 3.41487E+00 1.50969E+01-4.44199E-04-8.03946E+00 4.92661E-07 9.66870E-07
 -1      3839 3.41486E+00 1.50969E+01-4.33262E-04-8.03947E+00 1.85057E-06 3.63191E-06
 -1      3840 3.41484E+00 1.50969E+01-3.85378E-04-8.03948E+00 3.11138E-06 6.10640E-06
 -1      3841 3.41477E+00 1.50969E+01-2.91755E-04-8.03951E+00-8.80108E-06-1.72731E-05
 -1      3842 3.41475E+00 1.50969E+01-2.25982E-04-8.03952E+00-4.47938E-05-8.79127E-05
 -1      3843 4.28711E+00 1.42245E+01-2.25982E-04-8.60603E+00 4.93334E-05 8.54479E-05
 -1      3844 4.28712E+00 1.42245E+01-2.91755E-04-8.60602E+00 9.69305E-06 1.67888E-05
 -1      3845 4.28719E+00 1.42245E+01-3.85378E-04-8.60599E+00-3.42668E-06-5.93521E-06
 -1      3846 4.28721E+00 1.42245E+01-4.33262E-04-8.60598E+00-2.03809E-06-3.53010E-06
 -1      3847 4.28722E+00 1.42245E+01-4.44199E-04-8.60598E+00-5.42565E-07-9.39778E-07
 -1      3848 4.28722E+00 1.42245E+01-4.44199E-04-8.60598E+00 5.42590E-07 9.39766E-07
 -1      3849 4.28721E+00 1.42245E+01-4.33262E-04-8.60598E+00 2.03811E-06 3.53009E-06
 -1      3850 4.28719E+00 1.42245E+01-3.85378E-04-8.60599E+00 3.42670E-06 5.93520E-06
 -1      3851 4.28712E+00 1.42245E+01-2.91755E-04-8.60602E+00-9.69303E-06-1.67888E-05
 -1      3852 4.28711E+00 1.42245E+01-2.25982E-04-8.60603E+00-4.93334E-05-8.54479E-05
 -1      3853 5.21390E+00 1.32977E+01-2.25982E-04-9.07826E+00 5.37378E-05 8.27489E-05
 -1      3854 5.21392E+00 1.32977E+01-2.91755E-04-9.07825E+00 1.05584E-05 1.62585E-05
 -1      3855 5.21398E+00 1.32977E+01-3.85378E-04-9.07821E+00-3.73260E-06-5.74773E-06
 -1      3856 5.21400E+00 1.32978E+01-4.33262E-04-9.07820E+00-2.22004E-06-3.41859E-06
 -1      3857 5.21400E+00 1.32978E+01-4.44199E-04-9.07820E+00-5.91003E-07-9.10092E-07
 -1      3858 5.21400E+00 1.32978E+01-4.44199E-04-9.07820E+00 5.91029E-07 9.10080E-07
 -1      3859 5.21400E+00 1.32978E+01-4.33262E-04-9.07820E+00 2.22007E-06 3.41858E-06
 -1      3860 5.21398E+00 1.32977E+01-3.85378E-04-9.07821E+00 3.73263E-06 5.74772E-06
 -1      3861 5.21392E+00 1.32977E+01-2.91755E-04-9.07825E+00-1.05584E-05-1.62585E-05
 -1      3862 5.21390E+00 1.32977E+01-2.25982E-04-9.07826E+00-5.37378E-05-8.27489E-05
 -1      3863 6.18498E+00 1.23266E+01-2.25981E-04-9.45102E+00 5.79949E-05 7.98231E-05
 -1      3864 6.18499E+00 1.23266E+01-2.91754E-04-9.45101E+00 1.13949E-05 1.56836E-05
 -1      3865 6.18506E+00 1.23267E+01-3.85378E-04-9.45097E+00-4.02830E-06-5.54452E-06
 -1      3866 6.18507E+00 1.23267E+01-4.33262E-04-9.45096E+00-2.39591E-06-3.29774E-06
 -1      3867 6.18508E+00 1.23267E+01-4.44199E-04-9.45096E+00-6.37825E-07-8.77924E-07
 -1      3868 6.18508E+00 1.23267E+01-4.44199E-04-9.45096E+00 6.37846E-07 8.77901E-07
 -1      3869 6.18507E+00 1.23267E+01-4.33262E-04-9.45096E+00 2.39593E-06 3.29771E-06
 -1      3870 6.18506E+00 1.23267E+01-3.85378E-04-9.45097E+00 4.02832E-06 5.54450E-06
 -1      3871 6.18499E+00 1.23266E+01-2.91754E-04-9.45101E+00-1.13948E-05-1.56837E-05
 -1      3872 6.18498E+00 1.23266E+01-2.25981E-04-9.45102E+00-5.79949E-05-7.98231E-05
 -1      3873 7.18971E+00 1.13219E+01-2.25981E-04-9.72023E+00 6.20930E-05 7.66785E-05
 -1      3874 7.18972E+00 1.13219E+01-2.91754E-04-9.72023E+00 1.22001E-05 1.50658E-05
 -1      3875 7.18977E+00 1.13220E+01-3.85377E-04-9.72019E+00-4.31296E-06-5.32610E-06
 -1      3876 7.18979E+00 1.13220E+01-4.33261E-04-9.72017E+00-2.56522E-06-3.16782E-06
 -1      3877 7.18979E+00 1.13220E+01-4.44199E-04-9.72017E+00-6.82895E-07-8.43335E-07
 -1      3878 7.18979E+00 1.13220E+01-4.44199E-04-9.72017E+00 6.82920E-07 8.43318E-07
 -1      3879 7.18979E+00 1.13220E+01-4.33261E-04-9.72017E+00 2.56524E-06 3.16780E-06
 -1      3880 7.18977E+00 1.13220E+01-3.85377E-04-9.72019E+00 4.31298E-06 5.32608E-06
 -1      3881 7.18972E+00 1.13219E+01-2.91754E-04-9.72023E+00-1.22000E-05-1.50658E-05
 -1      3882 7.18971E+00 1.13219E+01-2.25981E-04-9.72023E+00-6.20930E-05-7.66785E-05
 -1      3883 8.21707E+00 1.02945E+01-2.25981E-04-9.88295E+00 6.60210E-05 7.33237E-05
 -1      3884 8.21708E+00 1.02946E+01-2.91754E-04-9.88294E+00 1.29718E-05 1.44066E-05
 -1      3885 8.21713E+00 1.02946E+01-3.85377E-04-9.88290E+00-4.58580E-06-5.09306E-06
 -1      3886 8.21714E+00 1.02946E+01-4.33262E-04-9.88289E+00-2.72750E-06-3.02921E-06
 -1      3887 8.21715E+00 1.02946E+01-4.44199E-04-9.88289E+00-7.26100E-07-8.06438E-07
 -1      3888 8.21715E+00 1.02946E+01-4.44199E-04-9.88289E+00 7.26122E-07 8.06414E-07
 -1      3889 8.21714E+00 1.02946E+01-4.33262E-04-9.88289E+00 2.72753E-06 3.02919E-06
 -1      3890 8.21713E+00 1.02946E+01-3.85377E-04-9.88290E+00 4.58583E-06 5.09304E-06
 -1      3891 8.21708E+00 1.02946E+01-2.91754E-04-9.88294E+00-1.29718E-05-1.44067E-05
 -1      3892 8.21707E+00 1.02945E+01-2.25981E-04-9.88295E+00-6.60210E-05-7.33237E-05
 -1      3893 9.25581E+00 9.25581E+00-2.25982E-04-9.93739E+00 6.97680E-05 6.97679E-05
 -1      3894 9.25581E+00 9.25581E+00-2.91755E-04-9.93738E+00 1.37080E-05 1.37080E-05
 -1      3895 9.25586E+00 9.25586E+00-3.85378E-04-9.93734E+00-4.84607E-06-4.84607E-06
 -1      3896 9.25588E+00 9.25588E+00-4.33262E-04-9.93733E+00-2.88231E-06-2.88232E-06
 -1      3897 9.25588E+00 9.25588E+00-4.44200E-04-9.93733E+00-7.67313E-07-7.67336E-07
 -1      3898 9.25588E+00 9.25588E+00-4.44200E-04-9.93733E+00 7.67336E-07 7.67301E-07
 -1      3899 9.25588E+00 9.25588E+00-4.33262E-04-9.93733E+00 2.88233E-06 2.88229E-06
 -1      3900 9.25586E+00 9.25586E+00-3.85378E-04-9.93734E+00 4.84609E-06 4.84605E-06
 -1      3901 9.25581E+00 9.25581E+00-2.91755E-04-9.93738E+00-1.37080E-05-1.37080E-05
 -1      3902 9.25581E+00 9.25581E+00-2.25982E-04-9.93739E+00-6.97679E-05-6.97679E-05
 -1      3903 1.02945E+01 8.21707E+00-2.25983E-04-9.88295E+00 7.33237E-05 6.60210E-05
 -1      3904 1.02946E+01 8.21708E+00-2.91756E-04-9.88294E+00 1.44067E-05 1.29718E-05
 -1      3905 1.02946E+01 8.21713E+00-3.85379E-04-9.88290E+00-5.09304E-06-4.58581E-06
 -1      3906 1.02946E+01 8.21714E+00-4.33263E-04-9.88289E+00-3.02919E-06-2.72752E-06
 -1      3907 1.02946E+01 8.21715E+00-4.44200E-04-9.88289E+00-8.06415E-07-7.26121E-07
 -1      3908 1.02946E+01 8.21715E+00-4.44200E-04-9.88289E+00 8.06437E-07 7.26098E-07
 -1      3909 1.02946E+01 8.21714E+00-4.33263E-04-9.88289E+00 3.02922E-06 2.72750E-06
 -1      3910 1.02946E+01 8.21713E+00-3.85379E-04-9.88290E+00 5.09306E-06 4.58580E-06
 -1      3911 1.02946E+01 8.21708E+00-2.91756E-04-9.88294E+00-1.44067E-05-1.29718E-05
 -1      3912 1.02945E+01 8.21707E+00-2.25983E-04-9.88295E+00-7.33237E-05-6.60210E-05
 -1      3913 1.13219E+01 7.18971E+00-2.25983E-04-9.72024E+00 7.66785E-05 6.20930E-05
 -1      3914 1.13219E+01 7.18972E+00-2.91756E-04-9.72023E+00 1.50658E-05 1.22000E-05
 -1      3915 1.13220E+01 7.18977E+00-3.85379E-04-9.72019E+00-5.32606E-06-4.31299E-06
 -1      3916 1.13220E+01 7.18979E+00-4.33263E-04-9.72017E+00-3.16779E-06-2.56525E-06
 -1      3917 1.13220E+01 7.18979E+00-4.44200E-04-9.72017E+00-8.43312E-07-6.82925E-07
 -1      3918 1.13220E+01 7.18979E+00-4.44200E-04-9.72017E+00 8.43332E-07 6.82900E-07
 -1      3919 1.13220E+01 7.18979E+00-4.33263E-04-9.72017E+00 3.16781E-06 2.56523E-06
 -1      3920 1.13220E+01 7.18977E+00-3.85379E-04-9.72019E+00 5.32608E-06 4.31297E-06
 -1      3921 1.13219E+01 7.18972E+00-2.91756E-04-9.72023E+00-1.50658E-05-1.22001E-05
 -1      3922 1.13219E+01 7.18971E+00-2.25983E-04-9.72024E+00-7.66785E-05-6.20930E-05
 -1      3923 1.23266E+01 6.18498E+00-2.25983E-04-9.45102E+00 7.98231E-05 5.79949E-05
 -1      3924 1.23266E+01 6.18499E+00-2.91756E-04-9.45101E+00 1.56837E-05 1.13948E-05
 -1      3925 1.23267E+01 6.18506E+00-3.85379E-04-9.45097E+00-5.54450E-06-4.02833E-06
 -1      3926 1.23267E+01 6.18507E+00-4.33263E-04-9.45096E+00-3.29771E-06-2.39595E-06
 -1      3927 1.23267E+01 6.18508E+00-4.44200E-04-9.45096E+00-8.77899E-07-6.37851E-07
 -1      3928 1.23267E+01 6.18508E+00-4.44200E-04-9.45096E+00 8.77920E-07 6.37825E-07
 -1      3929 1.23267E+01 6.18507E+00-4.33263E-04-9.45096E+00 3.29773E-06 2.39592E-06
 -1      3930 1.23267E+01 6.18506E+00-3.85379E-04-9.45097E+00 5.54451E-06 4.02830E-06
 -1      3931 1.23266E+01 6.18499E+00-2.91756E-04-9.45101E+00-1.56837E-05-1.13949E-05
 -1      3932 1.23266E+01 6.18498E+00-2.25983E-04-9.45102E+00-7.98231E-05-5.79949E-05
 -1      3933 1.32977E+01 5.21391E+00-2.25983E-04-9.07826E+00 8.27489E-05 5.37378E-05
 -1      3934 1.32977E+01 5.21392E+00-2.91756E-04-9.07825E+00 1.62585E-05 1.05584E-05
 -1      3935 1.32977E+01 5.21398E+00-3.85379E-04-9.07821E+00-5.74772E-06-3.73263E-06
 -1      3936 1.32978E+01 5.21400E+00-4.33263E-04-9.07820E+00-3.41858E-06-2.22007E-06
 -1      3937 1.32978E+01 5.21400E+00-4.44200E-04-9.07820E+00-9.10076E-07-5.91030E-07
 -1      3938 1.32978E+01 5.21400E+00-4.44200E-04-9.07820E+00 9.10096E-07 5.91004E-07
 -1      3939 1.32978E+01 5.21400E+00-4.33263E-04-9.07820E+00 3.41860E-06 2.22005E-06
 -1      3940 1.32977E+01 5.21398E+00-3.85379E-04-9.07821E+00 5.74773E-06 3.73261E-06
 -1      3941 1.32977E+01 5.21392E+00-2.91756E-04-9.07825E+00-1.62585E-05-1.05584E-05
 -1      3942 1.32977E+01 5.21391E+00-2.25983E-04-9.07826E+00-8.27489E-05-5.37378E-05
 -1      3943 1.42245E+01 4.28711E+00-2.25983E-04-8.60603E+00 8.54479E-05 4.93334E-05
 -1      3944 1.42245E+01 4.28712E+00-2.91756E-04-8.60602E+00 1.67888E-05 9.69302E-06
 -1      3945 1.42245E+01 4.28719E+00-3.85379E-04-8.60599E+00-5.93519E-06-3.42671E-06
 -1      3946 1.42245E+01 4.28721E+00-4.33263E-04-8.60598E+00-3.53008E-06-2.03812E-06
 -1      3947 1.42245E+01 4.28722E+00-4.44200E-04-8.60598E+00-9.39762E-07-5.42591E-07
 -1      3948 1.42245E+01 4.28722E+00-4.44200E-04-8.60598E+00 9.39778E-07 5.42568E-07
 -1      3949 1.42245E+01 4.28721E+00-4.33263E-04-8.60598E+00 3.53010E-06 2.03809E-06
 -1      3950 1.42245E+01 4.28719E+00-3.85379E-04-8.60599E+00 5.93520E-06 3.42669E-06
 -1      3951 1.42245E+01 4.28712E+00-2.91756E-04-8.60602E+00-1.67888E-05-9.69304E-06
 -1      3952 1.42245E+01 4.28711E+00-2.25983E-04-8.60603E+00-8.54479E-05-4.93334E-05
 -1      3953 1.50969E+01 3.41475E+00-2.25983E-04-8.03952E+00 8.79127E-05 4.47938E-05
 -1      3954 1.50969E+01 3.41477E+00-2.91756E-04-8.03951E+00 1.72731E-05 8.80108E-06
 -1      3955 1.50969E+01 3.41484E+00-3.85379E-04-8.03948E+00-6.10640E-06-3.11138E-06
 -1      3956 1.50969E+01 3.41486E+00-4.33263E-04-8.03947E+00-3.63192E-06-1.85057E-06
 -1      3957 1.50969E+01 3.41487E+00-4.44200E-04-8.03946E+00-9.66875E-07-4.92663E-07
 -1      3958 1.50969E+01 3.41487E+00-4.44200E-04-8.03946E+00 9.66890E-07 4.92639E-07
 -1      3959 1.50969E+01 3.41486E+00-4.33263E-04-8.03947E+00 3.63193E-06 1.85055E-06
 -1      3960 1.50969E+01 3.41484E+00-3.85379E-04-8.03948E+00 6.10642E-06 3.11137E-06
 -1      3961 1.50969E+01 3.41477E+00-2.91756E-04-8.03951E+00-1.72731E-05-8.80109E-06
 -1      3962 1.50969E+01 3.41475E+00-2.25983E-04-8.03952E+00-8.79127E-05-4.47938E-05
 -1      3963 1.59052E+01 2.60639E+00-2.25983E-04-7.38492E+00 9.01366E-05 4.01314E-05
 -1      3964 1.59052E+01 2.60641E+00-2.91756E-04-7.38491E+00 1.77101E-05 7.88502E-06
 -1      3965 1.59052E+01 2.60648E+00-3.85379E-04-7.38488E+00-6.26087E-06-2.78752E-06
 -1      3966 1.59052E+01 2.60651E+00-4.33264E-04-7.38487E+00-3.72379E-06-1.65795E-06
 -1      3967 1.59052E+01 2.60651E+00-4.44201E-04-7.38487E+00-9.91334E-07-4.41381E-07
 -1      3968 1.59052E+01 2.60651E+00-4.44201E-04-7.38487E+00 9.91349E-07 4.41361E-07
 -1      3969 1.59052E+01 2.60651E+00-4.33264E-04-7.38487E+00 3.72381E-06 1.65793E-06
 -1      3970 1.59052E+01 2.60648E+00-3.85379E-04-7.38488E+00 6.26089E-06 2.78751E-06
 -1      3971 1.59052E+01 2.60641E+00-2.91756E-04-7.38491E+00-1.77101E-05-7.88504E-06
 -1      3972 1.59052E+01 2.60639E+00-2.25983E-04-7.38492E+00-9.01366E-05-4.01314E-05
 -1      3973 1.66407E+01 1.87089E+00-2.25983E-04-6.64941E+00 9.21134E-05 3.53590E-05
 -1      3974 1.66407E+01 1.87090E+00-2.91756E-04-6.64941E+00 1.80985E-05 6.94734E-06
 -1      3975 1.66407E+01 1.87098E+00-3.85379E-04-6.64938E+00-6.39818E-06-2.45604E-06
 -1      3976 1.66407E+01 1.87100E+00-4.33264E-04-6.64937E+00-3.80546E-06-1.46079E-06
 -1      3977 1.66408E+01 1.87101E+00-4.44201E-04-6.64937E+00-1.01308E-06-3.88896E-07
 -1      3978 1.66408E+01 1.87101E+00-4.44201E-04-6.64937E+00 1.01308E-06 3.88875E-07
 -1      3979 1.66407E+01 1.87100E+00-4.33264E-04-6.64937E+00 3.80546E-06 1.46077E-06
 -1      3980 1.66407E+01 1.87098E+00-3.85379E-04-6.64938E+00 6.39818E-06 2.45603E-06
 -1      3981 1.66407E+01 1.87090E+00-2.91756E-04-6.64941E+00-1.80985E-05-6.94735E-06
 -1      3982 1.66407E+01 1.87089E+00-2.25983E-04-6.64941E+00-9.21134E-05-3.53590E-05
 -1      3983 1.72953E+01 1.21629E+00-2.25983E-04-5.84105E+00 9.38377E-05 3.04897E-05
 -1      3984 1.72953E+01 1.21630E+00-2.91756E-04-5.84105E+00 1.84372E-05 5.99061E-06
 -1      3985 1.72953E+01 1.21639E+00-3.85379E-04-5.84102E+00-6.51795E-06-2.11783E-06
 -1      3986 1.72953E+01 1.21641E+00-4.33263E-04-5.84101E+00-3.87670E-06-1.25963E-06
 -1      3987 1.72953E+01 1.21641E+00-4.44201E-04-5.84101E+00-1.03204E-06-3.35344E-07
 -1      3988 1.72953E+01 1.21641E+00-4.44201E-04-5.84101E+00 1.03205E-06 3.35321E-07
 -1      3989 1.72953E+01 1.21641E+00-4.33263E-04-5.84101E+00 3.87670E-06 1.25961E-06
 -1      3990 1.72953E+01 1.21639E+00-3.85379E-04-5.84102E+00 6.51795E-06 2.11780E-06
 -1      3991 1.72953E+01 1.21630E+00-2.91756E-04-5.84105E+00-1.84372E-05-5.99063E-06
 -1      3992 1.72953E+01 1.21629E+00-2.25983E-04-5.84105E+00-9.38377E-05-3.04897E-05
 -1      3993 1.78618E+01 6.49773E-01-2.25983E-04-4.96870E+00 9.53048E-05 2.55368E-05
 -1      3994 1.78618E+01 6.49790E-01-2.91756E-04-4.96869E+00 1.87255E-05 5.01747E-06
 -1      3995 1.78619E+01 6.49874E-01-3.85379E-04-4.96867E+00-6.61986E-06-1.77380E-06
 -1      3996 1.78619E+01 6.49899E-01-4.33263E-04-4.96866E+00-3.93731E-06-1.05501E-06
 -1      3997 1.78619E+01 6.49903E-01-4.44201E-04-4.96866E+00-1.04818E-06-2.80874E-07
 -1      3998 1.78619E+01 6.49903E-01-4.44201E-04-4.96866E+00 1.04818E-06 2.80843E-07
 -1      3999 1.78619E+01 6.49899E-01-4.33263E-04-4.96866E+00 3.93731E-06 1.05498E-06
 -1      4000 1.78619E+01 6.49874E-01-3.85379E-04-4.96867E+00 6.61986E-06 1.77377E-06
 -1      4001 1.78618E+01 6.49790E-01-2.91756E-04-4.96869E+00-1.87255E-05-5.01749E-06
 -1      4002 1.78618E+01 6.49773E-01-2.25983E-04-4.96870E+00-9.53048E-05-2.55368E-05
 -1      4003 1.83341E+01 1.77548E-01-2.25983E-04-4.04190E+00 9.65107E-05 2.05140E-05
 -1      4004 1.83341E+01 1.77565E-01-2.91756E-04-4.04190E+00 1.89624E-05 4.03058E-06
 -1      4005 1.83341E+01 1.77651E-01-3.85379E-04-4.04188E+00-6.70361E-06-1.42491E-06
 -1      4006 1.83341E+01 1.77676E-01-4.33263E-04-4.04187E+00-3.98712E-06-8.47505E-07
 -1      4007 1.83341E+01 1.77681E-01-4.44201E-04-4.04187E+00-1.06144E-06-2.25631E-07
 -1      4008 1.83341E+01 1.77681E-01-4.44201E-04-4.04187E+00 1.06145E-06 2.25602E-07
 -1      4009 1.83341E+01 1.77676E-01-4.33263E-04-4.04187E+00 3.98713E-06 8.47475E-07
 -1      4010 1.83341E+01 1.77651E-01-3.85379E-04-4.04188E+00 6.70362E-06 1.42489E-06
 -1      4011 1.83341E+01 1.77565E-01-2.91756E-04-4.04190E+00-1.89624E-05-4.03060E-06
 -1      4012 1.83341E+01 1.77548E-01-2.25983E-04-4.04190E+00-9.65107E-05-2.05140E-05
 -1      4013 1.87068E+01-1.95214E-01-2.25983E-04-3.07082E+00 9.74520E-05 1.54349E-05
 -1      4014 1.87068E+01-1.95197E-01-2.91756E-04-3.07082E+00 1.91474E-05 3.03264E-06
 -1      4015 1.87068E+01-1.95109E-01-3.85379E-04-3.07081E+00-6.76900E-06-1.07212E-06
 -1      4016 1.87068E+01-1.95083E-01-4.33263E-04-3.07080E+00-4.02601E-06-6.37674E-07
 -1      4017 1.87068E+01-1.95079E-01-4.44201E-04-3.07080E+00-1.07179E-06-1.69771E-07
 -1      4018 1.87068E+01-1.95079E-01-4.44201E-04-3.07080E+00 1.07179E-06 1.69742E-07
 -1      4019 1.87068E+01-1.95083E-01-4.33263E-04-3.07080E+00 4.02602E-06 6.37648E-07
 -1      4020 1.87068E+01-1.95109E-01-3.85379E-04-3.07081E+00 6.76900E-06 1.07210E-06
 -1      4021 1.87068E+01-1.95197E-01-2.91756E-04-3.07082E+00-1.91474E-05-3.03266E-06
 -1      4022 1.87068E+01-1.95214E-01-2.25983E-04-3.07082E+00-9.74520E-05-1.54349E-05
 -1      4023 1.89760E+01-4.64429E-01-2.25983E-04-2.06610E+00 9.81263E-05 1.03135E-05
 -1      4024 1.89760E+01-4.64412E-01-2.91756E-04-2.06610E+00 1.92799E-05 2.02639E-06
 -1      4025 1.89760E+01-4.64323E-01-3.85379E-04-2.06609E+00-6.81584E-06-7.16385E-07
 -1      4026 1.89760E+01-4.64296E-01-4.33263E-04-2.06609E+00-4.05387E-06-4.26091E-07
 -1      4027 1.89760E+01-4.64292E-01-4.44201E-04-2.06609E+00-1.07921E-06-1.13441E-07
 -1      4028 1.89760E+01-4.64292E-01-4.44201E-04-2.06609E+00 1.07922E-06 1.13421E-07
 -1      4029 1.89760E+01-4.64296E-01-4.33263E-04-2.06609E+00 4.05388E-06 4.26072E-07
 -1      4030 1.89760E+01-4.64323E-01-3.85379E-04-2.06609E+00 6.81584E-06 7.16368E-07
 -1      4031 1.89760E+01-4.64412E-01-2.91756E-04-2.06610E+00-1.92799E-05-2.02640E-06
 -1      4032 1.89760E+01-4.64429E-01-2.25983E-04-2.06610E+00-9.81263E-05-1.03135E-05
 -1      4033 1.91388E+01-6.27147E-01-2.25983E-04-1.03874E+00 9.85316E-05 5.16382E-06
 -1      4034 1.91388E+01-6.27129E-01-2.91756E-04-1.03874E+00 1.93595E-05 1.01459E-06
 -1      4035 1.91388E+01-6.27040E-01-3.85379E-04-1.03873E+00-6.84399E-06-3.58681E-07
 -1      4036 1.91388E+01-6.27013E-01-4.33263E-04-1.03873E+00-4.07061E-06-2.13336E-07
 -1      4037 1.91388E+01-6.27008E-01-4.44200E-04-1.03873E+00-1.08367E-06-5.67971E-08
 -1      4038 1.91388E+01-6.27008E-01-4.44200E-04-1.03873E+00 1.08367E-06 5.67877E-08
 -1      4039 1.91388E+01-6.27013E-01-4.33263E-04-1.03873E+00 4.07062E-06 2.13327E-07
 -1      4040 1.91388E+01-6.27040E-01-3.85379E-04-1.03873E+00 6.84399E-06 3.58673E-07
 -1      4041 1.91388E+01-6.27129E-01-2.91756E-04-1.03874E+00-1.93595E-05-1.01459E-06
 -1      4042 1.91388E+01-6.27147E-01-2.25983E-04-1.03874E+00-9.85316E-05-5.16382E-06
 -1      4043-5.76082E-01 1.90878E+01-1.64370E-04-1.03338E+00 6.84323E-06 1.30577E-04
 -1      4044-5.76101E-01 1.90878E+01-2.19011E-04-1.03338E+00 3.02726E-06 5.77635E-05
 -1      4045-5.76032E-01 1.90878E+01-2.93588E-04-1.03338E+00 4.38104E-07 8.35949E-06
 -1      4046-5.76004E-01 1.90878E+01-3.37338E-04-1.03337E+00-6.84936E-08-1.30696E-06
 -1      4047-5.75999E-01 1.90878E+01-3.49777E-04-1.03337E+00-4.37282E-08-8.34399E-07
 -1      4048-5.75999E-01 1.90878E+01-3.49777E-04-1.03337E+00 4.37286E-08 8.34398E-07
 -1      4049-5.76004E-01 1.90878E+01-3.37338E-04-1.03337E+00 6.84937E-08 1.30696E-06
 -1      4050-5.76032E-01 1.90878E+01-2.93588E-04-1.03338E+00-4.38104E-07-8.35949E-06
 -1      4051-5.76101E-01 1.90878E+01-2.19011E-04-1.03338E+00-3.02726E-06-5.77635E-05
 -1      4052-5.76082E-01 1.90878E+01-1.64370E-04-1.03338E+00-6.84323E-06-1.30577E-04
 -1      4053-4.14204E-01 1.89259E+01-1.64370E-04-2.05543E+00 1.36677E-05 1.30039E-04
 -1      4054-4.14223E-01 1.89259E+01-2.19011E-04-2.05543E+00 6.04621E-06 5.75259E-05
 -1      4055-4.14154E-01 1.89259E+01-2.93588E-04-2.05543E+00 8.75006E-07 8.32510E-06
 -1      4056-4.14127E-01 1.89259E+01-3.37338E-04-2.05543E+00-1.36800E-07-1.30160E-06
 -1      4057-4.14122E-01 1.89259E+01-3.49777E-04-2.05543E+00-8.73370E-08-8.30969E-07
 -1      4058-4.14122E-01 1.89259E+01-3.49777E-04-2.05543E+00 8.73380E-08 8.30966E-07
 -1      4059-4.14127E-01 1.89259E+01-3.37338E-04-2.05543E+00 1.36802E-07 1.30159E-06
 -1      4060-4.14154E-01 1.89259E+01-2.93588E-04-2.05543E+00-8.75005E-07-8.32510E-06
 -1      4061-4.14223E-01 1.89259E+01-2.19011E-04-2.05543E+00-6.04621E-06-5.75259E-05
 -1      4062-4.14204E-01 1.89259E+01-1.64370E-04-2.05543E+00-1.36677E-05-1.30039E-04
 -1      4063-1.46379E-01 1.86581E+01-1.64370E-04-3.05497E+00 2.04547E-05 1.29146E-04
 -1      4064-1.46398E-01 1.86581E+01-2.19010E-04-3.05497E+00 9.04860E-06 5.71306E-05
 -1      4065-1.46330E-01 1.86581E+01-2.93588E-04-3.05496E+00 1.30951E-06 8.26790E-06
 -1      4066-1.46303E-01 1.86581E+01-3.37337E-04-3.05496E+00-2.04734E-07-1.29265E-06
 -1      4067-1.46298E-01 1.86581E+01-3.49777E-04-3.05496E+00-1.30707E-07-8.25260E-07
 -1      4068-1.46298E-01 1.86581E+01-3.49777E-04-3.05496E+00 1.30710E-07 8.25256E-07
 -1      4069-1.46303E-01 1.86581E+01-3.37337E-04-3.05496E+00 2.04739E-07 1.29265E-06
 -1      4070-1.46330E-01 1.86581E+01-2.93588E-04-3.05496E+00-1.30950E-06-8.26790E-06
 -1      4071-1.46398E-01 1.86581E+01-2.19010E-04-3.05497E+00-9.04860E-06-5.71306E-05
 -1      4072-1.46379E-01 1.86581E+01-1.64370E-04-3.05497E+00-2.04547E-05-1.29146E-04
 -1      4073 2.24459E-01 1.82872E+01-1.64370E-04-4.02104E+00 2.71857E-05 1.27898E-04
 -1      4074 2.24440E-01 1.82872E+01-2.19011E-04-4.02104E+00 1.20262E-05 5.65787E-05
 -1      4075 2.24507E-01 1.82872E+01-2.93588E-04-4.02103E+00 1.74042E-06 8.18804E-06
 -1      4076 2.24533E-01 1.82872E+01-3.37338E-04-4.02102E+00-2.72108E-07-1.28016E-06
 -1      4077 2.24538E-01 1.82873E+01-3.49777E-04-4.02102E+00-1.73718E-07-8.17283E-07
 -1      4078 2.24538E-01 1.82873E+01-3.49777E-04-4.02102E+00 1.73723E-07 8.17285E-07
 -1      4079 2.24533E-01 1.82872E+01-3.37338E-04-4.02102E+00 2.72111E-07 1.28016E-06
 -1      4080 2.24507E-01 1.82872E+01-2.93588E-04-4.02103E+00-1.74041E-06-8.18804E-06
 -1      4081 2.24440E-01 1.82872E+01-2.19011E-04-4.02104E+00-1.20262E-05-5.65787E-05
 -1      4082 2.24459E-01 1.82872E+01-1.64370E-04-4.02104E+00-2.71857E-05-1.27898E-04
 -1      4083 6.94246E-01 1.78175E+01-1.64370E-04-4.94305E+00 3.38421E-05 1.26300E-04
 -1      4084 6.94228E-01 1.78174E+01-2.19011E-04-4.94305E+00 1.49708E-05 5.58718E-05
 -1      4085 6.94293E-01 1.78175E+01-2.93588E-04-4.94303E+00 2.16657E-06 8.08573E-06
 -1      4086 6.94319E-01 1.78175E+01-3.37338E-04-4.94303E+00-3.38731E-07-1.26417E-06
 -1      4087 6.94324E-01 1.78175E+01-3.49777E-04-4.94303E+00-2.16253E-07-8.07075E-07
 -1      4088 6.94324E-01 1.78175E+01-3.49777E-04-4.94303E+00 2.16257E-07 8.07071E-07
 -1      4089 6.94319E-01 1.78175E+01-3.37338E-04-4.94303E+00 3.38736E-07 1.26416E-06
 -1      4090 6.94293E-01 1.78175E+01-2.93588E-04-4.94303E+00-2.16656E-06-8.08573E-06
 -1      4091 6.94228E-01 1.78174E+01-2.19011E-04-4.94305E+00-1.49708E-05-5.58718E-05
 -1      4092 6.94246E-01 1.78175E+01-1.64370E-04-4.94305E+00-3.38421E-05-1.26300E-04
 -1      4093 1.25784E+00 1.72539E+01-1.64370E-04-5.81090E+00 4.04058E-05 1.24356E-04
 -1      4094 1.25782E+00 1.72539E+01-2.19011E-04-5.81090E+00 1.78744E-05 5.50117E-05
 -1      4095 1.25788E+00 1.72539E+01-2.93588E-04-5.81088E+00 2.58678E-06 7.96125E-06
 -1      4096 1.25791E+00 1.72539E+01-3.37338E-04-5.81088E+00-4.04422E-07-1.24471E-06
 -1      4097 1.25791E+00 1.72539E+01-3.49777E-04-5.81087E+00-2.58191E-07-7.94651E-07
 -1      4098 1.25791E+00 1.72539E+01-3.49777E-04-5.81087E+00 2.58200E-07 7.94646E-07
 -1      4099 1.25791E+00 1.72539E+01-3.37338E-04-5.81088E+00 4.04429E-07 1.24470E-06
 -1      4100 1.25788E+00 1.72539E+01-2.93588E-04-5.81088E+00-2.58677E-06-7.96126E-06
 -1      4101 1.25782E+00 1.72539E+01-2.19011E-04-5.81090E+00-1.78744E-05-5.50117E-05
 -1      4102 1.25784E+00 1.72539E+01-1.64370E-04-5.81090E+00-4.04058E-05-1.24356E-04
 -1      4103 1.90905E+00 1.66026E+01-1.64370E-04-6.61509E+00 4.68587E-05 1.22071E-04
 -1      4104 1.90904E+00 1.66026E+01-2.19010E-04-6.61509E+00 2.07290E-05 5.40008E-05
 -1      4105 1.90910E+00 1.66027E+01-2.93588E-04-6.61507E+00 2.99989E-06 7.81496E-06
 -1      4106 1.90912E+00 1.66027E+01-3.37337E-04-6.61506E+00-4.69009E-07-1.22184E-06
 -1      4107 1.90913E+00 1.66027E+01-3.49777E-04-6.61506E+00-2.99426E-07-7.80050E-07
 -1      4108 1.90913E+00 1.66027E+01-3.49777E-04-6.61506E+00 2.99437E-07 7.80043E-07
 -1      4109 1.90912E+00 1.66027E+01-3.37337E-04-6.61506E+00 4.69021E-07 1.22183E-06
 -1      4110 1.90910E+00 1.66027E+01-2.93588E-04-6.61507E+00-2.99988E-06-7.81496E-06
 -1      4111 1.90904E+00 1.66026E+01-2.19010E-04-6.61509E+00-2.07290E-05-5.40009E-05
 -1      4112 1.90905E+00 1.66026E+01-1.64370E-04-6.61509E+00-4.68587E-05-1.22071E-04
 -1      4113 2.64077E+00 1.58709E+01-1.64370E-04-7.34680E+00 5.31832E-05 1.19451E-04
 -1      4114 2.64075E+00 1.58709E+01-2.19010E-04-7.34680E+00 2.35268E-05 5.28420E-05
 -1      4115 2.64081E+00 1.58709E+01-2.93588E-04-7.34678E+00 3.40478E-06 7.64725E-06
 -1      4116 2.64083E+00 1.58710E+01-3.37337E-04-7.34677E+00-5.32319E-07-1.19561E-06
 -1      4117 2.64084E+00 1.58710E+01-3.49777E-04-7.34677E+00-3.39841E-07-7.63315E-07
 -1      4118 2.64084E+00 1.58710E+01-3.49777E-04-7.34677E+00 3.39854E-07 7.63302E-07
 -1      4119 2.64083E+00 1.58710E+01-3.37337E-04-7.34677E+00 5.32330E-07 1.19561E-06
 -1      4120 2.64081E+00 1.58709E+01-2.93588E-04-7.34678E+00-3.40477E-06-7.64726E-06
 -1      4121 2.64075E+00 1.58709E+01-2.19010E-04-7.34680E+00-2.35268E-05-5.28420E-05
 -1      4122 2.64077E+00 1.58709E+01-1.64370E-04-7.34680E+00-5.31832E-05-1.19451E-04
 -1      4123 3.44495E+00 1.50668E+01-1.64370E-04-7.99802E+00 5.93619E-05 1.16504E-04
 -1      4124 3.44494E+00 1.50667E+01-2.19011E-04-7.99802E+00 2.62601E-05 5.15383E-05
 -1      4125 3.44499E+00 1.50668E+01-2.93588E-04-7.99799E+00 3.80034E-06 7.45858E-06
 -1      4126 3.44502E+00 1.50668E+01-3.37338E-04-7.99798E+00-5.94157E-07-1.16612E-06
 -1      4127 3.44502E+00 1.50668E+01-3.49777E-04-7.99798E+00-3.79321E-07-7.44481E-07
 -1      4128 3.44502E+00 1.50668E+01-3.49777E-04-7.99798E+00 3.79337E-07 7.44466E-07
 -1      4129 3.44502E+00 1.50668E+01-3.37338E-04-7.99798E+00 5.94172E-07 1.16610E-06
 -1      4130 3.44499E+00 1.50668E+01-2.93588E-04-7.99799E+00-3.80033E-06-7.45859E-06
 -1      4131 3.44494E+00 1.50667E+01-2.19011E-04-7.99802E+00-2.62601E-05-5.15383E-05
 -1      4132 3.44495E+00 1.50668E+01-1.64370E-04-7.99802E+00-5.93619E-05-1.16504E-04
 -1      4133 4.31281E+00 1.41989E+01-1.64370E-04-8.56161E+00 6.53779E-05 1.13238E-04
 -1      4134 4.31279E+00 1.41989E+01-2.19011E-04-8.56161E+00 2.89214E-05 5.00933E-05
 -1      4135 4.31284E+00 1.41989E+01-2.93588E-04-8.56158E+00 4.18549E-06 7.24946E-06
 -1      4136 4.31286E+00 1.41989E+01-3.37338E-04-8.56157E+00-6.54370E-07-1.13342E-06
 -1      4137 4.31287E+00 1.41989E+01-3.49777E-04-8.56157E+00-4.17762E-07-7.23607E-07
 -1      4138 4.31287E+00 1.41989E+01-3.49777E-04-8.56157E+00 4.17780E-07 7.23598E-07
 -1      4139 4.31286E+00 1.41989E+01-3.37338E-04-8.56157E+00 6.54388E-07 1.13341E-06
 -1      4140 4.31284E+00 1.41989E+01-2.93588E-04-8.56158E+00-4.18547E-06-7.24947E-06
 -1      4141 4.31279E+00 1.41989E+01-2.19011E-04-8.56161E+00-2.89214E-05-5.00933E-05
 -1      4142 4.31281E+00 1.41989E+01-1.64370E-04-8.56161E+00-6.53779E-05-1.13238E-04
 -1      4143 5.23482E+00 1.32769E+01-1.64370E-04-9.03139E+00 7.12147E-05 1.09661E-04
 -1      4144 5.23480E+00 1.32769E+01-2.19011E-04-9.03140E+00 3.15034E-05 4.85110E-05
 -1      4145 5.23485E+00 1.32769E+01-2.93588E-04-9.03137E+00 4.55916E-06 7.02048E-06
 -1      4146 5.23487E+00 1.32769E+01-3.37338E-04-9.03136E+00-7.12790E-07-1.09762E-06
 -1      4147 5.23488E+00 1.32769E+01-3.49777E-04-9.03136E+00-4.55059E-07-7.00747E-07
 -1      4148 5.23488E+00 1.32769E+01-3.49777E-04-9.03136E+00 4.55077E-07 7.00740E-07
 -1      4149 5.23487E+00 1.32769E+01-3.37338E-04-9.03136E+00 7.12808E-07 1.09761E-06
 -1      4150 5.23485E+00 1.32769E+01-2.93588E-04-9.03137E+00-4.55915E-06-7.02049E-06
 -1      4151 5.23480E+00 1.32769E+01-2.19011E-04-9.03140E+00-3.15034E-05-4.85110E-05
 -1      4152 5.23482E+00 1.32769E+01-1.64370E-04-9.03139E+00-7.12147E-05-1.09661E-04
 -1      4153 6.20088E+00 1.23108E+01-1.64370E-04-9.40223E+00 7.68563E-05 1.05784E-04
 -1      4154 6.20087E+00 1.23108E+01-2.19010E-04-9.40224E+00 3.39991E-05 4.67958E-05
 -1      4155 6.20091E+00 1.23108E+01-2.93588E-04-9.40221E+00 4.92034E-06 6.77223E-06
 -1      4156 6.20093E+00 1.23108E+01-3.37337E-04-9.40219E+00-7.69258E-07-1.05882E-06
 -1      4157 6.20094E+00 1.23109E+01-3.49777E-04-9.40219E+00-4.91111E-07-6.75981E-07
 -1      4158 6.20094E+00 1.23109E+01-3.49777E-04-9.40219E+00 4.91126E-07 6.75965E-07
 -1      4159 6.20093E+00 1.23108E+01-3.37337E-04-9.40219E+00 7.69271E-07 1.05881E-06
 -1      4160 6.20091E+00 1.23108E+01-2.93588E-04-9.40221E+00-4.92033E-06-6.77224E-06
 -1      4161 6.20087E+00 1.23108E+01-2.19010E-04-9.40224E+00-3.39991E-05-4.67958E-05
 -1      4162 6.20088E+00 1.23108E+01-1.64370E-04-9.40223E+00-7.68563E-05-1.05784E-04
 -1      4163 7.20042E+00 1.13113E+01-1.64370E-04-9.67006E+00 8.22873E-05 1.01616E-04
 -1      4164 7.20040E+00 1.13113E+01-2.19010E-04-9.67006E+00 3.64016E-05 4.49522E-05
 -1      4165 7.20045E+00 1.13113E+01-2.93588E-04-9.67003E+00 5.26803E-06 6.50544E-06
 -1      4166 7.20047E+00 1.13113E+01-3.37337E-04-9.67002E+00-8.23614E-07-1.01711E-06
 -1      4167 7.20047E+00 1.13113E+01-3.49777E-04-9.67002E+00-5.25813E-07-6.49348E-07
 -1      4168 7.20047E+00 1.13113E+01-3.49777E-04-9.67002E+00 5.25831E-07 6.49336E-07
 -1      4169 7.20047E+00 1.13113E+01-3.37337E-04-9.67002E+00 8.23632E-07 1.01710E-06
 -1      4170 7.20045E+00 1.13113E+01-2.93588E-04-9.67003E+00-5.26801E-06-6.50545E-06
 -1      4171 7.20040E+00 1.13113E+01-2.19010E-04-9.67006E+00-3.64016E-05-4.49523E-05
 -1      4172 7.20042E+00 1.13113E+01-1.64370E-04-9.67006E+00-8.22873E-05-1.01616E-04
 -1      4173 8.22247E+00 1.02892E+01-1.64370E-04-9.83193E+00 8.74927E-05 9.71705E-05
 -1      4174 8.22246E+00 1.02892E+01-2.19010E-04-9.83194E+00 3.87044E-05 4.29855E-05
 -1      4175 8.22250E+00 1.02893E+01-2.93588E-04-9.83191E+00 5.60127E-06 6.22083E-06
 -1      4176 8.22252E+00 1.02893E+01-3.37337E-04-9.83190E+00-8.75727E-07-9.72601E-07
 -1      4177 8.22252E+00 1.02893E+01-3.49777E-04-9.83189E+00-5.59081E-07-6.20937E-07
 -1      4178 8.22252E+00 1.02893E+01-3.49777E-04-9.83189E+00 5.59097E-07 6.20920E-07
 -1      4179 8.22252E+00 1.02893E+01-3.37337E-04-9.83190E+00 8.75743E-07 9.72585E-07
 -1      4180 8.22250E+00 1.02893E+01-2.93588E-04-9.83191E+00-5.60125E-06-6.22085E-06
 -1      4181 8.22246E+00 1.02892E+01-2.19010E-04-9.83194E+00-3.87043E-05-4.29855E-05
 -1      4182 8.22247E+00 1.02892E+01-1.64370E-04-9.83193E+00-8.74927E-05-9.71705E-05
 -1      4183 9.25585E+00 9.25585E+00-1.64371E-04-9.88609E+00 9.24583E-05 9.24583E-05
 -1      4184 9.25584E+00 9.25584E+00-2.19011E-04-9.88610E+00 4.09010E-05 4.09010E-05
 -1      4185 9.25588E+00 9.25588E+00-2.93589E-04-9.88607E+00 5.91916E-06 5.91916E-06
 -1      4186 9.25589E+00 9.25589E+00-3.37338E-04-9.88605E+00-9.25437E-07-9.25437E-07
 -1      4187 9.25589E+00 9.25589E+00-3.49778E-04-9.88605E+00-5.90815E-07-5.90830E-07
 -1      4188 9.25589E+00 9.25589E+00-3.49778E-04-9.88605E+00 5.90829E-07 5.90804E-07
 -1      4189 9.25589E+00 9.25589E+00-3.37338E-04-9.88605E+00 9.25450E-07 9.25416E-07
 -1      4190 9.25588E+00 9.25588E+00-2.93589E-04-9.88607E+00-5.91914E-06-5.91918E-06
 -1      4191 9.25584E+00 9.25584E+00-2.19011E-04-9.88610E+00-4.09010E-05-4.09010E-05
 -1      4192 9.25585E+00 9.25585E+00-1.64371E-04-9.88609E+00-9.24583E-05-9.24583E-05
 -1      4193 1.02892E+01 8.22247E+00-1.64371E-04-9.83193E+00 9.71705E-05 8.74927E-05
 -1      4194 1.02892E+01 8.22246E+00-2.19012E-04-9.83194E+00 4.29855E-05 3.87043E-05
 -1      4195 1.02893E+01 8.22250E+00-2.93590E-04-9.83191E+00 6.22085E-06 5.60126E-06
 -1      4196 1.02893E+01 8.22252E+00-3.37339E-04-9.83190E+00-9.72587E-07-8.75734E-07
 -1      4197 1.02893E+01 8.22252E+00-3.49778E-04-9.83189E+00-6.20922E-07-5.59095E-07
 -1      4198 1.02893E+01 8.22252E+00-3.49778E-04-9.83189E+00 6.20937E-07 5.59079E-07
 -1      4199 1.02893E+01 8.22252E+00-3.37339E-04-9.83190E+00 9.72602E-07 8.75721E-07
 -1      4200 1.02893E+01 8.22250E+00-2.93590E-04-9.83191E+00-6.22084E-06-5.60128E-06
 -1      4201 1.02892E+01 8.22246E+00-2.19012E-04-9.83194E+00-4.29855E-05-3.87044E-05
 -1      4202 1.02892E+01 8.22247E+00-1.64371E-04-9.83193E+00-9.71705E-05-8.74927E-05
 -1      4203 1.13113E+01 7.20042E+00-1.64371E-04-9.67006E+00 1.01616E-04 8.22873E-05
 -1      4204 1.13113E+01 7.20040E+00-2.19012E-04-9.67006E+00 4.49523E-05 3.64016E-05
 -1      4205 1.13113E+01 7.20045E+00-2.93590E-04-9.67003E+00 6.50547E-06 5.26800E-06
 -1      4206 1.13113E+01 7.20047E+00-3.37339E-04-9.67002E+00-1.01709E-06-8.23642E-07
 -1      4207 1.13113E+01 7.20047E+00-3.49779E-04-9.67002E+00-6.49331E-07-5.25836E-07
 -1      4208 1.13113E+01 7.20047E+00-3.49779E-04-9.67002E+00 6.49345E-07 5.25817E-07
 -1      4209 1.13113E+01 7.20047E+00-3.37339E-04-9.67002E+00 1.01710E-06 8.23627E-07
 -1      4210 1.13113E+01 7.20045E+00-2.93590E-04-9.67003E+00-6.50545E-06-5.26802E-06
 -1      4211 1.13113E+01 7.20040E+00-2.19012E-04-9.67006E+00-4.49523E-05-3.64016E-05
 -1      4212 1.13113E+01 7.20042E+00-1.64371E-04-9.67006E+00-1.01616E-04-8.22873E-05
 -1      4213 1.23108E+01 6.20088E+00-1.64371E-04-9.40223E+00 1.05784E-04 7.68563E-05
 -1      4214 1.23108E+01 6.20087E+00-2.19012E-04-9.40224E+00 4.67958E-05 3.39991E-05
 -1      4215 1.23108E+01 6.20091E+00-2.93590E-04-9.40221E+00 6.77225E-06 4.92032E-06
 -1      4216 1.23108E+01 6.20093E+00-3.37339E-04-9.40219E+00-1.05880E-06-7.69281E-07
 -1      4217 1.23109E+01 6.20094E+00-3.49778E-04-9.40219E+00-6.75961E-07-4.91129E-07
 -1      4218 1.23109E+01 6.20094E+00-3.49778E-04-9.40219E+00 6.75975E-07 4.91112E-07
 -1      4219 1.23108E+01 6.20093E+00-3.37339E-04-9.40219E+00 1.05882E-06 7.69260E-07
 -1      4220 1.23108E+01 6.20091E+00-2.93590E-04-9.40221E+00-6.77224E-06-4.92034E-06
 -1      4221 1.23108E+01 6.20087E+00-2.19012E-04-9.40224E+00-4.67958E-05-3.39991E-05
 -1      4222 1.23108E+01 6.20088E+00-1.64371E-04-9.40223E+00-1.05784E-04-7.68563E-05
 -1      4223 1.32769E+01 5.23482E+00-1.64371E-04-9.03139E+00 1.09661E-04 7.12147E-05
 -1      4224 1.32769E+01 5.23480E+00-2.19012E-04-9.03140E+00 4.85110E-05 3.15034E-05
 -1      4225 1.32769E+01 5.23485E+00-2.93590E-04-9.03137E+00 7.02049E-06 4.55915E-06
 -1      4226 1.32769E+01 5.23487E+00-3.37339E-04-9.03136E+00-1.09761E-06-7.12809E-07
 -1      4227 1.32769E+01 5.23488E+00-3.49778E-04-9.03136E+00-7.00737E-07-4.55077E-07
 -1      4228 1.32769E+01 5.23488E+00-3.49778E-04-9.03136E+00 7.00752E-07 4.55060E-07
 -1      4229 1.32769E+01 5.23487E+00-3.37339E-04-9.03136E+00 1.09762E-06 7.12793E-07
 -1      4230 1.32769E+01 5.23485E+00-2.93590E-04-9.03137E+00-7.02048E-06-4.55916E-06
 -1      4231 1.32769E+01 5.23480E+00-2.19012E-04-9.03140E+00-4.85110E-05-3.15034E-05
 -1      4232 1.32769E+01 5.23482E+00-1.64371E-04-9.03139E+00-1.09661E-04-7.12147E-05
 -1      4233 1.41989E+01 4.31281E+00-1.64371E-04-8.56161E+00 1.13238E-04 6.53779E-05
 -1      4234 1.41989E+01 4.31279E+00-2.19012E-04-8.56161E+00 5.00933E-05 2.89214E-05
 -1      4235 1.41989E+01 4.31284E+00-2.93590E-04-8.56158E+00 7.24947E-06 4.18547E-06
 -1      4236 1.41989E+01 4.31286E+00-3.37339E-04-8.56157E+00-1.13341E-06-6.54391E-07
 -1      4237 1.41989E+01 4.31287E+00-3.49778E-04-8.56157E+00-7.23593E-07-4.17781E-07
 -1      4238 1.41989E+01 4.31287E+00-3.49778E-04-8.56157E+00 7.23606E-07 4.17766E-07
 -1      4239 1.41989E+01 4.31286E+00-3.37339E-04-8.56157E+00 1.13342E-06 6.54376E-07
 -1      4240 1.41989E+01 4.31284E+00-2.93590E-04-8.56158E+00-7.24946E-06-4.18548E-06
 -1      4241 1.41989E+01 4.31279E+00-2.19012E-04-8.56161E+00-5.00933E-05-2.89214E-05
 -1      4242 1.41989E+01 4.31281E+00-1.64371E-04-8.56161E+00-1.13238E-04-6.53779E-05
 -1      4243 1.50668E+01 3.44495E+00-1.64371E-04-7.99802E+00 1.16504E-04 5.93619E-05
 -1      4244 1.50667E+01 3.44494E+00-2.19012E-04-7.99802E+00 5.15383E-05 2.62600E-05
 -1      4245 1.50668E+01 3.44499E+00-2.93590E-04-7.99799E+00 7.45858E-06 3.80033E-06
 -1      4246 1.50668E+01 3.44502E+00-3.37339E-04-7.99798E+00-1.16611E-06-5.94173E-07
 -1      4247 1.50668E+01 3.44502E+00-3.49778E-04-7.99798E+00-7.44471E-07-3.79338E-07
 -1      4248 1.50668E+01 3.44502E+00-3.49778E-04-7.99798E+00 7.44483E-07 3.79321E-07
 -1      4249 1.50668E+01 3.44502E+00-3.37339E-04-7.99798E+00 1.16612E-06 5.94158E-07
 -1      4250 1.50668E+01 3.44499E+00-2.93590E-04-7.99799E+00-7.45857E-06-3.80034E-06
 -1      4251 1.50667E+01 3.44494E+00-2.19012E-04-7.99802E+00-5.15383E-05-2.62601E-05
 -1      4252 1.50668E+01 3.44495E+00-1.64371E-04-7.99802E+00-1.16504E-04-5.93619E-05
 -1      4253 1.58709E+01 2.64077E+00-1.64372E-04-7.34680E+00 1.19451E-04 5.31832E-05
 -1      4254 1.58709E+01 2.64075E+00-2.19012E-04-7.34680E+00 5.28420E-05 2.35268E-05
 -1      4255 1.58709E+01 2.64081E+00-2.93590E-04-7.34678E+00 7.64725E-06 3.40477E-06
 -1      4256 1.58710E+01 2.64083E+00-3.37339E-04-7.34677E+00-1.19561E-06-5.32324E-07
 -1      4257 1.58710E+01 2.64084E+00-3.49779E-04-7.34677E+00-7.63304E-07-3.39852E-07
 -1      4258 1.58710E+01 2.64084E+00-3.49779E-04-7.34677E+00 7.63317E-07 3.39838E-07
 -1      4259 1.58710E+01 2.64083E+00-3.37339E-04-7.34677E+00 1.19562E-06 5.32310E-07
 -1      4260 1.58709E+01 2.64081E+00-2.93590E-04-7.34678E+00-7.64724E-06-3.40479E-06
 -1      4261 1.58709E+01 2.64075E+00-2.19012E-04-7.34680E+00-5.28420E-05-2.35268E-05
 -1      4262 1.58709E+01 2.64077E+00-1.64372E-04-7.34680E+00-1.19451E-04-5.31832E-05
 -1      4263 1.66026E+01 1.90905E+00-1.64372E-04-6.61509E+00 1.22071E-04 4.68587E-05
 -1      4264 1.66026E+01 1.90904E+00-2.19012E-04-6.61509E+00 5.40009E-05 2.07290E-05
 -1      4265 1.66027E+01 1.90910E+00-2.93590E-04-6.61507E+00 7.81497E-06 2.99987E-06
 -1      4266 1.66027E+01 1.90912E+00-3.37339E-04-6.61506E+00-1.22183E-06-4.69028E-07
 -1      4267 1.66027E+01 1.90913E+00-3.49779E-04-6.61506E+00-7.80045E-07-2.99441E-07
 -1      4268 1.66027E+01 1.90913E+00-3.49779E-04-6.61506E+00 7.80048E-07 2.99425E-07
 -1      4269 1.66027E+01 1.90912E+00-3.37339E-04-6.61506E+00 1.22183E-06 4.69012E-07
 -1      4270 1.66027E+01 1.90910E+00-2.93590E-04-6.61507E+00-7.81497E-06-2.99989E-06
 -1      4271 1.66026E+01 1.90904E+00-2.19012E-04-6.61509E+00-5.40009E-05-2.07290E-05
 -1      4272 1.66026E+01 1.90905E+00-1.64372E-04-6.61509E+00-1.22071E-04-4.68587E-05
 -1      4273 1.72539E+01 1.25784E+00-1.64371E-04-5.81090E+00 1.24356E-04 4.04058E-05
 -1      4274 1.72539E+01 1.25782E+00-2.19012E-04-5.81090E+00 5.50117E-05 1.78744E-05
 -1      4275 1.72539E+01 1.25788E+00-2.93590E-04-5.81088E+00 7.96126E-06 2.58676E-06
 -1      4276 1.72539E+01 1.25791E+00-3.37339E-04-5.81088E+00-1.24470E-06-4.04442E-07
 -1      4277 1.72539E+01 1.25791E+00-3.49779E-04-5.81087E+00-7.94648E-07-2.58207E-07
 -1      4278 1.72539E+01 1.25791E+00-3.49779E-04-5.81087E+00 7.94650E-07 2.58190E-07
 -1      4279 1.72539E+01 1.25791E+00-3.37339E-04-5.81088E+00 1.24470E-06 4.04423E-07
 -1      4280 1.72539E+01 1.25788E+00-2.93590E-04-5.81088E+00-7.96126E-06-2.58677E-06
 -1      4281 1.72539E+01 1.25782E+00-2.19012E-04-5.81090E+00-5.50117E-05-1.78744E-05
 -1      4282 1.72539E+01 1.25784E+00-1.64371E-04-5.81090E+00-1.24356E-04-4.04058E-05
 -1      4283 1.78175E+01 6.94246E-01-1.64371E-04-4.94305E+00 1.26300E-04 3.38421E-05
 -1      4284 1.78174E+01 6.94228E-01-2.19012E-04-4.94305E+00 5.58718E-05 1.49708E-05
 -1      4285 1.78175E+01 6.94293E-01-2.93590E-04-4.94303E+00 8.08572E-06 2.16656E-06
 -1      4286 1.78175E+01 6.94319E-01-3.37339E-04-4.94303E+00-1.26416E-06-3.38742E-07
 -1      4287 1.78175E+01 6.94324E-01-3.49779E-04-4.94303E+00-8.07073E-07-2.16265E-07
 -1      4288 1.78175E+01 6.94324E-01-3.49779E-04-4.94303E+00 8.07076E-07 2.16243E-07
 -1      4289 1.78175E+01 6.94319E-01-3.37339E-04-4.94303E+00 1.26417E-06 3.38720E-07
 -1      4290 1.78175E+01 6.94293E-01-2.93590E-04-4.94303E+00-8.08572E-06-2.16657E-06
 -1      4291 1.78174E+01 6.94228E-01-2.19012E-04-4.94305E+00-5.58718E-05-1.49708E-05
 -1      4292 1.78175E+01 6.94246E-01-1.64371E-04-4.94305E+00-1.26300E-04-3.38421E-05
 -1      4293 1.82872E+01 2.24459E-01-1.64372E-04-4.02104E+00 1.27898E-04 2.71856E-05
 -1      4294 1.82872E+01 2.24440E-01-2.19012E-04-4.02104E+00 5.65787E-05 1.20262E-05
 -1      4295 1.82872E+01 2.24507E-01-2.93590E-04-4.02103E+00 8.18804E-06 1.74041E-06
 -1      4296 1.82872E+01 2.24533E-01-3.37339E-04-4.02102E+00-1.28016E-06-2.72117E-07
 -1      4297 1.82873E+01 2.24538E-01-3.49779E-04-4.02102E+00-8.17281E-07-1.73730E-07
 -1      4298 1.82873E+01 2.24538E-01-3.49779E-04-4.02102E+00 8.17291E-07 1.73708E-07
 -1      4299 1.82872E+01 2.24533E-01-3.37339E-04-4.02102E+00 1.28016E-06 2.72096E-07
 -1      4300 1.82872E+01 2.24507E-01-2.93590E-04-4.02103E+00-8.18803E-06-1.74043E-06
 -1      4301 1.82872E+01 2.24440E-01-2.19012E-04-4.02104E+00-5.65787E-05-1.20262E-05
 -1      4302 1.82872E+01 2.24459E-01-1.64372E-04-4.02104E+00-1.27898E-04-2.71857E-05
 -1      4303 1.86581E+01-1.46379E-01-1.64372E-04-3.05497E+00 1.29146E-04 2.04547E-05
 -1      4304 1.86581E+01-1.46398E-01-2.19012E-04-3.05497E+00 5.71306E-05 9.04859E-06
 -1      4305 1.86581E+01-1.46330E-01-2.93590E-04-3.05496E+00 8.26791E-06 1.30950E-06
 -1      4306 1.86581E+01-1.46303E-01-3.37339E-04-3.05496E+00-1.29264E-06-2.04747E-07
 -1      4307 1.86581E+01-1.46298E-01-3.49779E-04-3.05496E+00-8.25254E-07-1.30719E-07
 -1      4308 1.86581E+01-1.46298E-01-3.49779E-04-3.05496E+00 8.25256E-07 1.30698E-07
 -1      4309 1.86581E+01-1.46303E-01-3.37339E-04-3.05496E+00 1.29265E-06 2.04727E-07
 -1      4310 1.86581E+01-1.46330E-01-2.93590E-04-3.05496E+00-8.26790E-06-1.30951E-06
 -1      4311 1.86581E+01-1.46398E-01-2.19012E-04-3.05497E+00-5.71306E-05-9.04860E-06
 -1      4312 1.86581E+01-1.46379E-01-1.64372E-04-3.05497E+00-1.29146E-04-2.04547E-05
 -1      4313 1.89259E+01-4.14204E-01-1.64371E-04-2.05543E+00 1.30039E-04 1.36677E-05
 -1      4314 1.89259E+01-4.14223E-01-2.19012E-04-2.05543E+00 5.75259E-05 6.04621E-06
 -1      4315 1.89259E+01-4.14154E-01-2.93590E-04-2.05543E+00 8.32510E-06 8.74994E-07
 -1      4316 1.89259E+01-4.14127E-01-3.37339E-04-2.05543E+00-1.30159E-06-1.36813E-07
 -1      4317 1.89259E+01-4.14122E-01-3.49779E-04-2.05543E+00-8.30963E-07-8.73468E-08
 -1      4318 1.89259E+01-4.14122E-01-3.49779E-04-2.05543E+00 8.30974E-07 8.73314E-08
 -1      4319 1.89259E+01-4.14127E-01-3.37339E-04-2.05543E+00 1.30160E-06 1.36798E-07
 -1      4320 1.89259E+01-4.14154E-01-2.93590E-04-2.05543E+00-8.32510E-06-8.75007E-07
 -1      4321 1.89259E+01-4.14223E-01-2.19012E-04-2.05543E+00-5.75259E-05-6.04622E-06
 -1      4322 1.89259E+01-4.14204E-01-1.64371E-04-2.05543E+00-1.30039E-04-1.36677E-05
 -1      4323 1.90878E+01-5.76082E-01-1.64371E-04-1.03338E+00 1.30577E-04 6.84323E-06
 -1      4324 1.90878E+01-5.76101E-01-2.19012E-04-1.03338E+00 5.77635E-05 3.02725E-06
 -1      4325 1.90878E+01-5.76032E-01-2.93590E-04-1.03338E+00 8.35949E-06 4.38100E-07
 -1      4326 1.90878E+01-5.76004E-01-3.37339E-04-1.03337E+00-1.30696E-06-6.84981E-08
 -1      4327 1.90878E+01-5.75999E-01-3.49779E-04-1.03337E+00-8.34394E-07-4.37324E-08
 -1      4328 1.90878E+01-5.75999E-01-3.49779E-04-1.03337E+00 8.34404E-07 4.37252E-08
 -1      4329 1.90878E+01-5.76004E-01-3.37339E-04-1.03337E+00 1.30697E-06 6.84912E-08
 -1      4330 1.90878E+01-5.76032E-01-2.93590E-04-1.03338E+00-8.35948E-06-4.38106E-07
 -1      4331 1.90878E+01-5.76101E-01-2.19012E-04-1.03338E+00-5.77635E-05-3.02726E-06
 -1      4332 1.90878E+01-5.76082E-01-1.64371E-04-1.03338E+00-1.30577E-04-6.84323E-06
 -1      4333-5.25427E-01 1.90372E+01-1.18764E-04-1.02806E+00 7.91130E-06 1.50957E-04
 -1      4334-5.25457E-01 1.90372E+01-1.58073E-04-1.02806E+00 4.53686E-06 8.65684E-05
 -1      4335-5.25411E-01 1.90372E+01-2.10676E-04-1.02806E+00 1.16221E-06 2.21762E-05
 -1      4336-5.25389E-01 1.90372E+01-2.44487E-04-1.02806E+00 9.74483E-08 1.85940E-06
 -1      4337-5.25384E-01 1.90372E+01-2.55537E-04-1.02806E+00-2.60461E-08-4.97007E-07
 -1      4338-5.25384E-01 1.90372E+01-2.55537E-04-1.02806E+00 2.60470E-08 4.97008E-07
 -1      4339-5.25389E-01 1.90372E+01-2.44487E-04-1.02806E+00-9.74478E-08-1.85940E-06
 -1      4340-5.25411E-01 1.90372E+01-2.10676E-04-1.02806E+00-1.16221E-06-2.21762E-05
 -1      4341-5.25457E-01 1.90372E+01-1.58073E-04-1.02806E+00-4.53686E-06-8.65684E-05
 -1      4342-5.25427E-01 1.90372E+01-1.18764E-04-1.02806E+00-7.91130E-06-1.50957E-04
 -1      4343-3.64382E-01 1.88762E+01-1.18764E-04-2.04485E+00 1.58009E-05 1.50336E-04
 -1      4344-3.64413E-01 1.88761E+01-1.58073E-04-2.04485E+00 9.06128E-06 8.62123E-05
 -1      4345-3.64367E-01 1.88762E+01-2.10676E-04-2.04485E+00 2.32123E-06 2.20850E-05
 -1      4346-3.64345E-01 1.88762E+01-2.44487E-04-2.04485E+00 1.94629E-07 1.85174E-06
 -1      4347-3.64340E-01 1.88762E+01-2.55537E-04-2.04485E+00-5.20221E-08-4.94967E-07
 -1      4348-3.64340E-01 1.88762E+01-2.55537E-04-2.04485E+00 5.20226E-08 4.94963E-07
 -1      4349-3.64345E-01 1.88762E+01-2.44487E-04-2.04485E+00-1.94627E-07-1.85175E-06
 -1      4350-3.64367E-01 1.88762E+01-2.10676E-04-2.04485E+00-2.32123E-06-2.20850E-05
 -1      4351-3.64413E-01 1.88761E+01-1.58073E-04-2.04485E+00-9.06128E-06-8.62123E-05
 -1      4352-3.64382E-01 1.88762E+01-1.18764E-04-2.04485E+00-1.58009E-05-1.50336E-04
 -1      4353-9.79363E-02 1.86097E+01-1.18764E-04-3.03924E+00 2.36472E-05 1.49303E-04
 -1      4354-9.79664E-02 1.86097E+01-1.58073E-04-3.03924E+00 1.35609E-05 8.56199E-05
 -1      4355-9.79212E-02 1.86097E+01-2.10676E-04-3.03924E+00 3.47389E-06 2.19333E-05
 -1      4356-9.78995E-02 1.86097E+01-2.44487E-04-3.03924E+00 2.91273E-07 1.83902E-06
 -1      4357-9.78944E-02 1.86097E+01-2.55536E-04-3.03923E+00-7.78548E-08-4.91564E-07
 -1      4358-9.78944E-02 1.86097E+01-2.55536E-04-3.03923E+00 7.78576E-08 4.91562E-07
 -1      4359-9.78995E-02 1.86097E+01-2.44487E-04-3.03924E+00-2.91270E-07-1.83902E-06
 -1      4360-9.79212E-02 1.86097E+01-2.10676E-04-3.03924E+00-3.47389E-06-2.19333E-05
 -1      4361-9.79664E-02 1.86097E+01-1.58073E-04-3.03924E+00-1.35609E-05-8.56199E-05
 -1      4362-9.79363E-02 1.86097E+01-1.18764E-04-3.03924E+00-2.36472E-05-1.49303E-04
 -1      4363 2.70992E-01 1.82408E+01-1.18764E-04-4.00033E+00 3.14287E-05 1.47861E-04
 -1      4364 2.70962E-01 1.82408E+01-1.58073E-04-4.00034E+00 1.80233E-05 8.47929E-05
 -1      4365 2.71007E-01 1.82408E+01-2.10676E-04-4.00033E+00 4.61703E-06 2.17214E-05
 -1      4366 2.71028E-01 1.82408E+01-2.44487E-04-4.00033E+00 3.87119E-07 1.82126E-06
 -1      4367 2.71033E-01 1.82408E+01-2.55537E-04-4.00032E+00-1.03475E-07-4.86812E-07
 -1      4368 2.71033E-01 1.82408E+01-2.55537E-04-4.00032E+00 1.03478E-07 4.86814E-07
 -1      4369 2.71028E-01 1.82408E+01-2.44487E-04-4.00033E+00-3.87116E-07-1.82126E-06
 -1      4370 2.71007E-01 1.82408E+01-2.10676E-04-4.00033E+00-4.61702E-06-2.17214E-05
 -1      4371 2.70962E-01 1.82408E+01-1.58073E-04-4.00034E+00-1.80233E-05-8.47929E-05
 -1      4372 2.70992E-01 1.82408E+01-1.18764E-04-4.00033E+00-3.14287E-05-1.47861E-04
 -1      4373 7.38361E-01 1.77734E+01-1.18764E-04-4.91760E+00 3.91241E-05 1.46013E-04
 -1      4374 7.38332E-01 1.77734E+01-1.58073E-04-4.91760E+00 2.24363E-05 8.37334E-05
 -1      4375 7.38375E-01 1.77734E+01-2.10676E-04-4.91759E+00 5.74751E-06 2.14500E-05
 -1      4376 7.38396E-01 1.77734E+01-2.44487E-04-4.91759E+00 4.81907E-07 1.79850E-06
 -1      4377 7.38401E-01 1.77734E+01-2.55537E-04-4.91759E+00-1.28811E-07-4.80734E-07
 -1      4378 7.38401E-01 1.77734E+01-2.55537E-04-4.91759E+00 1.28814E-07 4.80731E-07
 -1      4379 7.38396E-01 1.77734E+01-2.44487E-04-4.91759E+00-4.81905E-07-1.79850E-06
 -1      4380 7.38375E-01 1.77734E+01-2.10676E-04-4.91759E+00-5.74751E-06-2.14500E-05
 -1      4381 7.38332E-01 1.77734E+01-1.58073E-04-4.91760E+00-2.24363E-05-8.37334E-05
 -1      4382 7.38361E-01 1.77734E+01-1.18764E-04-4.91760E+00-3.91241E-05-1.46013E-04
 -1      4383 1.29905E+00 1.72127E+01-1.18764E-04-5.78098E+00 4.67122E-05 1.43765E-04
 -1      4384 1.29902E+00 1.72127E+01-1.58073E-04-5.78099E+00 2.67878E-05 8.24444E-05
 -1      4385 1.29906E+00 1.72127E+01-2.10676E-04-5.78098E+00 6.86225E-06 2.11198E-05
 -1      4386 1.29908E+00 1.72127E+01-2.44487E-04-5.78097E+00 5.75379E-07 1.77082E-06
 -1      4387 1.29909E+00 1.72127E+01-2.55537E-04-5.78097E+00-1.53791E-07-4.73334E-07
 -1      4388 1.29909E+00 1.72127E+01-2.55537E-04-5.78097E+00 1.53796E-07 4.73329E-07
 -1      4389 1.29908E+00 1.72127E+01-2.44487E-04-5.78097E+00-5.75373E-07-1.77082E-06
 -1      4390 1.29906E+00 1.72127E+01-2.10676E-04-5.78098E+00-6.86224E-06-2.11198E-05
 -1      4391 1.29902E+00 1.72127E+01-1.58073E-04-5.78099E+00-2.67878E-05-8.24444E-05
 -1      4392 1.29905E+00 1.72127E+01-1.18764E-04-5.78098E+00-4.67122E-05-1.43765E-04
 -1      4393 1.94691E+00 1.65649E+01-1.18764E-04-6.58103E+00 5.41723E-05 1.41124E-04
 -1      4394 1.94689E+00 1.65648E+01-1.58073E-04-6.58103E+00 3.10659E-05 8.09295E-05
 -1      4395 1.94693E+00 1.65649E+01-2.10676E-04-6.58102E+00 7.95817E-06 2.07317E-05
 -1      4396 1.94695E+00 1.65649E+01-2.44487E-04-6.58102E+00 6.67267E-07 1.73827E-06
 -1      4397 1.94695E+00 1.65649E+01-2.55536E-04-6.58101E+00-1.78352E-07-4.64636E-07
 -1      4398 1.94695E+00 1.65649E+01-2.55536E-04-6.58101E+00 1.78359E-07 4.64631E-07
 -1      4399 1.94695E+00 1.65649E+01-2.44487E-04-6.58102E+00-6.67261E-07-1.73828E-06
 -1      4400 1.94693E+00 1.65649E+01-2.10676E-04-6.58102E+00-7.95816E-06-2.07317E-05
 -1      4401 1.94689E+00 1.65648E+01-1.58073E-04-6.58103E+00-3.10659E-05-8.09295E-05
 -1      4402 1.94691E+00 1.65649E+01-1.18764E-04-6.58103E+00-5.41723E-05-1.41124E-04
 -1      4403 2.67486E+00 1.58369E+01-1.18764E-04-7.30897E+00 6.14839E-05 1.38095E-04
 -1      4404 2.67483E+00 1.58369E+01-1.58073E-04-7.30898E+00 3.52589E-05 7.91927E-05
 -1      4405 2.67487E+00 1.58369E+01-2.10676E-04-7.30897E+00 9.03227E-06 2.02868E-05
 -1      4406 2.67489E+00 1.58369E+01-2.44487E-04-7.30896E+00 7.57322E-07 1.70097E-06
 -1      4407 2.67490E+00 1.58369E+01-2.55536E-04-7.30896E+00-2.02426E-07-4.54668E-07
 -1      4408 2.67490E+00 1.58369E+01-2.55536E-04-7.30896E+00 2.02435E-07 4.54660E-07
 -1      4409 2.67489E+00 1.58369E+01-2.44487E-04-7.30896E+00-7.57315E-07-1.70098E-06
 -1      4410 2.67487E+00 1.58369E+01-2.10676E-04-7.30897E+00-9.03226E-06-2.02868E-05
 -1      4411 2.67483E+00 1.58369E+01-1.58073E-04-7.30898E+00-3.52588E-05-7.91927E-05
 -1      4412 2.67486E+00 1.58369E+01-1.18764E-04-7.30897E+00-6.14839E-05-1.38095E-04
 -1      4413 3.47491E+00 1.50369E+01-1.18764E-04-7.95684E+00 6.86269E-05 1.34688E-04
 -1      4414 3.47488E+00 1.50369E+01-1.58073E-04-7.95685E+00 3.93552E-05 7.72388E-05
 -1      4415 3.47492E+00 1.50369E+01-2.10676E-04-7.95683E+00 1.00816E-05 1.97863E-05
 -1      4416 3.47494E+00 1.50369E+01-2.44487E-04-7.95682E+00 8.45311E-07 1.65900E-06
 -1      4417 3.47494E+00 1.50369E+01-2.55537E-04-7.95682E+00-2.25941E-07-4.43450E-07
 -1      4418 3.47494E+00 1.50369E+01-2.55537E-04-7.95682E+00 2.25951E-07 4.43438E-07
 -1      4419 3.47494E+00 1.50369E+01-2.44487E-04-7.95682E+00-8.45301E-07-1.65901E-06
 -1      4420 3.47492E+00 1.50369E+01-2.10676E-04-7.95683E+00-1.00816E-05-1.97863E-05
 -1      4421 3.47488E+00 1.50369E+01-1.58073E-04-7.95685E+00-3.93552E-05-7.72388E-05
 -1      4422 3.47491E+00 1.50369E+01-1.18764E-04-7.95684E+00-6.86269E-05-1.34688E-04
 -1      4423 4.33829E+00 1.41735E+01-1.18764E-04-8.51752E+00 7.55819E-05 1.30912E-04
 -1      4424 4.33827E+00 1.41735E+01-1.58073E-04-8.51754E+00 4.33436E-05 7.50733E-05
 -1      4425 4.33830E+00 1.41735E+01-2.10676E-04-8.51752E+00 1.11033E-05 1.92315E-05
 -1      4426 4.33832E+00 1.41735E+01-2.44487E-04-8.51751E+00 9.30979E-07 1.61249E-06
 -1      4427 4.33832E+00 1.41735E+01-2.55537E-04-8.51751E+00-2.48840E-07-4.31015E-07
 -1      4428 4.33832E+00 1.41735E+01-2.55537E-04-8.51751E+00 2.48850E-07 4.31009E-07
 -1      4429 4.33832E+00 1.41735E+01-2.44487E-04-8.51751E+00-9.30968E-07-1.61250E-06
 -1      4430 4.33830E+00 1.41735E+01-2.10676E-04-8.51752E+00-1.11033E-05-1.92316E-05
 -1      4431 4.33827E+00 1.41735E+01-1.58073E-04-8.51754E+00-4.33436E-05-7.50733E-05
 -1      4432 4.33829E+00 1.41735E+01-1.18764E-04-8.51752E+00-7.55819E-05-1.30912E-04
 -1      4433 5.25555E+00 1.32562E+01-1.18764E-04-8.98489E+00 8.23297E-05 1.26777E-04
 -1      4434 5.25553E+00 1.32562E+01-1.58073E-04-8.98490E+00 4.72132E-05 7.27020E-05
 -1      4435 5.25556E+00 1.32562E+01-2.10676E-04-8.98489E+00 1.20946E-05 1.86241E-05
 -1      4436 5.25558E+00 1.32562E+01-2.44487E-04-8.98488E+00 1.01410E-06 1.56156E-06
 -1      4437 5.25558E+00 1.32562E+01-2.55537E-04-8.98488E+00-2.71054E-07-4.17398E-07
 -1      4438 5.25558E+00 1.32562E+01-2.55537E-04-8.98488E+00 2.71066E-07 4.17395E-07
 -1      4439 5.25558E+00 1.32562E+01-2.44487E-04-8.98488E+00-1.01409E-06-1.56156E-06
 -1      4440 5.25556E+00 1.32562E+01-2.10676E-04-8.98489E+00-1.20946E-05-1.86241E-05
 -1      4441 5.25553E+00 1.32562E+01-1.58073E-04-8.98490E+00-4.72132E-05-7.27020E-05
 -1      4442 5.25555E+00 1.32562E+01-1.18764E-04-8.98489E+00-8.23297E-05-1.26777E-04
 -1      4443 6.21664E+00 1.22951E+01-1.18764E-04-9.35382E+00 8.88519E-05 1.22294E-04
 -1      4444 6.21662E+00 1.22951E+01-1.58073E-04-9.35383E+00 5.09535E-05 7.01314E-05
 -1      4445 6.21665E+00 1.22951E+01-2.10676E-04-9.35381E+00 1.30528E-05 1.79656E-05
 -1      4446 6.21667E+00 1.22951E+01-2.44487E-04-9.35381E+00 1.09443E-06 1.50633E-06
 -1      4447 6.21667E+00 1.22951E+01-2.55536E-04-9.35380E+00-2.92530E-07-4.02648E-07
 -1      4448 6.21667E+00 1.22951E+01-2.55537E-04-9.35380E+00 2.92539E-07 4.02638E-07
 -1      4449 6.21667E+00 1.22951E+01-2.44487E-04-9.35381E+00-1.09443E-06-1.50635E-06
 -1      4450 6.21665E+00 1.22951E+01-2.10676E-04-9.35381E+00-1.30528E-05-1.79656E-05
 -1      4451 6.21662E+00 1.22951E+01-1.58073E-04-9.35383E+00-5.09534E-05-7.01314E-05
 -1      4452 6.21664E+00 1.22951E+01-1.18764E-04-9.35382E+00-8.88519E-05-1.22294E-04
 -1      4453 7.21103E+00 1.13007E+01-1.18763E-04-9.62027E+00 9.51305E-05 1.17476E-04
 -1      4454 7.21101E+00 1.13007E+01-1.58073E-04-9.62028E+00 5.45540E-05 6.73686E-05
 -1      4455 7.21104E+00 1.13007E+01-2.10676E-04-9.62026E+00 1.39751E-05 1.72578E-05
 -1      4456 7.21106E+00 1.13008E+01-2.44487E-04-9.62025E+00 1.17177E-06 1.44699E-06
 -1      4457 7.21106E+00 1.13008E+01-2.55536E-04-9.62025E+00-3.13199E-07-3.86785E-07
 -1      4458 7.21106E+00 1.13008E+01-2.55536E-04-9.62025E+00 3.13209E-07 3.86777E-07
 -1      4459 7.21106E+00 1.13008E+01-2.44487E-04-9.62025E+00-1.17176E-06-1.44700E-06
 -1      4460 7.21104E+00 1.13007E+01-2.10676E-04-9.62026E+00-1.39751E-05-1.72578E-05
 -1      4461 7.21101E+00 1.13007E+01-1.58073E-04-9.62028E+00-5.45540E-05-6.73686E-05
 -1      4462 7.21103E+00 1.13007E+01-1.18763E-04-9.62027E+00-9.51305E-05-1.17476E-04
 -1      4463 8.22783E+00 1.02839E+01-1.18764E-04-9.78131E+00 1.01148E-04 1.12337E-04
 -1      4464 8.22781E+00 1.02839E+01-1.58073E-04-9.78132E+00 5.80050E-05 6.44211E-05
 -1      4465 8.22784E+00 1.02839E+01-2.10676E-04-9.78130E+00 1.48592E-05 1.65028E-05
 -1      4466 8.22785E+00 1.02840E+01-2.44487E-04-9.78129E+00 1.24589E-06 1.38370E-06
 -1      4467 8.22785E+00 1.02840E+01-2.55536E-04-9.78129E+00-3.33018E-07-3.69860E-07
 -1      4468 8.22785E+00 1.02840E+01-2.55536E-04-9.78129E+00 3.33026E-07 3.69850E-07
 -1      4469 8.22785E+00 1.02840E+01-2.44487E-04-9.78129E+00-1.24588E-06-1.38370E-06
 -1      4470 8.22784E+00 1.02839E+01-2.10676E-04-9.78130E+00-1.48592E-05-1.65028E-05
 -1      4471 8.22781E+00 1.02839E+01-1.58073E-04-9.78132E+00-5.80050E-05-6.44211E-05
 -1      4472 8.22783E+00 1.02839E+01-1.18764E-04-9.78131E+00-1.01148E-04-1.12337E-04
 -1      4473 9.25589E+00 9.25589E+00-1.18764E-04-9.83519E+00 1.06889E-04 1.06889E-04
 -1      4474 9.25587E+00 9.25587E+00-1.58074E-04-9.83520E+00 6.12971E-05 6.12971E-05
 -1      4475 9.25589E+00 9.25589E+00-2.10677E-04-9.83518E+00 1.57025E-05 1.57025E-05
 -1      4476 9.25591E+00 9.25591E+00-2.44488E-04-9.83517E+00 1.31659E-06 1.31659E-06
 -1      4477 9.25591E+00 9.25591E+00-2.55537E-04-9.83517E+00-3.51919E-07-3.51927E-07
 -1      4478 9.25591E+00 9.25591E+00-2.55537E-04-9.83517E+00 3.51926E-07 3.51908E-07
 -1      4479 9.25591E+00 9.25591E+00-2.44488E-04-9.83517E+00-1.31658E-06-1.31661E-06
 -1      4480 9.25589E+00 9.25589E+00-2.10677E-04-9.83518E+00-1.57025E-05-1.57025E-05
 -1      4481 9.25587E+00 9.25587E+00-1.58074E-04-9.83520E+00-6.12971E-05-6.12971E-05
 -1      4482 9.25589E+00 9.25589E+00-1.18764E-04-9.83519E+00-1.06889E-04-1.06889E-04
 -1      4483 1.02839E+01 8.22783E+00-1.18765E-04-9.78131E+00 1.12337E-04 1.01148E-04
 -1      4484 1.02839E+01 8.22781E+00-1.58075E-04-9.78132E+00 6.44211E-05 5.80050E-05
 -1      4485 1.02839E+01 8.22784E+00-2.10678E-04-9.78130E+00 1.65028E-05 1.48592E-05
 -1      4486 1.02840E+01 8.22785E+00-2.44489E-04-9.78129E+00 1.38370E-06 1.24588E-06
 -1      4487 1.02840E+01 8.22785E+00-2.55538E-04-9.78129E+00-3.69851E-07-3.33023E-07
 -1      4488 1.02840E+01 8.22785E+00-2.55538E-04-9.78129E+00 3.69860E-07 3.33015E-07
 -1      4489 1.02840E+01 8.22785E+00-2.44489E-04-9.78129E+00-1.38369E-06-1.24589E-06
 -1      4490 1.02839E+01 8.22784E+00-2.10678E-04-9.78130E+00-1.65028E-05-1.48592E-05
 -1      4491 1.02839E+01 8.22781E+00-1.58075E-04-9.78132E+00-6.44211E-05-5.80051E-05
 -1      4492 1.02839E+01 8.22783E+00-1.18765E-04-9.78131E+00-1.12337E-04-1.01148E-04
 -1      4493 1.13007E+01 7.21103E+00-1.18765E-04-9.62027E+00 1.17476E-04 9.51305E-05
 -1      4494 1.13007E+01 7.21101E+00-1.58075E-04-9.62028E+00 6.73686E-05 5.45540E-05
 -1      4495 1.13007E+01 7.21104E+00-2.10678E-04-9.62026E+00 1.72578E-05 1.39751E-05
 -1      4496 1.13008E+01 7.21106E+00-2.44489E-04-9.62025E+00 1.44701E-06 1.17175E-06
 -1      4497 1.13008E+01 7.21106E+00-2.55538E-04-9.62025E+00-3.86772E-07-3.13214E-07
 -1      4498 1.13008E+01 7.21106E+00-2.55538E-04-9.62025E+00 3.86780E-07 3.13203E-07
 -1      4499 1.13008E+01 7.21106E+00-2.44489E-04-9.62025E+00-1.44700E-06-1.17176E-06
 -1      4500 1.13007E+01 7.21104E+00-2.10678E-04-9.62026E+00-1.72578E-05-1.39751E-05
 -1      4501 1.13007E+01 7.21101E+00-1.58075E-04-9.62028E+00-6.73686E-05-5.45540E-05
 -1      4502 1.13007E+01 7.21103E+00-1.18765E-04-9.62027E+00-1.17476E-04-9.51305E-05
 -1      4503 1.22951E+01 6.21664E+00-1.18765E-04-9.35382E+00 1.22294E-04 8.88519E-05
 -1      4504 1.22951E+01 6.21662E+00-1.58075E-04-9.35383E+00 7.01314E-05 5.09534E-05
 -1      4505 1.22951E+01 6.21665E+00-2.10678E-04-9.35381E+00 1.79656E-05 1.30528E-05
 -1      4506 1.22951E+01 6.21667E+00-2.44489E-04-9.35381E+00 1.50635E-06 1.09442E-06
 -1      4507 1.22951E+01 6.21667E+00-2.55538E-04-9.35380E+00-4.02636E-07-2.92541E-07
 -1      4508 1.22951E+01 6.21667E+00-2.55538E-04-9.35380E+00 4.02645E-07 2.92531E-07
 -1      4509 1.22951E+01 6.21667E+00-2.44489E-04-9.35381E+00-1.50634E-06-1.09443E-06
 -1      4510 1.22951E+01 6.21665E+00-2.10678E-04-9.35381E+00-1.79656E-05-1.30528E-05
 -1      4511 1.22951E+01 6.21662E+00-1.58075E-04-9.35383E+00-7.01314E-05-5.09535E-05
 -1      4512 1.22951E+01 6.21664E+00-1.18765E-04-9.35382E+00-1.22294E-04-8.88519E-05
 -1      4513 1.32562E+01 5.25555E+00-1.18765E-04-8.98489E+00 1.26777E-04 8.23297E-05
 -1      4514 1.32562E+01 5.25553E+00-1.58074E-04-8.98490E+00 7.27020E-05 4.72132E-05
 -1      4515 1.32562E+01 5.25556E+00-2.10677E-04-8.98489E+00 1.86241E-05 1.20946E-05
 -1      4516 1.32562E+01 5.25558E+00-2.44489E-04-8.98488E+00 1.56157E-06 1.01409E-06
 -1      4517 1.32562E+01 5.25558E+00-2.55538E-04-8.98488E+00-4.17392E-07-2.71066E-07
 -1      4518 1.32562E+01 5.25558E+00-2.55538E-04-8.98488E+00 4.17402E-07 2.71057E-07
 -1      4519 1.32562E+01 5.25558E+00-2.44489E-04-8.98488E+00-1.56156E-06-1.01409E-06
 -1      4520 1.32562E+01 5.25556E+00-2.10677E-04-8.98489E+00-1.86241E-05-1.20946E-05
 -1      4521 1.32562E+01 5.25553E+00-1.58074E-04-8.98490E+00-7.27020E-05-4.72132E-05
 -1      4522 1.32562E+01 5.25555E+00-1.18765E-04-8.98489E+00-1.26777E-04-8.23297E-05
 -1      4523 1.41735E+01 4.33829E+00-1.18765E-04-8.51752E+00 1.30912E-04 7.55819E-05
 -1      4524 1.41735E+01 4.33827E+00-1.58074E-04-8.51754E+00 7.50733E-05 4.33436E-05
 -1      4525 1.41735E+01 4.33830E+00-2.10678E-04-8.51752E+00 1.92316E-05 1.11033E-05
 -1      4526 1.41735E+01 4.33832E+00-2.44489E-04-8.51751E+00 1.61250E-06 9.30966E-07
 -1      4527 1.41735E+01 4.33832E+00-2.55538E-04-8.51751E+00-4.31005E-07-2.48850E-07
 -1      4528 1.41735E+01 4.33832E+00-2.55538E-04-8.51751E+00 4.31014E-07 2.48843E-07
 -1      4529 1.41735E+01 4.33832E+00-2.44489E-04-8.51751E+00-1.61249E-06-9.30973E-07
 -1      4530 1.41735E+01 4.33830E+00-2.10678E-04-8.51752E+00-1.92315E-05-1.11033E-05
 -1      4531 1.41735E+01 4.33827E+00-1.58074E-04-8.51754E+00-7.50733E-05-4.33436E-05
 -1      4532 1.41735E+01 4.33829E+00-1.18765E-04-8.51752E+00-1.30912E-04-7.55819E-05
 -1      4533 1.50369E+01 3.47491E+00-1.18765E-04-7.95684E+00 1.34688E-04 6.86269E-05
 -1      4534 1.50369E+01 3.47488E+00-1.58074E-04-7.95685E+00 7.72388E-05 3.93551E-05
 -1      4535 1.50369E+01 3.47492E+00-2.10677E-04-7.95683E+00 1.97863E-05 1.00816E-05
 -1      4536 1.50369E+01 3.47494E+00-2.44489E-04-7.95682E+00 1.65901E-06 8.45299E-07
 -1      4537 1.50369E+01 3.47494E+00-2.55538E-04-7.95682E+00-4.43443E-07-2.25952E-07
 -1      4538 1.50369E+01 3.47494E+00-2.55538E-04-7.95682E+00 4.43452E-07 2.25942E-07
 -1      4539 1.50369E+01 3.47494E+00-2.44489E-04-7.95682E+00-1.65900E-06-8.45310E-07
 -1      4540 1.50369E+01 3.47492E+00-2.10677E-04-7.95683E+00-1.97863E-05-1.00816E-05
 -1      4541 1.50369E+01 3.47488E+00-1.58074E-04-7.95685E+00-7.72388E-05-3.93552E-05
 -1      4542 1.50369E+01 3.47491E+00-1.18765E-04-7.95684E+00-1.34688E-04-6.86269E-05
 -1      4543 1.58369E+01 2.67486E+00-1.18765E-04-7.30897E+00 1.38095E-04 6.14839E-05
 -1      4544 1.58369E+01 2.67483E+00-1.58075E-04-7.30898E+00 7.91927E-05 3.52589E-05
 -1      4545 1.58369E+01 2.67487E+00-2.10678E-04-7.30897E+00 2.02868E-05 9.03227E-06
 -1      4546 1.58369E+01 2.67489E+00-2.44489E-04-7.30896E+00 1.70097E-06 7.57320E-07
 -1      4547 1.58369E+01 2.67490E+00-2.55538E-04-7.30896E+00-4.54663E-07-2.02433E-07
 -1      4548 1.58369E+01 2.67490E+00-2.55538E-04-7.30896E+00 4.54672E-07 2.02423E-07
 -1      4549 1.58369E+01 2.67489E+00-2.44489E-04-7.30896E+00-1.70096E-06-7.57329E-07
 -1      4550 1.58369E+01 2.67487E+00-2.10678E-04-7.30897E+00-2.02868E-05-9.03228E-06
 -1      4551 1.58369E+01 2.67483E+00-1.58075E-04-7.30898E+00-7.91927E-05-3.52589E-05
 -1      4552 1.58369E+01 2.67486E+00-1.18765E-04-7.30897E+00-1.38095E-04-6.14839E-05
 -1      4553 1.65649E+01 1.94691E+00-1.18766E-04-6.58103E+00 1.41124E-04 5.41723E-05
 -1      4554 1.65648E+01 1.94689E+00-1.58075E-04-6.58103E+00 8.09295E-05 3.10659E-05
 -1      4555 1.65649E+01 1.94693E+00-2.10678E-04-6.58102E+00 2.07317E-05 7.95815E-06
 -1      4556 1.65649E+01 1.94695E+00-2.44489E-04-6.58102E+00 1.73828E-06 6.67253E-07
 -1      4557 1.65649E+01 1.94695E+00-2.55538E-04-6.58101E+00-4.64631E-07-1.78362E-07
 -1      4558 1.65649E+01 1.94695E+00-2.55538E-04-6.58101E+00 4.64635E-07 1.78353E-07
 -1      4559 1.65649E+01 1.94695E+00-2.44489E-04-6.58102E+00-1.73828E-06-6.67264E-07
 -1      4560 1.65649E+01 1.94693E+00-2.10678E-04-6.58102E+00-2.07317E-05-7.95816E-06
 -1      4561 1.65648E+01 1.94689E+00-1.58075E-04-6.58103E+00-8.09295E-05-3.10659E-05
 -1      4562 1.65649E+01 1.94691E+00-1.18766E-04-6.58103E+00-1.41124E-04-5.41723E-05
 -1      4563 1.72127E+01 1.29905E+00-1.18765E-04-5.78098E+00 1.43765E-04 4.67122E-05
 -1      4564 1.72127E+01 1.29902E+00-1.58075E-04-5.78099E+00 8.24444E-05 2.67878E-05
 -1      4565 1.72127E+01 1.29906E+00-2.10678E-04-5.78098E+00 2.11198E-05 6.86223E-06
 -1      4566 1.72127E+01 1.29908E+00-2.44489E-04-5.78097E+00 1.77082E-06 5.75365E-07
 -1      4567 1.72127E+01 1.29909E+00-2.55538E-04-5.78097E+00-4.73333E-07-1.53802E-07
 -1      4568 1.72127E+01 1.29909E+00-2.55538E-04-5.78097E+00 4.73332E-07 1.53791E-07
 -1      4569 1.72127E+01 1.29908E+00-2.44489E-04-5.78097E+00-1.77082E-06-5.75376E-07
 -1      4570 1.72127E+01 1.29906E+00-2.10678E-04-5.78098E+00-2.11198E-05-6.86224E-06
 -1      4571 1.72127E+01 1.29902E+00-1.58075E-04-5.78099E+00-8.24444E-05-2.67878E-05
 -1      4572 1.72127E+01 1.29905E+00-1.18765E-04-5.78098E+00-1.43765E-04-4.67122E-05
 -1      4573 1.77734E+01 7.38361E-01-1.18765E-04-4.91760E+00 1.46013E-04 3.91241E-05
 -1      4574 1.77734E+01 7.38332E-01-1.58075E-04-4.91760E+00 8.37334E-05 2.24363E-05
 -1      4575 1.77734E+01 7.38375E-01-2.10678E-04-4.91759E+00 2.14500E-05 5.74751E-06
 -1      4576 1.77734E+01 7.38396E-01-2.44489E-04-4.91759E+00 1.79850E-06 4.81901E-07
 -1      4577 1.77734E+01 7.38401E-01-2.55538E-04-4.91759E+00-4.80733E-07-1.28818E-07
 -1      4578 1.77734E+01 7.38401E-01-2.55538E-04-4.91759E+00 4.80733E-07 1.28804E-07
 -1      4579 1.77734E+01 7.38396E-01-2.44489E-04-4.91759E+00-1.79850E-06-4.81916E-07
 -1      4580 1.77734E+01 7.38375E-01-2.10678E-04-4.91759E+00-2.14500E-05-5.74752E-06
 -1      4581 1.77734E+01 7.38332E-01-1.58075E-04-4.91760E+00-8.37334E-05-2.24363E-05
 -1      4582 1.77734E+01 7.38361E-01-1.18765E-04-4.91760E+00-1.46013E-04-3.91241E-05
 -1      4583 1.82408E+01 2.70992E-01-1.18765E-04-4.00033E+00 1.47861E-04 3.14287E-05
 -1      4584 1.82408E+01 2.70962E-01-1.58075E-04-4.00034E+00 8.47929E-05 1.80233E-05
 -1      4585 1.82408E+01 2.71007E-01-2.10678E-04-4.00033E+00 2.17214E-05 4.61702E-06
 -1      4586 1.82408E+01 2.71028E-01-2.44489E-04-4.00033E+00 1.82126E-06 3.87115E-07
 -1      4587 1.82408E+01 2.71033E-01-2.55538E-04-4.00032E+00-4.86810E-07-1.03482E-07
 -1      4588 1.82408E+01 2.71033E-01-2.55538E-04-4.00032E+00 4.86821E-07 1.03469E-07
 -1      4589 1.82408E+01 2.71028E-01-2.44489E-04-4.00033E+00-1.82125E-06-3.87127E-07
 -1      4590 1.82408E+01 2.71007E-01-2.10678E-04-4.00033E+00-2.17214E-05-4.61704E-06
 -1      4591 1.82408E+01 2.70962E-01-1.58075E-04-4.00034E+00-8.47929E-05-1.80233E-05
 -1      4592 1.82408E+01 2.70992E-01-1.18765E-04-4.00033E+00-1.47861E-04-3.14287E-05
 -1      4593 1.86097E+01-9.79363E-02-1.18765E-04-3.03924E+00 1.49303E-04 2.36472E-05
 -1      4594 1.86097E+01-9.79664E-02-1.58075E-04-3.03924E+00 8.56199E-05 1.35609E-05
 -1      4595 1.86097E+01-9.79212E-02-2.10678E-04-3.03924E+00 2.19333E-05 3.47388E-06
 -1      4596 1.86097E+01-9.78995E-02-2.44489E-04-3.03924E+00 1.83903E-06 2.91265E-07
 -1      4597 1.86097E+01-9.78944E-02-2.55538E-04-3.03923E+00-4.91560E-07-7.78637E-08
 -1      4598 1.86097E+01-9.78944E-02-2.55538E-04-3.03923E+00 4.91563E-07 7.78492E-08
 -1      4599 1.86097E+01-9.78995E-02-2.44489E-04-3.03924E+00-1.83902E-06-2.91278E-07
 -1      4600 1.86097E+01-9.79212E-02-2.10678E-04-3.03924E+00-2.19333E-05-3.47389E-06
 -1      4601 1.86097E+01-9.79664E-02-1.58075E-04-3.03924E+00-8.56199E-05-1.35609E-05
 -1      4602 1.86097E+01-9.79363E-02-1.18765E-04-3.03924E+00-1.49303E-04-2.36472E-05
 -1      4603 1.88762E+01-3.64382E-01-1.18765E-04-2.04485E+00 1.50336E-04 1.58009E-05
 -1      4604 1.88761E+01-3.64413E-01-1.58075E-04-2.04485E+00 8.62123E-05 9.06127E-06
 -1      4605 1.88762E+01-3.64367E-01-2.10678E-04-2.04485E+00 2.20850E-05 2.32122E-06
 -1      4606 1.88762E+01-3.64345E-01-2.44489E-04-2.04485E+00 1.85175E-06 1.94619E-07
 -1      4607 1.88762E+01-3.64340E-01-2.55538E-04-2.04485E+00-4.94959E-07-5.20294E-08
 -1      4608 1.88762E+01-3.64340E-01-2.55538E-04-2.04485E+00 4.94971E-07 5.20180E-08
 -1      4609 1.88762E+01-3.64345E-01-2.44489E-04-2.04485E+00-1.85174E-06-1.94630E-07
 -1      4610 1.88762E+01-3.64367E-01-2.10678E-04-2.04485E+00-2.20850E-05-2.32123E-06
 -1      4611 1.88761E+01-3.64413E-01-1.58075E-04-2.04485E+00-8.62123E-05-9.06128E-06
 -1      4612 1.88762E+01-3.64382E-01-1.18765E-04-2.04485E+00-1.50336E-04-1.58009E-05
 -1      4613 1.90372E+01-5.25427E-01-1.18765E-04-1.02806E+00 1.50957E-04 7.91130E-06
 -1      4614 1.90372E+01-5.25457E-01-1.58075E-04-1.02806E+00 8.65684E-05 4.53686E-06
 -1      4615 1.90372E+01-5.25411E-01-2.10678E-04-1.02806E+00 2.21762E-05 1.16221E-06
 -1      4616 1.90372E+01-5.25389E-01-2.44489E-04-1.02806E+00 1.85940E-06 9.74447E-08
 -1      4617 1.90372E+01-5.25384E-01-2.55538E-04-1.02806E+00-4.97006E-07-2.60495E-08
 -1      4618 1.90372E+01-5.25384E-01-2.55538E-04-1.02806E+00 4.97014E-07 2.60444E-08
 -1      4619 1.90372E+01-5.25389E-01-2.44489E-04-1.02806E+00-1.85939E-06-9.74497E-08
 -1      4620 1.90372E+01-5.25411E-01-2.10678E-04-1.02806E+00-2.21762E-05-1.16221E-06
 -1      4621 1.90372E+01-5.25457E-01-1.58075E-04-1.02806E+00-8.65684E-05-4.53686E-06
 -1      4622 1.90372E+01-5.25427E-01-1.18765E-04-1.02806E+00-1.50957E-04-7.91130E-06
 -1      4623-4.75172E-01 1.89870E+01-8.26709E-05-1.02278E+00 8.50377E-06 1.62262E-04
 -1      4624-4.75199E-01 1.89870E+01-1.04623E-04-1.02278E+00 5.48699E-06 1.04698E-04
 -1      4625-4.75176E-01 1.89870E+01-1.33906E-04-1.02278E+00 1.68439E-06 3.21400E-05
 -1      4626-4.75162E-01 1.89870E+01-1.54222E-04-1.02278E+00 2.41967E-07 4.61699E-06
 -1      4627-4.75158E-01 1.89870E+01-1.61691E-04-1.02278E+00-6.00592E-09-1.14618E-07
 -1      4628-4.75158E-01 1.89870E+01-1.61691E-04-1.02278E+00 6.00702E-09 1.14618E-07
 -1      4629-4.75162E-01 1.89870E+01-1.54222E-04-1.02278E+00-2.41967E-07-4.61699E-06
 -1      4630-4.75176E-01 1.89870E+01-1.33906E-04-1.02278E+00-1.68439E-06-3.21400E-05
 -1      4631-4.75199E-01 1.89870E+01-1.04623E-04-1.02278E+00-5.48699E-06-1.04698E-04
 -1      4632-4.75172E-01 1.89870E+01-8.26709E-05-1.02278E+00-8.50377E-06-1.62262E-04
 -1      4633-3.14955E-01 1.88268E+01-8.26708E-05-2.03435E+00 1.69842E-05 1.61594E-04
 -1      4634-3.14981E-01 1.88268E+01-1.04623E-04-2.03435E+00 1.09589E-05 1.04267E-04
 -1      4635-3.14959E-01 1.88268E+01-1.33906E-04-2.03435E+00 3.36415E-06 3.20078E-05
 -1      4636-3.14945E-01 1.88268E+01-1.54222E-04-2.03435E+00 4.83271E-07 4.59799E-06
 -1      4637-3.14941E-01 1.88268E+01-1.61691E-04-2.03435E+00-1.19968E-08-1.14150E-07
 -1      4638-3.14941E-01 1.88268E+01-1.61691E-04-2.03435E+00 1.19967E-08 1.14146E-07
 -1      4639-3.14945E-01 1.88268E+01-1.54222E-04-2.03435E+00-4.83270E-07-4.59800E-06
 -1      4640-3.14959E-01 1.88268E+01-1.33906E-04-2.03435E+00-3.36415E-06-3.20078E-05
 -1      4641-3.14981E-01 1.88268E+01-1.04623E-04-2.03435E+00-1.09589E-05-1.04267E-04
 -1      4642-3.14955E-01 1.88268E+01-8.26708E-05-2.03435E+00-1.69842E-05-1.61594E-04
 -1      4643-4.98770E-02 1.85617E+01-8.26707E-05-3.02363E+00 2.54181E-05 1.60484E-04
 -1      4644-4.99034E-02 1.85617E+01-1.04623E-04-3.02364E+00 1.64008E-05 1.03551E-04
 -1      4645-4.98809E-02 1.85617E+01-1.33905E-04-3.02364E+00 5.03470E-06 3.17878E-05
 -1      4646-4.98674E-02 1.85617E+01-1.54222E-04-3.02363E+00 7.23247E-07 4.56640E-06
 -1      4647-4.98634E-02 1.85617E+01-1.61691E-04-3.02363E+00-1.79538E-08-1.13364E-07
 -1      4648-4.98634E-02 1.85617E+01-1.61691E-04-3.02363E+00 1.79566E-08 1.13363E-07
 -1      4649-4.98674E-02 1.85617E+01-1.54222E-04-3.02363E+00-7.23245E-07-4.56640E-06
 -1      4650-4.98809E-02 1.85617E+01-1.33905E-04-3.02364E+00-5.03470E-06-3.17878E-05
 -1      4651-4.99034E-02 1.85617E+01-1.04623E-04-3.02364E+00-1.64008E-05-1.03551E-04
 -1      4652-4.98770E-02 1.85617E+01-8.26707E-05-3.02363E+00-2.54181E-05-1.60484E-04
 -1      4653 3.17157E-01 1.81947E+01-8.26708E-05-3.97979E+00 3.37824E-05 1.58934E-04
 -1      4654 3.17131E-01 1.81947E+01-1.04623E-04-3.97979E+00 2.17978E-05 1.02551E-04
 -1      4655 3.17153E-01 1.81947E+01-1.33906E-04-3.97979E+00 6.69144E-06 3.14808E-05
 -1      4656 3.17166E-01 1.81947E+01-1.54222E-04-3.97979E+00 9.61241E-07 4.52230E-06
 -1      4657 3.17170E-01 1.81947E+01-1.61691E-04-3.97979E+00-2.38636E-08-1.12265E-07
 -1      4658 3.17170E-01 1.81947E+01-1.61691E-04-3.97979E+00 2.38652E-08 1.12269E-07
 -1      4659 3.17166E-01 1.81947E+01-1.54222E-04-3.97979E+00-9.61240E-07-4.52230E-06
 -1      4660 3.17153E-01 1.81947E+01-1.33906E-04-3.97979E+00-6.69144E-06-3.14808E-05
 -1      4661 3.17131E-01 1.81947E+01-1.04623E-04-3.97979E+00-2.17978E-05-1.02551E-04
 -1      4662 3.17157E-01 1.81947E+01-8.26708E-05-3.97979E+00-3.37824E-05-1.58934E-04
 -1      4663 7.82126E-01 1.77297E+01-8.26708E-05-4.89234E+00 4.20540E-05 1.56948E-04
 -1      4664 7.82100E-01 1.77297E+01-1.04623E-04-4.89235E+00 2.71350E-05 1.01269E-04
 -1      4665 7.82122E-01 1.77297E+01-1.33906E-04-4.89234E+00 8.32985E-06 3.10874E-05
 -1      4666 7.82135E-01 1.77297E+01-1.54222E-04-4.89234E+00 1.19660E-06 4.46578E-06
 -1      4667 7.82139E-01 1.77297E+01-1.61691E-04-4.89234E+00-2.97056E-08-1.10867E-07
 -1      4668 7.82139E-01 1.77297E+01-1.61691E-04-4.89234E+00 2.97080E-08 1.10865E-07
 -1      4669 7.82135E-01 1.77297E+01-1.54222E-04-4.89234E+00-1.19660E-06-4.46579E-06
 -1      4670 7.82122E-01 1.77297E+01-1.33906E-04-4.89234E+00-8.32985E-06-3.10874E-05
 -1      4671 7.82100E-01 1.77297E+01-1.04623E-04-4.89235E+00-2.71350E-05-1.01269E-04
 -1      4672 7.82126E-01 1.77297E+01-8.26708E-05-4.89234E+00-4.20540E-05-1.56948E-04
 -1      4673 1.33993E+00 1.71719E+01-8.26708E-05-5.75129E+00 5.02104E-05 1.54532E-04
 -1      4674 1.33991E+00 1.71719E+01-1.04623E-04-5.75130E+00 3.23978E-05 9.97103E-05
 -1      4675 1.33993E+00 1.71719E+01-1.33906E-04-5.75130E+00 9.94543E-06 3.06089E-05
 -1      4676 1.33994E+00 1.71719E+01-1.54222E-04-5.75129E+00 1.42869E-06 4.39704E-06
 -1      4677 1.33995E+00 1.71719E+01-1.61691E-04-5.75129E+00-3.54658E-08-1.09161E-07
 -1      4678 1.33995E+00 1.71719E+01-1.61691E-04-5.75129E+00 3.54676E-08 1.09157E-07
 -1      4679 1.33994E+00 1.71719E+01-1.54222E-04-5.75129E+00-1.42869E-06-4.39704E-06
 -1      4680 1.33993E+00 1.71719E+01-1.33906E-04-5.75130E+00-9.94543E-06-3.06089E-05
 -1      4681 1.33991E+00 1.71719E+01-1.04623E-04-5.75130E+00-3.23978E-05-9.97103E-05
 -1      4682 1.33993E+00 1.71719E+01-8.26708E-05-5.75129E+00-5.02104E-05-1.54532E-04
 -1      4683 1.98447E+00 1.65273E+01-8.26707E-05-6.54723E+00 5.82292E-05 1.51692E-04
 -1      4684 1.98445E+00 1.65273E+01-1.04622E-04-6.54724E+00 3.75719E-05 9.78781E-05
 -1      4685 1.98447E+00 1.65274E+01-1.33905E-04-6.54724E+00 1.15337E-05 3.00464E-05
 -1      4686 1.98448E+00 1.65274E+01-1.54222E-04-6.54723E+00 1.65685E-06 4.31624E-06
 -1      4687 1.98449E+00 1.65274E+01-1.61691E-04-6.54723E+00-4.11291E-08-1.07153E-07
 -1      4688 1.98449E+00 1.65274E+01-1.61691E-04-6.54723E+00 4.11323E-08 1.07149E-07
 -1      4689 1.98448E+00 1.65274E+01-1.54222E-04-6.54723E+00-1.65685E-06-4.31624E-06
 -1      4690 1.98447E+00 1.65274E+01-1.33905E-04-6.54724E+00-1.15337E-05-3.00464E-05
 -1      4691 1.98445E+00 1.65273E+01-1.04622E-04-6.54724E+00-3.75719E-05-9.78781E-05
 -1      4692 1.98447E+00 1.65273E+01-8.26707E-05-6.54723E+00-5.82292E-05-1.51692E-04
 -1      4693 2.70868E+00 1.58031E+01-8.26707E-05-7.27144E+00 6.60883E-05 1.48437E-04
 -1      4694 2.70866E+00 1.58031E+01-1.04623E-04-7.27145E+00 4.26429E-05 9.57776E-05
 -1      4695 2.70868E+00 1.58031E+01-1.33905E-04-7.27144E+00 1.30904E-05 2.94016E-05
 -1      4696 2.70869E+00 1.58032E+01-1.54222E-04-7.27144E+00 1.88047E-06 4.22361E-06
 -1      4697 2.70869E+00 1.58032E+01-1.61691E-04-7.27144E+00-4.66833E-08-1.04857E-07
 -1      4698 2.70869E+00 1.58032E+01-1.61691E-04-7.27144E+00 4.66873E-08 1.04852E-07
 -1      4699 2.70869E+00 1.58032E+01-1.54222E-04-7.27144E+00-1.88047E-06-4.22362E-06
 -1      4700 2.70868E+00 1.58031E+01-1.33905E-04-7.27144E+00-1.30904E-05-2.94016E-05
 -1      4701 2.70866E+00 1.58031E+01-1.04623E-04-7.27145E+00-4.26429E-05-9.57776E-05
 -1      4702 2.70868E+00 1.58031E+01-8.26707E-05-7.27144E+00-6.60883E-05-1.48437E-04
 -1      4703 3.50462E+00 1.50072E+01-8.26709E-05-7.91598E+00 7.37663E-05 1.44775E-04
 -1      4704 3.50460E+00 1.50072E+01-1.04623E-04-7.91599E+00 4.75971E-05 9.34146E-05
 -1      4705 3.50462E+00 1.50072E+01-1.33906E-04-7.91598E+00 1.46113E-05 2.86762E-05
 -1      4706 3.50463E+00 1.50072E+01-1.54222E-04-7.91598E+00 2.09895E-06 4.11941E-06
 -1      4707 3.50463E+00 1.50072E+01-1.61691E-04-7.91598E+00-5.21063E-08-1.02271E-07
 -1      4708 3.50463E+00 1.50072E+01-1.61691E-04-7.91598E+00 5.21088E-08 1.02261E-07
 -1      4709 3.50463E+00 1.50072E+01-1.54222E-04-7.91598E+00-2.09894E-06-4.11942E-06
 -1      4710 3.50462E+00 1.50072E+01-1.33906E-04-7.91598E+00-1.46113E-05-2.86762E-05
 -1      4711 3.50460E+00 1.50072E+01-1.04623E-04-7.91599E+00-4.75971E-05-9.34146E-05
 -1      4712 3.50462E+00 1.50072E+01-8.26709E-05-7.91598E+00-7.37663E-05-1.44775E-04
 -1      4713 4.36357E+00 1.41483E+01-8.26709E-05-8.47379E+00 8.12422E-05 1.40716E-04
 -1      4714 4.36355E+00 1.41482E+01-1.04623E-04-8.47380E+00 5.24208E-05 9.07955E-05
 -1      4715 4.36357E+00 1.41483E+01-1.33906E-04-8.47379E+00 1.60920E-05 2.78722E-05
 -1      4716 4.36358E+00 1.41483E+01-1.54222E-04-8.47379E+00 2.31166E-06 4.00391E-06
 -1      4717 4.36358E+00 1.41483E+01-1.61691E-04-8.47378E+00-5.73861E-08-9.93986E-08
 -1      4718 4.36358E+00 1.41483E+01-1.61691E-04-8.47378E+00 5.73896E-08 9.93979E-08
 -1      4719 4.36358E+00 1.41483E+01-1.54222E-04-8.47379E+00-2.31166E-06-4.00392E-06
 -1      4720 4.36357E+00 1.41483E+01-1.33906E-04-8.47379E+00-1.60920E-05-2.78722E-05
 -1      4721 4.36355E+00 1.41482E+01-1.04623E-04-8.47380E+00-5.24208E-05-9.07955E-05
 -1      4722 4.36357E+00 1.41483E+01-8.26709E-05-8.47379E+00-8.12421E-05-1.40716E-04
 -1      4723 5.27612E+00 1.32357E+01-8.26709E-05-8.93875E+00 8.84953E-05 1.36271E-04
 -1      4724 5.27610E+00 1.32357E+01-1.04623E-04-8.93877E+00 5.71008E-05 8.79276E-05
 -1      4725 5.27612E+00 1.32357E+01-1.33906E-04-8.93876E+00 1.75287E-05 2.69918E-05
 -1      4726 5.27613E+00 1.32357E+01-1.54222E-04-8.93875E+00 2.51805E-06 3.87745E-06
 -1      4727 5.27613E+00 1.32357E+01-1.61691E-04-8.93875E+00-6.25085E-08-9.62576E-08
 -1      4728 5.27613E+00 1.32357E+01-1.61691E-04-8.93875E+00 6.25136E-08 9.62591E-08
 -1      4729 5.27613E+00 1.32357E+01-1.54222E-04-8.93875E+00-2.51804E-06-3.87745E-06
 -1      4730 5.27612E+00 1.32357E+01-1.33906E-04-8.93876E+00-1.75287E-05-2.69918E-05
 -1      4731 5.27610E+00 1.32357E+01-1.04623E-04-8.93877E+00-5.71008E-05-8.79276E-05
 -1      4732 5.27612E+00 1.32357E+01-8.26709E-05-8.93875E+00-8.84953E-05-1.36271E-04
 -1      4733 6.23228E+00 1.22795E+01-8.26707E-05-9.30579E+00 9.55059E-05 1.31453E-04
 -1      4734 6.23226E+00 1.22795E+01-1.04623E-04-9.30580E+00 6.16244E-05 8.48186E-05
 -1      4735 6.23228E+00 1.22795E+01-1.33905E-04-9.30579E+00 1.89173E-05 2.60375E-05
 -1      4736 6.23229E+00 1.22796E+01-1.54222E-04-9.30579E+00 2.71752E-06 3.74034E-06
 -1      4737 6.23229E+00 1.22796E+01-1.61691E-04-9.30579E+00-6.74622E-08-9.28613E-08
 -1      4738 6.23229E+00 1.22796E+01-1.61691E-04-9.30579E+00 6.74633E-08 9.28542E-08
 -1      4739 6.23229E+00 1.22796E+01-1.54222E-04-9.30579E+00-2.71752E-06-3.74034E-06
 -1      4740 6.23228E+00 1.22795E+01-1.33905E-04-9.30579E+00-1.89173E-05-2.60375E-05
 -1      4741 6.23226E+00 1.22795E+01-1.04623E-04-9.30580E+00-6.16244E-05-8.48186E-05
 -1      4742 6.23228E+00 1.22795E+01-8.26707E-05-9.30579E+00-9.55059E-05-1.31453E-04
 -1      4743 7.22156E+00 1.12903E+01-8.26704E-05-9.57087E+00 1.02255E-04 1.26274E-04
 -1      4744 7.22154E+00 1.12902E+01-1.04622E-04-9.57088E+00 6.59790E-05 8.14772E-05
 -1      4745 7.22156E+00 1.12903E+01-1.33905E-04-9.57087E+00 2.02541E-05 2.50117E-05
 -1      4746 7.22157E+00 1.12903E+01-1.54222E-04-9.57087E+00 2.90956E-06 3.59299E-06
 -1      4747 7.22157E+00 1.12903E+01-1.61691E-04-9.57086E+00-7.22275E-08-8.92010E-08
 -1      4748 7.22157E+00 1.12903E+01-1.61691E-04-9.57086E+00 7.22303E-08 8.92002E-08
 -1      4749 7.22157E+00 1.12903E+01-1.54222E-04-9.57087E+00-2.90955E-06-3.59299E-06
 -1      4750 7.22156E+00 1.12903E+01-1.33905E-04-9.57087E+00-2.02541E-05-2.50117E-05
 -1      4751 7.22154E+00 1.12902E+01-1.04622E-04-9.57088E+00-6.59790E-05-8.14772E-05
 -1      4752 7.22156E+00 1.12903E+01-8.26704E-05-9.57087E+00-1.02255E-04-1.26274E-04
 -1      4753 8.23313E+00 1.02787E+01-8.26706E-05-9.73108E+00 1.08723E-04 1.20749E-04
 -1      4754 8.23312E+00 1.02787E+01-1.04622E-04-9.73110E+00 7.01527E-05 7.79125E-05
 -1      4755 8.23313E+00 1.02787E+01-1.33905E-04-9.73109E+00 2.15354E-05 2.39174E-05
 -1      4756 8.23314E+00 1.02787E+01-1.54222E-04-9.73108E+00 3.09361E-06 3.43580E-06
 -1      4757 8.23315E+00 1.02787E+01-1.61691E-04-9.73108E+00-7.68015E-08-8.52959E-08
 -1      4758 8.23315E+00 1.02787E+01-1.61691E-04-9.73108E+00 7.68026E-08 8.52912E-08
 -1      4759 8.23314E+00 1.02787E+01-1.54222E-04-9.73108E+00-3.09360E-06-3.43580E-06
 -1      4760 8.23313E+00 1.02787E+01-1.33905E-04-9.73109E+00-2.15353E-05-2.39174E-05
 -1      4761 8.23312E+00 1.02787E+01-1.04622E-04-9.73110E+00-7.01527E-05-7.79125E-05
 -1      4762 8.23313E+00 1.02787E+01-8.26706E-05-9.73108E+00-1.08723E-04-1.20749E-04
 -1      4763 9.25591E+00 9.25591E+00-8.26714E-05-9.78468E+00 1.14894E-04 1.14894E-04
 -1      4764 9.25590E+00 9.25590E+00-1.04623E-04-9.78470E+00 7.41342E-05 7.41342E-05
 -1      4765 9.25591E+00 9.25591E+00-1.33906E-04-9.78469E+00 2.27576E-05 2.27576E-05
 -1      4766 9.25592E+00 9.25592E+00-1.54223E-04-9.78468E+00 3.26917E-06 3.26919E-06
 -1      4767 9.25592E+00 9.25592E+00-1.61692E-04-9.78468E+00-8.11617E-08-8.11621E-08
 -1      4768 9.25592E+00 9.25592E+00-1.61692E-04-9.78468E+00 8.11611E-08 8.11522E-08
 -1      4769 9.25592E+00 9.25592E+00-1.54223E-04-9.78468E+00-3.26917E-06-3.26920E-06
 -1      4770 9.25591E+00 9.25591E+00-1.33906E-04-9.78469E+00-2.27576E-05-2.27576E-05
 -1      4771 9.25590E+00 9.25590E+00-1.04623E-04-9.78470E+00-7.41342E-05-7.41342E-05
 -1      4772 9.25591E+00 9.25591E+00-8.26714E-05-9.78468E+00-1.14894E-04-1.14894E-04
 -1      4773 1.02787E+01 8.23313E+00-8.26722E-05-9.73108E+00 1.20749E-04 1.08723E-04
 -1      4774 1.02787E+01 8.23312E+00-1.04624E-04-9.73110E+00 7.79125E-05 7.01527E-05
 -1      4775 1.02787E+01 8.23313E+00-1.33907E-04-9.73109E+00 2.39174E-05 2.15354E-05
 -1      4776 1.02787E+01 8.23314E+00-1.54223E-04-9.73108E+00 3.43580E-06 3.09361E-06
 -1      4777 1.02787E+01 8.23315E+00-1.61692E-04-9.73108E+00-8.52933E-08-7.67994E-08
 -1      4778 1.02787E+01 8.23315E+00-1.61692E-04-9.73108E+00 8.52955E-08 7.67986E-08
 -1      4779 1.02787E+01 8.23314E+00-1.54223E-04-9.73108E+00-3.43580E-06-3.09361E-06
 -1      4780 1.02787E+01 8.23313E+00-1.33907E-04-9.73109E+00-2.39174E-05-2.15354E-05
 -1      4781 1.02787E+01 8.23312E+00-1.04624E-04-9.73110E+00-7.79125E-05-7.01527E-05
 -1      4782 1.02787E+01 8.23313E+00-8.26722E-05-9.73108E+00-1.20749E-04-1.08723E-04
 -1      4783 1.12903E+01 7.22156E+00-8.26723E-05-9.57087E+00 1.26274E-04 1.02255E-04
 -1      4784 1.12902E+01 7.22154E+00-1.04624E-04-9.57088E+00 8.14772E-05 6.59790E-05
 -1      4785 1.12903E+01 7.22156E+00-1.33907E-04-9.57087E+00 2.50117E-05 2.02541E-05
 -1      4786 1.12903E+01 7.22157E+00-1.54223E-04-9.57087E+00 3.59300E-06 2.90955E-06
 -1      4787 1.12903E+01 7.22157E+00-1.61692E-04-9.57086E+00-8.91945E-08-7.22333E-08
 -1      4788 1.12903E+01 7.22157E+00-1.61692E-04-9.57086E+00 8.91973E-08 7.22308E-08
 -1      4789 1.12903E+01 7.22157E+00-1.54223E-04-9.57087E+00-3.59300E-06-2.90955E-06
 -1      4790 1.12903E+01 7.22156E+00-1.33907E-04-9.57087E+00-2.50117E-05-2.02541E-05
 -1      4791 1.12902E+01 7.22154E+00-1.04624E-04-9.57088E+00-8.14772E-05-6.59790E-05
 -1      4792 1.12903E+01 7.22156E+00-8.26723E-05-9.57087E+00-1.26274E-04-1.02255E-04
 -1      4793 1.22795E+01 6.23228E+00-8.26722E-05-9.30579E+00 1.31453E-04 9.55059E-05
 -1      4794 1.22795E+01 6.23226E+00-1.04624E-04-9.30580E+00 8.48186E-05 6.16243E-05
 -1      4795 1.22795E+01 6.23228E+00-1.33907E-04-9.30579E+00 2.60375E-05 1.89173E-05
 -1      4796 1.22796E+01 6.23229E+00-1.54223E-04-9.30579E+00 3.74035E-06 2.71752E-06
 -1      4797 1.22796E+01 6.23229E+00-1.61692E-04-9.30579E+00-9.28565E-08-6.74675E-08
 -1      4798 1.22796E+01 6.23229E+00-1.61692E-04-9.30579E+00 9.28569E-08 6.74644E-08
 -1      4799 1.22796E+01 6.23229E+00-1.54223E-04-9.30579E+00-3.74035E-06-2.71752E-06
 -1      4800 1.22795E+01 6.23228E+00-1.33907E-04-9.30579E+00-2.60375E-05-1.89173E-05
 -1      4801 1.22795E+01 6.23226E+00-1.04624E-04-9.30580E+00-8.48186E-05-6.16244E-05
 -1      4802 1.22795E+01 6.23228E+00-8.26722E-05-9.30579E+00-1.31453E-04-9.55059E-05
 -1      4803 1.32357E+01 5.27612E+00-8.26721E-05-8.93875E+00 1.36271E-04 8.84953E-05
 -1      4804 1.32357E+01 5.27610E+00-1.04624E-04-8.93877E+00 8.79276E-05 5.71008E-05
 -1      4805 1.32357E+01 5.27612E+00-1.33907E-04-8.93876E+00 2.69918E-05 1.75287E-05
 -1      4806 1.32357E+01 5.27613E+00-1.54223E-04-8.93875E+00 3.87745E-06 2.51804E-06
 -1      4807 1.32357E+01 5.27613E+00-1.61692E-04-8.93875E+00-9.62540E-08-6.25108E-08
 -1      4808 1.32357E+01 5.27613E+00-1.61692E-04-8.93875E+00 9.62616E-08 6.25099E-08
 -1      4809 1.32357E+01 5.27613E+00-1.54223E-04-8.93875E+00-3.87745E-06-2.51804E-06
 -1      4810 1.32357E+01 5.27612E+00-1.33907E-04-8.93876E+00-2.69918E-05-1.75287E-05
 -1      4811 1.32357E+01 5.27610E+00-1.04624E-04-8.93877E+00-8.79276E-05-5.71008E-05
 -1      4812 1.32357E+01 5.27612E+00-8.26721E-05-8.93875E+00-1.36271E-04-8.84953E-05
 -1      4813 1.41483E+01 4.36357E+00-8.26721E-05-8.47379E+00 1.40716E-04 8.12422E-05
 -1      4814 1.41482E+01 4.36355E+00-1.04624E-04-8.47380E+00 9.07955E-05 5.24208E-05
 -1      4815 1.41483E+01 4.36357E+00-1.33907E-04-8.47379E+00 2.78722E-05 1.60920E-05
 -1      4816 1.41483E+01 4.36358E+00-1.54223E-04-8.47379E+00 4.00392E-06 2.31166E-06
 -1      4817 1.41483E+01 4.36358E+00-1.61692E-04-8.47378E+00-9.93954E-08-5.73905E-08
 -1      4818 1.41483E+01 4.36358E+00-1.61692E-04-8.47378E+00 9.93990E-08 5.73894E-08
 -1      4819 1.41483E+01 4.36358E+00-1.54223E-04-8.47379E+00-4.00392E-06-2.31166E-06
 -1      4820 1.41483E+01 4.36357E+00-1.33907E-04-8.47379E+00-2.78722E-05-1.60920E-05
 -1      4821 1.41482E+01 4.36355E+00-1.04624E-04-8.47380E+00-9.07955E-05-5.24208E-05
 -1      4822 1.41483E+01 4.36357E+00-8.26721E-05-8.47379E+00-1.40716E-04-8.12422E-05
 -1      4823 1.50072E+01 3.50462E+00-8.26721E-05-7.91598E+00 1.44775E-04 7.37663E-05
 -1      4824 1.50072E+01 3.50460E+00-1.04624E-04-7.91599E+00 9.34146E-05 4.75971E-05
 -1      4825 1.50072E+01 3.50462E+00-1.33907E-04-7.91598E+00 2.86762E-05 1.46113E-05
 -1      4826 1.50072E+01 3.50463E+00-1.54223E-04-7.91598E+00 4.11941E-06 2.09894E-06
 -1      4827 1.50072E+01 3.50463E+00-1.61692E-04-7.91598E+00-1.02265E-07-5.21093E-08
 -1      4828 1.50072E+01 3.50463E+00-1.61692E-04-7.91598E+00 1.02270E-07 5.21051E-08
 -1      4829 1.50072E+01 3.50463E+00-1.54223E-04-7.91598E+00-4.11940E-06-2.09895E-06
 -1      4830 1.50072E+01 3.50462E+00-1.33907E-04-7.91598E+00-2.86762E-05-1.46113E-05
 -1      4831 1.50072E+01 3.50460E+00-1.04624E-04-7.91599E+00-9.34146E-05-4.75971E-05
 -1      4832 1.50072E+01 3.50462E+00-8.26721E-05-7.91598E+00-1.44775E-04-7.37663E-05
 -1      4833 1.58031E+01 2.70868E+00-8.26724E-05-7.27144E+00 1.48437E-04 6.60883E-05
 -1      4834 1.58031E+01 2.70866E+00-1.04624E-04-7.27145E+00 9.57776E-05 4.26429E-05
 -1      4835 1.58031E+01 2.70868E+00-1.33907E-04-7.27144E+00 2.94016E-05 1.30904E-05
 -1      4836 1.58032E+01 2.70869E+00-1.54224E-04-7.27144E+00 4.22361E-06 1.88048E-06
 -1      4837 1.58032E+01 2.70869E+00-1.61693E-04-7.27144E+00-1.04855E-07-4.66854E-08
 -1      4838 1.58032E+01 2.70869E+00-1.61693E-04-7.27144E+00 1.04860E-07 4.66809E-08
 -1      4839 1.58032E+01 2.70869E+00-1.54224E-04-7.27144E+00-4.22361E-06-1.88048E-06
 -1      4840 1.58031E+01 2.70868E+00-1.33907E-04-7.27144E+00-2.94016E-05-1.30905E-05
 -1      4841 1.58031E+01 2.70866E+00-1.04624E-04-7.27145E+00-9.57776E-05-4.26429E-05
 -1      4842 1.58031E+01 2.70868E+00-8.26724E-05-7.27144E+00-1.48437E-04-6.60883E-05
 -1      4843 1.65273E+01 1.98447E+00-8.26725E-05-6.54723E+00 1.51692E-04 5.82292E-05
 -1      4844 1.65273E+01 1.98445E+00-1.04624E-04-6.54724E+00 9.78781E-05 3.75719E-05
 -1      4845 1.65274E+01 1.98447E+00-1.33907E-04-6.54724E+00 3.00464E-05 1.15337E-05
 -1      4846 1.65274E+01 1.98448E+00-1.54224E-04-6.54723E+00 4.31624E-06 1.65684E-06
 -1      4847 1.65274E+01 1.98449E+00-1.61693E-04-6.54723E+00-1.07151E-07-4.11351E-08
 -1      4848 1.65274E+01 1.98449E+00-1.61693E-04-6.54723E+00 1.07153E-07 4.11310E-08
 -1      4849 1.65274E+01 1.98448E+00-1.54224E-04-6.54723E+00-4.31625E-06-1.65685E-06
 -1      4850 1.65274E+01 1.98447E+00-1.33907E-04-6.54724E+00-3.00464E-05-1.15337E-05
 -1      4851 1.65273E+01 1.98445E+00-1.04624E-04-6.54724E+00-9.78781E-05-3.75719E-05
 -1      4852 1.65273E+01 1.98447E+00-8.26725E-05-6.54723E+00-1.51692E-04-5.82292E-05
 -1      4853 1.71719E+01 1.33993E+00-8.26723E-05-5.75129E+00 1.54532E-04 5.02104E-05
 -1      4854 1.71719E+01 1.33991E+00-1.04624E-04-5.75130E+00 9.97103E-05 3.23978E-05
 -1      4855 1.71719E+01 1.33993E+00-1.33907E-04-5.75130E+00 3.06089E-05 9.94542E-06
 -1      4856 1.71719E+01 1.33994E+00-1.54223E-04-5.75129E+00 4.39704E-06 1.42868E-06
 -1      4857 1.71719E+01 1.33995E+00-1.61692E-04-5.75129E+00-1.09158E-07-3.54713E-08
 -1      4858 1.71719E+01 1.33995E+00-1.61692E-04-5.75129E+00 1.09157E-07 3.54665E-08
 -1      4859 1.71719E+01 1.33994E+00-1.54223E-04-5.75129E+00-4.39704E-06-1.42869E-06
 -1      4860 1.71719E+01 1.33993E+00-1.33907E-04-5.75130E+00-3.06089E-05-9.94543E-06
 -1      4861 1.71719E+01 1.33991E+00-1.04624E-04-5.75130E+00-9.97103E-05-3.23978E-05
 -1      4862 1.71719E+01 1.33993E+00-8.26723E-05-5.75129E+00-1.54532E-04-5.02104E-05
 -1      4863 1.77297E+01 7.82126E-01-8.26723E-05-4.89234E+00 1.56948E-04 4.20540E-05
 -1      4864 1.77297E+01 7.82100E-01-1.04624E-04-4.89235E+00 1.01269E-04 2.71350E-05
 -1      4865 1.77297E+01 7.82122E-01-1.33907E-04-4.89234E+00 3.10874E-05 8.32985E-06
 -1      4866 1.77297E+01 7.82135E-01-1.54223E-04-4.89234E+00 4.46578E-06 1.19660E-06
 -1      4867 1.77297E+01 7.82139E-01-1.61693E-04-4.89234E+00-1.10868E-07-2.97088E-08
 -1      4868 1.77297E+01 7.82139E-01-1.61693E-04-4.89234E+00 1.10866E-07 2.97021E-08
 -1      4869 1.77297E+01 7.82135E-01-1.54223E-04-4.89234E+00-4.46579E-06-1.19661E-06
 -1      4870 1.77297E+01 7.82122E-01-1.33907E-04-4.89234E+00-3.10874E-05-8.32986E-06
 -1      4871 1.77297E+01 7.82100E-01-1.04624E-04-4.89235E+00-1.01269E-04-2.71350E-05
 -1      4872 1.77297E+01 7.82126E-01-8.26723E-05-4.89234E+00-1.56948E-04-4.20540E-05
 -1      4873 1.81947E+01 3.17157E-01-8.26724E-05-3.97979E+00 1.58934E-04 3.37824E-05
 -1      4874 1.81947E+01 3.17131E-01-1.04624E-04-3.97979E+00 1.02551E-04 2.17978E-05
 -1      4875 1.81947E+01 3.17153E-01-1.33907E-04-3.97979E+00 3.14808E-05 6.69144E-06
 -1      4876 1.81947E+01 3.17166E-01-1.54224E-04-3.97979E+00 4.52229E-06 9.61241E-07
 -1      4877 1.81947E+01 3.17170E-01-1.61693E-04-3.97979E+00-1.12265E-07-2.38652E-08
 -1      4878 1.81947E+01 3.17170E-01-1.61693E-04-3.97979E+00 1.12273E-07 2.38608E-08
 -1      4879 1.81947E+01 3.17166E-01-1.54224E-04-3.97979E+00-4.52229E-06-9.61247E-07
 -1      4880 1.81947E+01 3.17153E-01-1.33907E-04-3.97979E+00-3.14808E-05-6.69145E-06
 -1      4881 1.81947E+01 3.17131E-01-1.04624E-04-3.97979E+00-1.02551E-04-2.17978E-05
 -1      4882 1.81947E+01 3.17157E-01-8.26724E-05-3.97979E+00-1.58934E-04-3.37824E-05
 -1      4883 1.85617E+01-4.98770E-02-8.26724E-05-3.02363E+00 1.60484E-04 2.54181E-05
 -1      4884 1.85617E+01-4.99034E-02-1.04624E-04-3.02364E+00 1.03551E-04 1.64008E-05
 -1      4885 1.85617E+01-4.98809E-02-1.33907E-04-3.02364E+00 3.17878E-05 5.03469E-06
 -1      4886 1.85617E+01-4.98674E-02-1.54224E-04-3.02363E+00 4.56641E-06 7.23242E-07
 -1      4887 1.85617E+01-4.98634E-02-1.61693E-04-3.02363E+00-1.13359E-07-1.79593E-08
 -1      4888 1.85617E+01-4.98634E-02-1.61693E-04-3.02363E+00 1.13364E-07 1.79516E-08
 -1      4889 1.85617E+01-4.98674E-02-1.54224E-04-3.02363E+00-4.56641E-06-7.23250E-07
 -1      4890 1.85617E+01-4.98809E-02-1.33907E-04-3.02364E+00-3.17878E-05-5.03470E-06
 -1      4891 1.85617E+01-4.99034E-02-1.04624E-04-3.02364E+00-1.03551E-04-1.64008E-05
 -1      4892 1.85617E+01-4.98770E-02-8.26724E-05-3.02363E+00-1.60484E-04-2.54181E-05
 -1      4893 1.88268E+01-3.14955E-01-8.26723E-05-2.03435E+00 1.61594E-04 1.69842E-05
 -1      4894 1.88268E+01-3.14981E-01-1.04624E-04-2.03435E+00 1.04267E-04 1.09589E-05
 -1      4895 1.88268E+01-3.14959E-01-1.33907E-04-2.03435E+00 3.20078E-05 3.36415E-06
 -1      4896 1.88268E+01-3.14945E-01-1.54223E-04-2.03435E+00 4.59800E-06 4.83264E-07
 -1      4897 1.88268E+01-3.14941E-01-1.61692E-04-2.03435E+00-1.14143E-07-1.20019E-08
 -1      4898 1.88268E+01-3.14941E-01-1.61692E-04-2.03435E+00 1.14153E-07 1.19945E-08
 -1      4899 1.88268E+01-3.14945E-01-1.54223E-04-2.03435E+00-4.59799E-06-4.83270E-07
 -1      4900 1.88268E+01-3.14959E-01-1.33907E-04-2.03435E+00-3.20078E-05-3.36415E-06
 -1      4901 1.88268E+01-3.14981E-01-1.04624E-04-2.03435E+00-1.04267E-04-1.09589E-05
 -1      4902 1.88268E+01-3.14955E-01-8.26723E-05-2.03435E+00-1.61594E-04-1.69842E-05
 -1      4903 1.89870E+01-4.75172E-01-8.26722E-05-1.02278E+00 1.62262E-04 8.50377E-06
 -1      4904 1.89870E+01-4.75199E-01-1.04624E-04-1.02278E+00 1.04698E-04 5.48699E-06
 -1      4905 1.89870E+01-4.75176E-01-1.33907E-04-1.02278E+00 3.21400E-05 1.68438E-06
 -1      4906 1.89870E+01-4.75162E-01-1.54223E-04-1.02278E+00 4.61699E-06 2.41965E-07
 -1      4907 1.89870E+01-4.75158E-01-1.61692E-04-1.02278E+00-1.14615E-07-6.00838E-09
 -1      4908 1.89870E+01-4.75158E-01-1.61692E-04-1.02278E+00 1.14625E-07 6.00522E-09
 -1      4909 1.89870E+01-4.75162E-01-1.54223E-04-1.02278E+00-4.61698E-06-2.41968E-07
 -1      4910 1.89870E+01-4.75176E-01-1.33907E-04-1.02278E+00-3.21400E-05-1.68439E-06
 -1      4911 1.89870E+01-4.75199E-01-1.04624E-04-1.02278E+00-1.04698E-04-5.48699E-06
 -1      4912 1.89870E+01-4.75172E-01-8.26722E-05-1.02278E+00-1.62262E-04-8.50377E-06
 -1      4913-4.25309E-01 1.89372E+01-5.12293E-05-1.01754E+00 8.70040E-06 1.66014E-04
 -1      4914-4.25325E-01 1.89372E+01-5.50299E-05-1.01754E+00 5.86659E-06 1.11941E-04
 -1      4915-4.25324E-01 1.89372E+01-6.05073E-05-1.01754E+00 1.93188E-06 3.68625E-05
 -1      4916-4.25321E-01 1.89372E+01-6.56004E-05-1.01754E+00 3.31788E-07 6.33086E-06
 -1      4917-4.25319E-01 1.89372E+01-6.82689E-05-1.01754E+00 1.23881E-08 2.36358E-07
 -1      4918-4.25319E-01 1.89372E+01-6.82689E-05-1.01754E+00-1.23867E-08-2.36358E-07
 -1      4919-4.25321E-01 1.89372E+01-6.56004E-05-1.01754E+00-3.31787E-07-6.33086E-06
 -1      4920-4.25324E-01 1.89372E+01-6.05073E-05-1.01754E+00-1.93188E-06-3.68625E-05
 -1      4921-4.25325E-01 1.89372E+01-5.50299E-05-1.01754E+00-5.86659E-06-1.11941E-04
 -1      4922-4.25309E-01 1.89372E+01-5.12293E-05-1.01754E+00-8.70040E-06-1.66014E-04
 -1      4923-2.65913E-01 1.87778E+01-5.12292E-05-2.02393E+00 1.73770E-05 1.65331E-04
 -1      4924-2.65928E-01 1.87778E+01-5.50298E-05-2.02393E+00 1.17171E-05 1.11481E-04
 -1      4925-2.65928E-01 1.87778E+01-6.05072E-05-2.02393E+00 3.85848E-06 3.67109E-05
 -1      4926-2.65924E-01 1.87778E+01-6.56003E-05-2.02393E+00 6.62666E-07 6.30482E-06
 -1      4927-2.65922E-01 1.87778E+01-6.82688E-05-2.02393E+00 2.47407E-08 2.35385E-07
 -1      4928-2.65922E-01 1.87778E+01-6.82688E-05-2.02393E+00-2.47410E-08-2.35389E-07
 -1      4929-2.65924E-01 1.87778E+01-6.56003E-05-2.02393E+00-6.62664E-07-6.30482E-06
 -1      4930-2.65928E-01 1.87778E+01-6.05072E-05-2.02393E+00-3.85847E-06-3.67109E-05
 -1      4931-2.65928E-01 1.87778E+01-5.50298E-05-2.02393E+00-1.17171E-05-1.11481E-04
 -1      4932-2.65913E-01 1.87778E+01-5.12292E-05-2.02393E+00-1.73770E-05-1.65331E-04
 -1      4933-2.19270E-03 1.85141E+01-5.12291E-05-3.00815E+00 2.60059E-05 1.64195E-04
 -1      4934-2.20767E-03 1.85141E+01-5.50298E-05-3.00815E+00 1.75355E-05 1.10715E-04
 -1      4935-2.20718E-03 1.85141E+01-6.05072E-05-3.00815E+00 5.77449E-06 3.64587E-05
 -1      4936-2.20357E-03 1.85141E+01-6.56002E-05-3.00815E+00 9.91724E-07 6.26150E-06
 -1      4937-2.20137E-03 1.85141E+01-6.82687E-05-3.00815E+00 3.70264E-08 2.33767E-07
 -1      4938-2.20137E-03 1.85141E+01-6.82687E-05-3.00815E+00-3.70238E-08-2.33769E-07
 -1      4939-2.20357E-03 1.85141E+01-6.56002E-05-3.00815E+00-9.91723E-07-6.26150E-06
 -1      4940-2.20718E-03 1.85141E+01-6.05072E-05-3.00815E+00-5.77448E-06-3.64587E-05
 -1      4941-2.20767E-03 1.85141E+01-5.50298E-05-3.00815E+00-1.75355E-05-1.10715E-04
 -1      4942-2.19270E-03 1.85141E+01-5.12291E-05-3.00815E+00-2.60059E-05-1.64195E-04
 -1      4943 3.62961E-01 1.81489E+01-5.12292E-05-3.95941E+00 3.45635E-05 1.62609E-04
 -1      4944 3.62947E-01 1.81489E+01-5.50299E-05-3.95941E+00 2.33058E-05 1.09645E-04
 -1      4945 3.62947E-01 1.81489E+01-6.05072E-05-3.95941E+00 7.67467E-06 3.61065E-05
 -1      4946 3.62951E-01 1.81489E+01-6.56003E-05-3.95941E+00 1.31806E-06 6.20102E-06
 -1      4947 3.62953E-01 1.81489E+01-6.82688E-05-3.95941E+00 4.92088E-08 2.31515E-07
 -1      4948 3.62953E-01 1.81489E+01-6.82688E-05-3.95941E+00-4.92082E-08-2.31513E-07
 -1      4949 3.62951E-01 1.81489E+01-6.56003E-05-3.95941E+00-1.31806E-06-6.20102E-06
 -1      4950 3.62947E-01 1.81489E+01-6.05072E-05-3.95941E+00-7.67467E-06-3.61065E-05
 -1      4951 3.62947E-01 1.81489E+01-5.50299E-05-3.95941E+00-2.33058E-05-1.09645E-04
 -1      4952 3.62961E-01 1.81489E+01-5.12292E-05-3.95941E+00-3.45635E-05-1.62609E-04
 -1      4953 8.25548E-01 1.76863E+01-5.12292E-05-4.86728E+00 4.30264E-05 1.60577E-04
 -1      4954 8.25534E-01 1.76863E+01-5.50299E-05-4.86729E+00 2.90123E-05 1.08275E-04
 -1      4955 8.25535E-01 1.76863E+01-6.05073E-05-4.86729E+00 9.55382E-06 3.56553E-05
 -1      4956 8.25539E-01 1.76863E+01-6.56003E-05-4.86729E+00 1.64080E-06 6.12353E-06
 -1      4957 8.25541E-01 1.76863E+01-6.82688E-05-4.86729E+00 6.12582E-08 2.28617E-07
 -1      4958 8.25541E-01 1.76863E+01-6.82688E-05-4.86729E+00-6.12579E-08-2.28619E-07
 -1      4959 8.25539E-01 1.76863E+01-6.56003E-05-4.86729E+00-1.64080E-06-6.12354E-06
 -1      4960 8.25535E-01 1.76863E+01-6.05073E-05-4.86729E+00-9.55382E-06-3.56554E-05
 -1      4961 8.25534E-01 1.76863E+01-5.50299E-05-4.86729E+00-2.90123E-05-1.08275E-04
 -1      4962 8.25548E-01 1.76863E+01-5.12292E-05-4.86728E+00-4.30264E-05-1.60577E-04
 -1      4963 1.38050E+00 1.71314E+01-5.12292E-05-5.72184E+00 5.13714E-05 1.58105E-04
 -1      4964 1.38049E+00 1.71314E+01-5.50299E-05-5.72184E+00 3.46392E-05 1.06608E-04
 -1      4965 1.38049E+00 1.71314E+01-6.05072E-05-5.72184E+00 1.14068E-05 3.51065E-05
 -1      4966 1.38049E+00 1.71314E+01-6.56003E-05-5.72184E+00 1.95903E-06 6.02927E-06
 -1      4967 1.38049E+00 1.71314E+01-6.82688E-05-5.72184E+00 7.31398E-08 2.25098E-07
 -1      4968 1.38049E+00 1.71314E+01-6.82688E-05-5.72184E+00-7.31403E-08-2.25102E-07
 -1      4969 1.38049E+00 1.71314E+01-6.56003E-05-5.72184E+00-1.95903E-06-6.02927E-06
 -1      4970 1.38049E+00 1.71314E+01-6.05072E-05-5.72184E+00-1.14068E-05-3.51065E-05
 -1      4971 1.38049E+00 1.71314E+01-5.50299E-05-5.72184E+00-3.46392E-05-1.06608E-04
 -1      4972 1.38050E+00 1.71314E+01-5.12292E-05-5.72184E+00-5.13714E-05-1.58105E-04
 -1      4973 2.02174E+00 1.64901E+01-5.12291E-05-6.51370E+00 5.95756E-05 1.55200E-04
 -1      4974 2.02172E+00 1.64901E+01-5.50297E-05-6.51370E+00 4.01712E-05 1.04650E-04
 -1      4975 2.02173E+00 1.64901E+01-6.05071E-05-6.51371E+00 1.32285E-05 3.44614E-05
 -1      4976 2.02173E+00 1.64901E+01-6.56001E-05-6.51371E+00 2.27189E-06 5.91848E-06
 -1      4977 2.02173E+00 1.64901E+01-6.82687E-05-6.51371E+00 8.48196E-08 2.20961E-07
 -1      4978 2.02173E+00 1.64901E+01-6.82687E-05-6.51371E+00-8.48218E-08-2.20965E-07
 -1      4979 2.02173E+00 1.64901E+01-6.56001E-05-6.51371E+00-2.27189E-06-5.91848E-06
 -1      4980 2.02173E+00 1.64901E+01-6.05071E-05-6.51371E+00-1.32285E-05-3.44614E-05
 -1      4981 2.02172E+00 1.64901E+01-5.50297E-05-6.51370E+00-4.01712E-05-1.04650E-04
 -1      4982 2.02174E+00 1.64901E+01-5.12291E-05-6.51370E+00-5.95756E-05-1.55200E-04
 -1      4983 2.74223E+00 1.57696E+01-5.12291E-05-7.23419E+00 6.76165E-05 1.51869E-04
 -1      4984 2.74222E+00 1.57696E+01-5.50298E-05-7.23420E+00 4.55931E-05 1.02404E-04
 -1      4985 2.74222E+00 1.57696E+01-6.05071E-05-7.23420E+00 1.50139E-05 3.37218E-05
 -1      4986 2.74223E+00 1.57696E+01-6.56002E-05-7.23421E+00 2.57852E-06 5.79147E-06
 -1      4987 2.74223E+00 1.57696E+01-6.82687E-05-7.23421E+00 9.62659E-08 2.16219E-07
 -1      4988 2.74223E+00 1.57696E+01-6.82687E-05-7.23421E+00-9.62672E-08-2.16223E-07
 -1      4989 2.74223E+00 1.57696E+01-6.56002E-05-7.23421E+00-2.57853E-06-5.79147E-06
 -1      4990 2.74222E+00 1.57696E+01-6.05071E-05-7.23420E+00-1.50139E-05-3.37218E-05
 -1      4991 2.74222E+00 1.57696E+01-5.50297E-05-7.23420E+00-4.55931E-05-1.02404E-04
 -1      4992 2.74223E+00 1.57696E+01-5.12291E-05-7.23419E+00-6.76165E-05-1.51869E-04
 -1      4993 3.53410E+00 1.49778E+01-5.12293E-05-7.87543E+00 7.54720E-05 1.48122E-04
 -1      4994 3.53409E+00 1.49778E+01-5.50300E-05-7.87544E+00 5.08900E-05 9.98772E-05
 -1      4995 3.53409E+00 1.49778E+01-6.05074E-05-7.87544E+00 1.67582E-05 3.28898E-05
 -1      4996 3.53409E+00 1.49778E+01-6.56004E-05-7.87544E+00 2.87809E-06 5.64858E-06
 -1      4997 3.53409E+00 1.49778E+01-6.82690E-05-7.87544E+00 1.07450E-07 2.10886E-07
 -1      4998 3.53409E+00 1.49778E+01-6.82690E-05-7.87544E+00-1.07454E-07-2.10892E-07
 -1      4999 3.53409E+00 1.49778E+01-6.56004E-05-7.87544E+00-2.87810E-06-5.64859E-06
 -1      5000 3.53409E+00 1.49778E+01-6.05074E-05-7.87544E+00-1.67582E-05-3.28898E-05
 -1      5001 3.53409E+00 1.49778E+01-5.50300E-05-7.87544E+00-5.08900E-05-9.98772E-05
 -1      5002 3.53410E+00 1.49778E+01-5.12293E-05-7.87543E+00-7.54720E-05-1.48122E-04
 -1      5003 4.38865E+00 1.41232E+01-5.12293E-05-8.43038E+00 8.31207E-05 1.43969E-04
 -1      5004 4.38864E+00 1.41232E+01-5.50299E-05-8.43039E+00 5.60474E-05 9.70769E-05
 -1      5005 4.38864E+00 1.41232E+01-6.05073E-05-8.43040E+00 1.84566E-05 3.19677E-05
 -1      5006 4.38864E+00 1.41232E+01-6.56003E-05-8.43040E+00 3.16977E-06 5.49021E-06
 -1      5007 4.38865E+00 1.41232E+01-6.82688E-05-8.43040E+00 1.18339E-07 2.04975E-07
 -1      5008 4.38865E+00 1.41232E+01-6.82688E-05-8.43040E+00-1.18342E-07-2.04972E-07
 -1      5009 4.38864E+00 1.41232E+01-6.56003E-05-8.43040E+00-3.16978E-06-5.49021E-06
 -1      5010 4.38864E+00 1.41232E+01-6.05073E-05-8.43040E+00-1.84566E-05-3.19677E-05
 -1      5011 4.38864E+00 1.41232E+01-5.50299E-05-8.43039E+00-5.60474E-05-9.70769E-05
 -1      5012 4.38865E+00 1.41232E+01-5.12293E-05-8.43038E+00-8.31207E-05-1.43969E-04
 -1      5013 5.29653E+00 1.32153E+01-5.12293E-05-8.89297E+00 9.05416E-05 1.39422E-04
 -1      5014 5.29652E+00 1.32153E+01-5.50300E-05-8.89298E+00 6.10512E-05 9.40106E-05
 -1      5015 5.29652E+00 1.32153E+01-6.05073E-05-8.89298E+00 2.01043E-05 3.09580E-05
 -1      5016 5.29652E+00 1.32153E+01-6.56004E-05-8.89298E+00 3.45277E-06 5.31680E-06
 -1      5017 5.29653E+00 1.32154E+01-6.82689E-05-8.89298E+00 1.28907E-07 1.98504E-07
 -1      5018 5.29653E+00 1.32154E+01-6.82689E-05-8.89298E+00-1.28909E-07-1.98498E-07
 -1      5019 5.29652E+00 1.32153E+01-6.56004E-05-8.89298E+00-3.45277E-06-5.31680E-06
 -1      5020 5.29652E+00 1.32153E+01-6.05073E-05-8.89298E+00-2.01043E-05-3.09580E-05
 -1      5021 5.29652E+00 1.32153E+01-5.50300E-05-8.89298E+00-6.10512E-05-9.40106E-05
 -1      5022 5.29653E+00 1.32153E+01-5.12293E-05-8.89297E+00-9.05416E-05-1.39422E-04
 -1      5023 6.24778E+00 1.22641E+01-5.12291E-05-9.25812E+00 9.77142E-05 1.34492E-04
 -1      5024 6.24778E+00 1.22641E+01-5.50298E-05-9.25813E+00 6.58877E-05 9.06866E-05
 -1      5025 6.24778E+00 1.22641E+01-6.05072E-05-9.25814E+00 2.16970E-05 2.98633E-05
 -1      5026 6.24778E+00 1.22641E+01-6.56002E-05-9.25814E+00 3.72629E-06 5.12880E-06
 -1      5027 6.24779E+00 1.22641E+01-6.82687E-05-9.25814E+00 1.39116E-07 1.91478E-07
 -1      5028 6.24779E+00 1.22641E+01-6.82687E-05-9.25814E+00-1.39122E-07-1.91481E-07
 -1      5029 6.24778E+00 1.22641E+01-6.56002E-05-9.25814E+00-3.72630E-06-5.12880E-06
 -1      5030 6.24778E+00 1.22641E+01-6.05072E-05-9.25814E+00-2.16970E-05-2.98633E-05
 -1      5031 6.24778E+00 1.22641E+01-5.50298E-05-9.25813E+00-6.58877E-05-9.06866E-05
 -1      5032 6.24778E+00 1.22641E+01-5.12291E-05-9.25812E+00-9.77142E-05-1.34492E-04
 -1      5033 7.23200E+00 1.12799E+01-5.12288E-05-9.52184E+00 1.04619E-04 1.29194E-04
 -1      5034 7.23199E+00 1.12799E+01-5.50295E-05-9.52185E+00 7.05435E-05 8.71140E-05
 -1      5035 7.23200E+00 1.12799E+01-6.05069E-05-9.52186E+00 2.32302E-05 2.86869E-05
 -1      5036 7.23200E+00 1.12799E+01-6.55999E-05-9.52186E+00 3.98961E-06 4.92675E-06
 -1      5037 7.23200E+00 1.12799E+01-6.82685E-05-9.52186E+00 1.48950E-07 1.83938E-07
 -1      5038 7.23200E+00 1.12799E+01-6.82685E-05-9.52186E+00-1.48955E-07-1.83934E-07
 -1      5039 7.23200E+00 1.12799E+01-6.55999E-05-9.52186E+00-3.98962E-06-4.92675E-06
 -1      5040 7.23200E+00 1.12799E+01-6.05069E-05-9.52186E+00-2.32302E-05-2.86869E-05
 -1      5041 7.23199E+00 1.12799E+01-5.50295E-05-9.52185E+00-7.05435E-05-8.71140E-05
 -1      5042 7.23200E+00 1.12799E+01-5.12288E-05-9.52184E+00-1.04619E-04-1.29194E-04
 -1      5043 8.23839E+00 1.02735E+01-5.12290E-05-9.68124E+00 1.11237E-04 1.23541E-04
 -1      5044 8.23839E+00 1.02735E+01-5.50296E-05-9.68125E+00 7.50061E-05 8.33027E-05
 -1      5045 8.23839E+00 1.02735E+01-6.05070E-05-9.68126E+00 2.46997E-05 2.74318E-05
 -1      5046 8.23839E+00 1.02735E+01-6.56000E-05-9.68126E+00 4.24198E-06 4.71121E-06
 -1      5047 8.23840E+00 1.02735E+01-6.82686E-05-9.68126E+00 1.58368E-07 1.75894E-07
 -1      5048 8.23840E+00 1.02735E+01-6.82686E-05-9.68126E+00-1.58372E-07-1.75891E-07
 -1      5049 8.23839E+00 1.02735E+01-6.56000E-05-9.68126E+00-4.24199E-06-4.71121E-06
 -1      5050 8.23839E+00 1.02735E+01-6.05070E-05-9.68126E+00-2.46997E-05-2.74318E-05
 -1      5051 8.23839E+00 1.02735E+01-5.50296E-05-9.68125E+00-7.50061E-05-8.33027E-05
 -1      5052 8.23839E+00 1.02735E+01-5.12290E-05-9.68124E+00-1.11237E-04-1.23541E-04
 -1      5053 9.25593E+00 9.25593E+00-5.12298E-05-9.73457E+00 1.17550E-04 1.17550E-04
 -1      5054 9.25593E+00 9.25593E+00-5.50305E-05-9.73458E+00 7.92630E-05 7.92630E-05
 -1      5055 9.25593E+00 9.25593E+00-6.05079E-05-9.73458E+00 2.61015E-05 2.61015E-05
 -1      5056 9.25594E+00 9.25594E+00-6.56009E-05-9.73458E+00 4.48273E-06 4.48274E-06
 -1      5057 9.25594E+00 9.25594E+00-6.82694E-05-9.73458E+00 1.67353E-07 1.67362E-07
 -1      5058 9.25594E+00 9.25594E+00-6.82694E-05-9.73458E+00-1.67363E-07-1.67362E-07
 -1      5059 9.25594E+00 9.25594E+00-6.56009E-05-9.73458E+00-4.48273E-06-4.48275E-06
 -1      5060 9.25593E+00 9.25593E+00-6.05079E-05-9.73458E+00-2.61015E-05-2.61015E-05
 -1      5061 9.25593E+00 9.25593E+00-5.50305E-05-9.73458E+00-7.92630E-05-7.92630E-05
 -1      5062 9.25593E+00 9.25593E+00-5.12298E-05-9.73457E+00-1.17550E-04-1.17550E-04
 -1      5063 1.02735E+01 8.23839E+00-5.12306E-05-9.68124E+00 1.23541E-04 1.11237E-04
 -1      5064 1.02735E+01 8.23839E+00-5.50312E-05-9.68125E+00 8.33027E-05 7.50061E-05
 -1      5065 1.02735E+01 8.23839E+00-6.05086E-05-9.68126E+00 2.74318E-05 2.46997E-05
 -1      5066 1.02735E+01 8.23839E+00-6.56017E-05-9.68126E+00 4.71120E-06 4.24199E-06
 -1      5067 1.02735E+01 8.23840E+00-6.82702E-05-9.68126E+00 1.75890E-07 1.58376E-07
 -1      5068 1.02735E+01 8.23840E+00-6.82702E-05-9.68126E+00-1.75893E-07-1.58370E-07
 -1      5069 1.02735E+01 8.23839E+00-6.56017E-05-9.68126E+00-4.71121E-06-4.24199E-06
 -1      5070 1.02735E+01 8.23839E+00-6.05086E-05-9.68126E+00-2.74318E-05-2.46997E-05
 -1      5071 1.02735E+01 8.23839E+00-5.50312E-05-9.68125E+00-8.33027E-05-7.50061E-05
 -1      5072 1.02735E+01 8.23839E+00-5.12306E-05-9.68124E+00-1.23541E-04-1.11237E-04
 -1      5073 1.12799E+01 7.23200E+00-5.12307E-05-9.52184E+00 1.29194E-04 1.04619E-04
 -1      5074 1.12799E+01 7.23199E+00-5.50313E-05-9.52185E+00 8.71140E-05 7.05435E-05
 -1      5075 1.12799E+01 7.23200E+00-6.05087E-05-9.52186E+00 2.86869E-05 2.32302E-05
 -1      5076 1.12799E+01 7.23200E+00-6.56018E-05-9.52186E+00 4.92676E-06 3.98961E-06
 -1      5077 1.12799E+01 7.23200E+00-6.82703E-05-9.52186E+00 1.83937E-07 1.48951E-07
 -1      5078 1.12799E+01 7.23200E+00-6.82703E-05-9.52186E+00-1.83941E-07-1.48946E-07
 -1      5079 1.12799E+01 7.23200E+00-6.56018E-05-9.52186E+00-4.92676E-06-3.98960E-06
 -1      5080 1.12799E+01 7.23200E+00-6.05087E-05-9.52186E+00-2.86869E-05-2.32302E-05
 -1      5081 1.12799E+01 7.23199E+00-5.50313E-05-9.52185E+00-8.71140E-05-7.05435E-05
 -1      5082 1.12799E+01 7.23200E+00-5.12307E-05-9.52184E+00-1.29194E-04-1.04619E-04
 -1      5083 1.22641E+01 6.24778E+00-5.12306E-05-9.25812E+00 1.34492E-04 9.77143E-05
 -1      5084 1.22641E+01 6.24778E+00-5.50312E-05-9.25813E+00 9.06866E-05 6.58877E-05
 -1      5085 1.22641E+01 6.24778E+00-6.05086E-05-9.25814E+00 2.98633E-05 2.16970E-05
 -1      5086 1.22641E+01 6.24778E+00-6.56017E-05-9.25814E+00 5.12880E-06 3.72629E-06
 -1      5087 1.22641E+01 6.24779E+00-6.82702E-05-9.25814E+00 1.91477E-07 1.39119E-07
 -1      5088 1.22641E+01 6.24779E+00-6.82702E-05-9.25814E+00-1.91484E-07-1.39115E-07
 -1      5089 1.22641E+01 6.24778E+00-6.56017E-05-9.25814E+00-5.12881E-06-3.72629E-06
 -1      5090 1.22641E+01 6.24778E+00-6.05086E-05-9.25814E+00-2.98634E-05-2.16970E-05
 -1      5091 1.22641E+01 6.24778E+00-5.50312E-05-9.25813E+00-9.06866E-05-6.58877E-05
 -1      5092 1.22641E+01 6.24778E+00-5.12306E-05-9.25812E+00-1.34492E-04-9.77143E-05
 -1      5093 1.32153E+01 5.29653E+00-5.12305E-05-8.89297E+00 1.39422E-04 9.05416E-05
 -1      5094 1.32153E+01 5.29652E+00-5.50311E-05-8.89298E+00 9.40106E-05 6.10512E-05
 -1      5095 1.32153E+01 5.29652E+00-6.05085E-05-8.89298E+00 3.09580E-05 2.01043E-05
 -1      5096 1.32153E+01 5.29652E+00-6.56016E-05-8.89298E+00 5.31680E-06 3.45277E-06
 -1      5097 1.32154E+01 5.29653E+00-6.82701E-05-8.89298E+00 1.98502E-07 1.28912E-07
 -1      5098 1.32154E+01 5.29653E+00-6.82701E-05-8.89298E+00-1.98501E-07-1.28905E-07
 -1      5099 1.32153E+01 5.29652E+00-6.56016E-05-8.89298E+00-5.31680E-06-3.45277E-06
 -1      5100 1.32153E+01 5.29652E+00-6.05085E-05-8.89298E+00-3.09580E-05-2.01043E-05
 -1      5101 1.32153E+01 5.29652E+00-5.50311E-05-8.89298E+00-9.40106E-05-6.10512E-05
 -1      5102 1.32153E+01 5.29653E+00-5.12305E-05-8.89297E+00-1.39422E-04-9.05416E-05
 -1      5103 1.41232E+01 4.38865E+00-5.12305E-05-8.43038E+00 1.43969E-04 8.31207E-05
 -1      5104 1.41232E+01 4.38864E+00-5.50312E-05-8.43039E+00 9.70769E-05 5.60474E-05
 -1      5105 1.41232E+01 4.38864E+00-6.05086E-05-8.43040E+00 3.19677E-05 1.84566E-05
 -1      5106 1.41232E+01 4.38864E+00-6.56016E-05-8.43040E+00 5.49022E-06 3.16978E-06
 -1      5107 1.41232E+01 4.38865E+00-6.82701E-05-8.43040E+00 2.04975E-07 1.18344E-07
 -1      5108 1.41232E+01 4.38865E+00-6.82701E-05-8.43040E+00-2.04975E-07-1.18338E-07
 -1      5109 1.41232E+01 4.38864E+00-6.56016E-05-8.43040E+00-5.49021E-06-3.16977E-06
 -1      5110 1.41232E+01 4.38864E+00-6.05086E-05-8.43040E+00-3.19677E-05-1.84566E-05
 -1      5111 1.41232E+01 4.38864E+00-5.50312E-05-8.43039E+00-9.70769E-05-5.60474E-05
 -1      5112 1.41232E+01 4.38865E+00-5.12305E-05-8.43038E+00-1.43969E-04-8.31207E-05
 -1      5113 1.49778E+01 3.53410E+00-5.12305E-05-7.87543E+00 1.48122E-04 7.54720E-05
 -1      5114 1.49778E+01 3.53409E+00-5.50311E-05-7.87544E+00 9.98772E-05 5.08900E-05
 -1      5115 1.49778E+01 3.53409E+00-6.05085E-05-7.87544E+00 3.28898E-05 1.67582E-05
 -1      5116 1.49778E+01 3.53409E+00-6.56016E-05-7.87544E+00 5.64858E-06 2.87810E-06
 -1      5117 1.49778E+01 3.53409E+00-6.82701E-05-7.87544E+00 2.10887E-07 1.07453E-07
 -1      5118 1.49778E+01 3.53409E+00-6.82701E-05-7.87544E+00-2.10885E-07-1.07452E-07
 -1      5119 1.49778E+01 3.53409E+00-6.56016E-05-7.87544E+00-5.64858E-06-2.87809E-06
 -1      5120 1.49778E+01 3.53409E+00-6.05085E-05-7.87544E+00-3.28898E-05-1.67582E-05
 -1      5121 1.49778E+01 3.53409E+00-5.50311E-05-7.87544E+00-9.98772E-05-5.08900E-05
 -1      5122 1.49778E+01 3.53410E+00-5.12305E-05-7.87543E+00-1.48122E-04-7.54720E-05
 -1      5123 1.57696E+01 2.74223E+00-5.12308E-05-7.23419E+00 1.51869E-04 6.76165E-05
 -1      5124 1.57696E+01 2.74222E+00-5.50315E-05-7.23420E+00 1.02404E-04 4.55931E-05
 -1      5125 1.57696E+01 2.74222E+00-6.05089E-05-7.23420E+00 3.37218E-05 1.50139E-05
 -1      5126 1.57696E+01 2.74223E+00-6.56019E-05-7.23421E+00 5.79146E-06 2.57853E-06
 -1      5127 1.57696E+01 2.74223E+00-6.82705E-05-7.23421E+00 2.16219E-07 9.62697E-08
 -1      5128 1.57696E+01 2.74223E+00-6.82705E-05-7.23421E+00-2.16214E-07-9.62680E-08
 -1      5129 1.57696E+01 2.74223E+00-6.56019E-05-7.23421E+00-5.79146E-06-2.57853E-06
 -1      5130 1.57696E+01 2.74222E+00-6.05089E-05-7.23420E+00-3.37218E-05-1.50139E-05
 -1      5131 1.57696E+01 2.74222E+00-5.50315E-05-7.23420E+00-1.02404E-04-4.55931E-05
 -1      5132 1.57696E+01 2.74223E+00-5.12308E-05-7.23419E+00-1.51869E-04-6.76165E-05
 -1      5133 1.64901E+01 2.02174E+00-5.12309E-05-6.51370E+00 1.55200E-04 5.95756E-05
 -1      5134 1.64901E+01 2.02172E+00-5.50315E-05-6.51370E+00 1.04650E-04 4.01712E-05
 -1      5135 1.64901E+01 2.02173E+00-6.05089E-05-6.51371E+00 3.44614E-05 1.32285E-05
 -1      5136 1.64901E+01 2.02173E+00-6.56020E-05-6.51371E+00 5.91848E-06 2.27189E-06
 -1      5137 1.64901E+01 2.02173E+00-6.82705E-05-6.51371E+00 2.20962E-07 8.48187E-08
 -1      5138 1.64901E+01 2.02173E+00-6.82705E-05-6.51371E+00-2.20965E-07-8.48184E-08
 -1      5139 1.64901E+01 2.02173E+00-6.56020E-05-6.51371E+00-5.91849E-06-2.27189E-06
 -1      5140 1.64901E+01 2.02173E+00-6.05089E-05-6.51371E+00-3.44614E-05-1.32285E-05
 -1      5141 1.64901E+01 2.02172E+00-5.50315E-05-6.51370E+00-1.04650E-04-4.01712E-05
 -1      5142 1.64901E+01 2.02174E+00-5.12309E-05-6.51370E+00-1.55200E-04-5.95756E-05
 -1      5143 1.71314E+01 1.38050E+00-5.12307E-05-5.72184E+00 1.58105E-04 5.13714E-05
 -1      5144 1.71314E+01 1.38049E+00-5.50314E-05-5.72184E+00 1.06608E-04 3.46392E-05
 -1      5145 1.71314E+01 1.38049E+00-6.05087E-05-5.72184E+00 3.51065E-05 1.14068E-05
 -1      5146 1.71314E+01 1.38049E+00-6.56018E-05-5.72184E+00 6.02927E-06 1.95903E-06
 -1      5147 1.71314E+01 1.38049E+00-6.82703E-05-5.72184E+00 2.25100E-07 7.31390E-08
 -1      5148 1.71314E+01 1.38049E+00-6.82703E-05-5.72184E+00-2.25101E-07-7.31363E-08
 -1      5149 1.71314E+01 1.38049E+00-6.56018E-05-5.72184E+00-6.02927E-06-1.95903E-06
 -1      5150 1.71314E+01 1.38049E+00-6.05087E-05-5.72184E+00-3.51065E-05-1.14068E-05
 -1      5151 1.71314E+01 1.38049E+00-5.50314E-05-5.72184E+00-1.06608E-04-3.46392E-05
 -1      5152 1.71314E+01 1.38050E+00-5.12307E-05-5.72184E+00-1.58105E-04-5.13714E-05
 -1      5153 1.76863E+01 8.25548E-01-5.12307E-05-4.86728E+00 1.60577E-04 4.30264E-05
 -1      5154 1.76863E+01 8.25534E-01-5.50314E-05-4.86729E+00 1.08275E-04 2.90123E-05
 -1      5155 1.76863E+01 8.25535E-01-6.05088E-05-4.86729E+00 3.56553E-05 9.55382E-06
 -1      5156 1.76863E+01 8.25539E-01-6.56018E-05-4.86729E+00 6.12353E-06 1.64080E-06
 -1      5157 1.76863E+01 8.25541E-01-6.82703E-05-4.86729E+00 2.28615E-07 6.12598E-08
 -1      5158 1.76863E+01 8.25541E-01-6.82703E-05-4.86729E+00-2.28619E-07-6.12588E-08
 -1      5159 1.76863E+01 8.25539E-01-6.56018E-05-4.86729E+00-6.12354E-06-1.64080E-06
 -1      5160 1.76863E+01 8.25535E-01-6.05088E-05-4.86729E+00-3.56553E-05-9.55382E-06
 -1      5161 1.76863E+01 8.25534E-01-5.50314E-05-4.86729E+00-1.08275E-04-2.90123E-05
 -1      5162 1.76863E+01 8.25548E-01-5.12307E-05-4.86728E+00-1.60577E-04-4.30264E-05
 -1      5163 1.81489E+01 3.62961E-01-5.12308E-05-3.95941E+00 1.62609E-04 3.45635E-05
 -1      5164 1.81489E+01 3.62947E-01-5.50314E-05-3.95941E+00 1.09645E-04 2.33058E-05
 -1      5165 1.81489E+01 3.62947E-01-6.05088E-05-3.95941E+00 3.61065E-05 7.67467E-06
 -1      5166 1.81489E+01 3.62951E-01-6.56019E-05-3.95941E+00 6.20102E-06 1.31807E-06
 -1      5167 1.81489E+01 3.62953E-01-6.82704E-05-3.95941E+00 2.31515E-07 4.92114E-08
 -1      5168 1.81489E+01 3.62953E-01-6.82704E-05-3.95941E+00-2.31509E-07-4.92081E-08
 -1      5169 1.81489E+01 3.62951E-01-6.56019E-05-3.95941E+00-6.20101E-06-1.31807E-06
 -1      5170 1.81489E+01 3.62947E-01-6.05088E-05-3.95941E+00-3.61065E-05-7.67467E-06
 -1      5171 1.81489E+01 3.62947E-01-5.50314E-05-3.95941E+00-1.09645E-04-2.33058E-05
 -1      5172 1.81489E+01 3.62961E-01-5.12308E-05-3.95941E+00-1.62609E-04-3.45635E-05
 -1      5173 1.85141E+01-2.19270E-03-5.12308E-05-3.00815E+00 1.64195E-04 2.60059E-05
 -1      5174 1.85141E+01-2.20767E-03-5.50314E-05-3.00815E+00 1.10715E-04 1.75355E-05
 -1      5175 1.85141E+01-2.20718E-03-6.05088E-05-3.00815E+00 3.64587E-05 5.77448E-06
 -1      5176 1.85141E+01-2.20357E-03-6.56019E-05-3.00815E+00 6.26150E-06 9.91723E-07
 -1      5177 1.85141E+01-2.20137E-03-6.82704E-05-3.00815E+00 2.33774E-07 3.70246E-08
 -1      5178 1.85141E+01-2.20137E-03-6.82704E-05-3.00815E+00-2.33770E-07-3.70255E-08
 -1      5179 1.85141E+01-2.20357E-03-6.56019E-05-3.00815E+00-6.26150E-06-9.91724E-07
 -1      5180 1.85141E+01-2.20718E-03-6.05088E-05-3.00815E+00-3.64587E-05-5.77449E-06
 -1      5181 1.85141E+01-2.20767E-03-5.50314E-05-3.00815E+00-1.10715E-04-1.75355E-05
 -1      5182 1.85141E+01-2.19270E-03-5.12308E-05-3.00815E+00-1.64195E-04-2.60059E-05
 -1      5183 1.87778E+01-2.65913E-01-5.12307E-05-2.02393E+00 1.65331E-04 1.73770E-05
 -1      5184 1.87778E+01-2.65928E-01-5.50313E-05-2.02393E+00 1.11481E-04 1.17171E-05
 -1      5185 1.87778E+01-2.65928E-01-6.05087E-05-2.02393E+00 3.67109E-05 3.85847E-06
 -1      5186 1.87778E+01-2.65924E-01-6.56018E-05-2.02393E+00 6.30482E-06 6.62661E-07
 -1      5187 1.87778E+01-2.65922E-01-6.82703E-05-2.02393E+00 2.35390E-07 2.47377E-08
 -1      5188 1.87778E+01-2.65922E-01-6.82703E-05-2.02393E+00-2.35382E-07-2.47412E-08
 -1      5189 1.87778E+01-2.65924E-01-6.56018E-05-2.02393E+00-6.30482E-06-6.62663E-07
 -1      5190 1.87778E+01-2.65928E-01-6.05087E-05-2.02393E+00-3.67109E-05-3.85847E-06
 -1      5191 1.87778E+01-2.65928E-01-5.50313E-05-2.02393E+00-1.11481E-04-1.17171E-05
 -1      5192 1.87778E+01-2.65913E-01-5.12307E-05-2.02393E+00-1.65331E-04-1.73770E-05
 -1      5193 1.89372E+01-4.25309E-01-5.12306E-05-1.01754E+00 1.66014E-04 8.70040E-06
 -1      5194 1.89372E+01-4.25325E-01-5.50313E-05-1.01754E+00 1.11941E-04 5.86659E-06
 -1      5195 1.89372E+01-4.25324E-01-6.05087E-05-1.01754E+00 3.68625E-05 1.93188E-06
 -1      5196 1.89372E+01-4.25321E-01-6.56017E-05-1.01754E+00 6.33086E-06 3.31786E-07
 -1      5197 1.89372E+01-4.25319E-01-6.82702E-05-1.01754E+00 2.36366E-07 1.23867E-08
 -1      5198 1.89372E+01-4.25319E-01-6.82702E-05-1.01754E+00-2.36353E-07-1.23879E-08
 -1      5199 1.89372E+01-4.25321E-01-6.56017E-05-1.01754E+00-6.33086E-06-3.31787E-07
 -1      5200 1.89372E+01-4.25324E-01-6.05087E-05-1.01754E+00-3.68625E-05-1.93188E-06
 -1      5201 1.89372E+01-4.25325E-01-5.50313E-05-1.01754E+00-1.11941E-04-5.86659E-06
 -1      5202 1.89372E+01-4.25309E-01-5.12306E-05-1.01754E+00-1.66014E-04-8.70040E-06
 -1      5203-3.75830E-01 1.88877E+01-2.03736E-05-1.01234E+00 8.53175E-06 1.62796E-04
 -1      5204-3.75833E-01 1.88877E+01-6.02935E-06-1.01234E+00 5.67903E-06 1.08362E-04
 -1      5205-3.75854E-01 1.88878E+01 1.22488E-05-1.01234E+00 1.87995E-06 3.58716E-05
 -1      5206-3.75861E-01 1.88878E+01 2.25237E-05-1.01234E+00 3.52007E-07 6.71667E-06
 -1      5207-3.75861E-01 1.88878E+01 2.48271E-05-1.01234E+00 2.62980E-08 5.01775E-07
 -1      5208-3.75861E-01 1.88878E+01 2.48271E-05-1.01234E+00-2.62964E-08-5.01774E-07
 -1      5209-3.75861E-01 1.88878E+01 2.25237E-05-1.01234E+00-3.52005E-07-6.71667E-06
 -1      5210-3.75854E-01 1.88878E+01 1.22488E-05-1.01234E+00-1.87995E-06-3.58716E-05
 -1      5211-3.75833E-01 1.88877E+01-6.02935E-06-1.01234E+00-5.67903E-06-1.08362E-04
 -1      5212-3.75830E-01 1.88877E+01-2.03736E-05-1.01234E+00-8.53175E-06-1.62796E-04
 -1      5213-2.17247E-01 1.87291E+01-2.03735E-05-2.01359E+00 1.70401E-05 1.62126E-04
 -1      5214-2.17250E-01 1.87292E+01-6.02926E-06-2.01359E+00 1.13425E-05 1.07917E-04
 -1      5215-2.17272E-01 1.87292E+01 1.22488E-05-2.01360E+00 3.75475E-06 3.57240E-05
 -1      5216-2.17278E-01 1.87292E+01 2.25238E-05-2.01360E+00 7.03048E-07 6.68903E-06
 -1      5217-2.17278E-01 1.87292E+01 2.48272E-05-2.01360E+00 5.25222E-08 4.99709E-07
 -1      5218-2.17278E-01 1.87292E+01 2.48272E-05-2.01360E+00-5.25226E-08-4.99714E-07
 -1      5219-2.17278E-01 1.87292E+01 2.25238E-05-2.01360E+00-7.03047E-07-6.68904E-06
 -1      5220-2.17272E-01 1.87292E+01 1.22488E-05-2.01360E+00-3.75475E-06-3.57240E-05
 -1      5221-2.17250E-01 1.87292E+01-6.02926E-06-2.01359E+00-1.13425E-05-1.07917E-04
 -1      5222-2.17247E-01 1.87291E+01-2.03735E-05-2.01359E+00-1.70401E-05-1.62126E-04
 -1      5223 4.51254E-02 1.84668E+01-2.03734E-05-2.99278E+00 2.55018E-05 1.61012E-04
 -1      5224 4.51226E-02 1.84668E+01-6.02920E-06-2.99278E+00 1.69749E-05 1.07175E-04
 -1      5225 4.51017E-02 1.84668E+01 1.22489E-05-2.99279E+00 5.61925E-06 3.54786E-05
 -1      5226 4.50953E-02 1.84668E+01 2.25238E-05-2.99279E+00 1.05216E-06 6.64308E-06
 -1      5227 4.50957E-02 1.84668E+01 2.48273E-05-2.99279E+00 7.86032E-08 4.96275E-07
 -1      5228 4.50957E-02 1.84668E+01 2.48273E-05-2.99279E+00-7.86015E-08-4.96277E-07
 -1      5229 4.50953E-02 1.84668E+01 2.25238E-05-2.99279E+00-1.05216E-06-6.64307E-06
 -1      5230 4.51017E-02 1.84668E+01 1.22489E-05-2.99279E+00-5.61926E-06-3.54786E-05
 -1      5231 4.51226E-02 1.84668E+01-6.02920E-06-2.99278E+00-1.69749E-05-1.07175E-04
 -1      5232 4.51254E-02 1.84668E+01-2.03734E-05-2.99278E+00-2.55018E-05-1.61012E-04
 -1      5233 4.08414E-01 1.81035E+01-2.03735E-05-3.93918E+00 3.38936E-05 1.59457E-04
 -1      5234 4.08411E-01 1.81035E+01-6.02928E-06-3.93918E+00 2.25607E-05 1.06140E-04
 -1      5235 4.08391E-01 1.81035E+01 1.22488E-05-3.93919E+00 7.46836E-06 3.51359E-05
 -1      5236 4.08385E-01 1.81035E+01 2.25237E-05-3.93919E+00 1.39839E-06 6.57891E-06
 -1      5237 4.08385E-01 1.81035E+01 2.48272E-05-3.93919E+00 1.04468E-07 4.91489E-07
 -1      5238 4.08385E-01 1.81035E+01 2.48272E-05-3.93919E+00-1.04468E-07-4.91486E-07
 -1      5239 4.08385E-01 1.81035E+01 2.25237E-05-3.93919E+00-1.39839E-06-6.57891E-06
 -1      5240 4.08391E-01 1.81035E+01 1.22488E-05-3.93919E+00-7.46836E-06-3.51359E-05
 -1      5241 4.08411E-01 1.81035E+01-6.02928E-06-3.93918E+00-2.25607E-05-1.06140E-04
 -1      5242 4.08414E-01 1.81035E+01-2.03735E-05-3.93918E+00-3.38936E-05-1.59457E-04
 -1      5243 8.68638E-01 1.76433E+01-2.03735E-05-4.84242E+00 4.21924E-05 1.57464E-04
 -1      5244 8.68636E-01 1.76433E+01-6.02930E-06-4.84242E+00 2.80847E-05 1.04814E-04
 -1      5245 8.68616E-01 1.76433E+01 1.22488E-05-4.84243E+00 9.29699E-06 3.46969E-05
 -1      5246 8.68610E-01 1.76433E+01 2.25237E-05-4.84243E+00 1.74079E-06 6.49670E-06
 -1      5247 8.68611E-01 1.76433E+01 2.48272E-05-4.84243E+00 1.30047E-07 4.85342E-07
 -1      5248 8.68611E-01 1.76433E+01 2.48272E-05-4.84243E+00-1.30048E-07-4.85344E-07
 -1      5249 8.68610E-01 1.76433E+01 2.25237E-05-4.84243E+00-1.74079E-06-6.49671E-06
 -1      5250 8.68616E-01 1.76433E+01 1.22488E-05-4.84243E+00-9.29700E-06-3.46969E-05
 -1      5251 8.68636E-01 1.76433E+01-6.02931E-06-4.84242E+00-2.80847E-05-1.04814E-04
 -1      5252 8.68638E-01 1.76433E+01-2.03735E-05-4.84242E+00-4.21924E-05-1.57464E-04
 -1      5253 1.42075E+00 1.70911E+01-2.03735E-05-5.69260E+00 5.03756E-05 1.55040E-04
 -1      5254 1.42075E+00 1.70912E+01-6.02928E-06-5.69261E+00 3.35318E-05 1.03200E-04
 -1      5255 1.42073E+00 1.70912E+01 1.22488E-05-5.69262E+00 1.11001E-05 3.41627E-05
 -1      5256 1.42073E+00 1.70912E+01 2.25237E-05-5.69262E+00 2.07841E-06 6.39670E-06
 -1      5257 1.42073E+00 1.70912E+01 2.48272E-05-5.69262E+00 1.55269E-07 4.77871E-07
 -1      5258 1.42073E+00 1.70912E+01 2.48272E-05-5.69262E+00-1.55273E-07-4.77876E-07
 -1      5259 1.42073E+00 1.70912E+01 2.25237E-05-5.69262E+00-2.07842E-06-6.39670E-06
 -1      5260 1.42073E+00 1.70912E+01 1.22488E-05-5.69262E+00-1.11002E-05-3.41627E-05
 -1      5261 1.42075E+00 1.70912E+01-6.02927E-06-5.69261E+00-3.35318E-05-1.03200E-04
 -1      5262 1.42075E+00 1.70911E+01-2.03735E-05-5.69260E+00-5.03756E-05-1.55040E-04
 -1      5263 2.05872E+00 1.64532E+01-2.03733E-05-6.48042E+00 5.84208E-05 1.52191E-04
 -1      5264 2.05871E+00 1.64532E+01-6.02913E-06-6.48043E+00 3.88869E-05 1.01304E-04
 -1      5265 2.05870E+00 1.64532E+01 1.22490E-05-6.48044E+00 1.28729E-05 3.35350E-05
 -1      5266 2.05869E+00 1.64532E+01 2.25239E-05-6.48044E+00 2.41034E-06 6.27915E-06
 -1      5267 2.05869E+00 1.64532E+01 2.48273E-05-6.48044E+00 1.80065E-07 4.69091E-07
 -1      5268 2.05869E+00 1.64532E+01 2.48273E-05-6.48044E+00-1.80071E-07-4.69091E-07
 -1      5269 2.05869E+00 1.64532E+01 2.25239E-05-6.48044E+00-2.41035E-06-6.27915E-06
 -1      5270 2.05870E+00 1.64532E+01 1.22490E-05-6.48044E+00-1.28729E-05-3.35350E-05
 -1      5271 2.05871E+00 1.64532E+01-6.02914E-06-6.48043E+00-3.88869E-05-1.01304E-04
 -1      5272 2.05872E+00 1.64532E+01-2.03733E-05-6.48042E+00-5.84208E-05-1.52191E-04
 -1      5273 2.77553E+00 1.57364E+01-2.03734E-05-7.19724E+00 6.63058E-05 1.48925E-04
 -1      5274 2.77553E+00 1.57364E+01-6.02917E-06-7.19724E+00 4.41354E-05 9.91298E-05
 -1      5275 2.77551E+00 1.57364E+01 1.22489E-05-7.19725E+00 1.46103E-05 3.28153E-05
 -1      5276 2.77551E+00 1.57364E+01 2.25239E-05-7.19726E+00 2.73566E-06 6.14440E-06
 -1      5277 2.77551E+00 1.57364E+01 2.48273E-05-7.19726E+00 2.04366E-07 4.59023E-07
 -1      5278 2.77551E+00 1.57364E+01 2.48273E-05-7.19726E+00-2.04373E-07-4.59026E-07
 -1      5279 2.77551E+00 1.57364E+01 2.25239E-05-7.19726E+00-2.73566E-06-6.14440E-06
 -1      5280 2.77551E+00 1.57364E+01 1.22489E-05-7.19725E+00-1.46103E-05-3.28153E-05
 -1      5281 2.77553E+00 1.57364E+01-6.02917E-06-7.19724E+00-4.41354E-05-9.91298E-05
 -1      5282 2.77553E+00 1.57364E+01-2.03734E-05-7.19724E+00-6.63058E-05-1.48925E-04
 -1      5283 3.56335E+00 1.49486E+01-2.03736E-05-7.83520E+00 7.40091E-05 1.45251E-04
 -1      5284 3.56335E+00 1.49486E+01-6.02941E-06-7.83520E+00 4.92630E-05 9.66841E-05
 -1      5285 3.56333E+00 1.49486E+01 1.22487E-05-7.83522E+00 1.63077E-05 3.20057E-05
 -1      5286 3.56333E+00 1.49486E+01 2.25236E-05-7.83522E+00 3.05348E-06 5.99281E-06
 -1      5287 3.56333E+00 1.49486E+01 2.48270E-05-7.83522E+00 2.28110E-07 4.47701E-07
 -1      5288 3.56333E+00 1.49486E+01 2.48270E-05-7.83522E+00-2.28118E-07-4.47702E-07
 -1      5289 3.56333E+00 1.49486E+01 2.25236E-05-7.83522E+00-3.05349E-06-5.99281E-06
 -1      5290 3.56333E+00 1.49486E+01 1.22487E-05-7.83522E+00-1.63077E-05-3.20057E-05
 -1      5291 3.56335E+00 1.49486E+01-6.02941E-06-7.83520E+00-4.92630E-05-9.66841E-05
 -1      5292 3.56335E+00 1.49486E+01-2.03736E-05-7.83520E+00-7.40091E-05-1.45251E-04
 -1      5293 4.41353E+00 1.40984E+01-2.03735E-05-8.38731E+00 8.15095E-05 1.41179E-04
 -1      5294 4.41353E+00 1.40984E+01-6.02933E-06-8.38732E+00 5.42555E-05 9.39733E-05
 -1      5295 4.41352E+00 1.40984E+01 1.22488E-05-8.38733E+00 1.79604E-05 3.11084E-05
 -1      5296 4.41352E+00 1.40984E+01 2.25237E-05-8.38734E+00 3.36294E-06 5.82479E-06
 -1      5297 4.41352E+00 1.40984E+01 2.48271E-05-8.38734E+00 2.51226E-07 4.35151E-07
 -1      5298 4.41352E+00 1.40984E+01 2.48271E-05-8.38734E+00-2.51237E-07-4.35144E-07
 -1      5299 4.41352E+00 1.40984E+01 2.25237E-05-8.38734E+00-3.36295E-06-5.82478E-06
 -1      5300 4.41352E+00 1.40984E+01 1.22488E-05-8.38733E+00-1.79604E-05-3.11083E-05
 -1      5301 4.41353E+00 1.40984E+01-6.02933E-06-8.38732E+00-5.42555E-05-9.39733E-05
 -1      5302 4.41353E+00 1.40984E+01-2.03735E-05-8.38731E+00-8.15095E-05-1.41179E-04
 -1      5303 5.31677E+00 1.31951E+01-2.03736E-05-8.84754E+00 8.87865E-05 1.36719E-04
 -1      5304 5.31678E+00 1.31951E+01-6.02938E-06-8.84755E+00 5.90994E-05 9.10051E-05
 -1      5305 5.31676E+00 1.31951E+01 1.22487E-05-8.84756E+00 1.95639E-05 3.01258E-05
 -1      5306 5.31676E+00 1.31951E+01 2.25236E-05-8.84757E+00 3.66318E-06 5.64081E-06
 -1      5307 5.31676E+00 1.31951E+01 2.48271E-05-8.84757E+00 2.73659E-07 4.21409E-07
 -1      5308 5.31676E+00 1.31951E+01 2.48271E-05-8.84757E+00-2.73668E-07-4.21400E-07
 -1      5309 5.31676E+00 1.31951E+01 2.25236E-05-8.84757E+00-3.66318E-06-5.64080E-06
 -1      5310 5.31676E+00 1.31951E+01 1.22487E-05-8.84756E+00-1.95639E-05-3.01257E-05
 -1      5311 5.31678E+00 1.31951E+01-6.02938E-06-8.84755E+00-5.90994E-05-9.10050E-05
 -1      5312 5.31677E+00 1.31951E+01-2.03736E-05-8.84754E+00-8.87865E-05-1.36719E-04
 -1      5313 6.26317E+00 1.22487E+01-2.03734E-05-9.21082E+00 9.58201E-05 1.31885E-04
 -1      5314 6.26318E+00 1.22487E+01-6.02919E-06-9.21083E+00 6.37812E-05 8.77873E-05
 -1      5315 6.26316E+00 1.22487E+01 1.22489E-05-9.21085E+00 2.11137E-05 2.90606E-05
 -1      5316 6.26316E+00 1.22487E+01 2.25238E-05-9.21086E+00 3.95337E-06 5.44135E-06
 -1      5317 6.26316E+00 1.22487E+01 2.48273E-05-9.21086E+00 2.95335E-07 4.06503E-07
 -1      5318 6.26316E+00 1.22487E+01 2.48273E-05-9.21086E+00-2.95347E-07-4.06499E-07
 -1      5319 6.26316E+00 1.22487E+01 2.25238E-05-9.21086E+00-3.95338E-06-5.44134E-06
 -1      5320 6.26316E+00 1.22487E+01 1.22489E-05-9.21085E+00-2.11137E-05-2.90605E-05
 -1      5321 6.26318E+00 1.22487E+01-6.02919E-06-9.21083E+00-6.37812E-05-8.77873E-05
 -1      5322 6.26317E+00 1.22487E+01-2.03734E-05-9.21082E+00-9.58201E-05-1.31885E-04
 -1      5323 7.24236E+00 1.12695E+01-2.03731E-05-9.47320E+00 1.02591E-04 1.26690E-04
 -1      5324 7.24236E+00 1.12695E+01-6.02892E-06-9.47321E+00 6.82882E-05 8.43289E-05
 -1      5325 7.24235E+00 1.12695E+01 1.22492E-05-9.47322E+00 2.26057E-05 2.79157E-05
 -1      5326 7.24235E+00 1.12695E+01 2.25241E-05-9.47323E+00 4.23274E-06 5.22699E-06
 -1      5327 7.24236E+00 1.12696E+01 2.48275E-05-9.47323E+00 3.16207E-07 3.90491E-07
 -1      5328 7.24236E+00 1.12696E+01 2.48275E-05-9.47323E+00-3.16219E-07-3.90482E-07
 -1      5329 7.24235E+00 1.12695E+01 2.25241E-05-9.47323E+00-4.23275E-06-5.22698E-06
 -1      5330 7.24235E+00 1.12695E+01 1.22492E-05-9.47322E+00-2.26057E-05-2.79157E-05
 -1      5331 7.24236E+00 1.12695E+01-6.02892E-06-9.47321E+00-6.82882E-05-8.43289E-05
 -1      5332 7.24236E+00 1.12695E+01-2.03731E-05-9.47320E+00-1.02591E-04-1.26690E-04
 -1      5333 8.24361E+00 1.02683E+01-2.03733E-05-9.63178E+00 1.09081E-04 1.21147E-04
 -1      5334 8.24362E+00 1.02683E+01-6.02904E-06-9.63179E+00 7.26081E-05 8.06394E-05
 -1      5335 8.24361E+00 1.02683E+01 1.22491E-05-9.63180E+00 2.40357E-05 2.66944E-05
 -1      5336 8.24361E+00 1.02683E+01 2.25240E-05-9.63181E+00 4.50049E-06 4.99831E-06
 -1      5337 8.24361E+00 1.02683E+01 2.48274E-05-9.63181E+00 3.36208E-07 3.73411E-07
 -1      5338 8.24361E+00 1.02683E+01 2.48274E-05-9.63181E+00-3.36218E-07-3.73401E-07
 -1      5339 8.24361E+00 1.02683E+01 2.25240E-05-9.63181E+00-4.50050E-06-4.99830E-06
 -1      5340 8.24361E+00 1.02683E+01 1.22491E-05-9.63180E+00-2.40357E-05-2.66944E-05
 -1      5341 8.24362E+00 1.02683E+01-6.02905E-06-9.63179E+00-7.26081E-05-8.06394E-05
 -1      5342 8.24361E+00 1.02683E+01-2.03733E-05-9.63178E+00-1.09081E-04-1.21147E-04
 -1      5343 9.25595E+00 9.25595E+00-2.03741E-05-9.68483E+00 1.15272E-04 1.15272E-04
 -1      5344 9.25596E+00 9.25596E+00-6.02989E-06-9.68484E+00 7.67289E-05 7.67289E-05
 -1      5345 9.25595E+00 9.25595E+00 1.22482E-05-9.68486E+00 2.53998E-05 2.53999E-05
 -1      5346 9.25595E+00 9.25595E+00 2.25231E-05-9.68487E+00 4.75590E-06 4.75592E-06
 -1      5347 9.25595E+00 9.25595E+00 2.48266E-05-9.68487E+00 3.55283E-07 3.55300E-07
 -1      5348 9.25595E+00 9.25595E+00 2.48265E-05-9.68487E+00-3.55304E-07-3.55295E-07
 -1      5349 9.25595E+00 9.25595E+00 2.25231E-05-9.68487E+00-4.75591E-06-4.75592E-06
 -1      5350 9.25595E+00 9.25595E+00 1.22482E-05-9.68486E+00-2.53999E-05-2.53999E-05
 -1      5351 9.25596E+00 9.25596E+00-6.02989E-06-9.68484E+00-7.67289E-05-7.67289E-05
 -1      5352 9.25595E+00 9.25595E+00-2.03741E-05-9.68483E+00-1.15272E-04-1.15272E-04
 -1      5353 1.02683E+01 8.24361E+00-2.03748E-05-9.63178E+00 1.21147E-04 1.09081E-04
 -1      5354 1.02683E+01 8.24362E+00-6.03062E-06-9.63179E+00 8.06394E-05 7.26081E-05
 -1      5355 1.02683E+01 8.24361E+00 1.22475E-05-9.63180E+00 2.66944E-05 2.40357E-05
 -1      5356 1.02683E+01 8.24361E+00 2.25224E-05-9.63181E+00 4.99830E-06 4.50050E-06
 -1      5357 1.02683E+01 8.24361E+00 2.48258E-05-9.63181E+00 3.73399E-07 3.36222E-07
 -1      5358 1.02683E+01 8.24361E+00 2.48258E-05-9.63181E+00-3.73410E-07-3.36208E-07
 -1      5359 1.02683E+01 8.24361E+00 2.25224E-05-9.63181E+00-4.99831E-06-4.50049E-06
 -1      5360 1.02683E+01 8.24361E+00 1.22475E-05-9.63180E+00-2.66944E-05-2.40357E-05
 -1      5361 1.02683E+01 8.24362E+00-6.03062E-06-9.63179E+00-8.06394E-05-7.26081E-05
 -1      5362 1.02683E+01 8.24361E+00-2.03748E-05-9.63178E+00-1.21147E-04-1.09081E-04
 -1      5363 1.12695E+01 7.24236E+00-2.03749E-05-9.47320E+00 1.26690E-04 1.02591E-04
 -1      5364 1.12695E+01 7.24236E+00-6.03073E-06-9.47321E+00 8.43289E-05 6.82882E-05
 -1      5365 1.12695E+01 7.24235E+00 1.22474E-05-9.47322E+00 2.79157E-05 2.26057E-05
 -1      5366 1.12695E+01 7.24235E+00 2.25223E-05-9.47323E+00 5.22699E-06 4.23274E-06
 -1      5367 1.12696E+01 7.24236E+00 2.48257E-05-9.47323E+00 3.90484E-07 3.16216E-07
 -1      5368 1.12696E+01 7.24236E+00 2.48257E-05-9.47323E+00-3.90495E-07-3.16202E-07
 -1      5369 1.12695E+01 7.24235E+00 2.25223E-05-9.47323E+00-5.22700E-06-4.23273E-06
 -1      5370 1.12695E+01 7.24235E+00 1.22474E-05-9.47322E+00-2.79157E-05-2.26057E-05
 -1      5371 1.12695E+01 7.24236E+00-6.03074E-06-9.47321E+00-8.43289E-05-6.82882E-05
 -1      5372 1.12695E+01 7.24236E+00-2.03749E-05-9.47320E+00-1.26690E-04-1.02591E-04
 -1      5373 1.22487E+01 6.26317E+00-2.03749E-05-9.21082E+00 1.31885E-04 9.58201E-05
 -1      5374 1.22487E+01 6.26318E+00-6.03065E-06-9.21083E+00 8.77873E-05 6.37812E-05
 -1      5375 1.22487E+01 6.26316E+00 1.22475E-05-9.21085E+00 2.90606E-05 2.11137E-05
 -1      5376 1.22487E+01 6.26316E+00 2.25224E-05-9.21086E+00 5.44135E-06 3.95338E-06
 -1      5377 1.22487E+01 6.26316E+00 2.48258E-05-9.21086E+00 4.06497E-07 2.95346E-07
 -1      5378 1.22487E+01 6.26316E+00 2.48258E-05-9.21086E+00-4.06508E-07-2.95334E-07
 -1      5379 1.22487E+01 6.26316E+00 2.25224E-05-9.21086E+00-5.44136E-06-3.95337E-06
 -1      5380 1.22487E+01 6.26316E+00 1.22475E-05-9.21085E+00-2.90606E-05-2.11137E-05
 -1      5381 1.22487E+01 6.26318E+00-6.03065E-06-9.21083E+00-8.77873E-05-6.37812E-05
 -1      5382 1.22487E+01 6.26317E+00-2.03749E-05-9.21082E+00-1.31885E-04-9.58201E-05
 -1      5383 1.31951E+01 5.31677E+00-2.03748E-05-8.84754E+00 1.36719E-04 8.87865E-05
 -1      5384 1.31951E+01 5.31678E+00-6.03054E-06-8.84755E+00 9.10050E-05 5.90994E-05
 -1      5385 1.31951E+01 5.31676E+00 1.22476E-05-8.84756E+00 3.01257E-05 1.95639E-05
 -1      5386 1.31951E+01 5.31676E+00 2.25225E-05-8.84757E+00 5.64080E-06 3.66319E-06
 -1      5387 1.31951E+01 5.31676E+00 2.48259E-05-8.84757E+00 4.21401E-07 2.73669E-07
 -1      5388 1.31951E+01 5.31676E+00 2.48259E-05-8.84757E+00-4.21406E-07-2.73655E-07
 -1      5389 1.31951E+01 5.31676E+00 2.25225E-05-8.84757E+00-5.64081E-06-3.66317E-06
 -1      5390 1.31951E+01 5.31676E+00 1.22476E-05-8.84756E+00-3.01257E-05-1.95639E-05
 -1      5391 1.31951E+01 5.31678E+00-6.03054E-06-8.84755E+00-9.10050E-05-5.90994E-05
 -1      5392 1.31951E+01 5.31677E+00-2.03748E-05-8.84754E+00-1.36719E-04-8.87865E-05
 -1      5393 1.40984E+01 4.41353E+00-2.03748E-05-8.38731E+00 1.41179E-04 8.15095E-05
 -1      5394 1.40984E+01 4.41353E+00-6.03057E-06-8.38732E+00 9.39733E-05 5.42555E-05
 -1      5395 1.40984E+01 4.41352E+00 1.22475E-05-8.38733E+00 3.11083E-05 1.79604E-05
 -1      5396 1.40984E+01 4.41352E+00 2.25224E-05-8.38734E+00 5.82479E-06 3.36295E-06
 -1      5397 1.40984E+01 4.41352E+00 2.48259E-05-8.38734E+00 4.35146E-07 2.51239E-07
 -1      5398 1.40984E+01 4.41352E+00 2.48259E-05-8.38734E+00-4.35150E-07-2.51225E-07
 -1      5399 1.40984E+01 4.41352E+00 2.25224E-05-8.38734E+00-5.82479E-06-3.36293E-06
 -1      5400 1.40984E+01 4.41352E+00 1.22475E-05-8.38733E+00-3.11084E-05-1.79604E-05
 -1      5401 1.40984E+01 4.41353E+00-6.03057E-06-8.38732E+00-9.39733E-05-5.42555E-05
 -1      5402 1.40984E+01 4.41353E+00-2.03748E-05-8.38731E+00-1.41179E-04-8.15095E-05
 -1      5403 1.49486E+01 3.56335E+00-2.03748E-05-7.83520E+00 1.45251E-04 7.40091E-05
 -1      5404 1.49486E+01 3.56335E+00-6.03055E-06-7.83520E+00 9.66841E-05 4.92630E-05
 -1      5405 1.49486E+01 3.56333E+00 1.22476E-05-7.83522E+00 3.20057E-05 1.63077E-05
 -1      5406 1.49486E+01 3.56333E+00 2.25225E-05-7.83522E+00 5.99280E-06 3.05349E-06
 -1      5407 1.49486E+01 3.56333E+00 2.48259E-05-7.83522E+00 4.47698E-07 2.28118E-07
 -1      5408 1.49486E+01 3.56333E+00 2.48259E-05-7.83522E+00-4.47698E-07-2.28111E-07
 -1      5409 1.49486E+01 3.56333E+00 2.25225E-05-7.83522E+00-5.99280E-06-3.05348E-06
 -1      5410 1.49486E+01 3.56333E+00 1.22476E-05-7.83522E+00-3.20057E-05-1.63077E-05
 -1      5411 1.49486E+01 3.56335E+00-6.03055E-06-7.83520E+00-9.66841E-05-4.92630E-05
 -1      5412 1.49486E+01 3.56335E+00-2.03748E-05-7.83520E+00-1.45251E-04-7.40091E-05
 -1      5413 1.57364E+01 2.77553E+00-2.03751E-05-7.19724E+00 1.48925E-04 6.63058E-05
 -1      5414 1.57364E+01 2.77553E+00-6.03089E-06-7.19724E+00 9.91298E-05 4.41354E-05
 -1      5415 1.57364E+01 2.77551E+00 1.22472E-05-7.19725E+00 3.28153E-05 1.46103E-05
 -1      5416 1.57364E+01 2.77551E+00 2.25221E-05-7.19726E+00 6.14440E-06 2.73567E-06
 -1      5417 1.57364E+01 2.77551E+00 2.48255E-05-7.19726E+00 4.59022E-07 2.04375E-07
 -1      5418 1.57364E+01 2.77551E+00 2.48255E-05-7.19726E+00-4.59020E-07-2.04368E-07
 -1      5419 1.57364E+01 2.77551E+00 2.25221E-05-7.19726E+00-6.14439E-06-2.73566E-06
 -1      5420 1.57364E+01 2.77551E+00 1.22472E-05-7.19725E+00-3.28153E-05-1.46103E-05
 -1      5421 1.57364E+01 2.77553E+00-6.03090E-06-7.19724E+00-9.91298E-05-4.41354E-05
 -1      5422 1.57364E+01 2.77553E+00-2.03751E-05-7.19724E+00-1.48925E-04-6.63058E-05
 -1      5423 1.64532E+01 2.05872E+00-2.03751E-05-6.48042E+00 1.52191E-04 5.84208E-05
 -1      5424 1.64532E+01 2.05871E+00-6.03094E-06-6.48043E+00 1.01304E-04 3.88869E-05
 -1      5425 1.64532E+01 2.05870E+00 1.22472E-05-6.48044E+00 3.35350E-05 1.28729E-05
 -1      5426 1.64532E+01 2.05869E+00 2.25221E-05-6.48044E+00 6.27915E-06 2.41034E-06
 -1      5427 1.64532E+01 2.05869E+00 2.48255E-05-6.48044E+00 4.69091E-07 1.80069E-07
 -1      5428 1.64532E+01 2.05869E+00 2.48255E-05-6.48044E+00-4.69093E-07-1.80063E-07
 -1      5429 1.64532E+01 2.05869E+00 2.25221E-05-6.48044E+00-6.27916E-06-2.41033E-06
 -1      5430 1.64532E+01 2.05870E+00 1.22472E-05-6.48044E+00-3.35350E-05-1.28729E-05
 -1      5431 1.64532E+01 2.05871E+00-6.03094E-06-6.48043E+00-1.01304E-04-3.88869E-05
 -1      5432 1.64532E+01 2.05872E+00-2.03751E-05-6.48042E+00-1.52191E-04-5.84208E-05
 -1      5433 1.70911E+01 1.42075E+00-2.03750E-05-5.69260E+00 1.55040E-04 5.03756E-05
 -1      5434 1.70912E+01 1.42075E+00-6.03078E-06-5.69261E+00 1.03200E-04 3.35318E-05
 -1      5435 1.70912E+01 1.42073E+00 1.22473E-05-5.69262E+00 3.41627E-05 1.11001E-05
 -1      5436 1.70912E+01 1.42073E+00 2.25223E-05-5.69262E+00 6.39670E-06 2.07841E-06
 -1      5437 1.70912E+01 1.42073E+00 2.48257E-05-5.69262E+00 4.77872E-07 1.55273E-07
 -1      5438 1.70912E+01 1.42073E+00 2.48257E-05-5.69262E+00-4.77876E-07-1.55264E-07
 -1      5439 1.70912E+01 1.42073E+00 2.25223E-05-5.69262E+00-6.39670E-06-2.07841E-06
 -1      5440 1.70912E+01 1.42073E+00 1.22473E-05-5.69262E+00-3.41627E-05-1.11001E-05
 -1      5441 1.70912E+01 1.42075E+00-6.03077E-06-5.69261E+00-1.03200E-04-3.35318E-05
 -1      5442 1.70911E+01 1.42075E+00-2.03750E-05-5.69260E+00-1.55040E-04-5.03756E-05
 -1      5443 1.76433E+01 8.68638E-01-2.03750E-05-4.84242E+00 1.57464E-04 4.21924E-05
 -1      5444 1.76433E+01 8.68636E-01-6.03079E-06-4.84242E+00 1.04814E-04 2.80847E-05
 -1      5445 1.76433E+01 8.68616E-01 1.22473E-05-4.84243E+00 3.46968E-05 9.29700E-06
 -1      5446 1.76433E+01 8.68610E-01 2.25222E-05-4.84243E+00 6.49670E-06 1.74079E-06
 -1      5447 1.76433E+01 8.68611E-01 2.48257E-05-4.84243E+00 4.85340E-07 1.30053E-07
 -1      5448 1.76433E+01 8.68611E-01 2.48257E-05-4.84243E+00-4.85344E-07-1.30044E-07
 -1      5449 1.76433E+01 8.68610E-01 2.25222E-05-4.84243E+00-6.49671E-06-1.74079E-06
 -1      5450 1.76433E+01 8.68616E-01 1.22473E-05-4.84243E+00-3.46969E-05-9.29699E-06
 -1      5451 1.76433E+01 8.68636E-01-6.03079E-06-4.84242E+00-1.04814E-04-2.80847E-05
 -1      5452 1.76433E+01 8.68638E-01-2.03750E-05-4.84242E+00-1.57464E-04-4.21924E-05
 -1      5453 1.81035E+01 4.08414E-01-2.03751E-05-3.93918E+00 1.59457E-04 3.38936E-05
 -1      5454 1.81035E+01 4.08411E-01-6.03084E-06-3.93918E+00 1.06140E-04 2.25607E-05
 -1      5455 1.81035E+01 4.08391E-01 1.22473E-05-3.93919E+00 3.51359E-05 7.46837E-06
 -1      5456 1.81035E+01 4.08385E-01 2.25222E-05-3.93919E+00 6.57891E-06 1.39840E-06
 -1      5457 1.81035E+01 4.08385E-01 2.48256E-05-3.93919E+00 4.91487E-07 1.04474E-07
 -1      5458 1.81035E+01 4.08385E-01 2.48256E-05-3.93919E+00-4.91484E-07-1.04464E-07
 -1      5459 1.81035E+01 4.08385E-01 2.25222E-05-3.93919E+00-6.57890E-06-1.39839E-06
 -1      5460 1.81035E+01 4.08391E-01 1.22473E-05-3.93919E+00-3.51359E-05-7.46836E-06
 -1      5461 1.81035E+01 4.08411E-01-6.03085E-06-3.93918E+00-1.06140E-04-2.25607E-05
 -1      5462 1.81035E+01 4.08414E-01-2.03751E-05-3.93918E+00-1.59457E-04-3.38935E-05
 -1      5463 1.84668E+01 4.51254E-02-2.03751E-05-2.99278E+00 1.61012E-04 2.55018E-05
 -1      5464 1.84668E+01 4.51226E-02-6.03085E-06-2.99278E+00 1.07175E-04 1.69749E-05
 -1      5465 1.84668E+01 4.51017E-02 1.22473E-05-2.99279E+00 3.54786E-05 5.61926E-06
 -1      5466 1.84668E+01 4.50953E-02 2.25222E-05-2.99279E+00 6.64308E-06 1.05216E-06
 -1      5467 1.84668E+01 4.50957E-02 2.48256E-05-2.99279E+00 4.96281E-07 7.86054E-08
 -1      5468 1.84668E+01 4.50957E-02 2.48256E-05-2.99279E+00-4.96278E-07-7.85998E-08
 -1      5469 1.84668E+01 4.50953E-02 2.25222E-05-2.99279E+00-6.64308E-06-1.05216E-06
 -1      5470 1.84668E+01 4.51017E-02 1.22473E-05-2.99279E+00-3.54786E-05-5.61925E-06
 -1      5471 1.84668E+01 4.51226E-02-6.03084E-06-2.99278E+00-1.07175E-04-1.69749E-05
 -1      5472 1.84668E+01 4.51254E-02-2.03751E-05-2.99278E+00-1.61012E-04-2.55018E-05
 -1      5473 1.87291E+01-2.17247E-01-2.03750E-05-2.01359E+00 1.62126E-04 1.70401E-05
 -1      5474 1.87292E+01-2.17250E-01-6.03074E-06-2.01359E+00 1.07917E-04 1.13425E-05
 -1      5475 1.87292E+01-2.17272E-01 1.22474E-05-2.01360E+00 3.57240E-05 3.75475E-06
 -1      5476 1.87292E+01-2.17278E-01 2.25223E-05-2.01360E+00 6.68904E-06 7.03046E-07
 -1      5477 1.87292E+01-2.17278E-01 2.48257E-05-2.01360E+00 4.99714E-07 5.25216E-08
 -1      5478 1.87292E+01-2.17278E-01 2.48257E-05-2.01360E+00-4.99709E-07-5.25210E-08
 -1      5479 1.87292E+01-2.17278E-01 2.25223E-05-2.01360E+00-6.68903E-06-7.03044E-07
 -1      5480 1.87292E+01-2.17272E-01 1.22474E-05-2.01360E+00-3.57240E-05-3.75475E-06
 -1      5481 1.87292E+01-2.17250E-01-6.03075E-06-2.01359E+00-1.07917E-04-1.13425E-05
 -1      5482 1.87291E+01-2.17247E-01-2.03750E-05-2.01359E+00-1.62126E-04-1.70401E-05
 -1      5483 1.88877E+01-3.75830E-01-2.03749E-05-1.01234E+00 1.62796E-04 8.53175E-06
 -1      5484 1.88877E+01-3.75833E-01-6.03069E-06-1.01234E+00 1.08362E-04 5.67903E-06
 -1      5485 1.88878E+01-3.75854E-01 1.22474E-05-1.01234E+00 3.58716E-05 1.87995E-06
 -1      5486 1.88878E+01-3.75861E-01 2.25223E-05-1.01234E+00 6.71667E-06 3.52006E-07
 -1      5487 1.88878E+01-3.75861E-01 2.48258E-05-1.01234E+00 5.01781E-07 2.62973E-08
 -1      5488 1.88878E+01-3.75861E-01 2.48258E-05-1.01234E+00-5.01768E-07-2.62968E-08
 -1      5489 1.88878E+01-3.75861E-01 2.25223E-05-1.01234E+00-6.71666E-06-3.52005E-07
 -1      5490 1.88878E+01-3.75854E-01 1.22474E-05-1.01234E+00-3.58716E-05-1.87995E-06
 -1      5491 1.88877E+01-3.75833E-01-6.03069E-06-1.01234E+00-1.08362E-04-5.67903E-06
 -1      5492 1.88877E+01-3.75830E-01-2.03749E-05-1.01234E+00-1.62796E-04-8.53175E-06
 -1      5493-3.26724E-01 1.88387E+01 1.38457E-05-1.00718E+00 7.98281E-06 1.52321E-04
 -1      5494-3.26721E-01 1.88387E+01 4.55754E-05-1.00718E+00 4.93266E-06 9.41207E-05
 -1      5495-3.26764E-01 1.88387E+01 8.70569E-05-1.00719E+00 1.54720E-06 2.95223E-05
 -1      5496-3.26779E-01 1.88387E+01 1.11309E-04-1.00719E+00 3.08630E-07 5.88900E-06
 -1      5497-3.26781E-01 1.88387E+01 1.17725E-04-1.00719E+00 3.53989E-08 6.75430E-07
 -1      5498-3.26781E-01 1.88387E+01 1.17725E-04-1.00719E+00-3.53970E-08-6.75428E-07
 -1      5499-3.26779E-01 1.88387E+01 1.11309E-04-1.00719E+00-3.08629E-07-5.88900E-06
 -1      5500-3.26764E-01 1.88387E+01 8.70569E-05-1.00719E+00-1.54720E-06-2.95223E-05
 -1      5501-3.26721E-01 1.88387E+01 4.55754E-05-1.00718E+00-4.93266E-06-9.41207E-05
 -1      5502-3.26724E-01 1.88387E+01 1.38457E-05-1.00718E+00-7.98281E-06-1.52321E-04
 -1      5503-1.68950E-01 1.86809E+01 1.38457E-05-2.00333E+00 1.59437E-05 1.51695E-04
 -1      5504-1.68947E-01 1.86809E+01 4.55755E-05-2.00333E+00 9.85180E-06 9.37336E-05
 -1      5505-1.68989E-01 1.86809E+01 8.70570E-05-2.00334E+00 3.09016E-06 2.94009E-05
 -1      5506-1.69004E-01 1.86809E+01 1.11309E-04-2.00334E+00 6.16414E-07 5.86477E-06
 -1      5507-1.69005E-01 1.86809E+01 1.17725E-04-2.00334E+00 7.06989E-08 6.72647E-07
 -1      5508-1.69005E-01 1.86809E+01 1.17725E-04-2.00334E+00-7.06990E-08-6.72652E-07
 -1      5509-1.69004E-01 1.86809E+01 1.11309E-04-2.00334E+00-6.16414E-07-5.86477E-06
 -1      5510-1.68989E-01 1.86809E+01 8.70570E-05-2.00334E+00-3.09016E-06-2.94009E-05
 -1      5511-1.68947E-01 1.86809E+01 4.55755E-05-2.00333E+00-9.85180E-06-9.37336E-05
 -1      5512-1.68950E-01 1.86809E+01 1.38457E-05-2.00333E+00-1.59437E-05-1.51695E-04
 -1      5513 9.20858E-02 1.84199E+01 1.38458E-05-2.97753E+00 2.38610E-05 1.50652E-04
 -1      5514 9.20892E-02 1.84199E+01 4.55755E-05-2.97753E+00 1.47439E-05 9.30895E-05
 -1      5515 9.20472E-02 1.84199E+01 8.70570E-05-2.97754E+00 4.62465E-06 2.91989E-05
 -1      5516 9.20326E-02 1.84199E+01 1.11309E-04-2.97754E+00 9.22506E-07 5.82448E-06
 -1      5517 9.20315E-02 1.84199E+01 1.17725E-04-2.97754E+00 1.05806E-07 6.68026E-07
 -1      5518 9.20315E-02 1.84199E+01 1.17725E-04-2.97754E+00-1.05805E-07-6.68028E-07
 -1      5519 9.20326E-02 1.84199E+01 1.11309E-04-2.97754E+00-9.22507E-07-5.82447E-06
 -1      5520 9.20472E-02 1.84199E+01 8.70570E-05-2.97754E+00-4.62465E-06-2.91989E-05
 -1      5521 9.20892E-02 1.84199E+01 4.55755E-05-2.97753E+00-1.47439E-05-9.30895E-05
 -1      5522 9.20858E-02 1.84199E+01 1.38458E-05-2.97753E+00-2.38610E-05-1.50652E-04
 -1      5523 4.53523E-01 1.80584E+01 1.38457E-05-3.91910E+00 3.17128E-05 1.49197E-04
 -1      5524 4.53527E-01 1.80584E+01 4.55754E-05-3.91911E+00 1.95957E-05 9.21903E-05
 -1      5525 4.53486E-01 1.80585E+01 8.70569E-05-3.91912E+00 6.14646E-06 2.89168E-05
 -1      5526 4.53471E-01 1.80585E+01 1.11309E-04-3.91912E+00 1.22607E-06 5.76822E-06
 -1      5527 4.53471E-01 1.80585E+01 1.17725E-04-3.91912E+00 1.40621E-07 6.61580E-07
 -1      5528 4.53471E-01 1.80585E+01 1.17725E-04-3.91912E+00-1.40623E-07-6.61577E-07
 -1      5529 4.53471E-01 1.80585E+01 1.11309E-04-3.91912E+00-1.22607E-06-5.76822E-06
 -1      5530 4.53486E-01 1.80585E+01 8.70569E-05-3.91912E+00-6.14646E-06-2.89168E-05
 -1      5531 4.53527E-01 1.80584E+01 4.55754E-05-3.91911E+00-1.95957E-05-9.21903E-05
 -1      5532 4.53523E-01 1.80584E+01 1.38457E-05-3.91910E+00-3.17128E-05-1.49197E-04
 -1      5533 9.11402E-01 1.76005E+01 1.38457E-05-4.81774E+00 3.94777E-05 1.47333E-04
 -1      5534 9.11406E-01 1.76006E+01 4.55754E-05-4.81775E+00 2.43937E-05 9.10384E-05
 -1      5535 9.11366E-01 1.76006E+01 8.70569E-05-4.81776E+00 7.65142E-06 2.85555E-05
 -1      5536 9.11352E-01 1.76006E+01 1.11309E-04-4.81776E+00 1.52627E-06 5.69614E-06
 -1      5537 9.11352E-01 1.76006E+01 1.17725E-04-4.81777E+00 1.75053E-07 6.53309E-07
 -1      5538 9.11352E-01 1.76006E+01 1.17725E-04-4.81777E+00-1.75055E-07-6.53309E-07
 -1      5539 9.11352E-01 1.76006E+01 1.11309E-04-4.81776E+00-1.52628E-06-5.69614E-06
 -1      5540 9.11366E-01 1.76006E+01 8.70569E-05-4.81776E+00-7.65143E-06-2.85555E-05
 -1      5541 9.11406E-01 1.76006E+01 4.55754E-05-4.81775E+00-2.43937E-05-9.10384E-05
 -1      5542 9.11402E-01 1.76005E+01 1.38457E-05-4.81774E+00-3.94777E-05-1.47333E-04
 -1      5543 1.46070E+00 1.70512E+01 1.38457E-05-5.66359E+00 4.71344E-05 1.45065E-04
 -1      5544 1.46071E+00 1.70513E+01 4.55754E-05-5.66360E+00 2.91248E-05 8.96370E-05
 -1      5545 1.46067E+00 1.70513E+01 8.70569E-05-5.66362E+00 9.13542E-06 2.81159E-05
 -1      5546 1.46066E+00 1.70513E+01 1.11309E-04-5.66362E+00 1.82230E-06 5.60846E-06
 -1      5547 1.46066E+00 1.70513E+01 1.17725E-04-5.66362E+00 2.09003E-07 6.43253E-07
 -1      5548 1.46066E+00 1.70513E+01 1.17725E-04-5.66362E+00-2.09010E-07-6.43256E-07
 -1      5549 1.46066E+00 1.70513E+01 1.11309E-04-5.66362E+00-1.82230E-06-5.60846E-06
 -1      5550 1.46067E+00 1.70513E+01 8.70569E-05-5.66362E+00-9.13543E-06-2.81159E-05
 -1      5551 1.46071E+00 1.70513E+01 4.55754E-05-5.66360E+00-2.91248E-05-8.96370E-05
 -1      5552 1.46070E+00 1.70512E+01 1.38457E-05-5.66359E+00-4.71344E-05-1.45065E-04
 -1      5553 2.09542E+00 1.64165E+01 1.38459E-05-6.44740E+00 5.46619E-05 1.42399E-04
 -1      5554 2.09542E+00 1.64166E+01 4.55756E-05-6.44740E+00 3.37761E-05 8.79899E-05
 -1      5555 2.09538E+00 1.64166E+01 8.70571E-05-6.44742E+00 1.05944E-05 2.75993E-05
 -1      5556 2.09537E+00 1.64166E+01 1.11309E-04-6.44743E+00 2.11332E-06 5.50539E-06
 -1      5557 2.09537E+00 1.64166E+01 1.17725E-04-6.44743E+00 2.42380E-07 6.31434E-07
 -1      5558 2.09537E+00 1.64166E+01 1.17725E-04-6.44743E+00-2.42389E-07-6.31431E-07
 -1      5559 2.09537E+00 1.64166E+01 1.11309E-04-6.44743E+00-2.11333E-06-5.50540E-06
 -1      5560 2.09538E+00 1.64166E+01 8.70571E-05-6.44742E+00-1.05944E-05-2.75993E-05
 -1      5561 2.09542E+00 1.64166E+01 4.55756E-05-6.44740E+00-3.37761E-05-8.79899E-05
 -1      5562 2.09542E+00 1.64165E+01 1.38459E-05-6.44740E+00-5.46619E-05-1.42399E-04
 -1      5563 2.80858E+00 1.57034E+01 1.38458E-05-7.16056E+00 6.20396E-05 1.39343E-04
 -1      5564 2.80858E+00 1.57034E+01 4.55755E-05-7.16057E+00 3.83349E-05 8.61016E-05
 -1      5565 2.80855E+00 1.57034E+01 8.70571E-05-7.16058E+00 1.20243E-05 2.70070E-05
 -1      5566 2.80854E+00 1.57034E+01 1.11309E-04-7.16059E+00 2.39855E-06 5.38725E-06
 -1      5567 2.80854E+00 1.57034E+01 1.17725E-04-7.16060E+00 2.75093E-07 6.17882E-07
 -1      5568 2.80854E+00 1.57034E+01 1.17725E-04-7.16060E+00-2.75104E-07-6.17882E-07
 -1      5569 2.80854E+00 1.57034E+01 1.11309E-04-7.16059E+00-2.39856E-06-5.38725E-06
 -1      5570 2.80855E+00 1.57034E+01 8.70571E-05-7.16058E+00-1.20243E-05-2.70070E-05
 -1      5571 2.80858E+00 1.57034E+01 4.55755E-05-7.16057E+00-3.83349E-05-8.61016E-05
 -1      5572 2.80858E+00 1.57034E+01 1.38458E-05-7.16056E+00-6.20396E-05-1.39343E-04
 -1      5573 3.59238E+00 1.49196E+01 1.38456E-05-7.79527E+00 6.92472E-05 1.35905E-04
 -1      5574 3.59239E+00 1.49196E+01 4.55753E-05-7.79528E+00 4.27886E-05 8.39773E-05
 -1      5575 3.59235E+00 1.49196E+01 8.70568E-05-7.79530E+00 1.34212E-05 2.63407E-05
 -1      5576 3.59234E+00 1.49196E+01 1.11309E-04-7.79531E+00 2.67721E-06 5.25434E-06
 -1      5577 3.59234E+00 1.49196E+01 1.17725E-04-7.79531E+00 3.07051E-07 6.02640E-07
 -1      5578 3.59234E+00 1.49196E+01 1.17725E-04-7.79531E+00-3.07065E-07-6.02636E-07
 -1      5579 3.59234E+00 1.49196E+01 1.11309E-04-7.79531E+00-2.67722E-06-5.25433E-06
 -1      5580 3.59235E+00 1.49196E+01 8.70568E-05-7.79530E+00-1.34213E-05-2.63407E-05
 -1      5581 3.59239E+00 1.49196E+01 4.55753E-05-7.79528E+00-4.27886E-05-8.39773E-05
 -1      5582 3.59238E+00 1.49196E+01 1.38456E-05-7.79527E+00-6.92472E-05-1.35905E-04
 -1      5583 4.43823E+00 1.40737E+01 1.38457E-05-8.34457E+00 7.62651E-05 1.32095E-04
 -1      5584 4.43824E+00 1.40737E+01 4.55754E-05-8.34458E+00 4.71249E-05 8.16228E-05
 -1      5585 4.43821E+00 1.40737E+01 8.70569E-05-8.34460E+00 1.47814E-05 2.56022E-05
 -1      5586 4.43820E+00 1.40737E+01 1.11309E-04-8.34461E+00 2.94853E-06 5.10703E-06
 -1      5587 4.43820E+00 1.40737E+01 1.17725E-04-8.34462E+00 3.38170E-07 5.85748E-07
 -1      5588 4.43820E+00 1.40737E+01 1.17725E-04-8.34462E+00-3.38187E-07-5.85738E-07
 -1      5589 4.43820E+00 1.40737E+01 1.11309E-04-8.34461E+00-2.94855E-06-5.10702E-06
 -1      5590 4.43821E+00 1.40737E+01 8.70569E-05-8.34460E+00-1.47814E-05-2.56022E-05
 -1      5591 4.43824E+00 1.40737E+01 4.55754E-05-8.34458E+00-4.71250E-05-8.16228E-05
 -1      5592 4.43823E+00 1.40737E+01 1.38457E-05-8.34457E+00-7.62651E-05-1.32095E-04
 -1      5593 5.33687E+00 1.31751E+01 1.38456E-05-8.80245E+00 8.30739E-05 1.27923E-04
 -1      5594 5.33688E+00 1.31751E+01 4.55753E-05-8.80246E+00 5.13322E-05 7.90446E-05
 -1      5595 5.33685E+00 1.31751E+01 8.70568E-05-8.80248E+00 1.61011E-05 2.47935E-05
 -1      5596 5.33684E+00 1.31751E+01 1.11309E-04-8.80249E+00 3.21177E-06 4.94572E-06
 -1      5597 5.33684E+00 1.31751E+01 1.17725E-04-8.80250E+00 3.68363E-07 5.67249E-07
 -1      5598 5.33684E+00 1.31751E+01 1.17725E-04-8.80250E+00-3.68378E-07-5.67235E-07
 -1      5599 5.33684E+00 1.31751E+01 1.11309E-04-8.80249E+00-3.21179E-06-4.94571E-06
 -1      5600 5.33685E+00 1.31751E+01 8.70568E-05-8.80248E+00-1.61011E-05-2.47935E-05
 -1      5601 5.33688E+00 1.31751E+01 4.55753E-05-8.80246E+00-5.13322E-05-7.90446E-05
 -1      5602 5.33687E+00 1.31751E+01 1.38456E-05-8.80245E+00-8.30739E-05-1.27923E-04
 -1      5603 6.27845E+00 1.22335E+01 1.38458E-05-9.16389E+00 8.96550E-05 1.23399E-04
 -1      5604 6.27846E+00 1.22335E+01 4.55755E-05-9.16390E+00 5.53987E-05 7.62498E-05
 -1      5605 6.27843E+00 1.22335E+01 8.70570E-05-9.16392E+00 1.73766E-05 2.39168E-05
 -1      5606 6.27842E+00 1.22335E+01 1.11309E-04-9.16393E+00 3.46621E-06 4.77084E-06
 -1      5607 6.27842E+00 1.22335E+01 1.17725E-04-9.16394E+00 3.97542E-07 5.47186E-07
 -1      5608 6.27842E+00 1.22335E+01 1.17725E-04-9.16394E+00-3.97561E-07-5.47179E-07
 -1      5609 6.27842E+00 1.22335E+01 1.11309E-04-9.16393E+00-3.46623E-06-4.77083E-06
 -1      5610 6.27843E+00 1.22335E+01 8.70570E-05-9.16392E+00-1.73766E-05-2.39168E-05
 -1      5611 6.27846E+00 1.22335E+01 4.55755E-05-9.16390E+00-5.53987E-05-7.62498E-05
 -1      5612 6.27845E+00 1.22335E+01 1.38458E-05-9.16389E+00-8.96550E-05-1.23399E-04
 -1      5613 7.25264E+00 1.12593E+01 1.38461E-05-9.42492E+00 9.59903E-05 1.18538E-04
 -1      5614 7.25266E+00 1.12593E+01 4.55758E-05-9.42493E+00 5.93134E-05 7.32459E-05
 -1      5615 7.25263E+00 1.12593E+01 8.70573E-05-9.42496E+00 1.86045E-05 2.29746E-05
 -1      5616 7.25263E+00 1.12593E+01 1.11310E-04-9.42497E+00 3.71115E-06 4.58289E-06
 -1      5617 7.25263E+00 1.12593E+01 1.17725E-04-9.42497E+00 4.25636E-07 5.25633E-07
 -1      5618 7.25263E+00 1.12593E+01 1.17725E-04-9.42497E+00-4.25656E-07-5.25617E-07
 -1      5619 7.25263E+00 1.12593E+01 1.11310E-04-9.42497E+00-3.71117E-06-4.58288E-06
 -1      5620 7.25263E+00 1.12593E+01 8.70573E-05-9.42496E+00-1.86045E-05-2.29746E-05
 -1      5621 7.25266E+00 1.12593E+01 4.55758E-05-9.42493E+00-5.93134E-05-7.32459E-05
 -1      5622 7.25264E+00 1.12593E+01 1.38461E-05-9.42492E+00-9.59903E-05-1.18538E-04
 -1      5623 8.24879E+00 1.02632E+01 1.38460E-05-9.58270E+00 1.02063E-04 1.13352E-04
 -1      5624 8.24880E+00 1.02632E+01 4.55757E-05-9.58271E+00 6.30655E-05 7.00413E-05
 -1      5625 8.24878E+00 1.02632E+01 8.70572E-05-9.58273E+00 1.97814E-05 2.19695E-05
 -1      5626 8.24878E+00 1.02632E+01 1.11309E-04-9.58274E+00 3.94591E-06 4.38240E-06
 -1      5627 8.24878E+00 1.02632E+01 1.17725E-04-9.58275E+00 4.52562E-07 5.02640E-07
 -1      5628 8.24878E+00 1.02632E+01 1.17725E-04-9.58275E+00-4.52578E-07-5.02625E-07
 -1      5629 8.24878E+00 1.02632E+01 1.11309E-04-9.58274E+00-3.94592E-06-4.38238E-06
 -1      5630 8.24878E+00 1.02632E+01 8.70572E-05-9.58273E+00-1.97814E-05-2.19695E-05
 -1      5631 8.24880E+00 1.02632E+01 4.55757E-05-9.58271E+00-6.30655E-05-7.00413E-05
 -1      5632 8.24879E+00 1.02632E+01 1.38459E-05-9.58270E+00-1.02063E-04-1.13352E-04
 -1      5633 9.25597E+00 9.25597E+00 1.38451E-05-9.63548E+00 1.07855E-04 1.07855E-04
 -1      5634 9.25599E+00 9.25599E+00 4.55748E-05-9.63549E+00 6.66447E-05 6.66448E-05
 -1      5635 9.25597E+00 9.25597E+00 8.70563E-05-9.63552E+00 2.09041E-05 2.09041E-05
 -1      5636 9.25597E+00 9.25597E+00 1.11309E-04-9.63553E+00 4.16984E-06 4.16988E-06
 -1      5637 9.25597E+00 9.25597E+00 1.17724E-04-9.63553E+00 4.78239E-07 4.78262E-07
 -1      5638 9.25597E+00 9.25597E+00 1.17724E-04-9.63553E+00-4.78267E-07-4.78250E-07
 -1      5639 9.25597E+00 9.25597E+00 1.11309E-04-9.63553E+00-4.16986E-06-4.16986E-06
 -1      5640 9.25597E+00 9.25597E+00 8.70563E-05-9.63552E+00-2.09041E-05-2.09041E-05
 -1      5641 9.25599E+00 9.25599E+00 4.55748E-05-9.63549E+00-6.66447E-05-6.66447E-05
 -1      5642 9.25597E+00 9.25597E+00 1.38451E-05-9.63548E+00-1.07855E-04-1.07855E-04
 -1      5643 1.02632E+01 8.24879E+00 1.38444E-05-9.58270E+00 1.13352E-04 1.02063E-04
 -1      5644 1.02632E+01 8.24880E+00 4.55741E-05-9.58271E+00 7.00413E-05 6.30655E-05
 -1      5645 1.02632E+01 8.24878E+00 8.70556E-05-9.58273E+00 2.19695E-05 1.97814E-05
 -1      5646 1.02632E+01 8.24878E+00 1.11308E-04-9.58274E+00 4.38238E-06 3.94593E-06
 -1      5647 1.02632E+01 8.24878E+00 1.17723E-04-9.58275E+00 5.02623E-07 4.52584E-07
 -1      5648 1.02632E+01 8.24878E+00 1.17723E-04-9.58275E+00-5.02639E-07-4.52561E-07
 -1      5649 1.02632E+01 8.24878E+00 1.11308E-04-9.58274E+00-4.38239E-06-3.94591E-06
 -1      5650 1.02632E+01 8.24878E+00 8.70556E-05-9.58273E+00-2.19695E-05-1.97814E-05
 -1      5651 1.02632E+01 8.24880E+00 4.55741E-05-9.58271E+00-7.00413E-05-6.30655E-05
 -1      5652 1.02632E+01 8.24879E+00 1.38444E-05-9.58270E+00-1.13352E-04-1.02063E-04
 -1      5653 1.12593E+01 7.25264E+00 1.38443E-05-9.42492E+00 1.18538E-04 9.59904E-05
 -1      5654 1.12593E+01 7.25266E+00 4.55740E-05-9.42493E+00 7.32459E-05 5.93134E-05
 -1      5655 1.12593E+01 7.25263E+00 8.70555E-05-9.42496E+00 2.29746E-05 1.86045E-05
 -1      5656 1.12593E+01 7.25263E+00 1.11308E-04-9.42497E+00 4.58289E-06 3.71116E-06
 -1      5657 1.12593E+01 7.25263E+00 1.17723E-04-9.42497E+00 5.25620E-07 4.25654E-07
 -1      5658 1.12593E+01 7.25263E+00 1.17723E-04-9.42497E+00-5.25638E-07-4.25633E-07
 -1      5659 1.12593E+01 7.25263E+00 1.11308E-04-9.42497E+00-4.58290E-06-3.71114E-06
 -1      5660 1.12593E+01 7.25263E+00 8.70555E-05-9.42496E+00-2.29747E-05-1.86045E-05
 -1      5661 1.12593E+01 7.25266E+00 4.55740E-05-9.42493E+00-7.32459E-05-5.93134E-05
 -1      5662 1.12593E+01 7.25264E+00 1.38443E-05-9.42492E+00-1.18538E-04-9.59903E-05
 -1      5663 1.22335E+01 6.27845E+00 1.38444E-05-9.16389E+00 1.23399E-04 8.96550E-05
 -1      5664 1.22335E+01 6.27846E+00 4.55741E-05-9.16390E+00 7.62498E-05 5.53987E-05
 -1      5665 1.22335E+01 6.27843E+00 8.70556E-05-9.16392E+00 2.39168E-05 1.73766E-05
 -1      5666 1.22335E+01 6.27842E+00 1.11308E-04-9.16393E+00 4.77083E-06 3.46622E-06
 -1      5667 1.22335E+01 6.27842E+00 1.17723E-04-9.16394E+00 5.47175E-07 3.97560E-07
 -1      5668 1.22335E+01 6.27842E+00 1.17723E-04-9.16394E+00-5.47192E-07-3.97541E-07
 -1      5669 1.22335E+01 6.27842E+00 1.11308E-04-9.16393E+00-4.77085E-06-3.46620E-06
 -1      5670 1.22335E+01 6.27843E+00 8.70556E-05-9.16392E+00-2.39168E-05-1.73766E-05
 -1      5671 1.22335E+01 6.27846E+00 4.55741E-05-9.16390E+00-7.62498E-05-5.53987E-05
 -1      5672 1.22335E+01 6.27845E+00 1.38444E-05-9.16389E+00-1.23399E-04-8.96550E-05
 -1      5673 1.31751E+01 5.33687E+00 1.38445E-05-8.80245E+00 1.27923E-04 8.30739E-05
 -1      5674 1.31751E+01 5.33688E+00 4.55742E-05-8.80246E+00 7.90446E-05 5.13322E-05
 -1      5675 1.31751E+01 5.33685E+00 8.70557E-05-8.80248E+00 2.47935E-05 1.61011E-05
 -1      5676 1.31751E+01 5.33684E+00 1.11308E-04-8.80249E+00 4.94571E-06 3.21179E-06
 -1      5677 1.31751E+01 5.33684E+00 1.17723E-04-8.80250E+00 5.67237E-07 3.68381E-07
 -1      5678 1.31751E+01 5.33684E+00 1.17723E-04-8.80250E+00-5.67245E-07-3.68358E-07
 -1      5679 1.31751E+01 5.33684E+00 1.11308E-04-8.80249E+00-4.94572E-06-3.21177E-06
 -1      5680 1.31751E+01 5.33685E+00 8.70557E-05-8.80248E+00-2.47935E-05-1.61011E-05
 -1      5681 1.31751E+01 5.33688E+00 4.55742E-05-8.80246E+00-7.90446E-05-5.13322E-05
 -1      5682 1.31751E+01 5.33687E+00 1.38445E-05-8.80245E+00-1.27923E-04-8.30739E-05
 -1      5683 1.40737E+01 4.43823E+00 1.38445E-05-8.34457E+00 1.32095E-04 7.62651E-05
 -1      5684 1.40737E+01 4.43824E+00 4.55742E-05-8.34458E+00 8.16228E-05 4.71250E-05
 -1      5685 1.40737E+01 4.43821E+00 8.70557E-05-8.34460E+00 2.56022E-05 1.47814E-05
 -1      5686 1.40737E+01 4.43820E+00 1.11308E-04-8.34461E+00 5.10702E-06 2.94855E-06
 -1      5687 1.40737E+01 4.43820E+00 1.17723E-04-8.34462E+00 5.85738E-07 3.38189E-07
 -1      5688 1.40737E+01 4.43820E+00 1.17723E-04-8.34462E+00-5.85747E-07-3.38169E-07
 -1      5689 1.40737E+01 4.43820E+00 1.11308E-04-8.34461E+00-5.10703E-06-2.94853E-06
 -1      5690 1.40737E+01 4.43821E+00 8.70557E-05-8.34460E+00-2.56022E-05-1.47814E-05
 -1      5691 1.40737E+01 4.43824E+00 4.55742E-05-8.34458E+00-8.16228E-05-4.71249E-05
 -1      5692 1.40737E+01 4.43823E+00 1.38445E-05-8.34457E+00-1.32095E-04-7.62651E-05
 -1      5693 1.49196E+01 3.59238E+00 1.38445E-05-7.79527E+00 1.35905E-04 6.92472E-05
 -1      5694 1.49196E+01 3.59239E+00 4.55742E-05-7.79528E+00 8.39773E-05 4.27886E-05
 -1      5695 1.49196E+01 3.59235E+00 8.70557E-05-7.79530E+00 2.63407E-05 1.34213E-05
 -1      5696 1.49196E+01 3.59234E+00 1.11308E-04-7.79531E+00 5.25433E-06 2.67723E-06
 -1      5697 1.49196E+01 3.59234E+00 1.17723E-04-7.79531E+00 6.02633E-07 3.07066E-07
 -1      5698 1.49196E+01 3.59234E+00 1.17723E-04-7.79531E+00-6.02637E-07-3.07052E-07
 -1      5699 1.49196E+01 3.59234E+00 1.11308E-04-7.79531E+00-5.25434E-06-2.67721E-06
 -1      5700 1.49196E+01 3.59235E+00 8.70557E-05-7.79530E+00-2.63407E-05-1.34212E-05
 -1      5701 1.49196E+01 3.59239E+00 4.55742E-05-7.79528E+00-8.39773E-05-4.27886E-05
 -1      5702 1.49196E+01 3.59238E+00 1.38445E-05-7.79527E+00-1.35905E-04-6.92472E-05
 -1      5703 1.57034E+01 2.80858E+00 1.38441E-05-7.16056E+00 1.39343E-04 6.20396E-05
 -1      5704 1.57034E+01 2.80858E+00 4.55738E-05-7.16057E+00 8.61016E-05 3.83349E-05
 -1      5705 1.57034E+01 2.80855E+00 8.70553E-05-7.16058E+00 2.70070E-05 1.20243E-05
 -1      5706 1.57034E+01 2.80854E+00 1.11308E-04-7.16059E+00 5.38724E-06 2.39856E-06
 -1      5707 1.57034E+01 2.80854E+00 1.17723E-04-7.16060E+00 6.17878E-07 2.75106E-07
 -1      5708 1.57034E+01 2.80854E+00 1.17723E-04-7.16060E+00-6.17879E-07-2.75094E-07
 -1      5709 1.57034E+01 2.80854E+00 1.11308E-04-7.16059E+00-5.38724E-06-2.39856E-06
 -1      5710 1.57034E+01 2.80855E+00 8.70553E-05-7.16058E+00-2.70070E-05-1.20243E-05
 -1      5711 1.57034E+01 2.80858E+00 4.55738E-05-7.16057E+00-8.61016E-05-3.83349E-05
 -1      5712 1.57034E+01 2.80858E+00 1.38441E-05-7.16056E+00-1.39343E-04-6.20396E-05
 -1      5713 1.64165E+01 2.09542E+00 1.38441E-05-6.44740E+00 1.42399E-04 5.46619E-05
 -1      5714 1.64166E+01 2.09542E+00 4.55738E-05-6.44740E+00 8.79899E-05 3.37761E-05
 -1      5715 1.64166E+01 2.09538E+00 8.70553E-05-6.44742E+00 2.75993E-05 1.05944E-05
 -1      5716 1.64166E+01 2.09537E+00 1.11308E-04-6.44743E+00 5.50540E-06 2.11332E-06
 -1      5717 1.64166E+01 2.09537E+00 1.17723E-04-6.44743E+00 6.31430E-07 2.42388E-07
 -1      5718 1.64166E+01 2.09537E+00 1.17723E-04-6.44743E+00-6.31434E-07-2.42377E-07
 -1      5719 1.64166E+01 2.09537E+00 1.11308E-04-6.44743E+00-5.50540E-06-2.11331E-06
 -1      5720 1.64166E+01 2.09538E+00 8.70553E-05-6.44742E+00-2.75993E-05-1.05944E-05
 -1      5721 1.64166E+01 2.09542E+00 4.55738E-05-6.44740E+00-8.79899E-05-3.37761E-05
 -1      5722 1.64165E+01 2.09542E+00 1.38441E-05-6.44740E+00-1.42399E-04-5.46619E-05
 -1      5723 1.70512E+01 1.46070E+00 1.38442E-05-5.66359E+00 1.45065E-04 4.71344E-05
 -1      5724 1.70513E+01 1.46071E+00 4.55740E-05-5.66360E+00 8.96370E-05 2.91248E-05
 -1      5725 1.70513E+01 1.46067E+00 8.70555E-05-5.66362E+00 2.81159E-05 9.13542E-06
 -1      5726 1.70513E+01 1.46066E+00 1.11308E-04-5.66362E+00 5.60846E-06 1.82230E-06
 -1      5727 1.70513E+01 1.46066E+00 1.17723E-04-5.66362E+00 6.43251E-07 2.09012E-07
 -1      5728 1.70513E+01 1.46066E+00 1.17723E-04-5.66362E+00-6.43259E-07-2.08997E-07
 -1      5729 1.70513E+01 1.46066E+00 1.11308E-04-5.66362E+00-5.60846E-06-1.82229E-06
 -1      5730 1.70513E+01 1.46067E+00 8.70555E-05-5.66362E+00-2.81159E-05-9.13541E-06
 -1      5731 1.70513E+01 1.46071E+00 4.55740E-05-5.66360E+00-8.96370E-05-2.91248E-05
 -1      5732 1.70512E+01 1.46070E+00 1.38442E-05-5.66359E+00-1.45065E-04-4.71344E-05
 -1      5733 1.76005E+01 9.11401E-01 1.38442E-05-4.81774E+00 1.47333E-04 3.94777E-05
 -1      5734 1.76006E+01 9.11406E-01 4.55739E-05-4.81775E+00 9.10384E-05 2.43937E-05
 -1      5735 1.76006E+01 9.11366E-01 8.70554E-05-4.81776E+00 2.85555E-05 7.65144E-06
 -1      5736 1.76006E+01 9.11352E-01 1.11308E-04-4.81776E+00 5.69613E-06 1.52629E-06
 -1      5737 1.76006E+01 9.11352E-01 1.17723E-04-4.81777E+00 6.53304E-07 1.75063E-07
 -1      5738 1.76006E+01 9.11352E-01 1.17723E-04-4.81777E+00-6.53309E-07-1.75047E-07
 -1      5739 1.76006E+01 9.11352E-01 1.11308E-04-4.81776E+00-5.69614E-06-1.52627E-06
 -1      5740 1.76006E+01 9.11366E-01 8.70554E-05-4.81776E+00-2.85555E-05-7.65142E-06
 -1      5741 1.76006E+01 9.11406E-01 4.55739E-05-4.81775E+00-9.10384E-05-2.43937E-05
 -1      5742 1.76005E+01 9.11401E-01 1.38442E-05-4.81774E+00-1.47333E-04-3.94777E-05
 -1      5743 1.80584E+01 4.53523E-01 1.38442E-05-3.91910E+00 1.49197E-04 3.17128E-05
 -1      5744 1.80584E+01 4.53527E-01 4.55739E-05-3.91911E+00 9.21903E-05 1.95957E-05
 -1      5745 1.80585E+01 4.53486E-01 8.70554E-05-3.91912E+00 2.89168E-05 6.14647E-06
 -1      5746 1.80585E+01 4.53471E-01 1.11308E-04-3.91912E+00 5.76821E-06 1.22608E-06
 -1      5747 1.80585E+01 4.53471E-01 1.17723E-04-3.91912E+00 6.61577E-07 1.40632E-07
 -1      5748 1.80585E+01 4.53471E-01 1.17723E-04-3.91912E+00-6.61578E-07-1.40615E-07
 -1      5749 1.80585E+01 4.53471E-01 1.11308E-04-3.91912E+00-5.76821E-06-1.22607E-06
 -1      5750 1.80585E+01 4.53486E-01 8.70554E-05-3.91912E+00-2.89168E-05-6.14646E-06
 -1      5751 1.80584E+01 4.53527E-01 4.55739E-05-3.91911E+00-9.21903E-05-1.95957E-05
 -1      5752 1.80584E+01 4.53523E-01 1.38442E-05-3.91910E+00-1.49197E-04-3.17128E-05
 -1      5753 1.84199E+01 9.20858E-02 1.38442E-05-2.97753E+00 1.50652E-04 2.38610E-05
 -1      5754 1.84199E+01 9.20892E-02 4.55739E-05-2.97753E+00 9.30895E-05 1.47439E-05
 -1      5755 1.84199E+01 9.20472E-02 8.70554E-05-2.97754E+00 2.91989E-05 4.62465E-06
 -1      5756 1.84199E+01 9.20326E-02 1.11308E-04-2.97754E+00 5.82448E-06 9.22511E-07
 -1      5757 1.84199E+01 9.20315E-02 1.17723E-04-2.97754E+00 6.68030E-07 1.05811E-07
 -1      5758 1.84199E+01 9.20315E-02 1.17723E-04-2.97754E+00-6.68029E-07-1.05800E-07
 -1      5759 1.84199E+01 9.20326E-02 1.11308E-04-2.97754E+00-5.82448E-06-9.22501E-07
 -1      5760 1.84199E+01 9.20472E-02 8.70554E-05-2.97754E+00-2.91989E-05-4.62464E-06
 -1      5761 1.84199E+01 9.20892E-02 4.55739E-05-2.97753E+00-9.30895E-05-1.47439E-05
 -1      5762 1.84199E+01 9.20858E-02 1.38442E-05-2.97753E+00-1.50652E-04-2.38610E-05
 -1      5763 1.86809E+01-1.68950E-01 1.38443E-05-2.00333E+00 1.51695E-04 1.59437E-05
 -1      5764 1.86809E+01-1.68947E-01 4.55740E-05-2.00333E+00 9.37336E-05 9.85180E-06
 -1      5765 1.86809E+01-1.68989E-01 8.70555E-05-2.00334E+00 2.94009E-05 3.09016E-06
 -1      5766 1.86809E+01-1.69004E-01 1.11308E-04-2.00334E+00 5.86478E-06 6.16414E-07
 -1      5767 1.86809E+01-1.69005E-01 1.17723E-04-2.00334E+00 6.72653E-07 7.07007E-08
 -1      5768 1.86809E+01-1.69005E-01 1.17723E-04-2.00334E+00-6.72648E-07-7.06953E-08
 -1      5769 1.86809E+01-1.69004E-01 1.11308E-04-2.00334E+00-5.86477E-06-6.16409E-07
 -1      5770 1.86809E+01-1.68989E-01 8.70555E-05-2.00334E+00-2.94009E-05-3.09015E-06
 -1      5771 1.86809E+01-1.68947E-01 4.55740E-05-2.00333E+00-9.37336E-05-9.85179E-06
 -1      5772 1.86809E+01-1.68950E-01 1.38443E-05-2.00333E+00-1.51695E-04-1.59437E-05
 -1      5773 1.88387E+01-3.26724E-01 1.38443E-05-1.00718E+00 1.52321E-04 7.98281E-06
 -1      5774 1.88387E+01-3.26721E-01 4.55740E-05-1.00718E+00 9.41207E-05 4.93266E-06
 -1      5775 1.88387E+01-3.26764E-01 8.70556E-05-1.00719E+00 2.95223E-05 1.54720E-06
 -1      5776 1.88387E+01-3.26779E-01 1.11308E-04-1.00719E+00 5.88900E-06 3.08631E-07
 -1      5777 1.88387E+01-3.26781E-01 1.17723E-04-1.00719E+00 6.75433E-07 3.53989E-08
 -1      5778 1.88387E+01-3.26781E-01 1.17723E-04-1.00719E+00-6.75421E-07-3.53967E-08
 -1      5779 1.88387E+01-3.26779E-01 1.11308E-04-1.00719E+00-5.88899E-06-3.08628E-07
 -1      5780 1.88387E+01-3.26764E-01 8.70555E-05-1.00719E+00-2.95223E-05-1.54720E-06
 -1      5781 1.88387E+01-3.26721E-01 4.55740E-05-1.00718E+00-9.41207E-05-4.93266E-06
 -1      5782 1.88387E+01-3.26724E-01 1.38443E-05-1.00718E+00-1.52321E-04-7.98281E-06
 -1      5783-2.77984E-01 1.87900E+01 5.59184E-05-1.00206E+00 6.99201E-06 1.33415E-04
 -1      5784-2.77988E-01 1.87900E+01 1.03198E-04-1.00206E+00 3.64752E-06 6.95988E-05
 -1      5785-2.78052E-01 1.87900E+01 1.66583E-04-1.00207E+00 9.96999E-07 1.90239E-05
 -1      5786-2.78072E-01 1.87900E+01 2.01744E-04-1.00207E+00 2.25868E-07 4.30980E-06
 -1      5787-2.78074E-01 1.87900E+01 2.10486E-04-1.00207E+00 4.09237E-08 7.80845E-07
 -1      5788-2.78074E-01 1.87900E+01 2.10486E-04-1.00207E+00-4.09214E-08-7.80845E-07
 -1      5789-2.78072E-01 1.87900E+01 2.01744E-04-1.00207E+00-2.25866E-07-4.30980E-06
 -1      5790-2.78052E-01 1.87900E+01 1.66583E-04-1.00207E+00-9.96997E-07-1.90239E-05
 -1      5791-2.77988E-01 1.87900E+01 1.03198E-04-1.00206E+00-3.64752E-06-6.95988E-05
 -1      5792-2.77984E-01 1.87900E+01 5.59185E-05-1.00206E+00-6.99201E-06-1.33415E-04
 -1      5793-1.21012E-01 1.86330E+01 5.59185E-05-1.99315E+00 1.39649E-05 1.32867E-04
 -1      5794-1.21016E-01 1.86330E+01 1.03198E-04-1.99315E+00 7.28504E-06 6.93125E-05
 -1      5795-1.21079E-01 1.86331E+01 1.66583E-04-1.99316E+00 1.99127E-06 1.89456E-05
 -1      5796-1.21099E-01 1.86331E+01 2.01744E-04-1.99316E+00 4.51117E-07 4.29207E-06
 -1      5797-1.21101E-01 1.86331E+01 2.10486E-04-1.99316E+00 8.17332E-08 7.77631E-07
 -1      5798-1.21101E-01 1.86331E+01 2.10486E-04-1.99316E+00-8.17333E-08-7.77635E-07
 -1      5799-1.21099E-01 1.86331E+01 2.01744E-04-1.99316E+00-4.51116E-07-4.29207E-06
 -1      5800-1.21079E-01 1.86331E+01 1.66583E-04-1.99316E+00-1.99127E-06-1.89456E-05
 -1      5801-1.21016E-01 1.86330E+01 1.03198E-04-1.99315E+00-7.28504E-06-6.93125E-05
 -1      5802-1.21012E-01 1.86330E+01 5.59185E-05-1.99315E+00-1.39649E-05-1.32867E-04
 -1      5803 1.38697E-01 1.83733E+01 5.59186E-05-2.96239E+00 2.08994E-05 1.31954E-04
 -1      5804 1.38694E-01 1.83733E+01 1.03198E-04-2.96240E+00 1.09026E-05 6.88362E-05
 -1      5805 1.38631E-01 1.83733E+01 1.66583E-04-2.96241E+00 2.98007E-06 1.88154E-05
 -1      5806 1.38612E-01 1.83734E+01 2.01744E-04-2.96241E+00 6.75125E-07 4.26258E-06
 -1      5807 1.38610E-01 1.83734E+01 2.10486E-04-2.96241E+00 1.22319E-07 7.72291E-07
 -1      5808 1.38610E-01 1.83734E+01 2.10486E-04-2.96241E+00-1.22319E-07-7.72291E-07
 -1      5809 1.38612E-01 1.83734E+01 2.01744E-04-2.96241E+00-6.75127E-07-4.26257E-06
 -1      5810 1.38631E-01 1.83733E+01 1.66583E-04-2.96241E+00-2.98007E-06-1.88154E-05
 -1      5811 1.38694E-01 1.83733E+01 1.03198E-04-2.96240E+00-1.09026E-05-6.88363E-05
 -1      5812 1.38697E-01 1.83733E+01 5.59186E-05-2.96239E+00-2.08994E-05-1.31954E-04
 -1      5813 4.98297E-01 1.80137E+01 5.59185E-05-3.89918E+00 2.77767E-05 1.30679E-04
 -1      5814 4.98294E-01 1.80137E+01 1.03198E-04-3.89919E+00 1.44903E-05 6.81713E-05
 -1      5815 4.98233E-01 1.80137E+01 1.66583E-04-3.89920E+00 3.96071E-06 1.86337E-05
 -1      5816 4.98214E-01 1.80137E+01 2.01744E-04-3.89921E+00 8.97284E-07 4.22141E-06
 -1      5817 4.98212E-01 1.80138E+01 2.10486E-04-3.89921E+00 1.62567E-07 7.64834E-07
 -1      5818 4.98212E-01 1.80138E+01 2.10486E-04-3.89921E+00-1.62571E-07-7.64831E-07
 -1      5819 4.98214E-01 1.80137E+01 2.01744E-04-3.89921E+00-8.97287E-07-4.22141E-06
 -1      5820 4.98233E-01 1.80137E+01 1.66583E-04-3.89920E+00-3.96071E-06-1.86337E-05
 -1      5821 4.98294E-01 1.80137E+01 1.03198E-04-3.89919E+00-1.44903E-05-6.81713E-05
 -1      5822 4.98297E-01 1.80137E+01 5.59185E-05-3.89918E+00-2.77767E-05-1.30679E-04
 -1      5823 9.53848E-01 1.75582E+01 5.59185E-05-4.79325E+00 3.45779E-05 1.29046E-04
 -1      5824 9.53846E-01 1.75582E+01 1.03198E-04-4.79326E+00 1.80382E-05 6.73195E-05
 -1      5825 9.53787E-01 1.75582E+01 1.66583E-04-4.79328E+00 4.93049E-06 1.84009E-05
 -1      5826 9.53768E-01 1.75582E+01 2.01744E-04-4.79328E+00 1.11699E-06 4.16865E-06
 -1      5827 9.53767E-01 1.75582E+01 2.10486E-04-4.79329E+00 2.02374E-07 7.55273E-07
 -1      5828 9.53767E-01 1.75582E+01 2.10486E-04-4.79329E+00-2.02377E-07-7.55274E-07
 -1      5829 9.53768E-01 1.75582E+01 2.01744E-04-4.79328E+00-1.11699E-06-4.16866E-06
 -1      5830 9.53787E-01 1.75582E+01 1.66583E-04-4.79328E+00-4.93050E-06-1.84009E-05
 -1      5831 9.53846E-01 1.75582E+01 1.03198E-04-4.79326E+00-1.80382E-05-6.73195E-05
 -1      5832 9.53848E-01 1.75582E+01 5.59185E-05-4.79325E+00-3.45779E-05-1.29046E-04
 -1      5833 1.50036E+00 1.70116E+01 5.59185E-05-5.63480E+00 4.12842E-05 1.27060E-04
 -1      5834 1.50036E+00 1.70117E+01 1.03198E-04-5.63481E+00 2.15367E-05 6.62832E-05
 -1      5835 1.50030E+00 1.70117E+01 1.66583E-04-5.63483E+00 5.88676E-06 1.81176E-05
 -1      5836 1.50028E+00 1.70117E+01 2.01744E-04-5.63484E+00 1.33363E-06 4.10449E-06
 -1      5837 1.50028E+00 1.70117E+01 2.10486E-04-5.63485E+00 2.41622E-07 7.43649E-07
 -1      5838 1.50028E+00 1.70117E+01 2.10486E-04-5.63485E+00-2.41631E-07-7.43649E-07
 -1      5839 1.50028E+00 1.70117E+01 2.01744E-04-5.63484E+00-1.33363E-06-4.10449E-06
 -1      5840 1.50030E+00 1.70117E+01 1.66583E-04-5.63483E+00-5.88677E-06-1.81176E-05
 -1      5841 1.50036E+00 1.70117E+01 1.03198E-04-5.63481E+00-2.15367E-05-6.62832E-05
 -1      5842 1.50036E+00 1.70116E+01 5.59185E-05-5.63480E+00-4.12842E-05-1.27060E-04
 -1      5843 2.13184E+00 1.63802E+01 5.59187E-05-6.41462E+00 4.78775E-05 1.24725E-04
 -1      5844 2.13184E+00 1.63802E+01 1.03198E-04-6.41463E+00 2.49762E-05 6.50652E-05
 -1      5845 2.13179E+00 1.63802E+01 1.66583E-04-6.41466E+00 6.82690E-06 1.77847E-05
 -1      5846 2.13177E+00 1.63802E+01 2.01744E-04-6.41467E+00 1.54661E-06 4.02906E-06
 -1      5847 2.13177E+00 1.63802E+01 2.10486E-04-6.41467E+00 2.80208E-07 7.29984E-07
 -1      5848 2.13177E+00 1.63802E+01 2.10486E-04-6.41467E+00-2.80221E-07-7.29980E-07
 -1      5849 2.13177E+00 1.63802E+01 2.01744E-04-6.41467E+00-1.54662E-06-4.02906E-06
 -1      5850 2.13179E+00 1.63802E+01 1.66583E-04-6.41466E+00-6.82691E-06-1.77847E-05
 -1      5851 2.13184E+00 1.63802E+01 1.03198E-04-6.41463E+00-2.49762E-05-6.50652E-05
 -1      5852 2.13184E+00 1.63802E+01 5.59187E-05-6.41462E+00-4.78775E-05-1.24725E-04
 -1      5853 2.84138E+00 1.56706E+01 5.59186E-05-7.12416E+00 5.43394E-05 1.22048E-04
 -1      5854 2.84138E+00 1.56706E+01 1.03198E-04-7.12417E+00 2.83472E-05 6.36689E-05
 -1      5855 2.84133E+00 1.56706E+01 1.66583E-04-7.12420E+00 7.74831E-06 1.74030E-05
 -1      5856 2.84131E+00 1.56706E+01 2.01744E-04-7.12421E+00 1.75535E-06 3.94260E-06
 -1      5857 2.84131E+00 1.56707E+01 2.10486E-04-7.12421E+00 3.18026E-07 7.14319E-07
 -1      5858 2.84131E+00 1.56707E+01 2.10486E-04-7.12421E+00-3.18041E-07-7.14316E-07
 -1      5859 2.84131E+00 1.56706E+01 2.01744E-04-7.12421E+00-1.75536E-06-3.94260E-06
 -1      5860 2.84133E+00 1.56706E+01 1.66583E-04-7.12420E+00-7.74833E-06-1.74030E-05
 -1      5861 2.84138E+00 1.56706E+01 1.03198E-04-7.12417E+00-2.83472E-05-6.36689E-05
 -1      5862 2.84138E+00 1.56706E+01 5.59186E-05-7.12416E+00-5.43395E-05-1.22048E-04
 -1      5863 3.62120E+00 1.48908E+01 5.59184E-05-7.75564E+00 6.06525E-05 1.19037E-04
 -1      5864 3.62120E+00 1.48908E+01 1.03198E-04-7.75566E+00 3.16405E-05 6.20981E-05
 -1      5865 3.62115E+00 1.48908E+01 1.66583E-04-7.75568E+00 8.64850E-06 1.69737E-05
 -1      5866 3.62114E+00 1.48908E+01 2.01744E-04-7.75570E+00 1.95928E-06 3.84533E-06
 -1      5867 3.62114E+00 1.48908E+01 2.10486E-04-7.75570E+00 3.54972E-07 6.96698E-07
 -1      5868 3.62114E+00 1.48908E+01 2.10486E-04-7.75570E+00-3.54992E-07-6.96690E-07
 -1      5869 3.62114E+00 1.48908E+01 2.01744E-04-7.75570E+00-1.95930E-06-3.84532E-06
 -1      5870 3.62115E+00 1.48908E+01 1.66583E-04-7.75568E+00-8.64852E-06-1.69736E-05
 -1      5871 3.62120E+00 1.48908E+01 1.03198E-04-7.75566E+00-3.16406E-05-6.20981E-05
 -1      5872 3.62120E+00 1.48908E+01 5.59184E-05-7.75564E+00-6.06525E-05-1.19037E-04
 -1      5873 4.46275E+00 1.40493E+01 5.59185E-05-8.30215E+00 6.67993E-05 1.15700E-04
 -1      5874 4.46275E+00 1.40493E+01 1.03198E-04-8.30217E+00 3.48471E-05 6.03570E-05
 -1      5875 4.46271E+00 1.40493E+01 1.66583E-04-8.30220E+00 9.52498E-06 1.64978E-05
 -1      5876 4.46270E+00 1.40493E+01 2.01744E-04-8.30221E+00 2.15785E-06 3.73752E-06
 -1      5877 4.46270E+00 1.40493E+01 2.10486E-04-8.30222E+00 3.90947E-07 6.77169E-07
 -1      5878 4.46270E+00 1.40493E+01 2.10486E-04-8.30222E+00-3.90971E-07-6.77154E-07
 -1      5879 4.46270E+00 1.40493E+01 2.01744E-04-8.30221E+00-2.15787E-06-3.73751E-06
 -1      5880 4.46271E+00 1.40493E+01 1.66583E-04-8.30220E+00-9.52500E-06-1.64978E-05
 -1      5881 4.46275E+00 1.40493E+01 1.03198E-04-8.30217E+00-3.48472E-05-6.03570E-05
 -1      5882 4.46275E+00 1.40493E+01 5.59185E-05-8.30215E+00-6.67993E-05-1.15700E-04
 -1      5883 5.35682E+00 1.31552E+01 5.59184E-05-8.75771E+00 7.27630E-05 1.12045E-04
 -1      5884 5.35683E+00 1.31552E+01 1.03198E-04-8.75772E+00 3.79582E-05 5.84506E-05
 -1      5885 5.35678E+00 1.31552E+01 1.66583E-04-8.75775E+00 1.03753E-05 1.59767E-05
 -1      5886 5.35677E+00 1.31552E+01 2.01744E-04-8.75777E+00 2.35049E-06 3.61947E-06
 -1      5887 5.35677E+00 1.31552E+01 2.10486E-04-8.75777E+00 4.25851E-07 6.55782E-07
 -1      5888 5.35677E+00 1.31552E+01 2.10486E-04-8.75777E+00-4.25874E-07-6.55763E-07
 -1      5889 5.35677E+00 1.31552E+01 2.01744E-04-8.75777E+00-2.35052E-06-3.61946E-06
 -1      5890 5.35678E+00 1.31552E+01 1.66583E-04-8.75775E+00-1.03754E-05-1.59766E-05
 -1      5891 5.35683E+00 1.31552E+01 1.03198E-04-8.75772E+00-3.79582E-05-5.84506E-05
 -1      5892 5.35682E+00 1.31552E+01 5.59184E-05-8.75771E+00-7.27630E-05-1.12045E-04
 -1      5893 6.29361E+00 1.22184E+01 5.59186E-05-9.11731E+00 7.85273E-05 1.08084E-04
 -1      5894 6.29362E+00 1.22184E+01 1.03198E-04-9.11732E+00 4.09653E-05 5.63839E-05
 -1      5895 6.29358E+00 1.22184E+01 1.66583E-04-9.11735E+00 1.11973E-05 1.54118E-05
 -1      5896 6.29357E+00 1.22184E+01 2.01744E-04-9.11737E+00 2.53670E-06 3.49149E-06
 -1      5897 6.29357E+00 1.22184E+01 2.10486E-04-9.11737E+00 4.59586E-07 6.32589E-07
 -1      5898 6.29357E+00 1.22184E+01 2.10486E-04-9.11737E+00-4.59611E-07-6.32576E-07
 -1      5899 6.29357E+00 1.22184E+01 2.01744E-04-9.11737E+00-2.53672E-06-3.49147E-06
 -1      5900 6.29358E+00 1.22184E+01 1.66583E-04-9.11735E+00-1.11973E-05-1.54117E-05
 -1      5901 6.29362E+00 1.22184E+01 1.03198E-04-9.11732E+00-4.09653E-05-5.63839E-05
 -1      5902 6.29361E+00 1.22184E+01 5.59186E-05-9.11731E+00-7.85273E-05-1.08084E-04
 -1      5903 7.26286E+00 1.12491E+01 5.59189E-05-9.37701E+00 8.40763E-05 1.03826E-04
 -1      5904 7.26286E+00 1.12492E+01 1.03198E-04-9.37703E+00 4.38600E-05 5.41627E-05
 -1      5905 7.26283E+00 1.12491E+01 1.66583E-04-9.37706E+00 1.19885E-05 1.48046E-05
 -1      5906 7.26282E+00 1.12491E+01 2.01744E-04-9.37708E+00 2.71596E-06 3.35394E-06
 -1      5907 7.26282E+00 1.12491E+01 2.10486E-04-9.37708E+00 4.92065E-07 6.07672E-07
 -1      5908 7.26282E+00 1.12491E+01 2.10486E-04-9.37708E+00-4.92093E-07-6.07653E-07
 -1      5909 7.26282E+00 1.12491E+01 2.01744E-04-9.37708E+00-2.71598E-06-3.35392E-06
 -1      5910 7.26283E+00 1.12491E+01 1.66583E-04-9.37706E+00-1.19886E-05-1.48046E-05
 -1      5911 7.26286E+00 1.12492E+01 1.03198E-04-9.37703E+00-4.38601E-05-5.41626E-05
 -1      5912 7.26286E+00 1.12491E+01 5.59189E-05-9.37701E+00-8.40763E-05-1.03826E-04
 -1      5913 8.25394E+00 1.02581E+01 5.59187E-05-9.53399E+00 8.93949E-05 9.92831E-05
 -1      5914 8.25395E+00 1.02581E+01 1.03198E-04-9.53400E+00 4.66346E-05 5.17930E-05
 -1      5915 8.25392E+00 1.02581E+01 1.66583E-04-9.53404E+00 1.27469E-05 1.41569E-05
 -1      5916 8.25391E+00 1.02580E+01 2.01744E-04-9.53405E+00 2.88776E-06 3.20721E-06
 -1      5917 8.25391E+00 1.02581E+01 2.10486E-04-9.53406E+00 5.23193E-07 5.81089E-07
 -1      5918 8.25391E+00 1.02581E+01 2.10486E-04-9.53406E+00-5.23214E-07-5.81068E-07
 -1      5919 8.25391E+00 1.02580E+01 2.01744E-04-9.53405E+00-2.88778E-06-3.20719E-06
 -1      5920 8.25392E+00 1.02581E+01 1.66583E-04-9.53404E+00-1.27469E-05-1.41569E-05
 -1      5921 8.25395E+00 1.02581E+01 1.03198E-04-9.53400E+00-4.66346E-05-5.17930E-05
 -1      5922 8.25394E+00 1.02581E+01 5.59187E-05-9.53399E+00-8.93949E-05-9.92831E-05
 -1      5923 9.25600E+00 9.25600E+00 5.59179E-05-9.58650E+00 9.44685E-05 9.44685E-05
 -1      5924 9.25601E+00 9.25601E+00 1.03197E-04-9.58652E+00 4.92813E-05 4.92813E-05
 -1      5925 9.25599E+00 9.25599E+00 1.66583E-04-9.58655E+00 1.34703E-05 1.34704E-05
 -1      5926 9.25598E+00 9.25598E+00 2.01743E-04-9.58657E+00 3.05164E-06 3.05168E-06
 -1      5927 9.25598E+00 9.25598E+00 2.10485E-04-9.58657E+00 5.52877E-07 5.52910E-07
 -1      5928 9.25598E+00 9.25598E+00 2.10485E-04-9.58657E+00-5.52913E-07-5.52890E-07
 -1      5929 9.25598E+00 9.25598E+00 2.01743E-04-9.58657E+00-3.05167E-06-3.05167E-06
 -1      5930 9.25599E+00 9.25599E+00 1.66583E-04-9.58655E+00-1.34704E-05-1.34704E-05
 -1      5931 9.25601E+00 9.25601E+00 1.03197E-04-9.58652E+00-4.92813E-05-4.92813E-05
 -1      5932 9.25600E+00 9.25600E+00 5.59179E-05-9.58650E+00-9.44685E-05-9.44685E-05
 -1      5933 1.02581E+01 8.25394E+00 5.59172E-05-9.53399E+00 9.92831E-05 8.93949E-05
 -1      5934 1.02581E+01 8.25395E+00 1.03196E-04-9.53400E+00 5.17930E-05 4.66346E-05
 -1      5935 1.02581E+01 8.25392E+00 1.66582E-04-9.53404E+00 1.41569E-05 1.27469E-05
 -1      5936 1.02580E+01 8.25391E+00 2.01742E-04-9.53405E+00 3.20719E-06 2.88779E-06
 -1      5937 1.02581E+01 8.25391E+00 2.10485E-04-9.53406E+00 5.81068E-07 5.23222E-07
 -1      5938 1.02581E+01 8.25391E+00 2.10485E-04-9.53406E+00-5.81089E-07-5.23191E-07
 -1      5939 1.02580E+01 8.25391E+00 2.01743E-04-9.53405E+00-3.20721E-06-2.88776E-06
 -1      5940 1.02581E+01 8.25392E+00 1.66582E-04-9.53404E+00-1.41569E-05-1.27469E-05
 -1      5941 1.02581E+01 8.25395E+00 1.03196E-04-9.53400E+00-5.17930E-05-4.66346E-05
 -1      5942 1.02581E+01 8.25394E+00 5.59172E-05-9.53399E+00-9.92831E-05-8.93949E-05
 -1      5943 1.12491E+01 7.26286E+00 5.59171E-05-9.37701E+00 1.03826E-04 8.40763E-05
 -1      5944 1.12492E+01 7.26286E+00 1.03196E-04-9.37703E+00 5.41626E-05 4.38601E-05
 -1      5945 1.12491E+01 7.26283E+00 1.66582E-04-9.37706E+00 1.48046E-05 1.19885E-05
 -1      5946 1.12491E+01 7.26282E+00 2.01742E-04-9.37708E+00 3.35393E-06 2.71598E-06
 -1      5947 1.12491E+01 7.26282E+00 2.10484E-04-9.37708E+00 6.07653E-07 4.92090E-07
 -1      5948 1.12491E+01 7.26282E+00 2.10484E-04-9.37708E+00-6.07680E-07-4.92062E-07
 -1      5949 1.12491E+01 7.26282E+00 2.01742E-04-9.37708E+00-3.35395E-06-2.71595E-06
 -1      5950 1.12491E+01 7.26283E+00 1.66582E-04-9.37706E+00-1.48046E-05-1.19885E-05
 -1      5951 1.12492E+01 7.26286E+00 1.03196E-04-9.37703E+00-5.41627E-05-4.38600E-05
 -1      5952 1.12491E+01 7.26286E+00 5.59171E-05-9.37701E+00-1.03826E-04-8.40763E-05
 -1      5953 1.22184E+01 6.29361E+00 5.59172E-05-9.11731E+00 1.08084E-04 7.85273E-05
 -1      5954 1.22184E+01 6.29362E+00 1.03196E-04-9.11732E+00 5.63839E-05 4.09653E-05
 -1      5955 1.22184E+01 6.29358E+00 1.66582E-04-9.11735E+00 1.54117E-05 1.11973E-05
 -1      5956 1.22184E+01 6.29357E+00 2.01742E-04-9.11737E+00 3.49148E-06 2.53672E-06
 -1      5957 1.22184E+01 6.29357E+00 2.10485E-04-9.11737E+00 6.32574E-07 4.59611E-07
 -1      5958 1.22184E+01 6.29357E+00 2.10485E-04-9.11737E+00-6.32596E-07-4.59584E-07
 -1      5959 1.22184E+01 6.29357E+00 2.01742E-04-9.11737E+00-3.49150E-06-2.53670E-06
 -1      5960 1.22184E+01 6.29358E+00 1.66582E-04-9.11735E+00-1.54118E-05-1.11973E-05
 -1      5961 1.22184E+01 6.29362E+00 1.03196E-04-9.11732E+00-5.63839E-05-4.09653E-05
 -1      5962 1.22184E+01 6.29361E+00 5.59172E-05-9.11731E+00-1.08084E-04-7.85273E-05
 -1      5963 1.31552E+01 5.35682E+00 5.59173E-05-8.75771E+00 1.12045E-04 7.27630E-05
 -1      5964 1.31552E+01 5.35683E+00 1.03196E-04-8.75772E+00 5.84506E-05 3.79582E-05
 -1      5965 1.31552E+01 5.35678E+00 1.66582E-04-8.75775E+00 1.59766E-05 1.03754E-05
 -1      5966 1.31552E+01 5.35677E+00 2.01743E-04-8.75777E+00 3.61946E-06 2.35052E-06
 -1      5967 1.31552E+01 5.35677E+00 2.10485E-04-8.75777E+00 6.55766E-07 4.25879E-07
 -1      5968 1.31552E+01 5.35677E+00 2.10485E-04-8.75777E+00-6.55780E-07-4.25848E-07
 -1      5969 1.31552E+01 5.35677E+00 2.01743E-04-8.75777E+00-3.61947E-06-2.35049E-06
 -1      5970 1.31552E+01 5.35678E+00 1.66582E-04-8.75775E+00-1.59767E-05-1.03754E-05
 -1      5971 1.31552E+01 5.35683E+00 1.03196E-04-8.75772E+00-5.84506E-05-3.79582E-05
 -1      5972 1.31552E+01 5.35682E+00 5.59173E-05-8.75771E+00-1.12045E-04-7.27630E-05
 -1      5973 1.40493E+01 4.46275E+00 5.59173E-05-8.30215E+00 1.15700E-04 6.67993E-05
 -1      5974 1.40493E+01 4.46275E+00 1.03196E-04-8.30217E+00 6.03570E-05 3.48472E-05
 -1      5975 1.40493E+01 4.46271E+00 1.66582E-04-8.30220E+00 1.64978E-05 9.52500E-06
 -1      5976 1.40493E+01 4.46270E+00 2.01743E-04-8.30221E+00 3.73751E-06 2.15787E-06
 -1      5977 1.40493E+01 4.46270E+00 2.10485E-04-8.30222E+00 6.77154E-07 3.90973E-07
 -1      5978 1.40493E+01 4.46270E+00 2.10485E-04-8.30222E+00-6.77166E-07-3.90946E-07
 -1      5979 1.40493E+01 4.46270E+00 2.01743E-04-8.30221E+00-3.73752E-06-2.15784E-06
 -1      5980 1.40493E+01 4.46271E+00 1.66582E-04-8.30220E+00-1.64978E-05-9.52498E-06
 -1      5981 1.40493E+01 4.46275E+00 1.03196E-04-8.30217E+00-6.03570E-05-3.48471E-05
 -1      5982 1.40493E+01 4.46275E+00 5.59173E-05-8.30215E+00-1.15700E-04-6.67993E-05
 -1      5983 1.48908E+01 3.62120E+00 5.59173E-05-7.75564E+00 1.19037E-04 6.06525E-05
 -1      5984 1.48908E+01 3.62120E+00 1.03196E-04-7.75566E+00 6.20981E-05 3.16406E-05
 -1      5985 1.48908E+01 3.62115E+00 1.66582E-04-7.75568E+00 1.69736E-05 8.64852E-06
 -1      5986 1.48908E+01 3.62114E+00 2.01743E-04-7.75570E+00 3.84532E-06 1.95930E-06
 -1      5987 1.48908E+01 3.62114E+00 2.10485E-04-7.75570E+00 6.96689E-07 3.54994E-07
 -1      5988 1.48908E+01 3.62114E+00 2.10485E-04-7.75570E+00-6.96696E-07-3.54974E-07
 -1      5989 1.48908E+01 3.62114E+00 2.01743E-04-7.75570E+00-3.84533E-06-1.95928E-06
 -1      5990 1.48908E+01 3.62115E+00 1.66582E-04-7.75568E+00-1.69736E-05-8.64850E-06
 -1      5991 1.48908E+01 3.62120E+00 1.03196E-04-7.75566E+00-6.20981E-05-3.16405E-05
 -1      5992 1.48908E+01 3.62120E+00 5.59173E-05-7.75564E+00-1.19037E-04-6.06525E-05
 -1      5993 1.56706E+01 2.84138E+00 5.59169E-05-7.12416E+00 1.22048E-04 5.43394E-05
 -1      5994 1.56706E+01 2.84138E+00 1.03196E-04-7.12417E+00 6.36689E-05 2.83472E-05
 -1      5995 1.56706E+01 2.84133E+00 1.66582E-04-7.12420E+00 1.74030E-05 7.74833E-06
 -1      5996 1.56706E+01 2.84131E+00 2.01742E-04-7.12421E+00 3.94259E-06 1.75537E-06
 -1      5997 1.56707E+01 2.84131E+00 2.10484E-04-7.12421E+00 7.14311E-07 3.18044E-07
 -1      5998 1.56707E+01 2.84131E+00 2.10484E-04-7.12421E+00-7.14315E-07-3.18027E-07
 -1      5999 1.56706E+01 2.84131E+00 2.01742E-04-7.12421E+00-3.94259E-06-1.75535E-06
 -1      6000 1.56706E+01 2.84133E+00 1.66582E-04-7.12420E+00-1.74030E-05-7.74832E-06
 -1      6001 1.56706E+01 2.84138E+00 1.03196E-04-7.12417E+00-6.36689E-05-2.83472E-05
 -1      6002 1.56706E+01 2.84138E+00 5.59169E-05-7.12416E+00-1.22048E-04-5.43394E-05
 -1      6003 1.63802E+01 2.13184E+00 5.59169E-05-6.41462E+00 1.24725E-04 4.78775E-05
 -1      6004 1.63802E+01 2.13184E+00 1.03196E-04-6.41463E+00 6.50652E-05 2.49762E-05
 -1      6005 1.63802E+01 2.13179E+00 1.66581E-04-6.41466E+00 1.77847E-05 6.82690E-06
 -1      6006 1.63802E+01 2.13177E+00 2.01742E-04-6.41467E+00 4.02906E-06 1.54662E-06
 -1      6007 1.63802E+01 2.13177E+00 2.10484E-04-6.41467E+00 7.29979E-07 2.80220E-07
 -1      6008 1.63802E+01 2.13177E+00 2.10484E-04-6.41467E+00-7.29988E-07-2.80204E-07
 -1      6009 1.63802E+01 2.13177E+00 2.01742E-04-6.41467E+00-4.02907E-06-1.54660E-06
 -1      6010 1.63802E+01 2.13179E+00 1.66581E-04-6.41466E+00-1.77847E-05-6.82689E-06
 -1      6011 1.63802E+01 2.13184E+00 1.03196E-04-6.41463E+00-6.50652E-05-2.49762E-05
 -1      6012 1.63802E+01 2.13184E+00 5.59169E-05-6.41462E+00-1.24725E-04-4.78775E-05
 -1      6013 1.70116E+01 1.50036E+00 5.59170E-05-5.63480E+00 1.27060E-04 4.12842E-05
 -1      6014 1.70117E+01 1.50036E+00 1.03196E-04-5.63481E+00 6.62832E-05 2.15367E-05
 -1      6015 1.70117E+01 1.50030E+00 1.66582E-04-5.63483E+00 1.81176E-05 5.88677E-06
 -1      6016 1.70117E+01 1.50028E+00 2.01742E-04-5.63484E+00 4.10449E-06 1.33364E-06
 -1      6017 1.70117E+01 1.50028E+00 2.10484E-04-5.63485E+00 7.43644E-07 2.41636E-07
 -1      6018 1.70117E+01 1.50028E+00 2.10484E-04-5.63485E+00-7.43654E-07-2.41614E-07
 -1      6019 1.70117E+01 1.50028E+00 2.01742E-04-5.63484E+00-4.10449E-06-1.33362E-06
 -1      6020 1.70117E+01 1.50030E+00 1.66582E-04-5.63483E+00-1.81176E-05-5.88675E-06
 -1      6021 1.70117E+01 1.50036E+00 1.03196E-04-5.63481E+00-6.62832E-05-2.15367E-05
 -1      6022 1.70116E+01 1.50036E+00 5.59170E-05-5.63480E+00-1.27060E-04-4.12842E-05
 -1      6023 1.75582E+01 9.53848E-01 5.59170E-05-4.79325E+00 1.29046E-04 3.45779E-05
 -1      6024 1.75582E+01 9.53846E-01 1.03196E-04-4.79326E+00 6.73195E-05 1.80382E-05
 -1      6025 1.75582E+01 9.53787E-01 1.66582E-04-4.79328E+00 1.84008E-05 4.93051E-06
 -1      6026 1.75582E+01 9.53768E-01 2.01742E-04-4.79328E+00 4.16865E-06 1.11700E-06
 -1      6027 1.75582E+01 9.53767E-01 2.10484E-04-4.79329E+00 7.55268E-07 2.02388E-07
 -1      6028 1.75582E+01 9.53767E-01 2.10484E-04-4.79329E+00-7.55277E-07-2.02365E-07
 -1      6029 1.75582E+01 9.53768E-01 2.01742E-04-4.79328E+00-4.16866E-06-1.11698E-06
 -1      6030 1.75582E+01 9.53787E-01 1.66582E-04-4.79328E+00-1.84009E-05-4.93049E-06
 -1      6031 1.75582E+01 9.53846E-01 1.03196E-04-4.79326E+00-6.73195E-05-1.80382E-05
 -1      6032 1.75582E+01 9.53848E-01 5.59170E-05-4.79325E+00-1.29046E-04-3.45779E-05
 -1      6033 1.80137E+01 4.98297E-01 5.59170E-05-3.89918E+00 1.30679E-04 2.77767E-05
 -1      6034 1.80137E+01 4.98294E-01 1.03196E-04-3.89919E+00 6.81713E-05 1.44903E-05
 -1      6035 1.80137E+01 4.98233E-01 1.66582E-04-3.89920E+00 1.86337E-05 3.96073E-06
 -1      6036 1.80137E+01 4.98214E-01 2.01742E-04-3.89921E+00 4.22140E-06 8.97302E-07
 -1      6037 1.80138E+01 4.98212E-01 2.10484E-04-3.89921E+00 7.64830E-07 1.62583E-07
 -1      6038 1.80138E+01 4.98212E-01 2.10484E-04-3.89921E+00-7.64832E-07-1.62558E-07
 -1      6039 1.80137E+01 4.98214E-01 2.01742E-04-3.89921E+00-4.22141E-06-8.97278E-07
 -1      6040 1.80137E+01 4.98233E-01 1.66582E-04-3.89920E+00-1.86337E-05-3.96070E-06
 -1      6041 1.80137E+01 4.98294E-01 1.03196E-04-3.89919E+00-6.81713E-05-1.44903E-05
 -1      6042 1.80137E+01 4.98297E-01 5.59170E-05-3.89918E+00-1.30679E-04-2.77767E-05
 -1      6043 1.83733E+01 1.38697E-01 5.59170E-05-2.96239E+00 1.31954E-04 2.08994E-05
 -1      6044 1.83733E+01 1.38694E-01 1.03196E-04-2.96240E+00 6.88363E-05 1.09026E-05
 -1      6045 1.83733E+01 1.38631E-01 1.66582E-04-2.96241E+00 1.88154E-05 2.98008E-06
 -1      6046 1.83734E+01 1.38612E-01 2.01742E-04-2.96241E+00 4.26258E-06 6.75134E-07
 -1      6047 1.83734E+01 1.38610E-01 2.10484E-04-2.96241E+00 7.72291E-07 1.22328E-07
 -1      6048 1.83734E+01 1.38610E-01 2.10484E-04-2.96241E+00-7.72292E-07-1.22310E-07
 -1      6049 1.83734E+01 1.38612E-01 2.01742E-04-2.96241E+00-4.26258E-06-6.75118E-07
 -1      6050 1.83733E+01 1.38631E-01 1.66582E-04-2.96241E+00-1.88154E-05-2.98006E-06
 -1      6051 1.83733E+01 1.38694E-01 1.03196E-04-2.96240E+00-6.88363E-05-1.09026E-05
 -1      6052 1.83733E+01 1.38697E-01 5.59170E-05-2.96239E+00-1.31954E-04-2.08994E-05
 -1      6053 1.86330E+01-1.21012E-01 5.59171E-05-1.99315E+00 1.32867E-04 1.39649E-05
 -1      6054 1.86330E+01-1.21016E-01 1.03196E-04-1.99315E+00 6.93125E-05 7.28504E-06
 -1      6055 1.86331E+01-1.21079E-01 1.66582E-04-1.99316E+00 1.89456E-05 1.99127E-06
 -1      6056 1.86331E+01-1.21099E-01 2.01742E-04-1.99316E+00 4.29207E-06 4.51118E-07
 -1      6057 1.86331E+01-1.21101E-01 2.10484E-04-1.99316E+00 7.77636E-07 8.17371E-08
 -1      6058 1.86331E+01-1.21101E-01 2.10484E-04-1.99316E+00-7.77629E-07-8.17271E-08
 -1      6059 1.86331E+01-1.21099E-01 2.01742E-04-1.99316E+00-4.29207E-06-4.51109E-07
 -1      6060 1.86331E+01-1.21079E-01 1.66582E-04-1.99316E+00-1.89456E-05-1.99126E-06
 -1      6061 1.86330E+01-1.21016E-01 1.03196E-04-1.99315E+00-6.93125E-05-7.28503E-06
 -1      6062 1.86330E+01-1.21012E-01 5.59171E-05-1.99315E+00-1.32867E-04-1.39649E-05
 -1      6063 1.87900E+01-2.77984E-01 5.59171E-05-1.00206E+00 1.33415E-04 6.99201E-06
 -1      6064 1.87900E+01-2.77988E-01 1.03196E-04-1.00206E+00 6.95988E-05 3.64752E-06
 -1      6065 1.87900E+01-2.78052E-01 1.66582E-04-1.00207E+00 1.90239E-05 9.97001E-07
 -1      6066 1.87900E+01-2.78072E-01 2.01742E-04-1.00207E+00 4.30980E-06 2.25870E-07
 -1      6067 1.87900E+01-2.78074E-01 2.10485E-04-1.00207E+00 7.80852E-07 4.09245E-08
 -1      6068 1.87900E+01-2.78074E-01 2.10484E-04-1.00207E+00-7.80841E-07-4.09204E-08
 -1      6069 1.87900E+01-2.78072E-01 2.01742E-04-1.00207E+00-4.30979E-06-2.25865E-07
 -1      6070 1.87900E+01-2.78052E-01 1.66582E-04-1.00207E+00-1.90239E-05-9.96996E-07
 -1      6071 1.87900E+01-2.77988E-01 1.03196E-04-1.00206E+00-6.95988E-05-3.64752E-06
 -1      6072 1.87900E+01-2.77984E-01 5.59171E-05-1.00206E+00-1.33415E-04-6.99201E-06
 -1      6073-2.29602E-01 1.87417E+01 1.11636E-04-9.96981E-01 5.44709E-06 1.03937E-04
 -1      6074-2.29634E-01 1.87417E+01 1.70771E-04-9.96984E-01 1.88155E-06 3.59021E-05
 -1      6075-2.29715E-01 1.87417E+01 2.53409E-04-9.96989E-01 3.42836E-07 6.54170E-06
 -1      6076-2.29736E-01 1.87417E+01 2.94421E-04-9.96991E-01 1.37504E-07 2.62373E-06
 -1      6077-2.29738E-01 1.87417E+01 3.03046E-04-9.96991E-01 4.31698E-08 8.23704E-07
 -1      6078-2.29738E-01 1.87417E+01 3.03046E-04-9.96991E-01-4.31670E-08-8.23702E-07
 -1      6079-2.29736E-01 1.87417E+01 2.94421E-04-9.96991E-01-1.37502E-07-2.62373E-06
 -1      6080-2.29715E-01 1.87417E+01 2.53409E-04-9.96989E-01-3.42834E-07-6.54170E-06
 -1      6081-2.29634E-01 1.87417E+01 1.70771E-04-9.96984E-01-1.88155E-06-3.59021E-05
 -1      6082-2.29602E-01 1.87417E+01 1.11636E-04-9.96981E-01-5.44709E-06-1.03937E-04
 -1      6083-7.34254E-02 1.85855E+01 1.11636E-04-1.98304E+00 1.08793E-05 1.03509E-04
 -1      6084-7.34571E-02 1.85855E+01 1.70771E-04-1.98305E+00 3.75794E-06 3.57544E-05
 -1      6085-7.35376E-02 1.85855E+01 2.53409E-04-1.98305E+00 6.84735E-07 6.51479E-06
 -1      6086-7.35582E-02 1.85856E+01 2.94421E-04-1.98306E+00 2.74632E-07 2.61293E-06
 -1      6087-7.35599E-02 1.85856E+01 3.03046E-04-1.98306E+00 8.62191E-08 8.20312E-07
 -1      6088-7.35599E-02 1.85856E+01 3.03046E-04-1.98306E+00-8.62194E-08-8.20316E-07
 -1      6089-7.35582E-02 1.85856E+01 2.94421E-04-1.98306E+00-2.74632E-07-2.61293E-06
 -1      6090-7.35376E-02 1.85855E+01 2.53409E-04-1.98305E+00-6.84734E-07-6.51479E-06
 -1      6091-7.34571E-02 1.85855E+01 1.70771E-04-1.98305E+00-3.75794E-06-3.57544E-05
 -1      6092-7.34254E-02 1.85855E+01 1.11636E-04-1.98304E+00-1.08793E-05-1.03509E-04
 -1      6093 1.84966E-01 1.83271E+01 1.11636E-04-2.94737E+00 1.62816E-05 1.02798E-04
 -1      6094 1.84935E-01 1.83271E+01 1.70771E-04-2.94738E+00 5.62403E-06 3.55087E-05
 -1      6095 1.84856E-01 1.83271E+01 2.53409E-04-2.94739E+00 1.02475E-06 6.47003E-06
 -1      6096 1.84836E-01 1.83272E+01 2.94422E-04-2.94740E+00 4.11003E-07 2.59498E-06
 -1      6097 1.84834E-01 1.83272E+01 3.03046E-04-2.94740E+00 1.29032E-07 8.14678E-07
 -1      6098 1.84834E-01 1.83272E+01 3.03046E-04-2.94740E+00-1.29033E-07-8.14677E-07
 -1      6099 1.84836E-01 1.83272E+01 2.94422E-04-2.94740E+00-4.11006E-07-2.59498E-06
 -1      6100 1.84856E-01 1.83271E+01 2.53409E-04-2.94739E+00-1.02475E-06-6.47003E-06
 -1      6101 1.84935E-01 1.83271E+01 1.70771E-04-2.94738E+00-5.62403E-06-3.55087E-05
 -1      6102 1.84966E-01 1.83271E+01 1.11636E-04-2.94737E+00-1.62816E-05-1.02798E-04
 -1      6103 5.42743E-01 1.79693E+01 1.11636E-04-3.87941E+00 2.16393E-05 1.01805E-04
 -1      6104 5.42713E-01 1.79694E+01 1.70771E-04-3.87942E+00 7.47470E-06 3.51657E-05
 -1      6105 5.42635E-01 1.79694E+01 2.53409E-04-3.87944E+00 1.36196E-06 6.40753E-06
 -1      6106 5.42616E-01 1.79694E+01 2.94421E-04-3.87945E+00 5.46249E-07 2.56992E-06
 -1      6107 5.42614E-01 1.79694E+01 3.03046E-04-3.87945E+00 1.71489E-07 8.06813E-07
 -1      6108 5.42614E-01 1.79694E+01 3.03046E-04-3.87945E+00-1.71494E-07-8.06810E-07
 -1      6109 5.42616E-01 1.79694E+01 2.94421E-04-3.87945E+00-5.46253E-07-2.56992E-06
 -1      6110 5.42635E-01 1.79694E+01 2.53409E-04-3.87944E+00-1.36196E-06-6.40753E-06
 -1      6111 5.42713E-01 1.79694E+01 1.70771E-04-3.87942E+00-7.47471E-06-3.51657E-05
 -1      6112 5.42743E-01 1.79693E+01 1.11636E-04-3.87941E+00-2.16393E-05-1.01805E-04
 -1      6113 9.95984E-01 1.75161E+01 1.11636E-04-4.76895E+00 2.69377E-05 1.00533E-04
 -1      6114 9.95955E-01 1.75161E+01 1.70771E-04-4.76896E+00 9.30489E-06 3.47263E-05
 -1      6115 9.95880E-01 1.75161E+01 2.53409E-04-4.76898E+00 1.69544E-06 6.32747E-06
 -1      6116 9.95861E-01 1.75161E+01 2.94421E-04-4.76899E+00 6.79999E-07 2.53780E-06
 -1      6117 9.95860E-01 1.75161E+01 3.03046E-04-4.76899E+00 2.13480E-07 7.96726E-07
 -1      6118 9.95860E-01 1.75161E+01 3.03046E-04-4.76899E+00-2.13485E-07-7.96727E-07
 -1      6119 9.95861E-01 1.75161E+01 2.94421E-04-4.76899E+00-6.80005E-07-2.53780E-06
 -1      6120 9.95880E-01 1.75161E+01 2.53409E-04-4.76898E+00-1.69544E-06-6.32747E-06
 -1      6121 9.95955E-01 1.75161E+01 1.70771E-04-4.76896E+00-9.30490E-06-3.47263E-05
 -1      6122 9.95984E-01 1.75161E+01 1.11636E-04-4.76895E+00-2.69377E-05-1.00533E-04
 -1      6123 1.53972E+00 1.69724E+01 1.11636E-04-5.60623E+00 3.21623E-05 9.89854E-05
 -1      6124 1.53970E+00 1.69724E+01 1.70771E-04-5.60625E+00 1.11096E-05 3.41918E-05
 -1      6125 1.53962E+00 1.69724E+01 2.53409E-04-5.60628E+00 2.02427E-06 6.23007E-06
 -1      6126 1.53961E+00 1.69724E+01 2.94421E-04-5.60629E+00 8.11884E-07 2.49874E-06
 -1      6127 1.53961E+00 1.69724E+01 3.03046E-04-5.60629E+00 2.54882E-07 7.84465E-07
 -1      6128 1.53961E+00 1.69724E+01 3.03046E-04-5.60629E+00-2.54894E-07-7.84463E-07
 -1      6129 1.53961E+00 1.69724E+01 2.94421E-04-5.60629E+00-8.11896E-07-2.49874E-06
 -1      6130 1.53962E+00 1.69724E+01 2.53409E-04-5.60628E+00-2.02428E-06-6.23007E-06
 -1      6131 1.53970E+00 1.69724E+01 1.70771E-04-5.60625E+00-1.11096E-05-3.41918E-05
 -1      6132 1.53972E+00 1.69724E+01 1.11636E-04-5.60623E+00-3.21623E-05-9.89854E-05
 -1      6133 2.16801E+00 1.63441E+01 1.11637E-04-6.38210E+00 3.72987E-05 9.71665E-05
 -1      6134 2.16798E+00 1.63441E+01 1.70771E-04-6.38211E+00 1.28838E-05 3.35635E-05
 -1      6135 2.16791E+00 1.63441E+01 2.53409E-04-6.38214E+00 2.34755E-06 6.11558E-06
 -1      6136 2.16789E+00 1.63441E+01 2.94422E-04-6.38216E+00 9.41543E-07 2.45282E-06
 -1      6137 2.16789E+00 1.63441E+01 3.03046E-04-6.38216E+00 2.95585E-07 7.70050E-07
 -1      6138 2.16789E+00 1.63441E+01 3.03046E-04-6.38216E+00-2.95604E-07-7.70045E-07
 -1      6139 2.16789E+00 1.63441E+01 2.94422E-04-6.38216E+00-9.41558E-07-2.45282E-06
 -1      6140 2.16791E+00 1.63441E+01 2.53409E-04-6.38214E+00-2.34756E-06-6.11558E-06
 -1      6141 2.16798E+00 1.63441E+01 1.70771E-04-6.38211E+00-1.28838E-05-3.35635E-05
 -1      6142 2.16801E+00 1.63441E+01 1.11637E-04-6.38210E+00-3.72987E-05-9.71664E-05
 -1      6143 2.87395E+00 1.56381E+01 1.11637E-04-7.08804E+00 4.23329E-05 9.50812E-05
 -1      6144 2.87392E+00 1.56382E+01 1.70771E-04-7.08806E+00 1.46227E-05 3.28432E-05
 -1      6145 2.87386E+00 1.56381E+01 2.53409E-04-7.08809E+00 2.66439E-06 5.98435E-06
 -1      6146 2.87384E+00 1.56382E+01 2.94422E-04-7.08810E+00 1.06862E-06 2.40019E-06
 -1      6147 2.87384E+00 1.56382E+01 3.03046E-04-7.08810E+00 3.35479E-07 7.53525E-07
 -1      6148 2.87384E+00 1.56382E+01 3.03046E-04-7.08810E+00-3.35499E-07-7.53520E-07
 -1      6149 2.87384E+00 1.56382E+01 2.94422E-04-7.08810E+00-1.06864E-06-2.40018E-06
 -1      6150 2.87386E+00 1.56381E+01 2.53409E-04-7.08809E+00-2.66441E-06-5.98435E-06
 -1      6151 2.87392E+00 1.56382E+01 1.70771E-04-7.08806E+00-1.46227E-05-3.28432E-05
 -1      6152 2.87395E+00 1.56381E+01 1.11637E-04-7.08804E+00-4.23329E-05-9.50812E-05
 -1      6153 3.64981E+00 1.48623E+01 1.11636E-04-7.71632E+00 4.72510E-05 9.27354E-05
 -1      6154 3.64979E+00 1.48623E+01 1.70771E-04-7.71634E+00 1.63216E-05 3.20329E-05
 -1      6155 3.64972E+00 1.48623E+01 2.53409E-04-7.71638E+00 2.97393E-06 5.83670E-06
 -1      6156 3.64971E+00 1.48623E+01 2.94421E-04-7.71639E+00 1.19277E-06 2.34097E-06
 -1      6157 3.64971E+00 1.48623E+01 3.03046E-04-7.71639E+00 3.74452E-07 7.34937E-07
 -1      6158 3.64971E+00 1.48623E+01 3.03045E-04-7.71639E+00-3.74479E-07-7.34927E-07
 -1      6159 3.64971E+00 1.48623E+01 2.94421E-04-7.71639E+00-1.19279E-06-2.34096E-06
 -1      6160 3.64972E+00 1.48623E+01 2.53409E-04-7.71638E+00-2.97396E-06-5.83669E-06
 -1      6161 3.64979E+00 1.48623E+01 1.70771E-04-7.71634E+00-1.63216E-05-3.20329E-05
 -1      6162 3.64981E+00 1.48623E+01 1.11636E-04-7.71632E+00-4.72510E-05-9.27354E-05
 -1      6163 4.48710E+00 1.40250E+01 1.11636E-04-8.26006E+00 5.20397E-05 9.01354E-05
 -1      6164 4.48708E+00 1.40250E+01 1.70771E-04-8.26008E+00 1.79757E-05 3.11348E-05
 -1      6165 4.48702E+00 1.40250E+01 2.53409E-04-8.26012E+00 3.27533E-06 5.67306E-06
 -1      6166 4.48700E+00 1.40250E+01 2.94421E-04-8.26013E+00 1.31365E-06 2.27534E-06
 -1      6167 4.48700E+00 1.40250E+01 3.03046E-04-8.26014E+00 4.12402E-07 7.14337E-07
 -1      6168 4.48700E+00 1.40250E+01 3.03046E-04-8.26014E+00-4.12431E-07-7.14317E-07
 -1      6169 4.48700E+00 1.40250E+01 2.94421E-04-8.26013E+00-1.31368E-06-2.27532E-06
 -1      6170 4.48702E+00 1.40250E+01 2.53409E-04-8.26012E+00-3.27535E-06-5.67305E-06
 -1      6171 4.48708E+00 1.40250E+01 1.70771E-04-8.26008E+00-1.79757E-05-3.11348E-05
 -1      6172 4.48710E+00 1.40250E+01 1.11636E-04-8.26006E+00-5.20397E-05-9.01354E-05
 -1      6173 5.37663E+00 1.31355E+01 1.11636E-04-8.71330E+00 5.66857E-05 8.72883E-05
 -1      6174 5.37662E+00 1.31355E+01 1.70771E-04-8.71332E+00 1.95805E-05 3.01514E-05
 -1      6175 5.37656E+00 1.31354E+01 2.53409E-04-8.71336E+00 3.56774E-06 5.49388E-06
 -1      6176 5.37655E+00 1.31354E+01 2.94421E-04-8.71338E+00 1.43093E-06 2.20347E-06
 -1      6177 5.37655E+00 1.31354E+01 3.03046E-04-8.71338E+00 4.49220E-07 6.91776E-07
 -1      6178 5.37655E+00 1.31354E+01 3.03046E-04-8.71338E+00-4.49250E-07-6.91755E-07
 -1      6179 5.37655E+00 1.31354E+01 2.94421E-04-8.71338E+00-1.43096E-06-2.20346E-06
 -1      6180 5.37656E+00 1.31354E+01 2.53409E-04-8.71336E+00-3.56776E-06-5.49386E-06
 -1      6181 5.37662E+00 1.31355E+01 1.70771E-04-8.71332E+00-1.95805E-05-3.01513E-05
 -1      6182 5.37663E+00 1.31355E+01 1.11636E-04-8.71330E+00-5.66857E-05-8.72883E-05
 -1      6183 6.30867E+00 1.22034E+01 1.11637E-04-9.07108E+00 6.11763E-05 8.42020E-05
 -1      6184 6.30866E+00 1.22034E+01 1.70771E-04-9.07110E+00 2.11317E-05 2.90853E-05
 -1      6185 6.30861E+00 1.22034E+01 2.53409E-04-9.07114E+00 3.85038E-06 5.29961E-06
 -1      6186 6.30860E+00 1.22034E+01 2.94422E-04-9.07116E+00 1.54429E-06 2.12556E-06
 -1      6187 6.30860E+00 1.22034E+01 3.03046E-04-9.07116E+00 4.84809E-07 6.67312E-07
 -1      6188 6.30860E+00 1.22034E+01 3.03046E-04-9.07116E+00-4.84840E-07-6.67292E-07
 -1      6189 6.30860E+00 1.22034E+01 2.94422E-04-9.07116E+00-1.54432E-06-2.12554E-06
 -1      6190 6.30861E+00 1.22034E+01 2.53409E-04-9.07114E+00-3.85040E-06-5.29959E-06
 -1      6191 6.30866E+00 1.22034E+01 1.70771E-04-9.07110E+00-2.11317E-05-2.90852E-05
 -1      6192 6.30867E+00 1.22034E+01 1.11637E-04-9.07108E+00-6.11763E-05-8.42020E-05
 -1      6193 7.27300E+00 1.12391E+01 1.11637E-04-9.32947E+00 6.54992E-05 8.08849E-05
 -1      6194 7.27299E+00 1.12391E+01 1.70772E-04-9.32949E+00 2.26249E-05 2.79394E-05
 -1      6195 7.27295E+00 1.12391E+01 2.53410E-04-9.32954E+00 4.12247E-06 5.09084E-06
 -1      6196 7.27294E+00 1.12391E+01 2.94422E-04-9.32955E+00 1.65342E-06 2.04182E-06
 -1      6197 7.27294E+00 1.12391E+01 3.03046E-04-9.32956E+00 5.19069E-07 6.41027E-07
 -1      6198 7.27294E+00 1.12391E+01 3.03046E-04-9.32956E+00-5.19104E-07-6.41002E-07
 -1      6199 7.27294E+00 1.12391E+01 2.94422E-04-9.32955E+00-1.65345E-06-2.04180E-06
 -1      6200 7.27295E+00 1.12391E+01 2.53410E-04-9.32954E+00-4.12249E-06-5.09082E-06
 -1      6201 7.27299E+00 1.12391E+01 1.70772E-04-9.32949E+00-2.26249E-05-2.79394E-05
 -1      6202 7.27300E+00 1.12391E+01 1.11637E-04-9.32947E+00-6.54993E-05-8.08848E-05
 -1      6203 8.25906E+00 1.02530E+01 1.11637E-04-9.48564E+00 6.96427E-05 7.73460E-05
 -1      6204 8.25905E+00 1.02530E+01 1.70771E-04-9.48567E+00 2.40561E-05 2.67171E-05
 -1      6205 8.25901E+00 1.02530E+01 2.53409E-04-9.48572E+00 4.38324E-06 4.86812E-06
 -1      6206 8.25901E+00 1.02530E+01 2.94422E-04-9.48573E+00 1.75801E-06 1.95250E-06
 -1      6207 8.25901E+00 1.02530E+01 3.03046E-04-9.48573E+00 5.51906E-07 6.12985E-07
 -1      6208 8.25901E+00 1.02530E+01 3.03046E-04-9.48573E+00-5.51935E-07-6.12960E-07
 -1      6209 8.25901E+00 1.02530E+01 2.94422E-04-9.48573E+00-1.75804E-06-1.95247E-06
 -1      6210 8.25901E+00 1.02530E+01 2.53409E-04-9.48572E+00-4.38327E-06-4.86810E-06
 -1      6211 8.25905E+00 1.02530E+01 1.70771E-04-9.48567E+00-2.40562E-05-2.67171E-05
 -1      6212 8.25906E+00 1.02530E+01 1.11637E-04-9.48564E+00-6.96427E-05-7.73460E-05
 -1      6213 9.25604E+00 9.25604E+00 1.11636E-04-9.53789E+00 7.35952E-05 7.35952E-05
 -1      6214 9.25604E+00 9.25604E+00 1.70771E-04-9.53792E+00 2.54214E-05 2.54215E-05
 -1      6215 9.25600E+00 9.25600E+00 2.53409E-04-9.53797E+00 4.63200E-06 4.63205E-06
 -1      6216 9.25600E+00 9.25600E+00 2.94421E-04-9.53798E+00 1.85777E-06 1.85782E-06
 -1      6217 9.25600E+00 9.25600E+00 3.03045E-04-9.53798E+00 5.83219E-07 5.83261E-07
 -1      6218 9.25600E+00 9.25600E+00 3.03045E-04-9.53798E+00-5.83263E-07-5.83233E-07
 -1      6219 9.25600E+00 9.25600E+00 2.94421E-04-9.53798E+00-1.85781E-06-1.85779E-06
 -1      6220 9.25600E+00 9.25600E+00 2.53409E-04-9.53797E+00-4.63203E-06-4.63202E-06
 -1      6221 9.25604E+00 9.25604E+00 1.70771E-04-9.53792E+00-2.54214E-05-2.54214E-05
 -1      6222 9.25604E+00 9.25604E+00 1.11636E-04-9.53789E+00-7.35952E-05-7.35952E-05
 -1      6223 1.02530E+01 8.25906E+00 1.11635E-04-9.48564E+00 7.73460E-05 6.96427E-05
 -1      6224 1.02530E+01 8.25905E+00 1.70770E-04-9.48567E+00 2.67170E-05 2.40562E-05
 -1      6225 1.02530E+01 8.25901E+00 2.53408E-04-9.48572E+00 4.86809E-06 4.38328E-06
 -1      6226 1.02530E+01 8.25901E+00 2.94420E-04-9.48573E+00 1.95247E-06 1.75804E-06
 -1      6227 1.02530E+01 8.25901E+00 3.03044E-04-9.48573E+00 6.12957E-07 5.51942E-07
 -1      6228 1.02530E+01 8.25901E+00 3.03044E-04-9.48573E+00-6.12986E-07-5.51903E-07
 -1      6229 1.02530E+01 8.25901E+00 2.94420E-04-9.48573E+00-1.95250E-06-1.75801E-06
 -1      6230 1.02530E+01 8.25901E+00 2.53408E-04-9.48572E+00-4.86812E-06-4.38325E-06
 -1      6231 1.02530E+01 8.25905E+00 1.70770E-04-9.48567E+00-2.67171E-05-2.40561E-05
 -1      6232 1.02530E+01 8.25906E+00 1.11635E-04-9.48564E+00-7.73460E-05-6.96427E-05
 -1      6233 1.12391E+01 7.27300E+00 1.11635E-04-9.32947E+00 8.08848E-05 6.54993E-05
 -1      6234 1.12391E+01 7.27299E+00 1.70770E-04-9.32949E+00 2.79394E-05 2.26249E-05
 -1      6235 1.12391E+01 7.27295E+00 2.53408E-04-9.32954E+00 5.09082E-06 4.12249E-06
 -1      6236 1.12391E+01 7.27294E+00 2.94420E-04-9.32955E+00 2.04180E-06 1.65344E-06
 -1      6237 1.12391E+01 7.27294E+00 3.03044E-04-9.32956E+00 6.41003E-07 5.19102E-07
 -1      6238 1.12391E+01 7.27294E+00 3.03044E-04-9.32956E+00-6.41033E-07-5.19064E-07
 -1      6239 1.12391E+01 7.27294E+00 2.94420E-04-9.32955E+00-2.04183E-06-1.65341E-06
 -1      6240 1.12391E+01 7.27295E+00 2.53408E-04-9.32954E+00-5.09085E-06-4.12245E-06
 -1      6241 1.12391E+01 7.27299E+00 1.70770E-04-9.32949E+00-2.79395E-05-2.26249E-05
 -1      6242 1.12391E+01 7.27300E+00 1.11635E-04-9.32947E+00-8.08848E-05-6.54993E-05
 -1      6243 1.22034E+01 6.30867E+00 1.11635E-04-9.07108E+00 8.42020E-05 6.11763E-05
 -1      6244 1.22034E+01 6.30866E+00 1.70770E-04-9.07110E+00 2.90852E-05 2.11317E-05
 -1      6245 1.22034E+01 6.30861E+00 2.53408E-04-9.07114E+00 5.29960E-06 3.85040E-06
 -1      6246 1.22034E+01 6.30860E+00 2.94420E-04-9.07116E+00 2.12554E-06 1.54432E-06
 -1      6247 1.22034E+01 6.30860E+00 3.03044E-04-9.07116E+00 6.67290E-07 4.84840E-07
 -1      6248 1.22034E+01 6.30860E+00 3.03044E-04-9.07116E+00-6.67318E-07-4.84805E-07
 -1      6249 1.22034E+01 6.30860E+00 2.94420E-04-9.07116E+00-2.12557E-06-1.54428E-06
 -1      6250 1.22034E+01 6.30861E+00 2.53408E-04-9.07114E+00-5.29962E-06-3.85037E-06
 -1      6251 1.22034E+01 6.30866E+00 1.70770E-04-9.07110E+00-2.90853E-05-2.11317E-05
 -1      6252 1.22034E+01 6.30867E+00 1.11635E-04-9.07108E+00-8.42020E-05-6.11763E-05
 -1      6253 1.31355E+01 5.37663E+00 1.11635E-04-8.71330E+00 8.72883E-05 5.66857E-05
 -1      6254 1.31355E+01 5.37662E+00 1.70770E-04-8.71332E+00 3.01513E-05 1.95805E-05
 -1      6255 1.31354E+01 5.37656E+00 2.53408E-04-8.71336E+00 5.49385E-06 3.56777E-06
 -1      6256 1.31354E+01 5.37655E+00 2.94420E-04-8.71338E+00 2.20345E-06 1.43096E-06
 -1      6257 1.31354E+01 5.37655E+00 3.03044E-04-8.71338E+00 6.91755E-07 4.49256E-07
 -1      6258 1.31354E+01 5.37655E+00 3.03044E-04-8.71338E+00-6.91774E-07-4.49218E-07
 -1      6259 1.31354E+01 5.37655E+00 2.94420E-04-8.71338E+00-2.20347E-06-1.43093E-06
 -1      6260 1.31354E+01 5.37656E+00 2.53408E-04-8.71336E+00-5.49387E-06-3.56774E-06
 -1      6261 1.31355E+01 5.37662E+00 1.70770E-04-8.71332E+00-3.01514E-05-1.95805E-05
 -1      6262 1.31355E+01 5.37663E+00 1.11635E-04-8.71330E+00-8.72883E-05-5.66857E-05
 -1      6263 1.40250E+01 4.48710E+00 1.11635E-04-8.26006E+00 9.01354E-05 5.20397E-05
 -1      6264 1.40250E+01 4.48708E+00 1.70770E-04-8.26008E+00 3.11348E-05 1.79757E-05
 -1      6265 1.40250E+01 4.48702E+00 2.53408E-04-8.26012E+00 5.67305E-06 3.27536E-06
 -1      6266 1.40250E+01 4.48700E+00 2.94420E-04-8.26013E+00 2.27532E-06 1.31368E-06
 -1      6267 1.40250E+01 4.48700E+00 3.03044E-04-8.26014E+00 7.14317E-07 4.12435E-07
 -1      6268 1.40250E+01 4.48700E+00 3.03044E-04-8.26014E+00-7.14334E-07-4.12400E-07
 -1      6269 1.40250E+01 4.48700E+00 2.94420E-04-8.26013E+00-2.27534E-06-1.31365E-06
 -1      6270 1.40250E+01 4.48702E+00 2.53408E-04-8.26012E+00-5.67306E-06-3.27533E-06
 -1      6271 1.40250E+01 4.48708E+00 1.70770E-04-8.26008E+00-3.11348E-05-1.79757E-05
 -1      6272 1.40250E+01 4.48710E+00 1.11635E-04-8.26006E+00-9.01354E-05-5.20397E-05
 -1      6273 1.48623E+01 3.64981E+00 1.11635E-04-7.71632E+00 9.27354E-05 4.72510E-05
 -1      6274 1.48623E+01 3.64979E+00 1.70770E-04-7.71634E+00 3.20329E-05 1.63216E-05
 -1      6275 1.48623E+01 3.64972E+00 2.53408E-04-7.71638E+00 5.83669E-06 2.97396E-06
 -1      6276 1.48623E+01 3.64971E+00 2.94420E-04-7.71639E+00 2.34095E-06 1.19280E-06
 -1      6277 1.48623E+01 3.64971E+00 3.03044E-04-7.71639E+00 7.34925E-07 3.74481E-07
 -1      6278 1.48623E+01 3.64971E+00 3.03044E-04-7.71639E+00-7.34937E-07-3.74455E-07
 -1      6279 1.48623E+01 3.64971E+00 2.94420E-04-7.71639E+00-2.34097E-06-1.19277E-06
 -1      6280 1.48623E+01 3.64972E+00 2.53408E-04-7.71638E+00-5.83670E-06-2.97394E-06
 -1      6281 1.48623E+01 3.64979E+00 1.70770E-04-7.71634E+00-3.20329E-05-1.63216E-05
 -1      6282 1.48623E+01 3.64981E+00 1.11635E-04-7.71632E+00-9.27354E-05-4.72510E-05
 -1      6283 1.56381E+01 2.87395E+00 1.11635E-04-7.08804E+00 9.50812E-05 4.23329E-05
 -1      6284 1.56382E+01 2.87392E+00 1.70770E-04-7.08806E+00 3.28432E-05 1.46227E-05
 -1      6285 1.56381E+01 2.87386E+00 2.53408E-04-7.08809E+00 5.98433E-06 2.66441E-06
 -1      6286 1.56382E+01 2.87384E+00 2.94420E-04-7.08810E+00 2.40017E-06 1.06864E-06
 -1      6287 1.56382E+01 2.87384E+00 3.03044E-04-7.08810E+00 7.53516E-07 3.35502E-07
 -1      6288 1.56382E+01 2.87384E+00 3.03044E-04-7.08810E+00-7.53523E-07-3.35480E-07
 -1      6289 1.56382E+01 2.87384E+00 2.94420E-04-7.08810E+00-2.40018E-06-1.06862E-06
 -1      6290 1.56381E+01 2.87386E+00 2.53408E-04-7.08809E+00-5.98434E-06-2.66440E-06
 -1      6291 1.56382E+01 2.87392E+00 1.70770E-04-7.08806E+00-3.28432E-05-1.46227E-05
 -1      6292 1.56381E+01 2.87395E+00 1.11635E-04-7.08804E+00-9.50812E-05-4.23329E-05
 -1      6293 1.63441E+01 2.16801E+00 1.11635E-04-6.38210E+00 9.71664E-05 3.72987E-05
 -1      6294 1.63441E+01 2.16798E+00 1.70770E-04-6.38211E+00 3.35635E-05 1.28838E-05
 -1      6295 1.63441E+01 2.16791E+00 2.53408E-04-6.38214E+00 6.11558E-06 2.34755E-06
 -1      6296 1.63441E+01 2.16789E+00 2.94420E-04-6.38216E+00 2.45281E-06 9.41553E-07
 -1      6297 1.63441E+01 2.16789E+00 3.03044E-04-6.38216E+00 7.70044E-07 2.95602E-07
 -1      6298 1.63441E+01 2.16789E+00 3.03044E-04-6.38216E+00-7.70055E-07-2.95582E-07
 -1      6299 1.63441E+01 2.16789E+00 2.94420E-04-6.38216E+00-2.45283E-06-9.41533E-07
 -1      6300 1.63441E+01 2.16791E+00 2.53408E-04-6.38214E+00-6.11559E-06-2.34754E-06
 -1      6301 1.63441E+01 2.16798E+00 1.70770E-04-6.38211E+00-3.35635E-05-1.28838E-05
 -1      6302 1.63441E+01 2.16801E+00 1.11635E-04-6.38210E+00-9.71664E-05-3.72987E-05
 -1      6303 1.69724E+01 1.53972E+00 1.11635E-04-5.60623E+00 9.89854E-05 3.21623E-05
 -1      6304 1.69724E+01 1.53970E+00 1.70770E-04-5.60625E+00 3.41918E-05 1.11096E-05
 -1      6305 1.69724E+01 1.53962E+00 2.53408E-04-5.60628E+00 6.23006E-06 2.02428E-06
 -1      6306 1.69724E+01 1.53961E+00 2.94420E-04-5.60629E+00 2.49874E-06 8.11900E-07
 -1      6307 1.69724E+01 1.53961E+00 3.03044E-04-5.60629E+00 7.84458E-07 2.54901E-07
 -1      6308 1.69724E+01 1.53961E+00 3.03044E-04-5.60629E+00-7.84469E-07-2.54871E-07
 -1      6309 1.69724E+01 1.53961E+00 2.94420E-04-5.60629E+00-2.49874E-06-8.11873E-07
 -1      6310 1.69724E+01 1.53962E+00 2.53408E-04-5.60628E+00-6.23008E-06-2.02426E-06
 -1      6311 1.69724E+01 1.53970E+00 1.70770E-04-5.60625E+00-3.41918E-05-1.11096E-05
 -1      6312 1.69724E+01 1.53972E+00 1.11635E-04-5.60623E+00-9.89854E-05-3.21623E-05
 -1      6313 1.75161E+01 9.95984E-01 1.11635E-04-4.76895E+00 1.00533E-04 2.69377E-05
 -1      6314 1.75161E+01 9.95955E-01 1.70770E-04-4.76896E+00 3.47263E-05 9.30491E-06
 -1      6315 1.75161E+01 9.95880E-01 2.53408E-04-4.76898E+00 6.32746E-06 1.69546E-06
 -1      6316 1.75161E+01 9.95861E-01 2.94420E-04-4.76899E+00 2.53779E-06 6.80020E-07
 -1      6317 1.75161E+01 9.95860E-01 3.03044E-04-4.76899E+00 7.96720E-07 2.13499E-07
 -1      6318 1.75161E+01 9.95860E-01 3.03044E-04-4.76899E+00-7.96733E-07-2.13469E-07
 -1      6319 1.75161E+01 9.95861E-01 2.94420E-04-4.76899E+00-2.53780E-06-6.79990E-07
 -1      6320 1.75161E+01 9.95880E-01 2.53408E-04-4.76898E+00-6.32747E-06-1.69543E-06
 -1      6321 1.75161E+01 9.95955E-01 1.70770E-04-4.76896E+00-3.47263E-05-9.30489E-06
 -1      6322 1.75161E+01 9.95984E-01 1.11635E-04-4.76895E+00-1.00533E-04-2.69377E-05
 -1      6323 1.79693E+01 5.42743E-01 1.11635E-04-3.87941E+00 1.01805E-04 2.16393E-05
 -1      6324 1.79694E+01 5.42713E-01 1.70770E-04-3.87942E+00 3.51657E-05 7.47472E-06
 -1      6325 1.79694E+01 5.42635E-01 2.53408E-04-3.87944E+00 6.40753E-06 1.36198E-06
 -1      6326 1.79694E+01 5.42616E-01 2.94420E-04-3.87945E+00 2.56991E-06 5.46271E-07
 -1      6327 1.79694E+01 5.42614E-01 3.03044E-04-3.87945E+00 8.06807E-07 1.71510E-07
 -1      6328 1.79694E+01 5.42614E-01 3.03044E-04-3.87945E+00-8.06810E-07-1.71477E-07
 -1      6329 1.79694E+01 5.42616E-01 2.94420E-04-3.87945E+00-2.56991E-06-5.46239E-07
 -1      6330 1.79694E+01 5.42635E-01 2.53408E-04-3.87944E+00-6.40753E-06-1.36195E-06
 -1      6331 1.79694E+01 5.42713E-01 1.70770E-04-3.87942E+00-3.51657E-05-7.47470E-06
 -1      6332 1.79693E+01 5.42743E-01 1.11635E-04-3.87941E+00-1.01805E-04-2.16393E-05
 -1      6333 1.83271E+01 1.84966E-01 1.11635E-04-2.94737E+00 1.02798E-04 1.62816E-05
 -1      6334 1.83271E+01 1.84935E-01 1.70770E-04-2.94738E+00 3.55087E-05 5.62404E-06
 -1      6335 1.83271E+01 1.84856E-01 2.53408E-04-2.94739E+00 6.47003E-06 1.02476E-06
 -1      6336 1.83272E+01 1.84836E-01 2.94420E-04-2.94740E+00 2.59498E-06 4.11016E-07
 -1      6337 1.83272E+01 1.84834E-01 3.03044E-04-2.94740E+00 8.14679E-07 1.29045E-07
 -1      6338 1.83272E+01 1.84834E-01 3.03044E-04-2.94740E+00-8.14679E-07-1.29021E-07
 -1      6339 1.83272E+01 1.84836E-01 2.94420E-04-2.94740E+00-2.59498E-06-4.10993E-07
 -1      6340 1.83271E+01 1.84856E-01 2.53408E-04-2.94739E+00-6.47004E-06-1.02474E-06
 -1      6341 1.83271E+01 1.84935E-01 1.70770E-04-2.94738E+00-3.55087E-05-5.62402E-06
 -1      6342 1.83271E+01 1.84966E-01 1.11635E-04-2.94737E+00-1.02798E-04-1.62816E-05
 -1      6343 1.85855E+01-7.34254E-02 1.11635E-04-1.98304E+00 1.03509E-04 1.08793E-05
 -1      6344 1.85855E+01-7.34571E-02 1.70770E-04-1.98305E+00 3.57544E-05 3.75794E-06
 -1      6345 1.85855E+01-7.35376E-02 2.53408E-04-1.98305E+00 6.51479E-06 6.84738E-07
 -1      6346 1.85856E+01-7.35582E-02 2.94420E-04-1.98306E+00 2.61293E-06 2.74636E-07
 -1      6347 1.85856E+01-7.35599E-02 3.03044E-04-1.98306E+00 8.20316E-07 8.62252E-08
 -1      6348 1.85856E+01-7.35599E-02 3.03044E-04-1.98306E+00-8.20313E-07-8.62111E-08
 -1      6349 1.85856E+01-7.35582E-02 2.94420E-04-1.98306E+00-2.61293E-06-2.74623E-07
 -1      6350 1.85855E+01-7.35376E-02 2.53408E-04-1.98305E+00-6.51479E-06-6.84726E-07
 -1      6351 1.85855E+01-7.34571E-02 1.70770E-04-1.98305E+00-3.57544E-05-3.75793E-06
 -1      6352 1.85855E+01-7.34254E-02 1.11635E-04-1.98304E+00-1.03509E-04-1.08793E-05
 -1      6353 1.87417E+01-2.29602E-01 1.11635E-04-9.96981E-01 1.03937E-04 5.44709E-06
 -1      6354 1.87417E+01-2.29634E-01 1.70770E-04-9.96984E-01 3.59021E-05 1.88155E-06
 -1      6355 1.87417E+01-2.29715E-01 2.53408E-04-9.96989E-01 6.54170E-06 3.42839E-07
 -1      6356 1.87417E+01-2.29736E-01 2.94420E-04-9.96991E-01 2.62373E-06 1.37507E-07
 -1      6357 1.87417E+01-2.29738E-01 3.03044E-04-9.96991E-01 8.23709E-07 4.31716E-08
 -1      6358 1.87417E+01-2.29738E-01 3.03044E-04-9.96991E-01-8.23696E-07-4.31653E-08
 -1      6359 1.87417E+01-2.29736E-01 2.94420E-04-9.96991E-01-2.62372E-06-1.37500E-07
 -1      6360 1.87417E+01-2.29715E-01 2.53408E-04-9.96989E-01-6.54170E-06-3.42833E-07
 -1      6361 1.87417E+01-2.29634E-01 1.70770E-04-9.96984E-01-3.59021E-05-1.88155E-06
 -1      6362 1.87417E+01-2.29602E-01 1.11635E-04-9.96981E-01-1.03937E-04-5.44709E-06
 -1      6363-1.81570E-01 1.86938E+01 1.89115E-04-9.91939E-01 3.18600E-06 6.07926E-05
 -1      6364-1.81660E-01 1.86938E+01 2.53095E-04-9.91944E-01-2.10564E-07-4.01780E-06
 -1      6365-1.81750E-01 1.86938E+01 3.49810E-04-9.91949E-01-2.51208E-07-4.79333E-06
 -1      6366-1.81766E-01 1.86938E+01 3.89243E-04-9.91950E-01 7.06522E-08 1.34811E-06
 -1      6367-1.81768E-01 1.86938E+01 3.95228E-04-9.91951E-01 4.03141E-08 7.69215E-07
 -1      6368-1.81768E-01 1.86938E+01 3.95228E-04-9.91951E-01-4.03109E-08-7.69213E-07
 -1      6369-1.81766E-01 1.86938E+01 3.89243E-04-9.91950E-01-7.06497E-08-1.34811E-06
 -1      6370-1.81750E-01 1.86938E+01 3.49810E-04-9.91949E-01 2.51210E-07 4.79332E-06
 -1      6371-1.81660E-01 1.86938E+01 2.53095E-04-9.91944E-01 2.10567E-07 4.01780E-06
 -1      6372-1.81570E-01 1.86938E+01 1.89115E-04-9.91939E-01-3.18600E-06-6.07926E-05
 -1      6373-2.61837E-02 1.85384E+01 1.89115E-04-1.97301E+00 6.36328E-06 6.05425E-05
 -1      6374-2.62732E-02 1.85384E+01 2.53095E-04-1.97302E+00-4.20549E-07-4.00127E-06
 -1      6375-2.63622E-02 1.85384E+01 3.49810E-04-1.97303E+00-5.01724E-07-4.77361E-06
 -1      6376-2.63777E-02 1.85384E+01 3.89243E-04-1.97303E+00 1.41111E-07 1.34256E-06
 -1      6377-2.63794E-02 1.85384E+01 3.95228E-04-1.97303E+00 8.05155E-08 7.66046E-07
 -1      6378-2.63794E-02 1.85384E+01 3.95228E-04-1.97303E+00-8.05161E-08-7.66051E-07
 -1      6379-2.63777E-02 1.85384E+01 3.89243E-04-1.97303E+00-1.41110E-07-1.34256E-06
 -1      6380-2.63622E-02 1.85384E+01 3.49810E-04-1.97303E+00 5.01725E-07 4.77361E-06
 -1      6381-2.62732E-02 1.85384E+01 2.53095E-04-1.97302E+00 4.20550E-07 4.00128E-06
 -1      6382-2.61837E-02 1.85384E+01 1.89115E-04-1.97301E+00-6.36327E-06-6.05425E-05
 -1      6383 2.30901E-01 1.82813E+01 1.89115E-04-2.93246E+00 9.52311E-06 6.01265E-05
 -1      6384 2.30813E-01 1.82813E+01 2.53095E-04-2.93248E+00-6.29385E-07-3.97378E-06
 -1      6385 2.30725E-01 1.82813E+01 3.49810E-04-2.93249E+00-7.50871E-07-4.74081E-06
 -1      6386 2.30710E-01 1.82813E+01 3.89243E-04-2.93250E+00 2.11179E-07 1.33334E-06
 -1      6387 2.30709E-01 1.82813E+01 3.95228E-04-2.93250E+00 1.20495E-07 7.60787E-07
 -1      6388 2.30709E-01 1.82813E+01 3.95228E-04-2.93250E+00-1.20498E-07-7.60786E-07
 -1      6389 2.30710E-01 1.82813E+01 3.89243E-04-2.93250E+00-2.11183E-07-1.33334E-06
 -1      6390 2.30725E-01 1.82813E+01 3.49810E-04-2.93249E+00 7.50868E-07 4.74081E-06
 -1      6391 2.30813E-01 1.82813E+01 2.53095E-04-2.93248E+00 6.29382E-07 3.97377E-06
 -1      6392 2.30901E-01 1.82813E+01 1.89115E-04-2.93246E+00-9.52311E-06-6.01265E-05
 -1      6393 5.86868E-01 1.79253E+01 1.89115E-04-3.85979E+00 1.26568E-05 5.95457E-05
 -1      6394 5.86782E-01 1.79253E+01 2.53095E-04-3.85981E+00-8.36495E-07-3.93539E-06
 -1      6395 5.86696E-01 1.79253E+01 3.49810E-04-3.85983E+00-9.97958E-07-4.69501E-06
 -1      6396 5.86681E-01 1.79253E+01 3.89243E-04-3.85983E+00 2.80669E-07 1.32046E-06
 -1      6397 5.86680E-01 1.79253E+01 3.95228E-04-3.85984E+00 1.60145E-07 7.53442E-07
 -1      6398 5.86680E-01 1.79253E+01 3.95228E-04-3.85984E+00-1.60151E-07-7.53438E-07
 -1      6399 5.86681E-01 1.79253E+01 3.89243E-04-3.85983E+00-2.80674E-07-1.32046E-06
 -1      6400 5.86696E-01 1.79253E+01 3.49810E-04-3.85983E+00 9.97954E-07 4.69501E-06
 -1      6401 5.86782E-01 1.79253E+01 2.53095E-04-3.85981E+00 8.36491E-07 3.93539E-06
 -1      6402 5.86868E-01 1.79253E+01 1.89115E-04-3.85979E+00-1.26568E-05-5.95457E-05
 -1      6403 1.03782E+00 1.74744E+01 1.89115E-04-4.74483E+00 1.57559E-05 5.88017E-05
 -1      6404 1.03773E+00 1.74744E+01 2.53095E-04-4.74485E+00-1.04131E-06-3.88622E-06
 -1      6405 1.03765E+00 1.74744E+01 3.49810E-04-4.74487E+00-1.24231E-06-4.63635E-06
 -1      6406 1.03764E+00 1.74744E+01 3.89243E-04-4.74488E+00 3.49392E-07 1.30396E-06
 -1      6407 1.03763E+00 1.74744E+01 3.95228E-04-4.74488E+00 1.99357E-07 7.44022E-07
 -1      6408 1.03763E+00 1.74744E+01 3.95228E-04-4.74488E+00-1.99364E-07-7.44023E-07
 -1      6409 1.03764E+00 1.74744E+01 3.89243E-04-4.74488E+00-3.49399E-07-1.30396E-06
 -1      6410 1.03765E+00 1.74744E+01 3.49810E-04-4.74487E+00 1.24230E-06 4.63635E-06
 -1      6411 1.03773E+00 1.74744E+01 2.53095E-04-4.74485E+00 1.04131E-06 3.88622E-06
 -1      6412 1.03782E+00 1.74744E+01 1.89115E-04-4.74483E+00-1.57559E-05-5.88017E-05
 -1      6413 1.57881E+00 1.69334E+01 1.89115E-04-5.57788E+00 1.88117E-05 5.78965E-05
 -1      6414 1.57873E+00 1.69334E+01 2.53095E-04-5.57790E+00-1.24328E-06-3.82640E-06
 -1      6415 1.57864E+00 1.69334E+01 3.49810E-04-5.57793E+00-1.48326E-06-4.56498E-06
 -1      6416 1.57863E+00 1.69334E+01 3.89243E-04-5.57794E+00 4.17155E-07 1.28389E-06
 -1      6417 1.57863E+00 1.69334E+01 3.95228E-04-5.57794E+00 2.38020E-07 7.32572E-07
 -1      6418 1.57863E+00 1.69334E+01 3.95228E-04-5.57794E+00-2.38034E-07-7.32568E-07
 -1      6419 1.57863E+00 1.69334E+01 3.89243E-04-5.57794E+00-4.17170E-07-1.28389E-06
 -1      6420 1.57864E+00 1.69334E+01 3.49810E-04-5.57793E+00 1.48324E-06 4.56498E-06
 -1      6421 1.57873E+00 1.69334E+01 2.53095E-04-5.57790E+00 1.24327E-06 3.82640E-06
 -1      6422 1.57881E+00 1.69334E+01 1.89115E-04-5.57788E+00-1.88117E-05-5.78965E-05
 -1      6423 2.20391E+00 1.63083E+01 1.89115E-04-6.34982E+00 2.18160E-05 5.68327E-05
 -1      6424 2.20383E+00 1.63083E+01 2.53095E-04-6.34985E+00-1.44183E-06-3.75608E-06
 -1      6425 2.20376E+00 1.63083E+01 3.49810E-04-6.34988E+00-1.72014E-06-4.48110E-06
 -1      6426 2.20374E+00 1.63083E+01 3.89243E-04-6.34989E+00 4.83774E-07 1.26030E-06
 -1      6427 2.20374E+00 1.63083E+01 3.95228E-04-6.34989E+00 2.76030E-07 7.19112E-07
 -1      6428 2.20374E+00 1.63083E+01 3.95228E-04-6.34989E+00-2.76052E-07-7.19106E-07
 -1      6429 2.20374E+00 1.63083E+01 3.89243E-04-6.34989E+00-4.83793E-07-1.26029E-06
 -1      6430 2.20376E+00 1.63083E+01 3.49810E-04-6.34988E+00 1.72012E-06 4.48110E-06
 -1      6431 2.20383E+00 1.63083E+01 2.53095E-04-6.34985E+00 1.44182E-06 3.75609E-06
 -1      6432 2.20391E+00 1.63083E+01 1.89115E-04-6.34982E+00-2.18160E-05-5.68327E-05
 -1      6433 2.90628E+00 1.56059E+01 1.89115E-04-7.05219E+00 2.47605E-05 5.56130E-05
 -1      6434 2.90620E+00 1.56059E+01 2.53095E-04-7.05222E+00-1.63644E-06-3.67547E-06
 -1      6435 2.90613E+00 1.56059E+01 3.49810E-04-7.05226E+00-1.95231E-06-4.38492E-06
 -1      6436 2.90612E+00 1.56059E+01 3.89243E-04-7.05227E+00 5.49062E-07 1.23325E-06
 -1      6437 2.90612E+00 1.56059E+01 3.95228E-04-7.05227E+00 3.13282E-07 7.03680E-07
 -1      6438 2.90612E+00 1.56059E+01 3.95228E-04-7.05227E+00-3.13310E-07-7.03675E-07
 -1      6439 2.90612E+00 1.56059E+01 3.89243E-04-7.05227E+00-5.49088E-07-1.23325E-06
 -1      6440 2.90613E+00 1.56059E+01 3.49810E-04-7.05226E+00 1.95229E-06 4.38493E-06
 -1      6441 2.90620E+00 1.56059E+01 2.53095E-04-7.05222E+00 1.63642E-06 3.67548E-06
 -1      6442 2.90628E+00 1.56059E+01 1.89115E-04-7.05219E+00-2.47605E-05-5.56130E-05
 -1      6443 3.67822E+00 1.48340E+01 1.89115E-04-7.67729E+00 2.76371E-05 5.42409E-05
 -1      6444 3.67815E+00 1.48340E+01 2.53095E-04-7.67733E+00-1.82656E-06-3.58479E-06
 -1      6445 3.67808E+00 1.48339E+01 3.49810E-04-7.67737E+00-2.17912E-06-4.27674E-06
 -1      6446 3.67807E+00 1.48340E+01 3.89243E-04-7.67738E+00 6.12852E-07 1.20283E-06
 -1      6447 3.67807E+00 1.48340E+01 3.95228E-04-7.67738E+00 3.49677E-07 6.86322E-07
 -1      6448 3.67807E+00 1.48340E+01 3.95228E-04-7.67738E+00-3.49710E-07-6.86308E-07
 -1      6449 3.67807E+00 1.48340E+01 3.89243E-04-7.67738E+00-6.12883E-07-1.20282E-06
 -1      6450 3.67808E+00 1.48339E+01 3.49810E-04-7.67737E+00 2.17910E-06 4.27675E-06
 -1      6451 3.67815E+00 1.48340E+01 2.53095E-04-7.67733E+00 1.82654E-06 3.58480E-06
 -1      6452 3.67822E+00 1.48340E+01 1.89115E-04-7.67729E+00-2.76371E-05-5.42409E-05
 -1      6453 4.51127E+00 1.40009E+01 1.89115E-04-8.21828E+00 3.04380E-05 5.27202E-05
 -1      6454 4.51120E+00 1.40009E+01 2.53095E-04-8.21832E+00-2.01167E-06-3.48429E-06
 -1      6455 4.51114E+00 1.40009E+01 3.49810E-04-8.21836E+00-2.39997E-06-4.15683E-06
 -1      6456 4.51113E+00 1.40009E+01 3.89243E-04-8.21838E+00 6.74963E-07 1.16911E-06
 -1      6457 4.51113E+00 1.40009E+01 3.95228E-04-8.21838E+00 3.85117E-07 6.67086E-07
 -1      6458 4.51113E+00 1.40009E+01 3.95228E-04-8.21838E+00-3.85153E-07-6.67062E-07
 -1      6459 4.51113E+00 1.40009E+01 3.89243E-04-8.21838E+00-6.74998E-07-1.16909E-06
 -1      6460 4.51114E+00 1.40009E+01 3.49810E-04-8.21836E+00 2.39994E-06 4.15685E-06
 -1      6461 4.51120E+00 1.40009E+01 2.53095E-04-8.21832E+00 2.01164E-06 3.48430E-06
 -1      6462 4.51127E+00 1.40009E+01 1.89115E-04-8.21828E+00-3.04380E-05-5.27202E-05
 -1      6463 5.39631E+00 1.31159E+01 1.89115E-04-8.66923E+00 3.31555E-05 5.10549E-05
 -1      6464 5.39624E+00 1.31159E+01 2.53095E-04-8.66927E+00-2.19127E-06-3.37422E-06
 -1      6465 5.39618E+00 1.31158E+01 3.49810E-04-8.66932E+00-2.61423E-06-4.02552E-06
 -1      6466 5.39618E+00 1.31158E+01 3.89243E-04-8.66933E+00 7.35220E-07 1.13219E-06
 -1      6467 5.39618E+00 1.31158E+01 3.95228E-04-8.66933E+00 4.19498E-07 6.46017E-07
 -1      6468 5.39618E+00 1.31158E+01 3.95228E-04-8.66933E+00-4.19536E-07-6.45992E-07
 -1      6469 5.39618E+00 1.31158E+01 3.89243E-04-8.66933E+00-7.35255E-07-1.13217E-06
 -1      6470 5.39618E+00 1.31158E+01 3.49810E-04-8.66932E+00 2.61420E-06 4.02554E-06
 -1      6471 5.39624E+00 1.31159E+01 2.53095E-04-8.66927E+00 2.19124E-06 3.37423E-06
 -1      6472 5.39631E+00 1.31159E+01 1.89115E-04-8.66923E+00-3.31555E-05-5.10549E-05
 -1      6473 6.32363E+00 1.21886E+01 1.89115E-04-9.02519E+00 3.57820E-05 4.92497E-05
 -1      6474 6.32357E+00 1.21885E+01 2.53095E-04-9.02524E+00-2.36486E-06-3.25492E-06
 -1      6475 6.32352E+00 1.21885E+01 3.49810E-04-9.02529E+00-2.82133E-06-3.88320E-06
 -1      6476 6.32351E+00 1.21885E+01 3.89243E-04-9.02530E+00 7.93465E-07 1.09215E-06
 -1      6477 6.32351E+00 1.21885E+01 3.95228E-04-9.02530E+00 4.52734E-07 6.23172E-07
 -1      6478 6.32351E+00 1.21885E+01 3.95228E-04-9.02530E+00-4.52772E-07-6.23147E-07
 -1      6479 6.32351E+00 1.21885E+01 3.89243E-04-9.02530E+00-7.93505E-07-1.09212E-06
 -1      6480 6.32352E+00 1.21885E+01 3.49810E-04-9.02529E+00 2.82130E-06 3.88322E-06
 -1      6481 6.32357E+00 1.21885E+01 2.53095E-04-9.02524E+00 2.36483E-06 3.25494E-06
 -1      6482 6.32363E+00 1.21886E+01 1.89115E-04-9.02519E+00-3.57820E-05-4.92497E-05
 -1      6483 7.28309E+00 1.12291E+01 1.89115E-04-9.28228E+00 3.83105E-05 4.73096E-05
 -1      6484 7.28303E+00 1.12291E+01 2.53095E-04-9.28233E+00-2.53196E-06-3.12669E-06
 -1      6485 7.28298E+00 1.12290E+01 3.49810E-04-9.28238E+00-3.02069E-06-3.73022E-06
 -1      6486 7.28298E+00 1.12290E+01 3.89243E-04-9.28239E+00 8.49544E-07 1.04913E-06
 -1      6487 7.28298E+00 1.12290E+01 3.95228E-04-9.28239E+00 4.84727E-07 5.98627E-07
 -1      6488 7.28298E+00 1.12290E+01 3.95228E-04-9.28239E+00-4.84769E-07-5.98594E-07
 -1      6489 7.28298E+00 1.12290E+01 3.89243E-04-9.28239E+00-8.49581E-07-1.04910E-06
 -1      6490 7.28298E+00 1.12290E+01 3.49810E-04-9.28238E+00 3.02065E-06 3.73025E-06
 -1      6491 7.28303E+00 1.12291E+01 2.53095E-04-9.28233E+00 2.53194E-06 3.12671E-06
 -1      6492 7.28309E+00 1.12291E+01 1.89115E-04-9.28228E+00-3.83105E-05-4.73096E-05
 -1      6493 8.26416E+00 1.02480E+01 1.89115E-04-9.43767E+00 4.07340E-05 4.52397E-05
 -1      6494 8.26411E+00 1.02480E+01 2.53095E-04-9.43771E+00-2.69213E-06-2.98988E-06
 -1      6495 8.26406E+00 1.02480E+01 3.49810E-04-9.43776E+00-3.21178E-06-3.56700E-06
 -1      6496 8.26406E+00 1.02480E+01 3.89243E-04-9.43778E+00 9.03280E-07 1.00324E-06
 -1      6497 8.26406E+00 1.02480E+01 3.95228E-04-9.43778E+00 5.15392E-07 5.72439E-07
 -1      6498 8.26406E+00 1.02480E+01 3.95228E-04-9.43778E+00-5.15430E-07-5.72408E-07
 -1      6499 8.26406E+00 1.02480E+01 3.89243E-04-9.43778E+00-9.03315E-07-1.00320E-06
 -1      6500 8.26406E+00 1.02480E+01 3.49810E-04-9.43776E+00 3.21175E-06 3.56703E-06
 -1      6501 8.26411E+00 1.02480E+01 2.53095E-04-9.43771E+00 2.69211E-06 2.98991E-06
 -1      6502 8.26416E+00 1.02480E+01 1.89115E-04-9.43767E+00-4.07340E-05-4.52397E-05
 -1      6503 9.25610E+00 9.25610E+00 1.89114E-04-9.48965E+00 4.30459E-05 4.30459E-05
 -1      6504 9.25605E+00 9.25605E+00 2.53094E-04-9.48970E+00-2.84494E-06-2.84489E-06
 -1      6505 9.25601E+00 9.25601E+00 3.49809E-04-9.48975E+00-3.39408E-06-3.39402E-06
 -1      6506 9.25601E+00 9.25601E+00 3.89242E-04-9.48976E+00 9.54534E-07 9.54591E-07
 -1      6507 9.25601E+00 9.25601E+00 3.95227E-04-9.48977E+00 5.44632E-07 5.44683E-07
 -1      6508 9.25601E+00 9.25601E+00 3.95227E-04-9.48977E+00-5.44684E-07-5.44648E-07
 -1      6509 9.25601E+00 9.25601E+00 3.89242E-04-9.48976E+00-9.54573E-07-9.54555E-07
 -1      6510 9.25601E+00 9.25601E+00 3.49809E-04-9.48975E+00 3.39405E-06 3.39405E-06
 -1      6511 9.25605E+00 9.25605E+00 2.53094E-04-9.48970E+00 2.84491E-06 2.84492E-06
 -1      6512 9.25610E+00 9.25610E+00 1.89114E-04-9.48965E+00-4.30459E-05-4.30458E-05
 -1      6513 1.02480E+01 8.26416E+00 1.89113E-04-9.43767E+00 4.52397E-05 4.07340E-05
 -1      6514 1.02480E+01 8.26411E+00 2.53094E-04-9.43771E+00-2.98992E-06-2.69210E-06
 -1      6515 1.02480E+01 8.26406E+00 3.49809E-04-9.43776E+00-3.56705E-06-3.21174E-06
 -1      6516 1.02480E+01 8.26406E+00 3.89241E-04-9.43778E+00 1.00319E-06 9.03324E-07
 -1      6517 1.02480E+01 8.26406E+00 3.95226E-04-9.43778E+00 5.72404E-07 5.15436E-07
 -1      6518 1.02480E+01 8.26406E+00 3.95226E-04-9.43778E+00-5.72442E-07-5.15391E-07
 -1      6519 1.02480E+01 8.26406E+00 3.89241E-04-9.43778E+00-1.00324E-06-9.03281E-07
 -1      6520 1.02480E+01 8.26406E+00 3.49809E-04-9.43776E+00 3.56701E-06 3.21178E-06
 -1      6521 1.02480E+01 8.26411E+00 2.53094E-04-9.43771E+00 2.98990E-06 2.69213E-06
 -1      6522 1.02480E+01 8.26416E+00 1.89113E-04-9.43767E+00-4.52397E-05-4.07340E-05
 -1      6523 1.12291E+01 7.28309E+00 1.89113E-04-9.28228E+00 4.73095E-05 3.83105E-05
 -1      6524 1.12291E+01 7.28303E+00 2.53094E-04-9.28233E+00-3.12671E-06-2.53194E-06
 -1      6525 1.12290E+01 7.28298E+00 3.49809E-04-9.28238E+00-3.73024E-06-3.02066E-06
 -1      6526 1.12290E+01 7.28298E+00 3.89241E-04-9.28239E+00 1.04910E-06 8.49575E-07
 -1      6527 1.12290E+01 7.28298E+00 3.95226E-04-9.28239E+00 5.98595E-07 4.84769E-07
 -1      6528 1.12290E+01 7.28298E+00 3.95226E-04-9.28239E+00-5.98632E-07-4.84721E-07
 -1      6529 1.12290E+01 7.28298E+00 3.89241E-04-9.28239E+00-1.04914E-06-8.49532E-07
 -1      6530 1.12290E+01 7.28298E+00 3.49809E-04-9.28238E+00 3.73021E-06 3.02070E-06
 -1      6531 1.12291E+01 7.28303E+00 2.53094E-04-9.28233E+00 3.12669E-06 2.53197E-06
 -1      6532 1.12291E+01 7.28309E+00 1.89113E-04-9.28228E+00-4.73096E-05-3.83105E-05
 -1      6533 1.21886E+01 6.32363E+00 1.89113E-04-9.02519E+00 4.92497E-05 3.57820E-05
 -1      6534 1.21885E+01 6.32357E+00 2.53094E-04-9.02524E+00-3.25494E-06-2.36483E-06
 -1      6535 1.21885E+01 6.32352E+00 3.49809E-04-9.02529E+00-3.88321E-06-2.82130E-06
 -1      6536 1.21885E+01 6.32351E+00 3.89241E-04-9.02530E+00 1.09213E-06 7.93503E-07
 -1      6537 1.21885E+01 6.32351E+00 3.95226E-04-9.02530E+00 6.23145E-07 4.52772E-07
 -1      6538 1.21885E+01 6.32351E+00 3.95226E-04-9.02530E+00-6.23180E-07-4.52730E-07
 -1      6539 1.21885E+01 6.32351E+00 3.89241E-04-9.02530E+00-1.09216E-06-7.93461E-07
 -1      6540 1.21885E+01 6.32352E+00 3.49809E-04-9.02529E+00 3.88319E-06 2.82134E-06
 -1      6541 1.21885E+01 6.32357E+00 2.53094E-04-9.02524E+00 3.25492E-06 2.36486E-06
 -1      6542 1.21886E+01 6.32363E+00 1.89113E-04-9.02519E+00-4.92497E-05-3.57820E-05
 -1      6543 1.31159E+01 5.39631E+00 1.89114E-04-8.66923E+00 5.10549E-05 3.31555E-05
 -1      6544 1.31159E+01 5.39624E+00 2.53094E-04-8.66927E+00-3.37424E-06-2.19123E-06
 -1      6545 1.31158E+01 5.39618E+00 3.49809E-04-8.66932E+00-4.02555E-06-2.61419E-06
 -1      6546 1.31158E+01 5.39618E+00 3.89241E-04-8.66933E+00 1.13216E-06 7.35263E-07
 -1      6547 1.31158E+01 5.39618E+00 3.95227E-04-8.66933E+00 6.45992E-07 4.19543E-07
 -1      6548 1.31158E+01 5.39618E+00 3.95227E-04-8.66933E+00-6.46016E-07-4.19496E-07
 -1      6549 1.31158E+01 5.39618E+00 3.89241E-04-8.66933E+00-1.13219E-06-7.35223E-07
 -1      6550 1.31158E+01 5.39618E+00 3.49809E-04-8.66932E+00 4.02552E-06 2.61423E-06
 -1      6551 1.31159E+01 5.39624E+00 2.53094E-04-8.66927E+00 3.37422E-06 2.19126E-06
 -1      6552 1.31159E+01 5.39631E+00 1.89114E-04-8.66923E+00-5.10549E-05-3.31555E-05
 -1      6553 1.40009E+01 4.51127E+00 1.89114E-04-8.21828E+00 5.27202E-05 3.04380E-05
 -1      6554 1.40009E+01 4.51120E+00 2.53094E-04-8.21832E+00-3.48430E-06-2.01164E-06
 -1      6555 1.40009E+01 4.51114E+00 3.49809E-04-8.21836E+00-4.15685E-06-2.39993E-06
 -1      6556 1.40009E+01 4.51113E+00 3.89241E-04-8.21838E+00 1.16909E-06 6.75002E-07
 -1      6557 1.40009E+01 4.51113E+00 3.95227E-04-8.21838E+00 6.67061E-07 3.85156E-07
 -1      6558 1.40009E+01 4.51113E+00 3.95227E-04-8.21838E+00-6.67084E-07-3.85116E-07
 -1      6559 1.40009E+01 4.51113E+00 3.89241E-04-8.21838E+00-1.16911E-06-6.74965E-07
 -1      6560 1.40009E+01 4.51114E+00 3.49809E-04-8.21836E+00 4.15683E-06 2.39996E-06
 -1      6561 1.40009E+01 4.51120E+00 2.53094E-04-8.21832E+00 3.48429E-06 2.01167E-06
 -1      6562 1.40009E+01 4.51127E+00 1.89114E-04-8.21828E+00-5.27202E-05-3.04380E-05
 -1      6563 1.48340E+01 3.67822E+00 1.89114E-04-7.67729E+00 5.42409E-05 2.76371E-05
 -1      6564 1.48340E+01 3.67815E+00 2.53094E-04-7.67733E+00-3.58481E-06-1.82653E-06
 -1      6565 1.48339E+01 3.67808E+00 3.49809E-04-7.67737E+00-4.27676E-06-2.17909E-06
 -1      6566 1.48340E+01 3.67807E+00 3.89241E-04-7.67738E+00 1.20281E-06 6.12887E-07
 -1      6567 1.48340E+01 3.67807E+00 3.95227E-04-7.67738E+00 6.86307E-07 3.49713E-07
 -1      6568 1.48340E+01 3.67807E+00 3.95227E-04-7.67738E+00-6.86321E-07-3.49680E-07
 -1      6569 1.48340E+01 3.67807E+00 3.89241E-04-7.67738E+00-1.20283E-06-6.12857E-07
 -1      6570 1.48339E+01 3.67808E+00 3.49809E-04-7.67737E+00 4.27675E-06 2.17912E-06
 -1      6571 1.48340E+01 3.67815E+00 2.53094E-04-7.67733E+00 3.58480E-06 1.82655E-06
 -1      6572 1.48340E+01 3.67822E+00 1.89114E-04-7.67729E+00-5.42409E-05-2.76371E-05
 -1      6573 1.56059E+01 2.90628E+00 1.89113E-04-7.05219E+00 5.56130E-05 2.47605E-05
 -1      6574 1.56059E+01 2.90620E+00 2.53093E-04-7.05222E+00-3.67549E-06-1.63642E-06
 -1      6575 1.56059E+01 2.90613E+00 3.49808E-04-7.05226E+00-4.38494E-06-1.95228E-06
 -1      6576 1.56059E+01 2.90612E+00 3.89241E-04-7.05227E+00 1.23324E-06 5.49094E-07
 -1      6577 1.56059E+01 2.90612E+00 3.95226E-04-7.05227E+00 7.03668E-07 3.13311E-07
 -1      6578 1.56059E+01 2.90612E+00 3.95226E-04-7.05227E+00-7.03680E-07-3.13285E-07
 -1      6579 1.56059E+01 2.90612E+00 3.89241E-04-7.05227E+00-1.23325E-06-5.49069E-07
 -1      6580 1.56059E+01 2.90613E+00 3.49808E-04-7.05226E+00 4.38493E-06 1.95230E-06
 -1      6581 1.56059E+01 2.90620E+00 2.53093E-04-7.05222E+00 3.67548E-06 1.63644E-06
 -1      6582 1.56059E+01 2.90628E+00 1.89113E-04-7.05219E+00-5.56130E-05-2.47605E-05
 -1      6583 1.63083E+01 2.20391E+00 1.89113E-04-6.34982E+00 5.68327E-05 2.18160E-05
 -1      6584 1.63083E+01 2.20383E+00 2.53093E-04-6.34985E+00-3.75609E-06-1.44182E-06
 -1      6585 1.63083E+01 2.20376E+00 3.49808E-04-6.34988E+00-4.48110E-06-1.72013E-06
 -1      6586 1.63083E+01 2.20374E+00 3.89241E-04-6.34989E+00 1.26029E-06 4.83788E-07
 -1      6587 1.63083E+01 2.20374E+00 3.95226E-04-6.34989E+00 7.19105E-07 2.76052E-07
 -1      6588 1.63083E+01 2.20374E+00 3.95226E-04-6.34989E+00-7.19115E-07-2.76025E-07
 -1      6589 1.63083E+01 2.20374E+00 3.89241E-04-6.34989E+00-1.26031E-06-4.83764E-07
 -1      6590 1.63083E+01 2.20376E+00 3.49808E-04-6.34988E+00 4.48109E-06 1.72015E-06
 -1      6591 1.63083E+01 2.20383E+00 2.53093E-04-6.34985E+00 3.75608E-06 1.44184E-06
 -1      6592 1.63083E+01 2.20391E+00 1.89113E-04-6.34982E+00-5.68327E-05-2.18160E-05
 -1      6593 1.69334E+01 1.57881E+00 1.89113E-04-5.57788E+00 5.78965E-05 1.88117E-05
 -1      6594 1.69334E+01 1.57873E+00 2.53094E-04-5.57790E+00-3.82640E-06-1.24326E-06
 -1      6595 1.69334E+01 1.57864E+00 3.49809E-04-5.57793E+00-4.56498E-06-1.48324E-06
 -1      6596 1.69334E+01 1.57863E+00 3.89241E-04-5.57794E+00 1.28389E-06 4.17175E-07
 -1      6597 1.69334E+01 1.57863E+00 3.95226E-04-5.57794E+00 7.32563E-07 2.38044E-07
 -1      6598 1.69334E+01 1.57863E+00 3.95226E-04-5.57794E+00-7.32579E-07-2.38008E-07
 -1      6599 1.69334E+01 1.57863E+00 3.89241E-04-5.57794E+00-1.28389E-06-4.17142E-07
 -1      6600 1.69334E+01 1.57864E+00 3.49809E-04-5.57793E+00 4.56497E-06 1.48327E-06
 -1      6601 1.69334E+01 1.57873E+00 2.53094E-04-5.57790E+00 3.82638E-06 1.24328E-06
 -1      6602 1.69334E+01 1.57881E+00 1.89113E-04-5.57788E+00-5.78965E-05-1.88117E-05
 -1      6603 1.74744E+01 1.03782E+00 1.89113E-04-4.74483E+00 5.88017E-05 1.57559E-05
 -1      6604 1.74744E+01 1.03773E+00 2.53094E-04-4.74485E+00-3.88623E-06-1.04129E-06
 -1      6605 1.74744E+01 1.03765E+00 3.49809E-04-4.74487E+00-4.63636E-06-1.24228E-06
 -1      6606 1.74744E+01 1.03764E+00 3.89241E-04-4.74488E+00 1.30395E-06 3.49418E-07
 -1      6607 1.74744E+01 1.03763E+00 3.95226E-04-4.74488E+00 7.44015E-07 1.99381E-07
 -1      6608 1.74744E+01 1.03763E+00 3.95226E-04-4.74488E+00-7.44028E-07-1.99342E-07
 -1      6609 1.74744E+01 1.03764E+00 3.89241E-04-4.74488E+00-1.30397E-06-3.49380E-07
 -1      6610 1.74744E+01 1.03765E+00 3.49809E-04-4.74487E+00 4.63635E-06 1.24232E-06
 -1      6611 1.74744E+01 1.03773E+00 2.53094E-04-4.74485E+00 3.88622E-06 1.04132E-06
 -1      6612 1.74744E+01 1.03782E+00 1.89113E-04-4.74483E+00-5.88017E-05-1.57559E-05
 -1      6613 1.79253E+01 5.86868E-01 1.89113E-04-3.85979E+00 5.95457E-05 1.26568E-05
 -1      6614 1.79253E+01 5.86782E-01 2.53093E-04-3.85981E+00-3.93539E-06-8.36475E-07
 -1      6615 1.79253E+01 5.86696E-01 3.49808E-04-3.85983E+00-4.69502E-06-9.97934E-07
 -1      6616 1.79253E+01 5.86681E-01 3.89241E-04-3.85983E+00 1.32046E-06 2.80696E-07
 -1      6617 1.79253E+01 5.86680E-01 3.95226E-04-3.85984E+00 7.53436E-07 1.60170E-07
 -1      6618 1.79253E+01 5.86680E-01 3.95226E-04-3.85984E+00-7.53441E-07-1.60130E-07
 -1      6619 1.79253E+01 5.86681E-01 3.89241E-04-3.85983E+00-1.32046E-06-2.80656E-07
 -1      6620 1.79253E+01 5.86696E-01 3.49808E-04-3.85983E+00 4.69501E-06 9.97969E-07
 -1      6621 1.79253E+01 5.86782E-01 2.53093E-04-3.85981E+00 3.93539E-06 8.36502E-07
 -1      6622 1.79253E+01 5.86868E-01 1.89113E-04-3.85979E+00-5.95457E-05-1.26568E-05
 -1      6623 1.82813E+01 2.30901E-01 1.89113E-04-2.93246E+00 6.01265E-05 9.52312E-06
 -1      6624 1.82813E+01 2.30813E-01 2.53093E-04-2.93248E+00-3.97378E-06-6.29373E-07
 -1      6625 1.82813E+01 2.30725E-01 3.49808E-04-2.93249E+00-4.74081E-06-7.50856E-07
 -1      6626 1.82813E+01 2.30710E-01 3.89241E-04-2.93250E+00 1.33334E-06 2.11195E-07
 -1      6627 1.82813E+01 2.30709E-01 3.95226E-04-2.93250E+00 7.60785E-07 1.20512E-07
 -1      6628 1.82813E+01 2.30709E-01 3.95226E-04-2.93250E+00-7.60787E-07-1.20482E-07
 -1      6629 1.82813E+01 2.30710E-01 3.89241E-04-2.93250E+00-1.33335E-06-2.11166E-07
 -1      6630 1.82813E+01 2.30725E-01 3.49808E-04-2.93249E+00 4.74080E-06 7.50882E-07
 -1      6631 1.82813E+01 2.30813E-01 2.53093E-04-2.93248E+00 3.97378E-06 6.29394E-07
 -1      6632 1.82813E+01 2.30901E-01 1.89113E-04-2.93246E+00-6.01265E-05-9.52311E-06
 -1      6633 1.85384E+01-2.61837E-02 1.89113E-04-1.97301E+00 6.05425E-05 6.36328E-06
 -1      6634 1.85384E+01-2.62732E-02 2.53094E-04-1.97302E+00-4.00128E-06-4.20544E-07
 -1      6635 1.85384E+01-2.63623E-02 3.49809E-04-1.97303E+00-4.77361E-06-5.01719E-07
 -1      6636 1.85384E+01-2.63777E-02 3.89241E-04-1.97303E+00 1.34257E-06 1.41117E-07
 -1      6637 1.85384E+01-2.63794E-02 3.95226E-04-1.97303E+00 7.66052E-07 8.05243E-08
 -1      6638 1.85384E+01-2.63794E-02 3.95226E-04-1.97303E+00-7.66048E-07-8.05056E-08
 -1      6639 1.85384E+01-2.63777E-02 3.89241E-04-1.97303E+00-1.34256E-06-1.41100E-07
 -1      6640 1.85384E+01-2.63623E-02 3.49809E-04-1.97303E+00 4.77361E-06 5.01735E-07
 -1      6641 1.85384E+01-2.62732E-02 2.53094E-04-1.97302E+00 4.00127E-06 4.20557E-07
 -1      6642 1.85384E+01-2.61837E-02 1.89113E-04-1.97301E+00-6.05425E-05-6.36327E-06
 -1      6643 1.86938E+01-1.81570E-01 1.89113E-04-9.91939E-01 6.07926E-05 3.18601E-06
 -1      6644 1.86938E+01-1.81660E-01 2.53094E-04-9.91944E-01-4.01780E-06-2.10561E-07
 -1      6645 1.86938E+01-1.81750E-01 3.49809E-04-9.91949E-01-4.79333E-06-2.51204E-07
 -1      6646 1.86938E+01-1.81766E-01 3.89241E-04-9.91950E-01 1.34811E-06 7.06555E-08
 -1      6647 1.86938E+01-1.81768E-01 3.95226E-04-9.91951E-01 7.69220E-07 4.03169E-08
 -1      6648 1.86938E+01-1.81768E-01 3.95226E-04-9.91951E-01-7.69207E-07-4.03085E-08
 -1      6649 1.86938E+01-1.81766E-01 3.89241E-04-9.91950E-01-1.34811E-06-7.06470E-08
 -1      6650 1.86938E+01-1.81750E-01 3.49809E-04-9.91949E-01 4.79333E-06 2.51212E-07
 -1      6651 1.86938E+01-1.81660E-01 2.53094E-04-9.91944E-01 4.01780E-06 2.10568E-07
 -1      6652 1.86938E+01-1.81570E-01 1.89113E-04-9.91939E-01-6.07926E-05-3.18600E-06
 -1      6653-1.33887E-01 1.86462E+01 3.00329E-04-9.86934E-01 3.89207E-08 7.42656E-07
 -1      6654-1.34071E-01 1.86462E+01 3.56251E-04-9.86942E-01-2.26117E-06-4.31457E-05
 -1      6655-1.34151E-01 1.86462E+01 4.57151E-04-9.86947E-01-6.01468E-07-1.14767E-05
 -1      6656-1.34158E-01 1.86462E+01 4.85040E-04-9.86948E-01 2.48843E-08 4.74809E-07
 -1      6657-1.34161E-01 1.86462E+01 4.86892E-04-9.86949E-01 3.37406E-08 6.43782E-07
 -1      6658-1.34161E-01 1.86462E+01 4.86892E-04-9.86949E-01-3.37369E-08-6.43778E-07
 -1      6659-1.34158E-01 1.86462E+01 4.85040E-04-9.86948E-01-2.48813E-08-4.74811E-07
 -1      6660-1.34151E-01 1.86462E+01 4.57151E-04-9.86947E-01 6.01471E-07 1.14767E-05
 -1      6661-1.34071E-01 1.86462E+01 3.56251E-04-9.86942E-01 2.26117E-06 4.31457E-05
 -1      6662-1.33887E-01 1.86462E+01 3.00329E-04-9.86934E-01-3.89194E-08-7.42655E-07
 -1      6663 2.07153E-02 1.84916E+01 3.00329E-04-1.96306E+00 7.77336E-08 7.39605E-07
 -1      6664 2.05324E-02 1.84916E+01 3.56251E-04-1.96307E+00-4.51614E-06-4.29682E-05
 -1      6665 2.04536E-02 1.84916E+01 4.57151E-04-1.96308E+00-1.20128E-06-1.14295E-05
 -1      6666 2.04468E-02 1.84916E+01 4.85040E-04-1.96308E+00 4.97013E-08 4.72851E-07
 -1      6667 2.04440E-02 1.84916E+01 4.86892E-04-1.96308E+00 6.73862E-08 6.41128E-07
 -1      6668 2.04440E-02 1.84916E+01 4.86892E-04-1.96308E+00-6.73869E-08-6.41134E-07
 -1      6669 2.04468E-02 1.84916E+01 4.85040E-04-1.96308E+00-4.97006E-08-4.72855E-07
 -1      6670 2.04536E-02 1.84916E+01 4.57151E-04-1.96308E+00 1.20129E-06 1.14295E-05
 -1      6671 2.05324E-02 1.84916E+01 3.56251E-04-1.96307E+00 4.51614E-06 4.29682E-05
 -1      6672 2.07153E-02 1.84916E+01 3.00329E-04-1.96306E+00-7.77333E-08-7.39603E-07
 -1      6673 2.76503E-01 1.82358E+01 3.00329E-04-2.91767E+00 1.16337E-07 7.34523E-07
 -1      6674 2.76322E-01 1.82358E+01 3.56251E-04-2.91769E+00-6.75873E-06-4.26730E-05
 -1      6675 2.76245E-01 1.82358E+01 4.57151E-04-2.91771E+00-1.79781E-06-1.13510E-05
 -1      6676 2.76238E-01 1.82358E+01 4.85040E-04-2.91771E+00 7.43770E-08 4.69608E-07
 -1      6677 2.76236E-01 1.82358E+01 4.86892E-04-2.91771E+00 1.00846E-07 6.36728E-07
 -1      6678 2.76236E-01 1.82358E+01 4.86892E-04-2.91771E+00-1.00850E-07-6.36727E-07
 -1      6679 2.76238E-01 1.82358E+01 4.85040E-04-2.91771E+00-7.43814E-08-4.69605E-07
 -1      6680 2.76245E-01 1.82358E+01 4.57151E-04-2.91771E+00 1.79781E-06 1.13509E-05
 -1      6681 2.76322E-01 1.82358E+01 3.56251E-04-2.91769E+00 6.75873E-06 4.26730E-05
 -1      6682 2.76503E-01 1.82358E+01 3.00329E-04-2.91767E+00-1.16340E-07-7.34524E-07
 -1      6683 6.30674E-01 1.78817E+01 3.00329E-04-3.84032E+00 1.54622E-07 7.27423E-07
 -1      6684 6.30496E-01 1.78816E+01 3.56251E-04-3.84035E+00-8.98280E-06-4.22608E-05
 -1      6685 6.30421E-01 1.78816E+01 4.57151E-04-3.84037E+00-2.38942E-06-1.12413E-05
 -1      6686 6.30414E-01 1.78816E+01 4.85040E-04-3.84037E+00 9.88502E-08 4.65073E-07
 -1      6687 6.30412E-01 1.78816E+01 4.86892E-04-3.84037E+00 1.34029E-07 6.30580E-07
 -1      6688 6.30412E-01 1.78816E+01 4.86892E-04-3.84037E+00-1.34036E-07-6.30575E-07
 -1      6689 6.30414E-01 1.78816E+01 4.85040E-04-3.84037E+00-9.88564E-08-4.65074E-07
 -1      6690 6.30421E-01 1.78816E+01 4.57151E-04-3.84037E+00 2.38941E-06 1.12413E-05
 -1      6691 6.30496E-01 1.78816E+01 3.56251E-04-3.84035E+00 8.98280E-06 4.22608E-05
 -1      6692 6.30674E-01 1.78817E+01 3.00329E-04-3.84032E+00-1.54624E-07-7.27425E-07
 -1      6693 1.07935E+00 1.74330E+01 3.00329E-04-4.72089E+00 1.92477E-07 7.18342E-07
 -1      6694 1.07917E+00 1.74329E+01 3.56251E-04-4.72093E+00-1.11823E-05-4.17327E-05
 -1      6695 1.07910E+00 1.74330E+01 4.57151E-04-4.72095E+00-2.97447E-06-1.11008E-05
 -1      6696 1.07909E+00 1.74330E+01 4.85040E-04-4.72095E+00 1.23054E-07 4.59256E-07
 -1      6697 1.07909E+00 1.74330E+01 4.86892E-04-4.72096E+00 1.66848E-07 6.22697E-07
 -1      6698 1.07909E+00 1.74330E+01 4.86892E-04-4.72096E+00-1.66855E-07-6.22696E-07
 -1      6699 1.07909E+00 1.74330E+01 4.85040E-04-4.72095E+00-1.23063E-07-4.59260E-07
 -1      6700 1.07910E+00 1.74330E+01 4.57151E-04-4.72095E+00 2.97446E-06 1.11008E-05
 -1      6701 1.07917E+00 1.74329E+01 3.56251E-04-4.72093E+00 1.11822E-05 4.17327E-05
 -1      6702 1.07935E+00 1.74330E+01 3.00329E-04-4.72089E+00-1.92482E-07-7.18339E-07
 -1      6703 1.61761E+00 1.68947E+01 3.00329E-04-5.54974E+00 2.29804E-07 7.07278E-07
 -1      6704 1.61744E+00 1.68947E+01 3.56251E-04-5.54978E+00-1.33511E-05-4.10903E-05
 -1      6705 1.61737E+00 1.68947E+01 4.57151E-04-5.54981E+00-3.55137E-06-1.09300E-05
 -1      6706 1.61736E+00 1.68947E+01 4.85040E-04-5.54981E+00 1.46919E-07 4.52196E-07
 -1      6707 1.61736E+00 1.68947E+01 4.86892E-04-5.54982E+00 1.99204E-07 6.13116E-07
 -1      6708 1.61736E+00 1.68947E+01 4.86892E-04-5.54982E+00-1.99222E-07-6.13110E-07
 -1      6709 1.61736E+00 1.68947E+01 4.85040E-04-5.54981E+00-1.46936E-07-4.52188E-07
 -1      6710 1.61737E+00 1.68947E+01 4.57151E-04-5.54981E+00 3.55135E-06 1.09300E-05
 -1      6711 1.61744E+00 1.68947E+01 3.56251E-04-5.54978E+00 1.33510E-05 4.10903E-05
 -1      6712 1.61761E+00 1.68947E+01 3.00329E-04-5.54974E+00-2.29811E-07-7.07278E-07
 -1      6713 2.23956E+00 1.62728E+01 3.00329E-04-6.31778E+00 2.66503E-07 6.94291E-07
 -1      6714 2.23939E+00 1.62727E+01 3.56251E-04-6.31783E+00-1.54833E-05-4.03352E-05
 -1      6715 2.23933E+00 1.62727E+01 4.57151E-04-6.31786E+00-4.11853E-06-1.07291E-05
 -1      6716 2.23932E+00 1.62727E+01 4.85040E-04-6.31787E+00 1.70380E-07 4.43880E-07
 -1      6717 2.23932E+00 1.62727E+01 4.86892E-04-6.31787E+00 2.31015E-07 6.01850E-07
 -1      6718 2.23932E+00 1.62727E+01 4.86892E-04-6.31787E+00-2.31041E-07-6.01843E-07
 -1      6719 2.23932E+00 1.62727E+01 4.85040E-04-6.31787E+00-1.70403E-07-4.43877E-07
 -1      6720 2.23933E+00 1.62727E+01 4.57151E-04-6.31786E+00 4.11851E-06 1.07291E-05
 -1      6721 2.23939E+00 1.62727E+01 3.56251E-04-6.31783E+00 1.54832E-05 4.03352E-05
 -1      6722 2.23956E+00 1.62728E+01 3.00329E-04-6.31778E+00-2.66512E-07-6.94284E-07
 -1      6723 2.93838E+00 1.55739E+01 3.00329E-04-7.01661E+00 3.02479E-07 6.79386E-07
 -1      6724 2.93823E+00 1.55739E+01 3.56251E-04-7.01666E+00-1.75730E-05-3.94696E-05
 -1      6725 2.93816E+00 1.55739E+01 4.57151E-04-7.01670E+00-4.67441E-06-1.04989E-05
 -1      6726 2.93816E+00 1.55739E+01 4.85040E-04-7.01671E+00 1.93369E-07 4.34362E-07
 -1      6727 2.93816E+00 1.55739E+01 4.86892E-04-7.01671E+00 2.62191E-07 5.88936E-07
 -1      6728 2.93816E+00 1.55739E+01 4.86892E-04-7.01671E+00-2.62224E-07-5.88926E-07
 -1      6729 2.93816E+00 1.55739E+01 4.85040E-04-7.01671E+00-1.93400E-07-4.34352E-07
 -1      6730 2.93816E+00 1.55739E+01 4.57151E-04-7.01670E+00 4.67439E-06 1.04989E-05
 -1      6731 2.93823E+00 1.55739E+01 3.56251E-04-7.01666E+00 1.75730E-05 3.94696E-05
 -1      6732 2.93838E+00 1.55739E+01 3.00329E-04-7.01661E+00-3.02492E-07-6.79380E-07
 -1      6733 3.70643E+00 1.48059E+01 3.00329E-04-7.63856E+00 3.37615E-07 6.62623E-07
 -1      6734 3.70628E+00 1.48058E+01 3.56251E-04-7.63862E+00-1.96146E-05-3.84958E-05
 -1      6735 3.70622E+00 1.48058E+01 4.57151E-04-7.63866E+00-5.21748E-06-1.02398E-05
 -1      6736 3.70621E+00 1.48058E+01 4.85040E-04-7.63866E+00 2.15834E-07 4.23647E-07
 -1      6737 3.70621E+00 1.48058E+01 4.86892E-04-7.63867E+00 2.92651E-07 5.74408E-07
 -1      6738 3.70621E+00 1.48058E+01 4.86892E-04-7.63867E+00-2.92690E-07-5.74393E-07
 -1      6739 3.70621E+00 1.48058E+01 4.85040E-04-7.63866E+00-2.15871E-07-4.23629E-07
 -1      6740 3.70622E+00 1.48058E+01 4.57151E-04-7.63866E+00 5.21744E-06 1.02398E-05
 -1      6741 3.70628E+00 1.48058E+01 3.56251E-04-7.63862E+00 1.96146E-05 3.84958E-05
 -1      6742 3.70643E+00 1.48059E+01 3.00329E-04-7.63856E+00-3.37630E-07-6.62617E-07
 -1      6743 4.53528E+00 1.39770E+01 3.00329E-04-8.17682E+00 3.71829E-07 6.44053E-07
 -1      6744 4.53513E+00 1.39770E+01 3.56251E-04-8.17688E+00-2.16025E-05-3.74165E-05
 -1      6745 4.53508E+00 1.39770E+01 4.57151E-04-8.17692E+00-5.74624E-06-9.95274E-06
 -1      6746 4.53507E+00 1.39770E+01 4.85040E-04-8.17693E+00 2.37709E-07 4.11774E-07
 -1      6747 4.53507E+00 1.39770E+01 4.86892E-04-8.17694E+00 3.22311E-07 5.58310E-07
 -1      6748 4.53507E+00 1.39770E+01 4.86892E-04-8.17694E+00-3.22354E-07-5.58284E-07
 -1      6749 4.53507E+00 1.39770E+01 4.85040E-04-8.17693E+00-2.37752E-07-4.11751E-07
 -1      6750 4.53508E+00 1.39770E+01 4.57151E-04-8.17692E+00 5.74620E-06 9.95276E-06
 -1      6751 4.53513E+00 1.39770E+01 3.56251E-04-8.17688E+00 2.16024E-05 3.74165E-05
 -1      6752 4.53528E+00 1.39770E+01 3.00329E-04-8.17682E+00-3.71846E-07-6.44041E-07
 -1      6753 5.41585E+00 1.30965E+01 3.00329E-04-8.62549E+00 4.05025E-07 6.23708E-07
 -1      6754 5.41571E+00 1.30964E+01 3.56251E-04-8.62556E+00-2.35311E-05-3.62347E-05
 -1      6755 5.41566E+00 1.30964E+01 4.57151E-04-8.62560E+00-6.25926E-06-9.63835E-06
 -1      6756 5.41566E+00 1.30964E+01 4.85040E-04-8.62561E+00 2.58929E-07 3.98773E-07
 -1      6757 5.41566E+00 1.30964E+01 4.86892E-04-8.62562E+00 3.51085E-07 5.40678E-07
 -1      6758 5.41566E+00 1.30964E+01 4.86892E-04-8.62562E+00-3.51129E-07-5.40647E-07
 -1      6759 5.41566E+00 1.30964E+01 4.85040E-04-8.62561E+00-2.58970E-07-3.98747E-07
 -1      6760 5.41566E+00 1.30964E+01 4.57151E-04-8.62560E+00 6.25922E-06 9.63838E-06
 -1      6761 5.41571E+00 1.30964E+01 3.56251E-04-8.62556E+00 2.35311E-05 3.62347E-05
 -1      6762 5.41585E+00 1.30965E+01 3.00329E-04-8.62549E+00-4.05046E-07-6.23697E-07
 -1      6763 6.33849E+00 1.21738E+01 3.00329E-04-8.97966E+00 4.37106E-07 6.01655E-07
 -1      6764 6.33837E+00 1.21738E+01 3.56251E-04-8.97974E+00-2.53952E-05-3.49535E-05
 -1      6765 6.33832E+00 1.21737E+01 4.57151E-04-8.97978E+00-6.75511E-06-9.29757E-06
 -1      6766 6.33832E+00 1.21737E+01 4.85040E-04-8.97979E+00 2.79444E-07 3.84669E-07
 -1      6767 6.33832E+00 1.21737E+01 4.86892E-04-8.97979E+00 3.78900E-07 5.21557E-07
 -1      6768 6.33832E+00 1.21737E+01 4.86892E-04-8.97979E+00-3.78947E-07-5.21528E-07
 -1      6769 6.33832E+00 1.21737E+01 4.85040E-04-8.97979E+00-2.79489E-07-3.84636E-07
 -1      6770 6.33832E+00 1.21737E+01 4.57151E-04-8.97978E+00 6.75507E-06 9.29760E-06
 -1      6771 6.33837E+00 1.21738E+01 3.56251E-04-8.97974E+00 2.53952E-05 3.49535E-05
 -1      6772 6.33849E+00 1.21738E+01 3.00329E-04-8.97966E+00-4.37122E-07-6.01643E-07
 -1      6773 7.29311E+00 1.12192E+01 3.00329E-04-9.23545E+00 4.67996E-07 5.77961E-07
 -1      6774 7.29299E+00 1.12191E+01 3.56251E-04-9.23553E+00-2.71897E-05-3.35765E-05
 -1      6775 7.29294E+00 1.12191E+01 4.57152E-04-9.23557E+00-7.23244E-06-8.93130E-06
 -1      6776 7.29294E+00 1.12191E+01 4.85040E-04-9.23558E+00 2.99201E-07 3.69515E-07
 -1      6777 7.29294E+00 1.12191E+01 4.86893E-04-9.23558E+00 4.05678E-07 5.01016E-07
 -1      6778 7.29294E+00 1.12191E+01 4.86893E-04-9.23558E+00-4.05726E-07-5.00976E-07
 -1      6779 7.29294E+00 1.12191E+01 4.85040E-04-9.23558E+00-2.99245E-07-3.69479E-07
 -1      6780 7.29294E+00 1.12191E+01 4.57152E-04-9.23557E+00 7.23240E-06 8.93133E-06
 -1      6781 7.29299E+00 1.12191E+01 3.56251E-04-9.23553E+00 2.71897E-05 3.35765E-05
 -1      6782 7.29311E+00 1.12192E+01 3.00329E-04-9.23545E+00-4.68015E-07-5.77945E-07
 -1      6783 8.26923E+00 1.02431E+01 3.00329E-04-9.39005E+00 4.97613E-07 5.52670E-07
 -1      6784 8.26912E+00 1.02430E+01 3.56251E-04-9.39013E+00-2.89097E-05-3.21075E-05
 -1      6785 8.26908E+00 1.02430E+01 4.57151E-04-9.39018E+00-7.68997E-06-8.54052E-06
 -1      6786 8.26908E+00 1.02430E+01 4.85040E-04-9.39019E+00 3.18122E-07 3.53360E-07
 -1      6787 8.26908E+00 1.02430E+01 4.86892E-04-9.39019E+00 4.31342E-07 4.79099E-07
 -1      6788 8.26908E+00 1.02430E+01 4.86892E-04-9.39019E+00-4.31386E-07-4.79061E-07
 -1      6789 8.26908E+00 1.02430E+01 4.85040E-04-9.39019E+00-3.18165E-07-3.53321E-07
 -1      6790 8.26908E+00 1.02430E+01 4.57151E-04-9.39018E+00 7.68993E-06 8.54056E-06
 -1      6791 8.26912E+00 1.02430E+01 3.56251E-04-9.39013E+00 2.89097E-05 3.21075E-05
 -1      6792 8.26923E+00 1.02431E+01 3.00329E-04-9.39005E+00-4.97631E-07-5.52654E-07
 -1      6793 9.25616E+00 9.25616E+00 3.00328E-04-9.44177E+00 5.25860E-07 5.25866E-07
 -1      6794 9.25606E+00 9.25606E+00 3.56251E-04-9.44185E+00-3.05505E-05-3.05504E-05
 -1      6795 9.25603E+00 9.25603E+00 4.57151E-04-9.44190E+00-8.12642E-06-8.12635E-06
 -1      6796 9.25603E+00 9.25603E+00 4.85039E-04-9.44191E+00 3.36165E-07 3.36232E-07
 -1      6797 9.25603E+00 9.25603E+00 4.86892E-04-9.44191E+00 4.55812E-07 4.55871E-07
 -1      6798 9.25603E+00 9.25603E+00 4.86892E-04-9.44191E+00-4.55868E-07-4.55829E-07
 -1      6799 9.25603E+00 9.25603E+00 4.85039E-04-9.44191E+00-3.36212E-07-3.36189E-07
 -1      6800 9.25603E+00 9.25603E+00 4.57151E-04-9.44190E+00 8.12638E-06 8.12640E-06
 -1      6801 9.25606E+00 9.25606E+00 3.56251E-04-9.44185E+00 3.05505E-05 3.05505E-05
 -1      6802 9.25616E+00 9.25616E+00 3.00328E-04-9.44177E+00-5.25874E-07-5.25847E-07
 -1      6803 1.02431E+01 8.26923E+00 3.00327E-04-9.39005E+00 5.52646E-07 4.97627E-07
 -1      6804 1.02430E+01 8.26912E+00 3.56250E-04-9.39013E+00-3.21075E-05-2.89097E-05
 -1      6805 1.02430E+01 8.26908E+00 4.57150E-04-9.39018E+00-8.54057E-06-7.68992E-06
 -1      6806 1.02430E+01 8.26908E+00 4.85039E-04-9.39019E+00 3.53311E-07 3.18174E-07
 -1      6807 1.02430E+01 8.26908E+00 4.86891E-04-9.39019E+00 4.79057E-07 4.31393E-07
 -1      6808 1.02430E+01 8.26908E+00 4.86891E-04-9.39019E+00-4.79102E-07-4.31340E-07
 -1      6809 1.02430E+01 8.26908E+00 4.85039E-04-9.39019E+00-3.53359E-07-3.18123E-07
 -1      6810 1.02430E+01 8.26908E+00 4.57150E-04-9.39018E+00 8.54053E-06 7.68996E-06
 -1      6811 1.02430E+01 8.26912E+00 3.56250E-04-9.39013E+00 3.21075E-05 2.89097E-05
 -1      6812 1.02431E+01 8.26923E+00 3.00327E-04-9.39005E+00-5.52664E-07-4.97607E-07
 -1      6813 1.12192E+01 7.29311E+00 3.00327E-04-9.23545E+00 5.77933E-07 4.68026E-07
 -1      6814 1.12191E+01 7.29299E+00 3.56250E-04-9.23553E+00-3.35765E-05-2.71897E-05
 -1      6815 1.12191E+01 7.29294E+00 4.57150E-04-9.23557E+00-8.93132E-06-7.23241E-06
 -1      6816 1.12191E+01 7.29294E+00 4.85038E-04-9.23558E+00 3.69485E-07 2.99238E-07
 -1      6817 1.12191E+01 7.29294E+00 4.86891E-04-9.23558E+00 5.00978E-07 4.05727E-07
 -1      6818 1.12191E+01 7.29294E+00 4.86891E-04-9.23558E+00-5.01021E-07-4.05671E-07
 -1      6819 1.12191E+01 7.29294E+00 4.85038E-04-9.23558E+00-3.69525E-07-2.99188E-07
 -1      6820 1.12191E+01 7.29294E+00 4.57150E-04-9.23557E+00 8.93128E-06 7.23246E-06
 -1      6821 1.12191E+01 7.29299E+00 3.56250E-04-9.23553E+00 3.35765E-05 2.71897E-05
 -1      6822 1.12192E+01 7.29311E+00 3.00327E-04-9.23545E+00-5.77950E-07-4.68002E-07
 -1      6823 1.21738E+01 6.33849E+00 3.00327E-04-8.97966E+00 6.01639E-07 4.37134E-07
 -1      6824 1.21738E+01 6.33837E+00 3.56250E-04-8.97974E+00-3.49535E-05-2.53952E-05
 -1      6825 1.21737E+01 6.33832E+00 4.57150E-04-8.97978E+00-9.29759E-06-6.75507E-06
 -1      6826 1.21737E+01 6.33832E+00 4.85039E-04-8.97979E+00 3.84640E-07 2.79489E-07
 -1      6827 1.21737E+01 6.33832E+00 4.86891E-04-8.97979E+00 5.21525E-07 3.78947E-07
 -1      6828 1.21737E+01 6.33832E+00 4.86891E-04-8.97979E+00-5.21567E-07-3.78897E-07
 -1      6829 1.21737E+01 6.33832E+00 4.85039E-04-8.97979E+00-3.84677E-07-2.79438E-07
 -1      6830 1.21737E+01 6.33832E+00 4.57150E-04-8.97978E+00 9.29756E-06 6.75512E-06
 -1      6831 1.21738E+01 6.33837E+00 3.56250E-04-8.97974E+00 3.49535E-05 2.53952E-05
 -1      6832 1.21738E+01 6.33849E+00 3.00327E-04-8.97966E+00-6.01654E-07-4.37114E-07
 -1      6833 1.30965E+01 5.41585E+00 3.00328E-04-8.62549E+00 6.23698E-07 4.05049E-07
 -1      6834 1.30964E+01 5.41571E+00 3.56250E-04-8.62556E+00-3.62347E-05-2.35310E-05
 -1      6835 1.30964E+01 5.41566E+00 4.57150E-04-8.62560E+00-9.63838E-06-6.25921E-06
 -1      6836 1.30964E+01 5.41566E+00 4.85039E-04-8.62561E+00 3.98743E-07 2.58981E-07
 -1      6837 1.30964E+01 5.41566E+00 4.86891E-04-8.62562E+00 5.40647E-07 3.51138E-07
 -1      6838 1.30964E+01 5.41566E+00 4.86891E-04-8.62562E+00-5.40678E-07-3.51083E-07
 -1      6839 1.30964E+01 5.41566E+00 4.85039E-04-8.62561E+00-3.98772E-07-2.58932E-07
 -1      6840 1.30964E+01 5.41566E+00 4.57150E-04-8.62560E+00 9.63836E-06 6.25925E-06
 -1      6841 1.30964E+01 5.41571E+00 3.56250E-04-8.62556E+00 3.62347E-05 2.35311E-05
 -1      6842 1.30965E+01 5.41585E+00 3.00328E-04-8.62549E+00-6.23713E-07-4.05030E-07
 -1      6843 1.39771E+01 4.53528E+00 3.00328E-04-8.17682E+00 6.44036E-07 3.71854E-07
 -1      6844 1.39770E+01 4.53513E+00 3.56250E-04-8.17688E+00-3.74165E-05-2.16024E-05
 -1      6845 1.39770E+01 4.53508E+00 4.57150E-04-8.17692E+00-9.95276E-06-5.74620E-06
 -1      6846 1.39770E+01 4.53507E+00 4.85039E-04-8.17693E+00 4.11748E-07 2.37757E-07
 -1      6847 1.39770E+01 4.53507E+00 4.86891E-04-8.17694E+00 5.58280E-07 3.22357E-07
 -1      6848 1.39770E+01 4.53507E+00 4.86891E-04-8.17694E+00-5.58308E-07-3.22311E-07
 -1      6849 1.39770E+01 4.53507E+00 4.85039E-04-8.17693E+00-4.11772E-07-2.37712E-07
 -1      6850 1.39770E+01 4.53508E+00 4.57150E-04-8.17692E+00 9.95274E-06 5.74624E-06
 -1      6851 1.39770E+01 4.53513E+00 3.56250E-04-8.17688E+00 3.74165E-05 2.16025E-05
 -1      6852 1.39771E+01 4.53528E+00 3.00328E-04-8.17682E+00-6.44045E-07-3.71836E-07
 -1      6853 1.48059E+01 3.70643E+00 3.00328E-04-7.63856E+00 6.62615E-07 3.37633E-07
 -1      6854 1.48058E+01 3.70628E+00 3.56250E-04-7.63862E+00-3.84959E-05-1.96146E-05
 -1      6855 1.48058E+01 3.70622E+00 4.57150E-04-7.63866E+00-1.02399E-05-5.21744E-06
 -1      6856 1.48058E+01 3.70621E+00 4.85039E-04-7.63866E+00 4.23626E-07 2.15877E-07
 -1      6857 1.48058E+01 3.70621E+00 4.86891E-04-7.63867E+00 5.74391E-07 2.92693E-07
 -1      6858 1.48058E+01 3.70621E+00 4.86891E-04-7.63867E+00-5.74407E-07-2.92653E-07
 -1      6859 1.48058E+01 3.70621E+00 4.85039E-04-7.63866E+00-4.23642E-07-2.15841E-07
 -1      6860 1.48058E+01 3.70622E+00 4.57150E-04-7.63866E+00 1.02398E-05 5.21747E-06
 -1      6861 1.48058E+01 3.70628E+00 3.56250E-04-7.63862E+00 3.84958E-05 1.96146E-05
 -1      6862 1.48059E+01 3.70643E+00 3.00328E-04-7.63856E+00-6.62626E-07-3.37618E-07
 -1      6863 1.55739E+01 2.93838E+00 3.00327E-04-7.01661E+00 6.79382E-07 3.02483E-07
 -1      6864 1.55739E+01 2.93823E+00 3.56250E-04-7.01666E+00-3.94696E-05-1.75730E-05
 -1      6865 1.55739E+01 2.93816E+00 4.57150E-04-7.01670E+00-1.04989E-05-4.67438E-06
 -1      6866 1.55739E+01 2.93816E+00 4.85038E-04-7.01671E+00 4.34343E-07 1.93406E-07
 -1      6867 1.55739E+01 2.93816E+00 4.86891E-04-7.01671E+00 5.88919E-07 2.62226E-07
 -1      6868 1.55739E+01 2.93816E+00 4.86891E-04-7.01671E+00-5.88934E-07-2.62194E-07
 -1      6869 1.55739E+01 2.93816E+00 4.85038E-04-7.01671E+00-4.34355E-07-1.93376E-07
 -1      6870 1.55739E+01 2.93816E+00 4.57150E-04-7.01670E+00 1.04989E-05 4.67441E-06
 -1      6871 1.55739E+01 2.93823E+00 3.56250E-04-7.01666E+00 3.94696E-05 1.75730E-05
 -1      6872 1.55739E+01 2.93838E+00 3.00327E-04-7.01661E+00-6.79388E-07-3.02469E-07
 -1      6873 1.62728E+01 2.23956E+00 3.00327E-04-6.31778E+00 6.94276E-07 2.66520E-07
 -1      6874 1.62727E+01 2.23939E+00 3.56250E-04-6.31783E+00-4.03352E-05-1.54832E-05
 -1      6875 1.62727E+01 2.23933E+00 4.57150E-04-6.31786E+00-1.07291E-05-4.11852E-06
 -1      6876 1.62727E+01 2.23932E+00 4.85038E-04-6.31787E+00 4.43874E-07 1.70398E-07
 -1      6877 1.62727E+01 2.23932E+00 4.86891E-04-6.31787E+00 6.01841E-07 2.31041E-07
 -1      6878 1.62727E+01 2.23932E+00 4.86891E-04-6.31787E+00-6.01853E-07-2.31008E-07
 -1      6879 1.62727E+01 2.23932E+00 4.85038E-04-6.31787E+00-4.43891E-07-1.70368E-07
 -1      6880 1.62727E+01 2.23933E+00 4.57150E-04-6.31786E+00 1.07291E-05 4.11854E-06
 -1      6881 1.62727E+01 2.23939E+00 3.56250E-04-6.31783E+00 4.03352E-05 1.54833E-05
 -1      6882 1.62728E+01 2.23956E+00 3.00327E-04-6.31778E+00-6.94284E-07-2.66506E-07
 -1      6883 1.68947E+01 1.61761E+00 3.00327E-04-5.54974E+00 7.07280E-07 2.29821E-07
 -1      6884 1.68947E+01 1.61744E+00 3.56250E-04-5.54978E+00-4.10903E-05-1.33510E-05
 -1      6885 1.68947E+01 1.61737E+00 4.57150E-04-5.54981E+00-1.09300E-05-3.55134E-06
 -1      6886 1.68947E+01 1.61736E+00 4.85038E-04-5.54981E+00 4.52186E-07 1.46943E-07
 -1      6887 1.68947E+01 1.61736E+00 4.86891E-04-5.54982E+00 6.13104E-07 1.99233E-07
 -1      6888 1.68947E+01 1.61736E+00 4.86891E-04-5.54982E+00-6.13120E-07-1.99191E-07
 -1      6889 1.68947E+01 1.61736E+00 4.85038E-04-5.54981E+00-4.52198E-07-1.46904E-07
 -1      6890 1.68947E+01 1.61737E+00 4.57150E-04-5.54981E+00 1.09299E-05 3.55138E-06
 -1      6891 1.68947E+01 1.61744E+00 3.56250E-04-5.54978E+00 4.10903E-05 1.33511E-05
 -1      6892 1.68947E+01 1.61761E+00 3.00327E-04-5.54974E+00-7.07286E-07-2.29804E-07
 -1      6893 1.74330E+01 1.07935E+00 3.00327E-04-4.72089E+00 7.18335E-07 1.92487E-07
 -1      6894 1.74329E+01 1.07917E+00 3.56250E-04-4.72093E+00-4.17327E-05-1.11822E-05
 -1      6895 1.74330E+01 1.07910E+00 4.57150E-04-4.72095E+00-1.11009E-05-2.97444E-06
 -1      6896 1.74330E+01 1.07909E+00 4.85038E-04-4.72095E+00 4.59248E-07 1.23086E-07
 -1      6897 1.74330E+01 1.07909E+00 4.86891E-04-4.72096E+00 6.22689E-07 1.66876E-07
 -1      6898 1.74330E+01 1.07909E+00 4.86891E-04-4.72096E+00-6.22704E-07-1.66829E-07
 -1      6899 1.74330E+01 1.07909E+00 4.85038E-04-4.72095E+00-4.59264E-07-1.23040E-07
 -1      6900 1.74330E+01 1.07910E+00 4.57150E-04-4.72095E+00 1.11008E-05 2.97448E-06
 -1      6901 1.74329E+01 1.07917E+00 3.56250E-04-4.72093E+00 4.17327E-05 1.11823E-05
 -1      6902 1.74330E+01 1.07935E+00 3.00327E-04-4.72089E+00-7.18338E-07-1.92468E-07
 -1      6903 1.78817E+01 6.30674E-01 3.00327E-04-3.84032E+00 7.27424E-07 1.54630E-07
 -1      6904 1.78816E+01 6.30496E-01 3.56250E-04-3.84035E+00-4.22608E-05-8.98278E-06
 -1      6905 1.78816E+01 6.30421E-01 4.57150E-04-3.84037E+00-1.12413E-05-2.38939E-06
 -1      6906 1.78816E+01 6.30414E-01 4.85038E-04-3.84037E+00 4.65065E-07 9.88814E-08
 -1      6907 1.78816E+01 6.30412E-01 4.86891E-04-3.84037E+00 6.30574E-07 1.34058E-07
 -1      6908 1.78816E+01 6.30412E-01 4.86891E-04-3.84037E+00-6.30583E-07-1.34012E-07
 -1      6909 1.78816E+01 6.30414E-01 4.85038E-04-3.84037E+00-4.65076E-07-9.88347E-08
 -1      6910 1.78816E+01 6.30421E-01 4.57150E-04-3.84037E+00 1.12413E-05 2.38943E-06
 -1      6911 1.78816E+01 6.30496E-01 3.56250E-04-3.84035E+00 4.22608E-05 8.98281E-06
 -1      6912 1.78817E+01 6.30674E-01 3.00327E-04-3.84032E+00-7.27430E-07-1.54612E-07
 -1      6913 1.82358E+01 2.76503E-01 3.00327E-04-2.91767E+00 7.34523E-07 1.16347E-07
 -1      6914 1.82358E+01 2.76322E-01 3.56250E-04-2.91769E+00-4.26730E-05-6.75872E-06
 -1      6915 1.82358E+01 2.76245E-01 4.57150E-04-2.91771E+00-1.13509E-05-1.79780E-06
 -1      6916 1.82358E+01 2.76238E-01 4.85038E-04-2.91771E+00 4.69605E-07 7.43972E-08
 -1      6917 1.82358E+01 2.76236E-01 4.86891E-04-2.91771E+00 6.36723E-07 1.00866E-07
 -1      6918 1.82358E+01 2.76236E-01 4.86891E-04-2.91771E+00-6.36727E-07-1.00829E-07
 -1      6919 1.82358E+01 2.76238E-01 4.85038E-04-2.91771E+00-4.69612E-07-7.43617E-08
 -1      6920 1.82358E+01 2.76245E-01 4.57150E-04-2.91771E+00 1.13509E-05 1.79783E-06
 -1      6921 1.82358E+01 2.76322E-01 3.56250E-04-2.91769E+00 4.26730E-05 6.75874E-06
 -1      6922 1.82358E+01 2.76503E-01 3.00327E-04-2.91767E+00-7.34522E-07-1.16332E-07
 -1      6923 1.84916E+01 2.07153E-02 3.00327E-04-1.96306E+00 7.39605E-07 7.77419E-08
 -1      6924 1.84916E+01 2.05324E-02 3.56250E-04-1.96307E+00-4.29682E-05-4.51613E-06
 -1      6925 1.84916E+01 2.04536E-02 4.57150E-04-1.96308E+00-1.14295E-05-1.20128E-06
 -1      6926 1.84916E+01 2.04468E-02 4.85038E-04-1.96308E+00 4.72857E-07 4.97097E-08
 -1      6927 1.84916E+01 2.04440E-02 4.86891E-04-1.96308E+00 6.41134E-07 6.73970E-08
 -1      6928 1.84916E+01 2.04440E-02 4.86891E-04-1.96308E+00-6.41129E-07-6.73741E-08
 -1      6929 1.84916E+01 2.04468E-02 4.85038E-04-1.96308E+00-4.72853E-07-4.96882E-08
 -1      6930 1.84916E+01 2.04536E-02 4.57150E-04-1.96308E+00 1.14295E-05 1.20130E-06
 -1      6931 1.84916E+01 2.05324E-02 3.56250E-04-1.96307E+00 4.29682E-05 4.51615E-06
 -1      6932 1.84916E+01 2.07153E-02 3.00327E-04-1.96306E+00-7.39604E-07-7.77324E-08
 -1      6933 1.86462E+01-1.33887E-01 3.00327E-04-9.86934E-01 7.42658E-07 3.89233E-08
 -1      6934 1.86462E+01-1.34071E-01 3.56250E-04-9.86942E-01-4.31457E-05-2.26117E-06
 -1      6935 1.86462E+01-1.34151E-01 4.57150E-04-9.86947E-01-1.14767E-05-6.01464E-07
 -1      6936 1.86462E+01-1.34158E-01 4.85039E-04-9.86948E-01 4.74811E-07 2.48884E-08
 -1      6937 1.86462E+01-1.34161E-01 4.86891E-04-9.86949E-01 6.43787E-07 3.37442E-08
 -1      6938 1.86462E+01-1.34161E-01 4.86891E-04-9.86949E-01-6.43775E-07-3.37337E-08
 -1      6939 1.86462E+01-1.34158E-01 4.85039E-04-9.86948E-01-4.74809E-07-2.48781E-08
 -1      6940 1.86462E+01-1.34151E-01 4.57150E-04-9.86947E-01 1.14767E-05 6.01473E-07
 -1      6941 1.86462E+01-1.34071E-01 3.56250E-04-9.86942E-01 4.31457E-05 2.26117E-06
 -1      6942 1.86462E+01-1.33887E-01 3.00327E-04-9.86934E-01-7.42659E-07-3.89185E-08
 -1      6943-8.65629E-02 1.85990E+01 4.63700E-04-9.81968E-01-3.92072E-06-7.48119E-05
 -1      6944-8.68692E-02 1.85990E+01 4.88192E-04-9.81980E-01-3.50709E-06-6.69193E-05
 -1      6945-8.69064E-02 1.85990E+01 5.74351E-04-9.81983E-01-6.29855E-07-1.20183E-05
 -1      6946-8.69088E-02 1.85990E+01 5.79349E-04-9.81984E-01-2.47445E-08-4.72166E-07
 -1      6947-8.69131E-02 1.85990E+01 5.78227E-04-9.81984E-01 3.65808E-08 6.97975E-07
 -1      6948-8.69131E-02 1.85990E+01 5.78227E-04-9.81984E-01-3.65769E-08-6.97973E-07
 -1      6949-8.69088E-02 1.85990E+01 5.79349E-04-9.81984E-01 2.47483E-08 4.72165E-07
 -1      6950-8.69064E-02 1.85990E+01 5.74351E-04-9.81983E-01 6.29858E-07 1.20183E-05
 -1      6951-8.68692E-02 1.85990E+01 4.88192E-04-9.81980E-01 3.50710E-06 6.69193E-05
 -1      6952-8.65629E-02 1.85990E+01 4.63700E-04-9.81968E-01 3.92073E-06 7.48119E-05
 -1      6953 6.72616E-02 1.84452E+01 4.63700E-04-1.95318E+00-7.83070E-06-7.45041E-05
 -1      6954 6.69572E-02 1.84451E+01 4.88192E-04-1.95320E+00-7.00457E-06-6.66440E-05
 -1      6955 6.69204E-02 1.84452E+01 5.74351E-04-1.95321E+00-1.25798E-06-1.19689E-05
 -1      6956 6.69182E-02 1.84452E+01 5.79349E-04-1.95321E+00-4.94201E-08-4.70229E-07
 -1      6957 6.69139E-02 1.84452E+01 5.78227E-04-1.95321E+00 7.30588E-08 6.95099E-07
 -1      6958 6.69139E-02 1.84452E+01 5.78227E-04-1.95321E+00-7.30591E-08-6.95103E-07
 -1      6959 6.69182E-02 1.84452E+01 5.79349E-04-1.95321E+00 4.94210E-08 4.70226E-07
 -1      6960 6.69204E-02 1.84452E+01 5.74351E-04-1.95321E+00 1.25798E-06 1.19689E-05
 -1      6961 6.69572E-02 1.84451E+01 4.88192E-04-1.95320E+00 7.00457E-06 6.66440E-05
 -1      6962 6.72616E-02 1.84452E+01 4.63700E-04-1.95318E+00 7.83070E-06 7.45041E-05
 -1      6963 3.21762E-01 1.81907E+01 4.63700E-04-2.90299E+00-1.17192E-05-7.39922E-05
 -1      6964 3.21461E-01 1.81906E+01 4.88192E-04-2.90302E+00-1.04829E-05-6.61861E-05
 -1      6965 3.21425E-01 1.81907E+01 5.74351E-04-2.90303E+00-1.88266E-06-1.18867E-05
 -1      6966 3.21423E-01 1.81907E+01 5.79349E-04-2.90303E+00-7.39661E-08-4.66991E-07
 -1      6967 3.21419E-01 1.81907E+01 5.78227E-04-2.90304E+00 1.09334E-07 6.90329E-07
 -1      6968 3.21419E-01 1.81907E+01 5.78227E-04-2.90304E+00-1.09340E-07-6.90327E-07
 -1      6969 3.21423E-01 1.81907E+01 5.79349E-04-2.90303E+00 7.39607E-08 4.66995E-07
 -1      6970 3.21425E-01 1.81907E+01 5.74351E-04-2.90303E+00 1.88266E-06 1.18867E-05
 -1      6971 3.21461E-01 1.81906E+01 4.88192E-04-2.90302E+00 1.04828E-05 6.61861E-05
 -1      6972 3.21762E-01 1.81907E+01 4.63700E-04-2.90299E+00 1.17192E-05 7.39922E-05
 -1      6973 6.74151E-01 1.78383E+01 4.63700E-04-3.82099E+00-1.55756E-05-7.32775E-05
 -1      6974 6.73854E-01 1.78382E+01 4.88192E-04-3.82104E+00-1.39324E-05-6.55468E-05
 -1      6975 6.73820E-01 1.78383E+01 5.74351E-04-3.82105E+00-2.50218E-06-1.17718E-05
 -1      6976 6.73818E-01 1.78383E+01 5.79349E-04-3.82105E+00-9.83077E-08-4.62479E-07
 -1      6977 6.73813E-01 1.78383E+01 5.78227E-04-3.82105E+00 1.45312E-07 6.83661E-07
 -1      6978 6.73813E-01 1.78383E+01 5.78227E-04-3.82105E+00-1.45320E-07-6.83656E-07
 -1      6979 6.73818E-01 1.78383E+01 5.79349E-04-3.82105E+00 9.83005E-08 4.62479E-07
 -1      6980 6.73820E-01 1.78383E+01 5.74351E-04-3.82105E+00 2.50218E-06 1.17718E-05
 -1      6981 6.73854E-01 1.78382E+01 4.88192E-04-3.82104E+00 1.39324E-05 6.55468E-05
 -1      6982 6.74151E-01 1.78383E+01 4.63700E-04-3.82099E+00 1.55756E-05 7.32775E-05
 -1      6983 1.12057E+00 1.73919E+01 4.63700E-04-4.69713E+00-1.93893E-05-7.23619E-05
 -1      6984 1.12028E+00 1.73918E+01 4.88192E-04-4.69719E+00-1.73438E-05-6.47278E-05
 -1      6985 1.12024E+00 1.73918E+01 5.74351E-04-4.69721E+00-3.11485E-06-1.16248E-05
 -1      6986 1.12024E+00 1.73918E+01 5.79349E-04-4.69721E+00-1.22378E-07-4.56708E-07
 -1      6987 1.12024E+00 1.73918E+01 5.78227E-04-4.69721E+00 1.80893E-07 6.75117E-07
 -1      6988 1.12024E+00 1.73918E+01 5.78227E-04-4.69721E+00-1.80902E-07-6.75114E-07
 -1      6989 1.12024E+00 1.73918E+01 5.79349E-04-4.69721E+00 1.22368E-07 4.56704E-07
 -1      6990 1.12024E+00 1.73918E+01 5.74351E-04-4.69721E+00 3.11484E-06 1.16248E-05
 -1      6991 1.12028E+00 1.73918E+01 4.88192E-04-4.69719E+00 1.73438E-05 6.47278E-05
 -1      6992 1.12057E+00 1.73919E+01 4.63700E-04-4.69713E+00 1.93893E-05 7.23619E-05
 -1      6993 1.65612E+00 1.68564E+01 4.63700E-04-5.52181E+00-2.31499E-05-7.12480E-05
 -1      6994 1.65583E+00 1.68563E+01 4.88192E-04-5.52188E+00-2.07076E-05-6.37314E-05
 -1      6995 1.65580E+00 1.68563E+01 5.74351E-04-5.52190E+00-3.71897E-06-1.14458E-05
 -1      6996 1.65580E+00 1.68563E+01 5.79349E-04-5.52190E+00-1.46115E-07-4.49667E-07
 -1      6997 1.65580E+00 1.68563E+01 5.78227E-04-5.52190E+00 2.15972E-07 6.64728E-07
 -1      6998 1.65580E+00 1.68563E+01 5.78227E-04-5.52190E+00-2.15993E-07-6.64722E-07
 -1      6999 1.65580E+00 1.68563E+01 5.79349E-04-5.52190E+00 1.46096E-07 4.49675E-07
 -1      7000 1.65580E+00 1.68563E+01 5.74351E-04-5.52190E+00 3.71896E-06 1.14458E-05
 -1      7001 1.65583E+00 1.68563E+01 4.88192E-04-5.52188E+00 2.07076E-05 6.37314E-05
 -1      7002 1.65612E+00 1.68564E+01 4.63700E-04-5.52181E+00 2.31499E-05 7.12480E-05
 -1      7003 2.27494E+00 1.62375E+01 4.63700E-04-6.28599E+00-2.68470E-05-6.99387E-05
 -1      7004 2.27466E+00 1.62374E+01 4.88192E-04-6.28607E+00-2.40147E-05-6.25603E-05
 -1      7005 2.27463E+00 1.62374E+01 5.74351E-04-6.28609E+00-4.31291E-06-1.12355E-05
 -1      7006 2.27463E+00 1.62375E+01 5.79349E-04-6.28609E+00-1.69454E-07-4.41410E-07
 -1      7007 2.27463E+00 1.62375E+01 5.78227E-04-6.28609E+00 2.50461E-07 6.52513E-07
 -1      7008 2.27463E+00 1.62375E+01 5.78227E-04-6.28609E+00-2.50490E-07-6.52505E-07
 -1      7009 2.27463E+00 1.62375E+01 5.79349E-04-6.28609E+00 1.69427E-07 4.41416E-07
 -1      7010 2.27463E+00 1.62374E+01 5.74351E-04-6.28609E+00 4.31288E-06 1.12355E-05
 -1      7011 2.27466E+00 1.62374E+01 4.88192E-04-6.28607E+00 2.40146E-05 6.25603E-05
 -1      7012 2.27494E+00 1.62375E+01 4.63700E-04-6.28599E+00 2.68470E-05 6.99387E-05
 -1      7013 2.97025E+00 1.55422E+01 4.63700E-04-6.98130E+00-3.04705E-05-6.84378E-05
 -1      7014 2.96998E+00 1.55421E+01 4.88192E-04-6.98139E+00-2.72559E-05-6.12177E-05
 -1      7015 2.96995E+00 1.55421E+01 5.74351E-04-6.98141E+00-4.89503E-06-1.09944E-05
 -1      7016 2.96995E+00 1.55421E+01 5.79349E-04-6.98141E+00-1.92332E-07-4.31929E-07
 -1      7017 2.96995E+00 1.55421E+01 5.78227E-04-6.98141E+00 2.84262E-07 6.38513E-07
 -1      7018 2.96995E+00 1.55421E+01 5.78227E-04-6.98141E+00-2.84298E-07-6.38500E-07
 -1      7019 2.96995E+00 1.55421E+01 5.79349E-04-6.98141E+00 1.92296E-07 4.31942E-07
 -1      7020 2.96995E+00 1.55421E+01 5.74351E-04-6.98141E+00 4.89499E-06 1.09944E-05
 -1      7021 2.96998E+00 1.55421E+01 4.88192E-04-6.98139E+00 2.72559E-05 6.12177E-05
 -1      7022 2.97025E+00 1.55422E+01 4.63700E-04-6.98130E+00 3.04705E-05 6.84378E-05
 -1      7023 3.73443E+00 1.47780E+01 4.63700E-04-7.60012E+00-3.40105E-05-6.67493E-05
 -1      7024 3.73417E+00 1.47779E+01 4.88192E-04-7.60021E+00-3.04224E-05-5.97074E-05
 -1      7025 3.73415E+00 1.47779E+01 5.74351E-04-7.60024E+00-5.46372E-06-1.07231E-05
 -1      7026 3.73414E+00 1.47779E+01 5.79349E-04-7.60024E+00-2.14676E-07-4.21271E-07
 -1      7027 3.73414E+00 1.47779E+01 5.78227E-04-7.60024E+00 3.17285E-07 6.22762E-07
 -1      7028 3.73414E+00 1.47779E+01 5.78227E-04-7.60024E+00-3.17331E-07-6.22744E-07
 -1      7029 3.73414E+00 1.47779E+01 5.79349E-04-7.60024E+00 2.14634E-07 4.21292E-07
 -1      7030 3.73415E+00 1.47779E+01 5.74351E-04-7.60024E+00 5.46368E-06 1.07231E-05
 -1      7031 3.73417E+00 1.47779E+01 4.88192E-04-7.60021E+00 3.04224E-05 5.97074E-05
 -1      7032 3.73443E+00 1.47780E+01 4.63700E-04-7.60012E+00 3.40105E-05 6.67493E-05
 -1      7033 4.55911E+00 1.39534E+01 4.63700E-04-8.13567E+00-3.74573E-05-6.48779E-05
 -1      7034 4.55886E+00 1.39532E+01 4.88192E-04-8.13577E+00-3.35056E-05-5.80333E-05
 -1      7035 4.55884E+00 1.39532E+01 5.74351E-04-8.13580E+00-6.01744E-06-1.04225E-05
 -1      7036 4.55884E+00 1.39533E+01 5.79349E-04-8.13580E+00-2.36432E-07-4.09454E-07
 -1      7037 4.55883E+00 1.39533E+01 5.78227E-04-8.13581E+00 3.49440E-07 6.05310E-07
 -1      7038 4.55883E+00 1.39533E+01 5.78227E-04-8.13581E+00-3.49491E-07-6.05279E-07
 -1      7039 4.55884E+00 1.39533E+01 5.79349E-04-8.13580E+00 2.36383E-07 4.09480E-07
 -1      7040 4.55884E+00 1.39532E+01 5.74351E-04-8.13580E+00 6.01739E-06 1.04225E-05
 -1      7041 4.55886E+00 1.39532E+01 4.88192E-04-8.13577E+00 3.35056E-05 5.80334E-05
 -1      7042 4.55911E+00 1.39534E+01 4.63700E-04-8.13567E+00 3.74573E-05 6.48779E-05
 -1      7043 5.43525E+00 1.30772E+01 4.63700E-04-8.58209E+00-4.08014E-05-6.28286E-05
 -1      7044 5.43501E+00 1.30771E+01 4.88192E-04-8.58220E+00-3.64969E-05-5.62002E-05
 -1      7045 5.43499E+00 1.30771E+01 5.74351E-04-8.58222E+00-6.55467E-06-1.00932E-05
 -1      7046 5.43499E+00 1.30771E+01 5.79349E-04-8.58223E+00-2.57543E-07-3.96514E-07
 -1      7047 5.43499E+00 1.30771E+01 5.78227E-04-8.58223E+00 3.80639E-07 5.86193E-07
 -1      7048 5.43499E+00 1.30771E+01 5.78227E-04-8.58223E+00-3.80689E-07-5.86157E-07
 -1      7049 5.43499E+00 1.30771E+01 5.79349E-04-8.58223E+00 2.57495E-07 3.96547E-07
 -1      7050 5.43499E+00 1.30771E+01 5.74351E-04-8.58222E+00 6.55463E-06 1.00933E-05
 -1      7051 5.43501E+00 1.30771E+01 4.88192E-04-8.58220E+00 3.64969E-05 5.62003E-05
 -1      7052 5.43525E+00 1.30772E+01 4.63700E-04-8.58209E+00 4.08014E-05 6.28286E-05
 -1      7053 6.35325E+00 1.21592E+01 4.63700E-04-8.93448E+00-4.40337E-05-6.06071E-05
 -1      7054 6.35303E+00 1.21591E+01 4.88192E-04-8.93459E+00-3.93882E-05-5.42131E-05
 -1      7055 6.35301E+00 1.21591E+01 5.74351E-04-8.93462E+00-7.07392E-06-9.73636E-06
 -1      7056 6.35301E+00 1.21591E+01 5.79349E-04-8.93462E+00-2.77942E-07-3.82499E-07
 -1      7057 6.35301E+00 1.21591E+01 5.78227E-04-8.93462E+00 4.10793E-07 5.65465E-07
 -1      7058 6.35301E+00 1.21591E+01 5.78227E-04-8.93462E+00-4.10849E-07-5.65430E-07
 -1      7059 6.35301E+00 1.21591E+01 5.79349E-04-8.93462E+00 2.77891E-07 3.82536E-07
 -1      7060 6.35301E+00 1.21591E+01 5.74351E-04-8.93462E+00 7.07387E-06 9.73640E-06
 -1      7061 6.35303E+00 1.21591E+01 4.88192E-04-8.93459E+00 3.93881E-05 5.42132E-05
 -1      7062 6.35325E+00 1.21592E+01 4.63700E-04-8.93448E+00 4.40337E-05 6.06071E-05
 -1      7063 7.30306E+00 1.12094E+01 4.63700E-04-9.18898E+00-4.71453E-05-5.82195E-05
 -1      7064 7.30285E+00 1.12093E+01 4.88193E-04-9.18909E+00-4.21715E-05-5.20774E-05
 -1      7065 7.30283E+00 1.12092E+01 5.74352E-04-9.18912E+00-7.57378E-06-9.35281E-06
 -1      7066 7.30283E+00 1.12093E+01 5.79349E-04-9.18913E+00-2.97571E-07-3.67430E-07
 -1      7067 7.30283E+00 1.12093E+01 5.78227E-04-9.18913E+00 4.39826E-07 5.43192E-07
 -1      7068 7.30283E+00 1.12093E+01 5.78227E-04-9.18913E+00-4.39881E-07-5.43146E-07
 -1      7069 7.30283E+00 1.12093E+01 5.79349E-04-9.18913E+00 2.97519E-07 3.67472E-07
 -1      7070 7.30283E+00 1.12092E+01 5.74352E-04-9.18912E+00 7.57373E-06 9.35284E-06
 -1      7071 7.30285E+00 1.12093E+01 4.88193E-04-9.18909E+00 4.21715E-05 5.20775E-05
 -1      7072 7.30306E+00 1.12094E+01 4.63700E-04-9.18898E+00 4.71452E-05 5.82195E-05
 -1      7073 8.27427E+00 1.02382E+01 4.63700E-04-9.34280E+00-5.01276E-05-5.56723E-05
 -1      7074 8.27407E+00 1.02380E+01 4.88192E-04-9.34292E+00-4.48392E-05-4.97990E-05
 -1      7075 8.27406E+00 1.02380E+01 5.74351E-04-9.34295E+00-8.05290E-06-8.94359E-06
 -1      7076 8.27406E+00 1.02380E+01 5.79349E-04-9.34295E+00-3.16402E-07-3.51343E-07
 -1      7077 8.27406E+00 1.02380E+01 5.78227E-04-9.34296E+00 4.67650E-07 5.19432E-07
 -1      7078 8.27406E+00 1.02380E+01 5.78227E-04-9.34296E+00-4.67703E-07-5.19388E-07
 -1      7079 8.27406E+00 1.02380E+01 5.79349E-04-9.34295E+00 3.16352E-07 3.51388E-07
 -1      7080 8.27406E+00 1.02380E+01 5.74351E-04-9.34295E+00 8.05285E-06 8.94363E-06
 -1      7081 8.27407E+00 1.02380E+01 4.88192E-04-9.34292E+00 4.48392E-05 4.97990E-05
 -1      7082 8.27427E+00 1.02382E+01 4.63700E-04-9.34280E+00 5.01276E-05 5.56724E-05
 -1      7083 9.25624E+00 9.25624E+00 4.63700E-04-9.39427E+00-5.29726E-05-5.29726E-05
 -1      7084 9.25605E+00 9.25605E+00 4.88192E-04-9.39438E+00-4.73841E-05-4.73840E-05
 -1      7085 9.25604E+00 9.25604E+00 5.74351E-04-9.39441E+00-8.50995E-06-8.50987E-06
 -1      7086 9.25604E+00 9.25604E+00 5.79348E-04-9.39442E+00-3.34371E-07-3.34295E-07
 -1      7087 9.25604E+00 9.25604E+00 5.78226E-04-9.39442E+00 4.94182E-07 4.94249E-07
 -1      7088 9.25604E+00 9.25604E+00 5.78226E-04-9.39442E+00-4.94242E-07-4.94196E-07
 -1      7089 9.25604E+00 9.25604E+00 5.79348E-04-9.39442E+00 3.34317E-07 3.34345E-07
 -1      7090 9.25604E+00 9.25604E+00 5.74351E-04-9.39441E+00 8.50990E-06 8.50992E-06
 -1      7091 9.25605E+00 9.25605E+00 4.88192E-04-9.39438E+00 4.73840E-05 4.73840E-05
 -1      7092 9.25624E+00 9.25624E+00 4.63699E-04-9.39427E+00 5.29726E-05 5.29726E-05
 -1      7093 1.02382E+01 8.27427E+00 4.63699E-04-9.34280E+00-5.56724E-05-5.01276E-05
 -1      7094 1.02380E+01 8.27407E+00 4.88191E-04-9.34292E+00-4.97990E-05-4.48392E-05
 -1      7095 1.02380E+01 8.27406E+00 5.74350E-04-9.34295E+00-8.94365E-06-8.05284E-06
 -1      7096 1.02380E+01 8.27406E+00 5.79348E-04-9.34295E+00-3.51399E-07-3.16341E-07
 -1      7097 1.02380E+01 8.27406E+00 5.78226E-04-9.34296E+00 5.19382E-07 4.67710E-07
 -1      7098 1.02380E+01 8.27406E+00 5.78226E-04-9.34296E+00-5.19435E-07-4.67647E-07
 -1      7099 1.02380E+01 8.27406E+00 5.79348E-04-9.34295E+00 3.51345E-07 3.16400E-07
 -1      7100 1.02380E+01 8.27406E+00 5.74350E-04-9.34295E+00 8.94360E-06 8.05289E-06
 -1      7101 1.02380E+01 8.27407E+00 4.88191E-04-9.34292E+00 4.97990E-05 4.48392E-05
 -1      7102 1.02382E+01 8.27427E+00 4.63699E-04-9.34280E+00 5.56723E-05 5.01276E-05
 -1      7103 1.12094E+01 7.30306E+00 4.63699E-04-9.18898E+00-5.82195E-05-4.71452E-05
 -1      7104 1.12093E+01 7.30285E+00 4.88191E-04-9.18909E+00-5.20775E-05-4.21715E-05
 -1      7105 1.12092E+01 7.30283E+00 5.74350E-04-9.18912E+00-9.35284E-06-7.57374E-06
 -1      7106 1.12093E+01 7.30283E+00 5.79348E-04-9.18913E+00-3.67466E-07-2.97527E-07
 -1      7107 1.12093E+01 7.30283E+00 5.78226E-04-9.18913E+00 5.43148E-07 4.39883E-07
 -1      7108 1.12093E+01 7.30283E+00 5.78226E-04-9.18913E+00-5.43199E-07-4.39819E-07
 -1      7109 1.12093E+01 7.30283E+00 5.79348E-04-9.18913E+00 3.67419E-07 2.97584E-07
 -1      7110 1.12092E+01 7.30283E+00 5.74350E-04-9.18912E+00 9.35279E-06 7.57380E-06
 -1      7111 1.12093E+01 7.30285E+00 4.88191E-04-9.18909E+00 5.20774E-05 4.21715E-05
 -1      7112 1.12094E+01 7.30306E+00 4.63699E-04-9.18898E+00 5.82195E-05 4.71453E-05
 -1      7113 1.21592E+01 6.35325E+00 4.63699E-04-8.93448E+00-6.06071E-05-4.40336E-05
 -1      7114 1.21591E+01 6.35303E+00 4.88191E-04-8.93459E+00-5.42132E-05-3.93881E-05
 -1      7115 1.21591E+01 6.35301E+00 5.74350E-04-8.93462E+00-9.73640E-06-7.07388E-06
 -1      7116 1.21591E+01 6.35301E+00 5.79348E-04-8.93462E+00-3.82534E-07-2.77889E-07
 -1      7117 1.21591E+01 6.35301E+00 5.78226E-04-8.93462E+00 5.65425E-07 4.10848E-07
 -1      7118 1.21591E+01 6.35301E+00 5.78226E-04-8.93462E+00-5.65472E-07-4.10790E-07
 -1      7119 1.21591E+01 6.35301E+00 5.79348E-04-8.93462E+00 3.82490E-07 2.77948E-07
 -1      7120 1.21591E+01 6.35301E+00 5.74350E-04-8.93462E+00 9.73636E-06 7.07393E-06
 -1      7121 1.21591E+01 6.35303E+00 4.88191E-04-8.93459E+00 5.42131E-05 3.93882E-05
 -1      7122 1.21592E+01 6.35325E+00 4.63699E-04-8.93448E+00 6.06071E-05 4.40337E-05
 -1      7123 1.30772E+01 5.43525E+00 4.63699E-04-8.58209E+00-6.28286E-05-4.08014E-05
 -1      7124 1.30771E+01 5.43501E+00 4.88191E-04-8.58220E+00-5.62003E-05-3.64969E-05
 -1      7125 1.30771E+01 5.43499E+00 5.74350E-04-8.58222E+00-1.00933E-05-6.55461E-06
 -1      7126 1.30771E+01 5.43499E+00 5.79348E-04-8.58223E+00-3.96550E-07-2.57483E-07
 -1      7127 1.30771E+01 5.43499E+00 5.78226E-04-8.58223E+00 5.86157E-07 3.80697E-07
 -1      7128 1.30771E+01 5.43499E+00 5.78226E-04-8.58223E+00-5.86194E-07-3.80636E-07
 -1      7129 1.30771E+01 5.43499E+00 5.79348E-04-8.58223E+00 3.96515E-07 2.57540E-07
 -1      7130 1.30771E+01 5.43499E+00 5.74350E-04-8.58222E+00 1.00932E-05 6.55466E-06
 -1      7131 1.30771E+01 5.43501E+00 4.88191E-04-8.58220E+00 5.62002E-05 3.64969E-05
 -1      7132 1.30772E+01 5.43525E+00 4.63699E-04-8.58209E+00 6.28286E-05 4.08014E-05
 -1      7133 1.39534E+01 4.55911E+00 4.63699E-04-8.13567E+00-6.48779E-05-3.74572E-05
 -1      7134 1.39532E+01 4.55886E+00 4.88191E-04-8.13577E+00-5.80334E-05-3.35055E-05
 -1      7135 1.39532E+01 4.55884E+00 5.74350E-04-8.13580E+00-1.04225E-05-6.01738E-06
 -1      7136 1.39533E+01 4.55884E+00 5.79348E-04-8.13580E+00-4.09486E-07-2.36377E-07
 -1      7137 1.39533E+01 4.55883E+00 5.78226E-04-8.13581E+00 6.05276E-07 3.49495E-07
 -1      7138 1.39533E+01 4.55883E+00 5.78226E-04-8.13581E+00-6.05308E-07-3.49441E-07
 -1      7139 1.39533E+01 4.55884E+00 5.79348E-04-8.13580E+00 4.09457E-07 2.36428E-07
 -1      7140 1.39532E+01 4.55884E+00 5.74350E-04-8.13580E+00 1.04225E-05 6.01743E-06
 -1      7141 1.39532E+01 4.55886E+00 4.88191E-04-8.13577E+00 5.80333E-05 3.35056E-05
 -1      7142 1.39534E+01 4.55911E+00 4.63699E-04-8.13567E+00 6.48779E-05 3.74573E-05
 -1      7143 1.47780E+01 3.73443E+00 4.63699E-04-7.60012E+00-6.67493E-05-3.40105E-05
 -1      7144 1.47779E+01 3.73417E+00 4.88191E-04-7.60021E+00-5.97074E-05-3.04224E-05
 -1      7145 1.47779E+01 3.73414E+00 5.74350E-04-7.60024E+00-1.07231E-05-5.46367E-06
 -1      7146 1.47779E+01 3.73414E+00 5.79348E-04-7.60024E+00-4.21295E-07-2.14627E-07
 -1      7147 1.47779E+01 3.73414E+00 5.78226E-04-7.60024E+00 6.22742E-07 3.17334E-07
 -1      7148 1.47779E+01 3.73414E+00 5.78226E-04-7.60024E+00-6.22761E-07-3.17287E-07
 -1      7149 1.47779E+01 3.73414E+00 5.79348E-04-7.60024E+00 4.21276E-07 2.14669E-07
 -1      7150 1.47779E+01 3.73414E+00 5.74350E-04-7.60024E+00 1.07231E-05 5.46371E-06
 -1      7151 1.47779E+01 3.73417E+00 4.88191E-04-7.60021E+00 5.97074E-05 3.04224E-05
 -1      7152 1.47780E+01 3.73443E+00 4.63699E-04-7.60012E+00 6.67493E-05 3.40105E-05
 -1      7153 1.55422E+01 2.97025E+00 4.63699E-04-6.98130E+00-6.84378E-05-3.04705E-05
 -1      7154 1.55421E+01 2.96998E+00 4.88191E-04-6.98139E+00-6.12177E-05-2.72559E-05
 -1      7155 1.55421E+01 2.96995E+00 5.74350E-04-6.98141E+00-1.09944E-05-4.89498E-06
 -1      7156 1.55421E+01 2.96995E+00 5.79347E-04-6.98141E+00-4.31950E-07-1.92289E-07
 -1      7157 1.55421E+01 2.96995E+00 5.78225E-04-6.98141E+00 6.38495E-07 2.84302E-07
 -1      7158 1.55421E+01 2.96995E+00 5.78225E-04-6.98141E+00-6.38513E-07-2.84264E-07
 -1      7159 1.55421E+01 2.96995E+00 5.79347E-04-6.98141E+00 4.31935E-07 1.92325E-07
 -1      7160 1.55421E+01 2.96995E+00 5.74350E-04-6.98141E+00 1.09944E-05 4.89502E-06
 -1      7161 1.55421E+01 2.96998E+00 4.88191E-04-6.98139E+00 6.12177E-05 2.72559E-05
 -1      7162 1.55422E+01 2.97025E+00 4.63699E-04-6.98130E+00 6.84378E-05 3.04705E-05
 -1      7163 1.62375E+01 2.27494E+00 4.63698E-04-6.28599E+00-6.99387E-05-2.68470E-05
 -1      7164 1.62374E+01 2.27466E+00 4.88191E-04-6.28607E+00-6.25603E-05-2.40146E-05
 -1      7165 1.62374E+01 2.27463E+00 5.74350E-04-6.28609E+00-1.12355E-05-4.31289E-06
 -1      7166 1.62375E+01 2.27463E+00 5.79347E-04-6.28609E+00-4.41419E-07-1.69430E-07
 -1      7167 1.62375E+01 2.27463E+00 5.78225E-04-6.28609E+00 6.52502E-07 2.50491E-07
 -1      7168 1.62375E+01 2.27463E+00 5.78225E-04-6.28609E+00-6.52518E-07-2.50453E-07
 -1      7169 1.62375E+01 2.27463E+00 5.79347E-04-6.28609E+00 4.41401E-07 1.69467E-07
 -1      7170 1.62374E+01 2.27463E+00 5.74350E-04-6.28609E+00 1.12355E-05 4.31292E-06
 -1      7171 1.62374E+01 2.27466E+00 4.88191E-04-6.28607E+00 6.25603E-05 2.40147E-05
 -1      7172 1.62375E+01 2.27494E+00 4.63698E-04-6.28599E+00 6.99387E-05 2.68470E-05
 -1      7173 1.68564E+01 1.65612E+00 4.63699E-04-5.52181E+00-7.12480E-05-2.31498E-05
 -1      7174 1.68563E+01 1.65583E+00 4.88191E-04-5.52188E+00-6.37314E-05-2.07076E-05
 -1      7175 1.68563E+01 1.65580E+00 5.74350E-04-5.52190E+00-1.14458E-05-3.71895E-06
 -1      7176 1.68563E+01 1.65580E+00 5.79348E-04-5.52190E+00-4.49678E-07-1.46086E-07
 -1      7177 1.68563E+01 1.65580E+00 5.78226E-04-5.52190E+00 6.64714E-07 2.16006E-07
 -1      7178 1.68563E+01 1.65580E+00 5.78226E-04-5.52190E+00-6.64732E-07-2.15957E-07
 -1      7179 1.68563E+01 1.65580E+00 5.79348E-04-5.52190E+00 4.49664E-07 1.46133E-07
 -1      7180 1.68563E+01 1.65580E+00 5.74350E-04-5.52190E+00 1.14458E-05 3.71899E-06
 -1      7181 1.68563E+01 1.65583E+00 4.88191E-04-5.52188E+00 6.37314E-05 2.07076E-05
 -1      7182 1.68564E+01 1.65612E+00 4.63699E-04-5.52181E+00 7.12479E-05 2.31499E-05
 -1      7183 1.73919E+01 1.12057E+00 4.63699E-04-4.69713E+00-7.23619E-05-1.93893E-05
 -1      7184 1.73918E+01 1.12028E+00 4.88191E-04-4.69719E+00-6.47278E-05-1.73437E-05
 -1      7185 1.73918E+01 1.12024E+00 5.74350E-04-4.69721E+00-1.16248E-05-3.11481E-06
 -1      7186 1.73918E+01 1.12024E+00 5.79348E-04-4.69721E+00-4.56716E-07-1.22342E-07
 -1      7187 1.73918E+01 1.12024E+00 5.78225E-04-4.69721E+00 6.75107E-07 1.80927E-07
 -1      7188 1.73918E+01 1.12024E+00 5.78225E-04-4.69721E+00-6.75124E-07-1.80871E-07
 -1      7189 1.73918E+01 1.12024E+00 5.79348E-04-4.69721E+00 4.56699E-07 1.22396E-07
 -1      7190 1.73918E+01 1.12024E+00 5.74350E-04-4.69721E+00 1.16247E-05 3.11486E-06
 -1      7191 1.73918E+01 1.12028E+00 4.88191E-04-4.69719E+00 6.47278E-05 1.73438E-05
 -1      7192 1.73919E+01 1.12057E+00 4.63699E-04-4.69713E+00 7.23619E-05 1.93893E-05
 -1      7193 1.78383E+01 6.74151E-01 4.63699E-04-3.82099E+00-7.32775E-05-1.55756E-05
 -1      7194 1.78382E+01 6.73854E-01 4.88191E-04-3.82104E+00-6.55468E-05-1.39324E-05
 -1      7195 1.78383E+01 6.73820E-01 5.74350E-04-3.82105E+00-1.17718E-05-2.50215E-06
 -1      7196 1.78383E+01 6.73818E-01 5.79347E-04-3.82105E+00-4.62488E-07-9.82718E-08
 -1      7197 1.78383E+01 6.73813E-01 5.78225E-04-3.82105E+00 6.83654E-07 1.45346E-07
 -1      7198 1.78383E+01 6.73813E-01 5.78225E-04-3.82105E+00-6.83666E-07-1.45291E-07
 -1      7199 1.78383E+01 6.73818E-01 5.79347E-04-3.82105E+00 4.62475E-07 9.83253E-08
 -1      7200 1.78383E+01 6.73820E-01 5.74350E-04-3.82105E+00 1.17718E-05 2.50220E-06
 -1      7201 1.78382E+01 6.73854E-01 4.88191E-04-3.82104E+00 6.55468E-05 1.39324E-05
 -1      7202 1.78383E+01 6.74151E-01 4.63699E-04-3.82099E+00 7.32775E-05 1.55756E-05
 -1      7203 1.81907E+01 3.21762E-01 4.63699E-04-2.90299E+00-7.39922E-05-1.17192E-05
 -1      7204 1.81906E+01 3.21461E-01 4.88191E-04-2.90302E+00-6.61861E-05-1.04828E-05
 -1      7205 1.81907E+01 3.21425E-01 5.74350E-04-2.90303E+00-1.18867E-05-1.88264E-06
 -1      7206 1.81907E+01 3.21423E-01 5.79347E-04-2.90303E+00-4.66996E-07-7.39420E-08
 -1      7207 1.81907E+01 3.21419E-01 5.78225E-04-2.90304E+00 6.90324E-07 1.09359E-07
 -1      7208 1.81907E+01 3.21419E-01 5.78225E-04-2.90304E+00-6.90328E-07-1.09316E-07
 -1      7209 1.81907E+01 3.21423E-01 5.79347E-04-2.90303E+00 4.66989E-07 7.39844E-08
 -1      7210 1.81907E+01 3.21425E-01 5.74350E-04-2.90303E+00 1.18867E-05 1.88268E-06
 -1      7211 1.81906E+01 3.21461E-01 4.88191E-04-2.90302E+00 6.61861E-05 1.04829E-05
 -1      7212 1.81907E+01 3.21762E-01 4.63699E-04-2.90299E+00 7.39922E-05 1.17192E-05
 -1      7213 1.84452E+01 6.72616E-02 4.63699E-04-1.95318E+00-7.45041E-05-7.83069E-06
 -1      7214 1.84451E+01 6.69572E-02 4.88191E-04-1.95320E+00-6.66440E-05-7.00456E-06
 -1      7215 1.84452E+01 6.69204E-02 5.74350E-04-1.95321E+00-1.19689E-05-1.25797E-06
 -1      7216 1.84452E+01 6.69182E-02 5.79348E-04-1.95321E+00-4.70224E-07-4.94096E-08
 -1      7217 1.84452E+01 6.69139E-02 5.78226E-04-1.95321E+00 6.95103E-07 7.30718E-08
 -1      7218 1.84452E+01 6.69139E-02 5.78226E-04-1.95321E+00-6.95102E-07-7.30446E-08
 -1      7219 1.84452E+01 6.69182E-02 5.79348E-04-1.95321E+00 4.70227E-07 4.94357E-08
 -1      7220 1.84452E+01 6.69204E-02 5.74350E-04-1.95321E+00 1.19689E-05 1.25799E-06
 -1      7221 1.84451E+01 6.69572E-02 4.88191E-04-1.95320E+00 6.66440E-05 7.00458E-06
 -1      7222 1.84452E+01 6.72616E-02 4.63699E-04-1.95318E+00 7.45041E-05 7.83070E-06
 -1      7223 1.85990E+01-8.65629E-02 4.63699E-04-9.81968E-01-7.48119E-05-3.92072E-06
 -1      7224 1.85990E+01-8.68692E-02 4.88191E-04-9.81980E-01-6.69193E-05-3.50709E-06
 -1      7225 1.85990E+01-8.69064E-02 5.74350E-04-9.81983E-01-1.20183E-05-6.29850E-07
 -1      7226 1.85990E+01-8.69088E-02 5.79348E-04-9.81984E-01-4.72165E-07-2.47399E-08
 -1      7227 1.85990E+01-8.69131E-02 5.78226E-04-9.81984E-01 6.97980E-07 3.65852E-08
 -1      7228 1.85990E+01-8.69131E-02 5.78226E-04-9.81984E-01-6.97971E-07-3.65727E-08
 -1      7229 1.85990E+01-8.69088E-02 5.79348E-04-9.81984E-01 4.72166E-07 2.47520E-08
 -1      7230 1.85990E+01-8.69064E-02 5.74350E-04-9.81983E-01 1.20183E-05 6.29861E-07
 -1      7231 1.85990E+01-8.68692E-02 4.88191E-04-9.81980E-01 6.69193E-05 3.50710E-06
 -1      7232 1.85990E+01-8.65629E-02 4.63699E-04-9.81968E-01 7.48119E-05 3.92073E-06
 -1      7233-3.96390E-02 1.85522E+01 7.09414E-04-9.77042E-01-7.06966E-06-1.34897E-04
 -1      7234-4.00393E-02 1.85521E+01 6.59973E-04-9.77057E-01-2.82826E-06-5.39664E-05
 -1      7235-4.00040E-02 1.85521E+01 6.93630E-04-9.77057E-01-6.16209E-07-1.17580E-05
 -1      7236-4.00189E-02 1.85521E+01 6.69546E-04-9.77057E-01-2.11399E-08-4.03389E-07
 -1      7237-4.00207E-02 1.85521E+01 6.69877E-04-9.77057E-01 3.09336E-08 5.90218E-07
 -1      7238-4.00207E-02 1.85521E+01 6.69877E-04-9.77057E-01-3.09293E-08-5.90214E-07
 -1      7239-4.00189E-02 1.85521E+01 6.69546E-04-9.77057E-01 2.11445E-08 4.03388E-07
 -1      7240-4.00040E-02 1.85521E+01 6.93630E-04-9.77057E-01 6.16213E-07 1.17580E-05
 -1      7241-4.00393E-02 1.85521E+01 6.59973E-04-9.77057E-01 2.82826E-06 5.39664E-05
 -1      7242-3.96390E-02 1.85522E+01 7.09414E-04-9.77042E-01 7.06966E-06 1.34897E-04
 -1      7243 1.13414E-01 1.83992E+01 7.09414E-04-1.94338E+00-1.41199E-05-1.34342E-04
 -1      7244 1.13016E-01 1.83991E+01 6.59973E-04-1.94341E+00-5.64876E-06-5.37444E-05
 -1      7245 1.13051E-01 1.83991E+01 6.93630E-04-1.94341E+00-1.23072E-06-1.17096E-05
 -1      7246 1.13036E-01 1.83991E+01 6.69546E-04-1.94341E+00-4.22210E-08-4.01735E-07
 -1      7247 1.13034E-01 1.83991E+01 6.69878E-04-1.94341E+00 6.17800E-08 5.87787E-07
 -1      7248 1.13034E-01 1.83991E+01 6.69878E-04-1.94341E+00-6.17802E-08-5.87790E-07
 -1      7249 1.13036E-01 1.83991E+01 6.69546E-04-1.94341E+00 4.22218E-08 4.01733E-07
 -1      7250 1.13051E-01 1.83991E+01 6.93630E-04-1.94341E+00 1.23073E-06 1.17096E-05
 -1      7251 1.13016E-01 1.83991E+01 6.59973E-04-1.94341E+00 5.64876E-06 5.37444E-05
 -1      7252 1.13414E-01 1.83992E+01 7.09414E-04-1.94338E+00 1.41199E-05 1.34342E-04
 -1      7253 3.66638E-01 1.81460E+01 7.09414E-04-2.88843E+00-2.11315E-05-1.33419E-04
 -1      7254 3.66244E-01 1.81458E+01 6.59973E-04-2.88847E+00-8.45379E-06-5.33751E-05
 -1      7255 3.66279E-01 1.81459E+01 6.93631E-04-2.88847E+00-1.84188E-06-1.16291E-05
 -1      7256 3.66264E-01 1.81458E+01 6.69546E-04-2.88847E+00-6.31929E-08-3.98969E-07
 -1      7257 3.66263E-01 1.81459E+01 6.69878E-04-2.88847E+00 9.24540E-08 5.83753E-07
 -1      7258 3.66263E-01 1.81459E+01 6.69878E-04-2.88847E+00-9.24610E-08-5.83751E-07
 -1      7259 3.66264E-01 1.81458E+01 6.69546E-04-2.88847E+00 6.31863E-08 3.98973E-07
 -1      7260 3.66279E-01 1.81459E+01 6.93631E-04-2.88847E+00 1.84187E-06 1.16291E-05
 -1      7261 3.66244E-01 1.81458E+01 6.59973E-04-2.88847E+00 8.45379E-06 5.33751E-05
 -1      7262 3.66638E-01 1.81460E+01 7.09414E-04-2.88843E+00 2.11315E-05 1.33419E-04
 -1      7263 7.17259E-01 1.77953E+01 7.09414E-04-3.80183E+00-2.80852E-05-1.32130E-04
 -1      7264 7.16870E-01 1.77952E+01 6.59973E-04-3.80188E+00-1.12356E-05-5.28595E-05
 -1      7265 7.16905E-01 1.77952E+01 6.93630E-04-3.80188E+00-2.44798E-06-1.15168E-05
 -1      7266 7.16891E-01 1.77952E+01 6.69546E-04-3.80188E+00-8.39891E-08-3.95114E-07
 -1      7267 7.16889E-01 1.77952E+01 6.69878E-04-3.80188E+00 1.22877E-07 5.78114E-07
 -1      7268 7.16889E-01 1.77952E+01 6.69878E-04-3.80188E+00-1.22886E-07-5.78110E-07
 -1      7269 7.16891E-01 1.77952E+01 6.69546E-04-3.80188E+00 8.39806E-08 3.95115E-07
 -1      7270 7.16905E-01 1.77952E+01 6.93630E-04-3.80188E+00 2.44797E-06 1.15168E-05
 -1      7271 7.16870E-01 1.77952E+01 6.59973E-04-3.80188E+00 1.12356E-05 5.28595E-05
 -1      7272 7.17259E-01 1.77953E+01 7.09414E-04-3.80183E+00 2.80852E-05 1.32130E-04
 -1      7273 1.16144E+00 1.73512E+01 7.09414E-04-4.67357E+00-3.49618E-05-1.30479E-04
 -1      7274 1.16105E+00 1.73510E+01 6.59973E-04-4.67364E+00-1.39867E-05-5.21991E-05
 -1      7275 1.16109E+00 1.73510E+01 6.93630E-04-4.67364E+00-3.04737E-06-1.13729E-05
 -1      7276 1.16107E+00 1.73510E+01 6.69546E-04-4.67364E+00-1.04553E-07-3.90183E-07
 -1      7277 1.16107E+00 1.73510E+01 6.69878E-04-4.67364E+00 1.52965E-07 5.70891E-07
 -1      7278 1.16107E+00 1.73510E+01 6.69878E-04-4.67364E+00-1.52975E-07-5.70887E-07
 -1      7279 1.16107E+00 1.73510E+01 6.69546E-04-4.67364E+00 1.04542E-07 3.90181E-07
 -1      7280 1.16109E+00 1.73510E+01 6.93630E-04-4.67364E+00 3.04735E-06 1.13729E-05
 -1      7281 1.16105E+00 1.73510E+01 6.59973E-04-4.67364E+00 1.39867E-05 5.21991E-05
 -1      7282 1.16144E+00 1.73512E+01 7.09414E-04-4.67357E+00 3.49618E-05 1.30479E-04
 -1      7283 1.69430E+00 1.68183E+01 7.09414E-04-5.49411E+00-4.17427E-05-1.28471E-04
 -1      7284 1.69393E+00 1.68181E+01 6.59973E-04-5.49419E+00-1.66994E-05-5.13955E-05
 -1      7285 1.69396E+00 1.68182E+01 6.93630E-04-5.49419E+00-3.63840E-06-1.11978E-05
 -1      7286 1.69395E+00 1.68182E+01 6.69546E-04-5.49419E+00-1.24835E-07-3.84167E-07
 -1      7287 1.69395E+00 1.68182E+01 6.69878E-04-5.49420E+00 1.82626E-07 5.62105E-07
 -1      7288 1.69395E+00 1.68182E+01 6.69878E-04-5.49420E+00-1.82650E-07-5.62098E-07
 -1      7289 1.69395E+00 1.68182E+01 6.69546E-04-5.49419E+00 1.24812E-07 3.84177E-07
 -1      7290 1.69396E+00 1.68182E+01 6.93630E-04-5.49419E+00 3.63838E-06 1.11978E-05
 -1      7291 1.69393E+00 1.68181E+01 6.59973E-04-5.49419E+00 1.66994E-05 5.13955E-05
 -1      7292 1.69430E+00 1.68183E+01 7.09414E-04-5.49411E+00 4.17427E-05 1.28471E-04
 -1      7293 2.31002E+00 1.62026E+01 7.09414E-04-6.25446E+00-4.84091E-05-1.26110E-04
 -1      7294 2.30965E+00 1.62024E+01 6.59973E-04-6.25455E+00-1.93664E-05-5.04511E-05
 -1      7295 2.30969E+00 1.62024E+01 6.93631E-04-6.25455E+00-4.21947E-06-1.09921E-05
 -1      7296 2.30967E+00 1.62024E+01 6.69546E-04-6.25455E+00-1.44775E-07-3.77113E-07
 -1      7297 2.30967E+00 1.62024E+01 6.69878E-04-6.25455E+00 2.11789E-07 5.51776E-07
 -1      7298 2.30967E+00 1.62024E+01 6.69878E-04-6.25455E+00-2.11822E-07-5.51765E-07
 -1      7299 2.30967E+00 1.62024E+01 6.69546E-04-6.25455E+00 1.44744E-07 3.77121E-07
 -1      7300 2.30969E+00 1.62024E+01 6.93631E-04-6.25455E+00 4.21944E-06 1.09921E-05
 -1      7301 2.30965E+00 1.62024E+01 6.59973E-04-6.25455E+00 1.93664E-05 5.04511E-05
 -1      7302 2.31002E+00 1.62026E+01 7.09414E-04-6.25446E+00 4.84091E-05 1.26110E-04
 -1      7303 3.00184E+00 1.55108E+01 7.09414E-04-6.94628E+00-5.49429E-05-1.23404E-04
 -1      7304 3.00148E+00 1.55106E+01 6.59973E-04-6.94638E+00-2.19803E-05-4.93684E-05
 -1      7305 3.00152E+00 1.55106E+01 6.93631E-04-6.94638E+00-4.78898E-06-1.07562E-05
 -1      7306 3.00150E+00 1.55106E+01 6.69546E-04-6.94638E+00-1.64322E-07-3.69011E-07
 -1      7307 3.00150E+00 1.55106E+01 6.69878E-04-6.94639E+00 2.40371E-07 5.39939E-07
 -1      7308 3.00150E+00 1.55106E+01 6.69878E-04-6.94639E+00-2.40412E-07-5.39924E-07
 -1      7309 3.00150E+00 1.55106E+01 6.69546E-04-6.94638E+00 1.64281E-07 3.69027E-07
 -1      7310 3.00152E+00 1.55106E+01 6.93631E-04-6.94638E+00 4.78894E-06 1.07562E-05
 -1      7311 3.00148E+00 1.55106E+01 6.59973E-04-6.94638E+00 2.19802E-05 4.93684E-05
 -1      7312 3.00184E+00 1.55108E+01 7.09414E-04-6.94628E+00 5.49429E-05 1.23404E-04
 -1      7313 3.76219E+00 1.47504E+01 7.09414E-04-7.56200E+00-6.13260E-05-1.20359E-04
 -1      7314 3.76184E+00 1.47502E+01 6.59973E-04-7.56211E+00-2.45339E-05-4.81504E-05
 -1      7315 3.76188E+00 1.47503E+01 6.93630E-04-7.56211E+00-5.34535E-06-1.04908E-05
 -1      7316 3.76186E+00 1.47503E+01 6.69546E-04-7.56211E+00-1.83413E-07-3.59904E-07
 -1      7317 3.76186E+00 1.47503E+01 6.69877E-04-7.56211E+00 2.68295E-07 5.26621E-07
 -1      7318 3.76186E+00 1.47503E+01 6.69877E-04-7.56211E+00-2.68346E-07-5.26597E-07
 -1      7319 3.76186E+00 1.47503E+01 6.69546E-04-7.56211E+00 1.83365E-07 3.59930E-07
 -1      7320 3.76188E+00 1.47503E+01 6.93630E-04-7.56211E+00 5.34531E-06 1.04908E-05
 -1      7321 3.76184E+00 1.47502E+01 6.59973E-04-7.56211E+00 2.45338E-05 4.81504E-05
 -1      7322 3.76219E+00 1.47504E+01 7.09414E-04-7.56200E+00 6.13260E-05 1.20359E-04
 -1      7323 4.58273E+00 1.39299E+01 7.09414E-04-8.09486E+00-6.75411E-05-1.16985E-04
 -1      7324 4.58240E+00 1.39297E+01 6.59973E-04-8.09498E+00-2.70202E-05-4.68004E-05
 -1      7325 4.58243E+00 1.39297E+01 6.93630E-04-8.09498E+00-5.88708E-06-1.01967E-05
 -1      7326 4.58242E+00 1.39297E+01 6.69546E-04-8.09498E+00-2.02000E-07-3.49808E-07
 -1      7327 4.58242E+00 1.39297E+01 6.69878E-04-8.09499E+00 2.95483E-07 5.11862E-07
 -1      7328 4.58242E+00 1.39297E+01 6.69878E-04-8.09499E+00-2.95542E-07-5.11828E-07
 -1      7329 4.58242E+00 1.39297E+01 6.69546E-04-8.09498E+00 2.01944E-07 3.49840E-07
 -1      7330 4.58243E+00 1.39297E+01 6.93630E-04-8.09498E+00 5.88702E-06 1.01967E-05
 -1      7331 4.58240E+00 1.39297E+01 6.59973E-04-8.09498E+00 2.70202E-05 4.68004E-05
 -1      7332 4.58273E+00 1.39299E+01 7.09414E-04-8.09486E+00 6.75411E-05 1.16985E-04
 -1      7333 5.45447E+00 1.30581E+01 7.09414E-04-8.53904E+00-7.35710E-05-1.13289E-04
 -1      7334 5.45415E+00 1.30579E+01 6.59973E-04-8.53917E+00-2.94326E-05-4.53221E-05
 -1      7335 5.45419E+00 1.30579E+01 6.93630E-04-8.53916E+00-6.41267E-06-9.87457E-06
 -1      7336 5.45417E+00 1.30579E+01 6.69546E-04-8.53917E+00-2.20038E-07-3.38751E-07
 -1      7337 5.45417E+00 1.30579E+01 6.69877E-04-8.53917E+00 3.21865E-07 4.95700E-07
 -1      7338 5.45417E+00 1.30579E+01 6.69877E-04-8.53917E+00-3.21923E-07-4.95660E-07
 -1      7339 5.45417E+00 1.30579E+01 6.69546E-04-8.53917E+00 2.19983E-07 3.38789E-07
 -1      7340 5.45419E+00 1.30579E+01 6.93630E-04-8.53916E+00 6.41262E-06 9.87460E-06
 -1      7341 5.45415E+00 1.30579E+01 6.59973E-04-8.53917E+00 2.94325E-05 4.53221E-05
 -1      7342 5.45447E+00 1.30581E+01 7.09414E-04-8.53904E+00 7.35710E-05 1.13289E-04
 -1      7343 6.36787E+00 1.21447E+01 7.09414E-04-8.88966E+00-7.93993E-05-1.09284E-04
 -1      7344 6.36757E+00 1.21445E+01 6.59973E-04-8.88979E+00-3.17642E-05-4.37196E-05
 -1      7345 6.36760E+00 1.21445E+01 6.93631E-04-8.88979E+00-6.92067E-06-9.52543E-06
 -1      7346 6.36759E+00 1.21445E+01 6.69546E-04-8.88979E+00-2.37464E-07-3.26777E-07
 -1      7347 6.36759E+00 1.21445E+01 6.69878E-04-8.88979E+00 3.47365E-07 4.78172E-07
 -1      7348 6.36759E+00 1.21445E+01 6.69878E-04-8.88979E+00-3.47427E-07-4.78130E-07
 -1      7349 6.36759E+00 1.21445E+01 6.69546E-04-8.88979E+00 2.37407E-07 3.26820E-07
 -1      7350 6.36760E+00 1.21445E+01 6.93631E-04-8.88979E+00 6.92062E-06 9.52547E-06
 -1      7351 6.36757E+00 1.21445E+01 6.59973E-04-8.88979E+00 3.17642E-05 4.37197E-05
 -1      7352 6.36787E+00 1.21447E+01 7.09414E-04-8.88966E+00 7.93993E-05 1.09284E-04
 -1      7353 7.31292E+00 1.11997E+01 7.09414E-04-9.14288E+00-8.50100E-05-1.04979E-04
 -1      7354 7.31263E+00 1.11994E+01 6.59973E-04-9.14302E+00-3.40088E-05-4.19973E-05
 -1      7355 7.31266E+00 1.11995E+01 6.93631E-04-9.14302E+00-7.40970E-06-9.15018E-06
 -1      7356 7.31265E+00 1.11995E+01 6.69546E-04-9.14302E+00-2.54234E-07-3.13905E-07
 -1      7357 7.31265E+00 1.11995E+01 6.69878E-04-9.14302E+00 3.71917E-07 4.59338E-07
 -1      7358 7.31265E+00 1.11995E+01 6.69878E-04-9.14302E+00-3.71979E-07-4.59285E-07
 -1      7359 7.31265E+00 1.11995E+01 6.69546E-04-9.14302E+00 2.54173E-07 3.13951E-07
 -1      7360 7.31266E+00 1.11995E+01 6.93631E-04-9.14302E+00 7.40965E-06 9.15022E-06
 -1      7361 7.31263E+00 1.11994E+01 6.59973E-04-9.14302E+00 3.40087E-05 4.19973E-05
 -1      7362 7.31292E+00 1.11997E+01 7.09414E-04-9.14288E+00 8.50100E-05 1.04979E-04
 -1      7363 8.27926E+00 1.02333E+01 7.09414E-04-9.29594E+00-9.03876E-05-1.00386E-04
 -1      7364 8.27898E+00 1.02331E+01 6.59973E-04-9.29607E+00-3.61601E-05-4.01599E-05
 -1      7365 8.27901E+00 1.02331E+01 6.93631E-04-9.29607E+00-7.87844E-06-8.74983E-06
 -1      7366 8.27900E+00 1.02331E+01 6.69546E-04-9.29608E+00-2.70322E-07-3.00159E-07
 -1      7367 8.27900E+00 1.02331E+01 6.69878E-04-9.29608E+00 3.95444E-07 4.39247E-07
 -1      7368 8.27900E+00 1.02331E+01 6.69878E-04-9.29608E+00-3.95504E-07-4.39197E-07
 -1      7369 8.27900E+00 1.02331E+01 6.69546E-04-9.29608E+00 2.70265E-07 3.00210E-07
 -1      7370 8.27901E+00 1.02331E+01 6.93631E-04-9.29607E+00 7.87839E-06 8.74988E-06
 -1      7371 8.27898E+00 1.02331E+01 6.59973E-04-9.29607E+00 3.61601E-05 4.01599E-05
 -1      7372 8.27926E+00 1.02333E+01 7.09414E-04-9.29594E+00 9.03876E-05 1.00386E-04
 -1      7373 9.25630E+00 9.25630E+00 7.09413E-04-9.34714E+00-9.55175E-05-9.55175E-05
 -1      7374 9.25604E+00 9.25604E+00 6.59972E-04-9.34728E+00-3.82124E-05-3.82123E-05
 -1      7375 9.25607E+00 9.25607E+00 6.93630E-04-9.34728E+00-8.32559E-06-8.32551E-06
 -1      7376 9.25606E+00 9.25606E+00 6.69545E-04-9.34728E+00-2.85677E-07-2.85592E-07
 -1      7377 9.25606E+00 9.25606E+00 6.69877E-04-9.34728E+00 4.17880E-07 4.17954E-07
 -1      7378 9.25606E+00 9.25606E+00 6.69877E-04-9.34728E+00-4.17946E-07-4.17892E-07
 -1      7379 9.25606E+00 9.25606E+00 6.69545E-04-9.34728E+00 2.85615E-07 2.85650E-07
 -1      7380 9.25607E+00 9.25607E+00 6.93630E-04-9.34728E+00 8.32554E-06 8.32556E-06
 -1      7381 9.25604E+00 9.25604E+00 6.59972E-04-9.34728E+00 3.82124E-05 3.82124E-05
 -1      7382 9.25630E+00 9.25630E+00 7.09413E-04-9.34714E+00 9.55175E-05 9.55175E-05
 -1      7383 1.02333E+01 8.27926E+00 7.09413E-04-9.29594E+00-1.00386E-04-9.03876E-05
 -1      7384 1.02331E+01 8.27898E+00 6.59971E-04-9.29607E+00-4.01599E-05-3.61601E-05
 -1      7385 1.02331E+01 8.27901E+00 6.93629E-04-9.29607E+00-8.74989E-06-7.87838E-06
 -1      7386 1.02331E+01 8.27900E+00 6.69544E-04-9.29608E+00-3.00222E-07-2.70253E-07
 -1      7387 1.02331E+01 8.27900E+00 6.69876E-04-9.29608E+00 4.39189E-07 3.95511E-07
 -1      7388 1.02331E+01 8.27900E+00 6.69876E-04-9.29608E+00-4.39248E-07-3.95441E-07
 -1      7389 1.02331E+01 8.27900E+00 6.69544E-04-9.29608E+00 3.00160E-07 2.70320E-07
 -1      7390 1.02331E+01 8.27901E+00 6.93629E-04-9.29607E+00 8.74984E-06 7.87844E-06
 -1      7391 1.02331E+01 8.27898E+00 6.59971E-04-9.29607E+00 4.01599E-05 3.61601E-05
 -1      7392 1.02333E+01 8.27926E+00 7.09413E-04-9.29594E+00 1.00386E-04 9.03876E-05
 -1      7393 1.11997E+01 7.31292E+00 7.09413E-04-9.14288E+00-1.04979E-04-8.50099E-05
 -1      7394 1.11994E+01 7.31263E+00 6.59971E-04-9.14302E+00-4.19973E-05-3.40087E-05
 -1      7395 1.11995E+01 7.31266E+00 6.93629E-04-9.14302E+00-9.15022E-06-7.40966E-06
 -1      7396 1.11995E+01 7.31265E+00 6.69544E-04-9.14302E+00-3.13946E-07-2.54181E-07
 -1      7397 1.11995E+01 7.31265E+00 6.69876E-04-9.14302E+00 4.59287E-07 3.71981E-07
 -1      7398 1.11995E+01 7.31265E+00 6.69876E-04-9.14302E+00-4.59345E-07-3.71907E-07
 -1      7399 1.11995E+01 7.31265E+00 6.69544E-04-9.14302E+00 3.13893E-07 2.54247E-07
 -1      7400 1.11995E+01 7.31266E+00 6.93629E-04-9.14302E+00 9.15017E-06 7.40972E-06
 -1      7401 1.11994E+01 7.31263E+00 6.59971E-04-9.14302E+00 4.19973E-05 3.40088E-05
 -1      7402 1.11997E+01 7.31292E+00 7.09413E-04-9.14288E+00 1.04979E-04 8.50100E-05
 -1      7403 1.21447E+01 6.36787E+00 7.09413E-04-8.88966E+00-1.09284E-04-7.93993E-05
 -1      7404 1.21445E+01 6.36757E+00 6.59971E-04-8.88979E+00-4.37197E-05-3.17642E-05
 -1      7405 1.21445E+01 6.36760E+00 6.93629E-04-8.88979E+00-9.52546E-06-6.92062E-06
 -1      7406 1.21445E+01 6.36759E+00 6.69544E-04-8.88979E+00-3.26819E-07-2.37405E-07
 -1      7407 1.21445E+01 6.36759E+00 6.69876E-04-8.88979E+00 4.78127E-07 3.47428E-07
 -1      7408 1.21445E+01 6.36759E+00 6.69876E-04-8.88979E+00-4.78178E-07-3.47362E-07
 -1      7409 1.21445E+01 6.36759E+00 6.69544E-04-8.88979E+00 3.26770E-07 2.37471E-07
 -1      7410 1.21445E+01 6.36760E+00 6.93629E-04-8.88979E+00 9.52542E-06 6.92068E-06
 -1      7411 1.21445E+01 6.36757E+00 6.59971E-04-8.88979E+00 4.37196E-05 3.17642E-05
 -1      7412 1.21447E+01 6.36787E+00 7.09413E-04-8.88966E+00 1.09284E-04 7.93993E-05
 -1      7413 1.30581E+01 5.45447E+00 7.09413E-04-8.53904E+00-1.13289E-04-7.35710E-05
 -1      7414 1.30579E+01 5.45415E+00 6.59972E-04-8.53917E+00-4.53222E-05-2.94325E-05
 -1      7415 1.30579E+01 5.45419E+00 6.93629E-04-8.53916E+00-9.87461E-06-6.41260E-06
 -1      7416 1.30579E+01 5.45417E+00 6.69544E-04-8.53917E+00-3.38794E-07-2.19969E-07
 -1      7417 1.30579E+01 5.45417E+00 6.69876E-04-8.53917E+00 4.95658E-07 3.21931E-07
 -1      7418 1.30579E+01 5.45417E+00 6.69876E-04-8.53917E+00-4.95700E-07-3.21863E-07
 -1      7419 1.30579E+01 5.45417E+00 6.69544E-04-8.53917E+00 3.38753E-07 2.20035E-07
 -1      7420 1.30579E+01 5.45419E+00 6.93629E-04-8.53916E+00 9.87457E-06 6.41266E-06
 -1      7421 1.30579E+01 5.45415E+00 6.59972E-04-8.53917E+00 4.53221E-05 2.94326E-05
 -1      7422 1.30581E+01 5.45447E+00 7.09413E-04-8.53904E+00 1.13289E-04 7.35710E-05
 -1      7423 1.39299E+01 4.58273E+00 7.09413E-04-8.09486E+00-1.16985E-04-6.75411E-05
 -1      7424 1.39297E+01 4.58240E+00 6.59972E-04-8.09498E+00-4.68004E-05-2.70202E-05
 -1      7425 1.39297E+01 4.58243E+00 6.93629E-04-8.09498E+00-1.01967E-05-5.88702E-06
 -1      7426 1.39297E+01 4.58242E+00 6.69544E-04-8.09498E+00-3.49845E-07-2.01938E-07
 -1      7427 1.39297E+01 4.58242E+00 6.69876E-04-8.09499E+00 5.11825E-07 2.95547E-07
 -1      7428 1.39297E+01 4.58242E+00 6.69876E-04-8.09499E+00-5.11863E-07-2.95486E-07
 -1      7429 1.39297E+01 4.58242E+00 6.69544E-04-8.09498E+00 3.49813E-07 2.01996E-07
 -1      7430 1.39297E+01 4.58243E+00 6.93629E-04-8.09498E+00 1.01967E-05 5.88707E-06
 -1      7431 1.39297E+01 4.58240E+00 6.59972E-04-8.09498E+00 4.68004E-05 2.70202E-05
 -1      7432 1.39299E+01 4.58273E+00 7.09413E-04-8.09486E+00 1.16985E-04 6.75411E-05
 -1      7433 1.47504E+01 3.76219E+00 7.09413E-04-7.56200E+00-1.20359E-04-6.13260E-05
 -1      7434 1.47502E+01 3.76184E+00 6.59972E-04-7.56211E+00-4.81504E-05-2.45338E-05
 -1      7435 1.47503E+01 3.76188E+00 6.93629E-04-7.56211E+00-1.04908E-05-5.34530E-06
 -1      7436 1.47503E+01 3.76186E+00 6.69544E-04-7.56211E+00-3.59933E-07-1.83357E-07
 -1      7437 1.47503E+01 3.76186E+00 6.69876E-04-7.56211E+00 5.26596E-07 2.68349E-07
 -1      7438 1.47503E+01 3.76186E+00 6.69876E-04-7.56211E+00-5.26618E-07-2.68297E-07
 -1      7439 1.47503E+01 3.76186E+00 6.69544E-04-7.56211E+00 3.59909E-07 1.83404E-07
 -1      7440 1.47503E+01 3.76188E+00 6.93629E-04-7.56211E+00 1.04908E-05 5.34534E-06
 -1      7441 1.47502E+01 3.76184E+00 6.59972E-04-7.56211E+00 4.81504E-05 2.45339E-05
 -1      7442 1.47504E+01 3.76219E+00 7.09413E-04-7.56200E+00 1.20359E-04 6.13260E-05
 -1      7443 1.55108E+01 3.00184E+00 7.09413E-04-6.94628E+00-1.23404E-04-5.49429E-05
 -1      7444 1.55106E+01 3.00148E+00 6.59971E-04-6.94638E+00-4.93684E-05-2.19802E-05
 -1      7445 1.55106E+01 3.00152E+00 6.93629E-04-6.94638E+00-1.07562E-05-4.78893E-06
 -1      7446 1.55106E+01 3.00150E+00 6.69544E-04-6.94638E+00-3.69034E-07-1.64273E-07
 -1      7447 1.55106E+01 3.00150E+00 6.69876E-04-6.94639E+00 5.39918E-07 2.40415E-07
 -1      7448 1.55106E+01 3.00150E+00 6.69876E-04-6.94639E+00-5.39939E-07-2.40373E-07
 -1      7449 1.55106E+01 3.00150E+00 6.69544E-04-6.94638E+00 3.69017E-07 1.64315E-07
 -1      7450 1.55106E+01 3.00152E+00 6.93629E-04-6.94638E+00 1.07562E-05 4.78897E-06
 -1      7451 1.55106E+01 3.00148E+00 6.59971E-04-6.94638E+00 4.93684E-05 2.19802E-05
 -1      7452 1.55108E+01 3.00184E+00 7.09413E-04-6.94628E+00 1.23404E-04 5.49429E-05
 -1      7453 1.62026E+01 2.31002E+00 7.09412E-04-6.25446E+00-1.26110E-04-4.84091E-05
 -1      7454 1.62024E+01 2.30965E+00 6.59971E-04-6.25455E+00-5.04511E-05-1.93664E-05
 -1      7455 1.62024E+01 2.30969E+00 6.93629E-04-6.25455E+00-1.09921E-05-4.21945E-06
 -1      7456 1.62024E+01 2.30967E+00 6.69544E-04-6.25455E+00-3.77124E-07-1.44746E-07
 -1      7457 1.62024E+01 2.30967E+00 6.69876E-04-6.25455E+00 5.51765E-07 2.11825E-07
 -1      7458 1.62024E+01 2.30967E+00 6.69876E-04-6.25455E+00-5.51781E-07-2.11780E-07
 -1      7459 1.62024E+01 2.30967E+00 6.69544E-04-6.25455E+00 3.77104E-07 1.44789E-07
 -1      7460 1.62024E+01 2.30969E+00 6.93629E-04-6.25455E+00 1.09921E-05 4.21949E-06
 -1      7461 1.62024E+01 2.30965E+00 6.59971E-04-6.25455E+00 5.04511E-05 1.93664E-05
 -1      7462 1.62026E+01 2.31002E+00 7.09412E-04-6.25446E+00 1.26110E-04 4.84091E-05
 -1      7463 1.68183E+01 1.69430E+00 7.09413E-04-5.49411E+00-1.28471E-04-4.17427E-05
 -1      7464 1.68181E+01 1.69393E+00 6.59971E-04-5.49419E+00-5.13955E-05-1.66994E-05
 -1      7465 1.68182E+01 1.69396E+00 6.93629E-04-5.49419E+00-1.11978E-05-3.63838E-06
 -1      7466 1.68182E+01 1.69395E+00 6.69544E-04-5.49419E+00-3.84180E-07-1.24801E-07
 -1      7467 1.68182E+01 1.69395E+00 6.69876E-04-5.49420E+00 5.62089E-07 1.82664E-07
 -1      7468 1.68182E+01 1.69395E+00 6.69876E-04-5.49420E+00-5.62111E-07-1.82609E-07
 -1      7469 1.68182E+01 1.69395E+00 6.69544E-04-5.49419E+00 3.84164E-07 1.24855E-07
 -1      7470 1.68182E+01 1.69396E+00 6.93629E-04-5.49419E+00 1.11978E-05 3.63842E-06
 -1      7471 1.68181E+01 1.69393E+00 6.59971E-04-5.49419E+00 5.13955E-05 1.66994E-05
 -1      7472 1.68183E+01 1.69430E+00 7.09413E-04-5.49411E+00 1.28471E-04 4.17427E-05
 -1      7473 1.73512E+01 1.16144E+00 7.09413E-04-4.67357E+00-1.30479E-04-3.49618E-05
 -1      7474 1.73510E+01 1.16105E+00 6.59971E-04-4.67364E+00-5.21991E-05-1.39867E-05
 -1      7475 1.73510E+01 1.16109E+00 6.93629E-04-4.67364E+00-1.13729E-05-3.04732E-06
 -1      7476 1.73510E+01 1.16107E+00 6.69544E-04-4.67364E+00-3.90193E-07-1.04511E-07
 -1      7477 1.73510E+01 1.16107E+00 6.69876E-04-4.67364E+00 5.70879E-07 1.53004E-07
 -1      7478 1.73510E+01 1.16107E+00 6.69876E-04-4.67364E+00-5.70896E-07-1.52939E-07
 -1      7479 1.73510E+01 1.16107E+00 6.69544E-04-4.67364E+00 3.90173E-07 1.04574E-07
 -1      7480 1.73510E+01 1.16109E+00 6.93629E-04-4.67364E+00 1.13729E-05 3.04738E-06
 -1      7481 1.73510E+01 1.16105E+00 6.59971E-04-4.67364E+00 5.21991E-05 1.39867E-05
 -1      7482 1.73512E+01 1.16144E+00 7.09413E-04-4.67357E+00 1.30479E-04 3.49618E-05
 -1      7483 1.77953E+01 7.17259E-01 7.09413E-04-3.80183E+00-1.32130E-04-2.80851E-05
 -1      7484 1.77952E+01 7.16870E-01 6.59971E-04-3.80188E+00-5.28596E-05-1.12356E-05
 -1      7485 1.77952E+01 7.16905E-01 6.93629E-04-3.80188E+00-1.15168E-05-2.44794E-06
 -1      7486 1.77952E+01 7.16891E-01 6.69544E-04-3.80188E+00-3.95125E-07-8.39484E-08
 -1      7487 1.77952E+01 7.16889E-01 6.69876E-04-3.80188E+00 5.78106E-07 1.22915E-07
 -1      7488 1.77952E+01 7.16889E-01 6.69876E-04-3.80188E+00-5.78120E-07-1.22852E-07
 -1      7489 1.77952E+01 7.16891E-01 6.69544E-04-3.80188E+00 3.95110E-07 8.40096E-08
 -1      7490 1.77952E+01 7.16905E-01 6.93629E-04-3.80188E+00 1.15168E-05 2.44799E-06
 -1      7491 1.77952E+01 7.16870E-01 6.59971E-04-3.80188E+00 5.28595E-05 1.12357E-05
 -1      7492 1.77953E+01 7.17259E-01 7.09413E-04-3.80183E+00 1.32130E-04 2.80852E-05
 -1      7493 1.81460E+01 3.66638E-01 7.09413E-04-2.88843E+00-1.33419E-04-2.11315E-05
 -1      7494 1.81458E+01 3.66244E-01 6.59971E-04-2.88847E+00-5.33751E-05-8.45377E-06
 -1      7495 1.81459E+01 3.66279E-01 6.93629E-04-2.88847E+00-1.16291E-05-1.84185E-06
 -1      7496 1.81458E+01 3.66264E-01 6.69544E-04-2.88847E+00-3.98975E-07-6.31649E-08
 -1      7497 1.81459E+01 3.66263E-01 6.69876E-04-2.88847E+00 5.83747E-07 9.24827E-08
 -1      7498 1.81459E+01 3.66263E-01 6.69876E-04-2.88847E+00-5.83754E-07-9.24326E-08
 -1      7499 1.81458E+01 3.66264E-01 6.69544E-04-2.88847E+00 3.98966E-07 6.32135E-08
 -1      7500 1.81459E+01 3.66279E-01 6.93629E-04-2.88847E+00 1.16291E-05 1.84189E-06
 -1      7501 1.81458E+01 3.66244E-01 6.59971E-04-2.88847E+00 5.33751E-05 8.45380E-06
 -1      7502 1.81460E+01 3.66638E-01 7.09413E-04-2.88843E+00 1.33419E-04 2.11315E-05
 -1      7503 1.83992E+01 1.13414E-01 7.09413E-04-1.94338E+00-1.34342E-04-1.41199E-05
 -1      7504 1.83991E+01 1.13016E-01 6.59971E-04-1.94341E+00-5.37444E-05-5.64875E-06
 -1      7505 1.83991E+01 1.13051E-01 6.93629E-04-1.94341E+00-1.17096E-05-1.23071E-06
 -1      7506 1.83991E+01 1.13036E-01 6.69544E-04-1.94341E+00-4.01732E-07-4.22082E-08
 -1      7507 1.83991E+01 1.13034E-01 6.69876E-04-1.94341E+00 5.87788E-07 6.17949E-08
 -1      7508 1.83991E+01 1.13034E-01 6.69876E-04-1.94341E+00-5.87789E-07-6.17633E-08
 -1      7509 1.83991E+01 1.13036E-01 6.69544E-04-1.94341E+00 4.01733E-07 4.22389E-08
 -1      7510 1.83991E+01 1.13051E-01 6.93629E-04-1.94341E+00 1.17096E-05 1.23074E-06
 -1      7511 1.83991E+01 1.13016E-01 6.59971E-04-1.94341E+00 5.37444E-05 5.64878E-06
 -1      7512 1.83992E+01 1.13414E-01 7.09413E-04-1.94338E+00 1.34342E-04 1.41199E-05
 -1      7513 1.85522E+01-3.96390E-02 7.09413E-04-9.77042E-01-1.34897E-04-7.06965E-06
 -1      7514 1.85521E+01-4.00393E-02 6.59971E-04-9.77057E-01-5.39664E-05-2.82825E-06
 -1      7515 1.85521E+01-4.00040E-02 6.93629E-04-9.77057E-01-1.17580E-05-6.16204E-07
 -1      7516 1.85521E+01-4.00189E-02 6.69544E-04-9.77057E-01-4.03391E-07-2.11350E-08
 -1      7517 1.85521E+01-4.00207E-02 6.69876E-04-9.77057E-01 5.90221E-07 3.09387E-08
 -1      7518 1.85521E+01-4.00207E-02 6.69876E-04-9.77057E-01-5.90217E-07-3.09244E-08
 -1      7519 1.85521E+01-4.00189E-02 6.69544E-04-9.77057E-01 4.03390E-07 2.11488E-08
 -1      7520 1.85521E+01-4.00040E-02 6.93629E-04-9.77057E-01 1.17580E-05 6.16216E-07
 -1      7521 1.85521E+01-4.00393E-02 6.59971E-04-9.77057E-01 5.39664E-05 2.82827E-06
 -1      7522 1.85522E+01-3.96390E-02 7.09413E-04-9.77042E-01 1.34897E-04 7.06966E-06
 -1      7523 6.76475E-03 1.85058E+01 1.09535E-03-9.72162E-01 8.02136E-07 1.53057E-05
 -1      7524 6.51554E-03 1.85056E+01 8.89829E-04-9.72169E-01-1.74960E-06-3.33844E-05
 -1      7525 6.53686E-03 1.85056E+01 7.86892E-04-9.72166E-01-4.13431E-07-7.88871E-06
 -1      7526 6.51943E-03 1.85056E+01 7.60929E-04-9.72167E-01-5.41976E-09-1.03428E-07
 -1      7527 6.51949E-03 1.85056E+01 7.60978E-04-9.72167E-01 1.06357E-08 2.02909E-07
 -1      7528 6.51949E-03 1.85056E+01 7.60978E-04-9.72167E-01-1.06311E-08-2.02907E-07
 -1      7529 6.51943E-03 1.85056E+01 7.60929E-04-9.72167E-01 5.42487E-09 1.03428E-07
 -1      7530 6.53686E-03 1.85056E+01 7.86892E-04-9.72166E-01 4.13435E-07 7.88871E-06
 -1      7531 6.51554E-03 1.85056E+01 8.89829E-04-9.72169E-01 1.74960E-06 3.33844E-05
 -1      7532 6.76475E-03 1.85058E+01 1.09535E-03-9.72162E-01-8.02134E-07-1.53057E-05
 -1      7533 1.59053E-01 1.83535E+01 1.09535E-03-1.93367E+00 1.60207E-06 1.52427E-05
 -1      7534 1.58805E-01 1.83534E+01 8.89829E-04-1.93369E+00-3.49440E-06-3.32470E-05
 -1      7535 1.58826E-01 1.83533E+01 7.86892E-04-1.93368E+00-8.25722E-07-7.85627E-06
 -1      7536 1.58809E-01 1.83533E+01 7.60929E-04-1.93368E+00-1.08230E-08-1.03006E-07
 -1      7537 1.58809E-01 1.83533E+01 7.60978E-04-1.93368E+00 2.12401E-08 2.02074E-07
 -1      7538 1.58809E-01 1.83533E+01 7.60978E-04-1.93368E+00-2.12396E-08-2.02075E-07
 -1      7539 1.58809E-01 1.83533E+01 7.60929E-04-1.93368E+00 1.08239E-08 1.03005E-07
 -1      7540 1.58826E-01 1.83533E+01 7.86892E-04-1.93368E+00 8.25724E-07 7.85627E-06
 -1      7541 1.58805E-01 1.83534E+01 8.89829E-04-1.93369E+00 3.49440E-06 3.32470E-05
 -1      7542 1.59053E-01 1.83535E+01 1.09535E-03-1.93367E+00-1.60208E-06-1.52427E-05
 -1      7543 4.11012E-01 1.81015E+01 1.09535E-03-2.87400E+00 2.39763E-06 1.51380E-05
 -1      7544 4.10766E-01 1.81014E+01 8.89829E-04-2.87402E+00-5.22963E-06-3.30186E-05
 -1      7545 4.10786E-01 1.81014E+01 7.86892E-04-2.87401E+00-1.23576E-06-7.80228E-06
 -1      7546 4.10769E-01 1.81014E+01 7.60929E-04-2.87401E+00-1.62049E-08-1.02295E-07
 -1      7547 4.10769E-01 1.81014E+01 7.60978E-04-2.87401E+00 3.17814E-08 2.00687E-07
 -1      7548 4.10769E-01 1.81014E+01 7.60978E-04-2.87401E+00-3.17902E-08-2.00684E-07
 -1      7549 4.10769E-01 1.81014E+01 7.60929E-04-2.87401E+00 1.61966E-08 1.02297E-07
 -1      7550 4.10786E-01 1.81014E+01 7.86892E-04-2.87401E+00 1.23575E-06 7.80228E-06
 -1      7551 4.10766E-01 1.81014E+01 8.89829E-04-2.87402E+00 5.22962E-06 3.30186E-05
 -1      7552 4.11012E-01 1.81015E+01 1.09535E-03-2.87400E+00-2.39763E-06-1.51380E-05
 -1      7553 7.59882E-01 1.77527E+01 1.09535E-03-3.78284E+00 3.18660E-06 1.49918E-05
 -1      7554 7.59638E-01 1.77525E+01 8.89829E-04-3.78286E+00-6.95052E-06-3.26996E-05
 -1      7555 7.59658E-01 1.77525E+01 7.86892E-04-3.78285E+00-1.64241E-06-7.72691E-06
 -1      7556 7.59641E-01 1.77525E+01 7.60929E-04-3.78285E+00-2.15383E-08-1.01306E-07
 -1      7557 7.59641E-01 1.77525E+01 7.60978E-04-3.78285E+00 4.22400E-08 1.98751E-07
 -1      7558 7.59641E-01 1.77525E+01 7.60978E-04-3.78285E+00-4.22503E-08-1.98746E-07
 -1      7559 7.59641E-01 1.77525E+01 7.60929E-04-3.78285E+00 2.15287E-08 1.01308E-07
 -1      7560 7.59658E-01 1.77525E+01 7.86892E-04-3.78285E+00 1.64240E-06 7.72692E-06
 -1      7561 7.59638E-01 1.77525E+01 8.89829E-04-3.78286E+00 6.95052E-06 3.26996E-05
 -1      7562 7.59882E-01 1.77527E+01 1.09535E-03-3.78284E+00-3.18661E-06-1.49918E-05
 -1      7563 1.20184E+00 1.73107E+01 1.09535E-03-4.65023E+00 3.96684E-06 1.48045E-05
 -1      7564 1.20160E+00 1.73106E+01 8.89829E-04-4.65026E+00-8.65237E-06-3.22911E-05
 -1      7565 1.20162E+00 1.73105E+01 7.86892E-04-4.65025E+00-2.04456E-06-7.63037E-06
 -1      7566 1.20160E+00 1.73105E+01 7.60929E-04-4.65025E+00-2.68108E-08-1.00042E-07
 -1      7567 1.20160E+00 1.73105E+01 7.60978E-04-4.65025E+00 5.25834E-08 1.96265E-07
 -1      7568 1.20160E+00 1.73105E+01 7.60978E-04-4.65025E+00-5.25953E-08-1.96262E-07
 -1      7569 1.20160E+00 1.73105E+01 7.60929E-04-4.65025E+00 2.67987E-08 1.00044E-07
 -1      7570 1.20162E+00 1.73105E+01 7.86892E-04-4.65025E+00 2.04454E-06 7.63037E-06
 -1      7571 1.20160E+00 1.73106E+01 8.89829E-04-4.65026E+00 8.65236E-06 3.22911E-05
 -1      7572 1.20184E+00 1.73107E+01 1.09535E-03-4.65023E+00-3.96685E-06-1.48044E-05
 -1      7573 1.73204E+00 1.67805E+01 1.09535E-03-5.46667E+00 4.73620E-06 1.45766E-05
 -1      7574 1.73181E+00 1.67804E+01 8.89829E-04-5.46671E+00-1.03305E-05-3.17940E-05
 -1      7575 1.73182E+00 1.67803E+01 7.86892E-04-5.46669E+00-2.44110E-06-7.51291E-06
 -1      7576 1.73181E+00 1.67803E+01 7.60929E-04-5.46670E+00-3.20165E-08-9.84971E-08
 -1      7577 1.73181E+00 1.67803E+01 7.60978E-04-5.46670E+00 6.27751E-08 1.93248E-07
 -1      7578 1.73181E+00 1.67803E+01 7.60978E-04-5.46670E+00-6.28025E-08-1.93238E-07
 -1      7579 1.73181E+00 1.67803E+01 7.60929E-04-5.46670E+00 3.19909E-08 9.85053E-08
 -1      7580 1.73182E+00 1.67803E+01 7.86892E-04-5.46669E+00 2.44108E-06 7.51291E-06
 -1      7581 1.73181E+00 1.67804E+01 8.89829E-04-5.46671E+00 1.03305E-05 3.17940E-05
 -1      7582 1.73204E+00 1.67805E+01 1.09535E-03-5.46667E+00-4.73621E-06-1.45765E-05
 -1      7583 2.34469E+00 1.61679E+01 1.09535E-03-6.22322E+00 5.49258E-06 1.43087E-05
 -1      7584 2.34445E+00 1.61677E+01 8.89829E-04-6.22326E+00-1.19803E-05-3.12097E-05
 -1      7585 2.34447E+00 1.61677E+01 7.86892E-04-6.22325E+00-2.83096E-06-7.37485E-06
 -1      7586 2.34445E+00 1.61677E+01 7.60929E-04-6.22325E+00-3.71323E-08-9.66876E-08
 -1      7587 2.34445E+00 1.61677E+01 7.60978E-04-6.22325E+00 7.27982E-08 1.89697E-07
 -1      7588 2.34445E+00 1.61677E+01 7.60978E-04-6.22325E+00-7.28344E-08-1.89686E-07
 -1      7589 2.34445E+00 1.61677E+01 7.60929E-04-6.22325E+00 3.70972E-08 9.66998E-08
 -1      7590 2.34447E+00 1.61677E+01 7.86892E-04-6.22325E+00 2.83092E-06 7.37486E-06
 -1      7591 2.34445E+00 1.61677E+01 8.89829E-04-6.22326E+00 1.19803E-05 3.12098E-05
 -1      7592 2.34469E+00 1.61679E+01 1.09535E-03-6.22322E+00-5.49260E-06-1.43087E-05
 -1      7593 3.03305E+00 1.54795E+01 1.09535E-03-6.91158E+00 6.23392E-06 1.40016E-05
 -1      7594 3.03282E+00 1.54793E+01 8.89829E-04-6.91163E+00-1.35973E-05-3.05400E-05
 -1      7595 3.03284E+00 1.54793E+01 7.86892E-04-6.91161E+00-3.21306E-06-7.21658E-06
 -1      7596 3.03282E+00 1.54793E+01 7.60929E-04-6.91162E+00-4.21524E-08-9.46052E-08
 -1      7597 3.03282E+00 1.54793E+01 7.60978E-04-6.91162E+00 8.26201E-08 1.85632E-07
 -1      7598 3.03282E+00 1.54793E+01 7.60978E-04-6.91162E+00-8.26661E-08-1.85612E-07
 -1      7599 3.03282E+00 1.54793E+01 7.60929E-04-6.91162E+00 4.21063E-08 9.46245E-08
 -1      7600 3.03284E+00 1.54793E+01 7.86892E-04-6.91161E+00 3.21302E-06 7.21659E-06
 -1      7601 3.03282E+00 1.54793E+01 8.89829E-04-6.91163E+00 1.35973E-05 3.05400E-05
 -1      7602 3.03305E+00 1.54795E+01 1.09535E-03-6.91158E+00-6.23394E-06-1.40016E-05
 -1      7603 3.78960E+00 1.47229E+01 1.09535E-03-7.52422E+00 6.95816E-06 1.36562E-05
 -1      7604 3.78938E+00 1.47228E+01 8.89829E-04-7.52427E+00-1.51770E-05-2.97865E-05
 -1      7605 3.78939E+00 1.47228E+01 7.86892E-04-7.52426E+00-3.58634E-06-7.03853E-06
 -1      7606 3.78937E+00 1.47228E+01 7.60929E-04-7.52426E+00-4.70494E-08-9.22675E-08
 -1      7607 3.78937E+00 1.47228E+01 7.60978E-04-7.52426E+00 9.22160E-08 1.81056E-07
 -1      7608 3.78937E+00 1.47228E+01 7.60978E-04-7.52426E+00-9.22736E-08-1.81028E-07
 -1      7609 3.78937E+00 1.47228E+01 7.60929E-04-7.52426E+00 4.69947E-08 9.22964E-08
 -1      7610 3.78939E+00 1.47228E+01 7.86892E-04-7.52426E+00 3.58629E-06 7.03855E-06
 -1      7611 3.78938E+00 1.47228E+01 8.89829E-04-7.52427E+00 1.51770E-05 2.97865E-05
 -1      7612 3.78960E+00 1.47229E+01 1.09535E-03-7.52422E+00-6.95819E-06-1.36562E-05
 -1      7613 4.60604E+00 1.39065E+01 1.09535E-03-8.05443E+00 7.66333E-06 1.32733E-05
 -1      7614 4.60582E+00 1.39063E+01 8.89829E-04-8.05448E+00-1.67151E-05-2.89514E-05
 -1      7615 4.60584E+00 1.39063E+01 7.86892E-04-8.05447E+00-3.94980E-06-6.84118E-06
 -1      7616 4.60582E+00 1.39063E+01 7.60929E-04-8.05447E+00-5.18175E-08-8.96755E-08
 -1      7617 4.60582E+00 1.39063E+01 7.60978E-04-8.05447E+00 1.01560E-07 1.75986E-07
 -1      7618 4.60582E+00 1.39063E+01 7.60978E-04-8.05447E+00-1.01625E-07-1.75946E-07
 -1      7619 4.60582E+00 1.39063E+01 7.60929E-04-8.05447E+00 5.17551E-08 8.97118E-08
 -1      7620 4.60584E+00 1.39063E+01 7.86892E-04-8.05447E+00 3.94974E-06 6.84122E-06
 -1      7621 4.60582E+00 1.39063E+01 8.89829E-04-8.05448E+00 1.67151E-05 2.89514E-05
 -1      7622 4.60604E+00 1.39065E+01 1.09535E-03-8.05443E+00-7.66336E-06-1.32733E-05
 -1      7623 5.47343E+00 1.30391E+01 1.09535E-03-8.49639E+00 8.34749E-06 1.28541E-05
 -1      7624 5.47322E+00 1.30389E+01 8.89829E-04-8.49644E+00-1.82074E-05-2.80369E-05
 -1      7625 5.47323E+00 1.30389E+01 7.86892E-04-8.49643E+00-4.30244E-06-6.62508E-06
 -1      7626 5.47322E+00 1.30389E+01 7.60929E-04-8.49643E+00-5.64488E-08-8.68346E-08
 -1      7627 5.47322E+00 1.30389E+01 7.60978E-04-8.49643E+00 1.10628E-07 1.70432E-07
 -1      7628 5.47322E+00 1.30389E+01 7.60978E-04-8.49643E+00-1.10694E-07-1.70388E-07
 -1      7629 5.47322E+00 1.30389E+01 7.60929E-04-8.49643E+00 5.63858E-08 8.68774E-08
 -1      7630 5.47323E+00 1.30389E+01 7.86892E-04-8.49643E+00 4.30238E-06 6.62512E-06
 -1      7631 5.47322E+00 1.30389E+01 8.89829E-04-8.49644E+00 1.82074E-05 2.80369E-05
 -1      7632 5.47343E+00 1.30391E+01 1.09535E-03-8.49639E+00-8.34752E-06-1.28540E-05
 -1      7633 6.38227E+00 1.21303E+01 1.09535E-03-8.84526E+00 9.00878E-06 1.23996E-05
 -1      7634 6.38206E+00 1.21301E+01 8.89829E-04-8.84531E+00-1.96498E-05-2.70456E-05
 -1      7635 6.38207E+00 1.21301E+01 7.86892E-04-8.84530E+00-4.64327E-06-6.39084E-06
 -1      7636 6.38206E+00 1.21301E+01 7.60929E-04-8.84530E+00-6.09128E-08-8.37668E-08
 -1      7637 6.38206E+00 1.21301E+01 7.60978E-04-8.84530E+00 1.19394E-07 1.64407E-07
 -1      7638 6.38206E+00 1.21301E+01 7.60978E-04-8.84530E+00-1.19464E-07-1.64358E-07
 -1      7639 6.38206E+00 1.21301E+01 7.60929E-04-8.84530E+00 6.08484E-08 8.38129E-08
 -1      7640 6.38207E+00 1.21301E+01 7.86892E-04-8.84530E+00 4.64320E-06 6.39088E-06
 -1      7641 6.38206E+00 1.21301E+01 8.89829E-04-8.84531E+00 1.96497E-05 2.70456E-05
 -1      7642 6.38227E+00 1.21303E+01 1.09535E-03-8.84526E+00-9.00881E-06-1.23995E-05
 -1      7643 7.32260E+00 1.11899E+01 1.09535E-03-9.09722E+00 9.64538E-06 1.19111E-05
 -1      7644 7.32240E+00 1.11898E+01 8.89829E-04-9.09728E+00-2.10383E-05-2.59801E-05
 -1      7645 7.32240E+00 1.11898E+01 7.86892E-04-9.09726E+00-4.97136E-06-6.13908E-06
 -1      7646 7.32239E+00 1.11898E+01 7.60929E-04-9.09726E+00-6.52066E-08-8.04679E-08
 -1      7647 7.32239E+00 1.11898E+01 7.60978E-04-9.09726E+00 1.27838E-07 1.57934E-07
 -1      7648 7.32239E+00 1.11898E+01 7.60978E-04-9.09726E+00-1.27908E-07-1.57876E-07
 -1      7649 7.32239E+00 1.11898E+01 7.60929E-04-9.09726E+00 6.51390E-08 8.05225E-08
 -1      7650 7.32240E+00 1.11898E+01 7.86892E-04-9.09726E+00 4.97130E-06 6.13913E-06
 -1      7651 7.32240E+00 1.11898E+01 8.89829E-04-9.09728E+00 2.10383E-05 2.59801E-05
 -1      7652 7.32260E+00 1.11899E+01 1.09535E-03-9.09722E+00-9.64541E-06-1.19111E-05
 -1      7653 8.28411E+00 1.02284E+01 1.09535E-03-9.24950E+00 1.02555E-05 1.13900E-05
 -1      7654 8.28391E+00 1.02282E+01 8.89829E-04-9.24957E+00-2.23692E-05-2.48434E-05
 -1      7655 8.28392E+00 1.02282E+01 7.86892E-04-9.24955E+00-5.28586E-06-5.87047E-06
 -1      7656 8.28390E+00 1.02282E+01 7.60929E-04-9.24955E+00-6.93375E-08-7.69350E-08
 -1      7657 8.28391E+00 1.02282E+01 7.60978E-04-9.24955E+00 1.35925E-07 1.51029E-07
 -1      7658 8.28391E+00 1.02282E+01 7.60978E-04-9.24955E+00-1.35991E-07-1.50971E-07
 -1      7659 8.28390E+00 1.02282E+01 7.60929E-04-9.24955E+00 6.92733E-08 7.69927E-08
 -1      7660 8.28392E+00 1.02282E+01 7.86892E-04-9.24955E+00 5.28580E-06 5.87052E-06
 -1      7661 8.28391E+00 1.02282E+01 8.89829E-04-9.24957E+00 2.23691E-05 2.48435E-05
 -1      7662 8.28411E+00 1.02284E+01 1.09535E-03-9.24950E+00-1.02556E-05-1.13899E-05
 -1      7663 9.25627E+00 9.25627E+00 1.09535E-03-9.30045E+00 1.08376E-05 1.08376E-05
 -1      7664 9.25608E+00 9.25608E+00 8.89828E-04-9.30051E+00-2.36387E-05-2.36387E-05
 -1      7665 9.25608E+00 9.25608E+00 7.86891E-04-9.30050E+00-5.58587E-06-5.58577E-06
 -1      7666 9.25607E+00 9.25607E+00 7.60929E-04-9.30050E+00-7.32836E-08-7.31898E-08
 -1      7667 9.25607E+00 9.25607E+00 7.60978E-04-9.30050E+00 1.43633E-07 1.43716E-07
 -1      7668 9.25607E+00 9.25607E+00 7.60978E-04-9.30050E+00-1.43706E-07-1.43645E-07
 -1      7669 9.25607E+00 9.25607E+00 7.60929E-04-9.30050E+00 7.32171E-08 7.32569E-08
 -1      7670 9.25608E+00 9.25608E+00 7.86891E-04-9.30050E+00 5.58581E-06 5.58583E-06
 -1      7671 9.25608E+00 9.25608E+00 8.89828E-04-9.30051E+00 2.36387E-05 2.36387E-05
 -1      7672 9.25627E+00 9.25627E+00 1.09535E-03-9.30045E+00-1.08376E-05-1.08376E-05
 -1      7673 1.02284E+01 8.28411E+00 1.09535E-03-9.24950E+00 1.13899E-05 1.02556E-05
 -1      7674 1.02282E+01 8.28391E+00 8.89828E-04-9.24957E+00-2.48435E-05-2.23691E-05
 -1      7675 1.02282E+01 8.28392E+00 7.86891E-04-9.24955E+00-5.87054E-06-5.28578E-06
 -1      7676 1.02282E+01 8.28390E+00 7.60928E-04-9.24955E+00-7.70061E-08-6.92604E-08
 -1      7677 1.02282E+01 8.28391E+00 7.60977E-04-9.24955E+00 1.50963E-07 1.35999E-07
 -1      7678 1.02282E+01 8.28391E+00 7.60977E-04-9.24955E+00-1.51030E-07-1.35921E-07
 -1      7679 1.02282E+01 8.28390E+00 7.60928E-04-9.24955E+00 7.69369E-08 6.93351E-08
 -1      7680 1.02282E+01 8.28392E+00 7.86891E-04-9.24955E+00 5.87048E-06 5.28585E-06
 -1      7681 1.02282E+01 8.28391E+00 8.89828E-04-9.24957E+00 2.48434E-05 2.23692E-05
 -1      7682 1.02284E+01 8.28411E+00 1.09535E-03-9.24950E+00-1.13900E-05-1.02555E-05
 -1      7683 1.11899E+01 7.32260E+00 1.09535E-03-9.09722E+00 1.19111E-05 9.64542E-06
 -1      7684 1.11898E+01 7.32239E+00 8.89828E-04-9.09728E+00-2.59801E-05-2.10383E-05
 -1      7685 1.11898E+01 7.32240E+00 7.86891E-04-9.09726E+00-6.13912E-06-4.97131E-06
 -1      7686 1.11898E+01 7.32239E+00 7.60928E-04-9.09726E+00-8.05161E-08-6.51465E-08
 -1      7687 1.11898E+01 7.32239E+00 7.60977E-04-9.09726E+00 1.57874E-07 1.27910E-07
 -1      7688 1.11898E+01 7.32239E+00 7.60977E-04-9.09726E+00-1.57941E-07-1.27828E-07
 -1      7689 1.11898E+01 7.32239E+00 7.60928E-04-9.09726E+00 8.04566E-08 6.52212E-08
 -1      7690 1.11898E+01 7.32240E+00 7.86891E-04-9.09726E+00 6.13906E-06 4.97138E-06
 -1      7691 1.11898E+01 7.32239E+00 8.89828E-04-9.09728E+00 2.59801E-05 2.10383E-05
 -1      7692 1.11899E+01 7.32260E+00 1.09535E-03-9.09722E+00-1.19111E-05-9.64538E-06
 -1      7693 1.21303E+01 6.38227E+00 1.09535E-03-8.84526E+00 1.23995E-05 9.00882E-06
 -1      7694 1.21301E+01 6.38206E+00 8.89828E-04-8.84531E+00-2.70456E-05-1.96497E-05
 -1      7695 1.21301E+01 6.38207E+00 7.86891E-04-8.84530E+00-6.39088E-06-4.64321E-06
 -1      7696 1.21301E+01 6.38206E+00 7.60928E-04-8.84530E+00-8.38143E-08-6.08462E-08
 -1      7697 1.21301E+01 6.38206E+00 7.60977E-04-8.84530E+00 1.64356E-07 1.19466E-07
 -1      7698 1.21301E+01 6.38206E+00 7.60977E-04-8.84530E+00-1.64411E-07-1.19391E-07
 -1      7699 1.21301E+01 6.38206E+00 7.60928E-04-8.84530E+00 8.37595E-08 6.09207E-08
 -1      7700 1.21301E+01 6.38207E+00 7.86891E-04-8.84530E+00 6.39083E-06 4.64327E-06
 -1      7701 1.21301E+01 6.38206E+00 8.89828E-04-8.84531E+00 2.70455E-05 1.96498E-05
 -1      7702 1.21303E+01 6.38227E+00 1.09535E-03-8.84526E+00-1.23996E-05-9.00878E-06
 -1      7703 1.30391E+01 5.47343E+00 1.09535E-03-8.49639E+00 1.28540E-05 8.34753E-06
 -1      7704 1.30389E+01 5.47322E+00 8.89828E-04-8.49644E+00-2.80369E-05-1.82073E-05
 -1      7705 1.30389E+01 5.47323E+00 7.86891E-04-8.49643E+00-6.62513E-06-4.30236E-06
 -1      7706 1.30389E+01 5.47322E+00 7.60928E-04-8.49643E+00-8.68844E-08-5.63712E-08
 -1      7707 1.30389E+01 5.47322E+00 7.60977E-04-8.49643E+00 1.70384E-07 1.10702E-07
 -1      7708 1.30389E+01 5.47322E+00 7.60977E-04-8.49643E+00-1.70433E-07-1.10626E-07
 -1      7709 1.30389E+01 5.47322E+00 7.60928E-04-8.49643E+00 8.68368E-08 5.64448E-08
 -1      7710 1.30389E+01 5.47323E+00 7.86891E-04-8.49643E+00 6.62509E-06 4.30243E-06
 -1      7711 1.30389E+01 5.47322E+00 8.89828E-04-8.49644E+00 2.80369E-05 1.82074E-05
 -1      7712 1.30391E+01 5.47343E+00 1.09535E-03-8.49639E+00-1.28541E-05-8.34750E-06
 -1      7713 1.39065E+01 4.60604E+00 1.09535E-03-8.05443E+00 1.32733E-05 7.66337E-06
 -1      7714 1.39063E+01 4.60582E+00 8.89828E-04-8.05448E+00-2.89514E-05-1.67150E-05
 -1      7715 1.39063E+01 4.60584E+00 7.86891E-04-8.05447E+00-6.84122E-06-3.94973E-06
 -1      7716 1.39063E+01 4.60582E+00 7.60928E-04-8.05447E+00-8.97173E-08-5.17468E-08
 -1      7717 1.39063E+01 4.60582E+00 7.60977E-04-8.05447E+00 1.75943E-07 1.01631E-07
 -1      7718 1.39063E+01 4.60582E+00 7.60977E-04-8.05447E+00-1.75985E-07-1.01562E-07
 -1      7719 1.39063E+01 4.60582E+00 7.60928E-04-8.05447E+00 8.96805E-08 5.18115E-08
 -1      7720 1.39063E+01 4.60584E+00 7.86891E-04-8.05447E+00 6.84119E-06 3.94979E-06
 -1      7721 1.39063E+01 4.60582E+00 8.89828E-04-8.05448E+00 2.89514E-05 1.67151E-05
 -1      7722 1.39065E+01 4.60604E+00 1.09535E-03-8.05443E+00-1.32733E-05-7.66334E-06
 -1      7723 1.47229E+01 3.78960E+00 1.09535E-03-7.52422E+00 1.36562E-05 6.95819E-06
 -1      7724 1.47228E+01 3.78938E+00 8.89828E-04-7.52427E+00-2.97865E-05-1.51769E-05
 -1      7725 1.47228E+01 3.78939E+00 7.86891E-04-7.52426E+00-7.03856E-06-3.58628E-06
 -1      7726 1.47228E+01 3.78937E+00 7.60928E-04-7.52426E+00-9.23007E-08-4.69855E-08
 -1      7727 1.47228E+01 3.78937E+00 7.60977E-04-7.52426E+00 1.81026E-07 9.22764E-08
 -1      7728 1.47228E+01 3.78937E+00 7.60977E-04-7.52426E+00-1.81053E-07-9.22198E-08
 -1      7729 1.47228E+01 3.78937E+00 7.60928E-04-7.52426E+00 9.22719E-08 4.70399E-08
 -1      7730 1.47228E+01 3.78939E+00 7.86891E-04-7.52426E+00 7.03853E-06 3.58633E-06
 -1      7731 1.47228E+01 3.78938E+00 8.89828E-04-7.52427E+00 2.97865E-05 1.51770E-05
 -1      7732 1.47229E+01 3.78960E+00 1.09535E-03-7.52422E+00-1.36562E-05-6.95817E-06
 -1      7733 1.54795E+01 3.03305E+00 1.09535E-03-6.91158E+00 1.40016E-05 6.23393E-06
 -1      7734 1.54793E+01 3.03282E+00 8.89827E-04-6.91163E+00-3.05400E-05-1.35973E-05
 -1      7735 1.54793E+01 3.03284E+00 7.86890E-04-6.91161E+00-7.21660E-06-3.21300E-06
 -1      7736 1.54793E+01 3.03282E+00 7.60928E-04-6.91162E+00-9.46298E-08-4.20978E-08
 -1      7737 1.54793E+01 3.03282E+00 7.60977E-04-6.91162E+00 1.85609E-07 8.26704E-08
 -1      7738 1.54793E+01 3.03282E+00 7.60977E-04-6.91162E+00-1.85632E-07-8.26216E-08
 -1      7739 1.54793E+01 3.03282E+00 7.60928E-04-6.91162E+00 9.46108E-08 4.21446E-08
 -1      7740 1.54793E+01 3.03284E+00 7.86890E-04-6.91161E+00 7.21658E-06 3.21305E-06
 -1      7741 1.54793E+01 3.03282E+00 8.89827E-04-6.91163E+00 3.05400E-05 1.35973E-05
 -1      7742 1.54795E+01 3.03305E+00 1.09535E-03-6.91158E+00-1.40016E-05-6.23391E-06
 -1      7743 1.61679E+01 2.34469E+00 1.09535E-03-6.22322E+00 1.43087E-05 5.49261E-06
 -1      7744 1.61677E+01 2.34445E+00 8.89827E-04-6.22326E+00-3.12098E-05-1.19803E-05
 -1      7745 1.61677E+01 2.34447E+00 7.86890E-04-6.22325E+00-7.37486E-06-2.83093E-06
 -1      7746 1.61677E+01 2.34445E+00 7.60928E-04-6.22325E+00-9.67015E-08-3.70982E-08
 -1      7747 1.61677E+01 2.34445E+00 7.60977E-04-6.22325E+00 1.89684E-07 7.28381E-08
 -1      7748 1.61677E+01 2.34445E+00 7.60977E-04-6.22325E+00-1.89702E-07-7.27872E-08
 -1      7749 1.61677E+01 2.34445E+00 7.60928E-04-6.22325E+00 9.66793E-08 3.71480E-08
 -1      7750 1.61677E+01 2.34447E+00 7.86890E-04-6.22325E+00 7.37484E-06 2.83097E-06
 -1      7751 1.61677E+01 2.34445E+00 8.89827E-04-6.22326E+00 3.12097E-05 1.19803E-05
 -1      7752 1.61679E+01 2.34469E+00 1.09535E-03-6.22322E+00-1.43087E-05-5.49258E-06
 -1      7753 1.67805E+01 1.73204E+00 1.09535E-03-5.46667E+00 1.45765E-05 4.73623E-06
 -1      7754 1.67804E+01 1.73181E+00 8.89827E-04-5.46671E+00-3.17940E-05-1.03305E-05
 -1      7755 1.67803E+01 1.73182E+00 7.86890E-04-5.46669E+00-7.51292E-06-2.44107E-06
 -1      7756 1.67803E+01 1.73181E+00 7.60928E-04-5.46670E+00-9.85110E-08-3.19782E-08
 -1      7757 1.67803E+01 1.73181E+00 7.60977E-04-5.46670E+00 1.93232E-07 6.28193E-08
 -1      7758 1.67803E+01 1.73181E+00 7.60977E-04-5.46670E+00-1.93254E-07-6.27568E-08
 -1      7759 1.67803E+01 1.73181E+00 7.60928E-04-5.46670E+00 9.84909E-08 3.20378E-08
 -1      7760 1.67803E+01 1.73182E+00 7.86890E-04-5.46669E+00 7.51290E-06 2.44112E-06
 -1      7761 1.67804E+01 1.73181E+00 8.89827E-04-5.46671E+00 3.17940E-05 1.03305E-05
 -1      7762 1.67805E+01 1.73204E+00 1.09535E-03-5.46667E+00-1.45766E-05-4.73620E-06
 -1      7763 1.73107E+01 1.20184E+00 1.09535E-03-4.65023E+00 1.48044E-05 3.96686E-06
 -1      7764 1.73106E+01 1.20160E+00 8.89827E-04-4.65026E+00-3.22911E-05-8.65233E-06
 -1      7765 1.73105E+01 1.20162E+00 7.86890E-04-4.65025E+00-7.63038E-06-2.04451E-06
 -1      7766 1.73105E+01 1.20160E+00 7.60928E-04-4.65025E+00-1.00054E-07-2.67633E-08
 -1      7767 1.73105E+01 1.20160E+00 7.60977E-04-4.65025E+00 1.96253E-07 5.26280E-08
 -1      7768 1.73105E+01 1.20160E+00 7.60977E-04-4.65025E+00-1.96272E-07-5.25542E-08
 -1      7769 1.73105E+01 1.20160E+00 7.60928E-04-4.65025E+00 1.00034E-07 2.68353E-08
 -1      7770 1.73105E+01 1.20162E+00 7.86890E-04-4.65025E+00 7.63036E-06 2.04457E-06
 -1      7771 1.73106E+01 1.20160E+00 8.89827E-04-4.65026E+00 3.22911E-05 8.65238E-06
 -1      7772 1.73107E+01 1.20184E+00 1.09535E-03-4.65023E+00-1.48045E-05-3.96683E-06
 -1      7773 1.77527E+01 7.59882E-01 1.09535E-03-3.78284E+00 1.49918E-05 3.18662E-06
 -1      7774 1.77525E+01 7.59638E-01 8.89827E-04-3.78286E+00-3.26996E-05-6.95049E-06
 -1      7775 1.77525E+01 7.59658E-01 7.86890E-04-3.78285E+00-7.72692E-06-1.64236E-06
 -1      7776 1.77525E+01 7.59641E-01 7.60928E-04-3.78285E+00-1.01318E-07-2.14928E-08
 -1      7777 1.77525E+01 7.59641E-01 7.60977E-04-3.78285E+00 1.98739E-07 4.22830E-08
 -1      7778 1.77525E+01 7.59641E-01 7.60977E-04-3.78285E+00-1.98755E-07-4.22116E-08
 -1      7779 1.77525E+01 7.59641E-01 7.60928E-04-3.78285E+00 1.01301E-07 2.15619E-08
 -1      7780 1.77525E+01 7.59658E-01 7.86890E-04-3.78285E+00 7.72691E-06 1.64243E-06
 -1      7781 1.77525E+01 7.59638E-01 8.89827E-04-3.78286E+00 3.26996E-05 6.95054E-06
 -1      7782 1.77527E+01 7.59882E-01 1.09535E-03-3.78284E+00-1.49918E-05-3.18659E-06
 -1      7783 1.81015E+01 4.11012E-01 1.09535E-03-2.87400E+00 1.51380E-05 2.39764E-06
 -1      7784 1.81014E+01 4.10766E-01 8.89827E-04-2.87402E+00-3.30186E-05-5.22960E-06
 -1      7785 1.81014E+01 4.10786E-01 7.86890E-04-2.87401E+00-7.80229E-06-1.23573E-06
 -1      7786 1.81014E+01 4.10769E-01 7.60928E-04-2.87401E+00-1.02300E-07-1.61730E-08
 -1      7787 1.81014E+01 4.10769E-01 7.60977E-04-2.87401E+00 2.00683E-07 3.18150E-08
 -1      7788 1.81014E+01 4.10769E-01 7.60977E-04-2.87401E+00-2.00691E-07-3.17584E-08
 -1      7789 1.81014E+01 4.10769E-01 7.60928E-04-2.87401E+00 1.02291E-07 1.62278E-08
 -1      7790 1.81014E+01 4.10786E-01 7.86890E-04-2.87401E+00 7.80228E-06 1.23578E-06
 -1      7791 1.81014E+01 4.10766E-01 8.89827E-04-2.87402E+00 3.30186E-05 5.22965E-06
 -1      7792 1.81015E+01 4.11012E-01 1.09535E-03-2.87400E+00-1.51380E-05-2.39761E-06
 -1      7793 1.83535E+01 1.59053E-01 1.09535E-03-1.93367E+00 1.52427E-05 1.60209E-06
 -1      7794 1.83534E+01 1.58805E-01 8.89827E-04-1.93369E+00-3.32470E-05-3.49439E-06
 -1      7795 1.83533E+01 1.58826E-01 7.86891E-04-1.93368E+00-7.85627E-06-8.25710E-07
 -1      7796 1.83533E+01 1.58809E-01 7.60928E-04-1.93368E+00-1.03005E-07-1.08082E-08
 -1      7797 1.83533E+01 1.58809E-01 7.60977E-04-1.93368E+00 2.02072E-07 2.12570E-08
 -1      7798 1.83533E+01 1.58809E-01 7.60977E-04-1.93368E+00-2.02075E-07-2.12206E-08
 -1      7799 1.83533E+01 1.58809E-01 7.60928E-04-1.93368E+00 1.03003E-07 1.08434E-08
 -1      7800 1.83533E+01 1.58826E-01 7.86891E-04-1.93368E+00 7.85626E-06 8.25742E-07
 -1      7801 1.83534E+01 1.58805E-01 8.89828E-04-1.93369E+00 3.32470E-05 3.49442E-06
 -1      7802 1.83535E+01 1.59053E-01 1.09535E-03-1.93367E+00-1.52427E-05-1.60207E-06
 -1      7803 1.85058E+01 6.76474E-03 1.09535E-03-9.72162E-01 1.53057E-05 8.02141E-07
 -1      7804 1.85056E+01 6.51553E-03 8.89828E-04-9.72169E-01-3.33844E-05-1.74959E-06
 -1      7805 1.85056E+01 6.53686E-03 7.86891E-04-9.72166E-01-7.88871E-06-4.13424E-07
 -1      7806 1.85056E+01 6.51942E-03 7.60928E-04-9.72167E-01-1.03430E-07-5.41408E-09
 -1      7807 1.85056E+01 6.51948E-03 7.60977E-04-9.72167E-01 2.02910E-07 1.06415E-08
 -1      7808 1.85056E+01 6.51948E-03 7.60977E-04-9.72167E-01-2.02909E-07-1.06252E-08
 -1      7809 1.85056E+01 6.51942E-03 7.60928E-04-9.72167E-01 1.03428E-07 5.42964E-09
 -1      7810 1.85056E+01 6.53686E-03 7.86891E-04-9.72166E-01 7.88871E-06 4.13439E-07
 -1      7811 1.85056E+01 6.51553E-03 8.89828E-04-9.72169E-01 3.33844E-05 1.74961E-06
 -1      7812 1.85058E+01 6.76474E-03 1.09535E-03-9.72162E-01-1.53057E-05-8.02132E-07
 -3
    1PSTEP                         3           1           1          
  100CL  101 1.000000000        7812                     0    1           1
 -4  ERROR       1    1
 -5  STR(%)      1    1    0    0
 -1         1 8.80230E-02
 -1         2 8.00177E-02
 -1         3 8.00177E-02
 -1         4 8.80230E-02
 -1         5 8.80230E-02
 -1         6 8.00177E-02
 -1         7 8.00177E-02
 -1         8 8.80230E-02
 -1         9 8.84132E-02
 -1        10 8.84132E-02
 -1        11 8.81818E-02
 -1        12 8.77501E-02
 -1        13 8.72520E-02
 -1        14 8.67359E-02
 -1        15 8.62194E-02
 -1        16 8.57087E-02
 -1        17 8.52048E-02
 -1        18 8.47066E-02
 -1        19 8.42741E-02
 -1        20 8.39180E-02
 -1        21 8.35671E-02
 -1        22 8.32225E-02
 -1        23 8.28834E-02
 -1        24 8.25444E-02
 -1        25 8.21894E-02
 -1        26 8.17748E-02
 -1        27 8.11785E-02
 -1        28 8.00177E-02
 -1        29 8.00177E-02
 -1        30 8.00177E-02
 -1        31 8.00177E-02
 -1        32 8.00177E-02
 -1        33 8.00177E-02
 -1        34 8.00177E-02
 -1        35 8.00177E-02
 -1        36 8.00177E-02
 -1        37 8.00177E-02
 -1        38 8.00177E-02
 -1        39 8.00178E-02
 -1        40 8.00178E-02
 -1        41 8.00178E-02
 -1        42 8.00178E-02
 -1        43 8.00178E-02
 -1        44 8.00178E-02
 -1        45 8.00178E-02
 -1        46 8.00178E-02
 -1        47 8.00178E-02
 -1        48 8.00177E-02
 -1        49 8.00177E-02
 -1        50 8.00177E-02
 -1        51 8.00177E-02
 -1        52 8.00177E-02
 -1        53 8.00177E-02
 -1        54 8.00177E-02
 -1        55 8.00177E-02
 -1        56 8.00177E-02
 -1        57 8.11785E-02
 -1        58 8.17748E-02
 -1        59 8.21894E-02
 -1        60 8.25444E-02
 -1        61 8.28834E-02
 -1        62 8.32225E-02
 -1        63 8.35671E-02
 -1        64 8.39180E-02
 -1        65 8.42741E-02
 -1        66 8.47066E-02
 -1        67 8.52048E-02
 -1        68 8.57087E-02
 -1        69 8.62194E-02
 -1        70 8.67359E-02
 -1        71 8.72520E-02
 -1        72 8.77501E-02
 -1        73 8.81818E-02
 -1        74 8.84132E-02
 -1        75 8.84132E-02
 -1        76 8.80230E-02
 -1        77 8.80230E-02
 -1        78 8.80230E-02
 -1        79 8.80230E-02
 -1        80 8.80230E-02
 -1        81 8.80230E-02
 -1        82 8.80230E-02
 -1        83 8.80230E-02
 -1        84 8.80230E-02
 -1        85 8.80230E-02
 -1        86 8.80230E-02
 -1        87 8.80230E-02
 -1        88 8.80230E-02
 -1        89 8.80230E-02
 -1        90 8.80230E-02
 -1        91 8.80230E-02
 -1        92 8.80230E-02
 -1        93 8.80230E-02
 -1        94 8.80230E-02
 -1        95 8.80230E-02
 -1        96 8.80230E-02
 -1        97 8.80230E-02
 -1        98 8.80230E-02
 -1        99 8.80230E-02
 -1       100 8.80230E-02
 -1       101 8.80230E-02
 -1       102 8.80230E-02
 -1       103 8.80230E-02
 -1       104 8.80230E-02
 -1       105 8.84132E-02
 -1       106 8.84132E-02
 -1       107 8.81818E-02
 -1       108 8.77501E-02
 -1       109 8.72520E-02
 -1       110 8.67359E-02
 -1       111 8.62194E-02
 -1       112 8.57087E-02
 -1       113 8.52048E-02
 -1       114 8.47066E-02
 -1       115 8.42741E-02
 -1       116 8.39180E-02
 -1       117 8.35671E-02
 -1       118 8.32225E-02
 -1       119 8.28834E-02
 -1       120 8.25444E-02
 -1       121 8.21894E-02
 -1       122 8.17748E-02
 -1       123 8.11785E-02
 -1       124 8.00177E-02
 -1       125 8.00177E-02
 -1       126 8.00177E-02
 -1       127 8.00177E-02
 -1       128 8.00177E-02
 -1       129 8.00177E-02
 -1       130 8.00177E-02
 -1       131 8.00177E-02
 -1       132 8.00177E-02
 -1       133 8.00177E-02
 -1       134 8.00177E-02
 -1       135 8.00178E-02
 -1       136 8.00178E-02
 -1       137 8.00178E-02
 -1       138 8.00178E-02
 -1       139 8.00178E-02
 -1       140 8.00178E-02
 -1       141 8.00178E-02
 -1       142 8.00178E-02
 -1       143 8.00178E-02
 -1       144 8.00177E-02
 -1       145 8.00177E-02
 -1       146 8.00177E-02
 -1       147 8.00177E-02
 -1       148 8.00177E-02
 -1       149 8.00177E-02
 -1       150 8.00177E-02
 -1       151 8.00177E-02
 -1       152 8.00177E-02
 -1       153 8.11785E-02
 -1       154 8.17748E-02
 -1       155 8.21894E-02
 -1       156 8.25444E-02
 -1       157 8.28834E-02
 -1       158 8.32225E-02
 -1       159 8.35671E-02
 -1       160 8.39180E-02
 -1       161 8.42741E-02
 -1       162 8.47066E-02
 -1       163 8.52048E-02
 -1       164 8.57087E-02
 -1       165 8.62194E-02
 -1       166 8.67359E-02
 -1       167 8.72520E-02
 -1       168 8.77501E-02
 -1       169 8.81818E-02
 -1       170 8.84132E-02
 -1       171 8.84132E-02
 -1       172 8.80230E-02
 -1       173 8.80230E-02
 -1       174 8.80230E-02
 -1       175 8.80230E-02
 -1       176 8.80230E-02
 -1       177 8.80230E-02
 -1       178 8.80230E-02
 -1       179 8.80230E-02
 -1       180 8.80230E-02
 -1       181 8.80230E-02
 -1       182 8.80230E-02
 -1       183 8.80230E-02
 -1       184 8.80230E-02
 -1       185 8.80230E-02
 -1       186 8.80230E-02
 -1       187 8.80230E-02
 -1       188 8.80230E-02
 -1       189 8.80230E-02
 -1       190 8.80230E-02
 -1       191 8.80230E-02
 -1       192 8.80230E-02
 -1       193 8.80230E-02
 -1       194 8.80230E-02
 -1       195 8.80230E-02
 -1       196 8.80230E-02
 -1       197 8.80230E-02
 -1       198 8.80230E-02
 -1       199 8.80230E-02
 -1       200 8.80230E-02
 -1       201 8.86156E-02
 -1       202 8.86340E-02
 -1       203 8.86340E-02
 -1       204 8.86115E-02
 -1       205 8.86102E-02
 -1       206 8.86102E-02
 -1       207 8.86115E-02
 -1       208 8.86340E-02
 -1       209 8.86340E-02
 -1       210 8.86156E-02
 -1       211 8.05134E-02
 -1       212 8.05233E-02
 -1       213 8.05233E-02
 -1       214 8.04895E-02
 -1       215 8.04874E-02
 -1       216 8.04874E-02
 -1       217 8.04895E-02
 -1       218 8.05233E-02
 -1       219 8.05233E-02
 -1       220 8.05134E-02
 -1       221 8.05134E-02
 -1       222 8.05233E-02
 -1       223 8.05233E-02
 -1       224 8.04895E-02
 -1       225 8.04874E-02
 -1       226 8.04874E-02
 -1       227 8.04895E-02
 -1       228 8.05233E-02
 -1       229 8.05233E-02
 -1       230 8.05134E-02
 -1       231 8.86156E-02
 -1       232 8.86340E-02
 -1       233 8.86340E-02
 -1       234 8.86115E-02
 -1       235 8.86102E-02
 -1       236 8.86102E-02
 -1       237 8.86115E-02
 -1       238 8.86340E-02
 -1       239 8.86340E-02
 -1       240 8.86156E-02
 -1       241 8.84132E-02
 -1       242 8.84132E-02
 -1       243 8.84132E-02
 -1       244 8.84132E-02
 -1       245 8.84132E-02
 -1       246 8.84132E-02
 -1       247 8.84132E-02
 -1       248 8.84132E-02
 -1       249 8.84132E-02
 -1       250 8.84132E-02
 -1       251 8.84132E-02
 -1       252 8.84132E-02
 -1       253 8.84132E-02
 -1       254 8.84132E-02
 -1       255 8.84132E-02
 -1       256 8.84132E-02
 -1       257 8.84132E-02
 -1       258 8.84132E-02
 -1       259 8.84132E-02
 -1       260 8.84132E-02
 -1       261 8.84132E-02
 -1       262 8.84132E-02
 -1       263 8.84132E-02
 -1       264 8.84132E-02
 -1       265 8.84132E-02
 -1       266 8.84132E-02
 -1       267 8.84132E-02
 -1       268 8.84132E-02
 -1       269 8.84132E-02
 -1       270 8.84132E-02
 -1       271 8.84132E-02
 -1       272 8.84132E-02
 -1       273 8.84132E-02
 -1       274 8.84132E-02
 -1       275 8.84132E-02
 -1       276 8.84132E-02
 -1       277 8.84132E-02
 -1       278 8.84132E-02
 -1       279 8.84132E-02
 -1       280 8.84132E-02
 -1       281 8.84132E-02
 -1       282 8.84132E-02
 -1       283 8.84132E-02
 -1       284 8.84132E-02
 -1       285 8.84132E-02
 -1       286 8.84132E-02
 -1       287 8.84132E-02
 -1       288 8.84132E-02
 -1       289 8.84132E-02
 -1       290 8.84132E-02
 -1       291 8.84132E-02
 -1       292 8.84132E-02
 -1       293 8.84132E-02
 -1       294 8.84132E-02
 -1       295 8.84132E-02
 -1       296 8.84132E-02
 -1       297 8.84132E-02
 -1       298 8.84132E-02
 -1       299 8.81818E-02
 -1       300 8.81818E-02
 -1       301 8.81818E-02
 -1       302 8.81818E-02
 -1       303 8.81818E-02
 -1       304 8.81818E-02
 -1       305 8.81819E-02
 -1       306 8.81819E-02
 -1       307 8.81819E-02
 -1       308 8.81819E-02
 -1       309 8.81819E-02
 -1       310 8.81819E-02
 -1       311 8.81819E-02
 -1       312 8.81819E-02
 -1       313 8.81819E-02
 -1       314 8.81819E-02
 -1       315 8.81819E-02
 -1       316 8.81819E-02
 -1       317 8.81819E-02
 -1       318 8.81819E-02
 -1       319 8.81819E-02
 -1       320 8.81819E-02
 -1       321 8.81819E-02
 -1       322 8.81819E-02
 -1       323 8.81818E-02
 -1       324 8.81818E-02
 -1       325 8.81818E-02
 -1       326 8.81818E-02
 -1       327 8.81818E-02
 -1       328 8.77501E-02
 -1       329 8.77501E-02
 -1       330 8.77501E-02
 -1       331 8.77501E-02
 -1       332 8.77501E-02
 -1       333 8.77501E-02
 -1       334 8.77501E-02
 -1       335 8.77501E-02
 -1       336 8.77501E-02
 -1       337 8.77501E-02
 -1       338 8.77501E-02
 -1       339 8.77501E-02
 -1       340 8.77501E-02
 -1       341 8.77502E-02
 -1       342 8.77502E-02
 -1       343 8.77502E-02
 -1       344 8.77501E-02
 -1       345 8.77501E-02
 -1       346 8.77501E-02
 -1       347 8.77501E-02
 -1       348 8.77501E-02
 -1       349 8.77501E-02
 -1       350 8.77501E-02
 -1       351 8.77501E-02
 -1       352 8.77501E-02
 -1       353 8.77501E-02
 -1       354 8.77501E-02
 -1       355 8.77501E-02
 -1       356 8.77501E-02
 -1       357 8.72521E-02
 -1       358 8.72521E-02
 -1       359 8.72521E-02
 -1       360 8.72521E-02
 -1       361 8.72521E-02
 -1       362 8.72521E-02
 -1       363 8.72521E-02
 -1       364 8.72521E-02
 -1       365 8.72521E-02
 -1       366 8.72521E-02
 -1       367 8.72521E-02
 -1       368 8.72521E-02
 -1       369 8.72521E-02
 -1       370 8.72521E-02
 -1       371 8.72521E-02
 -1       372 8.72521E-02
 -1       373 8.72521E-02
 -1       374 8.72521E-02
 -1       375 8.72521E-02
 -1       376 8.72521E-02
 -1       377 8.72521E-02
 -1       378 8.72521E-02
 -1       379 8.72521E-02
 -1       380 8.72521E-02
 -1       381 8.72521E-02
 -1       382 8.72521E-02
 -1       383 8.72521E-02
 -1       384 8.72521E-02
 -1       385 8.72521E-02
 -1       386 8.67359E-02
 -1       387 8.67359E-02
 -1       388 8.67359E-02
 -1       389 8.67359E-02
 -1       390 8.67359E-02
 -1       391 8.67359E-02
 -1       392 8.67359E-02
 -1       393 8.67359E-02
 -1       394 8.67359E-02
 -1       395 8.67359E-02
 -1       396 8.67359E-02
 -1       397 8.67359E-02
 -1       398 8.67359E-02
 -1       399 8.67359E-02
 -1       400 8.67359E-02
 -1       401 8.67359E-02
 -1       402 8.67359E-02
 -1       403 8.67359E-02
 -1       404 8.67359E-02
 -1       405 8.67359E-02
 -1       406 8.67359E-02
 -1       407 8.67359E-02
 -1       408 8.67359E-02
 -1       409 8.67359E-02
 -1       410 8.67359E-02
 -1       411 8.67359E-02
 -1       412 8.67359E-02
 -1       413 8.67359E-02
 -1       414 8.67359E-02
 -1       415 8.62194E-02
 -1       416 8.62194E-02
 -1       417 8.62194E-02
 -1       418 8.62194E-02
 -1       419 8.62194E-02
 -1       420 8.62194E-02
 -1       421 8.62194E-02
 -1       422 8.62194E-02
 -1       423 8.62195E-02
 -1       424 8.62195E-02
 -1       425 8.62195E-02
 -1       426 8.62195E-02
 -1       427 8.62195E-02
 -1       428 8.62195E-02
 -1       429 8.62195E-02
 -1       430 8.62195E-02
 -1       431 8.62195E-02
 -1       432 8.62195E-02
 -1       433 8.62195E-02
 -1       434 8.62195E-02
 -1       435 8.62195E-02
 -1       436 8.62195E-02
 -1       437 8.62194E-02
 -1       438 8.62194E-02
 -1       439 8.62194E-02
 -1       440 8.62194E-02
 -1       441 8.62194E-02
 -1       442 8.62194E-02
 -1       443 8.62194E-02
 -1       444 8.57087E-02
 -1       445 8.57087E-02
 -1       446 8.57087E-02
 -1       447 8.57087E-02
 -1       448 8.57087E-02
 -1       449 8.57087E-02
 -1       450 8.57087E-02
 -1       451 8.57087E-02
 -1       452 8.57087E-02
 -1       453 8.57087E-02
 -1       454 8.57087E-02
 -1       455 8.57087E-02
 -1       456 8.57088E-02
 -1       457 8.57088E-02
 -1       458 8.57088E-02
 -1       459 8.57088E-02
 -1       460 8.57088E-02
 -1       461 8.57088E-02
 -1       462 8.57087E-02
 -1       463 8.57087E-02
 -1       464 8.57087E-02
 -1       465 8.57087E-02
 -1       466 8.57087E-02
 -1       467 8.57087E-02
 -1       468 8.57087E-02
 -1       469 8.57087E-02
 -1       470 8.57087E-02
 -1       471 8.57087E-02
 -1       472 8.57087E-02
 -1       473 8.52048E-02
 -1       474 8.52048E-02
 -1       475 8.52048E-02
 -1       476 8.52048E-02
 -1       477 8.52048E-02
 -1       478 8.52048E-02
 -1       479 8.52048E-02
 -1       480 8.52048E-02
 -1       481 8.52048E-02
 -1       482 8.52048E-02
 -1       483 8.52048E-02
 -1       484 8.52048E-02
 -1       485 8.52048E-02
 -1       486 8.52048E-02
 -1       487 8.52048E-02
 -1       488 8.52048E-02
 -1       489 8.52048E-02
 -1       490 8.52048E-02
 -1       491 8.52048E-02
 -1       492 8.52048E-02
 -1       493 8.52048E-02
 -1       494 8.52048E-02
 -1       495 8.52048E-02
 -1       496 8.52048E-02
 -1       497 8.52048E-02
 -1       498 8.52048E-02
 -1       499 8.52048E-02
 -1       500 8.52048E-02
 -1       501 8.52048E-02
 -1       502 8.47066E-02
 -1       503 8.47066E-02
 -1       504 8.47066E-02
 -1       505 8.47066E-02
 -1       506 8.47066E-02
 -1       507 8.47066E-02
 -1       508 8.47066E-02
 -1       509 8.47066E-02
 -1       510 8.47066E-02
 -1       511 8.47066E-02
 -1       512 8.47066E-02
 -1       513 8.47066E-02
 -1       514 8.47066E-02
 -1       515 8.47066E-02
 -1       516 8.47066E-02
 -1       517 8.47066E-02
 -1       518 8.47066E-02
 -1       519 8.47066E-02
 -1       520 8.47066E-02
 -1       521 8.47066E-02
 -1       522 8.47066E-02
 -1       523 8.47066E-02
 -1       524 8.47066E-02
 -1       525 8.47066E-02
 -1       526 8.47066E-02
 -1       527 8.47066E-02
 -1       528 8.47066E-02
 -1       529 8.47066E-02
 -1       530 8.47066E-02
 -1       531 8.42741E-02
 -1       532 8.42741E-02
 -1       533 8.42741E-02
 -1       534 8.42741E-02
 -1       535 8.42741E-02
 -1       536 8.42741E-02
 -1       537 8.42741E-02
 -1       538 8.42741E-02
 -1       539 8.42741E-02
 -1       540 8.42741E-02
 -1       541 8.42741E-02
 -1       542 8.42741E-02
 -1       543 8.42741E-02
 -1       544 8.42741E-02
 -1       545 8.42741E-02
 -1       546 8.42741E-02
 -1       547 8.42741E-02
 -1       548 8.42741E-02
 -1       549 8.42741E-02
 -1       550 8.42741E-02
 -1       551 8.42741E-02
 -1       552 8.42741E-02
 -1       553 8.42741E-02
 -1       554 8.42741E-02
 -1       555 8.42741E-02
 -1       556 8.42741E-02
 -1       557 8.42741E-02
 -1       558 8.42741E-02
 -1       559 8.42741E-02
 -1       560 8.39180E-02
 -1       561 8.39180E-02
 -1       562 8.39180E-02
 -1       563 8.39180E-02
 -1       564 8.39180E-02
 -1       565 8.39180E-02
 -1       566 8.39180E-02
 -1       567 8.39180E-02
 -1       568 8.39180E-02
 -1       569 8.39180E-02
 -1       570 8.39180E-02
 -1       571 8.39180E-02
 -1       572 8.39180E-02
 -1       573 8.39180E-02
 -1       574 8.39180E-02
 -1       575 8.39180E-02
 -1       576 8.39180E-02
 -1       577 8.39180E-02
 -1       578 8.39180E-02
 -1       579 8.39180E-02
 -1       580 8.39180E-02
 -1       581 8.39180E-02
 -1       582 8.39180E-02
 -1       583 8.39180E-02
 -1       584 8.39180E-02
 -1       585 8.39180E-02
 -1       586 8.39180E-02
 -1       587 8.39180E-02
 -1       588 8.39180E-02
 -1       589 8.35671E-02
 -1       590 8.35671E-02
 -1       591 8.35671E-02
 -1       592 8.35671E-02
 -1       593 8.35671E-02
 -1       594 8.35671E-02
 -1       595 8.35671E-02
 -1       596 8.35671E-02
 -1       597 8.35671E-02
 -1       598 8.35671E-02
 -1       599 8.35671E-02
 -1       600 8.35671E-02
 -1       601 8.35671E-02
 -1       602 8.35671E-02
 -1       603 8.35671E-02
 -1       604 8.35671E-02
 -1       605 8.35671E-02
 -1       606 8.35671E-02
 -1       607 8.35671E-02
 -1       608 8.35671E-02
 -1       609 8.35671E-02
 -1       610 8.35671E-02
 -1       611 8.35671E-02
 -1       612 8.35671E-02
 -1       613 8.35671E-02
 -1       614 8.35671E-02
 -1       615 8.35671E-02
 -1       616 8.35671E-02
 -1       617 8.35671E-02
 -1       618 8.32225E-02
 -1       619 8.32225E-02
 -1       620 8.32225E-02
 -1       621 8.32225E-02
 -1       622 8.32225E-02
 -1       623 8.32225E-02
 -1       624 8.32225E-02
 -1       625 8.32225E-02
 -1       626 8.32225E-02
 -1       627 8.32225E-02
 -1       628 8.32225E-02
 -1       629 8.32225E-02
 -1       630 8.32225E-02
 -1       631 8.32225E-02
 -1       632 8.32225E-02
 -1       633 8.32225E-02
 -1       634 8.32225E-02
 -1       635 8.32225E-02
 -1       636 8.32225E-02
 -1       637 8.32225E-02
 -1       638 8.32225E-02
 -1       639 8.32225E-02
 -1       640 8.32225E-02
 -1       641 8.32225E-02
 -1       642 8.32225E-02
 -1       643 8.32225E-02
 -1       644 8.32225E-02
 -1       645 8.32225E-02
 -1       646 8.32225E-02
 -1       647 8.28834E-02
 -1       648 8.28834E-02
 -1       649 8.28834E-02
 -1       650 8.28834E-02
 -1       651 8.28834E-02
 -1       652 8.28834E-02
 -1       653 8.28834E-02
 -1       654 8.28834E-02
 -1       655 8.28834E-02
 -1       656 8.28834E-02
 -1       657 8.28834E-02
 -1       658 8.28834E-02
 -1       659 8.28834E-02
 -1       660 8.28834E-02
 -1       661 8.28834E-02
 -1       662 8.28834E-02
 -1       663 8.28834E-02
 -1       664 8.28834E-02
 -1       665 8.28834E-02
 -1       666 8.28834E-02
 -1       667 8.28834E-02
 -1       668 8.28834E-02
 -1       669 8.28834E-02
 -1       670 8.28834E-02
 -1       671 8.28834E-02
 -1       672 8.28834E-02
 -1       673 8.28834E-02
 -1       674 8.28834E-02
 -1       675 8.28834E-02
 -1       676 8.25444E-02
 -1       677 8.25444E-02
 -1       678 8.25444E-02
 -1       679 8.25444E-02
 -1       680 8.25444E-02
 -1       681 8.25444E-02
 -1       682 8.25444E-02
 -1       683 8.25444E-02
 -1       684 8.25444E-02
 -1       685 8.25444E-02
 -1       686 8.25444E-02
 -1       687 8.25444E-02
 -1       688 8.25444E-02
 -1       689 8.25444E-02
 -1       690 8.25444E-02
 -1       691 8.25444E-02
 -1       692 8.25444E-02
 -1       693 8.25444E-02
 -1       694 8.25444E-02
 -1       695 8.25444E-02
 -1       696 8.25444E-02
 -1       697 8.25444E-02
 -1       698 8.25444E-02
 -1       699 8.25444E-02
 -1       700 8.25444E-02
 -1       701 8.25444E-02
 -1       702 8.25444E-02
 -1       703 8.25444E-02
 -1       704 8.25444E-02
 -1       705 8.21894E-02
 -1       706 8.21894E-02
 -1       707 8.21894E-02
 -1       708 8.21894E-02
 -1       709 8.21894E-02
 -1       710 8.21894E-02
 -1       711 8.21895E-02
 -1       712 8.21895E-02
 -1       713 8.21895E-02
 -1       714 8.21895E-02
 -1       715 8.21895E-02
 -1       716 8.21895E-02
 -1       717 8.21895E-02
 -1       718 8.21895E-02
 -1       719 8.21895E-02
 -1       720 8.21895E-02
 -1       721 8.21895E-02
 -1       722 8.21895E-02
 -1       723 8.21895E-02
 -1       724 8.21895E-02
 -1       725 8.21895E-02
 -1       726 8.21895E-02
 -1       727 8.21895E-02
 -1       728 8.21894E-02
 -1       729 8.21894E-02
 -1       730 8.21894E-02
 -1       731 8.21894E-02
 -1       732 8.21894E-02
 -1       733 8.21894E-02
 -1       734 8.17748E-02
 -1       735 8.17748E-02
 -1       736 8.17748E-02
 -1       737 8.17748E-02
 -1       738 8.17748E-02
 -1       739 8.17748E-02
 -1       740 8.17748E-02
 -1       741 8.17748E-02
 -1       742 8.17748E-02
 -1       743 8.17748E-02
 -1       744 8.17748E-02
 -1       745 8.17748E-02
 -1       746 8.17748E-02
 -1       747 8.17748E-02
 -1       748 8.17748E-02
 -1       749 8.17748E-02
 -1       750 8.17748E-02
 -1       751 8.17748E-02
 -1       752 8.17748E-02
 -1       753 8.17748E-02
 -1       754 8.17748E-02
 -1       755 8.17748E-02
 -1       756 8.17748E-02
 -1       757 8.17748E-02
 -1       758 8.17748E-02
 -1       759 8.17748E-02
 -1       760 8.17748E-02
 -1       761 8.17748E-02
 -1       762 8.17748E-02
 -1       763 8.11785E-02
 -1       764 8.11785E-02
 -1       765 8.11785E-02
 -1       766 8.11785E-02
 -1       767 8.11785E-02
 -1       768 8.11786E-02
 -1       769 8.11786E-02
 -1       770 8.11786E-02
 -1       771 8.11786E-02
 -1       772 8.11786E-02
 -1       773 8.11786E-02
 -1       774 8.11786E-02
 -1       775 8.11786E-02
 -1       776 8.11786E-02
 -1       777 8.11786E-02
 -1       778 8.11786E-02
 -1       779 8.11786E-02
 -1       780 8.11786E-02
 -1       781 8.11786E-02
 -1       782 8.11786E-02
 -1       783 8.11786E-02
 -1       784 8.11786E-02
 -1       785 8.11786E-02
 -1       786 8.11786E-02
 -1       787 8.11786E-02
 -1       788 8.11785E-02
 -1       789 8.11785E-02
 -1       790 8.11785E-02
 -1       791 8.11785E-02
 -1       792 8.86156E-02
 -1       793 8.86340E-02
 -1       794 8.86340E-02
 -1       795 8.86115E-02
 -1       796 8.86102E-02
 -1       797 8.86102E-02
 -1       798 8.86115E-02
 -1       799 8.86340E-02
 -1       800 8.86340E-02
 -1       801 8.86156E-02
 -1       802 8.84132E-02
 -1       803 8.82280E-02
 -1       804 8.81915E-02
 -1       805 8.81625E-02
 -1       806 8.81568E-02
 -1       807 8.81568E-02
 -1       808 8.81625E-02
 -1       809 8.81915E-02
 -1       810 8.82280E-02
 -1       811 8.84132E-02
 -1       812 8.81818E-02
 -1       813 8.78276E-02
 -1       814 8.77081E-02
 -1       815 8.77093E-02
 -1       816 8.77093E-02
 -1       817 8.77093E-02
 -1       818 8.77093E-02
 -1       819 8.77081E-02
 -1       820 8.78276E-02
 -1       821 8.81818E-02
 -1       822 8.77501E-02
 -1       823 8.73713E-02
 -1       824 8.72966E-02
 -1       825 8.72653E-02
 -1       826 8.72631E-02
 -1       827 8.72631E-02
 -1       828 8.72653E-02
 -1       829 8.72966E-02
 -1       830 8.73713E-02
 -1       831 8.77501E-02
 -1       832 8.72520E-02
 -1       833 8.69017E-02
 -1       834 8.68780E-02
 -1       835 8.68305E-02
 -1       836 8.68197E-02
 -1       837 8.68197E-02
 -1       838 8.68305E-02
 -1       839 8.68780E-02
 -1       840 8.69017E-02
 -1       841 8.72520E-02
 -1       842 8.67359E-02
 -1       843 8.64466E-02
 -1       844 8.64466E-02
 -1       845 8.63976E-02
 -1       846 8.63797E-02
 -1       847 8.63797E-02
 -1       848 8.63976E-02
 -1       849 8.64466E-02
 -1       850 8.64466E-02
 -1       851 8.67359E-02
 -1       852 8.62194E-02
 -1       853 8.60074E-02
 -1       854 8.60074E-02
 -1       855 8.59639E-02
 -1       856 8.59425E-02
 -1       857 8.59425E-02
 -1       858 8.59639E-02
 -1       859 8.60074E-02
 -1       860 8.60074E-02
 -1       861 8.62194E-02
 -1       862 8.57087E-02
 -1       863 8.55647E-02
 -1       864 8.55647E-02
 -1       865 8.55288E-02
 -1       866 8.55075E-02
 -1       867 8.55075E-02
 -1       868 8.55288E-02
 -1       869 8.55647E-02
 -1       870 8.55647E-02
 -1       871 8.57087E-02
 -1       872 8.52048E-02
 -1       873 8.51208E-02
 -1       874 8.51208E-02
 -1       875 8.50925E-02
 -1       876 8.50744E-02
 -1       877 8.50744E-02
 -1       878 8.50925E-02
 -1       879 8.51208E-02
 -1       880 8.51208E-02
 -1       881 8.52048E-02
 -1       882 8.47066E-02
 -1       883 8.46820E-02
 -1       884 8.46771E-02
 -1       885 8.46560E-02
 -1       886 8.46430E-02
 -1       887 8.46430E-02
 -1       888 8.46560E-02
 -1       889 8.46771E-02
 -1       890 8.46820E-02
 -1       891 8.47066E-02
 -1       892 8.42741E-02
 -1       893 8.42576E-02
 -1       894 8.42338E-02
 -1       895 8.42203E-02
 -1       896 8.42138E-02
 -1       897 8.42138E-02
 -1       898 8.42203E-02
 -1       899 8.42338E-02
 -1       900 8.42576E-02
 -1       901 8.42741E-02
 -1       902 8.39180E-02
 -1       903 8.38331E-02
 -1       904 8.38158E-02
 -1       905 8.37926E-02
 -1       906 8.37873E-02
 -1       907 8.37873E-02
 -1       908 8.37926E-02
 -1       909 8.38158E-02
 -1       910 8.38331E-02
 -1       911 8.39180E-02
 -1       912 8.35671E-02
 -1       913 8.34054E-02
 -1       914 8.34054E-02
 -1       915 8.33755E-02
 -1       916 8.33640E-02
 -1       917 8.33640E-02
 -1       918 8.33755E-02
 -1       919 8.34054E-02
 -1       920 8.34054E-02
 -1       921 8.35671E-02
 -1       922 8.32225E-02
 -1       923 8.29940E-02
 -1       924 8.29940E-02
 -1       925 8.29575E-02
 -1       926 8.29444E-02
 -1       927 8.29444E-02
 -1       928 8.29575E-02
 -1       929 8.29940E-02
 -1       930 8.29940E-02
 -1       931 8.32225E-02
 -1       932 8.28834E-02
 -1       933 8.25794E-02
 -1       934 8.25794E-02
 -1       935 8.25381E-02
 -1       936 8.25284E-02
 -1       937 8.25284E-02
 -1       938 8.25381E-02
 -1       939 8.25794E-02
 -1       940 8.25794E-02
 -1       941 8.28834E-02
 -1       942 8.25444E-02
 -1       943 8.21755E-02
 -1       944 8.21579E-02
 -1       945 8.21179E-02
 -1       946 8.21154E-02
 -1       947 8.21154E-02
 -1       948 8.21179E-02
 -1       949 8.21579E-02
 -1       950 8.21755E-02
 -1       951 8.25444E-02
 -1       952 8.21894E-02
 -1       953 8.17870E-02
 -1       954 8.17250E-02
 -1       955 8.17042E-02
 -1       956 8.17042E-02
 -1       957 8.17042E-02
 -1       958 8.17042E-02
 -1       959 8.17250E-02
 -1       960 8.17870E-02
 -1       961 8.21894E-02
 -1       962 8.17748E-02
 -1       963 8.13876E-02
 -1       964 8.13015E-02
 -1       965 8.13015E-02
 -1       966 8.12945E-02
 -1       967 8.12945E-02
 -1       968 8.13015E-02
 -1       969 8.13015E-02
 -1       970 8.13876E-02
 -1       971 8.17748E-02
 -1       972 8.11785E-02
 -1       973 8.09389E-02
 -1       974 8.09372E-02
 -1       975 8.08912E-02
 -1       976 8.08912E-02
 -1       977 8.08912E-02
 -1       978 8.08912E-02
 -1       979 8.09372E-02
 -1       980 8.09389E-02
 -1       981 8.11785E-02
 -1       982 8.05134E-02
 -1       983 8.05233E-02
 -1       984 8.05233E-02
 -1       985 8.04895E-02
 -1       986 8.04874E-02
 -1       987 8.04874E-02
 -1       988 8.04895E-02
 -1       989 8.05233E-02
 -1       990 8.05233E-02
 -1       991 8.05134E-02
 -1       992 8.05134E-02
 -1       993 8.05233E-02
 -1       994 8.05233E-02
 -1       995 8.04895E-02
 -1       996 8.04874E-02
 -1       997 8.04874E-02
 -1       998 8.04895E-02
 -1       999 8.05233E-02
 -1      1000 8.05233E-02
 -1      1001 8.05134E-02
 -1      1002 8.05134E-02
 -1      1003 8.05233E-02
 -1      1004 8.05233E-02
 -1      1005 8.04895E-02
 -1      1006 8.04874E-02
 -1      1007 8.04874E-02
 -1      1008 8.04895E-02
 -1      1009 8.05233E-02
 -1      1010 8.05233E-02
 -1      1011 8.05134E-02
 -1      1012 8.05134E-02
 -1      1013 8.05233E-02
 -1      1014 8.05233E-02
 -1      1015 8.04895E-02
 -1      1016 8.04874E-02
 -1      1017 8.04874E-02
 -1      1018 8.04895E-02
 -1      1019 8.05233E-02
 -1      1020 8.05233E-02
 -1      1021 8.05134E-02
 -1      1022 8.05134E-02
 -1      1023 8.05233E-02
 -1      1024 8.05233E-02
 -1      1025 8.04895E-02
 -1      1026 8.04874E-02
 -1      1027 8.04874E-02
 -1      1028 8.04895E-02
 -1      1029 8.05233E-02
 -1      1030 8.05233E-02
 -1      1031 8.05134E-02
 -1      1032 8.05134E-02
 -1      1033 8.05233E-02
 -1      1034 8.05233E-02
 -1      1035 8.04895E-02
 -1      1036 8.04874E-02
 -1      1037 8.04874E-02
 -1      1038 8.04895E-02
 -1      1039 8.05233E-02
 -1      1040 8.05233E-02
 -1      1041 8.05134E-02
 -1      1042 8.05134E-02
 -1      1043 8.05233E-02
 -1      1044 8.05233E-02
 -1      1045 8.04895E-02
 -1      1046 8.04874E-02
 -1      1047 8.04874E-02
 -1      1048 8.04895E-02
 -1      1049 8.05233E-02
 -1      1050 8.05233E-02
 -1      1051 8.05134E-02
 -1      1052 8.05134E-02
 -1      1053 8.05233E-02
 -1      1054 8.05233E-02
 -1      1055 8.04895E-02
 -1      1056 8.04874E-02
 -1      1057 8.04874E-02
 -1      1058 8.04895E-02
 -1      1059 8.05233E-02
 -1      1060 8.05233E-02
 -1      1061 8.05134E-02
 -1      1062 8.05134E-02
 -1      1063 8.05233E-02
 -1      1064 8.05233E-02
 -1      1065 8.04895E-02
 -1      1066 8.04874E-02
 -1      1067 8.04874E-02
 -1      1068 8.04895E-02
 -1      1069 8.05233E-02
 -1      1070 8.05233E-02
 -1      1071 8.05134E-02
 -1      1072 8.05134E-02
 -1      1073 8.05234E-02
 -1      1074 8.05234E-02
 -1      1075 8.04895E-02
 -1      1076 8.04874E-02
 -1      1077 8.04874E-02
 -1      1078 8.04895E-02
 -1      1079 8.05234E-02
 -1      1080 8.05234E-02
 -1      1081 8.05134E-02
 -1      1082 8.05134E-02
 -1      1083 8.05234E-02
 -1      1084 8.05234E-02
 -1      1085 8.04895E-02
 -1      1086 8.04874E-02
 -1      1087 8.04874E-02
 -1      1088 8.04895E-02
 -1      1089 8.05234E-02
 -1      1090 8.05234E-02
 -1      1091 8.05134E-02
 -1      1092 8.05134E-02
 -1      1093 8.05234E-02
 -1      1094 8.05234E-02
 -1      1095 8.04896E-02
 -1      1096 8.04874E-02
 -1      1097 8.04874E-02
 -1      1098 8.04896E-02
 -1      1099 8.05234E-02
 -1      1100 8.05234E-02
 -1      1101 8.05134E-02
 -1      1102 8.05135E-02
 -1      1103 8.05234E-02
 -1      1104 8.05234E-02
 -1      1105 8.04896E-02
 -1      1106 8.04874E-02
 -1      1107 8.04874E-02
 -1      1108 8.04896E-02
 -1      1109 8.05234E-02
 -1      1110 8.05234E-02
 -1      1111 8.05135E-02
 -1      1112 8.05135E-02
 -1      1113 8.05234E-02
 -1      1114 8.05234E-02
 -1      1115 8.04896E-02
 -1      1116 8.04875E-02
 -1      1117 8.04875E-02
 -1      1118 8.04896E-02
 -1      1119 8.05234E-02
 -1      1120 8.05234E-02
 -1      1121 8.05135E-02
 -1      1122 8.05135E-02
 -1      1123 8.05234E-02
 -1      1124 8.05234E-02
 -1      1125 8.04896E-02
 -1      1126 8.04875E-02
 -1      1127 8.04875E-02
 -1      1128 8.04896E-02
 -1      1129 8.05234E-02
 -1      1130 8.05234E-02
 -1      1131 8.05135E-02
 -1      1132 8.05135E-02
 -1      1133 8.05234E-02
 -1      1134 8.05234E-02
 -1      1135 8.04896E-02
 -1      1136 8.04875E-02
 -1      1137 8.04875E-02
 -1      1138 8.04896E-02
 -1      1139 8.05234E-02
 -1      1140 8.05234E-02
 -1      1141 8.05135E-02
 -1      1142 8.05135E-02
 -1      1143 8.05234E-02
 -1      1144 8.05234E-02
 -1      1145 8.04896E-02
 -1      1146 8.04875E-02
 -1      1147 8.04875E-02
 -1      1148 8.04896E-02
 -1      1149 8.05234E-02
 -1      1150 8.05234E-02
 -1      1151 8.05135E-02
 -1      1152 8.05135E-02
 -1      1153 8.05234E-02
 -1      1154 8.05234E-02
 -1      1155 8.04896E-02
 -1      1156 8.04874E-02
 -1      1157 8.04874E-02
 -1      1158 8.04896E-02
 -1      1159 8.05234E-02
 -1      1160 8.05234E-02
 -1      1161 8.05135E-02
 -1      1162 8.05134E-02
 -1      1163 8.05234E-02
 -1      1164 8.05234E-02
 -1      1165 8.04896E-02
 -1      1166 8.04874E-02
 -1      1167 8.04874E-02
 -1      1168 8.04896E-02
 -1      1169 8.05234E-02
 -1      1170 8.05234E-02
 -1      1171 8.05134E-02
 -1      1172 8.05134E-02
 -1      1173 8.05234E-02
 -1      1174 8.05234E-02
 -1      1175 8.04896E-02
 -1      1176 8.04874E-02
 -1      1177 8.04874E-02
 -1      1178 8.04896E-02
 -1      1179 8.05234E-02
 -1      1180 8.05234E-02
 -1      1181 8.05134E-02
 -1      1182 8.05134E-02
 -1      1183 8.05234E-02
 -1      1184 8.05234E-02
 -1      1185 8.04895E-02
 -1      1186 8.04874E-02
 -1      1187 8.04874E-02
 -1      1188 8.04895E-02
 -1      1189 8.05234E-02
 -1      1190 8.05234E-02
 -1      1191 8.05134E-02
 -1      1192 8.05134E-02
 -1      1193 8.05234E-02
 -1      1194 8.05234E-02
 -1      1195 8.04895E-02
 -1      1196 8.04874E-02
 -1      1197 8.04874E-02
 -1      1198 8.04895E-02
 -1      1199 8.05234E-02
 -1      1200 8.05234E-02
 -1      1201 8.05134E-02
 -1      1202 8.05134E-02
 -1      1203 8.05233E-02
 -1      1204 8.05233E-02
 -1      1205 8.04895E-02
 -1      1206 8.04874E-02
 -1      1207 8.04874E-02
 -1      1208 8.04895E-02
 -1      1209 8.05233E-02
 -1      1210 8.05233E-02
 -1      1211 8.05134E-02
 -1      1212 8.05134E-02
 -1      1213 8.05233E-02
 -1      1214 8.05233E-02
 -1      1215 8.04895E-02
 -1      1216 8.04874E-02
 -1      1217 8.04874E-02
 -1      1218 8.04895E-02
 -1      1219 8.05233E-02
 -1      1220 8.05233E-02
 -1      1221 8.05134E-02
 -1      1222 8.05134E-02
 -1      1223 8.05233E-02
 -1      1224 8.05233E-02
 -1      1225 8.04895E-02
 -1      1226 8.04874E-02
 -1      1227 8.04874E-02
 -1      1228 8.04895E-02
 -1      1229 8.05233E-02
 -1      1230 8.05233E-02
 -1      1231 8.05134E-02
 -1      1232 8.05134E-02
 -1      1233 8.05233E-02
 -1      1234 8.05233E-02
 -1      1235 8.04895E-02
 -1      1236 8.04874E-02
 -1      1237 8.04874E-02
 -1      1238 8.04895E-02
 -1      1239 8.05233E-02
 -1      1240 8.05233E-02
 -1      1241 8.05134E-02
 -1      1242 8.05134E-02
 -1      1243 8.05233E-02
 -1      1244 8.05233E-02
 -1      1245 8.04895E-02
 -1      1246 8.04874E-02
 -1      1247 8.04874E-02
 -1      1248 8.04895E-02
 -1      1249 8.05233E-02
 -1      1250 8.05233E-02
 -1      1251 8.05134E-02
 -1      1252 8.05134E-02
 -1      1253 8.05233E-02
 -1      1254 8.05233E-02
 -1      1255 8.04895E-02
 -1      1256 8.04874E-02
 -1      1257 8.04874E-02
 -1      1258 8.04895E-02
 -1      1259 8.05233E-02
 -1      1260 8.05233E-02
 -1      1261 8.05134E-02
 -1      1262 8.05134E-02
 -1      1263 8.05233E-02
 -1      1264 8.05233E-02
 -1      1265 8.04895E-02
 -1      1266 8.04874E-02
 -1      1267 8.04874E-02
 -1      1268 8.04895E-02
 -1      1269 8.05233E-02
 -1      1270 8.05233E-02
 -1      1271 8.05134E-02
 -1      1272 8.11785E-02
 -1      1273 8.09389E-02
 -1      1274 8.09372E-02
 -1      1275 8.08912E-02
 -1      1276 8.08912E-02
 -1      1277 8.08912E-02
 -1      1278 8.08912E-02
 -1      1279 8.09372E-02
 -1      1280 8.09389E-02
 -1      1281 8.11785E-02
 -1      1282 8.17748E-02
 -1      1283 8.13876E-02
 -1      1284 8.13015E-02
 -1      1285 8.13015E-02
 -1      1286 8.12945E-02
 -1      1287 8.12945E-02
 -1      1288 8.13015E-02
 -1      1289 8.13015E-02
 -1      1290 8.13876E-02
 -1      1291 8.17748E-02
 -1      1292 8.21894E-02
 -1      1293 8.17870E-02
 -1      1294 8.17250E-02
 -1      1295 8.17042E-02
 -1      1296 8.17042E-02
 -1      1297 8.17042E-02
 -1      1298 8.17042E-02
 -1      1299 8.17250E-02
 -1      1300 8.17870E-02
 -1      1301 8.21894E-02
 -1      1302 8.25444E-02
 -1      1303 8.21755E-02
 -1      1304 8.21579E-02
 -1      1305 8.21179E-02
 -1      1306 8.21154E-02
 -1      1307 8.21154E-02
 -1      1308 8.21179E-02
 -1      1309 8.21579E-02
 -1      1310 8.21755E-02
 -1      1311 8.25444E-02
 -1      1312 8.28834E-02
 -1      1313 8.25794E-02
 -1      1314 8.25794E-02
 -1      1315 8.25381E-02
 -1      1316 8.25284E-02
 -1      1317 8.25284E-02
 -1      1318 8.25381E-02
 -1      1319 8.25794E-02
 -1      1320 8.25794E-02
 -1      1321 8.28834E-02
 -1      1322 8.32225E-02
 -1      1323 8.29940E-02
 -1      1324 8.29940E-02
 -1      1325 8.29575E-02
 -1      1326 8.29444E-02
 -1      1327 8.29444E-02
 -1      1328 8.29575E-02
 -1      1329 8.29940E-02
 -1      1330 8.29940E-02
 -1      1331 8.32225E-02
 -1      1332 8.35671E-02
 -1      1333 8.34054E-02
 -1      1334 8.34054E-02
 -1      1335 8.33755E-02
 -1      1336 8.33640E-02
 -1      1337 8.33640E-02
 -1      1338 8.33755E-02
 -1      1339 8.34054E-02
 -1      1340 8.34054E-02
 -1      1341 8.35671E-02
 -1      1342 8.39180E-02
 -1      1343 8.38331E-02
 -1      1344 8.38158E-02
 -1      1345 8.37926E-02
 -1      1346 8.37873E-02
 -1      1347 8.37873E-02
 -1      1348 8.37926E-02
 -1      1349 8.38158E-02
 -1      1350 8.38331E-02
 -1      1351 8.39180E-02
 -1      1352 8.42741E-02
 -1      1353 8.42576E-02
 -1      1354 8.42338E-02
 -1      1355 8.42203E-02
 -1      1356 8.42138E-02
 -1      1357 8.42138E-02
 -1      1358 8.42203E-02
 -1      1359 8.42338E-02
 -1      1360 8.42576E-02
 -1      1361 8.42741E-02
 -1      1362 8.47066E-02
 -1      1363 8.46820E-02
 -1      1364 8.46771E-02
 -1      1365 8.46560E-02
 -1      1366 8.46430E-02
 -1      1367 8.46430E-02
 -1      1368 8.46560E-02
 -1      1369 8.46771E-02
 -1      1370 8.46820E-02
 -1      1371 8.47066E-02
 -1      1372 8.52048E-02
 -1      1373 8.51208E-02
 -1      1374 8.51208E-02
 -1      1375 8.50925E-02
 -1      1376 8.50744E-02
 -1      1377 8.50744E-02
 -1      1378 8.50925E-02
 -1      1379 8.51208E-02
 -1      1380 8.51208E-02
 -1      1381 8.52048E-02
 -1      1382 8.57087E-02
 -1      1383 8.55647E-02
 -1      1384 8.55647E-02
 -1      1385 8.55288E-02
 -1      1386 8.55075E-02
 -1      1387 8.55075E-02
 -1      1388 8.55288E-02
 -1      1389 8.55647E-02
 -1      1390 8.55647E-02
 -1      1391 8.57087E-02
 -1      1392 8.62194E-02
 -1      1393 8.60074E-02
 -1      1394 8.60074E-02
 -1      1395 8.59639E-02
 -1      1396 8.59425E-02
 -1      1397 8.59425E-02
 -1      1398 8.59639E-02
 -1      1399 8.60074E-02
 -1      1400 8.60074E-02
 -1      1401 8.62194E-02
 -1      1402 8.67359E-02
 -1      1403 8.64466E-02
 -1      1404 8.64466E-02
 -1      1405 8.63976E-02
 -1      1406 8.63797E-02
 -1      1407 8.63797E-02
 -1      1408 8.63976E-02
 -1      1409 8.64466E-02
 -1      1410 8.64466E-02
 -1      1411 8.67359E-02
 -1      1412 8.72520E-02
 -1      1413 8.69017E-02
 -1      1414 8.68780E-02
 -1      1415 8.68305E-02
 -1      1416 8.68197E-02
 -1      1417 8.68197E-02
 -1      1418 8.68305E-02
 -1      1419 8.68780E-02
 -1      1420 8.69017E-02
 -1      1421 8.72520E-02
 -1      1422 8.77501E-02
 -1      1423 8.73713E-02
 -1      1424 8.72966E-02
 -1      1425 8.72653E-02
 -1      1426 8.72631E-02
 -1      1427 8.72631E-02
 -1      1428 8.72653E-02
 -1      1429 8.72966E-02
 -1      1430 8.73713E-02
 -1      1431 8.77501E-02
 -1      1432 8.81818E-02
 -1      1433 8.78276E-02
 -1      1434 8.77081E-02
 -1      1435 8.77093E-02
 -1      1436 8.77093E-02
 -1      1437 8.77093E-02
 -1      1438 8.77093E-02
 -1      1439 8.77081E-02
 -1      1440 8.78276E-02
 -1      1441 8.81818E-02
 -1      1442 8.84132E-02
 -1      1443 8.82280E-02
 -1      1444 8.81915E-02
 -1      1445 8.81625E-02
 -1      1446 8.81568E-02
 -1      1447 8.81568E-02
 -1      1448 8.81625E-02
 -1      1449 8.81915E-02
 -1      1450 8.82280E-02
 -1      1451 8.84132E-02
 -1      1452 8.86156E-02
 -1      1453 8.86340E-02
 -1      1454 8.86340E-02
 -1      1455 8.86115E-02
 -1      1456 8.86102E-02
 -1      1457 8.86102E-02
 -1      1458 8.86115E-02
 -1      1459 8.86340E-02
 -1      1460 8.86340E-02
 -1      1461 8.86156E-02
 -1      1462 8.86156E-02
 -1      1463 8.86340E-02
 -1      1464 8.86340E-02
 -1      1465 8.86115E-02
 -1      1466 8.86102E-02
 -1      1467 8.86102E-02
 -1      1468 8.86115E-02
 -1      1469 8.86340E-02
 -1      1470 8.86340E-02
 -1      1471 8.86156E-02
 -1      1472 8.86156E-02
 -1      1473 8.86340E-02
 -1      1474 8.86340E-02
 -1      1475 8.86115E-02
 -1      1476 8.86102E-02
 -1      1477 8.86102E-02
 -1      1478 8.86115E-02
 -1      1479 8.86340E-02
 -1      1480 8.86340E-02
 -1      1481 8.86156E-02
 -1      1482 8.86156E-02
 -1      1483 8.86340E-02
 -1      1484 8.86340E-02
 -1      1485 8.86115E-02
 -1      1486 8.86103E-02
 -1      1487 8.86103E-02
 -1      1488 8.86115E-02
 -1      1489 8.86340E-02
 -1      1490 8.86340E-02
 -1      1491 8.86156E-02
 -1      1492 8.86156E-02
 -1      1493 8.86340E-02
 -1      1494 8.86340E-02
 -1      1495 8.86115E-02
 -1      1496 8.86103E-02
 -1      1497 8.86103E-02
 -1      1498 8.86115E-02
 -1      1499 8.86340E-02
 -1      1500 8.86340E-02
 -1      1501 8.86156E-02
 -1      1502 8.86156E-02
 -1      1503 8.86340E-02
 -1      1504 8.86340E-02
 -1      1505 8.86115E-02
 -1      1506 8.86103E-02
 -1      1507 8.86103E-02
 -1      1508 8.86115E-02
 -1      1509 8.86340E-02
 -1      1510 8.86340E-02
 -1      1511 8.86156E-02
 -1      1512 8.86156E-02
 -1      1513 8.86340E-02
 -1      1514 8.86340E-02
 -1      1515 8.86115E-02
 -1      1516 8.86103E-02
 -1      1517 8.86103E-02
 -1      1518 8.86115E-02
 -1      1519 8.86340E-02
 -1      1520 8.86340E-02
 -1      1521 8.86156E-02
 -1      1522 8.86156E-02
 -1      1523 8.86340E-02
 -1      1524 8.86340E-02
 -1      1525 8.86115E-02
 -1      1526 8.86103E-02
 -1      1527 8.86103E-02
 -1      1528 8.86115E-02
 -1      1529 8.86340E-02
 -1      1530 8.86340E-02
 -1      1531 8.86156E-02
 -1      1532 8.86156E-02
 -1      1533 8.86340E-02
 -1      1534 8.86340E-02
 -1      1535 8.86115E-02
 -1      1536 8.86103E-02
 -1      1537 8.86103E-02
 -1      1538 8.86115E-02
 -1      1539 8.86340E-02
 -1      1540 8.86340E-02
 -1      1541 8.86156E-02
 -1      1542 8.86156E-02
 -1      1543 8.86340E-02
 -1      1544 8.86340E-02
 -1      1545 8.86115E-02
 -1      1546 8.86103E-02
 -1      1547 8.86103E-02
 -1      1548 8.86115E-02
 -1      1549 8.86340E-02
 -1      1550 8.86340E-02
 -1      1551 8.86156E-02
 -1      1552 8.86156E-02
 -1      1553 8.86340E-02
 -1      1554 8.86340E-02
 -1      1555 8.86115E-02
 -1      1556 8.86103E-02
 -1      1557 8.86103E-02
 -1      1558 8.86115E-02
 -1      1559 8.86340E-02
 -1      1560 8.86340E-02
 -1      1561 8.86156E-02
 -1      1562 8.86156E-02
 -1      1563 8.86340E-02
 -1      1564 8.86340E-02
 -1      1565 8.86115E-02
 -1      1566 8.86103E-02
 -1      1567 8.86103E-02
 -1      1568 8.86115E-02
 -1      1569 8.86340E-02
 -1      1570 8.86340E-02
 -1      1571 8.86156E-02
 -1      1572 8.86156E-02
 -1      1573 8.86340E-02
 -1      1574 8.86340E-02
 -1      1575 8.86115E-02
 -1      1576 8.86103E-02
 -1      1577 8.86103E-02
 -1      1578 8.86115E-02
 -1      1579 8.86340E-02
 -1      1580 8.86340E-02
 -1      1581 8.86156E-02
 -1      1582 8.86156E-02
 -1      1583 8.86340E-02
 -1      1584 8.86340E-02
 -1      1585 8.86116E-02
 -1      1586 8.86103E-02
 -1      1587 8.86103E-02
 -1      1588 8.86116E-02
 -1      1589 8.86340E-02
 -1      1590 8.86340E-02
 -1      1591 8.86156E-02
 -1      1592 8.86156E-02
 -1      1593 8.86340E-02
 -1      1594 8.86340E-02
 -1      1595 8.86116E-02
 -1      1596 8.86103E-02
 -1      1597 8.86103E-02
 -1      1598 8.86116E-02
 -1      1599 8.86340E-02
 -1      1600 8.86340E-02
 -1      1601 8.86156E-02
 -1      1602 8.86156E-02
 -1      1603 8.86340E-02
 -1      1604 8.86340E-02
 -1      1605 8.86116E-02
 -1      1606 8.86103E-02
 -1      1607 8.86103E-02
 -1      1608 8.86116E-02
 -1      1609 8.86340E-02
 -1      1610 8.86340E-02
 -1      1611 8.86156E-02
 -1      1612 8.86156E-02
 -1      1613 8.86340E-02
 -1      1614 8.86340E-02
 -1      1615 8.86116E-02
 -1      1616 8.86103E-02
 -1      1617 8.86103E-02
 -1      1618 8.86116E-02
 -1      1619 8.86340E-02
 -1      1620 8.86340E-02
 -1      1621 8.86156E-02
 -1      1622 8.86156E-02
 -1      1623 8.86340E-02
 -1      1624 8.86340E-02
 -1      1625 8.86115E-02
 -1      1626 8.86103E-02
 -1      1627 8.86103E-02
 -1      1628 8.86115E-02
 -1      1629 8.86340E-02
 -1      1630 8.86340E-02
 -1      1631 8.86156E-02
 -1      1632 8.86156E-02
 -1      1633 8.86340E-02
 -1      1634 8.86340E-02
 -1      1635 8.86115E-02
 -1      1636 8.86103E-02
 -1      1637 8.86103E-02
 -1      1638 8.86115E-02
 -1      1639 8.86340E-02
 -1      1640 8.86340E-02
 -1      1641 8.86156E-02
 -1      1642 8.86156E-02
 -1      1643 8.86340E-02
 -1      1644 8.86340E-02
 -1      1645 8.86115E-02
 -1      1646 8.86103E-02
 -1      1647 8.86103E-02
 -1      1648 8.86115E-02
 -1      1649 8.86340E-02
 -1      1650 8.86340E-02
 -1      1651 8.86156E-02
 -1      1652 8.86156E-02
 -1      1653 8.86340E-02
 -1      1654 8.86340E-02
 -1      1655 8.86115E-02
 -1      1656 8.86103E-02
 -1      1657 8.86103E-02
 -1      1658 8.86115E-02
 -1      1659 8.86340E-02
 -1      1660 8.86340E-02
 -1      1661 8.86156E-02
 -1      1662 8.86156E-02
 -1      1663 8.86340E-02
 -1      1664 8.86340E-02
 -1      1665 8.86115E-02
 -1      1666 8.86103E-02
 -1      1667 8.86103E-02
 -1      1668 8.86115E-02
 -1      1669 8.86340E-02
 -1      1670 8.86340E-02
 -1      1671 8.86156E-02
 -1      1672 8.86156E-02
 -1      1673 8.86340E-02
 -1      1674 8.86340E-02
 -1      1675 8.86115E-02
 -1      1676 8.86103E-02
 -1      1677 8.86103E-02
 -1      1678 8.86115E-02
 -1      1679 8.86340E-02
 -1      1680 8.86340E-02
 -1      1681 8.86156E-02
 -1      1682 8.86156E-02
 -1      1683 8.86340E-02
 -1      1684 8.86340E-02
 -1      1685 8.86115E-02
 -1      1686 8.86103E-02
 -1      1687 8.86103E-02
 -1      1688 8.86115E-02
 -1      1689 8.86340E-02
 -1      1690 8.86340E-02
 -1      1691 8.86156E-02
 -1      1692 8.86156E-02
 -1      1693 8.86340E-02
 -1      1694 8.86340E-02
 -1      1695 8.86115E-02
 -1      1696 8.86103E-02
 -1      1697 8.86103E-02
 -1      1698 8.86115E-02
 -1      1699 8.86340E-02
 -1      1700 8.86340E-02
 -1      1701 8.86156E-02
 -1      1702 8.86156E-02
 -1      1703 8.86340E-02
 -1      1704 8.86340E-02
 -1      1705 8.86115E-02
 -1      1706 8.86103E-02
 -1      1707 8.86103E-02
 -1      1708 8.86115E-02
 -1      1709 8.86340E-02
 -1      1710 8.86340E-02
 -1      1711 8.86156E-02
 -1      1712 8.86156E-02
 -1      1713 8.86340E-02
 -1      1714 8.86340E-02
 -1      1715 8.86115E-02
 -1      1716 8.86103E-02
 -1      1717 8.86103E-02
 -1      1718 8.86115E-02
 -1      1719 8.86340E-02
 -1      1720 8.86340E-02
 -1      1721 8.86156E-02
 -1      1722 8.86156E-02
 -1      1723 8.86340E-02
 -1      1724 8.86340E-02
 -1      1725 8.86115E-02
 -1      1726 8.86103E-02
 -1      1727 8.86103E-02
 -1      1728 8.86115E-02
 -1      1729 8.86340E-02
 -1      1730 8.86340E-02
 -1      1731 8.86156E-02
 -1      1732 8.86156E-02
 -1      1733 8.86340E-02
 -1      1734 8.86340E-02
 -1      1735 8.86115E-02
 -1      1736 8.86102E-02
 -1      1737 8.86102E-02
 -1      1738 8.86115E-02
 -1      1739 8.86340E-02
 -1      1740 8.86340E-02
 -1      1741 8.86156E-02
 -1      1742 8.86156E-02
 -1      1743 8.86340E-02
 -1      1744 8.86340E-02
 -1      1745 8.86115E-02
 -1      1746 8.86102E-02
 -1      1747 8.86102E-02
 -1      1748 8.86115E-02
 -1      1749 8.86340E-02
 -1      1750 8.86340E-02
 -1      1751 8.86156E-02
 -1      1752 8.84132E-02
 -1      1753 8.84132E-02
 -1      1754 8.84132E-02
 -1      1755 8.84132E-02
 -1      1756 8.84132E-02
 -1      1757 8.84132E-02
 -1      1758 8.84132E-02
 -1      1759 8.84132E-02
 -1      1760 8.84132E-02
 -1      1761 8.84132E-02
 -1      1762 8.84132E-02
 -1      1763 8.84132E-02
 -1      1764 8.84132E-02
 -1      1765 8.84132E-02
 -1      1766 8.84132E-02
 -1      1767 8.84132E-02
 -1      1768 8.84132E-02
 -1      1769 8.84132E-02
 -1      1770 8.84132E-02
 -1      1771 8.84132E-02
 -1      1772 8.84132E-02
 -1      1773 8.84132E-02
 -1      1774 8.84132E-02
 -1      1775 8.84132E-02
 -1      1776 8.84132E-02
 -1      1777 8.84132E-02
 -1      1778 8.84132E-02
 -1      1779 8.84132E-02
 -1      1780 8.84132E-02
 -1      1781 8.84132E-02
 -1      1782 8.84132E-02
 -1      1783 8.84132E-02
 -1      1784 8.84132E-02
 -1      1785 8.84132E-02
 -1      1786 8.84132E-02
 -1      1787 8.84132E-02
 -1      1788 8.84132E-02
 -1      1789 8.84132E-02
 -1      1790 8.84132E-02
 -1      1791 8.84132E-02
 -1      1792 8.84132E-02
 -1      1793 8.84132E-02
 -1      1794 8.84132E-02
 -1      1795 8.84132E-02
 -1      1796 8.84132E-02
 -1      1797 8.84132E-02
 -1      1798 8.84132E-02
 -1      1799 8.84132E-02
 -1      1800 8.84132E-02
 -1      1801 8.84132E-02
 -1      1802 8.84132E-02
 -1      1803 8.84132E-02
 -1      1804 8.84132E-02
 -1      1805 8.84132E-02
 -1      1806 8.84132E-02
 -1      1807 8.84132E-02
 -1      1808 8.84132E-02
 -1      1809 8.84132E-02
 -1      1810 8.81818E-02
 -1      1811 8.81818E-02
 -1      1812 8.81818E-02
 -1      1813 8.81818E-02
 -1      1814 8.81818E-02
 -1      1815 8.81818E-02
 -1      1816 8.81819E-02
 -1      1817 8.81819E-02
 -1      1818 8.81819E-02
 -1      1819 8.81819E-02
 -1      1820 8.81819E-02
 -1      1821 8.81819E-02
 -1      1822 8.81819E-02
 -1      1823 8.81819E-02
 -1      1824 8.81819E-02
 -1      1825 8.81819E-02
 -1      1826 8.81819E-02
 -1      1827 8.81819E-02
 -1      1828 8.81819E-02
 -1      1829 8.81819E-02
 -1      1830 8.81819E-02
 -1      1831 8.81819E-02
 -1      1832 8.81819E-02
 -1      1833 8.81819E-02
 -1      1834 8.81818E-02
 -1      1835 8.81818E-02
 -1      1836 8.81818E-02
 -1      1837 8.81818E-02
 -1      1838 8.81818E-02
 -1      1839 8.77501E-02
 -1      1840 8.77501E-02
 -1      1841 8.77501E-02
 -1      1842 8.77501E-02
 -1      1843 8.77501E-02
 -1      1844 8.77501E-02
 -1      1845 8.77501E-02
 -1      1846 8.77501E-02
 -1      1847 8.77501E-02
 -1      1848 8.77501E-02
 -1      1849 8.77501E-02
 -1      1850 8.77501E-02
 -1      1851 8.77501E-02
 -1      1852 8.77502E-02
 -1      1853 8.77502E-02
 -1      1854 8.77502E-02
 -1      1855 8.77501E-02
 -1      1856 8.77501E-02
 -1      1857 8.77501E-02
 -1      1858 8.77501E-02
 -1      1859 8.77501E-02
 -1      1860 8.77501E-02
 -1      1861 8.77501E-02
 -1      1862 8.77501E-02
 -1      1863 8.77501E-02
 -1      1864 8.77501E-02
 -1      1865 8.77501E-02
 -1      1866 8.77501E-02
 -1      1867 8.77501E-02
 -1      1868 8.72521E-02
 -1      1869 8.72521E-02
 -1      1870 8.72521E-02
 -1      1871 8.72521E-02
 -1      1872 8.72521E-02
 -1      1873 8.72521E-02
 -1      1874 8.72521E-02
 -1      1875 8.72521E-02
 -1      1876 8.72521E-02
 -1      1877 8.72521E-02
 -1      1878 8.72521E-02
 -1      1879 8.72521E-02
 -1      1880 8.72521E-02
 -1      1881 8.72521E-02
 -1      1882 8.72521E-02
 -1      1883 8.72521E-02
 -1      1884 8.72521E-02
 -1      1885 8.72521E-02
 -1      1886 8.72521E-02
 -1      1887 8.72521E-02
 -1      1888 8.72521E-02
 -1      1889 8.72521E-02
 -1      1890 8.72521E-02
 -1      1891 8.72521E-02
 -1      1892 8.72521E-02
 -1      1893 8.72521E-02
 -1      1894 8.72521E-02
 -1      1895 8.72521E-02
 -1      1896 8.72521E-02
 -1      1897 8.67359E-02
 -1      1898 8.67359E-02
 -1      1899 8.67359E-02
 -1      1900 8.67359E-02
 -1      1901 8.67359E-02
 -1      1902 8.67359E-02
 -1      1903 8.67359E-02
 -1      1904 8.67359E-02
 -1      1905 8.67359E-02
 -1      1906 8.67359E-02
 -1      1907 8.67359E-02
 -1      1908 8.67359E-02
 -1      1909 8.67359E-02
 -1      1910 8.67359E-02
 -1      1911 8.67359E-02
 -1      1912 8.67359E-02
 -1      1913 8.67359E-02
 -1      1914 8.67359E-02
 -1      1915 8.67359E-02
 -1      1916 8.67359E-02
 -1      1917 8.67359E-02
 -1      1918 8.67359E-02
 -1      1919 8.67359E-02
 -1      1920 8.67359E-02
 -1      1921 8.67359E-02
 -1      1922 8.67359E-02
 -1      1923 8.67359E-02
 -1      1924 8.67359E-02
 -1      1925 8.67359E-02
 -1      1926 8.62194E-02
 -1      1927 8.62194E-02
 -1      1928 8.62194E-02
 -1      1929 8.62194E-02
 -1      1930 8.62194E-02
 -1      1931 8.62194E-02
 -1      1932 8.62194E-02
 -1      1933 8.62194E-02
 -1      1934 8.62195E-02
 -1      1935 8.62195E-02
 -1      1936 8.62195E-02
 -1      1937 8.62195E-02
 -1      1938 8.62195E-02
 -1      1939 8.62195E-02
 -1      1940 8.62195E-02
 -1      1941 8.62195E-02
 -1      1942 8.62195E-02
 -1      1943 8.62195E-02
 -1      1944 8.62195E-02
 -1      1945 8.62195E-02
 -1      1946 8.62195E-02
 -1      1947 8.62195E-02
 -1      1948 8.62194E-02
 -1      1949 8.62194E-02
 -1      1950 8.62194E-02
 -1      1951 8.62194E-02
 -1      1952 8.62194E-02
 -1      1953 8.62194E-02
 -1      1954 8.62194E-02
 -1      1955 8.57087E-02
 -1      1956 8.57087E-02
 -1      1957 8.57087E-02
 -1      1958 8.57087E-02
 -1      1959 8.57087E-02
 -1      1960 8.57087E-02
 -1      1961 8.57087E-02
 -1      1962 8.57087E-02
 -1      1963 8.57087E-02
 -1      1964 8.57087E-02
 -1      1965 8.57087E-02
 -1      1966 8.57087E-02
 -1      1967 8.57088E-02
 -1      1968 8.57088E-02
 -1      1969 8.57088E-02
 -1      1970 8.57088E-02
 -1      1971 8.57088E-02
 -1      1972 8.57088E-02
 -1      1973 8.57087E-02
 -1      1974 8.57087E-02
 -1      1975 8.57087E-02
 -1      1976 8.57087E-02
 -1      1977 8.57087E-02
 -1      1978 8.57087E-02
 -1      1979 8.57087E-02
 -1      1980 8.57087E-02
 -1      1981 8.57087E-02
 -1      1982 8.57087E-02
 -1      1983 8.57087E-02
 -1      1984 8.52048E-02
 -1      1985 8.52048E-02
 -1      1986 8.52048E-02
 -1      1987 8.52048E-02
 -1      1988 8.52048E-02
 -1      1989 8.52048E-02
 -1      1990 8.52048E-02
 -1      1991 8.52048E-02
 -1      1992 8.52048E-02
 -1      1993 8.52048E-02
 -1      1994 8.52048E-02
 -1      1995 8.52048E-02
 -1      1996 8.52048E-02
 -1      1997 8.52048E-02
 -1      1998 8.52048E-02
 -1      1999 8.52048E-02
 -1      2000 8.52048E-02
 -1      2001 8.52048E-02
 -1      2002 8.52048E-02
 -1      2003 8.52048E-02
 -1      2004 8.52048E-02
 -1      2005 8.52048E-02
 -1      2006 8.52048E-02
 -1      2007 8.52048E-02
 -1      2008 8.52048E-02
 -1      2009 8.52048E-02
 -1      2010 8.52048E-02
 -1      2011 8.52048E-02
 -1      2012 8.52048E-02
 -1      2013 8.47066E-02
 -1      2014 8.47066E-02
 -1      2015 8.47066E-02
 -1      2016 8.47066E-02
 -1      2017 8.47066E-02
 -1      2018 8.47066E-02
 -1      2019 8.47066E-02
 -1      2020 8.47066E-02
 -1      2021 8.47066E-02
 -1      2022 8.47066E-02
 -1      2023 8.47066E-02
 -1      2024 8.47066E-02
 -1      2025 8.47066E-02
 -1      2026 8.47066E-02
 -1      2027 8.47066E-02
 -1      2028 8.47066E-02
 -1      2029 8.47066E-02
 -1      2030 8.47066E-02
 -1      2031 8.47066E-02
 -1      2032 8.47066E-02
 -1      2033 8.47066E-02
 -1      2034 8.47066E-02
 -1      2035 8.47066E-02
 -1      2036 8.47066E-02
 -1      2037 8.47066E-02
 -1      2038 8.47066E-02
 -1      2039 8.47066E-02
 -1      2040 8.47066E-02
 -1      2041 8.47066E-02
 -1      2042 8.42741E-02
 -1      2043 8.42741E-02
 -1      2044 8.42741E-02
 -1      2045 8.42741E-02
 -1      2046 8.42741E-02
 -1      2047 8.42741E-02
 -1      2048 8.42741E-02
 -1      2049 8.42741E-02
 -1      2050 8.42741E-02
 -1      2051 8.42741E-02
 -1      2052 8.42741E-02
 -1      2053 8.42741E-02
 -1      2054 8.42741E-02
 -1      2055 8.42741E-02
 -1      2056 8.42741E-02
 -1      2057 8.42741E-02
 -1      2058 8.42741E-02
 -1      2059 8.42741E-02
 -1      2060 8.42741E-02
 -1      2061 8.42741E-02
 -1      2062 8.42741E-02
 -1      2063 8.42741E-02
 -1      2064 8.42741E-02
 -1      2065 8.42741E-02
 -1      2066 8.42741E-02
 -1      2067 8.42741E-02
 -1      2068 8.42741E-02
 -1      2069 8.42741E-02
 -1      2070 8.42741E-02
 -1      2071 8.39180E-02
 -1      2072 8.39180E-02
 -1      2073 8.39180E-02
 -1      2074 8.39180E-02
 -1      2075 8.39180E-02
 -1      2076 8.39180E-02
 -1      2077 8.39180E-02
 -1      2078 8.39180E-02
 -1      2079 8.39180E-02
 -1      2080 8.39180E-02
 -1      2081 8.39180E-02
 -1      2082 8.39180E-02
 -1      2083 8.39180E-02
 -1      2084 8.39180E-02
 -1      2085 8.39180E-02
 -1      2086 8.39180E-02
 -1      2087 8.39180E-02
 -1      2088 8.39180E-02
 -1      2089 8.39180E-02
 -1      2090 8.39180E-02
 -1      2091 8.39180E-02
 -1      2092 8.39180E-02
 -1      2093 8.39180E-02
 -1      2094 8.39180E-02
 -1      2095 8.39180E-02
 -1      2096 8.39180E-02
 -1      2097 8.39180E-02
 -1      2098 8.39180E-02
 -1      2099 8.39180E-02
 -1      2100 8.35671E-02
 -1      2101 8.35671E-02
 -1      2102 8.35671E-02
 -1      2103 8.35671E-02
 -1      2104 8.35671E-02
 -1      2105 8.35671E-02
 -1      2106 8.35671E-02
 -1      2107 8.35671E-02
 -1      2108 8.35671E-02
 -1      2109 8.35671E-02
 -1      2110 8.35671E-02
 -1      2111 8.35671E-02
 -1      2112 8.35671E-02
 -1      2113 8.35671E-02
 -1      2114 8.35671E-02
 -1      2115 8.35671E-02
 -1      2116 8.35671E-02
 -1      2117 8.35671E-02
 -1      2118 8.35671E-02
 -1      2119 8.35671E-02
 -1      2120 8.35671E-02
 -1      2121 8.35671E-02
 -1      2122 8.35671E-02
 -1      2123 8.35671E-02
 -1      2124 8.35671E-02
 -1      2125 8.35671E-02
 -1      2126 8.35671E-02
 -1      2127 8.35671E-02
 -1      2128 8.35671E-02
 -1      2129 8.32225E-02
 -1      2130 8.32225E-02
 -1      2131 8.32225E-02
 -1      2132 8.32225E-02
 -1      2133 8.32225E-02
 -1      2134 8.32225E-02
 -1      2135 8.32225E-02
 -1      2136 8.32225E-02
 -1      2137 8.32225E-02
 -1      2138 8.32225E-02
 -1      2139 8.32225E-02
 -1      2140 8.32225E-02
 -1      2141 8.32225E-02
 -1      2142 8.32225E-02
 -1      2143 8.32225E-02
 -1      2144 8.32225E-02
 -1      2145 8.32225E-02
 -1      2146 8.32225E-02
 -1      2147 8.32225E-02
 -1      2148 8.32225E-02
 -1      2149 8.32225E-02
 -1      2150 8.32225E-02
 -1      2151 8.32225E-02
 -1      2152 8.32225E-02
 -1      2153 8.32225E-02
 -1      2154 8.32225E-02
 -1      2155 8.32225E-02
 -1      2156 8.32225E-02
 -1      2157 8.32225E-02
 -1      2158 8.28834E-02
 -1      2159 8.28834E-02
 -1      2160 8.28834E-02
 -1      2161 8.28834E-02
 -1      2162 8.28834E-02
 -1      2163 8.28834E-02
 -1      2164 8.28834E-02
 -1      2165 8.28834E-02
 -1      2166 8.28834E-02
 -1      2167 8.28834E-02
 -1      2168 8.28834E-02
 -1      2169 8.28834E-02
 -1      2170 8.28834E-02
 -1      2171 8.28834E-02
 -1      2172 8.28834E-02
 -1      2173 8.28834E-02
 -1      2174 8.28834E-02
 -1      2175 8.28834E-02
 -1      2176 8.28834E-02
 -1      2177 8.28834E-02
 -1      2178 8.28834E-02
 -1      2179 8.28834E-02
 -1      2180 8.28834E-02
 -1      2181 8.28834E-02
 -1      2182 8.28834E-02
 -1      2183 8.28834E-02
 -1      2184 8.28834E-02
 -1      2185 8.28834E-02
 -1      2186 8.28834E-02
 -1      2187 8.25444E-02
 -1      2188 8.25444E-02
 -1      2189 8.25444E-02
 -1      2190 8.25444E-02
 -1      2191 8.25444E-02
 -1      2192 8.25444E-02
 -1      2193 8.25444E-02
 -1      2194 8.25444E-02
 -1      2195 8.25444E-02
 -1      2196 8.25444E-02
 -1      2197 8.25444E-02
 -1      2198 8.25444E-02
 -1      2199 8.25444E-02
 -1      2200 8.25444E-02
 -1      2201 8.25444E-02
 -1      2202 8.25444E-02
 -1      2203 8.25444E-02
 -1      2204 8.25444E-02
 -1      2205 8.25444E-02
 -1      2206 8.25444E-02
 -1      2207 8.25444E-02
 -1      2208 8.25444E-02
 -1      2209 8.25444E-02
 -1      2210 8.25444E-02
 -1      2211 8.25444E-02
 -1      2212 8.25444E-02
 -1      2213 8.25444E-02
 -1      2214 8.25444E-02
 -1      2215 8.25444E-02
 -1      2216 8.21894E-02
 -1      2217 8.21894E-02
 -1      2218 8.21894E-02
 -1      2219 8.21894E-02
 -1      2220 8.21894E-02
 -1      2221 8.21894E-02
 -1      2222 8.21895E-02
 -1      2223 8.21895E-02
 -1      2224 8.21895E-02
 -1      2225 8.21895E-02
 -1      2226 8.21895E-02
 -1      2227 8.21895E-02
 -1      2228 8.21895E-02
 -1      2229 8.21895E-02
 -1      2230 8.21895E-02
 -1      2231 8.21895E-02
 -1      2232 8.21895E-02
 -1      2233 8.21895E-02
 -1      2234 8.21895E-02
 -1      2235 8.21895E-02
 -1      2236 8.21895E-02
 -1      2237 8.21895E-02
 -1      2238 8.21895E-02
 -1      2239 8.21894E-02
 -1      2240 8.21894E-02
 -1      2241 8.21894E-02
 -1      2242 8.21894E-02
 -1      2243 8.21894E-02
 -1      2244 8.21894E-02
 -1      2245 8.17748E-02
 -1      2246 8.17748E-02
 -1      2247 8.17748E-02
 -1      2248 8.17748E-02
 -1      2249 8.17748E-02
 -1      2250 8.17748E-02
 -1      2251 8.17748E-02
 -1      2252 8.17748E-02
 -1      2253 8.17748E-02
 -1      2254 8.17748E-02
 -1      2255 8.17748E-02
 -1      2256 8.17748E-02
 -1      2257 8.17748E-02
 -1      2258 8.17748E-02
 -1      2259 8.17748E-02
 -1      2260 8.17748E-02
 -1      2261 8.17748E-02
 -1      2262 8.17748E-02
 -1      2263 8.17748E-02
 -1      2264 8.17748E-02
 -1      2265 8.17748E-02
 -1      2266 8.17748E-02
 -1      2267 8.17748E-02
 -1      2268 8.17748E-02
 -1      2269 8.17748E-02
 -1      2270 8.17748E-02
 -1      2271 8.17748E-02
 -1      2272 8.17748E-02
 -1      2273 8.17748E-02
 -1      2274 8.11785E-02
 -1      2275 8.11785E-02
 -1      2276 8.11785E-02
 -1      2277 8.11785E-02
 -1      2278 8.11785E-02
 -1      2279 8.11786E-02
 -1      2280 8.11786E-02
 -1      2281 8.11786E-02
 -1      2282 8.11786E-02
 -1      2283 8.11786E-02
 -1      2284 8.11786E-02
 -1      2285 8.11786E-02
 -1      2286 8.11786E-02
 -1      2287 8.11786E-02
 -1      2288 8.11786E-02
 -1      2289 8.11786E-02
 -1      2290 8.11786E-02
 -1      2291 8.11786E-02
 -1      2292 8.11786E-02
 -1      2293 8.11786E-02
 -1      2294 8.11786E-02
 -1      2295 8.11786E-02
 -1      2296 8.11786E-02
 -1      2297 8.11786E-02
 -1      2298 8.11786E-02
 -1      2299 8.11785E-02
 -1      2300 8.11785E-02
 -1      2301 8.11785E-02
 -1      2302 8.11785E-02
 -1      2303 8.86156E-02
 -1      2304 8.86340E-02
 -1      2305 8.86340E-02
 -1      2306 8.86115E-02
 -1      2307 8.86102E-02
 -1      2308 8.86102E-02
 -1      2309 8.86115E-02
 -1      2310 8.86340E-02
 -1      2311 8.86340E-02
 -1      2312 8.86156E-02
 -1      2313 8.86156E-02
 -1      2314 8.86340E-02
 -1      2315 8.86340E-02
 -1      2316 8.86115E-02
 -1      2317 8.86102E-02
 -1      2318 8.86102E-02
 -1      2319 8.86115E-02
 -1      2320 8.86340E-02
 -1      2321 8.86340E-02
 -1      2322 8.86156E-02
 -1      2323 8.86156E-02
 -1      2324 8.86340E-02
 -1      2325 8.86340E-02
 -1      2326 8.86115E-02
 -1      2327 8.86103E-02
 -1      2328 8.86103E-02
 -1      2329 8.86115E-02
 -1      2330 8.86340E-02
 -1      2331 8.86340E-02
 -1      2332 8.86156E-02
 -1      2333 8.86156E-02
 -1      2334 8.86340E-02
 -1      2335 8.86340E-02
 -1      2336 8.86115E-02
 -1      2337 8.86103E-02
 -1      2338 8.86103E-02
 -1      2339 8.86115E-02
 -1      2340 8.86340E-02
 -1      2341 8.86340E-02
 -1      2342 8.86156E-02
 -1      2343 8.86156E-02
 -1      2344 8.86340E-02
 -1      2345 8.86340E-02
 -1      2346 8.86115E-02
 -1      2347 8.86103E-02
 -1      2348 8.86103E-02
 -1      2349 8.86115E-02
 -1      2350 8.86340E-02
 -1      2351 8.86340E-02
 -1      2352 8.86156E-02
 -1      2353 8.86156E-02
 -1      2354 8.86340E-02
 -1      2355 8.86340E-02
 -1      2356 8.86115E-02
 -1      2357 8.86103E-02
 -1      2358 8.86103E-02
 -1      2359 8.86115E-02
 -1      2360 8.86340E-02
 -1      2361 8.86340E-02
 -1      2362 8.86156E-02
 -1      2363 8.86156E-02
 -1      2364 8.86340E-02
 -1      2365 8.86340E-02
 -1      2366 8.86115E-02
 -1      2367 8.86103E-02
 -1      2368 8.86103E-02
 -1      2369 8.86115E-02
 -1      2370 8.86340E-02
 -1      2371 8.86340E-02
 -1      2372 8.86156E-02
 -1      2373 8.86156E-02
 -1      2374 8.86340E-02
 -1      2375 8.86340E-02
 -1      2376 8.86115E-02
 -1      2377 8.86103E-02
 -1      2378 8.86103E-02
 -1      2379 8.86115E-02
 -1      2380 8.86340E-02
 -1      2381 8.86340E-02
 -1      2382 8.86156E-02
 -1      2383 8.86156E-02
 -1      2384 8.86340E-02
 -1      2385 8.86340E-02
 -1      2386 8.86115E-02
 -1      2387 8.86103E-02
 -1      2388 8.86103E-02
 -1      2389 8.86115E-02
 -1      2390 8.86340E-02
 -1      2391 8.86340E-02
 -1      2392 8.86156E-02
 -1      2393 8.86156E-02
 -1      2394 8.86340E-02
 -1      2395 8.86340E-02
 -1      2396 8.86115E-02
 -1      2397 8.86103E-02
 -1      2398 8.86103E-02
 -1      2399 8.86115E-02
 -1      2400 8.86340E-02
 -1      2401 8.86340E-02
 -1      2402 8.86156E-02
 -1      2403 8.86156E-02
 -1      2404 8.86340E-02
 -1      2405 8.86340E-02
 -1      2406 8.86115E-02
 -1      2407 8.86103E-02
 -1      2408 8.86103E-02
 -1      2409 8.86115E-02
 -1      2410 8.86340E-02
 -1      2411 8.86340E-02
 -1      2412 8.86156E-02
 -1      2413 8.86156E-02
 -1      2414 8.86340E-02
 -1      2415 8.86340E-02
 -1      2416 8.86115E-02
 -1      2417 8.86103E-02
 -1      2418 8.86103E-02
 -1      2419 8.86115E-02
 -1      2420 8.86340E-02
 -1      2421 8.86340E-02
 -1      2422 8.86156E-02
 -1      2423 8.86156E-02
 -1      2424 8.86340E-02
 -1      2425 8.86340E-02
 -1      2426 8.86115E-02
 -1      2427 8.86103E-02
 -1      2428 8.86103E-02
 -1      2429 8.86115E-02
 -1      2430 8.86340E-02
 -1      2431 8.86340E-02
 -1      2432 8.86156E-02
 -1      2433 8.86156E-02
 -1      2434 8.86340E-02
 -1      2435 8.86340E-02
 -1      2436 8.86116E-02
 -1      2437 8.86103E-02
 -1      2438 8.86103E-02
 -1      2439 8.86116E-02
 -1      2440 8.86340E-02
 -1      2441 8.86340E-02
 -1      2442 8.86156E-02
 -1      2443 8.86156E-02
 -1      2444 8.86340E-02
 -1      2445 8.86340E-02
 -1      2446 8.86116E-02
 -1      2447 8.86103E-02
 -1      2448 8.86103E-02
 -1      2449 8.86116E-02
 -1      2450 8.86340E-02
 -1      2451 8.86340E-02
 -1      2452 8.86156E-02
 -1      2453 8.86156E-02
 -1      2454 8.86340E-02
 -1      2455 8.86340E-02
 -1      2456 8.86116E-02
 -1      2457 8.86103E-02
 -1      2458 8.86103E-02
 -1      2459 8.86116E-02
 -1      2460 8.86340E-02
 -1      2461 8.86340E-02
 -1      2462 8.86156E-02
 -1      2463 8.86156E-02
 -1      2464 8.86340E-02
 -1      2465 8.86340E-02
 -1      2466 8.86116E-02
 -1      2467 8.86103E-02
 -1      2468 8.86103E-02
 -1      2469 8.86116E-02
 -1      2470 8.86340E-02
 -1      2471 8.86340E-02
 -1      2472 8.86156E-02
 -1      2473 8.86156E-02
 -1      2474 8.86340E-02
 -1      2475 8.86340E-02
 -1      2476 8.86115E-02
 -1      2477 8.86103E-02
 -1      2478 8.86103E-02
 -1      2479 8.86115E-02
 -1      2480 8.86340E-02
 -1      2481 8.86340E-02
 -1      2482 8.86156E-02
 -1      2483 8.86156E-02
 -1      2484 8.86340E-02
 -1      2485 8.86340E-02
 -1      2486 8.86115E-02
 -1      2487 8.86103E-02
 -1      2488 8.86103E-02
 -1      2489 8.86115E-02
 -1      2490 8.86340E-02
 -1      2491 8.86340E-02
 -1      2492 8.86156E-02
 -1      2493 8.86156E-02
 -1      2494 8.86340E-02
 -1      2495 8.86340E-02
 -1      2496 8.86115E-02
 -1      2497 8.86103E-02
 -1      2498 8.86103E-02
 -1      2499 8.86115E-02
 -1      2500 8.86340E-02
 -1      2501 8.86340E-02
 -1      2502 8.86156E-02
 -1      2503 8.86156E-02
 -1      2504 8.86340E-02
 -1      2505 8.86340E-02
 -1      2506 8.86115E-02
 -1      2507 8.86103E-02
 -1      2508 8.86103E-02
 -1      2509 8.86115E-02
 -1      2510 8.86340E-02
 -1      2511 8.86340E-02
 -1      2512 8.86156E-02
 -1      2513 8.86156E-02
 -1      2514 8.86340E-02
 -1      2515 8.86340E-02
 -1      2516 8.86115E-02
 -1      2517 8.86103E-02
 -1      2518 8.86103E-02
 -1      2519 8.86115E-02
 -1      2520 8.86340E-02
 -1      2521 8.86340E-02
 -1      2522 8.86156E-02
 -1      2523 8.86156E-02
 -1      2524 8.86340E-02
 -1      2525 8.86340E-02
 -1      2526 8.86115E-02
 -1      2527 8.86103E-02
 -1      2528 8.86103E-02
 -1      2529 8.86115E-02
 -1      2530 8.86340E-02
 -1      2531 8.86340E-02
 -1      2532 8.86156E-02
 -1      2533 8.86156E-02
 -1      2534 8.86340E-02
 -1      2535 8.86340E-02
 -1      2536 8.86115E-02
 -1      2537 8.86103E-02
 -1      2538 8.86103E-02
 -1      2539 8.86115E-02
 -1      2540 8.86340E-02
 -1      2541 8.86340E-02
 -1      2542 8.86156E-02
 -1      2543 8.86156E-02
 -1      2544 8.86340E-02
 -1      2545 8.86340E-02
 -1      2546 8.86115E-02
 -1      2547 8.86103E-02
 -1      2548 8.86103E-02
 -1      2549 8.86115E-02
 -1      2550 8.86340E-02
 -1      2551 8.86340E-02
 -1      2552 8.86156E-02
 -1      2553 8.86156E-02
 -1      2554 8.86340E-02
 -1      2555 8.86340E-02
 -1      2556 8.86115E-02
 -1      2557 8.86103E-02
 -1      2558 8.86103E-02
 -1      2559 8.86115E-02
 -1      2560 8.86340E-02
 -1      2561 8.86340E-02
 -1      2562 8.86156E-02
 -1      2563 8.86156E-02
 -1      2564 8.86340E-02
 -1      2565 8.86340E-02
 -1      2566 8.86115E-02
 -1      2567 8.86103E-02
 -1      2568 8.86103E-02
 -1      2569 8.86115E-02
 -1      2570 8.86340E-02
 -1      2571 8.86340E-02
 -1      2572 8.86156E-02
 -1      2573 8.86156E-02
 -1      2574 8.86340E-02
 -1      2575 8.86340E-02
 -1      2576 8.86115E-02
 -1      2577 8.86102E-02
 -1      2578 8.86102E-02
 -1      2579 8.86115E-02
 -1      2580 8.86340E-02
 -1      2581 8.86340E-02
 -1      2582 8.86156E-02
 -1      2583 8.86156E-02
 -1      2584 8.86340E-02
 -1      2585 8.86340E-02
 -1      2586 8.86115E-02
 -1      2587 8.86102E-02
 -1      2588 8.86102E-02
 -1      2589 8.86115E-02
 -1      2590 8.86340E-02
 -1      2591 8.86340E-02
 -1      2592 8.86156E-02
 -1      2593 8.84132E-02
 -1      2594 8.82280E-02
 -1      2595 8.81915E-02
 -1      2596 8.81625E-02
 -1      2597 8.81568E-02
 -1      2598 8.81568E-02
 -1      2599 8.81625E-02
 -1      2600 8.81915E-02
 -1      2601 8.82280E-02
 -1      2602 8.84132E-02
 -1      2603 8.84132E-02
 -1      2604 8.82280E-02
 -1      2605 8.81915E-02
 -1      2606 8.81625E-02
 -1      2607 8.81568E-02
 -1      2608 8.81568E-02
 -1      2609 8.81625E-02
 -1      2610 8.81915E-02
 -1      2611 8.82280E-02
 -1      2612 8.84132E-02
 -1      2613 8.84132E-02
 -1      2614 8.82280E-02
 -1      2615 8.81915E-02
 -1      2616 8.81625E-02
 -1      2617 8.81568E-02
 -1      2618 8.81568E-02
 -1      2619 8.81625E-02
 -1      2620 8.81915E-02
 -1      2621 8.82280E-02
 -1      2622 8.84132E-02
 -1      2623 8.84132E-02
 -1      2624 8.82280E-02
 -1      2625 8.81915E-02
 -1      2626 8.81625E-02
 -1      2627 8.81568E-02
 -1      2628 8.81568E-02
 -1      2629 8.81625E-02
 -1      2630 8.81915E-02
 -1      2631 8.82280E-02
 -1      2632 8.84132E-02
 -1      2633 8.84132E-02
 -1      2634 8.82280E-02
 -1      2635 8.81915E-02
 -1      2636 8.81625E-02
 -1      2637 8.81569E-02
 -1      2638 8.81569E-02
 -1      2639 8.81625E-02
 -1      2640 8.81915E-02
 -1      2641 8.82280E-02
 -1      2642 8.84132E-02
 -1      2643 8.84132E-02
 -1      2644 8.82281E-02
 -1      2645 8.81915E-02
 -1      2646 8.81625E-02
 -1      2647 8.81569E-02
 -1      2648 8.81569E-02
 -1      2649 8.81625E-02
 -1      2650 8.81915E-02
 -1      2651 8.82281E-02
 -1      2652 8.84132E-02
 -1      2653 8.84132E-02
 -1      2654 8.82281E-02
 -1      2655 8.81915E-02
 -1      2656 8.81626E-02
 -1      2657 8.81569E-02
 -1      2658 8.81569E-02
 -1      2659 8.81626E-02
 -1      2660 8.81915E-02
 -1      2661 8.82281E-02
 -1      2662 8.84132E-02
 -1      2663 8.84132E-02
 -1      2664 8.82281E-02
 -1      2665 8.81915E-02
 -1      2666 8.81626E-02
 -1      2667 8.81569E-02
 -1      2668 8.81569E-02
 -1      2669 8.81626E-02
 -1      2670 8.81915E-02
 -1      2671 8.82281E-02
 -1      2672 8.84132E-02
 -1      2673 8.84132E-02
 -1      2674 8.82281E-02
 -1      2675 8.81915E-02
 -1      2676 8.81626E-02
 -1      2677 8.81569E-02
 -1      2678 8.81569E-02
 -1      2679 8.81626E-02
 -1      2680 8.81915E-02
 -1      2681 8.82281E-02
 -1      2682 8.84132E-02
 -1      2683 8.84132E-02
 -1      2684 8.82281E-02
 -1      2685 8.81915E-02
 -1      2686 8.81626E-02
 -1      2687 8.81569E-02
 -1      2688 8.81569E-02
 -1      2689 8.81626E-02
 -1      2690 8.81915E-02
 -1      2691 8.82281E-02
 -1      2692 8.84132E-02
 -1      2693 8.84132E-02
 -1      2694 8.82281E-02
 -1      2695 8.81915E-02
 -1      2696 8.81626E-02
 -1      2697 8.81569E-02
 -1      2698 8.81569E-02
 -1      2699 8.81626E-02
 -1      2700 8.81915E-02
 -1      2701 8.82281E-02
 -1      2702 8.84132E-02
 -1      2703 8.84132E-02
 -1      2704 8.82281E-02
 -1      2705 8.81915E-02
 -1      2706 8.81626E-02
 -1      2707 8.81569E-02
 -1      2708 8.81569E-02
 -1      2709 8.81626E-02
 -1      2710 8.81915E-02
 -1      2711 8.82281E-02
 -1      2712 8.84132E-02
 -1      2713 8.84132E-02
 -1      2714 8.82281E-02
 -1      2715 8.81916E-02
 -1      2716 8.81626E-02
 -1      2717 8.81569E-02
 -1      2718 8.81569E-02
 -1      2719 8.81626E-02
 -1      2720 8.81916E-02
 -1      2721 8.82281E-02
 -1      2722 8.84132E-02
 -1      2723 8.84132E-02
 -1      2724 8.82281E-02
 -1      2725 8.81916E-02
 -1      2726 8.81626E-02
 -1      2727 8.81569E-02
 -1      2728 8.81569E-02
 -1      2729 8.81626E-02
 -1      2730 8.81916E-02
 -1      2731 8.82281E-02
 -1      2732 8.84132E-02
 -1      2733 8.84132E-02
 -1      2734 8.82281E-02
 -1      2735 8.81916E-02
 -1      2736 8.81626E-02
 -1      2737 8.81569E-02
 -1      2738 8.81569E-02
 -1      2739 8.81626E-02
 -1      2740 8.81916E-02
 -1      2741 8.82281E-02
 -1      2742 8.84132E-02
 -1      2743 8.84132E-02
 -1      2744 8.82281E-02
 -1      2745 8.81916E-02
 -1      2746 8.81626E-02
 -1      2747 8.81569E-02
 -1      2748 8.81569E-02
 -1      2749 8.81626E-02
 -1      2750 8.81916E-02
 -1      2751 8.82281E-02
 -1      2752 8.84132E-02
 -1      2753 8.84132E-02
 -1      2754 8.82281E-02
 -1      2755 8.81916E-02
 -1      2756 8.81626E-02
 -1      2757 8.81569E-02
 -1      2758 8.81569E-02
 -1      2759 8.81626E-02
 -1      2760 8.81916E-02
 -1      2761 8.82281E-02
 -1      2762 8.84132E-02
 -1      2763 8.84132E-02
 -1      2764 8.82281E-02
 -1      2765 8.81916E-02
 -1      2766 8.81626E-02
 -1      2767 8.81569E-02
 -1      2768 8.81569E-02
 -1      2769 8.81626E-02
 -1      2770 8.81916E-02
 -1      2771 8.82281E-02
 -1      2772 8.84132E-02
 -1      2773 8.84132E-02
 -1      2774 8.82281E-02
 -1      2775 8.81915E-02
 -1      2776 8.81626E-02
 -1      2777 8.81569E-02
 -1      2778 8.81569E-02
 -1      2779 8.81626E-02
 -1      2780 8.81915E-02
 -1      2781 8.82281E-02
 -1      2782 8.84132E-02
 -1      2783 8.84132E-02
 -1      2784 8.82281E-02
 -1      2785 8.81915E-02
 -1      2786 8.81626E-02
 -1      2787 8.81569E-02
 -1      2788 8.81569E-02
 -1      2789 8.81626E-02
 -1      2790 8.81915E-02
 -1      2791 8.82281E-02
 -1      2792 8.84132E-02
 -1      2793 8.84132E-02
 -1      2794 8.82281E-02
 -1      2795 8.81915E-02
 -1      2796 8.81626E-02
 -1      2797 8.81569E-02
 -1      2798 8.81569E-02
 -1      2799 8.81626E-02
 -1      2800 8.81915E-02
 -1      2801 8.82281E-02
 -1      2802 8.84132E-02
 -1      2803 8.84132E-02
 -1      2804 8.82281E-02
 -1      2805 8.81915E-02
 -1      2806 8.81626E-02
 -1      2807 8.81569E-02
 -1      2808 8.81569E-02
 -1      2809 8.81626E-02
 -1      2810 8.81915E-02
 -1      2811 8.82281E-02
 -1      2812 8.84132E-02
 -1      2813 8.84132E-02
 -1      2814 8.82281E-02
 -1      2815 8.81915E-02
 -1      2816 8.81626E-02
 -1      2817 8.81569E-02
 -1      2818 8.81569E-02
 -1      2819 8.81626E-02
 -1      2820 8.81915E-02
 -1      2821 8.82281E-02
 -1      2822 8.84132E-02
 -1      2823 8.84132E-02
 -1      2824 8.82281E-02
 -1      2825 8.81915E-02
 -1      2826 8.81625E-02
 -1      2827 8.81569E-02
 -1      2828 8.81569E-02
 -1      2829 8.81625E-02
 -1      2830 8.81915E-02
 -1      2831 8.82281E-02
 -1      2832 8.84132E-02
 -1      2833 8.84132E-02
 -1      2834 8.82281E-02
 -1      2835 8.81915E-02
 -1      2836 8.81625E-02
 -1      2837 8.81569E-02
 -1      2838 8.81569E-02
 -1      2839 8.81625E-02
 -1      2840 8.81915E-02
 -1      2841 8.82281E-02
 -1      2842 8.84132E-02
 -1      2843 8.84132E-02
 -1      2844 8.82280E-02
 -1      2845 8.81915E-02
 -1      2846 8.81625E-02
 -1      2847 8.81569E-02
 -1      2848 8.81569E-02
 -1      2849 8.81625E-02
 -1      2850 8.81915E-02
 -1      2851 8.82280E-02
 -1      2852 8.84132E-02
 -1      2853 8.84132E-02
 -1      2854 8.82280E-02
 -1      2855 8.81915E-02
 -1      2856 8.81625E-02
 -1      2857 8.81568E-02
 -1      2858 8.81568E-02
 -1      2859 8.81625E-02
 -1      2860 8.81915E-02
 -1      2861 8.82280E-02
 -1      2862 8.84132E-02
 -1      2863 8.84132E-02
 -1      2864 8.82280E-02
 -1      2865 8.81915E-02
 -1      2866 8.81625E-02
 -1      2867 8.81568E-02
 -1      2868 8.81568E-02
 -1      2869 8.81625E-02
 -1      2870 8.81915E-02
 -1      2871 8.82280E-02
 -1      2872 8.84132E-02
 -1      2873 8.84132E-02
 -1      2874 8.82280E-02
 -1      2875 8.81915E-02
 -1      2876 8.81625E-02
 -1      2877 8.81568E-02
 -1      2878 8.81568E-02
 -1      2879 8.81625E-02
 -1      2880 8.81915E-02
 -1      2881 8.82280E-02
 -1      2882 8.84132E-02
 -1      2883 8.81818E-02
 -1      2884 8.78276E-02
 -1      2885 8.77081E-02
 -1      2886 8.77093E-02
 -1      2887 8.77093E-02
 -1      2888 8.77093E-02
 -1      2889 8.77093E-02
 -1      2890 8.77081E-02
 -1      2891 8.78276E-02
 -1      2892 8.81818E-02
 -1      2893 8.81818E-02
 -1      2894 8.78276E-02
 -1      2895 8.77081E-02
 -1      2896 8.77093E-02
 -1      2897 8.77093E-02
 -1      2898 8.77093E-02
 -1      2899 8.77093E-02
 -1      2900 8.77081E-02
 -1      2901 8.78276E-02
 -1      2902 8.81818E-02
 -1      2903 8.81818E-02
 -1      2904 8.78276E-02
 -1      2905 8.77081E-02
 -1      2906 8.77093E-02
 -1      2907 8.77093E-02
 -1      2908 8.77093E-02
 -1      2909 8.77093E-02
 -1      2910 8.77081E-02
 -1      2911 8.78276E-02
 -1      2912 8.81818E-02
 -1      2913 8.81818E-02
 -1      2914 8.78276E-02
 -1      2915 8.77081E-02
 -1      2916 8.77093E-02
 -1      2917 8.77093E-02
 -1      2918 8.77093E-02
 -1      2919 8.77093E-02
 -1      2920 8.77081E-02
 -1      2921 8.78276E-02
 -1      2922 8.81818E-02
 -1      2923 8.81818E-02
 -1      2924 8.78276E-02
 -1      2925 8.77081E-02
 -1      2926 8.77093E-02
 -1      2927 8.77093E-02
 -1      2928 8.77093E-02
 -1      2929 8.77093E-02
 -1      2930 8.77081E-02
 -1      2931 8.78276E-02
 -1      2932 8.81818E-02
 -1      2933 8.81818E-02
 -1      2934 8.78276E-02
 -1      2935 8.77081E-02
 -1      2936 8.77093E-02
 -1      2937 8.77093E-02
 -1      2938 8.77093E-02
 -1      2939 8.77093E-02
 -1      2940 8.77081E-02
 -1      2941 8.78276E-02
 -1      2942 8.81818E-02
 -1      2943 8.81819E-02
 -1      2944 8.78276E-02
 -1      2945 8.77081E-02
 -1      2946 8.77093E-02
 -1      2947 8.77093E-02
 -1      2948 8.77093E-02
 -1      2949 8.77093E-02
 -1      2950 8.77081E-02
 -1      2951 8.78276E-02
 -1      2952 8.81819E-02
 -1      2953 8.81819E-02
 -1      2954 8.78276E-02
 -1      2955 8.77081E-02
 -1      2956 8.77093E-02
 -1      2957 8.77093E-02
 -1      2958 8.77093E-02
 -1      2959 8.77093E-02
 -1      2960 8.77081E-02
 -1      2961 8.78276E-02
 -1      2962 8.81819E-02
 -1      2963 8.81819E-02
 -1      2964 8.78276E-02
 -1      2965 8.77081E-02
 -1      2966 8.77094E-02
 -1      2967 8.77094E-02
 -1      2968 8.77094E-02
 -1      2969 8.77094E-02
 -1      2970 8.77081E-02
 -1      2971 8.78276E-02
 -1      2972 8.81819E-02
 -1      2973 8.81819E-02
 -1      2974 8.78276E-02
 -1      2975 8.77081E-02
 -1      2976 8.77094E-02
 -1      2977 8.77094E-02
 -1      2978 8.77094E-02
 -1      2979 8.77094E-02
 -1      2980 8.77081E-02
 -1      2981 8.78276E-02
 -1      2982 8.81819E-02
 -1      2983 8.81819E-02
 -1      2984 8.78277E-02
 -1      2985 8.77081E-02
 -1      2986 8.77094E-02
 -1      2987 8.77094E-02
 -1      2988 8.77094E-02
 -1      2989 8.77094E-02
 -1      2990 8.77081E-02
 -1      2991 8.78277E-02
 -1      2992 8.81819E-02
 -1      2993 8.81819E-02
 -1      2994 8.78277E-02
 -1      2995 8.77081E-02
 -1      2996 8.77094E-02
 -1      2997 8.77094E-02
 -1      2998 8.77094E-02
 -1      2999 8.77094E-02
 -1      3000 8.77081E-02
 -1      3001 8.78277E-02
 -1      3002 8.81819E-02
 -1      3003 8.81819E-02
 -1      3004 8.78277E-02
 -1      3005 8.77081E-02
 -1      3006 8.77094E-02
 -1      3007 8.77094E-02
 -1      3008 8.77094E-02
 -1      3009 8.77094E-02
 -1      3010 8.77081E-02
 -1      3011 8.78277E-02
 -1      3012 8.81819E-02
 -1      3013 8.81819E-02
 -1      3014 8.78277E-02
 -1      3015 8.77081E-02
 -1      3016 8.77094E-02
 -1      3017 8.77094E-02
 -1      3018 8.77094E-02
 -1      3019 8.77094E-02
 -1      3020 8.77081E-02
 -1      3021 8.78277E-02
 -1      3022 8.81819E-02
 -1      3023 8.81819E-02
 -1      3024 8.78277E-02
 -1      3025 8.77081E-02
 -1      3026 8.77094E-02
 -1      3027 8.77094E-02
 -1      3028 8.77094E-02
 -1      3029 8.77094E-02
 -1      3030 8.77081E-02
 -1      3031 8.78277E-02
 -1      3032 8.81819E-02
 -1      3033 8.81819E-02
 -1      3034 8.78277E-02
 -1      3035 8.77081E-02
 -1      3036 8.77094E-02
 -1      3037 8.77094E-02
 -1      3038 8.77094E-02
 -1      3039 8.77094E-02
 -1      3040 8.77081E-02
 -1      3041 8.78277E-02
 -1      3042 8.81819E-02
 -1      3043 8.81819E-02
 -1      3044 8.78277E-02
 -1      3045 8.77081E-02
 -1      3046 8.77094E-02
 -1      3047 8.77094E-02
 -1      3048 8.77094E-02
 -1      3049 8.77094E-02
 -1      3050 8.77081E-02
 -1      3051 8.78277E-02
 -1      3052 8.81819E-02
 -1      3053 8.81819E-02
 -1      3054 8.78277E-02
 -1      3055 8.77081E-02
 -1      3056 8.77094E-02
 -1      3057 8.77094E-02
 -1      3058 8.77094E-02
 -1      3059 8.77094E-02
 -1      3060 8.77081E-02
 -1      3061 8.78277E-02
 -1      3062 8.81819E-02
 -1      3063 8.81819E-02
 -1      3064 8.78277E-02
 -1      3065 8.77081E-02
 -1      3066 8.77094E-02
 -1      3067 8.77094E-02
 -1      3068 8.77094E-02
 -1      3069 8.77094E-02
 -1      3070 8.77081E-02
 -1      3071 8.78277E-02
 -1      3072 8.81819E-02
 -1      3073 8.81819E-02
 -1      3074 8.78277E-02
 -1      3075 8.77081E-02
 -1      3076 8.77094E-02
 -1      3077 8.77094E-02
 -1      3078 8.77094E-02
 -1      3079 8.77094E-02
 -1      3080 8.77081E-02
 -1      3081 8.78277E-02
 -1      3082 8.81819E-02
 -1      3083 8.81819E-02
 -1      3084 8.78277E-02
 -1      3085 8.77081E-02
 -1      3086 8.77094E-02
 -1      3087 8.77094E-02
 -1      3088 8.77094E-02
 -1      3089 8.77094E-02
 -1      3090 8.77081E-02
 -1      3091 8.78277E-02
 -1      3092 8.81819E-02
 -1      3093 8.81819E-02
 -1      3094 8.78276E-02
 -1      3095 8.77081E-02
 -1      3096 8.77094E-02
 -1      3097 8.77094E-02
 -1      3098 8.77094E-02
 -1      3099 8.77094E-02
 -1      3100 8.77081E-02
 -1      3101 8.78276E-02
 -1      3102 8.81819E-02
 -1      3103 8.81819E-02
 -1      3104 8.78276E-02
 -1      3105 8.77081E-02
 -1      3106 8.77093E-02
 -1      3107 8.77093E-02
 -1      3108 8.77093E-02
 -1      3109 8.77093E-02
 -1      3110 8.77081E-02
 -1      3111 8.78276E-02
 -1      3112 8.81819E-02
 -1      3113 8.81819E-02
 -1      3114 8.78276E-02
 -1      3115 8.77081E-02
 -1      3116 8.77093E-02
 -1      3117 8.77093E-02
 -1      3118 8.77093E-02
 -1      3119 8.77093E-02
 -1      3120 8.77081E-02
 -1      3121 8.78276E-02
 -1      3122 8.81819E-02
 -1      3123 8.81818E-02
 -1      3124 8.78276E-02
 -1      3125 8.77081E-02
 -1      3126 8.77093E-02
 -1      3127 8.77093E-02
 -1      3128 8.77093E-02
 -1      3129 8.77093E-02
 -1      3130 8.77081E-02
 -1      3131 8.78276E-02
 -1      3132 8.81818E-02
 -1      3133 8.81818E-02
 -1      3134 8.78276E-02
 -1      3135 8.77081E-02
 -1      3136 8.77093E-02
 -1      3137 8.77093E-02
 -1      3138 8.77093E-02
 -1      3139 8.77093E-02
 -1      3140 8.77081E-02
 -1      3141 8.78276E-02
 -1      3142 8.81818E-02
 -1      3143 8.81818E-02
 -1      3144 8.78276E-02
 -1      3145 8.77081E-02
 -1      3146 8.77093E-02
 -1      3147 8.77093E-02
 -1      3148 8.77093E-02
 -1      3149 8.77093E-02
 -1      3150 8.77081E-02
 -1      3151 8.78276E-02
 -1      3152 8.81818E-02
 -1      3153 8.81818E-02
 -1      3154 8.78276E-02
 -1      3155 8.77081E-02
 -1      3156 8.77093E-02
 -1      3157 8.77093E-02
 -1      3158 8.77093E-02
 -1      3159 8.77093E-02
 -1      3160 8.77081E-02
 -1      3161 8.78276E-02
 -1      3162 8.81818E-02
 -1      3163 8.81818E-02
 -1      3164 8.78276E-02
 -1      3165 8.77081E-02
 -1      3166 8.77093E-02
 -1      3167 8.77093E-02
 -1      3168 8.77093E-02
 -1      3169 8.77093E-02
 -1      3170 8.77081E-02
 -1      3171 8.78276E-02
 -1      3172 8.81818E-02
 -1      3173 8.77501E-02
 -1      3174 8.73713E-02
 -1      3175 8.72966E-02
 -1      3176 8.72653E-02
 -1      3177 8.72631E-02
 -1      3178 8.72631E-02
 -1      3179 8.72653E-02
 -1      3180 8.72966E-02
 -1      3181 8.73713E-02
 -1      3182 8.77501E-02
 -1      3183 8.77501E-02
 -1      3184 8.73713E-02
 -1      3185 8.72966E-02
 -1      3186 8.72653E-02
 -1      3187 8.72631E-02
 -1      3188 8.72631E-02
 -1      3189 8.72653E-02
 -1      3190 8.72966E-02
 -1      3191 8.73713E-02
 -1      3192 8.77501E-02
 -1      3193 8.77501E-02
 -1      3194 8.73713E-02
 -1      3195 8.72966E-02
 -1      3196 8.72653E-02
 -1      3197 8.72631E-02
 -1      3198 8.72631E-02
 -1      3199 8.72653E-02
 -1      3200 8.72966E-02
 -1      3201 8.73713E-02
 -1      3202 8.77501E-02
 -1      3203 8.77501E-02
 -1      3204 8.73713E-02
 -1      3205 8.72966E-02
 -1      3206 8.72653E-02
 -1      3207 8.72632E-02
 -1      3208 8.72632E-02
 -1      3209 8.72653E-02
 -1      3210 8.72966E-02
 -1      3211 8.73713E-02
 -1      3212 8.77501E-02
 -1      3213 8.77501E-02
 -1      3214 8.73713E-02
 -1      3215 8.72967E-02
 -1      3216 8.72653E-02
 -1      3217 8.72632E-02
 -1      3218 8.72632E-02
 -1      3219 8.72653E-02
 -1      3220 8.72967E-02
 -1      3221 8.73713E-02
 -1      3222 8.77501E-02
 -1      3223 8.77501E-02
 -1      3224 8.73713E-02
 -1      3225 8.72967E-02
 -1      3226 8.72653E-02
 -1      3227 8.72632E-02
 -1      3228 8.72632E-02
 -1      3229 8.72653E-02
 -1      3230 8.72967E-02
 -1      3231 8.73713E-02
 -1      3232 8.77501E-02
 -1      3233 8.77501E-02
 -1      3234 8.73713E-02
 -1      3235 8.72967E-02
 -1      3236 8.72653E-02
 -1      3237 8.72632E-02
 -1      3238 8.72632E-02
 -1      3239 8.72653E-02
 -1      3240 8.72967E-02
 -1      3241 8.73713E-02
 -1      3242 8.77501E-02
 -1      3243 8.77501E-02
 -1      3244 8.73713E-02
 -1      3245 8.72967E-02
 -1      3246 8.72654E-02
 -1      3247 8.72632E-02
 -1      3248 8.72632E-02
 -1      3249 8.72654E-02
 -1      3250 8.72967E-02
 -1      3251 8.73713E-02
 -1      3252 8.77501E-02
 -1      3253 8.77501E-02
 -1      3254 8.73713E-02
 -1      3255 8.72967E-02
 -1      3256 8.72654E-02
 -1      3257 8.72632E-02
 -1      3258 8.72632E-02
 -1      3259 8.72654E-02
 -1      3260 8.72967E-02
 -1      3261 8.73713E-02
 -1      3262 8.77501E-02
 -1      3263 8.77501E-02
 -1      3264 8.73713E-02
 -1      3265 8.72967E-02
 -1      3266 8.72654E-02
 -1      3267 8.72632E-02
 -1      3268 8.72632E-02
 -1      3269 8.72654E-02
 -1      3270 8.72967E-02
 -1      3271 8.73713E-02
 -1      3272 8.77501E-02
 -1      3273 8.77501E-02
 -1      3274 8.73713E-02
 -1      3275 8.72967E-02
 -1      3276 8.72654E-02
 -1      3277 8.72632E-02
 -1      3278 8.72632E-02
 -1      3279 8.72654E-02
 -1      3280 8.72967E-02
 -1      3281 8.73713E-02
 -1      3282 8.77501E-02
 -1      3283 8.77501E-02
 -1      3284 8.73713E-02
 -1      3285 8.72967E-02
 -1      3286 8.72654E-02
 -1      3287 8.72632E-02
 -1      3288 8.72632E-02
 -1      3289 8.72654E-02
 -1      3290 8.72967E-02
 -1      3291 8.73713E-02
 -1      3292 8.77501E-02
 -1      3293 8.77501E-02
 -1      3294 8.73713E-02
 -1      3295 8.72967E-02
 -1      3296 8.72654E-02
 -1      3297 8.72632E-02
 -1      3298 8.72632E-02
 -1      3299 8.72654E-02
 -1      3300 8.72967E-02
 -1      3301 8.73713E-02
 -1      3302 8.77501E-02
 -1      3303 8.77502E-02
 -1      3304 8.73713E-02
 -1      3305 8.72967E-02
 -1      3306 8.72654E-02
 -1      3307 8.72632E-02
 -1      3308 8.72632E-02
 -1      3309 8.72654E-02
 -1      3310 8.72967E-02
 -1      3311 8.73713E-02
 -1      3312 8.77502E-02
 -1      3313 8.77502E-02
 -1      3314 8.73714E-02
 -1      3315 8.72967E-02
 -1      3316 8.72654E-02
 -1      3317 8.72632E-02
 -1      3318 8.72632E-02
 -1      3319 8.72654E-02
 -1      3320 8.72967E-02
 -1      3321 8.73714E-02
 -1      3322 8.77502E-02
 -1      3323 8.77502E-02
 -1      3324 8.73714E-02
 -1      3325 8.72967E-02
 -1      3326 8.72654E-02
 -1      3327 8.72632E-02
 -1      3328 8.72632E-02
 -1      3329 8.72654E-02
 -1      3330 8.72967E-02
 -1      3331 8.73714E-02
 -1      3332 8.77502E-02
 -1      3333 8.77501E-02
 -1      3334 8.73713E-02
 -1      3335 8.72967E-02
 -1      3336 8.72654E-02
 -1      3337 8.72632E-02
 -1      3338 8.72632E-02
 -1      3339 8.72654E-02
 -1      3340 8.72967E-02
 -1      3341 8.73713E-02
 -1      3342 8.77501E-02
 -1      3343 8.77501E-02
 -1      3344 8.73713E-02
 -1      3345 8.72967E-02
 -1      3346 8.72654E-02
 -1      3347 8.72632E-02
 -1      3348 8.72632E-02
 -1      3349 8.72654E-02
 -1      3350 8.72967E-02
 -1      3351 8.73713E-02
 -1      3352 8.77501E-02
 -1      3353 8.77501E-02
 -1      3354 8.73713E-02
 -1      3355 8.72967E-02
 -1      3356 8.72654E-02
 -1      3357 8.72632E-02
 -1      3358 8.72632E-02
 -1      3359 8.72654E-02
 -1      3360 8.72967E-02
 -1      3361 8.73713E-02
 -1      3362 8.77501E-02
 -1      3363 8.77501E-02
 -1      3364 8.73713E-02
 -1      3365 8.72967E-02
 -1      3366 8.72654E-02
 -1      3367 8.72632E-02
 -1      3368 8.72632E-02
 -1      3369 8.72654E-02
 -1      3370 8.72967E-02
 -1      3371 8.73713E-02
 -1      3372 8.77501E-02
 -1      3373 8.77501E-02
 -1      3374 8.73713E-02
 -1      3375 8.72967E-02
 -1      3376 8.72654E-02
 -1      3377 8.72632E-02
 -1      3378 8.72632E-02
 -1      3379 8.72654E-02
 -1      3380 8.72967E-02
 -1      3381 8.73713E-02
 -1      3382 8.77501E-02
 -1      3383 8.77501E-02
 -1      3384 8.73713E-02
 -1      3385 8.72967E-02
 -1      3386 8.72654E-02
 -1      3387 8.72632E-02
 -1      3388 8.72632E-02
 -1      3389 8.72654E-02
 -1      3390 8.72967E-02
 -1      3391 8.73713E-02
 -1      3392 8.77501E-02
 -1      3393 8.77501E-02
 -1      3394 8.73713E-02
 -1      3395 8.72967E-02
 -1      3396 8.72654E-02
 -1      3397 8.72632E-02
 -1      3398 8.72632E-02
 -1      3399 8.72654E-02
 -1      3400 8.72967E-02
 -1      3401 8.73713E-02
 -1      3402 8.77501E-02
 -1      3403 8.77501E-02
 -1      3404 8.73713E-02
 -1      3405 8.72967E-02
 -1      3406 8.72653E-02
 -1      3407 8.72632E-02
 -1      3408 8.72632E-02
 -1      3409 8.72653E-02
 -1      3410 8.72967E-02
 -1      3411 8.73713E-02
 -1      3412 8.77501E-02
 -1      3413 8.77501E-02
 -1      3414 8.73713E-02
 -1      3415 8.72967E-02
 -1      3416 8.72653E-02
 -1      3417 8.72632E-02
 -1      3418 8.72632E-02
 -1      3419 8.72653E-02
 -1      3420 8.72967E-02
 -1      3421 8.73713E-02
 -1      3422 8.77501E-02
 -1      3423 8.77501E-02
 -1      3424 8.73713E-02
 -1      3425 8.72966E-02
 -1      3426 8.72653E-02
 -1      3427 8.72632E-02
 -1      3428 8.72632E-02
 -1      3429 8.72653E-02
 -1      3430 8.72966E-02
 -1      3431 8.73713E-02
 -1      3432 8.77501E-02
 -1      3433 8.77501E-02
 -1      3434 8.73713E-02
 -1      3435 8.72966E-02
 -1      3436 8.72653E-02
 -1      3437 8.72631E-02
 -1      3438 8.72631E-02
 -1      3439 8.72653E-02
 -1      3440 8.72966E-02
 -1      3441 8.73713E-02
 -1      3442 8.77501E-02
 -1      3443 8.77501E-02
 -1      3444 8.73713E-02
 -1      3445 8.72966E-02
 -1      3446 8.72653E-02
 -1      3447 8.72631E-02
 -1      3448 8.72631E-02
 -1      3449 8.72653E-02
 -1      3450 8.72966E-02
 -1      3451 8.73713E-02
 -1      3452 8.77501E-02
 -1      3453 8.77501E-02
 -1      3454 8.73713E-02
 -1      3455 8.72966E-02
 -1      3456 8.72653E-02
 -1      3457 8.72631E-02
 -1      3458 8.72631E-02
 -1      3459 8.72653E-02
 -1      3460 8.72966E-02
 -1      3461 8.73713E-02
 -1      3462 8.77501E-02
 -1      3463 8.72521E-02
 -1      3464 8.69017E-02
 -1      3465 8.68780E-02
 -1      3466 8.68305E-02
 -1      3467 8.68197E-02
 -1      3468 8.68197E-02
 -1      3469 8.68305E-02
 -1      3470 8.68780E-02
 -1      3471 8.69017E-02
 -1      3472 8.72521E-02
 -1      3473 8.72521E-02
 -1      3474 8.69017E-02
 -1      3475 8.68780E-02
 -1      3476 8.68305E-02
 -1      3477 8.68197E-02
 -1      3478 8.68197E-02
 -1      3479 8.68305E-02
 -1      3480 8.68780E-02
 -1      3481 8.69017E-02
 -1      3482 8.72521E-02
 -1      3483 8.72521E-02
 -1      3484 8.69017E-02
 -1      3485 8.68780E-02
 -1      3486 8.68305E-02
 -1      3487 8.68197E-02
 -1      3488 8.68197E-02
 -1      3489 8.68305E-02
 -1      3490 8.68780E-02
 -1      3491 8.69017E-02
 -1      3492 8.72521E-02
 -1      3493 8.72521E-02
 -1      3494 8.69018E-02
 -1      3495 8.68780E-02
 -1      3496 8.68305E-02
 -1      3497 8.68197E-02
 -1      3498 8.68197E-02
 -1      3499 8.68305E-02
 -1      3500 8.68780E-02
 -1      3501 8.69018E-02
 -1      3502 8.72521E-02
 -1      3503 8.72521E-02
 -1      3504 8.69018E-02
 -1      3505 8.68780E-02
 -1      3506 8.68305E-02
 -1      3507 8.68197E-02
 -1      3508 8.68197E-02
 -1      3509 8.68305E-02
 -1      3510 8.68780E-02
 -1      3511 8.69018E-02
 -1      3512 8.72521E-02
 -1      3513 8.72521E-02
 -1      3514 8.69018E-02
 -1      3515 8.68780E-02
 -1      3516 8.68305E-02
 -1      3517 8.68197E-02
 -1      3518 8.68197E-02
 -1      3519 8.68305E-02
 -1      3520 8.68780E-02
 -1      3521 8.69018E-02
 -1      3522 8.72521E-02
 -1      3523 8.72521E-02
 -1      3524 8.69018E-02
 -1      3525 8.68780E-02
 -1      3526 8.68305E-02
 -1      3527 8.68197E-02
 -1      3528 8.68197E-02
 -1      3529 8.68305E-02
 -1      3530 8.68780E-02
 -1      3531 8.69018E-02
 -1      3532 8.72521E-02
 -1      3533 8.72521E-02
 -1      3534 8.69018E-02
 -1      3535 8.68780E-02
 -1      3536 8.68305E-02
 -1      3537 8.68197E-02
 -1      3538 8.68197E-02
 -1      3539 8.68305E-02
 -1      3540 8.68780E-02
 -1      3541 8.69018E-02
 -1      3542 8.72521E-02
 -1      3543 8.72521E-02
 -1      3544 8.69018E-02
 -1      3545 8.68780E-02
 -1      3546 8.68305E-02
 -1      3547 8.68197E-02
 -1      3548 8.68197E-02
 -1      3549 8.68305E-02
 -1      3550 8.68780E-02
 -1      3551 8.69018E-02
 -1      3552 8.72521E-02
 -1      3553 8.72521E-02
 -1      3554 8.69018E-02
 -1      3555 8.68780E-02
 -1      3556 8.68305E-02
 -1      3557 8.68197E-02
 -1      3558 8.68197E-02
 -1      3559 8.68305E-02
 -1      3560 8.68780E-02
 -1      3561 8.69018E-02
 -1      3562 8.72521E-02
 -1      3563 8.72521E-02
 -1      3564 8.69018E-02
 -1      3565 8.68781E-02
 -1      3566 8.68305E-02
 -1      3567 8.68197E-02
 -1      3568 8.68197E-02
 -1      3569 8.68305E-02
 -1      3570 8.68781E-02
 -1      3571 8.69018E-02
 -1      3572 8.72521E-02
 -1      3573 8.72521E-02
 -1      3574 8.69018E-02
 -1      3575 8.68781E-02
 -1      3576 8.68305E-02
 -1      3577 8.68197E-02
 -1      3578 8.68197E-02
 -1      3579 8.68305E-02
 -1      3580 8.68781E-02
 -1      3581 8.69018E-02
 -1      3582 8.72521E-02
 -1      3583 8.72521E-02
 -1      3584 8.69018E-02
 -1      3585 8.68781E-02
 -1      3586 8.68305E-02
 -1      3587 8.68197E-02
 -1      3588 8.68197E-02
 -1      3589 8.68305E-02
 -1      3590 8.68781E-02
 -1      3591 8.69018E-02
 -1      3592 8.72521E-02
 -1      3593 8.72521E-02
 -1      3594 8.69018E-02
 -1      3595 8.68781E-02
 -1      3596 8.68305E-02
 -1      3597 8.68197E-02
 -1      3598 8.68197E-02
 -1      3599 8.68305E-02
 -1      3600 8.68781E-02
 -1      3601 8.69018E-02
 -1      3602 8.72521E-02
 -1      3603 8.72521E-02
 -1      3604 8.69018E-02
 -1      3605 8.68781E-02
 -1      3606 8.68305E-02
 -1      3607 8.68197E-02
 -1      3608 8.68197E-02
 -1      3609 8.68305E-02
 -1      3610 8.68781E-02
 -1      3611 8.69018E-02
 -1      3612 8.72521E-02
 -1      3613 8.72521E-02
 -1      3614 8.69018E-02
 -1      3615 8.68781E-02
 -1      3616 8.68305E-02
 -1      3617 8.68197E-02
 -1      3618 8.68197E-02
 -1      3619 8.68305E-02
 -1      3620 8.68781E-02
 -1      3621 8.69018E-02
 -1      3622 8.72521E-02
 -1      3623 8.72521E-02
 -1      3624 8.69018E-02
 -1      3625 8.68781E-02
 -1      3626 8.68305E-02
 -1      3627 8.68197E-02
 -1      3628 8.68197E-02
 -1      3629 8.68305E-02
 -1      3630 8.68781E-02
 -1      3631 8.69018E-02
 -1      3632 8.72521E-02
 -1      3633 8.72521E-02
 -1      3634 8.69018E-02
 -1      3635 8.68781E-02
 -1      3636 8.68305E-02
 -1      3637 8.68197E-02
 -1      3638 8.68197E-02
 -1      3639 8.68305E-02
 -1      3640 8.68781E-02
 -1      3641 8.69018E-02
 -1      3642 8.72521E-02
 -1      3643 8.72521E-02
 -1      3644 8.69018E-02
 -1      3645 8.68781E-02
 -1      3646 8.68305E-02
 -1      3647 8.68197E-02
 -1      3648 8.68197E-02
 -1      3649 8.68305E-02
 -1      3650 8.68781E-02
 -1      3651 8.69018E-02
 -1      3652 8.72521E-02
 -1      3653 8.72521E-02
 -1      3654 8.69018E-02
 -1      3655 8.68781E-02
 -1      3656 8.68305E-02
 -1      3657 8.68197E-02
 -1      3658 8.68197E-02
 -1      3659 8.68305E-02
 -1      3660 8.68781E-02
 -1      3661 8.69018E-02
 -1      3662 8.72521E-02
 -1      3663 8.72521E-02
 -1      3664 8.69018E-02
 -1      3665 8.68781E-02
 -1      3666 8.68305E-02
 -1      3667 8.68197E-02
 -1      3668 8.68197E-02
 -1      3669 8.68305E-02
 -1      3670 8.68781E-02
 -1      3671 8.69018E-02
 -1      3672 8.72521E-02
 -1      3673 8.72521E-02
 -1      3674 8.69018E-02
 -1      3675 8.68780E-02
 -1      3676 8.68305E-02
 -1      3677 8.68197E-02
 -1      3678 8.68197E-02
 -1      3679 8.68305E-02
 -1      3680 8.68780E-02
 -1      3681 8.69018E-02
 -1      3682 8.72521E-02
 -1      3683 8.72521E-02
 -1      3684 8.69018E-02
 -1      3685 8.68780E-02
 -1      3686 8.68305E-02
 -1      3687 8.68197E-02
 -1      3688 8.68197E-02
 -1      3689 8.68305E-02
 -1      3690 8.68780E-02
 -1      3691 8.69018E-02
 -1      3692 8.72521E-02
 -1      3693 8.72521E-02
 -1      3694 8.69018E-02
 -1      3695 8.68780E-02
 -1      3696 8.68305E-02
 -1      3697 8.68197E-02
 -1      3698 8.68197E-02
 -1      3699 8.68305E-02
 -1      3700 8.68780E-02
 -1      3701 8.69018E-02
 -1      3702 8.72521E-02
 -1      3703 8.72521E-02
 -1      3704 8.69018E-02
 -1      3705 8.68780E-02
 -1      3706 8.68305E-02
 -1      3707 8.68197E-02
 -1      3708 8.68197E-02
 -1      3709 8.68305E-02
 -1      3710 8.68780E-02
 -1      3711 8.69018E-02
 -1      3712 8.72521E-02
 -1      3713 8.72521E-02
 -1      3714 8.69018E-02
 -1      3715 8.68780E-02
 -1      3716 8.68305E-02
 -1      3717 8.68197E-02
 -1      3718 8.68197E-02
 -1      3719 8.68305E-02
 -1      3720 8.68780E-02
 -1      3721 8.69018E-02
 -1      3722 8.72521E-02
 -1      3723 8.72521E-02
 -1      3724 8.69017E-02
 -1      3725 8.68780E-02
 -1      3726 8.68305E-02
 -1      3727 8.68197E-02
 -1      3728 8.68197E-02
 -1      3729 8.68305E-02
 -1      3730 8.68780E-02
 -1      3731 8.69017E-02
 -1      3732 8.72521E-02
 -1      3733 8.72521E-02
 -1      3734 8.69017E-02
 -1      3735 8.68780E-02
 -1      3736 8.68305E-02
 -1      3737 8.68197E-02
 -1      3738 8.68197E-02
 -1      3739 8.68305E-02
 -1      3740 8.68780E-02
 -1      3741 8.69017E-02
 -1      3742 8.72521E-02
 -1      3743 8.72521E-02
 -1      3744 8.69017E-02
 -1      3745 8.68780E-02
 -1      3746 8.68305E-02
 -1      3747 8.68197E-02
 -1      3748 8.68197E-02
 -1      3749 8.68305E-02
 -1      3750 8.68780E-02
 -1      3751 8.69017E-02
 -1      3752 8.72521E-02
 -1      3753 8.67359E-02
 -1      3754 8.64466E-02
 -1      3755 8.64466E-02
 -1      3756 8.63976E-02
 -1      3757 8.63797E-02
 -1      3758 8.63797E-02
 -1      3759 8.63976E-02
 -1      3760 8.64466E-02
 -1      3761 8.64466E-02
 -1      3762 8.67359E-02
 -1      3763 8.67359E-02
 -1      3764 8.64466E-02
 -1      3765 8.64466E-02
 -1      3766 8.63976E-02
 -1      3767 8.63797E-02
 -1      3768 8.63797E-02
 -1      3769 8.63976E-02
 -1      3770 8.64466E-02
 -1      3771 8.64466E-02
 -1      3772 8.67359E-02
 -1      3773 8.67359E-02
 -1      3774 8.64466E-02
 -1      3775 8.64466E-02
 -1      3776 8.63976E-02
 -1      3777 8.63797E-02
 -1      3778 8.63797E-02
 -1      3779 8.63976E-02
 -1      3780 8.64466E-02
 -1      3781 8.64466E-02
 -1      3782 8.67359E-02
 -1      3783 8.67359E-02
 -1      3784 8.64466E-02
 -1      3785 8.64466E-02
 -1      3786 8.63976E-02
 -1      3787 8.63797E-02
 -1      3788 8.63797E-02
 -1      3789 8.63976E-02
 -1      3790 8.64466E-02
 -1      3791 8.64466E-02
 -1      3792 8.67359E-02
 -1      3793 8.67359E-02
 -1      3794 8.64466E-02
 -1      3795 8.64466E-02
 -1      3796 8.63976E-02
 -1      3797 8.63797E-02
 -1      3798 8.63797E-02
 -1      3799 8.63976E-02
 -1      3800 8.64466E-02
 -1      3801 8.64466E-02
 -1      3802 8.67359E-02
 -1      3803 8.67359E-02
 -1      3804 8.64466E-02
 -1      3805 8.64466E-02
 -1      3806 8.63977E-02
 -1      3807 8.63797E-02
 -1      3808 8.63797E-02
 -1      3809 8.63977E-02
 -1      3810 8.64466E-02
 -1      3811 8.64466E-02
 -1      3812 8.67359E-02
 -1      3813 8.67359E-02
 -1      3814 8.64466E-02
 -1      3815 8.64466E-02
 -1      3816 8.63977E-02
 -1      3817 8.63797E-02
 -1      3818 8.63797E-02
 -1      3819 8.63977E-02
 -1      3820 8.64466E-02
 -1      3821 8.64466E-02
 -1      3822 8.67359E-02
 -1      3823 8.67359E-02
 -1      3824 8.64466E-02
 -1      3825 8.64466E-02
 -1      3826 8.63977E-02
 -1      3827 8.63797E-02
 -1      3828 8.63797E-02
 -1      3829 8.63977E-02
 -1      3830 8.64466E-02
 -1      3831 8.64466E-02
 -1      3832 8.67359E-02
 -1      3833 8.67359E-02
 -1      3834 8.64466E-02
 -1      3835 8.64466E-02
 -1      3836 8.63977E-02
 -1      3837 8.63797E-02
 -1      3838 8.63797E-02
 -1      3839 8.63977E-02
 -1      3840 8.64466E-02
 -1      3841 8.64466E-02
 -1      3842 8.67359E-02
 -1      3843 8.67359E-02
 -1      3844 8.64466E-02
 -1      3845 8.64466E-02
 -1      3846 8.63977E-02
 -1      3847 8.63797E-02
 -1      3848 8.63797E-02
 -1      3849 8.63977E-02
 -1      3850 8.64466E-02
 -1      3851 8.64466E-02
 -1      3852 8.67359E-02
 -1      3853 8.67359E-02
 -1      3854 8.64466E-02
 -1      3855 8.64466E-02
 -1      3856 8.63977E-02
 -1      3857 8.63797E-02
 -1      3858 8.63797E-02
 -1      3859 8.63977E-02
 -1      3860 8.64466E-02
 -1      3861 8.64466E-02
 -1      3862 8.67359E-02
 -1      3863 8.67359E-02
 -1      3864 8.64466E-02
 -1      3865 8.64466E-02
 -1      3866 8.63977E-02
 -1      3867 8.63797E-02
 -1      3868 8.63797E-02
 -1      3869 8.63977E-02
 -1      3870 8.64466E-02
 -1      3871 8.64466E-02
 -1      3872 8.67359E-02
 -1      3873 8.67359E-02
 -1      3874 8.64466E-02
 -1      3875 8.64466E-02
 -1      3876 8.63977E-02
 -1      3877 8.63797E-02
 -1      3878 8.63797E-02
 -1      3879 8.63977E-02
 -1      3880 8.64466E-02
 -1      3881 8.64466E-02
 -1      3882 8.67359E-02
 -1      3883 8.67359E-02
 -1      3884 8.64466E-02
 -1      3885 8.64466E-02
 -1      3886 8.63977E-02
 -1      3887 8.63797E-02
 -1      3888 8.63797E-02
 -1      3889 8.63977E-02
 -1      3890 8.64466E-02
 -1      3891 8.64466E-02
 -1      3892 8.67359E-02
 -1      3893 8.67359E-02
 -1      3894 8.64466E-02
 -1      3895 8.64466E-02
 -1      3896 8.63977E-02
 -1      3897 8.63797E-02
 -1      3898 8.63797E-02
 -1      3899 8.63977E-02
 -1      3900 8.64466E-02
 -1      3901 8.64466E-02
 -1      3902 8.67359E-02
 -1      3903 8.67359E-02
 -1      3904 8.64466E-02
 -1      3905 8.64466E-02
 -1      3906 8.63977E-02
 -1      3907 8.63797E-02
 -1      3908 8.63797E-02
 -1      3909 8.63977E-02
 -1      3910 8.64466E-02
 -1      3911 8.64466E-02
 -1      3912 8.67359E-02
 -1      3913 8.67359E-02
 -1      3914 8.64466E-02
 -1      3915 8.64466E-02
 -1      3916 8.63977E-02
 -1      3917 8.63797E-02
 -1      3918 8.63797E-02
 -1      3919 8.63977E-02
 -1      3920 8.64466E-02
 -1      3921 8.64466E-02
 -1      3922 8.67359E-02
 -1      3923 8.67359E-02
 -1      3924 8.64466E-02
 -1      3925 8.64466E-02
 -1      3926 8.63977E-02
 -1      3927 8.63797E-02
 -1      3928 8.63797E-02
 -1      3929 8.63977E-02
 -1      3930 8.64466E-02
 -1      3931 8.64466E-02
 -1      3932 8.67359E-02
 -1      3933 8.67359E-02
 -1      3934 8.64466E-02
 -1      3935 8.64466E-02
 -1      3936 8.63977E-02
 -1      3937 8.63797E-02
 -1      3938 8.63797E-02
 -1      3939 8.63977E-02
 -1      3940 8.64466E-02
 -1      3941 8.64466E-02
 -1      3942 8.67359E-02
 -1      3943 8.67359E-02
 -1      3944 8.64466E-02
 -1      3945 8.64466E-02
 -1      3946 8.63977E-02
 -1      3947 8.63797E-02
 -1      3948 8.63797E-02
 -1      3949 8.63977E-02
 -1      3950 8.64466E-02
 -1      3951 8.64466E-02
 -1      3952 8.67359E-02
 -1      3953 8.67359E-02
 -1      3954 8.64466E-02
 -1      3955 8.64466E-02
 -1      3956 8.63977E-02
 -1      3957 8.63797E-02
 -1      3958 8.63797E-02
 -1      3959 8.63977E-02
 -1      3960 8.64466E-02
 -1      3961 8.64466E-02
 -1      3962 8.67359E-02
 -1      3963 8.67359E-02
 -1      3964 8.64466E-02
 -1      3965 8.64466E-02
 -1      3966 8.63977E-02
 -1      3967 8.63797E-02
 -1      3968 8.63797E-02
 -1      3969 8.63977E-02
 -1      3970 8.64466E-02
 -1      3971 8.64466E-02
 -1      3972 8.67359E-02
 -1      3973 8.67359E-02
 -1      3974 8.64466E-02
 -1      3975 8.64466E-02
 -1      3976 8.63977E-02
 -1      3977 8.63797E-02
 -1      3978 8.63797E-02
 -1      3979 8.63977E-02
 -1      3980 8.64466E-02
 -1      3981 8.64466E-02
 -1      3982 8.67359E-02
 -1      3983 8.67359E-02
 -1      3984 8.64466E-02
 -1      3985 8.64466E-02
 -1      3986 8.63977E-02
 -1      3987 8.63797E-02
 -1      3988 8.63797E-02
 -1      3989 8.63977E-02
 -1      3990 8.64466E-02
 -1      3991 8.64466E-02
 -1      3992 8.67359E-02
 -1      3993 8.67359E-02
 -1      3994 8.64466E-02
 -1      3995 8.64466E-02
 -1      3996 8.63977E-02
 -1      3997 8.63797E-02
 -1      3998 8.63797E-02
 -1      3999 8.63977E-02
 -1      4000 8.64466E-02
 -1      4001 8.64466E-02
 -1      4002 8.67359E-02
 -1      4003 8.67359E-02
 -1      4004 8.64466E-02
 -1      4005 8.64466E-02
 -1      4006 8.63976E-02
 -1      4007 8.63797E-02
 -1      4008 8.63797E-02
 -1      4009 8.63976E-02
 -1      4010 8.64466E-02
 -1      4011 8.64466E-02
 -1      4012 8.67359E-02
 -1      4013 8.67359E-02
 -1      4014 8.64466E-02
 -1      4015 8.64466E-02
 -1      4016 8.63976E-02
 -1      4017 8.63797E-02
 -1      4018 8.63797E-02
 -1      4019 8.63976E-02
 -1      4020 8.64466E-02
 -1      4021 8.64466E-02
 -1      4022 8.67359E-02
 -1      4023 8.67359E-02
 -1      4024 8.64466E-02
 -1      4025 8.64466E-02
 -1      4026 8.63976E-02
 -1      4027 8.63797E-02
 -1      4028 8.63797E-02
 -1      4029 8.63976E-02
 -1      4030 8.64466E-02
 -1      4031 8.64466E-02
 -1      4032 8.67359E-02
 -1      4033 8.67359E-02
 -1      4034 8.64466E-02
 -1      4035 8.64466E-02
 -1      4036 8.63976E-02
 -1      4037 8.63797E-02
 -1      4038 8.63797E-02
 -1      4039 8.63976E-02
 -1      4040 8.64466E-02
 -1      4041 8.64466E-02
 -1      4042 8.67359E-02
 -1      4043 8.62194E-02
 -1      4044 8.60074E-02
 -1      4045 8.60074E-02
 -1      4046 8.59639E-02
 -1      4047 8.59425E-02
 -1      4048 8.59425E-02
 -1      4049 8.59639E-02
 -1      4050 8.60074E-02
 -1      4051 8.60074E-02
 -1      4052 8.62194E-02
 -1      4053 8.62194E-02
 -1      4054 8.60074E-02
 -1      4055 8.60074E-02
 -1      4056 8.59640E-02
 -1      4057 8.59425E-02
 -1      4058 8.59425E-02
 -1      4059 8.59640E-02
 -1      4060 8.60074E-02
 -1      4061 8.60074E-02
 -1      4062 8.62194E-02
 -1      4063 8.62194E-02
 -1      4064 8.60074E-02
 -1      4065 8.60074E-02
 -1      4066 8.59640E-02
 -1      4067 8.59425E-02
 -1      4068 8.59425E-02
 -1      4069 8.59640E-02
 -1      4070 8.60074E-02
 -1      4071 8.60074E-02
 -1      4072 8.62194E-02
 -1      4073 8.62194E-02
 -1      4074 8.60074E-02
 -1      4075 8.60074E-02
 -1      4076 8.59640E-02
 -1      4077 8.59425E-02
 -1      4078 8.59425E-02
 -1      4079 8.59640E-02
 -1      4080 8.60074E-02
 -1      4081 8.60074E-02
 -1      4082 8.62194E-02
 -1      4083 8.62194E-02
 -1      4084 8.60074E-02
 -1      4085 8.60074E-02
 -1      4086 8.59640E-02
 -1      4087 8.59425E-02
 -1      4088 8.59425E-02
 -1      4089 8.59640E-02
 -1      4090 8.60074E-02
 -1      4091 8.60074E-02
 -1      4092 8.62194E-02
 -1      4093 8.62194E-02
 -1      4094 8.60074E-02
 -1      4095 8.60074E-02
 -1      4096 8.59640E-02
 -1      4097 8.59426E-02
 -1      4098 8.59426E-02
 -1      4099 8.59640E-02
 -1      4100 8.60074E-02
 -1      4101 8.60074E-02
 -1      4102 8.62194E-02
 -1      4103 8.62194E-02
 -1      4104 8.60074E-02
 -1      4105 8.60074E-02
 -1      4106 8.59640E-02
 -1      4107 8.59426E-02
 -1      4108 8.59426E-02
 -1      4109 8.59640E-02
 -1      4110 8.60074E-02
 -1      4111 8.60074E-02
 -1      4112 8.62194E-02
 -1      4113 8.62194E-02
 -1      4114 8.60074E-02
 -1      4115 8.60074E-02
 -1      4116 8.59640E-02
 -1      4117 8.59426E-02
 -1      4118 8.59426E-02
 -1      4119 8.59640E-02
 -1      4120 8.60074E-02
 -1      4121 8.60074E-02
 -1      4122 8.62194E-02
 -1      4123 8.62195E-02
 -1      4124 8.60075E-02
 -1      4125 8.60075E-02
 -1      4126 8.59640E-02
 -1      4127 8.59426E-02
 -1      4128 8.59426E-02
 -1      4129 8.59640E-02
 -1      4130 8.60075E-02
 -1      4131 8.60075E-02
 -1      4132 8.62195E-02
 -1      4133 8.62195E-02
 -1      4134 8.60075E-02
 -1      4135 8.60075E-02
 -1      4136 8.59640E-02
 -1      4137 8.59426E-02
 -1      4138 8.59426E-02
 -1      4139 8.59640E-02
 -1      4140 8.60075E-02
 -1      4141 8.60075E-02
 -1      4142 8.62195E-02
 -1      4143 8.62195E-02
 -1      4144 8.60075E-02
 -1      4145 8.60075E-02
 -1      4146 8.59640E-02
 -1      4147 8.59426E-02
 -1      4148 8.59426E-02
 -1      4149 8.59640E-02
 -1      4150 8.60075E-02
 -1      4151 8.60075E-02
 -1      4152 8.62195E-02
 -1      4153 8.62195E-02
 -1      4154 8.60075E-02
 -1      4155 8.60075E-02
 -1      4156 8.59640E-02
 -1      4157 8.59426E-02
 -1      4158 8.59426E-02
 -1      4159 8.59640E-02
 -1      4160 8.60075E-02
 -1      4161 8.60075E-02
 -1      4162 8.62195E-02
 -1      4163 8.62195E-02
 -1      4164 8.60075E-02
 -1      4165 8.60075E-02
 -1      4166 8.59640E-02
 -1      4167 8.59426E-02
 -1      4168 8.59426E-02
 -1      4169 8.59640E-02
 -1      4170 8.60075E-02
 -1      4171 8.60075E-02
 -1      4172 8.62195E-02
 -1      4173 8.62195E-02
 -1      4174 8.60075E-02
 -1      4175 8.60075E-02
 -1      4176 8.59640E-02
 -1      4177 8.59426E-02
 -1      4178 8.59426E-02
 -1      4179 8.59640E-02
 -1      4180 8.60075E-02
 -1      4181 8.60075E-02
 -1      4182 8.62195E-02
 -1      4183 8.62195E-02
 -1      4184 8.60075E-02
 -1      4185 8.60075E-02
 -1      4186 8.59640E-02
 -1      4187 8.59426E-02
 -1      4188 8.59426E-02
 -1      4189 8.59640E-02
 -1      4190 8.60075E-02
 -1      4191 8.60075E-02
 -1      4192 8.62195E-02
 -1      4193 8.62195E-02
 -1      4194 8.60075E-02
 -1      4195 8.60075E-02
 -1      4196 8.59640E-02
 -1      4197 8.59426E-02
 -1      4198 8.59426E-02
 -1      4199 8.59640E-02
 -1      4200 8.60075E-02
 -1      4201 8.60075E-02
 -1      4202 8.62195E-02
 -1      4203 8.62195E-02
 -1      4204 8.60075E-02
 -1      4205 8.60075E-02
 -1      4206 8.59640E-02
 -1      4207 8.59426E-02
 -1      4208 8.59426E-02
 -1      4209 8.59640E-02
 -1      4210 8.60075E-02
 -1      4211 8.60075E-02
 -1      4212 8.62195E-02
 -1      4213 8.62195E-02
 -1      4214 8.60075E-02
 -1      4215 8.60075E-02
 -1      4216 8.59640E-02
 -1      4217 8.59426E-02
 -1      4218 8.59426E-02
 -1      4219 8.59640E-02
 -1      4220 8.60075E-02
 -1      4221 8.60075E-02
 -1      4222 8.62195E-02
 -1      4223 8.62195E-02
 -1      4224 8.60075E-02
 -1      4225 8.60075E-02
 -1      4226 8.59640E-02
 -1      4227 8.59426E-02
 -1      4228 8.59426E-02
 -1      4229 8.59640E-02
 -1      4230 8.60075E-02
 -1      4231 8.60075E-02
 -1      4232 8.62195E-02
 -1      4233 8.62195E-02
 -1      4234 8.60075E-02
 -1      4235 8.60075E-02
 -1      4236 8.59640E-02
 -1      4237 8.59426E-02
 -1      4238 8.59426E-02
 -1      4239 8.59640E-02
 -1      4240 8.60075E-02
 -1      4241 8.60075E-02
 -1      4242 8.62195E-02
 -1      4243 8.62195E-02
 -1      4244 8.60075E-02
 -1      4245 8.60075E-02
 -1      4246 8.59640E-02
 -1      4247 8.59426E-02
 -1      4248 8.59426E-02
 -1      4249 8.59640E-02
 -1      4250 8.60075E-02
 -1      4251 8.60075E-02
 -1      4252 8.62195E-02
 -1      4253 8.62195E-02
 -1      4254 8.60075E-02
 -1      4255 8.60075E-02
 -1      4256 8.59640E-02
 -1      4257 8.59426E-02
 -1      4258 8.59426E-02
 -1      4259 8.59640E-02
 -1      4260 8.60075E-02
 -1      4261 8.60075E-02
 -1      4262 8.62195E-02
 -1      4263 8.62194E-02
 -1      4264 8.60074E-02
 -1      4265 8.60074E-02
 -1      4266 8.59640E-02
 -1      4267 8.59426E-02
 -1      4268 8.59426E-02
 -1      4269 8.59640E-02
 -1      4270 8.60074E-02
 -1      4271 8.60074E-02
 -1      4272 8.62194E-02
 -1      4273 8.62194E-02
 -1      4274 8.60074E-02
 -1      4275 8.60074E-02
 -1      4276 8.59640E-02
 -1      4277 8.59426E-02
 -1      4278 8.59426E-02
 -1      4279 8.59640E-02
 -1      4280 8.60074E-02
 -1      4281 8.60074E-02
 -1      4282 8.62194E-02
 -1      4283 8.62194E-02
 -1      4284 8.60074E-02
 -1      4285 8.60074E-02
 -1      4286 8.59640E-02
 -1      4287 8.59426E-02
 -1      4288 8.59426E-02
 -1      4289 8.59640E-02
 -1      4290 8.60074E-02
 -1      4291 8.60074E-02
 -1      4292 8.62194E-02
 -1      4293 8.62194E-02
 -1      4294 8.60074E-02
 -1      4295 8.60074E-02
 -1      4296 8.59640E-02
 -1      4297 8.59425E-02
 -1      4298 8.59425E-02
 -1      4299 8.59640E-02
 -1      4300 8.60074E-02
 -1      4301 8.60074E-02
 -1      4302 8.62194E-02
 -1      4303 8.62194E-02
 -1      4304 8.60074E-02
 -1      4305 8.60074E-02
 -1      4306 8.59640E-02
 -1      4307 8.59425E-02
 -1      4308 8.59425E-02
 -1      4309 8.59640E-02
 -1      4310 8.60074E-02
 -1      4311 8.60074E-02
 -1      4312 8.62194E-02
 -1      4313 8.62194E-02
 -1      4314 8.60074E-02
 -1      4315 8.60074E-02
 -1      4316 8.59640E-02
 -1      4317 8.59425E-02
 -1      4318 8.59425E-02
 -1      4319 8.59640E-02
 -1      4320 8.60074E-02
 -1      4321 8.60074E-02
 -1      4322 8.62194E-02
 -1      4323 8.62194E-02
 -1      4324 8.60074E-02
 -1      4325 8.60074E-02
 -1      4326 8.59639E-02
 -1      4327 8.59425E-02
 -1      4328 8.59425E-02
 -1      4329 8.59639E-02
 -1      4330 8.60074E-02
 -1      4331 8.60074E-02
 -1      4332 8.62194E-02
 -1      4333 8.57087E-02
 -1      4334 8.55647E-02
 -1      4335 8.55647E-02
 -1      4336 8.55288E-02
 -1      4337 8.55076E-02
 -1      4338 8.55076E-02
 -1      4339 8.55288E-02
 -1      4340 8.55647E-02
 -1      4341 8.55647E-02
 -1      4342 8.57087E-02
 -1      4343 8.57087E-02
 -1      4344 8.55647E-02
 -1      4345 8.55647E-02
 -1      4346 8.55288E-02
 -1      4347 8.55076E-02
 -1      4348 8.55076E-02
 -1      4349 8.55288E-02
 -1      4350 8.55647E-02
 -1      4351 8.55647E-02
 -1      4352 8.57087E-02
 -1      4353 8.57087E-02
 -1      4354 8.55647E-02
 -1      4355 8.55647E-02
 -1      4356 8.55288E-02
 -1      4357 8.55076E-02
 -1      4358 8.55076E-02
 -1      4359 8.55288E-02
 -1      4360 8.55647E-02
 -1      4361 8.55647E-02
 -1      4362 8.57087E-02
 -1      4363 8.57087E-02
 -1      4364 8.55647E-02
 -1      4365 8.55647E-02
 -1      4366 8.55288E-02
 -1      4367 8.55076E-02
 -1      4368 8.55076E-02
 -1      4369 8.55288E-02
 -1      4370 8.55647E-02
 -1      4371 8.55647E-02
 -1      4372 8.57087E-02
 -1      4373 8.57087E-02
 -1      4374 8.55647E-02
 -1      4375 8.55647E-02
 -1      4376 8.55288E-02
 -1      4377 8.55076E-02
 -1      4378 8.55076E-02
 -1      4379 8.55288E-02
 -1      4380 8.55647E-02
 -1      4381 8.55647E-02
 -1      4382 8.57087E-02
 -1      4383 8.57087E-02
 -1      4384 8.55647E-02
 -1      4385 8.55647E-02
 -1      4386 8.55288E-02
 -1      4387 8.55076E-02
 -1      4388 8.55076E-02
 -1      4389 8.55288E-02
 -1      4390 8.55647E-02
 -1      4391 8.55647E-02
 -1      4392 8.57087E-02
 -1      4393 8.57087E-02
 -1      4394 8.55647E-02
 -1      4395 8.55647E-02
 -1      4396 8.55288E-02
 -1      4397 8.55076E-02
 -1      4398 8.55076E-02
 -1      4399 8.55288E-02
 -1      4400 8.55647E-02
 -1      4401 8.55647E-02
 -1      4402 8.57087E-02
 -1      4403 8.57087E-02
 -1      4404 8.55647E-02
 -1      4405 8.55647E-02
 -1      4406 8.55288E-02
 -1      4407 8.55076E-02
 -1      4408 8.55076E-02
 -1      4409 8.55288E-02
 -1      4410 8.55647E-02
 -1      4411 8.55647E-02
 -1      4412 8.57087E-02
 -1      4413 8.57087E-02
 -1      4414 8.55647E-02
 -1      4415 8.55647E-02
 -1      4416 8.55288E-02
 -1      4417 8.55076E-02
 -1      4418 8.55076E-02
 -1      4419 8.55288E-02
 -1      4420 8.55647E-02
 -1      4421 8.55647E-02
 -1      4422 8.57087E-02
 -1      4423 8.57087E-02
 -1      4424 8.55647E-02
 -1      4425 8.55647E-02
 -1      4426 8.55288E-02
 -1      4427 8.55076E-02
 -1      4428 8.55076E-02
 -1      4429 8.55288E-02
 -1      4430 8.55647E-02
 -1      4431 8.55647E-02
 -1      4432 8.57087E-02
 -1      4433 8.57087E-02
 -1      4434 8.55647E-02
 -1      4435 8.55647E-02
 -1      4436 8.55288E-02
 -1      4437 8.55076E-02
 -1      4438 8.55076E-02
 -1      4439 8.55288E-02
 -1      4440 8.55647E-02
 -1      4441 8.55647E-02
 -1      4442 8.57087E-02
 -1      4443 8.57087E-02
 -1      4444 8.55647E-02
 -1      4445 8.55647E-02
 -1      4446 8.55288E-02
 -1      4447 8.55076E-02
 -1      4448 8.55076E-02
 -1      4449 8.55288E-02
 -1      4450 8.55647E-02
 -1      4451 8.55647E-02
 -1      4452 8.57087E-02
 -1      4453 8.57088E-02
 -1      4454 8.55647E-02
 -1      4455 8.55647E-02
 -1      4456 8.55288E-02
 -1      4457 8.55076E-02
 -1      4458 8.55076E-02
 -1      4459 8.55288E-02
 -1      4460 8.55647E-02
 -1      4461 8.55647E-02
 -1      4462 8.57088E-02
 -1      4463 8.57088E-02
 -1      4464 8.55647E-02
 -1      4465 8.55647E-02
 -1      4466 8.55288E-02
 -1      4467 8.55076E-02
 -1      4468 8.55076E-02
 -1      4469 8.55288E-02
 -1      4470 8.55647E-02
 -1      4471 8.55647E-02
 -1      4472 8.57088E-02
 -1      4473 8.57088E-02
 -1      4474 8.55647E-02
 -1      4475 8.55647E-02
 -1      4476 8.55288E-02
 -1      4477 8.55076E-02
 -1      4478 8.55076E-02
 -1      4479 8.55288E-02
 -1      4480 8.55647E-02
 -1      4481 8.55647E-02
 -1      4482 8.57088E-02
 -1      4483 8.57088E-02
 -1      4484 8.55647E-02
 -1      4485 8.55647E-02
 -1      4486 8.55288E-02
 -1      4487 8.55076E-02
 -1      4488 8.55076E-02
 -1      4489 8.55288E-02
 -1      4490 8.55647E-02
 -1      4491 8.55647E-02
 -1      4492 8.57088E-02
 -1      4493 8.57088E-02
 -1      4494 8.55647E-02
 -1      4495 8.55647E-02
 -1      4496 8.55288E-02
 -1      4497 8.55076E-02
 -1      4498 8.55076E-02
 -1      4499 8.55288E-02
 -1      4500 8.55647E-02
 -1      4501 8.55647E-02
 -1      4502 8.57088E-02
 -1      4503 8.57088E-02
 -1      4504 8.55647E-02
 -1      4505 8.55647E-02
 -1      4506 8.55288E-02
 -1      4507 8.55076E-02
 -1      4508 8.55076E-02
 -1      4509 8.55288E-02
 -1      4510 8.55647E-02
 -1      4511 8.55647E-02
 -1      4512 8.57088E-02
 -1      4513 8.57087E-02
 -1      4514 8.55647E-02
 -1      4515 8.55647E-02
 -1      4516 8.55288E-02
 -1      4517 8.55076E-02
 -1      4518 8.55076E-02
 -1      4519 8.55288E-02
 -1      4520 8.55647E-02
 -1      4521 8.55647E-02
 -1      4522 8.57087E-02
 -1      4523 8.57087E-02
 -1      4524 8.55647E-02
 -1      4525 8.55647E-02
 -1      4526 8.55288E-02
 -1      4527 8.55076E-02
 -1      4528 8.55076E-02
 -1      4529 8.55288E-02
 -1      4530 8.55647E-02
 -1      4531 8.55647E-02
 -1      4532 8.57087E-02
 -1      4533 8.57087E-02
 -1      4534 8.55647E-02
 -1      4535 8.55647E-02
 -1      4536 8.55288E-02
 -1      4537 8.55076E-02
 -1      4538 8.55076E-02
 -1      4539 8.55288E-02
 -1      4540 8.55647E-02
 -1      4541 8.55647E-02
 -1      4542 8.57087E-02
 -1      4543 8.57087E-02
 -1      4544 8.55647E-02
 -1      4545 8.55647E-02
 -1      4546 8.55288E-02
 -1      4547 8.55076E-02
 -1      4548 8.55076E-02
 -1      4549 8.55288E-02
 -1      4550 8.55647E-02
 -1      4551 8.55647E-02
 -1      4552 8.57087E-02
 -1      4553 8.57087E-02
 -1      4554 8.55647E-02
 -1      4555 8.55647E-02
 -1      4556 8.55288E-02
 -1      4557 8.55076E-02
 -1      4558 8.55076E-02
 -1      4559 8.55288E-02
 -1      4560 8.55647E-02
 -1      4561 8.55647E-02
 -1      4562 8.57087E-02
 -1      4563 8.57087E-02
 -1      4564 8.55647E-02
 -1      4565 8.55647E-02
 -1      4566 8.55288E-02
 -1      4567 8.55076E-02
 -1      4568 8.55076E-02
 -1      4569 8.55288E-02
 -1      4570 8.55647E-02
 -1      4571 8.55647E-02
 -1      4572 8.57087E-02
 -1      4573 8.57087E-02
 -1      4574 8.55647E-02
 -1      4575 8.55647E-02
 -1      4576 8.55288E-02
 -1      4577 8.55076E-02
 -1      4578 8.55076E-02
 -1      4579 8.55288E-02
 -1      4580 8.55647E-02
 -1      4581 8.55647E-02
 -1      4582 8.57087E-02
 -1      4583 8.57087E-02
 -1      4584 8.55647E-02
 -1      4585 8.55647E-02
 -1      4586 8.55288E-02
 -1      4587 8.55076E-02
 -1      4588 8.55076E-02
 -1      4589 8.55288E-02
 -1      4590 8.55647E-02
 -1      4591 8.55647E-02
 -1      4592 8.57087E-02
 -1      4593 8.57087E-02
 -1      4594 8.55647E-02
 -1      4595 8.55647E-02
 -1      4596 8.55288E-02
 -1      4597 8.55076E-02
 -1      4598 8.55076E-02
 -1      4599 8.55288E-02
 -1      4600 8.55647E-02
 -1      4601 8.55647E-02
 -1      4602 8.57087E-02
 -1      4603 8.57087E-02
 -1      4604 8.55647E-02
 -1      4605 8.55647E-02
 -1      4606 8.55288E-02
 -1      4607 8.55076E-02
 -1      4608 8.55076E-02
 -1      4609 8.55288E-02
 -1      4610 8.55647E-02
 -1      4611 8.55647E-02
 -1      4612 8.57087E-02
 -1      4613 8.57087E-02
 -1      4614 8.55647E-02
 -1      4615 8.55647E-02
 -1      4616 8.55288E-02
 -1      4617 8.55076E-02
 -1      4618 8.55076E-02
 -1      4619 8.55288E-02
 -1      4620 8.55647E-02
 -1      4621 8.55647E-02
 -1      4622 8.57087E-02
 -1      4623 8.52048E-02
 -1      4624 8.51208E-02
 -1      4625 8.51208E-02
 -1      4626 8.50925E-02
 -1      4627 8.50744E-02
 -1      4628 8.50744E-02
 -1      4629 8.50925E-02
 -1      4630 8.51208E-02
 -1      4631 8.51208E-02
 -1      4632 8.52048E-02
 -1      4633 8.52048E-02
 -1      4634 8.51208E-02
 -1      4635 8.51208E-02
 -1      4636 8.50925E-02
 -1      4637 8.50744E-02
 -1      4638 8.50744E-02
 -1      4639 8.50925E-02
 -1      4640 8.51208E-02
 -1      4641 8.51208E-02
 -1      4642 8.52048E-02
 -1      4643 8.52048E-02
 -1      4644 8.51209E-02
 -1      4645 8.51209E-02
 -1      4646 8.50925E-02
 -1      4647 8.50744E-02
 -1      4648 8.50744E-02
 -1      4649 8.50925E-02
 -1      4650 8.51209E-02
 -1      4651 8.51209E-02
 -1      4652 8.52048E-02
 -1      4653 8.52048E-02
 -1      4654 8.51209E-02
 -1      4655 8.51209E-02
 -1      4656 8.50925E-02
 -1      4657 8.50744E-02
 -1      4658 8.50744E-02
 -1      4659 8.50925E-02
 -1      4660 8.51209E-02
 -1      4661 8.51209E-02
 -1      4662 8.52048E-02
 -1      4663 8.52048E-02
 -1      4664 8.51209E-02
 -1      4665 8.51209E-02
 -1      4666 8.50925E-02
 -1      4667 8.50744E-02
 -1      4668 8.50744E-02
 -1      4669 8.50925E-02
 -1      4670 8.51209E-02
 -1      4671 8.51209E-02
 -1      4672 8.52048E-02
 -1      4673 8.52048E-02
 -1      4674 8.51209E-02
 -1      4675 8.51209E-02
 -1      4676 8.50925E-02
 -1      4677 8.50744E-02
 -1      4678 8.50744E-02
 -1      4679 8.50925E-02
 -1      4680 8.51209E-02
 -1      4681 8.51209E-02
 -1      4682 8.52048E-02
 -1      4683 8.52048E-02
 -1      4684 8.51209E-02
 -1      4685 8.51209E-02
 -1      4686 8.50925E-02
 -1      4687 8.50744E-02
 -1      4688 8.50744E-02
 -1      4689 8.50925E-02
 -1      4690 8.51209E-02
 -1      4691 8.51209E-02
 -1      4692 8.52048E-02
 -1      4693 8.52048E-02
 -1      4694 8.51209E-02
 -1      4695 8.51209E-02
 -1      4696 8.50925E-02
 -1      4697 8.50744E-02
 -1      4698 8.50744E-02
 -1      4699 8.50925E-02
 -1      4700 8.51209E-02
 -1      4701 8.51209E-02
 -1      4702 8.52048E-02
 -1      4703 8.52048E-02
 -1      4704 8.51209E-02
 -1      4705 8.51209E-02
 -1      4706 8.50925E-02
 -1      4707 8.50744E-02
 -1      4708 8.50744E-02
 -1      4709 8.50925E-02
 -1      4710 8.51209E-02
 -1      4711 8.51209E-02
 -1      4712 8.52048E-02
 -1      4713 8.52048E-02
 -1      4714 8.51209E-02
 -1      4715 8.51209E-02
 -1      4716 8.50925E-02
 -1      4717 8.50744E-02
 -1      4718 8.50744E-02
 -1      4719 8.50925E-02
 -1      4720 8.51209E-02
 -1      4721 8.51209E-02
 -1      4722 8.52048E-02
 -1      4723 8.52048E-02
 -1      4724 8.51209E-02
 -1      4725 8.51209E-02
 -1      4726 8.50925E-02
 -1      4727 8.50744E-02
 -1      4728 8.50744E-02
 -1      4729 8.50925E-02
 -1      4730 8.51209E-02
 -1      4731 8.51209E-02
 -1      4732 8.52048E-02
 -1      4733 8.52048E-02
 -1      4734 8.51209E-02
 -1      4735 8.51209E-02
 -1      4736 8.50925E-02
 -1      4737 8.50744E-02
 -1      4738 8.50744E-02
 -1      4739 8.50925E-02
 -1      4740 8.51209E-02
 -1      4741 8.51209E-02
 -1      4742 8.52048E-02
 -1      4743 8.52048E-02
 -1      4744 8.51209E-02
 -1      4745 8.51209E-02
 -1      4746 8.50925E-02
 -1      4747 8.50744E-02
 -1      4748 8.50744E-02
 -1      4749 8.50925E-02
 -1      4750 8.51209E-02
 -1      4751 8.51209E-02
 -1      4752 8.52048E-02
 -1      4753 8.52048E-02
 -1      4754 8.51209E-02
 -1      4755 8.51209E-02
 -1      4756 8.50926E-02
 -1      4757 8.50744E-02
 -1      4758 8.50744E-02
 -1      4759 8.50926E-02
 -1      4760 8.51209E-02
 -1      4761 8.51209E-02
 -1      4762 8.52048E-02
 -1      4763 8.52048E-02
 -1      4764 8.51209E-02
 -1      4765 8.51209E-02
 -1      4766 8.50926E-02
 -1      4767 8.50744E-02
 -1      4768 8.50744E-02
 -1      4769 8.50926E-02
 -1      4770 8.51209E-02
 -1      4771 8.51209E-02
 -1      4772 8.52048E-02
 -1      4773 8.52048E-02
 -1      4774 8.51209E-02
 -1      4775 8.51209E-02
 -1      4776 8.50926E-02
 -1      4777 8.50744E-02
 -1      4778 8.50744E-02
 -1      4779 8.50926E-02
 -1      4780 8.51209E-02
 -1      4781 8.51209E-02
 -1      4782 8.52048E-02
 -1      4783 8.52048E-02
 -1      4784 8.51209E-02
 -1      4785 8.51209E-02
 -1      4786 8.50926E-02
 -1      4787 8.50744E-02
 -1      4788 8.50744E-02
 -1      4789 8.50926E-02
 -1      4790 8.51209E-02
 -1      4791 8.51209E-02
 -1      4792 8.52048E-02
 -1      4793 8.52048E-02
 -1      4794 8.51209E-02
 -1      4795 8.51209E-02
 -1      4796 8.50925E-02
 -1      4797 8.50744E-02
 -1      4798 8.50744E-02
 -1      4799 8.50925E-02
 -1      4800 8.51209E-02
 -1      4801 8.51209E-02
 -1      4802 8.52048E-02
 -1      4803 8.52048E-02
 -1      4804 8.51209E-02
 -1      4805 8.51209E-02
 -1      4806 8.50925E-02
 -1      4807 8.50744E-02
 -1      4808 8.50744E-02
 -1      4809 8.50925E-02
 -1      4810 8.51209E-02
 -1      4811 8.51209E-02
 -1      4812 8.52048E-02
 -1      4813 8.52048E-02
 -1      4814 8.51209E-02
 -1      4815 8.51209E-02
 -1      4816 8.50925E-02
 -1      4817 8.50744E-02
 -1      4818 8.50744E-02
 -1      4819 8.50925E-02
 -1      4820 8.51209E-02
 -1      4821 8.51209E-02
 -1      4822 8.52048E-02
 -1      4823 8.52048E-02
 -1      4824 8.51209E-02
 -1      4825 8.51209E-02
 -1      4826 8.50925E-02
 -1      4827 8.50744E-02
 -1      4828 8.50744E-02
 -1      4829 8.50925E-02
 -1      4830 8.51209E-02
 -1      4831 8.51209E-02
 -1      4832 8.52048E-02
 -1      4833 8.52048E-02
 -1      4834 8.51209E-02
 -1      4835 8.51209E-02
 -1      4836 8.50925E-02
 -1      4837 8.50744E-02
 -1      4838 8.50744E-02
 -1      4839 8.50925E-02
 -1      4840 8.51209E-02
 -1      4841 8.51209E-02
 -1      4842 8.52048E-02
 -1      4843 8.52048E-02
 -1      4844 8.51209E-02
 -1      4845 8.51209E-02
 -1      4846 8.50925E-02
 -1      4847 8.50744E-02
 -1      4848 8.50744E-02
 -1      4849 8.50925E-02
 -1      4850 8.51209E-02
 -1      4851 8.51209E-02
 -1      4852 8.52048E-02
 -1      4853 8.52048E-02
 -1      4854 8.51209E-02
 -1      4855 8.51209E-02
 -1      4856 8.50925E-02
 -1      4857 8.50744E-02
 -1      4858 8.50744E-02
 -1      4859 8.50925E-02
 -1      4860 8.51209E-02
 -1      4861 8.51209E-02
 -1      4862 8.52048E-02
 -1      4863 8.52048E-02
 -1      4864 8.51209E-02
 -1      4865 8.51209E-02
 -1      4866 8.50925E-02
 -1      4867 8.50744E-02
 -1      4868 8.50744E-02
 -1      4869 8.50925E-02
 -1      4870 8.51209E-02
 -1      4871 8.51209E-02
 -1      4872 8.52048E-02
 -1      4873 8.52048E-02
 -1      4874 8.51209E-02
 -1      4875 8.51209E-02
 -1      4876 8.50925E-02
 -1      4877 8.50744E-02
 -1      4878 8.50744E-02
 -1      4879 8.50925E-02
 -1      4880 8.51209E-02
 -1      4881 8.51209E-02
 -1      4882 8.52048E-02
 -1      4883 8.52048E-02
 -1      4884 8.51209E-02
 -1      4885 8.51209E-02
 -1      4886 8.50925E-02
 -1      4887 8.50744E-02
 -1      4888 8.50744E-02
 -1      4889 8.50925E-02
 -1      4890 8.51209E-02
 -1      4891 8.51209E-02
 -1      4892 8.52048E-02
 -1      4893 8.52048E-02
 -1      4894 8.51208E-02
 -1      4895 8.51208E-02
 -1      4896 8.50925E-02
 -1      4897 8.50744E-02
 -1      4898 8.50744E-02
 -1      4899 8.50925E-02
 -1      4900 8.51208E-02
 -1      4901 8.51208E-02
 -1      4902 8.52048E-02
 -1      4903 8.52048E-02
 -1      4904 8.51208E-02
 -1      4905 8.51208E-02
 -1      4906 8.50925E-02
 -1      4907 8.50744E-02
 -1      4908 8.50744E-02
 -1      4909 8.50925E-02
 -1      4910 8.51208E-02
 -1      4911 8.51208E-02
 -1      4912 8.52048E-02
 -1      4913 8.47066E-02
 -1      4914 8.46820E-02
 -1      4915 8.46771E-02
 -1      4916 8.46560E-02
 -1      4917 8.46430E-02
 -1      4918 8.46430E-02
 -1      4919 8.46560E-02
 -1      4920 8.46771E-02
 -1      4921 8.46820E-02
 -1      4922 8.47066E-02
 -1      4923 8.47066E-02
 -1      4924 8.46820E-02
 -1      4925 8.46771E-02
 -1      4926 8.46560E-02
 -1      4927 8.46430E-02
 -1      4928 8.46430E-02
 -1      4929 8.46560E-02
 -1      4930 8.46771E-02
 -1      4931 8.46820E-02
 -1      4932 8.47066E-02
 -1      4933 8.47066E-02
 -1      4934 8.46820E-02
 -1      4935 8.46771E-02
 -1      4936 8.46560E-02
 -1      4937 8.46430E-02
 -1      4938 8.46430E-02
 -1      4939 8.46560E-02
 -1      4940 8.46771E-02
 -1      4941 8.46820E-02
 -1      4942 8.47066E-02
 -1      4943 8.47066E-02
 -1      4944 8.46820E-02
 -1      4945 8.46771E-02
 -1      4946 8.46560E-02
 -1      4947 8.46430E-02
 -1      4948 8.46430E-02
 -1      4949 8.46560E-02
 -1      4950 8.46771E-02
 -1      4951 8.46820E-02
 -1      4952 8.47066E-02
 -1      4953 8.47066E-02
 -1      4954 8.46820E-02
 -1      4955 8.46771E-02
 -1      4956 8.46560E-02
 -1      4957 8.46430E-02
 -1      4958 8.46430E-02
 -1      4959 8.46560E-02
 -1      4960 8.46771E-02
 -1      4961 8.46820E-02
 -1      4962 8.47066E-02
 -1      4963 8.47066E-02
 -1      4964 8.46820E-02
 -1      4965 8.46771E-02
 -1      4966 8.46560E-02
 -1      4967 8.46430E-02
 -1      4968 8.46430E-02
 -1      4969 8.46560E-02
 -1      4970 8.46771E-02
 -1      4971 8.46820E-02
 -1      4972 8.47066E-02
 -1      4973 8.47066E-02
 -1      4974 8.46820E-02
 -1      4975 8.46771E-02
 -1      4976 8.46560E-02
 -1      4977 8.46430E-02
 -1      4978 8.46430E-02
 -1      4979 8.46560E-02
 -1      4980 8.46771E-02
 -1      4981 8.46820E-02
 -1      4982 8.47066E-02
 -1      4983 8.47066E-02
 -1      4984 8.46820E-02
 -1      4985 8.46771E-02
 -1      4986 8.46560E-02
 -1      4987 8.46430E-02
 -1      4988 8.46430E-02
 -1      4989 8.46560E-02
 -1      4990 8.46771E-02
 -1      4991 8.46820E-02
 -1      4992 8.47066E-02
 -1      4993 8.47066E-02
 -1      4994 8.46820E-02
 -1      4995 8.46771E-02
 -1      4996 8.46560E-02
 -1      4997 8.46430E-02
 -1      4998 8.46430E-02
 -1      4999 8.46560E-02
 -1      5000 8.46771E-02
 -1      5001 8.46820E-02
 -1      5002 8.47066E-02
 -1      5003 8.47066E-02
 -1      5004 8.46820E-02
 -1      5005 8.46771E-02
 -1      5006 8.46560E-02
 -1      5007 8.46431E-02
 -1      5008 8.46431E-02
 -1      5009 8.46560E-02
 -1      5010 8.46771E-02
 -1      5011 8.46820E-02
 -1      5012 8.47066E-02
 -1      5013 8.47066E-02
 -1      5014 8.46820E-02
 -1      5015 8.46772E-02
 -1      5016 8.46560E-02
 -1      5017 8.46431E-02
 -1      5018 8.46431E-02
 -1      5019 8.46560E-02
 -1      5020 8.46772E-02
 -1      5021 8.46820E-02
 -1      5022 8.47066E-02
 -1      5023 8.47066E-02
 -1      5024 8.46820E-02
 -1      5025 8.46772E-02
 -1      5026 8.46561E-02
 -1      5027 8.46431E-02
 -1      5028 8.46431E-02
 -1      5029 8.46561E-02
 -1      5030 8.46772E-02
 -1      5031 8.46820E-02
 -1      5032 8.47066E-02
 -1      5033 8.47066E-02
 -1      5034 8.46820E-02
 -1      5035 8.46772E-02
 -1      5036 8.46561E-02
 -1      5037 8.46431E-02
 -1      5038 8.46431E-02
 -1      5039 8.46561E-02
 -1      5040 8.46772E-02
 -1      5041 8.46820E-02
 -1      5042 8.47066E-02
 -1      5043 8.47066E-02
 -1      5044 8.46820E-02
 -1      5045 8.46772E-02
 -1      5046 8.46561E-02
 -1      5047 8.46431E-02
 -1      5048 8.46431E-02
 -1      5049 8.46561E-02
 -1      5050 8.46772E-02
 -1      5051 8.46820E-02
 -1      5052 8.47066E-02
 -1      5053 8.47066E-02
 -1      5054 8.46820E-02
 -1      5055 8.46772E-02
 -1      5056 8.46561E-02
 -1      5057 8.46431E-02
 -1      5058 8.46431E-02
 -1      5059 8.46561E-02
 -1      5060 8.46772E-02
 -1      5061 8.46820E-02
 -1      5062 8.47066E-02
 -1      5063 8.47066E-02
 -1      5064 8.46820E-02
 -1      5065 8.46772E-02
 -1      5066 8.46561E-02
 -1      5067 8.46431E-02
 -1      5068 8.46431E-02
 -1      5069 8.46561E-02
 -1      5070 8.46772E-02
 -1      5071 8.46820E-02
 -1      5072 8.47066E-02
 -1      5073 8.47066E-02
 -1      5074 8.46820E-02
 -1      5075 8.46772E-02
 -1      5076 8.46561E-02
 -1      5077 8.46431E-02
 -1      5078 8.46431E-02
 -1      5079 8.46561E-02
 -1      5080 8.46772E-02
 -1      5081 8.46820E-02
 -1      5082 8.47066E-02
 -1      5083 8.47066E-02
 -1      5084 8.46820E-02
 -1      5085 8.46772E-02
 -1      5086 8.46561E-02
 -1      5087 8.46431E-02
 -1      5088 8.46431E-02
 -1      5089 8.46561E-02
 -1      5090 8.46772E-02
 -1      5091 8.46820E-02
 -1      5092 8.47066E-02
 -1      5093 8.47066E-02
 -1      5094 8.46820E-02
 -1      5095 8.46772E-02
 -1      5096 8.46561E-02
 -1      5097 8.46431E-02
 -1      5098 8.46431E-02
 -1      5099 8.46561E-02
 -1      5100 8.46772E-02
 -1      5101 8.46820E-02
 -1      5102 8.47066E-02
 -1      5103 8.47066E-02
 -1      5104 8.46820E-02
 -1      5105 8.46772E-02
 -1      5106 8.46560E-02
 -1      5107 8.46431E-02
 -1      5108 8.46431E-02
 -1      5109 8.46560E-02
 -1      5110 8.46772E-02
 -1      5111 8.46820E-02
 -1      5112 8.47066E-02
 -1      5113 8.47066E-02
 -1      5114 8.46820E-02
 -1      5115 8.46772E-02
 -1      5116 8.46560E-02
 -1      5117 8.46431E-02
 -1      5118 8.46431E-02
 -1      5119 8.46560E-02
 -1      5120 8.46772E-02
 -1      5121 8.46820E-02
 -1      5122 8.47066E-02
 -1      5123 8.47066E-02
 -1      5124 8.46820E-02
 -1      5125 8.46771E-02
 -1      5126 8.46560E-02
 -1      5127 8.46431E-02
 -1      5128 8.46431E-02
 -1      5129 8.46560E-02
 -1      5130 8.46771E-02
 -1      5131 8.46820E-02
 -1      5132 8.47066E-02
 -1      5133 8.47066E-02
 -1      5134 8.46820E-02
 -1      5135 8.46771E-02
 -1      5136 8.46560E-02
 -1      5137 8.46430E-02
 -1      5138 8.46430E-02
 -1      5139 8.46560E-02
 -1      5140 8.46771E-02
 -1      5141 8.46820E-02
 -1      5142 8.47066E-02
 -1      5143 8.47066E-02
 -1      5144 8.46820E-02
 -1      5145 8.46771E-02
 -1      5146 8.46560E-02
 -1      5147 8.46430E-02
 -1      5148 8.46430E-02
 -1      5149 8.46560E-02
 -1      5150 8.46771E-02
 -1      5151 8.46820E-02
 -1      5152 8.47066E-02
 -1      5153 8.47066E-02
 -1      5154 8.46820E-02
 -1      5155 8.46771E-02
 -1      5156 8.46560E-02
 -1      5157 8.46430E-02
 -1      5158 8.46430E-02
 -1      5159 8.46560E-02
 -1      5160 8.46771E-02
 -1      5161 8.46820E-02
 -1      5162 8.47066E-02
 -1      5163 8.47066E-02
 -1      5164 8.46820E-02
 -1      5165 8.46771E-02
 -1      5166 8.46560E-02
 -1      5167 8.46430E-02
 -1      5168 8.46430E-02
 -1      5169 8.46560E-02
 -1      5170 8.46771E-02
 -1      5171 8.46820E-02
 -1      5172 8.47066E-02
 -1      5173 8.47066E-02
 -1      5174 8.46820E-02
 -1      5175 8.46771E-02
 -1      5176 8.46560E-02
 -1      5177 8.46430E-02
 -1      5178 8.46430E-02
 -1      5179 8.46560E-02
 -1      5180 8.46771E-02
 -1      5181 8.46820E-02
 -1      5182 8.47066E-02
 -1      5183 8.47066E-02
 -1      5184 8.46820E-02
 -1      5185 8.46771E-02
 -1      5186 8.46560E-02
 -1      5187 8.46430E-02
 -1      5188 8.46430E-02
 -1      5189 8.46560E-02
 -1      5190 8.46771E-02
 -1      5191 8.46820E-02
 -1      5192 8.47066E-02
 -1      5193 8.47066E-02
 -1      5194 8.46820E-02
 -1      5195 8.46771E-02
 -1      5196 8.46560E-02
 -1      5197 8.46430E-02
 -1      5198 8.46430E-02
 -1      5199 8.46560E-02
 -1      5200 8.46771E-02
 -1      5201 8.46820E-02
 -1      5202 8.47066E-02
 -1      5203 8.42741E-02
 -1      5204 8.42576E-02
 -1      5205 8.42338E-02
 -1      5206 8.42203E-02
 -1      5207 8.42138E-02
 -1      5208 8.42138E-02
 -1      5209 8.42203E-02
 -1      5210 8.42338E-02
 -1      5211 8.42576E-02
 -1      5212 8.42741E-02
 -1      5213 8.42741E-02
 -1      5214 8.42576E-02
 -1      5215 8.42338E-02
 -1      5216 8.42203E-02
 -1      5217 8.42138E-02
 -1      5218 8.42138E-02
 -1      5219 8.42203E-02
 -1      5220 8.42338E-02
 -1      5221 8.42576E-02
 -1      5222 8.42741E-02
 -1      5223 8.42741E-02
 -1      5224 8.42576E-02
 -1      5225 8.42338E-02
 -1      5226 8.42203E-02
 -1      5227 8.42138E-02
 -1      5228 8.42138E-02
 -1      5229 8.42203E-02
 -1      5230 8.42338E-02
 -1      5231 8.42576E-02
 -1      5232 8.42741E-02
 -1      5233 8.42741E-02
 -1      5234 8.42576E-02
 -1      5235 8.42338E-02
 -1      5236 8.42203E-02
 -1      5237 8.42138E-02
 -1      5238 8.42138E-02
 -1      5239 8.42203E-02
 -1      5240 8.42338E-02
 -1      5241 8.42576E-02
 -1      5242 8.42741E-02
 -1      5243 8.42741E-02
 -1      5244 8.42576E-02
 -1      5245 8.42338E-02
 -1      5246 8.42203E-02
 -1      5247 8.42138E-02
 -1      5248 8.42138E-02
 -1      5249 8.42203E-02
 -1      5250 8.42338E-02
 -1      5251 8.42576E-02
 -1      5252 8.42741E-02
 -1      5253 8.42741E-02
 -1      5254 8.42576E-02
 -1      5255 8.42338E-02
 -1      5256 8.42203E-02
 -1      5257 8.42138E-02
 -1      5258 8.42138E-02
 -1      5259 8.42203E-02
 -1      5260 8.42338E-02
 -1      5261 8.42576E-02
 -1      5262 8.42741E-02
 -1      5263 8.42741E-02
 -1      5264 8.42576E-02
 -1      5265 8.42338E-02
 -1      5266 8.42203E-02
 -1      5267 8.42139E-02
 -1      5268 8.42139E-02
 -1      5269 8.42203E-02
 -1      5270 8.42338E-02
 -1      5271 8.42576E-02
 -1      5272 8.42741E-02
 -1      5273 8.42741E-02
 -1      5274 8.42577E-02
 -1      5275 8.42338E-02
 -1      5276 8.42203E-02
 -1      5277 8.42139E-02
 -1      5278 8.42139E-02
 -1      5279 8.42203E-02
 -1      5280 8.42338E-02
 -1      5281 8.42577E-02
 -1      5282 8.42741E-02
 -1      5283 8.42741E-02
 -1      5284 8.42577E-02
 -1      5285 8.42338E-02
 -1      5286 8.42203E-02
 -1      5287 8.42139E-02
 -1      5288 8.42139E-02
 -1      5289 8.42203E-02
 -1      5290 8.42338E-02
 -1      5291 8.42577E-02
 -1      5292 8.42741E-02
 -1      5293 8.42741E-02
 -1      5294 8.42577E-02
 -1      5295 8.42338E-02
 -1      5296 8.42203E-02
 -1      5297 8.42139E-02
 -1      5298 8.42139E-02
 -1      5299 8.42203E-02
 -1      5300 8.42338E-02
 -1      5301 8.42577E-02
 -1      5302 8.42741E-02
 -1      5303 8.42741E-02
 -1      5304 8.42577E-02
 -1      5305 8.42338E-02
 -1      5306 8.42203E-02
 -1      5307 8.42139E-02
 -1      5308 8.42139E-02
 -1      5309 8.42203E-02
 -1      5310 8.42338E-02
 -1      5311 8.42577E-02
 -1      5312 8.42741E-02
 -1      5313 8.42741E-02
 -1      5314 8.42577E-02
 -1      5315 8.42338E-02
 -1      5316 8.42204E-02
 -1      5317 8.42139E-02
 -1      5318 8.42139E-02
 -1      5319 8.42204E-02
 -1      5320 8.42338E-02
 -1      5321 8.42577E-02
 -1      5322 8.42741E-02
 -1      5323 8.42741E-02
 -1      5324 8.42577E-02
 -1      5325 8.42338E-02
 -1      5326 8.42204E-02
 -1      5327 8.42139E-02
 -1      5328 8.42139E-02
 -1      5329 8.42204E-02
 -1      5330 8.42338E-02
 -1      5331 8.42577E-02
 -1      5332 8.42741E-02
 -1      5333 8.42741E-02
 -1      5334 8.42577E-02
 -1      5335 8.42338E-02
 -1      5336 8.42204E-02
 -1      5337 8.42139E-02
 -1      5338 8.42139E-02
 -1      5339 8.42204E-02
 -1      5340 8.42338E-02
 -1      5341 8.42577E-02
 -1      5342 8.42741E-02
 -1      5343 8.42741E-02
 -1      5344 8.42577E-02
 -1      5345 8.42338E-02
 -1      5346 8.42204E-02
 -1      5347 8.42139E-02
 -1      5348 8.42139E-02
 -1      5349 8.42204E-02
 -1      5350 8.42338E-02
 -1      5351 8.42577E-02
 -1      5352 8.42741E-02
 -1      5353 8.42741E-02
 -1      5354 8.42577E-02
 -1      5355 8.42338E-02
 -1      5356 8.42204E-02
 -1      5357 8.42139E-02
 -1      5358 8.42139E-02
 -1      5359 8.42204E-02
 -1      5360 8.42338E-02
 -1      5361 8.42577E-02
 -1      5362 8.42741E-02
 -1      5363 8.42741E-02
 -1      5364 8.42577E-02
 -1      5365 8.42338E-02
 -1      5366 8.42204E-02
 -1      5367 8.42139E-02
 -1      5368 8.42139E-02
 -1      5369 8.42204E-02
 -1      5370 8.42338E-02
 -1      5371 8.42577E-02
 -1      5372 8.42741E-02
 -1      5373 8.42741E-02
 -1      5374 8.42577E-02
 -1      5375 8.42338E-02
 -1      5376 8.42204E-02
 -1      5377 8.42139E-02
 -1      5378 8.42139E-02
 -1      5379 8.42204E-02
 -1      5380 8.42338E-02
 -1      5381 8.42577E-02
 -1      5382 8.42741E-02
 -1      5383 8.42741E-02
 -1      5384 8.42577E-02
 -1      5385 8.42338E-02
 -1      5386 8.42204E-02
 -1      5387 8.42139E-02
 -1      5388 8.42139E-02
 -1      5389 8.42204E-02
 -1      5390 8.42338E-02
 -1      5391 8.42577E-02
 -1      5392 8.42741E-02
 -1      5393 8.42741E-02
 -1      5394 8.42577E-02
 -1      5395 8.42338E-02
 -1      5396 8.42203E-02
 -1      5397 8.42139E-02
 -1      5398 8.42139E-02
 -1      5399 8.42203E-02
 -1      5400 8.42338E-02
 -1      5401 8.42577E-02
 -1      5402 8.42741E-02
 -1      5403 8.42741E-02
 -1      5404 8.42577E-02
 -1      5405 8.42338E-02
 -1      5406 8.42203E-02
 -1      5407 8.42139E-02
 -1      5408 8.42139E-02
 -1      5409 8.42203E-02
 -1      5410 8.42338E-02
 -1      5411 8.42577E-02
 -1      5412 8.42741E-02
 -1      5413 8.42741E-02
 -1      5414 8.42577E-02
 -1      5415 8.42338E-02
 -1      5416 8.42203E-02
 -1      5417 8.42139E-02
 -1      5418 8.42139E-02
 -1      5419 8.42203E-02
 -1      5420 8.42338E-02
 -1      5421 8.42577E-02
 -1      5422 8.42741E-02
 -1      5423 8.42741E-02
 -1      5424 8.42577E-02
 -1      5425 8.42338E-02
 -1      5426 8.42203E-02
 -1      5427 8.42139E-02
 -1      5428 8.42139E-02
 -1      5429 8.42203E-02
 -1      5430 8.42338E-02
 -1      5431 8.42577E-02
 -1      5432 8.42741E-02
 -1      5433 8.42741E-02
 -1      5434 8.42576E-02
 -1      5435 8.42338E-02
 -1      5436 8.42203E-02
 -1      5437 8.42139E-02
 -1      5438 8.42139E-02
 -1      5439 8.42203E-02
 -1      5440 8.42338E-02
 -1      5441 8.42576E-02
 -1      5442 8.42741E-02
 -1      5443 8.42741E-02
 -1      5444 8.42576E-02
 -1      5445 8.42338E-02
 -1      5446 8.42203E-02
 -1      5447 8.42138E-02
 -1      5448 8.42138E-02
 -1      5449 8.42203E-02
 -1      5450 8.42338E-02
 -1      5451 8.42576E-02
 -1      5452 8.42741E-02
 -1      5453 8.42741E-02
 -1      5454 8.42576E-02
 -1      5455 8.42338E-02
 -1      5456 8.42203E-02
 -1      5457 8.42138E-02
 -1      5458 8.42138E-02
 -1      5459 8.42203E-02
 -1      5460 8.42338E-02
 -1      5461 8.42576E-02
 -1      5462 8.42741E-02
 -1      5463 8.42741E-02
 -1      5464 8.42576E-02
 -1      5465 8.42338E-02
 -1      5466 8.42203E-02
 -1      5467 8.42138E-02
 -1      5468 8.42138E-02
 -1      5469 8.42203E-02
 -1      5470 8.42338E-02
 -1      5471 8.42576E-02
 -1      5472 8.42741E-02
 -1      5473 8.42741E-02
 -1      5474 8.42576E-02
 -1      5475 8.42338E-02
 -1      5476 8.42203E-02
 -1      5477 8.42138E-02
 -1      5478 8.42138E-02
 -1      5479 8.42203E-02
 -1      5480 8.42338E-02
 -1      5481 8.42576E-02
 -1      5482 8.42741E-02
 -1      5483 8.42741E-02
 -1      5484 8.42576E-02
 -1      5485 8.42338E-02
 -1      5486 8.42203E-02
 -1      5487 8.42138E-02
 -1      5488 8.42138E-02
 -1      5489 8.42203E-02
 -1      5490 8.42338E-02
 -1      5491 8.42576E-02
 -1      5492 8.42741E-02
 -1      5493 8.39180E-02
 -1      5494 8.38331E-02
 -1      5495 8.38158E-02
 -1      5496 8.37926E-02
 -1      5497 8.37873E-02
 -1      5498 8.37873E-02
 -1      5499 8.37926E-02
 -1      5500 8.38158E-02
 -1      5501 8.38331E-02
 -1      5502 8.39180E-02
 -1      5503 8.39180E-02
 -1      5504 8.38332E-02
 -1      5505 8.38158E-02
 -1      5506 8.37926E-02
 -1      5507 8.37873E-02
 -1      5508 8.37873E-02
 -1      5509 8.37926E-02
 -1      5510 8.38158E-02
 -1      5511 8.38332E-02
 -1      5512 8.39180E-02
 -1      5513 8.39180E-02
 -1      5514 8.38332E-02
 -1      5515 8.38158E-02
 -1      5516 8.37926E-02
 -1      5517 8.37873E-02
 -1      5518 8.37873E-02
 -1      5519 8.37926E-02
 -1      5520 8.38158E-02
 -1      5521 8.38332E-02
 -1      5522 8.39180E-02
 -1      5523 8.39180E-02
 -1      5524 8.38332E-02
 -1      5525 8.38158E-02
 -1      5526 8.37926E-02
 -1      5527 8.37873E-02
 -1      5528 8.37873E-02
 -1      5529 8.37926E-02
 -1      5530 8.38158E-02
 -1      5531 8.38332E-02
 -1      5532 8.39180E-02
 -1      5533 8.39180E-02
 -1      5534 8.38332E-02
 -1      5535 8.38158E-02
 -1      5536 8.37926E-02
 -1      5537 8.37873E-02
 -1      5538 8.37873E-02
 -1      5539 8.37926E-02
 -1      5540 8.38158E-02
 -1      5541 8.38332E-02
 -1      5542 8.39180E-02
 -1      5543 8.39180E-02
 -1      5544 8.38332E-02
 -1      5545 8.38158E-02
 -1      5546 8.37927E-02
 -1      5547 8.37873E-02
 -1      5548 8.37873E-02
 -1      5549 8.37927E-02
 -1      5550 8.38158E-02
 -1      5551 8.38332E-02
 -1      5552 8.39180E-02
 -1      5553 8.39180E-02
 -1      5554 8.38332E-02
 -1      5555 8.38158E-02
 -1      5556 8.37927E-02
 -1      5557 8.37874E-02
 -1      5558 8.37874E-02
 -1      5559 8.37927E-02
 -1      5560 8.38158E-02
 -1      5561 8.38332E-02
 -1      5562 8.39180E-02
 -1      5563 8.39180E-02
 -1      5564 8.38332E-02
 -1      5565 8.38158E-02
 -1      5566 8.37927E-02
 -1      5567 8.37874E-02
 -1      5568 8.37874E-02
 -1      5569 8.37927E-02
 -1      5570 8.38158E-02
 -1      5571 8.38332E-02
 -1      5572 8.39180E-02
 -1      5573 8.39180E-02
 -1      5574 8.38332E-02
 -1      5575 8.38158E-02
 -1      5576 8.37927E-02
 -1      5577 8.37874E-02
 -1      5578 8.37874E-02
 -1      5579 8.37927E-02
 -1      5580 8.38158E-02
 -1      5581 8.38332E-02
 -1      5582 8.39180E-02
 -1      5583 8.39180E-02
 -1      5584 8.38332E-02
 -1      5585 8.38158E-02
 -1      5586 8.37927E-02
 -1      5587 8.37874E-02
 -1      5588 8.37874E-02
 -1      5589 8.37927E-02
 -1      5590 8.38158E-02
 -1      5591 8.38332E-02
 -1      5592 8.39180E-02
 -1      5593 8.39180E-02
 -1      5594 8.38332E-02
 -1      5595 8.38158E-02
 -1      5596 8.37927E-02
 -1      5597 8.37874E-02
 -1      5598 8.37874E-02
 -1      5599 8.37927E-02
 -1      5600 8.38158E-02
 -1      5601 8.38332E-02
 -1      5602 8.39180E-02
 -1      5603 8.39180E-02
 -1      5604 8.38332E-02
 -1      5605 8.38158E-02
 -1      5606 8.37927E-02
 -1      5607 8.37874E-02
 -1      5608 8.37874E-02
 -1      5609 8.37927E-02
 -1      5610 8.38158E-02
 -1      5611 8.38332E-02
 -1      5612 8.39180E-02
 -1      5613 8.39180E-02
 -1      5614 8.38332E-02
 -1      5615 8.38158E-02
 -1      5616 8.37927E-02
 -1      5617 8.37874E-02
 -1      5618 8.37874E-02
 -1      5619 8.37927E-02
 -1      5620 8.38158E-02
 -1      5621 8.38332E-02
 -1      5622 8.39180E-02
 -1      5623 8.39180E-02
 -1      5624 8.38332E-02
 -1      5625 8.38158E-02
 -1      5626 8.37927E-02
 -1      5627 8.37874E-02
 -1      5628 8.37874E-02
 -1      5629 8.37927E-02
 -1      5630 8.38158E-02
 -1      5631 8.38332E-02
 -1      5632 8.39180E-02
 -1      5633 8.39180E-02
 -1      5634 8.38332E-02
 -1      5635 8.38158E-02
 -1      5636 8.37927E-02
 -1      5637 8.37874E-02
 -1      5638 8.37874E-02
 -1      5639 8.37927E-02
 -1      5640 8.38158E-02
 -1      5641 8.38332E-02
 -1      5642 8.39180E-02
 -1      5643 8.39180E-02
 -1      5644 8.38332E-02
 -1      5645 8.38158E-02
 -1      5646 8.37927E-02
 -1      5647 8.37874E-02
 -1      5648 8.37874E-02
 -1      5649 8.37927E-02
 -1      5650 8.38158E-02
 -1      5651 8.38332E-02
 -1      5652 8.39180E-02
 -1      5653 8.39180E-02
 -1      5654 8.38332E-02
 -1      5655 8.38158E-02
 -1      5656 8.37927E-02
 -1      5657 8.37874E-02
 -1      5658 8.37874E-02
 -1      5659 8.37927E-02
 -1      5660 8.38158E-02
 -1      5661 8.38332E-02
 -1      5662 8.39180E-02
 -1      5663 8.39180E-02
 -1      5664 8.38332E-02
 -1      5665 8.38158E-02
 -1      5666 8.37927E-02
 -1      5667 8.37874E-02
 -1      5668 8.37874E-02
 -1      5669 8.37927E-02
 -1      5670 8.38158E-02
 -1      5671 8.38332E-02
 -1      5672 8.39180E-02
 -1      5673 8.39180E-02
 -1      5674 8.38332E-02
 -1      5675 8.38158E-02
 -1      5676 8.37927E-02
 -1      5677 8.37874E-02
 -1      5678 8.37874E-02
 -1      5679 8.37927E-02
 -1      5680 8.38158E-02
 -1      5681 8.38332E-02
 -1      5682 8.39180E-02
 -1      5683 8.39180E-02
 -1      5684 8.38332E-02
 -1      5685 8.38158E-02
 -1      5686 8.37927E-02
 -1      5687 8.37874E-02
 -1      5688 8.37874E-02
 -1      5689 8.37927E-02
 -1      5690 8.38158E-02
 -1      5691 8.38332E-02
 -1      5692 8.39180E-02
 -1      5693 8.39180E-02
 -1      5694 8.38332E-02
 -1      5695 8.38158E-02
 -1      5696 8.37927E-02
 -1      5697 8.37874E-02
 -1      5698 8.37874E-02
 -1      5699 8.37927E-02
 -1      5700 8.38158E-02
 -1      5701 8.38332E-02
 -1      5702 8.39180E-02
 -1      5703 8.39180E-02
 -1      5704 8.38332E-02
 -1      5705 8.38158E-02
 -1      5706 8.37927E-02
 -1      5707 8.37874E-02
 -1      5708 8.37874E-02
 -1      5709 8.37927E-02
 -1      5710 8.38158E-02
 -1      5711 8.38332E-02
 -1      5712 8.39180E-02
 -1      5713 8.39180E-02
 -1      5714 8.38332E-02
 -1      5715 8.38158E-02
 -1      5716 8.37927E-02
 -1      5717 8.37874E-02
 -1      5718 8.37874E-02
 -1      5719 8.37927E-02
 -1      5720 8.38158E-02
 -1      5721 8.38332E-02
 -1      5722 8.39180E-02
 -1      5723 8.39180E-02
 -1      5724 8.38332E-02
 -1      5725 8.38158E-02
 -1      5726 8.37927E-02
 -1      5727 8.37874E-02
 -1      5728 8.37874E-02
 -1      5729 8.37927E-02
 -1      5730 8.38158E-02
 -1      5731 8.38332E-02
 -1      5732 8.39180E-02
 -1      5733 8.39180E-02
 -1      5734 8.38332E-02
 -1      5735 8.38158E-02
 -1      5736 8.37927E-02
 -1      5737 8.37873E-02
 -1      5738 8.37873E-02
 -1      5739 8.37927E-02
 -1      5740 8.38158E-02
 -1      5741 8.38332E-02
 -1      5742 8.39180E-02
 -1      5743 8.39180E-02
 -1      5744 8.38332E-02
 -1      5745 8.38158E-02
 -1      5746 8.37926E-02
 -1      5747 8.37873E-02
 -1      5748 8.37873E-02
 -1      5749 8.37926E-02
 -1      5750 8.38158E-02
 -1      5751 8.38332E-02
 -1      5752 8.39180E-02
 -1      5753 8.39180E-02
 -1      5754 8.38332E-02
 -1      5755 8.38158E-02
 -1      5756 8.37926E-02
 -1      5757 8.37873E-02
 -1      5758 8.37873E-02
 -1      5759 8.37926E-02
 -1      5760 8.38158E-02
 -1      5761 8.38332E-02
 -1      5762 8.39180E-02
 -1      5763 8.39180E-02
 -1      5764 8.38332E-02
 -1      5765 8.38158E-02
 -1      5766 8.37926E-02
 -1      5767 8.37873E-02
 -1      5768 8.37873E-02
 -1      5769 8.37926E-02
 -1      5770 8.38158E-02
 -1      5771 8.38332E-02
 -1      5772 8.39180E-02
 -1      5773 8.39180E-02
 -1      5774 8.38332E-02
 -1      5775 8.38158E-02
 -1      5776 8.37926E-02
 -1      5777 8.37873E-02
 -1      5778 8.37873E-02
 -1      5779 8.37926E-02
 -1      5780 8.38158E-02
 -1      5781 8.38332E-02
 -1      5782 8.39180E-02
 -1      5783 8.35671E-02
 -1      5784 8.34054E-02
 -1      5785 8.34054E-02
 -1      5786 8.33755E-02
 -1      5787 8.33640E-02
 -1      5788 8.33640E-02
 -1      5789 8.33755E-02
 -1      5790 8.34054E-02
 -1      5791 8.34054E-02
 -1      5792 8.35671E-02
 -1      5793 8.35671E-02
 -1      5794 8.34054E-02
 -1      5795 8.34054E-02
 -1      5796 8.33755E-02
 -1      5797 8.33641E-02
 -1      5798 8.33641E-02
 -1      5799 8.33755E-02
 -1      5800 8.34054E-02
 -1      5801 8.34054E-02
 -1      5802 8.35671E-02
 -1      5803 8.35671E-02
 -1      5804 8.34054E-02
 -1      5805 8.34054E-02
 -1      5806 8.33755E-02
 -1      5807 8.33641E-02
 -1      5808 8.33641E-02
 -1      5809 8.33755E-02
 -1      5810 8.34054E-02
 -1      5811 8.34054E-02
 -1      5812 8.35671E-02
 -1      5813 8.35671E-02
 -1      5814 8.34054E-02
 -1      5815 8.34054E-02
 -1      5816 8.33755E-02
 -1      5817 8.33641E-02
 -1      5818 8.33641E-02
 -1      5819 8.33755E-02
 -1      5820 8.34054E-02
 -1      5821 8.34054E-02
 -1      5822 8.35671E-02
 -1      5823 8.35671E-02
 -1      5824 8.34054E-02
 -1      5825 8.34054E-02
 -1      5826 8.33755E-02
 -1      5827 8.33641E-02
 -1      5828 8.33641E-02
 -1      5829 8.33755E-02
 -1      5830 8.34054E-02
 -1      5831 8.34054E-02
 -1      5832 8.35671E-02
 -1      5833 8.35671E-02
 -1      5834 8.34054E-02
 -1      5835 8.34054E-02
 -1      5836 8.33755E-02
 -1      5837 8.33641E-02
 -1      5838 8.33641E-02
 -1      5839 8.33755E-02
 -1      5840 8.34054E-02
 -1      5841 8.34054E-02
 -1      5842 8.35671E-02
 -1      5843 8.35671E-02
 -1      5844 8.34054E-02
 -1      5845 8.34054E-02
 -1      5846 8.33755E-02
 -1      5847 8.33641E-02
 -1      5848 8.33641E-02
 -1      5849 8.33755E-02
 -1      5850 8.34054E-02
 -1      5851 8.34054E-02
 -1      5852 8.35671E-02
 -1      5853 8.35671E-02
 -1      5854 8.34054E-02
 -1      5855 8.34054E-02
 -1      5856 8.33755E-02
 -1      5857 8.33641E-02
 -1      5858 8.33641E-02
 -1      5859 8.33755E-02
 -1      5860 8.34054E-02
 -1      5861 8.34054E-02
 -1      5862 8.35671E-02
 -1      5863 8.35671E-02
 -1      5864 8.34054E-02
 -1      5865 8.34054E-02
 -1      5866 8.33755E-02
 -1      5867 8.33641E-02
 -1      5868 8.33641E-02
 -1      5869 8.33755E-02
 -1      5870 8.34054E-02
 -1      5871 8.34054E-02
 -1      5872 8.35671E-02
 -1      5873 8.35671E-02
 -1      5874 8.34054E-02
 -1      5875 8.34054E-02
 -1      5876 8.33755E-02
 -1      5877 8.33641E-02
 -1      5878 8.33641E-02
 -1      5879 8.33755E-02
 -1      5880 8.34054E-02
 -1      5881 8.34054E-02
 -1      5882 8.35671E-02
 -1      5883 8.35671E-02
 -1      5884 8.34054E-02
 -1      5885 8.34054E-02
 -1      5886 8.33755E-02
 -1      5887 8.33641E-02
 -1      5888 8.33641E-02
 -1      5889 8.33755E-02
 -1      5890 8.34054E-02
 -1      5891 8.34054E-02
 -1      5892 8.35671E-02
 -1      5893 8.35671E-02
 -1      5894 8.34054E-02
 -1      5895 8.34054E-02
 -1      5896 8.33755E-02
 -1      5897 8.33641E-02
 -1      5898 8.33641E-02
 -1      5899 8.33755E-02
 -1      5900 8.34054E-02
 -1      5901 8.34054E-02
 -1      5902 8.35671E-02
 -1      5903 8.35671E-02
 -1      5904 8.34054E-02
 -1      5905 8.34054E-02
 -1      5906 8.33756E-02
 -1      5907 8.33641E-02
 -1      5908 8.33641E-02
 -1      5909 8.33756E-02
 -1      5910 8.34054E-02
 -1      5911 8.34054E-02
 -1      5912 8.35671E-02
 -1      5913 8.35671E-02
 -1      5914 8.34054E-02
 -1      5915 8.34054E-02
 -1      5916 8.33756E-02
 -1      5917 8.33641E-02
 -1      5918 8.33641E-02
 -1      5919 8.33756E-02
 -1      5920 8.34054E-02
 -1      5921 8.34054E-02
 -1      5922 8.35671E-02
 -1      5923 8.35671E-02
 -1      5924 8.34054E-02
 -1      5925 8.34054E-02
 -1      5926 8.33756E-02
 -1      5927 8.33641E-02
 -1      5928 8.33641E-02
 -1      5929 8.33756E-02
 -1      5930 8.34054E-02
 -1      5931 8.34054E-02
 -1      5932 8.35671E-02
 -1      5933 8.35671E-02
 -1      5934 8.34054E-02
 -1      5935 8.34054E-02
 -1      5936 8.33756E-02
 -1      5937 8.33641E-02
 -1      5938 8.33641E-02
 -1      5939 8.33756E-02
 -1      5940 8.34054E-02
 -1      5941 8.34054E-02
 -1      5942 8.35671E-02
 -1      5943 8.35671E-02
 -1      5944 8.34054E-02
 -1      5945 8.34054E-02
 -1      5946 8.33756E-02
 -1      5947 8.33641E-02
 -1      5948 8.33641E-02
 -1      5949 8.33756E-02
 -1      5950 8.34054E-02
 -1      5951 8.34054E-02
 -1      5952 8.35671E-02
 -1      5953 8.35671E-02
 -1      5954 8.34054E-02
 -1      5955 8.34054E-02
 -1      5956 8.33756E-02
 -1      5957 8.33641E-02
 -1      5958 8.33641E-02
 -1      5959 8.33756E-02
 -1      5960 8.34054E-02
 -1      5961 8.34054E-02
 -1      5962 8.35671E-02
 -1      5963 8.35671E-02
 -1      5964 8.34054E-02
 -1      5965 8.34054E-02
 -1      5966 8.33755E-02
 -1      5967 8.33641E-02
 -1      5968 8.33641E-02
 -1      5969 8.33755E-02
 -1      5970 8.34054E-02
 -1      5971 8.34054E-02
 -1      5972 8.35671E-02
 -1      5973 8.35671E-02
 -1      5974 8.34054E-02
 -1      5975 8.34054E-02
 -1      5976 8.33755E-02
 -1      5977 8.33641E-02
 -1      5978 8.33641E-02
 -1      5979 8.33755E-02
 -1      5980 8.34054E-02
 -1      5981 8.34054E-02
 -1      5982 8.35671E-02
 -1      5983 8.35671E-02
 -1      5984 8.34054E-02
 -1      5985 8.34054E-02
 -1      5986 8.33755E-02
 -1      5987 8.33641E-02
 -1      5988 8.33641E-02
 -1      5989 8.33755E-02
 -1      5990 8.34054E-02
 -1      5991 8.34054E-02
 -1      5992 8.35671E-02
 -1      5993 8.35671E-02
 -1      5994 8.34054E-02
 -1      5995 8.34054E-02
 -1      5996 8.33755E-02
 -1      5997 8.33641E-02
 -1      5998 8.33641E-02
 -1      5999 8.33755E-02
 -1      6000 8.34054E-02
 -1      6001 8.34054E-02
 -1      6002 8.35671E-02
 -1      6003 8.35671E-02
 -1      6004 8.34054E-02
 -1      6005 8.34054E-02
 -1      6006 8.33755E-02
 -1      6007 8.33641E-02
 -1      6008 8.33641E-02
 -1      6009 8.33755E-02
 -1      6010 8.34054E-02
 -1      6011 8.34054E-02
 -1      6012 8.35671E-02
 -1      6013 8.35671E-02
 -1      6014 8.34054E-02
 -1      6015 8.34054E-02
 -1      6016 8.33755E-02
 -1      6017 8.33641E-02
 -1      6018 8.33641E-02
 -1      6019 8.33755E-02
 -1      6020 8.34054E-02
 -1      6021 8.34054E-02
 -1      6022 8.35671E-02
 -1      6023 8.35671E-02
 -1      6024 8.34054E-02
 -1      6025 8.34054E-02
 -1      6026 8.33755E-02
 -1      6027 8.33641E-02
 -1      6028 8.33641E-02
 -1      6029 8.33755E-02
 -1      6030 8.34054E-02
 -1      6031 8.34054E-02
 -1      6032 8.35671E-02
 -1      6033 8.35671E-02
 -1      6034 8.34054E-02
 -1      6035 8.34054E-02
 -1      6036 8.33755E-02
 -1      6037 8.33641E-02
 -1      6038 8.33641E-02
 -1      6039 8.33755E-02
 -1      6040 8.34054E-02
 -1      6041 8.34054E-02
 -1      6042 8.35671E-02
 -1      6043 8.35671E-02
 -1      6044 8.34054E-02
 -1      6045 8.34054E-02
 -1      6046 8.33755E-02
 -1      6047 8.33641E-02
 -1      6048 8.33641E-02
 -1      6049 8.33755E-02
 -1      6050 8.34054E-02
 -1      6051 8.34054E-02
 -1      6052 8.35671E-02
 -1      6053 8.35671E-02
 -1      6054 8.34054E-02
 -1      6055 8.34054E-02
 -1      6056 8.33755E-02
 -1      6057 8.33641E-02
 -1      6058 8.33641E-02
 -1      6059 8.33755E-02
 -1      6060 8.34054E-02
 -1      6061 8.34054E-02
 -1      6062 8.35671E-02
 -1      6063 8.35671E-02
 -1      6064 8.34054E-02
 -1      6065 8.34054E-02
 -1      6066 8.33755E-02
 -1      6067 8.33640E-02
 -1      6068 8.33640E-02
 -1      6069 8.33755E-02
 -1      6070 8.34054E-02
 -1      6071 8.34054E-02
 -1      6072 8.35671E-02
 -1      6073 8.32225E-02
 -1      6074 8.29940E-02
 -1      6075 8.29940E-02
 -1      6076 8.29575E-02
 -1      6077 8.29444E-02
 -1      6078 8.29444E-02
 -1      6079 8.29575E-02
 -1      6080 8.29940E-02
 -1      6081 8.29940E-02
 -1      6082 8.32225E-02
 -1      6083 8.32225E-02
 -1      6084 8.29940E-02
 -1      6085 8.29940E-02
 -1      6086 8.29575E-02
 -1      6087 8.29444E-02
 -1      6088 8.29444E-02
 -1      6089 8.29575E-02
 -1      6090 8.29940E-02
 -1      6091 8.29940E-02
 -1      6092 8.32225E-02
 -1      6093 8.32225E-02
 -1      6094 8.29940E-02
 -1      6095 8.29940E-02
 -1      6096 8.29575E-02
 -1      6097 8.29444E-02
 -1      6098 8.29444E-02
 -1      6099 8.29575E-02
 -1      6100 8.29940E-02
 -1      6101 8.29940E-02
 -1      6102 8.32225E-02
 -1      6103 8.32225E-02
 -1      6104 8.29940E-02
 -1      6105 8.29940E-02
 -1      6106 8.29575E-02
 -1      6107 8.29444E-02
 -1      6108 8.29444E-02
 -1      6109 8.29575E-02
 -1      6110 8.29940E-02
 -1      6111 8.29940E-02
 -1      6112 8.32225E-02
 -1      6113 8.32225E-02
 -1      6114 8.29940E-02
 -1      6115 8.29940E-02
 -1      6116 8.29575E-02
 -1      6117 8.29444E-02
 -1      6118 8.29444E-02
 -1      6119 8.29575E-02
 -1      6120 8.29940E-02
 -1      6121 8.29940E-02
 -1      6122 8.32225E-02
 -1      6123 8.32225E-02
 -1      6124 8.29940E-02
 -1      6125 8.29940E-02
 -1      6126 8.29575E-02
 -1      6127 8.29444E-02
 -1      6128 8.29444E-02
 -1      6129 8.29575E-02
 -1      6130 8.29940E-02
 -1      6131 8.29940E-02
 -1      6132 8.32225E-02
 -1      6133 8.32225E-02
 -1      6134 8.29940E-02
 -1      6135 8.29940E-02
 -1      6136 8.29575E-02
 -1      6137 8.29444E-02
 -1      6138 8.29444E-02
 -1      6139 8.29575E-02
 -1      6140 8.29940E-02
 -1      6141 8.29940E-02
 -1      6142 8.32225E-02
 -1      6143 8.32225E-02
 -1      6144 8.29940E-02
 -1      6145 8.29940E-02
 -1      6146 8.29575E-02
 -1      6147 8.29444E-02
 -1      6148 8.29444E-02
 -1      6149 8.29575E-02
 -1      6150 8.29940E-02
 -1      6151 8.29940E-02
 -1      6152 8.32225E-02
 -1      6153 8.32225E-02
 -1      6154 8.29940E-02
 -1      6155 8.29940E-02
 -1      6156 8.29575E-02
 -1      6157 8.29444E-02
 -1      6158 8.29444E-02
 -1      6159 8.29575E-02
 -1      6160 8.29940E-02
 -1      6161 8.29940E-02
 -1      6162 8.32225E-02
 -1      6163 8.32225E-02
 -1      6164 8.29940E-02
 -1      6165 8.29940E-02
 -1      6166 8.29575E-02
 -1      6167 8.29444E-02
 -1      6168 8.29444E-02
 -1      6169 8.29575E-02
 -1      6170 8.29940E-02
 -1      6171 8.29940E-02
 -1      6172 8.32225E-02
 -1      6173 8.32225E-02
 -1      6174 8.29940E-02
 -1      6175 8.29940E-02
 -1      6176 8.29575E-02
 -1      6177 8.29444E-02
 -1      6178 8.29444E-02
 -1      6179 8.29575E-02
 -1      6180 8.29940E-02
 -1      6181 8.29940E-02
 -1      6182 8.32225E-02
 -1      6183 8.32225E-02
 -1      6184 8.29940E-02
 -1      6185 8.29940E-02
 -1      6186 8.29575E-02
 -1      6187 8.29444E-02
 -1      6188 8.29444E-02
 -1      6189 8.29575E-02
 -1      6190 8.29940E-02
 -1      6191 8.29940E-02
 -1      6192 8.32225E-02
 -1      6193 8.32225E-02
 -1      6194 8.29940E-02
 -1      6195 8.29940E-02
 -1      6196 8.29575E-02
 -1      6197 8.29445E-02
 -1      6198 8.29445E-02
 -1      6199 8.29575E-02
 -1      6200 8.29940E-02
 -1      6201 8.29940E-02
 -1      6202 8.32225E-02
 -1      6203 8.32225E-02
 -1      6204 8.29940E-02
 -1      6205 8.29940E-02
 -1      6206 8.29575E-02
 -1      6207 8.29445E-02
 -1      6208 8.29445E-02
 -1      6209 8.29575E-02
 -1      6210 8.29940E-02
 -1      6211 8.29940E-02
 -1      6212 8.32225E-02
 -1      6213 8.32225E-02
 -1      6214 8.29940E-02
 -1      6215 8.29940E-02
 -1      6216 8.29575E-02
 -1      6217 8.29445E-02
 -1      6218 8.29445E-02
 -1      6219 8.29575E-02
 -1      6220 8.29940E-02
 -1      6221 8.29940E-02
 -1      6222 8.32225E-02
 -1      6223 8.32225E-02
 -1      6224 8.29940E-02
 -1      6225 8.29940E-02
 -1      6226 8.29575E-02
 -1      6227 8.29445E-02
 -1      6228 8.29445E-02
 -1      6229 8.29575E-02
 -1      6230 8.29940E-02
 -1      6231 8.29940E-02
 -1      6232 8.32225E-02
 -1      6233 8.32225E-02
 -1      6234 8.29940E-02
 -1      6235 8.29940E-02
 -1      6236 8.29575E-02
 -1      6237 8.29445E-02
 -1      6238 8.29445E-02
 -1      6239 8.29575E-02
 -1      6240 8.29940E-02
 -1      6241 8.29940E-02
 -1      6242 8.32225E-02
 -1      6243 8.32225E-02
 -1      6244 8.29940E-02
 -1      6245 8.29940E-02
 -1      6246 8.29575E-02
 -1      6247 8.29444E-02
 -1      6248 8.29444E-02
 -1      6249 8.29575E-02
 -1      6250 8.29940E-02
 -1      6251 8.29940E-02
 -1      6252 8.32225E-02
 -1      6253 8.32225E-02
 -1      6254 8.29940E-02
 -1      6255 8.29940E-02
 -1      6256 8.29575E-02
 -1      6257 8.29444E-02
 -1      6258 8.29444E-02
 -1      6259 8.29575E-02
 -1      6260 8.29940E-02
 -1      6261 8.29940E-02
 -1      6262 8.32225E-02
 -1      6263 8.32225E-02
 -1      6264 8.29940E-02
 -1      6265 8.29940E-02
 -1      6266 8.29575E-02
 -1      6267 8.29444E-02
 -1      6268 8.29444E-02
 -1      6269 8.29575E-02
 -1      6270 8.29940E-02
 -1      6271 8.29940E-02
 -1      6272 8.32225E-02
 -1      6273 8.32225E-02
 -1      6274 8.29940E-02
 -1      6275 8.29940E-02
 -1      6276 8.29575E-02
 -1      6277 8.29444E-02
 -1      6278 8.29444E-02
 -1      6279 8.29575E-02
 -1      6280 8.29940E-02
 -1      6281 8.29940E-02
 -1      6282 8.32225E-02
 -1      6283 8.32225E-02
 -1      6284 8.29940E-02
 -1      6285 8.29940E-02
 -1      6286 8.29575E-02
 -1      6287 8.29444E-02
 -1      6288 8.29444E-02
 -1      6289 8.29575E-02
 -1      6290 8.29940E-02
 -1      6291 8.29940E-02
 -1      6292 8.32225E-02
 -1      6293 8.32225E-02
 -1      6294 8.29940E-02
 -1      6295 8.29940E-02
 -1      6296 8.29575E-02
 -1      6297 8.29444E-02
 -1      6298 8.29444E-02
 -1      6299 8.29575E-02
 -1      6300 8.29940E-02
 -1      6301 8.29940E-02
 -1      6302 8.32225E-02
 -1      6303 8.32225E-02
 -1      6304 8.29940E-02
 -1      6305 8.29940E-02
 -1      6306 8.29575E-02
 -1      6307 8.29444E-02
 -1      6308 8.29444E-02
 -1      6309 8.29575E-02
 -1      6310 8.29940E-02
 -1      6311 8.29940E-02
 -1      6312 8.32225E-02
 -1      6313 8.32225E-02
 -1      6314 8.29940E-02
 -1      6315 8.29940E-02
 -1      6316 8.29575E-02
 -1      6317 8.29444E-02
 -1      6318 8.29444E-02
 -1      6319 8.29575E-02
 -1      6320 8.29940E-02
 -1      6321 8.29940E-02
 -1      6322 8.32225E-02
 -1      6323 8.32225E-02
 -1      6324 8.29940E-02
 -1      6325 8.29940E-02
 -1      6326 8.29575E-02
 -1      6327 8.29444E-02
 -1      6328 8.29444E-02
 -1      6329 8.29575E-02
 -1      6330 8.29940E-02
 -1      6331 8.29940E-02
 -1      6332 8.32225E-02
 -1      6333 8.32225E-02
 -1      6334 8.29940E-02
 -1      6335 8.29940E-02
 -1      6336 8.29575E-02
 -1      6337 8.29444E-02
 -1      6338 8.29444E-02
 -1      6339 8.29575E-02
 -1      6340 8.29940E-02
 -1      6341 8.29940E-02
 -1      6342 8.32225E-02
 -1      6343 8.32225E-02
 -1      6344 8.29940E-02
 -1      6345 8.29940E-02
 -1      6346 8.29575E-02
 -1      6347 8.29444E-02
 -1      6348 8.29444E-02
 -1      6349 8.29575E-02
 -1      6350 8.29940E-02
 -1      6351 8.29940E-02
 -1      6352 8.32225E-02
 -1      6353 8.32225E-02
 -1      6354 8.29940E-02
 -1      6355 8.29940E-02
 -1      6356 8.29575E-02
 -1      6357 8.29444E-02
 -1      6358 8.29444E-02
 -1      6359 8.29575E-02
 -1      6360 8.29940E-02
 -1      6361 8.29940E-02
 -1      6362 8.32225E-02
 -1      6363 8.28834E-02
 -1      6364 8.25794E-02
 -1      6365 8.25794E-02
 -1      6366 8.25381E-02
 -1      6367 8.25284E-02
 -1      6368 8.25284E-02
 -1      6369 8.25381E-02
 -1      6370 8.25794E-02
 -1      6371 8.25794E-02
 -1      6372 8.28834E-02
 -1      6373 8.28834E-02
 -1      6374 8.25794E-02
 -1      6375 8.25794E-02
 -1      6376 8.25381E-02
 -1      6377 8.25284E-02
 -1      6378 8.25284E-02
 -1      6379 8.25381E-02
 -1      6380 8.25794E-02
 -1      6381 8.25794E-02
 -1      6382 8.28834E-02
 -1      6383 8.28834E-02
 -1      6384 8.25794E-02
 -1      6385 8.25794E-02
 -1      6386 8.25381E-02
 -1      6387 8.25284E-02
 -1      6388 8.25284E-02
 -1      6389 8.25381E-02
 -1      6390 8.25794E-02
 -1      6391 8.25794E-02
 -1      6392 8.28834E-02
 -1      6393 8.28834E-02
 -1      6394 8.25794E-02
 -1      6395 8.25794E-02
 -1      6396 8.25381E-02
 -1      6397 8.25284E-02
 -1      6398 8.25284E-02
 -1      6399 8.25381E-02
 -1      6400 8.25794E-02
 -1      6401 8.25794E-02
 -1      6402 8.28834E-02
 -1      6403 8.28834E-02
 -1      6404 8.25794E-02
 -1      6405 8.25794E-02
 -1      6406 8.25381E-02
 -1      6407 8.25284E-02
 -1      6408 8.25284E-02
 -1      6409 8.25381E-02
 -1      6410 8.25794E-02
 -1      6411 8.25794E-02
 -1      6412 8.28834E-02
 -1      6413 8.28834E-02
 -1      6414 8.25794E-02
 -1      6415 8.25794E-02
 -1      6416 8.25381E-02
 -1      6417 8.25284E-02
 -1      6418 8.25284E-02
 -1      6419 8.25381E-02
 -1      6420 8.25794E-02
 -1      6421 8.25794E-02
 -1      6422 8.28834E-02
 -1      6423 8.28834E-02
 -1      6424 8.25794E-02
 -1      6425 8.25794E-02
 -1      6426 8.25381E-02
 -1      6427 8.25284E-02
 -1      6428 8.25284E-02
 -1      6429 8.25381E-02
 -1      6430 8.25794E-02
 -1      6431 8.25794E-02
 -1      6432 8.28834E-02
 -1      6433 8.28834E-02
 -1      6434 8.25794E-02
 -1      6435 8.25794E-02
 -1      6436 8.25381E-02
 -1      6437 8.25284E-02
 -1      6438 8.25284E-02
 -1      6439 8.25381E-02
 -1      6440 8.25794E-02
 -1      6441 8.25794E-02
 -1      6442 8.28834E-02
 -1      6443 8.28834E-02
 -1      6444 8.25794E-02
 -1      6445 8.25794E-02
 -1      6446 8.25381E-02
 -1      6447 8.25284E-02
 -1      6448 8.25284E-02
 -1      6449 8.25381E-02
 -1      6450 8.25794E-02
 -1      6451 8.25794E-02
 -1      6452 8.28834E-02
 -1      6453 8.28834E-02
 -1      6454 8.25794E-02
 -1      6455 8.25794E-02
 -1      6456 8.25381E-02
 -1      6457 8.25284E-02
 -1      6458 8.25284E-02
 -1      6459 8.25381E-02
 -1      6460 8.25794E-02
 -1      6461 8.25794E-02
 -1      6462 8.28834E-02
 -1      6463 8.28834E-02
 -1      6464 8.25794E-02
 -1      6465 8.25794E-02
 -1      6466 8.25382E-02
 -1      6467 8.25284E-02
 -1      6468 8.25284E-02
 -1      6469 8.25382E-02
 -1      6470 8.25794E-02
 -1      6471 8.25794E-02
 -1      6472 8.28834E-02
 -1      6473 8.28834E-02
 -1      6474 8.25794E-02
 -1      6475 8.25794E-02
 -1      6476 8.25382E-02
 -1      6477 8.25284E-02
 -1      6478 8.25284E-02
 -1      6479 8.25382E-02
 -1      6480 8.25794E-02
 -1      6481 8.25794E-02
 -1      6482 8.28834E-02
 -1      6483 8.28834E-02
 -1      6484 8.25795E-02
 -1      6485 8.25795E-02
 -1      6486 8.25382E-02
 -1      6487 8.25284E-02
 -1      6488 8.25284E-02
 -1      6489 8.25382E-02
 -1      6490 8.25795E-02
 -1      6491 8.25795E-02
 -1      6492 8.28834E-02
 -1      6493 8.28834E-02
 -1      6494 8.25795E-02
 -1      6495 8.25795E-02
 -1      6496 8.25382E-02
 -1      6497 8.25284E-02
 -1      6498 8.25284E-02
 -1      6499 8.25382E-02
 -1      6500 8.25795E-02
 -1      6501 8.25795E-02
 -1      6502 8.28834E-02
 -1      6503 8.28834E-02
 -1      6504 8.25795E-02
 -1      6505 8.25795E-02
 -1      6506 8.25382E-02
 -1      6507 8.25284E-02
 -1      6508 8.25284E-02
 -1      6509 8.25382E-02
 -1      6510 8.25795E-02
 -1      6511 8.25795E-02
 -1      6512 8.28834E-02
 -1      6513 8.28834E-02
 -1      6514 8.25795E-02
 -1      6515 8.25795E-02
 -1      6516 8.25382E-02
 -1      6517 8.25284E-02
 -1      6518 8.25284E-02
 -1      6519 8.25382E-02
 -1      6520 8.25795E-02
 -1      6521 8.25795E-02
 -1      6522 8.28834E-02
 -1      6523 8.28834E-02
 -1      6524 8.25795E-02
 -1      6525 8.25795E-02
 -1      6526 8.25382E-02
 -1      6527 8.25284E-02
 -1      6528 8.25284E-02
 -1      6529 8.25382E-02
 -1      6530 8.25795E-02
 -1      6531 8.25795E-02
 -1      6532 8.28834E-02
 -1      6533 8.28834E-02
 -1      6534 8.25795E-02
 -1      6535 8.25795E-02
 -1      6536 8.25382E-02
 -1      6537 8.25284E-02
 -1      6538 8.25284E-02
 -1      6539 8.25382E-02
 -1      6540 8.25795E-02
 -1      6541 8.25795E-02
 -1      6542 8.28834E-02
 -1      6543 8.28834E-02
 -1      6544 8.25794E-02
 -1      6545 8.25794E-02
 -1      6546 8.25382E-02
 -1      6547 8.25284E-02
 -1      6548 8.25284E-02
 -1      6549 8.25382E-02
 -1      6550 8.25794E-02
 -1      6551 8.25794E-02
 -1      6552 8.28834E-02
 -1      6553 8.28834E-02
 -1      6554 8.25794E-02
 -1      6555 8.25794E-02
 -1      6556 8.25382E-02
 -1      6557 8.25284E-02
 -1      6558 8.25284E-02
 -1      6559 8.25382E-02
 -1      6560 8.25794E-02
 -1      6561 8.25794E-02
 -1      6562 8.28834E-02
 -1      6563 8.28834E-02
 -1      6564 8.25794E-02
 -1      6565 8.25794E-02
 -1      6566 8.25381E-02
 -1      6567 8.25284E-02
 -1      6568 8.25284E-02
 -1      6569 8.25381E-02
 -1      6570 8.25794E-02
 -1      6571 8.25794E-02
 -1      6572 8.28834E-02
 -1      6573 8.28834E-02
 -1      6574 8.25794E-02
 -1      6575 8.25794E-02
 -1      6576 8.25381E-02
 -1      6577 8.25284E-02
 -1      6578 8.25284E-02
 -1      6579 8.25381E-02
 -1      6580 8.25794E-02
 -1      6581 8.25794E-02
 -1      6582 8.28834E-02
 -1      6583 8.28834E-02
 -1      6584 8.25794E-02
 -1      6585 8.25794E-02
 -1      6586 8.25381E-02
 -1      6587 8.25284E-02
 -1      6588 8.25284E-02
 -1      6589 8.25381E-02
 -1      6590 8.25794E-02
 -1      6591 8.25794E-02
 -1      6592 8.28834E-02
 -1      6593 8.28834E-02
 -1      6594 8.25794E-02
 -1      6595 8.25794E-02
 -1      6596 8.25381E-02
 -1      6597 8.25284E-02
 -1      6598 8.25284E-02
 -1      6599 8.25381E-02
 -1      6600 8.25794E-02
 -1      6601 8.25794E-02
 -1      6602 8.28834E-02
 -1      6603 8.28834E-02
 -1      6604 8.25794E-02
 -1      6605 8.25794E-02
 -1      6606 8.25381E-02
 -1      6607 8.25284E-02
 -1      6608 8.25284E-02
 -1      6609 8.25381E-02
 -1      6610 8.25794E-02
 -1      6611 8.25794E-02
 -1      6612 8.28834E-02
 -1      6613 8.28834E-02
 -1      6614 8.25794E-02
 -1      6615 8.25794E-02
 -1      6616 8.25381E-02
 -1      6617 8.25284E-02
 -1      6618 8.25284E-02
 -1      6619 8.25381E-02
 -1      6620 8.25794E-02
 -1      6621 8.25794E-02
 -1      6622 8.28834E-02
 -1      6623 8.28834E-02
 -1      6624 8.25794E-02
 -1      6625 8.25794E-02
 -1      6626 8.25381E-02
 -1      6627 8.25284E-02
 -1      6628 8.25284E-02
 -1      6629 8.25381E-02
 -1      6630 8.25794E-02
 -1      6631 8.25794E-02
 -1      6632 8.28834E-02
 -1      6633 8.28834E-02
 -1      6634 8.25794E-02
 -1      6635 8.25794E-02
 -1      6636 8.25381E-02
 -1      6637 8.25284E-02
 -1      6638 8.25284E-02
 -1      6639 8.25381E-02
 -1      6640 8.25794E-02
 -1      6641 8.25794E-02
 -1      6642 8.28834E-02
 -1      6643 8.28834E-02
 -1      6644 8.25794E-02
 -1      6645 8.25794E-02
 -1      6646 8.25381E-02
 -1      6647 8.25284E-02
 -1      6648 8.25284E-02
 -1      6649 8.25381E-02
 -1      6650 8.25794E-02
 -1      6651 8.25794E-02
 -1      6652 8.28834E-02
 -1      6653 8.25444E-02
 -1      6654 8.21755E-02
 -1      6655 8.21579E-02
 -1      6656 8.21179E-02
 -1      6657 8.21154E-02
 -1      6658 8.21154E-02
 -1      6659 8.21179E-02
 -1      6660 8.21579E-02
 -1      6661 8.21755E-02
 -1      6662 8.25444E-02
 -1      6663 8.25444E-02
 -1      6664 8.21755E-02
 -1      6665 8.21580E-02
 -1      6666 8.21179E-02
 -1      6667 8.21154E-02
 -1      6668 8.21154E-02
 -1      6669 8.21179E-02
 -1      6670 8.21580E-02
 -1      6671 8.21755E-02
 -1      6672 8.25444E-02
 -1      6673 8.25444E-02
 -1      6674 8.21755E-02
 -1      6675 8.21580E-02
 -1      6676 8.21179E-02
 -1      6677 8.21154E-02
 -1      6678 8.21154E-02
 -1      6679 8.21179E-02
 -1      6680 8.21580E-02
 -1      6681 8.21755E-02
 -1      6682 8.25444E-02
 -1      6683 8.25444E-02
 -1      6684 8.21755E-02
 -1      6685 8.21580E-02
 -1      6686 8.21179E-02
 -1      6687 8.21154E-02
 -1      6688 8.21154E-02
 -1      6689 8.21179E-02
 -1      6690 8.21580E-02
 -1      6691 8.21755E-02
 -1      6692 8.25444E-02
 -1      6693 8.25444E-02
 -1      6694 8.21756E-02
 -1      6695 8.21580E-02
 -1      6696 8.21179E-02
 -1      6697 8.21154E-02
 -1      6698 8.21154E-02
 -1      6699 8.21179E-02
 -1      6700 8.21580E-02
 -1      6701 8.21756E-02
 -1      6702 8.25444E-02
 -1      6703 8.25444E-02
 -1      6704 8.21756E-02
 -1      6705 8.21580E-02
 -1      6706 8.21179E-02
 -1      6707 8.21154E-02
 -1      6708 8.21154E-02
 -1      6709 8.21179E-02
 -1      6710 8.21580E-02
 -1      6711 8.21756E-02
 -1      6712 8.25444E-02
 -1      6713 8.25444E-02
 -1      6714 8.21756E-02
 -1      6715 8.21580E-02
 -1      6716 8.21179E-02
 -1      6717 8.21154E-02
 -1      6718 8.21154E-02
 -1      6719 8.21179E-02
 -1      6720 8.21580E-02
 -1      6721 8.21756E-02
 -1      6722 8.25444E-02
 -1      6723 8.25444E-02
 -1      6724 8.21756E-02
 -1      6725 8.21580E-02
 -1      6726 8.21179E-02
 -1      6727 8.21154E-02
 -1      6728 8.21154E-02
 -1      6729 8.21179E-02
 -1      6730 8.21580E-02
 -1      6731 8.21756E-02
 -1      6732 8.25444E-02
 -1      6733 8.25444E-02
 -1      6734 8.21756E-02
 -1      6735 8.21580E-02
 -1      6736 8.21179E-02
 -1      6737 8.21154E-02
 -1      6738 8.21154E-02
 -1      6739 8.21179E-02
 -1      6740 8.21580E-02
 -1      6741 8.21756E-02
 -1      6742 8.25444E-02
 -1      6743 8.25444E-02
 -1      6744 8.21756E-02
 -1      6745 8.21580E-02
 -1      6746 8.21179E-02
 -1      6747 8.21154E-02
 -1      6748 8.21154E-02
 -1      6749 8.21179E-02
 -1      6750 8.21580E-02
 -1      6751 8.21756E-02
 -1      6752 8.25444E-02
 -1      6753 8.25444E-02
 -1      6754 8.21756E-02
 -1      6755 8.21580E-02
 -1      6756 8.21179E-02
 -1      6757 8.21154E-02
 -1      6758 8.21154E-02
 -1      6759 8.21179E-02
 -1      6760 8.21580E-02
 -1      6761 8.21756E-02
 -1      6762 8.25444E-02
 -1      6763 8.25444E-02
 -1      6764 8.21756E-02
 -1      6765 8.21580E-02
 -1      6766 8.21179E-02
 -1      6767 8.21154E-02
 -1      6768 8.21154E-02
 -1      6769 8.21179E-02
 -1      6770 8.21580E-02
 -1      6771 8.21756E-02
 -1      6772 8.25444E-02
 -1      6773 8.25444E-02
 -1      6774 8.21756E-02
 -1      6775 8.21580E-02
 -1      6776 8.21179E-02
 -1      6777 8.21154E-02
 -1      6778 8.21154E-02
 -1      6779 8.21179E-02
 -1      6780 8.21580E-02
 -1      6781 8.21756E-02
 -1      6782 8.25444E-02
 -1      6783 8.25444E-02
 -1      6784 8.21756E-02
 -1      6785 8.21580E-02
 -1      6786 8.21179E-02
 -1      6787 8.21155E-02
 -1      6788 8.21155E-02
 -1      6789 8.21179E-02
 -1      6790 8.21580E-02
 -1      6791 8.21756E-02
 -1      6792 8.25444E-02
 -1      6793 8.25444E-02
 -1      6794 8.21756E-02
 -1      6795 8.21580E-02
 -1      6796 8.21179E-02
 -1      6797 8.21155E-02
 -1      6798 8.21155E-02
 -1      6799 8.21179E-02
 -1      6800 8.21580E-02
 -1      6801 8.21756E-02
 -1      6802 8.25444E-02
 -1      6803 8.25444E-02
 -1      6804 8.21756E-02
 -1      6805 8.21580E-02
 -1      6806 8.21179E-02
 -1      6807 8.21155E-02
 -1      6808 8.21155E-02
 -1      6809 8.21179E-02
 -1      6810 8.21580E-02
 -1      6811 8.21756E-02
 -1      6812 8.25444E-02
 -1      6813 8.25444E-02
 -1      6814 8.21756E-02
 -1      6815 8.21580E-02
 -1      6816 8.21179E-02
 -1      6817 8.21154E-02
 -1      6818 8.21154E-02
 -1      6819 8.21179E-02
 -1      6820 8.21580E-02
 -1      6821 8.21756E-02
 -1      6822 8.25444E-02
 -1      6823 8.25444E-02
 -1      6824 8.21756E-02
 -1      6825 8.21580E-02
 -1      6826 8.21179E-02
 -1      6827 8.21154E-02
 -1      6828 8.21154E-02
 -1      6829 8.21179E-02
 -1      6830 8.21580E-02
 -1      6831 8.21756E-02
 -1      6832 8.25444E-02
 -1      6833 8.25444E-02
 -1      6834 8.21756E-02
 -1      6835 8.21580E-02
 -1      6836 8.21179E-02
 -1      6837 8.21154E-02
 -1      6838 8.21154E-02
 -1      6839 8.21179E-02
 -1      6840 8.21580E-02
 -1      6841 8.21756E-02
 -1      6842 8.25444E-02
 -1      6843 8.25444E-02
 -1      6844 8.21756E-02
 -1      6845 8.21580E-02
 -1      6846 8.21179E-02
 -1      6847 8.21154E-02
 -1      6848 8.21154E-02
 -1      6849 8.21179E-02
 -1      6850 8.21580E-02
 -1      6851 8.21756E-02
 -1      6852 8.25444E-02
 -1      6853 8.25444E-02
 -1      6854 8.21756E-02
 -1      6855 8.21580E-02
 -1      6856 8.21179E-02
 -1      6857 8.21154E-02
 -1      6858 8.21154E-02
 -1      6859 8.21179E-02
 -1      6860 8.21580E-02
 -1      6861 8.21756E-02
 -1      6862 8.25444E-02
 -1      6863 8.25444E-02
 -1      6864 8.21756E-02
 -1      6865 8.21580E-02
 -1      6866 8.21179E-02
 -1      6867 8.21154E-02
 -1      6868 8.21154E-02
 -1      6869 8.21179E-02
 -1      6870 8.21580E-02
 -1      6871 8.21756E-02
 -1      6872 8.25444E-02
 -1      6873 8.25444E-02
 -1      6874 8.21756E-02
 -1      6875 8.21580E-02
 -1      6876 8.21179E-02
 -1      6877 8.21154E-02
 -1      6878 8.21154E-02
 -1      6879 8.21179E-02
 -1      6880 8.21580E-02
 -1      6881 8.21756E-02
 -1      6882 8.25444E-02
 -1      6883 8.25444E-02
 -1      6884 8.21756E-02
 -1      6885 8.21580E-02
 -1      6886 8.21179E-02
 -1      6887 8.21154E-02
 -1      6888 8.21154E-02
 -1      6889 8.21179E-02
 -1      6890 8.21580E-02
 -1      6891 8.21756E-02
 -1      6892 8.25444E-02
 -1      6893 8.25444E-02
 -1      6894 8.21756E-02
 -1      6895 8.21580E-02
 -1      6896 8.21179E-02
 -1      6897 8.21154E-02
 -1      6898 8.21154E-02
 -1      6899 8.21179E-02
 -1      6900 8.21580E-02
 -1      6901 8.21756E-02
 -1      6902 8.25444E-02
 -1      6903 8.25444E-02
 -1      6904 8.21756E-02
 -1      6905 8.21580E-02
 -1      6906 8.21179E-02
 -1      6907 8.21154E-02
 -1      6908 8.21154E-02
 -1      6909 8.21179E-02
 -1      6910 8.21580E-02
 -1      6911 8.21756E-02
 -1      6912 8.25444E-02
 -1      6913 8.25444E-02
 -1      6914 8.21755E-02
 -1      6915 8.21580E-02
 -1      6916 8.21179E-02
 -1      6917 8.21154E-02
 -1      6918 8.21154E-02
 -1      6919 8.21179E-02
 -1      6920 8.21580E-02
 -1      6921 8.21755E-02
 -1      6922 8.25444E-02
 -1      6923 8.25444E-02
 -1      6924 8.21755E-02
 -1      6925 8.21580E-02
 -1      6926 8.21179E-02
 -1      6927 8.21154E-02
 -1      6928 8.21154E-02
 -1      6929 8.21179E-02
 -1      6930 8.21580E-02
 -1      6931 8.21755E-02
 -1      6932 8.25444E-02
 -1      6933 8.25444E-02
 -1      6934 8.21755E-02
 -1      6935 8.21580E-02
 -1      6936 8.21179E-02
 -1      6937 8.21154E-02
 -1      6938 8.21154E-02
 -1      6939 8.21179E-02
 -1      6940 8.21580E-02
 -1      6941 8.21755E-02
 -1      6942 8.25444E-02
 -1      6943 8.21894E-02
 -1      6944 8.17870E-02
 -1      6945 8.17250E-02
 -1      6946 8.17042E-02
 -1      6947 8.17042E-02
 -1      6948 8.17042E-02
 -1      6949 8.17042E-02
 -1      6950 8.17250E-02
 -1      6951 8.17870E-02
 -1      6952 8.21894E-02
 -1      6953 8.21894E-02
 -1      6954 8.17870E-02
 -1      6955 8.17250E-02
 -1      6956 8.17042E-02
 -1      6957 8.17042E-02
 -1      6958 8.17042E-02
 -1      6959 8.17042E-02
 -1      6960 8.17250E-02
 -1      6961 8.17870E-02
 -1      6962 8.21894E-02
 -1      6963 8.21894E-02
 -1      6964 8.17870E-02
 -1      6965 8.17250E-02
 -1      6966 8.17042E-02
 -1      6967 8.17042E-02
 -1      6968 8.17042E-02
 -1      6969 8.17042E-02
 -1      6970 8.17250E-02
 -1      6971 8.17870E-02
 -1      6972 8.21894E-02
 -1      6973 8.21894E-02
 -1      6974 8.17870E-02
 -1      6975 8.17250E-02
 -1      6976 8.17042E-02
 -1      6977 8.17042E-02
 -1      6978 8.17042E-02
 -1      6979 8.17042E-02
 -1      6980 8.17250E-02
 -1      6981 8.17870E-02
 -1      6982 8.21894E-02
 -1      6983 8.21894E-02
 -1      6984 8.17870E-02
 -1      6985 8.17250E-02
 -1      6986 8.17042E-02
 -1      6987 8.17042E-02
 -1      6988 8.17042E-02
 -1      6989 8.17042E-02
 -1      6990 8.17250E-02
 -1      6991 8.17870E-02
 -1      6992 8.21894E-02
 -1      6993 8.21894E-02
 -1      6994 8.17870E-02
 -1      6995 8.17250E-02
 -1      6996 8.17042E-02
 -1      6997 8.17042E-02
 -1      6998 8.17042E-02
 -1      6999 8.17042E-02
 -1      7000 8.17250E-02
 -1      7001 8.17870E-02
 -1      7002 8.21894E-02
 -1      7003 8.21895E-02
 -1      7004 8.17870E-02
 -1      7005 8.17250E-02
 -1      7006 8.17042E-02
 -1      7007 8.17042E-02
 -1      7008 8.17042E-02
 -1      7009 8.17042E-02
 -1      7010 8.17250E-02
 -1      7011 8.17870E-02
 -1      7012 8.21895E-02
 -1      7013 8.21895E-02
 -1      7014 8.17870E-02
 -1      7015 8.17250E-02
 -1      7016 8.17042E-02
 -1      7017 8.17042E-02
 -1      7018 8.17042E-02
 -1      7019 8.17042E-02
 -1      7020 8.17250E-02
 -1      7021 8.17870E-02
 -1      7022 8.21895E-02
 -1      7023 8.21895E-02
 -1      7024 8.17870E-02
 -1      7025 8.17250E-02
 -1      7026 8.17042E-02
 -1      7027 8.17042E-02
 -1      7028 8.17042E-02
 -1      7029 8.17042E-02
 -1      7030 8.17250E-02
 -1      7031 8.17870E-02
 -1      7032 8.21895E-02
 -1      7033 8.21895E-02
 -1      7034 8.17870E-02
 -1      7035 8.17250E-02
 -1      7036 8.17042E-02
 -1      7037 8.17042E-02
 -1      7038 8.17042E-02
 -1      7039 8.17042E-02
 -1      7040 8.17250E-02
 -1      7041 8.17870E-02
 -1      7042 8.21895E-02
 -1      7043 8.21895E-02
 -1      7044 8.17870E-02
 -1      7045 8.17250E-02
 -1      7046 8.17042E-02
 -1      7047 8.17042E-02
 -1      7048 8.17042E-02
 -1      7049 8.17042E-02
 -1      7050 8.17250E-02
 -1      7051 8.17870E-02
 -1      7052 8.21895E-02
 -1      7053 8.21895E-02
 -1      7054 8.17870E-02
 -1      7055 8.17250E-02
 -1      7056 8.17042E-02
 -1      7057 8.17042E-02
 -1      7058 8.17042E-02
 -1      7059 8.17042E-02
 -1      7060 8.17250E-02
 -1      7061 8.17870E-02
 -1      7062 8.21895E-02
 -1      7063 8.21895E-02
 -1      7064 8.17870E-02
 -1      7065 8.17250E-02
 -1      7066 8.17042E-02
 -1      7067 8.17042E-02
 -1      7068 8.17042E-02
 -1      7069 8.17042E-02
 -1      7070 8.17250E-02
 -1      7071 8.17870E-02
 -1      7072 8.21895E-02
 -1      7073 8.21895E-02
 -1      7074 8.17870E-02
 -1      7075 8.17251E-02
 -1      7076 8.17042E-02
 -1      7077 8.17042E-02
 -1      7078 8.17042E-02
 -1      7079 8.17042E-02
 -1      7080 8.17251E-02
 -1      7081 8.17870E-02
 -1      7082 8.21895E-02
 -1      7083 8.21895E-02
 -1      7084 8.17870E-02
 -1      7085 8.17251E-02
 -1      7086 8.17042E-02
 -1      7087 8.17042E-02
 -1      7088 8.17042E-02
 -1      7089 8.17042E-02
 -1      7090 8.17251E-02
 -1      7091 8.17870E-02
 -1      7092 8.21895E-02
 -1      7093 8.21895E-02
 -1      7094 8.17870E-02
 -1      7095 8.17251E-02
 -1      7096 8.17042E-02
 -1      7097 8.17042E-02
 -1      7098 8.17042E-02
 -1      7099 8.17042E-02
 -1      7100 8.17251E-02
 -1      7101 8.17870E-02
 -1      7102 8.21895E-02
 -1      7103 8.21895E-02
 -1      7104 8.17870E-02
 -1      7105 8.17251E-02
 -1      7106 8.17042E-02
 -1      7107 8.17042E-02
 -1      7108 8.17042E-02
 -1      7109 8.17042E-02
 -1      7110 8.17251E-02
 -1      7111 8.17870E-02
 -1      7112 8.21895E-02
 -1      7113 8.21895E-02
 -1      7114 8.17870E-02
 -1      7115 8.17250E-02
 -1      7116 8.17042E-02
 -1      7117 8.17042E-02
 -1      7118 8.17042E-02
 -1      7119 8.17042E-02
 -1      7120 8.17250E-02
 -1      7121 8.17870E-02
 -1      7122 8.21895E-02
 -1      7123 8.21895E-02
 -1      7124 8.17870E-02
 -1      7125 8.17250E-02
 -1      7126 8.17042E-02
 -1      7127 8.17042E-02
 -1      7128 8.17042E-02
 -1      7129 8.17042E-02
 -1      7130 8.17250E-02
 -1      7131 8.17870E-02
 -1      7132 8.21895E-02
 -1      7133 8.21895E-02
 -1      7134 8.17870E-02
 -1      7135 8.17250E-02
 -1      7136 8.17042E-02
 -1      7137 8.17042E-02
 -1      7138 8.17042E-02
 -1      7139 8.17042E-02
 -1      7140 8.17250E-02
 -1      7141 8.17870E-02
 -1      7142 8.21895E-02
 -1      7143 8.21895E-02
 -1      7144 8.17870E-02
 -1      7145 8.17250E-02
 -1      7146 8.17042E-02
 -1      7147 8.17042E-02
 -1      7148 8.17042E-02
 -1      7149 8.17042E-02
 -1      7150 8.17250E-02
 -1      7151 8.17870E-02
 -1      7152 8.21895E-02
 -1      7153 8.21895E-02
 -1      7154 8.17870E-02
 -1      7155 8.17250E-02
 -1      7156 8.17042E-02
 -1      7157 8.17042E-02
 -1      7158 8.17042E-02
 -1      7159 8.17042E-02
 -1      7160 8.17250E-02
 -1      7161 8.17870E-02
 -1      7162 8.21895E-02
 -1      7163 8.21895E-02
 -1      7164 8.17870E-02
 -1      7165 8.17250E-02
 -1      7166 8.17042E-02
 -1      7167 8.17042E-02
 -1      7168 8.17042E-02
 -1      7169 8.17042E-02
 -1      7170 8.17250E-02
 -1      7171 8.17870E-02
 -1      7172 8.21895E-02
 -1      7173 8.21894E-02
 -1      7174 8.17870E-02
 -1      7175 8.17250E-02
 -1      7176 8.17042E-02
 -1      7177 8.17042E-02
 -1      7178 8.17042E-02
 -1      7179 8.17042E-02
 -1      7180 8.17250E-02
 -1      7181 8.17870E-02
 -1      7182 8.21894E-02
 -1      7183 8.21894E-02
 -1      7184 8.17870E-02
 -1      7185 8.17250E-02
 -1      7186 8.17042E-02
 -1      7187 8.17042E-02
 -1      7188 8.17042E-02
 -1      7189 8.17042E-02
 -1      7190 8.17250E-02
 -1      7191 8.17870E-02
 -1      7192 8.21894E-02
 -1      7193 8.21894E-02
 -1      7194 8.17870E-02
 -1      7195 8.17250E-02
 -1      7196 8.17042E-02
 -1      7197 8.17042E-02
 -1      7198 8.17042E-02
 -1      7199 8.17042E-02
 -1      7200 8.17250E-02
 -1      7201 8.17870E-02
 -1      7202 8.21894E-02
 -1      7203 8.21894E-02
 -1      7204 8.17870E-02
 -1      7205 8.17250E-02
 -1      7206 8.17042E-02
 -1      7207 8.17042E-02
 -1      7208 8.17042E-02
 -1      7209 8.17042E-02
 -1      7210 8.17250E-02
 -1      7211 8.17870E-02
 -1      7212 8.21894E-02
 -1      7213 8.21894E-02
 -1      7214 8.17870E-02
 -1      7215 8.17250E-02
 -1      7216 8.17042E-02
 -1      7217 8.17042E-02
 -1      7218 8.17042E-02
 -1      7219 8.17042E-02
 -1      7220 8.17250E-02
 -1      7221 8.17870E-02
 -1      7222 8.21894E-02
 -1      7223 8.21894E-02
 -1      7224 8.17870E-02
 -1      7225 8.17250E-02
 -1      7226 8.17042E-02
 -1      7227 8.17042E-02
 -1      7228 8.17042E-02
 -1      7229 8.17042E-02
 -1      7230 8.17250E-02
 -1      7231 8.17870E-02
 -1      7232 8.21894E-02
 -1      7233 8.17748E-02
 -1      7234 8.13876E-02
 -1      7235 8.13015E-02
 -1      7236 8.13015E-02
 -1      7237 8.12945E-02
 -1      7238 8.12945E-02
 -1      7239 8.13015E-02
 -1      7240 8.13015E-02
 -1      7241 8.13876E-02
 -1      7242 8.17748E-02
 -1      7243 8.17748E-02
 -1      7244 8.13876E-02
 -1      7245 8.13015E-02
 -1      7246 8.13015E-02
 -1      7247 8.12945E-02
 -1      7248 8.12945E-02
 -1      7249 8.13015E-02
 -1      7250 8.13015E-02
 -1      7251 8.13876E-02
 -1      7252 8.17748E-02
 -1      7253 8.17748E-02
 -1      7254 8.13876E-02
 -1      7255 8.13015E-02
 -1      7256 8.13015E-02
 -1      7257 8.12945E-02
 -1      7258 8.12945E-02
 -1      7259 8.13015E-02
 -1      7260 8.13015E-02
 -1      7261 8.13876E-02
 -1      7262 8.17748E-02
 -1      7263 8.17748E-02
 -1      7264 8.13876E-02
 -1      7265 8.13015E-02
 -1      7266 8.13015E-02
 -1      7267 8.12945E-02
 -1      7268 8.12945E-02
 -1      7269 8.13015E-02
 -1      7270 8.13015E-02
 -1      7271 8.13876E-02
 -1      7272 8.17748E-02
 -1      7273 8.17748E-02
 -1      7274 8.13876E-02
 -1      7275 8.13015E-02
 -1      7276 8.13015E-02
 -1      7277 8.12945E-02
 -1      7278 8.12945E-02
 -1      7279 8.13015E-02
 -1      7280 8.13015E-02
 -1      7281 8.13876E-02
 -1      7282 8.17748E-02
 -1      7283 8.17748E-02
 -1      7284 8.13876E-02
 -1      7285 8.13015E-02
 -1      7286 8.13015E-02
 -1      7287 8.12945E-02
 -1      7288 8.12945E-02
 -1      7289 8.13015E-02
 -1      7290 8.13015E-02
 -1      7291 8.13876E-02
 -1      7292 8.17748E-02
 -1      7293 8.17748E-02
 -1      7294 8.13876E-02
 -1      7295 8.13016E-02
 -1      7296 8.13016E-02
 -1      7297 8.12945E-02
 -1      7298 8.12945E-02
 -1      7299 8.13016E-02
 -1      7300 8.13016E-02
 -1      7301 8.13876E-02
 -1      7302 8.17748E-02
 -1      7303 8.17748E-02
 -1      7304 8.13876E-02
 -1      7305 8.13016E-02
 -1      7306 8.13016E-02
 -1      7307 8.12945E-02
 -1      7308 8.12945E-02
 -1      7309 8.13016E-02
 -1      7310 8.13016E-02
 -1      7311 8.13876E-02
 -1      7312 8.17748E-02
 -1      7313 8.17748E-02
 -1      7314 8.13876E-02
 -1      7315 8.13016E-02
 -1      7316 8.13016E-02
 -1      7317 8.12945E-02
 -1      7318 8.12945E-02
 -1      7319 8.13016E-02
 -1      7320 8.13016E-02
 -1      7321 8.13876E-02
 -1      7322 8.17748E-02
 -1      7323 8.17748E-02
 -1      7324 8.13876E-02
 -1      7325 8.13016E-02
 -1      7326 8.13016E-02
 -1      7327 8.12945E-02
 -1      7328 8.12945E-02
 -1      7329 8.13016E-02
 -1      7330 8.13016E-02
 -1      7331 8.13876E-02
 -1      7332 8.17748E-02
 -1      7333 8.17748E-02
 -1      7334 8.13876E-02
 -1      7335 8.13016E-02
 -1      7336 8.13016E-02
 -1      7337 8.12945E-02
 -1      7338 8.12945E-02
 -1      7339 8.13016E-02
 -1      7340 8.13016E-02
 -1      7341 8.13876E-02
 -1      7342 8.17748E-02
 -1      7343 8.17748E-02
 -1      7344 8.13876E-02
 -1      7345 8.13016E-02
 -1      7346 8.13016E-02
 -1      7347 8.12945E-02
 -1      7348 8.12945E-02
 -1      7349 8.13016E-02
 -1      7350 8.13016E-02
 -1      7351 8.13876E-02
 -1      7352 8.17748E-02
 -1      7353 8.17748E-02
 -1      7354 8.13876E-02
 -1      7355 8.13016E-02
 -1      7356 8.13016E-02
 -1      7357 8.12945E-02
 -1      7358 8.12945E-02
 -1      7359 8.13016E-02
 -1      7360 8.13016E-02
 -1      7361 8.13876E-02
 -1      7362 8.17748E-02
 -1      7363 8.17748E-02
 -1      7364 8.13876E-02
 -1      7365 8.13016E-02
 -1      7366 8.13016E-02
 -1      7367 8.12945E-02
 -1      7368 8.12945E-02
 -1      7369 8.13016E-02
 -1      7370 8.13016E-02
 -1      7371 8.13876E-02
 -1      7372 8.17748E-02
 -1      7373 8.17748E-02
 -1      7374 8.13876E-02
 -1      7375 8.13016E-02
 -1      7376 8.13016E-02
 -1      7377 8.12945E-02
 -1      7378 8.12945E-02
 -1      7379 8.13016E-02
 -1      7380 8.13016E-02
 -1      7381 8.13876E-02
 -1      7382 8.17748E-02
 -1      7383 8.17748E-02
 -1      7384 8.13876E-02
 -1      7385 8.13016E-02
 -1      7386 8.13016E-02
 -1      7387 8.12945E-02
 -1      7388 8.12945E-02
 -1      7389 8.13016E-02
 -1      7390 8.13016E-02
 -1      7391 8.13876E-02
 -1      7392 8.17748E-02
 -1      7393 8.17748E-02
 -1      7394 8.13876E-02
 -1      7395 8.13016E-02
 -1      7396 8.13016E-02
 -1      7397 8.12945E-02
 -1      7398 8.12945E-02
 -1      7399 8.13016E-02
 -1      7400 8.13016E-02
 -1      7401 8.13876E-02
 -1      7402 8.17748E-02
 -1      7403 8.17748E-02
 -1      7404 8.13876E-02
 -1      7405 8.13016E-02
 -1      7406 8.13016E-02
 -1      7407 8.12945E-02
 -1      7408 8.12945E-02
 -1      7409 8.13016E-02
 -1      7410 8.13016E-02
 -1      7411 8.13876E-02
 -1      7412 8.17748E-02
 -1      7413 8.17748E-02
 -1      7414 8.13876E-02
 -1      7415 8.13016E-02
 -1      7416 8.13016E-02
 -1      7417 8.12945E-02
 -1      7418 8.12945E-02
 -1      7419 8.13016E-02
 -1      7420 8.13016E-02
 -1      7421 8.13876E-02
 -1      7422 8.17748E-02
 -1      7423 8.17748E-02
 -1      7424 8.13876E-02
 -1      7425 8.13016E-02
 -1      7426 8.13016E-02
 -1      7427 8.12945E-02
 -1      7428 8.12945E-02
 -1      7429 8.13016E-02
 -1      7430 8.13016E-02
 -1      7431 8.13876E-02
 -1      7432 8.17748E-02
 -1      7433 8.17748E-02
 -1      7434 8.13876E-02
 -1      7435 8.13016E-02
 -1      7436 8.13016E-02
 -1      7437 8.12945E-02
 -1      7438 8.12945E-02
 -1      7439 8.13016E-02
 -1      7440 8.13016E-02
 -1      7441 8.13876E-02
 -1      7442 8.17748E-02
 -1      7443 8.17748E-02
 -1      7444 8.13876E-02
 -1      7445 8.13016E-02
 -1      7446 8.13016E-02
 -1      7447 8.12945E-02
 -1      7448 8.12945E-02
 -1      7449 8.13016E-02
 -1      7450 8.13016E-02
 -1      7451 8.13876E-02
 -1      7452 8.17748E-02
 -1      7453 8.17748E-02
 -1      7454 8.13876E-02
 -1      7455 8.13016E-02
 -1      7456 8.13016E-02
 -1      7457 8.12945E-02
 -1      7458 8.12945E-02
 -1      7459 8.13016E-02
 -1      7460 8.13016E-02
 -1      7461 8.13876E-02
 -1      7462 8.17748E-02
 -1      7463 8.17748E-02
 -1      7464 8.13876E-02
 -1      7465 8.13016E-02
 -1      7466 8.13016E-02
 -1      7467 8.12945E-02
 -1      7468 8.12945E-02
 -1      7469 8.13016E-02
 -1      7470 8.13016E-02
 -1      7471 8.13876E-02
 -1      7472 8.17748E-02
 -1      7473 8.17748E-02
 -1      7474 8.13876E-02
 -1      7475 8.13015E-02
 -1      7476 8.13015E-02
 -1      7477 8.12945E-02
 -1      7478 8.12945E-02
 -1      7479 8.13015E-02
 -1      7480 8.13015E-02
 -1      7481 8.13876E-02
 -1      7482 8.17748E-02
 -1      7483 8.17748E-02
 -1      7484 8.13876E-02
 -1      7485 8.13015E-02
 -1      7486 8.13015E-02
 -1      7487 8.12945E-02
 -1      7488 8.12945E-02
 -1      7489 8.13015E-02
 -1      7490 8.13015E-02
 -1      7491 8.13876E-02
 -1      7492 8.17748E-02
 -1      7493 8.17748E-02
 -1      7494 8.13876E-02
 -1      7495 8.13015E-02
 -1      7496 8.13015E-02
 -1      7497 8.12945E-02
 -1      7498 8.12945E-02
 -1      7499 8.13015E-02
 -1      7500 8.13015E-02
 -1      7501 8.13876E-02
 -1      7502 8.17748E-02
 -1      7503 8.17748E-02
 -1      7504 8.13876E-02
 -1      7505 8.13015E-02
 -1      7506 8.13015E-02
 -1      7507 8.12945E-02
 -1      7508 8.12945E-02
 -1      7509 8.13015E-02
 -1      7510 8.13015E-02
 -1      7511 8.13876E-02
 -1      7512 8.17748E-02
 -1      7513 8.17748E-02
 -1      7514 8.13876E-02
 -1      7515 8.13015E-02
 -1      7516 8.13015E-02
 -1      7517 8.12945E-02
 -1      7518 8.12945E-02
 -1      7519 8.13015E-02
 -1      7520 8.13015E-02
 -1      7521 8.13876E-02
 -1      7522 8.17748E-02
 -1      7523 8.11785E-02
 -1      7524 8.09389E-02
 -1      7525 8.09372E-02
 -1      7526 8.08912E-02
 -1      7527 8.08912E-02
 -1      7528 8.08912E-02
 -1      7529 8.08912E-02
 -1      7530 8.09372E-02
 -1      7531 8.09389E-02
 -1      7532 8.11785E-02
 -1      7533 8.11785E-02
 -1      7534 8.09389E-02
 -1      7535 8.09372E-02
 -1      7536 8.08912E-02
 -1      7537 8.08912E-02
 -1      7538 8.08912E-02
 -1      7539 8.08912E-02
 -1      7540 8.09372E-02
 -1      7541 8.09389E-02
 -1      7542 8.11785E-02
 -1      7543 8.11785E-02
 -1      7544 8.09389E-02
 -1      7545 8.09372E-02
 -1      7546 8.08912E-02
 -1      7547 8.08912E-02
 -1      7548 8.08912E-02
 -1      7549 8.08912E-02
 -1      7550 8.09372E-02
 -1      7551 8.09389E-02
 -1      7552 8.11785E-02
 -1      7553 8.11785E-02
 -1      7554 8.09389E-02
 -1      7555 8.09372E-02
 -1      7556 8.08912E-02
 -1      7557 8.08912E-02
 -1      7558 8.08912E-02
 -1      7559 8.08912E-02
 -1      7560 8.09372E-02
 -1      7561 8.09389E-02
 -1      7562 8.11785E-02
 -1      7563 8.11785E-02
 -1      7564 8.09389E-02
 -1      7565 8.09372E-02
 -1      7566 8.08912E-02
 -1      7567 8.08912E-02
 -1      7568 8.08912E-02
 -1      7569 8.08912E-02
 -1      7570 8.09372E-02
 -1      7571 8.09389E-02
 -1      7572 8.11785E-02
 -1      7573 8.11786E-02
 -1      7574 8.09389E-02
 -1      7575 8.09372E-02
 -1      7576 8.08912E-02
 -1      7577 8.08912E-02
 -1      7578 8.08912E-02
 -1      7579 8.08912E-02
 -1      7580 8.09372E-02
 -1      7581 8.09389E-02
 -1      7582 8.11786E-02
 -1      7583 8.11786E-02
 -1      7584 8.09389E-02
 -1      7585 8.09372E-02
 -1      7586 8.08912E-02
 -1      7587 8.08912E-02
 -1      7588 8.08912E-02
 -1      7589 8.08912E-02
 -1      7590 8.09372E-02
 -1      7591 8.09389E-02
 -1      7592 8.11786E-02
 -1      7593 8.11786E-02
 -1      7594 8.09389E-02
 -1      7595 8.09372E-02
 -1      7596 8.08912E-02
 -1      7597 8.08912E-02
 -1      7598 8.08912E-02
 -1      7599 8.08912E-02
 -1      7600 8.09372E-02
 -1      7601 8.09389E-02
 -1      7602 8.11786E-02
 -1      7603 8.11786E-02
 -1      7604 8.09389E-02
 -1      7605 8.09372E-02
 -1      7606 8.08912E-02
 -1      7607 8.08912E-02
 -1      7608 8.08912E-02
 -1      7609 8.08912E-02
 -1      7610 8.09372E-02
 -1      7611 8.09389E-02
 -1      7612 8.11786E-02
 -1      7613 8.11786E-02
 -1      7614 8.09389E-02
 -1      7615 8.09372E-02
 -1      7616 8.08912E-02
 -1      7617 8.08912E-02
 -1      7618 8.08912E-02
 -1      7619 8.08912E-02
 -1      7620 8.09372E-02
 -1      7621 8.09389E-02
 -1      7622 8.11786E-02
 -1      7623 8.11786E-02
 -1      7624 8.09389E-02
 -1      7625 8.09372E-02
 -1      7626 8.08912E-02
 -1      7627 8.08912E-02
 -1      7628 8.08912E-02
 -1      7629 8.08912E-02
 -1      7630 8.09372E-02
 -1      7631 8.09389E-02
 -1      7632 8.11786E-02
 -1      7633 8.11786E-02
 -1      7634 8.09389E-02
 -1      7635 8.09372E-02
 -1      7636 8.08912E-02
 -1      7637 8.08912E-02
 -1      7638 8.08912E-02
 -1      7639 8.08912E-02
 -1      7640 8.09372E-02
 -1      7641 8.09389E-02
 -1      7642 8.11786E-02
 -1      7643 8.11786E-02
 -1      7644 8.09389E-02
 -1      7645 8.09372E-02
 -1      7646 8.08912E-02
 -1      7647 8.08912E-02
 -1      7648 8.08912E-02
 -1      7649 8.08912E-02
 -1      7650 8.09372E-02
 -1      7651 8.09389E-02
 -1      7652 8.11786E-02
 -1      7653 8.11786E-02
 -1      7654 8.09389E-02
 -1      7655 8.09372E-02
 -1      7656 8.08912E-02
 -1      7657 8.08912E-02
 -1      7658 8.08912E-02
 -1      7659 8.08912E-02
 -1      7660 8.09372E-02
 -1      7661 8.09389E-02
 -1      7662 8.11786E-02
 -1      7663 8.11786E-02
 -1      7664 8.09389E-02
 -1      7665 8.09372E-02
 -1      7666 8.08912E-02
 -1      7667 8.08912E-02
 -1      7668 8.08912E-02
 -1      7669 8.08912E-02
 -1      7670 8.09372E-02
 -1      7671 8.09389E-02
 -1      7672 8.11786E-02
 -1      7673 8.11786E-02
 -1      7674 8.09389E-02
 -1      7675 8.09372E-02
 -1      7676 8.08912E-02
 -1      7677 8.08912E-02
 -1      7678 8.08912E-02
 -1      7679 8.08912E-02
 -1      7680 8.09372E-02
 -1      7681 8.09389E-02
 -1      7682 8.11786E-02
 -1      7683 8.11786E-02
 -1      7684 8.09389E-02
 -1      7685 8.09372E-02
 -1      7686 8.08912E-02
 -1      7687 8.08912E-02
 -1      7688 8.08912E-02
 -1      7689 8.08912E-02
 -1      7690 8.09372E-02
 -1      7691 8.09389E-02
 -1      7692 8.11786E-02
 -1      7693 8.11786E-02
 -1      7694 8.09389E-02
 -1      7695 8.09372E-02
 -1      7696 8.08912E-02
 -1      7697 8.08912E-02
 -1      7698 8.08912E-02
 -1      7699 8.08912E-02
 -1      7700 8.09372E-02
 -1      7701 8.09389E-02
 -1      7702 8.11786E-02
 -1      7703 8.11786E-02
 -1      7704 8.09389E-02
 -1      7705 8.09372E-02
 -1      7706 8.08912E-02
 -1      7707 8.08912E-02
 -1      7708 8.08912E-02
 -1      7709 8.08912E-02
 -1      7710 8.09372E-02
 -1      7711 8.09389E-02
 -1      7712 8.11786E-02
 -1      7713 8.11786E-02
 -1      7714 8.09389E-02
 -1      7715 8.09372E-02
 -1      7716 8.08912E-02
 -1      7717 8.08912E-02
 -1      7718 8.08912E-02
 -1      7719 8.08912E-02
 -1      7720 8.09372E-02
 -1      7721 8.09389E-02
 -1      7722 8.11786E-02
 -1      7723 8.11786E-02
 -1      7724 8.09389E-02
 -1      7725 8.09372E-02
 -1      7726 8.08912E-02
 -1      7727 8.08912E-02
 -1      7728 8.08912E-02
 -1      7729 8.08912E-02
 -1      7730 8.09372E-02
 -1      7731 8.09389E-02
 -1      7732 8.11786E-02
 -1      7733 8.11786E-02
 -1      7734 8.09389E-02
 -1      7735 8.09372E-02
 -1      7736 8.08912E-02
 -1      7737 8.08912E-02
 -1      7738 8.08912E-02
 -1      7739 8.08912E-02
 -1      7740 8.09372E-02
 -1      7741 8.09389E-02
 -1      7742 8.11786E-02
 -1      7743 8.11786E-02
 -1      7744 8.09389E-02
 -1      7745 8.09372E-02
 -1      7746 8.08912E-02
 -1      7747 8.08912E-02
 -1      7748 8.08912E-02
 -1      7749 8.08912E-02
 -1      7750 8.09372E-02
 -1      7751 8.09389E-02
 -1      7752 8.11786E-02
 -1      7753 8.11786E-02
 -1      7754 8.09389E-02
 -1      7755 8.09372E-02
 -1      7756 8.08912E-02
 -1      7757 8.08912E-02
 -1      7758 8.08912E-02
 -1      7759 8.08912E-02
 -1      7760 8.09372E-02
 -1      7761 8.09389E-02
 -1      7762 8.11786E-02
 -1      7763 8.11786E-02
 -1      7764 8.09389E-02
 -1      7765 8.09372E-02
 -1      7766 8.08912E-02
 -1      7767 8.08912E-02
 -1      7768 8.08912E-02
 -1      7769 8.08912E-02
 -1      7770 8.09372E-02
 -1      7771 8.09389E-02
 -1      7772 8.11786E-02
 -1      7773 8.11785E-02
 -1      7774 8.09389E-02
 -1      7775 8.09372E-02
 -1      7776 8.08912E-02
 -1      7777 8.08912E-02
 -1      7778 8.08912E-02
 -1      7779 8.08912E-02
 -1      7780 8.09372E-02
 -1      7781 8.09389E-02
 -1      7782 8.11785E-02
 -1      7783 8.11785E-02
 -1      7784 8.09389E-02
 -1      7785 8.09372E-02
 -1      7786 8.08912E-02
 -1      7787 8.08912E-02
 -1      7788 8.08912E-02
 -1      7789 8.08912E-02
 -1      7790 8.09372E-02
 -1      7791 8.09389E-02
 -1      7792 8.11785E-02
 -1      7793 8.11785E-02
 -1      7794 8.09389E-02
 -1      7795 8.09372E-02
 -1      7796 8.08912E-02
 -1      7797 8.08912E-02
 -1      7798 8.08912E-02
 -1      7799 8.08912E-02
 -1      7800 8.09372E-02
 -1      7801 8.09389E-02
 -1      7802 8.11785E-02
 -1      7803 8.11785E-02
 -1      7804 8.09389E-02
 -1      7805 8.09372E-02
 -1      7806 8.08912E-02
 -1      7807 8.08912E-02
 -1      7808 8.08912E-02
 -1      7809 8.08912E-02
 -1      7810 8.09372E-02
 -1      7811 8.09389E-02
 -1      7812 8.11785E-02
 -3
 9999
